    1C
    1UUSER                                                              
    1UDATE              26.october.2022                                 
    1UTIME              23:36:30                                        
    1UHOST                                                              
    1UPGM               CalculiX                                        
    1UVERSION           Version 2.17                             
    1UCOMPILETIME       Thu Jul 23 21:43:50 CEST 2020                    
    1UDIR                                                               
    1UDBN                                                               
    1UMAT    1SOLIDMATERIAL                                             
    2C                          4284                                     1
 -1         1 2.55553E+01 3.04062E+01 0.00000E+00
 -1         2 3.25553E+01 2.34062E+01 0.00000E+00
 -1         3 1.50000E+02 0.00000E+00 0.00000E+00
 -1         4 1.50000E+02 5.00000E+01 0.00000E+00
 -1         5 0.00000E+00 0.00000E+00 0.00000E+00
 -1         6 0.00000E+00 5.00000E+01 0.00000E+00
 -1         7 0.00000E+00 4.70500E+01 0.00000E+00
 -1         8 0.00000E+00 4.41000E+01 0.00000E+00
 -1         9 0.00000E+00 4.11500E+01 0.00000E+00
 -1        10 0.00000E+00 3.82000E+01 0.00000E+00
 -1        11 0.00000E+00 3.52500E+01 0.00000E+00
 -1        12 0.00000E+00 3.23500E+01 0.00000E+00
 -1        13 0.00000E+00 2.94000E+01 0.00000E+00
 -1        14 0.00000E+00 2.64500E+01 0.00000E+00
 -1        15 0.00000E+00 2.35000E+01 0.00000E+00
 -1        16 0.00000E+00 2.05500E+01 0.00000E+00
 -1        17 0.00000E+00 1.76000E+01 0.00000E+00
 -1        18 0.00000E+00 1.47000E+01 0.00000E+00
 -1        19 0.00000E+00 1.17500E+01 0.00000E+00
 -1        20 0.00000E+00 8.80000E+00 0.00000E+00
 -1        21 0.00000E+00 5.85000E+00 0.00000E+00
 -1        22 0.00000E+00 2.90000E+00 0.00000E+00
 -1        23 3.15000E+00 5.00000E+01 0.00000E+00
 -1        24 6.15000E+00 5.00000E+01 0.00000E+00
 -1        25 9.15000E+00 5.00000E+01 0.00000E+00
 -1        26 1.21500E+01 5.00000E+01 0.00000E+00
 -1        27 1.51500E+01 5.00000E+01 0.00000E+00
 -1        28 1.81500E+01 5.00000E+01 0.00000E+00
 -1        29 2.11500E+01 5.00000E+01 0.00000E+00
 -1        30 2.41500E+01 5.00000E+01 0.00000E+00
 -1        31 2.71500E+01 5.00000E+01 0.00000E+00
 -1        32 3.01500E+01 5.00000E+01 0.00000E+00
 -1        33 3.31500E+01 5.00000E+01 0.00000E+00
 -1        34 3.61500E+01 5.00000E+01 0.00000E+00
 -1        35 3.91500E+01 5.00000E+01 0.00000E+00
 -1        36 4.21500E+01 5.00000E+01 0.00000E+00
 -1        37 4.51500E+01 5.00000E+01 0.00000E+00
 -1        38 4.81500E+01 5.00000E+01 0.00000E+00
 -1        39 5.11500E+01 5.00000E+01 0.00000E+00
 -1        40 5.41500E+01 5.00000E+01 0.00000E+00
 -1        41 5.71500E+01 5.00000E+01 0.00000E+00
 -1        42 6.01500E+01 5.00000E+01 0.00000E+00
 -1        43 6.31500E+01 5.00000E+01 0.00000E+00
 -1        44 6.61500E+01 5.00000E+01 0.00000E+00
 -1        45 6.91500E+01 5.00000E+01 0.00000E+00
 -1        46 7.21500E+01 5.00000E+01 0.00000E+00
 -1        47 7.51500E+01 5.00000E+01 0.00000E+00
 -1        48 7.81500E+01 5.00000E+01 0.00000E+00
 -1        49 8.11500E+01 5.00000E+01 0.00000E+00
 -1        50 8.41500E+01 5.00000E+01 0.00000E+00
 -1        51 8.71500E+01 5.00000E+01 0.00000E+00
 -1        52 9.01500E+01 5.00000E+01 0.00000E+00
 -1        53 9.31500E+01 5.00000E+01 0.00000E+00
 -1        54 9.61500E+01 5.00000E+01 0.00000E+00
 -1        55 9.91500E+01 5.00000E+01 0.00000E+00
 -1        56 1.02150E+02 5.00000E+01 0.00000E+00
 -1        57 1.05150E+02 5.00000E+01 0.00000E+00
 -1        58 1.08150E+02 5.00000E+01 0.00000E+00
 -1        59 1.11150E+02 5.00000E+01 0.00000E+00
 -1        60 1.14150E+02 5.00000E+01 0.00000E+00
 -1        61 1.17150E+02 5.00000E+01 0.00000E+00
 -1        62 1.20150E+02 5.00000E+01 0.00000E+00
 -1        63 1.23150E+02 5.00000E+01 0.00000E+00
 -1        64 1.26150E+02 5.00000E+01 0.00000E+00
 -1        65 1.29150E+02 5.00000E+01 0.00000E+00
 -1        66 1.32150E+02 5.00000E+01 0.00000E+00
 -1        67 1.35150E+02 5.00000E+01 0.00000E+00
 -1        68 1.38150E+02 5.00000E+01 0.00000E+00
 -1        69 1.41150E+02 5.00000E+01 0.00000E+00
 -1        70 1.44150E+02 5.00000E+01 0.00000E+00
 -1        71 1.47150E+02 5.00000E+01 0.00000E+00
 -1        72 3.15000E+00 0.00000E+00 0.00000E+00
 -1        73 6.15000E+00 0.00000E+00 0.00000E+00
 -1        74 9.15000E+00 0.00000E+00 0.00000E+00
 -1        75 1.21500E+01 0.00000E+00 0.00000E+00
 -1        76 1.51500E+01 0.00000E+00 0.00000E+00
 -1        77 1.81500E+01 0.00000E+00 0.00000E+00
 -1        78 2.11500E+01 0.00000E+00 0.00000E+00
 -1        79 2.41500E+01 0.00000E+00 0.00000E+00
 -1        80 2.71500E+01 0.00000E+00 0.00000E+00
 -1        81 3.01500E+01 0.00000E+00 0.00000E+00
 -1        82 3.31500E+01 0.00000E+00 0.00000E+00
 -1        83 3.61500E+01 0.00000E+00 0.00000E+00
 -1        84 3.91500E+01 0.00000E+00 0.00000E+00
 -1        85 4.21500E+01 0.00000E+00 0.00000E+00
 -1        86 4.51500E+01 0.00000E+00 0.00000E+00
 -1        87 4.81500E+01 0.00000E+00 0.00000E+00
 -1        88 5.11500E+01 0.00000E+00 0.00000E+00
 -1        89 5.41500E+01 0.00000E+00 0.00000E+00
 -1        90 5.71500E+01 0.00000E+00 0.00000E+00
 -1        91 6.01500E+01 0.00000E+00 0.00000E+00
 -1        92 6.31500E+01 0.00000E+00 0.00000E+00
 -1        93 6.61500E+01 0.00000E+00 0.00000E+00
 -1        94 6.91500E+01 0.00000E+00 0.00000E+00
 -1        95 7.21500E+01 0.00000E+00 0.00000E+00
 -1        96 7.51500E+01 0.00000E+00 0.00000E+00
 -1        97 7.81500E+01 0.00000E+00 0.00000E+00
 -1        98 8.11500E+01 0.00000E+00 0.00000E+00
 -1        99 8.41500E+01 0.00000E+00 0.00000E+00
 -1       100 8.71500E+01 0.00000E+00 0.00000E+00
 -1       101 9.01500E+01 0.00000E+00 0.00000E+00
 -1       102 9.31500E+01 0.00000E+00 0.00000E+00
 -1       103 9.61500E+01 0.00000E+00 0.00000E+00
 -1       104 9.91500E+01 0.00000E+00 0.00000E+00
 -1       105 1.02150E+02 0.00000E+00 0.00000E+00
 -1       106 1.05150E+02 0.00000E+00 0.00000E+00
 -1       107 1.08150E+02 0.00000E+00 0.00000E+00
 -1       108 1.11150E+02 0.00000E+00 0.00000E+00
 -1       109 1.14150E+02 0.00000E+00 0.00000E+00
 -1       110 1.17150E+02 0.00000E+00 0.00000E+00
 -1       111 1.20150E+02 0.00000E+00 0.00000E+00
 -1       112 1.23150E+02 0.00000E+00 0.00000E+00
 -1       113 1.26150E+02 0.00000E+00 0.00000E+00
 -1       114 1.29150E+02 0.00000E+00 0.00000E+00
 -1       115 1.32150E+02 0.00000E+00 0.00000E+00
 -1       116 1.35150E+02 0.00000E+00 0.00000E+00
 -1       117 1.38150E+02 0.00000E+00 0.00000E+00
 -1       118 1.41150E+02 0.00000E+00 0.00000E+00
 -1       119 1.44150E+02 0.00000E+00 0.00000E+00
 -1       120 1.47150E+02 0.00000E+00 0.00000E+00
 -1       121 1.50000E+02 2.95000E+00 0.00000E+00
 -1       122 1.50000E+02 5.90000E+00 0.00000E+00
 -1       123 1.50000E+02 8.85000E+00 0.00000E+00
 -1       124 1.50000E+02 1.18000E+01 0.00000E+00
 -1       125 1.50000E+02 1.47500E+01 0.00000E+00
 -1       126 1.50000E+02 1.76500E+01 0.00000E+00
 -1       127 1.50000E+02 2.06000E+01 0.00000E+00
 -1       128 1.50000E+02 2.35500E+01 0.00000E+00
 -1       129 1.50000E+02 2.65000E+01 0.00000E+00
 -1       130 1.50000E+02 2.94500E+01 0.00000E+00
 -1       131 1.50000E+02 3.24000E+01 0.00000E+00
 -1       132 1.50000E+02 3.53000E+01 0.00000E+00
 -1       133 1.50000E+02 3.82500E+01 0.00000E+00
 -1       134 1.50000E+02 4.12000E+01 0.00000E+00
 -1       135 1.50000E+02 4.41500E+01 0.00000E+00
 -1       136 1.50000E+02 4.71000E+01 0.00000E+00
 -1       137 3.23802E+01 2.18505E+01 0.00000E+00
 -1       138 3.19351E+01 2.05255E+01 0.00000E+00
 -1       139 3.12009E+01 1.92677E+01 0.00000E+00
 -1       140 3.01026E+01 1.80843E+01 0.00000E+00
 -1       141 2.89620E+01 1.72910E+01 0.00000E+00
 -1       142 2.76665E+01 1.67321E+01 0.00000E+00
 -1       143 2.61307E+01 1.64298E+01 0.00000E+00
 -1       144 2.46172E+01 1.64693E+01 0.00000E+00
 -1       145 2.31849E+01 1.68197E+01 0.00000E+00
 -1       146 2.17466E+01 1.75330E+01 0.00000E+00
 -1       147 2.05902E+01 1.84718E+01 0.00000E+00
 -1       148 1.96777E+01 1.96043E+01 0.00000E+00
 -1       149 1.90145E+01 2.09125E+01 0.00000E+00
 -1       150 1.86292E+01 2.23915E+01 0.00000E+00
 -1       151 1.85766E+01 2.39520E+01 0.00000E+00
 -1       152 1.88333E+01 2.53594E+01 0.00000E+00
 -1       153 1.94635E+01 2.68543E+01 0.00000E+00
 -1       154 2.02907E+01 2.80196E+01 0.00000E+00
 -1       155 2.13051E+01 2.89682E+01 0.00000E+00
 -1       156 2.25467E+01 2.97266E+01 0.00000E+00
 -1       157 2.40948E+01 3.02521E+01 0.00000E+00
 -1       158 2.69250E+01 3.02709E+01 0.00000E+00
 -1       159 2.83141E+01 2.98396E+01 0.00000E+00
 -1       160 2.95032E+01 2.91867E+01 0.00000E+00
 -1       161 3.05381E+01 2.83226E+01 0.00000E+00
 -1       162 3.13953E+01 2.72654E+01 0.00000E+00
 -1       163 3.20286E+01 2.60701E+01 0.00000E+00
 -1       164 3.24220E+01 2.47656E+01 0.00000E+00
 -1       165 2.59800E+00 4.55750E+01 0.00000E+00
 -1       166 2.59800E+00 4.26250E+01 0.00000E+00
 -1       167 2.59800E+00 3.96750E+01 0.00000E+00
 -1       168 2.59800E+00 3.67250E+01 0.00000E+00
 -1       169 2.59800E+00 3.38250E+01 0.00000E+00
 -1       170 2.59800E+00 3.08750E+01 0.00000E+00
 -1       171 2.59800E+00 2.79250E+01 0.00000E+00
 -1       172 2.59800E+00 2.49750E+01 0.00000E+00
 -1       173 2.59800E+00 2.20250E+01 0.00000E+00
 -1       174 2.59800E+00 1.90750E+01 0.00000E+00
 -1       175 2.59800E+00 1.61750E+01 0.00000E+00
 -1       176 2.59800E+00 1.32250E+01 0.00000E+00
 -1       177 2.59800E+00 1.02750E+01 0.00000E+00
 -1       178 2.59800E+00 7.32500E+00 0.00000E+00
 -1       179 2.59800E+00 4.37500E+00 0.00000E+00
 -1       180 2.87400E+00 2.18750E+00 0.00000E+00
 -1       181 4.65000E+00 4.74020E+01 0.00000E+00
 -1       182 7.65000E+00 4.74020E+01 0.00000E+00
 -1       183 1.06500E+01 4.74020E+01 0.00000E+00
 -1       184 1.36500E+01 4.74020E+01 0.00000E+00
 -1       185 1.66500E+01 4.74020E+01 0.00000E+00
 -1       186 1.96500E+01 4.74020E+01 0.00000E+00
 -1       187 2.26500E+01 4.74020E+01 0.00000E+00
 -1       188 2.56500E+01 4.74020E+01 0.00000E+00
 -1       189 2.86500E+01 4.74020E+01 0.00000E+00
 -1       190 3.16500E+01 4.74020E+01 0.00000E+00
 -1       191 3.46500E+01 4.74020E+01 0.00000E+00
 -1       192 3.76500E+01 4.74020E+01 0.00000E+00
 -1       193 4.06500E+01 4.74020E+01 0.00000E+00
 -1       194 4.36500E+01 4.74020E+01 0.00000E+00
 -1       195 4.66500E+01 4.74020E+01 0.00000E+00
 -1       196 4.96500E+01 4.74020E+01 0.00000E+00
 -1       197 5.26500E+01 4.74020E+01 0.00000E+00
 -1       198 5.56500E+01 4.74020E+01 0.00000E+00
 -1       199 5.86500E+01 4.74020E+01 0.00000E+00
 -1       200 6.16500E+01 4.74020E+01 0.00000E+00
 -1       201 6.46500E+01 4.74020E+01 0.00000E+00
 -1       202 6.76500E+01 4.74020E+01 0.00000E+00
 -1       203 7.06500E+01 4.74020E+01 0.00000E+00
 -1       204 7.36500E+01 4.74020E+01 0.00000E+00
 -1       205 7.66500E+01 4.74020E+01 0.00000E+00
 -1       206 7.96500E+01 4.74020E+01 0.00000E+00
 -1       207 8.26500E+01 4.74020E+01 0.00000E+00
 -1       208 8.56500E+01 4.74020E+01 0.00000E+00
 -1       209 8.86500E+01 4.74020E+01 0.00000E+00
 -1       210 9.16500E+01 4.74020E+01 0.00000E+00
 -1       211 9.46500E+01 4.74020E+01 0.00000E+00
 -1       212 9.76500E+01 4.74020E+01 0.00000E+00
 -1       213 1.00650E+02 4.74020E+01 0.00000E+00
 -1       214 1.03650E+02 4.74020E+01 0.00000E+00
 -1       215 1.06650E+02 4.74020E+01 0.00000E+00
 -1       216 1.09650E+02 4.74020E+01 0.00000E+00
 -1       217 1.12650E+02 4.74020E+01 0.00000E+00
 -1       218 1.15650E+02 4.74020E+01 0.00000E+00
 -1       219 1.18650E+02 4.74020E+01 0.00000E+00
 -1       220 1.21650E+02 4.74020E+01 0.00000E+00
 -1       221 1.24650E+02 4.74020E+01 0.00000E+00
 -1       222 1.27650E+02 4.74020E+01 0.00000E+00
 -1       223 1.30650E+02 4.74020E+01 0.00000E+00
 -1       224 1.33650E+02 4.74020E+01 0.00000E+00
 -1       225 1.36650E+02 4.74020E+01 0.00000E+00
 -1       226 1.39650E+02 4.74020E+01 0.00000E+00
 -1       227 1.42650E+02 4.74020E+01 0.00000E+00
 -1       228 1.45650E+02 4.74020E+01 0.00000E+00
 -1       229 5.87400E+00 2.18750E+00 0.00000E+00
 -1       230 8.87400E+00 2.18750E+00 0.00000E+00
 -1       231 1.18740E+01 2.18750E+00 0.00000E+00
 -1       232 1.48740E+01 2.18750E+00 0.00000E+00
 -1       233 1.78740E+01 2.18750E+00 0.00000E+00
 -1       234 2.08740E+01 2.18750E+00 0.00000E+00
 -1       235 2.38740E+01 2.18750E+00 0.00000E+00
 -1       236 2.68740E+01 2.18750E+00 0.00000E+00
 -1       237 2.98740E+01 2.18750E+00 0.00000E+00
 -1       238 3.28740E+01 2.18750E+00 0.00000E+00
 -1       239 3.58740E+01 2.18750E+00 0.00000E+00
 -1       240 3.88740E+01 2.18750E+00 0.00000E+00
 -1       241 4.18740E+01 2.18750E+00 0.00000E+00
 -1       242 4.48740E+01 2.18750E+00 0.00000E+00
 -1       243 4.78740E+01 2.18750E+00 0.00000E+00
 -1       244 5.08740E+01 2.18750E+00 0.00000E+00
 -1       245 5.38740E+01 2.18750E+00 0.00000E+00
 -1       246 5.68740E+01 2.18750E+00 0.00000E+00
 -1       247 5.98740E+01 2.18750E+00 0.00000E+00
 -1       248 6.28740E+01 2.18750E+00 0.00000E+00
 -1       249 6.58740E+01 2.18750E+00 0.00000E+00
 -1       250 6.88740E+01 2.18750E+00 0.00000E+00
 -1       251 7.18740E+01 2.18750E+00 0.00000E+00
 -1       252 7.48740E+01 2.18750E+00 0.00000E+00
 -1       253 7.78740E+01 2.18750E+00 0.00000E+00
 -1       254 8.08740E+01 2.18750E+00 0.00000E+00
 -1       255 8.38740E+01 2.18750E+00 0.00000E+00
 -1       256 8.68740E+01 2.18750E+00 0.00000E+00
 -1       257 8.98740E+01 2.18750E+00 0.00000E+00
 -1       258 9.28740E+01 2.18750E+00 0.00000E+00
 -1       259 9.58740E+01 2.18750E+00 0.00000E+00
 -1       260 9.88740E+01 2.18750E+00 0.00000E+00
 -1       261 1.01874E+02 2.18750E+00 0.00000E+00
 -1       262 1.04874E+02 2.18750E+00 0.00000E+00
 -1       263 1.07874E+02 2.18750E+00 0.00000E+00
 -1       264 1.10874E+02 2.18750E+00 0.00000E+00
 -1       265 1.13874E+02 2.18750E+00 0.00000E+00
 -1       266 1.16874E+02 2.18750E+00 0.00000E+00
 -1       267 1.19874E+02 2.18750E+00 0.00000E+00
 -1       268 1.22874E+02 2.18750E+00 0.00000E+00
 -1       269 1.25874E+02 2.18750E+00 0.00000E+00
 -1       270 1.28874E+02 2.18750E+00 0.00000E+00
 -1       271 1.31874E+02 2.18750E+00 0.00000E+00
 -1       272 1.34874E+02 2.18750E+00 0.00000E+00
 -1       273 1.37874E+02 2.18750E+00 0.00000E+00
 -1       274 1.40874E+02 2.18750E+00 0.00000E+00
 -1       275 1.43874E+02 2.18750E+00 0.00000E+00
 -1       276 1.46874E+02 2.18750E+00 0.00000E+00
 -1       277 1.47402E+02 4.42500E+00 0.00000E+00
 -1       278 1.47402E+02 7.37500E+00 0.00000E+00
 -1       279 1.47402E+02 1.03250E+01 0.00000E+00
 -1       280 1.47402E+02 1.32750E+01 0.00000E+00
 -1       281 1.47402E+02 1.61750E+01 0.00000E+00
 -1       282 1.47402E+02 1.91250E+01 0.00000E+00
 -1       283 1.47402E+02 2.20750E+01 0.00000E+00
 -1       284 1.47402E+02 2.50250E+01 0.00000E+00
 -1       285 1.47402E+02 2.79750E+01 0.00000E+00
 -1       286 1.47402E+02 3.09250E+01 0.00000E+00
 -1       287 1.47402E+02 3.38250E+01 0.00000E+00
 -1       288 1.47402E+02 3.67750E+01 0.00000E+00
 -1       289 1.47402E+02 3.97250E+01 0.00000E+00
 -1       290 1.47402E+02 4.26750E+01 0.00000E+00
 -1       291 1.46526E+02 4.50385E+01 0.00000E+00
 -1       292 3.39223E+01 2.24646E+01 0.00000E+00
 -1       293 3.33864E+01 2.07752E+01 0.00000E+00
 -1       294 3.26875E+01 1.92432E+01 0.00000E+00
 -1       295 3.17246E+01 1.76802E+01 0.00000E+00
 -1       296 3.02245E+01 1.66923E+01 0.00000E+00
 -1       297 2.87945E+01 1.58984E+01 0.00000E+00
 -1       298 2.71651E+01 1.52270E+01 0.00000E+00
 -1       299 2.53402E+01 1.51538E+01 0.00000E+00
 -1       300 2.35930E+01 1.53855E+01 0.00000E+00
 -1       301 2.18526E+01 1.59401E+01 0.00000E+00
 -1       302 2.04043E+01 1.70611E+01 0.00000E+00
 -1       303 1.91899E+01 1.82774E+01 0.00000E+00
 -1       304 1.82648E+01 1.97102E+01 0.00000E+00
 -1       305 1.74865E+01 2.13041E+01 0.00000E+00
 -1       306 1.73912E+01 2.31309E+01 0.00000E+00
 -1       307 1.75123E+01 2.48732E+01 0.00000E+00
 -1       308 1.77224E+01 2.67079E+01 0.00000E+00
 -1       309 1.88885E+01 2.81387E+01 0.00000E+00
 -1       310 1.99698E+01 2.93795E+01 0.00000E+00
 -1       311 2.12939E+01 3.03820E+01 0.00000E+00
 -1       312 2.28503E+01 3.13755E+01 0.00000E+00
 -1       313 2.46891E+01 3.16182E+01 0.00000E+00
 -1       314 2.63593E+01 3.15450E+01 0.00000E+00
 -1       315 2.80287E+01 3.13731E+01 0.00000E+00
 -1       316 2.94922E+01 3.05759E+01 0.00000E+00
 -1       317 3.07977E+01 2.96853E+01 0.00000E+00
 -1       318 3.19085E+01 2.85576E+01 0.00000E+00
 -1       319 3.27833E+01 2.72353E+01 0.00000E+00
 -1       320 3.33861E+01 2.57679E+01 0.00000E+00
 -1       321 3.36953E+01 2.42041E+01 0.00000E+00
 -1       322 5.19600E+00 4.11500E+01 0.00000E+00
 -1       323 5.19600E+00 4.41000E+01 0.00000E+00
 -1       324 5.19600E+00 3.52750E+01 0.00000E+00
 -1       325 5.19600E+00 3.23250E+01 0.00000E+00
 -1       326 5.19600E+00 2.93750E+01 0.00000E+00
 -1       327 5.19600E+00 2.64250E+01 0.00000E+00
 -1       328 5.19600E+00 2.34750E+01 0.00000E+00
 -1       329 5.19600E+00 2.05250E+01 0.00000E+00
 -1       330 5.19600E+00 1.76250E+01 0.00000E+00
 -1       331 5.19600E+00 1.46750E+01 0.00000E+00
 -1       332 5.19600E+00 1.17250E+01 0.00000E+00
 -1       333 5.19600E+00 8.77500E+00 0.00000E+00
 -1       334 5.19600E+00 5.82500E+00 0.00000E+00
 -1       335 5.53500E+00 4.00625E+00 0.00000E+00
 -1       336 8.53500E+00 4.00625E+00 0.00000E+00
 -1       337 9.15000E+00 4.48040E+01 0.00000E+00
 -1       338 1.21500E+01 4.48040E+01 0.00000E+00
 -1       339 1.51500E+01 4.48040E+01 0.00000E+00
 -1       340 1.81500E+01 4.48040E+01 0.00000E+00
 -1       341 2.11500E+01 4.48040E+01 0.00000E+00
 -1       342 2.41500E+01 4.48040E+01 0.00000E+00
 -1       343 2.71500E+01 4.48040E+01 0.00000E+00
 -1       344 3.01500E+01 4.48040E+01 0.00000E+00
 -1       345 3.31500E+01 4.48040E+01 0.00000E+00
 -1       346 3.61500E+01 4.48040E+01 0.00000E+00
 -1       347 3.91500E+01 4.48040E+01 0.00000E+00
 -1       348 4.21500E+01 4.48040E+01 0.00000E+00
 -1       349 4.51500E+01 4.48040E+01 0.00000E+00
 -1       350 4.81500E+01 4.48040E+01 0.00000E+00
 -1       351 5.11500E+01 4.48040E+01 0.00000E+00
 -1       352 5.41500E+01 4.48040E+01 0.00000E+00
 -1       353 5.71500E+01 4.48040E+01 0.00000E+00
 -1       354 6.01500E+01 4.48040E+01 0.00000E+00
 -1       355 6.31500E+01 4.48040E+01 0.00000E+00
 -1       356 6.61500E+01 4.48040E+01 0.00000E+00
 -1       357 6.91500E+01 4.48040E+01 0.00000E+00
 -1       358 7.21500E+01 4.48040E+01 0.00000E+00
 -1       359 7.51500E+01 4.48040E+01 0.00000E+00
 -1       360 7.81500E+01 4.48040E+01 0.00000E+00
 -1       361 8.11500E+01 4.48040E+01 0.00000E+00
 -1       362 8.41500E+01 4.48040E+01 0.00000E+00
 -1       363 8.71500E+01 4.48040E+01 0.00000E+00
 -1       364 9.01500E+01 4.48040E+01 0.00000E+00
 -1       365 9.31500E+01 4.48040E+01 0.00000E+00
 -1       366 9.61500E+01 4.48040E+01 0.00000E+00
 -1       367 9.91500E+01 4.48040E+01 0.00000E+00
 -1       368 1.02150E+02 4.48040E+01 0.00000E+00
 -1       369 1.05150E+02 4.48040E+01 0.00000E+00
 -1       370 1.08150E+02 4.48040E+01 0.00000E+00
 -1       371 1.11150E+02 4.48040E+01 0.00000E+00
 -1       372 1.14150E+02 4.48040E+01 0.00000E+00
 -1       373 1.17150E+02 4.48040E+01 0.00000E+00
 -1       374 1.20150E+02 4.48040E+01 0.00000E+00
 -1       375 1.23150E+02 4.48040E+01 0.00000E+00
 -1       376 1.26150E+02 4.48040E+01 0.00000E+00
 -1       377 1.29150E+02 4.48040E+01 0.00000E+00
 -1       378 1.32150E+02 4.48040E+01 0.00000E+00
 -1       379 1.35150E+02 4.48040E+01 0.00000E+00
 -1       380 1.38150E+02 4.48040E+01 0.00000E+00
 -1       381 1.41150E+02 4.48040E+01 0.00000E+00
 -1       382 1.43838E+02 4.49212E+01 0.00000E+00
 -1       383 1.15350E+01 4.00625E+00 0.00000E+00
 -1       384 1.45350E+01 4.00625E+00 0.00000E+00
 -1       385 1.75350E+01 4.00625E+00 0.00000E+00
 -1       386 2.05350E+01 4.00625E+00 0.00000E+00
 -1       387 2.35350E+01 4.00625E+00 0.00000E+00
 -1       388 2.65350E+01 4.00625E+00 0.00000E+00
 -1       389 2.95350E+01 4.00625E+00 0.00000E+00
 -1       390 3.25350E+01 4.00625E+00 0.00000E+00
 -1       391 3.55350E+01 4.00625E+00 0.00000E+00
 -1       392 3.85350E+01 4.00625E+00 0.00000E+00
 -1       393 4.15350E+01 4.00625E+00 0.00000E+00
 -1       394 4.45350E+01 4.00625E+00 0.00000E+00
 -1       395 4.75350E+01 4.00625E+00 0.00000E+00
 -1       396 5.05350E+01 4.00625E+00 0.00000E+00
 -1       397 5.35350E+01 4.00625E+00 0.00000E+00
 -1       398 5.65350E+01 4.00625E+00 0.00000E+00
 -1       399 5.95350E+01 4.00625E+00 0.00000E+00
 -1       400 6.25350E+01 4.00625E+00 0.00000E+00
 -1       401 6.55350E+01 4.00625E+00 0.00000E+00
 -1       402 6.85350E+01 4.00625E+00 0.00000E+00
 -1       403 7.15350E+01 4.00625E+00 0.00000E+00
 -1       404 7.45350E+01 4.00625E+00 0.00000E+00
 -1       405 7.75350E+01 4.00625E+00 0.00000E+00
 -1       406 8.05350E+01 4.00625E+00 0.00000E+00
 -1       407 8.35350E+01 4.00625E+00 0.00000E+00
 -1       408 8.65350E+01 4.00625E+00 0.00000E+00
 -1       409 8.95350E+01 4.00625E+00 0.00000E+00
 -1       410 9.25350E+01 4.00625E+00 0.00000E+00
 -1       411 9.55350E+01 4.00625E+00 0.00000E+00
 -1       412 9.85350E+01 4.00625E+00 0.00000E+00
 -1       413 1.01535E+02 4.00625E+00 0.00000E+00
 -1       414 1.04535E+02 4.00625E+00 0.00000E+00
 -1       415 1.07535E+02 4.00625E+00 0.00000E+00
 -1       416 1.10535E+02 4.00625E+00 0.00000E+00
 -1       417 1.13535E+02 4.00625E+00 0.00000E+00
 -1       418 1.16535E+02 4.00625E+00 0.00000E+00
 -1       419 1.19535E+02 4.00625E+00 0.00000E+00
 -1       420 1.22535E+02 4.00625E+00 0.00000E+00
 -1       421 1.25535E+02 4.00625E+00 0.00000E+00
 -1       422 1.28535E+02 4.00625E+00 0.00000E+00
 -1       423 1.31535E+02 4.00625E+00 0.00000E+00
 -1       424 1.34535E+02 4.00625E+00 0.00000E+00
 -1       425 1.37535E+02 4.00625E+00 0.00000E+00
 -1       426 1.40535E+02 4.00625E+00 0.00000E+00
 -1       427 1.43535E+02 4.00625E+00 0.00000E+00
 -1       428 1.45469E+02 4.21562E+00 0.00000E+00
 -1       429 1.44804E+02 1.18000E+01 0.00000E+00
 -1       430 1.44804E+02 8.85000E+00 0.00000E+00
 -1       431 1.45136E+02 6.53281E+00 0.00000E+00
 -1       432 1.44804E+02 1.47000E+01 0.00000E+00
 -1       433 1.44804E+02 1.76500E+01 0.00000E+00
 -1       434 1.44804E+02 2.06000E+01 0.00000E+00
 -1       435 1.44804E+02 2.35500E+01 0.00000E+00
 -1       436 1.44804E+02 2.65000E+01 0.00000E+00
 -1       437 1.44804E+02 2.94500E+01 0.00000E+00
 -1       438 1.44804E+02 3.23500E+01 0.00000E+00
 -1       439 1.44804E+02 3.53000E+01 0.00000E+00
 -1       440 1.44804E+02 3.82500E+01 0.00000E+00
 -1       441 1.44804E+02 4.12000E+01 0.00000E+00
 -1       442 3.44449E+01 1.93669E+01 0.00000E+00
 -1       443 3.52603E+01 2.35238E+01 0.00000E+00
 -1       444 3.49808E+01 2.10563E+01 0.00000E+00
 -1       445 3.34820E+01 1.78039E+01 0.00000E+00
 -1       446 3.19179E+01 1.57539E+01 0.00000E+00
 -1       447 5.19600E+00 3.82125E+01 0.00000E+00
 -1       448 2.85055E+01 1.42868E+01 0.00000E+00
 -1       449 2.63213E+01 1.34767E+01 0.00000E+00
 -1       450 2.45742E+01 1.37083E+01 0.00000E+00
 -1       451 2.22275E+01 1.41085E+01 0.00000E+00
 -1       452 2.01812E+01 1.52768E+01 0.00000E+00
 -1       453 1.88799E+01 1.67534E+01 0.00000E+00
 -1       454 1.74976E+01 1.81998E+01 0.00000E+00
 -1       455 1.66356E+01 1.99017E+01 0.00000E+00
 -1       456 1.57261E+01 2.21282E+01 0.00000E+00
 -1       457 1.59915E+01 2.41035E+01 0.00000E+00
 -1       458 1.62016E+01 2.59382E+01 0.00000E+00
 -1       459 1.72357E+01 2.82951E+01 0.00000E+00
 -1       460 1.83171E+01 2.95359E+01 0.00000E+00
 -1       461 1.97482E+01 3.10477E+01 0.00000E+00
 -1       462 2.13046E+01 3.20411E+01 0.00000E+00
 -1       463 2.35562E+01 3.31141E+01 0.00000E+00
 -1       464 2.55882E+01 3.30440E+01 0.00000E+00
 -1       465 2.72576E+01 3.28721E+01 0.00000E+00
 -1       466 2.95008E+01 3.23335E+01 0.00000E+00
 -1       467 3.08062E+01 3.14429E+01 0.00000E+00
 -1       468 3.23959E+01 3.01486E+01 0.00000E+00
 -1       469 3.34968E+01 2.86579E+01 0.00000E+00
 -1       470 3.45162E+01 2.70896E+01 0.00000E+00
 -1       471 3.49510E+01 2.50876E+01 0.00000E+00
 -1       472 3.02117E+01 1.50203E+01 0.00000E+00
 -1       473 3.63188E+01 2.21155E+01 0.00000E+00
 -1       474 1.57149E+01 2.75254E+01 0.00000E+00
 -1       475 1.00350E+01 6.60425E+00 0.00000E+00
 -1       476 7.79400E+00 3.08500E+01 0.00000E+00
 -1       477 7.79400E+00 3.38000E+01 0.00000E+00
 -1       478 7.58139E+00 2.49500E+01 0.00000E+00
 -1       479 7.58139E+00 2.20000E+01 0.00000E+00
 -1       480 7.58139E+00 1.91000E+01 0.00000E+00
 -1       481 7.58139E+00 1.61500E+01 0.00000E+00
 -1       482 7.58139E+00 1.32000E+01 0.00000E+00
 -1       483 7.58139E+00 1.02500E+01 0.00000E+00
 -1       484 1.30350E+01 6.60425E+00 0.00000E+00
 -1       485 1.06500E+01 4.22060E+01 0.00000E+00
 -1       486 2.31125E+01 1.22177E+01 0.00000E+00
 -1       487 1.36500E+01 4.22060E+01 0.00000E+00
 -1       488 1.66500E+01 4.22060E+01 0.00000E+00
 -1       489 1.96500E+01 4.22060E+01 0.00000E+00
 -1       490 2.26500E+01 4.22060E+01 0.00000E+00
 -1       491 2.56500E+01 4.22060E+01 0.00000E+00
 -1       492 2.86500E+01 4.22060E+01 0.00000E+00
 -1       493 3.16500E+01 4.22060E+01 0.00000E+00
 -1       494 3.46500E+01 4.22060E+01 0.00000E+00
 -1       495 3.76500E+01 4.22060E+01 0.00000E+00
 -1       496 4.06500E+01 4.22060E+01 0.00000E+00
 -1       497 4.36500E+01 4.22060E+01 0.00000E+00
 -1       498 4.66500E+01 4.22060E+01 0.00000E+00
 -1       499 4.96500E+01 4.22060E+01 0.00000E+00
 -1       500 5.26500E+01 4.22060E+01 0.00000E+00
 -1       501 5.56500E+01 4.22060E+01 0.00000E+00
 -1       502 5.86500E+01 4.22060E+01 0.00000E+00
 -1       503 6.16500E+01 4.22060E+01 0.00000E+00
 -1       504 6.46500E+01 4.22060E+01 0.00000E+00
 -1       505 6.76500E+01 4.22060E+01 0.00000E+00
 -1       506 7.06500E+01 4.22060E+01 0.00000E+00
 -1       507 7.36500E+01 4.22060E+01 0.00000E+00
 -1       508 7.66500E+01 4.22060E+01 0.00000E+00
 -1       509 7.96500E+01 4.22060E+01 0.00000E+00
 -1       510 8.26500E+01 4.22060E+01 0.00000E+00
 -1       511 8.56500E+01 4.22060E+01 0.00000E+00
 -1       512 8.86500E+01 4.22060E+01 0.00000E+00
 -1       513 9.16500E+01 4.22060E+01 0.00000E+00
 -1       514 9.46500E+01 4.22060E+01 0.00000E+00
 -1       515 9.76500E+01 4.22060E+01 0.00000E+00
 -1       516 1.00650E+02 4.22060E+01 0.00000E+00
 -1       517 1.03650E+02 4.22060E+01 0.00000E+00
 -1       518 1.06650E+02 4.22060E+01 0.00000E+00
 -1       519 1.09650E+02 4.22060E+01 0.00000E+00
 -1       520 1.12650E+02 4.22060E+01 0.00000E+00
 -1       521 1.15650E+02 4.22060E+01 0.00000E+00
 -1       522 1.18650E+02 4.22060E+01 0.00000E+00
 -1       523 1.21650E+02 4.22060E+01 0.00000E+00
 -1       524 1.24650E+02 4.22060E+01 0.00000E+00
 -1       525 1.27650E+02 4.22060E+01 0.00000E+00
 -1       526 1.30650E+02 4.22060E+01 0.00000E+00
 -1       527 1.33650E+02 4.22060E+01 0.00000E+00
 -1       528 1.36650E+02 4.22060E+01 0.00000E+00
 -1       529 1.39650E+02 4.22060E+01 0.00000E+00
 -1       530 3.63477E+01 1.96929E+01 0.00000E+00
 -1       531 1.90350E+01 6.60425E+00 0.00000E+00
 -1       532 2.20350E+01 6.60425E+00 0.00000E+00
 -1       533 2.50350E+01 6.60425E+00 0.00000E+00
 -1       534 2.80350E+01 6.60425E+00 0.00000E+00
 -1       535 3.10350E+01 6.60425E+00 0.00000E+00
 -1       536 3.40350E+01 6.60425E+00 0.00000E+00
 -1       537 3.70350E+01 6.60425E+00 0.00000E+00
 -1       538 4.00350E+01 6.60425E+00 0.00000E+00
 -1       539 4.30350E+01 6.60425E+00 0.00000E+00
 -1       540 4.60350E+01 6.60425E+00 0.00000E+00
 -1       541 4.90350E+01 6.60425E+00 0.00000E+00
 -1       542 5.20350E+01 6.60425E+00 0.00000E+00
 -1       543 5.50350E+01 6.60425E+00 0.00000E+00
 -1       544 5.80350E+01 6.60425E+00 0.00000E+00
 -1       545 6.10350E+01 6.60425E+00 0.00000E+00
 -1       546 6.40350E+01 6.60425E+00 0.00000E+00
 -1       547 6.70350E+01 6.60425E+00 0.00000E+00
 -1       548 7.00350E+01 6.60425E+00 0.00000E+00
 -1       549 7.30350E+01 6.60425E+00 0.00000E+00
 -1       550 7.60350E+01 6.60425E+00 0.00000E+00
 -1       551 7.90350E+01 6.60425E+00 0.00000E+00
 -1       552 8.20350E+01 6.60425E+00 0.00000E+00
 -1       553 8.50350E+01 6.60425E+00 0.00000E+00
 -1       554 8.80350E+01 6.60425E+00 0.00000E+00
 -1       555 9.10350E+01 6.60425E+00 0.00000E+00
 -1       556 9.40350E+01 6.60425E+00 0.00000E+00
 -1       557 9.70350E+01 6.60425E+00 0.00000E+00
 -1       558 1.00035E+02 6.60425E+00 0.00000E+00
 -1       559 1.03035E+02 6.60425E+00 0.00000E+00
 -1       560 1.06035E+02 6.60425E+00 0.00000E+00
 -1       561 1.09035E+02 6.60425E+00 0.00000E+00
 -1       562 1.12035E+02 6.60425E+00 0.00000E+00
 -1       563 1.15035E+02 6.60425E+00 0.00000E+00
 -1       564 1.18035E+02 6.60425E+00 0.00000E+00
 -1       565 1.21035E+02 6.60425E+00 0.00000E+00
 -1       566 1.24035E+02 6.60425E+00 0.00000E+00
 -1       567 1.27035E+02 6.60425E+00 0.00000E+00
 -1       568 1.30035E+02 6.60425E+00 0.00000E+00
 -1       569 1.33035E+02 6.60425E+00 0.00000E+00
 -1       570 1.36035E+02 6.60425E+00 0.00000E+00
 -1       571 1.39035E+02 6.60425E+00 0.00000E+00
 -1       572 1.42035E+02 6.60425E+00 0.00000E+00
 -1       573 1.42206E+02 1.61750E+01 0.00000E+00
 -1       574 1.42206E+02 1.91250E+01 0.00000E+00
 -1       575 1.42206E+02 1.03250E+01 0.00000E+00
 -1       576 1.42206E+02 1.32500E+01 0.00000E+00
 -1       577 1.42206E+02 2.20750E+01 0.00000E+00
 -1       578 1.42206E+02 2.50250E+01 0.00000E+00
 -1       579 1.42206E+02 2.79750E+01 0.00000E+00
 -1       580 1.42206E+02 3.08750E+01 0.00000E+00
 -1       581 1.42206E+02 3.38250E+01 0.00000E+00
 -1       582 1.42206E+02 3.67750E+01 0.00000E+00
 -1       583 1.42206E+02 3.97250E+01 0.00000E+00
 -1       584 3.52810E+01 1.77737E+01 0.00000E+00
 -1       585 3.40635E+01 1.57385E+01 0.00000E+00
 -1       586 1.60350E+01 6.60425E+00 0.00000E+00
 -1       587 3.60821E+01 2.63816E+01 0.00000E+00
 -1       588 3.63914E+01 2.48178E+01 0.00000E+00
 -1       589 2.16926E+01 3.41259E+01 0.00000E+00
 -1       590 1.42420E+01 2.33331E+01 0.00000E+00
 -1       591 7.79400E+00 2.79000E+01 0.00000E+00
 -1       592 7.92300E+00 4.16780E+01 0.00000E+00
 -1       593 2.03539E+01 1.32032E+01 0.00000E+00
 -1       594 2.48597E+01 1.19860E+01 0.00000E+00
 -1       595 2.46429E+01 3.51281E+01 0.00000E+00
 -1       596 2.79515E+01 1.24308E+01 0.00000E+00
 -1       597 1.81181E+01 1.47703E+01 0.00000E+00
 -1       598 1.67359E+01 1.62167E+01 0.00000E+00
 -1       599 1.56113E+01 1.83136E+01 0.00000E+00
 -1       600 1.44380E+01 2.03030E+01 0.00000E+00
 -1       601 1.44521E+01 2.51678E+01 0.00000E+00
 -1       602 1.66730E+01 2.98772E+01 0.00000E+00
 -1       603 1.81041E+01 3.13891E+01 0.00000E+00
 -1       604 1.96037E+01 3.29901E+01 0.00000E+00
 -1       605 3.41912E+01 3.03226E+01 0.00000E+00
 -1       606 2.63123E+01 3.49562E+01 0.00000E+00
 -1       607 2.85555E+01 3.44176E+01 0.00000E+00
 -1       608 3.11200E+01 3.33050E+01 0.00000E+00
 -1       609 3.27097E+01 3.20108E+01 0.00000E+00
 -1       610 3.52337E+01 2.86715E+01 0.00000E+00
 -1       611 7.61550E+00 6.21462E+00 0.00000E+00
 -1       612 7.79400E+00 3.67375E+01 0.00000E+00
 -1       613 3.74498E+01 2.34095E+01 0.00000E+00
 -1       614 1.41678E+02 4.22645E+01 0.00000E+00
 -1       615 3.29796E+01 1.41987E+01 0.00000E+00
 -1       616 1.39654E+01 2.67550E+01 0.00000E+00
 -1       617 1.29539E+01 2.15079E+01 0.00000E+00
 -1       618 3.12734E+01 1.34652E+01 0.00000E+00
 -1       619 2.64899E+01 1.09401E+01 0.00000E+00
 -1       620 1.51522E+01 2.91075E+01 0.00000E+00
 -1       621 2.97114E+01 1.29162E+01 0.00000E+00
 -1       622 1.01344E+01 2.05500E+01 0.00000E+00
 -1       623 1.01344E+01 2.35000E+01 0.00000E+00
 -1       624 1.01794E+01 1.46750E+01 0.00000E+00
 -1       625 1.01794E+01 1.17250E+01 0.00000E+00
 -1       626 1.15350E+01 9.20225E+00 0.00000E+00
 -1       627 1.45350E+01 9.20225E+00 0.00000E+00
 -1       628 1.39206E+02 1.03250E+01 0.00000E+00
 -1       629 1.51500E+01 3.96080E+01 0.00000E+00
 -1       630 1.81500E+01 3.96080E+01 0.00000E+00
 -1       631 2.11500E+01 3.96080E+01 0.00000E+00
 -1       632 2.41500E+01 3.96080E+01 0.00000E+00
 -1       633 2.71500E+01 3.96080E+01 0.00000E+00
 -1       634 3.01500E+01 3.96080E+01 0.00000E+00
 -1       635 3.31500E+01 3.96080E+01 0.00000E+00
 -1       636 3.61500E+01 3.96080E+01 0.00000E+00
 -1       637 3.91500E+01 3.96080E+01 0.00000E+00
 -1       638 4.21500E+01 3.96080E+01 0.00000E+00
 -1       639 4.51500E+01 3.96080E+01 0.00000E+00
 -1       640 4.81500E+01 3.96080E+01 0.00000E+00
 -1       641 5.11500E+01 3.96080E+01 0.00000E+00
 -1       642 5.41500E+01 3.96080E+01 0.00000E+00
 -1       643 5.71500E+01 3.96080E+01 0.00000E+00
 -1       644 6.01500E+01 3.96080E+01 0.00000E+00
 -1       645 6.31500E+01 3.96080E+01 0.00000E+00
 -1       646 6.61500E+01 3.96080E+01 0.00000E+00
 -1       647 6.91500E+01 3.96080E+01 0.00000E+00
 -1       648 7.21500E+01 3.96080E+01 0.00000E+00
 -1       649 7.51500E+01 3.96080E+01 0.00000E+00
 -1       650 7.81500E+01 3.96080E+01 0.00000E+00
 -1       651 8.11500E+01 3.96080E+01 0.00000E+00
 -1       652 8.41500E+01 3.96080E+01 0.00000E+00
 -1       653 8.71500E+01 3.96080E+01 0.00000E+00
 -1       654 9.01500E+01 3.96080E+01 0.00000E+00
 -1       655 9.31500E+01 3.96080E+01 0.00000E+00
 -1       656 9.61500E+01 3.96080E+01 0.00000E+00
 -1       657 9.91500E+01 3.96080E+01 0.00000E+00
 -1       658 1.02150E+02 3.96080E+01 0.00000E+00
 -1       659 1.05150E+02 3.96080E+01 0.00000E+00
 -1       660 1.08150E+02 3.96080E+01 0.00000E+00
 -1       661 1.11150E+02 3.96080E+01 0.00000E+00
 -1       662 1.14150E+02 3.96080E+01 0.00000E+00
 -1       663 1.17150E+02 3.96080E+01 0.00000E+00
 -1       664 1.20150E+02 3.96080E+01 0.00000E+00
 -1       665 1.23150E+02 3.96080E+01 0.00000E+00
 -1       666 1.26150E+02 3.96080E+01 0.00000E+00
 -1       667 1.29150E+02 3.96080E+01 0.00000E+00
 -1       668 1.32150E+02 3.96080E+01 0.00000E+00
 -1       669 1.35150E+02 3.96080E+01 0.00000E+00
 -1       670 1.38150E+02 3.96080E+01 0.00000E+00
 -1       671 1.73575E+01 3.35911E+01 0.00000E+00
 -1       672 2.05350E+01 9.20225E+00 0.00000E+00
 -1       673 2.95350E+01 8.82207E+00 0.00000E+00
 -1       674 3.25350E+01 8.82207E+00 0.00000E+00
 -1       675 3.55350E+01 8.82207E+00 0.00000E+00
 -1       676 3.85350E+01 8.82207E+00 0.00000E+00
 -1       677 4.15350E+01 8.82207E+00 0.00000E+00
 -1       678 4.45350E+01 8.82207E+00 0.00000E+00
 -1       679 4.75350E+01 8.82207E+00 0.00000E+00
 -1       680 5.05350E+01 8.82207E+00 0.00000E+00
 -1       681 5.35350E+01 8.82207E+00 0.00000E+00
 -1       682 5.65350E+01 8.82207E+00 0.00000E+00
 -1       683 5.95350E+01 8.82207E+00 0.00000E+00
 -1       684 6.25350E+01 8.82207E+00 0.00000E+00
 -1       685 6.55350E+01 8.82207E+00 0.00000E+00
 -1       686 6.85350E+01 8.82207E+00 0.00000E+00
 -1       687 7.15350E+01 8.82207E+00 0.00000E+00
 -1       688 7.45350E+01 8.82207E+00 0.00000E+00
 -1       689 7.75350E+01 8.82207E+00 0.00000E+00
 -1       690 8.05350E+01 8.82207E+00 0.00000E+00
 -1       691 8.35350E+01 8.82207E+00 0.00000E+00
 -1       692 8.65350E+01 8.82207E+00 0.00000E+00
 -1       693 8.95350E+01 8.82207E+00 0.00000E+00
 -1       694 9.25350E+01 8.82207E+00 0.00000E+00
 -1       695 9.55350E+01 8.82207E+00 0.00000E+00
 -1       696 9.85350E+01 8.82207E+00 0.00000E+00
 -1       697 1.01535E+02 8.82207E+00 0.00000E+00
 -1       698 1.04535E+02 8.82207E+00 0.00000E+00
 -1       699 1.07535E+02 8.82207E+00 0.00000E+00
 -1       700 1.10535E+02 8.82207E+00 0.00000E+00
 -1       701 1.13535E+02 8.82207E+00 0.00000E+00
 -1       702 1.16535E+02 8.82207E+00 0.00000E+00
 -1       703 1.19535E+02 8.82207E+00 0.00000E+00
 -1       704 1.22535E+02 8.82207E+00 0.00000E+00
 -1       705 1.25535E+02 8.82207E+00 0.00000E+00
 -1       706 1.28535E+02 8.82207E+00 0.00000E+00
 -1       707 1.31535E+02 8.82207E+00 0.00000E+00
 -1       708 1.34535E+02 8.82207E+00 0.00000E+00
 -1       709 1.36870E+02 9.57353E+00 0.00000E+00
 -1       710 1.97488E+01 3.52120E+01 0.00000E+00
 -1       711 3.50611E+01 1.38850E+01 0.00000E+00
 -1       712 1.39608E+02 2.35500E+01 0.00000E+00
 -1       713 1.39608E+02 1.76500E+01 0.00000E+00
 -1       714 1.39608E+02 2.65000E+01 0.00000E+00
 -1       715 1.39608E+02 2.06000E+01 0.00000E+00
 -1       716 1.39608E+02 2.94000E+01 0.00000E+00
 -1       717 1.39608E+02 3.23500E+01 0.00000E+00
 -1       718 1.39608E+02 3.53000E+01 0.00000E+00
 -1       719 1.40178E+02 3.96665E+01 0.00000E+00
 -1       720 3.71876E+01 2.80933E+01 0.00000E+00
 -1       721 3.79193E+01 2.59324E+01 0.00000E+00
 -1       722 3.79644E+01 2.09237E+01 0.00000E+00
 -1       723 1.75350E+01 9.20225E+00 0.00000E+00
 -1       724 1.03470E+01 2.93750E+01 0.00000E+00
 -1       725 1.21500E+01 3.96080E+01 0.00000E+00
 -1       726 2.92430E+01 1.11817E+01 0.00000E+00
 -1       727 1.01794E+01 1.76250E+01 0.00000E+00
 -1       728 2.78734E+01 3.65175E+01 0.00000E+00
 -1       729 1.03470E+01 3.23250E+01 0.00000E+00
 -1       730 1.35474E+01 1.84369E+01 0.00000E+00
 -1       731 2.25622E+01 3.64096E+01 0.00000E+00
 -1       732 1.59448E+01 1.40770E+01 0.00000E+00
 -1       733 1.27263E+01 2.44360E+01 0.00000E+00
 -1       734 3.62786E+01 1.59201E+01 0.00000E+00
 -1       735 1.59263E+01 3.20793E+01 0.00000E+00
 -1       736 3.48655E+01 3.24085E+01 0.00000E+00
 -1       737 1.46719E+01 1.63400E+01 0.00000E+00
 -1       738 2.62041E+01 3.66894E+01 0.00000E+00
 -1       739 3.61627E+01 3.04127E+01 0.00000E+00
 -1       740 1.80593E+01 1.23078E+01 0.00000E+00
 -1       741 3.31035E+01 3.41179E+01 0.00000E+00
 -1       742 1.02407E+01 2.64375E+01 0.00000E+00
 -1       743 3.73453E+01 1.78394E+01 0.00000E+00
 -1       744 3.06537E+01 3.57422E+01 0.00000E+00
 -1       745 1.03470E+01 3.52625E+01 0.00000E+00
 -1       746 3.89620E+01 1.90701E+01 0.00000E+00
 -1       747 3.29363E+01 1.19484E+01 0.00000E+00
 -1       748 3.08050E+01 1.17306E+01 0.00000E+00
 -1       749 1.44056E+01 3.13096E+01 0.00000E+00
 -1       750 1.39608E+02 1.47250E+01 0.00000E+00
 -1       751 1.34027E+01 2.83371E+01 0.00000E+00
 -1       752 2.34473E+01 9.29515E+00 0.00000E+00
 -1       753 1.04985E+01 3.87342E+01 0.00000E+00
 -1       754 1.27774E+01 1.32000E+01 0.00000E+00
 -1       755 3.56455E+01 3.49753E+01 0.00000E+00
 -1       756 1.21552E+01 1.63403E+01 0.00000E+00
 -1       757 3.74293E+01 1.38500E+01 0.00000E+00
 -1       758 2.45899E+01 3.73719E+01 0.00000E+00
 -1       759 1.96500E+01 3.70550E+01 0.00000E+00
 -1       760 3.16500E+01 3.70100E+01 0.00000E+00
 -1       761 3.86455E+01 3.49753E+01 0.00000E+00
 -1       762 4.16455E+01 3.49753E+01 0.00000E+00
 -1       763 4.46455E+01 3.49753E+01 0.00000E+00
 -1       764 4.76455E+01 3.49753E+01 0.00000E+00
 -1       765 5.06455E+01 3.49753E+01 0.00000E+00
 -1       766 5.36455E+01 3.49753E+01 0.00000E+00
 -1       767 5.66455E+01 3.49753E+01 0.00000E+00
 -1       768 5.96455E+01 3.49753E+01 0.00000E+00
 -1       769 6.26455E+01 3.49753E+01 0.00000E+00
 -1       770 6.56455E+01 3.49753E+01 0.00000E+00
 -1       771 6.86455E+01 3.49753E+01 0.00000E+00
 -1       772 7.16455E+01 3.49753E+01 0.00000E+00
 -1       773 7.46455E+01 3.49753E+01 0.00000E+00
 -1       774 7.76455E+01 3.49753E+01 0.00000E+00
 -1       775 8.06455E+01 3.49753E+01 0.00000E+00
 -1       776 8.36455E+01 3.49753E+01 0.00000E+00
 -1       777 8.66455E+01 3.49753E+01 0.00000E+00
 -1       778 8.96455E+01 3.49753E+01 0.00000E+00
 -1       779 9.26455E+01 3.49753E+01 0.00000E+00
 -1       780 9.56455E+01 3.49753E+01 0.00000E+00
 -1       781 9.86455E+01 3.49753E+01 0.00000E+00
 -1       782 1.01645E+02 3.49753E+01 0.00000E+00
 -1       783 1.04645E+02 3.49753E+01 0.00000E+00
 -1       784 1.07645E+02 3.49753E+01 0.00000E+00
 -1       785 1.10645E+02 3.49753E+01 0.00000E+00
 -1       786 1.13645E+02 3.49753E+01 0.00000E+00
 -1       787 1.16645E+02 3.49753E+01 0.00000E+00
 -1       788 1.19645E+02 3.49753E+01 0.00000E+00
 -1       789 1.22645E+02 3.49753E+01 0.00000E+00
 -1       790 1.25645E+02 3.49753E+01 0.00000E+00
 -1       791 1.28645E+02 3.49753E+01 0.00000E+00
 -1       792 1.31645E+02 3.49753E+01 0.00000E+00
 -1       793 1.34645E+02 3.49753E+01 0.00000E+00
 -1       794 4.00350E+01 1.14201E+01 0.00000E+00
 -1       795 4.30350E+01 1.14201E+01 0.00000E+00
 -1       796 4.60350E+01 1.14201E+01 0.00000E+00
 -1       797 4.90350E+01 1.14201E+01 0.00000E+00
 -1       798 5.20350E+01 1.14201E+01 0.00000E+00
 -1       799 5.50350E+01 1.14201E+01 0.00000E+00
 -1       800 5.80350E+01 1.14201E+01 0.00000E+00
 -1       801 6.10350E+01 1.14201E+01 0.00000E+00
 -1       802 6.40350E+01 1.14201E+01 0.00000E+00
 -1       803 6.70350E+01 1.14201E+01 0.00000E+00
 -1       804 7.00350E+01 1.14201E+01 0.00000E+00
 -1       805 7.30350E+01 1.14201E+01 0.00000E+00
 -1       806 7.60350E+01 1.14201E+01 0.00000E+00
 -1       807 7.90350E+01 1.14201E+01 0.00000E+00
 -1       808 8.20350E+01 1.14201E+01 0.00000E+00
 -1       809 8.50350E+01 1.14201E+01 0.00000E+00
 -1       810 8.80350E+01 1.14201E+01 0.00000E+00
 -1       811 9.10350E+01 1.14201E+01 0.00000E+00
 -1       812 9.40350E+01 1.14201E+01 0.00000E+00
 -1       813 9.70350E+01 1.14201E+01 0.00000E+00
 -1       814 1.00035E+02 1.14201E+01 0.00000E+00
 -1       815 1.03035E+02 1.14201E+01 0.00000E+00
 -1       816 1.06035E+02 1.14201E+01 0.00000E+00
 -1       817 1.09035E+02 1.14201E+01 0.00000E+00
 -1       818 1.12035E+02 1.14201E+01 0.00000E+00
 -1       819 1.15035E+02 1.14201E+01 0.00000E+00
 -1       820 1.18035E+02 1.14201E+01 0.00000E+00
 -1       821 1.21035E+02 1.14201E+01 0.00000E+00
 -1       822 1.24035E+02 1.14201E+01 0.00000E+00
 -1       823 1.27035E+02 1.14201E+01 0.00000E+00
 -1       824 1.30035E+02 1.14201E+01 0.00000E+00
 -1       825 1.33035E+02 1.14201E+01 0.00000E+00
 -1       826 1.37010E+02 2.79500E+01 0.00000E+00
 -1       827 1.37010E+02 2.50000E+01 0.00000E+00
 -1       828 1.55788E+01 1.14914E+01 0.00000E+00
 -1       829 1.72587E+01 3.54342E+01 0.00000E+00
 -1       830 1.37010E+02 3.09000E+01 0.00000E+00
 -1       831 3.53798E+01 1.14014E+01 0.00000E+00
 -1       832 1.27485E+01 3.74352E+01 0.00000E+00
 -1       833 3.94954E+01 2.76703E+01 0.00000E+00
 -1       834 3.72331E+01 3.25280E+01 0.00000E+00
 -1       835 1.61992E+01 3.72451E+01 0.00000E+00
 -1       836 1.18332E+01 2.64038E+01 0.00000E+00
 -1       837 1.22936E+01 2.01809E+01 0.00000E+00
 -1       838 1.38670E+01 1.39159E+01 0.00000E+00
 -1       839 3.93046E+01 2.24973E+01 0.00000E+00
 -1       840 3.84959E+01 1.57692E+01 0.00000E+00
 -1       841 1.50313E+01 3.43599E+01 0.00000E+00
 -1       842 3.97740E+01 2.50202E+01 0.00000E+00
 -1       843 1.36562E+01 1.12011E+01 0.00000E+00
 -1       844 3.84705E+01 2.99898E+01 0.00000E+00
 -1       845 4.01127E+01 1.70000E+01 0.00000E+00
 -1       846 1.31367E+01 3.36709E+01 0.00000E+00
 -1       847 1.36650E+02 3.70100E+01 0.00000E+00
 -1       848 1.35370E+02 1.21715E+01 0.00000E+00
 -1       849 1.37273E+02 1.39735E+01 0.00000E+00
 -1       850 1.37273E+02 1.68985E+01 0.00000E+00
 -1       851 1.37010E+02 2.20500E+01 0.00000E+00
 -1       852 4.03022E+01 2.06437E+01 0.00000E+00
 -1       853 1.37010E+02 3.38250E+01 0.00000E+00
 -1       854 1.37141E+02 1.94743E+01 0.00000E+00
 -1       855 3.30116E+01 3.66388E+01 0.00000E+00
 -1       856 4.18404E+01 2.65771E+01 0.00000E+00
 -1       857 4.01455E+01 3.23773E+01 0.00000E+00
 -1       858 4.31455E+01 3.23773E+01 0.00000E+00
 -1       859 4.61455E+01 3.23773E+01 0.00000E+00
 -1       860 4.91455E+01 3.23773E+01 0.00000E+00
 -1       861 5.21455E+01 3.23773E+01 0.00000E+00
 -1       862 5.51455E+01 3.23773E+01 0.00000E+00
 -1       863 5.81455E+01 3.23773E+01 0.00000E+00
 -1       864 6.11455E+01 3.23773E+01 0.00000E+00
 -1       865 6.41455E+01 3.23773E+01 0.00000E+00
 -1       866 6.71455E+01 3.23773E+01 0.00000E+00
 -1       867 7.01455E+01 3.23773E+01 0.00000E+00
 -1       868 7.31455E+01 3.23773E+01 0.00000E+00
 -1       869 7.61455E+01 3.23773E+01 0.00000E+00
 -1       870 7.91455E+01 3.23773E+01 0.00000E+00
 -1       871 8.21455E+01 3.23773E+01 0.00000E+00
 -1       872 8.51455E+01 3.23773E+01 0.00000E+00
 -1       873 8.81455E+01 3.23773E+01 0.00000E+00
 -1       874 9.11455E+01 3.23773E+01 0.00000E+00
 -1       875 9.41455E+01 3.23773E+01 0.00000E+00
 -1       876 9.71455E+01 3.23773E+01 0.00000E+00
 -1       877 1.00145E+02 3.23773E+01 0.00000E+00
 -1       878 1.03145E+02 3.23773E+01 0.00000E+00
 -1       879 1.06145E+02 3.23773E+01 0.00000E+00
 -1       880 1.09145E+02 3.23773E+01 0.00000E+00
 -1       881 1.12145E+02 3.23773E+01 0.00000E+00
 -1       882 1.15145E+02 3.23773E+01 0.00000E+00
 -1       883 1.18145E+02 3.23773E+01 0.00000E+00
 -1       884 1.21145E+02 3.23773E+01 0.00000E+00
 -1       885 1.24145E+02 3.23773E+01 0.00000E+00
 -1       886 1.27145E+02 3.23773E+01 0.00000E+00
 -1       887 1.30145E+02 3.23773E+01 0.00000E+00
 -1       888 1.33145E+02 3.23773E+01 0.00000E+00
 -1       889 1.34412E+02 2.64750E+01 0.00000E+00
 -1       890 4.45350E+01 1.40181E+01 0.00000E+00
 -1       891 4.15350E+01 1.40181E+01 0.00000E+00
 -1       892 5.05350E+01 1.40181E+01 0.00000E+00
 -1       893 5.35350E+01 1.40181E+01 0.00000E+00
 -1       894 5.65350E+01 1.40181E+01 0.00000E+00
 -1       895 5.95350E+01 1.40181E+01 0.00000E+00
 -1       896 6.25350E+01 1.40181E+01 0.00000E+00
 -1       897 6.55350E+01 1.40181E+01 0.00000E+00
 -1       898 6.85350E+01 1.40181E+01 0.00000E+00
 -1       899 7.15350E+01 1.40181E+01 0.00000E+00
 -1       900 7.45350E+01 1.40181E+01 0.00000E+00
 -1       901 7.75350E+01 1.40181E+01 0.00000E+00
 -1       902 8.05350E+01 1.40181E+01 0.00000E+00
 -1       903 8.35350E+01 1.40181E+01 0.00000E+00
 -1       904 8.65350E+01 1.40181E+01 0.00000E+00
 -1       905 8.95350E+01 1.40181E+01 0.00000E+00
 -1       906 9.25350E+01 1.40181E+01 0.00000E+00
 -1       907 9.55350E+01 1.40181E+01 0.00000E+00
 -1       908 9.85350E+01 1.40181E+01 0.00000E+00
 -1       909 1.01535E+02 1.40181E+01 0.00000E+00
 -1       910 1.04535E+02 1.40181E+01 0.00000E+00
 -1       911 1.07535E+02 1.40181E+01 0.00000E+00
 -1       912 1.10535E+02 1.40181E+01 0.00000E+00
 -1       913 1.13535E+02 1.40181E+01 0.00000E+00
 -1       914 1.16535E+02 1.40181E+01 0.00000E+00
 -1       915 1.19535E+02 1.40181E+01 0.00000E+00
 -1       916 1.22535E+02 1.40181E+01 0.00000E+00
 -1       917 1.25535E+02 1.40181E+01 0.00000E+00
 -1       918 1.28535E+02 1.40181E+01 0.00000E+00
 -1       919 1.31535E+02 1.40181E+01 0.00000E+00
 -1       920 1.34412E+02 2.94250E+01 0.00000E+00
 -1       921 4.75350E+01 1.40181E+01 0.00000E+00
 -1       922 4.17197E+01 2.33530E+01 0.00000E+00
 -1       923 4.09929E+01 2.94772E+01 0.00000E+00
 -1       924 1.33870E+02 1.47695E+01 0.00000E+00
 -1       925 1.34412E+02 2.35250E+01 0.00000E+00
 -1       926 4.14529E+01 1.85735E+01 0.00000E+00
 -1       927 1.34612E+02 1.80542E+01 0.00000E+00
 -1       928 4.46455E+01 2.97793E+01 0.00000E+00
 -1       929 4.76455E+01 2.97793E+01 0.00000E+00
 -1       930 5.06455E+01 2.97793E+01 0.00000E+00
 -1       931 5.36455E+01 2.97793E+01 0.00000E+00
 -1       932 5.66455E+01 2.97793E+01 0.00000E+00
 -1       933 5.96455E+01 2.97793E+01 0.00000E+00
 -1       934 6.26455E+01 2.97793E+01 0.00000E+00
 -1       935 6.56455E+01 2.97793E+01 0.00000E+00
 -1       936 6.86455E+01 2.97793E+01 0.00000E+00
 -1       937 7.16455E+01 2.97793E+01 0.00000E+00
 -1       938 7.46455E+01 2.97793E+01 0.00000E+00
 -1       939 7.76455E+01 2.97793E+01 0.00000E+00
 -1       940 8.06455E+01 2.97793E+01 0.00000E+00
 -1       941 8.36455E+01 2.97793E+01 0.00000E+00
 -1       942 8.66455E+01 2.97793E+01 0.00000E+00
 -1       943 8.96455E+01 2.97793E+01 0.00000E+00
 -1       944 9.26455E+01 2.97793E+01 0.00000E+00
 -1       945 9.56455E+01 2.97793E+01 0.00000E+00
 -1       946 9.86455E+01 2.97793E+01 0.00000E+00
 -1       947 1.01645E+02 2.97793E+01 0.00000E+00
 -1       948 1.04645E+02 2.97793E+01 0.00000E+00
 -1       949 1.07645E+02 2.97793E+01 0.00000E+00
 -1       950 1.10645E+02 2.97793E+01 0.00000E+00
 -1       951 1.13645E+02 2.97793E+01 0.00000E+00
 -1       952 1.16645E+02 2.97793E+01 0.00000E+00
 -1       953 1.19645E+02 2.97793E+01 0.00000E+00
 -1       954 1.22645E+02 2.97793E+01 0.00000E+00
 -1       955 1.25645E+02 2.97793E+01 0.00000E+00
 -1       956 1.28645E+02 2.97793E+01 0.00000E+00
 -1       957 1.31529E+02 2.96021E+01 0.00000E+00
 -1       958 5.80350E+01 1.66161E+01 0.00000E+00
 -1       959 5.50350E+01 1.66161E+01 0.00000E+00
 -1       960 5.20350E+01 1.66161E+01 0.00000E+00
 -1       961 6.10350E+01 1.66161E+01 0.00000E+00
 -1       962 6.40350E+01 1.66161E+01 0.00000E+00
 -1       963 6.70350E+01 1.66161E+01 0.00000E+00
 -1       964 7.00350E+01 1.66161E+01 0.00000E+00
 -1       965 7.30350E+01 1.66161E+01 0.00000E+00
 -1       966 7.60350E+01 1.66161E+01 0.00000E+00
 -1       967 7.90350E+01 1.66161E+01 0.00000E+00
 -1       968 8.20350E+01 1.66161E+01 0.00000E+00
 -1       969 8.50350E+01 1.66161E+01 0.00000E+00
 -1       970 8.80350E+01 1.66161E+01 0.00000E+00
 -1       971 9.10350E+01 1.66161E+01 0.00000E+00
 -1       972 9.40350E+01 1.66161E+01 0.00000E+00
 -1       973 9.70350E+01 1.66161E+01 0.00000E+00
 -1       974 1.00035E+02 1.66161E+01 0.00000E+00
 -1       975 1.03035E+02 1.66161E+01 0.00000E+00
 -1       976 1.06035E+02 1.66161E+01 0.00000E+00
 -1       977 1.09035E+02 1.66161E+01 0.00000E+00
 -1       978 1.12035E+02 1.66161E+01 0.00000E+00
 -1       979 1.15035E+02 1.66161E+01 0.00000E+00
 -1       980 1.18035E+02 1.66161E+01 0.00000E+00
 -1       981 1.21035E+02 1.66161E+01 0.00000E+00
 -1       982 1.24035E+02 1.66161E+01 0.00000E+00
 -1       983 1.27035E+02 1.66161E+01 0.00000E+00
 -1       984 1.30035E+02 1.66161E+01 0.00000E+00
 -1       985 1.31529E+02 2.66521E+01 0.00000E+00
 -1       986 1.32324E+02 1.73351E+01 0.00000E+00
 -1       987 1.34481E+02 2.06299E+01 0.00000E+00
 -1       988 4.29939E+01 1.62958E+01 0.00000E+00
 -1       989 4.41638E+01 2.48758E+01 0.00000E+00
 -1       990 4.28704E+01 2.12828E+01 0.00000E+00
 -1       991 4.90350E+01 1.66161E+01 0.00000E+00
 -1       992 4.44114E+01 2.76511E+01 0.00000E+00
 -1       993 1.31529E+02 2.37021E+01 0.00000E+00
 -1       994 1.32192E+02 1.99109E+01 0.00000E+00
 -1       995 4.53145E+01 2.28057E+01 0.00000E+00
 -1       996 4.60350E+01 1.66161E+01 0.00000E+00
 -1       997 4.68753E+01 2.60326E+01 0.00000E+00
 -1       998 4.44939E+01 1.88938E+01 0.00000E+00
 -1       999 1.29904E+02 1.91918E+01 0.00000E+00
 -1      1000 4.91455E+01 2.71813E+01 0.00000E+00
 -1      1001 5.21455E+01 2.71813E+01 0.00000E+00
 -1      1002 5.51455E+01 2.71813E+01 0.00000E+00
 -1      1003 5.81455E+01 2.71813E+01 0.00000E+00
 -1      1004 6.11455E+01 2.71813E+01 0.00000E+00
 -1      1005 6.41455E+01 2.71813E+01 0.00000E+00
 -1      1006 6.71455E+01 2.71813E+01 0.00000E+00
 -1      1007 7.01455E+01 2.71813E+01 0.00000E+00
 -1      1008 7.31455E+01 2.71813E+01 0.00000E+00
 -1      1009 7.61455E+01 2.71813E+01 0.00000E+00
 -1      1010 7.91455E+01 2.71813E+01 0.00000E+00
 -1      1011 8.21455E+01 2.71813E+01 0.00000E+00
 -1      1012 8.51455E+01 2.71813E+01 0.00000E+00
 -1      1013 8.81455E+01 2.71813E+01 0.00000E+00
 -1      1014 9.11455E+01 2.71813E+01 0.00000E+00
 -1      1015 9.41455E+01 2.71813E+01 0.00000E+00
 -1      1016 9.71455E+01 2.71813E+01 0.00000E+00
 -1      1017 1.00145E+02 2.71813E+01 0.00000E+00
 -1      1018 1.03145E+02 2.71813E+01 0.00000E+00
 -1      1019 1.06145E+02 2.71813E+01 0.00000E+00
 -1      1020 1.09145E+02 2.71813E+01 0.00000E+00
 -1      1021 1.12145E+02 2.71813E+01 0.00000E+00
 -1      1022 1.15145E+02 2.71813E+01 0.00000E+00
 -1      1023 1.18145E+02 2.71813E+01 0.00000E+00
 -1      1024 1.21145E+02 2.71813E+01 0.00000E+00
 -1      1025 1.24145E+02 2.71813E+01 0.00000E+00
 -1      1026 1.27145E+02 2.71813E+01 0.00000E+00
 -1      1027 1.29337E+02 2.69167E+01 0.00000E+00
 -1      1028 5.65350E+01 1.92141E+01 0.00000E+00
 -1      1029 5.35350E+01 1.92141E+01 0.00000E+00
 -1      1030 6.55350E+01 1.92141E+01 0.00000E+00
 -1      1031 6.85350E+01 1.92141E+01 0.00000E+00
 -1      1032 7.15350E+01 1.92141E+01 0.00000E+00
 -1      1033 7.45350E+01 1.92141E+01 0.00000E+00
 -1      1034 7.75350E+01 1.92141E+01 0.00000E+00
 -1      1035 8.05350E+01 1.92141E+01 0.00000E+00
 -1      1036 8.35350E+01 1.92141E+01 0.00000E+00
 -1      1037 8.65350E+01 1.92141E+01 0.00000E+00
 -1      1038 8.95350E+01 1.92141E+01 0.00000E+00
 -1      1039 9.25350E+01 1.92141E+01 0.00000E+00
 -1      1040 9.55350E+01 1.92141E+01 0.00000E+00
 -1      1041 9.85350E+01 1.92141E+01 0.00000E+00
 -1      1042 1.01535E+02 1.92141E+01 0.00000E+00
 -1      1043 1.04535E+02 1.92141E+01 0.00000E+00
 -1      1044 1.07535E+02 1.92141E+01 0.00000E+00
 -1      1045 1.10535E+02 1.92141E+01 0.00000E+00
 -1      1046 1.13535E+02 1.92141E+01 0.00000E+00
 -1      1047 1.16535E+02 1.92141E+01 0.00000E+00
 -1      1048 1.19535E+02 1.92141E+01 0.00000E+00
 -1      1049 1.22535E+02 1.92141E+01 0.00000E+00
 -1      1050 1.25535E+02 1.92141E+01 0.00000E+00
 -1      1051 5.95350E+01 1.92141E+01 0.00000E+00
 -1      1052 1.31861E+02 2.18065E+01 0.00000E+00
 -1      1053 6.25350E+01 1.92141E+01 0.00000E+00
 -1      1054 5.05350E+01 1.92141E+01 0.00000E+00
 -1      1055 1.29337E+02 2.39667E+01 0.00000E+00
 -1      1056 4.75145E+01 1.90539E+01 0.00000E+00
 -1      1057 4.84337E+01 2.32879E+01 0.00000E+00
 -1      1058 1.29572E+02 2.10874E+01 0.00000E+00
 -1      1059 5.36455E+01 2.45833E+01 0.00000E+00
 -1      1060 5.66455E+01 2.45833E+01 0.00000E+00
 -1      1061 5.96455E+01 2.45833E+01 0.00000E+00
 -1      1062 6.26455E+01 2.45833E+01 0.00000E+00
 -1      1063 6.56455E+01 2.45833E+01 0.00000E+00
 -1      1064 6.86455E+01 2.45833E+01 0.00000E+00
 -1      1065 7.16455E+01 2.45833E+01 0.00000E+00
 -1      1066 7.46455E+01 2.45833E+01 0.00000E+00
 -1      1067 7.76455E+01 2.45833E+01 0.00000E+00
 -1      1068 8.06455E+01 2.45833E+01 0.00000E+00
 -1      1069 8.36455E+01 2.45833E+01 0.00000E+00
 -1      1070 8.66455E+01 2.45833E+01 0.00000E+00
 -1      1071 8.96455E+01 2.45833E+01 0.00000E+00
 -1      1072 9.26455E+01 2.45833E+01 0.00000E+00
 -1      1073 9.56455E+01 2.45833E+01 0.00000E+00
 -1      1074 9.86455E+01 2.45833E+01 0.00000E+00
 -1      1075 1.01645E+02 2.45833E+01 0.00000E+00
 -1      1076 1.04645E+02 2.45833E+01 0.00000E+00
 -1      1077 1.07645E+02 2.45833E+01 0.00000E+00
 -1      1078 1.10645E+02 2.45833E+01 0.00000E+00
 -1      1079 1.13645E+02 2.45833E+01 0.00000E+00
 -1      1080 1.16645E+02 2.45833E+01 0.00000E+00
 -1      1081 1.19645E+02 2.45833E+01 0.00000E+00
 -1      1082 1.22645E+02 2.45833E+01 0.00000E+00
 -1      1083 1.25645E+02 2.45833E+01 0.00000E+00
 -1      1084 1.27491E+02 2.42750E+01 0.00000E+00
 -1      1085 5.50350E+01 2.18121E+01 0.00000E+00
 -1      1086 6.10350E+01 2.18121E+01 0.00000E+00
 -1      1087 7.00350E+01 2.18121E+01 0.00000E+00
 -1      1088 6.70350E+01 2.18121E+01 0.00000E+00
 -1      1089 7.60350E+01 2.18121E+01 0.00000E+00
 -1      1090 7.90350E+01 2.18121E+01 0.00000E+00
 -1      1091 8.20350E+01 2.18121E+01 0.00000E+00
 -1      1092 8.50350E+01 2.18121E+01 0.00000E+00
 -1      1093 8.80350E+01 2.18121E+01 0.00000E+00
 -1      1094 9.10350E+01 2.18121E+01 0.00000E+00
 -1      1095 9.40350E+01 2.18121E+01 0.00000E+00
 -1      1096 9.70350E+01 2.18121E+01 0.00000E+00
 -1      1097 1.00035E+02 2.18121E+01 0.00000E+00
 -1      1098 1.03035E+02 2.18121E+01 0.00000E+00
 -1      1099 1.06035E+02 2.18121E+01 0.00000E+00
 -1      1100 1.09035E+02 2.18121E+01 0.00000E+00
 -1      1101 1.12035E+02 2.18121E+01 0.00000E+00
 -1      1102 1.15035E+02 2.18121E+01 0.00000E+00
 -1      1103 1.18035E+02 2.18121E+01 0.00000E+00
 -1      1104 1.21035E+02 2.18121E+01 0.00000E+00
 -1      1105 1.24035E+02 2.18121E+01 0.00000E+00
 -1      1106 6.40350E+01 2.18121E+01 0.00000E+00
 -1      1107 7.30350E+01 2.18121E+01 0.00000E+00
 -1      1108 5.02604E+01 2.53079E+01 0.00000E+00
 -1      1109 5.80350E+01 2.18121E+01 0.00000E+00
 -1      1110 5.20350E+01 2.18121E+01 0.00000E+00
 -1      1111 1.29455E+02 2.25271E+01 0.00000E+00
 -1      1112 1.27733E+02 2.18009E+01 0.00000E+00
 -1      1113 0.00000E+00 4.85250E+01 0.00000E+00
 -1      1114 0.00000E+00 4.55750E+01 0.00000E+00
 -1      1115 0.00000E+00 4.26250E+01 0.00000E+00
 -1      1116 0.00000E+00 3.96750E+01 0.00000E+00
 -1      1117 0.00000E+00 3.67250E+01 0.00000E+00
 -1      1118 0.00000E+00 3.38000E+01 0.00000E+00
 -1      1119 0.00000E+00 3.08750E+01 0.00000E+00
 -1      1120 0.00000E+00 2.79250E+01 0.00000E+00
 -1      1121 0.00000E+00 2.49750E+01 0.00000E+00
 -1      1122 0.00000E+00 2.20250E+01 0.00000E+00
 -1      1123 0.00000E+00 1.90750E+01 0.00000E+00
 -1      1124 0.00000E+00 1.61500E+01 0.00000E+00
 -1      1125 0.00000E+00 1.32250E+01 0.00000E+00
 -1      1126 0.00000E+00 1.02750E+01 0.00000E+00
 -1      1127 0.00000E+00 7.32500E+00 0.00000E+00
 -1      1128 0.00000E+00 4.37500E+00 0.00000E+00
 -1      1129 0.00000E+00 1.45000E+00 0.00000E+00
 -1      1130 1.57500E+00 5.00000E+01 0.00000E+00
 -1      1131 4.65000E+00 5.00000E+01 0.00000E+00
 -1      1132 7.65000E+00 5.00000E+01 0.00000E+00
 -1      1133 1.06500E+01 5.00000E+01 0.00000E+00
 -1      1134 1.36500E+01 5.00000E+01 0.00000E+00
 -1      1135 1.66500E+01 5.00000E+01 0.00000E+00
 -1      1136 1.96500E+01 5.00000E+01 0.00000E+00
 -1      1137 2.26500E+01 5.00000E+01 0.00000E+00
 -1      1138 2.56500E+01 5.00000E+01 0.00000E+00
 -1      1139 2.86500E+01 5.00000E+01 0.00000E+00
 -1      1140 3.16500E+01 5.00000E+01 0.00000E+00
 -1      1141 3.46500E+01 5.00000E+01 0.00000E+00
 -1      1142 3.76500E+01 5.00000E+01 0.00000E+00
 -1      1143 4.06500E+01 5.00000E+01 0.00000E+00
 -1      1144 4.36500E+01 5.00000E+01 0.00000E+00
 -1      1145 4.66500E+01 5.00000E+01 0.00000E+00
 -1      1146 4.96500E+01 5.00000E+01 0.00000E+00
 -1      1147 5.26500E+01 5.00000E+01 0.00000E+00
 -1      1148 5.56500E+01 5.00000E+01 0.00000E+00
 -1      1149 5.86500E+01 5.00000E+01 0.00000E+00
 -1      1150 6.16500E+01 5.00000E+01 0.00000E+00
 -1      1151 6.46500E+01 5.00000E+01 0.00000E+00
 -1      1152 6.76500E+01 5.00000E+01 0.00000E+00
 -1      1153 7.06500E+01 5.00000E+01 0.00000E+00
 -1      1154 7.36500E+01 5.00000E+01 0.00000E+00
 -1      1155 7.66500E+01 5.00000E+01 0.00000E+00
 -1      1156 7.96500E+01 5.00000E+01 0.00000E+00
 -1      1157 8.26500E+01 5.00000E+01 0.00000E+00
 -1      1158 8.56500E+01 5.00000E+01 0.00000E+00
 -1      1159 8.86500E+01 5.00000E+01 0.00000E+00
 -1      1160 9.16500E+01 5.00000E+01 0.00000E+00
 -1      1161 9.46500E+01 5.00000E+01 0.00000E+00
 -1      1162 9.76500E+01 5.00000E+01 0.00000E+00
 -1      1163 1.00650E+02 5.00000E+01 0.00000E+00
 -1      1164 1.03650E+02 5.00000E+01 0.00000E+00
 -1      1165 1.06650E+02 5.00000E+01 0.00000E+00
 -1      1166 1.09650E+02 5.00000E+01 0.00000E+00
 -1      1167 1.12650E+02 5.00000E+01 0.00000E+00
 -1      1168 1.15650E+02 5.00000E+01 0.00000E+00
 -1      1169 1.18650E+02 5.00000E+01 0.00000E+00
 -1      1170 1.21650E+02 5.00000E+01 0.00000E+00
 -1      1171 1.24650E+02 5.00000E+01 0.00000E+00
 -1      1172 1.27650E+02 5.00000E+01 0.00000E+00
 -1      1173 1.30650E+02 5.00000E+01 0.00000E+00
 -1      1174 1.33650E+02 5.00000E+01 0.00000E+00
 -1      1175 1.36650E+02 5.00000E+01 0.00000E+00
 -1      1176 1.39650E+02 5.00000E+01 0.00000E+00
 -1      1177 1.42650E+02 5.00000E+01 0.00000E+00
 -1      1178 1.45650E+02 5.00000E+01 0.00000E+00
 -1      1179 1.48575E+02 5.00000E+01 0.00000E+00
 -1      1180 1.57500E+00 0.00000E+00 0.00000E+00
 -1      1181 4.65000E+00 0.00000E+00 0.00000E+00
 -1      1182 7.65000E+00 0.00000E+00 0.00000E+00
 -1      1183 1.06500E+01 0.00000E+00 0.00000E+00
 -1      1184 1.36500E+01 0.00000E+00 0.00000E+00
 -1      1185 1.66500E+01 0.00000E+00 0.00000E+00
 -1      1186 1.96500E+01 0.00000E+00 0.00000E+00
 -1      1187 2.26500E+01 0.00000E+00 0.00000E+00
 -1      1188 2.56500E+01 0.00000E+00 0.00000E+00
 -1      1189 2.86500E+01 0.00000E+00 0.00000E+00
 -1      1190 3.16500E+01 0.00000E+00 0.00000E+00
 -1      1191 3.46500E+01 0.00000E+00 0.00000E+00
 -1      1192 3.76500E+01 0.00000E+00 0.00000E+00
 -1      1193 4.06500E+01 0.00000E+00 0.00000E+00
 -1      1194 4.36500E+01 0.00000E+00 0.00000E+00
 -1      1195 4.66500E+01 0.00000E+00 0.00000E+00
 -1      1196 4.96500E+01 0.00000E+00 0.00000E+00
 -1      1197 5.26500E+01 0.00000E+00 0.00000E+00
 -1      1198 5.56500E+01 0.00000E+00 0.00000E+00
 -1      1199 5.86500E+01 0.00000E+00 0.00000E+00
 -1      1200 6.16500E+01 0.00000E+00 0.00000E+00
 -1      1201 6.46500E+01 0.00000E+00 0.00000E+00
 -1      1202 6.76500E+01 0.00000E+00 0.00000E+00
 -1      1203 7.06500E+01 0.00000E+00 0.00000E+00
 -1      1204 7.36500E+01 0.00000E+00 0.00000E+00
 -1      1205 7.66500E+01 0.00000E+00 0.00000E+00
 -1      1206 7.96500E+01 0.00000E+00 0.00000E+00
 -1      1207 8.26500E+01 0.00000E+00 0.00000E+00
 -1      1208 8.56500E+01 0.00000E+00 0.00000E+00
 -1      1209 8.86500E+01 0.00000E+00 0.00000E+00
 -1      1210 9.16500E+01 0.00000E+00 0.00000E+00
 -1      1211 9.46500E+01 0.00000E+00 0.00000E+00
 -1      1212 9.76500E+01 0.00000E+00 0.00000E+00
 -1      1213 1.00650E+02 0.00000E+00 0.00000E+00
 -1      1214 1.03650E+02 0.00000E+00 0.00000E+00
 -1      1215 1.06650E+02 0.00000E+00 0.00000E+00
 -1      1216 1.09650E+02 0.00000E+00 0.00000E+00
 -1      1217 1.12650E+02 0.00000E+00 0.00000E+00
 -1      1218 1.15650E+02 0.00000E+00 0.00000E+00
 -1      1219 1.18650E+02 0.00000E+00 0.00000E+00
 -1      1220 1.21650E+02 0.00000E+00 0.00000E+00
 -1      1221 1.24650E+02 0.00000E+00 0.00000E+00
 -1      1222 1.27650E+02 0.00000E+00 0.00000E+00
 -1      1223 1.30650E+02 0.00000E+00 0.00000E+00
 -1      1224 1.33650E+02 0.00000E+00 0.00000E+00
 -1      1225 1.36650E+02 0.00000E+00 0.00000E+00
 -1      1226 1.39650E+02 0.00000E+00 0.00000E+00
 -1      1227 1.42650E+02 0.00000E+00 0.00000E+00
 -1      1228 1.45650E+02 0.00000E+00 0.00000E+00
 -1      1229 1.48575E+02 0.00000E+00 0.00000E+00
 -1      1230 1.50000E+02 1.47500E+00 0.00000E+00
 -1      1231 1.50000E+02 4.42500E+00 0.00000E+00
 -1      1232 1.50000E+02 7.37500E+00 0.00000E+00
 -1      1233 1.50000E+02 1.03250E+01 0.00000E+00
 -1      1234 1.50000E+02 1.32750E+01 0.00000E+00
 -1      1235 1.50000E+02 1.62000E+01 0.00000E+00
 -1      1236 1.50000E+02 1.91250E+01 0.00000E+00
 -1      1237 1.50000E+02 2.20750E+01 0.00000E+00
 -1      1238 1.50000E+02 2.50250E+01 0.00000E+00
 -1      1239 1.50000E+02 2.79750E+01 0.00000E+00
 -1      1240 1.50000E+02 3.09250E+01 0.00000E+00
 -1      1241 1.50000E+02 3.38500E+01 0.00000E+00
 -1      1242 1.50000E+02 3.67750E+01 0.00000E+00
 -1      1243 1.50000E+02 3.97250E+01 0.00000E+00
 -1      1244 1.50000E+02 4.26750E+01 0.00000E+00
 -1      1245 1.50000E+02 4.56250E+01 0.00000E+00
 -1      1246 1.50000E+02 4.85500E+01 0.00000E+00
 -1      1247 3.25114E+01 2.26234E+01 0.00000E+00
 -1      1248 3.21908E+01 2.11769E+01 0.00000E+00
 -1      1249 3.16008E+01 1.98775E+01 0.00000E+00
 -1      1250 3.06860E+01 1.86442E+01 0.00000E+00
 -1      1251 2.95520E+01 1.76593E+01 0.00000E+00
 -1      1252 2.83283E+01 1.69789E+01 0.00000E+00
 -1      1253 2.69071E+01 1.65379E+01 0.00000E+00
 -1      1254 2.53729E+01 1.64085E+01 0.00000E+00
 -1      1255 2.38918E+01 1.66067E+01 0.00000E+00
 -1      1256 2.24452E+01 1.71350E+01 0.00000E+00
 -1      1257 2.11434E+01 1.79715E+01 0.00000E+00
 -1      1258 2.01045E+01 1.90143E+01 0.00000E+00
 -1      1259 1.93118E+01 2.02410E+01 0.00000E+00
 -1      1260 1.87814E+01 2.16415E+01 0.00000E+00
 -1      1261 1.85593E+01 2.31703E+01 0.00000E+00
 -1      1262 1.86689E+01 2.46623E+01 0.00000E+00
 -1      1263 1.91049E+01 2.61251E+01 0.00000E+00
 -1      1264 1.98473E+01 2.74581E+01 0.00000E+00
 -1      1265 2.07743E+01 2.85191E+01 0.00000E+00
 -1      1266 2.19061E+01 2.93797E+01 0.00000E+00
 -1      1267 2.33054E+01 3.00347E+01 0.00000E+00
 -1      1268 2.48210E+01 3.03675E+01 0.00000E+00
 -1      1269 2.62434E+01 3.03723E+01 0.00000E+00
 -1      1270 2.76308E+01 3.00914E+01 0.00000E+00
 -1      1271 2.89245E+01 2.95420E+01 0.00000E+00
 -1      1272 3.00415E+01 2.87796E+01 0.00000E+00
 -1      1273 3.09925E+01 2.78149E+01 0.00000E+00
 -1      1274 3.17409E+01 2.66831E+01 0.00000E+00
 -1      1275 3.22571E+01 2.54274E+01 0.00000E+00
 -1      1276 3.25219E+01 2.40891E+01 0.00000E+00
 -1      1277 1.57500E+00 4.85250E+01 0.00000E+00
 -1      1278 1.29900E+00 4.48375E+01 0.00000E+00
 -1      1279 1.29900E+00 4.63125E+01 0.00000E+00
 -1      1280 1.29900E+00 4.18875E+01 0.00000E+00
 -1      1281 1.29900E+00 4.33625E+01 0.00000E+00
 -1      1282 2.59800E+00 4.41000E+01 0.00000E+00
 -1      1283 1.29900E+00 3.89375E+01 0.00000E+00
 -1      1284 1.29900E+00 4.04125E+01 0.00000E+00
 -1      1285 2.59800E+00 4.11500E+01 0.00000E+00
 -1      1286 1.29900E+00 3.59875E+01 0.00000E+00
 -1      1287 1.29900E+00 3.74625E+01 0.00000E+00
 -1      1288 2.59800E+00 3.82000E+01 0.00000E+00
 -1      1289 1.29900E+00 3.30875E+01 0.00000E+00
 -1      1290 1.29900E+00 3.45375E+01 0.00000E+00
 -1      1291 2.59800E+00 3.52750E+01 0.00000E+00
 -1      1292 1.29900E+00 3.01375E+01 0.00000E+00
 -1      1293 1.29900E+00 3.16125E+01 0.00000E+00
 -1      1294 2.59800E+00 3.23500E+01 0.00000E+00
 -1      1295 1.29900E+00 2.71875E+01 0.00000E+00
 -1      1296 1.29900E+00 2.86625E+01 0.00000E+00
 -1      1297 2.59800E+00 2.94000E+01 0.00000E+00
 -1      1298 1.29900E+00 2.42375E+01 0.00000E+00
 -1      1299 1.29900E+00 2.57125E+01 0.00000E+00
 -1      1300 2.59800E+00 2.64500E+01 0.00000E+00
 -1      1301 1.29900E+00 2.12875E+01 0.00000E+00
 -1      1302 1.29900E+00 2.27625E+01 0.00000E+00
 -1      1303 2.59800E+00 2.35000E+01 0.00000E+00
 -1      1304 1.29900E+00 1.83375E+01 0.00000E+00
 -1      1305 1.29900E+00 1.98125E+01 0.00000E+00
 -1      1306 2.59800E+00 2.05500E+01 0.00000E+00
 -1      1307 1.29900E+00 1.54375E+01 0.00000E+00
 -1      1308 1.29900E+00 1.68875E+01 0.00000E+00
 -1      1309 2.59800E+00 1.76250E+01 0.00000E+00
 -1      1310 1.29900E+00 1.24875E+01 0.00000E+00
 -1      1311 1.29900E+00 1.39625E+01 0.00000E+00
 -1      1312 2.59800E+00 1.47000E+01 0.00000E+00
 -1      1313 1.29900E+00 9.53750E+00 0.00000E+00
 -1      1314 1.29900E+00 1.10125E+01 0.00000E+00
 -1      1315 2.59800E+00 1.17500E+01 0.00000E+00
 -1      1316 1.29900E+00 6.58750E+00 0.00000E+00
 -1      1317 1.29900E+00 8.06250E+00 0.00000E+00
 -1      1318 2.59800E+00 8.80000E+00 0.00000E+00
 -1      1319 1.29900E+00 3.63750E+00 0.00000E+00
 -1      1320 1.29900E+00 5.11250E+00 0.00000E+00
 -1      1321 2.59800E+00 5.85000E+00 0.00000E+00
 -1      1322 1.43700E+00 1.09375E+00 0.00000E+00
 -1      1323 1.43700E+00 2.54375E+00 0.00000E+00
 -1      1324 2.73600E+00 3.28125E+00 0.00000E+00
 -1      1325 3.01200E+00 1.09375E+00 0.00000E+00
 -1      1326 3.90000E+00 4.87010E+01 0.00000E+00
 -1      1327 5.40000E+00 4.87010E+01 0.00000E+00
 -1      1328 6.90000E+00 4.87010E+01 0.00000E+00
 -1      1329 8.40000E+00 4.87010E+01 0.00000E+00
 -1      1330 6.15000E+00 4.74020E+01 0.00000E+00
 -1      1331 9.90000E+00 4.87010E+01 0.00000E+00
 -1      1332 1.14000E+01 4.87010E+01 0.00000E+00
 -1      1333 9.15000E+00 4.74020E+01 0.00000E+00
 -1      1334 1.29000E+01 4.87010E+01 0.00000E+00
 -1      1335 1.44000E+01 4.87010E+01 0.00000E+00
 -1      1336 1.21500E+01 4.74020E+01 0.00000E+00
 -1      1337 1.59000E+01 4.87010E+01 0.00000E+00
 -1      1338 1.74000E+01 4.87010E+01 0.00000E+00
 -1      1339 1.51500E+01 4.74020E+01 0.00000E+00
 -1      1340 1.89000E+01 4.87010E+01 0.00000E+00
 -1      1341 2.04000E+01 4.87010E+01 0.00000E+00
 -1      1342 1.81500E+01 4.74020E+01 0.00000E+00
 -1      1343 2.19000E+01 4.87010E+01 0.00000E+00
 -1      1344 2.34000E+01 4.87010E+01 0.00000E+00
 -1      1345 2.11500E+01 4.74020E+01 0.00000E+00
 -1      1346 2.49000E+01 4.87010E+01 0.00000E+00
 -1      1347 2.64000E+01 4.87010E+01 0.00000E+00
 -1      1348 2.41500E+01 4.74020E+01 0.00000E+00
 -1      1349 2.79000E+01 4.87010E+01 0.00000E+00
 -1      1350 2.94000E+01 4.87010E+01 0.00000E+00
 -1      1351 2.71500E+01 4.74020E+01 0.00000E+00
 -1      1352 3.09000E+01 4.87010E+01 0.00000E+00
 -1      1353 3.24000E+01 4.87010E+01 0.00000E+00
 -1      1354 3.01500E+01 4.74020E+01 0.00000E+00
 -1      1355 3.39000E+01 4.87010E+01 0.00000E+00
 -1      1356 3.54000E+01 4.87010E+01 0.00000E+00
 -1      1357 3.31500E+01 4.74020E+01 0.00000E+00
 -1      1358 3.69000E+01 4.87010E+01 0.00000E+00
 -1      1359 3.84000E+01 4.87010E+01 0.00000E+00
 -1      1360 3.61500E+01 4.74020E+01 0.00000E+00
 -1      1361 3.99000E+01 4.87010E+01 0.00000E+00
 -1      1362 4.14000E+01 4.87010E+01 0.00000E+00
 -1      1363 3.91500E+01 4.74020E+01 0.00000E+00
 -1      1364 4.29000E+01 4.87010E+01 0.00000E+00
 -1      1365 4.44000E+01 4.87010E+01 0.00000E+00
 -1      1366 4.21500E+01 4.74020E+01 0.00000E+00
 -1      1367 4.59000E+01 4.87010E+01 0.00000E+00
 -1      1368 4.74000E+01 4.87010E+01 0.00000E+00
 -1      1369 4.51500E+01 4.74020E+01 0.00000E+00
 -1      1370 4.89000E+01 4.87010E+01 0.00000E+00
 -1      1371 5.04000E+01 4.87010E+01 0.00000E+00
 -1      1372 4.81500E+01 4.74020E+01 0.00000E+00
 -1      1373 5.19000E+01 4.87010E+01 0.00000E+00
 -1      1374 5.34000E+01 4.87010E+01 0.00000E+00
 -1      1375 5.11500E+01 4.74020E+01 0.00000E+00
 -1      1376 5.49000E+01 4.87010E+01 0.00000E+00
 -1      1377 5.64000E+01 4.87010E+01 0.00000E+00
 -1      1378 5.41500E+01 4.74020E+01 0.00000E+00
 -1      1379 5.79000E+01 4.87010E+01 0.00000E+00
 -1      1380 5.94000E+01 4.87010E+01 0.00000E+00
 -1      1381 5.71500E+01 4.74020E+01 0.00000E+00
 -1      1382 6.09000E+01 4.87010E+01 0.00000E+00
 -1      1383 6.24000E+01 4.87010E+01 0.00000E+00
 -1      1384 6.01500E+01 4.74020E+01 0.00000E+00
 -1      1385 6.39000E+01 4.87010E+01 0.00000E+00
 -1      1386 6.54000E+01 4.87010E+01 0.00000E+00
 -1      1387 6.31500E+01 4.74020E+01 0.00000E+00
 -1      1388 6.69000E+01 4.87010E+01 0.00000E+00
 -1      1389 6.84000E+01 4.87010E+01 0.00000E+00
 -1      1390 6.61500E+01 4.74020E+01 0.00000E+00
 -1      1391 6.99000E+01 4.87010E+01 0.00000E+00
 -1      1392 7.14000E+01 4.87010E+01 0.00000E+00
 -1      1393 6.91500E+01 4.74020E+01 0.00000E+00
 -1      1394 7.29000E+01 4.87010E+01 0.00000E+00
 -1      1395 7.44000E+01 4.87010E+01 0.00000E+00
 -1      1396 7.21500E+01 4.74020E+01 0.00000E+00
 -1      1397 7.59000E+01 4.87010E+01 0.00000E+00
 -1      1398 7.74000E+01 4.87010E+01 0.00000E+00
 -1      1399 7.51500E+01 4.74020E+01 0.00000E+00
 -1      1400 7.89000E+01 4.87010E+01 0.00000E+00
 -1      1401 8.04000E+01 4.87010E+01 0.00000E+00
 -1      1402 7.81500E+01 4.74020E+01 0.00000E+00
 -1      1403 8.19000E+01 4.87010E+01 0.00000E+00
 -1      1404 8.34000E+01 4.87010E+01 0.00000E+00
 -1      1405 8.11500E+01 4.74020E+01 0.00000E+00
 -1      1406 8.49000E+01 4.87010E+01 0.00000E+00
 -1      1407 8.64000E+01 4.87010E+01 0.00000E+00
 -1      1408 8.41500E+01 4.74020E+01 0.00000E+00
 -1      1409 8.79000E+01 4.87010E+01 0.00000E+00
 -1      1410 8.94000E+01 4.87010E+01 0.00000E+00
 -1      1411 8.71500E+01 4.74020E+01 0.00000E+00
 -1      1412 9.09000E+01 4.87010E+01 0.00000E+00
 -1      1413 9.24000E+01 4.87010E+01 0.00000E+00
 -1      1414 9.01500E+01 4.74020E+01 0.00000E+00
 -1      1415 9.39000E+01 4.87010E+01 0.00000E+00
 -1      1416 9.54000E+01 4.87010E+01 0.00000E+00
 -1      1417 9.31500E+01 4.74020E+01 0.00000E+00
 -1      1418 9.69000E+01 4.87010E+01 0.00000E+00
 -1      1419 9.84000E+01 4.87010E+01 0.00000E+00
 -1      1420 9.61500E+01 4.74020E+01 0.00000E+00
 -1      1421 9.99000E+01 4.87010E+01 0.00000E+00
 -1      1422 1.01400E+02 4.87010E+01 0.00000E+00
 -1      1423 9.91500E+01 4.74020E+01 0.00000E+00
 -1      1424 1.02900E+02 4.87010E+01 0.00000E+00
 -1      1425 1.04400E+02 4.87010E+01 0.00000E+00
 -1      1426 1.02150E+02 4.74020E+01 0.00000E+00
 -1      1427 1.05900E+02 4.87010E+01 0.00000E+00
 -1      1428 1.07400E+02 4.87010E+01 0.00000E+00
 -1      1429 1.05150E+02 4.74020E+01 0.00000E+00
 -1      1430 1.08900E+02 4.87010E+01 0.00000E+00
 -1      1431 1.10400E+02 4.87010E+01 0.00000E+00
 -1      1432 1.08150E+02 4.74020E+01 0.00000E+00
 -1      1433 1.11900E+02 4.87010E+01 0.00000E+00
 -1      1434 1.13400E+02 4.87010E+01 0.00000E+00
 -1      1435 1.11150E+02 4.74020E+01 0.00000E+00
 -1      1436 1.14900E+02 4.87010E+01 0.00000E+00
 -1      1437 1.16400E+02 4.87010E+01 0.00000E+00
 -1      1438 1.14150E+02 4.74020E+01 0.00000E+00
 -1      1439 1.17900E+02 4.87010E+01 0.00000E+00
 -1      1440 1.19400E+02 4.87010E+01 0.00000E+00
 -1      1441 1.17150E+02 4.74020E+01 0.00000E+00
 -1      1442 1.20900E+02 4.87010E+01 0.00000E+00
 -1      1443 1.22400E+02 4.87010E+01 0.00000E+00
 -1      1444 1.20150E+02 4.74020E+01 0.00000E+00
 -1      1445 1.23900E+02 4.87010E+01 0.00000E+00
 -1      1446 1.25400E+02 4.87010E+01 0.00000E+00
 -1      1447 1.23150E+02 4.74020E+01 0.00000E+00
 -1      1448 1.26900E+02 4.87010E+01 0.00000E+00
 -1      1449 1.28400E+02 4.87010E+01 0.00000E+00
 -1      1450 1.26150E+02 4.74020E+01 0.00000E+00
 -1      1451 1.29900E+02 4.87010E+01 0.00000E+00
 -1      1452 1.31400E+02 4.87010E+01 0.00000E+00
 -1      1453 1.29150E+02 4.74020E+01 0.00000E+00
 -1      1454 1.32900E+02 4.87010E+01 0.00000E+00
 -1      1455 1.34400E+02 4.87010E+01 0.00000E+00
 -1      1456 1.32150E+02 4.74020E+01 0.00000E+00
 -1      1457 1.35900E+02 4.87010E+01 0.00000E+00
 -1      1458 1.37400E+02 4.87010E+01 0.00000E+00
 -1      1459 1.35150E+02 4.74020E+01 0.00000E+00
 -1      1460 1.38900E+02 4.87010E+01 0.00000E+00
 -1      1461 1.40400E+02 4.87010E+01 0.00000E+00
 -1      1462 1.38150E+02 4.74020E+01 0.00000E+00
 -1      1463 1.41900E+02 4.87010E+01 0.00000E+00
 -1      1464 1.43400E+02 4.87010E+01 0.00000E+00
 -1      1465 1.41150E+02 4.74020E+01 0.00000E+00
 -1      1466 1.44900E+02 4.87010E+01 0.00000E+00
 -1      1467 1.46400E+02 4.87010E+01 0.00000E+00
 -1      1468 1.44150E+02 4.74020E+01 0.00000E+00
 -1      1469 1.48575E+02 4.85500E+01 0.00000E+00
 -1      1470 1.47825E+02 4.72510E+01 0.00000E+00
 -1      1471 6.01200E+00 1.09375E+00 0.00000E+00
 -1      1472 4.51200E+00 1.09375E+00 0.00000E+00
 -1      1473 4.37400E+00 2.18750E+00 0.00000E+00
 -1      1474 9.01200E+00 1.09375E+00 0.00000E+00
 -1      1475 7.51200E+00 1.09375E+00 0.00000E+00
 -1      1476 7.37400E+00 2.18750E+00 0.00000E+00
 -1      1477 1.20120E+01 1.09375E+00 0.00000E+00
 -1      1478 1.05120E+01 1.09375E+00 0.00000E+00
 -1      1479 1.03740E+01 2.18750E+00 0.00000E+00
 -1      1480 1.50120E+01 1.09375E+00 0.00000E+00
 -1      1481 1.35120E+01 1.09375E+00 0.00000E+00
 -1      1482 1.33740E+01 2.18750E+00 0.00000E+00
 -1      1483 1.80120E+01 1.09375E+00 0.00000E+00
 -1      1484 1.65120E+01 1.09375E+00 0.00000E+00
 -1      1485 1.63740E+01 2.18750E+00 0.00000E+00
 -1      1486 2.10120E+01 1.09375E+00 0.00000E+00
 -1      1487 1.95120E+01 1.09375E+00 0.00000E+00
 -1      1488 1.93740E+01 2.18750E+00 0.00000E+00
 -1      1489 2.40120E+01 1.09375E+00 0.00000E+00
 -1      1490 2.25120E+01 1.09375E+00 0.00000E+00
 -1      1491 2.23740E+01 2.18750E+00 0.00000E+00
 -1      1492 2.70120E+01 1.09375E+00 0.00000E+00
 -1      1493 2.55120E+01 1.09375E+00 0.00000E+00
 -1      1494 2.53740E+01 2.18750E+00 0.00000E+00
 -1      1495 3.00120E+01 1.09375E+00 0.00000E+00
 -1      1496 2.85120E+01 1.09375E+00 0.00000E+00
 -1      1497 2.83740E+01 2.18750E+00 0.00000E+00
 -1      1498 3.30120E+01 1.09375E+00 0.00000E+00
 -1      1499 3.15120E+01 1.09375E+00 0.00000E+00
 -1      1500 3.13740E+01 2.18750E+00 0.00000E+00
 -1      1501 3.60120E+01 1.09375E+00 0.00000E+00
 -1      1502 3.45120E+01 1.09375E+00 0.00000E+00
 -1      1503 3.43740E+01 2.18750E+00 0.00000E+00
 -1      1504 3.90120E+01 1.09375E+00 0.00000E+00
 -1      1505 3.75120E+01 1.09375E+00 0.00000E+00
 -1      1506 3.73740E+01 2.18750E+00 0.00000E+00
 -1      1507 4.20120E+01 1.09375E+00 0.00000E+00
 -1      1508 4.05120E+01 1.09375E+00 0.00000E+00
 -1      1509 4.03740E+01 2.18750E+00 0.00000E+00
 -1      1510 4.50120E+01 1.09375E+00 0.00000E+00
 -1      1511 4.35120E+01 1.09375E+00 0.00000E+00
 -1      1512 4.33740E+01 2.18750E+00 0.00000E+00
 -1      1513 4.80120E+01 1.09375E+00 0.00000E+00
 -1      1514 4.65120E+01 1.09375E+00 0.00000E+00
 -1      1515 4.63740E+01 2.18750E+00 0.00000E+00
 -1      1516 5.10120E+01 1.09375E+00 0.00000E+00
 -1      1517 4.95120E+01 1.09375E+00 0.00000E+00
 -1      1518 4.93740E+01 2.18750E+00 0.00000E+00
 -1      1519 5.40120E+01 1.09375E+00 0.00000E+00
 -1      1520 5.25120E+01 1.09375E+00 0.00000E+00
 -1      1521 5.23740E+01 2.18750E+00 0.00000E+00
 -1      1522 5.70120E+01 1.09375E+00 0.00000E+00
 -1      1523 5.55120E+01 1.09375E+00 0.00000E+00
 -1      1524 5.53740E+01 2.18750E+00 0.00000E+00
 -1      1525 6.00120E+01 1.09375E+00 0.00000E+00
 -1      1526 5.85120E+01 1.09375E+00 0.00000E+00
 -1      1527 5.83740E+01 2.18750E+00 0.00000E+00
 -1      1528 6.30120E+01 1.09375E+00 0.00000E+00
 -1      1529 6.15120E+01 1.09375E+00 0.00000E+00
 -1      1530 6.13740E+01 2.18750E+00 0.00000E+00
 -1      1531 6.60120E+01 1.09375E+00 0.00000E+00
 -1      1532 6.45120E+01 1.09375E+00 0.00000E+00
 -1      1533 6.43740E+01 2.18750E+00 0.00000E+00
 -1      1534 6.90120E+01 1.09375E+00 0.00000E+00
 -1      1535 6.75120E+01 1.09375E+00 0.00000E+00
 -1      1536 6.73740E+01 2.18750E+00 0.00000E+00
 -1      1537 7.20120E+01 1.09375E+00 0.00000E+00
 -1      1538 7.05120E+01 1.09375E+00 0.00000E+00
 -1      1539 7.03740E+01 2.18750E+00 0.00000E+00
 -1      1540 7.50120E+01 1.09375E+00 0.00000E+00
 -1      1541 7.35120E+01 1.09375E+00 0.00000E+00
 -1      1542 7.33740E+01 2.18750E+00 0.00000E+00
 -1      1543 7.80120E+01 1.09375E+00 0.00000E+00
 -1      1544 7.65120E+01 1.09375E+00 0.00000E+00
 -1      1545 7.63740E+01 2.18750E+00 0.00000E+00
 -1      1546 8.10120E+01 1.09375E+00 0.00000E+00
 -1      1547 7.95120E+01 1.09375E+00 0.00000E+00
 -1      1548 7.93740E+01 2.18750E+00 0.00000E+00
 -1      1549 8.40120E+01 1.09375E+00 0.00000E+00
 -1      1550 8.25120E+01 1.09375E+00 0.00000E+00
 -1      1551 8.23740E+01 2.18750E+00 0.00000E+00
 -1      1552 8.70120E+01 1.09375E+00 0.00000E+00
 -1      1553 8.55120E+01 1.09375E+00 0.00000E+00
 -1      1554 8.53740E+01 2.18750E+00 0.00000E+00
 -1      1555 9.00120E+01 1.09375E+00 0.00000E+00
 -1      1556 8.85120E+01 1.09375E+00 0.00000E+00
 -1      1557 8.83740E+01 2.18750E+00 0.00000E+00
 -1      1558 9.30120E+01 1.09375E+00 0.00000E+00
 -1      1559 9.15120E+01 1.09375E+00 0.00000E+00
 -1      1560 9.13740E+01 2.18750E+00 0.00000E+00
 -1      1561 9.60120E+01 1.09375E+00 0.00000E+00
 -1      1562 9.45120E+01 1.09375E+00 0.00000E+00
 -1      1563 9.43740E+01 2.18750E+00 0.00000E+00
 -1      1564 9.90120E+01 1.09375E+00 0.00000E+00
 -1      1565 9.75120E+01 1.09375E+00 0.00000E+00
 -1      1566 9.73740E+01 2.18750E+00 0.00000E+00
 -1      1567 1.02012E+02 1.09375E+00 0.00000E+00
 -1      1568 1.00512E+02 1.09375E+00 0.00000E+00
 -1      1569 1.00374E+02 2.18750E+00 0.00000E+00
 -1      1570 1.05012E+02 1.09375E+00 0.00000E+00
 -1      1571 1.03512E+02 1.09375E+00 0.00000E+00
 -1      1572 1.03374E+02 2.18750E+00 0.00000E+00
 -1      1573 1.08012E+02 1.09375E+00 0.00000E+00
 -1      1574 1.06512E+02 1.09375E+00 0.00000E+00
 -1      1575 1.06374E+02 2.18750E+00 0.00000E+00
 -1      1576 1.11012E+02 1.09375E+00 0.00000E+00
 -1      1577 1.09512E+02 1.09375E+00 0.00000E+00
 -1      1578 1.09374E+02 2.18750E+00 0.00000E+00
 -1      1579 1.14012E+02 1.09375E+00 0.00000E+00
 -1      1580 1.12512E+02 1.09375E+00 0.00000E+00
 -1      1581 1.12374E+02 2.18750E+00 0.00000E+00
 -1      1582 1.17012E+02 1.09375E+00 0.00000E+00
 -1      1583 1.15512E+02 1.09375E+00 0.00000E+00
 -1      1584 1.15374E+02 2.18750E+00 0.00000E+00
 -1      1585 1.20012E+02 1.09375E+00 0.00000E+00
 -1      1586 1.18512E+02 1.09375E+00 0.00000E+00
 -1      1587 1.18374E+02 2.18750E+00 0.00000E+00
 -1      1588 1.23012E+02 1.09375E+00 0.00000E+00
 -1      1589 1.21512E+02 1.09375E+00 0.00000E+00
 -1      1590 1.21374E+02 2.18750E+00 0.00000E+00
 -1      1591 1.26012E+02 1.09375E+00 0.00000E+00
 -1      1592 1.24512E+02 1.09375E+00 0.00000E+00
 -1      1593 1.24374E+02 2.18750E+00 0.00000E+00
 -1      1594 1.29012E+02 1.09375E+00 0.00000E+00
 -1      1595 1.27512E+02 1.09375E+00 0.00000E+00
 -1      1596 1.27374E+02 2.18750E+00 0.00000E+00
 -1      1597 1.32012E+02 1.09375E+00 0.00000E+00
 -1      1598 1.30512E+02 1.09375E+00 0.00000E+00
 -1      1599 1.30374E+02 2.18750E+00 0.00000E+00
 -1      1600 1.35012E+02 1.09375E+00 0.00000E+00
 -1      1601 1.33512E+02 1.09375E+00 0.00000E+00
 -1      1602 1.33374E+02 2.18750E+00 0.00000E+00
 -1      1603 1.38012E+02 1.09375E+00 0.00000E+00
 -1      1604 1.36512E+02 1.09375E+00 0.00000E+00
 -1      1605 1.36374E+02 2.18750E+00 0.00000E+00
 -1      1606 1.41012E+02 1.09375E+00 0.00000E+00
 -1      1607 1.39512E+02 1.09375E+00 0.00000E+00
 -1      1608 1.39374E+02 2.18750E+00 0.00000E+00
 -1      1609 1.44012E+02 1.09375E+00 0.00000E+00
 -1      1610 1.42512E+02 1.09375E+00 0.00000E+00
 -1      1611 1.42374E+02 2.18750E+00 0.00000E+00
 -1      1612 1.47012E+02 1.09375E+00 0.00000E+00
 -1      1613 1.45512E+02 1.09375E+00 0.00000E+00
 -1      1614 1.45374E+02 2.18750E+00 0.00000E+00
 -1      1615 1.48575E+02 1.47500E+00 0.00000E+00
 -1      1616 1.48701E+02 5.16250E+00 0.00000E+00
 -1      1617 1.48701E+02 3.68750E+00 0.00000E+00
 -1      1618 1.48701E+02 8.11250E+00 0.00000E+00
 -1      1619 1.48701E+02 6.63750E+00 0.00000E+00
 -1      1620 1.47402E+02 5.90000E+00 0.00000E+00
 -1      1621 1.48701E+02 1.10625E+01 0.00000E+00
 -1      1622 1.48701E+02 9.58750E+00 0.00000E+00
 -1      1623 1.47402E+02 8.85000E+00 0.00000E+00
 -1      1624 1.48701E+02 1.40125E+01 0.00000E+00
 -1      1625 1.48701E+02 1.25375E+01 0.00000E+00
 -1      1626 1.47402E+02 1.18000E+01 0.00000E+00
 -1      1627 1.48701E+02 1.69125E+01 0.00000E+00
 -1      1628 1.48701E+02 1.54625E+01 0.00000E+00
 -1      1629 1.47402E+02 1.47250E+01 0.00000E+00
 -1      1630 1.48701E+02 1.98625E+01 0.00000E+00
 -1      1631 1.48701E+02 1.83875E+01 0.00000E+00
 -1      1632 1.47402E+02 1.76500E+01 0.00000E+00
 -1      1633 1.48701E+02 2.28125E+01 0.00000E+00
 -1      1634 1.48701E+02 2.13375E+01 0.00000E+00
 -1      1635 1.47402E+02 2.06000E+01 0.00000E+00
 -1      1636 1.48701E+02 2.57625E+01 0.00000E+00
 -1      1637 1.48701E+02 2.42875E+01 0.00000E+00
 -1      1638 1.47402E+02 2.35500E+01 0.00000E+00
 -1      1639 1.48701E+02 2.87125E+01 0.00000E+00
 -1      1640 1.48701E+02 2.72375E+01 0.00000E+00
 -1      1641 1.47402E+02 2.65000E+01 0.00000E+00
 -1      1642 1.48701E+02 3.16625E+01 0.00000E+00
 -1      1643 1.48701E+02 3.01875E+01 0.00000E+00
 -1      1644 1.47402E+02 2.94500E+01 0.00000E+00
 -1      1645 1.48701E+02 3.45625E+01 0.00000E+00
 -1      1646 1.48701E+02 3.31125E+01 0.00000E+00
 -1      1647 1.47402E+02 3.23750E+01 0.00000E+00
 -1      1648 1.48701E+02 3.75125E+01 0.00000E+00
 -1      1649 1.48701E+02 3.60375E+01 0.00000E+00
 -1      1650 1.47402E+02 3.53000E+01 0.00000E+00
 -1      1651 1.48701E+02 4.04625E+01 0.00000E+00
 -1      1652 1.48701E+02 3.89875E+01 0.00000E+00
 -1      1653 1.47402E+02 3.82500E+01 0.00000E+00
 -1      1654 1.48701E+02 4.34125E+01 0.00000E+00
 -1      1655 1.48701E+02 4.19375E+01 0.00000E+00
 -1      1656 1.47402E+02 4.12000E+01 0.00000E+00
 -1      1657 1.48263E+02 4.60692E+01 0.00000E+00
 -1      1658 1.48263E+02 4.45942E+01 0.00000E+00
 -1      1659 1.46964E+02 4.38568E+01 0.00000E+00
 -1      1660 1.46088E+02 4.62202E+01 0.00000E+00
 -1      1661 3.31513E+01 2.21575E+01 0.00000E+00
 -1      1662 3.32388E+01 2.29354E+01 0.00000E+00
 -1      1663 3.26607E+01 2.06504E+01 0.00000E+00
 -1      1664 3.28833E+01 2.13128E+01 0.00000E+00
 -1      1665 3.19442E+01 1.92554E+01 0.00000E+00
 -1      1666 3.23113E+01 1.98844E+01 0.00000E+00
 -1      1667 3.09136E+01 1.78823E+01 0.00000E+00
 -1      1668 3.14628E+01 1.84740E+01 0.00000E+00
 -1      1669 2.95932E+01 1.69917E+01 0.00000E+00
 -1      1670 3.01636E+01 1.73883E+01 0.00000E+00
 -1      1671 2.82305E+01 1.63152E+01 0.00000E+00
 -1      1672 2.88782E+01 1.65947E+01 0.00000E+00
 -1      1673 2.66479E+01 1.58284E+01 0.00000E+00
 -1      1674 2.74158E+01 1.59796E+01 0.00000E+00
 -1      1675 2.49787E+01 1.58116E+01 0.00000E+00
 -1      1676 2.57354E+01 1.57918E+01 0.00000E+00
 -1      1677 2.33889E+01 1.61026E+01 0.00000E+00
 -1      1678 2.41051E+01 1.59274E+01 0.00000E+00
 -1      1679 2.17996E+01 1.67365E+01 0.00000E+00
 -1      1680 2.25188E+01 1.63799E+01 0.00000E+00
 -1      1681 2.04973E+01 1.77664E+01 0.00000E+00
 -1      1682 2.10754E+01 1.72971E+01 0.00000E+00
 -1      1683 1.94338E+01 1.89408E+01 0.00000E+00
 -1      1684 1.98901E+01 1.83746E+01 0.00000E+00
 -1      1685 1.86396E+01 2.03114E+01 0.00000E+00
 -1      1686 1.89712E+01 1.96573E+01 0.00000E+00
 -1      1687 1.80579E+01 2.18478E+01 0.00000E+00
 -1      1688 1.82505E+01 2.11083E+01 0.00000E+00
 -1      1689 1.79839E+01 2.35414E+01 0.00000E+00
 -1      1690 1.80102E+01 2.27612E+01 0.00000E+00
 -1      1691 1.81728E+01 2.51163E+01 0.00000E+00
 -1      1692 1.80444E+01 2.44126E+01 0.00000E+00
 -1      1693 1.85929E+01 2.67811E+01 0.00000E+00
 -1      1694 1.82778E+01 2.60337E+01 0.00000E+00
 -1      1695 1.95896E+01 2.80792E+01 0.00000E+00
 -1      1696 1.91760E+01 2.74965E+01 0.00000E+00
 -1      1697 2.06375E+01 2.91738E+01 0.00000E+00
 -1      1698 2.01303E+01 2.86995E+01 0.00000E+00
 -1      1699 2.19203E+01 3.00543E+01 0.00000E+00
 -1      1700 2.12995E+01 2.96751E+01 0.00000E+00
 -1      1701 2.34725E+01 3.08138E+01 0.00000E+00
 -1      1702 2.26985E+01 3.05510E+01 0.00000E+00
 -1      1703 2.51222E+01 3.10122E+01 0.00000E+00
 -1      1704 2.43919E+01 3.09351E+01 0.00000E+00
 -1      1705 2.66421E+01 3.09079E+01 0.00000E+00
 -1      1706 2.59573E+01 3.09756E+01 0.00000E+00
 -1      1707 2.81714E+01 3.06064E+01 0.00000E+00
 -1      1708 2.74768E+01 3.08220E+01 0.00000E+00
 -1      1709 2.94977E+01 2.98813E+01 0.00000E+00
 -1      1710 2.89031E+01 3.02077E+01 0.00000E+00
 -1      1711 3.06679E+01 2.90040E+01 0.00000E+00
 -1      1712 3.01504E+01 2.94360E+01 0.00000E+00
 -1      1713 3.16519E+01 2.79115E+01 0.00000E+00
 -1      1714 3.12233E+01 2.84401E+01 0.00000E+00
 -1      1715 3.24059E+01 2.66527E+01 0.00000E+00
 -1      1716 3.20893E+01 2.72504E+01 0.00000E+00
 -1      1717 3.29041E+01 2.52667E+01 0.00000E+00
 -1      1718 3.27073E+01 2.59190E+01 0.00000E+00
 -1      1719 3.31253E+01 2.38052E+01 0.00000E+00
 -1      1720 3.30587E+01 2.44848E+01 0.00000E+00
 -1      1721 3.09746E+01 1.71863E+01 0.00000E+00
 -1      1722 3.22060E+01 1.84617E+01 0.00000E+00
 -1      1723 1.48437E+02 2.56875E+00 0.00000E+00
 -1      1724 1.47138E+02 3.30625E+00 0.00000E+00
 -1      1725 3.36544E+01 2.16199E+01 0.00000E+00
 -1      1726 3.30369E+01 2.00092E+01 0.00000E+00
 -1      1727 3.38088E+01 2.33344E+01 0.00000E+00
 -1      1728 2.95095E+01 1.62954E+01 0.00000E+00
 -1      1729 2.79798E+01 1.55627E+01 0.00000E+00
 -1      1730 2.62526E+01 1.51904E+01 0.00000E+00
 -1      1731 2.44666E+01 1.52696E+01 0.00000E+00
 -1      1732 2.27228E+01 1.56628E+01 0.00000E+00
 -1      1733 2.11285E+01 1.65006E+01 0.00000E+00
 -1      1734 1.97971E+01 1.76692E+01 0.00000E+00
 -1      1735 1.87273E+01 1.89938E+01 0.00000E+00
 -1      1736 1.78756E+01 2.05072E+01 0.00000E+00
 -1      1737 1.74388E+01 2.22175E+01 0.00000E+00
 -1      1738 1.74517E+01 2.40021E+01 0.00000E+00
 -1      1739 1.76173E+01 2.57906E+01 0.00000E+00
 -1      1740 1.83054E+01 2.74233E+01 0.00000E+00
 -1      1741 1.94291E+01 2.87591E+01 0.00000E+00
 -1      1742 2.06319E+01 2.98807E+01 0.00000E+00
 -1      1743 2.20721E+01 3.08787E+01 0.00000E+00
 -1      1744 2.37697E+01 3.14968E+01 0.00000E+00
 -1      1745 2.55242E+01 3.15816E+01 0.00000E+00
 -1      1746 2.71940E+01 3.14591E+01 0.00000E+00
 -1      1747 2.87604E+01 3.09745E+01 0.00000E+00
 -1      1748 3.01449E+01 3.01306E+01 0.00000E+00
 -1      1749 3.13531E+01 2.91215E+01 0.00000E+00
 -1      1750 3.23459E+01 2.78965E+01 0.00000E+00
 -1      1751 3.30847E+01 2.65016E+01 0.00000E+00
 -1      1752 3.35407E+01 2.49860E+01 0.00000E+00
 -1      1753 2.87400E+00 4.77875E+01 0.00000E+00
 -1      1754 3.89700E+00 4.04125E+01 0.00000E+00
 -1      1755 3.89700E+00 4.18875E+01 0.00000E+00
 -1      1756 3.89700E+00 4.33625E+01 0.00000E+00
 -1      1757 3.89700E+00 4.48375E+01 0.00000E+00
 -1      1758 5.19600E+00 4.26250E+01 0.00000E+00
 -1      1759 3.89700E+00 3.45500E+01 0.00000E+00
 -1      1760 3.89700E+00 3.60000E+01 0.00000E+00
 -1      1761 3.89700E+00 3.16000E+01 0.00000E+00
 -1      1762 3.89700E+00 3.30750E+01 0.00000E+00
 -1      1763 5.19600E+00 3.38000E+01 0.00000E+00
 -1      1764 3.89700E+00 2.86500E+01 0.00000E+00
 -1      1765 3.89700E+00 3.01250E+01 0.00000E+00
 -1      1766 5.19600E+00 3.08500E+01 0.00000E+00
 -1      1767 3.89700E+00 2.57000E+01 0.00000E+00
 -1      1768 3.89700E+00 2.71750E+01 0.00000E+00
 -1      1769 5.19600E+00 2.79000E+01 0.00000E+00
 -1      1770 3.89700E+00 2.27500E+01 0.00000E+00
 -1      1771 3.89700E+00 2.42250E+01 0.00000E+00
 -1      1772 5.19600E+00 2.49500E+01 0.00000E+00
 -1      1773 3.89700E+00 1.98000E+01 0.00000E+00
 -1      1774 3.89700E+00 2.12750E+01 0.00000E+00
 -1      1775 5.19600E+00 2.20000E+01 0.00000E+00
 -1      1776 3.89700E+00 1.69000E+01 0.00000E+00
 -1      1777 3.89700E+00 1.83500E+01 0.00000E+00
 -1      1778 5.19600E+00 1.90750E+01 0.00000E+00
 -1      1779 3.89700E+00 1.39500E+01 0.00000E+00
 -1      1780 3.89700E+00 1.54250E+01 0.00000E+00
 -1      1781 5.19600E+00 1.61500E+01 0.00000E+00
 -1      1782 3.89700E+00 1.10000E+01 0.00000E+00
 -1      1783 3.89700E+00 1.24750E+01 0.00000E+00
 -1      1784 5.19600E+00 1.32000E+01 0.00000E+00
 -1      1785 3.89700E+00 8.05000E+00 0.00000E+00
 -1      1786 3.89700E+00 9.52500E+00 0.00000E+00
 -1      1787 5.19600E+00 1.02500E+01 0.00000E+00
 -1      1788 3.89700E+00 5.10000E+00 0.00000E+00
 -1      1789 3.89700E+00 6.57500E+00 0.00000E+00
 -1      1790 5.19600E+00 7.30000E+00 0.00000E+00
 -1      1791 4.20450E+00 3.09687E+00 0.00000E+00
 -1      1792 4.06650E+00 4.19063E+00 0.00000E+00
 -1      1793 5.36550E+00 4.91563E+00 0.00000E+00
 -1      1794 5.70450E+00 3.09687E+00 0.00000E+00
 -1      1795 3.62400E+00 4.64885E+01 0.00000E+00
 -1      1796 8.70450E+00 3.09687E+00 0.00000E+00
 -1      1797 7.20450E+00 3.09687E+00 0.00000E+00
 -1      1798 7.03500E+00 4.00625E+00 0.00000E+00
 -1      1799 4.92300E+00 4.57510E+01 0.00000E+00
 -1      1800 8.40000E+00 4.61030E+01 0.00000E+00
 -1      1801 9.90000E+00 4.61030E+01 0.00000E+00
 -1      1802 1.14000E+01 4.61030E+01 0.00000E+00
 -1      1803 1.29000E+01 4.61030E+01 0.00000E+00
 -1      1804 1.06500E+01 4.48040E+01 0.00000E+00
 -1      1805 1.44000E+01 4.61030E+01 0.00000E+00
 -1      1806 1.59000E+01 4.61030E+01 0.00000E+00
 -1      1807 1.36500E+01 4.48040E+01 0.00000E+00
 -1      1808 1.74000E+01 4.61030E+01 0.00000E+00
 -1      1809 1.89000E+01 4.61030E+01 0.00000E+00
 -1      1810 1.66500E+01 4.48040E+01 0.00000E+00
 -1      1811 2.04000E+01 4.61030E+01 0.00000E+00
 -1      1812 2.19000E+01 4.61030E+01 0.00000E+00
 -1      1813 1.96500E+01 4.48040E+01 0.00000E+00
 -1      1814 2.34000E+01 4.61030E+01 0.00000E+00
 -1      1815 2.49000E+01 4.61030E+01 0.00000E+00
 -1      1816 2.26500E+01 4.48040E+01 0.00000E+00
 -1      1817 2.64000E+01 4.61030E+01 0.00000E+00
 -1      1818 2.79000E+01 4.61030E+01 0.00000E+00
 -1      1819 2.56500E+01 4.48040E+01 0.00000E+00
 -1      1820 2.94000E+01 4.61030E+01 0.00000E+00
 -1      1821 3.09000E+01 4.61030E+01 0.00000E+00
 -1      1822 2.86500E+01 4.48040E+01 0.00000E+00
 -1      1823 3.24000E+01 4.61030E+01 0.00000E+00
 -1      1824 3.39000E+01 4.61030E+01 0.00000E+00
 -1      1825 3.16500E+01 4.48040E+01 0.00000E+00
 -1      1826 3.54000E+01 4.61030E+01 0.00000E+00
 -1      1827 3.69000E+01 4.61030E+01 0.00000E+00
 -1      1828 3.46500E+01 4.48040E+01 0.00000E+00
 -1      1829 3.84000E+01 4.61030E+01 0.00000E+00
 -1      1830 3.99000E+01 4.61030E+01 0.00000E+00
 -1      1831 3.76500E+01 4.48040E+01 0.00000E+00
 -1      1832 4.14000E+01 4.61030E+01 0.00000E+00
 -1      1833 4.29000E+01 4.61030E+01 0.00000E+00
 -1      1834 4.06500E+01 4.48040E+01 0.00000E+00
 -1      1835 4.44000E+01 4.61030E+01 0.00000E+00
 -1      1836 4.59000E+01 4.61030E+01 0.00000E+00
 -1      1837 4.36500E+01 4.48040E+01 0.00000E+00
 -1      1838 4.74000E+01 4.61030E+01 0.00000E+00
 -1      1839 4.89000E+01 4.61030E+01 0.00000E+00
 -1      1840 4.66500E+01 4.48040E+01 0.00000E+00
 -1      1841 5.04000E+01 4.61030E+01 0.00000E+00
 -1      1842 5.19000E+01 4.61030E+01 0.00000E+00
 -1      1843 4.96500E+01 4.48040E+01 0.00000E+00
 -1      1844 5.34000E+01 4.61030E+01 0.00000E+00
 -1      1845 5.49000E+01 4.61030E+01 0.00000E+00
 -1      1846 5.26500E+01 4.48040E+01 0.00000E+00
 -1      1847 5.64000E+01 4.61030E+01 0.00000E+00
 -1      1848 5.79000E+01 4.61030E+01 0.00000E+00
 -1      1849 5.56500E+01 4.48040E+01 0.00000E+00
 -1      1850 5.94000E+01 4.61030E+01 0.00000E+00
 -1      1851 6.09000E+01 4.61030E+01 0.00000E+00
 -1      1852 5.86500E+01 4.48040E+01 0.00000E+00
 -1      1853 6.24000E+01 4.61030E+01 0.00000E+00
 -1      1854 6.39000E+01 4.61030E+01 0.00000E+00
 -1      1855 6.16500E+01 4.48040E+01 0.00000E+00
 -1      1856 6.54000E+01 4.61030E+01 0.00000E+00
 -1      1857 6.69000E+01 4.61030E+01 0.00000E+00
 -1      1858 6.46500E+01 4.48040E+01 0.00000E+00
 -1      1859 6.84000E+01 4.61030E+01 0.00000E+00
 -1      1860 6.99000E+01 4.61030E+01 0.00000E+00
 -1      1861 6.76500E+01 4.48040E+01 0.00000E+00
 -1      1862 7.14000E+01 4.61030E+01 0.00000E+00
 -1      1863 7.29000E+01 4.61030E+01 0.00000E+00
 -1      1864 7.06500E+01 4.48040E+01 0.00000E+00
 -1      1865 7.44000E+01 4.61030E+01 0.00000E+00
 -1      1866 7.59000E+01 4.61030E+01 0.00000E+00
 -1      1867 7.36500E+01 4.48040E+01 0.00000E+00
 -1      1868 7.74000E+01 4.61030E+01 0.00000E+00
 -1      1869 7.89000E+01 4.61030E+01 0.00000E+00
 -1      1870 7.66500E+01 4.48040E+01 0.00000E+00
 -1      1871 8.04000E+01 4.61030E+01 0.00000E+00
 -1      1872 8.19000E+01 4.61030E+01 0.00000E+00
 -1      1873 7.96500E+01 4.48040E+01 0.00000E+00
 -1      1874 8.34000E+01 4.61030E+01 0.00000E+00
 -1      1875 8.49000E+01 4.61030E+01 0.00000E+00
 -1      1876 8.26500E+01 4.48040E+01 0.00000E+00
 -1      1877 8.64000E+01 4.61030E+01 0.00000E+00
 -1      1878 8.79000E+01 4.61030E+01 0.00000E+00
 -1      1879 8.56500E+01 4.48040E+01 0.00000E+00
 -1      1880 8.94000E+01 4.61030E+01 0.00000E+00
 -1      1881 9.09000E+01 4.61030E+01 0.00000E+00
 -1      1882 8.86500E+01 4.48040E+01 0.00000E+00
 -1      1883 9.24000E+01 4.61030E+01 0.00000E+00
 -1      1884 9.39000E+01 4.61030E+01 0.00000E+00
 -1      1885 9.16500E+01 4.48040E+01 0.00000E+00
 -1      1886 9.54000E+01 4.61030E+01 0.00000E+00
 -1      1887 9.69000E+01 4.61030E+01 0.00000E+00
 -1      1888 9.46500E+01 4.48040E+01 0.00000E+00
 -1      1889 9.84000E+01 4.61030E+01 0.00000E+00
 -1      1890 9.99000E+01 4.61030E+01 0.00000E+00
 -1      1891 9.76500E+01 4.48040E+01 0.00000E+00
 -1      1892 1.01400E+02 4.61030E+01 0.00000E+00
 -1      1893 1.02900E+02 4.61030E+01 0.00000E+00
 -1      1894 1.00650E+02 4.48040E+01 0.00000E+00
 -1      1895 1.04400E+02 4.61030E+01 0.00000E+00
 -1      1896 1.05900E+02 4.61030E+01 0.00000E+00
 -1      1897 1.03650E+02 4.48040E+01 0.00000E+00
 -1      1898 1.07400E+02 4.61030E+01 0.00000E+00
 -1      1899 1.08900E+02 4.61030E+01 0.00000E+00
 -1      1900 1.06650E+02 4.48040E+01 0.00000E+00
 -1      1901 1.10400E+02 4.61030E+01 0.00000E+00
 -1      1902 1.11900E+02 4.61030E+01 0.00000E+00
 -1      1903 1.09650E+02 4.48040E+01 0.00000E+00
 -1      1904 1.13400E+02 4.61030E+01 0.00000E+00
 -1      1905 1.14900E+02 4.61030E+01 0.00000E+00
 -1      1906 1.12650E+02 4.48040E+01 0.00000E+00
 -1      1907 1.16400E+02 4.61030E+01 0.00000E+00
 -1      1908 1.17900E+02 4.61030E+01 0.00000E+00
 -1      1909 1.15650E+02 4.48040E+01 0.00000E+00
 -1      1910 1.19400E+02 4.61030E+01 0.00000E+00
 -1      1911 1.20900E+02 4.61030E+01 0.00000E+00
 -1      1912 1.18650E+02 4.48040E+01 0.00000E+00
 -1      1913 1.22400E+02 4.61030E+01 0.00000E+00
 -1      1914 1.23900E+02 4.61030E+01 0.00000E+00
 -1      1915 1.21650E+02 4.48040E+01 0.00000E+00
 -1      1916 1.25400E+02 4.61030E+01 0.00000E+00
 -1      1917 1.26900E+02 4.61030E+01 0.00000E+00
 -1      1918 1.24650E+02 4.48040E+01 0.00000E+00
 -1      1919 1.28400E+02 4.61030E+01 0.00000E+00
 -1      1920 1.29900E+02 4.61030E+01 0.00000E+00
 -1      1921 1.27650E+02 4.48040E+01 0.00000E+00
 -1      1922 1.31400E+02 4.61030E+01 0.00000E+00
 -1      1923 1.32900E+02 4.61030E+01 0.00000E+00
 -1      1924 1.30650E+02 4.48040E+01 0.00000E+00
 -1      1925 1.34400E+02 4.61030E+01 0.00000E+00
 -1      1926 1.35900E+02 4.61030E+01 0.00000E+00
 -1      1927 1.33650E+02 4.48040E+01 0.00000E+00
 -1      1928 1.37400E+02 4.61030E+01 0.00000E+00
 -1      1929 1.38900E+02 4.61030E+01 0.00000E+00
 -1      1930 1.36650E+02 4.48040E+01 0.00000E+00
 -1      1931 1.40400E+02 4.61030E+01 0.00000E+00
 -1      1932 1.41900E+02 4.61030E+01 0.00000E+00
 -1      1933 1.39650E+02 4.48040E+01 0.00000E+00
 -1      1934 1.43244E+02 4.61616E+01 0.00000E+00
 -1      1935 1.44744E+02 4.61616E+01 0.00000E+00
 -1      1936 1.45182E+02 4.49799E+01 0.00000E+00
 -1      1937 1.42494E+02 4.48626E+01 0.00000E+00
 -1      1938 1.17045E+01 3.09687E+00 0.00000E+00
 -1      1939 1.02045E+01 3.09687E+00 0.00000E+00
 -1      1940 1.00350E+01 4.00625E+00 0.00000E+00
 -1      1941 1.47045E+01 3.09687E+00 0.00000E+00
 -1      1942 1.32045E+01 3.09687E+00 0.00000E+00
 -1      1943 1.30350E+01 4.00625E+00 0.00000E+00
 -1      1944 1.77045E+01 3.09687E+00 0.00000E+00
 -1      1945 1.62045E+01 3.09687E+00 0.00000E+00
 -1      1946 1.60350E+01 4.00625E+00 0.00000E+00
 -1      1947 2.07045E+01 3.09687E+00 0.00000E+00
 -1      1948 1.92045E+01 3.09687E+00 0.00000E+00
 -1      1949 1.90350E+01 4.00625E+00 0.00000E+00
 -1      1950 2.37045E+01 3.09687E+00 0.00000E+00
 -1      1951 2.22045E+01 3.09687E+00 0.00000E+00
 -1      1952 2.20350E+01 4.00625E+00 0.00000E+00
 -1      1953 2.67045E+01 3.09687E+00 0.00000E+00
 -1      1954 2.52045E+01 3.09687E+00 0.00000E+00
 -1      1955 2.50350E+01 4.00625E+00 0.00000E+00
 -1      1956 2.97045E+01 3.09687E+00 0.00000E+00
 -1      1957 2.82045E+01 3.09687E+00 0.00000E+00
 -1      1958 2.80350E+01 4.00625E+00 0.00000E+00
 -1      1959 3.27045E+01 3.09687E+00 0.00000E+00
 -1      1960 3.12045E+01 3.09687E+00 0.00000E+00
 -1      1961 3.10350E+01 4.00625E+00 0.00000E+00
 -1      1962 3.57045E+01 3.09687E+00 0.00000E+00
 -1      1963 3.42045E+01 3.09687E+00 0.00000E+00
 -1      1964 3.40350E+01 4.00625E+00 0.00000E+00
 -1      1965 3.87045E+01 3.09687E+00 0.00000E+00
 -1      1966 3.72045E+01 3.09687E+00 0.00000E+00
 -1      1967 3.70350E+01 4.00625E+00 0.00000E+00
 -1      1968 4.17045E+01 3.09687E+00 0.00000E+00
 -1      1969 4.02045E+01 3.09687E+00 0.00000E+00
 -1      1970 4.00350E+01 4.00625E+00 0.00000E+00
 -1      1971 4.47045E+01 3.09687E+00 0.00000E+00
 -1      1972 4.32045E+01 3.09687E+00 0.00000E+00
 -1      1973 4.30350E+01 4.00625E+00 0.00000E+00
 -1      1974 4.77045E+01 3.09687E+00 0.00000E+00
 -1      1975 4.62045E+01 3.09687E+00 0.00000E+00
 -1      1976 4.60350E+01 4.00625E+00 0.00000E+00
 -1      1977 5.07045E+01 3.09687E+00 0.00000E+00
 -1      1978 4.92045E+01 3.09687E+00 0.00000E+00
 -1      1979 4.90350E+01 4.00625E+00 0.00000E+00
 -1      1980 5.37045E+01 3.09687E+00 0.00000E+00
 -1      1981 5.22045E+01 3.09687E+00 0.00000E+00
 -1      1982 5.20350E+01 4.00625E+00 0.00000E+00
 -1      1983 5.67045E+01 3.09687E+00 0.00000E+00
 -1      1984 5.52045E+01 3.09687E+00 0.00000E+00
 -1      1985 5.50350E+01 4.00625E+00 0.00000E+00
 -1      1986 5.97045E+01 3.09687E+00 0.00000E+00
 -1      1987 5.82045E+01 3.09687E+00 0.00000E+00
 -1      1988 5.80350E+01 4.00625E+00 0.00000E+00
 -1      1989 6.27045E+01 3.09687E+00 0.00000E+00
 -1      1990 6.12045E+01 3.09687E+00 0.00000E+00
 -1      1991 6.10350E+01 4.00625E+00 0.00000E+00
 -1      1992 6.57045E+01 3.09687E+00 0.00000E+00
 -1      1993 6.42045E+01 3.09687E+00 0.00000E+00
 -1      1994 6.40350E+01 4.00625E+00 0.00000E+00
 -1      1995 6.87045E+01 3.09687E+00 0.00000E+00
 -1      1996 6.72045E+01 3.09687E+00 0.00000E+00
 -1      1997 6.70350E+01 4.00625E+00 0.00000E+00
 -1      1998 7.17045E+01 3.09687E+00 0.00000E+00
 -1      1999 7.02045E+01 3.09687E+00 0.00000E+00
 -1      2000 7.00350E+01 4.00625E+00 0.00000E+00
 -1      2001 7.47045E+01 3.09687E+00 0.00000E+00
 -1      2002 7.32045E+01 3.09687E+00 0.00000E+00
 -1      2003 7.30350E+01 4.00625E+00 0.00000E+00
 -1      2004 7.77045E+01 3.09687E+00 0.00000E+00
 -1      2005 7.62045E+01 3.09687E+00 0.00000E+00
 -1      2006 7.60350E+01 4.00625E+00 0.00000E+00
 -1      2007 8.07045E+01 3.09687E+00 0.00000E+00
 -1      2008 7.92045E+01 3.09687E+00 0.00000E+00
 -1      2009 7.90350E+01 4.00625E+00 0.00000E+00
 -1      2010 8.37045E+01 3.09687E+00 0.00000E+00
 -1      2011 8.22045E+01 3.09687E+00 0.00000E+00
 -1      2012 8.20350E+01 4.00625E+00 0.00000E+00
 -1      2013 8.67045E+01 3.09687E+00 0.00000E+00
 -1      2014 8.52045E+01 3.09687E+00 0.00000E+00
 -1      2015 8.50350E+01 4.00625E+00 0.00000E+00
 -1      2016 8.97045E+01 3.09687E+00 0.00000E+00
 -1      2017 8.82045E+01 3.09687E+00 0.00000E+00
 -1      2018 8.80350E+01 4.00625E+00 0.00000E+00
 -1      2019 9.27045E+01 3.09687E+00 0.00000E+00
 -1      2020 9.12045E+01 3.09687E+00 0.00000E+00
 -1      2021 9.10350E+01 4.00625E+00 0.00000E+00
 -1      2022 9.57045E+01 3.09687E+00 0.00000E+00
 -1      2023 9.42045E+01 3.09687E+00 0.00000E+00
 -1      2024 9.40350E+01 4.00625E+00 0.00000E+00
 -1      2025 9.87045E+01 3.09687E+00 0.00000E+00
 -1      2026 9.72045E+01 3.09687E+00 0.00000E+00
 -1      2027 9.70350E+01 4.00625E+00 0.00000E+00
 -1      2028 1.01704E+02 3.09687E+00 0.00000E+00
 -1      2029 1.00204E+02 3.09687E+00 0.00000E+00
 -1      2030 1.00035E+02 4.00625E+00 0.00000E+00
 -1      2031 1.04704E+02 3.09687E+00 0.00000E+00
 -1      2032 1.03204E+02 3.09687E+00 0.00000E+00
 -1      2033 1.03035E+02 4.00625E+00 0.00000E+00
 -1      2034 1.07704E+02 3.09687E+00 0.00000E+00
 -1      2035 1.06204E+02 3.09687E+00 0.00000E+00
 -1      2036 1.06035E+02 4.00625E+00 0.00000E+00
 -1      2037 1.10704E+02 3.09687E+00 0.00000E+00
 -1      2038 1.09204E+02 3.09687E+00 0.00000E+00
 -1      2039 1.09035E+02 4.00625E+00 0.00000E+00
 -1      2040 1.13704E+02 3.09687E+00 0.00000E+00
 -1      2041 1.12204E+02 3.09687E+00 0.00000E+00
 -1      2042 1.12035E+02 4.00625E+00 0.00000E+00
 -1      2043 1.16704E+02 3.09687E+00 0.00000E+00
 -1      2044 1.15204E+02 3.09687E+00 0.00000E+00
 -1      2045 1.15035E+02 4.00625E+00 0.00000E+00
 -1      2046 1.19704E+02 3.09687E+00 0.00000E+00
 -1      2047 1.18204E+02 3.09687E+00 0.00000E+00
 -1      2048 1.18035E+02 4.00625E+00 0.00000E+00
 -1      2049 1.22704E+02 3.09687E+00 0.00000E+00
 -1      2050 1.21204E+02 3.09687E+00 0.00000E+00
 -1      2051 1.21035E+02 4.00625E+00 0.00000E+00
 -1      2052 1.25704E+02 3.09687E+00 0.00000E+00
 -1      2053 1.24204E+02 3.09687E+00 0.00000E+00
 -1      2054 1.24035E+02 4.00625E+00 0.00000E+00
 -1      2055 1.28704E+02 3.09687E+00 0.00000E+00
 -1      2056 1.27204E+02 3.09687E+00 0.00000E+00
 -1      2057 1.27035E+02 4.00625E+00 0.00000E+00
 -1      2058 1.31704E+02 3.09687E+00 0.00000E+00
 -1      2059 1.30204E+02 3.09687E+00 0.00000E+00
 -1      2060 1.30035E+02 4.00625E+00 0.00000E+00
 -1      2061 1.34704E+02 3.09687E+00 0.00000E+00
 -1      2062 1.33204E+02 3.09687E+00 0.00000E+00
 -1      2063 1.33035E+02 4.00625E+00 0.00000E+00
 -1      2064 1.37704E+02 3.09687E+00 0.00000E+00
 -1      2065 1.36204E+02 3.09687E+00 0.00000E+00
 -1      2066 1.36035E+02 4.00625E+00 0.00000E+00
 -1      2067 1.40704E+02 3.09687E+00 0.00000E+00
 -1      2068 1.39204E+02 3.09687E+00 0.00000E+00
 -1      2069 1.39035E+02 4.00625E+00 0.00000E+00
 -1      2070 1.43704E+02 3.09687E+00 0.00000E+00
 -1      2071 1.42204E+02 3.09687E+00 0.00000E+00
 -1      2072 1.42035E+02 4.00625E+00 0.00000E+00
 -1      2073 1.46171E+02 3.20156E+00 0.00000E+00
 -1      2074 1.44671E+02 3.20156E+00 0.00000E+00
 -1      2075 1.44502E+02 4.11094E+00 0.00000E+00
 -1      2076 1.46435E+02 4.32031E+00 0.00000E+00
 -1      2077 1.46103E+02 1.25375E+01 0.00000E+00
 -1      2078 1.46103E+02 1.10625E+01 0.00000E+00
 -1      2079 1.46103E+02 9.58750E+00 0.00000E+00
 -1      2080 1.46103E+02 8.11250E+00 0.00000E+00
 -1      2081 1.44804E+02 1.03250E+01 0.00000E+00
 -1      2082 1.46269E+02 6.95391E+00 0.00000E+00
 -1      2083 1.46269E+02 5.47891E+00 0.00000E+00
 -1      2084 1.45302E+02 5.37422E+00 0.00000E+00
 -1      2085 1.44970E+02 7.69141E+00 0.00000E+00
 -1      2086 1.46103E+02 1.54375E+01 0.00000E+00
 -1      2087 1.46103E+02 1.39875E+01 0.00000E+00
 -1      2088 1.44804E+02 1.32500E+01 0.00000E+00
 -1      2089 1.46103E+02 1.83875E+01 0.00000E+00
 -1      2090 1.46103E+02 1.69125E+01 0.00000E+00
 -1      2091 1.44804E+02 1.61750E+01 0.00000E+00
 -1      2092 1.46103E+02 2.13375E+01 0.00000E+00
 -1      2093 1.46103E+02 1.98625E+01 0.00000E+00
 -1      2094 1.44804E+02 1.91250E+01 0.00000E+00
 -1      2095 1.46103E+02 2.42875E+01 0.00000E+00
 -1      2096 1.46103E+02 2.28125E+01 0.00000E+00
 -1      2097 1.44804E+02 2.20750E+01 0.00000E+00
 -1      2098 1.46103E+02 2.72375E+01 0.00000E+00
 -1      2099 1.46103E+02 2.57625E+01 0.00000E+00
 -1      2100 1.44804E+02 2.50250E+01 0.00000E+00
 -1      2101 1.46103E+02 3.01875E+01 0.00000E+00
 -1      2102 1.46103E+02 2.87125E+01 0.00000E+00
 -1      2103 1.44804E+02 2.79750E+01 0.00000E+00
 -1      2104 1.46103E+02 3.30875E+01 0.00000E+00
 -1      2105 1.46103E+02 3.16375E+01 0.00000E+00
 -1      2106 1.44804E+02 3.09000E+01 0.00000E+00
 -1      2107 1.46103E+02 3.60375E+01 0.00000E+00
 -1      2108 1.46103E+02 3.45625E+01 0.00000E+00
 -1      2109 1.44804E+02 3.38250E+01 0.00000E+00
 -1      2110 1.46103E+02 3.89875E+01 0.00000E+00
 -1      2111 1.46103E+02 3.75125E+01 0.00000E+00
 -1      2112 1.44804E+02 3.67750E+01 0.00000E+00
 -1      2113 1.46103E+02 4.19375E+01 0.00000E+00
 -1      2114 1.46103E+02 4.04625E+01 0.00000E+00
 -1      2115 1.44804E+02 3.97250E+01 0.00000E+00
 -1      2116 3.35662E+01 1.93050E+01 0.00000E+00
 -1      2117 3.39156E+01 2.00710E+01 0.00000E+00
 -1      2118 3.45913E+01 2.29942E+01 0.00000E+00
 -1      2119 3.44778E+01 2.38640E+01 0.00000E+00
 -1      2120 3.41836E+01 2.09158E+01 0.00000E+00
 -1      2121 3.44516E+01 2.17605E+01 0.00000E+00
 -1      2122 3.47128E+01 2.02116E+01 0.00000E+00
 -1      2123 3.26033E+01 1.77421E+01 0.00000E+00
 -1      2124 3.30847E+01 1.85236E+01 0.00000E+00
 -1      2125 3.39635E+01 1.85854E+01 0.00000E+00
 -1      2126 3.10712E+01 1.62231E+01 0.00000E+00
 -1      2127 3.18213E+01 1.67171E+01 0.00000E+00
 -1      2128 3.89700E+00 3.74688E+01 0.00000E+00
 -1      2129 3.89700E+00 3.89437E+01 0.00000E+00
 -1      2130 5.19600E+00 3.96813E+01 0.00000E+00
 -1      2131 5.19600E+00 3.67438E+01 0.00000E+00
 -1      2132 2.78353E+01 1.47569E+01 0.00000E+00
 -1      2133 2.86500E+01 1.50926E+01 0.00000E+00
 -1      2134 2.58307E+01 1.43153E+01 0.00000E+00
 -1      2135 2.67432E+01 1.43518E+01 0.00000E+00
 -1      2136 2.40836E+01 1.45469E+01 0.00000E+00
 -1      2137 2.49572E+01 1.44311E+01 0.00000E+00
 -1      2138 2.54477E+01 1.35925E+01 0.00000E+00
 -1      2139 2.20401E+01 1.50243E+01 0.00000E+00
 -1      2140 2.29103E+01 1.47470E+01 0.00000E+00
 -1      2141 2.02928E+01 1.61690E+01 0.00000E+00
 -1      2142 2.10169E+01 1.56084E+01 0.00000E+00
 -1      2143 1.90349E+01 1.75154E+01 0.00000E+00
 -1      2144 1.96421E+01 1.69073E+01 0.00000E+00
 -1      2145 1.78812E+01 1.89550E+01 0.00000E+00
 -1      2146 1.83438E+01 1.82386E+01 0.00000E+00
 -1      2147 1.70610E+01 2.06029E+01 0.00000E+00
 -1      2148 1.74502E+01 1.98060E+01 0.00000E+00
 -1      2149 1.65586E+01 2.26295E+01 0.00000E+00
 -1      2150 1.66063E+01 2.17161E+01 0.00000E+00
 -1      2151 1.67519E+01 2.44884E+01 0.00000E+00
 -1      2152 1.66914E+01 2.36172E+01 0.00000E+00
 -1      2153 1.69620E+01 2.63231E+01 0.00000E+00
 -1      2154 1.68569E+01 2.54057E+01 0.00000E+00
 -1      2155 1.60966E+01 2.50209E+01 0.00000E+00
 -1      2156 1.80621E+01 2.82169E+01 0.00000E+00
 -1      2157 1.74790E+01 2.75015E+01 0.00000E+00
 -1      2158 1.91435E+01 2.94577E+01 0.00000E+00
 -1      2159 1.86028E+01 2.88373E+01 0.00000E+00
 -1      2160 1.77764E+01 2.89155E+01 0.00000E+00
 -1      2161 2.05211E+01 3.07149E+01 0.00000E+00
 -1      2162 1.98590E+01 3.02136E+01 0.00000E+00
 -1      2163 2.20774E+01 3.17083E+01 0.00000E+00
 -1      2164 2.12993E+01 3.12116E+01 0.00000E+00
 -1      2165 2.05264E+01 3.15444E+01 0.00000E+00
 -1      2166 2.41226E+01 3.23661E+01 0.00000E+00
 -1      2167 2.32032E+01 3.22448E+01 0.00000E+00
 -1      2168 2.59738E+01 3.22945E+01 0.00000E+00
 -1      2169 2.51386E+01 3.23311E+01 0.00000E+00
 -1      2170 2.76431E+01 3.21226E+01 0.00000E+00
 -1      2171 2.68084E+01 3.22086E+01 0.00000E+00
 -1      2172 2.64229E+01 3.29580E+01 0.00000E+00
 -1      2173 2.94965E+01 3.14547E+01 0.00000E+00
 -1      2174 2.87647E+01 3.18533E+01 0.00000E+00
 -1      2175 3.08020E+01 3.05641E+01 0.00000E+00
 -1      2176 3.01492E+01 3.10094E+01 0.00000E+00
 -1      2177 3.01535E+01 3.18882E+01 0.00000E+00
 -1      2178 3.21522E+01 2.93531E+01 0.00000E+00
 -1      2179 3.15968E+01 2.99170E+01 0.00000E+00
 -1      2180 3.31400E+01 2.79466E+01 0.00000E+00
 -1      2181 3.27026E+01 2.86078E+01 0.00000E+00
 -1      2182 3.39511E+01 2.64288E+01 0.00000E+00
 -1      2183 3.36497E+01 2.71625E+01 0.00000E+00
 -1      2184 3.43232E+01 2.46459E+01 0.00000E+00
 -1      2185 3.41686E+01 2.54278E+01 0.00000E+00
 -1      2186 3.51057E+01 2.43057E+01 0.00000E+00
 -1      2187 2.95031E+01 1.54594E+01 0.00000E+00
 -1      2188 3.02181E+01 1.58563E+01 0.00000E+00
 -1      2189 3.10648E+01 1.53871E+01 0.00000E+00
 -1      2190 2.93586E+01 1.46536E+01 0.00000E+00
 -1      2191 6.42300E+00 4.57510E+01 0.00000E+00
 -1      2192 2.34008E+01 1.39084E+01 0.00000E+00
 -1      2193 7.17300E+00 4.44520E+01 0.00000E+00
 -1      2194 3.51205E+01 2.22901E+01 0.00000E+00
 -1      2195 3.57895E+01 2.28197E+01 0.00000E+00
 -1      2196 3.56498E+01 2.15859E+01 0.00000E+00
 -1      2197 1.45665E+02 4.31193E+01 0.00000E+00
 -1      2198 3.27000E+01 1.67789E+01 0.00000E+00
 -1      2199 3.47336E+01 2.60886E+01 0.00000E+00
 -1      2200 3.40065E+01 2.78738E+01 0.00000E+00
 -1      2201 3.16011E+01 3.07958E+01 0.00000E+00
 -1      2202 2.83792E+01 3.26028E+01 0.00000E+00
 -1      2203 2.24304E+01 3.25776E+01 0.00000E+00
 -1      2204 1.90327E+01 3.02918E+01 0.00000E+00
 -1      2205 1.67187E+01 2.71167E+01 0.00000E+00
 -1      2206 1.59583E+01 2.67318E+01 0.00000E+00
 -1      2207 1.64753E+01 2.79103E+01 0.00000E+00
 -1      2208 1.58588E+01 2.31158E+01 0.00000E+00
 -1      2209 1.61808E+01 2.10149E+01 0.00000E+00
 -1      2210 1.70666E+01 1.90507E+01 0.00000E+00
 -1      2211 1.81887E+01 1.74766E+01 0.00000E+00
 -1      2212 1.95305E+01 1.60151E+01 0.00000E+00
 -1      2213 2.74134E+01 1.38817E+01 0.00000E+00
 -1      2214 2.12044E+01 1.46926E+01 0.00000E+00
 -1      2215 2.45722E+01 3.30790E+01 0.00000E+00
 -1      2216 3.29463E+01 2.94033E+01 0.00000E+00
 -1      2217 1.07850E+01 5.30525E+00 0.00000E+00
 -1      2218 9.28500E+00 5.30525E+00 0.00000E+00
 -1      2219 6.49500E+00 3.01125E+01 0.00000E+00
 -1      2220 6.49500E+00 3.15875E+01 0.00000E+00
 -1      2221 6.49500E+00 3.30625E+01 0.00000E+00
 -1      2222 6.49500E+00 3.45375E+01 0.00000E+00
 -1      2223 7.79400E+00 3.23250E+01 0.00000E+00
 -1      2224 6.38869E+00 2.42125E+01 0.00000E+00
 -1      2225 6.38869E+00 2.56875E+01 0.00000E+00
 -1      2226 6.38869E+00 2.12625E+01 0.00000E+00
 -1      2227 6.38869E+00 2.27375E+01 0.00000E+00
 -1      2228 7.58139E+00 2.34750E+01 0.00000E+00
 -1      2229 6.38869E+00 1.83625E+01 0.00000E+00
 -1      2230 6.38869E+00 1.98125E+01 0.00000E+00
 -1      2231 7.58139E+00 2.05500E+01 0.00000E+00
 -1      2232 6.38869E+00 1.54125E+01 0.00000E+00
 -1      2233 6.38869E+00 1.68875E+01 0.00000E+00
 -1      2234 7.58139E+00 1.76250E+01 0.00000E+00
 -1      2235 6.38869E+00 1.24625E+01 0.00000E+00
 -1      2236 6.38869E+00 1.39375E+01 0.00000E+00
 -1      2237 7.58139E+00 1.46750E+01 0.00000E+00
 -1      2238 6.38869E+00 9.51250E+00 0.00000E+00
 -1      2239 6.38869E+00 1.09875E+01 0.00000E+00
 -1      2240 7.58139E+00 1.17250E+01 0.00000E+00
 -1      2241 1.37850E+01 5.30525E+00 0.00000E+00
 -1      2242 1.22850E+01 5.30525E+00 0.00000E+00
 -1      2243 1.15350E+01 6.60425E+00 0.00000E+00
 -1      2244 9.90000E+00 4.35050E+01 0.00000E+00
 -1      2245 1.14000E+01 4.35050E+01 0.00000E+00
 -1      2246 2.26700E+01 1.31631E+01 0.00000E+00
 -1      2247 2.38433E+01 1.29630E+01 0.00000E+00
 -1      2248 1.29000E+01 4.35050E+01 0.00000E+00
 -1      2249 1.44000E+01 4.35050E+01 0.00000E+00
 -1      2250 1.21500E+01 4.22060E+01 0.00000E+00
 -1      2251 1.59000E+01 4.35050E+01 0.00000E+00
 -1      2252 1.74000E+01 4.35050E+01 0.00000E+00
 -1      2253 1.51500E+01 4.22060E+01 0.00000E+00
 -1      2254 1.89000E+01 4.35050E+01 0.00000E+00
 -1      2255 2.04000E+01 4.35050E+01 0.00000E+00
 -1      2256 1.81500E+01 4.22060E+01 0.00000E+00
 -1      2257 2.19000E+01 4.35050E+01 0.00000E+00
 -1      2258 2.34000E+01 4.35050E+01 0.00000E+00
 -1      2259 2.11500E+01 4.22060E+01 0.00000E+00
 -1      2260 2.49000E+01 4.35050E+01 0.00000E+00
 -1      2261 2.64000E+01 4.35050E+01 0.00000E+00
 -1      2262 2.41500E+01 4.22060E+01 0.00000E+00
 -1      2263 2.79000E+01 4.35050E+01 0.00000E+00
 -1      2264 2.94000E+01 4.35050E+01 0.00000E+00
 -1      2265 2.71500E+01 4.22060E+01 0.00000E+00
 -1      2266 3.09000E+01 4.35050E+01 0.00000E+00
 -1      2267 3.24000E+01 4.35050E+01 0.00000E+00
 -1      2268 3.01500E+01 4.22060E+01 0.00000E+00
 -1      2269 3.39000E+01 4.35050E+01 0.00000E+00
 -1      2270 3.54000E+01 4.35050E+01 0.00000E+00
 -1      2271 3.31500E+01 4.22060E+01 0.00000E+00
 -1      2272 3.69000E+01 4.35050E+01 0.00000E+00
 -1      2273 3.84000E+01 4.35050E+01 0.00000E+00
 -1      2274 3.61500E+01 4.22060E+01 0.00000E+00
 -1      2275 3.99000E+01 4.35050E+01 0.00000E+00
 -1      2276 4.14000E+01 4.35050E+01 0.00000E+00
 -1      2277 3.91500E+01 4.22060E+01 0.00000E+00
 -1      2278 4.29000E+01 4.35050E+01 0.00000E+00
 -1      2279 4.44000E+01 4.35050E+01 0.00000E+00
 -1      2280 4.21500E+01 4.22060E+01 0.00000E+00
 -1      2281 4.59000E+01 4.35050E+01 0.00000E+00
 -1      2282 4.74000E+01 4.35050E+01 0.00000E+00
 -1      2283 4.51500E+01 4.22060E+01 0.00000E+00
 -1      2284 4.89000E+01 4.35050E+01 0.00000E+00
 -1      2285 5.04000E+01 4.35050E+01 0.00000E+00
 -1      2286 4.81500E+01 4.22060E+01 0.00000E+00
 -1      2287 5.19000E+01 4.35050E+01 0.00000E+00
 -1      2288 5.34000E+01 4.35050E+01 0.00000E+00
 -1      2289 5.11500E+01 4.22060E+01 0.00000E+00
 -1      2290 5.49000E+01 4.35050E+01 0.00000E+00
 -1      2291 5.64000E+01 4.35050E+01 0.00000E+00
 -1      2292 5.41500E+01 4.22060E+01 0.00000E+00
 -1      2293 5.79000E+01 4.35050E+01 0.00000E+00
 -1      2294 5.94000E+01 4.35050E+01 0.00000E+00
 -1      2295 5.71500E+01 4.22060E+01 0.00000E+00
 -1      2296 6.09000E+01 4.35050E+01 0.00000E+00
 -1      2297 6.24000E+01 4.35050E+01 0.00000E+00
 -1      2298 6.01500E+01 4.22060E+01 0.00000E+00
 -1      2299 6.39000E+01 4.35050E+01 0.00000E+00
 -1      2300 6.54000E+01 4.35050E+01 0.00000E+00
 -1      2301 6.31500E+01 4.22060E+01 0.00000E+00
 -1      2302 6.69000E+01 4.35050E+01 0.00000E+00
 -1      2303 6.84000E+01 4.35050E+01 0.00000E+00
 -1      2304 6.61500E+01 4.22060E+01 0.00000E+00
 -1      2305 6.99000E+01 4.35050E+01 0.00000E+00
 -1      2306 7.14000E+01 4.35050E+01 0.00000E+00
 -1      2307 6.91500E+01 4.22060E+01 0.00000E+00
 -1      2308 7.29000E+01 4.35050E+01 0.00000E+00
 -1      2309 7.44000E+01 4.35050E+01 0.00000E+00
 -1      2310 7.21500E+01 4.22060E+01 0.00000E+00
 -1      2311 7.59000E+01 4.35050E+01 0.00000E+00
 -1      2312 7.74000E+01 4.35050E+01 0.00000E+00
 -1      2313 7.51500E+01 4.22060E+01 0.00000E+00
 -1      2314 7.89000E+01 4.35050E+01 0.00000E+00
 -1      2315 8.04000E+01 4.35050E+01 0.00000E+00
 -1      2316 7.81500E+01 4.22060E+01 0.00000E+00
 -1      2317 8.19000E+01 4.35050E+01 0.00000E+00
 -1      2318 8.34000E+01 4.35050E+01 0.00000E+00
 -1      2319 8.11500E+01 4.22060E+01 0.00000E+00
 -1      2320 8.49000E+01 4.35050E+01 0.00000E+00
 -1      2321 8.64000E+01 4.35050E+01 0.00000E+00
 -1      2322 8.41500E+01 4.22060E+01 0.00000E+00
 -1      2323 8.79000E+01 4.35050E+01 0.00000E+00
 -1      2324 8.94000E+01 4.35050E+01 0.00000E+00
 -1      2325 8.71500E+01 4.22060E+01 0.00000E+00
 -1      2326 9.09000E+01 4.35050E+01 0.00000E+00
 -1      2327 9.24000E+01 4.35050E+01 0.00000E+00
 -1      2328 9.01500E+01 4.22060E+01 0.00000E+00
 -1      2329 9.39000E+01 4.35050E+01 0.00000E+00
 -1      2330 9.54000E+01 4.35050E+01 0.00000E+00
 -1      2331 9.31500E+01 4.22060E+01 0.00000E+00
 -1      2332 9.69000E+01 4.35050E+01 0.00000E+00
 -1      2333 9.84000E+01 4.35050E+01 0.00000E+00
 -1      2334 9.61500E+01 4.22060E+01 0.00000E+00
 -1      2335 9.99000E+01 4.35050E+01 0.00000E+00
 -1      2336 1.01400E+02 4.35050E+01 0.00000E+00
 -1      2337 9.91500E+01 4.22060E+01 0.00000E+00
 -1      2338 1.02900E+02 4.35050E+01 0.00000E+00
 -1      2339 1.04400E+02 4.35050E+01 0.00000E+00
 -1      2340 1.02150E+02 4.22060E+01 0.00000E+00
 -1      2341 1.05900E+02 4.35050E+01 0.00000E+00
 -1      2342 1.07400E+02 4.35050E+01 0.00000E+00
 -1      2343 1.05150E+02 4.22060E+01 0.00000E+00
 -1      2344 1.08900E+02 4.35050E+01 0.00000E+00
 -1      2345 1.10400E+02 4.35050E+01 0.00000E+00
 -1      2346 1.08150E+02 4.22060E+01 0.00000E+00
 -1      2347 1.11900E+02 4.35050E+01 0.00000E+00
 -1      2348 1.13400E+02 4.35050E+01 0.00000E+00
 -1      2349 1.11150E+02 4.22060E+01 0.00000E+00
 -1      2350 1.14900E+02 4.35050E+01 0.00000E+00
 -1      2351 1.16400E+02 4.35050E+01 0.00000E+00
 -1      2352 1.14150E+02 4.22060E+01 0.00000E+00
 -1      2353 1.17900E+02 4.35050E+01 0.00000E+00
 -1      2354 1.19400E+02 4.35050E+01 0.00000E+00
 -1      2355 1.17150E+02 4.22060E+01 0.00000E+00
 -1      2356 1.20900E+02 4.35050E+01 0.00000E+00
 -1      2357 1.22400E+02 4.35050E+01 0.00000E+00
 -1      2358 1.20150E+02 4.22060E+01 0.00000E+00
 -1      2359 1.23900E+02 4.35050E+01 0.00000E+00
 -1      2360 1.25400E+02 4.35050E+01 0.00000E+00
 -1      2361 1.23150E+02 4.22060E+01 0.00000E+00
 -1      2362 1.26900E+02 4.35050E+01 0.00000E+00
 -1      2363 1.28400E+02 4.35050E+01 0.00000E+00
 -1      2364 1.26150E+02 4.22060E+01 0.00000E+00
 -1      2365 1.29900E+02 4.35050E+01 0.00000E+00
 -1      2366 1.31400E+02 4.35050E+01 0.00000E+00
 -1      2367 1.29150E+02 4.22060E+01 0.00000E+00
 -1      2368 1.32900E+02 4.35050E+01 0.00000E+00
 -1      2369 1.34400E+02 4.35050E+01 0.00000E+00
 -1      2370 1.32150E+02 4.22060E+01 0.00000E+00
 -1      2371 1.35900E+02 4.35050E+01 0.00000E+00
 -1      2372 1.37400E+02 4.35050E+01 0.00000E+00
 -1      2373 1.35150E+02 4.22060E+01 0.00000E+00
 -1      2374 1.38900E+02 4.35050E+01 0.00000E+00
 -1      2375 1.40400E+02 4.35050E+01 0.00000E+00
 -1      2376 1.38150E+02 4.22060E+01 0.00000E+00
 -1      2377 3.53963E+01 1.95299E+01 0.00000E+00
 -1      2378 3.56642E+01 2.03746E+01 0.00000E+00
 -1      2379 1.97850E+01 5.30525E+00 0.00000E+00
 -1      2380 1.82850E+01 5.30525E+00 0.00000E+00
 -1      2381 2.27850E+01 5.30525E+00 0.00000E+00
 -1      2382 2.12850E+01 5.30525E+00 0.00000E+00
 -1      2383 2.05350E+01 6.60425E+00 0.00000E+00
 -1      2384 2.57850E+01 5.30525E+00 0.00000E+00
 -1      2385 2.42850E+01 5.30525E+00 0.00000E+00
 -1      2386 2.35350E+01 6.60425E+00 0.00000E+00
 -1      2387 2.87850E+01 5.30525E+00 0.00000E+00
 -1      2388 2.72850E+01 5.30525E+00 0.00000E+00
 -1      2389 2.65350E+01 6.60425E+00 0.00000E+00
 -1      2390 3.17850E+01 5.30525E+00 0.00000E+00
 -1      2391 3.02850E+01 5.30525E+00 0.00000E+00
 -1      2392 2.95350E+01 6.60425E+00 0.00000E+00
 -1      2393 3.47850E+01 5.30525E+00 0.00000E+00
 -1      2394 3.32850E+01 5.30525E+00 0.00000E+00
 -1      2395 3.25350E+01 6.60425E+00 0.00000E+00
 -1      2396 3.77850E+01 5.30525E+00 0.00000E+00
 -1      2397 3.62850E+01 5.30525E+00 0.00000E+00
 -1      2398 3.55350E+01 6.60425E+00 0.00000E+00
 -1      2399 4.07850E+01 5.30525E+00 0.00000E+00
 -1      2400 3.92850E+01 5.30525E+00 0.00000E+00
 -1      2401 3.85350E+01 6.60425E+00 0.00000E+00
 -1      2402 4.37850E+01 5.30525E+00 0.00000E+00
 -1      2403 4.22850E+01 5.30525E+00 0.00000E+00
 -1      2404 4.15350E+01 6.60425E+00 0.00000E+00
 -1      2405 4.67850E+01 5.30525E+00 0.00000E+00
 -1      2406 4.52850E+01 5.30525E+00 0.00000E+00
 -1      2407 4.45350E+01 6.60425E+00 0.00000E+00
 -1      2408 4.97850E+01 5.30525E+00 0.00000E+00
 -1      2409 4.82850E+01 5.30525E+00 0.00000E+00
 -1      2410 4.75350E+01 6.60425E+00 0.00000E+00
 -1      2411 5.27850E+01 5.30525E+00 0.00000E+00
 -1      2412 5.12850E+01 5.30525E+00 0.00000E+00
 -1      2413 5.05350E+01 6.60425E+00 0.00000E+00
 -1      2414 5.57850E+01 5.30525E+00 0.00000E+00
 -1      2415 5.42850E+01 5.30525E+00 0.00000E+00
 -1      2416 5.35350E+01 6.60425E+00 0.00000E+00
 -1      2417 5.87850E+01 5.30525E+00 0.00000E+00
 -1      2418 5.72850E+01 5.30525E+00 0.00000E+00
 -1      2419 5.65350E+01 6.60425E+00 0.00000E+00
 -1      2420 6.17850E+01 5.30525E+00 0.00000E+00
 -1      2421 6.02850E+01 5.30525E+00 0.00000E+00
 -1      2422 5.95350E+01 6.60425E+00 0.00000E+00
 -1      2423 6.47850E+01 5.30525E+00 0.00000E+00
 -1      2424 6.32850E+01 5.30525E+00 0.00000E+00
 -1      2425 6.25350E+01 6.60425E+00 0.00000E+00
 -1      2426 6.77850E+01 5.30525E+00 0.00000E+00
 -1      2427 6.62850E+01 5.30525E+00 0.00000E+00
 -1      2428 6.55350E+01 6.60425E+00 0.00000E+00
 -1      2429 7.07850E+01 5.30525E+00 0.00000E+00
 -1      2430 6.92850E+01 5.30525E+00 0.00000E+00
 -1      2431 6.85350E+01 6.60425E+00 0.00000E+00
 -1      2432 7.37850E+01 5.30525E+00 0.00000E+00
 -1      2433 7.22850E+01 5.30525E+00 0.00000E+00
 -1      2434 7.15350E+01 6.60425E+00 0.00000E+00
 -1      2435 7.67850E+01 5.30525E+00 0.00000E+00
 -1      2436 7.52850E+01 5.30525E+00 0.00000E+00
 -1      2437 7.45350E+01 6.60425E+00 0.00000E+00
 -1      2438 7.97850E+01 5.30525E+00 0.00000E+00
 -1      2439 7.82850E+01 5.30525E+00 0.00000E+00
 -1      2440 7.75350E+01 6.60425E+00 0.00000E+00
 -1      2441 8.27850E+01 5.30525E+00 0.00000E+00
 -1      2442 8.12850E+01 5.30525E+00 0.00000E+00
 -1      2443 8.05350E+01 6.60425E+00 0.00000E+00
 -1      2444 8.57850E+01 5.30525E+00 0.00000E+00
 -1      2445 8.42850E+01 5.30525E+00 0.00000E+00
 -1      2446 8.35350E+01 6.60425E+00 0.00000E+00
 -1      2447 8.87850E+01 5.30525E+00 0.00000E+00
 -1      2448 8.72850E+01 5.30525E+00 0.00000E+00
 -1      2449 8.65350E+01 6.60425E+00 0.00000E+00
 -1      2450 9.17850E+01 5.30525E+00 0.00000E+00
 -1      2451 9.02850E+01 5.30525E+00 0.00000E+00
 -1      2452 8.95350E+01 6.60425E+00 0.00000E+00
 -1      2453 9.47850E+01 5.30525E+00 0.00000E+00
 -1      2454 9.32850E+01 5.30525E+00 0.00000E+00
 -1      2455 9.25350E+01 6.60425E+00 0.00000E+00
 -1      2456 9.77850E+01 5.30525E+00 0.00000E+00
 -1      2457 9.62850E+01 5.30525E+00 0.00000E+00
 -1      2458 9.55350E+01 6.60425E+00 0.00000E+00
 -1      2459 1.00785E+02 5.30525E+00 0.00000E+00
 -1      2460 9.92850E+01 5.30525E+00 0.00000E+00
 -1      2461 9.85350E+01 6.60425E+00 0.00000E+00
 -1      2462 1.03785E+02 5.30525E+00 0.00000E+00
 -1      2463 1.02285E+02 5.30525E+00 0.00000E+00
 -1      2464 1.01535E+02 6.60425E+00 0.00000E+00
 -1      2465 1.06785E+02 5.30525E+00 0.00000E+00
 -1      2466 1.05285E+02 5.30525E+00 0.00000E+00
 -1      2467 1.04535E+02 6.60425E+00 0.00000E+00
 -1      2468 1.09785E+02 5.30525E+00 0.00000E+00
 -1      2469 1.08285E+02 5.30525E+00 0.00000E+00
 -1      2470 1.07535E+02 6.60425E+00 0.00000E+00
 -1      2471 1.12785E+02 5.30525E+00 0.00000E+00
 -1      2472 1.11285E+02 5.30525E+00 0.00000E+00
 -1      2473 1.10535E+02 6.60425E+00 0.00000E+00
 -1      2474 1.15785E+02 5.30525E+00 0.00000E+00
 -1      2475 1.14285E+02 5.30525E+00 0.00000E+00
 -1      2476 1.13535E+02 6.60425E+00 0.00000E+00
 -1      2477 1.18785E+02 5.30525E+00 0.00000E+00
 -1      2478 1.17285E+02 5.30525E+00 0.00000E+00
 -1      2479 1.16535E+02 6.60425E+00 0.00000E+00
 -1      2480 1.21785E+02 5.30525E+00 0.00000E+00
 -1      2481 1.20285E+02 5.30525E+00 0.00000E+00
 -1      2482 1.19535E+02 6.60425E+00 0.00000E+00
 -1      2483 1.24785E+02 5.30525E+00 0.00000E+00
 -1      2484 1.23285E+02 5.30525E+00 0.00000E+00
 -1      2485 1.22535E+02 6.60425E+00 0.00000E+00
 -1      2486 1.27785E+02 5.30525E+00 0.00000E+00
 -1      2487 1.26285E+02 5.30525E+00 0.00000E+00
 -1      2488 1.25535E+02 6.60425E+00 0.00000E+00
 -1      2489 1.30785E+02 5.30525E+00 0.00000E+00
 -1      2490 1.29285E+02 5.30525E+00 0.00000E+00
 -1      2491 1.28535E+02 6.60425E+00 0.00000E+00
 -1      2492 1.33785E+02 5.30525E+00 0.00000E+00
 -1      2493 1.32285E+02 5.30525E+00 0.00000E+00
 -1      2494 1.31535E+02 6.60425E+00 0.00000E+00
 -1      2495 1.36785E+02 5.30525E+00 0.00000E+00
 -1      2496 1.35285E+02 5.30525E+00 0.00000E+00
 -1      2497 1.34535E+02 6.60425E+00 0.00000E+00
 -1      2498 1.39785E+02 5.30525E+00 0.00000E+00
 -1      2499 1.38285E+02 5.30525E+00 0.00000E+00
 -1      2500 1.37535E+02 6.60425E+00 0.00000E+00
 -1      2501 1.42785E+02 5.30525E+00 0.00000E+00
 -1      2502 1.41285E+02 5.30525E+00 0.00000E+00
 -1      2503 1.40535E+02 6.60425E+00 0.00000E+00
 -1      2504 1.44336E+02 5.26953E+00 0.00000E+00
 -1      2505 1.43505E+02 1.69125E+01 0.00000E+00
 -1      2506 1.43505E+02 1.54375E+01 0.00000E+00
 -1      2507 1.43505E+02 1.98625E+01 0.00000E+00
 -1      2508 1.43505E+02 1.83875E+01 0.00000E+00
 -1      2509 1.42206E+02 1.76500E+01 0.00000E+00
 -1      2510 1.43505E+02 1.10625E+01 0.00000E+00
 -1      2511 1.43505E+02 9.58750E+00 0.00000E+00
 -1      2512 1.43505E+02 1.39750E+01 0.00000E+00
 -1      2513 1.43505E+02 1.25250E+01 0.00000E+00
 -1      2514 1.42206E+02 1.17875E+01 0.00000E+00
 -1      2515 1.42206E+02 1.47125E+01 0.00000E+00
 -1      2516 1.43505E+02 2.28125E+01 0.00000E+00
 -1      2517 1.43505E+02 2.13375E+01 0.00000E+00
 -1      2518 1.42206E+02 2.06000E+01 0.00000E+00
 -1      2519 1.43505E+02 2.57625E+01 0.00000E+00
 -1      2520 1.43505E+02 2.42875E+01 0.00000E+00
 -1      2521 1.42206E+02 2.35500E+01 0.00000E+00
 -1      2522 1.43505E+02 2.87125E+01 0.00000E+00
 -1      2523 1.43505E+02 2.72375E+01 0.00000E+00
 -1      2524 1.42206E+02 2.65000E+01 0.00000E+00
 -1      2525 1.43505E+02 3.16125E+01 0.00000E+00
 -1      2526 1.43505E+02 3.01625E+01 0.00000E+00
 -1      2527 1.42206E+02 2.94250E+01 0.00000E+00
 -1      2528 1.43505E+02 3.45625E+01 0.00000E+00
 -1      2529 1.43505E+02 3.30875E+01 0.00000E+00
 -1      2530 1.42206E+02 3.23500E+01 0.00000E+00
 -1      2531 1.43505E+02 3.75125E+01 0.00000E+00
 -1      2532 1.43505E+02 3.60375E+01 0.00000E+00
 -1      2533 1.42206E+02 3.53000E+01 0.00000E+00
 -1      2534 1.43505E+02 4.04625E+01 0.00000E+00
 -1      2535 1.43505E+02 3.89875E+01 0.00000E+00
 -1      2536 1.42206E+02 3.82500E+01 0.00000E+00
 -1      2537 3.43815E+01 1.77888E+01 0.00000E+00
 -1      2538 3.48630E+01 1.85703E+01 0.00000E+00
 -1      2539 3.29907E+01 1.57462E+01 0.00000E+00
 -1      2540 3.37728E+01 1.67712E+01 0.00000E+00
 -1      2541 1.67850E+01 5.30525E+00 0.00000E+00
 -1      2542 1.52850E+01 5.30525E+00 0.00000E+00
 -1      2543 1.75350E+01 6.60425E+00 0.00000E+00
 -1      2544 1.44321E+02 4.30606E+01 0.00000E+00
 -1      2545 3.55166E+01 2.57346E+01 0.00000E+00
 -1      2546 3.52992E+01 2.67356E+01 0.00000E+00
 -1      2547 3.58258E+01 2.41708E+01 0.00000E+00
 -1      2548 3.56712E+01 2.49527E+01 0.00000E+00
 -1      2549 3.62367E+01 2.55997E+01 0.00000E+00
 -1      2550 2.26244E+01 3.36200E+01 0.00000E+00
 -1      2551 2.14986E+01 3.30835E+01 0.00000E+00
 -1      2552 1.51167E+01 2.37183E+01 0.00000E+00
 -1      2553 1.49840E+01 2.27306E+01 0.00000E+00
 -1      2554 6.49500E+00 2.71625E+01 0.00000E+00
 -1      2555 6.49500E+00 2.86375E+01 0.00000E+00
 -1      2556 7.79400E+00 2.93750E+01 0.00000E+00
 -1      2557 6.55950E+00 4.28890E+01 0.00000E+00
 -1      2558 8.53650E+00 4.32410E+01 0.00000E+00
 -1      2559 9.28650E+00 4.19420E+01 0.00000E+00
 -1      2560 6.55950E+00 4.14140E+01 0.00000E+00
 -1      2561 2.02676E+01 1.42400E+01 0.00000E+00
 -1      2562 2.12907E+01 1.36558E+01 0.00000E+00
 -1      2563 2.47169E+01 1.28472E+01 0.00000E+00
 -1      2564 2.55905E+01 1.27314E+01 0.00000E+00
 -1      2565 2.39861E+01 1.21019E+01 0.00000E+00
 -1      2566 2.51156E+01 3.40860E+01 0.00000E+00
 -1      2567 2.40996E+01 3.41211E+01 0.00000E+00
 -1      2568 2.71364E+01 1.29537E+01 0.00000E+00
 -1      2569 2.82285E+01 1.33588E+01 0.00000E+00
 -1      2570 1.84990E+01 1.57618E+01 0.00000E+00
 -1      2571 1.91497E+01 1.50236E+01 0.00000E+00
 -1      2572 1.71168E+01 1.72082E+01 0.00000E+00
 -1      2573 1.78079E+01 1.64850E+01 0.00000E+00
 -1      2574 1.74270E+01 1.54935E+01 0.00000E+00
 -1      2575 1.61235E+01 1.91077E+01 0.00000E+00
 -1      2576 1.65545E+01 1.82567E+01 0.00000E+00
 -1      2577 1.50820E+01 2.12156E+01 0.00000E+00
 -1      2578 1.55368E+01 2.01023E+01 0.00000E+00
 -1      2579 1.53269E+01 2.55530E+01 0.00000E+00
 -1      2580 1.52218E+01 2.46356E+01 0.00000E+00
 -1      2581 1.43470E+01 2.42504E+01 0.00000E+00
 -1      2582 1.74950E+01 2.97065E+01 0.00000E+00
 -1      2583 1.69543E+01 2.90862E+01 0.00000E+00
 -1      2584 1.89262E+01 3.12184E+01 0.00000E+00
 -1      2585 1.82106E+01 3.04625E+01 0.00000E+00
 -1      2586 1.73885E+01 3.06332E+01 0.00000E+00
 -1      2587 2.04541E+01 3.25156E+01 0.00000E+00
 -1      2588 1.96759E+01 3.20189E+01 0.00000E+00
 -1      2589 3.38440E+01 2.94903E+01 0.00000E+00
 -1      2590 3.32935E+01 3.02356E+01 0.00000E+00
 -1      2591 2.67849E+01 3.39141E+01 0.00000E+00
 -1      2592 2.59503E+01 3.40001E+01 0.00000E+00
 -1      2593 2.54776E+01 3.50421E+01 0.00000E+00
 -1      2594 2.90281E+01 3.33755E+01 0.00000E+00
 -1      2595 2.79065E+01 3.36448E+01 0.00000E+00
 -1      2596 2.74339E+01 3.46869E+01 0.00000E+00
 -1      2597 3.09631E+01 3.23740E+01 0.00000E+00
 -1      2598 3.03104E+01 3.28193E+01 0.00000E+00
 -1      2599 3.25528E+01 3.10797E+01 0.00000E+00
 -1      2600 3.17579E+01 3.17268E+01 0.00000E+00
 -1      2601 3.19148E+01 3.26579E+01 0.00000E+00
 -1      2602 3.48750E+01 2.78806E+01 0.00000E+00
 -1      2603 3.43652E+01 2.86647E+01 0.00000E+00
 -1      2604 8.07525E+00 5.11044E+00 0.00000E+00
 -1      2605 6.57525E+00 5.11044E+00 0.00000E+00
 -1      2606 6.40575E+00 6.01981E+00 0.00000E+00
 -1      2607 8.82525E+00 6.40944E+00 0.00000E+00
 -1      2608 7.68769E+00 2.64250E+01 0.00000E+00
 -1      2609 7.79400E+00 3.52687E+01 0.00000E+00
 -1      2610 6.49500E+00 3.60062E+01 0.00000E+00
 -1      2611 6.49500E+00 3.74750E+01 0.00000E+00
 -1      2612 1.45350E+01 6.60425E+00 0.00000E+00
 -1      2613 6.40575E+00 7.49481E+00 0.00000E+00
 -1      2614 2.98377E+01 3.38613E+01 0.00000E+00
 -1      2615 3.47125E+01 2.94971E+01 0.00000E+00
 -1      2616 1.92360E+01 1.39867E+01 0.00000E+00
 -1      2617 2.31678E+01 3.46270E+01 0.00000E+00
 -1      2618 3.63332E+01 2.09042E+01 0.00000E+00
 -1      2619 3.68843E+01 2.27625E+01 0.00000E+00
 -1      2620 3.63551E+01 2.34667E+01 0.00000E+00
 -1      2621 3.69206E+01 2.41136E+01 0.00000E+00
 -1      2622 3.56579E+01 2.75265E+01 0.00000E+00
 -1      2623 3.58144E+01 1.87333E+01 0.00000E+00
 -1      2624 1.42758E+02 4.35929E+01 0.00000E+00
 -1      2625 1.43241E+02 4.17323E+01 0.00000E+00
 -1      2626 1.41942E+02 4.09948E+01 0.00000E+00
 -1      2627 1.41414E+02 4.35342E+01 0.00000E+00
 -1      2628 1.43586E+02 6.56853E+00 0.00000E+00
 -1      2629 3.24488E+01 1.49763E+01 0.00000E+00
 -1      2630 3.35216E+01 1.49686E+01 0.00000E+00
 -1      2631 1.43419E+02 7.72713E+00 0.00000E+00
 -1      2632 1.88539E+01 3.21896E+01 0.00000E+00
 -1      2633 3.46723E+01 1.67561E+01 0.00000E+00
 -1      2634 1.50835E+01 2.63466E+01 0.00000E+00
 -1      2635 1.42088E+01 2.59614E+01 0.00000E+00
 -1      2636 1.48402E+01 2.71402E+01 0.00000E+00
 -1      2637 1.43400E+01 2.18180E+01 0.00000E+00
 -1      2638 1.36959E+01 2.09054E+01 0.00000E+00
 -1      2639 1.35979E+01 2.24205E+01 0.00000E+00
 -1      2640 7.59844E+00 8.23231E+00 0.00000E+00
 -1      2641 3.07426E+01 1.42427E+01 0.00000E+00
 -1      2642 3.15957E+01 1.46095E+01 0.00000E+00
 -1      2643 3.21265E+01 1.38319E+01 0.00000E+00
 -1      2644 2.06481E+01 3.35580E+01 0.00000E+00
 -1      2645 3.34504E+01 3.11667E+01 0.00000E+00
 -1      2646 1.61736E+01 1.72651E+01 0.00000E+00
 -1      2647 2.64056E+01 1.22084E+01 0.00000E+00
 -1      2648 2.72207E+01 1.16855E+01 0.00000E+00
 -1      2649 2.56748E+01 1.14631E+01 0.00000E+00
 -1      2650 1.59126E+01 2.94924E+01 0.00000E+00
 -1      2651 1.61940E+01 2.87013E+01 0.00000E+00
 -1      2652 1.54336E+01 2.83165E+01 0.00000E+00
 -1      2653 2.17332E+01 1.27104E+01 0.00000E+00
 -1      2654 6.55950E+00 3.99453E+01 0.00000E+00
 -1      2655 2.88315E+01 1.26735E+01 0.00000E+00
 -1      2656 2.91085E+01 1.36015E+01 0.00000E+00
 -1      2657 1.50246E+01 1.93083E+01 0.00000E+00
 -1      2658 2.99616E+01 1.39683E+01 0.00000E+00
 -1      2659 1.40664E+02 4.22352E+01 0.00000E+00
 -1      2660 1.42120E+02 8.46463E+00 0.00000E+00
 -1      2661 8.85787E+00 1.98250E+01 0.00000E+00
 -1      2662 8.85787E+00 2.12750E+01 0.00000E+00
 -1      2663 8.85787E+00 2.27500E+01 0.00000E+00
 -1      2664 8.85787E+00 2.42250E+01 0.00000E+00
 -1      2665 1.01344E+01 2.20250E+01 0.00000E+00
 -1      2666 8.88039E+00 1.39375E+01 0.00000E+00
 -1      2667 8.88039E+00 1.54125E+01 0.00000E+00
 -1      2668 8.88039E+00 1.09875E+01 0.00000E+00
 -1      2669 8.88039E+00 1.24625E+01 0.00000E+00
 -1      2670 1.01794E+01 1.32000E+01 0.00000E+00
 -1      2671 1.22850E+01 7.90325E+00 0.00000E+00
 -1      2672 1.07850E+01 7.90325E+00 0.00000E+00
 -1      2673 1.52850E+01 7.90325E+00 0.00000E+00
 -1      2674 1.37850E+01 7.90325E+00 0.00000E+00
 -1      2675 1.30350E+01 9.20225E+00 0.00000E+00
 -1      2676 1.40706E+02 1.03250E+01 0.00000E+00
 -1      2677 1.40620E+02 8.46463E+00 0.00000E+00
 -1      2678 1.39120E+02 8.46463E+00 0.00000E+00
 -1      2679 1.44000E+01 4.09070E+01 0.00000E+00
 -1      2680 1.59000E+01 4.09070E+01 0.00000E+00
 -1      2681 1.74000E+01 4.09070E+01 0.00000E+00
 -1      2682 1.89000E+01 4.09070E+01 0.00000E+00
 -1      2683 1.66500E+01 3.96080E+01 0.00000E+00
 -1      2684 2.04000E+01 4.09070E+01 0.00000E+00
 -1      2685 2.19000E+01 4.09070E+01 0.00000E+00
 -1      2686 1.96500E+01 3.96080E+01 0.00000E+00
 -1      2687 2.34000E+01 4.09070E+01 0.00000E+00
 -1      2688 2.49000E+01 4.09070E+01 0.00000E+00
 -1      2689 2.26500E+01 3.96080E+01 0.00000E+00
 -1      2690 2.64000E+01 4.09070E+01 0.00000E+00
 -1      2691 2.79000E+01 4.09070E+01 0.00000E+00
 -1      2692 2.56500E+01 3.96080E+01 0.00000E+00
 -1      2693 2.94000E+01 4.09070E+01 0.00000E+00
 -1      2694 3.09000E+01 4.09070E+01 0.00000E+00
 -1      2695 2.86500E+01 3.96080E+01 0.00000E+00
 -1      2696 3.24000E+01 4.09070E+01 0.00000E+00
 -1      2697 3.39000E+01 4.09070E+01 0.00000E+00
 -1      2698 3.16500E+01 3.96080E+01 0.00000E+00
 -1      2699 3.54000E+01 4.09070E+01 0.00000E+00
 -1      2700 3.69000E+01 4.09070E+01 0.00000E+00
 -1      2701 3.46500E+01 3.96080E+01 0.00000E+00
 -1      2702 3.84000E+01 4.09070E+01 0.00000E+00
 -1      2703 3.99000E+01 4.09070E+01 0.00000E+00
 -1      2704 3.76500E+01 3.96080E+01 0.00000E+00
 -1      2705 4.14000E+01 4.09070E+01 0.00000E+00
 -1      2706 4.29000E+01 4.09070E+01 0.00000E+00
 -1      2707 4.06500E+01 3.96080E+01 0.00000E+00
 -1      2708 4.44000E+01 4.09070E+01 0.00000E+00
 -1      2709 4.59000E+01 4.09070E+01 0.00000E+00
 -1      2710 4.36500E+01 3.96080E+01 0.00000E+00
 -1      2711 4.74000E+01 4.09070E+01 0.00000E+00
 -1      2712 4.89000E+01 4.09070E+01 0.00000E+00
 -1      2713 4.66500E+01 3.96080E+01 0.00000E+00
 -1      2714 5.04000E+01 4.09070E+01 0.00000E+00
 -1      2715 5.19000E+01 4.09070E+01 0.00000E+00
 -1      2716 4.96500E+01 3.96080E+01 0.00000E+00
 -1      2717 5.34000E+01 4.09070E+01 0.00000E+00
 -1      2718 5.49000E+01 4.09070E+01 0.00000E+00
 -1      2719 5.26500E+01 3.96080E+01 0.00000E+00
 -1      2720 5.64000E+01 4.09070E+01 0.00000E+00
 -1      2721 5.79000E+01 4.09070E+01 0.00000E+00
 -1      2722 5.56500E+01 3.96080E+01 0.00000E+00
 -1      2723 5.94000E+01 4.09070E+01 0.00000E+00
 -1      2724 6.09000E+01 4.09070E+01 0.00000E+00
 -1      2725 5.86500E+01 3.96080E+01 0.00000E+00
 -1      2726 6.24000E+01 4.09070E+01 0.00000E+00
 -1      2727 6.39000E+01 4.09070E+01 0.00000E+00
 -1      2728 6.16500E+01 3.96080E+01 0.00000E+00
 -1      2729 6.54000E+01 4.09070E+01 0.00000E+00
 -1      2730 6.69000E+01 4.09070E+01 0.00000E+00
 -1      2731 6.46500E+01 3.96080E+01 0.00000E+00
 -1      2732 6.84000E+01 4.09070E+01 0.00000E+00
 -1      2733 6.99000E+01 4.09070E+01 0.00000E+00
 -1      2734 6.76500E+01 3.96080E+01 0.00000E+00
 -1      2735 7.14000E+01 4.09070E+01 0.00000E+00
 -1      2736 7.29000E+01 4.09070E+01 0.00000E+00
 -1      2737 7.06500E+01 3.96080E+01 0.00000E+00
 -1      2738 7.44000E+01 4.09070E+01 0.00000E+00
 -1      2739 7.59000E+01 4.09070E+01 0.00000E+00
 -1      2740 7.36500E+01 3.96080E+01 0.00000E+00
 -1      2741 7.74000E+01 4.09070E+01 0.00000E+00
 -1      2742 7.89000E+01 4.09070E+01 0.00000E+00
 -1      2743 7.66500E+01 3.96080E+01 0.00000E+00
 -1      2744 8.04000E+01 4.09070E+01 0.00000E+00
 -1      2745 8.19000E+01 4.09070E+01 0.00000E+00
 -1      2746 7.96500E+01 3.96080E+01 0.00000E+00
 -1      2747 8.34000E+01 4.09070E+01 0.00000E+00
 -1      2748 8.49000E+01 4.09070E+01 0.00000E+00
 -1      2749 8.26500E+01 3.96080E+01 0.00000E+00
 -1      2750 8.64000E+01 4.09070E+01 0.00000E+00
 -1      2751 8.79000E+01 4.09070E+01 0.00000E+00
 -1      2752 8.56500E+01 3.96080E+01 0.00000E+00
 -1      2753 8.94000E+01 4.09070E+01 0.00000E+00
 -1      2754 9.09000E+01 4.09070E+01 0.00000E+00
 -1      2755 8.86500E+01 3.96080E+01 0.00000E+00
 -1      2756 9.24000E+01 4.09070E+01 0.00000E+00
 -1      2757 9.39000E+01 4.09070E+01 0.00000E+00
 -1      2758 9.16500E+01 3.96080E+01 0.00000E+00
 -1      2759 9.54000E+01 4.09070E+01 0.00000E+00
 -1      2760 9.69000E+01 4.09070E+01 0.00000E+00
 -1      2761 9.46500E+01 3.96080E+01 0.00000E+00
 -1      2762 9.84000E+01 4.09070E+01 0.00000E+00
 -1      2763 9.99000E+01 4.09070E+01 0.00000E+00
 -1      2764 9.76500E+01 3.96080E+01 0.00000E+00
 -1      2765 1.01400E+02 4.09070E+01 0.00000E+00
 -1      2766 1.02900E+02 4.09070E+01 0.00000E+00
 -1      2767 1.00650E+02 3.96080E+01 0.00000E+00
 -1      2768 1.04400E+02 4.09070E+01 0.00000E+00
 -1      2769 1.05900E+02 4.09070E+01 0.00000E+00
 -1      2770 1.03650E+02 3.96080E+01 0.00000E+00
 -1      2771 1.07400E+02 4.09070E+01 0.00000E+00
 -1      2772 1.08900E+02 4.09070E+01 0.00000E+00
 -1      2773 1.06650E+02 3.96080E+01 0.00000E+00
 -1      2774 1.10400E+02 4.09070E+01 0.00000E+00
 -1      2775 1.11900E+02 4.09070E+01 0.00000E+00
 -1      2776 1.09650E+02 3.96080E+01 0.00000E+00
 -1      2777 1.13400E+02 4.09070E+01 0.00000E+00
 -1      2778 1.14900E+02 4.09070E+01 0.00000E+00
 -1      2779 1.12650E+02 3.96080E+01 0.00000E+00
 -1      2780 1.16400E+02 4.09070E+01 0.00000E+00
 -1      2781 1.17900E+02 4.09070E+01 0.00000E+00
 -1      2782 1.15650E+02 3.96080E+01 0.00000E+00
 -1      2783 1.19400E+02 4.09070E+01 0.00000E+00
 -1      2784 1.20900E+02 4.09070E+01 0.00000E+00
 -1      2785 1.18650E+02 3.96080E+01 0.00000E+00
 -1      2786 1.22400E+02 4.09070E+01 0.00000E+00
 -1      2787 1.23900E+02 4.09070E+01 0.00000E+00
 -1      2788 1.21650E+02 3.96080E+01 0.00000E+00
 -1      2789 1.25400E+02 4.09070E+01 0.00000E+00
 -1      2790 1.26900E+02 4.09070E+01 0.00000E+00
 -1      2791 1.24650E+02 3.96080E+01 0.00000E+00
 -1      2792 1.28400E+02 4.09070E+01 0.00000E+00
 -1      2793 1.29900E+02 4.09070E+01 0.00000E+00
 -1      2794 1.27650E+02 3.96080E+01 0.00000E+00
 -1      2795 1.31400E+02 4.09070E+01 0.00000E+00
 -1      2796 1.32900E+02 4.09070E+01 0.00000E+00
 -1      2797 1.30650E+02 3.96080E+01 0.00000E+00
 -1      2798 1.34400E+02 4.09070E+01 0.00000E+00
 -1      2799 1.35900E+02 4.09070E+01 0.00000E+00
 -1      2800 1.33650E+02 3.96080E+01 0.00000E+00
 -1      2801 1.37400E+02 4.09070E+01 0.00000E+00
 -1      2802 1.38900E+02 4.09070E+01 0.00000E+00
 -1      2803 1.36650E+02 3.96080E+01 0.00000E+00
 -1      2804 1.84806E+01 3.32906E+01 0.00000E+00
 -1      2805 1.77308E+01 3.24901E+01 0.00000E+00
 -1      2806 2.12850E+01 7.90325E+00 0.00000E+00
 -1      2807 1.97850E+01 7.90325E+00 0.00000E+00
 -1      2808 3.02850E+01 7.71316E+00 0.00000E+00
 -1      2809 2.87850E+01 7.71316E+00 0.00000E+00
 -1      2810 3.32850E+01 7.71316E+00 0.00000E+00
 -1      2811 3.17850E+01 7.71316E+00 0.00000E+00
 -1      2812 3.10350E+01 8.82207E+00 0.00000E+00
 -1      2813 3.62850E+01 7.71316E+00 0.00000E+00
 -1      2814 3.47850E+01 7.71316E+00 0.00000E+00
 -1      2815 3.40350E+01 8.82207E+00 0.00000E+00
 -1      2816 3.92850E+01 7.71316E+00 0.00000E+00
 -1      2817 3.77850E+01 7.71316E+00 0.00000E+00
 -1      2818 3.70350E+01 8.82207E+00 0.00000E+00
 -1      2819 4.22850E+01 7.71316E+00 0.00000E+00
 -1      2820 4.07850E+01 7.71316E+00 0.00000E+00
 -1      2821 4.00350E+01 8.82207E+00 0.00000E+00
 -1      2822 4.52850E+01 7.71316E+00 0.00000E+00
 -1      2823 4.37850E+01 7.71316E+00 0.00000E+00
 -1      2824 4.30350E+01 8.82207E+00 0.00000E+00
 -1      2825 4.82850E+01 7.71316E+00 0.00000E+00
 -1      2826 4.67850E+01 7.71316E+00 0.00000E+00
 -1      2827 4.60350E+01 8.82207E+00 0.00000E+00
 -1      2828 5.12850E+01 7.71316E+00 0.00000E+00
 -1      2829 4.97850E+01 7.71316E+00 0.00000E+00
 -1      2830 4.90350E+01 8.82207E+00 0.00000E+00
 -1      2831 5.42850E+01 7.71316E+00 0.00000E+00
 -1      2832 5.27850E+01 7.71316E+00 0.00000E+00
 -1      2833 5.20350E+01 8.82207E+00 0.00000E+00
 -1      2834 5.72850E+01 7.71316E+00 0.00000E+00
 -1      2835 5.57850E+01 7.71316E+00 0.00000E+00
 -1      2836 5.50350E+01 8.82207E+00 0.00000E+00
 -1      2837 6.02850E+01 7.71316E+00 0.00000E+00
 -1      2838 5.87850E+01 7.71316E+00 0.00000E+00
 -1      2839 5.80350E+01 8.82207E+00 0.00000E+00
 -1      2840 6.32850E+01 7.71316E+00 0.00000E+00
 -1      2841 6.17850E+01 7.71316E+00 0.00000E+00
 -1      2842 6.10350E+01 8.82207E+00 0.00000E+00
 -1      2843 6.62850E+01 7.71316E+00 0.00000E+00
 -1      2844 6.47850E+01 7.71316E+00 0.00000E+00
 -1      2845 6.40350E+01 8.82207E+00 0.00000E+00
 -1      2846 6.92850E+01 7.71316E+00 0.00000E+00
 -1      2847 6.77850E+01 7.71316E+00 0.00000E+00
 -1      2848 6.70350E+01 8.82207E+00 0.00000E+00
 -1      2849 7.22850E+01 7.71316E+00 0.00000E+00
 -1      2850 7.07850E+01 7.71316E+00 0.00000E+00
 -1      2851 7.00350E+01 8.82207E+00 0.00000E+00
 -1      2852 7.52850E+01 7.71316E+00 0.00000E+00
 -1      2853 7.37850E+01 7.71316E+00 0.00000E+00
 -1      2854 7.30350E+01 8.82207E+00 0.00000E+00
 -1      2855 7.82850E+01 7.71316E+00 0.00000E+00
 -1      2856 7.67850E+01 7.71316E+00 0.00000E+00
 -1      2857 7.60350E+01 8.82207E+00 0.00000E+00
 -1      2858 8.12850E+01 7.71316E+00 0.00000E+00
 -1      2859 7.97850E+01 7.71316E+00 0.00000E+00
 -1      2860 7.90350E+01 8.82207E+00 0.00000E+00
 -1      2861 8.42850E+01 7.71316E+00 0.00000E+00
 -1      2862 8.27850E+01 7.71316E+00 0.00000E+00
 -1      2863 8.20350E+01 8.82207E+00 0.00000E+00
 -1      2864 8.72850E+01 7.71316E+00 0.00000E+00
 -1      2865 8.57850E+01 7.71316E+00 0.00000E+00
 -1      2866 8.50350E+01 8.82207E+00 0.00000E+00
 -1      2867 9.02850E+01 7.71316E+00 0.00000E+00
 -1      2868 8.87850E+01 7.71316E+00 0.00000E+00
 -1      2869 8.80350E+01 8.82207E+00 0.00000E+00
 -1      2870 9.32850E+01 7.71316E+00 0.00000E+00
 -1      2871 9.17850E+01 7.71316E+00 0.00000E+00
 -1      2872 9.10350E+01 8.82207E+00 0.00000E+00
 -1      2873 9.62850E+01 7.71316E+00 0.00000E+00
 -1      2874 9.47850E+01 7.71316E+00 0.00000E+00
 -1      2875 9.40350E+01 8.82207E+00 0.00000E+00
 -1      2876 9.92850E+01 7.71316E+00 0.00000E+00
 -1      2877 9.77850E+01 7.71316E+00 0.00000E+00
 -1      2878 9.70350E+01 8.82207E+00 0.00000E+00
 -1      2879 1.02285E+02 7.71316E+00 0.00000E+00
 -1      2880 1.00785E+02 7.71316E+00 0.00000E+00
 -1      2881 1.00035E+02 8.82207E+00 0.00000E+00
 -1      2882 1.05285E+02 7.71316E+00 0.00000E+00
 -1      2883 1.03785E+02 7.71316E+00 0.00000E+00
 -1      2884 1.03035E+02 8.82207E+00 0.00000E+00
 -1      2885 1.08285E+02 7.71316E+00 0.00000E+00
 -1      2886 1.06785E+02 7.71316E+00 0.00000E+00
 -1      2887 1.06035E+02 8.82207E+00 0.00000E+00
 -1      2888 1.11285E+02 7.71316E+00 0.00000E+00
 -1      2889 1.09785E+02 7.71316E+00 0.00000E+00
 -1      2890 1.09035E+02 8.82207E+00 0.00000E+00
 -1      2891 1.14285E+02 7.71316E+00 0.00000E+00
 -1      2892 1.12785E+02 7.71316E+00 0.00000E+00
 -1      2893 1.12035E+02 8.82207E+00 0.00000E+00
 -1      2894 1.17285E+02 7.71316E+00 0.00000E+00
 -1      2895 1.15785E+02 7.71316E+00 0.00000E+00
 -1      2896 1.15035E+02 8.82207E+00 0.00000E+00
 -1      2897 1.20285E+02 7.71316E+00 0.00000E+00
 -1      2898 1.18785E+02 7.71316E+00 0.00000E+00
 -1      2899 1.18035E+02 8.82207E+00 0.00000E+00
 -1      2900 1.23285E+02 7.71316E+00 0.00000E+00
 -1      2901 1.21785E+02 7.71316E+00 0.00000E+00
 -1      2902 1.21035E+02 8.82207E+00 0.00000E+00
 -1      2903 1.26285E+02 7.71316E+00 0.00000E+00
 -1      2904 1.24785E+02 7.71316E+00 0.00000E+00
 -1      2905 1.24035E+02 8.82207E+00 0.00000E+00
 -1      2906 1.29285E+02 7.71316E+00 0.00000E+00
 -1      2907 1.27785E+02 7.71316E+00 0.00000E+00
 -1      2908 1.27035E+02 8.82207E+00 0.00000E+00
 -1      2909 1.32285E+02 7.71316E+00 0.00000E+00
 -1      2910 1.30785E+02 7.71316E+00 0.00000E+00
 -1      2911 1.30035E+02 8.82207E+00 0.00000E+00
 -1      2912 1.35285E+02 7.71316E+00 0.00000E+00
 -1      2913 1.33785E+02 7.71316E+00 0.00000E+00
 -1      2914 1.33035E+02 8.82207E+00 0.00000E+00
 -1      2915 1.37953E+02 8.08889E+00 0.00000E+00
 -1      2916 1.36453E+02 8.08889E+00 0.00000E+00
 -1      2917 1.35703E+02 9.19780E+00 0.00000E+00
 -1      2918 1.38038E+02 9.94927E+00 0.00000E+00
 -1      2919 2.07207E+01 3.46690E+01 0.00000E+00
 -1      2920 1.96762E+01 3.41011E+01 0.00000E+00
 -1      2921 3.40204E+01 1.40418E+01 0.00000E+00
 -1      2922 3.45623E+01 1.48118E+01 0.00000E+00
 -1      2923 1.40907E+02 2.42875E+01 0.00000E+00
 -1      2924 1.40907E+02 2.28125E+01 0.00000E+00
 -1      2925 1.40907E+02 1.83875E+01 0.00000E+00
 -1      2926 1.40907E+02 1.69125E+01 0.00000E+00
 -1      2927 1.40907E+02 2.72375E+01 0.00000E+00
 -1      2928 1.40907E+02 2.57625E+01 0.00000E+00
 -1      2929 1.39608E+02 2.50250E+01 0.00000E+00
 -1      2930 1.40907E+02 2.13375E+01 0.00000E+00
 -1      2931 1.40907E+02 1.98625E+01 0.00000E+00
 -1      2932 1.39608E+02 1.91250E+01 0.00000E+00
 -1      2933 1.39608E+02 2.20750E+01 0.00000E+00
 -1      2934 1.40907E+02 3.01375E+01 0.00000E+00
 -1      2935 1.40907E+02 2.86875E+01 0.00000E+00
 -1      2936 1.39608E+02 2.79500E+01 0.00000E+00
 -1      2937 1.40907E+02 3.30875E+01 0.00000E+00
 -1      2938 1.40907E+02 3.16125E+01 0.00000E+00
 -1      2939 1.39608E+02 3.08750E+01 0.00000E+00
 -1      2940 1.40907E+02 3.60375E+01 0.00000E+00
 -1      2941 1.40907E+02 3.45625E+01 0.00000E+00
 -1      2942 1.39608E+02 3.38250E+01 0.00000E+00
 -1      2943 1.40928E+02 4.09655E+01 0.00000E+00
 -1      2944 1.41192E+02 3.96958E+01 0.00000E+00
 -1      2945 1.39914E+02 4.09362E+01 0.00000E+00
 -1      2946 3.66349E+01 2.72374E+01 0.00000E+00
 -1      2947 3.62107E+01 2.83824E+01 0.00000E+00
 -1      2948 3.71553E+01 2.53751E+01 0.00000E+00
 -1      2949 3.70007E+01 2.61570E+01 0.00000E+00
 -1      2950 3.71560E+01 2.03083E+01 0.00000E+00
 -1      2951 3.71416E+01 2.15196E+01 0.00000E+00
 -1      2952 8.80819E+00 8.42712E+00 0.00000E+00
 -1      2953 2.04445E+01 1.12027E+01 0.00000E+00
 -1      2954 2.18238E+01 1.07100E+01 0.00000E+00
 -1      2955 1.82850E+01 7.90325E+00 0.00000E+00
 -1      2956 1.67850E+01 7.90325E+00 0.00000E+00
 -1      2957 1.60350E+01 9.20225E+00 0.00000E+00
 -1      2958 1.90350E+01 9.20225E+00 0.00000E+00
 -1      2959 9.07048E+00 2.86375E+01 0.00000E+00
 -1      2960 9.07048E+00 3.01125E+01 0.00000E+00
 -1      2961 2.72625E+01 8.77219E+00 0.00000E+00
 -1      2962 2.57625E+01 8.77219E+00 0.00000E+00
 -1      2963 1.14000E+01 4.09070E+01 0.00000E+00
 -1      2964 1.29000E+01 4.09070E+01 0.00000E+00
 -1      2965 1.36500E+01 3.96080E+01 0.00000E+00
 -1      2966 2.85973E+01 1.18062E+01 0.00000E+00
 -1      2967 2.94772E+01 1.20489E+01 0.00000E+00
 -1      2968 7.85850E+00 3.92077E+01 0.00000E+00
 -1      2969 8.88039E+00 1.68875E+01 0.00000E+00
 -1      2970 8.88039E+00 1.83625E+01 0.00000E+00
 -1      2971 1.01794E+01 1.61500E+01 0.00000E+00
 -1      2972 2.82145E+01 3.54676E+01 0.00000E+00
 -1      2973 2.70929E+01 3.57369E+01 0.00000E+00
 -1      2974 9.07048E+00 3.15875E+01 0.00000E+00
 -1      2975 9.07048E+00 3.30625E+01 0.00000E+00
 -1      2976 1.03470E+01 3.08500E+01 0.00000E+00
 -1      2977 1.39927E+01 1.93700E+01 0.00000E+00
 -1      2978 1.45793E+01 1.83753E+01 0.00000E+00
 -1      2979 2.36026E+01 3.57688E+01 0.00000E+00
 -1      2980 2.21274E+01 3.52678E+01 0.00000E+00
 -1      2981 1.63403E+01 1.51468E+01 0.00000E+00
 -1      2982 1.70314E+01 1.44236E+01 0.00000E+00
 -1      2983 3.04924E+01 1.31907E+01 0.00000E+00
 -1      2984 1.35892E+01 2.48019E+01 0.00000E+00
 -1      2985 1.34842E+01 2.38846E+01 0.00000E+00
 -1      2986 3.51711E+01 1.58293E+01 0.00000E+00
 -1      2987 3.57798E+01 1.68469E+01 0.00000E+00
 -1      2988 3.56699E+01 1.49026E+01 0.00000E+00
 -1      2989 1.70152E+01 3.17342E+01 0.00000E+00
 -1      2990 1.62996E+01 3.09783E+01 0.00000E+00
 -1      2991 1.66419E+01 3.28352E+01 0.00000E+00
 -1      2992 3.45283E+01 3.13656E+01 0.00000E+00
 -1      2993 3.37876E+01 3.22096E+01 0.00000E+00
 -1      2994 1.51416E+01 1.73268E+01 0.00000E+00
 -1      2995 1.57039E+01 1.62784E+01 0.00000E+00
 -1      2996 1.41096E+01 1.73885E+01 0.00000E+00
 -1      2997 2.62582E+01 3.58228E+01 0.00000E+00
 -1      2998 2.54235E+01 3.59087E+01 0.00000E+00
 -1      2999 2.70388E+01 3.66035E+01 0.00000E+00
 -1      3000 3.56982E+01 2.95421E+01 0.00000E+00
 -1      3001 3.51769E+01 3.03677E+01 0.00000E+00
 -1      3002 1.80887E+01 1.35391E+01 0.00000E+00
 -1      3003 1.92066E+01 1.27555E+01 0.00000E+00
 -1      3004 3.29066E+01 3.30643E+01 0.00000E+00
 -1      3005 3.21118E+01 3.37115E+01 0.00000E+00
 -1      3006 8.91102E+00 2.56938E+01 0.00000E+00
 -1      3007 9.01733E+00 2.71688E+01 0.00000E+00
 -1      3008 1.02938E+01 2.79063E+01 0.00000E+00
 -1      3009 1.01875E+01 2.49688E+01 0.00000E+00
 -1      3010 3.63132E+01 1.78065E+01 0.00000E+00
 -1      3011 3.68465E+01 1.87662E+01 0.00000E+00
 -1      3012 3.68120E+01 1.68798E+01 0.00000E+00
 -1      3013 3.08869E+01 3.45236E+01 0.00000E+00
 -1      3014 2.96046E+01 3.50799E+01 0.00000E+00
 -1      3015 9.07048E+00 3.45313E+01 0.00000E+00
 -1      3016 9.07048E+00 3.60000E+01 0.00000E+00
 -1      3017 1.03470E+01 3.37938E+01 0.00000E+00
 -1      3018 3.81536E+01 1.84547E+01 0.00000E+00
 -1      3019 3.76548E+01 1.93815E+01 0.00000E+00
 -1      3020 3.84632E+01 1.99969E+01 0.00000E+00
 -1      3021 1.85531E+01 3.44016E+01 0.00000E+00
 -1      3022 3.21049E+01 1.27068E+01 0.00000E+00
 -1      3023 3.29580E+01 1.30736E+01 0.00000E+00
 -1      3024 3.39845E+01 3.32632E+01 0.00000E+00
 -1      3025 1.40706E+02 1.17875E+01 0.00000E+00
 -1      3026 1.70020E+01 1.31924E+01 0.00000E+00
 -1      3027 1.53083E+01 1.52085E+01 0.00000E+00
 -1      3028 3.00240E+01 1.14561E+01 0.00000E+00
 -1      3029 3.02582E+01 1.23234E+01 0.00000E+00
 -1      3030 3.10392E+01 1.25979E+01 0.00000E+00
 -1      3031 3.77071E+01 2.21666E+01 0.00000E+00
 -1      3032 1.39164E+02 3.96372E+01 0.00000E+00
 -1      3033 3.39987E+01 1.29167E+01 0.00000E+00
 -1      3034 2.11555E+01 3.58108E+01 0.00000E+00
 -1      3035 1.51660E+01 3.16944E+01 0.00000E+00
 -1      3036 1.55393E+01 3.05934E+01 0.00000E+00
 -1      3037 1.47789E+01 3.02085E+01 0.00000E+00
 -1      3038 1.39608E+02 1.61875E+01 0.00000E+00
 -1      3039 1.40907E+02 1.54500E+01 0.00000E+00
 -1      3040 1.40907E+02 1.39875E+01 0.00000E+00
 -1      3041 3.55141E+01 3.14106E+01 0.00000E+00
 -1      3042 3.76846E+01 2.46709E+01 0.00000E+00
 -1      3043 1.01569E+01 1.90875E+01 0.00000E+00
 -1      3044 1.41192E+02 3.82207E+01 0.00000E+00
 -1      3045 1.39893E+02 3.74832E+01 0.00000E+00
 -1      3046 3.75535E+01 2.70128E+01 0.00000E+00
 -1      3047 1.45588E+01 2.79312E+01 0.00000E+00
 -1      3048 1.36841E+01 2.75460E+01 0.00000E+00
 -1      3049 1.42774E+01 2.87223E+01 0.00000E+00
 -1      3050 1.33459E+01 2.55955E+01 0.00000E+00
 -1      3051 1.28401E+01 2.29720E+01 0.00000E+00
 -1      3052 9.55819E+00 9.72612E+00 0.00000E+00
 -1      3053 2.78664E+01 1.10609E+01 0.00000E+00
 -1      3054 1.92971E+01 1.07550E+01 0.00000E+00
 -1      3055 2.49686E+01 1.01176E+01 0.00000E+00
 -1      3056 2.42412E+01 7.94970E+00 0.00000E+00
 -1      3057 2.27412E+01 7.94970E+00 0.00000E+00
 -1      3058 2.41535E+01 1.06406E+01 0.00000E+00
 -1      3059 9.14624E+00 3.77359E+01 0.00000E+00
 -1      3060 9.21074E+00 4.02061E+01 0.00000E+00
 -1      3061 1.05742E+01 4.04701E+01 0.00000E+00
 -1      3062 1.04227E+01 3.69984E+01 0.00000E+00
 -1      3063 3.66752E+01 2.92530E+01 0.00000E+00
 -1      3064 2.92636E+01 3.61299E+01 0.00000E+00
 -1      3065 2.32799E+01 1.07564E+01 0.00000E+00
 -1      3066 2.19912E+01 9.24870E+00 0.00000E+00
 -1      3067 3.18786E+01 3.49300E+01 0.00000E+00
 -1      3068 1.08572E+01 1.04636E+01 0.00000E+00
 -1      3069 1.13242E+01 3.91711E+01 0.00000E+00
 -1      3070 2.80125E+01 9.88110E+00 0.00000E+00
 -1      3071 2.93890E+01 1.00019E+01 0.00000E+00
 -1      3072 1.14784E+01 1.24625E+01 0.00000E+00
 -1      3073 1.14784E+01 1.39375E+01 0.00000E+00
 -1      3074 3.18707E+01 1.18395E+01 0.00000E+00
 -1      3075 3.52555E+01 3.36919E+01 0.00000E+00
 -1      3076 3.43745E+01 3.45466E+01 0.00000E+00
 -1      3077 1.28513E+01 1.73886E+01 0.00000E+00
 -1      3078 1.34135E+01 1.63402E+01 0.00000E+00
 -1      3079 3.62452E+01 1.38675E+01 0.00000E+00
 -1      3080 3.68540E+01 1.48851E+01 0.00000E+00
 -1      3081 2.46164E+01 3.62500E+01 0.00000E+00
 -1      3082 2.35761E+01 3.68907E+01 0.00000E+00
 -1      3083 1.23763E+01 3.03423E+01 0.00000E+00
 -1      3084 1.23763E+01 3.18173E+01 0.00000E+00
 -1      3085 1.89000E+01 3.83315E+01 0.00000E+00
 -1      3086 2.04000E+01 3.83315E+01 0.00000E+00
 -1      3087 2.43700E+01 3.84899E+01 0.00000E+00
 -1      3088 2.58700E+01 3.84899E+01 0.00000E+00
 -1      3089 2.75117E+01 3.80628E+01 0.00000E+00
 -1      3090 2.90117E+01 3.80628E+01 0.00000E+00
 -1      3091 3.09000E+01 3.83090E+01 0.00000E+00
 -1      3092 3.24000E+01 3.83090E+01 0.00000E+00
 -1      3093 3.43977E+01 3.72916E+01 0.00000E+00
 -1      3094 3.58977E+01 3.72916E+01 0.00000E+00
 -1      3095 3.73977E+01 3.72916E+01 0.00000E+00
 -1      3096 3.88977E+01 3.72916E+01 0.00000E+00
 -1      3097 3.71455E+01 3.49753E+01 0.00000E+00
 -1      3098 4.03977E+01 3.72916E+01 0.00000E+00
 -1      3099 4.18977E+01 3.72916E+01 0.00000E+00
 -1      3100 4.01455E+01 3.49753E+01 0.00000E+00
 -1      3101 4.33977E+01 3.72916E+01 0.00000E+00
 -1      3102 4.48977E+01 3.72916E+01 0.00000E+00
 -1      3103 4.31455E+01 3.49753E+01 0.00000E+00
 -1      3104 4.63977E+01 3.72916E+01 0.00000E+00
 -1      3105 4.78977E+01 3.72916E+01 0.00000E+00
 -1      3106 4.61455E+01 3.49753E+01 0.00000E+00
 -1      3107 4.93977E+01 3.72916E+01 0.00000E+00
 -1      3108 5.08977E+01 3.72916E+01 0.00000E+00
 -1      3109 4.91455E+01 3.49753E+01 0.00000E+00
 -1      3110 5.23977E+01 3.72916E+01 0.00000E+00
 -1      3111 5.38977E+01 3.72916E+01 0.00000E+00
 -1      3112 5.21455E+01 3.49753E+01 0.00000E+00
 -1      3113 5.53977E+01 3.72916E+01 0.00000E+00
 -1      3114 5.68977E+01 3.72916E+01 0.00000E+00
 -1      3115 5.51455E+01 3.49753E+01 0.00000E+00
 -1      3116 5.83977E+01 3.72916E+01 0.00000E+00
 -1      3117 5.98977E+01 3.72916E+01 0.00000E+00
 -1      3118 5.81455E+01 3.49753E+01 0.00000E+00
 -1      3119 6.13977E+01 3.72916E+01 0.00000E+00
 -1      3120 6.28977E+01 3.72916E+01 0.00000E+00
 -1      3121 6.11455E+01 3.49753E+01 0.00000E+00
 -1      3122 6.43977E+01 3.72916E+01 0.00000E+00
 -1      3123 6.58977E+01 3.72916E+01 0.00000E+00
 -1      3124 6.41455E+01 3.49753E+01 0.00000E+00
 -1      3125 6.73977E+01 3.72916E+01 0.00000E+00
 -1      3126 6.88977E+01 3.72916E+01 0.00000E+00
 -1      3127 6.71455E+01 3.49753E+01 0.00000E+00
 -1      3128 7.03977E+01 3.72916E+01 0.00000E+00
 -1      3129 7.18977E+01 3.72916E+01 0.00000E+00
 -1      3130 7.01455E+01 3.49753E+01 0.00000E+00
 -1      3131 7.33977E+01 3.72916E+01 0.00000E+00
 -1      3132 7.48977E+01 3.72916E+01 0.00000E+00
 -1      3133 7.31455E+01 3.49753E+01 0.00000E+00
 -1      3134 7.63977E+01 3.72916E+01 0.00000E+00
 -1      3135 7.78977E+01 3.72916E+01 0.00000E+00
 -1      3136 7.61455E+01 3.49753E+01 0.00000E+00
 -1      3137 7.93977E+01 3.72916E+01 0.00000E+00
 -1      3138 8.08977E+01 3.72916E+01 0.00000E+00
 -1      3139 7.91455E+01 3.49753E+01 0.00000E+00
 -1      3140 8.23977E+01 3.72916E+01 0.00000E+00
 -1      3141 8.38977E+01 3.72916E+01 0.00000E+00
 -1      3142 8.21455E+01 3.49753E+01 0.00000E+00
 -1      3143 8.53977E+01 3.72916E+01 0.00000E+00
 -1      3144 8.68977E+01 3.72916E+01 0.00000E+00
 -1      3145 8.51455E+01 3.49753E+01 0.00000E+00
 -1      3146 8.83977E+01 3.72916E+01 0.00000E+00
 -1      3147 8.98977E+01 3.72916E+01 0.00000E+00
 -1      3148 8.81455E+01 3.49753E+01 0.00000E+00
 -1      3149 9.13977E+01 3.72916E+01 0.00000E+00
 -1      3150 9.28977E+01 3.72916E+01 0.00000E+00
 -1      3151 9.11455E+01 3.49753E+01 0.00000E+00
 -1      3152 9.43977E+01 3.72916E+01 0.00000E+00
 -1      3153 9.58977E+01 3.72916E+01 0.00000E+00
 -1      3154 9.41455E+01 3.49753E+01 0.00000E+00
 -1      3155 9.73977E+01 3.72916E+01 0.00000E+00
 -1      3156 9.88977E+01 3.72916E+01 0.00000E+00
 -1      3157 9.71455E+01 3.49753E+01 0.00000E+00
 -1      3158 1.00398E+02 3.72916E+01 0.00000E+00
 -1      3159 1.01898E+02 3.72916E+01 0.00000E+00
 -1      3160 1.00145E+02 3.49753E+01 0.00000E+00
 -1      3161 1.03398E+02 3.72916E+01 0.00000E+00
 -1      3162 1.04898E+02 3.72916E+01 0.00000E+00
 -1      3163 1.03145E+02 3.49753E+01 0.00000E+00
 -1      3164 1.06398E+02 3.72916E+01 0.00000E+00
 -1      3165 1.07898E+02 3.72916E+01 0.00000E+00
 -1      3166 1.06145E+02 3.49753E+01 0.00000E+00
 -1      3167 1.09398E+02 3.72916E+01 0.00000E+00
 -1      3168 1.10898E+02 3.72916E+01 0.00000E+00
 -1      3169 1.09145E+02 3.49753E+01 0.00000E+00
 -1      3170 1.12398E+02 3.72916E+01 0.00000E+00
 -1      3171 1.13898E+02 3.72916E+01 0.00000E+00
 -1      3172 1.12145E+02 3.49753E+01 0.00000E+00
 -1      3173 1.15398E+02 3.72916E+01 0.00000E+00
 -1      3174 1.16898E+02 3.72916E+01 0.00000E+00
 -1      3175 1.15145E+02 3.49753E+01 0.00000E+00
 -1      3176 1.18398E+02 3.72916E+01 0.00000E+00
 -1      3177 1.19898E+02 3.72916E+01 0.00000E+00
 -1      3178 1.18145E+02 3.49753E+01 0.00000E+00
 -1      3179 1.21398E+02 3.72916E+01 0.00000E+00
 -1      3180 1.22898E+02 3.72916E+01 0.00000E+00
 -1      3181 1.21145E+02 3.49753E+01 0.00000E+00
 -1      3182 1.24398E+02 3.72916E+01 0.00000E+00
 -1      3183 1.25898E+02 3.72916E+01 0.00000E+00
 -1      3184 1.24145E+02 3.49753E+01 0.00000E+00
 -1      3185 1.27398E+02 3.72916E+01 0.00000E+00
 -1      3186 1.28898E+02 3.72916E+01 0.00000E+00
 -1      3187 1.27145E+02 3.49753E+01 0.00000E+00
 -1      3188 1.30398E+02 3.72916E+01 0.00000E+00
 -1      3189 1.31898E+02 3.72916E+01 0.00000E+00
 -1      3190 1.30145E+02 3.49753E+01 0.00000E+00
 -1      3191 1.33398E+02 3.72916E+01 0.00000E+00
 -1      3192 1.34898E+02 3.72916E+01 0.00000E+00
 -1      3193 1.33145E+02 3.49753E+01 0.00000E+00
 -1      3194 1.15441E+01 2.10289E+01 0.00000E+00
 -1      3195 1.15441E+01 2.25039E+01 0.00000E+00
 -1      3196 2.53970E+01 3.70306E+01 0.00000E+00
 -1      3197 3.08890E+01 1.00019E+01 0.00000E+00
 -1      3198 4.07850E+01 1.01211E+01 0.00000E+00
 -1      3199 3.92850E+01 1.01211E+01 0.00000E+00
 -1      3200 4.37850E+01 1.01211E+01 0.00000E+00
 -1      3201 4.22850E+01 1.01211E+01 0.00000E+00
 -1      3202 4.15350E+01 1.14201E+01 0.00000E+00
 -1      3203 4.67850E+01 1.01211E+01 0.00000E+00
 -1      3204 4.52850E+01 1.01211E+01 0.00000E+00
 -1      3205 4.45350E+01 1.14201E+01 0.00000E+00
 -1      3206 4.97850E+01 1.01211E+01 0.00000E+00
 -1      3207 4.82850E+01 1.01211E+01 0.00000E+00
 -1      3208 4.75350E+01 1.14201E+01 0.00000E+00
 -1      3209 5.27850E+01 1.01211E+01 0.00000E+00
 -1      3210 5.12850E+01 1.01211E+01 0.00000E+00
 -1      3211 5.05350E+01 1.14201E+01 0.00000E+00
 -1      3212 5.57850E+01 1.01211E+01 0.00000E+00
 -1      3213 5.42850E+01 1.01211E+01 0.00000E+00
 -1      3214 5.35350E+01 1.14201E+01 0.00000E+00
 -1      3215 5.87850E+01 1.01211E+01 0.00000E+00
 -1      3216 5.72850E+01 1.01211E+01 0.00000E+00
 -1      3217 5.65350E+01 1.14201E+01 0.00000E+00
 -1      3218 6.17850E+01 1.01211E+01 0.00000E+00
 -1      3219 6.02850E+01 1.01211E+01 0.00000E+00
 -1      3220 5.95350E+01 1.14201E+01 0.00000E+00
 -1      3221 6.47850E+01 1.01211E+01 0.00000E+00
 -1      3222 6.32850E+01 1.01211E+01 0.00000E+00
 -1      3223 6.25350E+01 1.14201E+01 0.00000E+00
 -1      3224 6.77850E+01 1.01211E+01 0.00000E+00
 -1      3225 6.62850E+01 1.01211E+01 0.00000E+00
 -1      3226 6.55350E+01 1.14201E+01 0.00000E+00
 -1      3227 7.07850E+01 1.01211E+01 0.00000E+00
 -1      3228 6.92850E+01 1.01211E+01 0.00000E+00
 -1      3229 6.85350E+01 1.14201E+01 0.00000E+00
 -1      3230 7.37850E+01 1.01211E+01 0.00000E+00
 -1      3231 7.22850E+01 1.01211E+01 0.00000E+00
 -1      3232 7.15350E+01 1.14201E+01 0.00000E+00
 -1      3233 7.67850E+01 1.01211E+01 0.00000E+00
 -1      3234 7.52850E+01 1.01211E+01 0.00000E+00
 -1      3235 7.45350E+01 1.14201E+01 0.00000E+00
 -1      3236 7.97850E+01 1.01211E+01 0.00000E+00
 -1      3237 7.82850E+01 1.01211E+01 0.00000E+00
 -1      3238 7.75350E+01 1.14201E+01 0.00000E+00
 -1      3239 8.27850E+01 1.01211E+01 0.00000E+00
 -1      3240 8.12850E+01 1.01211E+01 0.00000E+00
 -1      3241 8.05350E+01 1.14201E+01 0.00000E+00
 -1      3242 8.57850E+01 1.01211E+01 0.00000E+00
 -1      3243 8.42850E+01 1.01211E+01 0.00000E+00
 -1      3244 8.35350E+01 1.14201E+01 0.00000E+00
 -1      3245 8.87850E+01 1.01211E+01 0.00000E+00
 -1      3246 8.72850E+01 1.01211E+01 0.00000E+00
 -1      3247 8.65350E+01 1.14201E+01 0.00000E+00
 -1      3248 9.17850E+01 1.01211E+01 0.00000E+00
 -1      3249 9.02850E+01 1.01211E+01 0.00000E+00
 -1      3250 8.95350E+01 1.14201E+01 0.00000E+00
 -1      3251 9.47850E+01 1.01211E+01 0.00000E+00
 -1      3252 9.32850E+01 1.01211E+01 0.00000E+00
 -1      3253 9.25350E+01 1.14201E+01 0.00000E+00
 -1      3254 9.77850E+01 1.01211E+01 0.00000E+00
 -1      3255 9.62850E+01 1.01211E+01 0.00000E+00
 -1      3256 9.55350E+01 1.14201E+01 0.00000E+00
 -1      3257 1.00785E+02 1.01211E+01 0.00000E+00
 -1      3258 9.92850E+01 1.01211E+01 0.00000E+00
 -1      3259 9.85350E+01 1.14201E+01 0.00000E+00
 -1      3260 1.03785E+02 1.01211E+01 0.00000E+00
 -1      3261 1.02285E+02 1.01211E+01 0.00000E+00
 -1      3262 1.01535E+02 1.14201E+01 0.00000E+00
 -1      3263 1.06785E+02 1.01211E+01 0.00000E+00
 -1      3264 1.05285E+02 1.01211E+01 0.00000E+00
 -1      3265 1.04535E+02 1.14201E+01 0.00000E+00
 -1      3266 1.09785E+02 1.01211E+01 0.00000E+00
 -1      3267 1.08285E+02 1.01211E+01 0.00000E+00
 -1      3268 1.07535E+02 1.14201E+01 0.00000E+00
 -1      3269 1.12785E+02 1.01211E+01 0.00000E+00
 -1      3270 1.11285E+02 1.01211E+01 0.00000E+00
 -1      3271 1.10535E+02 1.14201E+01 0.00000E+00
 -1      3272 1.15785E+02 1.01211E+01 0.00000E+00
 -1      3273 1.14285E+02 1.01211E+01 0.00000E+00
 -1      3274 1.13535E+02 1.14201E+01 0.00000E+00
 -1      3275 1.18785E+02 1.01211E+01 0.00000E+00
 -1      3276 1.17285E+02 1.01211E+01 0.00000E+00
 -1      3277 1.16535E+02 1.14201E+01 0.00000E+00
 -1      3278 1.21785E+02 1.01211E+01 0.00000E+00
 -1      3279 1.20285E+02 1.01211E+01 0.00000E+00
 -1      3280 1.19535E+02 1.14201E+01 0.00000E+00
 -1      3281 1.24785E+02 1.01211E+01 0.00000E+00
 -1      3282 1.23285E+02 1.01211E+01 0.00000E+00
 -1      3283 1.22535E+02 1.14201E+01 0.00000E+00
 -1      3284 1.27785E+02 1.01211E+01 0.00000E+00
 -1      3285 1.26285E+02 1.01211E+01 0.00000E+00
 -1      3286 1.25535E+02 1.14201E+01 0.00000E+00
 -1      3287 1.30785E+02 1.01211E+01 0.00000E+00
 -1      3288 1.29285E+02 1.01211E+01 0.00000E+00
 -1      3289 1.28535E+02 1.14201E+01 0.00000E+00
 -1      3290 1.33785E+02 1.01211E+01 0.00000E+00
 -1      3291 1.32285E+02 1.01211E+01 0.00000E+00
 -1      3292 1.31535E+02 1.14201E+01 0.00000E+00
 -1      3293 2.11061E+01 3.67323E+01 0.00000E+00
 -1      3294 1.96994E+01 3.61335E+01 0.00000E+00
 -1      3295 1.39407E+02 1.25250E+01 0.00000E+00
 -1      3296 1.38309E+02 2.86750E+01 0.00000E+00
 -1      3297 1.38309E+02 2.72250E+01 0.00000E+00
 -1      3298 1.38309E+02 2.57500E+01 0.00000E+00
 -1      3299 1.38309E+02 2.42750E+01 0.00000E+00
 -1      3300 1.37010E+02 2.64750E+01 0.00000E+00
 -1      3301 1.57618E+01 1.27842E+01 0.00000E+00
 -1      3302 1.68191E+01 1.18996E+01 0.00000E+00
 -1      3303 1.85037E+01 3.53231E+01 0.00000E+00
 -1      3304 1.73081E+01 3.45127E+01 0.00000E+00
 -1      3305 1.84543E+01 3.62446E+01 0.00000E+00
 -1      3306 1.38309E+02 3.16250E+01 0.00000E+00
 -1      3307 1.38309E+02 3.01500E+01 0.00000E+00
 -1      3308 1.37010E+02 2.94250E+01 0.00000E+00
 -1      3309 3.41581E+01 1.16749E+01 0.00000E+00
 -1      3310 3.52205E+01 1.26432E+01 0.00000E+00
 -1      3311 1.16235E+01 3.80848E+01 0.00000E+00
 -1      3312 1.24492E+01 3.85216E+01 0.00000E+00
 -1      3313 1.39492E+01 3.85216E+01 0.00000E+00
 -1      3314 1.15477E+01 3.63489E+01 0.00000E+00
 -1      3315 3.69574E+01 1.01117E+01 0.00000E+00
 -1      3316 3.54574E+01 1.01117E+01 0.00000E+00
 -1      3317 3.42357E+01 1.03852E+01 0.00000E+00
 -1      3318 3.27357E+01 1.03852E+01 0.00000E+00
 -1      3319 3.87074E+01 2.68013E+01 0.00000E+00
 -1      3320 3.83415E+01 2.78818E+01 0.00000E+00
 -1      3321 3.66979E+01 3.14704E+01 0.00000E+00
 -1      3322 3.60493E+01 3.24683E+01 0.00000E+00
 -1      3323 1.77971E+01 1.07550E+01 0.00000E+00
 -1      3324 1.56746E+01 3.84266E+01 0.00000E+00
 -1      3325 1.71746E+01 3.84266E+01 0.00000E+00
 -1      3326 1.79246E+01 3.71501E+01 0.00000E+00
 -1      3327 1.44739E+01 3.73402E+01 0.00000E+00
 -1      3328 1.11673E+01 1.55076E+01 0.00000E+00
 -1      3329 1.11673E+01 1.69826E+01 0.00000E+00
 -1      3330 1.28993E+01 2.65794E+01 0.00000E+00
 -1      3331 1.22798E+01 2.54199E+01 0.00000E+00
 -1      3332 1.33658E+01 2.02419E+01 0.00000E+00
 -1      3333 1.29205E+01 1.93089E+01 0.00000E+00
 -1      3334 1.42695E+01 1.51279E+01 0.00000E+00
 -1      3335 1.49059E+01 1.39964E+01 0.00000E+00
 -1      3336 1.47229E+01 1.27036E+01 0.00000E+00
 -1      3337 1.30111E+01 1.51281E+01 0.00000E+00
 -1      3338 3.86345E+01 2.17105E+01 0.00000E+00
 -1      3339 3.83772E+01 2.29534E+01 0.00000E+00
 -1      3340 3.73873E+01 1.58447E+01 0.00000E+00
 -1      3341 3.79206E+01 1.68043E+01 0.00000E+00
 -1      3342 3.79626E+01 1.48096E+01 0.00000E+00
 -1      3343 1.14303E+01 2.39680E+01 0.00000E+00
 -1      3344 1.61944E+01 3.39755E+01 0.00000E+00
 -1      3345 1.54788E+01 3.32196E+01 0.00000E+00
 -1      3346 1.26237E+01 2.08444E+01 0.00000E+00
 -1      3347 3.86119E+01 2.42148E+01 0.00000E+00
 -1      3348 3.88467E+01 2.54763E+01 0.00000E+00
 -1      3349 3.95393E+01 2.37587E+01 0.00000E+00
 -1      3350 1.25956E+01 1.02017E+01 0.00000E+00
 -1      3351 1.19178E+01 1.14631E+01 0.00000E+00
 -1      3352 1.32168E+01 1.22006E+01 0.00000E+00
 -1      3353 1.40956E+01 1.02017E+01 0.00000E+00
 -1      3354 3.78291E+01 2.90415E+01 0.00000E+00
 -1      3355 3.73166E+01 3.02013E+01 0.00000E+00
 -1      3356 3.89829E+01 2.88301E+01 0.00000E+00
 -1      3357 3.87290E+01 1.74197E+01 0.00000E+00
 -1      3358 3.95373E+01 1.80350E+01 0.00000E+00
 -1      3359 3.93043E+01 1.63846E+01 0.00000E+00
 -1      3360 3.64393E+01 3.37516E+01 0.00000E+00
 -1      3361 3.78518E+01 3.12589E+01 0.00000E+00
 -1      3362 1.14835E+01 2.54368E+01 0.00000E+00
 -1      3363 2.28700E+01 3.84899E+01 0.00000E+00
 -1      3364 2.18561E+01 3.80088E+01 0.00000E+00
 -1      3365 1.37711E+01 3.24902E+01 0.00000E+00
 -1      3366 1.17418E+01 3.29980E+01 0.00000E+00
 -1      3367 1.17418E+01 3.44667E+01 0.00000E+00
 -1      3368 1.45315E+01 3.28751E+01 0.00000E+00
 -1      3369 2.66770E+01 3.81487E+01 0.00000E+00
 -1      3370 2.97617E+01 3.67638E+01 0.00000E+00
 -1      3371 1.40840E+01 3.40154E+01 0.00000E+00
 -1      3372 1.35900E+02 3.83090E+01 0.00000E+00
 -1      3373 1.37400E+02 3.83090E+01 0.00000E+00
 -1      3374 3.77074E+01 1.14107E+01 0.00000E+00
 -1      3375 1.34953E+02 1.04968E+01 0.00000E+00
 -1      3376 1.34203E+02 1.17958E+01 0.00000E+00
 -1      3377 1.36120E+02 1.08725E+01 0.00000E+00
 -1      3378 1.38239E+02 1.21493E+01 0.00000E+00
 -1      3379 1.37072E+02 1.17735E+01 0.00000E+00
 -1      3380 1.38440E+02 1.43493E+01 0.00000E+00
 -1      3381 3.64046E+01 1.26257E+01 0.00000E+00
 -1      3382 1.38440E+02 1.72743E+01 0.00000E+00
 -1      3383 1.38440E+02 1.58118E+01 0.00000E+00
 -1      3384 1.37273E+02 1.54360E+01 0.00000E+00
 -1      3385 1.37010E+02 2.35250E+01 0.00000E+00
 -1      3386 1.38309E+02 2.28000E+01 0.00000E+00
 -1      3387 1.38309E+02 2.13250E+01 0.00000E+00
 -1      3388 3.91333E+01 2.07837E+01 0.00000E+00
 -1      3389 3.98034E+01 2.15705E+01 0.00000E+00
 -1      3390 3.96321E+01 1.98569E+01 0.00000E+00
 -1      3391 1.61450E+01 3.48970E+01 0.00000E+00
 -1      3392 1.18634E+01 1.80310E+01 0.00000E+00
 -1      3393 1.38414E+02 3.83382E+01 0.00000E+00
 -1      3394 1.38129E+02 3.61550E+01 0.00000E+00
 -1      3395 1.39041E+01 2.98233E+01 0.00000E+00
 -1      3396 1.38309E+02 3.45625E+01 0.00000E+00
 -1      3397 1.38309E+02 3.30875E+01 0.00000E+00
 -1      3398 1.26179E+01 2.73705E+01 0.00000E+00
 -1      3399 1.38375E+02 2.00371E+01 0.00000E+00
 -1      3400 1.38375E+02 1.85621E+01 0.00000E+00
 -1      3401 1.37207E+02 1.81864E+01 0.00000E+00
 -1      3402 1.37076E+02 2.07621E+01 0.00000E+00
 -1      3403 3.16700E+01 1.02763E+01 0.00000E+00
 -1      3404 3.96347E+01 2.63453E+01 0.00000E+00
 -1      3405 1.65569E+01 1.03468E+01 0.00000E+00
 -1      3406 3.30576E+01 3.53783E+01 0.00000E+00
 -1      3407 3.18327E+01 3.61905E+01 0.00000E+00
 -1      3408 1.50569E+01 1.03468E+01 0.00000E+00
 -1      3409 1.12365E+01 1.89029E+01 0.00000E+00
 -1      3410 1.37010E+02 3.23625E+01 0.00000E+00
 -1      3411 1.46175E+01 1.13463E+01 0.00000E+00
 -1      3412 1.36830E+02 3.54175E+01 0.00000E+00
 -1      3413 1.18748E+01 2.88560E+01 0.00000E+00
 -1      3414 1.24663E+01 1.47701E+01 0.00000E+00
 -1      3415 4.08072E+01 2.57987E+01 0.00000E+00
 -1      3416 4.06679E+01 2.71237E+01 0.00000E+00
 -1      3417 1.29426E+01 3.55531E+01 0.00000E+00
 -1      3418 1.35648E+02 3.59926E+01 0.00000E+00
 -1      3419 3.93955E+01 3.36763E+01 0.00000E+00
 -1      3420 4.08955E+01 3.36763E+01 0.00000E+00
 -1      3421 4.23955E+01 3.36763E+01 0.00000E+00
 -1      3422 4.38955E+01 3.36763E+01 0.00000E+00
 -1      3423 4.16455E+01 3.23773E+01 0.00000E+00
 -1      3424 4.53955E+01 3.36763E+01 0.00000E+00
 -1      3425 4.68955E+01 3.36763E+01 0.00000E+00
 -1      3426 4.46455E+01 3.23773E+01 0.00000E+00
 -1      3427 4.83955E+01 3.36763E+01 0.00000E+00
 -1      3428 4.98955E+01 3.36763E+01 0.00000E+00
 -1      3429 4.76455E+01 3.23773E+01 0.00000E+00
 -1      3430 5.13955E+01 3.36763E+01 0.00000E+00
 -1      3431 5.28955E+01 3.36763E+01 0.00000E+00
 -1      3432 5.06455E+01 3.23773E+01 0.00000E+00
 -1      3433 5.43955E+01 3.36763E+01 0.00000E+00
 -1      3434 5.58955E+01 3.36763E+01 0.00000E+00
 -1      3435 5.36455E+01 3.23773E+01 0.00000E+00
 -1      3436 5.73955E+01 3.36763E+01 0.00000E+00
 -1      3437 5.88955E+01 3.36763E+01 0.00000E+00
 -1      3438 5.66455E+01 3.23773E+01 0.00000E+00
 -1      3439 6.03955E+01 3.36763E+01 0.00000E+00
 -1      3440 6.18955E+01 3.36763E+01 0.00000E+00
 -1      3441 5.96455E+01 3.23773E+01 0.00000E+00
 -1      3442 6.33955E+01 3.36763E+01 0.00000E+00
 -1      3443 6.48955E+01 3.36763E+01 0.00000E+00
 -1      3444 6.26455E+01 3.23773E+01 0.00000E+00
 -1      3445 6.63955E+01 3.36763E+01 0.00000E+00
 -1      3446 6.78955E+01 3.36763E+01 0.00000E+00
 -1      3447 6.56455E+01 3.23773E+01 0.00000E+00
 -1      3448 6.93955E+01 3.36763E+01 0.00000E+00
 -1      3449 7.08955E+01 3.36763E+01 0.00000E+00
 -1      3450 6.86455E+01 3.23773E+01 0.00000E+00
 -1      3451 7.23955E+01 3.36763E+01 0.00000E+00
 -1      3452 7.38955E+01 3.36763E+01 0.00000E+00
 -1      3453 7.16455E+01 3.23773E+01 0.00000E+00
 -1      3454 7.53955E+01 3.36763E+01 0.00000E+00
 -1      3455 7.68955E+01 3.36763E+01 0.00000E+00
 -1      3456 7.46455E+01 3.23773E+01 0.00000E+00
 -1      3457 7.83955E+01 3.36763E+01 0.00000E+00
 -1      3458 7.98955E+01 3.36763E+01 0.00000E+00
 -1      3459 7.76455E+01 3.23773E+01 0.00000E+00
 -1      3460 8.13955E+01 3.36763E+01 0.00000E+00
 -1      3461 8.28955E+01 3.36763E+01 0.00000E+00
 -1      3462 8.06455E+01 3.23773E+01 0.00000E+00
 -1      3463 8.43955E+01 3.36763E+01 0.00000E+00
 -1      3464 8.58955E+01 3.36763E+01 0.00000E+00
 -1      3465 8.36455E+01 3.23773E+01 0.00000E+00
 -1      3466 8.73955E+01 3.36763E+01 0.00000E+00
 -1      3467 8.88955E+01 3.36763E+01 0.00000E+00
 -1      3468 8.66455E+01 3.23773E+01 0.00000E+00
 -1      3469 9.03955E+01 3.36763E+01 0.00000E+00
 -1      3470 9.18955E+01 3.36763E+01 0.00000E+00
 -1      3471 8.96455E+01 3.23773E+01 0.00000E+00
 -1      3472 9.33955E+01 3.36763E+01 0.00000E+00
 -1      3473 9.48955E+01 3.36763E+01 0.00000E+00
 -1      3474 9.26455E+01 3.23773E+01 0.00000E+00
 -1      3475 9.63955E+01 3.36763E+01 0.00000E+00
 -1      3476 9.78955E+01 3.36763E+01 0.00000E+00
 -1      3477 9.56455E+01 3.23773E+01 0.00000E+00
 -1      3478 9.93955E+01 3.36763E+01 0.00000E+00
 -1      3479 1.00895E+02 3.36763E+01 0.00000E+00
 -1      3480 9.86455E+01 3.23773E+01 0.00000E+00
 -1      3481 1.02395E+02 3.36763E+01 0.00000E+00
 -1      3482 1.03895E+02 3.36763E+01 0.00000E+00
 -1      3483 1.01645E+02 3.23773E+01 0.00000E+00
 -1      3484 1.05395E+02 3.36763E+01 0.00000E+00
 -1      3485 1.06895E+02 3.36763E+01 0.00000E+00
 -1      3486 1.04645E+02 3.23773E+01 0.00000E+00
 -1      3487 1.08395E+02 3.36763E+01 0.00000E+00
 -1      3488 1.09895E+02 3.36763E+01 0.00000E+00
 -1      3489 1.07645E+02 3.23773E+01 0.00000E+00
 -1      3490 1.11395E+02 3.36763E+01 0.00000E+00
 -1      3491 1.12895E+02 3.36763E+01 0.00000E+00
 -1      3492 1.10645E+02 3.23773E+01 0.00000E+00
 -1      3493 1.14395E+02 3.36763E+01 0.00000E+00
 -1      3494 1.15895E+02 3.36763E+01 0.00000E+00
 -1      3495 1.13645E+02 3.23773E+01 0.00000E+00
 -1      3496 1.17395E+02 3.36763E+01 0.00000E+00
 -1      3497 1.18895E+02 3.36763E+01 0.00000E+00
 -1      3498 1.16645E+02 3.23773E+01 0.00000E+00
 -1      3499 1.20395E+02 3.36763E+01 0.00000E+00
 -1      3500 1.21895E+02 3.36763E+01 0.00000E+00
 -1      3501 1.19645E+02 3.23773E+01 0.00000E+00
 -1      3502 1.23395E+02 3.36763E+01 0.00000E+00
 -1      3503 1.24895E+02 3.36763E+01 0.00000E+00
 -1      3504 1.22645E+02 3.23773E+01 0.00000E+00
 -1      3505 1.26395E+02 3.36763E+01 0.00000E+00
 -1      3506 1.27895E+02 3.36763E+01 0.00000E+00
 -1      3507 1.25645E+02 3.23773E+01 0.00000E+00
 -1      3508 1.29395E+02 3.36763E+01 0.00000E+00
 -1      3509 1.30895E+02 3.36763E+01 0.00000E+00
 -1      3510 1.28645E+02 3.23773E+01 0.00000E+00
 -1      3511 1.32395E+02 3.36763E+01 0.00000E+00
 -1      3512 1.33895E+02 3.36763E+01 0.00000E+00
 -1      3513 1.31645E+02 3.23773E+01 0.00000E+00
 -1      3514 1.12140E+01 2.03654E+01 0.00000E+00
 -1      3515 3.87322E+01 1.26350E+01 0.00000E+00
 -1      3516 1.35828E+02 3.44001E+01 0.00000E+00
 -1      3517 1.35711E+02 2.72125E+01 0.00000E+00
 -1      3518 1.35711E+02 2.57375E+01 0.00000E+00
 -1      3519 4.52850E+01 1.27191E+01 0.00000E+00
 -1      3520 4.37850E+01 1.27191E+01 0.00000E+00
 -1      3521 4.22850E+01 1.27191E+01 0.00000E+00
 -1      3522 4.07850E+01 1.27191E+01 0.00000E+00
 -1      3523 4.30350E+01 1.40181E+01 0.00000E+00
 -1      3524 5.12850E+01 1.27191E+01 0.00000E+00
 -1      3525 4.97850E+01 1.27191E+01 0.00000E+00
 -1      3526 5.42850E+01 1.27191E+01 0.00000E+00
 -1      3527 5.27850E+01 1.27191E+01 0.00000E+00
 -1      3528 5.20350E+01 1.40181E+01 0.00000E+00
 -1      3529 5.72850E+01 1.27191E+01 0.00000E+00
 -1      3530 5.57850E+01 1.27191E+01 0.00000E+00
 -1      3531 5.50350E+01 1.40181E+01 0.00000E+00
 -1      3532 6.02850E+01 1.27191E+01 0.00000E+00
 -1      3533 5.87850E+01 1.27191E+01 0.00000E+00
 -1      3534 5.80350E+01 1.40181E+01 0.00000E+00
 -1      3535 6.32850E+01 1.27191E+01 0.00000E+00
 -1      3536 6.17850E+01 1.27191E+01 0.00000E+00
 -1      3537 6.10350E+01 1.40181E+01 0.00000E+00
 -1      3538 6.62850E+01 1.27191E+01 0.00000E+00
 -1      3539 6.47850E+01 1.27191E+01 0.00000E+00
 -1      3540 6.40350E+01 1.40181E+01 0.00000E+00
 -1      3541 6.92850E+01 1.27191E+01 0.00000E+00
 -1      3542 6.77850E+01 1.27191E+01 0.00000E+00
 -1      3543 6.70350E+01 1.40181E+01 0.00000E+00
 -1      3544 7.22850E+01 1.27191E+01 0.00000E+00
 -1      3545 7.07850E+01 1.27191E+01 0.00000E+00
 -1      3546 7.00350E+01 1.40181E+01 0.00000E+00
 -1      3547 7.52850E+01 1.27191E+01 0.00000E+00
 -1      3548 7.37850E+01 1.27191E+01 0.00000E+00
 -1      3549 7.30350E+01 1.40181E+01 0.00000E+00
 -1      3550 7.82850E+01 1.27191E+01 0.00000E+00
 -1      3551 7.67850E+01 1.27191E+01 0.00000E+00
 -1      3552 7.60350E+01 1.40181E+01 0.00000E+00
 -1      3553 8.12850E+01 1.27191E+01 0.00000E+00
 -1      3554 7.97850E+01 1.27191E+01 0.00000E+00
 -1      3555 7.90350E+01 1.40181E+01 0.00000E+00
 -1      3556 8.42850E+01 1.27191E+01 0.00000E+00
 -1      3557 8.27850E+01 1.27191E+01 0.00000E+00
 -1      3558 8.20350E+01 1.40181E+01 0.00000E+00
 -1      3559 8.72850E+01 1.27191E+01 0.00000E+00
 -1      3560 8.57850E+01 1.27191E+01 0.00000E+00
 -1      3561 8.50350E+01 1.40181E+01 0.00000E+00
 -1      3562 9.02850E+01 1.27191E+01 0.00000E+00
 -1      3563 8.87850E+01 1.27191E+01 0.00000E+00
 -1      3564 8.80350E+01 1.40181E+01 0.00000E+00
 -1      3565 9.32850E+01 1.27191E+01 0.00000E+00
 -1      3566 9.17850E+01 1.27191E+01 0.00000E+00
 -1      3567 9.10350E+01 1.40181E+01 0.00000E+00
 -1      3568 9.62850E+01 1.27191E+01 0.00000E+00
 -1      3569 9.47850E+01 1.27191E+01 0.00000E+00
 -1      3570 9.40350E+01 1.40181E+01 0.00000E+00
 -1      3571 9.92850E+01 1.27191E+01 0.00000E+00
 -1      3572 9.77850E+01 1.27191E+01 0.00000E+00
 -1      3573 9.70350E+01 1.40181E+01 0.00000E+00
 -1      3574 1.02285E+02 1.27191E+01 0.00000E+00
 -1      3575 1.00785E+02 1.27191E+01 0.00000E+00
 -1      3576 1.00035E+02 1.40181E+01 0.00000E+00
 -1      3577 1.05285E+02 1.27191E+01 0.00000E+00
 -1      3578 1.03785E+02 1.27191E+01 0.00000E+00
 -1      3579 1.03035E+02 1.40181E+01 0.00000E+00
 -1      3580 1.08285E+02 1.27191E+01 0.00000E+00
 -1      3581 1.06785E+02 1.27191E+01 0.00000E+00
 -1      3582 1.06035E+02 1.40181E+01 0.00000E+00
 -1      3583 1.11285E+02 1.27191E+01 0.00000E+00
 -1      3584 1.09785E+02 1.27191E+01 0.00000E+00
 -1      3585 1.09035E+02 1.40181E+01 0.00000E+00
 -1      3586 1.14285E+02 1.27191E+01 0.00000E+00
 -1      3587 1.12785E+02 1.27191E+01 0.00000E+00
 -1      3588 1.12035E+02 1.40181E+01 0.00000E+00
 -1      3589 1.17285E+02 1.27191E+01 0.00000E+00
 -1      3590 1.15785E+02 1.27191E+01 0.00000E+00
 -1      3591 1.15035E+02 1.40181E+01 0.00000E+00
 -1      3592 1.20285E+02 1.27191E+01 0.00000E+00
 -1      3593 1.18785E+02 1.27191E+01 0.00000E+00
 -1      3594 1.18035E+02 1.40181E+01 0.00000E+00
 -1      3595 1.23285E+02 1.27191E+01 0.00000E+00
 -1      3596 1.21785E+02 1.27191E+01 0.00000E+00
 -1      3597 1.21035E+02 1.40181E+01 0.00000E+00
 -1      3598 1.26285E+02 1.27191E+01 0.00000E+00
 -1      3599 1.24785E+02 1.27191E+01 0.00000E+00
 -1      3600 1.24035E+02 1.40181E+01 0.00000E+00
 -1      3601 1.29285E+02 1.27191E+01 0.00000E+00
 -1      3602 1.27785E+02 1.27191E+01 0.00000E+00
 -1      3603 1.27035E+02 1.40181E+01 0.00000E+00
 -1      3604 1.32285E+02 1.27191E+01 0.00000E+00
 -1      3605 1.30785E+02 1.27191E+01 0.00000E+00
 -1      3606 1.30035E+02 1.40181E+01 0.00000E+00
 -1      3607 1.35711E+02 3.01625E+01 0.00000E+00
 -1      3608 1.35711E+02 2.86875E+01 0.00000E+00
 -1      3609 1.34412E+02 2.79500E+01 0.00000E+00
 -1      3610 1.35078E+02 3.31011E+01 0.00000E+00
 -1      3611 1.37616E+01 1.25585E+01 0.00000E+00
 -1      3612 4.82850E+01 1.27191E+01 0.00000E+00
 -1      3613 4.67850E+01 1.27191E+01 0.00000E+00
 -1      3614 4.60350E+01 1.40181E+01 0.00000E+00
 -1      3615 4.90350E+01 1.40181E+01 0.00000E+00
 -1      3616 3.43285E+01 3.58070E+01 0.00000E+00
 -1      3617 3.93080E+01 3.11835E+01 0.00000E+00
 -1      3618 3.86893E+01 3.24526E+01 0.00000E+00
 -1      3619 3.79393E+01 3.37516E+01 0.00000E+00
 -1      3620 1.38899E+01 3.58976E+01 0.00000E+00
 -1      3621 3.94822E+01 1.39340E+01 0.00000E+00
 -1      3622 4.00155E+01 1.48936E+01 0.00000E+00
 -1      3623 1.35078E+02 3.16386E+01 0.00000E+00
 -1      3624 4.05121E+01 2.29251E+01 0.00000E+00
 -1      3625 4.07469E+01 2.41866E+01 0.00000E+00
 -1      3626 3.11519E+01 3.63761E+01 0.00000E+00
 -1      3627 1.67290E+01 3.63397E+01 0.00000E+00
 -1      3628 1.18217E+01 2.73873E+01 0.00000E+00
 -1      3629 4.02442E+01 2.85738E+01 0.00000E+00
 -1      3630 3.97317E+01 2.97335E+01 0.00000E+00
 -1      3631 4.05692E+01 3.09272E+01 0.00000E+00
 -1      3632 4.14167E+01 2.80272E+01 0.00000E+00
 -1      3633 4.17801E+01 2.49651E+01 0.00000E+00
 -1      3634 4.08238E+01 1.55090E+01 0.00000E+00
 -1      3635 4.10109E+01 2.19984E+01 0.00000E+00
 -1      3636 1.33453E+02 1.30948E+01 0.00000E+00
 -1      3637 1.32703E+02 1.43938E+01 0.00000E+00
 -1      3638 1.34620E+02 1.34705E+01 0.00000E+00
 -1      3639 1.33779E+02 3.09011E+01 0.00000E+00
 -1      3640 1.35711E+02 2.42625E+01 0.00000E+00
 -1      3641 1.35711E+02 2.27875E+01 0.00000E+00
 -1      3642 1.34412E+02 2.50000E+01 0.00000E+00
 -1      3643 4.02074E+01 1.88218E+01 0.00000E+00
 -1      3644 4.08775E+01 1.96086E+01 0.00000E+00
 -1      3645 4.07828E+01 1.77867E+01 0.00000E+00
 -1      3646 3.23308E+01 3.68244E+01 0.00000E+00
 -1      3647 1.35877E+02 1.87642E+01 0.00000E+00
 -1      3648 1.35942E+02 1.74764E+01 0.00000E+00
 -1      3649 1.56153E+01 3.58025E+01 0.00000E+00
 -1      3650 3.30808E+01 3.81234E+01 0.00000E+00
 -1      3651 1.34241E+02 1.64119E+01 0.00000E+00
 -1      3652 1.35572E+02 1.58340E+01 0.00000E+00
 -1      3653 1.33222E+01 1.35579E+01 0.00000E+00
 -1      3654 4.20692E+01 3.09272E+01 0.00000E+00
 -1      3655 4.38955E+01 3.10783E+01 0.00000E+00
 -1      3656 4.53955E+01 3.10783E+01 0.00000E+00
 -1      3657 4.68955E+01 3.10783E+01 0.00000E+00
 -1      3658 4.83955E+01 3.10783E+01 0.00000E+00
 -1      3659 4.61455E+01 2.97793E+01 0.00000E+00
 -1      3660 4.98955E+01 3.10783E+01 0.00000E+00
 -1      3661 5.13955E+01 3.10783E+01 0.00000E+00
 -1      3662 4.91455E+01 2.97793E+01 0.00000E+00
 -1      3663 5.28955E+01 3.10783E+01 0.00000E+00
 -1      3664 5.43955E+01 3.10783E+01 0.00000E+00
 -1      3665 5.21455E+01 2.97793E+01 0.00000E+00
 -1      3666 5.58955E+01 3.10783E+01 0.00000E+00
 -1      3667 5.73955E+01 3.10783E+01 0.00000E+00
 -1      3668 5.51455E+01 2.97793E+01 0.00000E+00
 -1      3669 5.88955E+01 3.10783E+01 0.00000E+00
 -1      3670 6.03955E+01 3.10783E+01 0.00000E+00
 -1      3671 5.81455E+01 2.97793E+01 0.00000E+00
 -1      3672 6.18955E+01 3.10783E+01 0.00000E+00
 -1      3673 6.33955E+01 3.10783E+01 0.00000E+00
 -1      3674 6.11455E+01 2.97793E+01 0.00000E+00
 -1      3675 6.48955E+01 3.10783E+01 0.00000E+00
 -1      3676 6.63955E+01 3.10783E+01 0.00000E+00
 -1      3677 6.41455E+01 2.97793E+01 0.00000E+00
 -1      3678 6.78955E+01 3.10783E+01 0.00000E+00
 -1      3679 6.93955E+01 3.10783E+01 0.00000E+00
 -1      3680 6.71455E+01 2.97793E+01 0.00000E+00
 -1      3681 7.08955E+01 3.10783E+01 0.00000E+00
 -1      3682 7.23955E+01 3.10783E+01 0.00000E+00
 -1      3683 7.01455E+01 2.97793E+01 0.00000E+00
 -1      3684 7.38955E+01 3.10783E+01 0.00000E+00
 -1      3685 7.53955E+01 3.10783E+01 0.00000E+00
 -1      3686 7.31455E+01 2.97793E+01 0.00000E+00
 -1      3687 7.68955E+01 3.10783E+01 0.00000E+00
 -1      3688 7.83955E+01 3.10783E+01 0.00000E+00
 -1      3689 7.61455E+01 2.97793E+01 0.00000E+00
 -1      3690 7.98955E+01 3.10783E+01 0.00000E+00
 -1      3691 8.13955E+01 3.10783E+01 0.00000E+00
 -1      3692 7.91455E+01 2.97793E+01 0.00000E+00
 -1      3693 8.28955E+01 3.10783E+01 0.00000E+00
 -1      3694 8.43955E+01 3.10783E+01 0.00000E+00
 -1      3695 8.21455E+01 2.97793E+01 0.00000E+00
 -1      3696 8.58955E+01 3.10783E+01 0.00000E+00
 -1      3697 8.73955E+01 3.10783E+01 0.00000E+00
 -1      3698 8.51455E+01 2.97793E+01 0.00000E+00
 -1      3699 8.88955E+01 3.10783E+01 0.00000E+00
 -1      3700 9.03955E+01 3.10783E+01 0.00000E+00
 -1      3701 8.81455E+01 2.97793E+01 0.00000E+00
 -1      3702 9.18955E+01 3.10783E+01 0.00000E+00
 -1      3703 9.33955E+01 3.10783E+01 0.00000E+00
 -1      3704 9.11455E+01 2.97793E+01 0.00000E+00
 -1      3705 9.48955E+01 3.10783E+01 0.00000E+00
 -1      3706 9.63955E+01 3.10783E+01 0.00000E+00
 -1      3707 9.41455E+01 2.97793E+01 0.00000E+00
 -1      3708 9.78955E+01 3.10783E+01 0.00000E+00
 -1      3709 9.93955E+01 3.10783E+01 0.00000E+00
 -1      3710 9.71455E+01 2.97793E+01 0.00000E+00
 -1      3711 1.00895E+02 3.10783E+01 0.00000E+00
 -1      3712 1.02395E+02 3.10783E+01 0.00000E+00
 -1      3713 1.00145E+02 2.97793E+01 0.00000E+00
 -1      3714 1.03895E+02 3.10783E+01 0.00000E+00
 -1      3715 1.05395E+02 3.10783E+01 0.00000E+00
 -1      3716 1.03145E+02 2.97793E+01 0.00000E+00
 -1      3717 1.06895E+02 3.10783E+01 0.00000E+00
 -1      3718 1.08395E+02 3.10783E+01 0.00000E+00
 -1      3719 1.06145E+02 2.97793E+01 0.00000E+00
 -1      3720 1.09895E+02 3.10783E+01 0.00000E+00
 -1      3721 1.11395E+02 3.10783E+01 0.00000E+00
 -1      3722 1.09145E+02 2.97793E+01 0.00000E+00
 -1      3723 1.12895E+02 3.10783E+01 0.00000E+00
 -1      3724 1.14395E+02 3.10783E+01 0.00000E+00
 -1      3725 1.12145E+02 2.97793E+01 0.00000E+00
 -1      3726 1.15895E+02 3.10783E+01 0.00000E+00
 -1      3727 1.17395E+02 3.10783E+01 0.00000E+00
 -1      3728 1.15145E+02 2.97793E+01 0.00000E+00
 -1      3729 1.18895E+02 3.10783E+01 0.00000E+00
 -1      3730 1.20395E+02 3.10783E+01 0.00000E+00
 -1      3731 1.18145E+02 2.97793E+01 0.00000E+00
 -1      3732 1.21895E+02 3.10783E+01 0.00000E+00
 -1      3733 1.23395E+02 3.10783E+01 0.00000E+00
 -1      3734 1.21145E+02 2.97793E+01 0.00000E+00
 -1      3735 1.24895E+02 3.10783E+01 0.00000E+00
 -1      3736 1.26395E+02 3.10783E+01 0.00000E+00
 -1      3737 1.24145E+02 2.97793E+01 0.00000E+00
 -1      3738 1.27895E+02 3.10783E+01 0.00000E+00
 -1      3739 1.29395E+02 3.10783E+01 0.00000E+00
 -1      3740 1.27145E+02 2.97793E+01 0.00000E+00
 -1      3741 1.30837E+02 3.09897E+01 0.00000E+00
 -1      3742 1.32337E+02 3.09897E+01 0.00000E+00
 -1      3743 1.32970E+02 2.95136E+01 0.00000E+00
 -1      3744 1.30087E+02 2.96907E+01 0.00000E+00
 -1      3745 5.87850E+01 1.53171E+01 0.00000E+00
 -1      3746 5.72850E+01 1.53171E+01 0.00000E+00
 -1      3747 1.36322E+02 1.30725E+01 0.00000E+00
 -1      3748 1.35572E+02 1.43715E+01 0.00000E+00
 -1      3749 5.57850E+01 1.53171E+01 0.00000E+00
 -1      3750 5.42850E+01 1.53171E+01 0.00000E+00
 -1      3751 5.65350E+01 1.66161E+01 0.00000E+00
 -1      3752 5.27850E+01 1.53171E+01 0.00000E+00
 -1      3753 5.12850E+01 1.53171E+01 0.00000E+00
 -1      3754 5.35350E+01 1.66161E+01 0.00000E+00
 -1      3755 6.17850E+01 1.53171E+01 0.00000E+00
 -1      3756 6.02850E+01 1.53171E+01 0.00000E+00
 -1      3757 5.95350E+01 1.66161E+01 0.00000E+00
 -1      3758 6.47850E+01 1.53171E+01 0.00000E+00
 -1      3759 6.32850E+01 1.53171E+01 0.00000E+00
 -1      3760 6.25350E+01 1.66161E+01 0.00000E+00
 -1      3761 6.77850E+01 1.53171E+01 0.00000E+00
 -1      3762 6.62850E+01 1.53171E+01 0.00000E+00
 -1      3763 6.55350E+01 1.66161E+01 0.00000E+00
 -1      3764 7.07850E+01 1.53171E+01 0.00000E+00
 -1      3765 6.92850E+01 1.53171E+01 0.00000E+00
 -1      3766 6.85350E+01 1.66161E+01 0.00000E+00
 -1      3767 7.37850E+01 1.53171E+01 0.00000E+00
 -1      3768 7.22850E+01 1.53171E+01 0.00000E+00
 -1      3769 7.15350E+01 1.66161E+01 0.00000E+00
 -1      3770 7.67850E+01 1.53171E+01 0.00000E+00
 -1      3771 7.52850E+01 1.53171E+01 0.00000E+00
 -1      3772 7.45350E+01 1.66161E+01 0.00000E+00
 -1      3773 7.97850E+01 1.53171E+01 0.00000E+00
 -1      3774 7.82850E+01 1.53171E+01 0.00000E+00
 -1      3775 7.75350E+01 1.66161E+01 0.00000E+00
 -1      3776 8.27850E+01 1.53171E+01 0.00000E+00
 -1      3777 8.12850E+01 1.53171E+01 0.00000E+00
 -1      3778 8.05350E+01 1.66161E+01 0.00000E+00
 -1      3779 8.57850E+01 1.53171E+01 0.00000E+00
 -1      3780 8.42850E+01 1.53171E+01 0.00000E+00
 -1      3781 8.35350E+01 1.66161E+01 0.00000E+00
 -1      3782 8.87850E+01 1.53171E+01 0.00000E+00
 -1      3783 8.72850E+01 1.53171E+01 0.00000E+00
 -1      3784 8.65350E+01 1.66161E+01 0.00000E+00
 -1      3785 9.17850E+01 1.53171E+01 0.00000E+00
 -1      3786 9.02850E+01 1.53171E+01 0.00000E+00
 -1      3787 8.95350E+01 1.66161E+01 0.00000E+00
 -1      3788 9.47850E+01 1.53171E+01 0.00000E+00
 -1      3789 9.32850E+01 1.53171E+01 0.00000E+00
 -1      3790 9.25350E+01 1.66161E+01 0.00000E+00
 -1      3791 9.77850E+01 1.53171E+01 0.00000E+00
 -1      3792 9.62850E+01 1.53171E+01 0.00000E+00
 -1      3793 9.55350E+01 1.66161E+01 0.00000E+00
 -1      3794 1.00785E+02 1.53171E+01 0.00000E+00
 -1      3795 9.92850E+01 1.53171E+01 0.00000E+00
 -1      3796 9.85350E+01 1.66161E+01 0.00000E+00
 -1      3797 1.03785E+02 1.53171E+01 0.00000E+00
 -1      3798 1.02285E+02 1.53171E+01 0.00000E+00
 -1      3799 1.01535E+02 1.66161E+01 0.00000E+00
 -1      3800 1.06785E+02 1.53171E+01 0.00000E+00
 -1      3801 1.05285E+02 1.53171E+01 0.00000E+00
 -1      3802 1.04535E+02 1.66161E+01 0.00000E+00
 -1      3803 1.09785E+02 1.53171E+01 0.00000E+00
 -1      3804 1.08285E+02 1.53171E+01 0.00000E+00
 -1      3805 1.07535E+02 1.66161E+01 0.00000E+00
 -1      3806 1.12785E+02 1.53171E+01 0.00000E+00
 -1      3807 1.11285E+02 1.53171E+01 0.00000E+00
 -1      3808 1.10535E+02 1.66161E+01 0.00000E+00
 -1      3809 1.15785E+02 1.53171E+01 0.00000E+00
 -1      3810 1.14285E+02 1.53171E+01 0.00000E+00
 -1      3811 1.13535E+02 1.66161E+01 0.00000E+00
 -1      3812 1.18785E+02 1.53171E+01 0.00000E+00
 -1      3813 1.17285E+02 1.53171E+01 0.00000E+00
 -1      3814 1.16535E+02 1.66161E+01 0.00000E+00
 -1      3815 1.21785E+02 1.53171E+01 0.00000E+00
 -1      3816 1.20285E+02 1.53171E+01 0.00000E+00
 -1      3817 1.19535E+02 1.66161E+01 0.00000E+00
 -1      3818 1.24785E+02 1.53171E+01 0.00000E+00
 -1      3819 1.23285E+02 1.53171E+01 0.00000E+00
 -1      3820 1.22535E+02 1.66161E+01 0.00000E+00
 -1      3821 1.27785E+02 1.53171E+01 0.00000E+00
 -1      3822 1.26285E+02 1.53171E+01 0.00000E+00
 -1      3823 1.25535E+02 1.66161E+01 0.00000E+00
 -1      3824 1.30785E+02 1.53171E+01 0.00000E+00
 -1      3825 1.29285E+02 1.53171E+01 0.00000E+00
 -1      3826 1.28535E+02 1.66161E+01 0.00000E+00
 -1      3827 1.32970E+02 2.80386E+01 0.00000E+00
 -1      3828 1.32970E+02 2.65636E+01 0.00000E+00
 -1      3829 1.31529E+02 2.81271E+01 0.00000E+00
 -1      3830 1.33097E+02 1.60523E+01 0.00000E+00
 -1      3831 1.31929E+02 1.56766E+01 0.00000E+00
 -1      3832 1.31179E+02 1.69756E+01 0.00000E+00
 -1      3833 1.33468E+02 1.76947E+01 0.00000E+00
 -1      3834 1.35745E+02 2.13400E+01 0.00000E+00
 -1      3835 1.35811E+02 2.00521E+01 0.00000E+00
 -1      3836 1.34547E+02 1.93421E+01 0.00000E+00
 -1      3837 1.10369E+01 2.64207E+01 0.00000E+00
 -1      3838 4.22645E+01 1.51569E+01 0.00000E+00
 -1      3839 4.15533E+01 1.66479E+01 0.00000E+00
 -1      3840 4.22234E+01 1.74347E+01 0.00000E+00
 -1      3841 4.37645E+01 1.51569E+01 0.00000E+00
 -1      3842 4.29417E+01 2.41144E+01 0.00000E+00
 -1      3843 4.30021E+01 2.57265E+01 0.00000E+00
 -1      3844 4.15863E+01 2.09633E+01 0.00000E+00
 -1      3845 4.22950E+01 2.23179E+01 0.00000E+00
 -1      3846 4.21616E+01 1.99282E+01 0.00000E+00
 -1      3847 4.28192E+01 2.96282E+01 0.00000E+00
 -1      3848 5.05350E+01 1.66161E+01 0.00000E+00
 -1      3849 4.97850E+01 1.53171E+01 0.00000E+00
 -1      3850 4.82850E+01 1.53171E+01 0.00000E+00
 -1      3851 4.42876E+01 2.62635E+01 0.00000E+00
 -1      3852 4.31259E+01 2.71141E+01 0.00000E+00
 -1      3853 1.31529E+02 2.51771E+01 0.00000E+00
 -1      3854 1.32970E+02 2.50886E+01 0.00000E+00
 -1      3855 1.32970E+02 2.36136E+01 0.00000E+00
 -1      3856 1.33402E+02 1.89825E+01 0.00000E+00
 -1      3857 1.32258E+02 1.86230E+01 0.00000E+00
 -1      3858 1.33337E+02 2.02704E+01 0.00000E+00
 -1      3859 4.35171E+01 2.30793E+01 0.00000E+00
 -1      3860 4.47391E+01 2.38408E+01 0.00000E+00
 -1      3861 4.40924E+01 2.20443E+01 0.00000E+00
 -1      3862 4.27021E+01 2.85641E+01 0.00000E+00
 -1      3863 1.34447E+02 2.20775E+01 0.00000E+00
 -1      3864 4.67850E+01 1.53171E+01 0.00000E+00
 -1      3865 4.52850E+01 1.53171E+01 0.00000E+00
 -1      3866 4.75350E+01 1.66161E+01 0.00000E+00
 -1      3867 4.45145E+01 1.64559E+01 0.00000E+00
 -1      3868 4.55195E+01 2.54542E+01 0.00000E+00
 -1      3869 4.56433E+01 2.68418E+01 0.00000E+00
 -1      3870 4.52645E+01 1.77549E+01 0.00000E+00
 -1      3871 4.37439E+01 1.75948E+01 0.00000E+00
 -1      3872 4.29734E+01 1.87337E+01 0.00000E+00
 -1      3873 1.31114E+02 1.82635E+01 0.00000E+00
 -1      3874 1.29969E+02 1.79039E+01 0.00000E+00
 -1      3875 1.31048E+02 1.95513E+01 0.00000E+00
 -1      3876 4.83955E+01 2.84803E+01 0.00000E+00
 -1      3877 4.98955E+01 2.84803E+01 0.00000E+00
 -1      3878 5.13955E+01 2.84803E+01 0.00000E+00
 -1      3879 5.28955E+01 2.84803E+01 0.00000E+00
 -1      3880 5.06455E+01 2.71813E+01 0.00000E+00
 -1      3881 5.43955E+01 2.84803E+01 0.00000E+00
 -1      3882 5.58955E+01 2.84803E+01 0.00000E+00
 -1      3883 5.36455E+01 2.71813E+01 0.00000E+00
 -1      3884 5.73955E+01 2.84803E+01 0.00000E+00
 -1      3885 5.88955E+01 2.84803E+01 0.00000E+00
 -1      3886 5.66455E+01 2.71813E+01 0.00000E+00
 -1      3887 6.03955E+01 2.84803E+01 0.00000E+00
 -1      3888 6.18955E+01 2.84803E+01 0.00000E+00
 -1      3889 5.96455E+01 2.71813E+01 0.00000E+00
 -1      3890 6.33955E+01 2.84803E+01 0.00000E+00
 -1      3891 6.48955E+01 2.84803E+01 0.00000E+00
 -1      3892 6.26455E+01 2.71813E+01 0.00000E+00
 -1      3893 6.63955E+01 2.84803E+01 0.00000E+00
 -1      3894 6.78955E+01 2.84803E+01 0.00000E+00
 -1      3895 6.56455E+01 2.71813E+01 0.00000E+00
 -1      3896 6.93955E+01 2.84803E+01 0.00000E+00
 -1      3897 7.08955E+01 2.84803E+01 0.00000E+00
 -1      3898 6.86455E+01 2.71813E+01 0.00000E+00
 -1      3899 7.23955E+01 2.84803E+01 0.00000E+00
 -1      3900 7.38955E+01 2.84803E+01 0.00000E+00
 -1      3901 7.16455E+01 2.71813E+01 0.00000E+00
 -1      3902 7.53955E+01 2.84803E+01 0.00000E+00
 -1      3903 7.68955E+01 2.84803E+01 0.00000E+00
 -1      3904 7.46455E+01 2.71813E+01 0.00000E+00
 -1      3905 7.83955E+01 2.84803E+01 0.00000E+00
 -1      3906 7.98955E+01 2.84803E+01 0.00000E+00
 -1      3907 7.76455E+01 2.71813E+01 0.00000E+00
 -1      3908 8.13955E+01 2.84803E+01 0.00000E+00
 -1      3909 8.28955E+01 2.84803E+01 0.00000E+00
 -1      3910 8.06455E+01 2.71813E+01 0.00000E+00
 -1      3911 8.43955E+01 2.84803E+01 0.00000E+00
 -1      3912 8.58955E+01 2.84803E+01 0.00000E+00
 -1      3913 8.36455E+01 2.71813E+01 0.00000E+00
 -1      3914 8.73955E+01 2.84803E+01 0.00000E+00
 -1      3915 8.88955E+01 2.84803E+01 0.00000E+00
 -1      3916 8.66455E+01 2.71813E+01 0.00000E+00
 -1      3917 9.03955E+01 2.84803E+01 0.00000E+00
 -1      3918 9.18955E+01 2.84803E+01 0.00000E+00
 -1      3919 8.96455E+01 2.71813E+01 0.00000E+00
 -1      3920 9.33955E+01 2.84803E+01 0.00000E+00
 -1      3921 9.48955E+01 2.84803E+01 0.00000E+00
 -1      3922 9.26455E+01 2.71813E+01 0.00000E+00
 -1      3923 9.63955E+01 2.84803E+01 0.00000E+00
 -1      3924 9.78955E+01 2.84803E+01 0.00000E+00
 -1      3925 9.56455E+01 2.71813E+01 0.00000E+00
 -1      3926 9.93955E+01 2.84803E+01 0.00000E+00
 -1      3927 1.00895E+02 2.84803E+01 0.00000E+00
 -1      3928 9.86455E+01 2.71813E+01 0.00000E+00
 -1      3929 1.02395E+02 2.84803E+01 0.00000E+00
 -1      3930 1.03895E+02 2.84803E+01 0.00000E+00
 -1      3931 1.01645E+02 2.71813E+01 0.00000E+00
 -1      3932 1.05395E+02 2.84803E+01 0.00000E+00
 -1      3933 1.06895E+02 2.84803E+01 0.00000E+00
 -1      3934 1.04645E+02 2.71813E+01 0.00000E+00
 -1      3935 1.08395E+02 2.84803E+01 0.00000E+00
 -1      3936 1.09895E+02 2.84803E+01 0.00000E+00
 -1      3937 1.07645E+02 2.71813E+01 0.00000E+00
 -1      3938 1.11395E+02 2.84803E+01 0.00000E+00
 -1      3939 1.12895E+02 2.84803E+01 0.00000E+00
 -1      3940 1.10645E+02 2.71813E+01 0.00000E+00
 -1      3941 1.14395E+02 2.84803E+01 0.00000E+00
 -1      3942 1.15895E+02 2.84803E+01 0.00000E+00
 -1      3943 1.13645E+02 2.71813E+01 0.00000E+00
 -1      3944 1.17395E+02 2.84803E+01 0.00000E+00
 -1      3945 1.18895E+02 2.84803E+01 0.00000E+00
 -1      3946 1.16645E+02 2.71813E+01 0.00000E+00
 -1      3947 1.20395E+02 2.84803E+01 0.00000E+00
 -1      3948 1.21895E+02 2.84803E+01 0.00000E+00
 -1      3949 1.19645E+02 2.71813E+01 0.00000E+00
 -1      3950 1.23395E+02 2.84803E+01 0.00000E+00
 -1      3951 1.24895E+02 2.84803E+01 0.00000E+00
 -1      3952 1.22645E+02 2.71813E+01 0.00000E+00
 -1      3953 1.26395E+02 2.84803E+01 0.00000E+00
 -1      3954 1.27895E+02 2.84803E+01 0.00000E+00
 -1      3955 1.25645E+02 2.71813E+01 0.00000E+00
 -1      3956 1.28991E+02 2.83480E+01 0.00000E+00
 -1      3957 1.30433E+02 2.82594E+01 0.00000E+00
 -1      3958 1.30433E+02 2.67844E+01 0.00000E+00
 -1      3959 1.28241E+02 2.70490E+01 0.00000E+00
 -1      3960 5.72850E+01 1.79151E+01 0.00000E+00
 -1      3961 5.57850E+01 1.79151E+01 0.00000E+00
 -1      3962 5.42850E+01 1.79151E+01 0.00000E+00
 -1      3963 5.27850E+01 1.79151E+01 0.00000E+00
 -1      3964 5.50350E+01 1.92141E+01 0.00000E+00
 -1      3965 6.62850E+01 1.79151E+01 0.00000E+00
 -1      3966 6.47850E+01 1.79151E+01 0.00000E+00
 -1      3967 6.92850E+01 1.79151E+01 0.00000E+00
 -1      3968 6.77850E+01 1.79151E+01 0.00000E+00
 -1      3969 6.70350E+01 1.92141E+01 0.00000E+00
 -1      3970 7.22850E+01 1.79151E+01 0.00000E+00
 -1      3971 7.07850E+01 1.79151E+01 0.00000E+00
 -1      3972 7.00350E+01 1.92141E+01 0.00000E+00
 -1      3973 7.52850E+01 1.79151E+01 0.00000E+00
 -1      3974 7.37850E+01 1.79151E+01 0.00000E+00
 -1      3975 7.30350E+01 1.92141E+01 0.00000E+00
 -1      3976 7.82850E+01 1.79151E+01 0.00000E+00
 -1      3977 7.67850E+01 1.79151E+01 0.00000E+00
 -1      3978 7.60350E+01 1.92141E+01 0.00000E+00
 -1      3979 8.12850E+01 1.79151E+01 0.00000E+00
 -1      3980 7.97850E+01 1.79151E+01 0.00000E+00
 -1      3981 7.90350E+01 1.92141E+01 0.00000E+00
 -1      3982 8.42850E+01 1.79151E+01 0.00000E+00
 -1      3983 8.27850E+01 1.79151E+01 0.00000E+00
 -1      3984 8.20350E+01 1.92141E+01 0.00000E+00
 -1      3985 8.72850E+01 1.79151E+01 0.00000E+00
 -1      3986 8.57850E+01 1.79151E+01 0.00000E+00
 -1      3987 8.50350E+01 1.92141E+01 0.00000E+00
 -1      3988 9.02850E+01 1.79151E+01 0.00000E+00
 -1      3989 8.87850E+01 1.79151E+01 0.00000E+00
 -1      3990 8.80350E+01 1.92141E+01 0.00000E+00
 -1      3991 9.32850E+01 1.79151E+01 0.00000E+00
 -1      3992 9.17850E+01 1.79151E+01 0.00000E+00
 -1      3993 9.10350E+01 1.92141E+01 0.00000E+00
 -1      3994 9.62850E+01 1.79151E+01 0.00000E+00
 -1      3995 9.47850E+01 1.79151E+01 0.00000E+00
 -1      3996 9.40350E+01 1.92141E+01 0.00000E+00
 -1      3997 9.92850E+01 1.79151E+01 0.00000E+00
 -1      3998 9.77850E+01 1.79151E+01 0.00000E+00
 -1      3999 9.70350E+01 1.92141E+01 0.00000E+00
 -1      4000 1.02285E+02 1.79151E+01 0.00000E+00
 -1      4001 1.00785E+02 1.79151E+01 0.00000E+00
 -1      4002 1.00035E+02 1.92141E+01 0.00000E+00
 -1      4003 1.05285E+02 1.79151E+01 0.00000E+00
 -1      4004 1.03785E+02 1.79151E+01 0.00000E+00
 -1      4005 1.03035E+02 1.92141E+01 0.00000E+00
 -1      4006 1.08285E+02 1.79151E+01 0.00000E+00
 -1      4007 1.06785E+02 1.79151E+01 0.00000E+00
 -1      4008 1.06035E+02 1.92141E+01 0.00000E+00
 -1      4009 1.11285E+02 1.79151E+01 0.00000E+00
 -1      4010 1.09785E+02 1.79151E+01 0.00000E+00
 -1      4011 1.09035E+02 1.92141E+01 0.00000E+00
 -1      4012 1.14285E+02 1.79151E+01 0.00000E+00
 -1      4013 1.12785E+02 1.79151E+01 0.00000E+00
 -1      4014 1.12035E+02 1.92141E+01 0.00000E+00
 -1      4015 1.17285E+02 1.79151E+01 0.00000E+00
 -1      4016 1.15785E+02 1.79151E+01 0.00000E+00
 -1      4017 1.15035E+02 1.92141E+01 0.00000E+00
 -1      4018 1.20285E+02 1.79151E+01 0.00000E+00
 -1      4019 1.18785E+02 1.79151E+01 0.00000E+00
 -1      4020 1.18035E+02 1.92141E+01 0.00000E+00
 -1      4021 1.23285E+02 1.79151E+01 0.00000E+00
 -1      4022 1.21785E+02 1.79151E+01 0.00000E+00
 -1      4023 1.21035E+02 1.92141E+01 0.00000E+00
 -1      4024 1.26285E+02 1.79151E+01 0.00000E+00
 -1      4025 1.24785E+02 1.79151E+01 0.00000E+00
 -1      4026 1.24035E+02 1.92141E+01 0.00000E+00
 -1      4027 1.28469E+02 1.79039E+01 0.00000E+00
 -1      4028 6.02850E+01 1.79151E+01 0.00000E+00
 -1      4029 5.87850E+01 1.79151E+01 0.00000E+00
 -1      4030 5.80350E+01 1.92141E+01 0.00000E+00
 -1      4031 4.45284E+01 2.87152E+01 0.00000E+00
 -1      4032 1.33136E+02 2.26658E+01 0.00000E+00
 -1      4033 1.33171E+02 2.12182E+01 0.00000E+00
 -1      4034 1.32026E+02 2.08587E+01 0.00000E+00
 -1      4035 1.31695E+02 2.27543E+01 0.00000E+00
 -1      4036 6.32850E+01 1.79151E+01 0.00000E+00
 -1      4037 6.17850E+01 1.79151E+01 0.00000E+00
 -1      4038 6.10350E+01 1.92141E+01 0.00000E+00
 -1      4039 4.36822E+01 2.00883E+01 0.00000E+00
 -1      4040 4.60284E+01 2.87152E+01 0.00000E+00
 -1      4041 5.12850E+01 1.79151E+01 0.00000E+00
 -1      4042 4.97850E+01 1.79151E+01 0.00000E+00
 -1      4043 5.20350E+01 1.92141E+01 0.00000E+00
 -1      4044 4.72604E+01 2.79059E+01 0.00000E+00
 -1      4045 4.80104E+01 2.66069E+01 0.00000E+00
 -1      4046 1.29337E+02 2.54417E+01 0.00000E+00
 -1      4047 1.30433E+02 2.53094E+01 0.00000E+00
 -1      4048 1.30433E+02 2.38344E+01 0.00000E+00
 -1      4049 1.27719E+02 1.92029E+01 0.00000E+00
 -1      4050 4.49042E+01 2.08497E+01 0.00000E+00
 -1      4051 6.40350E+01 1.92141E+01 0.00000E+00
 -1      4052 4.82747E+01 1.78350E+01 0.00000E+00
 -1      4053 4.67747E+01 1.78350E+01 0.00000E+00
 -1      4054 4.60042E+01 1.89739E+01 0.00000E+00
 -1      4055 4.90247E+01 1.91340E+01 0.00000E+00
 -1      4056 4.60949E+01 2.44191E+01 0.00000E+00
 -1      4057 4.68741E+01 2.30468E+01 0.00000E+00
 -1      4058 4.76545E+01 2.46603E+01 0.00000E+00
 -1      4059 1.30882E+02 2.04992E+01 0.00000E+00
 -1      4060 1.29738E+02 2.01396E+01 0.00000E+00
 -1      4061 1.30716E+02 2.14470E+01 0.00000E+00
 -1      4062 5.28955E+01 2.58823E+01 0.00000E+00
 -1      4063 5.43955E+01 2.58823E+01 0.00000E+00
 -1      4064 5.58955E+01 2.58823E+01 0.00000E+00
 -1      4065 5.73955E+01 2.58823E+01 0.00000E+00
 -1      4066 5.51455E+01 2.45833E+01 0.00000E+00
 -1      4067 5.88955E+01 2.58823E+01 0.00000E+00
 -1      4068 6.03955E+01 2.58823E+01 0.00000E+00
 -1      4069 5.81455E+01 2.45833E+01 0.00000E+00
 -1      4070 6.18955E+01 2.58823E+01 0.00000E+00
 -1      4071 6.33955E+01 2.58823E+01 0.00000E+00
 -1      4072 6.11455E+01 2.45833E+01 0.00000E+00
 -1      4073 6.48955E+01 2.58823E+01 0.00000E+00
 -1      4074 6.63955E+01 2.58823E+01 0.00000E+00
 -1      4075 6.41455E+01 2.45833E+01 0.00000E+00
 -1      4076 6.78955E+01 2.58823E+01 0.00000E+00
 -1      4077 6.93955E+01 2.58823E+01 0.00000E+00
 -1      4078 6.71455E+01 2.45833E+01 0.00000E+00
 -1      4079 7.08955E+01 2.58823E+01 0.00000E+00
 -1      4080 7.23955E+01 2.58823E+01 0.00000E+00
 -1      4081 7.01455E+01 2.45833E+01 0.00000E+00
 -1      4082 7.38955E+01 2.58823E+01 0.00000E+00
 -1      4083 7.53955E+01 2.58823E+01 0.00000E+00
 -1      4084 7.31455E+01 2.45833E+01 0.00000E+00
 -1      4085 7.68955E+01 2.58823E+01 0.00000E+00
 -1      4086 7.83955E+01 2.58823E+01 0.00000E+00
 -1      4087 7.61455E+01 2.45833E+01 0.00000E+00
 -1      4088 7.98955E+01 2.58823E+01 0.00000E+00
 -1      4089 8.13955E+01 2.58823E+01 0.00000E+00
 -1      4090 7.91455E+01 2.45833E+01 0.00000E+00
 -1      4091 8.28955E+01 2.58823E+01 0.00000E+00
 -1      4092 8.43955E+01 2.58823E+01 0.00000E+00
 -1      4093 8.21455E+01 2.45833E+01 0.00000E+00
 -1      4094 8.58955E+01 2.58823E+01 0.00000E+00
 -1      4095 8.73955E+01 2.58823E+01 0.00000E+00
 -1      4096 8.51455E+01 2.45833E+01 0.00000E+00
 -1      4097 8.88955E+01 2.58823E+01 0.00000E+00
 -1      4098 9.03955E+01 2.58823E+01 0.00000E+00
 -1      4099 8.81455E+01 2.45833E+01 0.00000E+00
 -1      4100 9.18955E+01 2.58823E+01 0.00000E+00
 -1      4101 9.33955E+01 2.58823E+01 0.00000E+00
 -1      4102 9.11455E+01 2.45833E+01 0.00000E+00
 -1      4103 9.48955E+01 2.58823E+01 0.00000E+00
 -1      4104 9.63955E+01 2.58823E+01 0.00000E+00
 -1      4105 9.41455E+01 2.45833E+01 0.00000E+00
 -1      4106 9.78955E+01 2.58823E+01 0.00000E+00
 -1      4107 9.93955E+01 2.58823E+01 0.00000E+00
 -1      4108 9.71455E+01 2.45833E+01 0.00000E+00
 -1      4109 1.00895E+02 2.58823E+01 0.00000E+00
 -1      4110 1.02395E+02 2.58823E+01 0.00000E+00
 -1      4111 1.00145E+02 2.45833E+01 0.00000E+00
 -1      4112 1.03895E+02 2.58823E+01 0.00000E+00
 -1      4113 1.05395E+02 2.58823E+01 0.00000E+00
 -1      4114 1.03145E+02 2.45833E+01 0.00000E+00
 -1      4115 1.06895E+02 2.58823E+01 0.00000E+00
 -1      4116 1.08395E+02 2.58823E+01 0.00000E+00
 -1      4117 1.06145E+02 2.45833E+01 0.00000E+00
 -1      4118 1.09895E+02 2.58823E+01 0.00000E+00
 -1      4119 1.11395E+02 2.58823E+01 0.00000E+00
 -1      4120 1.09145E+02 2.45833E+01 0.00000E+00
 -1      4121 1.12895E+02 2.58823E+01 0.00000E+00
 -1      4122 1.14395E+02 2.58823E+01 0.00000E+00
 -1      4123 1.12145E+02 2.45833E+01 0.00000E+00
 -1      4124 1.15895E+02 2.58823E+01 0.00000E+00
 -1      4125 1.17395E+02 2.58823E+01 0.00000E+00
 -1      4126 1.15145E+02 2.45833E+01 0.00000E+00
 -1      4127 1.18895E+02 2.58823E+01 0.00000E+00
 -1      4128 1.20395E+02 2.58823E+01 0.00000E+00
 -1      4129 1.18145E+02 2.45833E+01 0.00000E+00
 -1      4130 1.21895E+02 2.58823E+01 0.00000E+00
 -1      4131 1.23395E+02 2.58823E+01 0.00000E+00
 -1      4132 1.21145E+02 2.45833E+01 0.00000E+00
 -1      4133 1.24895E+02 2.58823E+01 0.00000E+00
 -1      4134 1.26395E+02 2.58823E+01 0.00000E+00
 -1      4135 1.24145E+02 2.45833E+01 0.00000E+00
 -1      4136 1.27318E+02 2.57281E+01 0.00000E+00
 -1      4137 1.28414E+02 2.55958E+01 0.00000E+00
 -1      4138 1.28414E+02 2.41208E+01 0.00000E+00
 -1      4139 1.26568E+02 2.44291E+01 0.00000E+00
 -1      4140 5.57850E+01 2.05131E+01 0.00000E+00
 -1      4141 5.42850E+01 2.05131E+01 0.00000E+00
 -1      4142 6.17850E+01 2.05131E+01 0.00000E+00
 -1      4143 6.02850E+01 2.05131E+01 0.00000E+00
 -1      4144 7.07850E+01 2.05131E+01 0.00000E+00
 -1      4145 6.92850E+01 2.05131E+01 0.00000E+00
 -1      4146 6.77850E+01 2.05131E+01 0.00000E+00
 -1      4147 6.62850E+01 2.05131E+01 0.00000E+00
 -1      4148 6.85350E+01 2.18121E+01 0.00000E+00
 -1      4149 7.67850E+01 2.05131E+01 0.00000E+00
 -1      4150 7.52850E+01 2.05131E+01 0.00000E+00
 -1      4151 7.97850E+01 2.05131E+01 0.00000E+00
 -1      4152 7.82850E+01 2.05131E+01 0.00000E+00
 -1      4153 7.75350E+01 2.18121E+01 0.00000E+00
 -1      4154 8.27850E+01 2.05131E+01 0.00000E+00
 -1      4155 8.12850E+01 2.05131E+01 0.00000E+00
 -1      4156 8.05350E+01 2.18121E+01 0.00000E+00
 -1      4157 8.57850E+01 2.05131E+01 0.00000E+00
 -1      4158 8.42850E+01 2.05131E+01 0.00000E+00
 -1      4159 8.35350E+01 2.18121E+01 0.00000E+00
 -1      4160 8.87850E+01 2.05131E+01 0.00000E+00
 -1      4161 8.72850E+01 2.05131E+01 0.00000E+00
 -1      4162 8.65350E+01 2.18121E+01 0.00000E+00
 -1      4163 9.17850E+01 2.05131E+01 0.00000E+00
 -1      4164 9.02850E+01 2.05131E+01 0.00000E+00
 -1      4165 8.95350E+01 2.18121E+01 0.00000E+00
 -1      4166 9.47850E+01 2.05131E+01 0.00000E+00
 -1      4167 9.32850E+01 2.05131E+01 0.00000E+00
 -1      4168 9.25350E+01 2.18121E+01 0.00000E+00
 -1      4169 9.77850E+01 2.05131E+01 0.00000E+00
 -1      4170 9.62850E+01 2.05131E+01 0.00000E+00
 -1      4171 9.55350E+01 2.18121E+01 0.00000E+00
 -1      4172 1.00785E+02 2.05131E+01 0.00000E+00
 -1      4173 9.92850E+01 2.05131E+01 0.00000E+00
 -1      4174 9.85350E+01 2.18121E+01 0.00000E+00
 -1      4175 1.03785E+02 2.05131E+01 0.00000E+00
 -1      4176 1.02285E+02 2.05131E+01 0.00000E+00
 -1      4177 1.01535E+02 2.18121E+01 0.00000E+00
 -1      4178 1.06785E+02 2.05131E+01 0.00000E+00
 -1      4179 1.05285E+02 2.05131E+01 0.00000E+00
 -1      4180 1.04535E+02 2.18121E+01 0.00000E+00
 -1      4181 1.09785E+02 2.05131E+01 0.00000E+00
 -1      4182 1.08285E+02 2.05131E+01 0.00000E+00
 -1      4183 1.07535E+02 2.18121E+01 0.00000E+00
 -1      4184 1.12785E+02 2.05131E+01 0.00000E+00
 -1      4185 1.11285E+02 2.05131E+01 0.00000E+00
 -1      4186 1.10535E+02 2.18121E+01 0.00000E+00
 -1      4187 1.15785E+02 2.05131E+01 0.00000E+00
 -1      4188 1.14285E+02 2.05131E+01 0.00000E+00
 -1      4189 1.13535E+02 2.18121E+01 0.00000E+00
 -1      4190 1.18785E+02 2.05131E+01 0.00000E+00
 -1      4191 1.17285E+02 2.05131E+01 0.00000E+00
 -1      4192 1.16535E+02 2.18121E+01 0.00000E+00
 -1      4193 1.21785E+02 2.05131E+01 0.00000E+00
 -1      4194 1.20285E+02 2.05131E+01 0.00000E+00
 -1      4195 1.19535E+02 2.18121E+01 0.00000E+00
 -1      4196 1.24785E+02 2.05131E+01 0.00000E+00
 -1      4197 1.23285E+02 2.05131E+01 0.00000E+00
 -1      4198 1.22535E+02 2.18121E+01 0.00000E+00
 -1      4199 4.64145E+01 2.09298E+01 0.00000E+00
 -1      4200 6.47850E+01 2.05131E+01 0.00000E+00
 -1      4201 6.32850E+01 2.05131E+01 0.00000E+00
 -1      4202 6.55350E+01 2.18121E+01 0.00000E+00
 -1      4203 7.37850E+01 2.05131E+01 0.00000E+00
 -1      4204 7.22850E+01 2.05131E+01 0.00000E+00
 -1      4205 7.15350E+01 2.18121E+01 0.00000E+00
 -1      4206 7.45350E+01 2.18121E+01 0.00000E+00
 -1      4207 4.97029E+01 2.62446E+01 0.00000E+00
 -1      4208 5.12029E+01 2.62446E+01 0.00000E+00
 -1      4209 5.19529E+01 2.49456E+01 0.00000E+00
 -1      4210 4.85678E+01 2.56703E+01 0.00000E+00
 -1      4211 5.87850E+01 2.05131E+01 0.00000E+00
 -1      4212 5.72850E+01 2.05131E+01 0.00000E+00
 -1      4213 5.65350E+01 2.18121E+01 0.00000E+00
 -1      4214 5.95350E+01 2.18121E+01 0.00000E+00
 -1      4215 6.25350E+01 2.18121E+01 0.00000E+00
 -1      4216 4.79741E+01 2.11709E+01 0.00000E+00
 -1      4217 4.93470E+01 2.42979E+01 0.00000E+00
 -1      4218 5.27850E+01 2.05131E+01 0.00000E+00
 -1      4219 5.12850E+01 2.05131E+01 0.00000E+00
 -1      4220 5.35350E+01 2.18121E+01 0.00000E+00
 -1      4221 1.30492E+02 2.31146E+01 0.00000E+00
 -1      4222 1.30658E+02 2.21668E+01 0.00000E+00
 -1      4223 1.29513E+02 2.18073E+01 0.00000E+00
 -1      4224 1.29396E+02 2.32469E+01 0.00000E+00
 -1      4225 1.28818E+02 2.04964E+01 0.00000E+00
 -1      4226 1.26634E+02 2.05075E+01 0.00000E+00
 -1      4227 1.25884E+02 2.18065E+01 0.00000E+00
 -1      4228 8.43402E+01 2.31977E+01 0.00000E+00
 -1      4229 8.28402E+01 2.31977E+01 0.00000E+00
 -1      4230 5.73402E+01 2.31977E+01 0.00000E+00
 -1      4231 5.88402E+01 2.31977E+01 0.00000E+00
 -1      4232 6.03402E+01 2.31977E+01 0.00000E+00
 -1      4233 6.18402E+01 2.31977E+01 0.00000E+00
 -1      4234 6.33402E+01 2.31977E+01 0.00000E+00
 -1      4235 6.48402E+01 2.31977E+01 0.00000E+00
 -1      4236 6.63402E+01 2.31977E+01 0.00000E+00
 -1      4237 6.78402E+01 2.31977E+01 0.00000E+00
 -1      4238 6.93402E+01 2.31977E+01 0.00000E+00
 -1      4239 7.08402E+01 2.31977E+01 0.00000E+00
 -1      4240 7.23402E+01 2.31977E+01 0.00000E+00
 -1      4241 7.38402E+01 2.31977E+01 0.00000E+00
 -1      4242 7.53402E+01 2.31977E+01 0.00000E+00
 -1      4243 7.68402E+01 2.31977E+01 0.00000E+00
 -1      4244 7.83402E+01 2.31977E+01 0.00000E+00
 -1      4245 7.98402E+01 2.31977E+01 0.00000E+00
 -1      4246 8.13402E+01 2.31977E+01 0.00000E+00
 -1      4247 8.58402E+01 2.31977E+01 0.00000E+00
 -1      4248 8.73402E+01 2.31977E+01 0.00000E+00
 -1      4249 8.88402E+01 2.31977E+01 0.00000E+00
 -1      4250 9.03402E+01 2.31977E+01 0.00000E+00
 -1      4251 9.18402E+01 2.31977E+01 0.00000E+00
 -1      4252 9.33402E+01 2.31977E+01 0.00000E+00
 -1      4253 9.48402E+01 2.31977E+01 0.00000E+00
 -1      4254 9.63402E+01 2.31977E+01 0.00000E+00
 -1      4255 9.78402E+01 2.31977E+01 0.00000E+00
 -1      4256 9.93402E+01 2.31977E+01 0.00000E+00
 -1      4257 1.00840E+02 2.31977E+01 0.00000E+00
 -1      4258 1.02340E+02 2.31977E+01 0.00000E+00
 -1      4259 1.03840E+02 2.31977E+01 0.00000E+00
 -1      4260 1.05340E+02 2.31977E+01 0.00000E+00
 -1      4261 1.06840E+02 2.31977E+01 0.00000E+00
 -1      4262 1.08340E+02 2.31977E+01 0.00000E+00
 -1      4263 1.09840E+02 2.31977E+01 0.00000E+00
 -1      4264 1.11340E+02 2.31977E+01 0.00000E+00
 -1      4265 1.12840E+02 2.31977E+01 0.00000E+00
 -1      4266 1.14340E+02 2.31977E+01 0.00000E+00
 -1      4267 1.15840E+02 2.31977E+01 0.00000E+00
 -1      4268 1.17340E+02 2.31977E+01 0.00000E+00
 -1      4269 1.18840E+02 2.31977E+01 0.00000E+00
 -1      4270 1.20340E+02 2.31977E+01 0.00000E+00
 -1      4271 1.21840E+02 2.31977E+01 0.00000E+00
 -1      4272 1.23340E+02 2.31977E+01 0.00000E+00
 -1      4273 1.24840E+02 2.31977E+01 0.00000E+00
 -1      4274 5.11477E+01 2.35600E+01 0.00000E+00
 -1      4275 5.28402E+01 2.31977E+01 0.00000E+00
 -1      4276 4.94843E+01 2.12510E+01 0.00000E+00
 -1      4277 5.43402E+01 2.31977E+01 0.00000E+00
 -1      4278 5.58402E+01 2.31977E+01 0.00000E+00
 -1      4279 5.02343E+01 2.25500E+01 0.00000E+00
 -1      4280 1.26689E+02 2.31921E+01 0.00000E+00
 -1      4281 1.28652E+02 2.14442E+01 0.00000E+00
 -1      4282 1.27612E+02 2.30379E+01 0.00000E+00
 -1      4283 1.28594E+02 2.21640E+01 0.00000E+00
 -1      4284 1.28535E+02 2.28838E+01 0.00000E+00
 -3
    3C                          2060                                     1
 -1       165    8    0    1
 -2         6         7        23      1113      1277      1130
 -1       166    8    0    1
 -2         7         8       165      1114      1278      1279
 -1       167    8    0    1
 -2         8         9       166      1115      1280      1281
 -1       168    8    0    1
 -2         8       166       165      1281      1282      1278
 -1       169    8    0    1
 -2         9        10       167      1116      1283      1284
 -1       170    8    0    1
 -2         9       167       166      1284      1285      1280
 -1       171    8    0    1
 -2        10        11       168      1117      1286      1287
 -1       172    8    0    1
 -2        10       168       167      1287      1288      1283
 -1       173    8    0    1
 -2        11        12       169      1118      1289      1290
 -1       174    8    0    1
 -2        11       169       168      1290      1291      1286
 -1       175    8    0    1
 -2        12        13       170      1119      1292      1293
 -1       176    8    0    1
 -2        12       170       169      1293      1294      1289
 -1       177    8    0    1
 -2        13        14       171      1120      1295      1296
 -1       178    8    0    1
 -2        13       171       170      1296      1297      1292
 -1       179    8    0    1
 -2        14        15       172      1121      1298      1299
 -1       180    8    0    1
 -2        14       172       171      1299      1300      1295
 -1       181    8    0    1
 -2        15        16       173      1122      1301      1302
 -1       182    8    0    1
 -2        15       173       172      1302      1303      1298
 -1       183    8    0    1
 -2        16        17       174      1123      1304      1305
 -1       184    8    0    1
 -2        16       174       173      1305      1306      1301
 -1       185    8    0    1
 -2        17        18       175      1124      1307      1308
 -1       186    8    0    1
 -2        17       175       174      1308      1309      1304
 -1       187    8    0    1
 -2        18        19       176      1125      1310      1311
 -1       188    8    0    1
 -2        18       176       175      1311      1312      1307
 -1       189    8    0    1
 -2        19        20       177      1126      1313      1314
 -1       190    8    0    1
 -2        19       177       176      1314      1315      1310
 -1       191    8    0    1
 -2        20        21       178      1127      1316      1317
 -1       192    8    0    1
 -2        20       178       177      1317      1318      1313
 -1       193    8    0    1
 -2        21        22       179      1128      1319      1320
 -1       194    8    0    1
 -2        21       179       178      1320      1321      1316
 -1       195    8    0    1
 -2        22         5       180      1129      1322      1323
 -1       196    8    0    1
 -2       179        22       180      1319      1323      1324
 -1       197    8    0    1
 -2         5        72       180      1180      1325      1322
 -1       198    8    0    1
 -2        24        23       181      1131      1326      1327
 -1       199    8    0    1
 -2        25        24       182      1132      1328      1329
 -1       200    8    0    1
 -2        24       181       182      1327      1330      1328
 -1       201    8    0    1
 -2        26        25       183      1133      1331      1332
 -1       202    8    0    1
 -2        25       182       183      1329      1333      1331
 -1       203    8    0    1
 -2        27        26       184      1134      1334      1335
 -1       204    8    0    1
 -2        26       183       184      1332      1336      1334
 -1       205    8    0    1
 -2        28        27       185      1135      1337      1338
 -1       206    8    0    1
 -2        27       184       185      1335      1339      1337
 -1       207    8    0    1
 -2        29        28       186      1136      1340      1341
 -1       208    8    0    1
 -2        28       185       186      1338      1342      1340
 -1       209    8    0    1
 -2        30        29       187      1137      1343      1344
 -1       210    8    0    1
 -2        29       186       187      1341      1345      1343
 -1       211    8    0    1
 -2        31        30       188      1138      1346      1347
 -1       212    8    0    1
 -2        30       187       188      1344      1348      1346
 -1       213    8    0    1
 -2        32        31       189      1139      1349      1350
 -1       214    8    0    1
 -2        31       188       189      1347      1351      1349
 -1       215    8    0    1
 -2        33        32       190      1140      1352      1353
 -1       216    8    0    1
 -2        32       189       190      1350      1354      1352
 -1       217    8    0    1
 -2        34        33       191      1141      1355      1356
 -1       218    8    0    1
 -2        33       190       191      1353      1357      1355
 -1       219    8    0    1
 -2        35        34       192      1142      1358      1359
 -1       220    8    0    1
 -2        34       191       192      1356      1360      1358
 -1       221    8    0    1
 -2        36        35       193      1143      1361      1362
 -1       222    8    0    1
 -2        35       192       193      1359      1363      1361
 -1       223    8    0    1
 -2        37        36       194      1144      1364      1365
 -1       224    8    0    1
 -2        36       193       194      1362      1366      1364
 -1       225    8    0    1
 -2        38        37       195      1145      1367      1368
 -1       226    8    0    1
 -2        37       194       195      1365      1369      1367
 -1       227    8    0    1
 -2        39        38       196      1146      1370      1371
 -1       228    8    0    1
 -2        38       195       196      1368      1372      1370
 -1       229    8    0    1
 -2        40        39       197      1147      1373      1374
 -1       230    8    0    1
 -2        39       196       197      1371      1375      1373
 -1       231    8    0    1
 -2        41        40       198      1148      1376      1377
 -1       232    8    0    1
 -2        40       197       198      1374      1378      1376
 -1       233    8    0    1
 -2        42        41       199      1149      1379      1380
 -1       234    8    0    1
 -2        41       198       199      1377      1381      1379
 -1       235    8    0    1
 -2        43        42       200      1150      1382      1383
 -1       236    8    0    1
 -2        42       199       200      1380      1384      1382
 -1       237    8    0    1
 -2        44        43       201      1151      1385      1386
 -1       238    8    0    1
 -2        43       200       201      1383      1387      1385
 -1       239    8    0    1
 -2        45        44       202      1152      1388      1389
 -1       240    8    0    1
 -2        44       201       202      1386      1390      1388
 -1       241    8    0    1
 -2        46        45       203      1153      1391      1392
 -1       242    8    0    1
 -2        45       202       203      1389      1393      1391
 -1       243    8    0    1
 -2        47        46       204      1154      1394      1395
 -1       244    8    0    1
 -2        46       203       204      1392      1396      1394
 -1       245    8    0    1
 -2        48        47       205      1155      1397      1398
 -1       246    8    0    1
 -2        47       204       205      1395      1399      1397
 -1       247    8    0    1
 -2        49        48       206      1156      1400      1401
 -1       248    8    0    1
 -2        48       205       206      1398      1402      1400
 -1       249    8    0    1
 -2        50        49       207      1157      1403      1404
 -1       250    8    0    1
 -2        49       206       207      1401      1405      1403
 -1       251    8    0    1
 -2        51        50       208      1158      1406      1407
 -1       252    8    0    1
 -2        50       207       208      1404      1408      1406
 -1       253    8    0    1
 -2        52        51       209      1159      1409      1410
 -1       254    8    0    1
 -2        51       208       209      1407      1411      1409
 -1       255    8    0    1
 -2        53        52       210      1160      1412      1413
 -1       256    8    0    1
 -2        52       209       210      1410      1414      1412
 -1       257    8    0    1
 -2        54        53       211      1161      1415      1416
 -1       258    8    0    1
 -2        53       210       211      1413      1417      1415
 -1       259    8    0    1
 -2        55        54       212      1162      1418      1419
 -1       260    8    0    1
 -2        54       211       212      1416      1420      1418
 -1       261    8    0    1
 -2        56        55       213      1163      1421      1422
 -1       262    8    0    1
 -2        55       212       213      1419      1423      1421
 -1       263    8    0    1
 -2        57        56       214      1164      1424      1425
 -1       264    8    0    1
 -2        56       213       214      1422      1426      1424
 -1       265    8    0    1
 -2        58        57       215      1165      1427      1428
 -1       266    8    0    1
 -2        57       214       215      1425      1429      1427
 -1       267    8    0    1
 -2        59        58       216      1166      1430      1431
 -1       268    8    0    1
 -2        58       215       216      1428      1432      1430
 -1       269    8    0    1
 -2        60        59       217      1167      1433      1434
 -1       270    8    0    1
 -2        59       216       217      1431      1435      1433
 -1       271    8    0    1
 -2        61        60       218      1168      1436      1437
 -1       272    8    0    1
 -2        60       217       218      1434      1438      1436
 -1       273    8    0    1
 -2        62        61       219      1169      1439      1440
 -1       274    8    0    1
 -2        61       218       219      1437      1441      1439
 -1       275    8    0    1
 -2        63        62       220      1170      1442      1443
 -1       276    8    0    1
 -2        62       219       220      1440      1444      1442
 -1       277    8    0    1
 -2        64        63       221      1171      1445      1446
 -1       278    8    0    1
 -2        63       220       221      1443      1447      1445
 -1       279    8    0    1
 -2        65        64       222      1172      1448      1449
 -1       280    8    0    1
 -2        64       221       222      1446      1450      1448
 -1       281    8    0    1
 -2        66        65       223      1173      1451      1452
 -1       282    8    0    1
 -2        65       222       223      1449      1453      1451
 -1       283    8    0    1
 -2        67        66       224      1174      1454      1455
 -1       284    8    0    1
 -2        66       223       224      1452      1456      1454
 -1       285    8    0    1
 -2        68        67       225      1175      1457      1458
 -1       286    8    0    1
 -2        67       224       225      1455      1459      1457
 -1       287    8    0    1
 -2        69        68       226      1176      1460      1461
 -1       288    8    0    1
 -2        68       225       226      1458      1462      1460
 -1       289    8    0    1
 -2        70        69       227      1177      1463      1464
 -1       290    8    0    1
 -2        69       226       227      1461      1465      1463
 -1       291    8    0    1
 -2        71        70       228      1178      1466      1467
 -1       292    8    0    1
 -2        70       227       228      1464      1468      1466
 -1       293    8    0    1
 -2         4        71       136      1179      1469      1246
 -1       294    8    0    1
 -2       136        71       228      1469      1467      1470
 -1       295    8    0    1
 -2        72        73       229      1181      1471      1472
 -1       296    8    0    1
 -2        72       229       180      1472      1473      1325
 -1       297    8    0    1
 -2        73        74       230      1182      1474      1475
 -1       298    8    0    1
 -2        73       230       229      1475      1476      1471
 -1       299    8    0    1
 -2        74        75       231      1183      1477      1478
 -1       300    8    0    1
 -2        74       231       230      1478      1479      1474
 -1       301    8    0    1
 -2        75        76       232      1184      1480      1481
 -1       302    8    0    1
 -2        75       232       231      1481      1482      1477
 -1       303    8    0    1
 -2        76        77       233      1185      1483      1484
 -1       304    8    0    1
 -2        76       233       232      1484      1485      1480
 -1       305    8    0    1
 -2        77        78       234      1186      1486      1487
 -1       306    8    0    1
 -2        77       234       233      1487      1488      1483
 -1       307    8    0    1
 -2        78        79       235      1187      1489      1490
 -1       308    8    0    1
 -2        78       235       234      1490      1491      1486
 -1       309    8    0    1
 -2        79        80       236      1188      1492      1493
 -1       310    8    0    1
 -2        79       236       235      1493      1494      1489
 -1       311    8    0    1
 -2        80        81       237      1189      1495      1496
 -1       312    8    0    1
 -2        80       237       236      1496      1497      1492
 -1       313    8    0    1
 -2        81        82       238      1190      1498      1499
 -1       314    8    0    1
 -2        81       238       237      1499      1500      1495
 -1       315    8    0    1
 -2        82        83       239      1191      1501      1502
 -1       316    8    0    1
 -2        82       239       238      1502      1503      1498
 -1       317    8    0    1
 -2        83        84       240      1192      1504      1505
 -1       318    8    0    1
 -2        83       240       239      1505      1506      1501
 -1       319    8    0    1
 -2        84        85       241      1193      1507      1508
 -1       320    8    0    1
 -2        84       241       240      1508      1509      1504
 -1       321    8    0    1
 -2        85        86       242      1194      1510      1511
 -1       322    8    0    1
 -2        85       242       241      1511      1512      1507
 -1       323    8    0    1
 -2        86        87       243      1195      1513      1514
 -1       324    8    0    1
 -2        86       243       242      1514      1515      1510
 -1       325    8    0    1
 -2        87        88       244      1196      1516      1517
 -1       326    8    0    1
 -2        87       244       243      1517      1518      1513
 -1       327    8    0    1
 -2        88        89       245      1197      1519      1520
 -1       328    8    0    1
 -2        88       245       244      1520      1521      1516
 -1       329    8    0    1
 -2        89        90       246      1198      1522      1523
 -1       330    8    0    1
 -2        89       246       245      1523      1524      1519
 -1       331    8    0    1
 -2        90        91       247      1199      1525      1526
 -1       332    8    0    1
 -2        90       247       246      1526      1527      1522
 -1       333    8    0    1
 -2        91        92       248      1200      1528      1529
 -1       334    8    0    1
 -2        91       248       247      1529      1530      1525
 -1       335    8    0    1
 -2        92        93       249      1201      1531      1532
 -1       336    8    0    1
 -2        92       249       248      1532      1533      1528
 -1       337    8    0    1
 -2        93        94       250      1202      1534      1535
 -1       338    8    0    1
 -2        93       250       249      1535      1536      1531
 -1       339    8    0    1
 -2        94        95       251      1203      1537      1538
 -1       340    8    0    1
 -2        94       251       250      1538      1539      1534
 -1       341    8    0    1
 -2        95        96       252      1204      1540      1541
 -1       342    8    0    1
 -2        95       252       251      1541      1542      1537
 -1       343    8    0    1
 -2        96        97       253      1205      1543      1544
 -1       344    8    0    1
 -2        96       253       252      1544      1545      1540
 -1       345    8    0    1
 -2        97        98       254      1206      1546      1547
 -1       346    8    0    1
 -2        97       254       253      1547      1548      1543
 -1       347    8    0    1
 -2        98        99       255      1207      1549      1550
 -1       348    8    0    1
 -2        98       255       254      1550      1551      1546
 -1       349    8    0    1
 -2        99       100       256      1208      1552      1553
 -1       350    8    0    1
 -2        99       256       255      1553      1554      1549
 -1       351    8    0    1
 -2       100       101       257      1209      1555      1556
 -1       352    8    0    1
 -2       100       257       256      1556      1557      1552
 -1       353    8    0    1
 -2       101       102       258      1210      1558      1559
 -1       354    8    0    1
 -2       101       258       257      1559      1560      1555
 -1       355    8    0    1
 -2       102       103       259      1211      1561      1562
 -1       356    8    0    1
 -2       102       259       258      1562      1563      1558
 -1       357    8    0    1
 -2       103       104       260      1212      1564      1565
 -1       358    8    0    1
 -2       103       260       259      1565      1566      1561
 -1       359    8    0    1
 -2       104       105       261      1213      1567      1568
 -1       360    8    0    1
 -2       104       261       260      1568      1569      1564
 -1       361    8    0    1
 -2       105       106       262      1214      1570      1571
 -1       362    8    0    1
 -2       105       262       261      1571      1572      1567
 -1       363    8    0    1
 -2       106       107       263      1215      1573      1574
 -1       364    8    0    1
 -2       106       263       262      1574      1575      1570
 -1       365    8    0    1
 -2       107       108       264      1216      1576      1577
 -1       366    8    0    1
 -2       107       264       263      1577      1578      1573
 -1       367    8    0    1
 -2       108       109       265      1217      1579      1580
 -1       368    8    0    1
 -2       108       265       264      1580      1581      1576
 -1       369    8    0    1
 -2       109       110       266      1218      1582      1583
 -1       370    8    0    1
 -2       109       266       265      1583      1584      1579
 -1       371    8    0    1
 -2       110       111       267      1219      1585      1586
 -1       372    8    0    1
 -2       110       267       266      1586      1587      1582
 -1       373    8    0    1
 -2       111       112       268      1220      1588      1589
 -1       374    8    0    1
 -2       111       268       267      1589      1590      1585
 -1       375    8    0    1
 -2       112       113       269      1221      1591      1592
 -1       376    8    0    1
 -2       112       269       268      1592      1593      1588
 -1       377    8    0    1
 -2       113       114       270      1222      1594      1595
 -1       378    8    0    1
 -2       113       270       269      1595      1596      1591
 -1       379    8    0    1
 -2       114       115       271      1223      1597      1598
 -1       380    8    0    1
 -2       114       271       270      1598      1599      1594
 -1       381    8    0    1
 -2       115       116       272      1224      1600      1601
 -1       382    8    0    1
 -2       115       272       271      1601      1602      1597
 -1       383    8    0    1
 -2       116       117       273      1225      1603      1604
 -1       384    8    0    1
 -2       116       273       272      1604      1605      1600
 -1       385    8    0    1
 -2       117       118       274      1226      1606      1607
 -1       386    8    0    1
 -2       117       274       273      1607      1608      1603
 -1       387    8    0    1
 -2       118       119       275      1227      1609      1610
 -1       388    8    0    1
 -2       118       275       274      1610      1611      1606
 -1       389    8    0    1
 -2       119       120       276      1228      1612      1613
 -1       390    8    0    1
 -2       119       276       275      1613      1614      1609
 -1       391    8    0    1
 -2       120         3       121      1229      1230      1615
 -1       392    8    0    1
 -2       121       122       277      1231      1616      1617
 -1       393    8    0    1
 -2       122       123       278      1232      1618      1619
 -1       394    8    0    1
 -2       122       278       277      1619      1620      1616
 -1       395    8    0    1
 -2       123       124       279      1233      1621      1622
 -1       396    8    0    1
 -2       123       279       278      1622      1623      1618
 -1       397    8    0    1
 -2       124       125       280      1234      1624      1625
 -1       398    8    0    1
 -2       124       280       279      1625      1626      1621
 -1       399    8    0    1
 -2       125       126       281      1235      1627      1628
 -1       400    8    0    1
 -2       125       281       280      1628      1629      1624
 -1       401    8    0    1
 -2       126       127       282      1236      1630      1631
 -1       402    8    0    1
 -2       126       282       281      1631      1632      1627
 -1       403    8    0    1
 -2       127       128       283      1237      1633      1634
 -1       404    8    0    1
 -2       127       283       282      1634      1635      1630
 -1       405    8    0    1
 -2       128       129       284      1238      1636      1637
 -1       406    8    0    1
 -2       128       284       283      1637      1638      1633
 -1       407    8    0    1
 -2       129       130       285      1239      1639      1640
 -1       408    8    0    1
 -2       129       285       284      1640      1641      1636
 -1       409    8    0    1
 -2       130       131       286      1240      1642      1643
 -1       410    8    0    1
 -2       130       286       285      1643      1644      1639
 -1       411    8    0    1
 -2       131       132       287      1241      1645      1646
 -1       412    8    0    1
 -2       131       287       286      1646      1647      1642
 -1       413    8    0    1
 -2       132       133       288      1242      1648      1649
 -1       414    8    0    1
 -2       132       288       287      1649      1650      1645
 -1       415    8    0    1
 -2       133       134       289      1243      1651      1652
 -1       416    8    0    1
 -2       133       289       288      1652      1653      1648
 -1       417    8    0    1
 -2       134       135       290      1244      1654      1655
 -1       418    8    0    1
 -2       134       290       289      1655      1656      1651
 -1       419    8    0    1
 -2       135       136       291      1245      1657      1658
 -1       420    8    0    1
 -2       290       135       291      1654      1658      1659
 -1       421    8    0    1
 -2       136       228       291      1470      1660      1657
 -1       422    8    0    1
 -2         2       137       292      1247      1661      1662
 -1       423    8    0    1
 -2       137       138       293      1248      1663      1664
 -1       424    8    0    1
 -2       138       139       294      1249      1665      1666
 -1       425    8    0    1
 -2       139       140       295      1250      1667      1668
 -1       426    8    0    1
 -2       140       141       296      1251      1669      1670
 -1       427    8    0    1
 -2       141       142       297      1252      1671      1672
 -1       428    8    0    1
 -2       142       143       298      1253      1673      1674
 -1       429    8    0    1
 -2       143       144       299      1254      1675      1676
 -1       430    8    0    1
 -2       144       145       300      1255      1677      1678
 -1       431    8    0    1
 -2       145       146       301      1256      1679      1680
 -1       432    8    0    1
 -2       146       147       302      1257      1681      1682
 -1       433    8    0    1
 -2       147       148       303      1258      1683      1684
 -1       434    8    0    1
 -2       148       149       304      1259      1685      1686
 -1       435    8    0    1
 -2       149       150       305      1260      1687      1688
 -1       436    8    0    1
 -2       150       151       306      1261      1689      1690
 -1       437    8    0    1
 -2       151       152       307      1262      1691      1692
 -1       438    8    0    1
 -2       152       153       308      1263      1693      1694
 -1       439    8    0    1
 -2       153       154       309      1264      1695      1696
 -1       440    8    0    1
 -2       154       155       310      1265      1697      1698
 -1       441    8    0    1
 -2       155       156       311      1266      1699      1700
 -1       442    8    0    1
 -2       156       157       312      1267      1701      1702
 -1       443    8    0    1
 -2       157         1       313      1268      1703      1704
 -1       444    8    0    1
 -2         1       158       314      1269      1705      1706
 -1       445    8    0    1
 -2       158       159       315      1270      1707      1708
 -1       446    8    0    1
 -2       159       160       316      1271      1709      1710
 -1       447    8    0    1
 -2       160       161       317      1272      1711      1712
 -1       448    8    0    1
 -2       161       162       318      1273      1713      1714
 -1       449    8    0    1
 -2       162       163       319      1274      1715      1716
 -1       450    8    0    1
 -2       163       164       320      1275      1717      1718
 -1       451    8    0    1
 -2       164         2       321      1276      1719      1720
 -1       452    8    0    1
 -2       295       140       296      1667      1670      1721
 -1       453    8    0    1
 -2       294       139       295      1665      1668      1722
 -1       454    8    0    1
 -2       120       121       276      1615      1723      1612
 -1       455    8    0    1
 -2       121       277       276      1617      1724      1723
 -1       456    8    0    1
 -2       292       137       293      1661      1664      1725
 -1       457    8    0    1
 -2       293       138       294      1663      1666      1726
 -1       458    8    0    1
 -2         2       292       321      1662      1727      1719
 -1       459    8    0    1
 -2       141       297       296      1672      1728      1669
 -1       460    8    0    1
 -2       142       298       297      1674      1729      1671
 -1       461    8    0    1
 -2       143       299       298      1676      1730      1673
 -1       462    8    0    1
 -2       144       300       299      1678      1731      1675
 -1       463    8    0    1
 -2       145       301       300      1680      1732      1677
 -1       464    8    0    1
 -2       146       302       301      1682      1733      1679
 -1       465    8    0    1
 -2       147       303       302      1684      1734      1681
 -1       466    8    0    1
 -2       148       304       303      1686      1735      1683
 -1       467    8    0    1
 -2       149       305       304      1688      1736      1685
 -1       468    8    0    1
 -2       150       306       305      1690      1737      1687
 -1       469    8    0    1
 -2       151       307       306      1692      1738      1689
 -1       470    8    0    1
 -2       152       308       307      1694      1739      1691
 -1       471    8    0    1
 -2       153       309       308      1696      1740      1693
 -1       472    8    0    1
 -2       154       310       309      1698      1741      1695
 -1       473    8    0    1
 -2       155       311       310      1700      1742      1697
 -1       474    8    0    1
 -2       156       312       311      1702      1743      1699
 -1       475    8    0    1
 -2       157       313       312      1704      1744      1701
 -1       476    8    0    1
 -2         1       314       313      1706      1745      1703
 -1       477    8    0    1
 -2       158       315       314      1708      1746      1705
 -1       478    8    0    1
 -2       159       316       315      1710      1747      1707
 -1       479    8    0    1
 -2       160       317       316      1712      1748      1709
 -1       480    8    0    1
 -2       161       318       317      1714      1749      1711
 -1       481    8    0    1
 -2       162       319       318      1716      1750      1713
 -1       482    8    0    1
 -2       163       320       319      1718      1751      1715
 -1       483    8    0    1
 -2       164       321       320      1720      1752      1717
 -1       484    8    0    1
 -2        23         7       165      1277      1279      1753
 -1       485    8    0    1
 -2       166       167       322      1285      1754      1755
 -1       486    8    0    1
 -2       165       166       323      1282      1756      1757
 -1       487    8    0    1
 -2       166       322       323      1755      1758      1756
 -1       488    8    0    1
 -2       168       169       324      1291      1759      1760
 -1       489    8    0    1
 -2       169       170       325      1294      1761      1762
 -1       490    8    0    1
 -2       169       325       324      1762      1763      1759
 -1       491    8    0    1
 -2       170       171       326      1297      1764      1765
 -1       492    8    0    1
 -2       170       326       325      1765      1766      1761
 -1       493    8    0    1
 -2       171       172       327      1300      1767      1768
 -1       494    8    0    1
 -2       171       327       326      1768      1769      1764
 -1       495    8    0    1
 -2       172       173       328      1303      1770      1771
 -1       496    8    0    1
 -2       172       328       327      1771      1772      1767
 -1       497    8    0    1
 -2       173       174       329      1306      1773      1774
 -1       498    8    0    1
 -2       173       329       328      1774      1775      1770
 -1       499    8    0    1
 -2       174       175       330      1309      1776      1777
 -1       500    8    0    1
 -2       174       330       329      1777      1778      1773
 -1       501    8    0    1
 -2       175       176       331      1312      1779      1780
 -1       502    8    0    1
 -2       175       331       330      1780      1781      1776
 -1       503    8    0    1
 -2       176       177       332      1315      1782      1783
 -1       504    8    0    1
 -2       176       332       331      1783      1784      1779
 -1       505    8    0    1
 -2       177       178       333      1318      1785      1786
 -1       506    8    0    1
 -2       177       333       332      1786      1787      1782
 -1       507    8    0    1
 -2       178       179       334      1321      1788      1789
 -1       508    8    0    1
 -2       178       334       333      1789      1790      1785
 -1       509    8    0    1
 -2       179       180       335      1324      1791      1792
 -1       510    8    0    1
 -2       334       179       335      1788      1792      1793
 -1       511    8    0    1
 -2       180       229       335      1473      1794      1791
 -1       512    8    0    1
 -2       181        23       165      1326      1753      1795
 -1       513    8    0    1
 -2       229       230       336      1476      1796      1797
 -1       514    8    0    1
 -2       229       336       335      1797      1798      1794
 -1       515    8    0    1
 -2       181       165       323      1795      1757      1799
 -1       516    8    0    1
 -2       183       182       337      1333      1800      1801
 -1       517    8    0    1
 -2       184       183       338      1336      1802      1803
 -1       518    8    0    1
 -2       183       337       338      1801      1804      1802
 -1       519    8    0    1
 -2       185       184       339      1339      1805      1806
 -1       520    8    0    1
 -2       184       338       339      1803      1807      1805
 -1       521    8    0    1
 -2       186       185       340      1342      1808      1809
 -1       522    8    0    1
 -2       185       339       340      1806      1810      1808
 -1       523    8    0    1
 -2       187       186       341      1345      1811      1812
 -1       524    8    0    1
 -2       186       340       341      1809      1813      1811
 -1       525    8    0    1
 -2       188       187       342      1348      1814      1815
 -1       526    8    0    1
 -2       187       341       342      1812      1816      1814
 -1       527    8    0    1
 -2       189       188       343      1351      1817      1818
 -1       528    8    0    1
 -2       188       342       343      1815      1819      1817
 -1       529    8    0    1
 -2       190       189       344      1354      1820      1821
 -1       530    8    0    1
 -2       189       343       344      1818      1822      1820
 -1       531    8    0    1
 -2       191       190       345      1357      1823      1824
 -1       532    8    0    1
 -2       190       344       345      1821      1825      1823
 -1       533    8    0    1
 -2       192       191       346      1360      1826      1827
 -1       534    8    0    1
 -2       191       345       346      1824      1828      1826
 -1       535    8    0    1
 -2       193       192       347      1363      1829      1830
 -1       536    8    0    1
 -2       192       346       347      1827      1831      1829
 -1       537    8    0    1
 -2       194       193       348      1366      1832      1833
 -1       538    8    0    1
 -2       193       347       348      1830      1834      1832
 -1       539    8    0    1
 -2       195       194       349      1369      1835      1836
 -1       540    8    0    1
 -2       194       348       349      1833      1837      1835
 -1       541    8    0    1
 -2       196       195       350      1372      1838      1839
 -1       542    8    0    1
 -2       195       349       350      1836      1840      1838
 -1       543    8    0    1
 -2       197       196       351      1375      1841      1842
 -1       544    8    0    1
 -2       196       350       351      1839      1843      1841
 -1       545    8    0    1
 -2       198       197       352      1378      1844      1845
 -1       546    8    0    1
 -2       197       351       352      1842      1846      1844
 -1       547    8    0    1
 -2       199       198       353      1381      1847      1848
 -1       548    8    0    1
 -2       198       352       353      1845      1849      1847
 -1       549    8    0    1
 -2       200       199       354      1384      1850      1851
 -1       550    8    0    1
 -2       199       353       354      1848      1852      1850
 -1       551    8    0    1
 -2       201       200       355      1387      1853      1854
 -1       552    8    0    1
 -2       200       354       355      1851      1855      1853
 -1       553    8    0    1
 -2       202       201       356      1390      1856      1857
 -1       554    8    0    1
 -2       201       355       356      1854      1858      1856
 -1       555    8    0    1
 -2       203       202       357      1393      1859      1860
 -1       556    8    0    1
 -2       202       356       357      1857      1861      1859
 -1       557    8    0    1
 -2       204       203       358      1396      1862      1863
 -1       558    8    0    1
 -2       203       357       358      1860      1864      1862
 -1       559    8    0    1
 -2       205       204       359      1399      1865      1866
 -1       560    8    0    1
 -2       204       358       359      1863      1867      1865
 -1       561    8    0    1
 -2       206       205       360      1402      1868      1869
 -1       562    8    0    1
 -2       205       359       360      1866      1870      1868
 -1       563    8    0    1
 -2       207       206       361      1405      1871      1872
 -1       564    8    0    1
 -2       206       360       361      1869      1873      1871
 -1       565    8    0    1
 -2       208       207       362      1408      1874      1875
 -1       566    8    0    1
 -2       207       361       362      1872      1876      1874
 -1       567    8    0    1
 -2       209       208       363      1411      1877      1878
 -1       568    8    0    1
 -2       208       362       363      1875      1879      1877
 -1       569    8    0    1
 -2       210       209       364      1414      1880      1881
 -1       570    8    0    1
 -2       209       363       364      1878      1882      1880
 -1       571    8    0    1
 -2       211       210       365      1417      1883      1884
 -1       572    8    0    1
 -2       210       364       365      1881      1885      1883
 -1       573    8    0    1
 -2       212       211       366      1420      1886      1887
 -1       574    8    0    1
 -2       211       365       366      1884      1888      1886
 -1       575    8    0    1
 -2       213       212       367      1423      1889      1890
 -1       576    8    0    1
 -2       212       366       367      1887      1891      1889
 -1       577    8    0    1
 -2       214       213       368      1426      1892      1893
 -1       578    8    0    1
 -2       213       367       368      1890      1894      1892
 -1       579    8    0    1
 -2       215       214       369      1429      1895      1896
 -1       580    8    0    1
 -2       214       368       369      1893      1897      1895
 -1       581    8    0    1
 -2       216       215       370      1432      1898      1899
 -1       582    8    0    1
 -2       215       369       370      1896      1900      1898
 -1       583    8    0    1
 -2       217       216       371      1435      1901      1902
 -1       584    8    0    1
 -2       216       370       371      1899      1903      1901
 -1       585    8    0    1
 -2       218       217       372      1438      1904      1905
 -1       586    8    0    1
 -2       217       371       372      1902      1906      1904
 -1       587    8    0    1
 -2       219       218       373      1441      1907      1908
 -1       588    8    0    1
 -2       218       372       373      1905      1909      1907
 -1       589    8    0    1
 -2       220       219       374      1444      1910      1911
 -1       590    8    0    1
 -2       219       373       374      1908      1912      1910
 -1       591    8    0    1
 -2       221       220       375      1447      1913      1914
 -1       592    8    0    1
 -2       220       374       375      1911      1915      1913
 -1       593    8    0    1
 -2       222       221       376      1450      1916      1917
 -1       594    8    0    1
 -2       221       375       376      1914      1918      1916
 -1       595    8    0    1
 -2       223       222       377      1453      1919      1920
 -1       596    8    0    1
 -2       222       376       377      1917      1921      1919
 -1       597    8    0    1
 -2       224       223       378      1456      1922      1923
 -1       598    8    0    1
 -2       223       377       378      1920      1924      1922
 -1       599    8    0    1
 -2       225       224       379      1459      1925      1926
 -1       600    8    0    1
 -2       224       378       379      1923      1927      1925
 -1       601    8    0    1
 -2       226       225       380      1462      1928      1929
 -1       602    8    0    1
 -2       225       379       380      1926      1930      1928
 -1       603    8    0    1
 -2       227       226       381      1465      1931      1932
 -1       604    8    0    1
 -2       226       380       381      1929      1933      1931
 -1       605    8    0    1
 -2       228       227       382      1468      1934      1935
 -1       606    8    0    1
 -2       291       228       382      1660      1935      1936
 -1       607    8    0    1
 -2       227       381       382      1932      1937      1934
 -1       608    8    0    1
 -2       230       231       383      1479      1938      1939
 -1       609    8    0    1
 -2       230       383       336      1939      1940      1796
 -1       610    8    0    1
 -2       231       232       384      1482      1941      1942
 -1       611    8    0    1
 -2       231       384       383      1942      1943      1938
 -1       612    8    0    1
 -2       232       233       385      1485      1944      1945
 -1       613    8    0    1
 -2       232       385       384      1945      1946      1941
 -1       614    8    0    1
 -2       233       234       386      1488      1947      1948
 -1       615    8    0    1
 -2       233       386       385      1948      1949      1944
 -1       616    8    0    1
 -2       234       235       387      1491      1950      1951
 -1       617    8    0    1
 -2       234       387       386      1951      1952      1947
 -1       618    8    0    1
 -2       235       236       388      1494      1953      1954
 -1       619    8    0    1
 -2       235       388       387      1954      1955      1950
 -1       620    8    0    1
 -2       236       237       389      1497      1956      1957
 -1       621    8    0    1
 -2       236       389       388      1957      1958      1953
 -1       622    8    0    1
 -2       237       238       390      1500      1959      1960
 -1       623    8    0    1
 -2       237       390       389      1960      1961      1956
 -1       624    8    0    1
 -2       238       239       391      1503      1962      1963
 -1       625    8    0    1
 -2       238       391       390      1963      1964      1959
 -1       626    8    0    1
 -2       239       240       392      1506      1965      1966
 -1       627    8    0    1
 -2       239       392       391      1966      1967      1962
 -1       628    8    0    1
 -2       240       241       393      1509      1968      1969
 -1       629    8    0    1
 -2       240       393       392      1969      1970      1965
 -1       630    8    0    1
 -2       241       242       394      1512      1971      1972
 -1       631    8    0    1
 -2       241       394       393      1972      1973      1968
 -1       632    8    0    1
 -2       242       243       395      1515      1974      1975
 -1       633    8    0    1
 -2       242       395       394      1975      1976      1971
 -1       634    8    0    1
 -2       243       244       396      1518      1977      1978
 -1       635    8    0    1
 -2       243       396       395      1978      1979      1974
 -1       636    8    0    1
 -2       244       245       397      1521      1980      1981
 -1       637    8    0    1
 -2       244       397       396      1981      1982      1977
 -1       638    8    0    1
 -2       245       246       398      1524      1983      1984
 -1       639    8    0    1
 -2       245       398       397      1984      1985      1980
 -1       640    8    0    1
 -2       246       247       399      1527      1986      1987
 -1       641    8    0    1
 -2       246       399       398      1987      1988      1983
 -1       642    8    0    1
 -2       247       248       400      1530      1989      1990
 -1       643    8    0    1
 -2       247       400       399      1990      1991      1986
 -1       644    8    0    1
 -2       248       249       401      1533      1992      1993
 -1       645    8    0    1
 -2       248       401       400      1993      1994      1989
 -1       646    8    0    1
 -2       249       250       402      1536      1995      1996
 -1       647    8    0    1
 -2       249       402       401      1996      1997      1992
 -1       648    8    0    1
 -2       250       251       403      1539      1998      1999
 -1       649    8    0    1
 -2       250       403       402      1999      2000      1995
 -1       650    8    0    1
 -2       251       252       404      1542      2001      2002
 -1       651    8    0    1
 -2       251       404       403      2002      2003      1998
 -1       652    8    0    1
 -2       252       253       405      1545      2004      2005
 -1       653    8    0    1
 -2       252       405       404      2005      2006      2001
 -1       654    8    0    1
 -2       253       254       406      1548      2007      2008
 -1       655    8    0    1
 -2       253       406       405      2008      2009      2004
 -1       656    8    0    1
 -2       254       255       407      1551      2010      2011
 -1       657    8    0    1
 -2       254       407       406      2011      2012      2007
 -1       658    8    0    1
 -2       255       256       408      1554      2013      2014
 -1       659    8    0    1
 -2       255       408       407      2014      2015      2010
 -1       660    8    0    1
 -2       256       257       409      1557      2016      2017
 -1       661    8    0    1
 -2       256       409       408      2017      2018      2013
 -1       662    8    0    1
 -2       257       258       410      1560      2019      2020
 -1       663    8    0    1
 -2       257       410       409      2020      2021      2016
 -1       664    8    0    1
 -2       258       259       411      1563      2022      2023
 -1       665    8    0    1
 -2       258       411       410      2023      2024      2019
 -1       666    8    0    1
 -2       259       260       412      1566      2025      2026
 -1       667    8    0    1
 -2       259       412       411      2026      2027      2022
 -1       668    8    0    1
 -2       260       261       413      1569      2028      2029
 -1       669    8    0    1
 -2       260       413       412      2029      2030      2025
 -1       670    8    0    1
 -2       261       262       414      1572      2031      2032
 -1       671    8    0    1
 -2       261       414       413      2032      2033      2028
 -1       672    8    0    1
 -2       262       263       415      1575      2034      2035
 -1       673    8    0    1
 -2       262       415       414      2035      2036      2031
 -1       674    8    0    1
 -2       263       264       416      1578      2037      2038
 -1       675    8    0    1
 -2       263       416       415      2038      2039      2034
 -1       676    8    0    1
 -2       264       265       417      1581      2040      2041
 -1       677    8    0    1
 -2       264       417       416      2041      2042      2037
 -1       678    8    0    1
 -2       265       266       418      1584      2043      2044
 -1       679    8    0    1
 -2       265       418       417      2044      2045      2040
 -1       680    8    0    1
 -2       266       267       419      1587      2046      2047
 -1       681    8    0    1
 -2       266       419       418      2047      2048      2043
 -1       682    8    0    1
 -2       267       268       420      1590      2049      2050
 -1       683    8    0    1
 -2       267       420       419      2050      2051      2046
 -1       684    8    0    1
 -2       268       269       421      1593      2052      2053
 -1       685    8    0    1
 -2       268       421       420      2053      2054      2049
 -1       686    8    0    1
 -2       269       270       422      1596      2055      2056
 -1       687    8    0    1
 -2       269       422       421      2056      2057      2052
 -1       688    8    0    1
 -2       270       271       423      1599      2058      2059
 -1       689    8    0    1
 -2       270       423       422      2059      2060      2055
 -1       690    8    0    1
 -2       271       272       424      1602      2061      2062
 -1       691    8    0    1
 -2       271       424       423      2062      2063      2058
 -1       692    8    0    1
 -2       272       273       425      1605      2064      2065
 -1       693    8    0    1
 -2       272       425       424      2065      2066      2061
 -1       694    8    0    1
 -2       273       274       426      1608      2067      2068
 -1       695    8    0    1
 -2       273       426       425      2068      2069      2064
 -1       696    8    0    1
 -2       274       275       427      1611      2070      2071
 -1       697    8    0    1
 -2       274       427       426      2071      2072      2067
 -1       698    8    0    1
 -2       275       276       428      1614      2073      2074
 -1       699    8    0    1
 -2       427       275       428      2070      2074      2075
 -1       700    8    0    1
 -2       276       277       428      1724      2076      2073
 -1       701    8    0    1
 -2       279       280       429      1626      2077      2078
 -1       702    8    0    1
 -2       278       279       430      1623      2079      2080
 -1       703    8    0    1
 -2       279       429       430      2078      2081      2079
 -1       704    8    0    1
 -2       277       278       431      1620      2082      2083
 -1       705    8    0    1
 -2       428       277       431      2076      2083      2084
 -1       706    8    0    1
 -2       278       430       431      2080      2085      2082
 -1       707    8    0    1
 -2       280       281       432      1629      2086      2087
 -1       708    8    0    1
 -2       280       432       429      2087      2088      2077
 -1       709    8    0    1
 -2       281       282       433      1632      2089      2090
 -1       710    8    0    1
 -2       281       433       432      2090      2091      2086
 -1       711    8    0    1
 -2       282       283       434      1635      2092      2093
 -1       712    8    0    1
 -2       282       434       433      2093      2094      2089
 -1       713    8    0    1
 -2       283       284       435      1638      2095      2096
 -1       714    8    0    1
 -2       283       435       434      2096      2097      2092
 -1       715    8    0    1
 -2       284       285       436      1641      2098      2099
 -1       716    8    0    1
 -2       284       436       435      2099      2100      2095
 -1       717    8    0    1
 -2       285       286       437      1644      2101      2102
 -1       718    8    0    1
 -2       285       437       436      2102      2103      2098
 -1       719    8    0    1
 -2       286       287       438      1647      2104      2105
 -1       720    8    0    1
 -2       286       438       437      2105      2106      2101
 -1       721    8    0    1
 -2       287       288       439      1650      2107      2108
 -1       722    8    0    1
 -2       287       439       438      2108      2109      2104
 -1       723    8    0    1
 -2       288       289       440      1653      2110      2111
 -1       724    8    0    1
 -2       288       440       439      2111      2112      2107
 -1       725    8    0    1
 -2       289       290       441      1656      2113      2114
 -1       726    8    0    1
 -2       289       441       440      2114      2115      2110
 -1       727    8    0    1
 -2       293       294       442      1726      2116      2117
 -1       728    8    0    1
 -2       321       292       443      1727      2118      2119
 -1       729    8    0    1
 -2       292       293       444      1725      2120      2121
 -1       730    8    0    1
 -2       293       442       444      2117      2122      2120
 -1       731    8    0    1
 -2       294       295       445      1722      2123      2124
 -1       732    8    0    1
 -2       294       445       442      2124      2125      2116
 -1       733    8    0    1
 -2       295       296       446      1721      2126      2127
 -1       734    8    0    1
 -2       167       168       447      1288      2128      2129
 -1       735    8    0    1
 -2       322       167       447      1754      2129      2130
 -1       736    8    0    1
 -2       168       324       447      1760      2131      2128
 -1       737    8    0    1
 -2       297       298       448      1729      2132      2133
 -1       738    8    0    1
 -2       298       299       449      1730      2134      2135
 -1       739    8    0    1
 -2       299       300       450      1731      2136      2137
 -1       740    8    0    1
 -2       299       450       449      2137      2138      2134
 -1       741    8    0    1
 -2       300       301       451      1732      2139      2140
 -1       742    8    0    1
 -2       301       302       452      1733      2141      2142
 -1       743    8    0    1
 -2       302       303       453      1734      2143      2144
 -1       744    8    0    1
 -2       303       304       454      1735      2145      2146
 -1       745    8    0    1
 -2       304       305       455      1736      2147      2148
 -1       746    8    0    1
 -2       305       306       456      1737      2149      2150
 -1       747    8    0    1
 -2       306       307       457      1738      2151      2152
 -1       748    8    0    1
 -2       307       308       458      1739      2153      2154
 -1       749    8    0    1
 -2       307       458       457      2154      2155      2151
 -1       750    8    0    1
 -2       308       309       459      1740      2156      2157
 -1       751    8    0    1
 -2       309       310       460      1741      2158      2159
 -1       752    8    0    1
 -2       309       460       459      2159      2160      2156
 -1       753    8    0    1
 -2       310       311       461      1742      2161      2162
 -1       754    8    0    1
 -2       311       312       462      1743      2163      2164
 -1       755    8    0    1
 -2       311       462       461      2164      2165      2161
 -1       756    8    0    1
 -2       312       313       463      1744      2166      2167
 -1       757    8    0    1
 -2       313       314       464      1745      2168      2169
 -1       758    8    0    1
 -2       314       315       465      1746      2170      2171
 -1       759    8    0    1
 -2       314       465       464      2171      2172      2168
 -1       760    8    0    1
 -2       315       316       466      1747      2173      2174
 -1       761    8    0    1
 -2       316       317       467      1748      2175      2176
 -1       762    8    0    1
 -2       316       467       466      2176      2177      2173
 -1       763    8    0    1
 -2       317       318       468      1749      2178      2179
 -1       764    8    0    1
 -2       318       319       469      1750      2180      2181
 -1       765    8    0    1
 -2       319       320       470      1751      2182      2183
 -1       766    8    0    1
 -2       320       321       471      1752      2184      2185
 -1       767    8    0    1
 -2       321       443       471      2119      2186      2184
 -1       768    8    0    1
 -2       296       297       472      1728      2187      2188
 -1       769    8    0    1
 -2       446       296       472      2126      2188      2189
 -1       770    8    0    1
 -2       297       448       472      2133      2190      2187
 -1       771    8    0    1
 -2       181       323       182      1799      2191      1330
 -1       772    8    0    1
 -2       450       300       451      2136      2140      2192
 -1       773    8    0    1
 -2       182       323       337      2191      2193      1800
 -1       774    8    0    1
 -2       443       292       473      2118      2194      2195
 -1       775    8    0    1
 -2       292       444       473      2121      2196      2194
 -1       776    8    0    1
 -2       441       290       291      2113      1659      2197
 -1       777    8    0    1
 -2       295       446       445      2127      2198      2123
 -1       778    8    0    1
 -2       470       320       471      2182      2185      2199
 -1       779    8    0    1
 -2       469       319       470      2180      2183      2200
 -1       780    8    0    1
 -2       467       317       468      2175      2179      2201
 -1       781    8    0    1
 -2       465       315       466      2170      2174      2202
 -1       782    8    0    1
 -2       462       312       463      2163      2167      2203
 -1       783    8    0    1
 -2       460       310       461      2158      2162      2204
 -1       784    8    0    1
 -2       458       308       474      2153      2205      2206
 -1       785    8    0    1
 -2       308       459       474      2157      2207      2205
 -1       786    8    0    1
 -2       456       306       457      2149      2152      2208
 -1       787    8    0    1
 -2       455       305       456      2147      2150      2209
 -1       788    8    0    1
 -2       454       304       455      2145      2148      2210
 -1       789    8    0    1
 -2       453       303       454      2143      2146      2211
 -1       790    8    0    1
 -2       452       302       453      2141      2144      2212
 -1       791    8    0    1
 -2       448       298       449      2132      2135      2213
 -1       792    8    0    1
 -2       451       301       452      2139      2142      2214
 -1       793    8    0    1
 -2       463       313       464      2166      2169      2215
 -1       794    8    0    1
 -2       468       318       469      2178      2181      2216
 -1       795    8    0    1
 -2       336       383       475      1940      2217      2218
 -1       796    8    0    1
 -2       325       326       476      1766      2219      2220
 -1       797    8    0    1
 -2       324       325       477      1763      2221      2222
 -1       798    8    0    1
 -2       325       476       477      2220      2223      2221
 -1       799    8    0    1
 -2       327       328       478      1772      2224      2225
 -1       800    8    0    1
 -2       328       329       479      1775      2226      2227
 -1       801    8    0    1
 -2       328       479       478      2227      2228      2224
 -1       802    8    0    1
 -2       329       330       480      1778      2229      2230
 -1       803    8    0    1
 -2       329       480       479      2230      2231      2226
 -1       804    8    0    1
 -2       330       331       481      1781      2232      2233
 -1       805    8    0    1
 -2       330       481       480      2233      2234      2229
 -1       806    8    0    1
 -2       331       332       482      1784      2235      2236
 -1       807    8    0    1
 -2       331       482       481      2236      2237      2232
 -1       808    8    0    1
 -2       332       333       483      1787      2238      2239
 -1       809    8    0    1
 -2       332       483       482      2239      2240      2235
 -1       810    8    0    1
 -2       383       384       484      1943      2241      2242
 -1       811    8    0    1
 -2       383       484       475      2242      2243      2217
 -1       812    8    0    1
 -2       338       337       485      1804      2244      2245
 -1       813    8    0    1
 -2       450       451       486      2192      2246      2247
 -1       814    8    0    1
 -2       339       338       487      1807      2248      2249
 -1       815    8    0    1
 -2       338       485       487      2245      2250      2248
 -1       816    8    0    1
 -2       340       339       488      1810      2251      2252
 -1       817    8    0    1
 -2       339       487       488      2249      2253      2251
 -1       818    8    0    1
 -2       341       340       489      1813      2254      2255
 -1       819    8    0    1
 -2       340       488       489      2252      2256      2254
 -1       820    8    0    1
 -2       342       341       490      1816      2257      2258
 -1       821    8    0    1
 -2       341       489       490      2255      2259      2257
 -1       822    8    0    1
 -2       343       342       491      1819      2260      2261
 -1       823    8    0    1
 -2       342       490       491      2258      2262      2260
 -1       824    8    0    1
 -2       344       343       492      1822      2263      2264
 -1       825    8    0    1
 -2       343       491       492      2261      2265      2263
 -1       826    8    0    1
 -2       345       344       493      1825      2266      2267
 -1       827    8    0    1
 -2       344       492       493      2264      2268      2266
 -1       828    8    0    1
 -2       346       345       494      1828      2269      2270
 -1       829    8    0    1
 -2       345       493       494      2267      2271      2269
 -1       830    8    0    1
 -2       347       346       495      1831      2272      2273
 -1       831    8    0    1
 -2       346       494       495      2270      2274      2272
 -1       832    8    0    1
 -2       348       347       496      1834      2275      2276
 -1       833    8    0    1
 -2       347       495       496      2273      2277      2275
 -1       834    8    0    1
 -2       349       348       497      1837      2278      2279
 -1       835    8    0    1
 -2       348       496       497      2276      2280      2278
 -1       836    8    0    1
 -2       350       349       498      1840      2281      2282
 -1       837    8    0    1
 -2       349       497       498      2279      2283      2281
 -1       838    8    0    1
 -2       351       350       499      1843      2284      2285
 -1       839    8    0    1
 -2       350       498       499      2282      2286      2284
 -1       840    8    0    1
 -2       352       351       500      1846      2287      2288
 -1       841    8    0    1
 -2       351       499       500      2285      2289      2287
 -1       842    8    0    1
 -2       353       352       501      1849      2290      2291
 -1       843    8    0    1
 -2       352       500       501      2288      2292      2290
 -1       844    8    0    1
 -2       354       353       502      1852      2293      2294
 -1       845    8    0    1
 -2       353       501       502      2291      2295      2293
 -1       846    8    0    1
 -2       355       354       503      1855      2296      2297
 -1       847    8    0    1
 -2       354       502       503      2294      2298      2296
 -1       848    8    0    1
 -2       356       355       504      1858      2299      2300
 -1       849    8    0    1
 -2       355       503       504      2297      2301      2299
 -1       850    8    0    1
 -2       357       356       505      1861      2302      2303
 -1       851    8    0    1
 -2       356       504       505      2300      2304      2302
 -1       852    8    0    1
 -2       358       357       506      1864      2305      2306
 -1       853    8    0    1
 -2       357       505       506      2303      2307      2305
 -1       854    8    0    1
 -2       359       358       507      1867      2308      2309
 -1       855    8    0    1
 -2       358       506       507      2306      2310      2308
 -1       856    8    0    1
 -2       360       359       508      1870      2311      2312
 -1       857    8    0    1
 -2       359       507       508      2309      2313      2311
 -1       858    8    0    1
 -2       361       360       509      1873      2314      2315
 -1       859    8    0    1
 -2       360       508       509      2312      2316      2314
 -1       860    8    0    1
 -2       362       361       510      1876      2317      2318
 -1       861    8    0    1
 -2       361       509       510      2315      2319      2317
 -1       862    8    0    1
 -2       363       362       511      1879      2320      2321
 -1       863    8    0    1
 -2       362       510       511      2318      2322      2320
 -1       864    8    0    1
 -2       364       363       512      1882      2323      2324
 -1       865    8    0    1
 -2       363       511       512      2321      2325      2323
 -1       866    8    0    1
 -2       365       364       513      1885      2326      2327
 -1       867    8    0    1
 -2       364       512       513      2324      2328      2326
 -1       868    8    0    1
 -2       366       365       514      1888      2329      2330
 -1       869    8    0    1
 -2       365       513       514      2327      2331      2329
 -1       870    8    0    1
 -2       367       366       515      1891      2332      2333
 -1       871    8    0    1
 -2       366       514       515      2330      2334      2332
 -1       872    8    0    1
 -2       368       367       516      1894      2335      2336
 -1       873    8    0    1
 -2       367       515       516      2333      2337      2335
 -1       874    8    0    1
 -2       369       368       517      1897      2338      2339
 -1       875    8    0    1
 -2       368       516       517      2336      2340      2338
 -1       876    8    0    1
 -2       370       369       518      1900      2341      2342
 -1       877    8    0    1
 -2       369       517       518      2339      2343      2341
 -1       878    8    0    1
 -2       371       370       519      1903      2344      2345
 -1       879    8    0    1
 -2       370       518       519      2342      2346      2344
 -1       880    8    0    1
 -2       372       371       520      1906      2347      2348
 -1       881    8    0    1
 -2       371       519       520      2345      2349      2347
 -1       882    8    0    1
 -2       373       372       521      1909      2350      2351
 -1       883    8    0    1
 -2       372       520       521      2348      2352      2350
 -1       884    8    0    1
 -2       374       373       522      1912      2353      2354
 -1       885    8    0    1
 -2       373       521       522      2351      2355      2353
 -1       886    8    0    1
 -2       375       374       523      1915      2356      2357
 -1       887    8    0    1
 -2       374       522       523      2354      2358      2356
 -1       888    8    0    1
 -2       376       375       524      1918      2359      2360
 -1       889    8    0    1
 -2       375       523       524      2357      2361      2359
 -1       890    8    0    1
 -2       377       376       525      1921      2362      2363
 -1       891    8    0    1
 -2       376       524       525      2360      2364      2362
 -1       892    8    0    1
 -2       378       377       526      1924      2365      2366
 -1       893    8    0    1
 -2       377       525       526      2363      2367      2365
 -1       894    8    0    1
 -2       379       378       527      1927      2368      2369
 -1       895    8    0    1
 -2       378       526       527      2366      2370      2368
 -1       896    8    0    1
 -2       380       379       528      1930      2371      2372
 -1       897    8    0    1
 -2       379       527       528      2369      2373      2371
 -1       898    8    0    1
 -2       381       380       529      1933      2374      2375
 -1       899    8    0    1
 -2       380       528       529      2372      2376      2374
 -1       900    8    0    1
 -2       444       442       530      2122      2377      2378
 -1       901    8    0    1
 -2       385       386       531      1949      2379      2380
 -1       902    8    0    1
 -2       386       387       532      1952      2381      2382
 -1       903    8    0    1
 -2       386       532       531      2382      2383      2379
 -1       904    8    0    1
 -2       387       388       533      1955      2384      2385
 -1       905    8    0    1
 -2       387       533       532      2385      2386      2381
 -1       906    8    0    1
 -2       388       389       534      1958      2387      2388
 -1       907    8    0    1
 -2       388       534       533      2388      2389      2384
 -1       908    8    0    1
 -2       389       390       535      1961      2390      2391
 -1       909    8    0    1
 -2       389       535       534      2391      2392      2387
 -1       910    8    0    1
 -2       390       391       536      1964      2393      2394
 -1       911    8    0    1
 -2       390       536       535      2394      2395      2390
 -1       912    8    0    1
 -2       391       392       537      1967      2396      2397
 -1       913    8    0    1
 -2       391       537       536      2397      2398      2393
 -1       914    8    0    1
 -2       392       393       538      1970      2399      2400
 -1       915    8    0    1
 -2       392       538       537      2400      2401      2396
 -1       916    8    0    1
 -2       393       394       539      1973      2402      2403
 -1       917    8    0    1
 -2       393       539       538      2403      2404      2399
 -1       918    8    0    1
 -2       394       395       540      1976      2405      2406
 -1       919    8    0    1
 -2       394       540       539      2406      2407      2402
 -1       920    8    0    1
 -2       395       396       541      1979      2408      2409
 -1       921    8    0    1
 -2       395       541       540      2409      2410      2405
 -1       922    8    0    1
 -2       396       397       542      1982      2411      2412
 -1       923    8    0    1
 -2       396       542       541      2412      2413      2408
 -1       924    8    0    1
 -2       397       398       543      1985      2414      2415
 -1       925    8    0    1
 -2       397       543       542      2415      2416      2411
 -1       926    8    0    1
 -2       398       399       544      1988      2417      2418
 -1       927    8    0    1
 -2       398       544       543      2418      2419      2414
 -1       928    8    0    1
 -2       399       400       545      1991      2420      2421
 -1       929    8    0    1
 -2       399       545       544      2421      2422      2417
 -1       930    8    0    1
 -2       400       401       546      1994      2423      2424
 -1       931    8    0    1
 -2       400       546       545      2424      2425      2420
 -1       932    8    0    1
 -2       401       402       547      1997      2426      2427
 -1       933    8    0    1
 -2       401       547       546      2427      2428      2423
 -1       934    8    0    1
 -2       402       403       548      2000      2429      2430
 -1       935    8    0    1
 -2       402       548       547      2430      2431      2426
 -1       936    8    0    1
 -2       403       404       549      2003      2432      2433
 -1       937    8    0    1
 -2       403       549       548      2433      2434      2429
 -1       938    8    0    1
 -2       404       405       550      2006      2435      2436
 -1       939    8    0    1
 -2       404       550       549      2436      2437      2432
 -1       940    8    0    1
 -2       405       406       551      2009      2438      2439
 -1       941    8    0    1
 -2       405       551       550      2439      2440      2435
 -1       942    8    0    1
 -2       406       407       552      2012      2441      2442
 -1       943    8    0    1
 -2       406       552       551      2442      2443      2438
 -1       944    8    0    1
 -2       407       408       553      2015      2444      2445
 -1       945    8    0    1
 -2       407       553       552      2445      2446      2441
 -1       946    8    0    1
 -2       408       409       554      2018      2447      2448
 -1       947    8    0    1
 -2       408       554       553      2448      2449      2444
 -1       948    8    0    1
 -2       409       410       555      2021      2450      2451
 -1       949    8    0    1
 -2       409       555       554      2451      2452      2447
 -1       950    8    0    1
 -2       410       411       556      2024      2453      2454
 -1       951    8    0    1
 -2       410       556       555      2454      2455      2450
 -1       952    8    0    1
 -2       411       412       557      2027      2456      2457
 -1       953    8    0    1
 -2       411       557       556      2457      2458      2453
 -1       954    8    0    1
 -2       412       413       558      2030      2459      2460
 -1       955    8    0    1
 -2       412       558       557      2460      2461      2456
 -1       956    8    0    1
 -2       413       414       559      2033      2462      2463
 -1       957    8    0    1
 -2       413       559       558      2463      2464      2459
 -1       958    8    0    1
 -2       414       415       560      2036      2465      2466
 -1       959    8    0    1
 -2       414       560       559      2466      2467      2462
 -1       960    8    0    1
 -2       415       416       561      2039      2468      2469
 -1       961    8    0    1
 -2       415       561       560      2469      2470      2465
 -1       962    8    0    1
 -2       416       417       562      2042      2471      2472
 -1       963    8    0    1
 -2       416       562       561      2472      2473      2468
 -1       964    8    0    1
 -2       417       418       563      2045      2474      2475
 -1       965    8    0    1
 -2       417       563       562      2475      2476      2471
 -1       966    8    0    1
 -2       418       419       564      2048      2477      2478
 -1       967    8    0    1
 -2       418       564       563      2478      2479      2474
 -1       968    8    0    1
 -2       419       420       565      2051      2480      2481
 -1       969    8    0    1
 -2       419       565       564      2481      2482      2477
 -1       970    8    0    1
 -2       420       421       566      2054      2483      2484
 -1       971    8    0    1
 -2       420       566       565      2484      2485      2480
 -1       972    8    0    1
 -2       421       422       567      2057      2486      2487
 -1       973    8    0    1
 -2       421       567       566      2487      2488      2483
 -1       974    8    0    1
 -2       422       423       568      2060      2489      2490
 -1       975    8    0    1
 -2       422       568       567      2490      2491      2486
 -1       976    8    0    1
 -2       423       424       569      2063      2492      2493
 -1       977    8    0    1
 -2       423       569       568      2493      2494      2489
 -1       978    8    0    1
 -2       424       425       570      2066      2495      2496
 -1       979    8    0    1
 -2       424       570       569      2496      2497      2492
 -1       980    8    0    1
 -2       425       426       571      2069      2498      2499
 -1       981    8    0    1
 -2       425       571       570      2499      2500      2495
 -1       982    8    0    1
 -2       426       427       572      2072      2501      2502
 -1       983    8    0    1
 -2       426       572       571      2502      2503      2498
 -1       984    8    0    1
 -2       427       428       431      2075      2084      2504
 -1       985    8    0    1
 -2       432       433       573      2091      2505      2506
 -1       986    8    0    1
 -2       433       434       574      2094      2507      2508
 -1       987    8    0    1
 -2       433       574       573      2508      2509      2505
 -1       988    8    0    1
 -2       430       429       575      2081      2510      2511
 -1       989    8    0    1
 -2       429       432       576      2088      2512      2513
 -1       990    8    0    1
 -2       575       429       576      2510      2513      2514
 -1       991    8    0    1
 -2       432       573       576      2506      2515      2512
 -1       992    8    0    1
 -2       434       435       577      2097      2516      2517
 -1       993    8    0    1
 -2       434       577       574      2517      2518      2507
 -1       994    8    0    1
 -2       435       436       578      2100      2519      2520
 -1       995    8    0    1
 -2       435       578       577      2520      2521      2516
 -1       996    8    0    1
 -2       436       437       579      2103      2522      2523
 -1       997    8    0    1
 -2       436       579       578      2523      2524      2519
 -1       998    8    0    1
 -2       437       438       580      2106      2525      2526
 -1       999    8    0    1
 -2       437       580       579      2526      2527      2522
 -1      1000    8    0    1
 -2       438       439       581      2109      2528      2529
 -1      1001    8    0    1
 -2       438       581       580      2529      2530      2525
 -1      1002    8    0    1
 -2       439       440       582      2112      2531      2532
 -1      1003    8    0    1
 -2       439       582       581      2532      2533      2528
 -1      1004    8    0    1
 -2       440       441       583      2115      2534      2535
 -1      1005    8    0    1
 -2       440       583       582      2535      2536      2531
 -1      1006    8    0    1
 -2       442       445       584      2125      2537      2538
 -1      1007    8    0    1
 -2       445       446       585      2198      2539      2540
 -1      1008    8    0    1
 -2       384       385       586      1946      2541      2542
 -1      1009    8    0    1
 -2       385       531       586      2380      2543      2541
 -1      1010    8    0    1
 -2       441       291       382      2197      1936      2544
 -1      1011    8    0    1
 -2       470       471       587      2199      2545      2546
 -1      1012    8    0    1
 -2       471       443       588      2186      2547      2548
 -1      1013    8    0    1
 -2       471       588       587      2548      2549      2545
 -1      1014    8    0    1
 -2       462       463       589      2203      2550      2551
 -1      1015    8    0    1
 -2       456       457       590      2208      2552      2553
 -1      1016    8    0    1
 -2       326       327       591      1769      2554      2555
 -1      1017    8    0    1
 -2       326       591       476      2555      2556      2219
 -1      1018    8    0    1
 -2       337       323       592      2193      2557      2558
 -1      1019    8    0    1
 -2       485       337       592      2244      2558      2559
 -1      1020    8    0    1
 -2       323       322       592      1758      2560      2557
 -1      1021    8    0    1
 -2       451       452       593      2214      2561      2562
 -1      1022    8    0    1
 -2       449       450       594      2138      2563      2564
 -1      1023    8    0    1
 -2       450       486       594      2247      2565      2563
 -1      1024    8    0    1
 -2       463       464       595      2215      2566      2567
 -1      1025    8    0    1
 -2       448       449       596      2213      2568      2569
 -1      1026    8    0    1
 -2       452       453       597      2212      2570      2571
 -1      1027    8    0    1
 -2       453       454       598      2211      2572      2573
 -1      1028    8    0    1
 -2       453       598       597      2573      2574      2570
 -1      1029    8    0    1
 -2       454       455       599      2210      2575      2576
 -1      1030    8    0    1
 -2       455       456       600      2209      2577      2578
 -1      1031    8    0    1
 -2       457       458       601      2155      2579      2580
 -1      1032    8    0    1
 -2       457       601       590      2580      2581      2552
 -1      1033    8    0    1
 -2       459       460       602      2160      2582      2583
 -1      1034    8    0    1
 -2       460       461       603      2204      2584      2585
 -1      1035    8    0    1
 -2       460       603       602      2585      2586      2582
 -1      1036    8    0    1
 -2       461       462       604      2165      2587      2588
 -1      1037    8    0    1
 -2       468       469       605      2216      2589      2590
 -1      1038    8    0    1
 -2       464       465       606      2172      2591      2592
 -1      1039    8    0    1
 -2       464       606       595      2592      2593      2566
 -1      1040    8    0    1
 -2       465       466       607      2202      2594      2595
 -1      1041    8    0    1
 -2       465       607       606      2595      2596      2591
 -1      1042    8    0    1
 -2       466       467       608      2177      2597      2598
 -1      1043    8    0    1
 -2       467       468       609      2201      2599      2600
 -1      1044    8    0    1
 -2       467       609       608      2600      2601      2597
 -1      1045    8    0    1
 -2       469       470       610      2200      2602      2603
 -1      1046    8    0    1
 -2       335       336       611      1798      2604      2605
 -1      1047    8    0    1
 -2       334       335       611      1793      2605      2606
 -1      1048    8    0    1
 -2       336       475       611      2218      2607      2604
 -1      1049    8    0    1
 -2       327       478       591      2225      2608      2554
 -1      1050    8    0    1
 -2       324       477       612      2222      2609      2610
 -1      1051    8    0    1
 -2       324       612       447      2610      2611      2131
 -1      1052    8    0    1
 -2       484       384       586      2241      2542      2612
 -1      1053    8    0    1
 -2       333       334       611      1790      2606      2613
 -1      1054    8    0    1
 -2       466       608       607      2598      2614      2594
 -1      1055    8    0    1
 -2       605       469       610      2589      2603      2615
 -1      1056    8    0    1
 -2       593       452       597      2561      2571      2616
 -1      1057    8    0    1
 -2       463       595       589      2567      2617      2550
 -1      1058    8    0    1
 -2       473       444       530      2196      2378      2618
 -1      1059    8    0    1
 -2       443       473       613      2195      2619      2620
 -1      1060    8    0    1
 -2       443       613       588      2620      2621      2547
 -1      1061    8    0    1
 -2       470       587       610      2546      2622      2602
 -1      1062    8    0    1
 -2       530       442       584      2377      2538      2623
 -1      1063    8    0    1
 -2       441       382       614      2544      2624      2625
 -1      1064    8    0    1
 -2       583       441       614      2534      2625      2626
 -1      1065    8    0    1
 -2       382       381       614      1937      2627      2624
 -1      1066    8    0    1
 -2       427       431       572      2504      2628      2501
 -1      1067    8    0    1
 -2       585       446       615      2539      2629      2630
 -1      1068    8    0    1
 -2       431       430       572      2085      2631      2628
 -1      1069    8    0    1
 -2       603       461       604      2584      2588      2632
 -1      1070    8    0    1
 -2       584       445       585      2537      2540      2633
 -1      1071    8    0    1
 -2       601       458       616      2579      2634      2635
 -1      1072    8    0    1
 -2       458       474       616      2206      2636      2634
 -1      1073    8    0    1
 -2       600       456       617      2577      2637      2638
 -1      1074    8    0    1
 -2       456       590       617      2553      2639      2637
 -1      1075    8    0    1
 -2       333       611       483      2613      2640      2238
 -1      1076    8    0    1
 -2       446       472       618      2189      2641      2642
 -1      1077    8    0    1
 -2       446       618       615      2642      2643      2629
 -1      1078    8    0    1
 -2       462       589       604      2551      2644      2587
 -1      1079    8    0    1
 -2       609       468       605      2599      2590      2645
 -1      1080    8    0    1
 -2       598       454       599      2572      2576      2646
 -1      1081    8    0    1
 -2       596       449       619      2568      2647      2648
 -1      1082    8    0    1
 -2       449       594       619      2564      2649      2647
 -1      1083    8    0    1
 -2       459       602       620      2583      2650      2651
 -1      1084    8    0    1
 -2       459       620       474      2651      2652      2207
 -1      1085    8    0    1
 -2       486       451       593      2246      2562      2653
 -1      1086    8    0    1
 -2       592       322       447      2560      2130      2654
 -1      1087    8    0    1
 -2       448       596       621      2569      2655      2656
 -1      1088    8    0    1
 -2       599       455       600      2575      2578      2657
 -1      1089    8    0    1
 -2       472       448       621      2190      2656      2658
 -1      1090    8    0    1
 -2       614       381       529      2627      2375      2659
 -1      1091    8    0    1
 -2       572       430       575      2631      2511      2660
 -1      1092    8    0    1
 -2       479       480       622      2231      2661      2662
 -1      1093    8    0    1
 -2       478       479       623      2228      2663      2664
 -1      1094    8    0    1
 -2       479       622       623      2662      2665      2663
 -1      1095    8    0    1
 -2       481       482       624      2237      2666      2667
 -1      1096    8    0    1
 -2       482       483       625      2240      2668      2669
 -1      1097    8    0    1
 -2       482       625       624      2669      2670      2666
 -1      1098    8    0    1
 -2       475       484       626      2243      2671      2672
 -1      1099    8    0    1
 -2       484       586       627      2612      2673      2674
 -1      1100    8    0    1
 -2       484       627       626      2674      2675      2671
 -1      1101    8    0    1
 -2       572       575       628      2660      2676      2677
 -1      1102    8    0    1
 -2       572       628       571      2677      2678      2503
 -1      1103    8    0    1
 -2       488       487       629      2253      2679      2680
 -1      1104    8    0    1
 -2       489       488       630      2256      2681      2682
 -1      1105    8    0    1
 -2       488       629       630      2680      2683      2681
 -1      1106    8    0    1
 -2       490       489       631      2259      2684      2685
 -1      1107    8    0    1
 -2       489       630       631      2682      2686      2684
 -1      1108    8    0    1
 -2       491       490       632      2262      2687      2688
 -1      1109    8    0    1
 -2       490       631       632      2685      2689      2687
 -1      1110    8    0    1
 -2       492       491       633      2265      2690      2691
 -1      1111    8    0    1
 -2       491       632       633      2688      2692      2690
 -1      1112    8    0    1
 -2       493       492       634      2268      2693      2694
 -1      1113    8    0    1
 -2       492       633       634      2691      2695      2693
 -1      1114    8    0    1
 -2       494       493       635      2271      2696      2697
 -1      1115    8    0    1
 -2       493       634       635      2694      2698      2696
 -1      1116    8    0    1
 -2       495       494       636      2274      2699      2700
 -1      1117    8    0    1
 -2       494       635       636      2697      2701      2699
 -1      1118    8    0    1
 -2       496       495       637      2277      2702      2703
 -1      1119    8    0    1
 -2       495       636       637      2700      2704      2702
 -1      1120    8    0    1
 -2       497       496       638      2280      2705      2706
 -1      1121    8    0    1
 -2       496       637       638      2703      2707      2705
 -1      1122    8    0    1
 -2       498       497       639      2283      2708      2709
 -1      1123    8    0    1
 -2       497       638       639      2706      2710      2708
 -1      1124    8    0    1
 -2       499       498       640      2286      2711      2712
 -1      1125    8    0    1
 -2       498       639       640      2709      2713      2711
 -1      1126    8    0    1
 -2       500       499       641      2289      2714      2715
 -1      1127    8    0    1
 -2       499       640       641      2712      2716      2714
 -1      1128    8    0    1
 -2       501       500       642      2292      2717      2718
 -1      1129    8    0    1
 -2       500       641       642      2715      2719      2717
 -1      1130    8    0    1
 -2       502       501       643      2295      2720      2721
 -1      1131    8    0    1
 -2       501       642       643      2718      2722      2720
 -1      1132    8    0    1
 -2       503       502       644      2298      2723      2724
 -1      1133    8    0    1
 -2       502       643       644      2721      2725      2723
 -1      1134    8    0    1
 -2       504       503       645      2301      2726      2727
 -1      1135    8    0    1
 -2       503       644       645      2724      2728      2726
 -1      1136    8    0    1
 -2       505       504       646      2304      2729      2730
 -1      1137    8    0    1
 -2       504       645       646      2727      2731      2729
 -1      1138    8    0    1
 -2       506       505       647      2307      2732      2733
 -1      1139    8    0    1
 -2       505       646       647      2730      2734      2732
 -1      1140    8    0    1
 -2       507       506       648      2310      2735      2736
 -1      1141    8    0    1
 -2       506       647       648      2733      2737      2735
 -1      1142    8    0    1
 -2       508       507       649      2313      2738      2739
 -1      1143    8    0    1
 -2       507       648       649      2736      2740      2738
 -1      1144    8    0    1
 -2       509       508       650      2316      2741      2742
 -1      1145    8    0    1
 -2       508       649       650      2739      2743      2741
 -1      1146    8    0    1
 -2       510       509       651      2319      2744      2745
 -1      1147    8    0    1
 -2       509       650       651      2742      2746      2744
 -1      1148    8    0    1
 -2       511       510       652      2322      2747      2748
 -1      1149    8    0    1
 -2       510       651       652      2745      2749      2747
 -1      1150    8    0    1
 -2       512       511       653      2325      2750      2751
 -1      1151    8    0    1
 -2       511       652       653      2748      2752      2750
 -1      1152    8    0    1
 -2       513       512       654      2328      2753      2754
 -1      1153    8    0    1
 -2       512       653       654      2751      2755      2753
 -1      1154    8    0    1
 -2       514       513       655      2331      2756      2757
 -1      1155    8    0    1
 -2       513       654       655      2754      2758      2756
 -1      1156    8    0    1
 -2       515       514       656      2334      2759      2760
 -1      1157    8    0    1
 -2       514       655       656      2757      2761      2759
 -1      1158    8    0    1
 -2       516       515       657      2337      2762      2763
 -1      1159    8    0    1
 -2       515       656       657      2760      2764      2762
 -1      1160    8    0    1
 -2       517       516       658      2340      2765      2766
 -1      1161    8    0    1
 -2       516       657       658      2763      2767      2765
 -1      1162    8    0    1
 -2       518       517       659      2343      2768      2769
 -1      1163    8    0    1
 -2       517       658       659      2766      2770      2768
 -1      1164    8    0    1
 -2       519       518       660      2346      2771      2772
 -1      1165    8    0    1
 -2       518       659       660      2769      2773      2771
 -1      1166    8    0    1
 -2       520       519       661      2349      2774      2775
 -1      1167    8    0    1
 -2       519       660       661      2772      2776      2774
 -1      1168    8    0    1
 -2       521       520       662      2352      2777      2778
 -1      1169    8    0    1
 -2       520       661       662      2775      2779      2777
 -1      1170    8    0    1
 -2       522       521       663      2355      2780      2781
 -1      1171    8    0    1
 -2       521       662       663      2778      2782      2780
 -1      1172    8    0    1
 -2       523       522       664      2358      2783      2784
 -1      1173    8    0    1
 -2       522       663       664      2781      2785      2783
 -1      1174    8    0    1
 -2       524       523       665      2361      2786      2787
 -1      1175    8    0    1
 -2       523       664       665      2784      2788      2786
 -1      1176    8    0    1
 -2       525       524       666      2364      2789      2790
 -1      1177    8    0    1
 -2       524       665       666      2787      2791      2789
 -1      1178    8    0    1
 -2       526       525       667      2367      2792      2793
 -1      1179    8    0    1
 -2       525       666       667      2790      2794      2792
 -1      1180    8    0    1
 -2       527       526       668      2370      2795      2796
 -1      1181    8    0    1
 -2       526       667       668      2793      2797      2795
 -1      1182    8    0    1
 -2       528       527       669      2373      2798      2799
 -1      1183    8    0    1
 -2       527       668       669      2796      2800      2798
 -1      1184    8    0    1
 -2       529       528       670      2376      2801      2802
 -1      1185    8    0    1
 -2       528       669       670      2799      2803      2801
 -1      1186    8    0    1
 -2       603       604       671      2632      2804      2805
 -1      1187    8    0    1
 -2       531       532       672      2383      2806      2807
 -1      1188    8    0    1
 -2       534       535       673      2392      2808      2809
 -1      1189    8    0    1
 -2       535       536       674      2395      2810      2811
 -1      1190    8    0    1
 -2       535       674       673      2811      2812      2808
 -1      1191    8    0    1
 -2       536       537       675      2398      2813      2814
 -1      1192    8    0    1
 -2       536       675       674      2814      2815      2810
 -1      1193    8    0    1
 -2       537       538       676      2401      2816      2817
 -1      1194    8    0    1
 -2       537       676       675      2817      2818      2813
 -1      1195    8    0    1
 -2       538       539       677      2404      2819      2820
 -1      1196    8    0    1
 -2       538       677       676      2820      2821      2816
 -1      1197    8    0    1
 -2       539       540       678      2407      2822      2823
 -1      1198    8    0    1
 -2       539       678       677      2823      2824      2819
 -1      1199    8    0    1
 -2       540       541       679      2410      2825      2826
 -1      1200    8    0    1
 -2       540       679       678      2826      2827      2822
 -1      1201    8    0    1
 -2       541       542       680      2413      2828      2829
 -1      1202    8    0    1
 -2       541       680       679      2829      2830      2825
 -1      1203    8    0    1
 -2       542       543       681      2416      2831      2832
 -1      1204    8    0    1
 -2       542       681       680      2832      2833      2828
 -1      1205    8    0    1
 -2       543       544       682      2419      2834      2835
 -1      1206    8    0    1
 -2       543       682       681      2835      2836      2831
 -1      1207    8    0    1
 -2       544       545       683      2422      2837      2838
 -1      1208    8    0    1
 -2       544       683       682      2838      2839      2834
 -1      1209    8    0    1
 -2       545       546       684      2425      2840      2841
 -1      1210    8    0    1
 -2       545       684       683      2841      2842      2837
 -1      1211    8    0    1
 -2       546       547       685      2428      2843      2844
 -1      1212    8    0    1
 -2       546       685       684      2844      2845      2840
 -1      1213    8    0    1
 -2       547       548       686      2431      2846      2847
 -1      1214    8    0    1
 -2       547       686       685      2847      2848      2843
 -1      1215    8    0    1
 -2       548       549       687      2434      2849      2850
 -1      1216    8    0    1
 -2       548       687       686      2850      2851      2846
 -1      1217    8    0    1
 -2       549       550       688      2437      2852      2853
 -1      1218    8    0    1
 -2       549       688       687      2853      2854      2849
 -1      1219    8    0    1
 -2       550       551       689      2440      2855      2856
 -1      1220    8    0    1
 -2       550       689       688      2856      2857      2852
 -1      1221    8    0    1
 -2       551       552       690      2443      2858      2859
 -1      1222    8    0    1
 -2       551       690       689      2859      2860      2855
 -1      1223    8    0    1
 -2       552       553       691      2446      2861      2862
 -1      1224    8    0    1
 -2       552       691       690      2862      2863      2858
 -1      1225    8    0    1
 -2       553       554       692      2449      2864      2865
 -1      1226    8    0    1
 -2       553       692       691      2865      2866      2861
 -1      1227    8    0    1
 -2       554       555       693      2452      2867      2868
 -1      1228    8    0    1
 -2       554       693       692      2868      2869      2864
 -1      1229    8    0    1
 -2       555       556       694      2455      2870      2871
 -1      1230    8    0    1
 -2       555       694       693      2871      2872      2867
 -1      1231    8    0    1
 -2       556       557       695      2458      2873      2874
 -1      1232    8    0    1
 -2       556       695       694      2874      2875      2870
 -1      1233    8    0    1
 -2       557       558       696      2461      2876      2877
 -1      1234    8    0    1
 -2       557       696       695      2877      2878      2873
 -1      1235    8    0    1
 -2       558       559       697      2464      2879      2880
 -1      1236    8    0    1
 -2       558       697       696      2880      2881      2876
 -1      1237    8    0    1
 -2       559       560       698      2467      2882      2883
 -1      1238    8    0    1
 -2       559       698       697      2883      2884      2879
 -1      1239    8    0    1
 -2       560       561       699      2470      2885      2886
 -1      1240    8    0    1
 -2       560       699       698      2886      2887      2882
 -1      1241    8    0    1
 -2       561       562       700      2473      2888      2889
 -1      1242    8    0    1
 -2       561       700       699      2889      2890      2885
 -1      1243    8    0    1
 -2       562       563       701      2476      2891      2892
 -1      1244    8    0    1
 -2       562       701       700      2892      2893      2888
 -1      1245    8    0    1
 -2       563       564       702      2479      2894      2895
 -1      1246    8    0    1
 -2       563       702       701      2895      2896      2891
 -1      1247    8    0    1
 -2       564       565       703      2482      2897      2898
 -1      1248    8    0    1
 -2       564       703       702      2898      2899      2894
 -1      1249    8    0    1
 -2       565       566       704      2485      2900      2901
 -1      1250    8    0    1
 -2       565       704       703      2901      2902      2897
 -1      1251    8    0    1
 -2       566       567       705      2488      2903      2904
 -1      1252    8    0    1
 -2       566       705       704      2904      2905      2900
 -1      1253    8    0    1
 -2       567       568       706      2491      2906      2907
 -1      1254    8    0    1
 -2       567       706       705      2907      2908      2903
 -1      1255    8    0    1
 -2       568       569       707      2494      2909      2910
 -1      1256    8    0    1
 -2       568       707       706      2910      2911      2906
 -1      1257    8    0    1
 -2       569       570       708      2497      2912      2913
 -1      1258    8    0    1
 -2       569       708       707      2913      2914      2909
 -1      1259    8    0    1
 -2       570       571       709      2500      2915      2916
 -1      1260    8    0    1
 -2       708       570       709      2912      2916      2917
 -1      1261    8    0    1
 -2       571       628       709      2678      2918      2915
 -1      1262    8    0    1
 -2       604       589       710      2644      2919      2920
 -1      1263    8    0    1
 -2       585       615       711      2630      2921      2922
 -1      1264    8    0    1
 -2       577       578       712      2521      2923      2924
 -1      1265    8    0    1
 -2       573       574       713      2509      2925      2926
 -1      1266    8    0    1
 -2       578       579       714      2524      2927      2928
 -1      1267    8    0    1
 -2       578       714       712      2928      2929      2923
 -1      1268    8    0    1
 -2       574       577       715      2518      2930      2931
 -1      1269    8    0    1
 -2       713       574       715      2925      2931      2932
 -1      1270    8    0    1
 -2       577       712       715      2924      2933      2930
 -1      1271    8    0    1
 -2       579       580       716      2527      2934      2935
 -1      1272    8    0    1
 -2       579       716       714      2935      2936      2927
 -1      1273    8    0    1
 -2       580       581       717      2530      2937      2938
 -1      1274    8    0    1
 -2       580       717       716      2938      2939      2934
 -1      1275    8    0    1
 -2       581       582       718      2533      2940      2941
 -1      1276    8    0    1
 -2       581       718       717      2941      2942      2937
 -1      1277    8    0    1
 -2       583       614       719      2626      2943      2944
 -1      1278    8    0    1
 -2       614       529       719      2659      2945      2943
 -1      1279    8    0    1
 -2       610       587       720      2622      2946      2947
 -1      1280    8    0    1
 -2       587       588       721      2549      2948      2949
 -1      1281    8    0    1
 -2       473       530       722      2618      2950      2951
 -1      1282    8    0    1
 -2       483       611       475      2640      2607      2952
 -1      1283    8    0    1
 -2       486       593       672      2653      2953      2954
 -1      1284    8    0    1
 -2       586       531       723      2543      2955      2956
 -1      1285    8    0    1
 -2       627       586       723      2673      2956      2957
 -1      1286    8    0    1
 -2       531       672       723      2807      2958      2955
 -1      1287    8    0    1
 -2       476       591       724      2556      2959      2960
 -1      1288    8    0    1
 -2       533       534       619      2389      2961      2962
 -1      1289    8    0    1
 -2       487       485       725      2250      2963      2964
 -1      1290    8    0    1
 -2       487       725       629      2964      2965      2679
 -1      1291    8    0    1
 -2       621       596       726      2655      2966      2967
 -1      1292    8    0    1
 -2       592       447       612      2654      2611      2968
 -1      1293    8    0    1
 -2       480       481       727      2234      2969      2970
 -1      1294    8    0    1
 -2       481       624       727      2667      2971      2969
 -1      1295    8    0    1
 -2       606       607       728      2596      2972      2973
 -1      1296    8    0    1
 -2       477       476       729      2223      2974      2975
 -1      1297    8    0    1
 -2       476       724       729      2960      2976      2974
 -1      1298    8    0    1
 -2       599       600       730      2657      2977      2978
 -1      1299    8    0    1
 -2       589       595       731      2617      2979      2980
 -1      1300    8    0    1
 -2       597       598       732      2574      2981      2982
 -1      1301    8    0    1
 -2       472       621       618      2658      2983      2641
 -1      1302    8    0    1
 -2       590       601       733      2581      2984      2985
 -1      1303    8    0    1
 -2       584       585       734      2633      2986      2987
 -1      1304    8    0    1
 -2       585       711       734      2922      2988      2986
 -1      1305    8    0    1
 -2       602       603       735      2586      2989      2990
 -1      1306    8    0    1
 -2       603       671       735      2805      2991      2989
 -1      1307    8    0    1
 -2       609       605       736      2645      2992      2993
 -1      1308    8    0    1
 -2       598       599       737      2646      2994      2995
 -1      1309    8    0    1
 -2       599       730       737      2978      2996      2994
 -1      1310    8    0    1
 -2       595       606       738      2593      2997      2998
 -1      1311    8    0    1
 -2       606       728       738      2973      2999      2997
 -1      1312    8    0    1
 -2       605       610       739      2615      3000      3001
 -1      1313    8    0    1
 -2       593       597       740      2616      3002      3003
 -1      1314    8    0    1
 -2       608       609       741      2601      3004      3005
 -1      1315    8    0    1
 -2       591       478       742      2608      3006      3007
 -1      1316    8    0    1
 -2       724       591       742      2959      3007      3008
 -1      1317    8    0    1
 -2       478       623       742      2664      3009      3006
 -1      1318    8    0    1
 -2       530       584       743      2623      3010      3011
 -1      1319    8    0    1
 -2       584       734       743      2987      3012      3010
 -1      1320    8    0    1
 -2       607       608       744      2614      3013      3014
 -1      1321    8    0    1
 -2       612       477       745      2609      3015      3016
 -1      1322    8    0    1
 -2       477       729       745      2975      3017      3015
 -1      1323    8    0    1
 -2       530       743       746      3011      3018      3019
 -1      1324    8    0    1
 -2       530       746       722      3019      3020      2950
 -1      1325    8    0    1
 -2       604       710       671      2920      3021      2804
 -1      1326    8    0    1
 -2       615       618       747      2643      3022      3023
 -1      1327    8    0    1
 -2       741       609       736      3004      2993      3024
 -1      1328    8    0    1
 -2       628       575       576      2676      2514      3025
 -1      1329    8    0    1
 -2       740       597       732      3002      2982      3026
 -1      1330    8    0    1
 -2       732       598       737      2981      2995      3027
 -1      1331    8    0    1
 -2       621       726       748      2967      3028      3029
 -1      1332    8    0    1
 -2       621       748       618      3029      3030      2983
 -1      1333    8    0    1
 -2       613       473       722      2619      2951      3031
 -1      1334    8    0    1
 -2       529       670       719      2802      3032      2945
 -1      1335    8    0    1
 -2       615       747       711      3023      3033      2921
 -1      1336    8    0    1
 -2       710       589       731      2919      2980      3034
 -1      1337    8    0    1
 -2       602       735       749      2990      3035      3036
 -1      1338    8    0    1
 -2       602       749       620      3036      3037      2650
 -1      1339    8    0    1
 -2       573       713       750      2926      3038      3039
 -1      1340    8    0    1
 -2       573       750       576      3039      3040      2515
 -1      1341    8    0    1
 -2       605       739       736      3001      3041      2992
 -1      1342    8    0    1
 -2       721       588       613      2948      2621      3042
 -1      1343    8    0    1
 -2       622       480       727      2661      2970      3043
 -1      1344    8    0    1
 -2       583       719       582      2944      3044      2536
 -1      1345    8    0    1
 -2       718       582       719      2940      3044      3045
 -1      1346    8    0    1
 -2       720       587       721      2946      2949      3046
 -1      1347    8    0    1
 -2       616       474       751      2636      3047      3048
 -1      1348    8    0    1
 -2       474       620       751      2652      3049      3047
 -1      1349    8    0    1
 -2       601       616       733      2635      3050      2984
 -1      1350    8    0    1
 -2       617       590       733      2639      2985      3051
 -1      1351    8    0    1
 -2       483       475       626      2952      2672      3052
 -1      1352    8    0    1
 -2       596       619       726      2648      3053      2966
 -1      1353    8    0    1
 -2       672       593       740      2953      3003      3054
 -1      1354    8    0    1
 -2       533       619       752      2962      3055      3056
 -1      1355    8    0    1
 -2       532       533       752      2386      3056      3057
 -1      1356    8    0    1
 -2       619       594       752      2649      3058      3055
 -1      1357    8    0    1
 -2       592       612       753      2968      3059      3060
 -1      1358    8    0    1
 -2       485       592       753      2559      3060      3061
 -1      1359    8    0    1
 -2       612       745       753      3016      3062      3059
 -1      1360    8    0    1
 -2       610       720       739      2947      3063      3000
 -1      1361    8    0    1
 -2       728       607       744      2972      3014      3064
 -1      1362    8    0    1
 -2       594       486       752      2565      3065      3058
 -1      1363    8    0    1
 -2       752       486       672      3065      2954      3066
 -1      1364    8    0    1
 -2       532       752       672      3057      3066      2806
 -1      1365    8    0    1
 -2       608       741       744      3005      3067      3013
 -1      1366    8    0    1
 -2       625       483       626      2668      3052      3068
 -1      1367    8    0    1
 -2       485       753       725      3061      3069      2963
 -1      1368    8    0    1
 -2       726       619       673      3053      3070      3071
 -1      1369    8    0    1
 -2       624       625       754      2670      3072      3073
 -1      1370    8    0    1
 -2       747       618       748      3022      3030      3074
 -1      1371    8    0    1
 -2       741       736       755      3024      3075      3076
 -1      1372    8    0    1
 -2       737       730       756      2996      3077      3078
 -1      1373    8    0    1
 -2       734       711       757      2988      3079      3080
 -1      1374    8    0    1
 -2       731       595       758      2979      3081      3082
 -1      1375    8    0    1
 -2       729       724       749      2976      3083      3084
 -1      1376    8    0    1
 -2       631       630       759      2686      3085      3086
 -1      1377    8    0    1
 -2       633       632       758      2692      3087      3088
 -1      1378    8    0    1
 -2       634       633       728      2695      3089      3090
 -1      1379    8    0    1
 -2       635       634       760      2698      3091      3092
 -1      1380    8    0    1
 -2       636       635       755      2701      3093      3094
 -1      1381    8    0    1
 -2       637       636       761      2704      3095      3096
 -1      1382    8    0    1
 -2       636       755       761      3094      3097      3095
 -1      1383    8    0    1
 -2       638       637       762      2707      3098      3099
 -1      1384    8    0    1
 -2       637       761       762      3096      3100      3098
 -1      1385    8    0    1
 -2       639       638       763      2710      3101      3102
 -1      1386    8    0    1
 -2       638       762       763      3099      3103      3101
 -1      1387    8    0    1
 -2       640       639       764      2713      3104      3105
 -1      1388    8    0    1
 -2       639       763       764      3102      3106      3104
 -1      1389    8    0    1
 -2       641       640       765      2716      3107      3108
 -1      1390    8    0    1
 -2       640       764       765      3105      3109      3107
 -1      1391    8    0    1
 -2       642       641       766      2719      3110      3111
 -1      1392    8    0    1
 -2       641       765       766      3108      3112      3110
 -1      1393    8    0    1
 -2       643       642       767      2722      3113      3114
 -1      1394    8    0    1
 -2       642       766       767      3111      3115      3113
 -1      1395    8    0    1
 -2       644       643       768      2725      3116      3117
 -1      1396    8    0    1
 -2       643       767       768      3114      3118      3116
 -1      1397    8    0    1
 -2       645       644       769      2728      3119      3120
 -1      1398    8    0    1
 -2       644       768       769      3117      3121      3119
 -1      1399    8    0    1
 -2       646       645       770      2731      3122      3123
 -1      1400    8    0    1
 -2       645       769       770      3120      3124      3122
 -1      1401    8    0    1
 -2       647       646       771      2734      3125      3126
 -1      1402    8    0    1
 -2       646       770       771      3123      3127      3125
 -1      1403    8    0    1
 -2       648       647       772      2737      3128      3129
 -1      1404    8    0    1
 -2       647       771       772      3126      3130      3128
 -1      1405    8    0    1
 -2       649       648       773      2740      3131      3132
 -1      1406    8    0    1
 -2       648       772       773      3129      3133      3131
 -1      1407    8    0    1
 -2       650       649       774      2743      3134      3135
 -1      1408    8    0    1
 -2       649       773       774      3132      3136      3134
 -1      1409    8    0    1
 -2       651       650       775      2746      3137      3138
 -1      1410    8    0    1
 -2       650       774       775      3135      3139      3137
 -1      1411    8    0    1
 -2       652       651       776      2749      3140      3141
 -1      1412    8    0    1
 -2       651       775       776      3138      3142      3140
 -1      1413    8    0    1
 -2       653       652       777      2752      3143      3144
 -1      1414    8    0    1
 -2       652       776       777      3141      3145      3143
 -1      1415    8    0    1
 -2       654       653       778      2755      3146      3147
 -1      1416    8    0    1
 -2       653       777       778      3144      3148      3146
 -1      1417    8    0    1
 -2       655       654       779      2758      3149      3150
 -1      1418    8    0    1
 -2       654       778       779      3147      3151      3149
 -1      1419    8    0    1
 -2       656       655       780      2761      3152      3153
 -1      1420    8    0    1
 -2       655       779       780      3150      3154      3152
 -1      1421    8    0    1
 -2       657       656       781      2764      3155      3156
 -1      1422    8    0    1
 -2       656       780       781      3153      3157      3155
 -1      1423    8    0    1
 -2       658       657       782      2767      3158      3159
 -1      1424    8    0    1
 -2       657       781       782      3156      3160      3158
 -1      1425    8    0    1
 -2       659       658       783      2770      3161      3162
 -1      1426    8    0    1
 -2       658       782       783      3159      3163      3161
 -1      1427    8    0    1
 -2       660       659       784      2773      3164      3165
 -1      1428    8    0    1
 -2       659       783       784      3162      3166      3164
 -1      1429    8    0    1
 -2       661       660       785      2776      3167      3168
 -1      1430    8    0    1
 -2       660       784       785      3165      3169      3167
 -1      1431    8    0    1
 -2       662       661       786      2779      3170      3171
 -1      1432    8    0    1
 -2       661       785       786      3168      3172      3170
 -1      1433    8    0    1
 -2       663       662       787      2782      3173      3174
 -1      1434    8    0    1
 -2       662       786       787      3171      3175      3173
 -1      1435    8    0    1
 -2       664       663       788      2785      3176      3177
 -1      1436    8    0    1
 -2       663       787       788      3174      3178      3176
 -1      1437    8    0    1
 -2       665       664       789      2788      3179      3180
 -1      1438    8    0    1
 -2       664       788       789      3177      3181      3179
 -1      1439    8    0    1
 -2       666       665       790      2791      3182      3183
 -1      1440    8    0    1
 -2       665       789       790      3180      3184      3182
 -1      1441    8    0    1
 -2       667       666       791      2794      3185      3186
 -1      1442    8    0    1
 -2       666       790       791      3183      3187      3185
 -1      1443    8    0    1
 -2       668       667       792      2797      3188      3189
 -1      1444    8    0    1
 -2       667       791       792      3186      3190      3188
 -1      1445    8    0    1
 -2       669       668       793      2800      3191      3192
 -1      1446    8    0    1
 -2       668       792       793      3189      3193      3191
 -1      1447    8    0    1
 -2       623       622       617      2665      3194      3195
 -1      1448    8    0    1
 -2       595       738       758      2998      3196      3081
 -1      1449    8    0    1
 -2       534       673       619      2809      3070      2961
 -1      1450    8    0    1
 -2       673       674       726      2812      3197      3071
 -1      1451    8    0    1
 -2       676       677       794      2821      3198      3199
 -1      1452    8    0    1
 -2       677       678       795      2824      3200      3201
 -1      1453    8    0    1
 -2       677       795       794      3201      3202      3198
 -1      1454    8    0    1
 -2       678       679       796      2827      3203      3204
 -1      1455    8    0    1
 -2       678       796       795      3204      3205      3200
 -1      1456    8    0    1
 -2       679       680       797      2830      3206      3207
 -1      1457    8    0    1
 -2       679       797       796      3207      3208      3203
 -1      1458    8    0    1
 -2       680       681       798      2833      3209      3210
 -1      1459    8    0    1
 -2       680       798       797      3210      3211      3206
 -1      1460    8    0    1
 -2       681       682       799      2836      3212      3213
 -1      1461    8    0    1
 -2       681       799       798      3213      3214      3209
 -1      1462    8    0    1
 -2       682       683       800      2839      3215      3216
 -1      1463    8    0    1
 -2       682       800       799      3216      3217      3212
 -1      1464    8    0    1
 -2       683       684       801      2842      3218      3219
 -1      1465    8    0    1
 -2       683       801       800      3219      3220      3215
 -1      1466    8    0    1
 -2       684       685       802      2845      3221      3222
 -1      1467    8    0    1
 -2       684       802       801      3222      3223      3218
 -1      1468    8    0    1
 -2       685       686       803      2848      3224      3225
 -1      1469    8    0    1
 -2       685       803       802      3225      3226      3221
 -1      1470    8    0    1
 -2       686       687       804      2851      3227      3228
 -1      1471    8    0    1
 -2       686       804       803      3228      3229      3224
 -1      1472    8    0    1
 -2       687       688       805      2854      3230      3231
 -1      1473    8    0    1
 -2       687       805       804      3231      3232      3227
 -1      1474    8    0    1
 -2       688       689       806      2857      3233      3234
 -1      1475    8    0    1
 -2       688       806       805      3234      3235      3230
 -1      1476    8    0    1
 -2       689       690       807      2860      3236      3237
 -1      1477    8    0    1
 -2       689       807       806      3237      3238      3233
 -1      1478    8    0    1
 -2       690       691       808      2863      3239      3240
 -1      1479    8    0    1
 -2       690       808       807      3240      3241      3236
 -1      1480    8    0    1
 -2       691       692       809      2866      3242      3243
 -1      1481    8    0    1
 -2       691       809       808      3243      3244      3239
 -1      1482    8    0    1
 -2       692       693       810      2869      3245      3246
 -1      1483    8    0    1
 -2       692       810       809      3246      3247      3242
 -1      1484    8    0    1
 -2       693       694       811      2872      3248      3249
 -1      1485    8    0    1
 -2       693       811       810      3249      3250      3245
 -1      1486    8    0    1
 -2       694       695       812      2875      3251      3252
 -1      1487    8    0    1
 -2       694       812       811      3252      3253      3248
 -1      1488    8    0    1
 -2       695       696       813      2878      3254      3255
 -1      1489    8    0    1
 -2       695       813       812      3255      3256      3251
 -1      1490    8    0    1
 -2       696       697       814      2881      3257      3258
 -1      1491    8    0    1
 -2       696       814       813      3258      3259      3254
 -1      1492    8    0    1
 -2       697       698       815      2884      3260      3261
 -1      1493    8    0    1
 -2       697       815       814      3261      3262      3257
 -1      1494    8    0    1
 -2       698       699       816      2887      3263      3264
 -1      1495    8    0    1
 -2       698       816       815      3264      3265      3260
 -1      1496    8    0    1
 -2       699       700       817      2890      3266      3267
 -1      1497    8    0    1
 -2       699       817       816      3267      3268      3263
 -1      1498    8    0    1
 -2       700       701       818      2893      3269      3270
 -1      1499    8    0    1
 -2       700       818       817      3270      3271      3266
 -1      1500    8    0    1
 -2       701       702       819      2896      3272      3273
 -1      1501    8    0    1
 -2       701       819       818      3273      3274      3269
 -1      1502    8    0    1
 -2       702       703       820      2899      3275      3276
 -1      1503    8    0    1
 -2       702       820       819      3276      3277      3272
 -1      1504    8    0    1
 -2       703       704       821      2902      3278      3279
 -1      1505    8    0    1
 -2       703       821       820      3279      3280      3275
 -1      1506    8    0    1
 -2       704       705       822      2905      3281      3282
 -1      1507    8    0    1
 -2       704       822       821      3282      3283      3278
 -1      1508    8    0    1
 -2       705       706       823      2908      3284      3285
 -1      1509    8    0    1
 -2       705       823       822      3285      3286      3281
 -1      1510    8    0    1
 -2       706       707       824      2911      3287      3288
 -1      1511    8    0    1
 -2       706       824       823      3288      3289      3284
 -1      1512    8    0    1
 -2       707       708       825      2914      3290      3291
 -1      1513    8    0    1
 -2       707       825       824      3291      3292      3287
 -1      1514    8    0    1
 -2       710       731       759      3034      3293      3294
 -1      1515    8    0    1
 -2       628       576       750      3025      3040      3295
 -1      1516    8    0    1
 -2       714       716       826      2936      3296      3297
 -1      1517    8    0    1
 -2       712       714       827      2929      3298      3299
 -1      1518    8    0    1
 -2       714       826       827      3297      3300      3298
 -1      1519    8    0    1
 -2       740       732       828      3026      3301      3302
 -1      1520    8    0    1
 -2       671       710       829      3021      3303      3304
 -1      1521    8    0    1
 -2       710       759       829      3294      3305      3303
 -1      1522    8    0    1
 -2       716       717       830      2939      3306      3307
 -1      1523    8    0    1
 -2       716       830       826      3307      3308      3296
 -1      1524    8    0    1
 -2       711       747       831      3033      3309      3310
 -1      1525    8    0    1
 -2       725       753       832      3069      3311      3312
 -1      1526    8    0    1
 -2       629       725       832      2965      3312      3313
 -1      1527    8    0    1
 -2       753       745       832      3062      3314      3311
 -1      1528    8    0    1
 -2       675       676       831      2818      3315      3316
 -1      1529    8    0    1
 -2       674       675       747      2815      3317      3318
 -1      1530    8    0    1
 -2       720       721       833      3046      3319      3320
 -1      1531    8    0    1
 -2       736       739       834      3041      3321      3322
 -1      1532    8    0    1
 -2       672       740       723      3054      3323      2958
 -1      1533    8    0    1
 -2       630       629       835      2683      3324      3325
 -1      1534    8    0    1
 -2       759       630       835      3085      3325      3326
 -1      1535    8    0    1
 -2       629       832       835      3313      3327      3324
 -1      1536    8    0    1
 -2       727       624       756      2971      3328      3329
 -1      1537    8    0    1
 -2       733       616       836      3050      3330      3331
 -1      1538    8    0    1
 -2       730       600       837      2977      3332      3333
 -1      1539    8    0    1
 -2       732       737       838      3027      3334      3335
 -1      1540    8    0    1
 -2       828       732       838      3301      3335      3336
 -1      1541    8    0    1
 -2       737       756       838      3078      3337      3334
 -1      1542    8    0    1
 -2       613       722       839      3031      3338      3339
 -1      1543    8    0    1
 -2       743       734       840      3012      3340      3341
 -1      1544    8    0    1
 -2       734       757       840      3080      3342      3340
 -1      1545    8    0    1
 -2       617       733       623      3051      3343      3195
 -1      1546    8    0    1
 -2       735       671       841      2991      3344      3345
 -1      1547    8    0    1
 -2       600       617       837      2638      3346      3332
 -1      1548    8    0    1
 -2       721       613       842      3042      3347      3348
 -1      1549    8    0    1
 -2       613       839       842      3339      3349      3347
 -1      1550    8    0    1
 -2       625       626       843      3068      3350      3351
 -1      1551    8    0    1
 -2       754       625       843      3072      3351      3352
 -1      1552    8    0    1
 -2       626       627       843      2675      3353      3350
 -1      1553    8    0    1
 -2       739       720       844      3063      3354      3355
 -1      1554    8    0    1
 -2       720       833       844      3320      3356      3354
 -1      1555    8    0    1
 -2       746       743       845      3018      3357      3358
 -1      1556    8    0    1
 -2       743       840       845      3341      3359      3357
 -1      1557    8    0    1
 -2       755       736       834      3075      3322      3360
 -1      1558    8    0    1
 -2       739       844       834      3355      3361      3321
 -1      1559    8    0    1
 -2       623       733       742      3343      3362      3009
 -1      1560    8    0    1
 -2       731       758       631      3082      3363      3364
 -1      1561    8    0    1
 -2       729       749       846      3084      3365      3366
 -1      1562    8    0    1
 -2       745       729       846      3017      3366      3367
 -1      1563    8    0    1
 -2       749       735       846      3035      3368      3365
 -1      1564    8    0    1
 -2       631       759       731      3086      3293      3364
 -1      1565    8    0    1
 -2       633       758       738      3088      3196      3369
 -1      1566    8    0    1
 -2       632       631       758      2689      3363      3087
 -1      1567    8    0    1
 -2       634       728       760      3090      3370      3091
 -1      1568    8    0    1
 -2       735       841       846      3345      3371      3368
 -1      1569    8    0    1
 -2       670       669       847      2803      3372      3373
 -1      1570    8    0    1
 -2       676       794       831      3199      3374      3315
 -1      1571    8    0    1
 -2       825       708       848      3290      3375      3376
 -1      1572    8    0    1
 -2       708       709       848      2917      3377      3375
 -1      1573    8    0    1
 -2       709       628       849      2918      3378      3379
 -1      1574    8    0    1
 -2       628       750       849      3295      3380      3378
 -1      1575    8    0    1
 -2       711       831       757      3310      3381      3079
 -1      1576    8    0    1
 -2       750       713       850      3038      3382      3383
 -1      1577    8    0    1
 -2       750       850       849      3383      3384      3380
 -1      1578    8    0    1
 -2       712       827       851      3299      3385      3386
 -1      1579    8    0    1
 -2       712       851       715      3386      3387      2933
 -1      1580    8    0    1
 -2       839       722       852      3338      3388      3389
 -1      1581    8    0    1
 -2       722       746       852      3020      3390      3388
 -1      1582    8    0    1
 -2       671       829       841      3304      3391      3344
 -1      1583    8    0    1
 -2       727       756       730      3329      3077      3392
 -1      1584    8    0    1
 -2       718       719       847      3045      3393      3394
 -1      1585    8    0    1
 -2       751       620       749      3049      3037      3395
 -1      1586    8    0    1
 -2       717       718       853      2942      3396      3397
 -1      1587    8    0    1
 -2       747       675       831      3317      3316      3309
 -1      1588    8    0    1
 -2       616       751       836      3048      3398      3330
 -1      1589    8    0    1
 -2       713       715       854      2932      3399      3400
 -1      1590    8    0    1
 -2       850       713       854      3382      3400      3401
 -1      1591    8    0    1
 -2       715       851       854      3387      3402      3399
 -1      1592    8    0    1
 -2       674       747       748      3318      3074      3403
 -1      1593    8    0    1
 -2       721       842       833      3348      3404      3319
 -1      1594    8    0    1
 -2       740       828       723      3302      3405      3323
 -1      1595    8    0    1
 -2       744       741       855      3067      3406      3407
 -1      1596    8    0    1
 -2       627       723       828      2957      3405      3408
 -1      1597    8    0    1
 -2       728       633       738      3089      3369      2999
 -1      1598    8    0    1
 -2       730       837       727      3333      3409      3392
 -1      1599    8    0    1
 -2       717       853       830      3397      3410      3306
 -1      1600    8    0    1
 -2       843       627       828      3353      3408      3411
 -1      1601    8    0    1
 -2       853       718       847      3396      3394      3412
 -1      1602    8    0    1
 -2       749       724       751      3083      3413      3395
 -1      1603    8    0    1
 -2       624       754       756      3073      3414      3328
 -1      1604    8    0    1
 -2       833       842       856      3404      3415      3416
 -1      1605    8    0    1
 -2       745       846       832      3367      3417      3314
 -1      1606    8    0    1
 -2       847       669       793      3372      3192      3418
 -1      1607    8    0    1
 -2       762       761       857      3100      3419      3420
 -1      1608    8    0    1
 -2       763       762       858      3103      3421      3422
 -1      1609    8    0    1
 -2       762       857       858      3420      3423      3421
 -1      1610    8    0    1
 -2       764       763       859      3106      3424      3425
 -1      1611    8    0    1
 -2       763       858       859      3422      3426      3424
 -1      1612    8    0    1
 -2       765       764       860      3109      3427      3428
 -1      1613    8    0    1
 -2       764       859       860      3425      3429      3427
 -1      1614    8    0    1
 -2       766       765       861      3112      3430      3431
 -1      1615    8    0    1
 -2       765       860       861      3428      3432      3430
 -1      1616    8    0    1
 -2       767       766       862      3115      3433      3434
 -1      1617    8    0    1
 -2       766       861       862      3431      3435      3433
 -1      1618    8    0    1
 -2       768       767       863      3118      3436      3437
 -1      1619    8    0    1
 -2       767       862       863      3434      3438      3436
 -1      1620    8    0    1
 -2       769       768       864      3121      3439      3440
 -1      1621    8    0    1
 -2       768       863       864      3437      3441      3439
 -1      1622    8    0    1
 -2       770       769       865      3124      3442      3443
 -1      1623    8    0    1
 -2       769       864       865      3440      3444      3442
 -1      1624    8    0    1
 -2       771       770       866      3127      3445      3446
 -1      1625    8    0    1
 -2       770       865       866      3443      3447      3445
 -1      1626    8    0    1
 -2       772       771       867      3130      3448      3449
 -1      1627    8    0    1
 -2       771       866       867      3446      3450      3448
 -1      1628    8    0    1
 -2       773       772       868      3133      3451      3452
 -1      1629    8    0    1
 -2       772       867       868      3449      3453      3451
 -1      1630    8    0    1
 -2       774       773       869      3136      3454      3455
 -1      1631    8    0    1
 -2       773       868       869      3452      3456      3454
 -1      1632    8    0    1
 -2       775       774       870      3139      3457      3458
 -1      1633    8    0    1
 -2       774       869       870      3455      3459      3457
 -1      1634    8    0    1
 -2       776       775       871      3142      3460      3461
 -1      1635    8    0    1
 -2       775       870       871      3458      3462      3460
 -1      1636    8    0    1
 -2       777       776       872      3145      3463      3464
 -1      1637    8    0    1
 -2       776       871       872      3461      3465      3463
 -1      1638    8    0    1
 -2       778       777       873      3148      3466      3467
 -1      1639    8    0    1
 -2       777       872       873      3464      3468      3466
 -1      1640    8    0    1
 -2       779       778       874      3151      3469      3470
 -1      1641    8    0    1
 -2       778       873       874      3467      3471      3469
 -1      1642    8    0    1
 -2       780       779       875      3154      3472      3473
 -1      1643    8    0    1
 -2       779       874       875      3470      3474      3472
 -1      1644    8    0    1
 -2       781       780       876      3157      3475      3476
 -1      1645    8    0    1
 -2       780       875       876      3473      3477      3475
 -1      1646    8    0    1
 -2       782       781       877      3160      3478      3479
 -1      1647    8    0    1
 -2       781       876       877      3476      3480      3478
 -1      1648    8    0    1
 -2       783       782       878      3163      3481      3482
 -1      1649    8    0    1
 -2       782       877       878      3479      3483      3481
 -1      1650    8    0    1
 -2       784       783       879      3166      3484      3485
 -1      1651    8    0    1
 -2       783       878       879      3482      3486      3484
 -1      1652    8    0    1
 -2       785       784       880      3169      3487      3488
 -1      1653    8    0    1
 -2       784       879       880      3485      3489      3487
 -1      1654    8    0    1
 -2       786       785       881      3172      3490      3491
 -1      1655    8    0    1
 -2       785       880       881      3488      3492      3490
 -1      1656    8    0    1
 -2       787       786       882      3175      3493      3494
 -1      1657    8    0    1
 -2       786       881       882      3491      3495      3493
 -1      1658    8    0    1
 -2       788       787       883      3178      3496      3497
 -1      1659    8    0    1
 -2       787       882       883      3494      3498      3496
 -1      1660    8    0    1
 -2       789       788       884      3181      3499      3500
 -1      1661    8    0    1
 -2       788       883       884      3497      3501      3499
 -1      1662    8    0    1
 -2       790       789       885      3184      3502      3503
 -1      1663    8    0    1
 -2       789       884       885      3500      3504      3502
 -1      1664    8    0    1
 -2       791       790       886      3187      3505      3506
 -1      1665    8    0    1
 -2       790       885       886      3503      3507      3505
 -1      1666    8    0    1
 -2       792       791       887      3190      3508      3509
 -1      1667    8    0    1
 -2       791       886       887      3506      3510      3508
 -1      1668    8    0    1
 -2       793       792       888      3193      3511      3512
 -1      1669    8    0    1
 -2       792       887       888      3509      3513      3511
 -1      1670    8    0    1
 -2       617       622       837      3194      3514      3346
 -1      1671    8    0    1
 -2       831       794       757      3374      3515      3381
 -1      1672    8    0    1
 -2       847       793       853      3418      3516      3412
 -1      1673    8    0    1
 -2       827       826       889      3300      3517      3518
 -1      1674    8    0    1
 -2       795       796       890      3205      3519      3520
 -1      1675    8    0    1
 -2       794       795       891      3202      3521      3522
 -1      1676    8    0    1
 -2       795       890       891      3520      3523      3521
 -1      1677    8    0    1
 -2       797       798       892      3211      3524      3525
 -1      1678    8    0    1
 -2       798       799       893      3214      3526      3527
 -1      1679    8    0    1
 -2       798       893       892      3527      3528      3524
 -1      1680    8    0    1
 -2       799       800       894      3217      3529      3530
 -1      1681    8    0    1
 -2       799       894       893      3530      3531      3526
 -1      1682    8    0    1
 -2       800       801       895      3220      3532      3533
 -1      1683    8    0    1
 -2       800       895       894      3533      3534      3529
 -1      1684    8    0    1
 -2       801       802       896      3223      3535      3536
 -1      1685    8    0    1
 -2       801       896       895      3536      3537      3532
 -1      1686    8    0    1
 -2       802       803       897      3226      3538      3539
 -1      1687    8    0    1
 -2       802       897       896      3539      3540      3535
 -1      1688    8    0    1
 -2       803       804       898      3229      3541      3542
 -1      1689    8    0    1
 -2       803       898       897      3542      3543      3538
 -1      1690    8    0    1
 -2       804       805       899      3232      3544      3545
 -1      1691    8    0    1
 -2       804       899       898      3545      3546      3541
 -1      1692    8    0    1
 -2       805       806       900      3235      3547      3548
 -1      1693    8    0    1
 -2       805       900       899      3548      3549      3544
 -1      1694    8    0    1
 -2       806       807       901      3238      3550      3551
 -1      1695    8    0    1
 -2       806       901       900      3551      3552      3547
 -1      1696    8    0    1
 -2       807       808       902      3241      3553      3554
 -1      1697    8    0    1
 -2       807       902       901      3554      3555      3550
 -1      1698    8    0    1
 -2       808       809       903      3244      3556      3557
 -1      1699    8    0    1
 -2       808       903       902      3557      3558      3553
 -1      1700    8    0    1
 -2       809       810       904      3247      3559      3560
 -1      1701    8    0    1
 -2       809       904       903      3560      3561      3556
 -1      1702    8    0    1
 -2       810       811       905      3250      3562      3563
 -1      1703    8    0    1
 -2       810       905       904      3563      3564      3559
 -1      1704    8    0    1
 -2       811       812       906      3253      3565      3566
 -1      1705    8    0    1
 -2       811       906       905      3566      3567      3562
 -1      1706    8    0    1
 -2       812       813       907      3256      3568      3569
 -1      1707    8    0    1
 -2       812       907       906      3569      3570      3565
 -1      1708    8    0    1
 -2       813       814       908      3259      3571      3572
 -1      1709    8    0    1
 -2       813       908       907      3572      3573      3568
 -1      1710    8    0    1
 -2       814       815       909      3262      3574      3575
 -1      1711    8    0    1
 -2       814       909       908      3575      3576      3571
 -1      1712    8    0    1
 -2       815       816       910      3265      3577      3578
 -1      1713    8    0    1
 -2       815       910       909      3578      3579      3574
 -1      1714    8    0    1
 -2       816       817       911      3268      3580      3581
 -1      1715    8    0    1
 -2       816       911       910      3581      3582      3577
 -1      1716    8    0    1
 -2       817       818       912      3271      3583      3584
 -1      1717    8    0    1
 -2       817       912       911      3584      3585      3580
 -1      1718    8    0    1
 -2       818       819       913      3274      3586      3587
 -1      1719    8    0    1
 -2       818       913       912      3587      3588      3583
 -1      1720    8    0    1
 -2       819       820       914      3277      3589      3590
 -1      1721    8    0    1
 -2       819       914       913      3590      3591      3586
 -1      1722    8    0    1
 -2       820       821       915      3280      3592      3593
 -1      1723    8    0    1
 -2       820       915       914      3593      3594      3589
 -1      1724    8    0    1
 -2       821       822       916      3283      3595      3596
 -1      1725    8    0    1
 -2       821       916       915      3596      3597      3592
 -1      1726    8    0    1
 -2       822       823       917      3286      3598      3599
 -1      1727    8    0    1
 -2       822       917       916      3599      3600      3595
 -1      1728    8    0    1
 -2       823       824       918      3289      3601      3602
 -1      1729    8    0    1
 -2       823       918       917      3602      3603      3598
 -1      1730    8    0    1
 -2       824       825       919      3292      3604      3605
 -1      1731    8    0    1
 -2       824       919       918      3605      3606      3601
 -1      1732    8    0    1
 -2       826       830       920      3308      3607      3608
 -1      1733    8    0    1
 -2       826       920       889      3608      3609      3517
 -1      1734    8    0    1
 -2       853       793       888      3516      3512      3610
 -1      1735    8    0    1
 -2       843       828       838      3411      3336      3611
 -1      1736    8    0    1
 -2       796       797       921      3208      3612      3613
 -1      1737    8    0    1
 -2       890       796       921      3519      3613      3614
 -1      1738    8    0    1
 -2       797       892       921      3525      3615      3612
 -1      1739    8    0    1
 -2       855       741       755      3406      3076      3616
 -1      1740    8    0    1
 -2       834       844       857      3361      3617      3618
 -1      1741    8    0    1
 -2       726       674       748      3197      3403      3028
 -1      1742    8    0    1
 -2       761       755       834      3097      3360      3619
 -1      1743    8    0    1
 -2       846       841       832      3371      3620      3417
 -1      1744    8    0    1
 -2       840       757       891      3342      3621      3622
 -1      1745    8    0    1
 -2       830       853       888      3410      3610      3623
 -1      1746    8    0    1
 -2       757       794       891      3515      3522      3621
 -1      1747    8    0    1
 -2       842       839       922      3349      3624      3625
 -1      1748    8    0    1
 -2       727       837       622      3409      3514      3043
 -1      1749    8    0    1
 -2       728       744       760      3064      3626      3370
 -1      1750    8    0    1
 -2       829       759       835      3305      3326      3627
 -1      1751    8    0    1
 -2       751       724       742      3413      3008      3628
 -1      1752    8    0    1
 -2       761       834       857      3619      3618      3419
 -1      1753    8    0    1
 -2       844       833       923      3356      3629      3630
 -1      1754    8    0    1
 -2       857       844       923      3617      3630      3631
 -1      1755    8    0    1
 -2       833       856       923      3416      3632      3629
 -1      1756    8    0    1
 -2       856       842       922      3415      3625      3633
 -1      1757    8    0    1
 -2       840       891       845      3622      3634      3359
 -1      1758    8    0    1
 -2       922       839       852      3624      3389      3635
 -1      1759    8    0    1
 -2       919       825       924      3604      3636      3637
 -1      1760    8    0    1
 -2       825       848       924      3376      3638      3636
 -1      1761    8    0    1
 -2       920       830       888      3607      3623      3639
 -1      1762    8    0    1
 -2       851       827       925      3385      3640      3641
 -1      1763    8    0    1
 -2       827       889       925      3518      3642      3640
 -1      1764    8    0    1
 -2       852       746       926      3390      3643      3644
 -1      1765    8    0    1
 -2       746       845       926      3358      3645      3643
 -1      1766    8    0    1
 -2       719       670       847      3032      3373      3393
 -1      1767    8    0    1
 -2       744       855       760      3407      3646      3626
 -1      1768    8    0    1
 -2       850       854       927      3401      3647      3648
 -1      1769    8    0    1
 -2       829       835       841      3627      3649      3391
 -1      1770    8    0    1
 -2       832       841       835      3620      3649      3327
 -1      1771    8    0    1
 -2       755       635       855      3093      3650      3616
 -1      1772    8    0    1
 -2       850       927       924      3648      3651      3652
 -1      1773    8    0    1
 -2       855       635       760      3650      3092      3646
 -1      1774    8    0    1
 -2       754       843       838      3352      3611      3653
 -1      1775    8    0    1
 -2       858       857       923      3423      3631      3654
 -1      1776    8    0    1
 -2       859       858       928      3426      3655      3656
 -1      1777    8    0    1
 -2       860       859       929      3429      3657      3658
 -1      1778    8    0    1
 -2       859       928       929      3656      3659      3657
 -1      1779    8    0    1
 -2       861       860       930      3432      3660      3661
 -1      1780    8    0    1
 -2       860       929       930      3658      3662      3660
 -1      1781    8    0    1
 -2       862       861       931      3435      3663      3664
 -1      1782    8    0    1
 -2       861       930       931      3661      3665      3663
 -1      1783    8    0    1
 -2       863       862       932      3438      3666      3667
 -1      1784    8    0    1
 -2       862       931       932      3664      3668      3666
 -1      1785    8    0    1
 -2       864       863       933      3441      3669      3670
 -1      1786    8    0    1
 -2       863       932       933      3667      3671      3669
 -1      1787    8    0    1
 -2       865       864       934      3444      3672      3673
 -1      1788    8    0    1
 -2       864       933       934      3670      3674      3672
 -1      1789    8    0    1
 -2       866       865       935      3447      3675      3676
 -1      1790    8    0    1
 -2       865       934       935      3673      3677      3675
 -1      1791    8    0    1
 -2       867       866       936      3450      3678      3679
 -1      1792    8    0    1
 -2       866       935       936      3676      3680      3678
 -1      1793    8    0    1
 -2       868       867       937      3453      3681      3682
 -1      1794    8    0    1
 -2       867       936       937      3679      3683      3681
 -1      1795    8    0    1
 -2       869       868       938      3456      3684      3685
 -1      1796    8    0    1
 -2       868       937       938      3682      3686      3684
 -1      1797    8    0    1
 -2       870       869       939      3459      3687      3688
 -1      1798    8    0    1
 -2       869       938       939      3685      3689      3687
 -1      1799    8    0    1
 -2       871       870       940      3462      3690      3691
 -1      1800    8    0    1
 -2       870       939       940      3688      3692      3690
 -1      1801    8    0    1
 -2       872       871       941      3465      3693      3694
 -1      1802    8    0    1
 -2       871       940       941      3691      3695      3693
 -1      1803    8    0    1
 -2       873       872       942      3468      3696      3697
 -1      1804    8    0    1
 -2       872       941       942      3694      3698      3696
 -1      1805    8    0    1
 -2       874       873       943      3471      3699      3700
 -1      1806    8    0    1
 -2       873       942       943      3697      3701      3699
 -1      1807    8    0    1
 -2       875       874       944      3474      3702      3703
 -1      1808    8    0    1
 -2       874       943       944      3700      3704      3702
 -1      1809    8    0    1
 -2       876       875       945      3477      3705      3706
 -1      1810    8    0    1
 -2       875       944       945      3703      3707      3705
 -1      1811    8    0    1
 -2       877       876       946      3480      3708      3709
 -1      1812    8    0    1
 -2       876       945       946      3706      3710      3708
 -1      1813    8    0    1
 -2       878       877       947      3483      3711      3712
 -1      1814    8    0    1
 -2       877       946       947      3709      3713      3711
 -1      1815    8    0    1
 -2       879       878       948      3486      3714      3715
 -1      1816    8    0    1
 -2       878       947       948      3712      3716      3714
 -1      1817    8    0    1
 -2       880       879       949      3489      3717      3718
 -1      1818    8    0    1
 -2       879       948       949      3715      3719      3717
 -1      1819    8    0    1
 -2       881       880       950      3492      3720      3721
 -1      1820    8    0    1
 -2       880       949       950      3718      3722      3720
 -1      1821    8    0    1
 -2       882       881       951      3495      3723      3724
 -1      1822    8    0    1
 -2       881       950       951      3721      3725      3723
 -1      1823    8    0    1
 -2       883       882       952      3498      3726      3727
 -1      1824    8    0    1
 -2       882       951       952      3724      3728      3726
 -1      1825    8    0    1
 -2       884       883       953      3501      3729      3730
 -1      1826    8    0    1
 -2       883       952       953      3727      3731      3729
 -1      1827    8    0    1
 -2       885       884       954      3504      3732      3733
 -1      1828    8    0    1
 -2       884       953       954      3730      3734      3732
 -1      1829    8    0    1
 -2       886       885       955      3507      3735      3736
 -1      1830    8    0    1
 -2       885       954       955      3733      3737      3735
 -1      1831    8    0    1
 -2       887       886       956      3510      3738      3739
 -1      1832    8    0    1
 -2       886       955       956      3736      3740      3738
 -1      1833    8    0    1
 -2       888       887       957      3513      3741      3742
 -1      1834    8    0    1
 -2       920       888       957      3639      3742      3743
 -1      1835    8    0    1
 -2       887       956       957      3739      3744      3741
 -1      1836    8    0    1
 -2       894       895       958      3534      3745      3746
 -1      1837    8    0    1
 -2       848       709       849      3377      3379      3747
 -1      1838    8    0    1
 -2       850       924       849      3652      3748      3384
 -1      1839    8    0    1
 -2       924       848       849      3638      3747      3748
 -1      1840    8    0    1
 -2       893       894       959      3531      3749      3750
 -1      1841    8    0    1
 -2       894       958       959      3746      3751      3749
 -1      1842    8    0    1
 -2       892       893       960      3528      3752      3753
 -1      1843    8    0    1
 -2       893       959       960      3750      3754      3752
 -1      1844    8    0    1
 -2       895       896       961      3537      3755      3756
 -1      1845    8    0    1
 -2       895       961       958      3756      3757      3745
 -1      1846    8    0    1
 -2       896       897       962      3540      3758      3759
 -1      1847    8    0    1
 -2       896       962       961      3759      3760      3755
 -1      1848    8    0    1
 -2       897       898       963      3543      3761      3762
 -1      1849    8    0    1
 -2       897       963       962      3762      3763      3758
 -1      1850    8    0    1
 -2       898       899       964      3546      3764      3765
 -1      1851    8    0    1
 -2       898       964       963      3765      3766      3761
 -1      1852    8    0    1
 -2       899       900       965      3549      3767      3768
 -1      1853    8    0    1
 -2       899       965       964      3768      3769      3764
 -1      1854    8    0    1
 -2       900       901       966      3552      3770      3771
 -1      1855    8    0    1
 -2       900       966       965      3771      3772      3767
 -1      1856    8    0    1
 -2       901       902       967      3555      3773      3774
 -1      1857    8    0    1
 -2       901       967       966      3774      3775      3770
 -1      1858    8    0    1
 -2       902       903       968      3558      3776      3777
 -1      1859    8    0    1
 -2       902       968       967      3777      3778      3773
 -1      1860    8    0    1
 -2       903       904       969      3561      3779      3780
 -1      1861    8    0    1
 -2       903       969       968      3780      3781      3776
 -1      1862    8    0    1
 -2       904       905       970      3564      3782      3783
 -1      1863    8    0    1
 -2       904       970       969      3783      3784      3779
 -1      1864    8    0    1
 -2       905       906       971      3567      3785      3786
 -1      1865    8    0    1
 -2       905       971       970      3786      3787      3782
 -1      1866    8    0    1
 -2       906       907       972      3570      3788      3789
 -1      1867    8    0    1
 -2       906       972       971      3789      3790      3785
 -1      1868    8    0    1
 -2       907       908       973      3573      3791      3792
 -1      1869    8    0    1
 -2       907       973       972      3792      3793      3788
 -1      1870    8    0    1
 -2       908       909       974      3576      3794      3795
 -1      1871    8    0    1
 -2       908       974       973      3795      3796      3791
 -1      1872    8    0    1
 -2       909       910       975      3579      3797      3798
 -1      1873    8    0    1
 -2       909       975       974      3798      3799      3794
 -1      1874    8    0    1
 -2       910       911       976      3582      3800      3801
 -1      1875    8    0    1
 -2       910       976       975      3801      3802      3797
 -1      1876    8    0    1
 -2       911       912       977      3585      3803      3804
 -1      1877    8    0    1
 -2       911       977       976      3804      3805      3800
 -1      1878    8    0    1
 -2       912       913       978      3588      3806      3807
 -1      1879    8    0    1
 -2       912       978       977      3807      3808      3803
 -1      1880    8    0    1
 -2       913       914       979      3591      3809      3810
 -1      1881    8    0    1
 -2       913       979       978      3810      3811      3806
 -1      1882    8    0    1
 -2       914       915       980      3594      3812      3813
 -1      1883    8    0    1
 -2       914       980       979      3813      3814      3809
 -1      1884    8    0    1
 -2       915       916       981      3597      3815      3816
 -1      1885    8    0    1
 -2       915       981       980      3816      3817      3812
 -1      1886    8    0    1
 -2       916       917       982      3600      3818      3819
 -1      1887    8    0    1
 -2       916       982       981      3819      3820      3815
 -1      1888    8    0    1
 -2       917       918       983      3603      3821      3822
 -1      1889    8    0    1
 -2       917       983       982      3822      3823      3818
 -1      1890    8    0    1
 -2       918       919       984      3606      3824      3825
 -1      1891    8    0    1
 -2       918       984       983      3825      3826      3821
 -1      1892    8    0    1
 -2       889       920       985      3609      3827      3828
 -1      1893    8    0    1
 -2       920       957       985      3743      3829      3827
 -1      1894    8    0    1
 -2       919       924       986      3637      3830      3831
 -1      1895    8    0    1
 -2       984       919       986      3824      3831      3832
 -1      1896    8    0    1
 -2       924       927       986      3651      3833      3830
 -1      1897    8    0    1
 -2       756       754       838      3414      3653      3337
 -1      1898    8    0    1
 -2       854       851       987      3402      3834      3835
 -1      1899    8    0    1
 -2       854       987       927      3835      3836      3647
 -1      1900    8    0    1
 -2       742       733       836      3362      3331      3837
 -1      1901    8    0    1
 -2       845       891       988      3634      3838      3839
 -1      1902    8    0    1
 -2       926       845       988      3645      3839      3840
 -1      1903    8    0    1
 -2       891       890       988      3523      3841      3838
 -1      1904    8    0    1
 -2       856       922       989      3633      3842      3843
 -1      1905    8    0    1
 -2       922       852       990      3635      3844      3845
 -1      1906    8    0    1
 -2       852       926       990      3644      3846      3844
 -1      1907    8    0    1
 -2       928       858       923      3655      3654      3847
 -1      1908    8    0    1
 -2       892       960       991      3753      3848      3849
 -1      1909    8    0    1
 -2       892       991       921      3849      3850      3615
 -1      1910    8    0    1
 -2       856       989       992      3843      3851      3852
 -1      1911    8    0    1
 -2       889       985       993      3828      3853      3854
 -1      1912    8    0    1
 -2       889       993       925      3854      3855      3642
 -1      1913    8    0    1
 -2       986       927       994      3833      3856      3857
 -1      1914    8    0    1
 -2       927       987       994      3836      3858      3856
 -1      1915    8    0    1
 -2       989       922       995      3842      3859      3860
 -1      1916    8    0    1
 -2       922       990       995      3845      3861      3859
 -1      1917    8    0    1
 -2       856       992       923      3852      3862      3632
 -1      1918    8    0    1
 -2       836       751       742      3398      3628      3837
 -1      1919    8    0    1
 -2       987       851       925      3834      3641      3863
 -1      1920    8    0    1
 -2       890       921       996      3614      3864      3865
 -1      1921    8    0    1
 -2       921       991       996      3850      3866      3864
 -1      1922    8    0    1
 -2       890       996       988      3865      3867      3841
 -1      1923    8    0    1
 -2       992       989       997      3851      3868      3869
 -1      1924    8    0    1
 -2       988       996       998      3867      3870      3871
 -1      1925    8    0    1
 -2       988       998       926      3871      3872      3840
 -1      1926    8    0    1
 -2       984       986       999      3832      3873      3874
 -1      1927    8    0    1
 -2       986       994       999      3857      3875      3873
 -1      1928    8    0    1
 -2       930       929      1000      3662      3876      3877
 -1      1929    8    0    1
 -2       931       930      1001      3665      3878      3879
 -1      1930    8    0    1
 -2       930      1000      1001      3877      3880      3878
 -1      1931    8    0    1
 -2       932       931      1002      3668      3881      3882
 -1      1932    8    0    1
 -2       931      1001      1002      3879      3883      3881
 -1      1933    8    0    1
 -2       933       932      1003      3671      3884      3885
 -1      1934    8    0    1
 -2       932      1002      1003      3882      3886      3884
 -1      1935    8    0    1
 -2       934       933      1004      3674      3887      3888
 -1      1936    8    0    1
 -2       933      1003      1004      3885      3889      3887
 -1      1937    8    0    1
 -2       935       934      1005      3677      3890      3891
 -1      1938    8    0    1
 -2       934      1004      1005      3888      3892      3890
 -1      1939    8    0    1
 -2       936       935      1006      3680      3893      3894
 -1      1940    8    0    1
 -2       935      1005      1006      3891      3895      3893
 -1      1941    8    0    1
 -2       937       936      1007      3683      3896      3897
 -1      1942    8    0    1
 -2       936      1006      1007      3894      3898      3896
 -1      1943    8    0    1
 -2       938       937      1008      3686      3899      3900
 -1      1944    8    0    1
 -2       937      1007      1008      3897      3901      3899
 -1      1945    8    0    1
 -2       939       938      1009      3689      3902      3903
 -1      1946    8    0    1
 -2       938      1008      1009      3900      3904      3902
 -1      1947    8    0    1
 -2       940       939      1010      3692      3905      3906
 -1      1948    8    0    1
 -2       939      1009      1010      3903      3907      3905
 -1      1949    8    0    1
 -2       941       940      1011      3695      3908      3909
 -1      1950    8    0    1
 -2       940      1010      1011      3906      3910      3908
 -1      1951    8    0    1
 -2       942       941      1012      3698      3911      3912
 -1      1952    8    0    1
 -2       941      1011      1012      3909      3913      3911
 -1      1953    8    0    1
 -2       943       942      1013      3701      3914      3915
 -1      1954    8    0    1
 -2       942      1012      1013      3912      3916      3914
 -1      1955    8    0    1
 -2       944       943      1014      3704      3917      3918
 -1      1956    8    0    1
 -2       943      1013      1014      3915      3919      3917
 -1      1957    8    0    1
 -2       945       944      1015      3707      3920      3921
 -1      1958    8    0    1
 -2       944      1014      1015      3918      3922      3920
 -1      1959    8    0    1
 -2       946       945      1016      3710      3923      3924
 -1      1960    8    0    1
 -2       945      1015      1016      3921      3925      3923
 -1      1961    8    0    1
 -2       947       946      1017      3713      3926      3927
 -1      1962    8    0    1
 -2       946      1016      1017      3924      3928      3926
 -1      1963    8    0    1
 -2       948       947      1018      3716      3929      3930
 -1      1964    8    0    1
 -2       947      1017      1018      3927      3931      3929
 -1      1965    8    0    1
 -2       949       948      1019      3719      3932      3933
 -1      1966    8    0    1
 -2       948      1018      1019      3930      3934      3932
 -1      1967    8    0    1
 -2       950       949      1020      3722      3935      3936
 -1      1968    8    0    1
 -2       949      1019      1020      3933      3937      3935
 -1      1969    8    0    1
 -2       951       950      1021      3725      3938      3939
 -1      1970    8    0    1
 -2       950      1020      1021      3936      3940      3938
 -1      1971    8    0    1
 -2       952       951      1022      3728      3941      3942
 -1      1972    8    0    1
 -2       951      1021      1022      3939      3943      3941
 -1      1973    8    0    1
 -2       953       952      1023      3731      3944      3945
 -1      1974    8    0    1
 -2       952      1022      1023      3942      3946      3944
 -1      1975    8    0    1
 -2       954       953      1024      3734      3947      3948
 -1      1976    8    0    1
 -2       953      1023      1024      3945      3949      3947
 -1      1977    8    0    1
 -2       955       954      1025      3737      3950      3951
 -1      1978    8    0    1
 -2       954      1024      1025      3948      3952      3950
 -1      1979    8    0    1
 -2       956       955      1026      3740      3953      3954
 -1      1980    8    0    1
 -2       955      1025      1026      3951      3955      3953
 -1      1981    8    0    1
 -2       957       956      1027      3744      3956      3957
 -1      1982    8    0    1
 -2       985       957      1027      3829      3957      3958
 -1      1983    8    0    1
 -2       956      1026      1027      3954      3959      3956
 -1      1984    8    0    1
 -2       959       958      1028      3751      3960      3961
 -1      1985    8    0    1
 -2       960       959      1029      3754      3962      3963
 -1      1986    8    0    1
 -2       959      1028      1029      3961      3964      3962
 -1      1987    8    0    1
 -2       962       963      1030      3763      3965      3966
 -1      1988    8    0    1
 -2       963       964      1031      3766      3967      3968
 -1      1989    8    0    1
 -2       963      1031      1030      3968      3969      3965
 -1      1990    8    0    1
 -2       964       965      1032      3769      3970      3971
 -1      1991    8    0    1
 -2       964      1032      1031      3971      3972      3967
 -1      1992    8    0    1
 -2       965       966      1033      3772      3973      3974
 -1      1993    8    0    1
 -2       965      1033      1032      3974      3975      3970
 -1      1994    8    0    1
 -2       966       967      1034      3775      3976      3977
 -1      1995    8    0    1
 -2       966      1034      1033      3977      3978      3973
 -1      1996    8    0    1
 -2       967       968      1035      3778      3979      3980
 -1      1997    8    0    1
 -2       967      1035      1034      3980      3981      3976
 -1      1998    8    0    1
 -2       968       969      1036      3781      3982      3983
 -1      1999    8    0    1
 -2       968      1036      1035      3983      3984      3979
 -1      2000    8    0    1
 -2       969       970      1037      3784      3985      3986
 -1      2001    8    0    1
 -2       969      1037      1036      3986      3987      3982
 -1      2002    8    0    1
 -2       970       971      1038      3787      3988      3989
 -1      2003    8    0    1
 -2       970      1038      1037      3989      3990      3985
 -1      2004    8    0    1
 -2       971       972      1039      3790      3991      3992
 -1      2005    8    0    1
 -2       971      1039      1038      3992      3993      3988
 -1      2006    8    0    1
 -2       972       973      1040      3793      3994      3995
 -1      2007    8    0    1
 -2       972      1040      1039      3995      3996      3991
 -1      2008    8    0    1
 -2       973       974      1041      3796      3997      3998
 -1      2009    8    0    1
 -2       973      1041      1040      3998      3999      3994
 -1      2010    8    0    1
 -2       974       975      1042      3799      4000      4001
 -1      2011    8    0    1
 -2       974      1042      1041      4001      4002      3997
 -1      2012    8    0    1
 -2       975       976      1043      3802      4003      4004
 -1      2013    8    0    1
 -2       975      1043      1042      4004      4005      4000
 -1      2014    8    0    1
 -2       976       977      1044      3805      4006      4007
 -1      2015    8    0    1
 -2       976      1044      1043      4007      4008      4003
 -1      2016    8    0    1
 -2       977       978      1045      3808      4009      4010
 -1      2017    8    0    1
 -2       977      1045      1044      4010      4011      4006
 -1      2018    8    0    1
 -2       978       979      1046      3811      4012      4013
 -1      2019    8    0    1
 -2       978      1046      1045      4013      4014      4009
 -1      2020    8    0    1
 -2       979       980      1047      3814      4015      4016
 -1      2021    8    0    1
 -2       979      1047      1046      4016      4017      4012
 -1      2022    8    0    1
 -2       980       981      1048      3817      4018      4019
 -1      2023    8    0    1
 -2       980      1048      1047      4019      4020      4015
 -1      2024    8    0    1
 -2       981       982      1049      3820      4021      4022
 -1      2025    8    0    1
 -2       981      1049      1048      4022      4023      4018
 -1      2026    8    0    1
 -2       982       983      1050      3823      4024      4025
 -1      2027    8    0    1
 -2       982      1050      1049      4025      4026      4021
 -1      2028    8    0    1
 -2       983       984       999      3826      3874      4027
 -1      2029    8    0    1
 -2       958       961      1051      3757      4028      4029
 -1      2030    8    0    1
 -2       958      1051      1028      4029      4030      3960
 -1      2031    8    0    1
 -2       928       923       992      3847      3862      4031
 -1      2032    8    0    1
 -2       987       925      1052      3863      4032      4033
 -1      2033    8    0    1
 -2       994       987      1052      3858      4033      4034
 -1      2034    8    0    1
 -2       925       993      1052      3855      4035      4032
 -1      2035    8    0    1
 -2       961       962      1053      3760      4036      4037
 -1      2036    8    0    1
 -2       961      1053      1051      4037      4038      4028
 -1      2037    8    0    1
 -2       990       926       998      3846      3872      4039
 -1      2038    8    0    1
 -2       928       992       929      4031      4040      3659
 -1      2039    8    0    1
 -2       991       960      1054      3848      4041      4042
 -1      2040    8    0    1
 -2       960      1029      1054      3963      4043      4041
 -1      2041    8    0    1
 -2       929       992       997      4040      3869      4044
 -1      2042    8    0    1
 -2      1000       929       997      3876      4044      4045
 -1      2043    8    0    1
 -2       985      1027      1055      3958      4046      4047
 -1      2044    8    0    1
 -2       985      1055       993      4047      4048      3853
 -1      2045    8    0    1
 -2       983       999      1050      4027      4049      4024
 -1      2046    8    0    1
 -2       990       998       995      4039      4050      3861
 -1      2047    8    0    1
 -2      1053       962      1030      4036      3966      4051
 -1      2048    8    0    1
 -2       996       991      1056      3866      4052      4053
 -1      2049    8    0    1
 -2       998       996      1056      3870      4053      4054
 -1      2050    8    0    1
 -2       991      1054      1056      4042      4055      4052
 -1      2051    8    0    1
 -2       989       995       997      3860      4056      3868
 -1      2052    8    0    1
 -2       997       995      1057      4056      4057      4058
 -1      2053    8    0    1
 -2       999       994      1058      3875      4059      4060
 -1      2054    8    0    1
 -2       994      1052      1058      4034      4061      4059
 -1      2055    8    0    1
 -2      1002      1001      1059      3883      4062      4063
 -1      2056    8    0    1
 -2      1003      1002      1060      3886      4064      4065
 -1      2057    8    0    1
 -2      1002      1059      1060      4063      4066      4064
 -1      2058    8    0    1
 -2      1004      1003      1061      3889      4067      4068
 -1      2059    8    0    1
 -2      1003      1060      1061      4065      4069      4067
 -1      2060    8    0    1
 -2      1005      1004      1062      3892      4070      4071
 -1      2061    8    0    1
 -2      1004      1061      1062      4068      4072      4070
 -1      2062    8    0    1
 -2      1006      1005      1063      3895      4073      4074
 -1      2063    8    0    1
 -2      1005      1062      1063      4071      4075      4073
 -1      2064    8    0    1
 -2      1007      1006      1064      3898      4076      4077
 -1      2065    8    0    1
 -2      1006      1063      1064      4074      4078      4076
 -1      2066    8    0    1
 -2      1008      1007      1065      3901      4079      4080
 -1      2067    8    0    1
 -2      1007      1064      1065      4077      4081      4079
 -1      2068    8    0    1
 -2      1009      1008      1066      3904      4082      4083
 -1      2069    8    0    1
 -2      1008      1065      1066      4080      4084      4082
 -1      2070    8    0    1
 -2      1010      1009      1067      3907      4085      4086
 -1      2071    8    0    1
 -2      1009      1066      1067      4083      4087      4085
 -1      2072    8    0    1
 -2      1011      1010      1068      3910      4088      4089
 -1      2073    8    0    1
 -2      1010      1067      1068      4086      4090      4088
 -1      2074    8    0    1
 -2      1012      1011      1069      3913      4091      4092
 -1      2075    8    0    1
 -2      1011      1068      1069      4089      4093      4091
 -1      2076    8    0    1
 -2      1013      1012      1070      3916      4094      4095
 -1      2077    8    0    1
 -2      1012      1069      1070      4092      4096      4094
 -1      2078    8    0    1
 -2      1014      1013      1071      3919      4097      4098
 -1      2079    8    0    1
 -2      1013      1070      1071      4095      4099      4097
 -1      2080    8    0    1
 -2      1015      1014      1072      3922      4100      4101
 -1      2081    8    0    1
 -2      1014      1071      1072      4098      4102      4100
 -1      2082    8    0    1
 -2      1016      1015      1073      3925      4103      4104
 -1      2083    8    0    1
 -2      1015      1072      1073      4101      4105      4103
 -1      2084    8    0    1
 -2      1017      1016      1074      3928      4106      4107
 -1      2085    8    0    1
 -2      1016      1073      1074      4104      4108      4106
 -1      2086    8    0    1
 -2      1018      1017      1075      3931      4109      4110
 -1      2087    8    0    1
 -2      1017      1074      1075      4107      4111      4109
 -1      2088    8    0    1
 -2      1019      1018      1076      3934      4112      4113
 -1      2089    8    0    1
 -2      1018      1075      1076      4110      4114      4112
 -1      2090    8    0    1
 -2      1020      1019      1077      3937      4115      4116
 -1      2091    8    0    1
 -2      1019      1076      1077      4113      4117      4115
 -1      2092    8    0    1
 -2      1021      1020      1078      3940      4118      4119
 -1      2093    8    0    1
 -2      1020      1077      1078      4116      4120      4118
 -1      2094    8    0    1
 -2      1022      1021      1079      3943      4121      4122
 -1      2095    8    0    1
 -2      1021      1078      1079      4119      4123      4121
 -1      2096    8    0    1
 -2      1023      1022      1080      3946      4124      4125
 -1      2097    8    0    1
 -2      1022      1079      1080      4122      4126      4124
 -1      2098    8    0    1
 -2      1024      1023      1081      3949      4127      4128
 -1      2099    8    0    1
 -2      1023      1080      1081      4125      4129      4127
 -1      2100    8    0    1
 -2      1025      1024      1082      3952      4130      4131
 -1      2101    8    0    1
 -2      1024      1081      1082      4128      4132      4130
 -1      2102    8    0    1
 -2      1026      1025      1083      3955      4133      4134
 -1      2103    8    0    1
 -2      1025      1082      1083      4131      4135      4133
 -1      2104    8    0    1
 -2      1027      1026      1084      3959      4136      4137
 -1      2105    8    0    1
 -2      1055      1027      1084      4046      4137      4138
 -1      2106    8    0    1
 -2      1026      1083      1084      4134      4139      4136
 -1      2107    8    0    1
 -2      1029      1028      1085      3964      4140      4141
 -1      2108    8    0    1
 -2      1051      1053      1086      4038      4142      4143
 -1      2109    8    0    1
 -2      1031      1032      1087      3972      4144      4145
 -1      2110    8    0    1
 -2      1030      1031      1088      3969      4146      4147
 -1      2111    8    0    1
 -2      1031      1087      1088      4145      4148      4146
 -1      2112    8    0    1
 -2      1033      1034      1089      3978      4149      4150
 -1      2113    8    0    1
 -2      1034      1035      1090      3981      4151      4152
 -1      2114    8    0    1
 -2      1034      1090      1089      4152      4153      4149
 -1      2115    8    0    1
 -2      1035      1036      1091      3984      4154      4155
 -1      2116    8    0    1
 -2      1035      1091      1090      4155      4156      4151
 -1      2117    8    0    1
 -2      1036      1037      1092      3987      4157      4158
 -1      2118    8    0    1
 -2      1036      1092      1091      4158      4159      4154
 -1      2119    8    0    1
 -2      1037      1038      1093      3990      4160      4161
 -1      2120    8    0    1
 -2      1037      1093      1092      4161      4162      4157
 -1      2121    8    0    1
 -2      1038      1039      1094      3993      4163      4164
 -1      2122    8    0    1
 -2      1038      1094      1093      4164      4165      4160
 -1      2123    8    0    1
 -2      1039      1040      1095      3996      4166      4167
 -1      2124    8    0    1
 -2      1039      1095      1094      4167      4168      4163
 -1      2125    8    0    1
 -2      1040      1041      1096      3999      4169      4170
 -1      2126    8    0    1
 -2      1040      1096      1095      4170      4171      4166
 -1      2127    8    0    1
 -2      1041      1042      1097      4002      4172      4173
 -1      2128    8    0    1
 -2      1041      1097      1096      4173      4174      4169
 -1      2129    8    0    1
 -2      1042      1043      1098      4005      4175      4176
 -1      2130    8    0    1
 -2      1042      1098      1097      4176      4177      4172
 -1      2131    8    0    1
 -2      1043      1044      1099      4008      4178      4179
 -1      2132    8    0    1
 -2      1043      1099      1098      4179      4180      4175
 -1      2133    8    0    1
 -2      1044      1045      1100      4011      4181      4182
 -1      2134    8    0    1
 -2      1044      1100      1099      4182      4183      4178
 -1      2135    8    0    1
 -2      1045      1046      1101      4014      4184      4185
 -1      2136    8    0    1
 -2      1045      1101      1100      4185      4186      4181
 -1      2137    8    0    1
 -2      1046      1047      1102      4017      4187      4188
 -1      2138    8    0    1
 -2      1046      1102      1101      4188      4189      4184
 -1      2139    8    0    1
 -2      1047      1048      1103      4020      4190      4191
 -1      2140    8    0    1
 -2      1047      1103      1102      4191      4192      4187
 -1      2141    8    0    1
 -2      1048      1049      1104      4023      4193      4194
 -1      2142    8    0    1
 -2      1048      1104      1103      4194      4195      4190
 -1      2143    8    0    1
 -2      1049      1050      1105      4026      4196      4197
 -1      2144    8    0    1
 -2      1049      1105      1104      4197      4198      4193
 -1      2145    8    0    1
 -2       995       998      1056      4050      4054      4199
 -1      2146    8    0    1
 -2      1053      1030      1106      4051      4200      4201
 -1      2147    8    0    1
 -2      1030      1088      1106      4147      4202      4200
 -1      2148    8    0    1
 -2      1032      1033      1107      3975      4203      4204
 -1      2149    8    0    1
 -2      1087      1032      1107      4144      4204      4205
 -1      2150    8    0    1
 -2      1033      1089      1107      4150      4206      4203
 -1      2151    8    0    1
 -2      1001      1000      1108      3880      4207      4208
 -1      2152    8    0    1
 -2      1059      1001      1108      4062      4208      4209
 -1      2153    8    0    1
 -2      1000       997      1108      4045      4210      4207
 -1      2154    8    0    1
 -2      1028      1051      1109      4030      4211      4212
 -1      2155    8    0    1
 -2      1085      1028      1109      4140      4212      4213
 -1      2156    8    0    1
 -2      1051      1086      1109      4143      4214      4211
 -1      2157    8    0    1
 -2      1086      1053      1106      4142      4201      4215
 -1      2158    8    0    1
 -2       995      1056      1057      4199      4216      4057
 -1      2159    8    0    1
 -2      1108       997      1057      4210      4058      4217
 -1      2160    8    0    1
 -2      1054      1029      1110      4043      4218      4219
 -1      2161    8    0    1
 -2      1029      1085      1110      4141      4220      4218
 -1      2162    8    0    1
 -2      1052       993      1111      4035      4221      4222
 -1      2163    8    0    1
 -2      1058      1052      1111      4061      4222      4223
 -1      2164    8    0    1
 -2       993      1055      1111      4048      4224      4221
 -1      2165    8    0    1
 -2      1050       999      1112      4049      4225      4226
 -1      2166    8    0    1
 -2      1050      1112      1105      4226      4227      4196
 -1      2167    8    0    1
 -2      1091      1092      1069      4159      4228      4229
 -1      2168    8    0    1
 -2      1061      1060      1109      4069      4230      4231
 -1      2169    8    0    1
 -2      1062      1061      1086      4072      4232      4233
 -1      2170    8    0    1
 -2      1063      1062      1106      4075      4234      4235
 -1      2171    8    0    1
 -2      1064      1063      1088      4078      4236      4237
 -1      2172    8    0    1
 -2      1065      1064      1087      4081      4238      4239
 -1      2173    8    0    1
 -2      1066      1065      1107      4084      4240      4241
 -1      2174    8    0    1
 -2      1067      1066      1089      4087      4242      4243
 -1      2175    8    0    1
 -2      1068      1067      1090      4090      4244      4245
 -1      2176    8    0    1
 -2      1069      1068      1091      4093      4246      4229
 -1      2177    8    0    1
 -2      1070      1069      1092      4096      4228      4247
 -1      2178    8    0    1
 -2      1071      1070      1093      4099      4248      4249
 -1      2179    8    0    1
 -2      1072      1071      1094      4102      4250      4251
 -1      2180    8    0    1
 -2      1073      1072      1095      4105      4252      4253
 -1      2181    8    0    1
 -2      1074      1073      1096      4108      4254      4255
 -1      2182    8    0    1
 -2      1075      1074      1097      4111      4256      4257
 -1      2183    8    0    1
 -2      1076      1075      1098      4114      4258      4259
 -1      2184    8    0    1
 -2      1077      1076      1099      4117      4260      4261
 -1      2185    8    0    1
 -2      1078      1077      1100      4120      4262      4263
 -1      2186    8    0    1
 -2      1079      1078      1101      4123      4264      4265
 -1      2187    8    0    1
 -2      1080      1079      1102      4126      4266      4267
 -1      2188    8    0    1
 -2      1081      1080      1103      4129      4268      4269
 -1      2189    8    0    1
 -2      1082      1081      1104      4132      4270      4271
 -1      2190    8    0    1
 -2      1083      1082      1105      4135      4272      4273
 -1      2191    8    0    1
 -2      1106      1062      1086      4234      4233      4215
 -1      2192    8    0    1
 -2      1071      1093      1094      4249      4165      4250
 -1      2193    8    0    1
 -2      1059      1108      1110      4209      4274      4275
 -1      2194    8    0    1
 -2      1090      1091      1068      4156      4246      4245
 -1      2195    8    0    1
 -2      1089      1090      1067      4153      4244      4243
 -1      2196    8    0    1
 -2      1092      1093      1070      4162      4248      4247
 -1      2197    8    0    1
 -2      1094      1095      1072      4168      4252      4251
 -1      2198    8    0    1
 -2      1095      1096      1073      4171      4254      4253
 -1      2199    8    0    1
 -2      1096      1097      1074      4174      4256      4255
 -1      2200    8    0    1
 -2      1097      1098      1075      4177      4258      4257
 -1      2201    8    0    1
 -2      1098      1099      1076      4180      4260      4259
 -1      2202    8    0    1
 -2      1099      1100      1077      4183      4262      4261
 -1      2203    8    0    1
 -2      1100      1101      1078      4186      4264      4263
 -1      2204    8    0    1
 -2      1101      1102      1079      4189      4266      4265
 -1      2205    8    0    1
 -2      1102      1103      1080      4192      4268      4267
 -1      2206    8    0    1
 -2      1103      1104      1081      4195      4270      4269
 -1      2207    8    0    1
 -2      1104      1105      1082      4198      4272      4271
 -1      2208    8    0    1
 -2      1086      1061      1109      4232      4231      4214
 -1      2209    8    0    1
 -2      1088      1087      1064      4148      4238      4237
 -1      2210    8    0    1
 -2      1106      1088      1063      4202      4236      4235
 -1      2211    8    0    1
 -2      1056      1054      1057      4055      4276      4216
 -1      2212    8    0    1
 -2      1089      1066      1107      4242      4241      4206
 -1      2213    8    0    1
 -2      1060      1059      1085      4066      4277      4278
 -1      2214    8    0    1
 -2      1108      1057      1110      4217      4279      4274
 -1      2215    8    0    1
 -2      1105      1112      1083      4227      4280      4273
 -1      2216    8    0    1
 -2      1057      1054      1110      4276      4219      4279
 -1      2217    8    0    1
 -2      1065      1087      1107      4239      4205      4240
 -1      2218    8    0    1
 -2      1085      1059      1110      4277      4275      4220
 -1      2219    8    0    1
 -2      1060      1085      1109      4278      4213      4230
 -1      2220    8    0    1
 -2       999      1058      1112      4060      4281      4225
 -1      2221    8    0    1
 -2      1083      1112      1084      4280      4282      4139
 -1      2222    8    0    1
 -2      1112      1058      1111      4281      4223      4283
 -1      2223    8    0    1
 -2      1055      1084      1112      4138      4282      4284
 -1      2224    8    0    1
 -2      1055      1112      1111      4284      4283      4224
 -3
    1PSTEP                         1           1           1          
  100CL  101 1.000000000        4284                     0    1           1
 -4  DISP        4    1
 -5  D1          1    2    1    0
 -5  D2          1    2    2    0
 -5  D3          1    2    3    0
 -5  ALL         1    2    0    0    1ALL
 -1         1 2.82300E-03-6.44686E-04-7.48968E-15
 -1         2 5.03166E-03 1.50040E-04-1.23078E-14
 -1         3 1.53782E-02 1.64773E-03-2.06029E-13
 -1         4 1.50042E-02 2.18856E-04-2.10227E-13
 -1         5 0.00000E+00 0.00000E+00 0.00000E+00
 -1         6 0.00000E+00 0.00000E+00 0.00000E+00
 -1         7 0.00000E+00 0.00000E+00 0.00000E+00
 -1         8 0.00000E+00 0.00000E+00 0.00000E+00
 -1         9 0.00000E+00 0.00000E+00 0.00000E+00
 -1        10 0.00000E+00 0.00000E+00 0.00000E+00
 -1        11 0.00000E+00 0.00000E+00 0.00000E+00
 -1        12 0.00000E+00 0.00000E+00 0.00000E+00
 -1        13 0.00000E+00 0.00000E+00 0.00000E+00
 -1        14 0.00000E+00 0.00000E+00 0.00000E+00
 -1        15 0.00000E+00 0.00000E+00 0.00000E+00
 -1        16 0.00000E+00 0.00000E+00 0.00000E+00
 -1        17 0.00000E+00 0.00000E+00 0.00000E+00
 -1        18 0.00000E+00 0.00000E+00 0.00000E+00
 -1        19 0.00000E+00 0.00000E+00 0.00000E+00
 -1        20 0.00000E+00 0.00000E+00 0.00000E+00
 -1        21 0.00000E+00 0.00000E+00 0.00000E+00
 -1        22 0.00000E+00 0.00000E+00 0.00000E+00
 -1        23 4.91169E-04-2.88557E-04 5.07339E-17
 -1        24 8.58499E-04-4.51671E-04-1.41549E-16
 -1        25 1.20483E-03-5.88978E-04-5.72506E-16
 -1        26 1.53886E-03-7.16698E-04-1.24041E-15
 -1        27 1.85692E-03-8.38861E-04-2.14669E-15
 -1        28 2.15434E-03-9.49285E-04-3.28848E-15
 -1        29 2.42969E-03-1.03545E-03-4.67066E-15
 -1        30 2.68776E-03-1.08350E-03-6.29643E-15
 -1        31 2.93952E-03-1.08467E-03-8.16924E-15
 -1        32 3.19847E-03-1.04006E-03-1.02845E-14
 -1        33 3.47526E-03-9.60709E-04-1.26331E-14
 -1        34 3.77403E-03-8.63040E-04-1.51964E-14
 -1        35 4.09234E-03-7.62897E-04-1.79619E-14
 -1        36 4.42372E-03-6.71538E-04-2.09161E-14
 -1        37 4.76082E-03-5.94616E-04-2.40509E-14
 -1        38 5.09755E-03-5.33261E-04-2.73579E-14
 -1        39 5.42986E-03-4.85869E-04-3.08316E-14
 -1        40 5.75567E-03-4.49648E-04-3.44638E-14
 -1        41 6.07434E-03-4.21627E-04-3.82540E-14
 -1        42 6.38615E-03-3.99174E-04-4.21986E-14
 -1        43 6.69188E-03-3.80186E-04-4.62964E-14
 -1        44 6.99250E-03-3.63101E-04-5.05427E-14
 -1        45 7.28898E-03-3.46824E-04-5.49300E-14
 -1        46 7.58222E-03-3.30632E-04-5.94597E-14
 -1        47 7.87299E-03-3.14082E-04-6.41184E-14
 -1        48 8.16193E-03-2.96932E-04-6.89024E-14
 -1        49 8.44956E-03-2.79074E-04-7.38051E-14
 -1        50 8.73626E-03-2.60492E-04-7.88349E-14
 -1        51 9.02234E-03-2.41221E-04-8.39885E-14
 -1        52 9.30803E-03-2.21331E-04-8.92639E-14
 -1        53 9.59347E-03-2.00903E-04-9.46343E-14
 -1        54 9.87878E-03-1.80019E-04-1.00090E-13
 -1        55 1.01640E-02-1.58761E-04-1.05623E-13
 -1        56 1.04493E-02-1.37200E-04-1.11239E-13
 -1        57 1.07346E-02-1.15401E-04-1.16948E-13
 -1        58 1.10199E-02-9.34158E-05-1.22734E-13
 -1        59 1.13053E-02-7.12897E-05-1.28586E-13
 -1        60 1.15908E-02-4.90581E-05-1.34499E-13
 -1        61 1.18762E-02-2.67496E-05-1.40485E-13
 -1        62 1.21618E-02-4.38633E-06-1.46547E-13
 -1        63 1.24473E-02 1.80147E-05-1.52690E-13
 -1        64 1.27330E-02 4.04406E-05-1.58908E-13
 -1        65 1.30186E-02 6.28816E-05-1.65208E-13
 -1        66 1.33042E-02 8.53305E-05-1.71572E-13
 -1        67 1.35899E-02 1.07782E-04-1.77985E-13
 -1        68 1.38756E-02 1.30232E-04-1.84439E-13
 -1        69 1.41613E-02 1.52678E-04-1.90932E-13
 -1        70 1.44470E-02 1.75117E-04-1.97450E-13
 -1        71 1.47327E-02 1.97549E-04-2.03990E-13
 -1        72 5.09325E-04 2.85404E-04 8.91350E-17
 -1        73 8.98493E-04 4.49417E-04-3.23567E-17
 -1        74 1.27574E-03 5.95013E-04-3.62327E-16
 -1        75 1.64364E-03 7.45036E-04-9.06972E-16
 -1        76 1.99514E-03 9.03330E-04-1.67353E-15
 -1        77 2.32053E-03 1.06069E-03-2.67011E-15
 -1        78 2.61393E-03 1.19663E-03-3.90554E-15
 -1        79 2.87980E-03 1.28626E-03-5.38451E-15
 -1        80 3.13453E-03 1.31241E-03-7.10917E-15
 -1        81 3.39990E-03 1.27590E-03-9.08227E-15
 -1        82 3.69217E-03 1.19562E-03-1.12938E-14
 -1        83 4.01532E-03 1.09855E-03-1.37268E-14
 -1        84 4.36242E-03 1.00806E-03-1.63640E-14
 -1        85 4.72182E-03 9.37848E-04-1.91929E-14
 -1        86 5.08269E-03 8.92232E-04-2.22071E-14
 -1        87 5.43764E-03 8.69453E-04-2.54042E-14
 -1        88 5.78288E-03 8.65062E-04-2.87690E-14
 -1        89 6.11731E-03 8.74137E-04-3.22953E-14
 -1        90 6.44145E-03 8.92357E-04-3.59848E-14
 -1        91 6.75656E-03 9.16346E-04-3.98371E-14
 -1        92 7.06420E-03 9.43653E-04-4.38475E-14
 -1        93 7.36585E-03 9.72591E-04-4.80119E-14
 -1        94 7.66285E-03 1.00205E-03-5.23328E-14
 -1        95 7.95633E-03 1.03136E-03-5.67911E-14
 -1        96 8.24718E-03 1.06012E-03-6.13787E-14
 -1        97 8.53614E-03 1.08813E-03-6.60886E-14
 -1        98 8.82374E-03 1.11534E-03-7.09259E-14
 -1        99 9.11041E-03 1.14175E-03-7.58699E-14
 -1       100 9.39646E-03 1.16743E-03-8.09253E-14
 -1       101 9.68211E-03 1.19247E-03-8.61052E-14
 -1       102 9.96753E-03 1.21695E-03-9.13949E-14
 -1       103 1.02528E-02 1.24096E-03-9.67985E-14
 -1       104 1.05381E-02 1.26459E-03-1.02293E-13
 -1       105 1.08233E-02 1.28791E-03-1.07876E-13
 -1       106 1.11086E-02 1.31100E-03-1.13560E-13
 -1       107 1.13940E-02 1.33390E-03-1.19344E-13
 -1       108 1.16793E-02 1.35665E-03-1.25204E-13
 -1       109 1.19648E-02 1.37930E-03-1.31152E-13
 -1       110 1.22503E-02 1.40188E-03-1.37168E-13
 -1       111 1.25358E-02 1.42440E-03-1.43242E-13
 -1       112 1.28214E-02 1.44688E-03-1.49385E-13
 -1       113 1.31070E-02 1.46933E-03-1.55592E-13
 -1       114 1.33926E-02 1.49177E-03-1.61853E-13
 -1       115 1.36783E-02 1.51421E-03-1.68159E-13
 -1       116 1.39639E-02 1.53664E-03-1.74481E-13
 -1       117 1.42496E-02 1.55907E-03-1.80827E-13
 -1       118 1.45353E-02 1.58151E-03-1.87196E-13
 -1       119 1.48210E-02 1.60395E-03-1.93588E-13
 -1       120 1.51068E-02 1.62640E-03-1.99976E-13
 -1       121 1.53561E-02 1.56345E-03-2.06322E-13
 -1       122 1.53340E-02 1.47916E-03-2.06622E-13
 -1       123 1.53119E-02 1.39487E-03-2.06897E-13
 -1       124 1.52898E-02 1.31058E-03-2.07176E-13
 -1       125 1.52677E-02 1.22627E-03-2.07469E-13
 -1       126 1.52460E-02 1.14339E-03-2.07775E-13
 -1       127 1.52239E-02 1.05907E-03-2.08058E-13
 -1       128 1.52019E-02 9.74743E-04-2.08317E-13
 -1       129 1.51798E-02 8.90417E-04-2.08573E-13
 -1       130 1.51577E-02 8.06092E-04-2.08820E-13
 -1       131 1.51357E-02 7.21772E-04-2.09090E-13
 -1       132 1.51140E-02 6.38888E-04-2.09348E-13
 -1       133 1.50920E-02 5.54583E-04-2.09564E-13
 -1       134 1.50699E-02 4.70287E-04-2.09754E-13
 -1       135 1.50479E-02 3.85998E-04-2.09933E-13
 -1       136 1.50259E-02 3.01712E-04-2.10081E-13
 -1       137 4.98681E-03 3.20285E-04-1.21356E-14
 -1       138 4.85708E-03 4.67818E-04-1.17546E-14
 -1       139 4.63621E-03 6.08678E-04-1.11554E-14
 -1       140 4.30020E-03 7.41933E-04-1.03044E-14
 -1       141 3.94588E-03 8.30823E-04-9.46618E-15
 -1       142 3.53895E-03 8.89994E-04-8.56274E-15
 -1       143 3.05576E-03 9.13422E-04-7.55105E-15
 -1       144 2.57769E-03 8.90852E-04-6.61633E-15
 -1       145 2.12745E-03 8.28597E-04-5.78645E-15
 -1       146 1.68116E-03 7.22791E-04-5.00487E-15
 -1       147 1.32698E-03 5.99410E-04-4.41407E-15
 -1       148 1.05296E-03 4.64937E-04-3.97357E-15
 -1       149 8.57559E-04 3.22914E-04-3.67017E-15
 -1       150 7.45322E-04 1.75709E-04-3.50793E-15
 -1       151 7.29449E-04 2.62102E-05-3.50605E-15
 -1       152 8.01985E-04-1.07372E-04-3.65085E-15
 -1       153 9.83037E-04-2.50482E-04-3.98286E-15
 -1       154 1.22410E-03-3.69729E-04-4.42126E-15
 -1       155 1.52499E-03-4.72208E-04-4.97244E-15
 -1       156 1.90003E-03-5.59074E-04-5.67242E-15
 -1       157 2.37150E-03-6.23569E-04-6.58565E-15
 -1       158 3.25014E-03-6.30621E-04-8.37388E-15
 -1       159 3.68268E-03-5.80070E-04-9.30739E-15
 -1       160 4.05576E-03-5.03547E-04-1.01359E-14
 -1       161 4.38103E-03-4.02844E-04-1.08768E-14
 -1       162 4.65172E-03-2.81542E-04-1.15011E-14
 -1       163 4.85371E-03-1.46586E-04-1.19607E-14
 -1       164 4.98252E-03-1.14286E-06-1.22347E-14
 -1       165 2.84587E-04-1.24068E-04-4.68443E-17
 -1       166 2.57853E-04-8.08038E-05-7.56095E-17
 -1       167 2.39531E-04-4.71806E-05-9.04089E-17
 -1       168 2.21156E-04-1.88478E-05-9.81101E-17
 -1       169 2.01039E-04 3.05196E-06-1.01810E-16
 -1       170 1.79345E-04 1.67005E-05-1.03829E-16
 -1       171 1.60163E-04 1.98281E-05-1.04619E-16
 -1       172 1.48788E-04 1.37954E-05-1.04443E-16
 -1       173 1.49316E-04 3.87044E-06-1.02837E-16
 -1       174 1.62099E-04-2.72554E-06-9.96483E-17
 -1       175 1.83186E-04-4.02607E-07-9.45628E-17
 -1       176 2.08440E-04 1.29839E-05-8.65058E-17
 -1       177 2.34137E-04 3.66527E-05-7.39426E-17
 -1       178 2.60352E-04 6.97276E-05-5.35257E-17
 -1       179 2.92701E-04 1.15968E-04-1.91768E-17
 -1       180 3.72048E-04 1.89363E-04 1.72795E-17
 -1       181 5.64744E-04-2.82562E-04-1.31365E-16
 -1       182 9.28365E-04-4.31634E-04-4.82429E-16
 -1       183 1.27493E-03-5.65561E-04-1.05651E-15
 -1       184 1.60861E-03-6.94465E-04-1.85888E-15
 -1       185 1.92882E-03-8.16744E-04-2.89228E-15
 -1       186 2.23468E-03-9.21947E-04-4.16232E-15
 -1       187 2.52757E-03-9.94728E-04-5.67252E-15
 -1       188 2.81246E-03-1.02145E-03-7.42536E-15
 -1       189 3.09702E-03-9.97301E-04-9.42145E-15
 -1       190 3.38870E-03-9.29424E-04-1.16545E-14
 -1       191 3.69181E-03-8.33928E-04-1.41102E-14
 -1       192 4.00646E-03-7.29165E-04-1.67738E-14
 -1       193 4.32965E-03-6.29813E-04-1.96332E-14
 -1       194 4.65710E-03-5.44367E-04-2.26739E-14
 -1       195 4.98481E-03-4.75661E-04-2.58905E-14
 -1       196 5.30981E-03-4.22767E-04-2.92742E-14
 -1       197 5.63034E-03-3.82910E-04-3.28199E-14
 -1       198 5.94561E-03-3.52817E-04-3.65222E-14
 -1       199 6.25555E-03-3.29462E-04-4.03814E-14
 -1       200 6.56056E-03-3.10372E-04-4.43908E-14
 -1       201 6.86122E-03-2.93682E-04-4.85535E-14
 -1       202 7.15823E-03-2.78073E-04-5.28602E-14
 -1       203 7.45227E-03-2.62668E-04-5.73088E-14
 -1       204 7.74394E-03-2.46921E-04-6.18925E-14
 -1       205 8.03380E-03-2.30528E-04-6.66027E-14
 -1       206 8.32228E-03-2.13350E-04-7.14367E-14
 -1       207 8.60975E-03-1.95354E-04-7.63919E-14
 -1       208 8.89650E-03-1.76576E-04-8.14715E-14
 -1       209 9.18273E-03-1.57089E-04-8.66690E-14
 -1       210 9.46863E-03-1.36983E-04-9.19769E-14
 -1       211 9.75431E-03-1.16353E-04-9.73781E-14
 -1       212 1.00399E-02-9.52906E-05-1.02862E-13
 -1       213 1.03253E-02-7.38778E-05-1.08431E-13
 -1       214 1.06108E-02-5.21876E-05-1.14084E-13
 -1       215 1.08963E-02-3.02818E-05-1.19824E-13
 -1       216 1.11817E-02-8.21143E-06-1.25638E-13
 -1       217 1.14672E-02 1.39820E-05-1.31516E-13
 -1       218 1.17528E-02 3.62656E-05-1.37462E-13
 -1       219 1.20383E-02 5.86137E-05-1.43483E-13
 -1       220 1.23239E-02 8.10063E-05-1.49582E-13
 -1       221 1.26095E-02 1.03429E-04-1.55757E-13
 -1       222 1.28952E-02 1.25870E-04-1.62005E-13
 -1       223 1.31808E-02 1.48321E-04-1.68321E-13
 -1       224 1.34665E-02 1.70776E-04-1.74694E-13
 -1       225 1.37522E-02 1.93230E-04-1.81115E-13
 -1       226 1.40379E-02 2.15681E-04-1.87580E-13
 -1       227 1.43236E-02 2.38126E-04-1.94073E-13
 -1       228 1.46093E-02 2.60562E-04-2.00598E-13
 -1       229 7.64266E-04 3.52407E-04-1.33309E-16
 -1       230 1.14151E-03 4.99857E-04-4.79468E-16
 -1       231 1.50710E-03 6.51370E-04-1.03269E-15
 -1       232 1.86035E-03 8.12956E-04-1.80071E-15
 -1       233 2.19727E-03 9.76761E-04-2.79415E-15
 -1       234 2.51482E-03 1.12195E-03-4.02330E-15
 -1       235 2.81513E-03 1.22114E-03-5.49631E-15
 -1       236 3.10729E-03 1.25376E-03-7.21478E-15
 -1       237 3.40398E-03 1.21863E-03-9.17886E-15
 -1       238 3.71504E-03 1.13543E-03-1.13806E-14
 -1       239 4.04308E-03 1.03354E-03-1.38053E-14
 -1       240 4.38422E-03 9.38519E-04-1.64348E-14
 -1       241 4.73164E-03 8.65223E-04-1.92581E-14
 -1       242 5.07884E-03 8.18131E-04-2.22643E-14
 -1       243 5.42119E-03 7.95157E-04-2.54475E-14
 -1       244 5.75618E-03 7.91400E-04-2.87983E-14
 -1       245 6.08298E-03 8.01548E-04-3.23121E-14
 -1       246 6.40182E-03 8.21002E-04-3.59890E-14
 -1       247 6.71350E-03 8.46214E-04-3.98241E-14
 -1       248 7.01910E-03 8.74639E-04-4.38207E-14
 -1       249 7.31969E-03 9.04547E-04-4.79717E-14
 -1       250 7.61629E-03 9.34823E-04-5.22739E-14
 -1       251 7.90979E-03 9.64790E-04-5.67111E-14
 -1       252 8.20091E-03 9.94074E-04-6.12809E-14
 -1       253 8.49026E-03 1.02250E-03-6.59772E-14
 -1       254 8.77831E-03 1.05002E-03-7.07975E-14
 -1       255 9.06543E-03 1.07668E-03-7.57319E-14
 -1       256 9.35190E-03 1.10254E-03-8.07813E-14
 -1       257 9.63792E-03 1.12770E-03-8.59467E-14
 -1       258 9.92367E-03 1.15226E-03-9.12252E-14
 -1       259 1.02092E-02 1.17634E-03-9.66104E-14
 -1       260 1.04947E-02 1.20001E-03-1.02091E-13
 -1       261 1.07802E-02 1.22336E-03-1.07665E-13
 -1       262 1.10656E-02 1.24646E-03-1.13341E-13
 -1       263 1.13510E-02 1.26936E-03-1.19111E-13
 -1       264 1.16365E-02 1.29212E-03-1.24962E-13
 -1       265 1.19220E-02 1.31477E-03-1.30893E-13
 -1       266 1.22075E-02 1.33734E-03-1.36897E-13
 -1       267 1.24931E-02 1.35986E-03-1.42963E-13
 -1       268 1.27787E-02 1.38233E-03-1.49093E-13
 -1       269 1.30643E-02 1.40479E-03-1.55285E-13
 -1       270 1.33500E-02 1.42722E-03-1.61531E-13
 -1       271 1.36356E-02 1.44965E-03-1.67824E-13
 -1       272 1.39213E-02 1.47208E-03-1.74143E-13
 -1       273 1.42070E-02 1.49451E-03-1.80482E-13
 -1       274 1.44927E-02 1.51695E-03-1.86849E-13
 -1       275 1.47784E-02 1.53939E-03-1.93229E-13
 -1       276 1.50641E-02 1.56184E-03-1.99608E-13
 -1       277 1.50976E-02 1.50186E-03-2.00958E-13
 -1       278 1.50756E-02 1.41757E-03-2.01252E-13
 -1       279 1.50535E-02 1.33327E-03-2.01537E-13
 -1       280 1.50314E-02 1.24897E-03-2.01824E-13
 -1       281 1.50096E-02 1.16609E-03-2.02105E-13
 -1       282 1.49875E-02 1.08178E-03-2.02382E-13
 -1       283 1.49655E-02 9.97465E-04-2.02647E-13
 -1       284 1.49434E-02 9.13146E-04-2.02896E-13
 -1       285 1.49213E-02 8.28827E-04-2.03145E-13
 -1       286 1.48993E-02 7.44510E-04-2.03386E-13
 -1       287 1.48776E-02 6.61626E-04-2.03612E-13
 -1       288 1.48556E-02 5.77319E-04-2.03824E-13
 -1       289 1.48335E-02 4.93019E-04-2.04009E-13
 -1       290 1.48115E-02 4.08724E-04-2.04176E-13
 -1       291 1.47104E-02 3.34642E-04-2.02392E-13
 -1       292 5.04578E-03 1.96758E-04-1.35563E-14
 -1       293 4.91537E-03 2.92374E-04-1.30399E-14
 -1       294 4.68136E-03 4.07766E-04-1.24113E-14
 -1       295 4.33450E-03 5.54769E-04-1.15903E-14
 -1       296 3.97518E-03 7.32338E-04-1.03957E-14
 -1       297 3.61259E-03 8.70600E-04-9.33066E-15
 -1       298 3.22404E-03 9.71507E-04-8.19836E-15
 -1       299 2.83990E-03 9.84825E-04-7.03816E-15
 -1       300 2.46122E-03 9.10115E-04-6.02312E-15
 -1       301 2.06809E-03 7.58206E-04-5.10495E-15
 -1       302 1.65274E-03 5.76185E-04-4.40154E-15
 -1       303 1.29650E-03 4.06924E-04-3.85970E-15
 -1       304 1.00192E-03 2.69028E-04-3.47522E-15
 -1       305 7.94468E-04 1.57151E-04-3.18832E-15
 -1       306 7.03976E-04 8.65223E-05-3.15327E-15
 -1       307 7.47214E-04 1.66418E-05-3.22654E-15
 -1       308 9.22298E-04-5.35773E-05-3.37177E-15
 -1       309 1.18932E-03-1.90848E-04-3.87012E-15
 -1       310 1.50560E-03-3.28684E-04-4.39473E-15
 -1       311 1.85684E-03-4.78368E-04-5.07155E-15
 -1       312 2.26354E-03-6.24245E-04-5.93386E-15
 -1       313 2.64159E-03-7.09463E-04-7.00388E-15
 -1       314 2.99581E-03-7.11010E-04-8.05319E-15
 -1       315 3.34508E-03-6.45381E-04-9.18249E-15
 -1       316 3.71873E-03-5.17747E-04-1.02143E-14
 -1       317 4.06959E-03-3.69216E-04-1.11838E-14
 -1       318 4.40401E-03-2.17681E-04-1.20355E-14
 -1       319 4.69570E-03-8.25199E-05-1.27163E-14
 -1       320 4.91521E-03 2.71652E-05-1.31796E-14
 -1       321 5.03769E-03 1.15562E-04-1.33966E-14
 -1       322 5.15239E-04-1.45153E-04-3.14520E-16
 -1       323 5.56760E-04-2.13742E-04-2.70258E-16
 -1       324 4.36619E-04-3.52828E-05-3.51193E-16
 -1       325 3.88851E-04 3.37493E-06-3.56764E-16
 -1       326 3.40044E-04 2.50331E-05-3.58397E-16
 -1       327 3.01980E-04 2.83175E-05-3.57414E-16
 -1       328 2.87930E-04 1.89798E-05-3.53924E-16
 -1       329 3.04335E-04 9.30021E-06-3.47256E-16
 -1       330 3.45352E-04 1.17691E-05-3.36682E-16
 -1       331 4.00306E-04 3.31885E-05-3.20439E-16
 -1       332 4.57454E-04 7.35688E-05-2.95845E-16
 -1       333 5.12769E-04 1.29739E-04-2.58433E-16
 -1       334 5.71952E-04 2.01620E-04-2.00435E-16
 -1       335 6.58985E-04 2.72060E-04-1.77443E-16
 -1       336 1.02836E-03 4.16427E-04-5.30216E-16
 -1       337 1.02646E-03-4.10092E-04-8.57116E-16
 -1       338 1.37035E-03-5.41020E-04-1.56424E-15
 -1       339 1.70749E-03-6.70466E-04-2.49408E-15
 -1       340 2.03560E-03-7.91574E-04-3.65216E-15
 -1       341 2.35284E-03-8.89188E-04-5.04690E-15
 -1       342 2.66031E-03-9.44873E-04-6.68201E-15
 -1       343 2.96336E-03-9.46024E-04-8.55934E-15
 -1       344 3.26926E-03-8.93884E-04-1.06783E-14
 -1       345 3.58291E-03-8.03454E-04-1.30283E-14
 -1       346 3.90459E-03-6.95888E-04-1.55914E-14
 -1       347 4.23113E-03-5.89729E-04-1.83556E-14
 -1       348 4.55844E-03-4.96489E-04-2.13058E-14
 -1       349 4.88335E-03-4.20729E-04-2.44327E-14
 -1       350 5.20405E-03-3.62250E-04-2.77287E-14
 -1       351 5.51984E-03-3.18409E-04-3.11878E-14
 -1       352 5.83070E-03-2.85769E-04-3.48046E-14
 -1       353 6.13696E-03-2.61018E-04-3.85771E-14
 -1       354 6.43915E-03-2.41382E-04-4.25017E-14
 -1       355 6.73781E-03-2.24727E-04-4.65792E-14
 -1       356 7.03352E-03-2.09517E-04-5.08047E-14
 -1       357 7.32680E-03-1.94710E-04-5.51724E-14
 -1       358 7.61813E-03-1.79645E-04-5.96793E-14
 -1       359 7.90791E-03-1.63941E-04-6.43180E-14
 -1       360 8.19651E-03-1.47411E-04-6.90806E-14
 -1       361 8.48419E-03-1.29996E-04-7.39645E-14
 -1       362 8.77120E-03-1.11721E-04-7.89706E-14
 -1       363 9.05772E-03-9.26565E-05-8.40975E-14
 -1       364 9.34389E-03-7.28978E-05-8.93378E-14
 -1       365 9.62982E-03-5.25468E-05-9.46792E-14
 -1       366 9.91559E-03-3.17036E-05-1.00108E-13
 -1       367 1.02013E-02-1.04606E-05-1.05626E-13
 -1       368 1.04869E-02 1.11008E-05-1.11231E-13
 -1       369 1.07725E-02 3.29109E-05-1.16923E-13
 -1       370 1.10580E-02 5.49116E-05-1.22693E-13
 -1       371 1.13436E-02 7.70557E-05-1.28532E-13
 -1       372 1.16292E-02 9.93054E-05-1.34444E-13
 -1       373 1.19148E-02 1.21631E-04-1.40425E-13
 -1       374 1.22004E-02 1.44010E-04-1.46484E-13
 -1       375 1.24861E-02 1.66424E-04-1.52616E-13
 -1       376 1.27717E-02 1.88862E-04-1.58818E-13
 -1       377 1.30574E-02 2.11313E-04-1.65091E-13
 -1       378 1.33431E-02 2.33769E-04-1.71423E-13
 -1       379 1.36288E-02 2.56228E-04-1.77809E-13
 -1       380 1.39145E-02 2.78683E-04-1.84242E-13
 -1       381 1.42002E-02 3.01133E-04-1.90714E-13
 -1       382 1.44553E-02 3.17891E-04-1.96541E-13
 -1       383 1.39241E-03 5.66392E-04-1.08276E-15
 -1       384 1.74999E-03 7.28391E-04-1.84452E-15
 -1       385 2.09806E-03 8.96679E-04-2.82660E-15
 -1       386 2.43264E-03 1.05124E-03-4.04069E-15
 -1       387 2.75299E-03 1.16224E-03-5.49739E-15
 -1       388 3.06505E-03 1.20420E-03-7.20077E-15
 -1       389 3.37940E-03 1.17238E-03-9.15096E-15
 -1       390 3.70426E-03 1.08731E-03-1.13401E-14
 -1       391 4.04066E-03 9.81398E-04-1.37531E-14
 -1       392 4.38402E-03 8.82654E-04-1.63707E-14
 -1       393 4.72838E-03 8.06854E-04-1.91825E-14
 -1       394 5.06914E-03 7.58433E-04-2.21758E-14
 -1       395 5.40373E-03 7.34978E-04-2.53446E-14
 -1       396 5.73116E-03 7.31288E-04-2.86798E-14
 -1       397 6.05142E-03 7.41831E-04-3.21777E-14
 -1       398 6.36506E-03 7.61856E-04-3.58368E-14
 -1       399 6.67286E-03 7.87710E-04-3.96535E-14
 -1       400 6.97571E-03 8.16779E-04-4.36325E-14
 -1       401 7.27446E-03 8.47291E-04-4.77673E-14
 -1       402 7.56991E-03 8.78107E-04-5.20495E-14
 -1       403 7.86274E-03 9.08543E-04-5.64665E-14
 -1       404 8.15354E-03 9.38220E-04-6.10185E-14
 -1       405 8.44279E-03 9.66971E-04-6.57006E-14
 -1       406 8.73088E-03 9.94755E-04-7.05024E-14
 -1       407 9.01813E-03 1.02161E-03-7.54233E-14
 -1       408 9.30476E-03 1.04763E-03-8.04584E-14
 -1       409 9.59097E-03 1.07292E-03-8.56114E-14
 -1       410 9.87690E-03 1.09758E-03-9.08759E-14
 -1       411 1.01626E-02 1.12172E-03-9.62458E-14
 -1       412 1.04483E-02 1.14544E-03-1.01715E-13
 -1       413 1.07338E-02 1.16882E-03-1.07274E-13
 -1       414 1.10193E-02 1.19194E-03-1.12936E-13
 -1       415 1.13049E-02 1.21486E-03-1.18693E-13
 -1       416 1.15904E-02 1.23763E-03-1.24535E-13
 -1       417 1.18760E-02 1.26028E-03-1.30452E-13
 -1       418 1.21615E-02 1.28286E-03-1.36445E-13
 -1       419 1.24471E-02 1.30537E-03-1.42501E-13
 -1       420 1.27328E-02 1.32785E-03-1.48619E-13
 -1       421 1.30184E-02 1.35030E-03-1.54797E-13
 -1       422 1.33040E-02 1.37273E-03-1.61031E-13
 -1       423 1.35897E-02 1.39516E-03-1.67313E-13
 -1       424 1.38754E-02 1.41759E-03-1.73627E-13
 -1       425 1.41611E-02 1.44001E-03-1.79964E-13
 -1       426 1.44468E-02 1.46245E-03-1.86323E-13
 -1       427 1.47325E-02 1.48489E-03-1.92697E-13
 -1       428 1.49151E-02 1.49337E-03-1.96829E-13
 -1       429 1.47950E-02 1.27168E-03-1.96177E-13
 -1       430 1.48171E-02 1.35598E-03-1.95887E-13
 -1       431 1.48661E-02 1.42468E-03-1.96359E-13
 -1       432 1.47732E-02 1.18881E-03-1.96455E-13
 -1       433 1.47512E-02 1.10450E-03-1.96724E-13
 -1       434 1.47291E-02 1.02019E-03-1.96979E-13
 -1       435 1.47070E-02 9.35870E-04-1.97225E-13
 -1       436 1.46849E-02 8.51553E-04-1.97467E-13
 -1       437 1.46629E-02 7.67238E-04-1.97701E-13
 -1       438 1.46412E-02 6.84354E-04-1.97912E-13
 -1       439 1.46192E-02 6.00045E-04-1.98111E-13
 -1       440 1.45971E-02 5.15742E-04-1.98291E-13
 -1       441 1.45751E-02 4.31445E-04-1.98453E-13
 -1       442 4.79800E-03 2.92262E-04-1.39531E-14
 -1       443 5.07574E-03 1.59153E-04-1.48215E-14
 -1       444 4.98679E-03 2.20848E-04-1.44862E-14
 -1       445 4.52016E-03 4.08242E-04-1.30653E-14
 -1       446 4.05893E-03 6.24416E-04-1.17039E-14
 -1       447 4.77788E-04-8.57988E-05-3.38664E-16
 -1       448 3.39668E-03 9.38502E-04-9.09088E-15
 -1       449 3.01680E-03 1.02827E-03-7.61633E-15
 -1       450 2.73764E-03 1.00082E-03-6.56468E-15
 -1       451 2.34213E-03 8.51748E-04-5.30019E-15
 -1       452 1.91182E-03 6.22342E-04-4.33580E-15
 -1       453 1.53310E-03 4.31536E-04-3.77907E-15
 -1       454 1.18162E-03 2.58966E-04-3.24720E-15
 -1       455 9.10328E-04 1.53889E-04-2.94105E-15
 -1       456 7.12941E-04 8.36403E-05-2.65822E-15
 -1       457 6.96563E-04 6.07391E-05-2.75390E-15
 -1       458 7.96272E-04 2.84133E-05-2.85672E-15
 -1       459 1.10290E-03-7.50772E-05-3.27620E-15
 -1       460 1.36752E-03-1.90056E-04-3.72763E-15
 -1       461 1.74723E-03-3.67737E-04-4.39080E-15
 -1       462 2.08322E-03-5.34441E-04-5.16324E-15
 -1       463 2.50636E-03-7.07599E-04-6.40251E-15
 -1       464 2.82627E-03-7.54432E-04-7.61713E-15
 -1       465 3.09881E-03-7.20554E-04-8.70758E-15
 -1       466 3.49013E-03-5.74599E-04-1.02987E-14
 -1       467 3.78203E-03-4.32860E-04-1.12755E-14
 -1       468 4.17408E-03-2.34583E-04-1.25273E-14
 -1       469 4.51509E-03-7.95255E-05-1.34158E-14
 -1       470 4.80149E-03 4.19101E-05-1.42662E-14
 -1       471 5.01042E-03 1.18392E-04-1.45900E-14
 -1       472 3.72900E-03 7.94615E-04-1.03518E-14
 -1       473 5.07968E-03 1.86227E-04-1.57540E-14
 -1       474 9.19444E-04 3.20278E-06-2.74630E-15
 -1       475 1.11941E-03 3.94061E-04-9.05759E-16
 -1       476 5.56904E-04 6.08460E-06-7.58183E-16
 -1       477 6.39998E-04-4.59990E-05-7.55326E-16
 -1       478 4.15791E-04 3.40432E-05-7.11545E-16
 -1       479 4.17022E-04 2.49039E-05-7.01994E-16
 -1       480 4.68036E-04 2.54213E-05-6.88089E-16
 -1       481 5.51677E-04 5.00665E-05-6.66866E-16
 -1       482 6.43464E-04 1.01344E-04-6.35051E-16
 -1       483 7.29455E-04 1.73408E-04-5.87089E-16
 -1       484 1.47820E-03 5.45432E-04-1.58843E-15
 -1       485 1.13898E-03-3.85257E-04-1.26817E-15
 -1       486 2.56846E-03 9.59716E-04-5.73065E-15
 -1       487 1.48386E-03-5.13331E-04-2.09745E-15
 -1       488 1.82836E-03-6.44482E-04-3.14633E-15
 -1       489 2.16666E-03-7.66068E-04-4.42458E-15
 -1       490 2.49433E-03-8.55771E-04-5.94044E-15
 -1       491 2.81301E-03-8.89683E-04-7.69925E-15
 -1       492 3.13091E-03-8.58049E-04-9.70274E-15
 -1       493 3.45597E-03-7.73150E-04-1.19457E-14
 -1       494 3.78956E-03-6.61067E-04-1.44117E-14
 -1       495 4.12678E-03-5.47008E-04-1.70827E-14
 -1       496 4.46134E-03-4.46272E-04-1.99440E-14
 -1       497 4.78920E-03-3.64647E-04-2.29833E-14
 -1       498 5.10912E-03-3.01894E-04-2.61920E-14
 -1       499 5.42168E-03-2.55042E-04-2.95644E-14
 -1       500 5.72811E-03-2.20367E-04-3.30966E-14
 -1       501 6.02972E-03-1.94349E-04-3.67848E-14
 -1       502 6.32762E-03-1.74046E-04-4.06254E-14
 -1       503 6.62264E-03-1.57177E-04-4.46194E-14
 -1       504 6.91545E-03-1.42075E-04-4.87626E-14
 -1       505 7.20653E-03-1.27587E-04-5.30517E-14
 -1       506 7.49627E-03-1.12963E-04-5.74820E-14
 -1       507 7.78497E-03-9.77520E-05-6.20457E-14
 -1       508 8.07285E-03-8.17188E-05-6.67373E-14
 -1       509 8.36011E-03-6.47746E-05-7.15533E-14
 -1       510 8.64690E-03-4.69247E-05-7.64880E-14
 -1       511 8.93334E-03-2.82315E-05-8.15414E-14
 -1       512 9.21952E-03-8.78750E-06-8.67140E-14
 -1       513 9.50552E-03 1.13029E-05-9.19938E-14
 -1       514 9.79139E-03 3.19347E-05-9.73655E-14
 -1       515 1.00772E-02 5.30097E-05-1.02830E-13
 -1       516 1.03629E-02 7.44400E-05-1.08384E-13
 -1       517 1.06486E-02 9.61497E-05-1.14026E-13
 -1       518 1.09342E-02 1.18075E-04-1.19752E-13
 -1       519 1.12199E-02 1.40164E-04-1.25555E-13
 -1       520 1.15056E-02 1.62373E-04-1.31429E-13
 -1       521 1.17912E-02 1.84671E-04-1.37372E-13
 -1       522 1.20769E-02 2.07031E-04-1.43391E-13
 -1       523 1.23626E-02 2.29434E-04-1.49484E-13
 -1       524 1.26482E-02 2.51864E-04-1.55646E-13
 -1       525 1.29339E-02 2.74312E-04-1.61874E-13
 -1       526 1.32196E-02 2.96768E-04-1.68165E-13
 -1       527 1.35053E-02 3.19227E-04-1.74514E-13
 -1       528 1.37910E-02 3.41686E-04-1.80917E-13
 -1       529 1.40767E-02 3.64140E-04-1.87356E-13
 -1       530 4.93821E-03 2.40315E-04-1.56850E-14
 -1       531 2.20043E-03 8.89059E-04-3.59028E-15
 -1       532 2.54927E-03 1.04037E-03-4.93757E-15
 -1       533 2.88546E-03 1.12807E-03-6.53300E-15
 -1       534 3.21770E-03 1.12807E-03-8.37944E-15
 -1       535 3.55822E-03 1.05230E-03-1.04746E-14
 -1       536 3.90930E-03 9.39971E-04-1.28022E-14
 -1       537 4.26371E-03 8.29495E-04-1.53414E-14
 -1       538 4.61290E-03 7.42341E-04-1.80746E-14
 -1       539 4.95227E-03 6.84890E-04-2.09908E-14
 -1       540 5.28116E-03 6.54701E-04-2.40835E-14
 -1       541 5.60091E-03 6.46242E-04-2.73428E-14
 -1       542 5.91331E-03 6.53623E-04-3.07639E-14
 -1       543 6.21992E-03 6.71759E-04-3.43439E-14
 -1       544 6.52199E-03 6.96685E-04-3.80836E-14
 -1       545 6.82045E-03 7.25508E-04-4.19828E-14
 -1       546 7.11601E-03 7.56227E-04-4.60408E-14
 -1       547 7.40925E-03 7.87520E-04-5.02507E-14
 -1       548 7.70063E-03 8.18570E-04-5.45973E-14
 -1       549 7.99054E-03 8.48906E-04-5.90792E-14
 -1       550 8.27930E-03 8.78302E-04-6.36951E-14
 -1       551 8.56718E-03 9.06681E-04-6.84354E-14
 -1       552 8.85439E-03 9.34066E-04-7.32942E-14
 -1       553 9.14109E-03 9.60537E-04-7.82686E-14
 -1       554 9.42744E-03 9.86198E-04-8.33610E-14
 -1       555 9.71352E-03 1.01117E-03-8.85703E-14
 -1       556 9.99942E-03 1.03555E-03-9.38859E-14
 -1       557 1.02852E-02 1.05947E-03-9.93028E-14
 -1       558 1.05709E-02 1.08300E-03-1.04814E-13
 -1       559 1.08566E-02 1.10624E-03-1.10422E-13
 -1       560 1.11422E-02 1.12925E-03-1.16128E-13
 -1       561 1.14278E-02 1.15207E-03-1.21924E-13
 -1       562 1.17135E-02 1.17477E-03-1.27806E-13
 -1       563 1.19991E-02 1.19738E-03-1.33757E-13
 -1       564 1.22847E-02 1.21991E-03-1.39779E-13
 -1       565 1.25704E-02 1.24240E-03-1.45861E-13
 -1       566 1.28560E-02 1.26486E-03-1.52002E-13
 -1       567 1.31417E-02 1.28730E-03-1.58201E-13
 -1       568 1.34274E-02 1.30973E-03-1.64450E-13
 -1       569 1.37131E-02 1.33215E-03-1.70747E-13
 -1       570 1.39988E-02 1.35457E-03-1.77071E-13
 -1       571 1.42845E-02 1.37700E-03-1.83415E-13
 -1       572 1.45702E-02 1.39943E-03-1.89780E-13
 -1       573 1.45148E-02 1.12722E-03-1.91070E-13
 -1       574 1.44927E-02 1.04291E-03-1.91326E-13
 -1       575 1.45586E-02 1.29440E-03-1.90521E-13
 -1       576 1.45367E-02 1.21081E-03-1.90804E-13
 -1       577 1.44706E-02 9.58594E-04-1.91571E-13
 -1       578 1.44485E-02 8.74277E-04-1.91807E-13
 -1       579 1.44264E-02 7.89961E-04-1.92028E-13
 -1       580 1.44048E-02 7.07076E-04-1.92233E-13
 -1       581 1.43827E-02 6.22765E-04-1.92420E-13
 -1       582 1.43607E-02 5.38459E-04-1.92591E-13
 -1       583 1.43387E-02 4.54159E-04-1.92751E-13
 -1       584 4.67861E-03 3.33147E-04-1.46377E-14
 -1       585 4.33159E-03 4.88791E-04-1.34840E-14
 -1       586 1.84073E-03 7.14285E-04-2.47874E-15
 -1       587 4.94882E-03 1.08112E-04-1.56806E-14
 -1       588 5.06154E-03 1.45183E-04-1.59178E-14
 -1       589 2.27579E-03-6.28417E-04-5.43359E-15
 -1       590 6.61305E-04 6.25669E-05-2.24069E-15
 -1       591 4.76972E-04 3.28176E-05-7.55398E-16
 -1       592 8.19940E-04-2.58504E-04-7.09454E-16
 -1       593 2.12974E-03 7.29761E-04-4.40481E-15
 -1       594 2.81249E-03 1.03342E-03-6.69340E-15
 -1       595 2.69711E-03-7.69139E-04-7.10022E-15
 -1       596 3.23914E-03 1.00717E-03-8.65269E-15
 -1       597 1.68507E-03 4.70668E-04-3.49236E-15
 -1       598 1.36302E-03 3.02185E-04-2.99538E-15
 -1       599 1.02578E-03 1.61379E-04-2.62739E-15
 -1       600 7.82500E-04 8.50830E-05-2.27958E-15
 -1       601 7.02334E-04 5.49059E-05-2.32086E-15
 -1       602 1.24797E-03-1.12024E-04-3.13236E-15
 -1       603 1.57424E-03-2.63110E-04-3.71629E-15
 -1       604 1.91810E-03-4.43864E-04-4.40008E-15
 -1       605 4.35631E-03-1.22340E-04-1.40838E-14
 -1       606 2.91550E-03-7.71552E-04-8.14104E-15
 -1       607 3.22885E-03-6.90719E-04-9.66608E-15
 -1       608 3.64824E-03-4.89365E-04-1.15829E-14
 -1       609 3.98176E-03-3.09484E-04-1.28515E-14
 -1       610 4.65748E-03 6.36157E-06-1.49704E-14
 -1       611 8.45290E-04 2.96396E-04-4.87552E-16
 -1       612 7.11269E-04-1.15575E-04-7.43509E-16
 -1       613 5.12696E-03 1.70895E-04-1.68619E-14
 -1       614 1.42694E-02 3.77643E-04-1.91738E-13
 -1       615 4.04932E-03 6.37214E-04-1.25036E-14
 -1       616 7.70059E-04 4.05391E-05-2.20405E-15
 -1       617 6.63792E-04 5.77623E-05-1.87773E-15
 -1       618 3.75770E-03 7.85789E-04-1.11077E-14
 -1       619 3.03148E-03 1.06095E-03-7.64361E-15
 -1       620 1.03436E-03-3.16016E-05-2.60332E-15
 -1       621 3.50435E-03 9.08278E-04-9.90902E-15
 -1       622 5.71984E-04 3.98559E-05-1.19110E-15
 -1       623 5.26626E-04 4.20939E-05-1.20761E-15
 -1       624 8.26889E-04 1.28315E-04-1.14399E-15
 -1       625 9.54417E-04 2.18064E-04-1.09146E-15
 -1       626 1.20447E-03 3.65988E-04-1.32405E-15
 -1       627 1.56502E-03 5.19052E-04-2.12687E-15
 -1       628 1.42729E-02 1.27196E-03-1.84158E-13
 -1       629 1.60484E-03-4.81688E-04-2.65377E-15
 -1       630 1.96118E-03-6.19641E-04-3.81394E-15
 -1       631 2.31204E-03-7.46555E-04-5.20580E-15
 -1       632 2.65056E-03-8.25852E-04-6.84115E-15
 -1       633 2.98192E-03-8.26522E-04-8.72674E-15
 -1       634 3.31941E-03-7.49393E-04-1.08605E-14
 -1       635 3.66775E-03-6.27880E-04-1.32300E-14
 -1       636 4.02081E-03-5.01044E-04-1.58115E-14
 -1       637 4.36822E-03-3.90648E-04-1.85862E-14
 -1       638 4.70321E-03-3.03864E-04-2.15413E-14
 -1       639 5.02479E-03-2.38817E-04-2.46654E-14
 -1       640 5.33505E-03-1.90974E-04-2.79520E-14
 -1       641 5.63694E-03-1.55765E-04-3.13994E-14
 -1       642 5.93310E-03-1.29358E-04-3.50042E-14
 -1       643 6.22550E-03-1.08752E-04-3.87622E-14
 -1       644 6.51554E-03-9.16859E-05-4.26720E-14
 -1       645 6.80408E-03-7.65093E-05-4.67350E-14
 -1       646 7.09169E-03-6.20648E-05-5.09449E-14
 -1       647 7.37870E-03-4.75809E-05-5.52960E-14
 -1       648 7.66532E-03-3.25792E-05-5.97863E-14
 -1       649 7.95169E-03-1.67952E-05-6.44048E-14
 -1       650 8.23787E-03-1.15067E-07-6.91505E-14
 -1       651 8.52393E-03 1.74744E-05-7.40187E-14
 -1       652 8.80989E-03 3.59239E-05-7.90038E-14
 -1       653 9.09578E-03 5.51487E-05-8.41051E-14
 -1       654 9.38162E-03 7.50480E-05-8.93204E-14
 -1       655 9.66743E-03 9.55176E-05-9.46351E-14
 -1       656 9.95320E-03 1.16458E-04-1.00043E-13
 -1       657 1.02390E-02 1.37779E-04-1.05548E-13
 -1       658 1.05247E-02 1.59401E-04-1.11142E-13
 -1       659 1.08104E-02 1.81258E-04-1.16819E-13
 -1       660 1.10961E-02 2.03294E-04-1.22578E-13
 -1       661 1.13819E-02 2.25465E-04-1.28417E-13
 -1       662 1.16676E-02 2.47733E-04-1.34321E-13
 -1       663 1.19533E-02 2.70072E-04-1.40303E-13
 -1       664 1.22390E-02 2.92460E-04-1.46361E-13
 -1       665 1.25247E-02 3.14880E-04-1.52486E-13
 -1       666 1.28104E-02 3.37322E-04-1.58675E-13
 -1       667 1.30961E-02 3.59775E-04-1.64925E-13
 -1       668 1.33818E-02 3.82234E-04-1.71232E-13
 -1       669 1.36675E-02 4.04693E-04-1.77599E-13
 -1       670 1.39533E-02 4.27150E-04-1.84013E-13
 -1       671 1.65837E-03-3.28756E-04-3.47498E-15
 -1       672 2.31791E-03 8.87792E-04-4.37284E-15
 -1       673 3.39653E-03 1.03580E-03-9.56497E-15
 -1       674 3.76429E-03 9.15206E-04-1.18032E-14
 -1       675 4.13541E-03 7.88622E-04-1.42622E-14
 -1       676 4.49637E-03 6.88287E-04-1.69205E-14
 -1       677 4.84015E-03 6.22797E-04-1.97610E-14
 -1       678 5.16741E-03 5.87376E-04-2.27780E-14
 -1       679 5.48171E-03 5.75271E-04-2.59631E-14
 -1       680 5.78703E-03 5.79943E-04-2.93076E-14
 -1       681 6.08645E-03 5.96093E-04-3.28110E-14
 -1       682 6.38203E-03 6.19668E-04-3.64734E-14
 -1       683 6.67505E-03 6.47690E-04-4.02953E-14
 -1       684 6.96630E-03 6.78051E-04-4.42741E-14
 -1       685 7.25625E-03 7.09315E-04-4.84098E-14
 -1       686 7.54521E-03 7.40557E-04-5.26882E-14
 -1       687 7.83339E-03 7.71219E-04-5.71016E-14
 -1       688 8.12097E-03 8.01005E-04-6.16503E-14
 -1       689 8.40806E-03 8.29792E-04-6.63290E-14
 -1       690 8.69478E-03 8.57570E-04-7.11270E-14
 -1       691 8.98120E-03 8.84400E-04-7.60429E-14
 -1       692 9.26740E-03 9.10377E-04-8.10732E-14
 -1       693 9.55344E-03 9.35614E-04-8.62222E-14
 -1       694 9.83935E-03 9.60227E-04-9.14845E-14
 -1       695 1.01252E-02 9.84324E-04-9.68499E-14
 -1       696 1.04110E-02 1.00801E-03-1.02315E-13
 -1       697 1.06967E-02 1.03136E-03-1.07872E-13
 -1       698 1.09824E-02 1.05445E-03-1.13527E-13
 -1       699 1.12681E-02 1.07735E-03-1.19274E-13
 -1       700 1.15538E-02 1.10009E-03-1.25110E-13
 -1       701 1.18394E-02 1.12273E-03-1.31027E-13
 -1       702 1.21251E-02 1.14529E-03-1.37013E-13
 -1       703 1.24108E-02 1.16780E-03-1.43065E-13
 -1       704 1.26965E-02 1.19027E-03-1.49173E-13
 -1       705 1.29822E-02 1.21271E-03-1.55337E-13
 -1       706 1.32679E-02 1.23514E-03-1.61558E-13
 -1       707 1.35536E-02 1.25757E-03-1.67825E-13
 -1       708 1.38393E-02 1.27999E-03-1.74134E-13
 -1       709 1.40561E-02 1.27598E-03-1.79141E-13
 -1       710 2.05518E-03-5.44386E-04-4.51710E-15
 -1       711 4.29863E-03 5.49684E-04-1.42404E-14
 -1       712 1.42121E-02 8.97003E-04-1.86169E-13
 -1       713 1.42563E-02 1.06563E-03-1.85685E-13
 -1       714 1.41900E-02 8.12684E-04-1.86381E-13
 -1       715 1.42342E-02 9.81320E-04-1.85935E-13
 -1       716 1.41684E-02 7.29796E-04-1.86573E-13
 -1       717 1.41463E-02 6.45481E-04-1.86755E-13
 -1       718 1.41243E-02 5.61172E-04-1.86924E-13
 -1       719 1.41460E-02 4.40656E-04-1.88373E-13
 -1       720 4.86379E-03 7.49277E-05-1.67597E-14
 -1       721 5.06219E-03 1.37458E-04-1.73914E-14
 -1       722 5.09446E-03 2.07412E-04-1.72464E-14
 -1       723 1.94031E-03 6.99172E-04-3.13758E-15
 -1       724 6.93011E-04 1.48433E-05-1.28267E-15
 -1       725 1.25357E-03-3.53223E-04-1.71218E-15
 -1       726 3.38850E-03 9.83797E-04-9.49477E-15
 -1       727 6.88115E-04 6.57364E-05-1.17837E-15
 -1       728 3.09242E-03-7.57264E-04-9.22071E-15
 -1       729 8.21366E-04-4.85633E-05-1.28975E-15
 -1       730 8.71942E-04 1.03604E-04-2.02026E-15
 -1       731 2.44679E-03-7.25835E-04-5.93864E-15
 -1       732 1.47158E-03 3.65973E-04-2.70858E-15
 -1       733 6.30053E-04 5.45676E-05-1.83914E-15
 -1       734 4.59974E-03 3.98521E-04-1.54343E-14
 -1       735 1.37502E-03-1.83096E-04-2.91895E-15
 -1       736 4.22209E-03-2.04382E-04-1.47205E-14
 -1       737 1.13916E-03 2.01587E-04-2.33031E-15
 -1       738 2.88919E-03-7.91740E-04-8.10278E-15
 -1       739 4.55544E-03-4.52290E-05-1.58581E-14
 -1       740 1.86759E-03 5.93264E-04-3.43615E-15
 -1       741 3.86523E-03-3.94867E-04-1.32197E-14
 -1       742 5.75884E-04 4.29869E-05-1.24587E-15
 -1       743 4.85812E-03 2.94296E-04-1.65145E-14
 -1       744 3.46157E-03-6.13048E-04-1.12567E-14
 -1       745 9.31927E-04-1.36503E-04-1.28640E-15
 -1       746 5.05851E-03 2.49978E-04-1.81013E-14
 -1       747 3.90725E-03 7.58444E-04-1.23441E-14
 -1       748 3.61099E-03 8.87306E-04-1.06660E-14
 -1       749 1.15143E-03-9.56228E-05-2.40184E-15
 -1       750 1.42782E-02 1.14923E-03-1.85426E-13
 -1       751 8.44509E-04 1.66779E-05-2.06417E-15
 -1       752 2.67301E-03 1.03153E-03-5.80995E-15
 -1       753 1.04519E-03-2.58578E-04-1.29625E-15
 -1       754 1.16480E-03 2.59386E-04-1.74319E-15
 -1       755 4.14153E-03-3.06240E-04-1.54283E-14
 -1       756 9.11594E-04 1.28799E-04-1.63036E-15
 -1       757 4.58055E-03 4.76257E-04-1.63403E-14
 -1       758 2.69727E-03-7.95942E-04-7.10428E-15
 -1       759 2.09581E-03-6.04577E-04-4.49058E-15
 -1       760 3.54902E-03-6.02796E-04-1.20440E-14
 -1       761 4.49954E-03-1.97571E-04-1.81927E-14
 -1       762 4.82788E-03-1.27118E-04-2.11261E-14
 -1       763 5.13372E-03-8.05053E-05-2.42243E-14
 -1       764 5.42521E-03-4.77328E-05-2.74782E-14
 -1       765 5.70856E-03-2.30453E-05-3.08913E-14
 -1       766 5.98789E-03-3.13882E-06-3.44593E-14
 -1       767 6.26572E-03 1.39681E-05-3.81787E-14
 -1       768 6.54350E-03 2.95652E-05-4.20504E-14
 -1       769 6.82198E-03 4.45355E-05-4.60771E-14
 -1       770 7.10149E-03 5.94890E-05-5.02523E-14
 -1       771 7.38211E-03 7.48322E-05-5.45702E-14
 -1       772 7.66378E-03 9.08141E-05-5.90210E-14
 -1       773 7.94638E-03 1.07564E-04-6.36052E-14
 -1       774 8.22977E-03 1.25124E-04-6.83170E-14
 -1       775 8.51379E-03 1.43475E-04-7.31542E-14
 -1       776 8.79831E-03 1.62560E-04-7.81057E-14
 -1       777 9.08321E-03 1.82299E-04-8.31740E-14
 -1       778 9.36840E-03 2.02603E-04-8.83488E-14
 -1       779 9.65380E-03 2.23386E-04-9.36276E-14
 -1       780 9.93934E-03 2.44562E-04-9.90063E-14
 -1       781 1.02250E-02 2.66057E-04-1.04481E-13
 -1       782 1.05107E-02 2.87805E-04-1.10055E-13
 -1       783 1.07964E-02 3.09749E-04-1.15713E-13
 -1       784 1.10822E-02 3.31845E-04-1.21454E-13
 -1       785 1.13680E-02 3.54053E-04-1.27273E-13
 -1       786 1.16538E-02 3.76344E-04-1.33166E-13
 -1       787 1.19395E-02 3.98695E-04-1.39139E-13
 -1       788 1.22253E-02 4.21088E-04-1.45189E-13
 -1       789 1.25111E-02 4.43509E-04-1.51300E-13
 -1       790 1.27968E-02 4.65949E-04-1.57466E-13
 -1       791 1.30826E-02 4.88398E-04-1.63686E-13
 -1       792 1.33683E-02 5.10853E-04-1.69971E-13
 -1       793 1.36541E-02 5.33310E-04-1.76310E-13
 -1       794 4.75776E-03 5.39149E-04-1.85718E-14
 -1       795 5.08126E-03 5.03428E-04-2.15172E-14
 -1       796 5.38655E-03 4.92160E-04-2.46308E-14
 -1       797 5.68093E-03 4.97086E-04-2.79026E-14
 -1       798 5.96940E-03 5.12791E-04-3.13315E-14
 -1       799 6.25505E-03 5.35541E-04-3.49197E-14
 -1       800 6.53958E-03 5.62676E-04-3.86643E-14
 -1       801 6.82386E-03 5.92280E-04-4.25672E-14
 -1       802 7.10828E-03 6.22997E-04-4.66247E-14
 -1       803 7.39297E-03 6.53905E-04-5.08326E-14
 -1       804 7.67792E-03 6.84413E-04-5.51797E-14
 -1       805 7.96312E-03 7.14179E-04-5.96634E-14
 -1       806 8.24849E-03 7.43037E-04-6.42789E-14
 -1       807 8.53400E-03 7.70940E-04-6.90158E-14
 -1       808 8.81960E-03 7.97920E-04-7.38718E-14
 -1       809 9.10527E-03 8.24054E-04-7.88418E-14
 -1       810 9.39097E-03 8.49443E-04-8.39334E-14
 -1       811 9.67670E-03 8.74194E-04-8.91368E-14
 -1       812 9.96244E-03 8.98412E-04-9.44487E-14
 -1       813 1.02482E-02 9.22196E-04-9.98638E-14
 -1       814 1.05339E-02 9.45632E-04-1.05374E-13
 -1       815 1.08197E-02 9.68794E-04-1.10977E-13
 -1       816 1.11054E-02 9.91745E-04-1.16676E-13
 -1       817 1.13912E-02 1.01454E-03-1.22468E-13
 -1       818 1.16769E-02 1.03721E-03-1.28340E-13
 -1       819 1.19626E-02 1.05979E-03-1.34294E-13
 -1       820 1.22483E-02 1.08232E-03-1.40312E-13
 -1       821 1.25341E-02 1.10480E-03-1.46390E-13
 -1       822 1.28198E-02 1.12725E-03-1.52521E-13
 -1       823 1.31055E-02 1.14969E-03-1.58708E-13
 -1       824 1.33912E-02 1.17212E-03-1.64950E-13
 -1       825 1.36770E-02 1.19454E-03-1.71243E-13
 -1       826 1.39317E-02 7.51802E-04-1.80946E-13
 -1       827 1.39538E-02 8.36124E-04-1.80756E-13
 -1       828 1.59150E-03 4.73540E-04-2.53204E-15
 -1       829 1.74035E-03-4.10166E-04-3.45870E-15
 -1       830 1.39097E-02 6.67483E-04-1.81122E-13
 -1       831 4.20253E-03 6.70628E-04-1.43438E-14
 -1       832 1.26556E-03-2.93458E-04-1.90896E-15
 -1       833 5.05120E-03 1.08900E-04-1.89511E-14
 -1       834 4.49111E-03-1.19139E-04-1.68691E-14
 -1       835 1.67162E-03-4.34747E-04-3.05572E-15
 -1       836 6.52626E-04 4.69788E-05-1.62526E-15
 -1       837 6.92598E-04 5.97469E-05-1.69859E-15
 -1       838 1.24125E-03 2.73311E-04-2.05946E-15
 -1       839 5.19454E-03 1.89705E-04-1.85963E-14
 -1       840 4.81473E-03 3.67787E-04-1.74604E-14
 -1       841 1.41381E-03-2.53075E-04-2.63508E-15
 -1       842 5.18900E-03 1.60319E-04-1.91471E-14
 -1       843 1.37038E-03 3.84028E-04-1.93659E-15
 -1       844 4.81080E-03 2.44461E-05-1.80082E-14
 -1       845 5.03399E-03 3.12052E-04-1.90841E-14
 -1       846 1.16266E-03-1.55793E-04-2.03153E-15
 -1       847 1.38298E-02 4.90164E-04-1.80680E-13
 -1       848 1.38937E-02 1.19052E-03-1.76232E-13
 -1       849 1.40614E-02 1.15324E-03-1.80419E-13
 -1       850 1.40395E-02 1.06965E-03-1.80678E-13
 -1       851 1.39759E-02 9.20445E-04-1.80545E-13
 -1       852 5.20742E-03 2.21205E-04-1.94815E-14
 -1       853 1.38879E-02 5.83883E-04-1.81285E-13
 -1       854 1.40077E-02 9.95048E-04-1.80619E-13
 -1       855 3.73294E-03-5.17226E-04-1.31524E-14
 -1       856 5.25618E-03 1.41915E-04-2.12465E-14
 -1       857 4.80893E-03-4.64412E-05-1.96471E-14
 -1       858 5.09892E-03-7.72418E-06-2.26658E-14
 -1       859 5.37456E-03 1.81987E-05-2.58408E-14
 -1       860 5.64391E-03 3.81178E-05-2.91704E-14
 -1       861 5.91142E-03 5.53580E-05-3.26555E-14
 -1       862 6.17943E-03 7.13217E-05-3.62923E-14
 -1       863 6.44913E-03 8.67656E-05-4.00813E-14
 -1       864 6.72101E-03 1.02155E-04-4.40251E-14
 -1       865 6.99518E-03 1.17808E-04-4.81207E-14
 -1       866 7.27152E-03 1.33944E-04-5.23614E-14
 -1       867 7.54980E-03 1.50703E-04-5.67391E-14
 -1       868 7.82976E-03 1.68152E-04-6.12524E-14
 -1       869 8.11112E-03 1.86310E-04-6.58962E-14
 -1       870 8.39361E-03 2.05151E-04-7.06640E-14
 -1       871 8.67700E-03 2.24625E-04-7.55514E-14
 -1       872 8.96108E-03 2.44664E-04-8.05572E-14
 -1       873 9.24569E-03 2.65194E-04-8.56751E-14
 -1       874 9.53070E-03 2.86141E-04-9.08940E-14
 -1       875 9.81598E-03 3.07434E-04-9.62130E-14
 -1       876 1.01015E-02 3.29008E-04-1.01632E-13
 -1       877 1.03871E-02 3.50808E-04-1.07152E-13
 -1       878 1.06728E-02 3.72784E-04-1.12766E-13
 -1       879 1.09585E-02 3.94896E-04-1.18468E-13
 -1       880 1.12443E-02 4.17112E-04-1.24249E-13
 -1       881 1.15301E-02 4.39405E-04-1.30107E-13
 -1       882 1.18159E-02 4.61753E-04-1.36041E-13
 -1       883 1.21017E-02 4.84141E-04-1.42052E-13
 -1       884 1.23875E-02 5.06556E-04-1.48131E-13
 -1       885 1.26733E-02 5.28990E-04-1.54267E-13
 -1       886 1.29591E-02 5.51434E-04-1.60458E-13
 -1       887 1.32448E-02 5.73884E-04-1.66700E-13
 -1       888 1.35306E-02 5.96337E-04-1.73003E-13
 -1       889 1.36953E-02 7.74527E-04-1.75346E-13
 -1       890 5.31291E-03 4.08728E-04-2.32965E-14
 -1       891 5.02373E-03 4.14989E-04-2.02548E-14
 -1       892 5.86537E-03 4.33599E-04-2.98537E-14
 -1       893 6.13862E-03 4.56101E-04-3.33663E-14
 -1       894 6.41278E-03 4.82297E-04-3.70386E-14
 -1       895 6.68858E-03 5.10742E-04-4.08651E-14
 -1       896 6.96618E-03 5.40349E-04-4.48480E-14
 -1       897 7.24548E-03 5.70317E-04-4.89829E-14
 -1       898 7.52626E-03 6.00093E-04-5.32616E-14
 -1       899 7.80826E-03 6.29324E-04-5.76798E-14
 -1       900 8.09125E-03 6.57811E-04-6.22319E-14
 -1       901 8.37500E-03 6.85474E-04-6.69099E-14
 -1       902 8.65933E-03 7.12310E-04-7.17055E-14
 -1       903 8.94411E-03 7.38369E-04-7.66178E-14
 -1       904 9.22920E-03 7.63728E-04-8.16490E-14
 -1       905 9.51453E-03 7.88479E-04-8.67963E-14
 -1       906 9.80002E-03 8.12716E-04-9.20527E-14
 -1       907 1.00856E-02 8.36526E-04-9.74127E-14
 -1       908 1.03713E-02 8.59993E-04-1.02877E-13
 -1       909 1.06570E-02 8.83186E-04-1.08433E-13
 -1       910 1.09428E-02 9.06166E-04-1.14081E-13
 -1       911 1.12285E-02 9.28983E-04-1.19825E-13
 -1       912 1.15143E-02 9.51678E-04-1.25656E-13
 -1       913 1.18001E-02 9.74282E-04-1.31569E-13
 -1       914 1.20859E-02 9.96821E-04-1.37558E-13
 -1       915 1.23716E-02 1.01932E-03-1.43602E-13
 -1       916 1.26574E-02 1.04178E-03-1.49704E-13
 -1       917 1.29431E-02 1.06422E-03-1.55860E-13
 -1       918 1.32289E-02 1.08666E-03-1.62074E-13
 -1       919 1.35146E-02 1.10908E-03-1.68340E-13
 -1       920 1.36733E-02 6.90202E-04-1.75521E-13
 -1       921 5.59131E-03 4.16784E-04-2.64977E-14
 -1       922 5.31805E-03 1.89761E-04-2.10129E-14
 -1       923 5.05776E-03 6.82354E-05-2.04586E-14
 -1       924 1.37314E-02 1.10506E-03-1.73317E-13
 -1       925 1.37174E-02 8.58853E-04-1.75154E-13
 -1       926 5.21123E-03 2.69895E-04-2.05009E-14
 -1       927 1.37774E-02 1.01673E-03-1.75163E-13
 -1       928 5.34179E-03 8.09655E-05-2.42113E-14
 -1       929 5.58969E-03 9.53190E-05-2.74597E-14
 -1       930 5.84132E-03 1.09690E-04-3.08616E-14
 -1       931 6.09720E-03 1.24480E-04-3.44170E-14
 -1       932 6.35755E-03 1.39924E-04-3.81239E-14
 -1       933 6.62212E-03 1.56004E-04-4.19847E-14
 -1       934 6.89053E-03 1.72710E-04-4.59993E-14
 -1       935 7.16230E-03 1.90042E-04-5.01623E-14
 -1       936 7.43699E-03 2.07994E-04-5.44661E-14
 -1       937 7.71414E-03 2.26554E-04-5.89065E-14
 -1       938 7.99332E-03 2.45693E-04-6.34789E-14
 -1       939 8.27415E-03 2.65370E-04-6.81809E-14
 -1       940 8.55628E-03 2.85535E-04-7.30034E-14
 -1       941 8.83944E-03 3.06130E-04-7.79468E-14
 -1       942 9.12337E-03 3.27098E-04-8.30046E-14
 -1       943 9.40790E-03 3.48382E-04-8.81680E-14
 -1       944 9.69286E-03 3.69929E-04-9.34299E-14
 -1       945 9.97812E-03 3.91690E-04-9.87918E-14
 -1       946 1.02636E-02 4.13623E-04-1.04255E-13
 -1       947 1.05492E-02 4.35693E-04-1.09824E-13
 -1       948 1.08349E-02 4.57868E-04-1.15485E-13
 -1       949 1.11207E-02 4.80124E-04-1.21227E-13
 -1       950 1.14065E-02 5.02440E-04-1.27049E-13
 -1       951 1.16923E-02 5.24801E-04-1.32946E-13
 -1       952 1.19782E-02 5.47194E-04-1.38918E-13
 -1       953 1.22640E-02 5.69609E-04-1.44962E-13
 -1       954 1.25498E-02 5.92039E-04-1.51068E-13
 -1       955 1.28356E-02 6.14479E-04-1.57227E-13
 -1       956 1.31213E-02 6.36925E-04-1.63442E-13
 -1       957 1.33973E-02 6.63563E-04-1.69455E-13
 -1       958 6.55840E-03 4.34111E-04-3.91681E-14
 -1       959 6.29224E-03 4.07259E-04-3.54128E-14
 -1       960 6.03018E-03 3.82170E-04-3.18164E-14
 -1       961 6.82834E-03 4.62034E-04-4.30765E-14
 -1       962 7.10156E-03 4.90440E-04-4.71386E-14
 -1       963 7.37755E-03 5.18869E-04-5.13471E-14
 -1       964 7.65584E-03 5.46994E-04-5.56997E-14
 -1       965 7.93597E-03 5.74607E-04-6.01886E-14
 -1       966 8.21756E-03 6.01597E-04-6.48054E-14
 -1       967 8.50028E-03 6.27928E-04-6.95440E-14
 -1       968 8.78388E-03 6.53616E-04-7.43974E-14
 -1       969 9.06814E-03 6.78708E-04-7.93711E-14
 -1       970 9.35289E-03 7.03273E-04-8.44611E-14
 -1       971 9.63799E-03 7.27382E-04-8.96642E-14
 -1       972 9.92334E-03 7.51110E-04-9.49724E-14
 -1       973 1.02089E-02 7.74525E-04-1.00381E-13
 -1       974 1.04945E-02 7.97688E-04-1.05889E-13
 -1       975 1.07802E-02 8.20654E-04-1.11493E-13
 -1       976 1.10660E-02 8.43467E-04-1.17190E-13
 -1       977 1.13518E-02 8.66163E-04-1.22977E-13
 -1       978 1.16376E-02 8.88773E-04-1.28848E-13
 -1       979 1.19234E-02 9.11319E-04-1.34797E-13
 -1       980 1.22092E-02 9.33821E-04-1.40814E-13
 -1       981 1.24949E-02 9.56292E-04-1.46885E-13
 -1       982 1.27807E-02 9.78743E-04-1.53009E-13
 -1       983 1.30665E-02 1.00118E-03-1.59196E-13
 -1       984 1.33522E-02 1.02361E-03-1.65436E-13
 -1       985 1.34193E-02 7.47892E-04-1.69287E-13
 -1       986 1.35648E-02 1.02017E-03-1.70292E-13
 -1       987 1.37456E-02 9.42123E-04-1.75089E-13
 -1       988 5.24948E-03 3.36634E-04-2.18958E-14
 -1       989 5.45043E-03 1.78292E-04-2.35790E-14
 -1       990 5.37657E-03 2.25206E-04-2.20827E-14
 -1       991 5.77228E-03 3.59654E-04-2.83783E-14
 -1       992 5.39875E-03 1.29145E-04-2.39233E-14
 -1       993 1.34414E-02 8.32223E-04-1.69100E-13
 -1       994 1.35330E-02 9.45563E-04-1.70222E-13
 -1       995 5.54556E-03 2.15817E-04-2.47057E-14
 -1       996 5.51786E-03 3.40788E-04-2.50938E-14
 -1       997 5.62089E-03 1.69749E-04-2.65172E-14
 -1       998 5.44675E-03 2.79332E-04-2.36245E-14
 -1       999 1.33204E-02 9.49005E-04-1.65376E-13
 -1      1000 5.77327E-03 1.57859E-04-2.90784E-14
 -1      1001 6.01545E-03 1.72450E-04-3.25527E-14
 -1      1002 6.26578E-03 1.88536E-04-3.61767E-14
 -1      1003 6.52289E-03 2.05803E-04-3.99553E-14
 -1      1004 6.78558E-03 2.24005E-04-4.38882E-14
 -1      1005 7.05292E-03 2.42958E-04-4.79705E-14
 -1      1006 7.32415E-03 2.62525E-04-5.22008E-14
 -1      1007 7.59860E-03 2.82601E-04-5.65684E-14
 -1      1008 7.87568E-03 3.03104E-04-6.10715E-14
 -1      1009 8.15489E-03 3.23967E-04-6.57062E-14
 -1      1010 8.43579E-03 3.45134E-04-7.04617E-14
 -1      1011 8.71802E-03 3.66556E-04-7.53391E-14
 -1      1012 9.00128E-03 3.88191E-04-8.03357E-14
 -1      1013 9.28530E-03 4.10002E-04-8.54443E-14
 -1      1014 9.56991E-03 4.31957E-04-9.06523E-14
 -1      1015 9.85493E-03 4.54027E-04-9.59608E-14
 -1      1016 1.01403E-02 4.76191E-04-1.01371E-13
 -1      1017 1.04258E-02 4.98428E-04-1.06885E-13
 -1      1018 1.07114E-02 5.20721E-04-1.12500E-13
 -1      1019 1.09972E-02 5.43059E-04-1.18206E-13
 -1      1020 1.12830E-02 5.65429E-04-1.23989E-13
 -1      1021 1.15688E-02 5.87823E-04-1.29849E-13
 -1      1022 1.18546E-02 6.10235E-04-1.35786E-13
 -1      1023 1.21404E-02 6.32659E-04-1.41797E-13
 -1      1024 1.24263E-02 6.55092E-04-1.47870E-13
 -1      1025 1.27121E-02 6.77531E-04-1.54000E-13
 -1      1026 1.29979E-02 6.99973E-04-1.60182E-13
 -1      1027 1.32086E-02 7.23933E-04-1.64720E-13
 -1      1028 6.43028E-03 3.62812E-04-3.74738E-14
 -1      1029 6.17424E-03 3.38164E-04-3.37934E-14
 -1      1030 7.23042E-03 4.41122E-04-4.94384E-14
 -1      1031 7.50483E-03 4.67571E-04-5.37212E-14
 -1      1032 7.78193E-03 4.93789E-04-5.81462E-14
 -1      1033 8.06118E-03 5.19644E-04-6.27012E-14
 -1      1034 8.34213E-03 5.45072E-04-6.73821E-14
 -1      1035 8.62440E-03 5.70053E-04-7.21801E-14
 -1      1036 8.90767E-03 5.94602E-04-7.70957E-14
 -1      1037 9.19171E-03 6.18754E-04-8.21314E-14
 -1      1038 9.47631E-03 6.42558E-04-8.72809E-14
 -1      1039 9.76132E-03 6.66062E-04-9.25365E-14
 -1      1040 1.00466E-02 6.89317E-04-9.78933E-14
 -1      1041 1.03321E-02 7.12370E-04-1.03351E-13
 -1      1042 1.06178E-02 7.35260E-04-1.08909E-13
 -1      1043 1.09035E-02 7.58024E-04-1.14560E-13
 -1      1044 1.11893E-02 7.80691E-04-1.20301E-13
 -1      1045 1.14751E-02 8.03285E-04-1.26129E-13
 -1      1046 1.17609E-02 8.25824E-04-1.32038E-13
 -1      1047 1.20467E-02 8.48325E-04-1.38021E-13
 -1      1048 1.23325E-02 8.70799E-04-1.44064E-13
 -1      1049 1.26183E-02 8.93254E-04-1.50158E-13
 -1      1050 1.29041E-02 9.15697E-04-1.56312E-13
 -1      1051 6.69233E-03 3.88427E-04-4.13106E-14
 -1      1052 1.34872E-02 8.88894E-04-1.69666E-13
 -1      1053 6.95933E-03 4.14646E-04-4.52995E-14
 -1      1054 5.92531E-03 3.14763E-04-3.02713E-14
 -1      1055 1.32307E-02 8.08267E-04-1.64534E-13
 -1      1056 5.68206E-03 2.96109E-04-2.68707E-14
 -1      1057 5.76764E-03 2.25201E-04-2.81276E-14
 -1      1058 1.32746E-02 8.92334E-04-1.64828E-13
 -1      1059 6.16928E-03 2.32512E-04-3.42404E-14
 -1      1060 6.41988E-03 2.51595E-04-3.79370E-14
 -1      1061 6.67772E-03 2.71780E-04-4.17885E-14
 -1      1062 6.94137E-03 2.92772E-04-4.57911E-14
 -1      1063 7.20974E-03 3.14339E-04-4.99425E-14
 -1      1064 7.48196E-03 3.36299E-04-5.42383E-14
 -1      1065 7.75731E-03 3.58517E-04-5.86713E-14
 -1      1066 8.03517E-03 3.80893E-04-6.32372E-14
 -1      1067 8.31504E-03 4.03360E-04-6.79296E-14
 -1      1068 8.59649E-03 4.25872E-04-7.27378E-14
 -1      1069 8.87915E-03 4.48402E-04-7.76694E-14
 -1      1070 9.16275E-03 4.70933E-04-8.27194E-14
 -1      1071 9.44703E-03 4.93456E-04-8.78773E-14
 -1      1072 9.73183E-03 5.15966E-04-9.31348E-14
 -1      1073 1.00170E-02 5.38464E-04-9.84931E-14
 -1      1074 1.03024E-02 5.60950E-04-1.03954E-13
 -1      1075 1.05880E-02 5.83425E-04-1.09517E-13
 -1      1076 1.08737E-02 6.05891E-04-1.15177E-13
 -1      1077 1.11595E-02 6.28350E-04-1.20923E-13
 -1      1078 1.14453E-02 6.50803E-04-1.26746E-13
 -1      1079 1.17311E-02 6.73252E-04-1.32649E-13
 -1      1080 1.20170E-02 6.95698E-04-1.38627E-13
 -1      1081 1.23028E-02 7.18142E-04-1.44670E-13
 -1      1082 1.25886E-02 7.40585E-04-1.50772E-13
 -1      1083 1.28744E-02 7.63026E-04-1.56925E-13
 -1      1084 1.30525E-02 7.85647E-04-1.60720E-13
 -1      1085 6.29993E-03 2.96827E-04-3.57849E-14
 -1      1086 6.81632E-03 3.42934E-04-4.34659E-14
 -1      1087 7.62809E-03 4.15522E-04-5.61043E-14
 -1      1088 7.35382E-03 3.91180E-04-5.17477E-14
 -1      1089 8.18433E-03 4.63932E-04-6.52202E-14
 -1      1090 8.46527E-03 4.87862E-04-6.99621E-14
 -1      1091 8.74754E-03 5.11573E-04-7.48213E-14
 -1      1092 9.03083E-03 5.35069E-04-7.98021E-14
 -1      1093 9.31490E-03 5.58366E-04-8.49006E-14
 -1      1094 9.59953E-03 5.81486E-04-9.01051E-14
 -1      1095 9.88457E-03 6.04454E-04-9.54087E-14
 -1      1096 1.01699E-02 6.27297E-04-1.00816E-13
 -1      1097 1.04554E-02 6.50037E-04-1.06323E-13
 -1      1098 1.07411E-02 6.72697E-04-1.11931E-13
 -1      1099 1.10268E-02 6.95293E-04-1.17628E-13
 -1      1100 1.13126E-02 7.17841E-04-1.23413E-13
 -1      1101 1.15985E-02 7.40353E-04-1.29276E-13
 -1      1102 1.18843E-02 7.62838E-04-1.35223E-13
 -1      1103 1.21701E-02 7.85305E-04-1.41233E-13
 -1      1104 1.24559E-02 8.07759E-04-1.47302E-13
 -1      1105 1.27417E-02 8.30205E-04-1.53425E-13
 -1      1106 7.08296E-03 3.66919E-04-4.75336E-14
 -1      1107 7.90512E-03 4.39803E-04-6.05980E-14
 -1      1108 5.89001E-03 1.99280E-04-3.02846E-14
 -1      1109 6.55489E-03 3.19475E-04-3.95494E-14
 -1      1110 6.05313E-03 2.75309E-04-3.21784E-14
 -1      1111 1.32526E-02 8.50301E-04-1.64684E-13
 -1      1112 1.30940E-02 8.58182E-04-1.61054E-13
 -1      1113 0.00000E+00 0.00000E+00 0.00000E+00
 -1      1114 0.00000E+00 0.00000E+00 0.00000E+00
 -1      1115 0.00000E+00 0.00000E+00 0.00000E+00
 -1      1116 0.00000E+00 0.00000E+00 0.00000E+00
 -1      1117 0.00000E+00 0.00000E+00 0.00000E+00
 -1      1118 0.00000E+00 0.00000E+00 0.00000E+00
 -1      1119 0.00000E+00 0.00000E+00 0.00000E+00
 -1      1120 0.00000E+00 0.00000E+00 0.00000E+00
 -1      1121 0.00000E+00 0.00000E+00 0.00000E+00
 -1      1122 0.00000E+00 0.00000E+00 0.00000E+00
 -1      1123 0.00000E+00 0.00000E+00 0.00000E+00
 -1      1124 0.00000E+00 0.00000E+00 0.00000E+00
 -1      1125 0.00000E+00 0.00000E+00 0.00000E+00
 -1      1126 0.00000E+00 0.00000E+00 0.00000E+00
 -1      1127 0.00000E+00 0.00000E+00 0.00000E+00
 -1      1128 0.00000E+00 0.00000E+00 0.00000E+00
 -1      1129 0.00000E+00 0.00000E+00 0.00000E+00
 -1      1130 2.50238E-04-1.63323E-04 2.09251E-17
 -1      1131 6.67548E-04-3.71128E-04-7.84962E-17
 -1      1132 1.02573E-03-5.23442E-04-3.85569E-16
 -1      1133 1.36845E-03-6.55663E-04-9.37076E-16
 -1      1134 1.69606E-03-7.81932E-04-1.72629E-15
 -1      1135 2.00473E-03-9.01456E-04-2.75221E-15
 -1      1136 2.29166E-03-1.00394E-03-4.01498E-15
 -1      1137 2.55859E-03-1.07450E-03-5.51826E-15
 -1      1138 2.81349E-03-1.10021E-03-7.26638E-15
 -1      1139 3.06879E-03-1.07656E-03-9.25963E-15
 -1      1140 3.33674E-03-1.01024E-03-1.14908E-14
 -1      1141 3.62474E-03-9.16464E-04-1.39463E-14
 -1      1142 3.93347E-03-8.12896E-04-1.66089E-14
 -1      1143 4.25835E-03-7.13964E-04-1.94667E-14
 -1      1144 4.59246E-03-6.28260E-04-2.25096E-14
 -1      1145 4.92914E-03-5.58836E-04-2.57294E-14
 -1      1146 5.26343E-03-5.04964E-04-2.91187E-14
 -1      1147 5.59232E-03-4.64018E-04-3.26709E-14
 -1      1148 5.91446E-03-4.32827E-04-3.63811E-14
 -1      1149 6.22967E-03-4.08433E-04-4.02488E-14
 -1      1150 6.53847E-03-3.88402E-04-4.42711E-14
 -1      1151 6.84170E-03-3.70893E-04-4.84430E-14
 -1      1152 7.14031E-03-3.54591E-04-5.27574E-14
 -1      1153 7.43524E-03-3.38616E-04-5.72144E-14
 -1      1154 7.72732E-03-3.22411E-04-6.18101E-14
 -1      1155 8.01724E-03-3.05658E-04-6.65308E-14
 -1      1156 8.30558E-03-2.88204E-04-7.13725E-14
 -1      1157 8.59278E-03-2.70000E-04-7.63384E-14
 -1      1158 8.87921E-03-2.51069E-04-8.14283E-14
 -1      1159 9.16512E-03-2.31473E-04-8.66433E-14
 -1      1160 9.45070E-03-2.11291E-04-9.19646E-14
 -1      1161 9.73610E-03-1.90610E-04-9.73754E-14
 -1      1162 1.00214E-02-1.69514E-04-1.02867E-13
 -1      1163 1.03067E-02-1.48082E-04-1.08442E-13
 -1      1164 1.05919E-02-1.26382E-04-1.14104E-13
 -1      1165 1.08773E-02-1.04472E-04-1.19851E-13
 -1      1166 1.11626E-02-8.24018E-05-1.25668E-13
 -1      1167 1.14480E-02-6.02109E-05-1.31554E-13
 -1      1168 1.17335E-02-3.79312E-05-1.37503E-13
 -1      1169 1.20190E-02-1.55877E-05-1.43525E-13
 -1      1170 1.23046E-02 6.80045E-06-1.49630E-13
 -1      1171 1.25902E-02 2.92185E-05-1.55809E-13
 -1      1172 1.28758E-02 5.16554E-05-1.62068E-13
 -1      1173 1.31614E-02 7.41030E-05-1.68401E-13
 -1      1174 1.34471E-02 9.65552E-05-1.74789E-13
 -1      1175 1.37328E-02 1.19007E-04-1.81219E-13
 -1      1176 1.40185E-02 1.41456E-04-1.87693E-13
 -1      1177 1.43042E-02 1.63899E-04-1.94200E-13
 -1      1178 1.45899E-02 1.86335E-04-2.00727E-13
 -1      1179 1.48685E-02 2.08204E-04-2.07113E-13
 -1      1180 2.76646E-04 1.75081E-04 4.54281E-17
 -1      1181 6.97768E-04 3.68120E-04 3.52366E-18
 -1      1182 1.08213E-03 5.20746E-04-2.23806E-16
 -1      1183 1.45667E-03 6.68012E-04-6.63654E-16
 -1      1184 1.81780E-03 8.24228E-04-1.32129E-15
 -1      1185 2.15734E-03 9.87415E-04-2.20477E-15
 -1      1186 2.46745E-03 1.14154E-03-3.32317E-15
 -1      1187 2.74717E-03 1.26100E-03-4.67954E-15
 -1      1188 3.00699E-03 1.32137E-03-6.28073E-15
 -1      1189 3.26651E-03 1.31296E-03-8.12870E-15
 -1      1190 3.54526E-03 1.24705E-03-1.02201E-14
 -1      1191 3.85332E-03 1.14989E-03-1.25419E-14
 -1      1192 4.18883E-03 1.04955E-03-1.50765E-14
 -1      1193 4.54221E-03 9.65642E-04-1.78077E-14
 -1      1194 4.90220E-03 9.06795E-04-2.07252E-14
 -1      1195 5.25984E-03 8.73298E-04-2.38307E-14
 -1      1196 5.60968E-03 8.61143E-04-2.71120E-14
 -1      1197 5.94936E-03 8.65042E-04-3.05575E-14
 -1      1198 6.27859E-03 8.80073E-04-3.41637E-14
 -1      1199 6.59824E-03 9.02282E-04-3.79335E-14
 -1      1200 6.90969E-03 9.28751E-04-4.18660E-14
 -1      1201 7.21443E-03 9.57454E-04-4.59514E-14
 -1      1202 7.51386E-03 9.87046E-04-5.01907E-14
 -1      1203 7.80919E-03 1.01668E-03-5.45796E-14
 -1      1204 8.10144E-03 1.04586E-03-5.91042E-14
 -1      1205 8.39142E-03 1.07433E-03-6.37537E-14
 -1      1206 8.67976E-03 1.10197E-03-6.85269E-14
 -1      1207 8.96694E-03 1.12879E-03-7.34151E-14
 -1      1208 9.25334E-03 1.15482E-03-7.84140E-14
 -1      1209 9.53922E-03 1.18016E-03-8.35292E-14
 -1      1210 9.82478E-03 1.20489E-03-8.87633E-14
 -1      1211 1.01102E-02 1.22911E-03-9.41116E-14
 -1      1212 1.03954E-02 1.25290E-03-9.95634E-14
 -1      1213 1.06807E-02 1.27636E-03-1.05100E-13
 -1      1214 1.09660E-02 1.29954E-03-1.10730E-13
 -1      1215 1.12513E-02 1.32251E-03-1.16462E-13
 -1      1216 1.15366E-02 1.34532E-03-1.22284E-13
 -1      1217 1.18221E-02 1.36801E-03-1.28191E-13
 -1      1218 1.21075E-02 1.39062E-03-1.34171E-13
 -1      1219 1.23930E-02 1.41316E-03-1.40216E-13
 -1      1220 1.26786E-02 1.43565E-03-1.46324E-13
 -1      1221 1.29642E-02 1.45811E-03-1.52497E-13
 -1      1222 1.32498E-02 1.48056E-03-1.58728E-13
 -1      1223 1.35354E-02 1.50299E-03-1.65010E-13
 -1      1224 1.38211E-02 1.52542E-03-1.71322E-13
 -1      1225 1.41068E-02 1.54785E-03-1.77657E-13
 -1      1226 1.43925E-02 1.57029E-03-1.84014E-13
 -1      1227 1.46782E-02 1.59273E-03-1.90393E-13
 -1      1228 1.49639E-02 1.61517E-03-1.96784E-13
 -1      1229 1.52425E-02 1.63707E-03-2.03006E-13
 -1      1230 1.53672E-02 1.60559E-03-2.06173E-13
 -1      1231 1.53451E-02 1.52130E-03-2.06474E-13
 -1      1232 1.53230E-02 1.43702E-03-2.06760E-13
 -1      1233 1.53009E-02 1.35272E-03-2.07032E-13
 -1      1234 1.52788E-02 1.26842E-03-2.07319E-13
 -1      1235 1.52569E-02 1.18483E-03-2.07621E-13
 -1      1236 1.52350E-02 1.10123E-03-2.07917E-13
 -1      1237 1.52129E-02 1.01690E-03-2.08183E-13
 -1      1238 1.51908E-02 9.32580E-04-2.08444E-13
 -1      1239 1.51688E-02 8.48254E-04-2.08693E-13
 -1      1240 1.51467E-02 7.63932E-04-2.08946E-13
 -1      1241 1.51249E-02 6.80331E-04-2.09221E-13
 -1      1242 1.51030E-02 5.96736E-04-2.09460E-13
 -1      1243 1.50810E-02 5.12436E-04-2.09657E-13
 -1      1244 1.50589E-02 4.28143E-04-2.09843E-13
 -1      1245 1.50369E-02 3.43856E-04-2.10007E-13
 -1      1246 1.50150E-02 2.60285E-04-2.10161E-13
 -1      1247 5.06046E-03 2.21977E-04-1.22684E-14
 -1      1248 4.95521E-03 3.60964E-04-1.19942E-14
 -1      1249 4.75591E-03 4.98349E-04-1.15157E-14
 -1      1250 4.45274E-03 6.45465E-04-1.08075E-14
 -1      1251 4.08882E-03 7.79094E-04-9.97176E-15
 -1      1252 3.70796E-03 8.79088E-04-9.11280E-15
 -1      1253 3.27776E-03 9.41420E-04-8.16009E-15
 -1      1254 2.81982E-03 9.48004E-04-7.18419E-15
 -1      1255 2.37656E-03 8.93380E-04-6.29138E-15
 -1      1256 1.93654E-03 7.84332E-04-5.46476E-15
 -1      1257 1.52990E-03 6.42787E-04-4.75927E-15
 -1      1258 1.19621E-03 4.96350E-04-4.22540E-15
 -1      1259 9.36291E-04 3.55129E-04-3.83918E-15
 -1      1260 7.60910E-04 2.22468E-04-3.59559E-15
 -1      1261 6.86073E-04 9.70062E-05-3.50935E-15
 -1      1262 7.21608E-04-2.03518E-05-3.58830E-15
 -1      1263 8.65389E-04-1.43150E-04-3.83314E-15
 -1      1264 1.10386E-03-2.73083E-04-4.23865E-15
 -1      1265 1.39657E-03-3.96777E-04-4.75203E-15
 -1      1266 1.74489E-03-5.14194E-04-5.39439E-15
 -1      1267 2.16351E-03-6.15538E-04-6.21495E-15
 -1      1268 2.60855E-03-6.75752E-04-7.13871E-15
 -1      1269 3.02563E-03-6.80691E-04-8.03741E-15
 -1      1270 3.43756E-03-6.34369E-04-8.94380E-15
 -1      1271 3.83276E-03-5.47755E-04-9.81458E-15
 -1      1272 4.18842E-03-4.35574E-04-1.05841E-14
 -1      1273 4.50480E-03-3.07520E-04-1.12524E-14
 -1      1274 4.76511E-03-1.74498E-04-1.17818E-14
 -1      1275 4.95334E-03-4.30997E-05-1.21373E-14
 -1      1276 5.05641E-03 8.56913E-05-1.23051E-14
 -1      1277 1.99830E-04-1.16799E-04-1.13299E-17
 -1      1278 1.31870E-04-5.07262E-05-4.73796E-17
 -1      1279 1.39864E-04-6.51353E-05-3.74185E-17
 -1      1280 1.21978E-04-3.03075E-05-6.32225E-17
 -1      1281 1.26761E-04-3.96151E-05-5.85063E-17
 -1      1282 2.63983E-04-9.54661E-05-1.39117E-16
 -1      1283 1.13901E-04-1.38133E-05-7.12050E-17
 -1      1284 1.18190E-04-2.16032E-05-6.88875E-17
 -1      1285 2.45080E-04-5.75427E-05-1.66493E-16
 -1      1286 1.05195E-04 6.41582E-08-7.55553E-17
 -1      1287 1.09804E-04-6.40593E-06-7.44169E-17
 -1      1288 2.28043E-04-2.61279E-05-1.81157E-16
 -1      1289 9.56912E-05 1.01194E-05-7.74798E-17
 -1      1290 1.00612E-04 5.65614E-06-7.68835E-17
 -1      1291 2.09344E-04-4.20046E-07-1.88516E-16
 -1      1292 8.58835E-05 1.48878E-05-7.86047E-17
 -1      1293 9.07214E-05 1.30611E-05-7.81845E-17
 -1      1294 1.88412E-04 1.75305E-05-1.91877E-16
 -1      1295 7.78995E-05 1.32733E-05-7.86724E-17
 -1      1296 8.15057E-05 1.43377E-05-7.84827E-17
 -1      1297 1.67500E-04 2.47976E-05-1.93042E-16
 -1      1298 7.40400E-05 6.60484E-06-7.80490E-17
 -1      1299 7.53126E-05 9.62789E-06-7.81574E-17
 -1      1300 1.51624E-04 2.05627E-05-1.92500E-16
 -1      1301 7.57508E-05-1.50904E-06-7.67344E-17
 -1      1302 7.41666E-05 1.61218E-06-7.71545E-17
 -1      1303 1.45878E-04 8.54359E-06-1.90454E-16
 -1      1304 8.27304E-05-6.70621E-06-7.44576E-17
 -1      1305 7.86667E-05-5.41489E-06-7.53249E-17
 -1      1306 1.52696E-04-3.86736E-06-1.86754E-16
 -1      1307 9.29828E-05-6.06471E-06-7.08933E-17
 -1      1308 8.75414E-05-7.62690E-06-7.22079E-17
 -1      1309 1.70110E-04-9.01292E-06-1.80791E-16
 -1      1310 1.04768E-04 1.10967E-06-6.54858E-17
 -1      1311 9.87349E-05-3.43957E-06-6.76136E-17
 -1      1312 1.93576E-04-2.70839E-06-1.71629E-16
 -1      1313 1.16600E-04 1.39852E-05-5.70832E-17
 -1      1314 1.10523E-04 6.91999E-06-6.05120E-17
 -1      1315 2.18830E-04 1.55243E-05-1.57860E-16
 -1      1316 1.28723E-04 3.21152E-05-4.34765E-17
 -1      1317 1.22208E-04 2.24646E-05-4.95345E-17
 -1      1318 2.43642E-04 4.40573E-05-1.36637E-16
 -1      1319 1.43986E-04 5.89533E-05-2.13723E-17
 -1      1320 1.35112E-04 4.41402E-05-3.22279E-17
 -1      1321 2.69995E-04 8.34535E-05-1.03961E-16
 -1      1322 1.95613E-04 1.14193E-04 1.39456E-17
 -1      1323 1.69299E-04 8.22071E-05-8.15862E-18
 -1      1324 3.18831E-04 1.41660E-04-6.43881E-17
 -1      1325 4.19786E-04 2.28913E-04-6.43745E-18
 -1      1326 5.09255E-04-2.80685E-04-9.81745E-17
 -1      1327 6.97768E-04-3.66740E-04-2.01025E-16
 -1      1328 8.80138E-04-4.42667E-04-3.67057E-16
 -1      1329 1.05782E-03-5.12163E-04-5.91717E-16
 -1      1330 7.39959E-04-3.58634E-04-3.40629E-16
 -1      1331 1.23116E-03-5.78969E-04-8.72742E-16
 -1      1332 1.40048E-03-6.43847E-04-1.21240E-15
 -1      1333 1.09735E-03-5.00398E-04-8.03082E-16
 -1      1334 1.56592E-03-7.08180E-04-1.61022E-15
 -1      1335 1.72731E-03-7.71243E-04-2.06734E-15
 -1      1336 1.43920E-03-6.32514E-04-1.49192E-15
 -1      1337 1.88453E-03-8.32554E-04-2.58260E-15
 -1      1338 2.03738E-03-8.90544E-04-3.15646E-15
 -1      1339 1.76710E-03-7.60692E-04-2.41113E-15
 -1      1340 2.18591E-03-9.43452E-04-3.78956E-15
 -1      1341 2.33032E-03-9.89287E-04-4.48307E-15
 -1      1342 2.08077E-03-8.78607E-04-3.56335E-15
 -1      1343 2.47110E-03-1.02590E-03-5.23640E-15
 -1      1344 2.60904E-03-1.05159E-03-6.05039E-15
 -1      1345 2.38063E-03-9.71959E-04-4.95314E-15
 -1      1346 2.74516E-03-1.06495E-03-6.92575E-15
 -1      1347 2.88067E-03-1.06536E-03-7.86212E-15
 -1      1348 2.66981E-03-1.02438E-03-6.58426E-15
 -1      1349 3.01676E-03-1.05300E-03-8.85921E-15
 -1      1350 3.15466E-03-1.02869E-03-9.91567E-15
 -1      1351 2.95473E-03-1.02528E-03-8.45815E-15
 -1      1352 3.29528E-03-9.94188E-04-1.10304E-14
 -1      1353 3.43936E-03-9.51418E-04-1.22027E-14
 -1      1354 3.24307E-03-9.75786E-04-1.05713E-14
 -1      1355 3.58725E-03-9.02924E-04-1.34293E-14
 -1      1356 3.73904E-03-8.50934E-04-1.47095E-14
 -1      1357 3.54074E-03-8.88845E-04-1.29143E-14
 -1      1358 3.89450E-03-7.97779E-04-1.60407E-14
 -1      1359 4.05319E-03-7.45281E-04-1.74203E-14
 -1      1360 3.84983E-03-7.83457E-04-1.54726E-14
 -1      1361 4.21455E-03-6.94940E-04-1.88489E-14
 -1      1362 4.37792E-03-6.47875E-04-2.03241E-14
 -1      1363 4.16875E-03-6.77416E-04-1.82330E-14
 -1      1364 4.54263E-03-6.04669E-04-2.18450E-14
 -1      1365 4.70804E-03-5.65778E-04-2.34101E-14
 -1      1366 4.49385E-03-5.82743E-04-2.11820E-14
 -1      1367 4.87359E-03-5.31117E-04-2.50177E-14
 -1      1368 5.03879E-03-5.00687E-04-2.66685E-14
 -1      1369 4.82109E-03-5.04887E-04-2.43088E-14
 -1      1370 5.20327E-03-4.74058E-04-2.83613E-14
 -1      1371 5.36669E-03-4.50987E-04-3.00959E-14
 -1      1372 5.14711E-03-4.44310E-04-2.76071E-14
 -1      1373 5.52887E-03-4.30948E-04-3.18700E-14
 -1      1374 5.68965E-03-4.13607E-04-3.36830E-14
 -1      1375 5.46962E-03-3.98680E-04-3.10714E-14
 -1      1376 5.84897E-03-3.98481E-04-3.55364E-14
 -1      1377 6.00679E-03-3.85236E-04-3.74295E-14
 -1      1378 5.78736E-03-3.64625E-04-3.46952E-14
 -1      1379 6.16313E-03-3.73488E-04-3.93606E-14
 -1      1380 6.31803E-03-3.62943E-04-4.13296E-14
 -1      1381 6.09992E-03-3.38789E-04-3.84751E-14
 -1      1382 6.47158E-03-3.53326E-04-4.33380E-14
 -1      1383 6.62385E-03-3.44400E-04-4.53854E-14
 -1      1384 6.40741E-03-3.18324E-04-4.24095E-14
 -1      1385 6.77494E-03-3.35981E-04-4.74679E-14
 -1      1386 6.92494E-03-3.27888E-04-4.95867E-14
 -1      1387 6.71030E-03-3.01031E-04-4.64953E-14
 -1      1388 7.07396E-03-3.20010E-04-5.17432E-14
 -1      1389 7.22210E-03-3.12214E-04-5.39323E-14
 -1      1390 7.00922E-03-2.85324E-04-5.07300E-14
 -1      1391 7.36945E-03-3.04441E-04-5.61578E-14
 -1      1392 7.51610E-03-2.96598E-04-5.84195E-14
 -1      1393 7.30483E-03-2.70129E-04-5.51064E-14
 -1      1394 7.66213E-03-2.88660E-04-6.07131E-14
 -1      1395 7.80762E-03-2.80565E-04-6.30399E-14
 -1      1396 7.59777E-03-2.54761E-04-5.96212E-14
 -1      1397 7.95265E-03-2.72311E-04-6.53985E-14
 -1      1398 8.09726E-03-2.63860E-04-6.77853E-14
 -1      1399 7.88861E-03-2.38820E-04-6.42681E-14
 -1      1400 8.24153E-03-2.55221E-04-7.02040E-14
 -1      1401 8.38550E-03-2.46374E-04-7.26539E-14
 -1      1402 8.17784E-03-2.22106E-04-6.90405E-14
 -1      1403 8.52922E-03-2.37334E-04-7.51350E-14
 -1      1404 8.67273E-03-2.28093E-04-7.76465E-14
 -1      1405 8.46587E-03-2.04552E-04-7.39340E-14
 -1      1406 8.81606E-03-2.18670E-04-8.01878E-14
 -1      1407 8.95924E-03-2.09064E-04-8.27596E-14
 -1      1408 8.75301E-03-1.86172E-04-7.89504E-14
 -1      1409 9.10231E-03-1.99293E-04-8.53623E-14
 -1      1410 9.24527E-03-1.89361E-04-8.79944E-14
 -1      1411 9.03954E-03-1.67030E-04-8.40874E-14
 -1      1412 9.38817E-03-1.79287E-04-9.06497E-14
 -1      1413 9.53100E-03-1.69075E-04-9.33297E-14
 -1      1414 9.32563E-03-1.47216E-04-8.93395E-14
 -1      1415 9.67378E-03-1.58744E-04-9.60330E-14
 -1      1416 9.81653E-03-1.48299E-04-9.87546E-14
 -1      1417 9.61144E-03-1.26825E-04-9.46922E-14
 -1      1418 9.95925E-03-1.37755E-04-1.01499E-13
 -1      1419 1.01020E-02-1.27119E-04-1.04263E-13
 -1      1420 9.89707E-03-1.05955E-04-1.00133E-13
 -1      1421 1.02447E-02-1.16404E-04-1.07049E-13
 -1      1422 1.03873E-02-1.05615E-04-1.09858E-13
 -1      1423 1.01826E-02-8.46940E-05-1.05658E-13
 -1      1424 1.05300E-02-9.47635E-05-1.12687E-13
 -1      1425 1.06727E-02-8.38549E-05-1.15537E-13
 -1      1426 1.04681E-02-6.31216E-05-1.11270E-13
 -1      1427 1.08154E-02-7.28973E-05-1.18406E-13
 -1      1428 1.09581E-02-6.18962E-05-1.21296E-13
 -1      1429 1.07535E-02-4.13052E-05-1.16966E-13
 -1      1430 1.11008E-02-5.08579E-05-1.24203E-13
 -1      1431 1.12436E-02-3.97869E-05-1.27127E-13
 -1      1432 1.10390E-02-1.93015E-05-1.22740E-13
 -1      1433 1.13863E-02-2.86881E-05-1.30068E-13
 -1      1434 1.15290E-02-1.75654E-05-1.33029E-13
 -1      1435 1.13245E-02 2.84333E-06-1.28587E-13
 -1      1436 1.16718E-02-6.42230E-06-1.36003E-13
 -1      1437 1.18145E-02 4.73793E-06-1.38991E-13
 -1      1438 1.16100E-02 2.50924E-05-1.34500E-13
 -1      1439 1.19573E-02 1.59127E-05-1.42004E-13
 -1      1440 1.21001E-02 2.70993E-05-1.45037E-13
 -1      1441 1.18956E-02 4.74167E-05-1.40485E-13
 -1      1442 1.22429E-02 3.82960E-05-1.48086E-13
 -1      1443 1.23857E-02 4.95006E-05-1.51156E-13
 -1      1444 1.21811E-02 6.97936E-05-1.46545E-13
 -1      1445 1.25285E-02 6.07119E-05-1.54247E-13
 -1      1446 1.26713E-02 7.19281E-05-1.57353E-13
 -1      1447 1.24667E-02 9.22063E-05-1.52682E-13
 -1      1448 1.28141E-02 8.31485E-05-1.60478E-13
 -1      1449 1.29569E-02 9.43716E-05-1.63623E-13
 -1      1450 1.27524E-02 1.14642E-04-1.58893E-13
 -1      1451 1.30997E-02 1.05597E-04-1.66785E-13
 -1      1452 1.32426E-02 1.16824E-04-1.69961E-13
 -1      1453 1.30380E-02 1.37091E-04-1.65174E-13
 -1      1454 1.33854E-02 1.28051E-04-1.73150E-13
 -1      1455 1.35282E-02 1.39278E-04-1.76352E-13
 -1      1456 1.33237E-02 1.59546E-04-1.71518E-13
 -1      1457 1.36711E-02 1.50505E-04-1.79565E-13
 -1      1458 1.38139E-02 1.61732E-04-1.82788E-13
 -1      1459 1.36094E-02 1.82003E-04-1.77914E-13
 -1      1460 1.39568E-02 1.72957E-04-1.86022E-13
 -1      1461 1.40996E-02 1.84181E-04-1.89264E-13
 -1      1462 1.38950E-02 2.04457E-04-1.84355E-13
 -1      1463 1.42425E-02 1.95403E-04-1.92515E-13
 -1      1464 1.43853E-02 2.06623E-04-1.95771E-13
 -1      1465 1.41807E-02 2.26905E-04-1.90834E-13
 -1      1466 1.45282E-02 2.17841E-04-1.99033E-13
 -1      1467 1.46710E-02 2.29057E-04-2.02301E-13
 -1      1468 1.44665E-02 2.49346E-04-1.97340E-13
 -1      1469 1.48793E-02 2.49632E-04-2.07041E-13
 -1      1470 1.48176E-02 2.81140E-04-2.05340E-13
 -1      1471 8.20616E-04 3.98520E-04-1.39984E-16
 -1      1472 6.23400E-04 3.18274E-04-4.69731E-17
 -1      1473 5.61117E-04 2.69675E-04-8.97719E-17
 -1      1474 1.20175E-03 5.45824E-04-4.81630E-16
 -1      1475 1.01301E-03 4.72667E-04-2.84725E-16
 -1      1476 9.47922E-04 4.24249E-04-3.35371E-16
 -1      1477 1.56904E-03 6.97488E-04-1.03299E-15
 -1      1478 1.38703E-03 6.20611E-04-7.30373E-16
 -1      1479 1.32116E-03 5.72972E-04-7.86751E-16
 -1      1480 1.92070E-03 8.60132E-04-1.80331E-15
 -1      1481 1.74710E-03 7.77942E-04-1.39053E-15
 -1      1482 1.68165E-03 7.31246E-04-1.44929E-15
 -1      1483 2.25171E-03 1.02513E-03-2.80173E-15
 -1      1484 2.08913E-03 9.43630E-04-2.27291E-15
 -1      1485 2.02746E-03 8.98997E-04-2.33151E-15
 -1      1486 2.55889E-03 1.17049E-03-4.03577E-15
 -1      1487 2.40830E-03 1.10197E-03-3.38882E-15
 -1      1488 2.35535E-03 1.06105E-03-3.44379E-15
 -1      1489 2.84565E-03 1.26806E-03-5.51104E-15
 -1      1490 2.70425E-03 1.22661E-03-4.74295E-15
 -1      1491 2.66470E-03 1.19054E-03-4.79498E-15
 -1      1492 3.12350E-03 1.29735E-03-7.23288E-15
 -1      1493 2.98466E-03 1.29144E-03-6.34120E-15
 -1      1494 2.96106E-03 1.25980E-03-6.39026E-15
 -1      1495 3.40777E-03 1.25822E-03-9.19918E-15
 -1      1496 3.26384E-03 1.28520E-03-8.18554E-15
 -1      1497 3.25553E-03 1.25595E-03-8.23091E-15
 -1      1498 3.71033E-03 1.17116E-03-1.14020E-14
 -1      1499 3.55629E-03 1.21874E-03-1.02718E-14
 -1      1500 3.55969E-03 1.18941E-03-1.03131E-14
 -1      1501 4.03453E-03 1.06647E-03-1.38269E-14
 -1      1502 3.86984E-03 1.11925E-03-1.25871E-14
 -1      1503 3.87963E-03 1.08815E-03-1.26250E-14
 -1      1504 4.37604E-03 9.69990E-04-1.64580E-14
 -1      1505 4.20360E-03 1.01613E-03-1.51178E-14
 -1      1506 4.21437E-03 9.82812E-04-1.51508E-14
 -1      1507 4.72677E-03 8.96398E-04-1.92798E-14
 -1      1508 4.55081E-03 9.29990E-04-1.78457E-14
 -1      1509 4.55844E-03 8.94821E-04-1.78759E-14
 -1      1510 5.07877E-03 8.49704E-04-2.22872E-14
 -1      1511 4.90307E-03 8.69813E-04-2.07607E-14
 -1      1512 4.90529E-03 8.33495E-04-2.07880E-14
 -1      1513 5.42623E-03 8.27400E-04-2.54750E-14
 -1      1514 5.25336E-03 8.35833E-04-2.38593E-14
 -1      1515 5.24959E-03 7.99036E-04-2.38817E-14
 -1      1516 5.76591E-03 8.24279E-04-2.88327E-14
 -1      1517 5.59718E-03 8.23800E-04-2.71334E-14
 -1      1518 5.58792E-03 7.87031E-04-2.71484E-14
 -1      1519 6.09659E-03 8.34890E-04-3.23529E-14
 -1      1520 5.93240E-03 8.28177E-04-3.05721E-14
 -1      1521 5.91864E-03 7.91756E-04-3.05810E-14
 -1      1522 6.41842E-03 8.54607E-04-3.60327E-14
 -1      1523 6.25857E-03 8.43849E-04-3.41726E-14
 -1      1524 6.24143E-03 8.07940E-04-3.41751E-14
 -1      1525 6.73229E-03 8.79912E-04-3.98784E-14
 -1      1526 6.57628E-03 8.66733E-04-3.79354E-14
 -1      1527 6.55675E-03 8.31392E-04-3.79308E-14
 -1      1528 7.03940E-03 9.08305E-04-4.38791E-14
 -1      1529 6.88661E-03 8.93840E-04-4.18588E-14
 -1      1530 6.86550E-03 8.59055E-04-4.18464E-14
 -1      1531 7.34098E-03 9.38103E-04-4.80357E-14
 -1      1532 7.19080E-03 9.23105E-04-4.59383E-14
 -1      1533 7.16872E-03 8.88825E-04-4.59190E-14
 -1      1534 7.63819E-03 9.68229E-04-5.23405E-14
 -1      1535 7.49006E-03 9.53173E-04-5.01704E-14
 -1      1536 7.46745E-03 9.19330E-04-5.01435E-14
 -1      1537 7.93200E-03 9.98032E-04-5.67896E-14
 -1      1538 7.78546E-03 9.83199E-04-5.45488E-14
 -1      1539 7.76261E-03 9.49721E-04-5.45120E-14
 -1      1540 8.22326E-03 1.02715E-03-6.13692E-14
 -1      1541 8.07790E-03 1.01269E-03-5.90631E-14
 -1      1542 8.05502E-03 9.79512E-04-5.90173E-14
 -1      1543 8.51263E-03 1.05543E-03-6.60715E-14
 -1      1544 8.36814E-03 1.04140E-03-6.37038E-14
 -1      1545 8.34533E-03 1.00846E-03-6.36511E-14
 -1      1546 8.80062E-03 1.08282E-03-7.08958E-14
 -1      1547 8.65676E-03 1.06924E-03-6.84692E-14
 -1      1548 8.63410E-03 1.03648E-03-6.84077E-14
 -1      1549 9.08764E-03 1.10936E-03-7.58347E-14
 -1      1550 8.94423E-03 1.09620E-03-7.33515E-14
 -1      1551 8.92173E-03 1.06358E-03-7.32836E-14
 -1      1552 9.37399E-03 1.13513E-03-8.08876E-14
 -1      1553 9.23088E-03 1.12234E-03-7.83467E-14
 -1      1554 9.20857E-03 1.08983E-03-7.82747E-14
 -1      1555 9.65990E-03 1.16021E-03-8.60555E-14
 -1      1556 9.51699E-03 1.14775E-03-8.34571E-14
 -1      1557 9.49484E-03 1.11532E-03-8.33801E-14
 -1      1558 9.94553E-03 1.18472E-03-9.13414E-14
 -1      1559 9.80274E-03 1.17253E-03-8.86843E-14
 -1      1560 9.78076E-03 1.14016E-03-8.86009E-14
 -1      1561 1.02310E-02 1.20875E-03-9.67331E-14
 -1      1562 1.00883E-02 1.19679E-03-9.40238E-14
 -1      1563 1.00664E-02 1.16445E-03-9.39326E-14
 -1      1564 1.05164E-02 1.23238E-03-1.02221E-13
 -1      1565 1.03737E-02 1.22061E-03-9.94659E-14
 -1      1566 1.03520E-02 1.18830E-03-9.93670E-14
 -1      1567 1.08017E-02 1.25570E-03-1.07801E-13
 -1      1568 1.06591E-02 1.24408E-03-1.04999E-13
 -1      1569 1.06374E-02 1.21179E-03-1.04894E-13
 -1      1570 1.10871E-02 1.27878E-03-1.13477E-13
 -1      1571 1.09444E-02 1.26727E-03-1.10626E-13
 -1      1572 1.09229E-02 1.23499E-03-1.10516E-13
 -1      1573 1.13725E-02 1.30167E-03-1.19247E-13
 -1      1574 1.12298E-02 1.29025E-03-1.16351E-13
 -1      1575 1.12083E-02 1.25798E-03-1.16236E-13
 -1      1576 1.16579E-02 1.32442E-03-1.25107E-13
 -1      1577 1.15152E-02 1.31306E-03-1.22166E-13
 -1      1578 1.14938E-02 1.28079E-03-1.22046E-13
 -1      1579 1.19434E-02 1.34706E-03-1.31044E-13
 -1      1580 1.18007E-02 1.33575E-03-1.28066E-13
 -1      1581 1.17792E-02 1.30349E-03-1.27938E-13
 -1      1582 1.22289E-02 1.36963E-03-1.37051E-13
 -1      1583 1.20862E-02 1.35835E-03-1.34039E-13
 -1      1584 1.20648E-02 1.32609E-03-1.33905E-13
 -1      1585 1.25145E-02 1.39214E-03-1.43122E-13
 -1      1586 1.23717E-02 1.38089E-03-1.40079E-13
 -1      1587 1.23503E-02 1.34862E-03-1.39940E-13
 -1      1588 1.28000E-02 1.41461E-03-1.49259E-13
 -1      1589 1.26572E-02 1.40338E-03-1.46183E-13
 -1      1590 1.26359E-02 1.37111E-03-1.46038E-13
 -1      1591 1.30857E-02 1.43707E-03-1.55454E-13
 -1      1592 1.29428E-02 1.42584E-03-1.52349E-13
 -1      1593 1.29215E-02 1.39357E-03-1.52198E-13
 -1      1594 1.33713E-02 1.45950E-03-1.61704E-13
 -1      1595 1.32285E-02 1.44829E-03-1.58572E-13
 -1      1596 1.32071E-02 1.41601E-03-1.58414E-13
 -1      1597 1.36569E-02 1.48193E-03-1.67996E-13
 -1      1598 1.35141E-02 1.47072E-03-1.64847E-13
 -1      1599 1.34928E-02 1.43844E-03-1.64682E-13
 -1      1600 1.39426E-02 1.50436E-03-1.74319E-13
 -1      1601 1.37998E-02 1.49315E-03-1.71155E-13
 -1      1602 1.37785E-02 1.46087E-03-1.70988E-13
 -1      1603 1.42283E-02 1.52679E-03-1.80662E-13
 -1      1604 1.40855E-02 1.51557E-03-1.77486E-13
 -1      1605 1.40641E-02 1.48330E-03-1.77316E-13
 -1      1606 1.45140E-02 1.54923E-03-1.87028E-13
 -1      1607 1.43712E-02 1.53801E-03-1.83843E-13
 -1      1608 1.43498E-02 1.50573E-03-1.83669E-13
 -1      1609 1.47997E-02 1.57167E-03-1.93408E-13
 -1      1610 1.46569E-02 1.56045E-03-1.90215E-13
 -1      1611 1.46355E-02 1.52816E-03-1.90040E-13
 -1      1612 1.50854E-02 1.59412E-03-1.99791E-13
 -1      1613 1.49426E-02 1.58289E-03-1.96601E-13
 -1      1614 1.49212E-02 1.55061E-03-1.96419E-13
 -1      1615 1.52314E-02 1.59492E-03-2.03149E-13
 -1      1616 1.52158E-02 1.49051E-03-2.03788E-13
 -1      1617 1.52269E-02 1.53265E-03-2.03638E-13
 -1      1618 1.51937E-02 1.40622E-03-2.04073E-13
 -1      1619 1.52048E-02 1.44836E-03-2.03933E-13
 -1      1620 1.50866E-02 1.45971E-03-2.01101E-13
 -1      1621 1.51716E-02 1.32192E-03-2.04352E-13
 -1      1622 1.51827E-02 1.36407E-03-2.04211E-13
 -1      1623 1.50645E-02 1.37542E-03-2.01389E-13
 -1      1624 1.51495E-02 1.23762E-03-2.04642E-13
 -1      1625 1.51606E-02 1.27977E-03-2.04499E-13
 -1      1626 1.50424E-02 1.29112E-03-2.01675E-13
 -1      1627 1.51278E-02 1.15474E-03-2.04935E-13
 -1      1628 1.51387E-02 1.19618E-03-2.04788E-13
 -1      1629 1.50205E-02 1.20753E-03-2.01962E-13
 -1      1630 1.51057E-02 1.07042E-03-2.05214E-13
 -1      1631 1.51168E-02 1.11258E-03-2.05080E-13
 -1      1632 1.49986E-02 1.12394E-03-2.02244E-13
 -1      1633 1.50837E-02 9.86104E-04-2.05478E-13
 -1      1634 1.50947E-02 1.02826E-03-2.05347E-13
 -1      1635 1.49765E-02 1.03962E-03-2.02512E-13
 -1      1636 1.50616E-02 9.01782E-04-2.05732E-13
 -1      1637 1.50726E-02 9.43943E-04-2.05606E-13
 -1      1638 1.49544E-02 9.55305E-04-2.02769E-13
 -1      1639 1.50395E-02 8.17461E-04-2.05975E-13
 -1      1640 1.50506E-02 8.59622E-04-2.05856E-13
 -1      1641 1.49324E-02 8.70986E-04-2.03016E-13
 -1      1642 1.50175E-02 7.33144E-04-2.06227E-13
 -1      1643 1.50285E-02 7.75302E-04-2.06099E-13
 -1      1644 1.49103E-02 7.86669E-04-2.03258E-13
 -1      1645 1.49958E-02 6.50260E-04-2.06470E-13
 -1      1646 1.50066E-02 6.91701E-04-2.06352E-13
 -1      1647 1.48884E-02 7.03069E-04-2.03492E-13
 -1      1648 1.49738E-02 5.65954E-04-2.06688E-13
 -1      1649 1.49848E-02 6.08106E-04-2.06584E-13
 -1      1650 1.48666E-02 6.19473E-04-2.03717E-13
 -1      1651 1.49517E-02 4.81655E-04-2.06877E-13
 -1      1652 1.49628E-02 5.23804E-04-2.06787E-13
 -1      1653 1.48446E-02 5.35170E-04-2.03918E-13
 -1      1654 1.49297E-02 3.97363E-04-2.07053E-13
 -1      1655 1.49407E-02 4.39508E-04-2.06967E-13
 -1      1656 1.48225E-02 4.50872E-04-2.04097E-13
 -1      1657 1.48681E-02 3.18179E-04-2.06236E-13
 -1      1658 1.48792E-02 3.60323E-04-2.06160E-13
 -1      1659 1.47609E-02 3.71684E-04-2.03290E-13
 -1      1660 1.46599E-02 2.97603E-04-2.01502E-13
 -1      1661 5.05535E-03 2.17991E-04-1.28592E-14
 -1      1662 5.08669E-03 1.76848E-04-1.29473E-14
 -1      1663 4.90003E-03 3.21771E-04-1.24203E-14
 -1      1664 4.98387E-03 2.74620E-04-1.26138E-14
 -1      1665 4.64163E-03 4.49141E-04-1.18190E-14
 -1      1666 4.77332E-03 3.86526E-04-1.21223E-14
 -1      1667 4.27096E-03 6.09166E-04-1.09999E-14
 -1      1668 4.45023E-03 5.27022E-04-1.14299E-14
 -1      1669 3.91020E-03 7.78407E-04-1.00057E-14
 -1      1670 4.07787E-03 7.08461E-04-1.04263E-14
 -1      1671 3.53940E-03 9.09277E-04-9.03729E-15
 -1      1672 3.71140E-03 8.53030E-04-9.48945E-15
 -1      1673 3.13768E-03 9.93600E-04-7.97656E-15
 -1      1674 3.32225E-03 9.63692E-04-8.48125E-15
 -1      1675 2.74353E-03 9.86599E-04-6.93288E-15
 -1      1676 2.92315E-03 1.00091E-03-7.39740E-15
 -1      1677 2.35583E-03 8.93571E-04-6.00469E-15
 -1      1678 2.53333E-03 9.45986E-04-6.41544E-15
 -1      1679 1.94389E-03 7.28433E-04-5.14099E-15
 -1      1680 2.13894E-03 8.12630E-04-5.52564E-15
 -1      1681 1.53647E-03 5.49156E-04-4.47602E-15
 -1      1682 1.71330E-03 6.32438E-04-4.76630E-15
 -1      1683 1.19084E-03 3.85322E-04-3.96813E-15
 -1      1684 1.34355E-03 4.57711E-04-4.18350E-15
 -1      1685 9.13207E-04 2.53175E-04-3.61162E-15
 -1      1686 1.03149E-03 3.09947E-04-3.75880E-15
 -1      1687 7.30830E-04 1.47890E-04-3.37878E-15
 -1      1688 8.02551E-04 1.88855E-04-3.45678E-15
 -1      1689 6.71545E-04 7.14707E-05-3.35516E-15
 -1      1690 6.81742E-04 1.07049E-04-3.35568E-15
 -1      1691 7.43001E-04-3.36247E-06-3.46779E-15
 -1      1692 6.95583E-04 3.12295E-05-3.39684E-15
 -1      1693 9.51221E-04-9.01749E-05-3.71491E-15
 -1      1694 8.38278E-04-4.08211E-05-3.55546E-15
 -1      1695 1.23150E-03-2.31162E-04-4.19743E-15
 -1      1696 1.09382E-03-1.71066E-04-3.98233E-15
 -1      1697 1.55921E-03-3.73539E-04-4.75028E-15
 -1      1698 1.40378E-03-3.05827E-04-4.47916E-15
 -1      1699 1.92317E-03-5.24289E-04-5.45424E-15
 -1      1700 1.75070E-03-4.54692E-04-5.10835E-15
 -1      1701 2.34184E-03-6.61607E-04-6.35291E-15
 -1      1702 2.15181E-03-6.01313E-04-5.90196E-15
 -1      1703 2.72318E-03-7.27847E-04-7.34921E-15
 -1      1704 2.55175E-03-7.06898E-04-6.89924E-15
 -1      1705 3.08253E-03-7.13785E-04-8.31708E-15
 -1      1706 2.91949E-03-7.28625E-04-7.87510E-15
 -1      1707 3.44705E-03-6.30137E-04-9.34254E-15
 -1      1708 3.27483E-03-6.79092E-04-8.87314E-15
 -1      1709 3.82177E-03-4.98451E-04-1.02578E-14
 -1      1710 3.65598E-03-5.62823E-04-9.84358E-15
 -1      1711 4.17470E-03-3.47234E-04-1.10948E-14
 -1      1712 4.01327E-03-4.18561E-04-1.07232E-14
 -1      1713 4.50530E-03-1.97294E-04-1.18138E-14
 -1      1714 4.35659E-03-2.65532E-04-1.15002E-14
 -1      1715 4.78363E-03-6.62034E-05-1.23691E-14
 -1      1716 4.66310E-03-1.23774E-04-1.21377E-14
 -1      1717 4.98367E-03 4.10235E-05-1.27237E-14
 -1      1718 4.90210E-03-5.48386E-06-1.25870E-14
 -1      1719 5.08166E-03 1.29760E-04-1.28624E-14
 -1      1720 5.05023E-03 9.07344E-05-1.28267E-14
 -1      1721 4.12438E-03 6.18918E-04-1.10483E-14
 -1      1722 4.49994E-03 4.38936E-04-1.20424E-14
 -1      1723 1.52101E-02 1.56264E-03-2.02965E-13
 -1      1724 1.50809E-02 1.53185E-03-2.00281E-13
 -1      1725 5.02339E-03 2.15387E-04-1.33147E-14
 -1      1726 4.81788E-03 3.06945E-04-1.27538E-14
 -1      1727 5.09377E-03 1.58455E-04-1.34877E-14
 -1      1728 3.75256E-03 8.03925E-04-9.93831E-15
 -1      1729 3.38266E-03 9.49493E-04-8.85002E-15
 -1      1730 3.02394E-03 1.02383E-03-7.70816E-15
 -1      1731 2.66700E-03 9.89307E-04-6.61970E-15
 -1      1732 2.29812E-03 8.54654E-04-5.64203E-15
 -1      1733 1.89856E-03 6.57587E-04-4.81985E-15
 -1      1734 1.49569E-03 4.58444E-04-4.18161E-15
 -1      1735 1.14552E-03 2.94220E-04-3.70573E-15
 -1      1736 8.68806E-04 1.73923E-04-3.36005E-15
 -1      1737 7.01588E-04 1.06494E-04-3.19513E-15
 -1      1738 6.76280E-04 6.05480E-05-3.21425E-15
 -1      1739 7.98443E-04 1.09282E-05-3.33263E-15
 -1      1740 1.04455E-03-7.69872E-05-3.66018E-15
 -1      1741 1.36327E-03-2.22695E-04-4.18746E-15
 -1      1742 1.71480E-03-3.85720E-04-4.80146E-15
 -1      1743 2.10133E-03-5.59802E-04-5.58307E-15
 -1      1744 2.47361E-03-7.01301E-04-6.55398E-15
 -1      1745 2.81775E-03-7.54432E-04-7.62034E-15
 -1      1746 3.15059E-03-7.15175E-04-8.70606E-15
 -1      1747 3.49062E-03-5.96298E-04-9.77893E-15
 -1      1748 3.85447E-03-4.33413E-04-1.07652E-14
 -1      1749 4.21035E-03-2.61121E-04-1.16583E-14
 -1      1750 4.54641E-03-1.06520E-04-1.24091E-14
 -1      1751 4.82714E-03 1.31530E-05-1.29683E-14
 -1      1752 5.01863E-03 9.60346E-05-1.32997E-14
 -1      1753 3.43695E-04-1.82993E-04-8.66820E-17
 -1      1754 3.69455E-04-8.50012E-05-2.63773E-16
 -1      1755 3.82780E-04-1.09986E-04-2.49570E-16
 -1      1756 3.97155E-04-1.37638E-04-2.31721E-16
 -1      1757 4.15207E-04-1.68350E-04-2.05592E-16
 -1      1758 5.29246E-04-1.73760E-04-3.64658E-16
 -1      1759 3.11943E-04-4.13336E-06-2.89902E-16
 -1      1760 3.27614E-04-2.08714E-05-2.86433E-16
 -1      1761 2.77317E-04 2.07474E-05-2.93751E-16
 -1      1762 2.94747E-04 1.01377E-05-2.92179E-16
 -1      1763 4.10681E-04-7.05800E-06-4.29683E-16
 -1      1764 2.44033E-04 3.00854E-05-2.94225E-16
 -1      1765 2.59803E-04 2.74889E-05-2.94212E-16
 -1      1766 3.60776E-04 2.32561E-05-4.32881E-16
 -1      1767 2.20925E-04 2.41647E-05-2.92531E-16
 -1      1768 2.30436E-04 2.87094E-05-2.93588E-16
 -1      1769 3.14888E-04 3.37020E-05-4.32149E-16
 -1      1770 2.16249E-04 9.62845E-06-2.88831E-16
 -1      1771 2.15879E-04 1.72331E-05-2.90959E-16
 -1      1772 2.86878E-04 2.61911E-05-4.28694E-16
 -1      1773 2.32574E-04-2.47421E-06-2.82624E-16
 -1      1774 2.22048E-04 2.46610E-06-2.86175E-16
 -1      1775 2.87864E-04 1.10333E-05-4.22568E-16
 -1      1776 2.64344E-04-2.32286E-06-2.73111E-16
 -1      1777 2.47201E-04-4.32327E-06-2.78654E-16
 -1      1778 3.18285E-04 2.80038E-06-4.13067E-16
 -1      1779 3.04127E-04 1.44961E-05-2.58460E-16
 -1      1780 2.84003E-04 4.02110E-06-2.66809E-16
 -1      1781 3.68369E-04 1.22784E-05-3.98756E-16
 -1      1782 3.44482E-04 4.72100E-05-2.36166E-16
 -1      1783 3.24580E-04 2.91491E-05-2.48906E-16
 -1      1784 4.25697E-04 4.29148E-05-3.76828E-16
 -1      1785 3.83845E-04 9.36158E-05-2.02095E-16
 -1      1786 3.64122E-04 6.89190E-05-2.21516E-16
 -1      1787 4.81372E-04 9.20505E-05-3.43665E-16
 -1      1788 4.28132E-04 1.55729E-04-1.49118E-16
 -1      1789 4.04739E-04 1.22564E-04-1.78798E-16
 -1      1790 5.36136E-04 1.57022E-04-2.93168E-16
 -1      1791 5.10259E-04 2.28726E-04-1.12838E-16
 -1      1792 4.66422E-04 1.88103E-04-1.37057E-16
 -1      1793 6.06739E-04 2.30005E-04-2.47849E-16
 -1      1794 7.01439E-04 3.07290E-04-2.12260E-16
 -1      1795 4.07415E-04-1.93656E-04-1.50772E-16
 -1      1796 1.07845E-03 4.55376E-04-5.64693E-16
 -1      1797 8.90972E-04 3.81827E-04-3.63601E-16
 -1      1798 8.38058E-04 3.40318E-04-3.85922E-16
 -1      1799 5.47563E-04-2.42236E-04-2.69045E-16
 -1      1800 9.69035E-04-4.21053E-04-7.28381E-16
 -1      1801 1.14397E-03-4.88297E-04-1.02200E-15
 -1      1802 1.31607E-03-5.54784E-04-1.37093E-15
 -1      1803 1.48537E-03-6.20476E-04-1.77663E-15
 -1      1804 1.19555E-03-4.75997E-04-1.24842E-15
 -1      1805 1.65216E-03-6.85697E-04-2.23904E-15
 -1      1806 1.81581E-03-7.49217E-04-2.75913E-15
 -1      1807 1.53778E-03-6.08237E-04-2.06679E-15
 -1      1808 1.97662E-03-8.09846E-04-3.33717E-15
 -1      1809 2.13429E-03-8.65474E-04-3.97390E-15
 -1      1810 1.87177E-03-7.37356E-04-3.11071E-15
 -1      1811 2.28878E-03-9.13997E-04-4.66947E-15
 -1      1812 2.44080E-03-9.52980E-04-5.42563E-15
 -1      1813 2.19522E-03-8.51653E-04-4.38644E-15
 -1      1814 2.59000E-03-9.80443E-04-6.24275E-15
 -1      1815 2.73833E-03-9.94755E-04-7.11978E-15
 -1      1816 2.50739E-03-9.32562E-04-5.90061E-15
 -1      1817 2.88525E-03-9.95220E-04-8.05753E-15
 -1      1818 3.03326E-03-9.81926E-04-9.05541E-15
 -1      1819 2.81160E-03-9.62476E-04-7.65696E-15
 -1      1820 3.18179E-03-9.55969E-04-1.01132E-14
 -1      1821 3.33271E-03-9.19178E-04-1.12286E-14
 -1      1822 3.11499E-03-9.34770E-04-9.65426E-15
 -1      1823 3.48557E-03-8.73985E-04-1.24002E-14
 -1      1824 3.64099E-03-8.22950E-04-1.36269E-14
 -1      1825 3.42443E-03-8.58511E-04-1.18873E-14
 -1      1826 3.79873E-03-7.68787E-04-1.49065E-14
 -1      1827 3.95826E-03-7.13746E-04-1.62374E-14
 -1      1828 3.74253E-03-7.53805E-04-1.43414E-14
 -1      1829 4.11964E-03-6.59902E-04-1.76174E-14
 -1      1830 4.28172E-03-6.08659E-04-1.90454E-14
 -1      1831 4.06736E-03-6.42228E-04-1.70034E-14
 -1      1832 4.44477E-03-5.61145E-04-2.05194E-14
 -1      1833 4.60760E-03-5.17893E-04-2.20390E-14
 -1      1834 4.39481E-03-5.39565E-04-1.98592E-14
 -1      1835 4.77054E-03-4.79206E-04-2.36023E-14
 -1      1836 4.93265E-03-4.45054E-04-2.52074E-14
 -1      1837 4.72110E-03-4.53768E-04-2.28965E-14
 -1      1838 5.09423E-03-4.15203E-04-2.68550E-14
 -1      1839 5.25467E-03-3.89357E-04-2.85447E-14
 -1      1840 5.04383E-03-3.86526E-04-2.61064E-14
 -1      1841 5.41417E-03-3.67033E-04-3.02757E-14
 -1      1842 5.57242E-03-3.47856E-04-3.20465E-14
 -1      1843 5.36189E-03-3.35908E-04-2.94822E-14
 -1      1844 5.72953E-03-3.31296E-04-3.38560E-14
 -1      1845 5.88541E-03-3.16999E-04-3.57049E-14
 -1      1846 5.67503E-03-2.98492E-04-3.30200E-14
 -1      1847 6.04012E-03-3.04494E-04-3.75932E-14
 -1      1848 6.19369E-03-2.93485E-04-3.95192E-14
 -1      1849 5.98347E-03-2.70663E-04-3.67138E-14
 -1      1850 6.34613E-03-2.83601E-04-4.14844E-14
 -1      1851 6.49757E-03-2.74612E-04-4.34877E-14
 -1      1852 6.28763E-03-2.49251E-04-4.05629E-14
 -1      1853 6.64801E-03-2.66252E-04-4.55277E-14
 -1      1854 6.79759E-03-2.58348E-04-4.76055E-14
 -1      1855 6.58803E-03-2.31749E-04-4.45638E-14
 -1      1856 6.94630E-03-2.50725E-04-4.97210E-14
 -1      1857 7.09430E-03-2.43258E-04-5.18721E-14
 -1      1858 6.88524E-03-2.16314E-04-4.87152E-14
 -1      1859 7.24158E-03-2.35841E-04-5.40577E-14
 -1      1860 7.38828E-03-2.28389E-04-5.62777E-14
 -1      1861 7.17978E-03-2.01672E-04-5.30121E-14
 -1      1862 7.53441E-03-2.20844E-04-5.85327E-14
 -1      1863 7.68007E-03-2.13151E-04-6.08208E-14
 -1      1864 7.47214E-03-1.86991E-04-5.74480E-14
 -1      1865 7.82528E-03-2.05286E-04-6.31406E-14
 -1      1866 7.97013E-03-1.97215E-04-6.54935E-14
 -1      1867 7.76275E-03-1.71776E-04-6.20179E-14
 -1      1868 8.11463E-03-1.88936E-04-6.78774E-14
 -1      1869 8.25886E-03-1.80430E-04-7.02907E-14
 -1      1870 8.05200E-03-1.55764E-04-6.67170E-14
 -1      1871 8.40283E-03-1.71710E-04-7.27364E-14
 -1      1872 8.54659E-03-1.62765E-04-7.52118E-14
 -1      1873 8.34018E-03-1.38849E-04-7.15418E-14
 -1      1874 8.69016E-03-1.53615E-04-7.77169E-14
 -1      1875 8.83359E-03-1.44257E-04-8.02522E-14
 -1      1876 8.62756E-03-1.21030E-04-7.64864E-14
 -1      1877 8.97687E-03-1.34713E-04-8.28180E-14
 -1      1878 9.12005E-03-1.24986E-04-8.54127E-14
 -1      1879 8.91436E-03-1.02365E-04-8.15526E-14
 -1      1880 9.26314E-03-1.15096E-04-8.80341E-14
 -1      1881 9.40615E-03-1.05049E-04-9.06825E-14
 -1      1882 9.20073E-03-8.29445E-05-8.67336E-14
 -1      1883 9.54910E-03-9.48642E-05-9.33549E-14
 -1      1884 9.69200E-03-8.45485E-05-9.60502E-14
 -1      1885 9.48680E-03-6.28737E-05-9.20223E-14
 -1      1886 9.83486E-03-7.41194E-05-9.87689E-14
 -1      1887 9.97769E-03-6.35833E-05-1.01507E-13
 -1      1888 9.77266E-03-4.22572E-05-9.74067E-14
 -1      1889 1.01205E-02-5.29556E-05-1.04268E-13
 -1      1890 1.02633E-02-4.22424E-05-1.07051E-13
 -1      1891 1.00584E-02-2.11939E-05-1.02881E-13
 -1      1892 1.04061E-02-3.14568E-05-1.09855E-13
 -1      1893 1.05488E-02-2.06042E-05-1.12681E-13
 -1      1894 1.03440E-02 2.27712E-07-1.08442E-13
 -1      1895 1.06916E-02-9.69518E-06-1.15528E-13
 -1      1896 1.08344E-02 1.26526E-06-1.18393E-13
 -1      1897 1.06297E-02 2.19311E-05-1.14089E-13
 -1      1898 1.09771E-02 1.22687E-05-1.21278E-13
 -1      1899 1.11199E-02 2.33109E-05-1.24182E-13
 -1      1900 1.09152E-02 4.38520E-05-1.19819E-13
 -1      1901 1.12627E-02 3.43853E-05-1.27104E-13
 -1      1902 1.14054E-02 4.54883E-05-1.30043E-13
 -1      1903 1.12008E-02 6.59375E-05-1.25623E-13
 -1      1904 1.15482E-02 5.66149E-05-1.33000E-13
 -1      1905 1.16910E-02 6.77622E-05-1.35973E-13
 -1      1906 1.14864E-02 8.81454E-05-1.31500E-13
 -1      1907 1.18338E-02 7.89262E-05-1.38965E-13
 -1      1908 1.19766E-02 9.01049E-05-1.41976E-13
 -1      1909 1.17720E-02 1.10442E-04-1.37447E-13
 -1      1910 1.21194E-02 1.01295E-04-1.45006E-13
 -1      1911 1.22622E-02 1.12495E-04-1.48054E-13
 -1      1912 1.20576E-02 1.32801E-04-1.43467E-13
 -1      1913 1.24050E-02 1.23703E-04-1.51120E-13
 -1      1914 1.25478E-02 1.34918E-04-1.54207E-13
 -1      1915 1.23433E-02 1.55203E-04-1.49562E-13
 -1      1916 1.26906E-02 1.46137E-04-1.57311E-13
 -1      1917 1.28335E-02 1.57360E-04-1.60431E-13
 -1      1918 1.26289E-02 1.77634E-04-1.55729E-13
 -1      1919 1.29763E-02 1.68585E-04-1.63567E-13
 -1      1920 1.31191E-02 1.79813E-04-1.66721E-13
 -1      1921 1.29146E-02 2.00081E-04-1.61966E-13
 -1      1922 1.32620E-02 1.91041E-04-1.69892E-13
 -1      1923 1.34048E-02 2.02271E-04-1.73075E-13
 -1      1924 1.32002E-02 2.22538E-04-1.68268E-13
 -1      1925 1.35476E-02 2.13500E-04-1.76268E-13
 -1      1926 1.36905E-02 2.24728E-04-1.79474E-13
 -1      1927 1.34859E-02 2.44997E-04-1.74627E-13
 -1      1928 1.38333E-02 2.35956E-04-1.82692E-13
 -1      1929 1.39762E-02 2.47182E-04-1.85921E-13
 -1      1930 1.37716E-02 2.67455E-04-1.81032E-13
 -1      1931 1.41190E-02 2.58407E-04-1.89157E-13
 -1      1932 1.42619E-02 2.69630E-04-1.92402E-13
 -1      1933 1.40573E-02 2.89909E-04-1.87483E-13
 -1      1934 1.43894E-02 2.78009E-04-1.95316E-13
 -1      1935 1.45323E-02 2.89228E-04-1.98573E-13
 -1      1936 1.45828E-02 3.26269E-04-1.99467E-13
 -1      1937 1.43277E-02 3.09513E-04-1.93631E-13
 -1      1938 1.44507E-03 6.07644E-04-1.11968E-15
 -1      1939 1.26298E-03 5.30349E-04-8.16079E-16
 -1      1940 1.20694E-03 4.87486E-04-8.39294E-16
 -1      1941 1.80115E-03 7.72193E-04-1.88738E-15
 -1      1942 1.62468E-03 6.88628E-04-1.47621E-15
 -1      1943 1.56942E-03 6.45293E-04-1.49732E-15
 -1      1944 2.14424E-03 9.42420E-04-2.87789E-15
 -1      1945 1.97473E-03 8.57736E-04-2.35417E-15
 -1      1946 1.92379E-03 8.15437E-04-2.37026E-15
 -1      1947 2.47135E-03 1.09678E-03-4.10169E-15
 -1      1948 2.30990E-03 1.02334E-03-3.45984E-15
 -1      1949 2.26642E-03 9.84640E-04-3.46912E-15
 -1      1950 2.78321E-03 1.20492E-03-5.56690E-15
 -1      1951 2.62866E-03 1.15825E-03-4.80395E-15
 -1      1952 2.59416E-03 1.12537E-03-4.80524E-15
 -1      1953 3.08696E-03 1.24227E-03-7.27748E-15
 -1      1954 2.93497E-03 1.23284E-03-6.39120E-15
 -1      1955 2.90923E-03 1.20587E-03-6.38506E-15
 -1      1956 3.39381E-03 1.20610E-03-9.23292E-15
 -1      1957 3.23890E-03 1.23229E-03-8.22451E-15
 -1      1958 3.22081E-03 1.20870E-03-8.21074E-15
 -1      1959 3.71244E-03 1.11728E-03-1.14248E-14
 -1      1960 3.55121E-03 1.16626E-03-1.02998E-14
 -1      1961 3.53991E-03 1.14289E-03-1.02796E-14
 -1      1962 4.04429E-03 1.00866E-03-1.38388E-14
 -1      1963 3.87689E-03 1.06366E-03-1.26049E-14
 -1      1964 3.87126E-03 1.03857E-03-1.25790E-14
 -1      1965 4.38538E-03 9.08197E-04-1.64603E-14
 -1      1966 4.21419E-03 9.56374E-04-1.51245E-14
 -1      1967 4.21210E-03 9.29293E-04-1.50935E-14
 -1      1968 4.72981E-03 8.31694E-04-1.92734E-14
 -1      1969 4.55772E-03 8.66673E-04-1.78432E-14
 -1      1970 4.55647E-03 8.38106E-04-1.78059E-14
 -1      1971 5.07253E-03 7.83340E-04-2.22715E-14
 -1      1972 4.90180E-03 8.04166E-04-2.07502E-14
 -1      1973 4.89900E-03 7.74742E-04-2.07068E-14
 -1      1974 5.41016E-03 7.60435E-04-2.54440E-14
 -1      1975 5.24223E-03 7.69054E-04-2.38363E-14
 -1      1976 5.23637E-03 7.39228E-04-2.37868E-14
 -1      1977 5.74099E-03 7.57457E-04-2.87872E-14
 -1      1978 5.57655E-03 7.56809E-04-2.70948E-14
 -1      1979 5.56704E-03 7.26881E-04-2.70375E-14
 -1      1980 6.06450E-03 7.68667E-04-3.22926E-14
 -1      1981 5.90369E-03 7.61583E-04-3.05196E-14
 -1      1982 5.89065E-03 7.31741E-04-3.04543E-14
 -1      1983 6.38094E-03 7.89216E-04-3.59579E-14
 -1      1984 6.22357E-03 7.77994E-04-3.41054E-14
 -1      1985 6.20749E-03 7.48357E-04-3.40312E-14
 -1      1986 6.69100E-03 8.15426E-04-3.97867E-14
 -1      1987 6.53671E-03 8.01766E-04-3.78526E-14
 -1      1988 6.51820E-03 7.72398E-04-3.77699E-14
 -1      1989 6.99558E-03 8.44700E-04-4.37712E-14
 -1      1990 6.84391E-03 8.29780E-04-4.17589E-14
 -1      1991 6.82359E-03 8.00710E-04-4.16682E-14
 -1      1992 7.29560E-03 8.75301E-04-4.79123E-14
 -1      1993 7.14609E-03 8.59897E-04-4.58227E-14
 -1      1994 7.12448E-03 8.31122E-04-4.57229E-14
 -1      1995 7.59193E-03 9.06124E-04-5.21989E-14
 -1      1996 7.44416E-03 8.90721E-04-5.00384E-14
 -1      1997 7.42168E-03 8.62222E-04-4.99295E-14
 -1      1998 7.88536E-03 9.36515E-04-5.66285E-14
 -1      1999 7.73896E-03 9.21393E-04-5.43974E-14
 -1      2000 7.71591E-03 8.93141E-04-5.42791E-14
 -1      2001 8.17654E-03 9.66119E-04-6.11902E-14
 -1      2002 8.03119E-03 9.51423E-04-5.88921E-14
 -1      2003 8.00781E-03 9.23384E-04-5.87653E-14
 -1      2004 8.46602E-03 9.94783E-04-6.58759E-14
 -1      2005 8.32146E-03 9.80570E-04-6.35167E-14
 -1      2006 8.29791E-03 9.52709E-04-6.33810E-14
 -1      2007 8.75423E-03 1.02248E-03-7.06855E-14
 -1      2008 8.61025E-03 1.00875E-03-6.82664E-14
 -1      2009 8.58664E-03 9.81036E-04-6.81220E-14
 -1      2010 9.04152E-03 1.04925E-03-7.56125E-14
 -1      2011 8.89796E-03 1.03598E-03-7.31352E-14
 -1      2012 8.87436E-03 1.00838E-03-7.29841E-14
 -1      2013 9.32815E-03 1.07520E-03-8.06544E-14
 -1      2014 9.18490E-03 1.06232E-03-7.81185E-14
 -1      2015 9.16134E-03 1.03482E-03-7.79604E-14
 -1      2016 9.61433E-03 1.10042E-03-8.58098E-14
 -1      2017 9.47128E-03 1.08789E-03-8.32180E-14
 -1      2018 9.44779E-03 1.06046E-03-8.30522E-14
 -1      2019 9.90021E-03 1.12502E-03-9.10810E-14
 -1      2020 9.75730E-03 1.11279E-03-8.84312E-14
 -1      2021 9.73388E-03 1.08541E-03-8.82599E-14
 -1      2022 1.01859E-02 1.14911E-03-9.64565E-14
 -1      2023 1.00431E-02 1.13712E-03-9.37558E-14
 -1      2024 1.00197E-02 1.10979E-03-9.35764E-14
 -1      2025 1.04715E-02 1.17280E-03-1.01930E-13
 -1      2026 1.03287E-02 1.16100E-03-9.91807E-14
 -1      2027 1.03054E-02 1.13370E-03-9.89942E-14
 -1      2028 1.07570E-02 1.19615E-03-1.07499E-13
 -1      2029 1.06142E-02 1.18451E-03-1.04702E-13
 -1      2030 1.05910E-02 1.15723E-03-1.04507E-13
 -1      2031 1.10425E-02 1.21925E-03-1.13166E-13
 -1      2032 1.08997E-02 1.20773E-03-1.10321E-13
 -1      2033 1.08766E-02 1.18046E-03-1.10121E-13
 -1      2034 1.13280E-02 1.24215E-03-1.18923E-13
 -1      2035 1.11852E-02 1.23072E-03-1.16033E-13
 -1      2036 1.11621E-02 1.20347E-03-1.15828E-13
 -1      2037 1.16135E-02 1.26491E-03-1.24769E-13
 -1      2038 1.14707E-02 1.25355E-03-1.21835E-13
 -1      2039 1.14476E-02 1.22630E-03-1.21623E-13
 -1      2040 1.18990E-02 1.28755E-03-1.30693E-13
 -1      2041 1.17562E-02 1.27624E-03-1.27722E-13
 -1      2042 1.17332E-02 1.24900E-03-1.27504E-13
 -1      2043 1.21845E-02 1.31012E-03-1.36689E-13
 -1      2044 1.20418E-02 1.29884E-03-1.33681E-13
 -1      2045 1.20188E-02 1.27160E-03-1.33458E-13
 -1      2046 1.24701E-02 1.33263E-03-1.42749E-13
 -1      2047 1.23273E-02 1.32138E-03-1.39711E-13
 -1      2048 1.23043E-02 1.29414E-03-1.39482E-13
 -1      2049 1.27557E-02 1.35510E-03-1.48875E-13
 -1      2050 1.26129E-02 1.34387E-03-1.45805E-13
 -1      2051 1.25899E-02 1.31663E-03-1.45569E-13
 -1      2052 1.30414E-02 1.37755E-03-1.55056E-13
 -1      2053 1.28985E-02 1.36633E-03-1.51958E-13
 -1      2054 1.28756E-02 1.33908E-03-1.51717E-13
 -1      2055 1.33270E-02 1.39998E-03-1.61294E-13
 -1      2056 1.31842E-02 1.38877E-03-1.58168E-13
 -1      2057 1.31612E-02 1.36152E-03-1.57921E-13
 -1      2058 1.36127E-02 1.42241E-03-1.67577E-13
 -1      2059 1.34698E-02 1.41120E-03-1.64431E-13
 -1      2060 1.34469E-02 1.38395E-03-1.64178E-13
 -1      2061 1.38983E-02 1.44484E-03-1.73890E-13
 -1      2062 1.37555E-02 1.43362E-03-1.70730E-13
 -1      2063 1.37326E-02 1.40638E-03-1.70475E-13
 -1      2064 1.41840E-02 1.46726E-03-1.80228E-13
 -1      2065 1.40412E-02 1.45605E-03-1.77056E-13
 -1      2066 1.40182E-02 1.42880E-03-1.76796E-13
 -1      2067 1.44697E-02 1.48970E-03-1.86592E-13
 -1      2068 1.43269E-02 1.47848E-03-1.83409E-13
 -1      2069 1.43039E-02 1.45123E-03-1.83146E-13
 -1      2070 1.47554E-02 1.51214E-03-1.92962E-13
 -1      2071 1.46126E-02 1.50091E-03-1.89776E-13
 -1      2072 1.45896E-02 1.47366E-03-1.89512E-13
 -1      2073 1.49896E-02 1.52760E-03-1.98215E-13
 -1      2074 1.48467E-02 1.51638E-03-1.95026E-13
 -1      2075 1.48238E-02 1.48913E-03-1.94760E-13
 -1      2076 1.50064E-02 1.49761E-03-1.98889E-13
 -1      2077 1.49132E-02 1.26032E-03-1.98997E-13
 -1      2078 1.49242E-02 1.30247E-03-1.98852E-13
 -1      2079 1.49353E-02 1.34462E-03-1.98707E-13
 -1      2080 1.49463E-02 1.38677E-03-1.98564E-13
 -1      2081 1.48060E-02 1.31383E-03-1.96026E-13
 -1      2082 1.49708E-02 1.42112E-03-1.98801E-13
 -1      2083 1.49819E-02 1.46327E-03-1.98652E-13
 -1      2084 1.48906E-02 1.45902E-03-1.96587E-13
 -1      2085 1.48416E-02 1.39033E-03-1.96116E-13
 -1      2086 1.48914E-02 1.17745E-03-1.99274E-13
 -1      2087 1.49023E-02 1.21889E-03-1.99135E-13
 -1      2088 1.47841E-02 1.23024E-03-1.96310E-13
 -1      2089 1.48693E-02 1.09314E-03-1.99548E-13
 -1      2090 1.48804E-02 1.13529E-03-1.99414E-13
 -1      2091 1.47622E-02 1.14665E-03-1.96584E-13
 -1      2092 1.48473E-02 1.00882E-03-1.99810E-13
 -1      2093 1.48583E-02 1.05098E-03-1.99682E-13
 -1      2094 1.47401E-02 1.06234E-03-1.96851E-13
 -1      2095 1.48252E-02 9.24508E-04-2.00060E-13
 -1      2096 1.48362E-02 9.66666E-04-1.99935E-13
 -1      2097 1.47180E-02 9.78027E-04-1.97105E-13
 -1      2098 1.48031E-02 8.40191E-04-2.00303E-13
 -1      2099 1.48141E-02 8.82349E-04-2.00184E-13
 -1      2100 1.46959E-02 8.93712E-04-1.97349E-13
 -1      2101 1.47811E-02 7.55875E-04-2.00534E-13
 -1      2102 1.47921E-02 7.98033E-04-2.00419E-13
 -1      2103 1.46739E-02 8.09396E-04-1.97583E-13
 -1      2104 1.47594E-02 6.72992E-04-2.00755E-13
 -1      2105 1.47702E-02 7.14433E-04-2.00646E-13
 -1      2106 1.46520E-02 7.25796E-04-1.97805E-13
 -1      2107 1.47374E-02 5.88685E-04-2.00964E-13
 -1      2108 1.47484E-02 6.30838E-04-2.00862E-13
 -1      2109 1.46302E-02 6.42200E-04-1.98013E-13
 -1      2110 1.47153E-02 5.04383E-04-2.01147E-13
 -1      2111 1.47263E-02 5.46533E-04-2.01057E-13
 -1      2112 1.46081E-02 5.57894E-04-1.98202E-13
 -1      2113 1.46933E-02 4.20086E-04-2.01316E-13
 -1      2114 1.47043E-02 4.62234E-04-2.01234E-13
 -1      2115 1.45861E-02 4.73594E-04-1.98375E-13
 -1      2116 4.73887E-03 2.96299E-04-1.32128E-14
 -1      2117 4.86658E-03 2.51554E-04-1.35312E-14
 -1      2118 5.09865E-03 1.65083E-04-1.42047E-14
 -1      2119 5.09226E-03 1.51843E-04-1.41258E-14
 -1      2120 4.97143E-03 2.15215E-04-1.37865E-14
 -1      2121 5.04887E-03 1.90910E-04-1.40458E-14
 -1      2122 4.91680E-03 2.22162E-04-1.42503E-14
 -1      2123 4.40537E-03 4.35036E-04-1.23689E-14
 -1      2124 4.58312E-03 3.59985E-04-1.27847E-14
 -1      2125 4.66314E-03 3.08472E-04-1.35466E-14
 -1      2126 3.96881E-03 6.53892E-04-1.11121E-14
 -1      2127 4.14828E-03 5.54338E-04-1.17108E-14
 -1      2128 3.42321E-04-4.03935E-05-2.81296E-16
 -1      2129 3.56176E-04-6.16676E-05-2.73598E-16
 -1      2130 4.93196E-04-1.09113E-04-4.00748E-16
 -1      2131 4.55208E-04-5.29360E-05-4.20305E-16
 -1      2132 3.28829E-03 9.85063E-04-8.73314E-15
 -1      2133 3.44903E-03 9.20446E-04-9.30080E-15
 -1      2134 2.93889E-03 1.04942E-03-7.42426E-15
 -1      2135 3.08711E-03 1.03716E-03-8.00138E-15
 -1      2136 2.64124E-03 9.90461E-04-6.38942E-15
 -1      2137 2.79037E-03 1.03309E-03-6.89742E-15
 -1      2138 2.88179E-03 1.05467E-03-7.17146E-15
 -1      2139 2.26322E-03 8.12516E-04-5.28950E-15
 -1      2140 2.43058E-03 9.04532E-04-5.74372E-15
 -1      2141 1.83900E-03 5.76290E-04-4.44328E-15
 -1      2142 2.03023E-03 6.84328E-04-4.78635E-15
 -1      2143 1.44762E-03 3.78297E-04-3.87904E-15
 -1      2144 1.62830E-03 4.71366E-04-4.14557E-15
 -1      2145 1.09803E-03 2.18274E-04-3.40977E-15
 -1      2146 1.25523E-03 2.82912E-04-3.59608E-15
 -1      2147 8.31727E-04 1.24381E-04-3.10354E-15
 -1      2148 9.47679E-04 1.62532E-04-3.24385E-15
 -1      2149 6.74185E-04 8.03734E-05-2.93951E-15
 -1      2150 7.22684E-04 8.89502E-05-2.95488E-15
 -1      2151 6.87965E-04 6.22954E-05-3.02287E-15
 -1      2152 6.63623E-04 7.01912E-05-2.98683E-15
 -1      2153 8.38899E-04 2.88463E-05-3.15154E-15
 -1      2154 7.46224E-04 4.66103E-05-3.08191E-15
 -1      2155 7.08727E-04 6.32683E-05-2.84417E-15
 -1      2156 1.15822E-03-8.28577E-05-3.62218E-15
 -1      2157 1.00966E-03-2.39446E-05-3.37597E-15
 -1      2158 1.46581E-03-2.20313E-04-4.11822E-15
 -1      2159 1.30401E-03-1.46746E-04-3.86186E-15
 -1      2160 1.24165E-03-9.33535E-05-3.55464E-15
 -1      2161 1.84446E-03-4.07780E-04-4.80255E-15
 -1      2162 1.67574E-03-3.18939E-04-4.46922E-15
 -1      2163 2.20628E-03-5.91671E-04-5.62858E-15
 -1      2164 2.02830E-03-5.01932E-04-5.20528E-15
 -1      2165 1.95138E-03-4.45450E-04-4.84602E-15
 -1      2166 2.58519E-03-7.43754E-04-6.79491E-15
 -1      2167 2.43161E-03-6.89291E-04-6.26151E-15
 -1      2168 2.89238E-03-7.73279E-04-7.93121E-15
 -1      2169 2.75415E-03-7.71554E-04-7.40605E-15
 -1      2170 3.17901E-03-7.10559E-04-9.03699E-15
 -1      2171 3.03710E-03-7.53233E-04-8.47450E-15
 -1      2172 2.95220E-03-7.74884E-04-8.24297E-15
 -1      2173 3.54370E-03-5.48169E-04-1.03410E-14
 -1      2174 3.38454E-03-6.27110E-04-9.82046E-15
 -1      2175 3.86827E-03-3.79451E-04-1.13011E-14
 -1      2176 3.70384E-03-4.68543E-04-1.08165E-14
 -1      2177 3.59637E-03-5.05318E-04-1.08554E-14
 -1      2178 4.25025E-03-1.84058E-04-1.23354E-14
 -1      2179 4.08236E-03-2.68264E-04-1.19081E-14
 -1      2180 4.59369E-03-3.36808E-05-1.31057E-14
 -1      2181 4.43910E-03-9.90332E-05-1.27630E-14
 -1      2182 4.87159E-03 7.31007E-05-1.37492E-14
 -1      2183 4.75143E-03 3.25378E-05-1.35165E-14
 -1      2184 5.05653E-03 1.32432E-04-1.40099E-14
 -1      2185 4.99026E-03 1.11309E-04-1.39007E-14
 -1      2186 5.08232E-03 1.51349E-04-1.47257E-14
 -1      2187 3.62824E-03 8.38274E-04-9.91923E-15
 -1      2188 3.79139E-03 7.52432E-04-1.04539E-14
 -1      2189 3.85925E-03 6.98676E-04-1.10866E-14
 -1      2190 3.52558E-03 8.80734E-04-9.79227E-15
 -1      2191 7.26221E-04-3.16716E-04-4.38628E-16
 -1      2192 2.56276E-03 9.61645E-04-5.99913E-15
 -1      2193 7.84799E-04-3.09654E-04-5.86472E-16
 -1      2194 5.08742E-03 1.74452E-04-1.46747E-14
 -1      2195 5.11027E-03 1.69631E-04-1.53132E-14
 -1      2196 5.06186E-03 1.80732E-04-1.51452E-14
 -1      2197 1.46427E-02 3.83044E-04-2.00425E-13
 -1      2198 4.26923E-03 4.82506E-04-1.24294E-14
 -1      2199 4.93878E-03 1.11262E-04-1.44515E-14
 -1      2200 4.66696E-03 2.32890E-05-1.38723E-14
 -1      2201 3.94537E-03-3.14077E-04-1.19537E-14
 -1      2202 3.26612E-03-6.75731E-04-9.56830E-15
 -1      2203 2.33006E-03-6.45283E-04-5.85006E-15
 -1      2204 1.58227E-03-2.50856E-04-4.11840E-15
 -1      2205 9.19225E-04 1.91221E-05-3.10546E-15
 -1      2206 8.42122E-04 4.44104E-05-2.85101E-15
 -1      2207 1.00290E-03 3.38921E-06-3.05757E-15
 -1      2208 6.60630E-04 7.08646E-05-2.74268E-15
 -1      2209 7.69597E-04 8.82116E-05-2.83499E-15
 -1      2210 1.03254E-03 1.65730E-04-3.13617E-15
 -1      2211 1.36647E-03 3.05671E-04-3.56000E-15
 -1      2212 1.75538E-03 5.05385E-04-4.11739E-15
 -1      2213 3.17970E-03 1.02263E-03-8.42409E-15
 -1      2214 2.16447E-03 7.43736E-04-4.87986E-15
 -1      2215 2.67442E-03-7.69495E-04-7.08475E-15
 -1      2216 4.32870E-03-1.20006E-04-1.30145E-14
 -1      2217 1.25098E-03 4.76130E-04-1.05626E-15
 -1      2218 1.06978E-03 4.01845E-04-7.71491E-16
 -1      2219 4.39047E-04 2.65288E-05-6.13509E-16
 -1      2220 4.72412E-04 1.18185E-05-6.13347E-16
 -1      2221 5.06229E-04-8.95232E-06-6.12141E-16
 -1      2222 5.37738E-04-3.42348E-05-6.08834E-16
 -1      2223 5.96117E-04-9.25350E-06-8.29794E-16
 -1      2224 3.44632E-04 2.79032E-05-5.88356E-16
 -1      2225 3.54552E-04 3.41860E-05-5.91690E-16
 -1      2226 3.56234E-04 1.32885E-05-5.79181E-16
 -1      2227 3.45108E-04 1.98409E-05-5.84202E-16
 -1      2228 4.01695E-04 2.93404E-05-7.75381E-16
 -1      2229 4.04718E-04 1.14247E-05-5.65994E-16
 -1      2230 3.76977E-04 9.75638E-06-5.73394E-16
 -1      2231 4.29882E-04 1.78329E-05-7.63082E-16
 -1      2232 4.75298E-04 3.33615E-05-5.45964E-16
 -1      2233 4.38893E-04 1.92380E-05-5.57280E-16
 -1      2234 5.01838E-04 2.62210E-05-7.45579E-16
 -1      2235 5.49581E-04 7.96541E-05-5.15389E-16
 -1      2236 5.12993E-04 5.38976E-05-5.32492E-16
 -1      2237 5.93860E-04 6.37984E-05-7.18840E-16
 -1      2238 6.19118E-04 1.45222E-04-4.69595E-16
 -1      2239 5.85166E-04 1.10530E-04-4.95074E-16
 -1      2240 6.84314E-04 1.27151E-04-6.78358E-16
 -1      2241 1.61283E-03 6.36629E-04-1.77970E-15
 -1      2242 1.43239E-03 5.54354E-04-1.39176E-15
 -1      2243 1.29645E-03 4.64252E-04-1.28299E-15
 -1      2244 1.07866E-03-3.97435E-04-1.12456E-15
 -1      2245 1.25143E-03-4.62575E-04-1.48242E-15
 -1      2246 2.49184E-03 9.26526E-04-5.59852E-15
 -1      2247 2.66335E-03 1.00809E-03-6.22693E-15
 -1      2248 1.42401E-03-5.28545E-04-1.89393E-15
 -1      2249 1.59546E-03-5.94849E-04-2.36157E-15
 -1      2250 1.31003E-03-4.48164E-04-1.72303E-15
 -1      2251 1.76578E-03-6.60980E-04-2.88517E-15
 -1      2252 1.93392E-03-7.24886E-04-3.46592E-15
 -1      2253 1.65718E-03-5.81236E-04-2.66157E-15
 -1      2254 2.09963E-03-7.84970E-04-4.10486E-15
 -1      2255 2.26255E-03-8.37899E-04-4.80218E-15
 -1      2256 2.00059E-03-7.13061E-04-3.82439E-15
 -1      2257 2.42216E-03-8.81493E-04-5.55998E-15
 -1      2258 2.57965E-03-9.12208E-04-6.37840E-15
 -1      2259 2.33394E-03-8.25139E-04-5.22075E-15
 -1      2260 2.73434E-03-9.28572E-04-7.25665E-15
 -1      2261 2.88920E-03-9.29000E-04-8.19638E-15
 -1      2262 2.65498E-03-8.91543E-04-6.85717E-15
 -1      2263 3.04353E-03-9.13678E-04-9.19672E-15
 -1      2264 3.20012E-03-8.84450E-04-1.02566E-14
 -1      2265 2.96988E-03-8.92311E-04-8.73832E-15
 -1      2266 3.35824E-03-8.43242E-04-1.13741E-14
 -1      2267 3.51911E-03-7.93632E-04-1.25483E-14
 -1      2268 3.28915E-03-8.28935E-04-1.08605E-14
 -1      2269 3.68209E-03-7.38389E-04-1.37771E-14
 -1      2270 3.84668E-03-6.80933E-04-1.50586E-14
 -1      2271 3.61853E-03-7.23533E-04-1.32131E-14
 -1      2272 4.01258E-03-6.23523E-04-1.63909E-14
 -1      2273 4.17841E-03-5.68408E-04-1.77720E-14
 -1      2274 3.95550E-03-6.04514E-04-1.57788E-14
 -1      2275 4.34433E-03-5.16914E-04-1.92000E-14
 -1      2276 4.50898E-03-4.69801E-04-2.06745E-14
 -1      2277 4.29303E-03-4.93345E-04-1.85427E-14
 -1      2278 4.67282E-03-4.27606E-04-2.21928E-14
 -1      2279 4.83489E-03-3.90208E-04-2.37548E-14
 -1      2280 4.62527E-03-4.00541E-04-2.14912E-14
 -1      2281 4.99573E-03-3.57585E-04-2.53599E-14
 -1      2282 5.15480E-03-3.29260E-04-2.70051E-14
 -1      2283 4.94955E-03-3.28116E-04-2.46139E-14
 -1      2284 5.31254E-03-3.04904E-04-2.86915E-14
 -1      2285 5.46871E-03-2.83981E-04-3.04193E-14
 -1      2286 5.26580E-03-2.73803E-04-2.79043E-14
 -1      2287 5.62363E-03-2.66047E-04-3.21868E-14
 -1      2288 5.77726E-03-2.50630E-04-3.39929E-14
 -1      2289 5.57512E-03-2.33831E-04-3.13549E-14
 -1      2290 5.92978E-03-2.37293E-04-3.58384E-14
 -1      2291 6.08126E-03-2.25663E-04-3.77223E-14
 -1      2292 5.87895E-03-2.04336E-04-3.49655E-14
 -1      2293 6.23178E-03-2.15367E-04-3.96441E-14
 -1      2294 6.38145E-03-2.06129E-04-4.16049E-14
 -1      2295 6.17855E-03-1.81962E-04-3.87289E-14
 -1      2296 6.53033E-03-1.97662E-04-4.36035E-14
 -1      2297 6.67852E-03-1.89769E-04-4.56394E-14
 -1      2298 6.47490E-03-1.64041E-04-4.26456E-14
 -1      2299 6.82605E-03-1.82245E-04-4.77131E-14
 -1      2300 6.97303E-03-1.74955E-04-4.98232E-14
 -1      2301 6.76877E-03-1.48586E-04-4.67146E-14
 -1      2302 7.11947E-03-1.67765E-04-5.19709E-14
 -1      2303 7.26547E-03-1.60582E-04-5.41516E-14
 -1      2304 7.06070E-03-1.34194E-04-5.09306E-14
 -1      2305 7.41102E-03-1.53330E-04-5.63667E-14
 -1      2306 7.55623E-03-1.45948E-04-5.86163E-14
 -1      2307 7.35112E-03-1.19930E-04-5.52895E-14
 -1      2308 7.70109E-03-1.38398E-04-6.08994E-14
 -1      2309 7.84568E-03-1.30645E-04-6.32144E-14
 -1      2310 7.64037E-03-1.05216E-04-5.97832E-14
 -1      2311 7.98999E-03-1.22676E-04-6.55628E-14
 -1      2312 8.13409E-03-1.14472E-04-6.79422E-14
 -1      2313 7.92869E-03-8.97287E-05-6.44110E-14
 -1      2314 8.27798E-03-1.06038E-04-7.03509E-14
 -1      2315 8.42171E-03-9.73657E-05-7.27919E-14
 -1      2316 8.21630E-03-7.33227E-05-6.91646E-14
 -1      2317 8.56528E-03-8.84696E-05-7.52607E-14
 -1      2318 8.70873E-03-7.93492E-05-7.77600E-14
 -1      2319 8.50336E-03-5.59712E-05-7.40384E-14
 -1      2320 8.85206E-03-7.00238E-05-8.02913E-14
 -1      2321 8.99530E-03-6.04970E-05-8.28507E-14
 -1      2322 8.79000E-03-3.77197E-05-7.90330E-14
 -1      2323 9.13845E-03-5.07899E-05-8.54385E-14
 -1      2324 9.28154E-03-4.09084E-05-8.80533E-14
 -1      2325 9.07634E-03-1.86541E-05-8.41461E-14
 -1      2326 9.42457E-03-3.08732E-05-9.06936E-14
 -1      2327 9.56756E-03-2.06912E-05-9.33585E-14
 -1      2328 9.36245E-03 1.12045E-06-8.93689E-14
 -1      2329 9.71050E-03-1.03816E-05-9.60475E-14
 -1      2330 9.85342E-03 4.85153E-08-9.87601E-14
 -1      2331 9.64840E-03 2.14948E-05-9.46923E-14
 -1      2332 9.99630E-03 1.05824E-05-1.01496E-13
 -1      2333 1.01392E-02 2.12132E-05-1.04252E-13
 -1      2334 9.93424E-03 4.23642E-05-1.00112E-13
 -1      2335 1.02820E-02 3.19265E-05-1.07031E-13
 -1      2336 1.04249E-02 4.27164E-05-1.09831E-13
 -1      2337 1.02200E-02 6.36334E-05-1.05622E-13
 -1      2338 1.05677E-02 5.35707E-05-1.12654E-13
 -1      2339 1.07105E-02 6.44842E-05-1.15497E-13
 -1      2340 1.05057E-02 8.52193E-05-1.11219E-13
 -1      2341 1.08533E-02 7.54471E-05-1.18359E-13
 -1      2342 1.09961E-02 8.64549E-05-1.21241E-13
 -1      2343 1.07914E-02 1.07051E-04-1.16902E-13
 -1      2344 1.11390E-02 9.74999E-05-1.24143E-13
 -1      2345 1.12818E-02 1.08578E-04-1.27063E-13
 -1      2346 1.10771E-02 1.29071E-04-1.22664E-13
 -1      2347 1.14246E-02 1.19684E-04-1.30000E-13
 -1      2348 1.15674E-02 1.30815E-04-1.32956E-13
 -1      2349 1.13627E-02 1.51231E-04-1.28502E-13
 -1      2350 1.17102E-02 1.41964E-04-1.35928E-13
 -1      2351 1.18530E-02 1.53132E-04-1.38919E-13
 -1      2352 1.16484E-02 1.73494E-04-1.34410E-13
 -1      2353 1.19958E-02 1.64313E-04-1.41930E-13
 -1      2354 1.21387E-02 1.75506E-04-1.44959E-13
 -1      2355 1.19341E-02 1.95830E-04-1.40392E-13
 -1      2356 1.22815E-02 1.86708E-04-1.48006E-13
 -1      2357 1.24243E-02 1.97918E-04-1.51069E-13
 -1      2358 1.22197E-02 2.18217E-04-1.46451E-13
 -1      2359 1.25672E-02 2.09134E-04-1.54152E-13
 -1      2360 1.27100E-02 2.20355E-04-1.57253E-13
 -1      2361 1.25054E-02 2.40638E-04-1.52578E-13
 -1      2362 1.28528E-02 2.31579E-04-1.60368E-13
 -1      2363 1.29957E-02 2.42807E-04-1.63499E-13
 -1      2364 1.27911E-02 2.63080E-04-1.58774E-13
 -1      2365 1.31385E-02 2.54035E-04-1.66646E-13
 -1      2366 1.32813E-02 2.65265E-04-1.69810E-13
 -1      2367 1.30768E-02 2.85535E-04-1.65031E-13
 -1      2368 1.34242E-02 2.76495E-04-1.72989E-13
 -1      2369 1.35670E-02 2.87726E-04-1.76177E-13
 -1      2370 1.33625E-02 3.07995E-04-1.71349E-13
 -1      2371 1.37099E-02 2.98955E-04-1.79376E-13
 -1      2372 1.38527E-02 3.10184E-04-1.82588E-13
 -1      2373 1.36482E-02 3.30456E-04-1.77724E-13
 -1      2374 1.39956E-02 3.21411E-04-1.85811E-13
 -1      2375 1.41384E-02 3.32636E-04-1.89044E-13
 -1      2376 1.39339E-02 3.52913E-04-1.84142E-13
 -1      2377 4.87922E-03 2.29461E-04-1.48484E-14
 -1      2378 4.97612E-03 2.04299E-04-1.51195E-14
 -1      2379 2.32043E-03 9.81554E-04-3.88253E-15
 -1      2380 2.14754E-03 8.98462E-04-3.27079E-15
 -1      2381 2.65514E-03 1.11678E-03-5.28713E-15
 -1      2382 2.48935E-03 1.05619E-03-4.55471E-15
 -1      2383 2.38006E-03 9.79613E-04-4.30125E-15
 -1      2384 2.97784E-03 1.18172E-03-6.93654E-15
 -1      2385 2.81675E-03 1.15981E-03-6.08080E-15
 -1      2386 2.72078E-03 1.10811E-03-5.77292E-15
 -1      2387 3.29899E-03 1.16227E-03-8.83443E-15
 -1      2388 3.13663E-03 1.18203E-03-7.85462E-15
 -1      2389 3.04982E-03 1.15399E-03-7.49363E-15
 -1      2390 3.63117E-03 1.07657E-03-1.09731E-14
 -1      2391 3.46323E-03 1.12521E-03-9.87401E-15
 -1      2392 3.38231E-03 1.10856E-03-9.46380E-15
 -1      2393 3.97470E-03 9.62771E-04-1.33382E-14
 -1      2394 3.80196E-03 1.02073E-03-1.21281E-14
 -1      2395 3.72831E-03 1.00358E-03-1.16731E-14
 -1      2396 4.32308E-03 8.54573E-04-1.59127E-14
 -1      2397 4.14914E-03 9.06493E-04-1.46000E-14
 -1      2398 4.08342E-03 8.83321E-04-1.41040E-14
 -1      2399 4.66893E-03 7.70902E-04-1.86807E-14
 -1      2400 4.49696E-03 8.09163E-04-1.72734E-14
 -1      2401 4.43740E-03 7.79483E-04-1.67379E-14
 -1      2402 5.00812E-03 7.16946E-04-2.16337E-14
 -1      2403 4.83974E-03 7.40293E-04-2.01346E-14
 -1      2404 4.78280E-03 7.05456E-04-1.95616E-14
 -1      2405 5.33921E-03 6.90083E-04-2.47607E-14
 -1      2406 5.17482E-03 7.00482E-04-2.31761E-14
 -1      2407 5.11720E-03 6.61866E-04-2.25643E-14
 -1      2408 5.66252E-03 6.84504E-04-2.80565E-14
 -1      2409 5.50186E-03 6.85007E-04-2.63880E-14
 -1      2410 5.44133E-03 6.43715E-04-2.57389E-14
 -1      2411 5.97889E-03 6.94207E-04-3.15153E-14
 -1      2412 5.82153E-03 6.87771E-04-2.97658E-14
 -1      2413 5.75710E-03 6.44598E-04-2.90781E-14
 -1      2414 6.28929E-03 7.14072E-04-3.51342E-14
 -1      2415 6.13477E-03 7.03124E-04-3.33058E-14
 -1      2416 6.06636E-03 6.58713E-04-3.25791E-14
 -1      2417 6.59463E-03 7.40176E-04-3.89135E-14
 -1      2418 6.44252E-03 7.26531E-04-3.70030E-14
 -1      2419 6.37056E-03 6.81399E-04-3.62397E-14
 -1      2420 6.89572E-03 7.69719E-04-4.28515E-14
 -1      2421 6.74563E-03 7.54648E-04-4.08633E-14
 -1      2422 6.67076E-03 7.09190E-04-4.00587E-14
 -1      2423 7.19331E-03 8.00802E-04-4.69459E-14
 -1      2424 7.04489E-03 7.85155E-04-4.48792E-14
 -1      2425 6.96776E-03 7.39652E-04-4.40370E-14
 -1      2426 7.48804E-03 8.32209E-04-5.11864E-14
 -1      2427 7.34097E-03 8.16521E-04-4.90483E-14
 -1      2428 7.26219E-03 7.71159E-04-4.81687E-14
 -1      2429 7.78048E-03 8.63204E-04-5.55695E-14
 -1      2430 7.63450E-03 8.47792E-04-5.33599E-14
 -1      2431 7.55455E-03 8.02679E-04-5.24450E-14
 -1      2432 8.07112E-03 8.93388E-04-6.00879E-14
 -1      2433 7.92599E-03 8.78417E-04-5.78123E-14
 -1      2434 7.84526E-03 8.33606E-04-5.68605E-14
 -1      2435 8.36036E-03 9.22578E-04-6.47320E-14
 -1      2436 8.21589E-03 9.08116E-04-6.23939E-14
 -1      2437 8.13465E-03 8.63620E-04-6.14096E-14
 -1      2438 8.64853E-03 9.50734E-04-6.95027E-14
 -1      2439 8.50456E-03 9.36788E-04-6.71019E-14
 -1      2440 8.42303E-03 8.92595E-04-6.60858E-14
 -1      2441 8.93590E-03 9.77900E-04-7.43916E-14
 -1      2442 8.79230E-03 9.64439E-04-7.19325E-14
 -1      2443 8.71062E-03 9.20523E-04-7.08837E-14
 -1      2444 9.22268E-03 1.00417E-03-7.93966E-14
 -1      2445 9.07935E-03 9.91142E-04-7.68805E-14
 -1      2446 8.99761E-03 9.47469E-04-7.58012E-14
 -1      2447 9.50904E-03 1.02965E-03-8.45177E-14
 -1      2448 9.36590E-03 1.01700E-03-8.19426E-14
 -1      2449 9.28417E-03 9.73535E-04-8.08348E-14
 -1      2450 9.79510E-03 1.05446E-03-8.97517E-14
 -1      2451 9.65210E-03 1.04213E-03-8.71201E-14
 -1      2452 9.57041E-03 9.98839E-04-8.59833E-14
 -1      2453 1.00810E-02 1.07872E-03-9.50929E-14
 -1      2454 9.93805E-03 1.06665E-03-9.24087E-14
 -1      2455 9.85642E-03 1.02350E-03-9.12428E-14
 -1      2456 1.03667E-02 1.10253E-03-1.00533E-13
 -1      2457 1.02238E-02 1.09067E-03-9.78010E-14
 -1      2458 1.01423E-02 1.04763E-03-9.66080E-14
 -1      2459 1.06523E-02 1.12598E-03-1.06071E-13
 -1      2460 1.05095E-02 1.11429E-03-1.03290E-13
 -1      2461 1.04280E-02 1.07134E-03-1.02074E-13
 -1      2462 1.09380E-02 1.14914E-03-1.11706E-13
 -1      2463 1.07952E-02 1.13759E-03-1.08877E-13
 -1      2464 1.07137E-02 1.09471E-03-1.07634E-13
 -1      2465 1.12235E-02 1.17210E-03-1.17434E-13
 -1      2466 1.10807E-02 1.16064E-03-1.14560E-13
 -1      2467 1.09994E-02 1.11781E-03-1.13292E-13
 -1      2468 1.15091E-02 1.19489E-03-1.23250E-13
 -1      2469 1.13663E-02 1.18351E-03-1.20331E-13
 -1      2470 1.12850E-02 1.14071E-03-1.19041E-13
 -1      2471 1.17947E-02 1.21756E-03-1.29147E-13
 -1      2472 1.16519E-02 1.20623E-03-1.26187E-13
 -1      2473 1.15706E-02 1.16347E-03-1.24874E-13
 -1      2474 1.20803E-02 1.24014E-03-1.35118E-13
 -1      2475 1.19375E-02 1.22886E-03-1.32124E-13
 -1      2476 1.18563E-02 1.18611E-03-1.30789E-13
 -1      2477 1.23659E-02 1.26266E-03-1.41154E-13
 -1      2478 1.22231E-02 1.25140E-03-1.38127E-13
 -1      2479 1.21419E-02 1.20867E-03-1.36775E-13
 -1      2480 1.26516E-02 1.28514E-03-1.47254E-13
 -1      2481 1.25088E-02 1.27390E-03-1.44196E-13
 -1      2482 1.24275E-02 1.23117E-03-1.42825E-13
 -1      2483 1.29372E-02 1.30759E-03-1.53414E-13
 -1      2484 1.27944E-02 1.29636E-03-1.50329E-13
 -1      2485 1.27132E-02 1.25364E-03-1.48938E-13
 -1      2486 1.32229E-02 1.33002E-03-1.59627E-13
 -1      2487 1.30801E-02 1.31881E-03-1.56513E-13
 -1      2488 1.29989E-02 1.27609E-03-1.55109E-13
 -1      2489 1.35086E-02 1.35245E-03-1.65893E-13
 -1      2490 1.33657E-02 1.34124E-03-1.62756E-13
 -1      2491 1.32846E-02 1.29852E-03-1.61333E-13
 -1      2492 1.37942E-02 1.37487E-03-1.72193E-13
 -1      2493 1.36514E-02 1.36366E-03-1.69038E-13
 -1      2494 1.35702E-02 1.32094E-03-1.67604E-13
 -1      2495 1.40799E-02 1.39729E-03-1.78520E-13
 -1      2496 1.39371E-02 1.38608E-03-1.75352E-13
 -1      2497 1.38559E-02 1.34336E-03-1.73910E-13
 -1      2498 1.43656E-02 1.41972E-03-1.84874E-13
 -1      2499 1.42228E-02 1.40851E-03-1.81694E-13
 -1      2500 1.41416E-02 1.36579E-03-1.80243E-13
 -1      2501 1.46513E-02 1.44216E-03-1.91237E-13
 -1      2502 1.45085E-02 1.43094E-03-1.88054E-13
 -1      2503 1.44273E-02 1.38822E-03-1.86596E-13
 -1      2504 1.47993E-02 1.45478E-03-1.94525E-13
 -1      2505 1.46330E-02 1.11586E-03-1.93893E-13
 -1      2506 1.46440E-02 1.15801E-03-1.93758E-13
 -1      2507 1.46109E-02 1.03155E-03-1.94153E-13
 -1      2508 1.46219E-02 1.07370E-03-1.94024E-13
 -1      2509 1.45037E-02 1.08506E-03-1.91199E-13
 -1      2510 1.46768E-02 1.28304E-03-1.93345E-13
 -1      2511 1.46878E-02 1.32519E-03-1.93198E-13
 -1      2512 1.46550E-02 1.19981E-03-1.93621E-13
 -1      2513 1.46658E-02 1.24124E-03-1.93484E-13
 -1      2514 1.45476E-02 1.25260E-03-1.90658E-13
 -1      2515 1.45257E-02 1.16902E-03-1.90933E-13
 -1      2516 1.45888E-02 9.47231E-04-1.94398E-13
 -1      2517 1.45998E-02 9.89389E-04-1.94277E-13
 -1      2518 1.44816E-02 1.00075E-03-1.91452E-13
 -1      2519 1.45667E-02 8.62915E-04-1.94635E-13
 -1      2520 1.45777E-02 9.05073E-04-1.94516E-13
 -1      2521 1.44595E-02 9.16436E-04-1.91693E-13
 -1      2522 1.45447E-02 7.78600E-04-1.94859E-13
 -1      2523 1.45557E-02 8.20758E-04-1.94750E-13
 -1      2524 1.44375E-02 8.32119E-04-1.91919E-13
 -1      2525 1.45230E-02 6.95716E-04-1.95068E-13
 -1      2526 1.45338E-02 7.37158E-04-1.94964E-13
 -1      2527 1.44156E-02 7.48518E-04-1.92129E-13
 -1      2528 1.45009E-02 6.11406E-04-1.95262E-13
 -1      2529 1.45120E-02 6.53561E-04-1.95167E-13
 -1      2530 1.43938E-02 6.64920E-04-1.92327E-13
 -1      2531 1.44789E-02 5.27102E-04-1.95440E-13
 -1      2532 1.44899E-02 5.69253E-04-1.95355E-13
 -1      2533 1.43717E-02 5.80612E-04-1.92510E-13
 -1      2534 1.44569E-02 4.42803E-04-1.95602E-13
 -1      2535 1.44679E-02 4.84952E-04-1.95520E-13
 -1      2536 1.43497E-02 4.96308E-04-1.92678E-13
 -1      2537 4.59189E-03 3.30122E-04-1.38901E-14
 -1      2538 4.73456E-03 2.77176E-04-1.43386E-14
 -1      2539 4.17301E-03 5.26214E-04-1.26394E-14
 -1      2540 4.39748E-03 4.14558E-04-1.33299E-14
 -1      2541 1.97124E-03 8.10655E-04-2.71762E-15
 -1      2542 1.79310E-03 7.22645E-04-2.22089E-15
 -1      2543 2.02409E-03 8.06380E-04-3.07080E-15
 -1      2544 1.45152E-02 3.74668E-04-1.97504E-13
 -1      2545 4.99994E-03 1.35353E-04-1.51599E-14
 -1      2546 4.89193E-03 1.09840E-04-1.49982E-14
 -1      2547 5.09876E-03 1.57620E-04-1.53924E-14
 -1      2548 5.05995E-03 1.50312E-04-1.52751E-14
 -1      2549 5.03270E-03 1.45825E-04-1.58271E-14
 -1      2550 2.40926E-03-6.87879E-04-5.99117E-15
 -1      2551 2.22459E-03-5.91200E-04-5.38363E-15
 -1      2552 6.52257E-04 6.82762E-05-2.53687E-15
 -1      2553 6.56877E-04 6.30679E-05-2.49029E-15
 -1      2554 3.80203E-04 3.76329E-05-6.10325E-16
 -1      2555 4.06977E-04 3.51538E-05-6.12195E-16
 -1      2556 5.09847E-04 3.03690E-05-8.28073E-16
 -1      2557 6.84538E-04-2.35818E-04-5.34864E-16
 -1      2558 9.16119E-04-3.30003E-04-8.54202E-16
 -1      2559 9.75483E-04-3.18138E-04-1.03659E-15
 -1      2560 6.61224E-04-1.95456E-04-5.62050E-16
 -1      2561 2.06613E-03 6.72511E-04-4.44714E-15
 -1      2562 2.26254E-03 7.97568E-04-4.91786E-15
 -1      2563 2.78847E-03 1.04613E-03-6.72040E-15
 -1      2564 2.90620E-03 1.06497E-03-7.23464E-15
 -1      2565 2.70310E-03 1.02570E-03-6.28330E-15
 -1      2566 2.75896E-03-7.92466E-04-7.44633E-15
 -1      2567 2.62604E-03-7.67119E-04-6.83646E-15
 -1      2568 3.12023E-03 1.04806E-03-8.21362E-15
 -1      2569 3.28158E-03 9.95394E-04-8.95684E-15
 -1      2570 1.64928E-03 4.24543E-04-3.70189E-15
 -1      2571 1.82673E-03 5.27021E-04-3.96825E-15
 -1      2572 1.29272E-03 2.45001E-04-3.17905E-15
 -1      2573 1.46927E-03 3.29763E-04-3.43455E-15
 -1      2574 1.53965E-03 3.61301E-04-3.29874E-15
 -1      2575 9.64694E-04 1.24406E-04-2.83254E-15
 -1      2576 1.10366E-03 1.69367E-04-2.97981E-15
 -1      2577 7.24061E-04 6.80619E-05-2.51229E-15
 -1      2578 8.30027E-04 8.54255E-05-2.64766E-15
 -1      2579 7.25409E-04 6.59992E-05-2.62963E-15
 -1      2580 6.75121E-04 6.75571E-05-2.58024E-15
 -1      2581 6.49211E-04 6.59531E-05-2.32808E-15
 -1      2582 1.32421E-03-1.14369E-04-3.48620E-15
 -1      2583 1.18811E-03-5.89704E-05-3.26496E-15
 -1      2584 1.68894E-03-2.92501E-04-4.11697E-15
 -1      2585 1.50324E-03-1.97341E-04-3.79114E-15
 -1      2586 1.42429E-03-1.58520E-04-3.48082E-15
 -1      2587 2.03294E-03-4.85508E-04-4.85244E-15
 -1      2588 1.87693E-03-3.94137E-04-4.47388E-15
 -1      2589 4.41355E-03-6.46515E-05-1.37977E-14
 -1      2590 4.24373E-03-1.43467E-04-1.33493E-14
 -1      2591 2.98336E-03-7.76693E-04-8.51047E-15
 -1      2592 2.87205E-03-7.93439E-04-7.96815E-15
 -1      2593 2.80588E-03-8.00709E-04-7.69312E-15
 -1      2594 3.31527E-03-6.50586E-04-1.00615E-14
 -1      2595 3.14628E-03-7.28963E-04-9.26833E-15
 -1      2596 3.05576E-03-7.63434E-04-8.96562E-15
 -1      2597 3.66921E-03-4.55544E-04-1.15026E-14
 -1      2598 3.53706E-03-5.33726E-04-1.10087E-14
 -1      2599 4.03808E-03-2.47764E-04-1.27507E-14
 -1      2600 3.84969E-03-3.53617E-04-1.21190E-14
 -1      2601 3.78402E-03-3.92882E-04-1.22736E-14
 -1      2602 4.73014E-03 5.91563E-05-1.46551E-14
 -1      2603 4.58067E-03 4.96546E-06-1.42279E-14
 -1      2604 9.29706E-04 3.50886E-04-5.70805E-16
 -1      2605 7.47834E-04 2.80262E-04-3.76001E-16
 -1      2606 7.03370E-04 2.43314E-04-3.86870E-16
 -1      2607 9.78599E-04 3.39711E-04-7.40266E-16
 -1      2608 4.33511E-04 4.06692E-05-8.02947E-16
 -1      2609 6.75323E-04-7.22571E-05-8.23438E-16
 -1      2610 5.66889E-04-6.36583E-05-6.03426E-16
 -1      2611 5.92711E-04-9.58493E-05-5.94861E-16
 -1      2612 1.65990E-03 6.27534E-04-2.06963E-15
 -1      2613 6.67754E-04 1.99836E-04-4.28097E-16
 -1      2614 3.40745E-03-6.08826E-04-1.06751E-14
 -1      2615 4.50337E-03-2.45794E-05-1.45688E-14
 -1      2616 1.93443E-03 5.93326E-04-4.00061E-15
 -1      2617 2.50911E-03-7.34692E-04-6.31569E-15
 -1      2618 5.04213E-03 1.92408E-04-1.57544E-14
 -1      2619 5.13193E-03 1.72027E-04-1.63359E-14
 -1      2620 5.12304E-03 1.66515E-04-1.58629E-14
 -1      2621 5.12344E-03 1.65597E-04-1.64176E-14
 -1      2622 4.82444E-03 9.08247E-05-1.53588E-14
 -1      2623 4.82409E-03 2.53675E-04-1.51992E-14
 -1      2624 1.43624E-02 3.47768E-04-1.94142E-13
 -1      2625 1.44223E-02 4.04546E-04-1.95096E-13
 -1      2626 1.43040E-02 4.15901E-04-1.92248E-13
 -1      2627 1.42348E-02 3.39388E-04-1.91233E-13
 -1      2628 1.47181E-02 1.41205E-03-1.93065E-13
 -1      2629 4.01719E-03 6.10836E-04-1.21660E-14
 -1      2630 4.16783E-03 5.43392E-04-1.30468E-14
 -1      2631 1.46936E-02 1.37771E-03-1.92831E-13
 -1      2632 1.77514E-03-3.40720E-04-4.12105E-15
 -1      2633 4.49864E-03 3.78283E-04-1.41053E-14
 -1      2634 7.72978E-04 5.99850E-05-2.57511E-15
 -1      2635 7.15706E-04 6.40382E-05-2.31461E-15
 -1      2636 8.28032E-04 5.02069E-05-2.52150E-15
 -1      2637 6.72836E-04 5.78727E-05-2.30453E-15
 -1      2638 6.99782E-04 5.41554E-05-2.12530E-15
 -1      2639 6.36687E-04 5.54151E-05-2.10674E-15
 -1      2640 7.83129E-04 2.25815E-04-6.06394E-16
 -1      2641 3.70278E-03 7.86117E-04-1.08039E-14
 -1      2642 3.86075E-03 6.96531E-04-1.14729E-14
 -1      2643 3.87803E-03 7.03849E-04-1.18604E-14
 -1      2644 2.12690E-03-5.44417E-04-4.97772E-15
 -1      2645 4.14818E-03-1.91314E-04-1.35156E-14
 -1      2646 1.19195E-03 1.97003E-04-2.86198E-15
 -1      2647 3.01568E-03 1.07086E-03-7.72142E-15
 -1      2648 3.11796E-03 1.06134E-03-8.22080E-15
 -1      2649 2.92598E-03 1.07650E-03-7.24293E-15
 -1      2650 1.14056E-03-3.99014E-05-2.92099E-15
 -1      2651 1.07631E-03-1.53273E-05-2.99087E-15
 -1      2652 9.74918E-04 1.44454E-05-2.73209E-15
 -1      2653 2.37596E-03 8.66972E-04-5.11773E-15
 -1      2654 6.38936E-04-1.57510E-04-5.82189E-16
 -1      2655 3.34791E-03 9.79107E-04-9.34872E-15
 -1      2656 3.42039E-03 9.37102E-04-9.58066E-15
 -1      2657 8.80814E-04 9.16463E-05-2.49898E-15
 -1      2658 3.56703E-03 8.59125E-04-1.02100E-14
 -1      2659 1.41731E-02 3.70892E-04-1.89552E-13
 -1      2660 1.45644E-02 1.34692E-03-1.90150E-13
 -1      2661 5.15127E-04 2.54557E-05-9.88101E-16
 -1      2662 4.81092E-04 2.56496E-05-9.96538E-16
 -1      2663 4.62261E-04 3.21625E-05-1.00382E-15
 -1      2664 4.61872E-04 3.90374E-05-1.01050E-15
 -1      2665 5.25848E-04 3.52485E-05-1.26131E-15
 -1      2666 7.35287E-04 1.05825E-04-9.36141E-16
 -1      2667 6.77871E-04 7.35251E-05-9.55426E-16
 -1      2668 8.41646E-04 1.88357E-04-8.84004E-16
 -1      2669 7.90481E-04 1.45108E-04-9.13129E-16
 -1      2670 8.91051E-04 1.61011E-04-1.18377E-15
 -1      2671 1.34120E-03 4.50338E-04-1.51876E-15
 -1      2672 1.16205E-03 3.76245E-04-1.17130E-15
 -1      2673 1.70833E-03 6.16250E-04-2.36626E-15
 -1      2674 1.52392E-03 5.30149E-04-1.91641E-15
 -1      2675 1.38426E-03 4.34448E-04-1.76328E-15
 -1      2676 1.44157E-02 1.28318E-03-1.87337E-13
 -1      2677 1.44215E-02 1.33570E-03-1.86969E-13
 -1      2678 1.42787E-02 1.32448E-03-1.83792E-13
 -1      2679 1.54569E-03-4.98347E-04-2.44080E-15
 -1      2680 1.72159E-03-5.66566E-04-2.96623E-15
 -1      2681 1.89751E-03-6.35567E-04-3.54788E-15
 -1      2682 2.07128E-03-7.01879E-04-4.18631E-15
 -1      2683 1.78744E-03-5.52504E-04-3.27501E-15
 -1      2684 2.24215E-03-7.63303E-04-4.88424E-15
 -1      2685 2.40976E-03-8.14239E-04-5.64132E-15
 -1      2686 2.14369E-03-6.93496E-04-4.55093E-15
 -1      2687 2.57268E-03-8.52470E-04-6.45968E-15
 -1      2688 2.73430E-03-8.72032E-04-7.33921E-15
 -1      2689 2.48649E-03-8.06720E-04-6.06373E-15
 -1      2690 2.89340E-03-8.72092E-04-8.28051E-15
 -1      2691 3.05460E-03-8.53213E-04-9.28363E-15
 -1      2692 2.81593E-03-8.51001E-04-7.82364E-15
 -1      2693 3.21672E-03-8.16710E-04-1.03474E-14
 -1      2694 3.38300E-03-7.67787E-04-1.14695E-14
 -1      2695 3.14413E-03-8.07411E-04-9.83228E-15
 -1      2696 3.55201E-03-7.09450E-04-1.26477E-14
 -1      2697 3.72357E-03-6.47450E-04-1.38813E-14
 -1      2698 3.48487E-03-6.98214E-04-1.20825E-14
 -1      2699 3.89724E-03-5.84395E-04-1.51666E-14
 -1      2700 4.06984E-03-5.24179E-04-1.65027E-14
 -1      2701 3.83820E-03-5.64723E-04-1.45551E-14
 -1      2702 4.24221E-03-4.67854E-04-1.78862E-14
 -1      2703 4.41176E-03-4.16970E-04-1.93163E-14
 -1      2704 4.19193E-03-4.40965E-04-1.72307E-14
 -1      2705 4.57944E-03-3.71691E-04-2.07909E-14
 -1      2706 4.74383E-03-3.31907E-04-2.23096E-14
 -1      2707 4.53532E-03-3.40928E-04-2.00930E-14
 -1      2708 4.90585E-03-2.97465E-04-2.38714E-14
 -1      2709 5.06495E-03-2.67650E-04-2.54745E-14
 -1      2710 4.86458E-03-2.65309E-04-2.31310E-14
 -1      2711 5.22188E-03-2.42188E-04-2.71187E-14
 -1      2712 5.37655E-03-2.20287E-04-2.88024E-14
 -1      2713 5.18073E-03-2.09761E-04-2.63358E-14
 -1      2714 5.52950E-03-2.01630E-04-3.05271E-14
 -1      2715 5.68083E-03-1.85549E-04-3.22915E-14
 -1      2716 5.48669E-03-1.69241E-04-2.97020E-14
 -1      2717 5.83087E-03-1.71731E-04-3.40937E-14
 -1      2718 5.97980E-03-1.59665E-04-3.59359E-14
 -1      2719 5.78546E-03-1.39370E-04-3.32268E-14
 -1      2720 6.12781E-03-1.49076E-04-3.78168E-14
 -1      2721 6.27507E-03-1.39590E-04-3.97350E-14
 -1      2722 6.07950E-03-1.16674E-04-3.69071E-14
 -1      2723 6.42165E-03-1.30985E-04-4.16921E-14
 -1      2724 6.56773E-03-1.22998E-04-4.36867E-14
 -1      2725 6.37053E-03-9.85092E-05-4.07418E-14
 -1      2726 6.71332E-03-1.15464E-04-4.57195E-14
 -1      2727 6.85856E-03-1.08200E-04-4.77889E-14
 -1      2728 6.65969E-03-8.29230E-05-4.47272E-14
 -1      2729 7.00344E-03-1.01095E-04-4.98950E-14
 -1      2730 7.14807E-03-9.40243E-05-5.20378E-14
 -1      2731 6.94769E-03-6.85247E-05-4.88633E-14
 -1      2732 7.29243E-03-8.69226E-05-5.42153E-14
 -1      2733 7.43662E-03-7.97068E-05-5.64256E-14
 -1      2734 7.23497E-03-5.43673E-05-5.31434E-14
 -1      2735 7.58059E-03-7.23453E-05-5.86714E-14
 -1      2736 7.72443E-03-6.47854E-05-6.09501E-14
 -1      2737 7.52178E-03-3.98444E-05-5.75621E-14
 -1      2738 7.86811E-03-5.70196E-05-6.32616E-14
 -1      2739 8.01169E-03-4.90164E-05-6.56054E-14
 -1      2740 7.80829E-03-2.46027E-05-6.21161E-14
 -1      2741 8.15515E-03-4.07842E-05-6.79796E-14
 -1      2742 8.29854E-03-3.23059E-05-7.03842E-14
 -1      2743 8.09458E-03-8.46915E-06-6.67977E-14
 -1      2744 8.44183E-03-2.35996E-05-7.28196E-14
 -1      2745 8.58506E-03-1.46578E-05-7.52843E-14
 -1      2746 8.38073E-03 8.60602E-06-7.16037E-14
 -1      2747 8.72823E-03-5.50310E-06-7.77792E-14
 -1      2748 8.87135E-03 3.86541E-06-8.03038E-14
 -1      2749 8.66676E-03 2.65937E-05-7.65297E-14
 -1      2750 9.01442E-03 1.34238E-05-8.28585E-14
 -1      2751 9.15746E-03 2.31691E-05-8.54398E-14
 -1      2752 8.95272E-03 4.54181E-05-8.15728E-14
 -1      2753 9.30045E-03 3.30782E-05-8.80485E-14
 -1      2754 9.44343E-03 4.31460E-05-9.06818E-14
 -1      2755 9.23861E-03 6.49799E-05-8.67308E-14
 -1      2756 9.58638E-03 5.33511E-05-9.33402E-14
 -1      2757 9.72931E-03 6.36876E-05-9.60235E-14
 -1      2758 9.52445E-03 8.51717E-05-9.19928E-14
 -1      2759 9.87222E-03 7.41367E-05-9.87315E-14
 -1      2760 1.00151E-02 8.46923E-05-1.01462E-13
 -1      2761 9.81026E-03 1.05888E-04-9.73534E-14
 -1      2762 1.01580E-02 9.53382E-05-1.04215E-13
 -1      2763 1.03009E-02 1.06069E-04-1.06990E-13
 -1      2764 1.00960E-02 1.27032E-04-1.02810E-13
 -1      2765 1.04437E-02 1.16870E-04-1.09787E-13
 -1      2766 1.05866E-02 1.27738E-04-1.12607E-13
 -1      2767 1.03818E-02 1.48518E-04-1.08359E-13
 -1      2768 1.07295E-02 1.38660E-04-1.15448E-13
 -1      2769 1.08723E-02 1.49633E-04-1.18306E-13
 -1      2770 1.06675E-02 1.70270E-04-1.13994E-13
 -1      2771 1.10152E-02 1.60648E-04-1.21187E-13
 -1      2772 1.11580E-02 1.71700E-04-1.24087E-13
 -1      2773 1.09533E-02 1.92228E-04-1.19712E-13
 -1      2774 1.13009E-02 1.82784E-04-1.27005E-13
 -1      2775 1.14437E-02 1.93895E-04-1.29941E-13
 -1      2776 1.12390E-02 2.14341E-04-1.25510E-13
 -1      2777 1.15866E-02 2.05029E-04-1.32896E-13
 -1      2778 1.17294E-02 2.16183E-04-1.35866E-13
 -1      2779 1.15247E-02 2.36569E-04-1.31381E-13
 -1      2780 1.18722E-02 2.27352E-04-1.38858E-13
 -1      2781 1.20151E-02 2.38536E-04-1.41870E-13
 -1      2782 1.18104E-02 2.58880E-04-1.37325E-13
 -1      2783 1.21579E-02 2.49731E-04-1.44897E-13
 -1      2784 1.23008E-02 2.60935E-04-1.47943E-13
 -1      2785 1.20961E-02 2.81249E-04-1.43346E-13
 -1      2786 1.24436E-02 2.72146E-04-1.51005E-13
 -1      2787 1.25865E-02 2.83363E-04-1.54085E-13
 -1      2788 1.23818E-02 3.03658E-04-1.49435E-13
 -1      2789 1.27293E-02 2.94585E-04-1.57181E-13
 -1      2790 1.28722E-02 3.05810E-04-1.60291E-13
 -1      2791 1.26676E-02 3.26093E-04-1.55591E-13
 -1      2792 1.30150E-02 3.17037E-04-1.63420E-13
 -1      2793 1.31579E-02 3.28267E-04-1.66561E-13
 -1      2794 1.29533E-02 3.48543E-04-1.61811E-13
 -1      2795 1.33007E-02 3.39497E-04-1.69717E-13
 -1      2796 1.34436E-02 3.50727E-04-1.72890E-13
 -1      2797 1.32390E-02 3.71001E-04-1.68091E-13
 -1      2798 1.35864E-02 3.61958E-04-1.76073E-13
 -1      2799 1.37293E-02 3.73188E-04-1.79269E-13
 -1      2800 1.35247E-02 3.93462E-04-1.74425E-13
 -1      2801 1.38721E-02 3.84416E-04-1.82476E-13
 -1      2802 1.40150E-02 3.95644E-04-1.85694E-13
 -1      2803 1.38104E-02 4.15921E-04-1.80814E-13
 -1      2804 1.80851E-03-3.74646E-04-3.99529E-15
 -1      2805 1.64805E-03-2.80788E-04-3.66851E-15
 -1      2806 2.44519E-03 9.79760E-04-4.72498E-15
 -1      2807 2.26494E-03 8.94949E-04-4.04769E-15
 -1      2808 3.47158E-03 1.05314E-03-1.00880E-14
 -1      2809 3.29698E-03 1.09908E-03-9.03612E-15
 -1      2810 3.83025E-03 9.30154E-04-1.23646E-14
 -1      2811 3.64931E-03 9.93838E-04-1.11973E-14
 -1      2812 3.56991E-03 9.87553E-04-1.07222E-14
 -1      2813 4.19474E-03 8.07481E-04-1.48582E-14
 -1      2814 4.01331E-03 8.66437E-04-1.35854E-14
 -1      2815 3.94213E-03 8.50735E-04-1.30670E-14
 -1      2816 4.55126E-03 7.11823E-04-1.75497E-14
 -1      2817 4.37498E-03 7.55824E-04-1.61802E-14
 -1      2818 4.31290E-03 7.31249E-04-1.56227E-14
 -1      2819 4.89362E-03 6.49077E-04-2.04258E-14
 -1      2820 4.72455E-03 6.76464E-04-1.89656E-14
 -1      2821 4.66827E-03 6.46531E-04-1.83706E-14
 -1      2822 5.22195E-03 6.16221E-04-2.34777E-14
 -1      2823 5.05953E-03 6.29458E-04-2.19301E-14
 -1      2824 5.00482E-03 5.96324E-04-2.12978E-14
 -1      2825 5.53904E-03 6.06348E-04-2.66971E-14
 -1      2826 5.38176E-03 6.08889E-04-2.50665E-14
 -1      2827 5.32559E-03 5.73991E-04-2.43976E-14
 -1      2828 5.84795E-03 6.13025E-04-3.00784E-14
 -1      2829 5.69437E-03 6.08002E-04-2.83676E-14
 -1      2830 5.63505E-03 5.71812E-04-2.76603E-14
 -1      2831 6.15107E-03 6.30890E-04-3.36217E-14
 -1      2832 6.00011E-03 6.20845E-04-3.18301E-14
 -1      2833 5.93703E-03 5.83629E-04-3.10842E-14
 -1      2834 6.45007E-03 6.55832E-04-3.73232E-14
 -1      2835 6.30099E-03 6.42682E-04-3.54531E-14
 -1      2836 6.23422E-03 6.04679E-04-3.46691E-14
 -1      2837 6.74603E-03 6.84859E-04-4.11821E-14
 -1      2838 6.59835E-03 6.69977E-04-3.92320E-14
 -1      2839 6.52833E-03 6.31432E-04-3.84106E-14
 -1      2840 7.03968E-03 7.15895E-04-4.52003E-14
 -1      2841 6.89309E-03 7.00221E-04-4.31728E-14
 -1      2842 6.82037E-03 6.61361E-04-4.23107E-14
 -1      2843 7.33152E-03 7.47564E-04-4.93683E-14
 -1      2844 7.18578E-03 7.31711E-04-4.72655E-14
 -1      2845 7.11093E-03 6.92724E-04-4.63660E-14
 -1      2846 7.62191E-03 7.79004E-04-5.36781E-14
 -1      2847 7.47686E-03 7.63350E-04-5.15054E-14
 -1      2848 7.40039E-03 7.24374E-04-5.05707E-14
 -1      2849 7.91117E-03 8.09719E-04-5.81289E-14
 -1      2850 7.76665E-03 7.94473E-04-5.58867E-14
 -1      2851 7.68899E-03 7.55603E-04-5.49158E-14
 -1      2852 8.19951E-03 8.39462E-04-6.27081E-14
 -1      2853 8.05543E-03 8.24722E-04-6.04028E-14
 -1      2854 7.97691E-03 7.86013E-04-5.93984E-14
 -1      2855 8.48714E-03 8.68149E-04-6.74134E-14
 -1      2856 8.34340E-03 8.53940E-04-6.50446E-14
 -1      2857 8.26428E-03 8.15417E-04-6.40089E-14
 -1      2858 8.77422E-03 8.95800E-04-7.22427E-14
 -1      2859 8.63073E-03 8.82102E-04-6.98141E-14
 -1      2860 8.55123E-03 8.43769E-04-6.87461E-14
 -1      2861 9.06088E-03 9.22492E-04-7.71872E-14
 -1      2862 8.91759E-03 9.09261E-04-7.46992E-14
 -1      2863 8.83783E-03 8.71109E-04-7.36028E-14
 -1      2864 9.34723E-03 9.48335E-04-8.22490E-14
 -1      2865 9.20408E-03 9.35514E-04-7.97042E-14
 -1      2866 9.12418E-03 8.97526E-04-7.85756E-14
 -1      2867 9.63334E-03 9.73449E-04-8.74264E-14
 -1      2868 9.49031E-03 9.60977E-04-8.48245E-14
 -1      2869 9.41032E-03 9.23133E-04-8.36671E-14
 -1      2870 9.91929E-03 9.97952E-04-9.27121E-14
 -1      2871 9.77633E-03 9.85771E-04-9.00554E-14
 -1      2872 9.69632E-03 9.48049E-04-8.88717E-14
 -1      2873 1.02051E-02 1.02196E-03-9.81010E-14
 -1      2874 1.00622E-02 1.01001E-03-9.53939E-14
 -1      2875 9.98221E-03 9.72390E-04-9.41826E-14
 -1      2876 1.04909E-02 1.04556E-03-1.03591E-13
 -1      2877 1.03480E-02 1.03380E-03-1.00834E-13
 -1      2878 1.02680E-02 9.96264E-04-9.95971E-14
 -1      2879 1.07766E-02 1.06885E-03-1.09174E-13
 -1      2880 1.06338E-02 1.05724E-03-1.06370E-13
 -1      2881 1.05538E-02 1.01976E-03-1.05108E-13
 -1      2882 1.10623E-02 1.09189E-03-1.14853E-13
 -1      2883 1.09194E-02 1.08039E-03-1.12002E-13
 -1      2884 1.08395E-02 1.04297E-03-1.10715E-13
 -1      2885 1.13479E-02 1.11474E-03-1.20622E-13
 -1      2886 1.12051E-02 1.10334E-03-1.17727E-13
 -1      2887 1.11252E-02 1.06595E-03-1.16415E-13
 -1      2888 1.16336E-02 1.13746E-03-1.26474E-13
 -1      2889 1.14908E-02 1.12612E-03-1.23539E-13
 -1      2890 1.14109E-02 1.08876E-03-1.22204E-13
 -1      2891 1.19193E-02 1.16008E-03-1.32410E-13
 -1      2892 1.17764E-02 1.14878E-03-1.29432E-13
 -1      2893 1.16966E-02 1.11145E-03-1.28079E-13
 -1      2894 1.22049E-02 1.18262E-03-1.38409E-13
 -1      2895 1.20621E-02 1.17136E-03-1.35402E-13
 -1      2896 1.19823E-02 1.13404E-03-1.34029E-13
 -1      2897 1.24906E-02 1.20511E-03-1.44475E-13
 -1      2898 1.23478E-02 1.19387E-03-1.41435E-13
 -1      2899 1.22680E-02 1.15657E-03-1.40047E-13
 -1      2900 1.27763E-02 1.22757E-03-1.50600E-13
 -1      2901 1.26334E-02 1.21635E-03-1.47529E-13
 -1      2902 1.25537E-02 1.17905E-03-1.46125E-13
 -1      2903 1.30620E-02 1.25001E-03-1.56781E-13
 -1      2904 1.29191E-02 1.23879E-03-1.53684E-13
 -1      2905 1.28393E-02 1.20150E-03-1.52259E-13
 -1      2906 1.33476E-02 1.27244E-03-1.63017E-13
 -1      2907 1.32048E-02 1.26123E-03-1.59893E-13
 -1      2908 1.31250E-02 1.22394E-03-1.58455E-13
 -1      2909 1.36333E-02 1.29486E-03-1.69294E-13
 -1      2910 1.34905E-02 1.28365E-03-1.66151E-13
 -1      2911 1.34107E-02 1.24636E-03-1.64697E-13
 -1      2912 1.39190E-02 1.31728E-03-1.75607E-13
 -1      2913 1.37762E-02 1.30607E-03-1.72448E-13
 -1      2914 1.36964E-02 1.26878E-03-1.70987E-13
 -1      2915 1.41703E-02 1.32649E-03-1.81281E-13
 -1      2916 1.40274E-02 1.31528E-03-1.78109E-13
 -1      2917 1.39477E-02 1.27798E-03-1.76642E-13
 -1      2918 1.41645E-02 1.27397E-03-1.81649E-13
 -1      2919 2.18523E-03-5.92429E-04-5.04146E-15
 -1      2920 2.01964E-03-4.95494E-04-4.53653E-15
 -1      2921 4.15806E-03 5.75236E-04-1.34193E-14
 -1      2922 4.29172E-03 4.99442E-04-1.39200E-14
 -1      2923 1.43303E-02 8.85640E-04-1.88983E-13
 -1      2924 1.43413E-02 9.27798E-04-1.88872E-13
 -1      2925 1.43745E-02 1.05427E-03-1.88506E-13
 -1      2926 1.43855E-02 1.09643E-03-1.88376E-13
 -1      2927 1.43082E-02 8.01323E-04-1.89200E-13
 -1      2928 1.43193E-02 8.43481E-04-1.89095E-13
 -1      2929 1.42011E-02 8.54843E-04-1.86276E-13
 -1      2930 1.43524E-02 9.69956E-04-1.88753E-13
 -1      2931 1.43634E-02 1.01211E-03-1.88629E-13
 -1      2932 1.42452E-02 1.02348E-03-1.85811E-13
 -1      2933 1.42231E-02 9.39162E-04-1.86052E-13
 -1      2934 1.42866E-02 7.18436E-04-1.89399E-13
 -1      2935 1.42974E-02 7.59879E-04-1.89304E-13
 -1      2936 1.41792E-02 7.71240E-04-1.86481E-13
 -1      2937 1.42645E-02 6.34123E-04-1.89586E-13
 -1      2938 1.42755E-02 6.76279E-04-1.89493E-13
 -1      2939 1.41573E-02 6.87638E-04-1.86670E-13
 -1      2940 1.42425E-02 5.49816E-04-1.89761E-13
 -1      2941 1.42535E-02 5.91969E-04-1.89675E-13
 -1      2942 1.41353E-02 6.03326E-04-1.86847E-13
 -1      2943 1.42077E-02 4.09149E-04-1.90060E-13
 -1      2944 1.42423E-02 4.47408E-04-1.90567E-13
 -1      2945 1.41113E-02 4.02397E-04-1.87877E-13
 -1      2946 4.91472E-03 1.15115E-04-1.62529E-14
 -1      2947 4.76878E-03 7.17310E-05-1.58955E-14
 -1      2948 5.07983E-03 1.54074E-04-1.66823E-14
 -1      2949 5.02276E-03 1.43078E-04-1.65627E-14
 -1      2950 5.03857E-03 2.01753E-04-1.64969E-14
 -1      2951 5.10515E-03 1.84228E-04-1.65308E-14
 -1      2952 9.14467E-04 2.69120E-04-8.06104E-16
 -1      2953 2.26123E-03 8.19639E-04-4.47541E-15
 -1      2954 2.45526E-03 9.34361E-04-5.11096E-15
 -1      2955 2.08049E-03 8.01461E-04-3.42964E-15
 -1      2956 1.89495E-03 7.07745E-04-2.87030E-15
 -1      2957 1.75672E-03 6.04599E-04-2.66989E-15
 -1      2958 2.13812E-03 7.99474E-04-3.79404E-15
 -1      2959 5.71616E-04 3.68193E-05-1.07039E-15
 -1      2960 6.24154E-04 1.94695E-05-1.07421E-15
 -1      2961 3.12256E-03 1.10758E-03-8.10169E-15
 -1      2962 2.94954E-03 1.11162E-03-7.17014E-15
 -1      2963 1.19625E-03-3.68204E-04-1.55468E-15
 -1      2964 1.36990E-03-4.31919E-04-1.97069E-15
 -1      2965 1.42984E-03-4.14168E-04-2.22500E-15
 -1      2966 3.29814E-03 1.01242E-03-9.14988E-15
 -1      2967 3.41908E-03 9.60472E-04-9.78024E-15
 -1      2968 7.64613E-04-1.79531E-04-8.05088E-16
 -1      2969 6.19065E-04 4.85559E-05-9.70334E-16
 -1      2970 5.64413E-04 3.25967E-05-9.82944E-16
 -1      2971 7.52554E-04 8.18739E-05-1.22596E-15
 -1      2972 3.13898E-03-7.43586E-04-9.52299E-15
 -1      2973 2.99896E-03-7.87017E-04-8.75469E-15
 -1      2974 6.79276E-04-7.01195E-06-1.07711E-15
 -1      2975 7.31390E-04-3.97062E-05-1.07726E-15
 -1      2976 7.53949E-04-2.44895E-06-1.35501E-15
 -1      2977 8.16762E-04 7.38141E-05-2.20172E-15
 -1      2978 9.41133E-04 1.04654E-04-2.36784E-15
 -1      2979 2.57781E-03-7.70473E-04-6.58523E-15
 -1      2980 2.38787E-03-6.94739E-04-5.76577E-15
 -1      2981 1.43851E-03 3.13034E-04-2.91434E-15
 -1      2982 1.59399E-03 3.97517E-04-3.15106E-15
 -1      2983 3.60258E-03 8.54072E-04-1.05733E-14
 -1      2984 6.45015E-04 6.54366E-05-2.12630E-15
 -1      2985 6.23818E-04 6.03387E-05-2.08798E-15
 -1      2986 4.45847E-03 4.14313E-04-1.44990E-14
 -1      2987 4.62705E-03 3.39319E-04-1.50859E-14
 -1      2988 4.43921E-03 4.52991E-04-1.48868E-14
 -1      2989 1.49132E-03-1.98979E-04-3.37378E-15
 -1      2990 1.33281E-03-1.24126E-04-3.09298E-15
 -1      2991 1.53125E-03-2.40374E-04-3.25803E-15
 -1      2992 4.26396E-03-1.40925E-04-1.44565E-14
 -1      2993 4.08332E-03-2.35312E-04-1.38314E-14
 -1      2994 1.08905E-03 1.54892E-04-2.53445E-15
 -1      2995 1.25436E-03 2.22731E-04-2.70969E-15
 -1      2996 9.95070E-04 1.25804E-04-2.22856E-15
 -1      2997 2.89687E-03-8.03403E-04-8.20440E-15
 -1      2998 2.79876E-03-8.06743E-04-7.67480E-15
 -1      2999 2.98382E-03-7.97380E-04-8.72804E-15
 -1      3000 4.59702E-03 8.16049E-06-1.54578E-14
 -1      3001 4.44774E-03-5.38520E-05-1.50094E-14
 -1      3002 1.80879E-03 5.22744E-04-3.53466E-15
 -1      3003 2.01840E-03 6.56470E-04-3.97399E-15
 -1      3004 3.89033E-03-3.42112E-04-1.31012E-14
 -1      3005 3.73331E-03-4.35642E-04-1.24576E-14
 -1      3006 4.82676E-04 4.52646E-05-1.02742E-15
 -1      3007 5.21819E-04 4.49357E-05-1.05413E-15
 -1      3008 6.19955E-04 4.32690E-05-1.32962E-15
 -1      3009 5.28475E-04 4.85360E-05-1.28957E-15
 -1      3010 4.77096E-03 2.83966E-04-1.56122E-14
 -1      3011 4.90254E-03 2.43682E-04-1.61432E-14
 -1      3012 4.73266E-03 3.20793E-04-1.60198E-14
 -1      3013 3.51947E-03-5.58986E-04-1.14935E-14
 -1      3014 3.32744E-03-6.63368E-04-1.05251E-14
 -1      3015 7.79362E-04-7.84021E-05-1.07512E-15
 -1      3016 8.21615E-04-1.20355E-04-1.06890E-15
 -1      3017 8.79153E-04-8.22331E-05-1.35962E-15
 -1      3018 4.97163E-03 2.51037E-04-1.73459E-14
 -1      3019 5.00381E-03 2.23372E-04-1.69223E-14
 -1      3020 5.08973E-03 2.13421E-04-1.77145E-14
 -1      3021 1.87902E-03-4.34819E-04-4.04796E-15
 -1      3022 3.80799E-03 7.67193E-04-1.17885E-14
 -1      3023 3.94861E-03 6.92008E-04-1.24881E-14
 -1      3024 4.02360E-03-2.87477E-04-1.40188E-14
 -1      3025 1.44048E-02 1.24139E-03-1.87478E-13
 -1      3026 1.68467E-03 4.66150E-04-3.12426E-15
 -1      3027 1.31051E-03 2.59549E-04-2.57615E-15
 -1      3028 3.48014E-03 9.48933E-04-1.01449E-14
 -1      3029 3.53428E-03 9.05169E-04-1.03603E-14
 -1      3030 3.65364E-03 8.42031E-04-1.09578E-14
 -1      3031 5.14431E-03 1.81163E-04-1.70901E-14
 -1      3032 1.40496E-02 4.33903E-04-1.86202E-13
 -1      3033 4.08400E-03 6.44135E-04-1.33365E-14
 -1      3034 2.27245E-03-6.54234E-04-5.27505E-15
 -1      3035 1.26727E-03-1.18715E-04-2.71907E-15
 -1      3036 1.21359E-03-7.71407E-05-2.82273E-15
 -1      3037 1.10117E-03-4.04288E-05-2.56668E-15
 -1      3038 1.42672E-02 1.10743E-03-1.85559E-13
 -1      3039 1.43965E-02 1.13822E-03-1.88247E-13
 -1      3040 1.44074E-02 1.18002E-03-1.88111E-13
 -1      3041 4.37958E-03-1.01743E-04-1.53340E-14
 -1      3042 5.12885E-03 1.62616E-04-1.71610E-14
 -1      3043 6.14967E-04 3.92317E-05-1.24782E-15
 -1      3044 1.42533E-02 4.89557E-04-1.90492E-13
 -1      3045 1.41351E-02 5.00912E-04-1.87659E-13
 -1      3046 4.98578E-03 1.27489E-04-1.71113E-14
 -1      3047 8.79834E-04 3.66602E-05-2.45350E-15
 -1      3048 7.96822E-04 4.78097E-05-2.19170E-15
 -1      3049 9.30171E-04 1.82881E-05-2.38508E-15
 -1      3050 6.67891E-04 6.42546E-05-2.07091E-15
 -1      3051 6.08977E-04 5.33082E-05-1.91160E-15
 -1      3052 9.58463E-04 2.55452E-04-9.80823E-16
 -1      3053 3.19704E-03 1.05340E-03-8.61926E-15
 -1      3054 2.12325E-03 7.53004E-04-3.96096E-15
 -1      3055 2.84749E-03 1.08058E-03-6.76946E-15
 -1      3056 2.78602E-03 1.09947E-03-6.24357E-15
 -1      3057 2.61371E-03 1.04897E-03-5.44481E-15
 -1      3058 2.74578E-03 1.05350E-03-6.32879E-15
 -1      3059 8.72853E-04-1.75923E-04-1.07256E-15
 -1      3060 9.32730E-04-2.57463E-04-1.05452E-15
 -1      3061 1.09206E-03-3.18910E-04-1.35672E-15
 -1      3062 9.92204E-04-1.90821E-04-1.36500E-15
 -1      3063 4.71781E-03 4.27557E-05-1.63478E-14
 -1      3064 3.25840E-03-7.07261E-04-1.02852E-14
 -1      3065 2.63869E-03 1.01456E-03-5.85620E-15
 -1      3066 2.50447E-03 9.81054E-04-5.13362E-15
 -1      3067 3.63733E-03-5.09885E-04-1.22854E-14
 -1      3068 1.07791E-03 2.81333E-04-1.27045E-15
 -1      3069 1.14877E-03-3.01287E-04-1.56629E-15
 -1      3070 3.21131E-03 1.07206E-03-8.65680E-15
 -1      3071 3.37734E-03 1.02225E-03-9.60904E-15
 -1      3072 1.06205E-03 2.28911E-04-1.46229E-15
 -1      3073 9.87484E-04 1.75291E-04-1.49081E-15
 -1      3074 3.74077E-03 8.25080E-04-1.15565E-14
 -1      3075 4.15940E-03-2.45230E-04-1.51320E-14
 -1      3076 3.98982E-03-3.39479E-04-1.43675E-14
 -1      3077 8.92823E-04 9.87051E-05-1.88032E-15
 -1      3078 1.02157E-03 1.43122E-04-2.02437E-15
 -1      3079 4.43375E-03 4.94647E-04-1.53315E-14
 -1      3080 4.57736E-03 4.20765E-04-1.59411E-14
 -1      3081 2.70289E-03-8.01899E-04-7.18617E-15
 -1      3082 2.58231E-03-7.83944E-04-6.58332E-15
 -1      3083 8.97790E-04-8.29782E-06-1.86314E-15
 -1      3084 9.86510E-04-5.47510E-05-1.87368E-15
 -1      3085 2.03794E-03-6.15472E-04-4.22251E-15
 -1      3086 2.21887E-03-6.88099E-04-4.91668E-15
 -1      3087 2.67627E-03-8.25258E-04-7.05061E-15
 -1      3088 2.84335E-03-8.33873E-04-7.97110E-15
 -1      3089 3.02648E-03-8.07544E-04-9.05336E-15
 -1      3090 3.19881E-03-7.63182E-04-1.01076E-14
 -1      3091 3.41665E-03-6.89655E-04-1.15164E-14
 -1      3092 3.59685E-03-6.18756E-04-1.27019E-14
 -1      3093 3.87352E-03-4.75398E-04-1.43775E-14
 -1      3094 4.05864E-03-4.05426E-04-1.56894E-14
 -1      3095 4.24169E-03-3.45199E-04-1.70493E-14
 -1      3096 4.41798E-03-2.92528E-04-1.84541E-14
 -1      3097 4.31606E-03-2.39598E-04-1.68413E-14
 -1      3098 4.58982E-03-2.49327E-04-1.99031E-14
 -1      3099 4.75556E-03-2.12042E-04-2.13943E-14
 -1      3100 4.66363E-03-1.51881E-04-1.96879E-14
 -1      3101 4.91678E-03-1.81704E-04-2.29281E-14
 -1      3102 5.07354E-03-1.55507E-04-2.45034E-14
 -1      3103 4.98242E-03-9.61239E-05-2.27019E-14
 -1      3104 5.22676E-03-1.33926E-04-2.61187E-14
 -1      3105 5.37707E-03-1.15187E-04-2.77730E-14
 -1      3106 5.28136E-03-5.86264E-05-2.58777E-14
 -1      3107 5.52499E-03-9.93987E-05-2.94678E-14
 -1      3108 5.67116E-03-8.55532E-05-3.12024E-14
 -1      3109 5.56850E-03-3.14556E-05-2.92101E-14
 -1      3110 5.81587E-03-7.35585E-05-3.29759E-14
 -1      3111 5.95963E-03-6.28581E-05-3.47871E-14
 -1      3112 5.84941E-03-1.02458E-05-3.27005E-14
 -1      3113 6.10256E-03-5.32704E-05-3.66370E-14
 -1      3114 6.24505E-03-4.45030E-05-3.85256E-14
 -1      3115 6.12758E-03 7.47244E-06-3.63439E-14
 -1      3116 6.38713E-03-3.63479E-05-4.04519E-14
 -1      3117 6.52906E-03-2.86598E-05-4.24165E-14
 -1      3118 6.40505E-03 2.32372E-05-4.01394E-14
 -1      3119 6.67081E-03-2.12437E-05-4.44191E-14
 -1      3120 6.81258E-03-1.40353E-05-4.64594E-14
 -1      3121 6.68294E-03 3.80771E-05-4.40879E-14
 -1      3122 6.95431E-03-6.87194E-06-4.85364E-14
 -1      3123 7.09613E-03 2.66529E-07-5.06503E-14
 -1      3124 6.96176E-03 5.27038E-05-4.81880E-14
 -1      3125 7.23798E-03 7.50468E-06-5.27984E-14
 -1      3126 7.37995E-03 1.48392E-05-5.49814E-14
 -1      3127 7.24172E-03 6.76020E-05-5.24326E-14
 -1      3128 7.52197E-03 2.23579E-05-5.71997E-14
 -1      3129 7.66411E-03 3.00460E-05-5.94504E-14
 -1      3130 7.52281E-03 8.30821E-05-5.68151E-14
 -1      3131 7.80631E-03 3.79600E-05-6.17349E-14
 -1      3132 7.94862E-03 4.60801E-05-6.40515E-14
 -1      3133 7.80492E-03 9.93189E-05-6.13328E-14
 -1      3134 8.09099E-03 5.44385E-05-6.63990E-14
 -1      3135 8.23345E-03 6.30140E-05-6.87779E-14
 -1      3136 8.08791E-03 1.16386E-04-6.59810E-14
 -1      3137 8.37595E-03 7.18207E-05-7.11879E-14
 -1      3138 8.51853E-03 8.08384E-05-7.36272E-14
 -1      3139 8.37162E-03 1.34285E-04-7.07528E-14
 -1      3140 8.66115E-03 9.00687E-05-7.60978E-14
 -1      3141 8.80382E-03 9.94935E-05-7.85966E-14
 -1      3142 8.65590E-03 1.52968E-04-7.56464E-14
 -1      3143 8.94652E-03 1.09106E-04-8.11222E-14
 -1      3144 9.08927E-03 1.18891E-04-8.36785E-14
 -1      3145 8.94063E-03 1.72362E-04-8.06571E-14
 -1      3146 9.23203E-03 1.28837E-04-8.62615E-14
 -1      3147 9.37482E-03 1.38932E-04-8.88697E-14
 -1      3148 9.22570E-03 1.92377E-04-8.57774E-14
 -1      3149 9.51763E-03 1.49161E-04-9.15060E-14
 -1      3150 9.66046E-03 1.59514E-04-9.41645E-14
 -1      3151 9.51101E-03 2.12921E-04-9.10039E-14
 -1      3152 9.80330E-03 1.69977E-04-9.68491E-14
 -1      3153 9.94615E-03 1.80541E-04-9.95591E-14
 -1      3154 9.79650E-03 2.33906E-04-9.63337E-14
 -1      3155 1.00890E-02 1.91194E-04-1.02291E-13
 -1      3156 1.02319E-02 2.01929E-04-1.05047E-13
 -1      3157 1.00821E-02 2.55249E-04-1.01758E-13
 -1      3158 1.03747E-02 2.12733E-04-1.07826E-13
 -1      3159 1.05176E-02 2.23601E-04-1.10628E-13
 -1      3160 1.03678E-02 2.76878E-04-1.07281E-13
 -1      3161 1.06605E-02 2.34522E-04-1.13452E-13
 -1      3162 1.08034E-02 2.45494E-04-1.16296E-13
 -1      3163 1.06535E-02 2.98733E-04-1.12896E-13
 -1      3164 1.09463E-02 2.56506E-04-1.19159E-13
 -1      3165 1.10891E-02 2.67555E-04-1.22043E-13
 -1      3166 1.09393E-02 3.20760E-04-1.18597E-13
 -1      3167 1.12320E-02 2.78635E-04-1.24948E-13
 -1      3168 1.13749E-02 2.89743E-04-1.27869E-13
 -1      3169 1.12251E-02 3.42919E-04-1.24377E-13
 -1      3170 1.15178E-02 3.00873E-04-1.30813E-13
 -1      3171 1.16607E-02 3.12023E-04-1.33773E-13
 -1      3172 1.15109E-02 3.65175E-04-1.30235E-13
 -1      3173 1.18035E-02 3.23189E-04-1.36751E-13
 -1      3174 1.19464E-02 3.34369E-04-1.39750E-13
 -1      3175 1.17967E-02 3.87502E-04-1.36169E-13
 -1      3176 1.20893E-02 3.45560E-04-1.42764E-13
 -1      3177 1.22321E-02 3.56761E-04-1.45798E-13
 -1      3178 1.20824E-02 4.09878E-04-1.42176E-13
 -1      3179 1.23750E-02 3.67969E-04-1.48848E-13
 -1      3180 1.25179E-02 3.79184E-04-1.51913E-13
 -1      3181 1.23682E-02 4.32289E-04-1.48252E-13
 -1      3182 1.26608E-02 3.90403E-04-1.54996E-13
 -1      3183 1.28036E-02 4.01626E-04-1.58090E-13
 -1      3184 1.26540E-02 4.54722E-04-1.54391E-13
 -1      3185 1.29465E-02 4.12852E-04-1.61203E-13
 -1      3186 1.30894E-02 4.24079E-04-1.64329E-13
 -1      3187 1.29397E-02 4.77169E-04-1.60587E-13
 -1      3188 1.32322E-02 4.35308E-04-1.67469E-13
 -1      3189 1.33751E-02 4.46538E-04-1.70622E-13
 -1      3190 1.32255E-02 4.99623E-04-1.66840E-13
 -1      3191 1.35179E-02 4.57768E-04-1.73792E-13
 -1      3192 1.36608E-02 4.68997E-04-1.76974E-13
 -1      3193 1.35112E-02 5.22080E-04-1.73152E-13
 -1      3194 6.08569E-04 4.05327E-05-1.57542E-15
 -1      3195 5.73227E-04 4.30138E-05-1.58485E-15
 -1      3196 2.79214E-03-8.16444E-04-7.67042E-15
 -1      3197 3.56597E-03 9.54576E-04-1.06974E-14
 -1      3198 4.79379E-03 5.75469E-04-1.92182E-14
 -1      3199 4.62236E-03 6.05749E-04-1.77938E-14
 -1      3200 5.12104E-03 5.40167E-04-2.21978E-14
 -1      3201 4.96005E-03 5.54517E-04-2.06871E-14
 -1      3202 4.92114E-03 5.10427E-04-2.00740E-14
 -1      3203 5.43180E-03 5.28972E-04-2.53425E-14
 -1      3204 5.27811E-03 5.32239E-04-2.37492E-14
 -1      3205 5.23582E-03 4.89556E-04-2.31015E-14
 -1      3206 5.73208E-03 5.34399E-04-2.86496E-14
 -1      3207 5.58293E-03 5.30062E-04-2.69770E-14
 -1      3208 5.53527E-03 4.88423E-04-2.62922E-14
 -1      3209 6.02623E-03 5.51001E-04-3.21170E-14
 -1      3210 5.87970E-03 5.41604E-04-3.03629E-14
 -1      3211 5.82616E-03 5.00316E-04-2.96425E-14
 -1      3212 6.31697E-03 5.74826E-04-3.57420E-14
 -1      3213 6.17188E-03 5.62214E-04-3.39090E-14
 -1      3214 6.11275E-03 5.20770E-04-3.31508E-14
 -1      3215 6.60588E-03 6.03009E-04-3.95238E-14
 -1      3216 6.46156E-03 5.88511E-04-3.76141E-14
 -1      3217 6.39749E-03 5.46669E-04-3.68172E-14
 -1      3218 6.89379E-03 6.33514E-04-4.34660E-14
 -1      3219 6.74990E-03 6.18065E-04-4.14755E-14
 -1      3220 6.68167E-03 5.75777E-04-4.06416E-14
 -1      3221 7.18113E-03 6.64936E-04-4.75584E-14
 -1      3222 7.03749E-03 6.49172E-04-4.54933E-14
 -1      3223 6.96589E-03 6.06499E-04-4.46212E-14
 -1      3224 7.46812E-03 6.96356E-04-5.17986E-14
 -1      3225 7.32464E-03 6.80685E-04-4.96614E-14
 -1      3226 7.25038E-03 6.37729E-04-4.87530E-14
 -1      3227 7.75485E-03 7.27209E-04-5.61797E-14
 -1      3228 7.61149E-03 7.11876E-04-5.39711E-14
 -1      3229 7.53518E-03 6.68737E-04-5.30298E-14
 -1      3230 8.04138E-03 7.57186E-04-6.06944E-14
 -1      3231 7.89812E-03 7.42318E-04-5.84200E-14
 -1      3232 7.82026E-03 6.99084E-04-5.74426E-14
 -1      3233 8.32774E-03 7.86156E-04-6.53356E-14
 -1      3234 8.18457E-03 7.71801E-04-6.30000E-14
 -1      3235 8.10557E-03 7.28537E-04-6.19910E-14
 -1      3236 8.61397E-03 8.14102E-04-7.01037E-14
 -1      3237 8.47087E-03 8.00256E-04-6.77036E-14
 -1      3238 8.39104E-03 7.57007E-04-6.66655E-14
 -1      3239 8.90008E-03 8.41081E-04-7.49879E-14
 -1      3240 8.75703E-03 8.27709E-04-7.25324E-14
 -1      3241 8.67662E-03 7.84502E-04-7.14611E-14
 -1      3242 9.18609E-03 8.67186E-04-7.99917E-14
 -1      3243 9.04309E-03 8.54237E-04-7.74754E-14
 -1      3244 8.96229E-03 8.11086E-04-7.63769E-14
 -1      3245 9.47202E-03 8.92530E-04-8.51104E-14
 -1      3246 9.32906E-03 8.79947E-04-8.25358E-14
 -1      3247 9.24800E-03 8.36858E-04-8.14073E-14
 -1      3248 9.75789E-03 9.17231E-04-9.03396E-14
 -1      3249 9.61496E-03 9.04955E-04-8.77118E-14
 -1      3250 9.53374E-03 8.61927E-04-8.65535E-14
 -1      3251 1.00437E-02 9.41399E-04-9.56777E-14
 -1      3252 9.90081E-03 9.29376E-04-9.29970E-14
 -1      3253 9.81949E-03 8.86404E-04-9.18102E-14
 -1      3254 1.03295E-02 9.65135E-04-1.01115E-13
 -1      3255 1.01866E-02 9.53316E-04-9.83830E-14
 -1      3256 1.01053E-02 9.10394E-04-9.71725E-14
 -1      3257 1.06153E-02 9.88528E-04-1.06649E-13
 -1      3258 1.04724E-02 9.76870E-04-1.03870E-13
 -1      3259 1.03910E-02 9.33992E-04-1.02633E-13
 -1      3260 1.09010E-02 1.01165E-03-1.12278E-13
 -1      3261 1.07581E-02 1.00012E-03-1.09452E-13
 -1      3262 1.06768E-02 9.57278E-04-1.08190E-13
 -1      3263 1.11867E-02 1.03457E-03-1.17999E-13
 -1      3264 1.10439E-02 1.02314E-03-1.15128E-13
 -1      3265 1.09625E-02 9.80323E-04-1.13840E-13
 -1      3266 1.14724E-02 1.05734E-03-1.23810E-13
 -1      3267 1.13296E-02 1.04597E-03-1.20895E-13
 -1      3268 1.12483E-02 1.00318E-03-1.19585E-13
 -1      3269 1.17582E-02 1.07999E-03-1.29704E-13
 -1      3270 1.16153E-02 1.06868E-03-1.26747E-13
 -1      3271 1.15340E-02 1.02591E-03-1.25416E-13
 -1      3272 1.20439E-02 1.10256E-03-1.35670E-13
 -1      3273 1.19010E-02 1.09128E-03-1.32679E-13
 -1      3274 1.18197E-02 1.04853E-03-1.31327E-13
 -1      3275 1.23296E-02 1.12507E-03-1.41702E-13
 -1      3276 1.21867E-02 1.11382E-03-1.38677E-13
 -1      3277 1.21055E-02 1.07108E-03-1.37309E-13
 -1      3278 1.26153E-02 1.14754E-03-1.47792E-13
 -1      3279 1.24724E-02 1.13631E-03-1.44740E-13
 -1      3280 1.23912E-02 1.09357E-03-1.43355E-13
 -1      3281 1.29010E-02 1.16999E-03-1.53941E-13
 -1      3282 1.27581E-02 1.15877E-03-1.50860E-13
 -1      3283 1.26769E-02 1.11604E-03-1.49459E-13
 -1      3284 1.31867E-02 1.19242E-03-1.60146E-13
 -1      3285 1.30439E-02 1.18121E-03-1.57037E-13
 -1      3286 1.29627E-02 1.13848E-03-1.55620E-13
 -1      3287 1.34724E-02 1.21485E-03-1.66400E-13
 -1      3288 1.33296E-02 1.20364E-03-1.63268E-13
 -1      3289 1.32484E-02 1.16091E-03-1.61836E-13
 -1      3290 1.37581E-02 1.23727E-03-1.72695E-13
 -1      3291 1.36153E-02 1.22606E-03-1.69542E-13
 -1      3292 1.35341E-02 1.18333E-03-1.68099E-13
 -1      3293 2.28229E-03-6.78320E-04-5.26085E-15
 -1      3294 2.09395E-03-5.79651E-04-4.57972E-15
 -1      3295 1.42755E-02 1.21060E-03-1.84800E-13
 -1      3296 1.40500E-02 7.40799E-04-1.83762E-13
 -1      3297 1.40609E-02 7.82244E-04-1.83667E-13
 -1      3298 1.40719E-02 8.24404E-04-1.83565E-13
 -1      3299 1.40829E-02 8.66564E-04-1.83462E-13
 -1      3300 1.39428E-02 7.93963E-04-1.80856E-13
 -1      3301 1.54960E-03 4.09943E-04-2.68702E-15
 -1      3302 1.74063E-03 5.23611E-04-3.03148E-15
 -1      3303 1.91180E-03-4.74670E-04-4.04101E-15
 -1      3304 1.71924E-03-3.63935E-04-3.53954E-15
 -1      3305 1.93515E-03-5.10620E-04-4.02757E-15
 -1      3306 1.40280E-02 6.56482E-04-1.83942E-13
 -1      3307 1.40390E-02 6.98640E-04-1.83855E-13
 -1      3308 1.39207E-02 7.09642E-04-1.81045E-13
 -1      3309 4.04335E-03 7.05718E-04-1.33889E-14
 -1      3310 4.23067E-03 6.01293E-04-1.43539E-14
 -1      3311 1.15644E-03-2.71661E-04-1.65854E-15
 -1      3312 1.26288E-03-3.20409E-04-1.88112E-15
 -1      3313 1.43926E-03-3.83296E-04-2.33515E-15
 -1      3314 1.09725E-03-2.03374E-04-1.65242E-15
 -1      3315 4.34177E-03 6.71664E-04-1.56731E-14
 -1      3316 4.15513E-03 7.27221E-04-1.43657E-14
 -1      3317 4.00637E-03 7.68103E-04-1.33587E-14
 -1      3318 3.81173E-03 8.42041E-04-1.21418E-14
 -1      3319 5.06689E-03 1.36889E-04-1.82062E-14
 -1      3320 4.96816E-03 1.11091E-04-1.78840E-14
 -1      3321 4.51012E-03-6.42860E-05-1.64103E-14
 -1      3322 4.34941E-03-1.42050E-04-1.58320E-14
 -1      3323 1.92509E-03 6.46181E-04-3.36029E-15
 -1      3324 1.64549E-03-4.57765E-04-2.92476E-15
 -1      3325 1.82829E-03-5.31139E-04-3.49551E-15
 -1      3326 1.89251E-03-5.19263E-04-3.80682E-15
 -1      3327 1.47063E-03-3.56610E-04-2.51745E-15
 -1      3328 8.71168E-04 1.16253E-04-1.43982E-15
 -1      3329 7.88675E-04 7.99078E-05-1.45711E-15
 -1      3330 6.97185E-04 5.92648E-05-1.96260E-15
 -1      3331 6.21791E-04 5.94016E-05-1.78867E-15
 -1      3332 7.24948E-04 5.51602E-05-2.03320E-15
 -1      3333 7.62672E-04 6.16281E-05-1.91125E-15
 -1      3334 1.20165E-03 2.19415E-04-2.25620E-15
 -1      3335 1.36128E-03 3.01730E-04-2.43466E-15
 -1      3336 1.42386E-03 3.58376E-04-2.35344E-15
 -1      3337 1.07086E-03 1.77863E-04-1.90047E-15
 -1      3338 5.16822E-03 1.88471E-04-1.79561E-14
 -1      3339 5.17870E-03 1.77976E-04-1.77590E-14
 -1      3340 4.70627E-03 3.61928E-04-1.64857E-14
 -1      3341 4.83210E-03 3.12686E-04-1.70355E-14
 -1      3342 4.69590E-03 4.05133E-04-1.69487E-14
 -1      3343 5.63688E-04 5.16317E-05-1.56744E-15
 -1      3344 1.54709E-03-2.77797E-04-3.11037E-15
 -1      3345 1.41219E-03-2.05777E-04-2.84648E-15
 -1      3346 6.61083E-04 4.75976E-05-1.84201E-15
 -1      3347 5.17577E-03 1.69157E-04-1.80317E-14
 -1      3348 5.14346E-03 1.58993E-04-1.83012E-14
 -1      3349 5.21959E-03 1.76093E-04-1.89139E-14
 -1      3350 1.29142E-03 3.68928E-04-1.68141E-15
 -1      3351 1.15777E-03 2.86120E-04-1.54611E-15
 -1      3352 1.27181E-03 3.10302E-04-1.90290E-15
 -1      3353 1.47327E-03 4.45176E-04-2.09579E-15
 -1      3354 4.83629E-03 6.91824E-05-1.74227E-14
 -1      3355 4.68637E-03 1.33550E-05-1.69654E-14
 -1      3356 4.94446E-03 8.57249E-05-1.85215E-14
 -1      3357 4.94633E-03 2.84891E-04-1.78300E-14
 -1      3358 5.05023E-03 2.66442E-04-1.86372E-14
 -1      3359 4.93090E-03 3.23096E-04-1.83124E-14
 -1      3360 4.30451E-03-1.99834E-04-1.61943E-14
 -1      3361 4.65163E-03-2.69376E-05-1.74819E-14
 -1      3362 5.90935E-04 5.60605E-05-1.59091E-15
 -1      3363 2.50650E-03-7.90792E-04-6.19271E-15
 -1      3364 2.38801E-03-7.45306E-04-5.64974E-15
 -1      3365 1.16862E-03-1.12048E-04-2.28287E-15
 -1      3366 9.85445E-04-8.45239E-05-1.70796E-15
 -1      3367 1.05058E-03-1.37356E-04-1.70938E-15
 -1      3368 1.27915E-03-1.52886E-04-2.52620E-15
 -1      3369 2.93327E-03-8.24214E-04-8.49378E-15
 -1      3370 3.30873E-03-6.99825E-04-1.06574E-14
 -1      3371 1.29163E-03-1.90951E-04-2.39142E-15
 -1      3372 1.37487E-02 4.47427E-04-1.79151E-13
 -1      3373 1.38915E-02 4.58655E-04-1.82354E-13
 -1      3374 4.48283E-03 5.83934E-04-1.64578E-14
 -1      3375 1.38665E-02 1.23526E-03-1.75192E-13
 -1      3376 1.37854E-02 1.19253E-03-1.73740E-13
 -1      3377 1.39749E-02 1.23325E-03-1.77690E-13
 -1      3378 1.41671E-02 1.21261E-03-1.82290E-13
 -1      3379 1.40587E-02 1.21461E-03-1.79784E-13
 -1      3380 1.41698E-02 1.15124E-03-1.82921E-13
 -1      3381 4.38136E-03 5.59331E-04-1.53859E-14
 -1      3382 1.41479E-02 1.06764E-03-1.83181E-13
 -1      3383 1.41588E-02 1.10944E-03-1.83054E-13
 -1      3384 1.40504E-02 1.11145E-03-1.80550E-13
 -1      3385 1.39648E-02 8.78285E-04-1.80652E-13
 -1      3386 1.40940E-02 9.08724E-04-1.83353E-13
 -1      3387 1.41050E-02 9.50883E-04-1.83239E-13
 -1      3388 5.16159E-03 2.03050E-04-1.83936E-14
 -1      3389 5.21847E-03 1.98057E-04-1.90800E-14
 -1      3390 5.15044E-03 2.22185E-04-1.88309E-14
 -1      3391 1.58673E-03-3.21817E-04-3.10110E-15
 -1      3392 7.77514E-04 6.84868E-05-1.63309E-15
 -1      3393 1.39879E-02 4.65409E-04-1.84527E-13
 -1      3394 1.39770E-02 5.25668E-04-1.83806E-13
 -1      3395 9.90073E-04-1.27359E-05-2.29160E-15
 -1      3396 1.40061E-02 5.72527E-04-1.84109E-13
 -1      3397 1.40171E-02 6.14682E-04-1.84026E-13
 -1      3398 7.27891E-04 5.06168E-05-1.89733E-15
 -1      3399 1.41209E-02 9.88184E-04-1.83275E-13
 -1      3400 1.41320E-02 1.03034E-03-1.83152E-13
 -1      3401 1.40236E-02 1.03235E-03-1.80651E-13
 -1      3402 1.39918E-02 9.57748E-04-1.80583E-13
 -1      3403 3.67006E-03 9.03868E-04-1.13047E-14
 -1      3404 5.14303E-03 1.46965E-04-1.90934E-14
 -1      3405 1.77873E-03 5.83633E-04-2.89220E-15
 -1      3406 3.77385E-03-4.56203E-04-1.32535E-14
 -1      3407 3.58314E-03-5.66877E-04-1.22567E-14
 -1      3408 1.58756E-03 4.91866E-04-2.39264E-15
 -1      3409 6.87048E-04 4.99741E-05-1.48894E-15
 -1      3410 1.38988E-02 6.25682E-04-1.81216E-13
 -1      3411 1.48579E-03 4.19447E-04-2.28746E-15
 -1      3412 1.38588E-02 5.37022E-04-1.80994E-13
 -1      3413 7.67080E-04 3.13170E-05-1.71700E-15
 -1      3414 1.03872E-03 1.75194E-04-1.75046E-15
 -1      3415 5.23239E-03 1.57731E-04-2.02316E-14
 -1      3416 5.16695E-03 1.35781E-04-2.01307E-14
 -1      3417 1.22700E-03-2.17467E-04-2.04433E-15
 -1      3418 1.37419E-02 5.11735E-04-1.78505E-13
 -1      3419 4.65174E-03-1.09008E-04-1.89671E-14
 -1      3420 4.81211E-03-7.92834E-05-2.04336E-14
 -1      3421 4.96539E-03-5.70987E-05-2.19416E-14
 -1      3422 5.11366E-03-3.85471E-05-2.34894E-14
 -1      3423 4.95692E-03-1.63810E-05-2.11834E-14
 -1      3424 5.25761E-03-2.36750E-05-2.50771E-14
 -1      3425 5.39902E-03-1.06797E-05-2.67035E-14
 -1      3426 5.23961E-03 1.17772E-05-2.42789E-14
 -1      3427 5.53815E-03 5.37975E-07-2.83681E-14
 -1      3428 5.67614E-03 1.06920E-05-3.00732E-14
 -1      3429 5.51152E-03 3.22593E-05-2.75293E-14
 -1      3430 5.81313E-03 1.99442E-05-3.18175E-14
 -1      3431 5.94980E-03 2.85801E-05-3.35990E-14
 -1      3432 5.77931E-03 4.94784E-05-3.09363E-14
 -1      3433 6.08621E-03 3.67717E-05-3.54200E-14
 -1      3434 6.22273E-03 4.46060E-05-3.72779E-14
 -1      3435 6.04652E-03 6.52192E-05-3.44981E-14
 -1      3436 6.35939E-03 5.22550E-05-3.91739E-14
 -1      3437 6.49639E-03 5.97273E-05-4.11085E-14
 -1      3438 6.31495E-03 8.03515E-05-3.82115E-14
 -1      3439 6.63372E-03 6.71776E-05-4.30812E-14
 -1      3440 6.77148E-03 7.45841E-05-4.50925E-14
 -1      3441 6.58543E-03 9.53673E-05-4.20776E-14
 -1      3442 6.90963E-03 8.20763E-05-4.71402E-14
 -1      3443 7.04823E-03 8.96216E-05-4.92254E-14
 -1      3444 6.85823E-03 1.10597E-04-4.60959E-14
 -1      3445 7.18723E-03 9.73224E-05-5.13469E-14
 -1      3446 7.32665E-03 1.05142E-04-5.35018E-14
 -1      3447 7.13333E-03 1.26278E-04-5.02623E-14
 -1      3448 7.46643E-03 1.13158E-04-5.56915E-14
 -1      3449 7.60659E-03 1.21333E-04-5.79156E-14
 -1      3450 7.41055E-03 1.42569E-04-5.45708E-14
 -1      3451 7.74707E-03 1.29722E-04-6.01735E-14
 -1      3452 7.88786E-03 1.38288E-04-6.24648E-14
 -1      3453 7.68963E-03 1.59561E-04-5.90154E-14
 -1      3454 8.02892E-03 1.47069E-04-6.47863E-14
 -1      3455 8.17024E-03 1.56032E-04-6.71392E-14
 -1      3456 7.97027E-03 1.77288E-04-6.35935E-14
 -1      3457 8.31177E-03 1.65198E-04-6.95242E-14
 -1      3458 8.45351E-03 1.74538E-04-7.19395E-14
 -1      3459 8.25219E-03 1.95735E-04-6.82968E-14
 -1      3460 8.59541E-03 1.84063E-04-7.43847E-14
 -1      3461 8.73748E-03 1.93748E-04-7.68599E-14
 -1      3462 8.53514E-03 2.14861E-04-7.31252E-14
 -1      3463 8.87968E-03 2.03596E-04-7.93634E-14
 -1      3464 9.02200E-03 2.13585E-04-8.18947E-14
 -1      3465 8.81889E-03 2.34599E-04-7.80708E-14
 -1      3466 9.16441E-03 2.23714E-04-8.44525E-14
 -1      3467 9.30692E-03 2.33964E-04-8.70372E-14
 -1      3468 9.10326E-03 2.54875E-04-8.31303E-14
 -1      3469 9.44950E-03 2.44332E-04-8.96489E-14
 -1      3470 9.59214E-03 2.54802E-04-9.22860E-14
 -1      3471 9.38809E-03 2.75611E-04-8.82969E-14
 -1      3472 9.73484E-03 2.65368E-04-9.49496E-14
 -1      3473 9.87758E-03 2.76017E-04-9.76360E-14
 -1      3474 9.67325E-03 2.96734E-04-9.35674E-14
 -1      3475 1.00204E-02 2.86744E-04-1.00348E-13
 -1      3476 1.01632E-02 2.97539E-04-1.03083E-13
 -1      3477 9.95865E-03 3.18172E-04-9.89386E-14
 -1      3478 1.03060E-02 3.08395E-04-1.05843E-13
 -1      3479 1.04488E-02 3.19305E-04-1.08627E-13
 -1      3480 1.02442E-02 3.39865E-04-1.04406E-13
 -1      3481 1.05917E-02 3.30262E-04-1.11433E-13
 -1      3482 1.07346E-02 3.41260E-04-1.14264E-13
 -1      3483 1.05299E-02 3.61759E-04-1.09973E-13
 -1      3484 1.08775E-02 3.52295E-04-1.17113E-13
 -1      3485 1.10203E-02 3.63361E-04-1.19983E-13
 -1      3486 1.08156E-02 3.83810E-04-1.15630E-13
 -1      3487 1.11632E-02 3.74455E-04-1.22872E-13
 -1      3488 1.13061E-02 3.85573E-04-1.25781E-13
 -1      3489 1.11014E-02 4.05979E-04-1.21370E-13
 -1      3490 1.14490E-02 3.96710E-04-1.28711E-13
 -1      3491 1.15919E-02 4.07865E-04-1.31660E-13
 -1      3492 1.13872E-02 4.28239E-04-1.27189E-13
 -1      3493 1.17348E-02 4.19034E-04-1.34628E-13
 -1      3494 1.18777E-02 4.30215E-04-1.37614E-13
 -1      3495 1.16730E-02 4.50563E-04-1.33087E-13
 -1      3496 1.20206E-02 4.41406E-04-1.40618E-13
 -1      3497 1.21635E-02 4.52607E-04-1.43637E-13
 -1      3498 1.19588E-02 4.72935E-04-1.39058E-13
 -1      3499 1.23064E-02 4.63813E-04-1.46676E-13
 -1      3500 1.24493E-02 4.75026E-04-1.49730E-13
 -1      3501 1.22446E-02 4.95340E-04-1.45101E-13
 -1      3502 1.25922E-02 4.86243E-04-1.52796E-13
 -1      3503 1.27351E-02 4.97463E-04-1.55880E-13
 -1      3504 1.25304E-02 5.17766E-04-1.51205E-13
 -1      3505 1.28779E-02 5.08686E-04-1.58978E-13
 -1      3506 1.30208E-02 5.19912E-04-1.62089E-13
 -1      3507 1.28162E-02 5.40207E-04-1.57369E-13
 -1      3508 1.31637E-02 5.31138E-04-1.65214E-13
 -1      3509 1.33066E-02 5.42365E-04-1.68352E-13
 -1      3510 1.31019E-02 5.62656E-04-1.63589E-13
 -1      3511 1.34494E-02 5.53593E-04-1.71505E-13
 -1      3512 1.35923E-02 5.64821E-04-1.74673E-13
 -1      3513 1.33877E-02 5.85109E-04-1.69861E-13
 -1      3514 6.19306E-04 3.91661E-05-1.49361E-15
 -1      3515 4.65988E-03 4.97341E-04-1.75003E-14
 -1      3516 1.37710E-02 5.58596E-04-1.78810E-13
 -1      3517 1.38135E-02 7.63164E-04-1.78151E-13
 -1      3518 1.38245E-02 8.05326E-04-1.78053E-13
 -1      3519 5.34785E-03 4.44745E-04-2.40096E-14
 -1      3520 5.20013E-03 4.46354E-04-2.24533E-14
 -1      3521 5.04841E-03 4.52046E-04-2.09354E-14
 -1      3522 4.89133E-03 4.64425E-04-1.94584E-14
 -1      3523 5.17142E-03 4.02039E-04-2.18023E-14
 -1      3524 5.91672E-03 4.69460E-04-3.06376E-14
 -1      3525 5.77630E-03 4.59984E-04-2.89219E-14
 -1      3526 6.19621E-03 4.92815E-04-3.41884E-14
 -1      3527 6.05652E-03 4.80527E-04-3.23936E-14
 -1      3528 6.00309E-03 4.41450E-04-3.16359E-14
 -1      3529 6.47553E-03 5.20100E-04-3.78959E-14
 -1      3530 6.33578E-03 5.06073E-04-3.60221E-14
 -1      3531 6.27629E-03 4.66737E-04-3.52283E-14
 -1      3532 6.75555E-03 5.49649E-04-4.17613E-14
 -1      3533 6.61539E-03 5.34664E-04-3.98087E-14
 -1      3534 6.55092E-03 4.94762E-04-3.89778E-14
 -1      3535 7.03656E-03 5.80249E-04-4.57797E-14
 -1      3536 6.89590E-03 5.64867E-04-4.37520E-14
 -1      3537 6.82740E-03 5.24324E-04-4.28826E-14
 -1      3538 7.31858E-03 6.11044E-04-4.99483E-14
 -1      3539 7.17743E-03 5.95653E-04-4.78458E-14
 -1      3540 7.10571E-03 5.54517E-04-4.69405E-14
 -1      3541 7.60151E-03 6.41472E-04-5.42608E-14
 -1      3542 7.45993E-03 6.26322E-04-5.20872E-14
 -1      3543 7.38568E-03 5.84690E-04-5.11461E-14
 -1      3544 7.88517E-03 6.71193E-04-5.87081E-14
 -1      3545 7.74324E-03 6.56430E-04-5.64665E-14
 -1      3546 7.66704E-03 6.14410E-04-5.54930E-14
 -1      3547 8.16943E-03 7.00036E-04-6.32891E-14
 -1      3548 8.02723E-03 6.85726E-04-6.09834E-14
 -1      3549 7.94953E-03 6.43421E-04-5.99758E-14
 -1      3550 8.45413E-03 7.27946E-04-6.79948E-14
 -1      3551 8.31172E-03 7.14106E-04-6.56269E-14
 -1      3552 8.23291E-03 6.71598E-04-6.45895E-14
 -1      3553 8.73917E-03 7.54948E-04-7.28199E-14
 -1      3554 8.59661E-03 7.41556E-04-7.03927E-14
 -1      3555 8.51697E-03 6.98912E-04-6.93255E-14
 -1      3556 9.02444E-03 7.81112E-04-7.77657E-14
 -1      3557 8.88177E-03 7.68129E-04-7.52784E-14
 -1      3558 8.80155E-03 7.25398E-04-7.41807E-14
 -1      3559 9.30990E-03 8.06533E-04-8.28238E-14
 -1      3560 9.16715E-03 7.93909E-04-8.02793E-14
 -1      3561 9.08651E-03 7.51126E-04-7.91533E-14
 -1      3562 9.59547E-03 8.31315E-04-8.79971E-14
 -1      3563 9.45267E-03 8.18997E-04-8.53972E-14
 -1      3564 9.37175E-03 7.76188E-04-8.42416E-14
 -1      3565 9.88112E-03 8.55563E-04-9.32809E-14
 -1      3566 9.73828E-03 8.43500E-04-9.06257E-14
 -1      3567 9.65718E-03 8.00680E-04-8.94434E-14
 -1      3568 1.01668E-02 8.79372E-04-9.86659E-14
 -1      3569 1.00240E-02 8.67517E-04-9.59612E-14
 -1      3570 9.94275E-03 8.24698E-04-9.47514E-14
 -1      3571 1.04526E-02 9.02830E-04-1.04151E-13
 -1      3572 1.03097E-02 8.91141E-04-1.01396E-13
 -1      3573 1.02284E-02 8.48328E-04-1.00160E-13
 -1      3574 1.07383E-02 9.26011E-04-1.09730E-13
 -1      3575 1.05954E-02 9.14451E-04-1.06930E-13
 -1      3576 1.05141E-02 8.71648E-04-1.05670E-13
 -1      3577 1.10241E-02 9.48976E-04-1.15405E-13
 -1      3578 1.08812E-02 9.37517E-04-1.12556E-13
 -1      3579 1.07999E-02 8.94725E-04-1.11272E-13
 -1      3580 1.13098E-02 9.71779E-04-1.21169E-13
 -1      3581 1.11670E-02 9.60396E-04-1.18276E-13
 -1      3582 1.10856E-02 9.17615E-04-1.16969E-13
 -1      3583 1.15956E-02 9.94461E-04-1.27020E-13
 -1      3584 1.14527E-02 9.83133E-04-1.24084E-13
 -1      3585 1.13714E-02 9.40363E-04-1.22754E-13
 -1      3586 1.18813E-02 1.01705E-03-1.32951E-13
 -1      3587 1.17385E-02 1.00577E-03-1.29976E-13
 -1      3588 1.16572E-02 9.63005E-04-1.28625E-13
 -1      3589 1.21671E-02 1.03958E-03-1.38947E-13
 -1      3590 1.20242E-02 1.02832E-03-1.35941E-13
 -1      3591 1.19430E-02 9.85571E-04-1.34571E-13
 -1      3592 1.24528E-02 1.06207E-03-1.45008E-13
 -1      3593 1.23100E-02 1.05083E-03-1.41972E-13
 -1      3594 1.22287E-02 1.00808E-03-1.40587E-13
 -1      3595 1.27386E-02 1.08452E-03-1.51124E-13
 -1      3596 1.25957E-02 1.07330E-03-1.48059E-13
 -1      3597 1.25145E-02 1.03056E-03-1.46659E-13
 -1      3598 1.30243E-02 1.10696E-03-1.57298E-13
 -1      3599 1.28815E-02 1.09575E-03-1.54204E-13
 -1      3600 1.28002E-02 1.05301E-03-1.52788E-13
 -1      3601 1.33100E-02 1.12939E-03-1.63525E-13
 -1      3602 1.31672E-02 1.11818E-03-1.60403E-13
 -1      3603 1.30860E-02 1.07544E-03-1.58974E-13
 -1      3604 1.35958E-02 1.15181E-03-1.69798E-13
 -1      3605 1.34529E-02 1.14060E-03-1.66659E-13
 -1      3606 1.33717E-02 1.09787E-03-1.65213E-13
 -1      3607 1.37915E-02 6.78842E-04-1.78330E-13
 -1      3608 1.38025E-02 7.21002E-04-1.78243E-13
 -1      3609 1.36843E-02 7.32364E-04-1.75449E-13
 -1      3610 1.37092E-02 5.90109E-04-1.77146E-13
 -1      3611 1.31643E-03 3.18084E-04-2.06421E-15
 -1      3612 5.63514E-03 4.52331E-04-2.72453E-14
 -1      3613 5.49245E-03 4.47200E-04-2.56076E-14
 -1      3614 5.45465E-03 4.06101E-04-2.49239E-14
 -1      3615 5.73010E-03 4.20488E-04-2.82019E-14
 -1      3616 3.92167E-03-4.08119E-04-1.43287E-14
 -1      3617 4.80338E-03 2.02983E-06-1.88709E-14
 -1      3618 4.65132E-03-6.60151E-05-1.82868E-14
 -1      3619 4.48299E-03-1.48635E-04-1.75802E-14
 -1      3620 1.35197E-03-2.67753E-04-2.33304E-15
 -1      3621 4.80769E-03 4.25380E-04-1.83087E-14
 -1      3622 4.91432E-03 3.78479E-04-1.88896E-14
 -1      3623 1.37201E-02 6.31910E-04-1.77068E-13
 -1      3624 5.26898E-03 1.87347E-04-1.98335E-14
 -1      3625 5.27053E-03 1.77413E-04-2.01164E-14
 -1      3626 3.48954E-03-6.13931E-04-1.17184E-14
 -1      3627 1.71844E-03-4.19554E-04-3.32746E-15
 -1      3628 6.85875E-04 5.12477E-05-1.69150E-15
 -1      3629 5.05828E-03 1.00342E-04-1.97448E-14
 -1      3630 4.94148E-03 6.19208E-05-1.92633E-14
 -1      3631 4.93884E-03 2.58127E-05-2.01018E-14
 -1      3632 5.17306E-03 1.17297E-04-2.08990E-14
 -1      3633 5.31031E-03 1.70852E-04-2.11778E-14
 -1      3634 5.02487E-03 3.51971E-04-1.97180E-14
 -1      3635 5.28701E-03 1.99983E-04-2.02882E-14
 -1      3636 1.37042E-02 1.14980E-03-1.72283E-13
 -1      3637 1.36230E-02 1.10707E-03-1.70831E-13
 -1      3638 1.38126E-02 1.14780E-03-1.74778E-13
 -1      3639 1.36019E-02 6.43269E-04-1.74279E-13
 -1      3640 1.38356E-02 8.47488E-04-1.77956E-13
 -1      3641 1.38466E-02 8.89650E-04-1.77852E-13
 -1      3642 1.37063E-02 8.16690E-04-1.75262E-13
 -1      3643 5.14055E-03 2.47606E-04-1.93319E-14
 -1      3644 5.21926E-03 2.35343E-04-2.00344E-14
 -1      3645 5.13336E-03 2.77883E-04-1.98326E-14
 -1      3646 3.62733E-03-5.63750E-04-1.26573E-14
 -1      3647 1.38925E-02 1.00589E-03-1.77889E-13
 -1      3648 1.39084E-02 1.04319E-03-1.77921E-13
 -1      3649 1.55798E-03-3.38818E-04-2.91318E-15
 -1      3650 3.68449E-03-5.77235E-04-1.32603E-14
 -1      3651 1.37544E-02 1.06090E-03-1.74244E-13
 -1      3652 1.38854E-02 1.08736E-03-1.76996E-13
 -1      3653 1.20652E-03 2.53814E-04-1.96050E-15
 -1      3654 5.07451E-03 3.90049E-05-2.16016E-14
 -1      3655 5.22790E-03 4.60408E-05-2.34825E-14
 -1      3656 5.35894E-03 5.48915E-05-2.50688E-14
 -1      3657 5.48850E-03 6.28708E-05-2.66946E-14
 -1      3658 5.61815E-03 7.04490E-05-2.83573E-14
 -1      3659 5.46910E-03 9.22985E-05-2.58605E-14
 -1      3660 5.74758E-03 7.78597E-05-3.00595E-14
 -1      3661 5.87766E-03 8.51960E-05-3.18009E-14
 -1      3662 5.71782E-03 1.05040E-04-2.91859E-14
 -1      3663 6.00811E-03 9.25392E-05-3.35790E-14
 -1      3664 6.13940E-03 9.99019E-05-3.53967E-14
 -1      3665 5.97078E-03 1.18671E-04-3.26641E-14
 -1      3666 6.27134E-03 1.07368E-04-3.72518E-14
 -1      3667 6.40416E-03 1.14887E-04-3.91446E-14
 -1      3668 6.22833E-03 1.33254E-04-3.62944E-14
 -1      3669 6.53772E-03 1.22547E-04-4.10773E-14
 -1      3670 6.67213E-03 1.30289E-04-4.30472E-14
 -1      3671 6.49039E-03 1.48677E-04-4.00787E-14
 -1      3672 6.80727E-03 1.38195E-04-4.50548E-14
 -1      3673 6.94320E-03 1.46212E-04-4.70997E-14
 -1      3674 6.75659E-03 1.64838E-04-4.40164E-14
 -1      3675 7.07980E-03 1.54411E-04-4.91798E-14
 -1      3676 7.21709E-03 1.62743E-04-5.12984E-14
 -1      3677 7.02649E-03 1.81692E-04-4.81022E-14
 -1      3678 7.35498E-03 1.71265E-04-5.34522E-14
 -1      3679 7.49346E-03 1.79934E-04-5.56384E-14
 -1      3680 7.29960E-03 1.99216E-04-5.23343E-14
 -1      3681 7.63245E-03 1.88793E-04-5.78601E-14
 -1      3682 7.77193E-03 1.97805E-04-6.01153E-14
 -1      3683 7.57544E-03 2.17388E-04-5.67068E-14
 -1      3684 7.91184E-03 2.07000E-04-6.24016E-14
 -1      3685 8.05215E-03 2.16345E-04-6.47208E-14
 -1      3686 7.85357E-03 2.36179E-04-6.12121E-14
 -1      3687 8.19280E-03 2.25860E-04-6.70725E-14
 -1      3688 8.33378E-03 2.35518E-04-6.94541E-14
 -1      3689 8.13355E-03 2.55547E-04-6.58491E-14
 -1      3690 8.47503E-03 2.45328E-04-7.18660E-14
 -1      3691 8.61653E-03 2.55268E-04-7.43088E-14
 -1      3692 8.41504E-03 2.75442E-04-7.06098E-14
 -1      3693 8.75824E-03 2.65342E-04-7.67817E-14
 -1      3694 8.90015E-03 2.75532E-04-7.92826E-14
 -1      3695 8.69769E-03 2.95807E-04-7.54918E-14
 -1      3696 9.04221E-03 2.85836E-04-8.18091E-14
 -1      3697 9.18443E-03 2.96240E-04-8.43650E-14
 -1      3698 8.98126E-03 3.16580E-04-8.04904E-14
 -1      3699 9.32676E-03 3.06740E-04-8.69464E-14
 -1      3700 9.46920E-03 3.17325E-04-8.95544E-14
 -1      3701 9.26551E-03 3.37703E-04-8.55988E-14
 -1      3702 9.61173E-03 3.27988E-04-9.21890E-14
 -1      3703 9.75433E-03 3.38722E-04-9.48480E-14
 -1      3704 9.55027E-03 3.59119E-04-9.08119E-14
 -1      3705 9.89700E-03 3.49519E-04-9.75313E-14
 -1      3706 1.00397E-02 3.60373E-04-1.00241E-13
 -1      3707 9.83540E-03 3.80775E-04-9.61265E-14
 -1      3708 1.01825E-02 3.71278E-04-1.02974E-13
 -1      3709 1.03253E-02 3.82228E-04-1.05731E-13
 -1      3710 1.01208E-02 4.02626E-04-1.01542E-13
 -1      3711 1.04681E-02 3.93218E-04-1.08514E-13
 -1      3712 1.06110E-02 4.04243E-04-1.11321E-13
 -1      3713 1.04064E-02 4.24632E-04-1.07057E-13
 -1      3714 1.07538E-02 4.15299E-04-1.14148E-13
 -1      3715 1.08967E-02 4.26382E-04-1.16998E-13
 -1      3716 1.06920E-02 4.46758E-04-1.12668E-13
 -1      3717 1.10396E-02 4.37488E-04-1.19870E-13
 -1      3718 1.11825E-02 4.48615E-04-1.22760E-13
 -1      3719 1.09778E-02 4.68977E-04-1.18367E-13
 -1      3720 1.13254E-02 4.59759E-04-1.25668E-13
 -1      3721 1.14683E-02 4.70918E-04-1.28598E-13
 -1      3722 1.12636E-02 4.91267E-04-1.24150E-13
 -1      3723 1.16112E-02 4.82089E-04-1.31547E-13
 -1      3724 1.17541E-02 4.93272E-04-1.34515E-13
 -1      3725 1.15494E-02 5.13609E-04-1.30007E-13
 -1      3726 1.18970E-02 5.04463E-04-1.37501E-13
 -1      3727 1.20399E-02 5.15662E-04-1.40505E-13
 -1      3728 1.18352E-02 5.35988E-04-1.35942E-13
 -1      3729 1.21828E-02 5.26867E-04-1.43525E-13
 -1      3730 1.23257E-02 5.38078E-04-1.46562E-13
 -1      3731 1.21211E-02 5.58394E-04-1.41951E-13
 -1      3732 1.24686E-02 5.49292E-04-1.49614E-13
 -1      3733 1.26115E-02 5.60510E-04-1.52679E-13
 -1      3734 1.24069E-02 5.80819E-04-1.48023E-13
 -1      3735 1.27544E-02 5.71730E-04-1.55759E-13
 -1      3736 1.28973E-02 5.82953E-04-1.58856E-13
 -1      3737 1.26927E-02 6.03255E-04-1.54153E-13
 -1      3738 1.30402E-02 5.94177E-04-1.61966E-13
 -1      3739 1.31831E-02 6.05402E-04-1.65088E-13
 -1      3740 1.29784E-02 6.25699E-04-1.60340E-13
 -1      3741 1.33211E-02 6.18722E-04-1.68096E-13
 -1      3742 1.34639E-02 6.29948E-04-1.71243E-13
 -1      3743 1.35353E-02 6.76882E-04-1.72497E-13
 -1      3744 1.32593E-02 6.50243E-04-1.66458E-13
 -1      3745 6.62361E-03 4.70492E-04-4.00616E-14
 -1      3746 6.48783E-03 4.56207E-04-3.81461E-14
 -1      3747 1.39776E-02 1.17188E-03-1.78327E-13
 -1      3748 1.38964E-02 1.12915E-03-1.76863E-13
 -1      3749 6.35286E-03 4.42316E-04-3.62717E-14
 -1      3750 6.21853E-03 4.28847E-04-3.44350E-14
 -1      3751 6.42588E-03 4.19029E-04-3.73175E-14
 -1      3752 6.08501E-03 4.16005E-04-3.26371E-14
 -1      3753 5.95197E-03 4.03850E-04-3.08795E-14
 -1      3754 6.16224E-03 3.92431E-04-3.36417E-14
 -1      3755 6.89719E-03 4.99682E-04-4.40064E-14
 -1      3756 6.76003E-03 4.84987E-04-4.20152E-14
 -1      3757 6.69360E-03 4.46891E-04-4.11479E-14
 -1      3758 7.17333E-03 5.29215E-04-4.81029E-14
 -1      3759 7.03494E-03 5.14425E-04-4.60362E-14
 -1      3760 6.96497E-03 4.75416E-04-4.51329E-14
 -1      3761 7.45165E-03 5.58598E-04-5.23448E-14
 -1      3762 7.31223E-03 5.43938E-04-5.02053E-14
 -1      3763 7.23945E-03 5.04108E-04-4.92664E-14
 -1      3764 7.73176E-03 5.87501E-04-5.67271E-14
 -1      3765 7.59149E-03 5.73116E-04-5.45191E-14
 -1      3766 7.51652E-03 5.32589E-04-5.35448E-14
 -1      3767 8.01332E-03 6.15728E-04-6.12444E-14
 -1      3768 7.87237E-03 6.01700E-04-5.89682E-14
 -1      3769 7.79570E-03 5.60606E-04-5.79635E-14
 -1      3770 8.29601E-03 6.43191E-04-6.58899E-14
 -1      3771 8.15453E-03 6.29553E-04-6.35518E-14
 -1      3772 8.07655E-03 5.88010E-04-6.25150E-14
 -1      3773 8.57957E-03 6.69879E-04-7.06563E-14
 -1      3774 8.43769E-03 6.56628E-04-6.82579E-14
 -1      3775 8.35872E-03 6.14739E-04-6.71918E-14
 -1      3776 8.86379E-03 6.95831E-04-7.55412E-14
 -1      3777 8.72160E-03 6.82942E-04-7.30833E-14
 -1      3778 8.64190E-03 6.40792E-04-7.19887E-14
 -1      3779 9.14850E-03 7.21115E-04-8.05445E-14
 -1      3780 9.00609E-03 7.08550E-04-7.80292E-14
 -1      3781 8.92586E-03 6.66208E-04-7.69039E-14
 -1      3782 9.43356E-03 7.45813E-04-8.56610E-14
 -1      3783 9.29099E-03 7.33531E-04-8.30887E-14
 -1      3784 9.21038E-03 6.91049E-04-8.19367E-14
 -1      3785 9.71889E-03 7.70015E-04-9.08877E-14
 -1      3786 9.57620E-03 7.57971E-04-8.82595E-14
 -1      3787 9.49533E-03 7.15389E-04-8.70802E-14
 -1      3788 1.00044E-02 7.93804E-04-9.62213E-14
 -1      3789 9.86162E-03 7.81956E-04-9.35428E-14
 -1      3790 9.78057E-03 7.39306E-04-9.23340E-14
 -1      3791 1.02900E-02 8.17257E-04-1.01656E-13
 -1      3792 1.01472E-02 8.05568E-04-9.89266E-14
 -1      3793 1.00660E-02 7.62872E-04-9.76930E-14
 -1      3794 1.05757E-02 8.40443E-04-1.07188E-13
 -1      3795 1.04329E-02 8.28880E-04-1.04409E-13
 -1      3796 1.03516E-02 7.86155E-04-1.03152E-13
 -1      3797 1.08615E-02 8.63420E-04-1.12813E-13
 -1      3798 1.07186E-02 8.51955E-04-1.09989E-13
 -1      3799 1.06373E-02 8.09213E-04-1.08706E-13
 -1      3800 1.11472E-02 8.86237E-04-1.18532E-13
 -1      3801 1.10043E-02 8.74846E-04-1.15662E-13
 -1      3802 1.09231E-02 8.32095E-04-1.14356E-13
 -1      3803 1.14330E-02 9.08933E-04-1.24340E-13
 -1      3804 1.12901E-02 8.97598E-04-1.21425E-13
 -1      3805 1.12089E-02 8.54843E-04-1.20098E-13
 -1      3806 1.17188E-02 9.31539E-04-1.30228E-13
 -1      3807 1.15759E-02 9.20245E-04-1.27273E-13
 -1      3808 1.14947E-02 8.77490E-04-1.25924E-13
 -1      3809 1.20046E-02 9.54081E-04-1.36191E-13
 -1      3810 1.18617E-02 9.42817E-04-1.33202E-13
 -1      3811 1.17805E-02 9.00064E-04-1.31830E-13
 -1      3812 1.22904E-02 9.76578E-04-1.42221E-13
 -1      3813 1.21475E-02 9.65334E-04-1.39198E-13
 -1      3814 1.20663E-02 9.22584E-04-1.37811E-13
 -1      3815 1.25762E-02 9.99043E-04-1.48305E-13
 -1      3816 1.24333E-02 9.87814E-04-1.45257E-13
 -1      3817 1.23520E-02 9.45067E-04-1.43854E-13
 -1      3818 1.28619E-02 1.02149E-03-1.54450E-13
 -1      3819 1.27190E-02 1.01027E-03-1.51371E-13
 -1      3820 1.26378E-02 9.67525E-04-1.49953E-13
 -1      3821 1.31477E-02 1.04392E-03-1.60648E-13
 -1      3822 1.30048E-02 1.03271E-03-1.57543E-13
 -1      3823 1.29236E-02 9.89967E-04-1.56109E-13
 -1      3824 1.34334E-02 1.06635E-03-1.66898E-13
 -1      3825 1.32905E-02 1.05514E-03-1.63765E-13
 -1      3826 1.32094E-02 1.01240E-03-1.62320E-13
 -1      3827 1.35463E-02 7.19045E-04-1.72412E-13
 -1      3828 1.35573E-02 7.61209E-04-1.72322E-13
 -1      3829 1.34083E-02 7.05727E-04-1.69387E-13
 -1      3830 1.36481E-02 1.06262E-03-1.71807E-13
 -1      3831 1.35397E-02 1.06463E-03-1.69326E-13
 -1      3832 1.34585E-02 1.02189E-03-1.67867E-13
 -1      3833 1.36711E-02 1.01845E-03-1.72729E-13
 -1      3834 1.38607E-02 9.31284E-04-1.77817E-13
 -1      3835 1.38766E-02 9.68587E-04-1.77857E-13
 -1      3836 1.37615E-02 9.79427E-04-1.75134E-13
 -1      3837 6.02909E-04 5.44046E-05-1.49199E-15
 -1      3838 5.14312E-03 3.63746E-04-2.11180E-14
 -1      3839 5.14392E-03 3.13668E-04-2.05180E-14
 -1      3840 5.23318E-03 2.93926E-04-2.12415E-14
 -1      3841 5.28101E-03 3.65488E-04-2.26410E-14
 -1      3842 5.39299E-03 1.85415E-04-2.23268E-14
 -1      3843 5.36569E-03 1.64254E-04-2.24469E-14
 -1      3844 5.30219E-03 2.17121E-04-2.08119E-14
 -1      3845 5.36164E-03 2.04649E-04-2.15910E-14
 -1      3846 5.31265E-03 2.38218E-04-2.13340E-14
 -1      3847 5.20316E-03 8.23598E-05-2.23503E-14
 -1      3848 5.90294E-03 3.67728E-04-3.01241E-14
 -1      3849 5.81960E-03 3.92576E-04-2.91608E-14
 -1      3850 5.68728E-03 3.82382E-04-2.74814E-14
 -1      3851 5.43685E-03 1.58542E-04-2.37984E-14
 -1      3852 5.33176E-03 1.40877E-04-2.26150E-14
 -1      3853 1.34304E-02 7.90058E-04-1.69209E-13
 -1      3854 1.35684E-02 8.03374E-04-1.72231E-13
 -1      3855 1.35794E-02 8.45538E-04-1.72134E-13
 -1      3856 1.36552E-02 9.81148E-04-1.72695E-13
 -1      3857 1.35489E-02 9.82869E-04-1.70264E-13
 -1      3858 1.36393E-02 9.43844E-04-1.72659E-13
 -1      3859 5.43601E-03 2.01403E-04-2.28758E-14
 -1      3860 5.50862E-03 1.97128E-04-2.41852E-14
 -1      3861 5.47076E-03 2.18300E-04-2.34254E-14
 -1      3862 5.24242E-03 1.09331E-04-2.22124E-14
 -1      3863 1.37315E-02 9.00489E-04-1.75134E-13
 -1      3864 5.55517E-03 3.73418E-04-2.58399E-14
 -1      3865 5.42214E-03 3.66155E-04-2.42382E-14
 -1      3866 5.64771E-03 3.45634E-04-2.67607E-14
 -1      3867 5.38847E-03 3.31236E-04-2.35187E-14
 -1      3868 5.53986E-03 1.75907E-04-2.50769E-14
 -1      3869 5.51819E-03 1.52822E-04-2.52540E-14
 -1      3870 5.48555E-03 3.04248E-04-2.44015E-14
 -1      3871 5.35971E-03 2.98424E-04-2.28023E-14
 -1      3872 5.33558E-03 2.66985E-04-2.20863E-14
 -1      3873 1.34426E-02 9.84590E-04-1.67837E-13
 -1      3874 1.33363E-02 9.86311E-04-1.65416E-13
 -1      3875 1.34267E-02 9.47286E-04-1.67803E-13
 -1      3876 5.68909E-03 1.30324E-04-2.83147E-14
 -1      3877 5.81053E-03 1.36486E-04-3.00137E-14
 -1      3878 5.93369E-03 1.43278E-04-3.17506E-14
 -1      3879 6.05875E-03 1.50334E-04-3.35261E-14
 -1      3880 5.89635E-03 1.66332E-04-3.08407E-14
 -1      3881 6.18530E-03 1.57852E-04-3.53404E-14
 -1      3882 6.31346E-03 1.65597E-04-3.71927E-14
 -1      3883 6.14186E-03 1.81118E-04-3.43891E-14
 -1      3884 6.44295E-03 1.73689E-04-3.90835E-14
 -1      3885 6.57380E-03 1.81955E-04-4.10131E-14
 -1      3886 6.39509E-03 1.97555E-04-3.80909E-14
 -1      3887 6.70580E-03 1.90494E-04-4.29795E-14
 -1      3888 6.83895E-03 1.99185E-04-4.49843E-14
 -1      3889 6.65464E-03 2.15146E-04-4.19457E-14
 -1      3890 6.97310E-03 2.08103E-04-4.70269E-14
 -1      3891 7.10821E-03 2.17158E-04-4.91044E-14
 -1      3892 6.91942E-03 2.33632E-04-4.59524E-14
 -1      3893 7.24417E-03 2.26409E-04-5.12191E-14
 -1      3894 7.38095E-03 2.35785E-04-5.33703E-14
 -1      3895 7.18855E-03 2.52832E-04-5.01076E-14
 -1      3896 7.51843E-03 2.45333E-04-5.55554E-14
 -1      3897 7.65658E-03 2.54996E-04-5.77743E-14
 -1      3898 7.46129E-03 2.72612E-04-5.44055E-14
 -1      3899 7.79532E-03 2.64809E-04-6.00267E-14
 -1      3900 7.93459E-03 2.74728E-04-6.23103E-14
 -1      3901 7.73699E-03 2.92875E-04-5.88412E-14
 -1      3902 8.07435E-03 2.84779E-04-6.46259E-14
 -1      3903 8.21453E-03 2.94925E-04-6.69758E-14
 -1      3904 8.01511E-03 3.13540E-04-6.34081E-14
 -1      3905 8.35510E-03 3.05185E-04-6.93559E-14
 -1      3906 8.49600E-03 3.15532E-04-7.17649E-14
 -1      3907 8.29516E-03 3.34543E-04-6.81021E-14
 -1      3908 8.63720E-03 3.25974E-04-7.42046E-14
 -1      3909 8.77867E-03 3.36492E-04-7.66744E-14
 -1      3910 8.57673E-03 3.55831E-04-7.29192E-14
 -1      3911 8.92036E-03 3.47091E-04-7.91720E-14
 -1      3912 9.06225E-03 3.57755E-04-8.16979E-14
 -1      3913 8.85949E-03 3.77356E-04-7.78534E-14
 -1      3914 9.20431E-03 3.68486E-04-8.42517E-14
 -1      3915 9.34653E-03 3.79272E-04-8.68305E-14
 -1      3916 9.14315E-03 3.99078E-04-8.29044E-14
 -1      3917 9.48886E-03 3.90113E-04-8.94357E-14
 -1      3918 9.63131E-03 4.01000E-04-9.20671E-14
 -1      3919 9.42749E-03 4.20961E-04-8.80618E-14
 -1      3920 9.77385E-03 4.11930E-04-9.47236E-14
 -1      3921 9.91646E-03 4.22898E-04-9.74056E-14
 -1      3922 9.71232E-03 4.42975E-04-9.33221E-14
 -1      3923 1.00591E-02 4.33901E-04-1.00112E-13
 -1      3924 1.02019E-02 4.44933E-04-1.02844E-13
 -1      3925 9.99751E-03 4.65094E-04-9.86838E-14
 -1      3926 1.03446E-02 4.55993E-04-1.05600E-13
 -1      3927 1.04875E-02 4.67077E-04-1.08382E-13
 -1      3928 1.02830E-02 4.87296E-04-1.04145E-13
 -1      3929 1.06303E-02 4.78181E-04-1.11187E-13
 -1      3930 1.07732E-02 4.89304E-04-1.14015E-13
 -1      3931 1.05686E-02 5.09563E-04-1.09708E-13
 -1      3932 1.09160E-02 5.00443E-04-1.16865E-13
 -1      3933 1.10589E-02 5.11596E-04-1.19738E-13
 -1      3934 1.08543E-02 5.31881E-04-1.15364E-13
 -1      3935 1.12018E-02 5.22760E-04-1.22628E-13
 -1      3936 1.13447E-02 5.33936E-04-1.25538E-13
 -1      3937 1.11401E-02 5.54236E-04-1.21107E-13
 -1      3938 1.14876E-02 5.45120E-04-1.28468E-13
 -1      3939 1.16305E-02 5.56311E-04-1.31418E-13
 -1      3940 1.14259E-02 5.76620E-04-1.26928E-13
 -1      3941 1.17735E-02 5.67509E-04-1.34385E-13
 -1      3942 1.19164E-02 5.78712E-04-1.37372E-13
 -1      3943 1.17117E-02 5.99024E-04-1.32827E-13
 -1      3944 1.20593E-02 5.89920E-04-1.40376E-13
 -1      3945 1.22022E-02 6.01132E-04-1.43395E-13
 -1      3946 1.19975E-02 6.21443E-04-1.38800E-13
 -1      3947 1.23451E-02 6.12346E-04-1.46431E-13
 -1      3948 1.24880E-02 6.23563E-04-1.49482E-13
 -1      3949 1.22833E-02 6.43873E-04-1.44839E-13
 -1      3950 1.26309E-02 6.34782E-04-1.52547E-13
 -1      3951 1.27738E-02 6.46003E-04-1.55624E-13
 -1      3952 1.25692E-02 6.66309E-04-1.50940E-13
 -1      3953 1.29167E-02 6.57224E-04-1.58717E-13
 -1      3954 1.30596E-02 6.68447E-04-1.61826E-13
 -1      3955 1.28550E-02 6.88751E-04-1.57097E-13
 -1      3956 1.31650E-02 6.80427E-04-1.64095E-13
 -1      3957 1.33029E-02 6.93746E-04-1.67098E-13
 -1      3958 1.33140E-02 7.35912E-04-1.67011E-13
 -1      3959 1.31032E-02 7.11952E-04-1.62459E-13
 -1      3960 6.49544E-03 3.96633E-04-3.83660E-14
 -1      3961 6.36444E-03 3.83327E-04-3.64892E-14
 -1      3962 6.23487E-03 3.70374E-04-3.46497E-14
 -1      3963 6.10665E-03 3.57678E-04-3.28497E-14
 -1      3964 6.30315E-03 3.49119E-04-3.56605E-14
 -1      3965 7.30414E-03 4.79108E-04-5.04322E-14
 -1      3966 7.16707E-03 4.65251E-04-4.83289E-14
 -1      3967 7.58035E-03 5.06598E-04-5.47504E-14
 -1      3968 7.44191E-03 4.92882E-04-5.25746E-14
 -1      3969 7.36752E-03 4.54015E-04-5.16032E-14
 -1      3970 7.85888E-03 5.33678E-04-5.92021E-14
 -1      3971 7.71935E-03 5.20189E-04-5.69594E-14
 -1      3972 7.64321E-03 4.80474E-04-5.59571E-14
 -1      3973 8.13925E-03 5.60232E-04-6.37869E-14
 -1      3974 7.99885E-03 5.47018E-04-6.14785E-14
 -1      3975 7.92136E-03 5.06602E-04-6.04438E-14
 -1      3976 8.42107E-03 5.86215E-04-6.84945E-14
 -1      3977 8.28000E-03 5.73291E-04-6.61255E-14
 -1      3978 8.20146E-03 5.32307E-04-6.50598E-14
 -1      3979 8.70400E-03 6.11629E-04-7.33224E-14
 -1      3980 8.56241E-03 5.98988E-04-7.08943E-14
 -1      3981 8.48307E-03 5.57553E-04-6.97994E-14
 -1      3982 8.98777E-03 6.36512E-04-7.82682E-14
 -1      3983 8.84579E-03 6.24132E-04-7.57796E-14
 -1      3984 8.76586E-03 5.82344E-04-7.46570E-14
 -1      3985 9.27217E-03 6.60916E-04-8.33295E-14
 -1      3986 9.12990E-03 6.48769E-04-8.07841E-14
 -1      3987 9.04954E-03 6.06710E-04-7.96322E-14
 -1      3988 9.55704E-03 6.84907E-04-8.85005E-14
 -1      3989 9.41456E-03 6.72959E-04-8.59022E-14
 -1      3990 9.33388E-03 6.30695E-04-8.47232E-14
 -1      3991 9.84224E-03 7.08547E-04-9.37834E-14
 -1      3992 9.69960E-03 6.96766E-04-9.11286E-14
 -1      3993 9.61871E-03 6.54351E-04-8.99251E-14
 -1      3994 1.01277E-02 7.31900E-04-9.91655E-14
 -1      3995 9.98493E-03 7.20256E-04-9.64613E-14
 -1      3996 9.90389E-03 6.77729E-04-9.52313E-14
 -1      3997 1.04133E-02 7.55019E-04-1.04648E-13
 -1      3998 1.02704E-02 7.43485E-04-1.01895E-13
 -1      3999 1.01893E-02 7.00879E-04-1.00638E-13
 -1      4000 1.06990E-02 7.77955E-04-1.10226E-13
 -1      4001 1.05561E-02 7.66508E-04-1.07425E-13
 -1      4002 1.04749E-02 7.23846E-04-1.06144E-13
 -1      4003 1.09847E-02 8.00748E-04-1.15901E-13
 -1      4004 1.08418E-02 7.89367E-04-1.13052E-13
 -1      4005 1.07606E-02 7.46669E-04-1.11749E-13
 -1      4006 1.12705E-02 8.23432E-04-1.21663E-13
 -1      4007 1.11276E-02 8.12102E-04-1.18770E-13
 -1      4008 1.10464E-02 7.69380E-04-1.17445E-13
 -1      4009 1.15563E-02 8.46035E-04-1.27509E-13
 -1      4010 1.14134E-02 8.34743E-04-1.24577E-13
 -1      4011 1.13322E-02 7.92006E-04-1.23227E-13
 -1      4012 1.18421E-02 8.68579E-04-1.33433E-13
 -1      4013 1.16992E-02 8.57313E-04-1.30460E-13
 -1      4014 1.16180E-02 8.14569E-04-1.29092E-13
 -1      4015 1.21279E-02 8.91080E-04-1.39429E-13
 -1      4016 1.19850E-02 8.79834E-04-1.36423E-13
 -1      4017 1.19038E-02 8.37086E-04-1.35034E-13
 -1      4018 1.24137E-02 9.13552E-04-1.45485E-13
 -1      4019 1.22708E-02 9.02319E-04-1.42450E-13
 -1      4020 1.21896E-02 8.59570E-04-1.41046E-13
 -1      4021 1.26995E-02 9.36004E-04-1.51600E-13
 -1      4022 1.25566E-02 9.24780E-04-1.48537E-13
 -1      4023 1.24754E-02 8.82032E-04-1.47117E-13
 -1      4024 1.29853E-02 9.58443E-04-1.57767E-13
 -1      4025 1.28424E-02 9.47225E-04-1.54674E-13
 -1      4026 1.27612E-02 9.04480E-04-1.53242E-13
 -1      4027 1.31934E-02 9.75096E-04-1.62293E-13
 -1      4028 6.76101E-03 4.23788E-04-4.22381E-14
 -1      4029 6.62762E-03 4.10096E-04-4.02827E-14
 -1      4030 6.56178E-03 3.74617E-04-3.94193E-14
 -1      4031 5.37703E-03 1.10993E-04-2.41131E-14
 -1      4032 1.36023E-02 8.73873E-04-1.72415E-13
 -1      4033 1.36164E-02 9.15510E-04-1.72383E-13
 -1      4034 1.35101E-02 9.17230E-04-1.69952E-13
 -1      4035 1.34643E-02 8.60560E-04-1.69395E-13
 -1      4036 7.03081E-03 4.51407E-04-4.62618E-14
 -1      4037 6.89541E-03 4.37542E-04-4.42312E-14
 -1      4038 6.82602E-03 4.00817E-04-4.33306E-14
 -1      4039 5.41959E-03 2.46450E-04-2.28962E-14
 -1      4040 5.49461E-03 1.16341E-04-2.57145E-14
 -1      4041 5.98008E-03 3.45441E-04-3.10894E-14
 -1      4042 5.85500E-03 3.33508E-04-2.93681E-14
 -1      4043 6.05127E-03 3.24612E-04-3.20584E-14
 -1      4044 5.61345E-03 1.37621E-04-2.70393E-14
 -1      4045 5.70001E-03 1.65746E-04-2.78326E-14
 -1      4046 1.32196E-02 7.66100E-04-1.64641E-13
 -1      4047 1.33250E-02 7.78079E-04-1.66923E-13
 -1      4048 1.33360E-02 8.20246E-04-1.66828E-13
 -1      4049 1.31122E-02 9.32354E-04-1.60840E-13
 -1      4050 5.51475E-03 2.41939E-04-2.42146E-14
 -1      4051 7.09488E-03 4.27384E-04-4.73926E-14
 -1      4052 5.72999E-03 3.23752E-04-2.76681E-14
 -1      4053 5.60803E-03 3.12838E-04-2.60237E-14
 -1      4054 5.56830E-03 2.83534E-04-2.52716E-14
 -1      4055 5.80616E-03 3.02829E-04-2.85959E-14
 -1      4056 5.59475E-03 1.94305E-04-2.56553E-14
 -1      4057 5.66022E-03 2.19841E-04-2.64403E-14
 -1      4058 5.70370E-03 1.98130E-04-2.73674E-14
 -1      4059 1.34038E-02 9.18951E-04-1.67530E-13
 -1      4060 1.32975E-02 9.20671E-04-1.65113E-13
 -1      4061 1.33809E-02 8.90615E-04-1.67254E-13
 -1      4062 6.09696E-03 2.03003E-04-3.34400E-14
 -1      4063 6.22054E-03 2.11415E-04-3.52511E-14
 -1      4064 6.34610E-03 2.20299E-04-3.71012E-14
 -1      4065 6.47355E-03 2.29388E-04-3.89896E-14
 -1      4066 6.29554E-03 2.41926E-04-3.61139E-14
 -1      4067 6.60261E-03 2.38831E-04-4.09152E-14
 -1      4068 6.73318E-03 2.48440E-04-4.28793E-14
 -1      4069 6.54935E-03 2.61566E-04-3.98876E-14
 -1      4070 6.86508E-03 2.58315E-04-4.48821E-14
 -1      4071 6.99821E-03 2.68315E-04-4.69212E-14
 -1      4072 6.80981E-03 2.82167E-04-4.38137E-14
 -1      4073 7.13243E-03 2.78514E-04-4.89979E-14
 -1      4074 7.26766E-03 2.88808E-04-5.11099E-14
 -1      4075 7.07562E-03 3.03466E-04-4.78903E-14
 -1      4076 7.40379E-03 2.99250E-04-5.32573E-14
 -1      4077 7.54074E-03 3.09765E-04-5.54412E-14
 -1      4078 7.34579E-03 3.25251E-04-5.21128E-14
 -1      4079 7.67842E-03 3.20391E-04-5.76570E-14
 -1      4080 7.81677E-03 3.31072E-04-5.99072E-14
 -1      4081 7.61950E-03 3.47359E-04-5.64759E-14
 -1      4082 7.95571E-03 3.41838E-04-6.21902E-14
 -1      4083 8.09518E-03 3.52646E-04-6.45041E-14
 -1      4084 7.89607E-03 3.69671E-04-6.09729E-14
 -1      4085 8.23512E-03 3.63518E-04-6.68503E-14
 -1      4086 8.37548E-03 3.74423E-04-6.92279E-14
 -1      4087 8.17492E-03 3.92105E-04-6.56019E-14
 -1      4088 8.51621E-03 3.85376E-04-7.16353E-14
 -1      4089 8.65726E-03 3.96355E-04-7.40711E-14
 -1      4090 8.45558E-03 4.14603E-04-7.03521E-14
 -1      4091 8.79860E-03 4.07372E-04-7.65384E-14
 -1      4092 8.94018E-03 4.18408E-04-7.90336E-14
 -1      4093 8.73765E-03 4.37130E-04-7.52233E-14
 -1      4094 9.08199E-03 4.29473E-04-8.15574E-14
 -1      4095 9.22398E-03 4.40554E-04-8.41091E-14
 -1      4096 9.02080E-03 4.59665E-04-8.02121E-14
 -1      4097 9.36613E-03 4.51657E-04-8.66862E-14
 -1      4098 9.50841E-03 4.62772E-04-8.92898E-14
 -1      4099 9.30476E-03 4.82194E-04-8.53122E-14
 -1      4100 9.65082E-03 4.73904E-04-9.19200E-14
 -1      4101 9.79332E-03 4.85047E-04-9.45759E-14
 -1      4102 9.58932E-03 5.04712E-04-9.05193E-14
 -1      4103 9.93591E-03 4.96201E-04-9.72562E-14
 -1      4104 1.00786E-02 5.07364E-04-9.99612E-14
 -1      4105 9.87432E-03 5.27217E-04-9.58292E-14
 -1      4106 1.02213E-02 5.18536E-04-1.02692E-13
 -1      4107 1.03640E-02 5.29715E-04-1.05448E-13
 -1      4108 1.01596E-02 5.49709E-04-1.01240E-13
 -1      4109 1.05068E-02 5.40901E-04-1.08228E-13
 -1      4110 1.06497E-02 5.52092E-04-1.11033E-13
 -1      4111 1.04452E-02 5.72189E-04-1.06750E-13
 -1      4112 1.07925E-02 5.63287E-04-1.13862E-13
 -1      4113 1.09354E-02 5.74487E-04-1.16712E-13
 -1      4114 1.07308E-02 5.94660E-04-1.12359E-13
 -1      4115 1.10783E-02 5.85691E-04-1.19584E-13
 -1      4116 1.12212E-02 5.96897E-04-1.22476E-13
 -1      4117 1.10166E-02 6.17122E-04-1.18060E-13
 -1      4118 1.13641E-02 6.08106E-04-1.25387E-13
 -1      4119 1.15070E-02 6.19318E-04-1.28318E-13
 -1      4120 1.13024E-02 6.39578E-04-1.23845E-13
 -1      4121 1.16499E-02 6.30531E-04-1.31269E-13
 -1      4122 1.17929E-02 6.41746E-04-1.34238E-13
 -1      4123 1.15882E-02 6.62029E-04-1.29708E-13
 -1      4124 1.19358E-02 6.52962E-04-1.37224E-13
 -1      4125 1.20787E-02 6.64180E-04-1.40228E-13
 -1      4126 1.18740E-02 6.84476E-04-1.35648E-13
 -1      4127 1.22216E-02 6.75398E-04-1.43247E-13
 -1      4128 1.23645E-02 6.86617E-04-1.46282E-13
 -1      4129 1.21599E-02 7.06921E-04-1.41656E-13
 -1      4130 1.25074E-02 6.97837E-04-1.49333E-13
 -1      4131 1.26503E-02 7.09057E-04-1.52396E-13
 -1      4132 1.24457E-02 7.29364E-04-1.47726E-13
 -1      4133 1.27932E-02 7.20278E-04-1.55476E-13
 -1      4134 1.29361E-02 7.31499E-04-1.58568E-13
 -1      4135 1.27315E-02 7.51806E-04-1.53853E-13
 -1      4136 1.30252E-02 7.42810E-04-1.60469E-13
 -1      4137 1.31306E-02 7.54789E-04-1.62731E-13
 -1      4138 1.31416E-02 7.96957E-04-1.62640E-13
 -1      4139 1.29634E-02 7.74337E-04-1.58835E-13
 -1      4140 6.36738E-03 3.28357E-04-3.66756E-14
 -1      4141 6.24112E-03 3.16408E-04-3.48339E-14
 -1      4142 6.88884E-03 3.77836E-04-4.44254E-14
 -1      4143 6.75632E-03 3.65213E-04-4.24312E-14
 -1      4144 7.70520E-03 4.54166E-04-5.71633E-14
 -1      4145 7.56709E-03 4.41471E-04-5.49527E-14
 -1      4146 7.42969E-03 4.28757E-04-5.27765E-14
 -1      4147 7.29306E-03 4.15988E-04-5.06330E-14
 -1      4148 7.49084E-03 4.03183E-04-5.39494E-14
 -1      4149 8.26322E-03 5.04208E-04-6.63335E-14
 -1      4150 8.12300E-03 4.91809E-04-6.39937E-14
 -1      4151 8.54478E-03 5.28735E-04-7.11035E-14
 -1      4152 8.40383E-03 5.16510E-04-6.87037E-14
 -1      4153 8.32461E-03 4.75872E-04-6.76088E-14
 -1      4154 8.82753E-03 5.52923E-04-7.59937E-14
 -1      4155 8.68602E-03 5.40867E-04-7.35345E-14
 -1      4156 8.60622E-03 4.99714E-04-7.24106E-14
 -1      4157 9.11118E-03 5.76792E-04-8.09999E-14
 -1      4158 8.96926E-03 5.64893E-04-7.84817E-14
 -1      4159 8.88902E-03 5.23331E-04-7.73318E-14
 -1      4160 9.39552E-03 6.00377E-04-8.61198E-14
 -1      4161 9.25328E-03 5.88617E-04-8.35460E-14
 -1      4162 9.17272E-03 5.46735E-04-8.23694E-14
 -1      4163 9.68034E-03 6.23716E-04-9.13487E-14
 -1      4164 9.53788E-03 6.12074E-04-8.87218E-14
 -1      4165 9.45709E-03 5.69947E-04-8.75191E-14
 -1      4166 9.96553E-03 6.46847E-04-9.66789E-14
 -1      4167 9.82290E-03 6.35304E-04-9.40006E-14
 -1      4168 9.74195E-03 5.92991E-04-9.27718E-14
 -1      4169 1.02510E-02 6.69809E-04-1.02111E-13
 -1      4170 1.01082E-02 6.58347E-04-9.93826E-14
 -1      4171 1.00272E-02 6.15896E-04-9.81276E-14
 -1      4172 1.05366E-02 6.92634E-04-1.07644E-13
 -1      4173 1.03937E-02 6.81237E-04-1.04866E-13
 -1      4174 1.03126E-02 6.38685E-04-1.03585E-13
 -1      4175 1.08223E-02 7.15353E-04-1.13270E-13
 -1      4176 1.06794E-02 7.04006E-04-1.10444E-13
 -1      4177 1.05982E-02 6.61383E-04-1.09142E-13
 -1      4178 1.11080E-02 7.37989E-04-1.18989E-13
 -1      4179 1.09651E-02 7.26680E-04-1.16120E-13
 -1      4180 1.08839E-02 6.84008E-04-1.14792E-13
 -1      4181 1.13938E-02 7.60563E-04-1.24791E-13
 -1      4182 1.12509E-02 7.49283E-04-1.21879E-13
 -1      4183 1.11697E-02 7.06578E-04-1.20533E-13
 -1      4184 1.16797E-02 7.83091E-04-1.30676E-13
 -1      4185 1.15367E-02 7.71832E-04-1.27726E-13
 -1      4186 1.14555E-02 7.29106E-04-1.26356E-13
 -1      4187 1.19655E-02 8.05585E-04-1.36635E-13
 -1      4188 1.18226E-02 7.94341E-04-1.33646E-13
 -1      4189 1.17414E-02 7.51603E-04-1.32257E-13
 -1      4190 1.22513E-02 8.28055E-04-1.42659E-13
 -1      4191 1.21084E-02 8.16823E-04-1.39639E-13
 -1      4192 1.20272E-02 7.74077E-04-1.38232E-13
 -1      4193 1.25371E-02 8.50510E-04-1.48745E-13
 -1      4194 1.23942E-02 8.39284E-04-1.45694E-13
 -1      4195 1.23130E-02 7.96537E-04-1.44271E-13
 -1      4196 1.28229E-02 8.72954E-04-1.54880E-13
 -1      4197 1.26800E-02 8.61733E-04-1.51807E-13
 -1      4198 1.25988E-02 8.18985E-04-1.50368E-13
 -1      4199 5.62305E-03 2.51314E-04-2.58315E-14
 -1      4200 7.15732E-03 4.03249E-04-4.85267E-14
 -1      4201 7.02253E-03 3.90493E-04-4.64589E-14
 -1      4202 7.21837E-03 3.78796E-04-4.96653E-14
 -1      4203 7.98322E-03 4.79341E-04-6.16858E-14
 -1      4204 7.84393E-03 4.66779E-04-5.94082E-14
 -1      4205 7.76644E-03 4.27559E-04-5.83728E-14
 -1      4206 8.04454E-03 4.51810E-04-6.29283E-14
 -1      4207 5.83692E-03 1.79883E-04-2.97268E-14
 -1      4208 5.95565E-03 1.87095E-04-3.14560E-14
 -1      4209 6.03122E-03 2.15653E-04-3.22838E-14
 -1      4210 5.75837E-03 1.85135E-04-2.84218E-14
 -1      4211 6.62515E-03 3.52775E-04-4.04742E-14
 -1      4212 6.49543E-03 3.40423E-04-3.85555E-14
 -1      4213 6.42813E-03 3.07488E-04-3.76933E-14
 -1      4214 6.68598E-03 3.30707E-04-4.15330E-14
 -1      4215 6.94977E-03 3.54564E-04-4.55236E-14
 -1      4216 5.73921E-03 2.57665E-04-2.75513E-14
 -1      4217 5.83383E-03 2.12835E-04-2.92456E-14
 -1      4218 6.11699E-03 3.04838E-04-3.30312E-14
 -1      4219 5.99512E-03 2.93357E-04-3.12678E-14
 -1      4220 6.17777E-03 2.85165E-04-3.40071E-14
 -1      4221 1.33470E-02 8.41262E-04-1.66903E-13
 -1      4222 1.33699E-02 8.69599E-04-1.67183E-13
 -1      4223 1.32636E-02 8.71319E-04-1.64770E-13
 -1      4224 1.32416E-02 8.29285E-04-1.64624E-13
 -1      4225 1.32072E-02 9.03596E-04-1.63222E-13
 -1      4226 1.29991E-02 8.86942E-04-1.58692E-13
 -1      4227 1.29179E-02 8.44196E-04-1.57239E-13
 -1      4228 8.95497E-03 4.91611E-04-7.87710E-14
 -1      4229 8.81337E-03 4.80096E-04-7.62788E-14
 -1      4230 6.49006E-03 2.84916E-04-3.87892E-14
 -1      4231 6.61867E-03 2.95713E-04-4.07111E-14
 -1      4232 6.74887E-03 3.06795E-04-4.26712E-14
 -1      4233 6.88050E-03 3.17974E-04-4.46694E-14
 -1      4234 7.01342E-03 3.29346E-04-4.67055E-14
 -1      4235 7.14750E-03 3.40773E-04-4.87779E-14
 -1      4236 7.28262E-03 3.52325E-04-5.08879E-14
 -1      4237 7.41867E-03 3.63897E-04-5.30321E-14
 -1      4238 7.55556E-03 3.75539E-04-5.52109E-14
 -1      4239 7.69321E-03 3.87178E-04-5.74250E-14
 -1      4240 7.83154E-03 3.98849E-04-5.96717E-14
 -1      4241 7.97046E-03 4.10500E-04-6.19518E-14
 -1      4242 8.10993E-03 4.22158E-04-6.42634E-14
 -1      4243 8.24987E-03 4.33786E-04-6.66060E-14
 -1      4244 8.39023E-03 4.45406E-04-6.89785E-14
 -1      4245 8.53097E-03 4.56992E-04-7.13819E-14
 -1      4246 8.67203E-03 4.68561E-04-7.38158E-14
 -1      4247 9.09678E-03 5.03093E-04-8.12909E-14
 -1      4248 9.23877E-03 5.14554E-04-8.38405E-14
 -1      4249 9.38093E-03 5.25987E-04-8.64155E-14
 -1      4250 9.52322E-03 5.37400E-04-8.90182E-14
 -1      4251 9.66563E-03 5.48788E-04-9.16473E-14
 -1      4252 9.80814E-03 5.60159E-04-9.42992E-14
 -1      4253 9.95073E-03 5.71509E-04-9.69787E-14
 -1      4254 1.00934E-02 5.82844E-04-9.96831E-14
 -1      4255 1.02361E-02 5.94162E-04-1.02414E-13
 -1      4256 1.03789E-02 6.05468E-04-1.05169E-13
 -1      4257 1.05217E-02 6.16761E-04-1.07946E-13
 -1      4258 1.06645E-02 6.28043E-04-1.10748E-13
 -1      4259 1.08074E-02 6.39316E-04-1.13575E-13
 -1      4260 1.09502E-02 6.50581E-04-1.16427E-13
 -1      4261 1.10931E-02 6.61838E-04-1.19298E-13
 -1      4262 1.12360E-02 6.73089E-04-1.22188E-13
 -1      4263 1.13789E-02 6.84334E-04-1.25100E-13
 -1      4264 1.15218E-02 6.95574E-04-1.28033E-13
 -1      4265 1.16648E-02 7.06811E-04-1.30984E-13
 -1      4266 1.18077E-02 7.18044E-04-1.33953E-13
 -1      4267 1.19506E-02 7.29274E-04-1.36941E-13
 -1      4268 1.20935E-02 7.40502E-04-1.39943E-13
 -1      4269 1.22364E-02 7.51728E-04-1.42963E-13
 -1      4270 1.23793E-02 7.62952E-04-1.46000E-13
 -1      4271 1.25222E-02 7.74174E-04-1.49048E-13
 -1      4272 1.26651E-02 7.85396E-04-1.52110E-13
 -1      4273 1.28080E-02 7.96617E-04-1.55189E-13
 -1      4274 5.97863E-03 2.36479E-04-3.12784E-14
 -1      4275 6.11593E-03 2.53857E-04-3.32515E-14
 -1      4276 5.85481E-03 2.67014E-04-2.92469E-14
 -1      4277 6.23843E-03 2.63981E-04-3.50586E-14
 -1      4278 6.36324E-03 2.74252E-04-3.69050E-14
 -1      4279 5.91221E-03 2.48793E-04-3.01732E-14
 -1      4280 1.29842E-02 8.10606E-04-1.59000E-13
 -1      4281 1.31843E-02 8.75260E-04-1.62949E-13
 -1      4282 1.30733E-02 8.21916E-04-1.60902E-13
 -1      4283 1.31733E-02 8.54243E-04-1.62879E-13
 -1      4284 1.31623E-02 8.33225E-04-1.62806E-13
 -3
    1PSTEP                         2           1           1          
  100CL  101 1.000000000        4284                     0    1           1
 -4  STRESS      6    1
 -5  SXX         1    4    1    1
 -5  SYY         1    4    2    2
 -5  SZZ         1    4    3    3
 -5  SXY         1    4    1    2
 -5  SYZ         1    4    2    3
 -5  SZX         1    4    3    1
 -1         1 6.51972E+01 7.93206E-01 3.46624E+00 9.26601E-02-6.40356E-14-7.65332E-13
 -1         2-7.45963E-01-2.31381E+01-3.29249E+00-2.35704E-01 1.40543E-12 1.62554E-13
 -1         3 1.99998E+01 1.53277E-05-5.10583E-05 1.54343E-05-3.78862E-13-5.15527E-13
 -1         4 1.99998E+01 1.41514E-05-5.22434E-05-1.45389E-05-7.98148E-14 1.94546E-13
 -1         5 3.93970E+01 7.45799E+00 3.06024E+00 6.91455E+00-5.88418E-14 4.48545E-12
 -1         6 4.16429E+01 1.42127E+01 5.73263E+00-9.65820E+00-2.86368E-13 4.22096E-12
 -1         7 2.48902E+01 7.25334E+00-4.76082E-02-4.77985E+00-3.79696E-14 7.04454E-13
 -1         8 2.27561E+01 6.85337E+00 1.14401E-01-2.76311E+00-4.44506E-14-3.21580E-13
 -1         9 2.11946E+01 6.38834E+00 1.13754E-01-1.58640E+00-3.50830E-14-8.55004E-13
 -1        10 1.97451E+01 5.94917E+00 1.14239E-01-6.08176E-01-1.81521E-14-1.10624E-12
 -1        11 1.81838E+01 5.48042E+00 9.07208E-02 2.00452E-01-9.83935E-15-1.22998E-12
 -1        12 1.65354E+01 4.98894E+00 3.80157E-02 7.41774E-01 6.10623E-16-1.30023E-12
 -1        13 1.49348E+01 4.51481E+00-3.63600E-02 9.27297E-01 3.41394E-15-1.35364E-12
 -1        14 1.37545E+01 4.16646E+00-1.04947E-01 7.23169E-01 6.06112E-15-1.37881E-12
 -1        15 1.33444E+01 4.04639E+00-1.35444E-01 2.55217E-01 7.93029E-15-1.37434E-12
 -1        16 1.38697E+01 4.20299E+00-1.11894E-01-2.27269E-01 1.05402E-14-1.33291E-12
 -1        17 1.52138E+01 4.60130E+00-4.76116E-02-4.65310E-01 1.46341E-14-1.24092E-12
 -1        18 1.70229E+01 5.14041E+00 2.49814E-02-3.20587E-01 2.18991E-14-1.09943E-12
 -1        19 1.90439E+01 5.74426E+00 8.08823E-02 2.21438E-01 3.40838E-14-8.73513E-13
 -1        20 2.10817E+01 6.35687E+00 1.10436E-01 1.09651E+00 4.55191E-14-5.01013E-13
 -1        21 2.32223E+01 7.00207E+00 1.34338E-01 2.31058E+00 5.70793E-14 1.86053E-13
 -1        22 2.61402E+01 7.78702E+00 2.63417E-01 4.23657E+00 1.08247E-14 1.51262E-12
 -1        23 2.83060E+01-1.65812E+00-1.07806E+00-6.57160E-01-1.96954E-13 3.24407E-12
 -1        24 2.47416E+01-8.74811E-02-2.89467E-01 9.33896E-02-4.69134E-14 2.41005E-12
 -1        25 2.38610E+01-3.16509E-02-1.43381E-02 5.11387E-02-2.20576E-14 1.61530E-12
 -1        26 2.28958E+01 3.01958E-03 4.90471E-02-1.15995E-02-1.32070E-14 1.01081E-12
 -1        27 2.15943E+01 3.25660E-03 3.78837E-02-5.26606E-02-1.25400E-14 6.41291E-13
 -1        28 2.00449E+01-1.03787E-02-1.59381E-03-7.44287E-02 7.40076E-16 5.04020E-13
 -1        29 1.85961E+01-2.96146E-02-5.12901E-02-6.48762E-02 7.31208E-15 3.64334E-13
 -1        30 1.77185E+01-4.31075E-02-8.65968E-02-2.25465E-02-2.96724E-15 1.33357E-13
 -1        31 1.77502E+01-4.19691E-02-8.61768E-02 3.42050E-02 1.63649E-14-2.19148E-13
 -1        32 1.86790E+01-2.60242E-02-5.05532E-02 7.72523E-02-3.13319E-14-5.67296E-13
 -1        33 2.01439E+01-3.65916E-03-2.00029E-03 8.92429E-02 1.23222E-14-8.54858E-13
 -1        34 2.16495E+01 1.49760E-02 3.50922E-02 7.30773E-02 2.21016E-14-8.66012E-13
 -1        35 2.28095E+01 2.42287E-02 4.97258E-02 4.40423E-02-1.67683E-15-8.83408E-13
 -1        36 2.34598E+01 2.44286E-02 4.55141E-02 1.64943E-02-9.53361E-15-8.38608E-13
 -1        37 2.36277E+01 1.91675E-02 3.22650E-02-2.50390E-03-4.39284E-14-8.02488E-13
 -1        38 2.34402E+01 1.21643E-02 1.80360E-02-1.23708E-02 2.52771E-15-9.36655E-13
 -1        39 2.30428E+01 5.81830E-03 6.86789E-03-1.55434E-02-2.40464E-14-1.09317E-12
 -1        40 2.25555E+01 1.11600E-03-3.32192E-04-1.48560E-02 8.80168E-15-9.77247E-13
 -1        41 2.20606E+01-1.86509E-03-4.20310E-03-1.24421E-02 1.24626E-14-1.14739E-12
 -1        42 2.16057E+01-3.45217E-03-5.79027E-03-9.58643E-03-2.68853E-14-1.14696E-12
 -1        43 2.12136E+01-4.06318E-03-6.01511E-03-6.93314E-03-4.44591E-14-1.10751E-12
 -1        44 2.08904E+01-4.06350E-03-5.52973E-03-4.73435E-03-5.05439E-15-8.32806E-13
 -1        45 2.06334E+01-3.72456E-03-4.74137E-03-3.03529E-03-4.60670E-14-8.47659E-13
 -1        46 2.04349E+01-3.22881E-03-3.88159E-03-1.78769E-03 4.02467E-14-1.10324E-12
 -1        47 2.02857E+01-2.68952E-03-3.06998E-03-9.11018E-04-1.75564E-14-7.16629E-13
 -1        48 2.01765E+01-2.17147E-03-2.35988E-03-3.22012E-04 9.20971E-14-5.69258E-13
 -1        49 2.00989E+01-1.70765E-03-1.76773E-03 5.29348E-05 5.51396E-14-5.98865E-13
 -1        50 2.00455E+01-1.31131E-03-1.29072E-03 2.74035E-04-4.26853E-14-7.39469E-13
 -1        51 2.00102E+01-9.84070E-04-9.16925E-04 3.88256E-04-5.46741E-14-8.87276E-13
 -1        52 1.99882E+01-7.21268E-04-6.31022E-04 4.31007E-04 3.55291E-14-8.61905E-13
 -1        53 1.99757E+01-5.15212E-04-4.17334E-04 4.28243E-04 2.12007E-14-5.86793E-13
 -1        54 1.99697E+01-3.57189E-04-2.61354E-04 3.98484E-04 6.49485E-16-2.57942E-13
 -1        55 1.99680E+01-2.38614E-04-1.50412E-04 3.54565E-04-8.41511E-15-5.62727E-13
 -1        56 1.99690E+01-1.51631E-04-7.38665E-05 3.05083E-04 1.55436E-16-9.61716E-13
 -1        57 1.99716E+01-8.93938E-05-2.30367E-05 2.55540E-04-2.65923E-14-1.05455E-12
 -1        58 1.99750E+01-4.61377E-05 8.98983E-06 2.09232E-04 4.24586E-14-1.07612E-12
 -1        59 1.99787E+01-1.71396E-05 2.76012E-05 1.67926E-04-7.57241E-14-1.11079E-12
 -1        60 1.99822E+01 1.38301E-06 3.69146E-05 1.32362E-04 4.67221E-15-7.47299E-13
 -1        61 1.99856E+01 1.23993E-05 4.00168E-05 1.02621E-04 4.76096E-14-6.69896E-13
 -1        62 1.99885E+01 1.81998E-05 3.91800E-05 7.83878E-05-1.57293E-14-9.67298E-13
 -1        63 1.99911E+01 2.05257E-05 3.60504E-05 5.91257E-05-9.96795E-14-8.70944E-13
 -1        64 1.99933E+01 2.06866E-05 3.18146E-05 4.41987E-05-9.13783E-14-1.10906E-12
 -1        65 1.99951E+01 1.96666E-05 2.73570E-05 3.29337E-05 1.40758E-15-1.23918E-12
 -1        66 1.99965E+01 1.82066E-05 2.34185E-05 2.46190E-05 1.09998E-13-1.08175E-12
 -1        67 1.99977E+01 1.68605E-05 2.07338E-05 1.84237E-05-2.37976E-14-7.40409E-13
 -1        68 1.99986E+01 1.60095E-05 2.01375E-05 1.33008E-05-5.88752E-14-8.48660E-13
 -1        69 1.99993E+01 1.55923E-05 2.20215E-05 7.41968E-06 1.45447E-13-3.70567E-13
 -1        70 1.99997E+01 1.30826E-05 2.22036E-05-3.72701E-06-4.36341E-14 4.84595E-14
 -1        71 1.99999E+01-2.40741E-06 3.37508E-08-1.87094E-05 9.41555E-14 5.49013E-13
 -1        72 2.75352E+01-4.74084E-01-1.11222E+00-5.13805E-01 7.67927E-14 4.08640E-12
 -1        73 2.66698E+01-4.74669E-02-2.51263E-01-1.12394E-01 3.66812E-14 3.13413E-12
 -1        74 2.61446E+01 7.08451E-03 1.39170E-02-4.80900E-02 2.18807E-14 2.46227E-12
 -1        75 2.52833E+01 1.52589E-02 8.07582E-02-8.19200E-03 1.43531E-14 2.04127E-12
 -1        76 2.37605E+01 4.81414E-03 7.39168E-02 4.87644E-02 3.02070E-15 1.72252E-12
 -1        77 2.16173E+01-1.80861E-02 1.37958E-02 1.08898E-01 2.26090E-14 1.43283E-12
 -1        78 1.93881E+01-3.93536E-02-7.82635E-02 1.34305E-01-2.45505E-14 1.34083E-12
 -1        79 1.79482E+01-4.40089E-02-1.48614E-01 9.26163E-02-3.35756E-15 1.07826E-12
 -1        80 1.79825E+01-2.86999E-02-1.45266E-01-1.31145E-03 9.88706E-15 7.10338E-13
 -1        81 1.94613E+01-4.70697E-03-6.84457E-02-8.98951E-02 4.39991E-14 3.67678E-13
 -1        82 2.16466E+01 1.48070E-02 2.13928E-02-1.24495E-01 2.81637E-14 7.18731E-14
 -1        83 2.36425E+01 2.37573E-02 7.56562E-02-1.05598E-01 1.01338E-14-1.47903E-14
 -1        84 2.48998E+01 2.27801E-02 8.33243E-02-6.27541E-02-3.56204E-14 4.22891E-14
 -1        85 2.53248E+01 1.65125E-02 6.26299E-02-2.26936E-02 1.51550E-14 1.53664E-13
 -1        86 2.51085E+01 9.13127E-03 3.48189E-02 3.42214E-03 1.23781E-14-1.80666E-13
 -1        87 2.45176E+01 3.12321E-03 1.26258E-02 1.60814E-02-1.95918E-14-4.10872E-13
 -1        88 2.37748E+01-8.44340E-04-1.04569E-03 1.97856E-02-6.90951E-14-2.51335E-13
 -1        89 2.30253E+01-3.00137E-03-7.73595E-03 1.87762E-02 1.21259E-15-2.22156E-13
 -1        90 2.23469E+01-3.88056E-03-9.98348E-03 1.58450E-02 1.37751E-14-2.20602E-13
 -1        91 2.17713E+01-3.98154E-03-9.86173E-03 1.25050E-02 3.41926E-14-5.23925E-13
 -1        92 2.13037E+01-3.66982E-03-8.69323E-03 9.44349E-03-2.56853E-14-4.26270E-13
 -1        93 2.09357E+01-3.17865E-03-7.20334E-03 6.89887E-03-4.08759E-14-6.03198E-13
 -1        94 2.06532E+01-2.64289E-03-5.74267E-03 4.89631E-03 6.42245E-14-9.63239E-13
 -1        95 2.04413E+01-2.13324E-03-4.45556E-03 3.37472E-03-2.21902E-15-1.18100E-12
 -1        96 2.02856E+01-1.68193E-03-3.38321E-03 2.24815E-03 5.25810E-15-8.43287E-13
 -1        97 2.01738E+01-1.29957E-03-2.51981E-03 1.43238E-03 1.04946E-14-5.63411E-13
 -1        98 2.00954E+01-9.85423E-04-1.84097E-03 8.54546E-04-6.18782E-14-1.86172E-13
 -1        99 2.00423E+01-7.33309E-04-1.31714E-03 4.55274E-04-3.01641E-14-3.57005E-13
 -1       100 2.00076E+01-5.34923E-04-9.19639E-04 1.87715E-04-3.25062E-14-3.71154E-13
 -1       101 1.99863E+01-3.81578E-04-6.22941E-04 1.56708E-05 1.00462E-14-8.14385E-13
 -1       102 1.99743E+01-2.65084E-04-4.05347E-04-8.84043E-05 1.05028E-13-1.26635E-12
 -1       103 1.99688E+01-1.78150E-04-2.48911E-04-1.45199E-04-3.32552E-14-1.20447E-12
 -1       104 1.99674E+01-1.14517E-04-1.39066E-04-1.70043E-04 1.18003E-14-2.36128E-13
 -1       105 1.99687E+01-6.89464E-05-6.41739E-05-1.74127E-04 1.33281E-13-1.75983E-13
 -1       106 1.99714E+01-3.71478E-05-1.50618E-05-1.65474E-04-1.00008E-13-1.70472E-13
 -1       107 1.99749E+01-1.56689E-05 1.53994E-05-1.49717E-04-5.41021E-14-2.76768E-13
 -1       108 1.99786E+01-1.77638E-06 3.26729E-05-1.30704E-04 9.82734E-14-4.46851E-13
 -1       109 1.99823E+01 6.66080E-06 4.08830E-05-1.10971E-04 1.16663E-14-3.41632E-13
 -1       110 1.99856E+01 1.12805E-05 4.30944E-05-9.21099E-05 2.13284E-14-2.35798E-13
 -1       111 1.99886E+01 1.33254E-05 4.15484E-05-7.50490E-05 1.84688E-14-2.23947E-13
 -1       112 1.99911E+01 1.37296E-05 3.78621E-05-6.02635E-05 9.98156E-15 8.92346E-14
 -1       113 1.99933E+01 1.31933E-05 3.31982E-05-4.79313E-05 3.58398E-14-1.76119E-13
 -1       114 1.99951E+01 1.22468E-05 2.84182E-05-3.80403E-05-5.57997E-14-4.19761E-13
 -1       115 1.99966E+01 1.12815E-05 2.42389E-05-3.04305E-05 7.70473E-14-7.54560E-13
 -1       116 1.99977E+01 1.05855E-05 2.14066E-05-2.47813E-05-1.61865E-14-7.33594E-13
 -1       117 1.99987E+01 1.03581E-05 2.08971E-05-2.05685E-05-7.51021E-14-9.61041E-13
 -1       118 1.99993E+01 1.03651E-05 2.30089E-05-1.64403E-05-5.04412E-15-9.13099E-13
 -1       119 1.99997E+01 8.48825E-06 2.29733E-05-7.69447E-06-6.21198E-14-1.21746E-12
 -1       120 1.99999E+01-9.04938E-06-2.22368E-06 1.32362E-05 1.58198E-13-8.86736E-13
 -1       121 1.99998E+01 4.15186E-05 1.41888E-08 2.03704E-05-5.70214E-13 1.88452E-13
 -1       122 1.99998E+01-8.49606E-05 2.25213E-05-1.94289E-06 4.20185E-13-4.84793E-14
 -1       123 1.99998E+01-4.86271E-04 1.65435E-05-1.52892E-05 8.43710E-13-6.88969E-14
 -1       124 1.99998E+01-1.04975E-03 5.57136E-06-2.07390E-05 1.97777E-15 7.73931E-14
 -1       125 1.99998E+01-1.66114E-03-4.44503E-06-2.06625E-05-5.20615E-13-3.22457E-14
 -1       126 1.99998E+01-2.20964E-03-1.21490E-05-1.72521E-05-7.70448E-13 9.49594E-14
 -1       127 1.99998E+01-2.63002E-03-1.73095E-05-1.12511E-05-8.55792E-14 7.08827E-14
 -1       128 1.99998E+01-2.85413E-03-1.99179E-05-3.85264E-06-4.14375E-13-2.45177E-13
 -1       129 1.99998E+01-2.85210E-03-1.98922E-05 3.99249E-06-5.42245E-13 2.23349E-13
 -1       130 1.99998E+01-2.62422E-03-1.72350E-05 1.13561E-05-1.02568E-12-2.06104E-13
 -1       131 1.99998E+01-2.20107E-03-1.19259E-05 1.74688E-05-2.25671E-12-1.32686E-13
 -1       132 1.99998E+01-1.65143E-03-4.34793E-06 2.06774E-05-1.74628E-12 4.28147E-13
 -1       133 1.99998E+01-1.04031E-03 5.57910E-06 2.05966E-05-6.77801E-13-4.15074E-14
 -1       134 1.99998E+01-4.76594E-04 1.76211E-05 1.67728E-05-9.38953E-13-1.01833E-13
 -1       135 1.99998E+01-8.64734E-05 1.98965E-05 2.76079E-06-4.05350E-13 1.30349E-13
 -1       136 1.99998E+01 3.67338E-05-7.32805E-07-3.46881E-05-4.97652E-13-2.04539E-13
 -1       137-1.39329E+00-1.84239E+01-3.02230E+00-3.48531E+00 3.60101E-12 7.93747E-13
 -1       138-1.40678E+00-7.94438E+00-2.29937E+00-2.70651E+00 4.43223E-12 2.04123E-12
 -1       139 3.18854E+00 3.62922E+00-1.11300E+00 3.74972E+00 4.44317E-12 3.35204E-12
 -1       140 1.66984E+01 1.07335E+01 4.20453E-01 1.32644E+01 3.59679E-12 4.18060E-12
 -1       141 3.47561E+01 1.02246E+01 1.80238E+00 1.84017E+01 2.26441E-12 3.92653E-12
 -1       142 5.34815E+01 5.53988E+00 2.96133E+00 1.59216E+01 7.71910E-13 2.17359E-12
 -1       143 6.54462E+01 1.35971E+00 3.60301E+00 5.28613E+00 5.17190E-14-6.75071E-13
 -1       144 6.31746E+01 1.89364E+00 3.43991E+00-8.11029E+00 5.44974E-13-3.53947E-12
 -1       145 4.84500E+01 6.45979E+00 2.56721E+00-1.66058E+01 2.07963E-12-5.51320E-12
 -1       146 2.70222E+01 1.03270E+01 1.10192E+00-1.63955E+01 4.01473E-12-6.17173E-12
 -1       147 9.85234E+00 8.48300E+00-4.17286E-01-9.23726E+00 5.23792E-12-5.25086E-12
 -1       148 8.07390E-01 4.73094E-01-1.64309E+00-1.11078E+00 5.25169E-12-3.42132E-12
 -1       149-1.54729E+00-1.02899E+01-2.48894E+00 3.18458E+00 4.01962E-12-1.59144E-12
 -1       150-9.69391E-01-1.83820E+01-2.91179E+00 2.52039E+00 1.60025E-12-2.99627E-13
 -1       151-6.36312E-01-1.93551E+01-2.90813E+00-1.32702E+00-1.32792E-12-1.63664E-13
 -1       152-1.45239E+00-1.27474E+01-2.52807E+00-3.28832E+00-3.66257E-12-1.13979E-12
 -1       153 1.52370E-01-1.66653E+00-1.73010E+00 1.41630E-01-5.08843E-12-2.90021E-12
 -1       154 6.89327E+00 7.34797E+00-6.47448E-01 7.23899E+00-5.19640E-12-4.54659E-12
 -1       155 2.03677E+01 1.08018E+01 6.00583E-01 1.47079E+01-4.16600E-12-5.46058E-12
 -1       156 3.95653E+01 8.45467E+00 1.96470E+00 1.76001E+01-2.48260E-12-5.19579E-12
 -1       157 5.80004E+01 3.34264E+00 3.06693E+00 1.19419E+01-8.11764E-13-3.30669E-12
 -1       158 5.97329E+01 3.06847E+00 3.22433E+00-1.15880E+01-4.95548E-13 1.71962E-12
 -1       159 4.43497E+01 7.94664E+00 2.40499E+00-1.79237E+01-1.56228E-12 3.69904E-12
 -1       160 2.61171E+01 1.12798E+01 1.23724E+00-1.68616E+01-3.07199E-12 4.37600E-12
 -1       161 1.08305E+01 9.48749E+00-6.16113E-02-1.01342E+01-3.95434E-12 3.89327E-12
 -1       162 1.59954E+00 1.74082E+00-1.32800E+00-2.03767E+00-3.98892E-12 2.61191E-12
 -1       163-1.49169E+00-9.33501E+00-2.36391E+00 3.10617E+00-3.37907E-12 1.40729E-12
 -1       164-1.18425E+00-1.91904E+01-3.04426E+00 3.37655E+00-1.27476E-12 3.60628E-13
 -1       165 2.49289E+01 3.92402E+00-6.62727E-02-3.46023E+00-5.89674E-13 2.01152E-13
 -1       166 2.29217E+01 4.21580E+00-5.55034E-02-2.34432E+00-4.88163E-13-4.14672E-13
 -1       167 2.13431E+01 4.17744E+00-3.82677E-02-1.34590E+00-3.27009E-13-7.59073E-13
 -1       168 1.97164E+01 4.06484E+00-2.79614E-02-4.32851E-01-1.77088E-13-9.48646E-13
 -1       169 1.79018E+01 4.04965E+00-2.14007E-02 3.15365E-01-5.12854E-14-1.04773E-12
 -1       170 1.59126E+01 4.19497E+00-1.81825E-02 7.83611E-01 4.70284E-14-1.12820E-12
 -1       171 1.41300E+01 4.45010E+00-1.60057E-02 8.45418E-01 1.09090E-13-1.18423E-12
 -1       172 1.30616E+01 4.66555E+00-1.48965E-02 5.25218E-01 1.27026E-13-1.21067E-12
 -1       173 1.31037E+01 4.70377E+00-1.51269E-02 3.50307E-02 1.34286E-13-1.18879E-12
 -1       174 1.42908E+01 4.55571E+00-1.68714E-02-3.13169E-01 1.56574E-13-1.11961E-12
 -1       175 1.62379E+01 4.35109E+00-2.04152E-02-2.92512E-01 2.14089E-13-9.92877E-13
 -1       176 1.85418E+01 4.22594E+00-2.64751E-02 1.46620E-01 3.19397E-13-7.99159E-13
 -1       177 2.08501E+01 4.21869E+00-3.82517E-02 9.19329E-01 4.41428E-13-5.12703E-13
 -1       178 2.31634E+01 4.18996E+00-5.37509E-02 1.90808E+00 5.32602E-13-3.95552E-14
 -1       179 2.59113E+01 3.64276E+00-6.35091E-02 2.98472E+00 5.62508E-13 7.80535E-13
 -1       180 2.83512E+01 1.06679E+00-3.77152E-01 2.65538E+00 4.55342E-13 1.84178E-12
 -1       181 2.65784E+01 7.97526E-01-4.26780E-03-1.92108E+00-5.30787E-13 1.02647E-12
 -1       182 2.49124E+01 3.41789E-02-1.35054E-02-9.45326E-01-4.63414E-13 7.93273E-13
 -1       183 2.38135E+01-6.80931E-02 1.16784E-02-8.39446E-01-3.46560E-13 5.87779E-13
 -1       184 2.28843E+01-9.73506E-02 9.54028E-03-1.00213E+00-2.40386E-13 4.20432E-13
 -1       185 2.19185E+01-3.29094E-02 6.42924E-03-1.14080E+00-1.08136E-13 3.07718E-13
 -1       186 2.09741E+01 9.83615E-02 5.00257E-03-1.05097E+00-1.30015E-13 1.92561E-13
 -1       187 2.02476E+01 2.34026E-01 3.99274E-03-6.38517E-01-1.78255E-13 2.04320E-14
 -1       188 1.99581E+01 2.89905E-01 3.23048E-03 8.06528E-03-2.40128E-13-1.45038E-13
 -1       189 2.01929E+01 2.26172E-01 3.04605E-03 6.42883E-01-2.31539E-13-3.61426E-13
 -1       190 2.08331E+01 8.32356E-02 2.66895E-03 1.02076E+00-1.61301E-13-4.81224E-13
 -1       191 2.16235E+01-5.78207E-02 1.46187E-03 1.04847E+00-8.88667E-14-6.25059E-13
 -1       192 2.23132E+01-1.39443E-01-5.96918E-04 8.04008E-01-4.55335E-14-7.02027E-13
 -1       193 2.27534E+01-1.54099E-01-2.57678E-03 4.42954E-01 6.26409E-15-7.09326E-13
 -1       194 2.29111E+01-1.25564E-01-3.46763E-03 9.93159E-02-1.83959E-14-6.85374E-13
 -1       195 2.28296E+01-8.20268E-02-3.27577E-03-1.56486E-01-6.85550E-14-5.95665E-13
 -1       196 2.25839E+01-4.17390E-02-2.43960E-03-3.09890E-01-6.30272E-14-5.69976E-13
 -1       197 2.22482E+01-1.20170E-02-1.41308E-03-3.77157E-01 2.40883E-14-6.25151E-13
 -1       198 2.18816E+01 6.61407E-03-4.98179E-04-3.84289E-01-3.35464E-14-6.49598E-13
 -1       199 2.15246E+01 1.64543E-02 1.73743E-04-3.55487E-01-6.38029E-14-6.78850E-13
 -1       200 2.12007E+01 2.03116E-02 5.88989E-04-3.08996E-01 4.20480E-14-6.62634E-13
 -1       201 2.09212E+01 2.05400E-02 7.93163E-04-2.56878E-01 2.83992E-14-6.58957E-13
 -1       202 2.06891E+01 1.88184E-02 8.48439E-04-2.06275E-01-6.83232E-14-7.06228E-13
 -1       203 2.05022E+01 1.62301E-02 8.11258E-04-1.60889E-01-9.23654E-15-5.42364E-13
 -1       204 2.03555E+01 1.34209E-02 7.24497E-04-1.22232E-01 1.59915E-13-5.16486E-13
 -1       205 2.02433E+01 1.07447E-02 6.17258E-04-9.05198E-02 7.88816E-14-4.01171E-13
 -1       206 2.01594E+01 8.37201E-03 5.07553E-04-6.52715E-02-1.49471E-14-4.82658E-13
 -1       207 2.00983E+01 6.36495E-03 4.05476E-04-4.56800E-02-9.11136E-14-5.39143E-13
 -1       208 2.00549E+01 4.72449E-03 3.15889E-04-3.08359E-02-3.11944E-15-4.88330E-13
 -1       209 2.00251E+01 3.42017E-03 2.40412E-04-1.98518E-02 1.33466E-14-2.98456E-13
 -1       210 2.00054E+01 2.40776E-03 1.78787E-04-1.19249E-02 8.84749E-14-3.31769E-13
 -1       211 1.99932E+01 1.63940E-03 1.29765E-04-6.36349E-03-2.36628E-14-4.14817E-13
 -1       212 1.99862E+01 1.06921E-03 9.16624E-05-2.59249E-03-1.43812E-13-5.27206E-13
 -1       213 1.99829E+01 6.56055E-04 6.26897E-05-1.46549E-04-1.81012E-13-5.88793E-13
 -1       214 1.99820E+01 3.64629E-04 4.11401E-05 1.34199E-03 4.03858E-14-4.38189E-13
 -1       215 1.99826E+01 1.65606E-04 2.54826E-05 2.15740E-03-7.49899E-14-5.41669E-13
 -1       216 1.99840E+01 3.52445E-05 1.44014E-05 2.51497E-03-9.47236E-14-7.21792E-13
 -1       217 1.99860E+01-4.52519E-05 6.79987E-06 2.57427E-03 7.59660E-14-9.66223E-13
 -1       218 1.99880E+01-9.04714E-05 1.78644E-06 2.45083E-03 6.91612E-14-6.82259E-13
 -1       219 1.99901E+01-1.11533E-04-1.34906E-06 2.22611E-03-5.03493E-14-7.03229E-13
 -1       220 1.99920E+01-1.16774E-04-3.16303E-06 1.95552E-03-4.89562E-14-7.01409E-13
 -1       221 1.99936E+01-1.12367E-04-4.08553E-06 1.67501E-03-1.49043E-13-6.49531E-13
 -1       222 1.99951E+01-1.02866E-04-4.44362E-06 1.40599E-03 3.94039E-14-5.14202E-13
 -1       223 1.99963E+01-9.17116E-05-4.47647E-06 1.15906E-03 8.11329E-14-4.00237E-13
 -1       224 1.99974E+01-8.16960E-05-4.33650E-06 9.36497E-04 2.33887E-13-4.39311E-13
 -1       225 1.99982E+01-7.49920E-05-4.04400E-06 7.34067E-04 1.69043E-13-6.36865E-14
 -1       226 1.99988E+01-7.38522E-05-3.47145E-06 5.42458E-04 2.14845E-13 4.75392E-14
 -1       227 1.99993E+01-7.94929E-05-2.91084E-06 3.49329E-04 2.23738E-13-5.04142E-14
 -1       228 1.99996E+01-8.65182E-05-2.09890E-06 1.50123E-04 1.96478E-13 1.28629E-13
 -1       229 2.70570E+01 1.65801E-01-4.98578E-02 8.95784E-01 4.30430E-13 1.63551E-12
 -1       230 2.59888E+01-2.41906E-02 1.38316E-02 5.24380E-01 3.28734E-13 1.34188E-12
 -1       231 2.51506E+01-1.27909E-01 1.92938E-02 7.14606E-01 2.20023E-13 1.08942E-12
 -1       232 2.41383E+01-1.46566E-01 1.41626E-02 1.09525E+00 1.55441E-13 9.27958E-13
 -1       233 2.28719E+01-5.55440E-02 5.77173E-03 1.37547E+00 1.42547E-13 8.40290E-13
 -1       234 2.15703E+01 1.30023E-01-6.11000E-03 1.25503E+00 9.77660E-14 6.57476E-13
 -1       235 2.06763E+01 3.02738E-01-1.65936E-02 6.08145E-01 2.18405E-13 4.28320E-13
 -1       236 2.05783E+01 3.31140E-01-1.68714E-02-3.27914E-01 2.92807E-13 1.65936E-13
 -1       237 2.12958E+01 1.86863E-01-5.16505E-03-1.07697E+00 2.19822E-13-1.47288E-13
 -1       238 2.24334E+01-1.37364E-02 5.28583E-03-1.30549E+00 1.15806E-13-2.64540E-13
 -1       239 2.34916E+01-1.47365E-01 8.79987E-03-1.04621E+00-2.75578E-14-2.54036E-13
 -1       240 2.41504E+01-1.79875E-01 5.90847E-03-5.56085E-01-2.27422E-15-2.44897E-13
 -1       241 2.43366E+01-1.44444E-01 1.37011E-03-8.09364E-02 3.00072E-14-2.87929E-13
 -1       242 2.41392E+01-8.80151E-02-1.79248E-03 2.55108E-01 9.40485E-14-2.38224E-13
 -1       243 2.37010E+01-3.86902E-02-2.66648E-03 4.35854E-01 4.91068E-14-2.03045E-13
 -1       244 2.31517E+01-5.44762E-03-2.19035E-03 4.96482E-01-1.01253E-13-2.84540E-13
 -1       245 2.25848E+01 1.30346E-02-1.28130E-03 4.81947E-01-7.46105E-15-1.90135E-13
 -1       246 2.20566E+01 2.11473E-02-4.46980E-04 4.28692E-01 7.01809E-14-2.85278E-13
 -1       247 2.15948E+01 2.30420E-02 1.35813E-04 3.60854E-01 9.28251E-14-3.59675E-13
 -1       248 2.12084E+01 2.16826E-02 4.67230E-04 2.92325E-01-1.15338E-13-4.95966E-13
 -1       249 2.08954E+01 1.89013E-02 6.10809E-04 2.30042E-01 1.26352E-13-3.97144E-13
 -1       250 2.06485E+01 1.57213E-02 6.35120E-04 1.76757E-01 2.09150E-13-5.49393E-13
 -1       251 2.04578E+01 1.26607E-02 5.93324E-04 1.32934E-01 3.46901E-14-7.04330E-13
 -1       252 2.03137E+01 9.94862E-03 5.20738E-04 9.79046E-02-1.67342E-13-6.02994E-13
 -1       253 2.02069E+01 7.65817E-03 4.38568E-04 7.05329E-02-1.83853E-13-2.92150E-13
 -1       254 2.01294E+01 5.78468E-03 3.58460E-04 4.95625E-02-1.32086E-13-2.17348E-13
 -1       255 2.00745E+01 4.28815E-03 2.86126E-04 3.37939E-02 8.95230E-14-2.07034E-13
 -1       256 2.00367E+01 3.11577E-03 2.23811E-04 2.21602E-02 1.03151E-13-3.63310E-13
 -1       257 2.00116E+01 2.21327E-03 1.71843E-04 1.37524E-02 1.99401E-13-6.23675E-13
 -1       258 1.99957E+01 1.53025E-03 1.29561E-04 7.81811E-03 1.27718E-13-6.81066E-13
 -1       259 1.99865E+01 1.02237E-03 9.58571E-05 3.74808E-03-1.66086E-13-5.09052E-13
 -1       260 1.99817E+01 6.51937E-04 6.94780E-05 1.05791E-03-2.69606E-13-6.26161E-13
 -1       261 1.99801E+01 3.87633E-04 4.91872E-05-6.31128E-04 3.85371E-14-3.35116E-13
 -1       262 1.99803E+01 2.03977E-04 3.38491E-05-1.61042E-03-8.29985E-14-2.42536E-13
 -1       263 1.99817E+01 8.05662E-05 2.24648E-05-2.10048E-03 1.63646E-13-3.59275E-13
 -1       264 1.99838E+01 1.31998E-06 1.41821E-05-2.26527E-03 2.73771E-14-5.87736E-13
 -1       265 1.99860E+01-4.62433E-05 8.29037E-06-2.22434E-03-7.68420E-14-2.73017E-13
 -1       266 1.99883E+01-7.16682E-05 4.20841E-06-2.06287E-03-5.95914E-14-1.45583E-13
 -1       267 1.99905E+01-8.21479E-05 1.46796E-06-1.83984E-03-1.36987E-13 2.13950E-13
 -1       268 1.99924E+01-8.30341E-05-3.02857E-07-1.59455E-03 3.24357E-14 5.24494E-13
 -1       269 1.99941E+01-7.82787E-05-1.39491E-06-1.35162E-03 3.15993E-13 2.94509E-13
 -1       270 1.99955E+01-7.08153E-05-2.02810E-06-1.12482E-03-3.51291E-16 3.03524E-13
 -1       271 1.99967E+01-6.29220E-05-2.35738E-06-9.19745E-04 3.33069E-13 1.52635E-13
 -1       272 1.99977E+01-5.64014E-05-2.39387E-06-7.35600E-04-4.26152E-14-1.60217E-13
 -1       273 1.99985E+01-5.28173E-05-1.96311E-06-5.66716E-04-2.46530E-14 1.69952E-14
 -1       274 1.99991E+01-5.39920E-05-9.16877E-07-4.03172E-04 1.23001E-13-1.06823E-13
 -1       275 1.99995E+01-6.14255E-05-9.22168E-07-2.32817E-04 1.05113E-13-2.26606E-13
 -1       276 1.99997E+01-5.48762E-05-3.43686E-06-6.24490E-05-1.03496E-13-5.50761E-15
 -1       277 1.99997E+01-1.90647E-04-1.99590E-06-1.59557E-04 9.24399E-14 6.47008E-13
 -1       278 1.99997E+01-4.76531E-04-6.75542E-07-3.30841E-04 9.88556E-14 6.29120E-14
 -1       279 1.99998E+01-8.61737E-04-2.66535E-07-4.44118E-04 4.04686E-14-2.28586E-13
 -1       280 1.99998E+01-1.29473E-03 2.39915E-07-4.76149E-04 9.80917E-14-2.25313E-13
 -1       281 1.99998E+01-1.70751E-03 1.12957E-06-4.32948E-04-4.40074E-14-1.51460E-13
 -1       282 1.99999E+01-2.05614E-03 1.92715E-06-3.25824E-04-7.14191E-14 1.10998E-13
 -1       283 1.99999E+01-2.28489E-03 2.49015E-06-1.73653E-04-6.74819E-14-6.96350E-14
 -1       284 1.99999E+01-2.36363E-03 2.68498E-06 1.57455E-06-2.53997E-13-2.32946E-13
 -1       285 1.99999E+01-2.28208E-03 2.48603E-06 1.76559E-04-6.60670E-13-2.24120E-13
 -1       286 1.99999E+01-2.05089E-03 1.92218E-06 3.28085E-04-5.33919E-13-4.74917E-13
 -1       287 1.99998E+01-1.70759E-03 1.07559E-06 4.32908E-04-4.57686E-13 2.25115E-13
 -1       288 1.99998E+01-1.28730E-03 2.34459E-07 4.76014E-04-3.39629E-13 7.06374E-13
 -1       289 1.99998E+01-8.54588E-04-3.16219E-07 4.42551E-04-2.04555E-13-4.83830E-14
 -1       290 1.99997E+01-4.75172E-04-1.84802E-06 3.27530E-04-6.23674E-14 1.59828E-13
 -1       291 1.99997E+01-2.65158E-04-2.08466E-06 2.67912E-04-1.68804E-13 1.69727E-13
 -1       292-3.64116E-01-8.29404E+00-6.94274E-01 1.49751E+00 6.71380E-13 1.25469E-12
 -1       293 3.05567E+00-7.52307E+00-7.23999E-01 3.67665E+00 1.38589E-12 1.15134E-12
 -1       294 9.64387E+00-4.61662E+00-4.76854E-01 5.80531E+00 1.54018E-12 1.32028E-12
 -1       295 1.99222E+01-1.59003E+00-9.35082E-02 7.07573E+00 1.42411E-12 1.24803E-12
 -1       296 2.94078E+01 2.63145E+00 3.20004E-01 7.66698E+00 1.55989E-12 1.26721E-12
 -1       297 3.85060E+01 4.95865E+00 7.19260E-01 6.54940E+00 1.45700E-12 6.42097E-13
 -1       298 4.37749E+01 6.50933E+00 8.39163E-01 3.02926E+00 1.40887E-12-1.89626E-13
 -1       299 4.61574E+01 6.74245E+00 9.61296E-01-8.28794E-02 1.38917E-12-1.00836E-12
 -1       300 4.30200E+01 5.85697E+00 8.37642E-01-3.37578E+00 1.60272E-12-1.77777E-12
 -1       301 3.53612E+01 3.61710E+00 4.66598E-01-5.61221E+00 1.83681E-12-2.16335E-12
 -1       302 2.49012E+01 1.51427E+00 9.02937E-02-7.45869E+00 2.18214E-12-2.65815E-12
 -1       303 1.45845E+01-1.39987E+00-3.41369E-01-6.50510E+00 2.21617E-12-2.45939E-12
 -1       304 6.40235E+00-4.41623E+00-6.44127E-01-4.53992E+00 1.85935E-12-2.00856E-12
 -1       305 1.42699E+00-6.27374E+00-6.90814E-01-2.71806E+00 9.60176E-13-1.65497E-12
 -1       306-1.01524E+00-8.10672E+00-8.95701E-01-8.96203E-02 1.14268E-13-1.36761E-12
 -1       307 2.09981E-01-7.21976E+00-8.15833E-01 1.99780E+00-8.83640E-13-1.43591E-12
 -1       308 5.88937E+00-4.36446E+00-4.21714E-01 5.15862E+00-1.17145E-12-1.65607E-12
 -1       309 1.22016E+01-1.68230E+00-3.75555E-01 6.29394E+00-2.11964E-12-2.11538E-12
 -1       310 2.13848E+01 1.18264E+00-2.15083E-02 7.56009E+00-2.17676E-12-2.31049E-12
 -1       311 3.13111E+01 3.53795E+00 3.76570E-01 7.41065E+00-1.97660E-12-2.29328E-12
 -1       312 3.92212E+01 5.26121E+00 5.76310E-01 4.02911E+00-1.66903E-12-1.47821E-12
 -1       313 4.48767E+01 6.58218E+00 8.95391E-01 1.46555E+00-1.40507E-12-1.03785E-12
 -1       314 4.58863E+01 6.51565E+00 9.95749E-01-2.04597E+00-1.25006E-12-2.28262E-13
 -1       315 4.06410E+01 5.86064E+00 7.10694E-01-4.49700E+00-1.27112E-12 3.47389E-13
 -1       316 3.40714E+01 4.17615E+00 5.40525E-01-7.39387E+00-1.37646E-12 1.20340E-12
 -1       317 2.49325E+01 1.75191E+00 1.77125E-01-7.88927E+00-1.41703E-12 1.48478E-12
 -1       318 1.56875E+01-1.45181E+00-2.16430E-01-7.04296E+00-1.31090E-12 1.56966E-12
 -1       319 7.81177E+00-4.99220E+00-5.67799E-01-5.31401E+00-1.05202E-12 1.28714E-12
 -1       320 2.15431E+00-8.07356E+00-8.35219E-01-3.25689E+00-4.18998E-13 1.33239E-12
 -1       321-7.14926E-01-9.88990E+00-9.47379E-01-1.13032E+00 1.88474E-13 1.33787E-12
 -1       322 2.28901E+01 2.32804E+00-2.71249E-02-1.75922E+00-4.62553E-13-3.16802E-13
 -1       323 2.43995E+01 1.85420E+00-2.88139E-02-2.29630E+00-5.84639E-13 3.51368E-14
 -1       324 1.95981E+01 2.60547E+00-1.77506E-02 8.28262E-02-1.00123E-13-7.33804E-13
 -1       325 1.73879E+01 3.02158E+00-1.24571E-02 9.09635E-01 5.53902E-14-8.44036E-13
 -1       326 1.50170E+01 3.68384E+00-5.22287E-03 1.29807E+00 1.55136E-13-9.51684E-13
 -1       327 1.30896E+01 4.35796E+00 3.25768E-03 1.05555E+00 1.93767E-13-1.04585E-12
 -1       328 1.23517E+01 4.66746E+00 5.51324E-03 3.12574E-01 1.73809E-13-1.07284E-12
 -1       329 1.31736E+01 4.42745E+00 2.59831E-03-4.55700E-01 1.45517E-13-1.01400E-12
 -1       330 1.52158E+01 3.80615E+00-4.38729E-03-7.55262E-01 1.74467E-13-8.58086E-13
 -1       331 1.78552E+01 3.13233E+00-1.24365E-02-4.36732E-01 2.62093E-13-6.72680E-13
 -1       332 2.04617E+01 2.64183E+00-2.16476E-02 3.28060E-01 3.82079E-13-4.17420E-13
 -1       333 2.28389E+01 2.27761E+00-3.00837E-02 1.19833E+00 5.21709E-13-1.04368E-13
 -1       334 2.50245E+01 1.72067E+00-4.26082E-02 1.77910E+00 5.87314E-13 4.46629E-13
 -1       335 2.63005E+01 9.12316E-01-3.27095E-02 1.53167E+00 5.50773E-13 9.42827E-13
 -1       336 2.57163E+01 3.55080E-02 2.03633E-03 9.80120E-01 4.53900E-13 8.05540E-13
 -1       337 2.43531E+01 1.08309E-01 6.95492E-03-1.54813E+00-4.65282E-13 1.99728E-13
 -1       338 2.38183E+01-2.48325E-01 2.47845E-03-1.54867E+00-3.56529E-13 2.14389E-13
 -1       339 2.32760E+01-2.19930E-01 2.32054E-03-1.76286E+00-2.28554E-13 2.02311E-13
 -1       340 2.26548E+01 1.23499E-01 2.88906E-03-1.82101E+00-2.10688E-13 1.39379E-13
 -1       341 2.20237E+01 6.32838E-01 3.89547E-03-1.44146E+00-2.88876E-13 4.00222E-15
 -1       342 2.15831E+01 1.01342E+00 4.35619E-03-5.70184E-01-3.29137E-13-1.46568E-13
 -1       343 2.15235E+01 9.92514E-01 3.89899E-03 5.04144E-01-3.56349E-13-2.80280E-13
 -1       344 2.18259E+01 5.74438E-01 2.60943E-03 1.32361E+00-3.02735E-13-4.51060E-13
 -1       345 2.22731E+01 1.79607E-02 1.73963E-03 1.59797E+00-2.01848E-13-5.96947E-13
 -1       346 2.26231E+01-3.97475E-01-5.30195E-04 1.35527E+00-1.11705E-13-6.51639E-13
 -1       347 2.27601E+01-5.62107E-01-3.53981E-03 8.31769E-01-4.09416E-14-6.91421E-13
 -1       348 2.26934E+01-5.22253E-01-4.65154E-03 2.70081E-01 3.02180E-14-6.51519E-13
 -1       349 2.24869E+01-3.81722E-01-4.13877E-03-1.82966E-01 2.42940E-14-5.20675E-13
 -1       350 2.22055E+01-2.24861E-01-2.91421E-03-4.79194E-01-1.32007E-14-4.92669E-13
 -1       351 2.18966E+01-9.54411E-02-1.62635E-03-6.30618E-01-4.19243E-14-4.19150E-13
 -1       352 2.15900E+01-5.99939E-03-5.86689E-04-6.73148E-01-5.80184E-14-4.99093E-13
 -1       353 2.13034E+01 4.71417E-02 1.26377E-04-6.45023E-01-1.12759E-14-4.87545E-13
 -1       354 2.10466E+01 7.31518E-02 5.43650E-04-5.77588E-01 2.98793E-14-4.59572E-13
 -1       355 2.08237E+01 8.12478E-02 7.37643E-04-4.93165E-01 5.25522E-14-4.83634E-13
 -1       356 2.06355E+01 7.87135E-02 7.83256E-04-4.06069E-01-5.47038E-14-4.74104E-13
 -1       357 2.04805E+01 7.06339E-02 7.41302E-04-3.24568E-01 5.51820E-14-3.17033E-13
 -1       358 2.03555E+01 6.02711E-02 6.54958E-04-2.52777E-01 7.72771E-14-2.03964E-13
 -1       359 2.02569E+01 4.95673E-02 5.52100E-04-1.92164E-01 7.07161E-14-3.20612E-13
 -1       360 2.01806E+01 3.95818E-02 4.49228E-04-1.42626E-01-1.28359E-15-5.03579E-13
 -1       361 2.01228E+01 3.08158E-02 3.55127E-04-1.03217E-01 4.76141E-14-3.48378E-13
 -1       362 2.00799E+01 2.34345E-02 2.73702E-04-7.26061E-02 1.11513E-14-1.75023E-13
 -1       363 2.00488E+01 1.74126E-02 2.05954E-04-4.93599E-02 7.16796E-14-2.09347E-13
 -1       364 2.00269E+01 1.26263E-02 1.51274E-04-3.21016E-02 5.47909E-14-1.94939E-13
 -1       365 2.00119E+01 8.90926E-03 1.08255E-04-1.95930E-02-1.23916E-13-3.32644E-13
 -1       366 2.00020E+01 6.08513E-03 7.51841E-05-1.07689E-02-6.58355E-14-3.13579E-13
 -1       367 1.99959E+01 3.98617E-03 5.03231E-05-4.74207E-03-1.20425E-13-4.12882E-14
 -1       368 1.99925E+01 2.46234E-03 3.20580E-05-7.93576E-04-1.83406E-13-3.72276E-14
 -1       369 1.99909E+01 1.38491E-03 1.89707E-05 1.64641E-03-2.18095E-13-2.31515E-13
 -1       370 1.99905E+01 6.46830E-04 9.86122E-06 3.01988E-03-8.96448E-14-2.96889E-13
 -1       371 1.99909E+01 1.61344E-04 3.74359E-06 3.66274E-03-2.12497E-14-3.04488E-15
 -1       372 1.99917E+01-1.40376E-04-1.73738E-07 3.82493E-03 1.09545E-13 3.57259E-14
 -1       373 1.99927E+01-3.11881E-04-2.51332E-06 3.68821E-03 7.59380E-14-1.54011E-13
 -1       374 1.99938E+01-3.94117E-04-3.75650E-06 3.38123E-03-9.79724E-14-1.13726E-13
 -1       375 1.99949E+01-4.17931E-04-4.27030E-06 2.99194E-03-1.58313E-13-4.29265E-14
 -1       376 1.99959E+01-4.06323E-04-4.33171E-06 2.57759E-03-7.46066E-14-2.71601E-14
 -1       377 1.99968E+01-3.76411E-04-4.14780E-06 2.17242E-03 9.31381E-14 1.13430E-13
 -1       378 1.99975E+01-3.41228E-04-3.87571E-06 1.79360E-03 1.71415E-13 1.61254E-13
 -1       379 1.99982E+01-3.11198E-04-3.65026E-06 1.44501E-03 3.38715E-13 1.50178E-13
 -1       380 1.99987E+01-2.92652E-04-3.41540E-06 1.12228E-03 1.03425E-14 1.56819E-13
 -1       381 1.99991E+01-2.92540E-04-3.80600E-06 8.15170E-04 3.14765E-13 2.85772E-13
 -1       382 1.99994E+01-2.83107E-04-2.80304E-06 5.34882E-04 3.20350E-13 3.34568E-13
 -1       383 2.52048E+01-3.45005E-01 5.17598E-03 1.11476E+00 3.19072E-13 7.09806E-13
 -1       384 2.46378E+01-4.34289E-01 9.99500E-04 1.59851E+00 2.20425E-13 6.13382E-13
 -1       385 2.38928E+01-1.87679E-01 1.08828E-04 2.02124E+00 1.85149E-13 5.51428E-13
 -1       386 2.30016E+01 3.67239E-01-9.86835E-04 1.92006E+00 2.26229E-13 4.26629E-13
 -1       387 2.22657E+01 9.25642E-01-2.11053E-03 1.03412E+00 3.65689E-13 1.75711E-13
 -1       388 2.20647E+01 1.05527E+00-4.80104E-03-3.43886E-01 4.42011E-13-5.25571E-14
 -1       389 2.24945E+01 6.22533E-01 3.56894E-04-1.49801E+00 4.18434E-13-2.34523E-13
 -1       390 2.31981E+01-1.26205E-02-1.30178E-05-1.87434E+00 1.51037E-13-4.16113E-13
 -1       391 2.37639E+01-4.53988E-01-1.83967E-03-1.50384E+00-3.06079E-14-4.27648E-13
 -1       392 2.39883E+01-5.74912E-01-5.11471E-03-7.78843E-01-3.97382E-15-4.04081E-13
 -1       393 2.38868E+01-4.72200E-01-6.63375E-03-6.91909E-02 4.72122E-14-3.75772E-13
 -1       394 2.35645E+01-2.94303E-01-6.29952E-03 4.37522E-01 2.79399E-14-3.24068E-13
 -1       395 2.31271E+01-1.33804E-01-4.16452E-03 7.14894E-01 4.68809E-14-2.37808E-13
 -1       396 2.26509E+01-2.27770E-02-1.96319E-03 8.11853E-01-5.49930E-14-2.01941E-13
 -1       397 2.21852E+01 4.07746E-02-3.15987E-04 7.92922E-01-2.70387E-14-2.31961E-13
 -1       398 2.17585E+01 6.99461E-02 6.86765E-04 7.11889E-01 1.71961E-13-3.96444E-13
 -1       399 2.13849E+01 7.79010E-02 1.17403E-03 6.05544E-01 1.31983E-13-3.46095E-13
 -1       400 2.10689E+01 7.43758E-02 1.31914E-03 4.95904E-01-9.99884E-15-4.07534E-13
 -1       401 2.08090E+01 6.55718E-02 1.26871E-03 3.94558E-01 1.33533E-14-5.29663E-13
 -1       402 2.06001E+01 5.50584E-02 1.12382E-03 3.06560E-01 2.50218E-13-5.49076E-13
 -1       403 2.04356E+01 4.47102E-02 9.46013E-04 2.33216E-01 7.87570E-14-3.99643E-13
 -1       404 2.03087E+01 3.54003E-02 7.68881E-04 1.73866E-01-1.95325E-13-3.37771E-13
 -1       405 2.02124E+01 2.74470E-02 6.08587E-04 1.26948E-01-2.88238E-13-3.29901E-13
 -1       406 2.01409E+01 2.08802E-02 4.71301E-04 9.05939E-02-1.16553E-13-3.70883E-13
 -1       407 2.00889E+01 1.55922E-02 3.57881E-04 6.29446E-02 6.41167E-14-2.11325E-13
 -1       408 2.00518E+01 1.14191E-02 2.66601E-04 4.23013E-02 1.83012E-13-2.86062E-13
 -1       409 2.00262E+01 8.18440E-03 1.94671E-04 2.71871E-02 3.39795E-13-1.12999E-13
 -1       410 2.00091E+01 5.71963E-03 1.39025E-04 1.63593E-02 1.40084E-13-1.28062E-13
 -1       411 1.99982E+01 3.87397E-03 9.67275E-05 8.79816E-03-1.10088E-13-1.40076E-13
 -1       412 1.99918E+01 2.51748E-03 6.51437E-05 3.68290E-03-1.61625E-13-4.02562E-13
 -1       413 1.99884E+01 1.54125E-03 4.20069E-05 3.64685E-04-2.15970E-13-3.71146E-13
 -1       414 1.99871E+01 8.55858E-04 2.54197E-05-1.66103E-03-1.10597E-13-9.27081E-14
 -1       415 1.99871E+01 3.89180E-04 1.38276E-05-2.78018E-03 3.18045E-13-8.59606E-14
 -1       416 1.99880E+01 8.40063E-05 5.97977E-06-3.28293E-03 1.45105E-13-2.49249E-13
 -1       417 1.99893E+01-1.04360E-04 8.85891E-07-3.38339E-03-2.58718E-13-2.39914E-13
 -1       418 1.99908E+01-2.10314E-04-2.22684E-06-3.23625E-03-8.07586E-14-2.45440E-14
 -1       419 1.99923E+01-2.59944E-04-3.95340E-06-2.95043E-03-3.35264E-13 1.86081E-14
 -1       420 1.99937E+01-2.72783E-04-4.74696E-06-2.60004E-03-1.25822E-13 1.39443E-13
 -1       421 1.99950E+01-2.63325E-04-4.94899E-06-2.23313E-03 2.12503E-13 6.39830E-13
 -1       422 1.99961E+01-2.42333E-04-4.81561E-06-1.87826E-03 1.65598E-14 6.59920E-13
 -1       423 1.99970E+01-2.17968E-04-4.53707E-06-1.54948E-03 5.25258E-13 5.86505E-13
 -1       424 1.99978E+01-1.96696E-04-4.22849E-06-1.24974E-03 3.58088E-14 3.77460E-13
 -1       425 1.99985E+01-1.82875E-04-3.72501E-06-9.73773E-04-8.26839E-14 2.59934E-13
 -1       426 1.99990E+01-1.80857E-04-3.12692E-06-7.11569E-04 1.30687E-13 1.25531E-13
 -1       427 1.99994E+01-1.88259E-04-2.60422E-06-4.52391E-04-2.39301E-14 6.29706E-13
 -1       428 1.99996E+01-2.01463E-04-1.82211E-06-3.05249E-04-1.25425E-13 9.40667E-13
 -1       429 1.99998E+01-1.06849E-03-4.66249E-07-8.20486E-04-2.34733E-14-7.33205E-14
 -1       430 1.99996E+01-7.01606E-04-2.07012E-06-7.21422E-04 4.63582E-15-1.19727E-13
 -1       431 1.99996E+01-4.32051E-04-2.65506E-06-5.30432E-04-1.43055E-13 3.03324E-14
 -1       432 1.99999E+01-1.42151E-03 6.19176E-07-7.97155E-04 1.00213E-13-2.50251E-13
 -1       433 2.00000E+01-1.73502E-03 1.57626E-06-6.59571E-04 1.43854E-13 2.48552E-14
 -1       434 2.00000E+01-1.96587E-03 2.27995E-06-4.32405E-04 1.81906E-13-4.74671E-14
 -1       435 2.00001E+01-2.08771E-03 2.64890E-06-1.48724E-04-1.70963E-13-4.40660E-13
 -1       436 2.00001E+01-2.08655E-03 2.64758E-06 1.54005E-04-3.35628E-13-6.02374E-13
 -1       437 2.00000E+01-1.96251E-03 2.26613E-06 4.36927E-04-3.57614E-13-1.61177E-13
 -1       438 2.00000E+01-1.73475E-03 1.53676E-06 6.59609E-04 1.02097E-13 2.06054E-14
 -1       439 1.99999E+01-1.42099E-03 6.18552E-07 7.96993E-04 1.16710E-13 8.63754E-13
 -1       440 1.99998E+01-1.06215E-03-3.57729E-07 8.19905E-04 1.69779E-13 3.67757E-13
 -1       441 1.99996E+01-6.93668E-04-1.93837E-06 7.22064E-04 2.62281E-14-9.03825E-14
 -1       442 1.09075E+01-4.87761E+00-9.38697E-03 6.90867E+00 3.64569E-14 5.57186E-13
 -1       443 1.69798E+00-3.30459E+00-1.04971E-02-4.48887E-01 1.19333E-13 1.47210E-12
 -1       444 4.92760E+00-3.96735E+00-3.73533E-03 4.81452E+00-8.58341E-14 9.21124E-13
 -1       445 1.82794E+01-5.16454E+00-3.89199E-02 6.81677E+00 1.16490E-13 4.77871E-13
 -1       446 2.79661E+01-3.13116E+00 1.23759E-02 3.61328E+00 4.16049E-13-2.87839E-13
 -1       447 2.14012E+01 2.43467E+00-2.88223E-02-8.83347E-01-2.68919E-13-5.71650E-13
 -1       448 3.50831E+01 4.81334E+00 5.19729E-02 3.38344E-01 1.33847E-12-4.88609E-13
 -1       449 3.44212E+01 7.72190E+00-2.65864E-02-5.53461E-02 1.57170E-12-4.18270E-13
 -1       450 3.54142E+01 7.37109E+00 1.77273E-02 7.60214E-01 1.53648E-12-4.08396E-13
 -1       451 3.38524E+01 3.70209E+00-8.46344E-03 6.51690E-01 1.32820E-12-3.62460E-13
 -1       452 3.02218E+01-9.18483E-01-1.38360E-02-2.06398E+00 9.15566E-13-5.96204E-13
 -1       453 2.35441E+01-3.13463E+00-3.70965E-02-5.21098E+00 7.80737E-13-1.19683E-12
 -1       454 1.54837E+01-3.95493E+00-4.96053E-02-6.48215E+00 4.32432E-13-1.40779E-12
 -1       455 7.88952E+00-3.19504E+00-4.40754E-02-5.75861E+00 2.96679E-13-1.61474E-12
 -1       456 2.73527E+00-1.23262E+00 5.27111E-02-2.33413E+00 9.52190E-14-1.79073E-12
 -1       457 1.60542E+00-1.87008E+00-3.79550E-02 1.70919E+00 5.84463E-14-1.69095E-12
 -1       458 5.14429E+00-2.21201E+00-7.78499E-03 4.96033E+00 4.57967E-15-1.53054E-12
 -1       459 1.40673E+01-3.43367E+00-2.22024E-02 6.76508E+00-3.10266E-13-1.20334E-12
 -1       460 2.03926E+01-3.16280E+00-5.33425E-02 6.08704E+00-6.91530E-13-1.03664E-12
 -1       461 2.81267E+01-1.20160E+00 4.29547E-03 3.54841E+00-9.43350E-13-8.06105E-13
 -1       462 3.24948E+01 2.08691E+00 9.27696E-03 1.12336E+00-1.26582E-12-5.99035E-13
 -1       463 3.40930E+01 6.46808E+00-9.29460E-03-8.29760E-01-1.53644E-12-4.34777E-13
 -1       464 3.54480E+01 7.97955E+00 3.00435E-02-3.35459E-01-1.57739E-12-5.31115E-13
 -1       465 3.53494E+01 7.00639E+00 6.74339E-02-9.79678E-02-1.38327E-12-5.38028E-13
 -1       466 3.29841E+01 2.89217E+00-1.31685E-03-7.88623E-01-9.52162E-13-5.29882E-13
 -1       467 3.04641E+01-3.27257E-01 3.34422E-02-2.86272E+00-4.99455E-13-1.84852E-13
 -1       468 2.41607E+01-3.66300E+00-1.25825E-02-5.53152E+00-1.54737E-14 1.75193E-13
 -1       469 1.65637E+01-4.91486E+00-3.86248E-02-7.08881E+00 2.90185E-13 6.24532E-13
 -1       470 9.40847E+00-4.71524E+00-2.58285E-02-6.78227E+00 5.30853E-13 9.20868E-13
 -1       471 3.12900E+00-4.18838E+00-7.57037E-02-3.81978E+00 3.37362E-13 1.30597E-12
 -1       472 3.23483E+01 8.48931E-01 2.33436E-02 1.72979E+00 9.32003E-13-4.13808E-13
 -1       473 4.90708E+00-1.55152E+00 1.48772E-01 2.66921E+00-3.78402E-13 9.88973E-13
 -1       474 1.11584E+01-2.07910E+00 9.78261E-02 6.35540E+00 3.05179E-13-1.21071E-12
 -1       475 2.49137E+01-3.18367E-01 1.64923E-04 1.16218E+00 3.84081E-13 3.37538E-13
 -1       476 1.66415E+01 2.12153E+00 1.36776E-03 1.91598E+00 2.21206E-13-8.21620E-13
 -1       477 1.94165E+01 1.33988E+00-2.03648E-03 9.72206E-01 6.92176E-14-6.51852E-13
 -1       478 1.17022E+01 4.17164E+00 2.06965E-02 1.05231E+00 2.27279E-13-1.12724E-12
 -1       479 1.17132E+01 4.20517E+00 1.87948E-02-3.76782E-01 1.34640E-13-1.11026E-12
 -1       480 1.37274E+01 3.41727E+00 1.22813E-02-1.35826E+00 7.19130E-14-9.57846E-13
 -1       481 1.68322E+01 2.32191E+00 5.24157E-03-1.37074E+00 9.66381E-14-7.22562E-13
 -1       482 1.99091E+01 1.46448E+00-3.08332E-03-5.68776E-01 2.12176E-13-4.73209E-13
 -1       483 2.24618E+01 9.50511E-01-5.21203E-03 4.73836E-01 3.51321E-13-1.74755E-13
 -1       484 2.50893E+01-8.90751E-01-2.30683E-03 1.52880E+00 2.79565E-13 4.04663E-13
 -1       485 2.40096E+01-1.67698E-01-3.94805E-03-1.68063E+00-3.55083E-13 6.50977E-15
 -1       486 3.02491E+01 4.94133E+00-1.42804E-01 2.20375E+00 1.20129E-12 9.40914E-14
 -1       487 2.40810E+01-5.21830E-01-2.11706E-03-1.90851E+00-2.68017E-13 8.66356E-14
 -1       488 2.39501E+01-1.99498E-01-1.71493E-03-2.22409E+00-2.36384E-13 1.03302E-13
 -1       489 2.35482E+01 7.00289E-01-5.46225E-03-2.19104E+00-3.65370E-13 5.10399E-14
 -1       490 2.30265E+01 1.73892E+00-7.30964E-03-1.44615E+00-4.76168E-13-1.29179E-13
 -1       491 2.27441E+01 2.17305E+00-7.04689E-03-8.81777E-02-4.88160E-13-3.57625E-13
 -1       492 2.28786E+01 1.63856E+00-1.06540E-02 1.22812E+00-4.88205E-13-5.82815E-13
 -1       493 2.32321E+01 5.06171E-01-5.71810E-03 1.86576E+00-3.44562E-13-6.81064E-13
 -1       494 2.34299E+01-5.40110E-01-1.95014E-04 1.69455E+00-1.57065E-13-6.24488E-13
 -1       495 2.32878E+01-1.07010E+00-1.87038E-03 1.05298E+00-1.91666E-14-5.98628E-13
 -1       496 2.29005E+01-1.11256E+00-2.64803E-03 3.20520E-01 1.64400E-14-5.57018E-13
 -1       497 2.24196E+01-8.76306E-01-2.23365E-03-2.72705E-01 7.06480E-14-5.57936E-13
 -1       498 2.19583E+01-5.59926E-01-1.42657E-03-6.59441E-01 6.40858E-15-5.19702E-13
 -1       499 2.15644E+01-2.76933E-01-7.01441E-04-8.59125E-01 7.63858E-15-4.61113E-13
 -1       500 2.12446E+01-6.87627E-02-2.02038E-04-9.19499E-01-1.23990E-13-4.04009E-13
 -1       501 2.09887E+01 6.36736E-02 1.10728E-04-8.88676E-01-3.40859E-14-3.99343E-13
 -1       502 2.07834E+01 1.35660E-01 2.82519E-04-8.05399E-01-3.69552E-14-3.69209E-13
 -1       503 2.06175E+01 1.65405E-01 3.56943E-04-6.97491E-01 5.16842E-15-4.43089E-13
 -1       504 2.04827E+01 1.68493E-01 3.69400E-04-5.83339E-01 1.08367E-14-5.52445E-13
 -1       505 2.03732E+01 1.56452E-01 3.46136E-04-4.74117E-01 4.03898E-14-3.46732E-13
 -1       506 2.02847E+01 1.37077E-01 3.05002E-04-3.75885E-01 1.16275E-13-2.87817E-13
 -1       507 2.02138E+01 1.15271E-01 2.57434E-04-2.91278E-01 4.96759E-14-2.72240E-13
 -1       508 2.01576E+01 9.39068E-02 2.10236E-04-2.20782E-01-1.64143E-14-3.02343E-13
 -1       509 2.01138E+01 7.45035E-02 1.67076E-04-1.63618E-01 6.97399E-14-2.67362E-13
 -1       510 2.00802E+01 5.77288E-02 1.29611E-04-1.18350E-01 1.47465E-13-3.31696E-13
 -1       511 2.00547E+01 4.37371E-02 9.82837E-05-8.32797E-02 5.14971E-14-2.81237E-13
 -1       512 2.00358E+01 3.23941E-02 7.28443E-05-5.66806E-02 2.88832E-14-1.89582E-13
 -1       513 2.00222E+01 2.34189E-02 5.26924E-05-3.69400E-02-1.26066E-13-2.77046E-13
 -1       514 2.00125E+01 1.64725E-02 3.70831E-05-2.26276E-02-1.40525E-13-1.15263E-13
 -1       515 2.00058E+01 1.12100E-02 2.52500E-05-1.25213E-02-4.61263E-14-4.48387E-13
 -1       516 2.00014E+01 7.30911E-03 1.64739E-05-5.60792E-03-3.23402E-14-3.55657E-13
 -1       517 1.99986E+01 4.48456E-03 1.01161E-05-1.06730E-03-1.57800E-13 5.42210E-14
 -1       518 1.99970E+01 2.49325E-03 5.63142E-06 1.74975E-03-2.15647E-13 2.27006E-13
 -1       519 1.99963E+01 1.13385E-03 2.56777E-06 3.34679E-03 6.62316E-14 7.49785E-14
 -1       520 1.99960E+01 2.43664E-04 5.59505E-07 4.10660E-03 9.63210E-14 3.03884E-14
 -1       521 1.99961E+01-3.06112E-04-6.83053E-07 4.31416E-03-6.93879E-14-5.74073E-14
 -1       522 1.99965E+01-6.15563E-04-1.38515E-06 4.17674E-03 2.69646E-14-2.65200E-13
 -1       523 1.99969E+01-7.61191E-04-1.71905E-06 3.84111E-03-9.29555E-15-6.79964E-14
 -1       524 1.99973E+01-8.00680E-04-1.81414E-06 3.40756E-03-5.23960E-14 3.33593E-13
 -1       525 1.99978E+01-7.77132E-04-1.76552E-06 2.94123E-03 5.57799E-14 4.47526E-13
 -1       526 1.99982E+01-7.22636E-04-1.63111E-06 2.48090E-03-2.31446E-14 1.63080E-13
 -1       527 1.99986E+01-6.61034E-04-1.64381E-06 2.04681E-03 7.05591E-14 1.10725E-13
 -1       528 1.99989E+01-6.11730E-04-1.66772E-06 1.64238E-03 3.63296E-13 1.88834E-13
 -1       529 1.99992E+01-5.82537E-04-1.70212E-06 1.26824E-03 3.10490E-13 3.43167E-13
 -1       530 1.08346E+01-2.78970E+00 1.52321E-01 6.04458E+00-5.40339E-13 4.62755E-13
 -1       531 2.49449E+01 9.13539E-02-1.26330E-02 2.65261E+00 2.90366E-13 3.89154E-13
 -1       532 2.43434E+01 1.56580E+00-2.17193E-02 2.14523E+00 5.14269E-13 2.08706E-13
 -1       533 2.38314E+01 2.49063E+00-2.87499E-02 5.16386E-01 6.72621E-13-7.96342E-14
 -1       534 2.39637E+01 2.00901E+00-1.66435E-02-1.33543E+00 6.29764E-13-4.23203E-13
 -1       535 2.44126E+01 5.75243E-01-1.91506E-02-2.26285E+00 3.61504E-13-5.80838E-13
 -1       536 2.46181E+01-7.60299E-01-1.10989E-02-1.98622E+00 9.19703E-14-5.83420E-13
 -1       537 2.43485E+01-1.31179E+00-4.06081E-03-1.05983E+00 1.22302E-14-5.87736E-13
 -1       538 2.37779E+01-1.22733E+00-3.57216E-03-8.39554E-02-1.06163E-13-4.81319E-13
 -1       539 2.31299E+01-8.45719E-01-4.97217E-03 6.23354E-01 1.01454E-14-4.35280E-13
 -1       540 2.25452E+01-4.44964E-01-3.31869E-03 1.02302E+00-8.40371E-15-4.11230E-13
 -1       541 2.20581E+01-1.40771E-01-1.62374E-03 1.17702E+00-9.28607E-14-3.00750E-13
 -1       542 2.16608E+01 4.96672E-02-3.76391E-04 1.16905E+00-2.63591E-14-3.72976E-13
 -1       543 2.13352E+01 1.49098E-01 3.77364E-04 1.06946E+00 8.50210E-14-2.92231E-13
 -1       544 2.10657E+01 1.87720E-01 7.52018E-04 9.27700E-01-1.10958E-14-9.07222E-14
 -1       545 2.08419E+01 1.90544E-01 8.76272E-04 7.74945E-01 1.07672E-13-6.28238E-14
 -1       546 2.06565E+01 1.74814E-01 8.56723E-04 6.28923E-01 1.31925E-13-1.57313E-13
 -1       547 2.05044E+01 1.51199E-01 7.65863E-04 4.98477E-01 3.74739E-14-1.46339E-13
 -1       548 2.03812E+01 1.25765E-01 6.48346E-04 3.86979E-01 6.15901E-14 3.55686E-14
 -1       549 2.02829E+01 1.01667E-01 5.28923E-04 2.94658E-01-9.27922E-14-5.28713E-14
 -1       550 2.02056E+01 8.03362E-02 4.19764E-04 2.20090E-01-2.14382E-13-2.64215E-14
 -1       551 2.01459E+01 6.22414E-02 3.25733E-04 1.61106E-01-1.42004E-13-2.81464E-13
 -1       552 2.01006E+01 4.73418E-02 2.47767E-04 1.15318E-01-1.76735E-14-2.84918E-13
 -1       553 2.00669E+01 3.53523E-02 1.84868E-04 8.04076E-02 2.49934E-14-2.12589E-13
 -1       554 2.00423E+01 2.58897E-02 1.35211E-04 5.42706E-02 1.35028E-13-7.80558E-14
 -1       555 2.00247E+01 1.85521E-02 9.67390E-05 3.50772E-02 1.92501E-13 2.67682E-14
 -1       556 2.00125E+01 1.29590E-02 6.74546E-05 2.12836E-02 1.44849E-13-1.15949E-14
 -1       557 2.00044E+01 8.76990E-03 4.55569E-05 1.16173E-02 1.11553E-14-1.07107E-13
 -1       558 1.99992E+01 5.69128E-03 2.94907E-05 5.05033E-03-2.83113E-13-9.83382E-14
 -1       559 1.99961E+01 3.47643E-03 1.79516E-05 7.67170E-04-2.61663E-13-7.51244E-14
 -1       560 1.99945E+01 1.92247E-03 9.86929E-06-1.86858E-03 3.87651E-14-2.80777E-14
 -1       561 1.99938E+01 8.65548E-04 4.38190E-06-3.34511E-03 2.18151E-13 2.60674E-13
 -1       562 1.99939E+01 1.75514E-04 8.06428E-07-4.03043E-03 4.17644E-14 7.86664E-14
 -1       563 1.99943E+01-2.49411E-04-1.39011E-06-4.19676E-03-1.77590E-13-1.39949E-13
 -1       564 1.99949E+01-4.87634E-04-2.61776E-06-4.04116E-03-2.05147E-13-2.24487E-13
 -1       565 1.99956E+01-5.98712E-04-3.18831E-06-3.70259E-03-4.48960E-13-2.71745E-13
 -1       566 1.99963E+01-6.27351E-04-3.33688E-06-3.27574E-03-6.65335E-14-9.14556E-14
 -1       567 1.99970E+01-6.06864E-04-3.23537E-06-2.82190E-03-4.73359E-14 3.95278E-14
 -1       568 1.99976E+01-5.62113E-04-2.99982E-06-2.37746E-03 2.61675E-13 1.70527E-13
 -1       569 1.99981E+01-5.11378E-04-2.83413E-06-1.96056E-03 4.16004E-13 5.78973E-13
 -1       570 1.99986E+01-4.71022E-04-3.41162E-06-1.57946E-03 5.39400E-15 3.48126E-13
 -1       571 1.99990E+01-4.47319E-04-2.83513E-06-1.22228E-03 2.85968E-14 2.48329E-13
 -1       572 1.99993E+01-4.41761E-04-2.37421E-06-8.80970E-04-6.96687E-14 5.17375E-13
 -1       573 2.00001E+01-1.54936E-03 5.05339E-07-1.00400E-03 3.11844E-13-3.51039E-14
 -1       574 2.00002E+01-1.79861E-03 9.40553E-07-7.46858E-04 3.36739E-13 2.29786E-13
 -1       575 1.99996E+01-8.87792E-04-5.31955E-07-1.11159E-03 1.63631E-14-2.55601E-13
 -1       576 1.99998E+01-1.23392E-03-7.56571E-07-1.12927E-03 1.85522E-13-9.53328E-14
 -1       577 2.00004E+01-1.95798E-03 1.14863E-06-3.95993E-04 1.16670E-13-7.05038E-13
 -1       578 2.00004E+01-2.01201E-03 1.20463E-06 3.65693E-06-1.18172E-13-5.47439E-13
 -1       579 2.00004E+01-1.95574E-03 1.13262E-06 4.02799E-04-8.90946E-14-2.40402E-13
 -1       580 2.00002E+01-1.79813E-03 8.97418E-07 7.47001E-04 8.76883E-14 1.65002E-13
 -1       581 2.00001E+01-1.54941E-03 4.43588E-07 1.00403E-03 3.50095E-13 3.21691E-13
 -1       582 1.99998E+01-1.23041E-03-2.17340E-07 1.12937E-03 2.84112E-13 7.39600E-13
 -1       583 1.99996E+01-8.78811E-04-8.52993E-07 1.10586E-03 2.39314E-13-2.20875E-13
 -1       584 1.72150E+01-4.75596E+00 8.53764E-02 6.63924E+00-5.17357E-13 1.51573E-13
 -1       585 2.42484E+01-5.09358E+00 2.56755E-02 4.33665E+00-2.14079E-13-3.91100E-13
 -1       586 2.51866E+01-8.23977E-01-8.59136E-03 2.21529E+00 1.92098E-13 4.54056E-13
 -1       587 8.39740E+00-2.69286E+00 1.17672E-01-5.67581E+00 6.31363E-13 8.50833E-13
 -1       588 5.31865E+00-1.58698E+00 1.45395E-01-3.01994E+00 3.71054E-13 1.06917E-12
 -1       589 3.01070E+01 3.17508E+00-1.36143E-01-1.99362E+00-1.08913E-12-2.33216E-14
 -1       590 4.49845E+00 1.27316E+00 1.54850E-01 1.81297E-01 1.55280E-13-1.62752E-12
 -1       591 1.36438E+01 3.24383E+00 1.23242E-02 2.03952E+00 2.74674E-13-9.95380E-13
 -1       592 2.36882E+01 7.18891E-01-1.09639E-02-1.67254E+00-4.22028E-13-1.57129E-13
 -1       593 3.01795E+01 6.17860E-02-1.08289E-01 1.63822E+00 6.83412E-13 2.55816E-13
 -1       594 2.98906E+01 6.60550E+00-1.75614E-01 9.32437E-01 1.37278E-12-1.62732E-13
 -1       595 2.89039E+01 6.67875E+00-1.74653E-01-1.10060E+00-1.38925E-12-3.54081E-13
 -1       596 3.05801E+01 5.36282E+00-1.60191E-01-1.43325E+00 1.23948E-12-6.00443E-13
 -1       597 2.69690E+01-3.58709E+00-4.54322E-02-1.79519E+00 1.14391E-13-9.47992E-14
 -1       598 2.21375E+01-4.08940E+00 5.20034E-02-4.50686E+00-1.49658E-13-5.54624E-13
 -1       599 1.44529E+01-2.70679E+00 9.43669E-02-5.99956E+00-1.86982E-13-1.17921E-12
 -1       600 8.62525E+00-1.19123E-01 1.53708E-01-4.52429E+00-1.50942E-13-1.47429E-12
 -1       601 5.79390E+00 6.23818E-01 1.59533E-01 3.38167E+00 3.04385E-13-1.51003E-12
 -1       602 1.98617E+01-3.59941E+00 4.71203E-02 5.57349E+00 1.57617E-13-6.26769E-13
 -1       603 2.56318E+01-3.24581E+00-1.59727E-02 3.20591E+00-2.22961E-13-3.26239E-13
 -1       604 2.91306E+01-8.64590E-01-7.19154E-02-9.21376E-02-5.94622E-13-2.23918E-14
 -1       605 2.21428E+01-5.11870E+00 2.71710E-02-5.56563E+00 6.09485E-13 5.90847E-15
 -1       606 2.91950E+01 6.81190E+00-2.00348E-01 3.30937E-01-1.30465E-12-6.38312E-13
 -1       607 3.00012E+01 4.67221E+00-1.41056E-01 1.54471E+00-1.02482E-12-9.13727E-13
 -1       608 2.96286E+01-4.26891E-01-1.10258E-01 3.66658E-01-3.41387E-13-8.72857E-13
 -1       609 2.74201E+01-3.57869E+00-3.10103E-02-2.40167E+00 2.16379E-13-4.85764E-13
 -1       610 1.58879E+01-4.56088E+00 9.10262E-02-6.99167E+00 6.97664E-13 4.38507E-13
 -1       611 2.49329E+01 5.20652E-01-1.10559E-02 1.28182E+00 5.07526E-13 3.55710E-13
 -1       612 2.15128E+01 9.88329E-01-7.26584E-03-2.43723E-01-1.15646E-13-5.25390E-13
 -1       613 6.17480E+00-2.72926E-01 1.64577E-01-1.57216E-01-1.30009E-13 8.13793E-13
 -1       614 1.99994E+01-5.74535E-04-1.75220E-06 1.01750E-03 2.43738E-13 4.42765E-13
 -1       615 2.77527E+01-3.70188E+00-3.34743E-02 1.45246E+00 1.03861E-13-6.93494E-13
 -1       616 9.65014E+00 2.43674E-01 1.32605E-01 4.90674E+00 4.71217E-13-1.26066E-12
 -1       617 7.91500E+00 1.97796E+00 1.56015E-01-2.28026E+00-2.43625E-14-1.49868E-12
 -1       618 2.99202E+01-9.75509E-01-8.85735E-02-5.38804E-01 5.41780E-13-8.00499E-13
 -1       619 2.78511E+01 5.70742E+00-1.48433E-01-5.86071E-01 1.26986E-12-3.08354E-13
 -1       620 1.61329E+01-2.33032E+00 7.89595E-02 5.83535E+00 4.37470E-13-7.79172E-13
 -1       621 3.06500E+01 2.22179E+00-1.34217E-01-1.57233E+00 8.89275E-13-7.82450E-13
 -1       622 1.14317E+01 2.97613E+00 4.84575E-02-1.85572E+00-4.89019E-15-1.15441E-12
 -1       623 9.74008E+00 3.68603E+00 6.99386E-02 4.23868E-01 2.10691E-13-1.26731E-12
 -1       624 1.93662E+01 1.82967E-01 1.83608E-02-1.84357E+00-3.64775E-14-4.79416E-13
 -1       625 2.23113E+01-4.07884E-01 2.43003E-03-4.12068E-01 1.26833E-13-1.98827E-13
 -1       626 2.43748E+01-1.00304E+00 4.59507E-03 7.31958E-01 2.06405E-13 1.35101E-13
 -1       627 2.54316E+01-1.64777E+00-5.16695E-03 1.36997E+00 1.42288E-13 3.02896E-13
 -1       628 1.99995E+01-9.05222E-04-3.43948E-07-1.49210E-03-8.71877E-14 2.12624E-13
 -1       629 2.47056E+01-8.71382E-01-5.65853E-03-1.93666E+00-2.26158E-13 3.82767E-14
 -1       630 2.49533E+01 5.62310E-02-1.71033E-02-2.48857E+00-2.96186E-13 4.95754E-14
 -1       631 2.46080E+01 1.86530E+00-3.97239E-02-2.39295E+00-5.67224E-13 4.46431E-15
 -1       632 2.42442E+01 3.32560E+00-4.55135E-02-1.07862E+00-7.27558E-13-2.61751E-13
 -1       633 2.40523E+01 3.32204E+00-5.71903E-02 7.95981E-01-7.11240E-13-6.20007E-13
 -1       634 2.44363E+01 1.63077E+00-3.20344E-02 1.96068E+00-4.78435E-13-7.62361E-13
 -1       635 2.46006E+01-3.70977E-01-3.80540E-02 1.95880E+00-2.50856E-13-7.71546E-13
 -1       636 2.43181E+01-1.56973E+00-1.42236E-03 1.13786E+00-4.60049E-14-7.25623E-13
 -1       637 2.34966E+01-1.85216E+00-8.27230E-04 1.55349E-01 5.14402E-14-5.36467E-13
 -1       638 2.25913E+01-1.54211E+00-8.17785E-04-5.67750E-01 6.13706E-14-4.90854E-13
 -1       639 2.18205E+01-1.03486E+00-7.00190E-04-9.84187E-01 8.65618E-14-4.76670E-13
 -1       640 2.12483E+01-5.55360E-01-4.03969E-04-1.16396E+00 3.85807E-14-4.06363E-13
 -1       641 2.08552E+01-1.89434E-01-2.36518E-04-1.18897E+00 9.50650E-15-3.83591E-13
 -1       642 2.05958E+01 5.31742E-02-1.12166E-04-1.12242E+00 1.25506E-14-3.02193E-13
 -1       643 2.04267E+01 1.93528E-01-1.78448E-05-1.00727E+00-4.65009E-14-2.22086E-13
 -1       644 2.03151E+01 2.59843E-01 4.80251E-05-8.71323E-01-5.40737E-14-4.19941E-13
 -1       645 2.02391E+01 2.77439E-01 8.90197E-05-7.32081E-01-5.05883E-14-4.21912E-13
 -1       646 2.01849E+01 2.65783E-01 1.10189E-04-6.00077E-01 9.12468E-14-4.31372E-13
 -1       647 2.01444E+01 2.38549E-01 1.16375E-04-4.81131E-01 9.24495E-14-4.13787E-13
 -1       648 2.01132E+01 2.04723E-01 1.12264E-04-3.77888E-01 1.53277E-13-4.08585E-13
 -1       649 2.00884E+01 1.69844E-01 1.01932E-04-2.90909E-01-6.47706E-15-3.34666E-13
 -1       650 2.00685E+01 1.37073E-01 8.85267E-05-2.19456E-01 1.19315E-14-3.12446E-13
 -1       651 2.00525E+01 1.08001E-01 7.42473E-05-1.62055E-01-7.16630E-15-3.88262E-13
 -1       652 2.00397E+01 8.32287E-02 6.04923E-05-1.16889E-01 9.38104E-14-5.60995E-13
 -1       653 2.00295E+01 6.27642E-02 4.80520E-05-8.20521E-02 1.25065E-13-6.05061E-13
 -1       654 2.00215E+01 4.62873E-02 3.72907E-05-5.57149E-02 8.08298E-14-3.11153E-13
 -1       655 2.00153E+01 3.33185E-02 2.82949E-05-3.62166E-02-1.25950E-13-2.92549E-13
 -1       656 2.00106E+01 2.33250E-02 2.09838E-05-2.21079E-02-2.53702E-13-3.05566E-13
 -1       657 2.00071E+01 1.57835E-02 1.51859E-05-1.21629E-02-5.79824E-14-3.33692E-13
 -1       658 2.00045E+01 1.02144E-02 1.06911E-05-5.37148E-03 9.76610E-14-4.68153E-13
 -1       659 2.00026E+01 6.19795E-03 7.28272E-06-9.19468E-04-3.88669E-14-4.29263E-13
 -1       660 2.00013E+01 3.37896E-03 4.75597E-06 1.83579E-03-2.21928E-13-2.90770E-13
 -1       661 2.00004E+01 1.46499E-03 2.92818E-06 3.39171E-03-4.31460E-14-3.07169E-13
 -1       662 1.99999E+01 2.20567E-04 1.64249E-06 4.12575E-03-6.37449E-14-4.98674E-13
 -1       663 1.99995E+01-5.40158E-04 7.68099E-07 4.31846E-03 5.22862E-15-3.41530E-13
 -1       664 1.99993E+01-9.61273E-04 1.98735E-07 4.17354E-03 1.81050E-13-1.24012E-13
 -1       665 1.99992E+01-1.15276E-03-1.49202E-07 3.83491E-03 2.79409E-13 1.02107E-13
 -1       666 1.99992E+01-1.19751E-03-3.35149E-07 3.40063E-03 3.20160E-14 3.70514E-13
 -1       667 1.99993E+01-1.15741E-03-3.67884E-07 2.93426E-03-1.21395E-13 3.94117E-13
 -1       668 1.99993E+01-1.07865E-03-3.56981E-07 2.47388E-03 2.02976E-15 4.00172E-13
 -1       669 1.99994E+01-9.89708E-04-6.53175E-07 2.03541E-03 8.52215E-14 3.37421E-13
 -1       670 1.99995E+01-9.28742E-04 1.55241E-06 1.61868E-03 3.24234E-13-1.24807E-13
 -1       671 2.65039E+01-2.61646E+00-3.42417E-02 4.50592E-01-4.85133E-14 6.43218E-14
 -1       672 2.64835E+01 1.11301E+00-7.16498E-02 3.05279E+00 5.08480E-13 4.09020E-13
 -1       673 2.57597E+01 1.97137E+00-7.73230E-02-2.27395E+00 6.85903E-13-6.04666E-13
 -1       674 2.58196E+01-6.01624E-01-3.88444E-02-2.26635E+00 1.92215E-13-7.70990E-13
 -1       675 2.52286E+01-1.98250E+00-8.44390E-03-1.10508E+00-5.16666E-14-6.88560E-13
 -1       676 2.41235E+01-2.12368E+00-4.95894E-03 1.04155E-01-1.69652E-13-5.37110E-13
 -1       677 2.30218E+01-1.54824E+00-3.74158E-03 9.23249E-01-8.19822E-14-5.06386E-13
 -1       678 2.21473E+01-8.87736E-01-2.57686E-03 1.35281E+00-1.07214E-13-3.02118E-13
 -1       679 2.15376E+01-3.51666E-01-1.32409E-03 1.49198E+00-1.11534E-13-2.08176E-13
 -1       680 2.11330E+01 3.13545E-03-4.58595E-04 1.45775E+00-5.10700E-14-2.59733E-13
 -1       681 2.08630E+01 2.02760E-01 2.24709E-05 1.33006E+00-1.43677E-14-2.90873E-13
 -1       682 2.06750E+01 2.93166E-01 2.63978E-04 1.16002E+00-4.00307E-14-1.81162E-13
 -1       683 2.05361E+01 3.15652E-01 3.57477E-04 9.78870E-01 1.66442E-14-1.73149E-13
 -1       684 2.04275E+01 3.00312E-01 3.70868E-04 8.04691E-01 8.30918E-14-8.34424E-14
 -1       685 2.03394E+01 2.66714E-01 3.42686E-04 6.47068E-01 5.64864E-14 1.11930E-13
 -1       686 2.02669E+01 2.26610E-01 2.96575E-04 5.10188E-01 7.30231E-14-1.25035E-13
 -1       687 2.02070E+01 1.86549E-01 2.45968E-04 3.94920E-01 4.85297E-14-1.73483E-13
 -1       688 2.01581E+01 1.49846E-01 1.97841E-04 3.00215E-01-1.91314E-13 9.64978E-14
 -1       689 2.01186E+01 1.17904E-01 1.55340E-04 2.24016E-01-5.80337E-14-1.99452E-14
 -1       690 2.00871E+01 9.10557E-02 1.19472E-04 1.63852E-01-6.16042E-14-1.43251E-13
 -1       691 2.00626E+01 6.90658E-02 9.01331E-05 1.17185E-01-8.78334E-15-1.61471E-13
 -1       692 2.00437E+01 5.14314E-02 6.66994E-05 8.16174E-02 8.93266E-14-3.33445E-13
 -1       693 2.00296E+01 3.75493E-02 4.83508E-05 5.49953E-02 2.87654E-14-1.57999E-13
 -1       694 2.00191E+01 2.68090E-02 3.42406E-05 3.54532E-02 2.18349E-13 3.34377E-14
 -1       695 2.00115E+01 1.86410E-02 2.35789E-05 2.14175E-02 9.14194E-14-8.35657E-14
 -1       696 2.00062E+01 1.25391E-02 1.56681E-05 1.15912E-02-1.65658E-14-2.30745E-13
 -1       697 2.00026E+01 8.06823E-03 9.91384E-06 4.92557E-03-3.50150E-13-1.86263E-13
 -1       698 2.00003E+01 4.86362E-03 5.82240E-06 5.87924E-04-9.58990E-14-2.57754E-13
 -1       699 1.99988E+01 2.62568E-03 2.99185E-06-2.07168E-03 1.39575E-13-1.26018E-13
 -1       700 1.99980E+01 1.11280E-03 1.10066E-06-3.55185E-03 1.63737E-13-1.43199E-13
 -1       701 1.99977E+01 1.33365E-04-1.04270E-07-4.22835E-03 4.43284E-14-1.43188E-13
 -1       702 1.99976E+01-4.62241E-04-8.19273E-07-4.37888E-03-9.61533E-14-6.41292E-14
 -1       703 1.99977E+01-7.89128E-04-1.19482E-06-4.20412E-03-3.69716E-13-1.02780E-13
 -1       704 1.99979E+01-9.34652E-04-1.34624E-06-3.84526E-03-2.94074E-13-2.94476E-13
 -1       705 1.99982E+01-9.64374E-04-1.36157E-06-3.39806E-03-2.24704E-13-4.48709E-13
 -1       706 1.99984E+01-9.27186E-04-1.27956E-06-2.92411E-03 8.90756E-14-2.35504E-13
 -1       707 1.99987E+01-8.59618E-04-1.36683E-06-2.46047E-03 1.21627E-13-2.37457E-13
 -1       708 1.99989E+01-7.90703E-04-1.21366E-06-2.02730E-03 2.93431E-13 2.07910E-14
 -1       709 1.99993E+01-8.44909E-04-8.77984E-07-1.76279E-03 6.45877E-14 2.55719E-13
 -1       710 2.79396E+01 3.38423E-01-8.64065E-02-2.12752E+00-5.52601E-13 2.00423E-13
 -1       711 2.53747E+01-4.46891E+00-9.63090E-03 2.26306E+00-2.32194E-13-6.52560E-13
 -1       712 2.00008E+01-2.02191E-03 4.07181E-07-2.46038E-04 1.42558E-13-6.08465E-13
 -1       713 2.00004E+01-1.71148E-03 4.29183E-07-1.11038E-03 1.09811E-13 1.75681E-14
 -1       714 2.00008E+01-2.02081E-03 3.81222E-07 2.55288E-04 3.02750E-13-6.63112E-13
 -1       715 2.00007E+01-1.91579E-03 5.46093E-07-7.19708E-04-9.65543E-14-3.58697E-13
 -1       716 2.00007E+01-1.91544E-03 3.85751E-07 7.19863E-04 2.08261E-13 5.55781E-14
 -1       717 2.00004E+01-1.71093E-03 3.18296E-07 1.10941E-03 1.33287E-13 4.34282E-13
 -1       718 2.00001E+01-1.42494E-03-2.52753E-09 1.36935E-03 4.20670E-13 7.72961E-13
 -1       719 1.99995E+01-8.96045E-04-1.12033E-07 1.36772E-03 3.09655E-13-1.02429E-13
 -1       720 1.39078E+01-2.77252E+00 1.14249E-01-6.08622E+00 7.51864E-13 5.20348E-13
 -1       721 9.46254E+00-7.76310E-01 1.57412E-01-4.12018E+00 4.46962E-13 6.36428E-13
 -1       722 9.41753E+00-6.77677E-01 1.59996E-01 3.75842E+00-4.63879E-13 6.44720E-13
 -1       723 2.63639E+01-1.06191E+00-1.90684E-02 2.43823E+00 2.39577E-13 4.09466E-13
 -1       724 1.52719E+01 1.29213E+00 4.48279E-02 3.28165E+00 4.06032E-13-8.70642E-13
 -1       725 2.40448E+01-6.83888E-01 4.79718E-03-1.40000E+00-1.97835E-13-6.17611E-14
 -1       726 2.82625E+01 2.84891E+00-1.48409E-01-2.22032E+00 9.32948E-13-6.09745E-13
 -1       727 1.53154E+01 1.45905E+00 3.67429E-02-2.68778E+00-1.23013E-13-8.36171E-13
 -1       728 2.68053E+01 4.63421E+00-1.09306E-01 1.51634E+00-9.26460E-13-8.14241E-13
 -1       729 1.91383E+01 5.79570E-02 9.83839E-03 2.24122E+00 2.67412E-13-5.93414E-13
 -1       730 1.38747E+01-6.08823E-01 1.06974E-01-4.72143E+00-2.93984E-13-1.07453E-12
 -1       731 2.71077E+01 4.00649E+00-1.15773E-01-2.34170E+00-9.91832E-13-3.46702E-14
 -1       732 2.48067E+01-3.52385E+00 1.20413E-02-1.81020E+00-1.91715E-13 1.58276E-14
 -1       733 7.29490E+00 2.42475E+00 1.65540E-01 1.76784E+00 2.93522E-13-1.44493E-12
 -1       734 2.11993E+01-4.53037E+00 4.87240E-02 4.85862E+00-5.48339E-13-1.15755E-13
 -1       735 2.35162E+01-3.24179E+00 1.22819E-02 2.88048E+00 2.42344E-13-1.86631E-13
 -1       736 2.48816E+01-4.56785E+00 7.65908E-05-3.01548E+00 5.79335E-13-3.43670E-13
 -1       737 1.95189E+01-2.76604E+00 6.30643E-02-4.36424E+00-3.36346E-13-5.69052E-13
 -1       738 2.65428E+01 5.50978E+00-1.35765E-01 2.18693E-01-1.05844E-12-5.36383E-13
 -1       739 2.01822E+01-4.50739E+00 6.03144E-02-5.53441E+00 7.84421E-13 7.02372E-14
 -1       740 2.77382E+01-2.14139E+00-4.52508E-02 1.18417E+00 1.68434E-13 3.76230E-13
 -1       741 2.74059E+01-2.64201E+00-5.15459E-02-4.92833E-02 9.53022E-14-7.23244E-13
 -1       742 1.13789E+01 2.90396E+00 6.47930E-02 2.64420E+00 3.74840E-13-1.10790E-12
 -1       743 1.61919E+01-3.13368E+00 8.89126E-02 5.73243E+00-5.65992E-13 1.76911E-13
 -1       744 2.76345E+01 1.10424E+00-1.28020E-01 2.02189E+00-4.95312E-13-1.01047E-12
 -1       745 2.17810E+01-3.41380E-01 3.67469E-03 5.91202E-01 4.92124E-14-4.12889E-13
 -1       746 1.37186E+01-1.28029E+00 9.20897E-02 4.61820E+00-4.31809E-13 3.06394E-13
 -1       747 2.76423E+01-2.28978E+00-5.16195E-02-9.37067E-01 1.13056E-13-7.48714E-13
 -1       748 2.85869E+01 4.56608E-01-1.10444E-01-1.99149E+00 6.06962E-13-6.39641E-13
 -1       749 2.06261E+01-2.46959E+00 6.28950E-02 3.93346E+00 4.21529E-13-4.36339E-13
 -1       750 2.00001E+01-1.42917E-03 7.40313E-07-1.37086E-03 2.56754E-13-4.82947E-14
 -1       751 1.36175E+01-3.99056E-01 7.18090E-02 5.08401E+00 5.37608E-13-9.91752E-13
 -1       752 2.60085E+01 3.66223E+00-1.39471E-01 2.00829E+00 8.71095E-13 1.68004E-13
 -1       753 2.34151E+01-3.06440E-01 1.66931E-03-9.85538E-01-1.83723E-13-2.22877E-13
 -1       754 2.25765E+01-1.88048E+00-4.98328E-03-1.45482E+00-1.16863E-13-1.83899E-13
 -1       755 2.53868E+01-3.42116E+00-1.45816E-02-7.29296E-01 3.50720E-13-5.15562E-13
 -1       756 1.78870E+01-6.96709E-01 3.78668E-02-3.36542E+00-2.66579E-13-6.11932E-13
 -1       757 2.29375E+01-3.86100E+00 3.82906E-03 2.99288E+00-4.16431E-13-4.42079E-13
 -1       758 2.58350E+01 4.96369E+00-9.47663E-02-1.02789E+00-1.05598E-12-3.20828E-13
 -1       759 2.64793E+01 7.51575E-01-4.82687E-02-2.58804E+00-4.81160E-13 1.63671E-13
 -1       760 2.63269E+01 2.60395E-01-5.87199E-02 2.00379E+00-3.36001E-13-9.57437E-13
 -1       761 2.32321E+01-3.19219E+00 1.00608E-02-1.84444E+00 4.14957E-13-3.00245E-13
 -1       762 2.15687E+01-2.24424E+00 4.15223E-03-2.21356E+00 2.51156E-13-6.19166E-14
 -1       763 2.05171E+01-1.28215E+00 7.58852E-04-2.14159E+00 1.75119E-13-2.70508E-15
 -1       764 1.99352E+01-5.38919E-01-2.59940E-04-1.90276E+00 1.76262E-13 3.33581E-14
 -1       765 1.96574E+01-3.47361E-02-6.96727E-04-1.62582E+00 1.22095E-13 2.50896E-14
 -1       766 1.95594E+01 2.73457E-01-5.89944E-04-1.36405E+00 2.05554E-14 1.13085E-13
 -1       767 1.95591E+01 4.38272E-01-4.18355E-04-1.13197E+00-4.92666E-14 6.07564E-14
 -1       768 1.96065E+01 5.05093E-01-2.91429E-04-9.30608E-01-7.32673E-14 5.21086E-14
 -1       769 1.96723E+01 5.09041E-01-2.10809E-04-7.57427E-01-6.44508E-14 1.47286E-13
 -1       770 1.97405E+01 4.75658E-01-1.58656E-04-6.09493E-01 4.78393E-14 1.10450E-13
 -1       771 1.98028E+01 4.22708E-01-1.24018E-04-4.84239E-01 4.63333E-14 1.78014E-13
 -1       772 1.98559E+01 3.62018E-01-9.94802E-05-3.79387E-01-3.50891E-14-5.69946E-14
 -1       773 1.98988E+01 3.01061E-01-8.07180E-05-2.92777E-01 9.89207E-15-9.22715E-14
 -1       774 1.99322E+01 2.44224E-01-6.54672E-05-2.22270E-01 1.45950E-14-2.29860E-13
 -1       775 1.99573E+01 1.93777E-01-5.26512E-05-1.65749E-01 6.47343E-14-2.43673E-13
 -1       776 1.99755E+01 1.50598E-01-4.17848E-05-1.21156E-01 1.79710E-14-1.70808E-13
 -1       777 1.99882E+01 1.14691E-01-3.26302E-05-8.65481E-02 1.78425E-13-2.49143E-13
 -1       778 1.99968E+01 8.55503E-02-2.50269E-05-6.01493E-02 1.90837E-13-3.96433E-13
 -1       779 2.00022E+01 6.24112E-02-1.88226E-05-4.03779E-02 6.74203E-14-4.54340E-13
 -1       780 2.00054E+01 4.44079E-02-1.38552E-05-2.58639E-02-1.06955E-13-3.42909E-13
 -1       781 2.00069E+01 3.06773E-02-9.95472E-06-1.54478E-02-2.02069E-13-3.09888E-13
 -1       782 2.00074E+01 2.04171E-02-6.95224E-06-8.16903E-03-5.49179E-14-4.85473E-13
 -1       783 2.00072E+01 1.29161E-02-4.68819E-06-3.24782E-03 1.45224E-14-4.09320E-13
 -1       784 2.00066E+01 7.56524E-03-3.01835E-06-6.27620E-05 1.56317E-13-2.24147E-13
 -1       785 2.00058E+01 3.85722E-03-1.81691E-06 1.87229E-03 3.19185E-14-1.74833E-13
 -1       786 2.00049E+01 1.37934E-03-9.77535E-07 2.93074E-03 4.44522E-15-7.63457E-14
 -1       787 2.00041E+01-1.97516E-04-4.12745E-07 3.39396E-03 2.96531E-13 3.74965E-14
 -1       788 2.00033E+01-1.13102E-03-5.31051E-08 3.46963E-03 3.29081E-13 2.50381E-15
 -1       789 2.00025E+01-1.61962E-03 1.56563E-07 3.30744E-03 3.76445E-13-2.39945E-13
 -1       790 2.00019E+01-1.81394E-03 2.61291E-07 3.01225E-03 3.43118E-13-2.67190E-13
 -1       791 2.00014E+01-1.82697E-03 3.12018E-07 2.65459E-03 2.89111E-13-1.05319E-13
 -1       792 2.00009E+01-1.74224E-03 2.54019E-07 2.28019E-03 2.38696E-14 3.81316E-13
 -1       793 2.00006E+01-1.62631E-03-3.62674E-07 1.91548E-03 1.39293E-13 5.89051E-13
 -1       794 2.27907E+01-2.47854E+00 9.56806E-03 1.76715E+00-2.70650E-13-4.35055E-13
 -1       795 2.15067E+01-1.43884E+00-4.46892E-04 2.01873E+00-2.40039E-13-2.75500E-13
 -1       796 2.07419E+01-6.07536E-01-5.02073E-04 1.96955E+00-1.65037E-13-1.80299E-13
 -1       797 2.03358E+01-5.10367E-02-2.11661E-04 1.79514E+00-2.28288E-14-1.36452E-13
 -1       798 2.01435E+01 2.72290E-01-7.33887E-06 1.57659E+00-6.92747E-15-1.55980E-13
 -1       799 2.00654E+01 4.29395E-01 9.97326E-05 1.35097E+00-5.28679E-14-2.10498E-13
 -1       800 2.00416E+01 4.80214E-01 1.23365E-04 1.13506E+00-1.37153E-14-1.86341E-13
 -1       801 2.00398E+01 4.69097E-01 1.21874E-04 9.36853E-01-2.10108E-14-1.83551E-13
 -1       802 2.00440E+01 4.25678E-01 1.09084E-04 7.60260E-01-7.46284E-14-1.05844E-14
 -1       803 2.00475E+01 3.68519E-01 9.26097E-05 6.06843E-01 1.77482E-13 1.16656E-13
 -1       804 2.00483E+01 3.08561E-01 7.60274E-05 4.76513E-01 7.14387E-14 1.46084E-13
 -1       805 2.00463E+01 2.51791E-01 6.08988E-05 3.68030E-01-1.93365E-13 3.37389E-14
 -1       806 2.00423E+01 2.01120E-01 4.78100E-05 2.79422E-01-1.36228E-13-2.87658E-14
 -1       807 2.00371E+01 1.57628E-01 3.68647E-05 2.08330E-01-7.98360E-14-7.60746E-14
 -1       808 2.00316E+01 1.21354E-01 2.79353E-05 1.52264E-01-2.49991E-14-1.43249E-13
 -1       809 2.00261E+01 9.17834E-02 2.07947E-05 1.08794E-01 5.36776E-14-1.74261E-13
 -1       810 2.00211E+01 6.81457E-02 1.51840E-05 7.56688E-02-1.97962E-14-8.52815E-14
 -1       811 2.00166E+01 4.95849E-02 1.08479E-05 5.08808E-02 2.22336E-14-1.47750E-13
 -1       812 2.00129E+01 3.52587E-02 7.55211E-06 3.26929E-02 2.33652E-13 9.87968E-14
 -1       813 2.00097E+01 2.43907E-02 5.09004E-06 1.96401E-02 9.26574E-14 1.72989E-13
 -1       814 2.00072E+01 1.62947E-02 3.28526E-06 1.05133E-02-1.88826E-13 2.51977E-13
 -1       815 2.00052E+01 1.03827E-02 1.99043E-06 4.33400E-03 4.86795E-15-6.20855E-15
 -1       816 2.00037E+01 6.16241E-03 1.08483E-06 3.24449E-04-8.63717E-14-2.28519E-13
 -1       817 2.00025E+01 3.23046E-03 4.71278E-07-2.12259E-03 6.38572E-14-1.29476E-14
 -1       818 2.00016E+01 1.26194E-03 7.28335E-08-3.47297E-03 4.67306E-14 1.86334E-14
 -1       819 2.00009E+01-3.89388E-07-1.70436E-07-4.07758E-03-6.98547E-14 2.10294E-13
 -1       820 2.00005E+01-7.57073E-04-3.04594E-07-4.19547E-03-1.63984E-13 4.45349E-13
 -1       821 2.00002E+01-1.16215E-03-3.65650E-07-4.01350E-03-1.93015E-13 1.25242E-13
 -1       822 1.99999E+01-1.33238E-03-3.87582E-07-3.66275E-03-1.60841E-13-1.62987E-13
 -1       823 1.99998E+01-1.35529E-03-3.85285E-07-3.23187E-03-8.35808E-14-3.39715E-13
 -1       824 1.99997E+01-1.29638E-03-4.53264E-07-2.77754E-03-1.74131E-14 8.81167E-15
 -1       825 1.99997E+01-1.20423E-03-2.41480E-07-2.33458E-03 1.67637E-13 1.06309E-13
 -1       826 2.00012E+01-2.07410E-03 2.61634E-07 5.90048E-04 4.06223E-13-4.06862E-13
 -1       827 2.00013E+01-2.13006E-03 3.34262E-07 8.92066E-07 2.81005E-13-2.97029E-13
 -1       828 2.58486E+01-2.48280E+00-6.92092E-04 5.25857E-01 6.46184E-15 2.32164E-13
 -1       829 2.64356E+01-1.65265E+00-1.87293E-02-1.09953E+00-1.50482E-13 1.16126E-13
 -1       830 2.00009E+01-1.91242E-03-1.08520E-07 1.11531E-03 3.25653E-13 6.93398E-14
 -1       831 2.57654E+01-3.17846E+00-9.95201E-04 1.68444E-01-1.21098E-13-6.95143E-13
 -1       832 2.39989E+01-1.19944E+00-5.03155E-03-7.38601E-01-7.18994E-14-1.81404E-13
 -1       833 1.36847E+01-1.01677E+00 7.96370E-02-4.51519E+00 5.19309E-13 4.15661E-13
 -1       834 2.25192E+01-4.04902E+00 1.82340E-02-3.56149E+00 5.97812E-13-1.21259E-13
 -1       835 2.54877E+01-1.31593E+00-1.90117E-02-1.59072E+00-1.92298E-13 8.01504E-14
 -1       836 1.06096E+01 2.02805E+00 1.44411E-01 3.35193E+00 4.17364E-13-1.18770E-12
 -1       837 1.06363E+01 1.59637E+00 1.06900E-01-3.23400E+00-1.27074E-13-1.25995E-12
 -1       838 2.28402E+01-2.54548E+00 2.03621E-02-1.97589E+00-2.18789E-13-1.58666E-13
 -1       839 9.41061E+00 4.77658E-01 1.11865E-01 1.12528E+00-7.47241E-14 5.47007E-13
 -1       840 1.97483E+01-3.18157E+00 3.06290E-02 4.35916E+00-4.68344E-13-6.37051E-14
 -1       841 2.45290E+01-2.42161E+00-8.68725E-04 6.75728E-01 1.30966E-13-6.86697E-14
 -1       842 1.04351E+01 4.40090E-01 9.86065E-02-2.16931E+00 2.45066E-13 3.55549E-13
 -1       843 2.45842E+01-2.00499E+00 2.12801E-03 1.18607E-01 2.26809E-14 1.11099E-13
 -1       844 1.78783E+01-2.92928E+00 5.14804E-02-5.11118E+00 7.21924E-13 1.45205E-13
 -1       845 1.73361E+01-1.75010E+00 4.58169E-02 4.24306E+00-3.61947E-13 4.72417E-14
 -1       846 2.23985E+01-1.78627E+00 1.36271E-02 1.64116E+00 2.26055E-13-2.40375E-13
 -1       847 2.00000E+01-1.29946E-03-2.47741E-06 1.79404E-03 8.11563E-14 6.38288E-13
 -1       848 1.99998E+01-1.23196E-03 7.60335E-07-1.99049E-03-6.40795E-14 4.05477E-13
 -1       849 2.00001E+01-1.40011E-03 8.44670E-07-1.68880E-03 5.77947E-14 2.70504E-13
 -1       850 2.00006E+01-1.71786E-03-4.11984E-07-1.40524E-03 3.03163E-14-1.68383E-13
 -1       851 2.00012E+01-2.07397E-03 2.45487E-07-5.88490E-04-6.98386E-14-4.76752E-13
 -1       852 1.21154E+01 1.59351E-01 6.85486E-02 2.86079E+00-2.34018E-13 3.87582E-13
 -1       853 2.00005E+01-1.65103E-03 9.10318E-07 1.51875E-03 1.45853E-13 7.46561E-13
 -1       854 2.00010E+01-1.93174E-03 6.80435E-08-1.04446E-03 6.65917E-14-1.10699E-13
 -1       855 2.64068E+01-1.09033E+00 1.43760E-02 1.50684E+00-1.79244E-13-9.14638E-13
 -1       856 1.35815E+01 3.09390E-01 4.26745E-02-2.72728E+00 2.65508E-13 2.19176E-13
 -1       857 2.03630E+01-2.66773E+00 1.92751E-02-3.55168E+00 5.17206E-13 8.72386E-14
 -1       858 1.92935E+01-1.38542E+00 5.07709E-03-2.96683E+00 2.69045E-13 1.42648E-13
 -1       859 1.88627E+01-4.95849E-01 3.04702E-03-2.36787E+00 1.69521E-13 1.24273E-13
 -1       860 1.87682E+01 8.10086E-02 1.15751E-03-1.85950E+00 1.18249E-13-1.87631E-14
 -1       861 1.88396E+01 4.18204E-01 6.28171E-04-1.46513E+00 6.02639E-14-1.60125E-13
 -1       862 1.89799E+01 5.95468E-01 3.46355E-04-1.16101E+00 2.14067E-14-5.29369E-14
 -1       863 1.91433E+01 6.64189E-01 2.03154E-04-9.24096E-01 3.77155E-15 9.90776E-14
 -1       864 1.93043E+01 6.63090E-01 9.86162E-05-7.36352E-01-9.15961E-14 1.34408E-13
 -1       865 1.94506E+01 6.19669E-01 4.03630E-05-5.85078E-01-4.37345E-14 9.67921E-14
 -1       866 1.95771E+01 5.53271E-01 1.03983E-05-4.61963E-01 3.31654E-14 8.84294E-14
 -1       867 1.96824E+01 4.77194E-01-3.80521E-06-3.61453E-01-1.12963E-13-2.96219E-14
 -1       868 1.97676E+01 4.00187E-01-9.59969E-06-2.79618E-01-7.92833E-14 1.46821E-14
 -1       869 1.98348E+01 3.27639E-01-1.10725E-05-2.13453E-01-5.01765E-14-3.06501E-15
 -1       870 1.98864E+01 2.62532E-01-1.04566E-05-1.60491E-01 1.55174E-15 1.29957E-13
 -1       871 1.99252E+01 2.06177E-01-8.96035E-06-1.18608E-01 1.69962E-14-7.87546E-17
 -1       872 1.99536E+01 1.58790E-01-7.22204E-06-8.59322E-02-3.88964E-14-7.66146E-14
 -1       873 1.99738E+01 1.19909E-01-5.56021E-06-6.08177E-02 1.35967E-13-1.46607E-13
 -1       874 1.99877E+01 8.86936E-02-4.11541E-06-4.18248E-02 1.62662E-13-1.69008E-13
 -1       875 1.99969E+01 6.41322E-02-2.93145E-06-2.77148E-02-2.61191E-14-3.24909E-13
 -1       876 2.00027E+01 4.51793E-02-2.00224E-06-1.74396E-02-8.38675E-14-1.99893E-13
 -1       877 2.00060E+01 3.08378E-02-1.29862E-06-1.01277E-02-2.35724E-13-2.28371E-13
 -1       878 2.00076E+01 2.02059E-02-7.83147E-07-5.06703E-03 2.12030E-13-2.85552E-13
 -1       879 2.00081E+01 1.24988E-02-4.18100E-07-1.68545E-03 1.78637E-13-6.88628E-14
 -1       880 2.00078E+01 7.05348E-03-1.69270E-07 4.68735E-04 8.77242E-14-1.64182E-13
 -1       881 2.00071E+01 3.32353E-03-7.55841E-09 1.74618E-03 5.78832E-14-3.16187E-13
 -1       882 2.00062E+01 8.68051E-04 9.06082E-08 2.41430E-03 9.85382E-14-2.24880E-13
 -1       883 2.00053E+01-6.61975E-04 1.42971E-07 2.67323E-03 3.17470E-13-1.97069E-13
 -1       884 2.00043E+01-1.53806E-03 1.58788E-07 2.66962E-03 8.16149E-14-1.46690E-14
 -1       885 2.00034E+01-1.96811E-03 1.44685E-07 2.50840E-03 2.61660E-13-3.45628E-14
 -1       886 2.00026E+01-2.10935E-03 1.46422E-07 2.26241E-03 2.11409E-13-2.52686E-13
 -1       887 2.00019E+01-2.07869E-03 3.13048E-07 1.98024E-03 3.94246E-13-2.53076E-13
 -1       888 2.00014E+01-1.96218E-03-3.71744E-08 1.69260E-03 3.44515E-13 8.89096E-14
 -1       889 2.00018E+01-2.24575E-03-3.20104E-07 3.54771E-04 1.94195E-13-3.28745E-13
 -1       890 1.95417E+01-7.62689E-01 2.21743E-03 2.58220E+00-2.52361E-13-1.55664E-13
 -1       891 2.03243E+01-1.88249E+00 1.55764E-02 3.03922E+00-3.72434E-13-2.02693E-13
 -1       892 1.92309E+01 3.80679E-01-7.94896E-05 1.75919E+00-7.08856E-14 2.67397E-14
 -1       893 1.93128E+01 5.88653E-01 5.64510E-05 1.45134E+00 6.50752E-15 9.38179E-14
 -1       894 1.94344E+01 6.61303E-01 5.24620E-05 1.19674E+00-5.48839E-14 2.45811E-14
 -1       895 1.95587E+01 6.53300E-01 4.26624E-05 9.82217E-01-2.65576E-14 8.18603E-14
 -1       896 1.96695E+01 6.00946E-01 3.19320E-05 7.99323E-01-7.67725E-14 1.00781E-13
 -1       897 1.97610E+01 5.27740E-01 2.29954E-05 6.43212E-01-2.34521E-14 5.34698E-16
 -1       898 1.98330E+01 4.48230E-01 1.64558E-05 5.10837E-01 1.27441E-13 1.07862E-13
 -1       899 1.98875E+01 3.70917E-01 1.18453E-05 3.99875E-01-3.55729E-14 1.94307E-13
 -1       900 1.99277E+01 3.00353E-01 8.58677E-06 3.08175E-01-1.41460E-13 4.15225E-14
 -1       901 1.99563E+01 2.38599E-01 6.24439E-06 2.33561E-01 3.70758E-14-5.89849E-14
 -1       902 1.99763E+01 1.86192E-01 4.52973E-06 1.73819E-01-2.21174E-14-2.26362E-13
 -1       903 1.99896E+01 1.42789E-01 3.25796E-06 1.26764E-01 3.68379E-14-1.76106E-13
 -1       904 1.99983E+01 1.07580E-01 2.30898E-06 9.03196E-02 5.52393E-14-3.92205E-14
 -1       905 2.00035E+01 7.95417E-02 1.60166E-06 6.25813E-02 7.94357E-15-1.57229E-13
 -1       906 2.00063E+01 5.76000E-02 1.07836E-06 4.18558E-02-8.48450E-14 7.71081E-14
 -1       907 2.00076E+01 4.07214E-02 6.96196E-07 2.66795E-02 1.10857E-13 3.31346E-13
 -1       908 2.00079E+01 2.79635E-02 4.22103E-07 1.58176E-02 2.65996E-14 3.63858E-13
 -1       909 2.00075E+01 1.84985E-02 2.30124E-07 8.25043E-03 7.81130E-15 1.07793E-13
 -1       910 2.00068E+01 1.16199E-02 9.97554E-08 3.15278E-03 1.43135E-13 3.00678E-13
 -1       911 2.00059E+01 6.73828E-03 1.48663E-08-1.30958E-04-7.16869E-14 5.44238E-14
 -1       912 2.00050E+01 3.37165E-03-3.70816E-08-2.11223E-03-6.69179E-14 1.73626E-13
 -1       913 2.00041E+01 1.13312E-03-6.55620E-08-3.18285E-03-2.21545E-14 4.10941E-13
 -1       914 2.00032E+01-2.82862E-04-7.72653E-08-3.63732E-03-1.12515E-13 1.71202E-13
 -1       915 2.00025E+01-1.11385E-03-7.72821E-08-3.69242E-03 1.56173E-13 4.52241E-14
 -1       916 2.00019E+01-1.54185E-03-7.24231E-08-3.50403E-03 2.45737E-14 2.21972E-14
 -1       917 2.00014E+01-1.70448E-03-9.11338E-08-3.18066E-03-1.61930E-13-2.67139E-14
 -1       918 2.00010E+01-1.70561E-03-3.21675E-07-2.79663E-03-1.06272E-13 7.63469E-14
 -1       919 2.00006E+01-1.61898E-03 2.00707E-07-2.39913E-03-1.05043E-13 6.70221E-14
 -1       920 2.00016E+01-2.12991E-03-3.34791E-07 1.01486E-03 4.87981E-13-3.13322E-13
 -1       921 1.92626E+01-3.86929E-02 9.41803E-05 2.13545E+00-1.00190E-13-1.43523E-13
 -1       922 1.19596E+01 1.02661E+00 5.77211E-02-6.19069E-02 2.49857E-14 2.75354E-13
 -1       923 1.66428E+01-1.28769E+00 3.13826E-02-4.06040E+00 4.50863E-13 1.45653E-13
 -1       924 2.00006E+01-1.62373E-03-2.47154E-07-2.02498E-03-1.27401E-14 2.54761E-13
 -1       925 2.00018E+01-2.24384E-03-1.37684E-07-3.46109E-04 2.69664E-13-1.74261E-13
 -1       926 1.52667E+01-4.33851E-01 3.51846E-02 3.49639E+00-3.73167E-13 2.22344E-13
 -1       927 2.00012E+01-1.93554E-03-3.67326E-07-1.48047E-03 3.54862E-13 2.33802E-13
 -1       928 1.72146E+01-2.33527E-01 6.59725E-03-2.74097E+00 1.59183E-13 1.36376E-13
 -1       929 1.75488E+01 3.21039E-01-2.85980E-03-1.98984E+00 1.95409E-14 9.58129E-14
 -1       930 1.79255E+01 6.36522E-01-8.97828E-04-1.45875E+00-2.52298E-14-4.66174E-14
 -1       931 1.82913E+01 7.90899E-01-1.42068E-04-1.09231E+00 2.99814E-14-4.19381E-14
 -1       932 1.86165E+01 8.40637E-01 2.65365E-05-8.32671E-01 8.29492E-14-7.24694E-14
 -1       933 1.88970E+01 8.23970E-01 2.28141E-05-6.42390E-01-4.26089E-14-5.52960E-14
 -1       934 1.91344E+01 7.65932E-01 9.54281E-06-4.98557E-01-8.00179E-14 8.32423E-15
 -1       935 1.93321E+01 6.84622E-01 1.97951E-06-3.87346E-01-1.30413E-14-5.54055E-14
 -1       936 1.94938E+01 5.93169E-01-1.07369E-06-3.00022E-01-9.22273E-14-1.81888E-13
 -1       937 1.96238E+01 5.00671E-01-1.77365E-06-2.30885E-01-2.43145E-14-1.55311E-13
 -1       938 1.97265E+01 4.13042E-01-1.50507E-06-1.76036E-01 4.94437E-14 1.11767E-13
 -1       939 1.98062E+01 3.33757E-01-9.40757E-07-1.32647E-01 9.65956E-14 2.13004E-13
 -1       940 1.98669E+01 2.64499E-01-3.73770E-07-9.85487E-02-9.13181E-14 2.07941E-13
 -1       941 1.99121E+01 2.05706E-01 8.44950E-08-7.20011E-02-2.06324E-13 1.44412E-13
 -1       942 1.99451E+01 1.56995E-01 4.07023E-07-5.15679E-02 6.69125E-14 1.55763E-13
 -1       943 1.99686E+01 1.17503E-01 6.04038E-07-3.60493E-02 1.96017E-14-7.67864E-14
 -1       944 1.99848E+01 8.61176E-02 6.99725E-07-2.44409E-02-5.99680E-14-3.47984E-13
 -1       945 1.99956E+01 6.16460E-02 7.20878E-07-1.59065E-02-1.18251E-14-3.31812E-13
 -1       946 2.00024E+01 4.29233E-02 6.91704E-07-9.75651E-03-3.97818E-14-1.12540E-13
 -1       947 2.00063E+01 2.88756E-02 6.31904E-07-5.42910E-03 2.23125E-14 2.60317E-13
 -1       948 2.00082E+01 1.85533E-02 5.56373E-07-2.47256E-03 1.05690E-13 8.43297E-14
 -1       949 2.00089E+01 1.11430E-02 4.75681E-07-5.28812E-04 2.37294E-13-6.56691E-14
 -1       950 2.00086E+01 5.96639E-03 3.96842E-07 6.81743E-04-6.28697E-15 3.21324E-14
 -1       951 2.00079E+01 2.46990E-03 3.24053E-07 1.37403E-03 5.86465E-14-7.19869E-14
 -1       952 2.00070E+01 2.10720E-04 2.58960E-07 1.71045E-03 4.02142E-13 7.54740E-14
 -1       953 2.00059E+01-1.15902E-03 1.99246E-07 1.81150E-03 2.70954E-13 1.28379E-13
 -1       954 2.00048E+01-1.90814E-03 1.21277E-07 1.76462E-03 1.54089E-13 2.00808E-13
 -1       955 2.00038E+01-2.24123E-03 1.44685E-07 1.63174E-03-5.19435E-14-1.84188E-13
 -1       956 2.00030E+01-2.30966E-03 8.30602E-07 1.45641E-03 1.39849E-13-1.74925E-13
 -1       957 2.00022E+01-2.25260E-03 1.74326E-07 1.23254E-03 4.63359E-13-1.26940E-13
 -1       958 1.90109E+01 8.42540E-01-4.97885E-09 9.20026E-01-1.99172E-14 1.47664E-13
 -1       959 1.87339E+01 8.56712E-01 3.56707E-05 1.13524E+00-3.03908E-15 1.18339E-13
 -1       960 1.84138E+01 7.86899E-01 9.48732E-05 1.41723E+00-8.12351E-14 2.47978E-14
 -1       961 1.92425E+01 7.79219E-01 3.06192E-06 7.47501E-01-7.49977E-14 1.51941E-13
 -1       962 1.94305E+01 6.91016E-01 2.46320E-06 6.04847E-01-2.80837E-14 2.20620E-13
 -1       963 1.95798E+01 5.93787E-01 1.14314E-06 4.85123E-01 2.47570E-14 2.98554E-13
 -1       964 1.96961E+01 4.97475E-01 1.38045E-07 3.84483E-01 3.24081E-15 3.11272E-13
 -1       965 1.97851E+01 4.07908E-01-4.21545E-07 3.00475E-01 6.39506E-14 1.70104E-13
 -1       966 1.98521E+01 3.28113E-01-6.54179E-07 2.31184E-01 1.13849E-14-4.75588E-14
 -1       967 1.99016E+01 2.59263E-01-6.94281E-07 1.74858E-01 2.35083E-14 3.15523E-14
 -1       968 1.99375E+01 2.01361E-01-6.38003E-07 1.29793E-01 2.73204E-14-3.70469E-14
 -1       969 1.99629E+01 1.53710E-01-5.43386E-07 9.43315E-02 4.07599E-15-1.13819E-13
 -1       970 1.99805E+01 1.15247E-01-4.41639E-07 6.69042E-02-7.28202E-14 2.21130E-13
 -1       971 1.99923E+01 8.47504E-02-3.47580E-07 4.60692E-02-1.46592E-13 3.90961E-13
 -1       972 1.99999E+01 6.09860E-02-2.66922E-07 3.05429E-02-1.32909E-13 4.23316E-13
 -1       973 2.00044E+01 4.27850E-02-2.00743E-07 1.92135E-02 2.31103E-14 5.57873E-13
 -1       974 2.00068E+01 2.90932E-02-1.48011E-07 1.11419E-02 2.27471E-13 4.76622E-13
 -1       975 2.00078E+01 1.89902E-02-1.06897E-07 5.55278E-03 7.89612E-15 3.41724E-13
 -1       976 2.00079E+01 1.16943E-02-7.54197E-08 1.81875E-03 5.68507E-14 3.84884E-13
 -1       977 2.00074E+01 6.55625E-03-5.16967E-08-5.57849E-04-1.25199E-13 6.30704E-13
 -1       978 2.00066E+01 3.04719E-03-3.38961E-08-1.96448E-03-1.68594E-13 3.81688E-13
 -1       979 2.00057E+01 7.44200E-04-1.97008E-08-2.69714E-03 1.42751E-13 2.38997E-13
 -1       980 2.00048E+01-6.85463E-04-5.02964E-09-2.97754E-03 2.33446E-13 1.84133E-13
 -1       981 2.00039E+01-1.49947E-03 2.00048E-08-2.96814E-03-7.85671E-14 4.33000E-14
 -1       982 2.00030E+01-1.89446E-03-5.24087E-08-2.78546E-03-3.51282E-14 1.63122E-13
 -1       983 2.00023E+01-2.02390E-03-4.29864E-07-2.50687E-03-2.21778E-13 1.82024E-13
 -1       984 2.00017E+01-1.97728E-03 2.49910E-07-2.19272E-03-1.42648E-13 2.90173E-13
 -1       985 2.00026E+01-2.37774E-03-1.42154E-07 4.64805E-04 3.94787E-13-2.04518E-13
 -1       986 2.00014E+01-1.97441E-03 2.94922E-07-1.82590E-03-1.10585E-14 2.63692E-13
 -1       987 2.00016E+01-2.12856E-03 1.25038E-07-9.95231E-04 1.27434E-13-6.90377E-13
 -1       988 1.78943E+01-7.54200E-01 1.08176E-02 3.17258E+00-3.45002E-13-1.85162E-14
 -1       989 1.41221E+01 1.01941E+00 1.09317E-02-9.97385E-01 6.74725E-14 1.12033E-13
 -1       990 1.35246E+01 8.55524E-01 1.94839E-02 1.57588E+00-6.96617E-14 1.90742E-13
 -1       991 1.80700E+01 5.74501E-01-4.54426E-04 1.80494E+00-1.71168E-13-3.56199E-14
 -1       992 1.56219E+01 4.10600E-01 1.37333E-02-2.31094E+00 1.77705E-13 1.38744E-13
 -1       993 2.00026E+01-2.38280E-03-1.50404E-07-3.50303E-04 3.45980E-13-3.63223E-13
 -1       994 2.00020E+01-2.19334E-03-3.38746E-07-1.29817E-03 2.68447E-13-5.99400E-13
 -1       995 1.46320E+01 1.20933E+00 6.15370E-03 3.03596E-01 9.07091E-14 1.05909E-13
 -1       996 1.77464E+01 1.40875E-01 6.65253E-04 2.36399E+00-1.33940E-13-5.46873E-14
 -1       997 1.57951E+01 1.01359E+00 7.25252E-03-1.17436E+00 5.85075E-14 8.49342E-14
 -1       998 1.59051E+01 4.45955E-01 1.12811E-02 2.32580E+00-1.39083E-13 1.11277E-13
 -1       999 2.00024E+01-2.22868E-03 1.05407E-06-1.63824E-03-1.30183E-13 1.25190E-13
 -1      1000 1.68772E+01 9.21643E-01 3.30960E-03-1.17134E+00-6.54396E-14 1.87025E-13
 -1      1001 1.75381E+01 1.01479E+00-7.05935E-04-8.34556E-01-8.79309E-14 2.51652E-13
 -1      1002 1.80670E+01 1.02375E+00 7.21729E-05-6.04016E-01-2.50619E-14 6.65928E-14
 -1      1003 1.84861E+01 9.81157E-01-1.89316E-05-4.44594E-01-4.18343E-14-1.08469E-13
 -1      1004 1.88227E+01 9.04201E-01-7.29198E-07-3.30563E-01-3.81750E-15-1.09430E-13
 -1      1005 1.90937E+01 8.06980E-01 2.31993E-06-2.47580E-01-1.85865E-13-1.66464E-13
 -1      1006 1.93112E+01 7.00867E-01 3.20000E-06-1.86043E-01-1.54738E-13-3.54225E-13
 -1      1007 1.94845E+01 5.94332E-01 3.36606E-06-1.39759E-01 3.99608E-14-2.33517E-13
 -1      1008 1.96210E+01 4.93260E-01 3.11191E-06-1.04619E-01 1.01815E-13-6.12943E-14
 -1      1009 1.97272E+01 4.01329E-01 2.66892E-06-7.78083E-02 1.59617E-13-1.50022E-13
 -1      1010 1.98086E+01 3.20464E-01 2.18643E-06-5.73329E-02-2.27513E-14-6.57718E-14
 -1      1011 1.98699E+01 2.51283E-01 1.73818E-06-4.17331E-02-1.63213E-13-1.48693E-13
 -1      1012 1.99151E+01 1.93500E-01 1.35175E-06-2.99112E-02-2.48213E-13-1.18784E-13
 -1      1013 1.99479E+01 1.46261E-01 1.03199E-06-2.10234E-02-9.85474E-14-3.05253E-13
 -1      1014 1.99710E+01 1.08395E-01 7.74131E-07-1.44110E-02-9.43136E-14-1.53386E-13
 -1      1015 1.99868E+01 7.86062E-02 5.70081E-07-9.55520E-03-9.60883E-14-1.52980E-13
 -1      1016 1.99972E+01 5.56004E-02 4.11220E-07-6.04590E-03 1.00231E-13-1.38423E-13
 -1      1017 2.00036E+01 3.81627E-02 2.89482E-07-3.55894E-03 1.35058E-13 1.23000E-13
 -1      1018 2.00072E+01 2.52034E-02 1.97729E-07-1.83920E-03-2.80999E-14-9.85330E-15
 -1      1019 2.00089E+01 1.57781E-02 1.29838E-07-6.87218E-04 7.95149E-14-2.31009E-14
 -1      1020 2.00094E+01 9.09011E-03 8.06716E-08 5.15752E-05 1.18585E-13-2.81976E-13
 -1      1021 2.00090E+01 4.48268E-03 4.60616E-08 4.95625E-04 3.31943E-14-2.64540E-13
 -1      1022 2.00082E+01 1.42554E-03 2.28605E-08 7.34542E-04 2.09974E-13-3.48459E-13
 -1      1023 2.00071E+01-5.01727E-04 8.56533E-09 8.35102E-04 4.93658E-13-2.75957E-13
 -1      1024 2.00060E+01-1.62680E-03-5.17187E-09 8.46197E-04 2.03753E-13-8.11159E-14
 -1      1025 2.00049E+01-2.20100E-03 5.19835E-08 8.02221E-04 3.78665E-14-1.42477E-13
 -1      1026 2.00038E+01-2.41059E-03 6.27142E-07 7.30251E-04 1.13164E-13-2.68103E-14
 -1      1027 2.00032E+01-2.43170E-03-2.20032E-07 5.91378E-04 2.28512E-13-9.91686E-14
 -1      1028 1.84374E+01 1.02023E+00-1.92372E-05 7.22789E-01-1.13290E-13-3.05747E-14
 -1      1029 1.79803E+01 1.05242E+00-6.49855E-05 9.04273E-01-1.26247E-13-1.77076E-13
 -1      1030 1.93141E+01 7.31126E-01-5.63084E-06 3.89633E-01-6.86030E-14 1.67582E-13
 -1      1031 1.94919E+01 6.19560E-01-3.20673E-06 3.13511E-01-6.32852E-15 1.39236E-13
 -1      1032 1.96298E+01 5.14064E-01-2.17872E-06 2.48976E-01 7.03911E-14 1.98379E-13
 -1      1033 1.97357E+01 4.18447E-01-1.69415E-06 1.94733E-01 1.02567E-13 4.10500E-14
 -1      1034 1.98157E+01 3.34573E-01-1.40161E-06 1.49766E-01-3.73940E-14 9.80851E-14
 -1      1035 1.98754E+01 2.62941E-01-1.17538E-06 1.13092E-01 1.28498E-13 1.94857E-13
 -1      1036 1.99191E+01 2.03144E-01-9.77697E-07 8.37010E-02 5.93910E-14 2.32943E-13
 -1      1037 1.99505E+01 1.54225E-01-8.00750E-07 6.05672E-02-1.24349E-13 3.56598E-13
 -1      1038 1.99725E+01 1.14946E-01-6.44647E-07 4.26925E-02-2.94911E-13 3.64790E-13
 -1      1039 1.99875E+01 8.39582E-02-5.10187E-07 2.91439E-02-1.75353E-13 4.96070E-13
 -1      1040 1.99972E+01 5.99340E-02-3.97081E-07 1.90817E-02 4.36796E-14 2.81302E-13
 -1      1041 2.00033E+01 4.16340E-02-3.03933E-07 1.17741E-02 2.62459E-13 3.29428E-13
 -1      1042 2.00067E+01 2.79499E-02-2.28663E-07 6.60080E-03 4.75059E-14 3.04515E-13
 -1      1043 2.00083E+01 1.79214E-02-1.68889E-07 3.04898E-03-4.93892E-14 4.86114E-13
 -1      1044 2.00087E+01 1.07374E-02-1.22187E-07 7.04010E-04-8.63674E-14 6.67868E-13
 -1      1045 2.00084E+01 5.72761E-03-8.61542E-08-7.62522E-04 5.32856E-14 5.91312E-13
 -1      1046 2.00076E+01 2.34915E-03-5.80127E-08-1.60558E-03 1.37537E-13 3.05415E-13
 -1      1047 2.00066E+01 1.69721E-04-3.30710E-08-2.01921E-03 1.11500E-13 2.47504E-13
 -1      1048 2.00056E+01-1.14906E-03-1.18096E-09-2.14803E-03 2.59419E-13 4.64754E-13
 -1      1049 2.00046E+01-1.86811E-03-4.41293E-09-2.09756E-03-6.56311E-16 3.78745E-13
 -1      1050 2.00036E+01-2.18883E-03 1.61373E-07-1.94292E-03-9.93364E-14 4.47553E-13
 -1      1051 1.87999E+01 9.43366E-01-2.01117E-05 5.87571E-01-3.96549E-14 2.09680E-13
 -1      1052 2.00023E+01-2.31015E-03 7.63691E-08-8.48039E-04 5.36879E-13-3.50594E-13
 -1      1053 1.90873E+01 8.42329E-01-1.10768E-05 4.79531E-01-8.69161E-14 2.07201E-13
 -1      1054 1.73950E+01 1.02191E+00 2.46333E-03 1.17424E+00-6.26043E-14-1.85116E-13
 -1      1055 2.00032E+01-2.44697E-03 2.04772E-07-3.03848E-04 3.36079E-13-3.45657E-13
 -1      1056 1.67007E+01 8.51016E-01 2.72859E-03 1.62606E+00-7.03803E-14-6.11510E-14
 -1      1057 1.60415E+01 1.25225E+00 6.60211E-04 7.70164E-02 5.31217E-14 1.21253E-13
 -1      1058 2.00028E+01-2.34186E-03-1.38029E-06-1.15008E-03 2.06537E-13-4.33416E-13
 -1      1059 1.75766E+01 1.16999E+00 1.00694E-04-1.98346E-01-2.15955E-13 2.32800E-13
 -1      1060 1.81285E+01 1.10654E+00 3.44589E-05-1.22443E-01-1.46541E-13 1.18825E-13
 -1      1061 1.85576E+01 1.01444E+00 1.27188E-05-7.09125E-02-1.00817E-15 1.97454E-14
 -1      1062 1.88941E+01 9.05323E-01 8.38190E-06-3.77754E-02-1.08171E-13-1.10249E-13
 -1      1063 1.91597E+01 7.88454E-01 8.52621E-06-1.71989E-02-1.77250E-13-1.39607E-14
 -1      1064 1.93692E+01 6.71534E-01 8.30010E-06-5.06146E-03-1.05606E-13 5.74947E-15
 -1      1065 1.95336E+01 5.60317E-01 7.27165E-06 1.54818E-03 1.41141E-13-2.45263E-13
 -1      1066 1.96614E+01 4.58630E-01 5.90007E-06 4.67014E-03 1.92130E-13-1.38217E-13
 -1      1067 1.97596E+01 3.68613E-01 4.54716E-06 5.70242E-03 8.25167E-14-3.09853E-13
 -1      1068 1.98338E+01 2.91073E-01 3.37837E-06 5.57328E-03-1.38996E-13-2.68144E-13
 -1      1069 1.98891E+01 2.25850E-01 2.43713E-06 4.87504E-03-1.66236E-13-7.53612E-14
 -1      1070 1.99295E+01 1.72140E-01 1.71053E-06 3.96708E-03-2.20980E-13 5.69233E-14
 -1      1071 1.99583E+01 1.28768E-01 1.16558E-06 3.05273E-03-5.42044E-14-1.78289E-14
 -1      1072 1.99783E+01 9.43851E-02 7.66102E-07 2.23504E-03-1.41996E-13-2.94755E-13
 -1      1073 1.99918E+01 6.76164E-02 4.79323E-07 1.55560E-03 7.32230E-15-6.56849E-14
 -1      1074 2.00004E+01 4.71499E-02 2.77935E-07 1.02066E-03 2.44307E-13-1.51294E-13
 -1      1075 2.00056E+01 3.17942E-02 1.40107E-07 6.18054E-04 9.21566E-14 5.52113E-14
 -1      1076 2.00083E+01 2.05045E-02 4.88189E-08 3.27591E-04-1.18008E-13 1.16048E-13
 -1      1077 2.00094E+01 1.23908E-02-8.96468E-09 1.27143E-04-1.41019E-13-1.42389E-13
 -1      1078 2.00094E+01 6.71301E-03-4.29790E-08-4.10475E-06 7.29055E-14-3.31421E-13
 -1      1079 2.00088E+01 2.86820E-03-5.98369E-08-8.41510E-05-7.48330E-15-1.89021E-13
 -1      1080 2.00078E+01 3.74545E-04-6.18324E-08-1.27710E-04 4.61452E-13 1.21700E-14
 -1      1081 2.00067E+01-1.14641E-03-4.12333E-08-1.46299E-04 3.48543E-13-3.48732E-13
 -1      1082 2.00056E+01-1.98700E-03 1.30435E-08-1.48484E-04 9.98190E-14-5.57398E-13
 -1      1083 2.00045E+01-2.37537E-03-1.22960E-06-1.40504E-04 1.35811E-13-4.18659E-13
 -1      1084 2.00038E+01-2.44031E-03-2.42042E-06-2.32797E-04 2.19280E-13-4.22426E-13
 -1      1085 1.79085E+01 1.15223E+00-1.21098E-04 3.61941E-01-2.31064E-13-1.03251E-14
 -1      1086 1.87724E+01 9.61089E-01-3.04689E-05 2.59891E-01-7.64351E-14 1.59018E-14
 -1      1087 1.94810E+01 6.07636E-01-2.49696E-06 1.50067E-01-2.86053E-14 2.14274E-13
 -1      1088 1.92997E+01 7.23448E-01-6.61822E-06 1.83068E-01-1.12778E-13 9.95006E-14
 -1      1089 1.97297E+01 4.04939E-01 6.18497E-07 9.52193E-02 8.01999E-14 2.00892E-13
 -1      1090 1.98116E+01 3.21895E-01 1.12671E-06 7.35839E-02-4.12038E-14 4.33507E-14
 -1      1091 1.98727E+01 2.51523E-01 1.33821E-06 5.56644E-02 6.97370E-14 1.52446E-13
 -1      1092 1.99176E+01 1.93162E-01 1.37760E-06 4.11605E-02-7.65691E-14 2.40212E-13
 -1      1093 1.99498E+01 1.45704E-01 1.31623E-06 2.96785E-02-2.66321E-13 1.54870E-13
 -1      1094 1.99724E+01 1.07814E-01 1.19854E-06 2.07843E-02-1.94367E-13 9.74384E-14
 -1      1095 1.99877E+01 7.80964E-02 1.05361E-06 1.40433E-02 9.64744E-14 1.16531E-13
 -1      1096 1.99977E+01 5.51966E-02 9.00638E-07 9.04896E-03 8.01782E-14 9.61698E-14
 -1      1097 2.00039E+01 3.78675E-02 7.51935E-07 5.43881E-03 2.71308E-13 2.85756E-13
 -1      1098 2.00073E+01 2.50039E-02 6.14892E-07 2.90146E-03 4.49970E-14-3.03509E-14
 -1      1099 2.00089E+01 1.56555E-02 4.93400E-07 1.17756E-03-1.43599E-13 5.72044E-14
 -1      1100 2.00093E+01 9.02530E-03 3.88969E-07 5.67402E-05-2.05996E-13 3.04890E-13
 -1      1101 2.00089E+01 4.45864E-03 3.01799E-07-6.27686E-04 2.17513E-13 3.90697E-13
 -1      1102 2.00080E+01 1.42844E-03 2.32373E-07-1.00489E-03 2.95883E-13 4.17648E-13
 -1      1103 2.00070E+01-4.82445E-04 1.83989E-07-1.17283E-03 2.40403E-13 1.13157E-13
 -1      1104 2.00058E+01-1.59877E-03 1.59018E-07-1.20419E-03 1.02235E-13 8.68095E-14
 -1      1105 2.00047E+01-2.16949E-03 6.55259E-07-1.15206E-03 5.40553E-14 9.99410E-14
 -1      1106 1.90679E+01 8.43484E-01-1.48008E-05 2.19572E-01-1.94594E-14 1.53427E-14
 -1      1107 1.96217E+01 5.00578E-01-4.25633E-07 1.20723E-01 3.14739E-13 2.85495E-13
 -1      1108 1.67928E+01 1.16073E+00-8.83865E-04-5.38475E-01 1.44112E-14 2.60966E-13
 -1      1109 1.83951E+01 1.06751E+00-6.11517E-05 3.05736E-01-1.92050E-13 9.07344E-15
 -1      1110 1.72657E+01 1.20453E+00-1.01102E-03 4.39729E-01-8.53537E-14-6.79921E-14
 -1      1111 2.00031E+01-2.40751E-03 8.99173E-08-7.46457E-04 1.97799E-13-5.08556E-13
 -1      1112 2.00035E+01-2.40182E-03 3.09027E-07-1.02803E-03 1.13282E-13-4.03447E-13
 -1      1113 3.29490E+01 1.06889E+01 2.68044E+00-7.27236E+00-7.94365E-14 2.41690E-12
 -1      1114 2.41740E+01 7.35062E+00 3.27986E-01-3.64435E+00-4.14668E-14 3.06179E-13
 -1      1115 2.20229E+01 6.65357E+00 1.55623E-01-2.15949E+00-2.63956E-14-5.61183E-13
 -1      1116 2.04823E+01 6.18427E+00 1.31885E-01-1.09095E+00-1.63480E-14-9.51402E-13
 -1      1117 1.89627E+01 5.72179E+00 1.09952E-01-1.92970E-01-9.68670E-15-1.14332E-12
 -1      1118 1.73461E+01 5.22237E+00 6.18100E-02 4.89355E-01-4.71845E-15-1.24256E-12
 -1      1119 1.57181E+01 4.71244E+00-9.94347E-03 8.58292E-01-7.77156E-16-1.30539E-12
 -1      1120 1.43299E+01 4.27272E+00-8.74423E-02 8.46357E-01 7.21645E-16-1.34508E-12
 -1      1121 1.35391E+01 4.01979E+00-1.39770E-01 4.98413E-01 2.67841E-15-1.35548E-12
 -1      1122 1.35967E+01 4.03590E+00-1.43652E-01 6.71166E-03 5.05845E-15-1.33378E-12
 -1      1123 1.45258E+01 4.32841E+00-9.77980E-02-3.66749E-01 6.99441E-15-1.26666E-12
 -1      1124 1.61025E+01 4.82385E+00-2.30147E-02-4.16160E-01 1.10190E-14-1.14699E-12
 -1      1125 1.80217E+01 5.42165E+00 5.05078E-02-7.02674E-02 1.45994E-14-9.61516E-13
 -1      1126 2.00679E+01 6.05265E+00 1.07552E-01 6.42984E-01 2.04281E-14-6.61929E-13
 -1      1127 2.21944E+01 6.70662E+00 1.61005E-01 1.68339E+00 2.94209E-14-1.30458E-13
 -1      1128 2.47586E+01 7.52010E+00 3.08362E-01 3.21094E+00 3.63043E-14 8.58758E-13
 -1      1129 3.09515E+01 9.81411E+00 1.76202E+00 6.05600E+00 7.94920E-14 2.87695E-12
 -1      1130 3.42843E+01 4.06905E+00 1.35805E+00-4.62243E+00-3.26239E-13 3.74911E-12
 -1      1131 2.54921E+01-1.80310E-01-6.47517E-01-5.08682E-02-1.07227E-13 3.01811E-12
 -1      1132 2.41984E+01-5.51465E-02-1.72705E-01 7.06873E-02-4.24938E-14 1.99635E-12
 -1      1133 2.34012E+01 3.26569E-03 2.56924E-02 1.23288E-02-3.01613E-14 1.32606E-12
 -1      1134 2.22910E+01 1.94725E-02 5.64918E-02-3.37616E-02-2.73225E-14 7.89837E-13
 -1      1135 2.08299E+01 3.39544E-03 2.11295E-02-6.43608E-02-5.20717E-15 6.05058E-13
 -1      1136 1.92568E+01-3.44358E-02-4.59786E-02-7.00871E-02 3.59825E-15 4.24695E-13
 -1      1137 1.80187E+01-7.42714E-02-1.12075E-01-4.39345E-02 3.23960E-15 2.71769E-13
 -1      1138 1.75656E+01-9.03816E-02-1.39125E-01 5.82685E-03-2.26208E-15-5.38059E-14
 -1      1139 1.80815E+01-7.04088E-02-1.09494E-01 5.58982E-02-2.05565E-16-3.60101E-13
 -1      1140 1.93591E+01-2.64727E-02-4.17030E-02 8.35343E-02-1.29762E-14-7.66581E-13
 -1      1141 2.09265E+01 1.72671E-02 2.66742E-02 8.15761E-02 8.28482E-15-8.69527E-13
 -1      1142 2.23097E+01 4.32803E-02 6.76626E-02 5.91797E-02-1.84531E-15-8.58660E-13
 -1      1143 2.32268E+01 4.88222E-02 7.59644E-02 3.10649E-02 3.20924E-17-8.71376E-13
 -1      1144 2.36213E+01 4.07642E-02 6.23995E-02 7.81340E-03-6.15350E-15-8.26842E-13
 -1      1145 2.35863E+01 2.74365E-02 4.08531E-02-6.76468E-03-2.13028E-14-8.69448E-13
 -1      1146 2.32693E+01 1.45489E-02 2.06998E-02-1.35232E-02-2.24213E-14-1.07047E-12
 -1      1147 2.28081E+01 4.64342E-03 5.85169E-03-1.50068E-02 6.57260E-15-9.91259E-13
 -1      1148 2.23049E+01-1.85092E-03-3.35277E-03-1.36440E-02-1.20407E-15-1.10760E-12
 -1      1149 2.18233E+01-5.48549E-03-8.10532E-03-1.11286E-02-5.20737E-15-1.11497E-12
 -1      1150 2.13970E+01-7.07391E-03-9.87365E-03-8.43383E-03-2.37738E-14-1.21181E-12
 -1      1151 2.10390E+01-7.35528E-03-9.87404E-03-6.02484E-03-9.84304E-15-9.75089E-13
 -1      1152 2.07498E+01-6.88894E-03-8.95584E-03-4.06695E-03-1.76987E-14-7.18755E-13
 -1      1153 2.05236E+01-6.05558E-03-7.65298E-03-2.57133E-03-4.45547E-14-1.05423E-12
 -1      1154 2.03515E+01-5.09466E-03-6.27408E-03-1.48199E-03 2.96886E-14-9.35667E-13
 -1      1155 2.02240E+01-4.14562E-03-4.98189E-03-7.22012E-04 1.30715E-14-6.03924E-13
 -1      1156 2.01321E+01-3.28187E-03-3.85063E-03-2.15556E-04 6.30580E-14-5.29648E-13
 -1      1157 2.00679E+01-2.53553E-03-2.90359E-03 1.03222E-04-2.20697E-15-7.14776E-13
 -1      1158 2.00247E+01-1.91419E-03-2.13654E-03 2.87723E-04-2.90969E-14-7.25865E-13
 -1      1159 1.99969E+01-1.41178E-03-1.53175E-03 3.79411E-04 1.04000E-14-1.03904E-12
 -1      1160 1.99803E+01-1.01550E-03-1.06606E-03 4.09450E-04 7.15789E-15-7.41239E-13
 -1      1161 1.99716E+01-7.09866E-04-7.15463E-04 4.00621E-04 3.86362E-14-3.44206E-13
 -1      1162 1.99681E+01-4.79228E-04-4.57499E-04 3.69126E-04 6.49571E-15-3.98554E-13
 -1      1163 1.99680E+01-3.09018E-04-2.72338E-04 3.26149E-04 1.16159E-14-7.45278E-13
 -1      1164 1.99700E+01-1.86405E-04-1.43175E-04 2.79132E-04-2.01844E-14-1.05086E-12
 -1      1165 1.99732E+01-1.00497E-04-5.61882E-05 2.32796E-04 1.18751E-14-1.08130E-12
 -1      1166 1.99768E+01-4.23112E-05-2.84606E-07 1.89928E-04-3.94309E-14-1.12529E-12
 -1      1167 1.99805E+01-4.61901E-06 3.32478E-05 1.51979E-04-1.54346E-14-9.12781E-13
 -1      1168 1.99840E+01 1.82812E-05 5.11191E-05 1.19508E-04 2.90368E-14-6.97424E-13
 -1      1169 1.99871E+01 3.08027E-05 5.84044E-05 9.25057E-05-1.46545E-14-8.22514E-13
 -1      1170 1.99899E+01 3.63072E-05 5.88794E-05 7.06243E-05-1.47945E-14-9.33419E-13
 -1      1171 1.99922E+01 3.73214E-05 5.53204E-05 5.33307E-05-8.44000E-14-8.64277E-13
 -1      1172 1.99942E+01 3.57313E-05 4.97739E-05 4.00034E-05-3.38719E-14-1.18737E-12
 -1      1173 1.99959E+01 3.29516E-05 4.38134E-05 2.99711E-05 4.78746E-14-1.17470E-12
 -1      1174 1.99972E+01 3.00788E-05 3.87662E-05 2.24699E-05 3.40857E-14-8.56810E-13
 -1      1175 1.99982E+01 2.78819E-05 3.58483E-05 1.65666E-05-5.48720E-14-7.79171E-13
 -1      1176 1.99990E+01 2.69057E-05 3.60125E-05 1.08835E-05 2.47944E-14-6.87608E-13
 -1      1177 1.99996E+01 2.65725E-05 3.76675E-05 2.83975E-06 4.63046E-14-6.39749E-14
 -1      1178 1.99998E+01 2.79833E-05 2.82212E-05-1.25247E-05 5.60253E-15 2.06972E-13
 -1      1179 1.99998E+01-1.32463E-05-2.86145E-05-1.31450E-05 2.73275E-14 4.55256E-13
 -1      1180 3.41525E+01 6.23184E-01 2.71328E-01 2.13344E+00-4.59563E-14 4.54281E-12
 -1      1181 2.70779E+01-3.93627E-02-5.81047E-01 6.56341E-02 3.63078E-14 3.65499E-12
 -1      1182 2.63966E+01 1.30137E-02-1.04229E-01-2.96101E-02 2.81897E-14 2.81140E-12
 -1      1183 2.57948E+01 4.67600E-02 7.60225E-02-2.85764E-02 9.59085E-15 2.28118E-12
 -1      1184 2.46541E+01 4.75248E-02 1.15610E-01 7.59173E-04 3.77129E-15 1.89927E-12
 -1      1185 2.28034E+01 1.16440E-02 7.17351E-02 5.24948E-02 1.46207E-14 1.56711E-12
 -1      1186 2.05199E+01-4.75542E-02-3.62805E-02 1.03576E-01-1.57498E-14 1.40128E-12
 -1      1187 1.85491E+01-9.23863E-02-1.55331E-01 1.17788E-01-1.26435E-14 1.24781E-12
 -1      1188 1.77559E+01-9.08131E-02-2.08247E-01 7.44347E-02-8.06473E-15 9.17984E-13
 -1      1189 1.85251E+01-4.70466E-02-1.56919E-01-5.02387E-03 3.10316E-14 5.40054E-13
 -1      1190 2.04500E+01 2.25720E-03-4.47085E-02-7.41358E-02 3.21427E-14 2.13538E-13
 -1      1191 2.26419E+01 3.19904E-02 5.32422E-02-1.00257E-01 3.96887E-14-1.71668E-14
 -1      1192 2.43294E+01 3.87169E-02 9.72236E-02-8.64993E-02 1.57600E-14 3.67761E-14
 -1      1193 2.51859E+01 3.16554E-02 9.22963E-02-5.42209E-02-3.19293E-14 1.26670E-13
 -1      1194 2.52783E+01 2.03543E-02 6.38286E-02-2.28358E-02 4.77235E-14 3.17723E-14
 -1      1195 2.48541E+01 1.02081E-02 3.33418E-02-9.27837E-04-1.51964E-14-3.05873E-13
 -1      1196 2.41685E+01 2.92910E-03 1.07785E-02 1.09176E-02-2.53832E-14-3.50962E-13
 -1      1197 2.34088E+01-1.52827E-03-2.65338E-03 1.54956E-02-1.70473E-14-2.25590E-13
 -1      1198 2.26865E+01-3.85146E-03-9.12480E-03 1.58253E-02-1.36459E-14-1.86105E-13
 -1      1199 2.20549E+01-4.76988E-03-1.12712E-02 1.41134E-02 3.44581E-14-4.15196E-13
 -1      1200 2.15313E+01-4.85512E-03-1.11049E-02 1.16858E-02-8.94142E-16-4.77953E-13
 -1      1201 2.11129E+01-4.49658E-03-9.88801E-03 9.23060E-03-2.78147E-14-4.86687E-13
 -1      1202 2.07879E+01-3.93774E-03-8.32082E-03 7.05087E-03 1.38908E-14-7.67553E-13
 -1      1203 2.05414E+01-3.32097E-03-6.75382E-03 5.24332E-03 5.79062E-15-1.14651E-12
 -1      1204 2.03584E+01-2.72385E-03-5.34204E-03 3.80577E-03 6.70151E-15-1.05402E-12
 -1      1205 2.02255E+01-2.18460E-03-4.13886E-03 2.69509E-03 2.64861E-14-6.75219E-13
 -1      1206 2.01312E+01-1.71841E-03-3.14829E-03 1.85619E-03-3.11548E-14-4.21441E-13
 -1      1207 2.00662E+01-1.32762E-03-2.35238E-03 1.23515E-03-2.39055E-14-2.96453E-13
 -1      1208 2.00228E+01-1.00775E-03-1.72510E-03 7.84474E-04-1.57974E-14-2.97656E-13
 -1      1209 1.99953E+01-7.51135E-04-1.23905E-03 4.64468E-04-2.71852E-14-5.87252E-13
 -1      1210 1.99791E+01-5.48950E-04-8.68506E-04 2.43001E-04 4.82965E-14-1.01525E-12
 -1      1211 1.99706E+01-3.92364E-04-5.90701E-04 9.46151E-05 1.02294E-13-1.36152E-12
 -1      1212 1.99674E+01-2.73165E-04-3.86148E-04-5.31465E-07-6.64274E-14-7.59192E-13
 -1      1213 1.99676E+01-1.84048E-04-2.38572E-04-5.76755E-05 3.87174E-14-2.99800E-13
 -1      1214 1.99697E+01-1.18717E-04-1.34635E-04-8.83514E-05 2.42800E-14-2.61029E-14
 -1      1215 1.99730E+01-7.18837E-05-6.35845E-05-1.01159E-04-3.59071E-14-2.45396E-13
 -1      1216 1.99766E+01-3.91918E-05-1.68847E-05-1.02403E-04 4.92079E-14-3.16107E-13
 -1      1217 1.99804E+01-1.71188E-05 1.21412E-05-9.66206E-05 4.37625E-14-4.41985E-13
 -1      1218 1.99839E+01-2.85985E-06 2.86394E-05-8.70017E-05 3.40734E-14-3.04655E-13
 -1      1219 1.99871E+01 5.78847E-06 3.65217E-05-7.57337E-05-5.64763E-15-2.35913E-13
 -1      1220 1.99899E+01 1.05421E-05 3.87270E-05-6.42684E-05-2.75123E-14-1.75530E-13
 -1      1221 1.99922E+01 1.27367E-05 3.74534E-05-5.35336E-05 1.29276E-14 2.36985E-14
 -1      1222 1.99942E+01 1.34290E-05 3.43688E-05-4.40938E-05-2.23676E-14-2.76557E-13
 -1      1223 1.99958E+01 1.34868E-05 3.08174E-05-3.62598E-05 5.37695E-14-6.28904E-13
 -1      1224 1.99972E+01 1.36239E-05 2.80079E-05-3.01352E-05-3.09052E-14-6.71725E-13
 -1      1225 1.99982E+01 1.44863E-05 2.72521E-05-2.56162E-05 2.35361E-14-9.26002E-13
 -1      1226 1.99990E+01 1.66045E-05 2.97054E-05-2.21642E-05-6.51276E-14-8.70586E-13
 -1      1227 1.99996E+01 1.88725E-05 3.34473E-05-1.74541E-05 2.05451E-14-1.10161E-12
 -1      1228 1.99998E+01 1.34818E-05 2.39899E-05-5.12575E-06 6.27977E-14-1.13917E-12
 -1      1229 1.99998E+01-1.15238E-05-2.92366E-05 1.18405E-05-4.36613E-14-6.52317E-13
 -1      1230 1.99998E+01 3.44843E-05-2.69985E-05 1.15941E-05-5.54383E-13-7.20550E-14
 -1      1231 1.99998E+01 2.94767E-05 2.68630E-05 1.03735E-05-2.56842E-13 9.14086E-15
 -1      1232 1.99998E+01-2.47864E-04 3.09212E-05-8.82641E-06 8.13081E-13-6.98265E-14
 -1      1233 1.99998E+01-7.48981E-04 1.66870E-05-1.79565E-05 5.38528E-13 1.86015E-14
 -1      1234 1.99998E+01-1.35711E-03-1.99912E-07-2.05686E-05-1.93621E-13-1.10645E-13
 -1      1235 1.99998E+01-1.95491E-03-1.47032E-05-1.86891E-05-9.42838E-13 6.99591E-14
 -1      1236 1.99998E+01-2.45314E-03-2.53738E-05-1.41907E-05-3.36669E-13 8.13985E-14
 -1      1237 1.99998E+01-2.78418E-03-3.20489E-05-7.51509E-06-1.34298E-13-1.32273E-13
 -1      1238 1.99998E+01-2.89814E-03-3.42621E-05 6.89360E-08-5.04344E-13-1.27088E-14
 -1      1239 1.99998E+01-2.78015E-03-3.19551E-05 7.64811E-06-5.96044E-13 8.46923E-14
 -1      1240 1.99998E+01-2.44572E-03-2.51575E-05 1.42765E-05-1.81257E-12-2.30717E-13
 -1      1241 1.99998E+01-1.94514E-03-1.43917E-05 1.89780E-05-2.13570E-12 5.49888E-14
 -1      1242 1.99998E+01-1.34717E-03-3.92643E-08 2.05362E-05-1.11150E-12 9.31877E-14
 -1      1243 1.99998E+01-7.39738E-04 1.70033E-05 1.81616E-05-7.53423E-13 2.66666E-14
 -1      1244 1.99998E+01-2.33581E-04 3.30936E-05 1.06633E-05-8.98582E-13 2.51554E-14
 -1      1245 1.99998E+01 1.91633E-05 2.38227E-05-1.96086E-05-1.51644E-13-1.32839E-13
 -1      1246 1.99998E+01 3.90047E-05-2.70950E-05-1.34321E-05-4.18683E-13-1.32281E-14
 -1      1247-1.19894E+00-2.24815E+01-3.63575E+00-2.14972E+00 2.70356E-12 5.65430E-13
 -1      1248-1.77714E+00-1.44219E+01-3.11249E+00-3.78488E+00 4.16778E-12 1.47510E-12
 -1      1249 3.14725E-01-2.43760E+00-1.92574E+00-1.07402E-01 4.55680E-12 2.77645E-12
 -1      1250 9.44473E+00 7.75635E+00-3.18748E-01 8.45793E+00 4.15246E-12 3.93419E-12
 -1      1251 2.59360E+01 1.12284E+01 1.37235E+00 1.64268E+01 3.00515E-12 4.24816E-12
 -1      1252 4.53623E+01 8.51932E+00 2.91786E+00 1.80458E+01 1.53705E-12 3.26494E-12
 -1      1253 6.16960E+01 3.78375E+00 3.98530E+00 1.12172E+01 3.78975E-13 8.13682E-13
 -1      1254 6.70124E+01 1.69751E+00 4.28719E+00-1.53236E+00 2.25847E-13-2.17751E-12
 -1      1255 5.78911E+01 4.54770E+00 3.68769E+00-1.30987E+01 1.29022E-12-4.68725E-12
 -1      1256 3.86081E+01 9.13207E+00 2.27987E+00-1.73312E+01 3.09908E-12-6.09224E-12
 -1      1257 1.82871E+01 1.01337E+01 5.19495E-01-1.31382E+01 4.78884E-12-5.92459E-12
 -1      1258 4.78200E+00 4.67554E+00-1.11772E+00-4.88353E+00 5.37059E-12-4.47620E-12
 -1      1259-8.41294E-01-5.50437E+00-2.35566E+00 1.69271E+00 4.79128E-12-2.58982E-12
 -1      1260-1.49503E+00-1.54941E+01-3.07251E+00 3.34469E+00 2.89591E-12-9.98340E-13
 -1      1261-6.88709E-01-2.04800E+01-3.30192E+00 6.71775E-01 1.37820E-13-2.13139E-13
 -1      1262-1.08960E+00-1.74492E+01-3.11099E+00-2.74814E+00-2.61702E-12-6.74349E-13
 -1      1263-1.08844E+00-7.87932E+00-2.41219E+00-2.15684E+00-4.50751E-12-2.10953E-12
 -1      1264 2.91074E+00 2.82527E+00-1.37049E+00 3.26526E+00-5.32374E-12-3.90477E-12
 -1      1265 1.33574E+01 9.63192E+00 6.31843E-02 1.10712E+01-4.78906E-12-5.17320E-12
 -1      1266 3.04237E+01 1.03965E+01 1.64193E+00 1.68595E+01-3.42559E-12-5.56266E-12
 -1      1267 5.03405E+01 6.46031E+00 3.09485E+00 1.55806E+01-1.64219E-12-4.39826E-12
 -1      1268 6.40425E+01 2.22796E+00 3.98968E+00 6.36432E+00-3.59386E-13-2.11597E-12
 -1      1269 6.48957E+01 2.06988E+00 4.06877E+00-6.07518E+00-2.19273E-13 5.63272E-13
 -1      1270 5.36409E+01 6.04979E+00 3.40897E+00-1.54456E+01-1.03317E-12 2.80664E-12
 -1      1271 3.60356E+01 1.03575E+01 2.26600E+00-1.81594E+01-2.40430E-12 4.24349E-12
 -1      1272 1.84285E+01 1.10810E+01 7.75312E-01-1.38191E+01-3.63443E-12 4.33764E-12
 -1      1273 5.75783E+00 5.93896E+00-7.24622E-01-5.90224E+00-4.05365E-12 3.39773E-12
 -1      1274-4.30973E-01-4.15742E+00-2.07516E+00 1.06833E+00-3.78719E-12 2.05991E-12
 -1      1275-1.61390E+00-1.53444E+01-3.07490E+00 3.79400E+00-2.48535E-12 9.46576E-13
 -1      1276-1.01626E+00-2.29432E+01-3.67715E+00 1.83901E+00 5.82312E-14 2.15064E-13
 -1      1277 2.69392E+01 2.12901E+00-8.04362E-01-2.81437E+00-1.21486E-13 1.93678E-12
 -1      1278 2.38510E+01 5.21961E+00-3.89102E-02-2.97637E+00-2.94209E-13-1.03063E-13
 -1      1279 2.48431E+01 5.44759E+00-9.85150E-02-4.07999E+00-3.93907E-13 3.52440E-13
 -1      1280 2.20202E+01 5.29116E+00-8.73597E-04-1.95248E+00-2.64053E-13-7.25489E-13
 -1      1281 2.28276E+01 5.53587E+00 1.68940E-02-2.54455E+00-3.10613E-13-4.62012E-13
 -1      1282 2.39646E+01 4.09970E+00-2.22185E-02-2.76391E+00-5.01932E-13-5.64410E-14
 -1      1283 2.05146E+01 5.04847E+00 1.45649E-02-9.73134E-01-1.73528E-13-1.02868E-12
 -1      1284 2.12724E+01 5.28389E+00 3.17662E-02-1.46030E+00-2.14995E-13-8.96880E-13
 -1      1285 2.21449E+01 4.23846E+00-2.56935E-02-1.83682E+00-3.91312E-13-5.68691E-13
 -1      1286 1.89159E+01 4.75579E+00 8.40058E-03-1.12467E-01-9.35502E-14-1.18558E-12
 -1      1287 1.97437E+01 5.00744E+00 4.11196E-02-5.17398E-01-1.18072E-13-1.11899E-12
 -1      1288 2.05361E+01 4.13289E+00-2.51275E-02-8.84607E-01-2.36429E-13-8.39946E-13
 -1      1289 1.71755E+01 4.50730E+00-1.41831E-02 5.32166E-01-2.06779E-14-1.26713E-12
 -1      1290 1.80743E+01 4.77621E+00 4.26219E-02 2.52395E-01-4.36040E-14-1.22788E-12
 -1      1291 1.88049E+01 4.04611E+00-2.68450E-02-4.92282E-02-1.11956E-13-9.87044E-13
 -1      1292 1.53795E+01 4.35711E+00-4.42934E-02 8.60635E-01 3.14887E-14-1.33217E-12
 -1      1293 1.62756E+01 4.62139E+00 3.03425E-02 7.47967E-01 2.03032E-14-1.30671E-12
 -1      1294 1.68965E+01 4.09342E+00-2.77315E-02 5.66335E-01 2.14759E-15-1.08539E-12
 -1      1295 1.39154E+01 4.33271E+00-6.45601E-02 7.92879E-01 6.44623E-14-1.37158E-12
 -1      1296 1.45910E+01 4.53025E+00 2.50652E-03 8.65109E-01 5.40401E-14-1.35801E-12
 -1      1297 1.50056E+01 4.28394E+00-2.63607E-02 8.34773E-01 7.37535E-14-1.14783E-12
 -1      1298 1.32095E+01 4.40225E+00-6.21643E-02 4.04719E-01 7.48542E-14-1.38116E-12
 -1      1299 1.34514E+01 4.47144E+00-3.32072E-02 6.02939E-01 6.66064E-14-1.38447E-12
 -1      1300 1.35806E+01 4.51777E+00-2.19700E-02 6.99799E-01 1.14511E-13-1.19247E-12
 -1      1301 1.35281E+01 4.51042E+00-3.68791E-02-7.55586E-02 8.28920E-14-1.34641E-12
 -1      1302 1.32342E+01 4.42229E+00-6.11071E-02 1.28842E-01 7.28133E-14-1.37061E-12
 -1      1303 1.30676E+01 4.64527E+00-1.98371E-02 2.80442E-01 1.23491E-13-1.19652E-12
 -1      1304 1.48107E+01 4.62970E+00-2.59835E-03-3.67845E-01 9.90041E-14-1.26535E-12
 -1      1305 1.40558E+01 4.40685E+00-6.70430E-02-2.81433E-01 8.51264E-14-1.31317E-12
 -1      1306 1.36794E+01 4.58833E+00-2.30153E-02-1.53486E-01 1.36963E-13-1.14630E-12
 -1      1307 1.66859E+01 4.78101E+00 2.54290E-02-2.90220E-01 1.38056E-13-1.12825E-12
 -1      1308 1.56830E+01 4.48178E+00-5.03489E-02-3.86042E-01 1.18364E-13-1.20434E-12
 -1      1309 1.52483E+01 4.41266E+00-2.79539E-02-3.22410E-01 1.74898E-13-1.05134E-12
 -1      1310 1.88326E+01 5.00443E+00 3.95511E-02 1.91056E-01 2.05114E-13-9.16919E-13
 -1      1311 1.77349E+01 4.67448E+00-2.45648E-02-9.35712E-02 1.75360E-13-1.03563E-12
 -1      1312 1.73759E+01 4.25713E+00-3.14419E-02-9.11992E-02 2.49141E-13-8.84758E-13
 -1      1313 2.09903E+01 5.29981E+00 3.99912E-02 1.00559E+00 2.83606E-13-5.84033E-13
 -1      1314 1.99016E+01 4.96696E+00-6.59670E-03 5.63817E-01 2.45415E-13-7.75865E-13
 -1      1315 1.96923E+01 4.21380E+00-3.17471E-02 5.20899E-01 3.57884E-13-6.43721E-13
 -1      1316 2.32095E+01 5.60796E+00 3.96701E-02 2.10129E+00 3.45529E-13-3.51802E-15
 -1      1317 2.20662E+01 5.25668E+00-8.58230E-03 1.49403E+00 2.98622E-13-3.47118E-13
 -1      1318 2.20142E+01 4.23829E+00-2.82704E-02 1.40303E+00 4.63407E-13-2.61943E-13
 -1      1319 2.59604E+01 5.62797E+00 4.57515E-02 3.61893E+00 3.21548E-13 1.04966E-12
 -1      1320 2.44757E+01 5.30258E+00-3.05110E-02 2.65595E+00 3.09697E-13 4.12032E-13
 -1      1321 2.45407E+01 4.06088E+00-1.15980E-02 2.43428E+00 5.28126E-13 3.88758E-13
 -1      1322 3.35084E+01 3.69876E+00 1.03322E+00 4.74108E+00 1.73014E-13 3.03424E-12
 -1      1323 2.74349E+01 4.03804E+00-1.93225E-01 3.61718E+00 1.70697E-13 1.65656E-12
 -1      1324 2.75236E+01 2.72350E+00-5.86401E-03 3.00992E+00 5.35440E-13 1.35078E-12
 -1      1325 2.76217E+01 3.10358E-01-8.44202E-01 8.48280E-01 3.16483E-13 2.92177E-12
 -1      1326 2.69159E+01 6.31442E-02-4.48543E-01-1.23732E+00-3.37855E-13 2.09432E-12
 -1      1327 2.56371E+01 2.65051E-01-1.68266E-01-7.63569E-01-3.07553E-13 1.70330E-12
 -1      1328 2.49785E+01 9.16053E-02-6.91866E-02-4.68601E-01-2.40100E-13 1.55368E-12
 -1      1329 2.43877E+01 1.99509E-02-6.41789E-03-4.37867E-01-2.33188E-13 1.20062E-12
 -1      1330 2.55191E+01 2.54833E-01-1.05366E-01-1.32376E+00-5.32852E-13 9.26488E-13
 -1      1331 2.38668E+01-1.40567E-02 1.54019E-02-4.01517E-01-1.82893E-13 1.08167E-12
 -1      1332 2.33415E+01-3.35522E-02 2.26007E-02-4.29922E-01-1.78259E-13 8.07437E-13
 -1      1333 2.42726E+01 1.91535E-03-1.62002E-02-8.68486E-01-4.11012E-13 7.06279E-13
 -1      1334 2.28693E+01-4.31753E-02 2.60298E-02-4.99938E-01-1.26159E-13 6.97376E-13
 -1      1335 2.22331E+01-3.52801E-02 1.86087E-02-5.30458E-01-1.25968E-13 5.24150E-13
 -1      1336 2.33460E+01-7.41237E-02 1.28013E-02-9.17615E-01-3.08697E-13 5.09199E-13
 -1      1337 2.17321E+01-2.60002E-02 1.75429E-02-5.88797E-01-5.66488E-14 4.74398E-13
 -1      1338 2.10068E+01 3.23407E-03 8.64823E-03-6.00956E-01-6.17960E-14 4.02157E-13
 -1      1339 2.24049E+01-5.54788E-02 1.22075E-02-1.08013E+00-1.74878E-13 3.74626E-13
 -1      1340 2.05099E+01 2.76009E-02 4.69983E-03-5.62733E-01-6.40174E-14 3.26086E-13
 -1      1341 1.98466E+01 6.56521E-02-2.97997E-03-5.38336E-01-6.32584E-14 2.52305E-13
 -1      1342 2.14228E+01 2.75487E-02-1.54937E-03-1.11290E+00-1.28477E-13 2.65489E-13
 -1      1343 1.94623E+01 9.28989E-02-8.16415E-03-3.65565E-01-7.69974E-14 1.96544E-13
 -1      1344 1.90646E+01 1.19514E-01-1.28418E-02-3.02767E-01-9.55451E-14 8.24861E-14
 -1      1345 2.05440E+01 1.36658E-01-2.14058E-02-8.62359E-01-1.42376E-13 1.11074E-13
 -1      1346 1.89129E+01 1.31355E-01-1.55530E-02-3.30584E-02-1.26071E-13-2.62464E-15
 -1      1347 1.89249E+01 1.29606E-01-1.56955E-02 4.57777E-02-1.18463E-13-1.87147E-13
 -1      1348 2.00041E+01 2.13230E-01-3.64455E-02-3.22459E-01-2.15855E-13-5.24346E-14
 -1      1349 1.90542E+01 1.17216E-01-1.38995E-02 3.10757E-01-1.11402E-13-2.92398E-13
 -1      1350 1.94697E+01 8.71301E-02-9.73867E-03 3.71659E-01-1.35985E-13-4.61631E-13
 -1      1351 1.99799E+01 2.10666E-01-3.57228E-02 3.33872E-01-2.29610E-13-2.59729E-13
 -1      1352 1.98162E+01 5.95771E-02-5.76794E-03 5.30402E-01-1.23382E-13-5.43954E-13
 -1      1353 2.04784E+01 1.75313E-02 4.62352E-04 5.51315E-01-6.69673E-14-6.78936E-13
 -1      1354 2.04560E+01 1.28620E-01-1.96388E-02 8.50505E-01-2.14585E-13-4.38771E-13
 -1      1355 2.09047E+01-7.49039E-03 2.58269E-03 5.64424E-01-4.55970E-14-7.34079E-13
 -1      1356 2.15951E+01-4.23886E-02 8.51983E-03 5.46848E-01-2.65222E-14-7.73985E-13
 -1      1357 2.12235E+01 1.41443E-02 1.36155E-03 1.05306E+00-1.15884E-13-5.63202E-13
 -1      1358 2.19664E+01-5.34771E-02 6.75982E-03 4.45730E-01-2.88285E-14-7.68267E-13
 -1      1359 2.25090E+01-7.15923E-02 1.09930E-02 4.07105E-01-3.82593E-14-7.97484E-13
 -1      1360 2.20047E+01-7.81123E-02 1.60393E-02 9.37095E-01-6.50998E-14-6.85516E-13
 -1      1361 2.27464E+01-6.89244E-02 6.45990E-03 2.56273E-01 1.95738E-14-7.92796E-13
 -1      1362 2.30598E+01-7.14351E-02 8.84137E-03 2.15122E-01 2.51275E-15-7.72254E-13
 -1      1363 2.25884E+01-1.19856E-01 2.06474E-02 6.25922E-01-9.03271E-15-7.21072E-13
 -1      1364 2.31465E+01-6.13489E-02 3.92394E-03 7.08544E-02-3.86843E-15-7.59833E-13
 -1      1365 2.32363E+01-5.45732E-02 5.03543E-03 3.83811E-02-1.32394E-14-7.61946E-13
 -1      1366 2.28862E+01-1.15683E-01 1.79961E-02 2.68166E-01-2.60642E-14-6.91605E-13
 -1      1367 2.31964E+01-4.33790E-02 1.34759E-03-6.93659E-02-6.89626E-14-6.91365E-13
 -1      1368 2.31165E+01-3.34412E-02 1.70654E-03-8.98495E-02-3.87867E-14-7.58014E-13
 -1      1369 2.29119E+01-8.65696E-02 1.23508E-02-3.35328E-02-3.30421E-14-6.64026E-13
 -1      1370 2.29903E+01-2.45988E-02-2.86651E-04-1.54656E-01-4.18031E-14-7.66882E-13
 -1      1371 2.28067E+01-1.52506E-02-3.52504E-04-1.64549E-01-5.67974E-14-8.43135E-13
 -1      1372 2.27328E+01-5.19972E-02 6.67713E-03-2.37916E-01-7.51855E-14-5.98006E-13
 -1      1373 2.26338E+01-9.66695E-03-9.21481E-04-1.93124E-01 1.64591E-14-8.24247E-13
 -1      1374 2.24031E+01-2.43828E-03-1.23531E-03-1.95478E-01 3.07536E-14-8.14591E-13
 -1      1375 2.24282E+01-2.29478E-02 2.29645E-03-3.47128E-01-1.57903E-14-5.76099E-13
 -1      1376 2.22145E+01 3.32618E-04-8.94273E-04-1.98731E-01-3.09324E-14-8.14656E-13
 -1      1377 2.19768E+01 5.24934E-03-1.35753E-03-1.96519E-01-3.29638E-14-9.06240E-13
 -1      1378 2.20668E+01-2.87708E-03-5.58677E-04-3.83093E-01-9.94300E-15-6.57378E-13
 -1      1379 2.17935E+01 6.06624E-03-5.70737E-04-1.84641E-01 6.41392E-15-8.96411E-13
 -1      1380 2.15727E+01 9.05679E-03-1.11285E-03-1.80118E-01-3.57945E-14-8.95115E-13
 -1      1381 2.16984E+01 8.90878E-03-2.14673E-03-3.71251E-01-4.01250E-14-6.84674E-13
 -1      1382 2.14069E+01 8.71662E-03-1.97678E-04-1.60794E-01-8.23885E-16-9.14728E-13
 -1      1383 2.12150E+01 1.03050E-02-7.60508E-04-1.55447E-01-2.65092E-14-9.09614E-13
 -1      1384 2.13544E+01 1.45506E-02-2.84597E-03-3.32894E-01-2.09628E-14-6.73691E-13
 -1      1385 2.10724E+01 9.39158E-03 1.05191E-04-1.33753E-01 9.72670E-15-8.58223E-13
 -1      1386 2.09132E+01 1.00471E-02-4.32657E-04-1.28456E-01 4.21675E-14-7.75232E-13
 -1      1387 2.10514E+01 1.62186E-02-2.98887E-03-2.83138E-01 2.33479E-14-6.81104E-13
 -1      1388 2.07950E+01 8.93246E-03 3.03907E-04-1.07392E-01-3.11452E-14-7.58606E-13
 -1      1389 2.06676E+01 9.01326E-03-1.78365E-04-1.02600E-01-4.57898E-14-7.59704E-13
 -1      1390 2.07956E+01 1.56013E-02-2.81783E-03-2.31516E-01-1.74017E-14-6.69928E-13
 -1      1391 2.05727E+01 7.90892E-03 4.07547E-04-8.37177E-02-4.34849E-14-7.46005E-13
 -1      1392 2.04738E+01 7.66519E-03-3.34600E-06-7.96207E-02-7.29343E-16-8.02300E-13
 -1      1393 2.05868E+01 1.38462E-02-2.49265E-03-1.83387E-01-4.86434E-14-6.45016E-13
 -1      1394 2.03996E+01 6.67628E-03 4.40131E-04-6.35497E-02 1.22996E-13-7.79923E-13
 -1      1395 2.03248E+01 6.27261E-03 1.04596E-04-6.01835E-02 1.05418E-13-6.51117E-13
 -1      1396 2.04211E+01 1.16642E-02-2.11166E-03-1.41310E-01 7.25349E-14-4.73708E-13
 -1      1397 2.02682E+01 5.43988E-03 4.26378E-04-4.70118E-02 3.16334E-14-5.32239E-13
 -1      1398 2.02132E+01 4.97913E-03 1.62243E-04-4.43307E-02 8.46269E-14-4.90539E-13
 -1      1399 2.02929E+01 9.46106E-03-1.73160E-03-1.06117E-01 1.36345E-13-4.85749E-13
 -1      1400 2.01710E+01 4.30742E-03 3.86256E-04-3.38539E-02 7.81110E-14-5.54410E-13
 -1      1401 2.01316E+01 3.85032E-03 1.85145E-04-3.17739E-02 2.29205E-14-5.76660E-13
 -1      1402 2.01961E+01 7.44556E-03-1.38260E-03-7.76535E-02 4.05757E-14-4.40462E-13
 -1      1403 2.01010E+01 3.32641E-03 3.33981E-04-2.36532E-02-2.10571E-14-5.86648E-13
 -1      1404 2.00737E+01 2.90605E-03 1.85721E-04-2.20780E-02-6.91277E-14-6.33200E-13
 -1      1405 2.01247E+01 5.70744E-03-1.07835E-03-5.52623E-02-8.05951E-14-5.48906E-13
 -1      1406 2.00521E+01 2.50910E-03 2.78786E-04-1.59323E-02 6.44276E-15-6.21490E-13
 -1      1407 2.00339E+01 2.14099E-03 1.73111E-04-1.47676E-02-2.88945E-14-6.36511E-13
 -1      1408 2.00733E+01 4.26816E-03-8.22728E-04-3.80773E-02-8.26682E-15-5.60701E-13
 -1      1409 2.00191E+01 1.84838E-03 2.26163E-04-1.02260E-02-5.43827E-14-6.16393E-13
 -1      1410 2.00076E+01 1.53722E-03 1.53669E-04-9.38616E-03 3.53566E-14-5.90381E-13
 -1      1411 2.00375E+01 3.11274E-03-6.14079E-04-2.51957E-02-5.64460E-14-3.87350E-13
 -1      1412 1.99979E+01 1.32756E-03 1.79006E-04-6.11353E-03 5.31362E-14-5.61113E-13
 -1      1413 1.99912E+01 1.07180E-03 1.31597E-04-5.52499E-03 4.79367E-14-5.32646E-13
 -1      1414 2.00135E+01 2.20895E-03-4.47876E-04-1.57698E-02 7.65323E-14-3.18227E-13
 -1      1415 1.99852E+01 9.26279E-04 1.38524E-04-3.23316E-03 1.95489E-14-4.48448E-13
 -1      1416 1.99818E+01 7.20959E-04 1.09529E-04-2.83464E-03-1.75075E-14-3.19901E-13
 -1      1417 1.99980E+01 1.51837E-03-3.18362E-04-9.05145E-03 4.75233E-14-3.48908E-13
 -1      1418 1.99785E+01 6.23815E-04 1.04884E-04-1.28422E-03-5.19388E-14-4.11372E-13
 -1      1419 1.99773E+01 4.62449E-04 8.89954E-05-1.02622E-03-6.90035E-14-5.40739E-13
 -1      1420 1.99888E+01 1.00257E-03-2.19536E-04-4.40696E-03-1.03517E-13-5.10049E-13
 -1      1421 1.99758E+01 4.00902E-04 7.76658E-05-2.38050E-05-6.83258E-14-6.28158E-13
 -1      1422 1.99761E+01 2.76606E-04 7.07819E-05 1.32767E-04-4.84742E-14-7.84020E-13
 -1      1423 1.99839E+01 6.26319E-04-1.45704E-04-1.31625E-03-1.51314E-13-5.84338E-13
 -1      1424 1.99757E+01 2.40579E-04 5.61471E-05 7.39826E-04-1.88263E-14-7.14038E-13
 -1      1425 1.99768E+01 1.46731E-04 5.51845E-05 8.25156E-04-2.39950E-14-7.27705E-13
 -1      1426 1.99820E+01 3.58931E-04-9.17681E-05 6.36805E-04-7.55619E-14-4.84842E-13
 -1      1427 1.99772E+01 1.28465E-04 3.94940E-05 1.15475E-03-6.54259E-14-7.56859E-13
 -1      1428 1.99788E+01 5.90636E-05 4.21954E-05 1.19168E-03 1.06049E-14-8.13658E-13
 -1      1429 1.99820E+01 1.74663E-04-5.33433E-05 1.77769E-03-3.65726E-14-4.53539E-13
 -1      1430 1.99796E+01 5.27201E-05 2.68692E-05 1.33298E-03 1.92142E-14-9.28403E-13
 -1      1431 1.99813E+01 2.54410E-06 3.16298E-05 1.33844E-03-6.02865E-14-8.76761E-13
 -1      1432 1.99832E+01 5.25184E-05-2.67682E-05 2.35567E-03-4.81209E-14-7.13072E-13
 -1      1433 1.99823E+01 3.82913E-06 1.74955E-05 1.35744E-03 7.82967E-14-1.04006E-12
 -1      1434 1.99841E+01-3.15302E-05 2.32112E-05 1.34366E-03 9.10309E-14-8.84284E-13
 -1      1435 1.99849E+01-2.42247E-05-9.06207E-06 2.55772E-03-3.67395E-14-7.69166E-13
 -1      1436 1.99851E+01-2.56999E-05 1.06853E-05 1.28810E-03 9.35839E-15-6.91279E-13
 -1      1437 1.99867E+01-4.98750E-05 1.66275E-05 1.26372E-03 5.17602E-14-6.98927E-13
 -1      1438 1.99870E+01-6.86120E-05 2.15029E-06 2.52096E-03 7.52240E-14-8.01189E-13
 -1      1439 1.99878E+01-4.16547E-05 5.85194E-06 1.16717E-03-3.88831E-14-7.23396E-13
 -1      1440 1.99892E+01-5.75807E-05 1.15654E-05 1.13807E-03-1.19609E-13-8.75797E-13
 -1      1441 1.99891E+01-9.06283E-05 8.72546E-06 2.34351E-03 2.18643E-14-7.34906E-13
 -1      1442 1.99902E+01-4.84332E-05 2.50862E-06 1.02334E-03-6.33277E-15-8.32389E-13
 -1      1443 1.99915E+01-5.84452E-05 7.73161E-06 9.93338E-04-8.78640E-14-8.76719E-13
 -1      1444 1.99910E+01-9.77841E-05 1.20894E-05 2.09352E-03-5.54988E-14-6.67279E-13
 -1      1445 1.99923E+01-4.93329E-05 2.61509E-07 8.75170E-04-1.46715E-13-8.04298E-13
 -1      1446 1.99934E+01-5.52684E-05 4.86513E-06 8.46586E-04-1.15695E-13-8.94577E-13
 -1      1447 1.99928E+01-9.56470E-05 1.33207E-05 1.81643E-03-1.15333E-13-7.22107E-13
 -1      1448 1.99942E+01-4.68100E-05-1.19559E-06 7.33714E-04-5.14408E-14-8.77200E-13
 -1      1449 1.99950E+01-5.01107E-05 2.75142E-06 7.07748E-04 1.75469E-14-9.71355E-13
 -1      1450 1.99944E+01-8.83101E-05 1.32266E-05 1.54071E-03-7.59296E-14-5.05516E-13
 -1      1451 1.99957E+01-4.27173E-05-2.07605E-06 6.04440E-04 9.03295E-15-8.16407E-13
 -1      1452 1.99964E+01-4.45307E-05 1.24481E-06 5.81455E-04 1.19835E-13-7.51058E-13
 -1      1453 1.99958E+01-7.88188E-05 1.24118E-05 1.28225E-03 6.44258E-14-5.29693E-13
 -1      1454 1.99969E+01-3.85409E-05-2.47641E-06 4.88516E-04 1.80955E-13-8.08952E-13
 -1      1455 1.99975E+01-3.97566E-05 3.19355E-07 4.68178E-04 1.08616E-13-6.63800E-13
 -1      1456 1.99969E+01-6.95927E-05 1.13407E-05 1.04740E-03 1.97566E-13-4.53294E-13
 -1      1457 1.99979E+01-3.54363E-05-2.32866E-06 3.83733E-04 3.44345E-14-4.76862E-13
 -1      1458 1.99984E+01-3.67418E-05 1.01427E-07 3.65170E-04 2.79395E-14-4.64123E-13
 -1      1459 1.99978E+01-6.25215E-05 1.04265E-05 8.35072E-04 1.83723E-13-2.50422E-13
 -1      1460 1.99987E+01-3.44913E-05-1.33426E-06 2.85145E-04 9.71093E-14-4.20015E-13
 -1      1461 1.99990E+01-3.62602E-05 7.83204E-07 2.66819E-04 2.22620E-13-1.83208E-13
 -1      1462 1.99985E+01-5.96131E-05 9.94058E-06 6.38525E-04 1.71043E-13-3.98064E-14
 -1      1463 1.99993E+01-3.61765E-05 6.73680E-07 1.86120E-04 1.35242E-13-2.10532E-13
 -1      1464 1.99995E+01-3.77097E-05 1.44449E-06 1.65911E-04 4.74265E-14-5.09650E-14
 -1      1465 1.99991E+01-6.21777E-05 9.81553E-06 4.46647E-04 2.08184E-13 1.78079E-14
 -1      1466 1.99996E+01-4.26451E-05 1.11517E-06 8.13577E-05 9.54556E-14 6.39242E-14
 -1      1467 1.99997E+01-3.48042E-05-2.89504E-06 5.88798E-05 1.71756E-13 3.24395E-13
 -1      1468 1.99995E+01-6.93317E-05 8.95457E-06 2.51453E-04 2.18622E-13-1.71210E-14
 -1      1469 1.99998E+01-2.23843E-06-8.46203E-06-1.47581E-05-2.52612E-13 2.11591E-13
 -1      1470 1.99997E+01-4.22044E-05 1.65687E-06 5.00075E-05-1.04393E-13 2.44175E-14
 -1      1471 2.69638E+01 2.92624E-02-1.32711E-01 3.30487E-01 2.52291E-13 2.35775E-12
 -1      1472 2.79638E+01 1.89597E-01-2.40296E-01 5.27883E-01 2.23474E-13 2.76743E-12
 -1      1473 2.76818E+01 8.26259E-01-1.03741E-01 1.74698E+00 4.49397E-13 1.85556E-12
 -1      1474 2.60774E+01-2.50009E-02 1.01136E-02 2.41915E-01 1.91344E-13 1.87806E-12
 -1      1475 2.64663E+01 3.92067E-02-5.14176E-02 2.34047E-01 1.82403E-13 2.17331E-12
 -1      1476 2.64369E+01 6.99114E-02-4.16114E-02 6.82553E-01 3.70044E-13 1.52382E-12
 -1      1477 2.51876E+01-5.08725E-02 3.97715E-02 3.77246E-01 1.23447E-13 1.55244E-12
 -1      1478 2.56476E+01-5.38157E-02 1.65735E-02 3.23507E-01 1.12388E-13 1.74645E-12
 -1      1479 2.55838E+01-6.99901E-02 1.86234E-02 6.08951E-01 2.66838E-13 1.24981E-12
 -1      1480 2.39145E+01-4.76883E-02 3.40472E-02 5.97934E-01 9.85358E-14 1.31755E-12
 -1      1481 2.46500E+01-8.72589E-02 2.55488E-02 5.21715E-01 8.51793E-14 1.46078E-12
 -1      1482 2.47030E+01-1.19447E-01 3.46993E-02 8.95747E-01 1.84592E-13 1.02831E-12
 -1      1483 2.22342E+01-6.27013E-03 6.28542E-03 7.50818E-01 9.38157E-14 1.11779E-12
 -1      1484 2.32319E+01-5.95072E-02 1.51555E-02 6.92787E-01 6.75519E-14 1.23784E-12
 -1      1485 2.35674E+01-8.89946E-02 2.77764E-02 1.23500E+00 1.40526E-13 8.77860E-13
 -1      1486 2.05130E+01 6.13069E-02-3.65517E-02 6.74595E-01 4.69069E-14 9.83144E-13
 -1      1487 2.15322E+01 2.74348E-02-5.88349E-03 6.82551E-01 5.58139E-14 1.03814E-12
 -1      1488 2.22435E+01 3.03303E-02 2.57281E-03 1.32854E+00 1.19940E-13 7.73062E-13
 -1      1489 1.93839E+01 1.12637E-01-7.07589E-02 3.08178E-01 1.04070E-13 7.40304E-13
 -1      1490 2.00355E+01 1.30782E-01-2.93479E-02 4.00810E-01 8.76712E-14 8.66300E-13
 -1      1491 2.10817E+01 1.94294E-01-2.86320E-02 9.52148E-01 1.55494E-13 5.53980E-13
 -1      1492 1.93571E+01 1.06944E-01-6.91545E-02-2.08641E-01 1.41519E-13 4.24969E-13
 -1      1493 1.93411E+01 1.79898E-01-3.99034E-02-7.02945E-02 1.38386E-13 5.92487E-13
 -1      1494 2.05367E+01 2.92039E-01-4.69621E-02 1.53482E-01 2.47587E-13 2.95437E-13
 -1      1495 2.04262E+01 4.81203E-02-2.83436E-02-6.11641E-01 1.11702E-13 1.18919E-13
 -1      1496 1.97571E+01 1.39058E-01-2.68617E-02-4.99183E-01 1.11416E-13 2.76293E-13
 -1      1497 2.08401E+01 2.43432E-01-3.95798E-02-7.03390E-01 2.63248E-13 1.38778E-14
 -1      1498 2.20467E+01-1.89903E-02 1.81339E-02-7.22296E-01 4.71623E-14-8.57231E-14
 -1      1499 2.10532E+01 4.35822E-02 9.79498E-05-6.82418E-01 7.62218E-14 6.19504E-14
 -1      1500 2.17965E+01 7.65864E-02-1.89335E-02-1.19934E+00 1.71193E-13-1.93214E-13
 -1      1501 2.35435E+01-5.67946E-02 4.40369E-02-5.67689E-01-2.28914E-14-1.63619E-13
 -1      1502 2.26277E+01-4.14934E-02 2.08461E-02-5.93667E-01 1.76630E-14-1.06845E-13
 -1      1503 2.29346E+01-8.69408E-02-4.53155E-04-1.18189E+00 7.49539E-14-2.69996E-13
 -1      1504 2.44902E+01-6.07370E-02 4.43068E-02-2.94466E-01-2.75249E-14-1.00874E-13
 -1      1505 2.39053E+01-8.09097E-02 2.68709E-02-3.51414E-01 1.12584E-14-1.33171E-13
 -1      1506 2.38255E+01-1.65852E-01 9.18571E-03-8.02624E-01-1.52725E-14-2.53639E-13
 -1      1507 2.47989E+01-4.50821E-02 3.04122E-02-3.70269E-02-2.77122E-15-6.90984E-14
 -1      1508 2.45956E+01-7.89688E-02 2.09193E-02-9.31824E-02-3.83010E-14-1.12972E-13
 -1      1509 2.42657E+01-1.60068E-01 1.08534E-02-3.17144E-01-2.72525E-15-2.50297E-13
 -1      1510 2.46017E+01-2.54072E-02 1.44488E-02 1.40431E-01 4.86954E-14-2.20279E-13
 -1      1511 2.46987E+01-5.66672E-02 1.09790E-02 1.00151E-01 7.75100E-14-8.17176E-14
 -1      1512 2.42647E+01-1.11373E-01 8.49394E-03 8.87476E-02 9.11736E-14-2.55803E-13
 -1      1513 2.40971E+01-9.59493E-03 3.00987E-03 2.32791E-01 2.81502E-15-3.24480E-13
 -1      1514 2.43742E+01-3.15827E-02 2.70082E-03 2.10245E-01 3.12606E-14-2.25115E-13
 -1      1515 2.39433E+01-5.79621E-02 5.32781E-03 3.46463E-01 7.40189E-14-2.09973E-13
 -1      1516 2.34589E+01 4.29252E-04-3.18230E-03 2.61302E-01-9.37548E-14-2.83240E-13
 -1      1517 2.38122E+01-1.19599E-02-1.93851E-03 2.52351E-01-5.38818E-14-3.35950E-13
 -1      1518 2.34427E+01-1.77167E-02 2.82799E-03 4.66454E-01-1.91086E-14-2.51209E-13
 -1      1519 2.28058E+01 5.65280E-03-5.58352E-03 2.50979E-01 2.10985E-14-2.13284E-13
 -1      1520 2.31658E+01 5.64127E-04-3.64584E-03 2.50565E-01-3.04244E-14-2.29256E-13
 -1      1521 2.28778E+01 6.58309E-03 1.18216E-03 4.89140E-01-7.54353E-14-2.54488E-13
 -1      1522 2.22052E+01 7.69192E-03-5.84996E-03 2.21347E-01 3.02297E-14-2.61607E-13
 -1      1523 2.25337E+01 7.26432E-03-3.65788E-03 2.25456E-01 1.10719E-15-2.36217E-13
 -1      1524 2.23247E+01 1.84299E-02 2.13624E-04 4.55161E-01 2.55360E-14-1.64301E-13
 -1      1525 2.16877E+01 7.91072E-03-5.15820E-03 1.84973E-01 7.51378E-14-4.29187E-13
 -1      1526 2.19682E+01 1.00439E-02-2.95939E-03 1.90971E-01 7.85964E-14-3.22027E-13
 -1      1527 2.18260E+01 2.23477E-02-3.10466E-04 3.94678E-01 1.11185E-13-3.74559E-13
 -1      1528 2.12609E+01 7.22792E-03-4.17322E-03 1.48886E-01-8.82217E-14-4.48688E-13
 -1      1529 2.14901E+01 1.05110E-02-2.11656E-03 1.55253E-01-5.38712E-14-4.53160E-13
 -1      1530 2.13996E+01 2.19162E-02-5.67949E-04 3.26602E-01-1.05363E-14-3.78329E-13
 -1      1531 2.09201E+01 6.18810E-03-3.20901E-03 1.16474E-01 8.26882E-14-4.84082E-13
 -1      1532 2.11013E+01 9.77360E-03-1.37887E-03 1.22428E-01 6.31283E-14-3.74311E-13
 -1      1533 2.10488E+01 1.94604E-02-6.71008E-04 2.61293E-01-1.66056E-14-4.60475E-13
 -1      1534 2.06548E+01 5.08382E-03-2.38447E-03 8.89896E-02 1.44469E-13-7.31921E-13
 -1      1535 2.07945E+01 8.51220E-03-8.17597E-04 9.41912E-02 6.98200E-14-5.67754E-13
 -1      1536 2.07684E+01 1.63159E-02-6.85419E-04 2.03575E-01 1.76199E-13-4.34734E-13
 -1      1537 2.04529E+01 4.05654E-03-1.72498E-03 6.65475E-02 3.50458E-15-9.31197E-13
 -1      1538 2.05582E+01 7.10996E-03-4.24639E-04 7.09026E-02 6.16924E-14-8.52121E-13
 -1      1539 2.05496E+01 1.31737E-02-6.49770E-04 1.55055E-01 1.64701E-13-6.66438E-13
 -1      1540 2.03024E+01 3.16378E-03-1.21753E-03 4.87198E-02-1.14861E-13-7.25727E-13
 -1      1541 2.03801E+01 5.76483E-03-1.65980E-04 5.22591E-02-9.44086E-14-8.84799E-13
 -1      1542 2.03825E+01 1.03481E-02-5.87478E-04 1.15638E-01-7.60030E-14-6.58990E-13
 -1      1543 2.01925E+01 2.41936E-03-8.36981E-04 3.48674E-02-6.99261E-14-4.10961E-13
 -1      1544 2.02486E+01 4.56697E-03-5.44213E-06 3.76781E-02-7.01085E-14-5.32651E-13
 -1      1545 2.02574E+01 7.94990E-03-5.13255E-04 8.44298E-02-1.70790E-13-4.15568E-13
 -1      1546 2.01141E+01 1.81601E-03-5.57245E-04 2.43115E-02-1.08470E-13-1.78807E-13
 -1      1547 2.01536E+01 3.54710E-03 8.71267E-05 2.65005E-02-9.71267E-14-3.48358E-13
 -1      1548 2.01656E+01 5.98746E-03-4.36417E-04 6.02402E-02-1.59648E-13-2.14724E-13
 -1      1549 2.00597E+01 1.33752E-03-3.55375E-04 1.64168E-02 5.10582E-14-2.79975E-13
 -1      1550 2.00867E+01 2.70505E-03 1.34416E-04 1.80911E-02 6.72739E-14-1.99565E-13
 -1      1551 2.00999E+01 4.42277E-03-3.62714E-04 4.18470E-02 1.83263E-14-2.48485E-13
 -1      1552 2.00231E+01 9.64989E-04-2.12531E-04 1.06253E-02 2.10635E-14-3.62843E-13
 -1      1553 2.00409E+01 2.02583E-03 1.52616E-04 1.18835E-02-1.85560E-14-3.61229E-13
 -1      1554 2.00539E+01 3.20061E-03-2.95447E-04 2.81205E-02 3.45760E-14-3.10358E-13
 -1      1555 1.99997E+01 6.79862E-04-1.13776E-04 6.46618E-03 1.27373E-13-6.87254E-13
 -1      1556 2.00107E+01 1.48849E-03 1.52920E-04 7.39416E-03 7.65813E-14-5.18555E-13
 -1      1557 2.00228E+01 2.26304E-03-2.36240E-04 1.80752E-02 1.51737E-13-4.54008E-13
 -1      1558 1.99856E+01 4.65312E-04-4.74938E-05 3.55233E-03 1.25620E-13-9.41268E-13
 -1      1559 1.99919E+01 1.07077E-03 1.42890E-04 4.22285E-03 8.53671E-14-8.06577E-13
 -1      1560 2.00026E+01 1.55613E-03-1.85597E-04 1.08817E-02 1.68888E-13-7.15234E-13
 -1      1561 1.99780E+01 3.06747E-04-4.77029E-06 1.57218E-03-1.20450E-13-8.63869E-13
 -1      1562 1.99811E+01 7.51514E-04 1.27529E-04 2.04530E-03-2.29552E-14-9.44961E-13
 -1      1563 1.99903E+01 1.03251E-03-1.43302E-04 5.85979E-03 2.72991E-14-5.72346E-13
 -1      1564 1.99748E+01 1.91875E-04 2.11626E-05 2.79381E-04-1.41888E-13-4.08926E-13
 -1      1565 1.99758E+01 5.11693E-04 1.10066E-04 6.03682E-04-2.25731E-13-7.93117E-13
 -1      1566 1.99835E+01 6.52145E-04-1.08712E-04 2.46289E-03-2.64455E-13-5.26772E-13
 -1      1567 1.99745E+01 1.10566E-04 3.53888E-05-5.17769E-04 7.98432E-14-3.14997E-13
 -1      1568 1.99741E+01 3.34866E-04 9.25085E-05-3.03622E-04 2.75036E-14-2.69393E-13
 -1      1569 1.99805E+01 3.81947E-04-8.09618E-05 2.59344E-04-7.70215E-14-5.33155E-13
 -1      1570 1.99760E+01 5.46234E-05 4.16808E-05-9.66034E-04-1.14841E-13-2.01561E-13
 -1      1571 1.99748E+01 2.07175E-04 7.60359E-05-8.31781E-04 3.26415E-14-1.98594E-13
 -1      1572 1.99799E+01 1.95133E-04-5.91032E-05-1.08615E-03-2.99358E-14-2.67496E-13
 -1      1573 1.99784E+01 1.75188E-05 4.27982E-05-1.17594E-03 4.45966E-14-2.53805E-13
 -1      1574 1.99768E+01 1.17195E-04 6.12736E-05-1.09827E-03 8.18351E-15-2.59491E-13
 -1      1575 1.99808E+01 7.03631E-05-4.21948E-05-1.82984E-03 2.62044E-14-2.97404E-13
 -1      1576 1.99812E+01-5.86681E-06 4.07242E-05-1.22923E-03 9.34821E-14-4.94086E-13
 -1      1577 1.99795E+01 5.56710E-05 4.84819E-05-1.19050E-03 2.71595E-14-4.74408E-13
 -1      1578 1.99826E+01-9.10419E-06-2.93578E-05-2.16430E-03 1.43372E-13-4.91557E-13
 -1      1579 1.99842E+01-1.94878E-05 3.68539E-05-1.18518E-03-4.54452E-14-3.01525E-13
 -1      1580 1.99824E+01 1.52299E-05 3.76894E-05-1.17224E-03-5.21318E-15-3.93391E-13
 -1      1581 1.99848E+01-5.62082E-05-1.98051E-05-2.23163E-03-3.36940E-14-3.72652E-13
 -1      1582 1.99870E+01-2.63539E-05 3.21420E-05-1.08571E-03-1.81467E-16-1.62426E-13
 -1      1583 1.99854E+01-9.91152E-06 2.87849E-05-1.08899E-03-2.33930E-14-2.28898E-13
 -1      1584 1.99871E+01-8.07987E-05-1.28537E-05-2.13449E-03-6.28928E-14-2.35887E-13
 -1      1585 1.99895E+01-2.87231E-05 2.72198E-05-9.59612E-04-1.92208E-14 1.45782E-14
 -1      1586 1.99881E+01-2.42260E-05 2.15796E-05-9.72290E-04-2.96812E-14-5.07076E-14
 -1      1587 1.99893E+01-9.02587E-05-7.92407E-06-1.94524E-03-8.47235E-14-1.57285E-14
 -1      1588 1.99918E+01-2.82702E-05 2.24861E-05-8.25850E-04 2.16535E-15 2.52136E-13
 -1      1589 1.99905E+01-3.11310E-05 1.58490E-05-8.43222E-04-2.92744E-14 1.05046E-13
 -1      1590 1.99914E+01-9.00390E-05-4.53274E-06-1.71325E-03-1.08524E-13 4.27537E-13
 -1      1591 1.99937E+01-2.62308E-05 1.81816E-05-6.96089E-04 1.62496E-13 2.47097E-14
 -1      1592 1.99926E+01-3.32191E-05 1.13619E-05-7.15067E-04 1.80057E-13 1.96064E-13
 -1      1593 1.99932E+01-8.41122E-05-2.27742E-06-1.47069E-03 2.30916E-13 3.84355E-13
 -1      1594 1.99953E+01-2.35266E-05 1.44511E-05-5.76609E-04-1.31039E-14-9.98137E-14
 -1      1595 1.99944E+01-3.24654E-05 7.89996E-06-5.95347E-04 2.61417E-14 4.56897E-14
 -1      1596 1.99948E+01-7.53579E-05-8.17585E-07-1.23693E-03 9.34144E-14 3.24609E-13
 -1      1597 1.99966E+01-2.08851E-05 1.14160E-05-4.69630E-04 1.69214E-13-3.18043E-13
 -1      1598 1.99959E+01-3.04261E-05 5.27829E-06-4.87279E-04 1.64822E-13-1.30877E-13
 -1      1599 1.99961E+01-6.58942E-05 1.55993E-07-1.02184E-03 2.36495E-13 2.38814E-13
 -1      1600 1.99977E+01-1.88686E-05 9.28002E-06-3.74176E-04-5.42653E-14-4.58192E-13
 -1      1601 1.99971E+01-2.83727E-05 3.40208E-06-3.90738E-04-6.05418E-15-4.73475E-13
 -1      1602 1.99972E+01-5.73689E-05 9.65365E-07-8.27970E-04 1.36697E-13-1.66859E-14
 -1      1603 1.99986E+01-1.79715E-05 8.41597E-06-2.86754E-04-1.04947E-14-4.23797E-13
 -1      1604 1.99981E+01-2.74150E-05 2.33667E-06-3.02991E-04 5.50775E-14-3.53783E-13
 -1      1605 1.99981E+01-5.10861E-05 2.02721E-06-6.52221E-04-9.90215E-15-1.01483E-13
 -1      1606 1.99992E+01-1.87266E-05 8.87715E-06-2.01487E-04-2.49101E-15-5.62670E-13
 -1      1607 1.99989E+01-2.86790E-05 2.26445E-06-2.19135E-04-5.10291E-14-5.62773E-13
 -1      1608 1.99988E+01-4.84280E-05 3.74710E-06-4.86987E-04-2.81285E-14-3.64601E-15
 -1      1609 1.99996E+01-2.10323E-05 8.32520E-06-1.10899E-04-2.64613E-14-7.34440E-13
 -1      1610 1.99994E+01-3.27106E-05 2.69197E-06-1.33088E-04 7.35508E-14-6.28834E-13
 -1      1611 1.99993E+01-5.10112E-05 5.63880E-06-3.21665E-04 1.45335E-13-2.02924E-13
 -1      1612 1.99998E+01-2.09925E-05-3.46933E-06-2.14513E-05-1.85322E-14-5.28842E-13
 -1      1613 1.99997E+01-3.32504E-05 7.62834E-07-4.47442E-05-5.36288E-14-7.14922E-13
 -1      1614 1.99996E+01-5.22493E-05 5.63702E-06-1.49345E-04 4.06182E-14-1.87506E-13
 -1      1615 1.99998E+01-2.86261E-06-9.01137E-06 1.04069E-05-2.36361E-13-2.26530E-13
 -1      1616 1.99998E+01-1.56780E-04 4.91647E-06-8.71062E-05 2.02445E-13 2.71889E-13
 -1      1617 1.99998E+01-7.86949E-05-2.92437E-06-6.38317E-05-2.08401E-13 4.03737E-13
 -1      1618 1.99998E+01-4.93832E-04 3.73379E-06-1.77098E-04 4.65385E-13-5.43327E-14
 -1      1619 1.99998E+01-3.01724E-04 3.36411E-06-1.60745E-04 3.01936E-13 2.81511E-14
 -1      1620 1.99997E+01-3.12298E-04 6.42353E-06-2.46015E-04 8.05911E-14 3.33577E-13
 -1      1621 1.99998E+01-9.56726E-04 1.56885E-06-2.32547E-04 1.90885E-14-1.07887E-13
 -1      1622 1.99998E+01-6.90848E-04 2.58216E-06-2.24685E-04 4.44756E-13-1.29900E-13
 -1      1623 1.99998E+01-6.53540E-04 5.94025E-06-3.91411E-04 1.95481E-13-1.80171E-13
 -1      1624 1.99998E+01-1.46909E-03 8.92132E-08-2.45580E-04-1.64797E-13-1.52649E-13
 -1      1625 1.99998E+01-1.18029E-03 1.10150E-06-2.46446E-04 4.76577E-15-4.36024E-14
 -1      1626 1.99998E+01-1.07424E-03 1.50151E-06-4.64295E-04 5.03292E-14-2.13313E-13
 -1      1627 1.99998E+01-1.94207E-03-5.23718E-07-2.19812E-04-4.42788E-13-1.58319E-14
 -1      1628 1.99998E+01-1.68245E-03 2.35164E-07-2.27745E-04-2.80107E-13-3.21865E-14
 -1      1629 1.99998E+01-1.51028E-03-2.87037E-06-4.58036E-04-2.95677E-14-2.67015E-13
 -1      1630 1.99998E+01-2.32207E-03-7.26893E-07-1.61651E-04-1.55095E-13 1.68719E-14
 -1      1631 1.99998E+01-2.12273E-03-2.58599E-07-1.75308E-04-3.15063E-13 1.26312E-13
 -1      1632 1.99998E+01-1.90251E-03-6.42858E-06-3.82255E-04-4.80713E-14 4.76854E-14
 -1      1633 1.99998E+01-2.54690E-03-6.98226E-07-8.12474E-05-1.88918E-13-2.09642E-13
 -1      1634 1.99998E+01-2.44052E-03-4.61283E-07-9.83206E-05-1.19991E-13 1.09678E-13
 -1      1635 1.99998E+01-2.19953E-03-8.95499E-06-2.51506E-04-1.88866E-13 6.87826E-14
 -1      1636 1.99998E+01-2.58672E-03-5.95413E-07 9.92213E-06-3.91099E-13-9.54732E-15
 -1      1637 1.99998E+01-2.58768E-03-5.96788E-07-8.29455E-06-3.12247E-13-1.78410E-13
 -1      1638 1.99999E+01-2.35765E-03-1.02404E-05-8.66317E-05-6.86639E-14-2.75374E-13
 -1      1639 1.99998E+01-2.43632E-03-4.41952E-07 9.97940E-05-8.50766E-13-1.50239E-13
 -1      1640 1.99998E+01-2.54450E-03-7.00839E-07 8.27770E-05-6.58982E-13 3.46078E-14
 -1      1641 1.99999E+01-2.35621E-03-1.02254E-05 8.96900E-05-4.62913E-13-2.48803E-13
 -1      1642 1.99998E+01-2.11595E-03-1.91884E-07 1.76374E-04-1.31703E-12-2.82273E-13
 -1      1643 1.99998E+01-2.31666E-03-7.65832E-07 1.62865E-04-8.19740E-13-3.65056E-13
 -1      1644 1.99998E+01-2.19544E-03-8.89465E-06 2.54121E-04-6.02333E-13-3.57200E-13
 -1      1645 1.99998E+01-1.67815E-03 1.94515E-07 2.27775E-04-1.06965E-12 3.01704E-13
 -1      1646 1.99998E+01-1.93820E-03-5.49986E-07 2.19995E-04-1.23181E-12-1.24574E-13
 -1      1647 1.99998E+01-1.89947E-03-6.44220E-06 3.83267E-04-5.46642E-13-2.14362E-13
 -1      1648 1.99998E+01-1.17191E-03 1.05791E-06 2.46250E-04-5.39831E-13 2.22094E-13
 -1      1649 1.99998E+01-1.46065E-03 8.25892E-08 2.45531E-04-9.95484E-13 6.61384E-13
 -1      1650 1.99998E+01-1.50645E-03-2.79278E-06 4.58127E-04-4.44031E-13 7.24660E-13
 -1      1651 1.99998E+01-6.83239E-04 2.76972E-06 2.24326E-04-5.74437E-13-4.72334E-14
 -1      1652 1.99998E+01-9.48749E-04 1.50418E-06 2.31860E-04-4.99787E-13 4.94736E-15
 -1      1653 1.99998E+01-1.06683E-03 1.53908E-06 4.63510E-04-2.88651E-13 1.52702E-13
 -1      1654 1.99998E+01-3.01714E-04 1.06084E-06 1.60643E-04-3.57287E-13 2.83569E-13
 -1      1655 1.99998E+01-4.89051E-04 3.80398E-06 1.77486E-04-4.90746E-13-2.82767E-14
 -1      1656 1.99998E+01-6.48423E-04 5.82825E-06 3.89476E-04-1.54465E-13-8.41307E-14
 -1      1657 1.99997E+01-1.19814E-04-4.71958E-06 1.03088E-04-3.24137E-13-5.06952E-14
 -1      1658 1.99997E+01-2.02108E-04 3.31138E-06 1.36408E-04-2.44640E-13 1.45816E-13
 -1      1659 1.99997E+01-3.58223E-04 3.93966E-06 2.98208E-04-1.14786E-13 2.88771E-13
 -1      1660 1.99996E+01-1.75158E-04-2.60549E-06 2.10963E-04-2.99679E-14 1.08812E-13
 -1      1661-3.70657E-01-1.28287E+01-1.50605E+00-6.38246E-01 2.05791E-12 9.37361E-13
 -1      1662-4.18919E-01-1.48455E+01-1.67714E+00 3.69870E-01 1.06358E-12 7.69634E-13
 -1      1663 1.46659E+00-7.44813E+00-1.19652E+00 6.30294E-01 2.87637E-12 1.52467E-12
 -1      1664 7.59147E-01-1.20454E+01-1.63961E+00 1.06148E-01 2.43050E-12 1.01296E-12
 -1      1665 6.83406E+00-4.47307E-01-6.04833E-01 4.56535E+00 2.97695E-12 2.22422E-12
 -1      1666 3.89378E+00-5.71702E+00-1.32346E+00 1.82269E+00 2.90934E-12 1.68432E-12
 -1      1667 1.83893E+01 4.48098E+00 2.27591E-01 9.68436E+00 2.51010E-12 2.58105E-12
 -1      1668 1.16365E+01 9.69407E-01-6.58080E-01 5.94038E+00 2.81353E-12 2.28506E-12
 -1      1669 3.15044E+01 6.67663E+00 1.00003E+00 1.27200E+01 1.96809E-12 2.53286E-12
 -1      1670 2.28789E+01 6.24480E+00 1.35429E-01 1.07140E+01 2.47047E-12 2.70695E-12
 -1      1671 4.48277E+01 5.33632E+00 1.54968E+00 1.11799E+01 1.16196E-12 1.43563E-12
 -1      1672 3.63468E+01 6.81228E+00 9.04172E-01 1.23830E+01 1.76809E-12 2.21689E-12
 -1      1673 5.32782E+01 3.79630E+00 1.79372E+00 4.51475E+00 7.47735E-13-3.53995E-13
 -1      1674 4.80738E+01 5.21568E+00 1.45883E+00 9.03161E+00 1.05246E-12 8.73746E-13
 -1      1675 5.37811E+01 3.80215E+00 1.76177E+00-3.63376E+00 9.31921E-13-2.17776E-12
 -1      1676 5.47378E+01 3.61848E+00 1.82488E+00 2.06453E+00 7.43072E-13-9.11354E-13
 -1      1677 4.52388E+01 5.27311E+00 1.25586E+00-9.64223E+00 1.73858E-12-3.53684E-12
 -1      1678 5.18346E+01 3.80490E+00 1.76308E+00-5.97399E+00 1.13581E-12-2.67530E-12
 -1      1679 3.11836E+01 6.13236E+00 4.73035E-01-1.10250E+01 2.76135E-12-4.10139E-12
 -1      1680 4.08319E+01 5.15438E+00 1.27519E+00-1.09080E+01 2.03290E-12-3.79741E-12
 -1      1681 1.72198E+01 4.73514E+00-3.32009E-01-8.68419E+00 3.58480E-12-3.95095E-12
 -1      1682 2.54331E+01 6.07643E+00 5.36370E-01-1.15537E+01 3.16491E-12-4.29523E-12
 -1      1683 7.53426E+00-2.41087E-01-1.01739E+00-4.16702E+00 3.64087E-12-2.96685E-12
 -1      1684 1.24357E+01 3.59867E+00-2.49851E-01-7.54791E+00 3.73701E-12-3.71825E-12
 -1      1685 2.24453E+00-6.68503E+00-1.45053E+00-8.25574E-01 2.90534E-12-1.81608E-12
 -1      1686 4.14766E+00-1.83076E+00-8.99940E-01-2.76436E+00 3.54650E-12-2.59759E-12
 -1      1687 1.98056E-01-1.15062E+01-1.58503E+00-8.32423E-03 1.28941E-12-1.01688E-12
 -1      1688 5.87516E-01-7.99425E+00-1.28071E+00-2.43964E-03 2.40763E-12-1.54206E-12
 -1      1689-5.84903E-01-1.32248E+01-1.66833E+00-4.33488E-01-5.66325E-13-7.27307E-13
 -1      1690-6.33266E-01-1.27266E+01-1.62787E+00 9.05574E-01 8.18651E-13-7.74353E-13
 -1      1691-1.36869E-01-9.61156E+00-1.39635E+00-4.58424E-01-2.22777E-12-1.19067E-12
 -1      1692-2.29607E-01-1.26081E+01-1.67273E+00 1.24538E-01-1.10933E-12-8.12128E-13
 -1      1693 3.68071E+00-3.02880E+00-8.19147E-01 2.69385E+00-3.04612E-12-2.13846E-12
 -1      1694 2.09980E+00-7.72725E+00-1.29135E+00 1.17894E+00-2.35756E-12-1.44289E-12
 -1      1695 9.83232E+00 2.98676E+00-3.42360E-01 6.53565E+00-3.67373E-12-3.21154E-12
 -1      1696 5.98977E+00-1.20127E+00-1.00957E+00 3.53415E+00-3.52718E-12-2.51482E-12
 -1      1697 2.07097E+01 6.08336E+00 3.12604E-01 1.07616E+01-3.20843E-12-3.78453E-12
 -1      1698 1.40594E+01 4.09758E+00-4.54367E-01 7.75785E+00-3.57558E-12-3.41061E-12
 -1      1699 3.45332E+01 6.12927E+00 9.81802E-01 1.22499E+01-2.29544E-12-3.70237E-12
 -1      1700 2.56551E+01 6.61646E+00 2.27340E-01 1.11973E+01-2.95619E-12-3.84603E-12
 -1      1701 4.72979E+01 4.34472E+00 1.47554E+00 8.00120E+00-1.32170E-12-2.37377E-12
 -1      1702 3.92140E+01 5.94541E+00 8.93833E-01 1.05308E+01-1.96509E-12-3.19345E-12
 -1      1703 5.39762E+01 3.45744E+00 1.79530E+00 1.13033E+00-7.62002E-13-9.66366E-13
 -1      1704 5.06561E+01 4.25738E+00 1.51213E+00 6.20977E+00-1.04983E-12-2.08100E-12
 -1      1705 5.20088E+01 4.19313E+00 1.67492E+00-6.41469E+00-8.09297E-13 6.52700E-13
 -1      1706 5.44837E+01 3.39572E+00 1.83614E+00-1.35697E+00-6.63192E-13-4.19859E-13
 -1      1707 4.21560E+01 6.01587E+00 1.15081E+00-1.08471E+01-1.33404E-12 1.89548E-12
 -1      1708 4.89761E+01 4.44943E+00 1.62481E+00-8.05602E+00-9.52322E-13 1.05893E-12
 -1      1709 2.98527E+01 7.07494E+00 5.82041E-01-1.21714E+01-2.12108E-12 2.72715E-12
 -1      1710 3.82426E+01 6.18634E+00 1.25678E+00-1.24535E+01-1.51840E-12 2.44704E-12
 -1      1711 1.77729E+01 5.25440E+00-1.27568E-01-9.29546E+00-2.59193E-12 2.67120E-12
 -1      1712 2.51540E+01 6.59653E+00 6.66827E-01-1.19854E+01-2.27129E-12 2.85305E-12
 -1      1713 8.49576E+00 2.65751E-01-8.22054E-01-4.90176E+00-2.59104E-12 2.09965E-12
 -1      1714 1.34003E+01 4.05483E+00-3.88764E-02-8.25710E+00-2.63278E-12 2.62723E-12
 -1      1715 2.97944E+00-6.60865E+00-1.38774E+00-1.31564E+00-2.14873E-12 1.35514E-12
 -1      1716 5.20486E+00-1.55706E+00-7.36755E-01-3.55517E+00-2.50200E-12 1.83570E-12
 -1      1717 4.25521E-01-1.28432E+01-1.74224E+00 8.29528E-02-8.74745E-13 8.67278E-13
 -1      1718 9.31863E-01-8.45299E+00-1.31393E+00-2.21496E-01-1.85552E-12 1.28143E-12
 -1      1719-5.51224E-01-1.56760E+01-1.81885E+00-4.19152E-01 7.25142E-13 6.98497E-13
 -1      1720-5.47831E-01-1.40042E+01-1.69825E+00 8.36144E-01-5.05540E-13 8.23203E-13
 -1      1721 2.47491E+01 6.24957E-01 1.90744E-01 7.23528E+00 1.51967E-12 1.36791E-12
 -1      1722 1.47423E+01-3.15054E+00-3.14119E-01 6.58930E+00 1.55864E-12 1.38944E-12
 -1      1723 1.99998E+01-1.97694E-05-1.94220E-07-1.75717E-05-3.30254E-13 1.40126E-13
 -1      1724 1.99997E+01-1.19686E-04 2.51796E-07-1.08438E-04-1.07599E-13 5.57551E-13
 -1      1725 8.33862E-01-8.88902E+00-1.09127E+00 2.46211E+00 1.08075E-12 1.18000E-12
 -1      1726 5.94147E+00-6.60129E+00-8.51719E-01 4.64718E+00 1.54388E-12 1.25739E-12
 -1      1727-1.07263E+00-1.00064E+01-1.19532E+00 1.50738E-01 5.34059E-13 1.36935E-12
 -1      1728 3.46526E+01 4.28235E+00 8.48544E-01 7.32743E+00 1.54532E-12 1.03650E-12
 -1      1729 4.24788E+01 6.31530E+00 1.30287E+00 4.97094E+00 1.45631E-12 2.64455E-13
 -1      1730 4.63460E+01 7.43717E+00 1.50558E+00 1.52001E+00 1.39910E-12-5.79897E-13
 -1      1731 4.60671E+01 7.01650E+00 1.50662E+00-1.75850E+00 1.48564E-12-1.47832E-12
 -1      1732 4.01716E+01 5.37114E+00 1.11099E+00-4.61012E+00 1.76301E-12-2.08089E-12
 -1      1733 3.09027E+01 2.92997E+00 5.85634E-01-6.76876E+00 2.06690E-12-2.52554E-12
 -1      1734 1.97970E+01 1.39895E-01-7.48941E-02-7.04604E+00 2.26086E-12-2.67186E-12
 -1      1735 1.02490E+01-3.17626E+00-6.27702E-01-5.47684E+00 2.11053E-12-2.32531E-12
 -1      1736 3.52677E+00-6.04359E+00-9.48966E-01-3.47348E+00 1.42908E-12-1.88005E-12
 -1      1737-2.41309E-01-7.88264E+00-1.09762E+00-1.36573E+00 6.06126E-13-1.58018E-12
 -1      1738-8.28191E-01-8.52695E+00-1.19437E+00 9.21239E-01-4.07924E-13-1.44468E-12
 -1      1739 2.60525E+00-6.10347E+00-8.23202E-01 3.57312E+00-1.15746E-12-1.61321E-12
 -1      1740 8.65147E+00-3.68014E+00-6.50191E-01 5.47976E+00-1.69309E-12-1.93913E-12
 -1      1741 1.67506E+01-2.40856E-01-2.05168E-01 6.97515E+00-2.24187E-12-2.31104E-12
 -1      1742 2.67012E+01 2.66188E+00 3.69879E-01 7.59182E+00-2.12230E-12-2.41451E-12
 -1      1743 3.63763E+01 4.84357E+00 8.89789E-01 5.97738E+00-1.83864E-12-1.95088E-12
 -1      1744 4.31255E+01 6.66024E+00 1.24623E+00 2.83293E+00-1.54232E-12-1.34992E-12
 -1      1745 4.68210E+01 7.22714E+00 1.53386E+00-2.58042E-01-1.34504E-12-6.16514E-13
 -1      1746 4.44103E+01 6.85440E+00 1.36468E+00-3.40094E+00-1.24933E-12 1.27287E-13
 -1      1747 3.84485E+01 5.57316E+00 1.08013E+00-6.15817E+00-1.34252E-12 8.38996E-13
 -1      1748 3.00241E+01 3.36923E+00 6.23710E-01-7.79869E+00-1.45589E-12 1.45550E-12
 -1      1749 2.04300E+01 2.89073E-01 6.13647E-02-7.52266E+00-1.41109E-12 1.63269E-12
 -1      1750 1.15658E+01-3.41990E+00-4.91529E-01-6.12751E+00-1.25344E-12 1.49120E-12
 -1      1751 4.63980E+00-7.06225E+00-9.39173E-01-4.18473E+00-7.82152E-13 1.35379E-12
 -1      1752 2.70388E-01-9.81686E+00-1.24006E+00-2.13396E+00-1.72917E-13 1.39844E-12
 -1      1753 2.75706E+01 2.13438E+00-1.79213E-02-2.67986E+00-4.04062E-13 1.60250E-12
 -1      1754 2.21338E+01 3.21930E+00-3.64518E-02-1.56220E+00-3.79606E-13-4.57259E-13
 -1      1755 2.28768E+01 3.20661E+00-5.60966E-02-2.03320E+00-4.86559E-13-2.95867E-13
 -1      1756 2.36602E+01 2.99977E+00-5.40804E-02-2.32205E+00-5.16504E-13-8.95672E-14
 -1      1757 2.43251E+01 2.72997E+00-1.64868E-01-2.72398E+00-5.86618E-13 1.93803E-13
 -1      1758 2.36051E+01 2.18609E+00-1.46223E-02-2.01349E+00-5.25313E-13-1.34399E-13
 -1      1759 1.87220E+01 3.32775E+00-2.71079E-02 1.97535E-01-7.24941E-14-7.97869E-13
 -1      1760 1.96762E+01 3.34823E+00-8.20334E-03-1.88591E-01-1.43866E-13-7.52034E-13
 -1      1761 1.65997E+01 3.60233E+00-3.27837E-02 8.45224E-01 5.14953E-14-8.95412E-13
 -1      1762 1.76945E+01 3.57090E+00 1.05098E-02 5.88898E-01-1.46411E-15-8.54306E-13
 -1      1763 1.84764E+01 2.78023E+00-2.97730E-02 5.08996E-01-2.36547E-14-7.87507E-13
 -1      1764 1.45157E+01 4.05526E+00-3.40785E-02 1.06726E+00 1.32307E-13-9.73666E-13
 -1      1765 1.55340E+01 3.98495E+00 2.07734E-02 1.01246E+00 9.70422E-14-9.44653E-13
 -1      1766 1.61805E+01 3.31271E+00-2.33762E-02 1.13080E+00 1.02755E-13-9.07153E-13
 -1      1767 1.30444E+01 4.50609E+00-2.25865E-02 7.85427E-01 1.59950E-13-1.03419E-12
 -1      1768 1.36711E+01 4.44063E+00 1.70828E-02 9.30282E-01 1.52095E-13-1.02064E-12
 -1      1769 1.40465E+01 3.99831E+00-2.05150E-03 1.20879E+00 1.73845E-13-1.00570E-12
 -1      1770 1.27457E+01 4.70070E+00-2.32223E-03 1.78714E-01 1.52526E-13-1.03803E-12
 -1      1771 1.27259E+01 4.68298E+00-1.43287E-03 4.14556E-01 1.55054E-13-1.04974E-12
 -1      1772 1.27264E+01 4.51527E+00 1.79926E-02 6.98546E-01 1.84082E-13-1.07243E-12
 -1      1773 1.37913E+01 4.52752E+00 1.52519E-02-3.63612E-01 1.51757E-13-9.74784E-13
 -1      1774 1.31076E+01 4.56418E+00-2.20822E-02-2.04133E-01 1.44594E-13-1.01213E-12
 -1      1775 1.27674E+01 4.55279E+00 1.83472E-02-8.47107E-02 1.56458E-13-1.05008E-12
 -1      1776 1.57953E+01 4.12425E+00 1.92614E-02-4.94641E-01 1.98664E-13-8.38397E-13
 -1      1777 1.46977E+01 4.17371E+00-3.35687E-02-5.26945E-01 1.66298E-13-9.02615E-13
 -1      1778 1.41894E+01 4.09845E+00 1.22246E-04-6.34259E-01 1.52441E-13-9.40536E-13
 -1      1779 1.82486E+01 3.71424E+00 8.08792E-03-1.19126E-01 2.98837E-13-6.53822E-13
 -1      1780 1.69933E+01 3.73814E+00-3.49608E-02-3.62137E-01 2.35440E-13-7.52561E-13
 -1      1781 1.65157E+01 3.43289E+00-2.04402E-02-6.23643E-01 2.11529E-13-7.71608E-13
 -1      1782 2.06730E+01 3.43405E+00-1.69541E-02 6.36739E-01 4.19154E-13-3.90233E-13
 -1      1783 1.94708E+01 3.43001E+00-3.48684E-02 2.39804E-01 3.45560E-13-5.29816E-13
 -1      1784 1.91432E+01 2.85958E+00-2.90104E-02-6.73590E-02 3.16127E-13-5.41310E-13
 -1      1785 2.29678E+01 3.17920E+00-5.38349E-02 1.53703E+00 5.33292E-13-1.56541E-14
 -1      1786 2.18194E+01 3.23009E+00-4.53236E-02 1.06651E+00 4.74221E-13-2.36124E-13
 -1      1787 2.16377E+01 2.47926E+00-2.38146E-02 7.68310E-01 4.49684E-13-2.51788E-13
 -1      1788 2.54292E+01 2.55523E+00-7.06774E-02 2.29651E+00 5.76192E-13 6.63219E-13
 -1      1789 2.41415E+01 2.88545E+00-5.64838E-02 1.89129E+00 5.37568E-13 2.74301E-13
 -1      1790 2.40185E+01 2.07881E+00 3.88663E-03 1.52133E+00 5.38598E-13 1.75839E-13
 -1      1791 2.72635E+01 1.08330E+00-1.43220E-01 1.93910E+00 5.16268E-13 1.45461E-12
 -1      1792 2.62711E+01 2.20304E+00-1.36215E-03 2.27546E+00 5.41415E-13 9.50059E-13
 -1      1793 2.56776E+01 1.34799E+00-3.06359E-02 1.67155E+00 5.75165E-13 6.93265E-13
 -1      1794 2.65863E+01 5.84442E-01-6.90356E-02 1.19157E+00 5.14158E-13 1.29748E-12
 -1      1795 2.60803E+01 2.55850E+00 9.54855E-02-2.98877E+00-5.26487E-13 7.16635E-13
 -1      1796 2.58005E+01-1.55293E-02-1.75124E-02 7.37774E-01 4.02839E-13 1.08062E-12
 -1      1797 2.63469E+01 1.64099E-01-1.98255E-02 9.17378E-01 4.19990E-13 1.22397E-12
 -1      1798 2.60209E+01 4.91460E-01 1.37719E-03 1.23647E+00 4.93536E-13 8.89471E-13
 -1      1799 2.56444E+01 1.57972E+00 8.46089E-02-2.30148E+00-5.46153E-13 5.30756E-13
 -1      1800 2.46971E+01 1.48259E-01 3.11282E-02-1.26448E+00-4.49737E-13 4.95208E-13
 -1      1801 2.40849E+01-3.36069E-02-9.99293E-03-1.17512E+00-3.94100E-13 3.78594E-13
 -1      1802 2.38411E+01-1.28465E-01 2.28614E-02-1.20261E+00-3.41696E-13 3.99809E-13
 -1      1803 2.33563E+01-1.82743E-01-9.36049E-04-1.27686E+00-2.95808E-13 3.12738E-13
 -1      1804 2.40610E+01-7.88952E-02 6.01784E-04-1.52612E+00-4.15628E-13 2.10181E-13
 -1      1805 2.30861E+01-1.67344E-01 9.86256E-03-1.38068E+00-2.20940E-13 3.04639E-13
 -1      1806 2.26082E+01-1.01062E-01 6.69381E-03-1.45029E+00-1.55186E-13 2.59005E-13
 -1      1807 2.35393E+01-2.32493E-01 3.90777E-03-1.65562E+00-3.07982E-13 2.01749E-13
 -1      1808 2.22863E+01 8.86244E-03 9.30301E-04-1.47683E+00-1.49832E-13 2.23351E-13
 -1      1809 2.18414E+01 1.63155E-01 1.73010E-02-1.42421E+00-1.66334E-13 1.82220E-13
 -1      1810 2.29618E+01-4.40257E-02 4.88917E-03-1.80859E+00-2.23508E-13 1.93803E-13
 -1      1811 2.15065E+01 3.23356E-01 3.83082E-04-1.24981E+00-2.11085E-13 1.01481E-13
 -1      1812 2.11756E+01 4.87141E-01 2.32356E-02-1.01668E+00-2.34068E-13-5.21284E-16
 -1      1813 2.23201E+01 3.72852E-01-2.86832E-03-1.65874E+00-2.57335E-13 8.03869E-14
 -1      1814 2.09403E+01 6.06330E-01 8.16550E-03-6.21786E-01-2.57615E-13-8.24826E-14
 -1      1815 2.08085E+01 6.73417E-01 1.82356E-02-2.55164E-01-2.72381E-13-1.56161E-13
 -1      1816 2.17584E+01 8.00872E-01-1.57435E-02-1.02776E+00-3.12790E-13-6.27940E-14
 -1      1817 2.07794E+01 6.67247E-01 1.82652E-02 2.30104E-01-3.02100E-13-2.02673E-13
 -1      1818 2.08789E+01 5.87021E-01 6.17268E-03 5.88939E-01-2.85551E-13-2.99198E-13
 -1      1819 2.14973E+01 9.73207E-01-2.16111E-02-3.17511E-02-3.43317E-13-2.16488E-13
 -1      1820 2.10466E+01 4.56707E-01 2.11976E-02 9.61525E-01-2.76536E-13-3.93306E-13
 -1      1821 2.13284E+01 2.79430E-01-4.24166E-03 1.17208E+00-2.12910E-13-4.39756E-13
 -1      1822 2.16365E+01 7.63372E-01-1.44146E-02 9.37646E-01-3.29045E-13-3.84184E-13
 -1      1823 2.15730E+01 1.05772E-01 1.35728E-02 1.30093E+00-1.74555E-13-5.24150E-13
 -1      1824 2.19325E+01-6.76515E-02-7.50026E-03 1.31226E+00-1.28997E-13-5.85965E-13
 -1      1825 2.20448E+01 2.96006E-01 7.20807E-04 1.49101E+00-2.67761E-13-5.45641E-13
 -1      1826 2.21212E+01-1.97724E-01-1.47003E-04 1.20654E+00-1.20506E-13-6.17159E-13
 -1      1827 2.24480E+01-2.96446E-01-6.18654E-03 1.06611E+00-5.45744E-14-6.82546E-13
 -1      1828 2.24701E+01-1.75928E-01 1.15404E-02 1.49703E+00-1.56453E-13-6.37646E-13
 -1      1829 2.25191E+01-3.48890E-01-1.19324E-02 8.29749E-01-3.88318E-14-6.72762E-13
 -1      1830 2.27390E+01-3.64827E-01-4.11230E-03 6.26017E-01-1.45934E-14-6.83471E-13
 -1      1831 2.27226E+01-4.64330E-01 1.18897E-02 1.10012E+00-6.12618E-14-6.97522E-13
 -1      1832 2.27002E+01-3.54073E-01-1.70236E-02 3.69702E-01-4.62824E-15-7.04774E-13
 -1      1833 2.27895E+01-3.17100E-01-2.33539E-03 1.77040E-01-1.23859E-15-6.58980E-13
 -1      1834 2.27544E+01-5.29666E-01 7.64302E-03 5.47734E-01-1.55197E-14-6.96552E-13
 -1      1835 2.26778E+01-2.75202E-01-1.59642E-02-3.08091E-02-4.82947E-15-5.99845E-13
 -1      1836 2.26506E+01-2.19916E-01-1.19704E-03-1.74012E-01 4.56276E-15-5.46638E-13
 -1      1837 2.26099E+01-4.43684E-01 3.45526E-03 3.62829E-02 2.96837E-14-5.99342E-13
 -1      1838 2.25021E+01-1.72741E-01-1.17148E-02-3.10297E-01-4.85324E-14-5.30826E-13
 -1      1839 2.23912E+01-1.21520E-01-4.96835E-04-3.96257E-01-3.12059E-14-5.03536E-13
 -1      1840 2.23579E+01-2.98713E-01 7.23873E-04-3.38566E-01-9.10730E-18-5.27889E-13
 -1      1841 2.22311E+01-8.24305E-02-6.82447E-03-4.66141E-01-2.74095E-14-4.93192E-13
 -1      1842 2.20720E+01-4.43830E-02 1.06308E-05-5.03818E-01-5.28961E-15-5.04614E-13
 -1      1843 2.20561E+01-1.58483E-01-7.71101E-04-5.60870E-01-1.94382E-14-4.55912E-13
 -1      1844 2.19154E+01-1.72121E-02-2.67860E-03-5.23791E-01-4.50433E-14-5.76525E-13
 -1      1845 2.17376E+01 6.84353E-03 4.23608E-04-5.27516E-01-2.76309E-14-5.86235E-13
 -1      1846 2.17433E+01-5.11612E-02-1.52139E-03-6.55949E-01-7.21704E-14-4.49042E-13
 -1      1847 2.15928E+01 2.31719E-02 2.61444E-04-5.15201E-01 3.24805E-15-6.01992E-13
 -1      1848 2.14170E+01 3.59666E-02 7.47104E-04-4.98423E-01-3.37134E-14-5.88881E-13
 -1      1849 2.14432E+01 1.87390E-02-1.86775E-03-6.61501E-01-2.64534E-14-5.06126E-13
 -1      1850 2.12883E+01 4.41781E-02 2.04524E-03-4.68228E-01-4.37473E-14-5.48927E-13
 -1      1851 2.11272E+01 4.91763E-02 9.63555E-04-4.41197E-01 5.39397E-14-5.10284E-13
 -1      1852 2.11694E+01 5.75159E-02-1.99057E-03-6.12503E-01 5.44535E-15-5.05560E-13
 -1      1853 2.10162E+01 5.20082E-02 2.92559E-03-4.03328E-01 6.23448E-14-5.63638E-13
 -1      1854 2.08762E+01 5.21909E-02 1.07097E-03-3.72911E-01 2.25998E-14-5.72497E-13
 -1      1855 2.09285E+01 7.42255E-02-1.97766E-03-5.35767E-01 2.50981E-14-4.69769E-13
 -1      1856 2.07829E+01 5.18044E-02 3.18685E-03-3.33876E-01-2.40977E-14-5.37018E-13
 -1      1857 2.06659E+01 4.93483E-02 1.08522E-03-3.04200E-01-4.87054E-14-5.29318E-13
 -1      1858 2.07227E+01 7.69843E-02-1.87521E-03-4.49521E-01 1.38626E-14-4.74329E-13
 -1      1859 2.05892E+01 4.72528E-02 3.06947E-03-2.67729E-01-3.52574E-14-4.90219E-13
 -1      1860 2.04945E+01 4.35956E-02 1.03103E-03-2.40978E-01 3.32781E-14-4.22293E-13
 -1      1861 2.05513E+01 7.18615E-02-1.71391E-03-3.64964E-01-2.26095E-14-3.89036E-13
 -1      1862 2.04329E+01 4.07624E-02 2.74986E-03-2.08909E-01 3.42524E-14-3.65296E-13
 -1      1863 2.03583E+01 3.67815E-02 9.33707E-04-1.86008E-01 7.95945E-14-3.44400E-13
 -1      1864 2.04120E+01 6.29401E-02-1.51827E-03-2.88205E-01 8.64201E-14-2.32714E-13
 -1      1865 2.03097E+01 3.37926E-02 2.34562E-03-1.58983E-01 1.02791E-13-4.15351E-13
 -1      1866 2.02524E+01 2.99805E-02 8.14500E-04-1.40101E-01 9.12237E-14-3.27521E-13
 -1      1867 2.03009E+01 5.27567E-02-1.30848E-03-2.21980E-01 8.69162E-14-2.59608E-13
 -1      1868 2.02149E+01 2.71579E-02 1.92888E-03-1.18056E-01 1.76704E-14-4.65963E-13
 -1      1869 2.01719E+01 2.37595E-02 6.89175E-04-1.02947E-01-2.78981E-14-4.59857E-13
 -1      1870 2.02143E+01 4.27683E-02-1.10022E-03-1.66932E-01 2.62282E-14-4.32459E-13
 -1      1871 2.01435E+01 2.12600E-02 1.53992E-03-8.54427E-02-3.01536E-14-4.24184E-13
 -1      1872 2.01120E+01 1.83698E-02 5.68250E-04-7.36570E-02-4.39278E-14-4.76221E-13
 -1      1873 2.01480E+01 3.37281E-02-9.04582E-04-1.22511E-01 1.87723E-14-4.42581E-13
 -1      1874 2.00910E+01 1.62503E-02 1.19820E-03-6.00879E-02-3.59024E-14-3.58606E-13
 -1      1875 2.00686E+01 1.38758E-02 4.57978E-04-5.11093E-02 9.90364E-15-3.32396E-13
 -1      1876 2.00984E+01 2.59543E-02-7.28383E-04-8.75618E-02 4.34165E-14-3.01871E-13
 -1      1877 2.00533E+01 1.21359E-02 9.10291E-04-4.08264E-02 1.08298E-14-3.45902E-13
 -1      1878 2.00378E+01 1.02387E-02 3.61459E-04-3.41430E-02 6.75036E-14-2.35945E-13
 -1      1879 2.00621E+01 1.95108E-02-5.74992E-04-6.06949E-02 4.84785E-15-2.42702E-13
 -1      1880 2.00271E+01 8.84775E-03 6.75384E-04-2.65262E-02 5.38592E-14-2.42856E-13
 -1      1881 2.00168E+01 7.36801E-03 2.79637E-04-2.16705E-02 8.13378E-14-2.40777E-13
 -1      1882 2.00361E+01 1.43224E-02-4.45197E-04-4.04996E-02 8.30860E-14-1.66650E-13
 -1      1883 2.00095E+01 6.28149E-03 4.88735E-04-1.61642E-02-2.34847E-14-2.90838E-13
 -1      1884 2.00030E+01 5.15298E-03 2.12085E-04-1.27304E-02-5.55172E-14-3.14972E-13
 -1      1885 2.00180E+01 1.02464E-02-3.38034E-04-2.56661E-02-1.35485E-14-2.90179E-13
 -1      1886 1.99982E+01 4.32251E-03 3.43883E-04-8.85787E-03-8.53397E-14-3.87107E-13
 -1      1887 1.99945E+01 3.48079E-03 1.57585E-04-6.50613E-03-1.47062E-13-3.41394E-13
 -1      1888 2.00060E+01 7.11576E-03-2.51485E-04-1.50418E-02-9.27977E-14-3.53753E-13
 -1      1889 1.99915E+01 2.85958E-03 2.33946E-04-3.87145E-03-1.34562E-13-2.78567E-13
 -1      1890 1.99897E+01 2.24627E-03 1.14527E-04-2.32532E-03-1.57961E-13-3.43203E-13
 -1      1891 1.99983E+01 4.76339E-03-1.82999E-04-7.65097E-03-1.02412E-13-1.65774E-13
 -1      1892 1.99880E+01 1.79199E-03 1.52359E-04-6.08172E-04-1.92202E-13-2.46724E-13
 -1      1893 1.99874E+01 1.35660E-03 8.11852E-05 3.52007E-04-1.09109E-14-2.49861E-13
 -1      1894 1.99937E+01 3.03548E-03-1.29861E-04-2.69104E-03-1.32755E-13-8.27586E-14
 -1      1895 1.99866E+01 1.03264E-03 9.32384E-05 1.40487E-03-3.10488E-14-3.71206E-13
 -1      1896 1.99868E+01 7.32970E-04 5.58770E-05 1.94986E-03-1.34279E-13-3.92256E-13
 -1      1897 1.99914E+01 1.79739E-03-8.94296E-05 4.81472E-04-1.97126E-13-1.68081E-13
 -1      1898 1.99867E+01 5.08671E-04 5.15344E-05 2.53449E-03-8.03349E-14-4.91834E-13
 -1      1899 1.99874E+01 3.10345E-04 3.70608E-05 2.79432E-03-8.35420E-14-5.21384E-13
 -1      1900 1.99905E+01 9.35478E-04-5.92851E-05 2.37152E-03-1.73705E-13-2.67256E-13
 -1      1901 1.99876E+01 1.60698E-04 2.30491E-05 3.05940E-03-1.65470E-13-3.76498E-13
 -1      1902 1.99885E+01 3.63700E-05 2.33809E-05 3.13099E-03-1.00864E-13-4.57604E-13
 -1      1903 1.99906E+01 3.56500E-04-3.72962E-05 3.36713E-03-2.66526E-14-1.49135E-13
 -1      1904 1.99889E+01-5.85831E-05 4.38127E-06 3.18690E-03 8.68071E-14-4.44657E-13
 -1      1905 1.99899E+01-1.30240E-04 1.36806E-05 3.14091E-03 1.16244E-13-3.24206E-13
 -1      1906 1.99912E+01-1.42876E-05-2.16463E-05 3.76042E-03 5.57440E-14 5.56247E-14
 -1      1907 1.99904E+01-1.86119E-04-7.16396E-06 3.06773E-03 6.80893E-14-4.45286E-13
 -1      1908 1.99914E+01-2.21435E-04 6.99540E-06 2.95431E-03 6.53080E-14-4.03312E-13
 -1      1909 1.99922E+01-2.35575E-04-1.08260E-05 3.76652E-03 4.30205E-14-7.86715E-14
 -1      1910 1.99919E+01-2.50255E-04-1.36788E-05 2.80854E-03 5.63510E-15-3.22265E-13
 -1      1911 1.99929E+01-2.61530E-04 2.53336E-06 2.66217E-03-9.38198E-14-3.05890E-13
 -1      1912 1.99933E+01-3.52613E-04-3.60884E-06 3.54004E-03 3.84261E-14-1.39480E-13
 -1      1913 1.99934E+01-2.72402E-04-1.67566E-05 2.48231E-03-9.19685E-14-3.21179E-13
 -1      1914 1.99943E+01-2.68775E-04-3.49668E-07 2.32561E-03-8.09381E-14-3.12828E-13
 -1      1915 1.99944E+01-3.99729E-04 9.82077E-07 3.18881E-03-1.91051E-13-4.42273E-14
 -1      1916 1.99947E+01-2.68536E-04-1.75864E-05 2.13659E-03-1.54419E-13-2.56674E-13
 -1      1917 1.99955E+01-2.56754E-04-2.17519E-06 1.98334E-03-5.65213E-14-1.05625E-13
 -1      1918 1.99954E+01-4.02630E-04 3.71040E-06 2.78505E-03-8.22704E-14-5.47112E-14
 -1      1919 1.99959E+01-2.50534E-04-1.70330E-05 1.79992E-03 9.07884E-14-2.02722E-13
 -1      1920 1.99965E+01-2.35621E-04-3.36112E-06 1.65730E-03 1.40334E-13-1.73645E-13
 -1      1921 1.99964E+01-3.80449E-04 5.16171E-06 2.37420E-03-5.33741E-14 1.43838E-14
 -1      1922 1.99969E+01-2.27365E-04-1.56957E-05 1.48672E-03 1.49185E-13-3.94455E-14
 -1      1923 1.99974E+01-2.13279E-04-4.26237E-06 1.35691E-03 2.33177E-13 1.07890E-14
 -1      1924 1.99972E+01-3.47542E-04 5.76884E-06 1.98175E-03 1.97307E-13 1.24405E-13
 -1      1925 1.99978E+01-2.06163E-04-1.39646E-05 1.20047E-03 2.55913E-13 1.58716E-15
 -1      1926 1.99982E+01-1.95700E-04-5.01778E-06 1.08165E-03 3.43857E-13 1.29442E-13
 -1      1927 1.99979E+01-3.15316E-04 5.77322E-06 1.61820E-03 1.94644E-13 1.79306E-13
 -1      1928 1.99984E+01-1.91766E-04-1.19586E-05 9.36993E-04 1.25598E-13 1.19757E-13
 -1      1929 1.99988E+01-1.87400E-04-5.67607E-06 8.24905E-04 9.60490E-14 1.20139E-13
 -1      1930 1.99985E+01-2.91496E-04 5.49040E-06 1.28275E-03 2.55116E-13 1.24633E-13
 -1      1931 1.99990E+01-1.88461E-04-9.50833E-06 6.86878E-04 2.13965E-13 1.37980E-13
 -1      1932 1.99992E+01-1.90057E-04-5.95290E-06 5.75326E-04 2.94596E-13 1.92803E-13
 -1      1933 1.99989E+01-2.83078E-04 4.63568E-06 9.68584E-04 1.31291E-13 1.33176E-13
 -1      1934 1.99993E+01-1.88815E-04-7.40257E-06 4.46863E-04 3.29766E-13 1.97198E-13
 -1      1935 1.99995E+01-1.89607E-04-6.46946E-06 3.37576E-04 2.26214E-13 2.20376E-13
 -1      1936 1.99995E+01-2.59532E-04 3.93899E-06 4.00677E-04 8.89721E-14 2.72056E-13
 -1      1937 1.99993E+01-2.78178E-04 6.07385E-06 6.73028E-04 3.41247E-13 3.06833E-13
 -1      1938 2.51383E+01-2.40226E-01-8.59381E-04 9.25262E-01 2.85808E-13 9.01540E-13
 -1      1939 2.55807E+01-1.64124E-01 9.91595E-03 8.11166E-01 3.11525E-13 1.02550E-12
 -1      1940 2.54492E+01-1.53847E-01 7.82275E-04 1.02537E+00 3.90289E-13 7.65667E-13
 -1      1941 2.43656E+01-2.77616E-01 3.23642E-03 1.36624E+00 2.01557E-13 7.65259E-13
 -1      1942 2.48660E+01-2.92640E-01 5.86788E-03 1.13475E+00 2.20004E-13 8.39869E-13
 -1      1943 2.49277E+01-3.74821E-01 8.66217E-03 1.34624E+00 2.73087E-13 6.87679E-13
 -1      1944 2.33853E+01-9.06264E-02 8.43023E-03 1.71148E+00 1.75272E-13 7.09419E-13
 -1      1945 2.39842E+01-2.06084E-01 9.60700E-04 1.53348E+00 1.52400E-13 7.28084E-13
 -1      1946 2.42866E+01-2.91964E-01 1.14705E-02 1.81831E+00 2.00792E-13 5.87521E-13
 -1      1947 2.23101E+01 2.81155E-01 6.13986E-03 1.58031E+00 1.66132E-13 5.43192E-13
 -1      1948 2.29197E+01 1.07481E-01 4.34078E-04 1.63833E+00 1.80730E-13 6.59098E-13
 -1      1949 2.34570E+01 1.00811E-01 5.36583E-03 2.00287E+00 2.04265E-13 5.00971E-13
 -1      1950 2.14921E+01 6.21541E-01-7.85090E-03 7.94406E-01 3.07698E-13 3.12187E-13
 -1      1951 2.19296E+01 5.06790E-01 5.03830E-03 1.16273E+00 2.16889E-13 4.21923E-13
 -1      1952 2.26120E+01 6.29983E-01-1.23315E-02 1.51490E+00 2.83069E-13 3.09314E-13
 -1      1953 2.13211E+01 6.65951E-01-2.23451E-02-3.67076E-01 3.68962E-13 5.12854E-14
 -1      1954 2.14089E+01 7.08243E-01 9.26067E-03 1.65769E-01 3.30944E-13 1.86436E-13
 -1      1955 2.21229E+01 9.55653E-01-2.44983E-02 3.55812E-01 4.06286E-13 6.01520E-14
 -1      1956 2.18814E+01 3.66983E-01-1.69864E-02-1.30787E+00 3.12746E-13-2.23668E-13
 -1      1957 2.15807E+01 5.43975E-01 1.13268E-02-8.88343E-01 3.65971E-13-3.91423E-14
 -1      1958 2.22437E+01 8.17400E-01-1.72298E-02-9.49258E-01 4.27089E-13-1.50052E-13
 -1      1959 2.28114E+01-3.75106E-02-1.37809E-03-1.59715E+00 1.16722E-13-3.66998E-13
 -1      1960 2.22802E+01 1.43880E-01 5.24258E-03-1.46671E+00 1.99323E-13-2.90587E-13
 -1      1961 2.28339E+01 3.06332E-01-1.64641E-03-1.72157E+00 2.88717E-13-3.08873E-13
 -1      1962 2.36407E+01-3.03878E-01 1.23004E-02-1.27356E+00-3.85135E-14-3.23467E-13
 -1      1963 2.31130E+01-2.13014E-01-4.67678E-03-1.40425E+00 6.25975E-14-3.47920E-13
 -1      1964 2.34864E+01-2.17638E-01 6.16620E-03-1.70838E+00 7.73934E-14-4.33851E-13
 -1      1965 2.40919E+01-3.67340E-01 1.54367E-02-6.60860E-01 1.48995E-14-3.10665E-13
 -1      1966 2.37397E+01-3.70100E-01-1.13994E-02-9.13314E-01-2.39236E-14-2.71594E-13
 -1      1967 2.38854E+01-5.01806E-01 3.13148E-03-1.14172E+00-3.62765E-14-3.95402E-13
 -1      1968 2.41326E+01-2.95129E-01 1.11139E-02-6.69637E-02 6.07387E-14-3.53386E-13
 -1      1969 2.40109E+01-3.47934E-01-1.32744E-02-3.13113E-01 1.64938E-14-2.85067E-13
 -1      1970 2.39460E+01-5.17610E-01-2.12500E-03-4.14494E-01 1.86726E-14-4.01172E-13
 -1      1971 2.38652E+01-1.80719E-01 4.75439E-03 3.53644E-01 6.87558E-14-2.42662E-13
 -1      1972 2.39412E+01-2.40712E-01-1.13185E-02 1.77134E-01 6.05540E-14-3.07123E-13
 -1      1973 2.37328E+01-3.82445E-01-4.95895E-03 1.94594E-01 4.97892E-14-3.74710E-13
 -1      1974 2.34193E+01-7.98108E-02 3.55816E-04 5.80654E-01 4.44965E-14-1.88512E-13
 -1      1975 2.36248E+01-1.26339E-01-7.57947E-03 4.83070E-01 6.45361E-14-2.07062E-13
 -1      1976 2.33517E+01-2.15029E-01-4.54621E-03 5.83854E-01 5.26350E-14-2.76322E-13
 -1      1977 2.29010E+01-1.08857E-02-1.81620E-03 6.57170E-01-6.93271E-14-2.39058E-13
 -1      1978 2.31697E+01-3.96649E-02-3.66182E-03 6.21654E-01-2.14392E-14-1.88728E-13
 -1      1979 2.28929E+01-7.98650E-02-2.92074E-03 7.67800E-01-1.42876E-14-2.51453E-13
 -1      1980 2.23816E+01 2.81310E-02-2.42947E-03 6.38526E-01-4.89587E-14-2.29037E-13
 -1      1981 2.26643E+01 1.38225E-02-5.89209E-04 6.42834E-01-9.55080E-14-2.65005E-13
 -1      1982 2.24194E+01 7.28287E-03-1.52894E-03 8.04397E-01-4.58384E-14-2.11965E-13
 -1      1983 2.19031E+01 4.57330E-02-2.23243E-03 5.70042E-01 1.02713E-13-3.35476E-13
 -1      1984 2.21692E+01 4.10021E-02 1.41511E-03 5.95684E-01 6.20745E-14-3.08648E-13
 -1      1985 2.19707E+01 5.35865E-02-7.11790E-04 7.52923E-01 8.71063E-14-3.06455E-13
 -1      1986 2.14854E+01 5.02173E-02-1.73812E-03 4.82146E-01 8.95839E-14-3.74282E-13
 -1      1987 2.17197E+01 5.09532E-02 2.48813E-03 5.16552E-01 1.36539E-13-4.04147E-13
 -1      1988 2.15687E+01 7.21141E-02-3.64090E-04 6.58449E-01 1.68084E-13-3.86029E-13
 -1      1989 2.11348E+01 4.76535E-02-1.21696E-03 3.92667E-01-4.37348E-14-4.93801E-13
 -1      1990 2.13317E+01 5.10551E-02 2.88756E-03 4.28363E-01 1.82525E-14-3.94270E-13
 -1      1991 2.12227E+01 7.43340E-02-2.87121E-04 5.50118E-01 4.89266E-14-3.67033E-13
 -1      1992 2.08491E+01 4.18842E-02-7.78350E-04 3.10736E-01 3.71324E-14-5.56908E-13
 -1      1993 2.10090E+01 4.62648E-02 2.86315E-03 3.43809E-01-3.72020E-14-5.63603E-13
 -1      1994 2.09343E+01 6.82329E-02-3.23766E-04 4.44538E-01-5.21675E-15-4.67929E-13
 -1      1995 2.06219E+01 3.51116E-02-4.48219E-04 2.40146E-01 2.30498E-13-5.82438E-13
 -1      1996 2.07484E+01 3.95526E-02 2.60772E-03 2.68896E-01 1.63474E-13-4.94201E-13
 -1      1997 2.06998E+01 5.86940E-02-3.82674E-04 3.49903E-01 1.30389E-13-5.18676E-13
 -1      1998 2.04450E+01 2.84877E-02-2.17092E-04 1.81704E-01 7.15453E-14-5.65103E-13
 -1      1999 2.05428E+01 3.25428E-02 2.25108E-03 2.05686E-01 1.73847E-13-5.19014E-13
 -1      2000 2.05134E+01 4.84245E-02-4.23228E-04 2.69320E-01 1.80903E-13-5.14684E-13
 -1      2001 2.03099E+01 2.25456E-02-6.46677E-05 1.34697E-01-1.68462E-13-4.88096E-13
 -1      2002 2.03841E+01 2.60381E-02 1.87198E-03 1.54118E-01-1.07283E-13-5.25548E-13
 -1      2003 2.03682E+01 3.87793E-02-4.34437E-04 2.03074E-01-6.25947E-14-3.64309E-13
 -1      2004 2.02088E+01 1.74766E-02 2.96439E-05 9.77413E-02-2.82704E-13-3.45942E-13
 -1      2005 2.02638E+01 2.03733E-02 1.51347E-03 1.13109E-01-2.23794E-13-5.02800E-13
 -1      2006 2.02571E+01 3.03372E-02-4.19279E-04 1.50036E-01-2.47320E-13-3.49164E-13
 -1      2007 2.01346E+01 1.32940E-02 8.30960E-05 6.92594E-02-1.08016E-13-3.59968E-13
 -1      2008 2.01746E+01 1.56325E-02 1.19587E-03 8.11794E-02-1.68274E-13-3.47331E-13
 -1      2009 2.01738E+01 2.32597E-02-3.85500E-04 1.08484E-01-1.98298E-13-3.07316E-13
 -1      2010 2.00813E+01 9.92680E-03 1.08952E-04 4.77122E-02 6.71560E-14-2.01529E-13
 -1      2011 2.01097E+01 1.17746E-02 9.26133E-04 5.67893E-02-9.64859E-15-2.95973E-13
 -1      2012 2.01126E+01 1.74996E-02-3.41102E-04 7.65518E-02-2.79452E-14-3.56622E-13
 -1      2013 2.00441E+01 7.26986E-03 1.16923E-04 3.17135E-02 1.68269E-13-3.72975E-13
 -1      2014 2.00636E+01 8.70300E-03 7.03846E-04 3.85003E-02 9.64603E-14-2.42886E-13
 -1      2015 2.00685E+01 1.29168E-02-2.92576E-04 5.24615E-02 1.37719E-13-2.16285E-13
 -1      2016 2.00188E+01 5.21040E-03 1.13892E-04 2.00697E-02 2.59918E-13-3.63943E-13
 -1      2017 2.00319E+01 6.30261E-03 5.24926E-04 2.50470E-02 2.53330E-13-2.17764E-13
 -1      2018 2.00375E+01 9.33948E-03-2.44511E-04 3.46266E-02 2.17138E-13-2.45000E-13
 -1      2019 2.00024E+01 3.64109E-03 1.04605E-04 1.17847E-02 1.04843E-13-4.41748E-13
 -1      2020 2.00107E+01 4.45895E-03 3.83756E-04 1.53575E-02 1.47171E-13-4.18355E-13
 -1      2021 2.00165E+01 6.59554E-03-1.99792E-04 2.16893E-02 2.39439E-13-8.54813E-14
 -1      2022 1.99923E+01 2.46594E-03 9.22463E-05 6.04637E-03-1.24964E-13-3.33040E-13
 -1      2023 1.99972E+01 3.06698E-03 2.74372E-04 8.54730E-03 9.83941E-15-4.17662E-13
 -1      2024 2.00028E+01 4.52681E-03-1.59985E-04 1.25205E-02 3.48518E-14-1.91121E-13
 -1      2025 1.99868E+01 1.60226E-03 7.88854E-05 2.20458E-03-2.31118E-13-5.52960E-13
 -1      2026 1.99893E+01 2.03479E-03 1.91094E-04 3.90171E-03-1.91057E-13-4.71186E-13
 -1      2027 1.99943E+01 2.99508E-03-1.25721E-04 6.20130E-03-1.51735E-13-2.84999E-13
 -1      2028 1.99843E+01 9.80708E-04 6.58050E-05-2.51813E-04-4.20515E-14-3.69362E-13
 -1      2029 1.99852E+01 1.28441E-03 1.28822E-04 8.53752E-04-1.48823E-13-5.36560E-13
 -1      2030 1.99896E+01 1.88330E-03-9.70163E-05 1.99850E-03-1.68135E-13-3.20748E-13
 -1      2031 1.99838E+01 5.44368E-04 5.37457E-05-1.71834E-03-1.01122E-13-9.81034E-14
 -1      2032 1.99837E+01 7.51230E-04 8.31498E-05-1.03906E-03-5.78138E-14-1.70586E-13
 -1      2033 1.99874E+01 1.09468E-03-7.35149E-05-6.63479E-04-1.78620E-13-2.23631E-13
 -1      2034 1.99845E+01 2.47318E-04 4.30811E-05-2.49605E-03 2.45090E-13-2.31569E-13
 -1      2035 1.99838E+01 3.82702E-04 5.03722E-05-2.11642E-03 9.59157E-14-1.34907E-13
 -1      2036 1.99869E+01 5.50670E-04-5.46635E-05-2.22892E-03 8.91358E-14-8.58556E-14
 -1      2037 1.99859E+01 5.31221E-05 3.39437E-05-2.81010E-03 4.68029E-14-4.53891E-13
 -1      2038 1.99849E+01 1.36824E-04 2.74432E-05-2.63477E-03 2.06971E-13-3.92151E-13
 -1      2039 1.99874E+01 1.88596E-04-3.98268E-05-3.03511E-03 2.94162E-13-1.87206E-13
 -1      2040 1.99877E+01-6.66897E-05 2.63125E-05-2.82574E-03-1.16744E-13-2.69728E-13
 -1      2041 1.99866E+01-1.94610E-05 1.19039E-05-2.78419E-03-1.36158E-13-4.13467E-13
 -1      2042 1.99885E+01-4.07782E-05-2.83628E-05-3.33361E-03-1.00657E-13-2.03836E-13
 -1      2043 1.99896E+01-1.34031E-04 2.00748E-05-2.66159E-03-6.00407E-14-6.85552E-14
 -1      2044 1.99884E+01-1.11772E-04 1.80254E-06-2.70277E-03-1.06471E-13-1.27809E-13
 -1      2045 1.99900E+01-1.75547E-04-1.96668E-05-3.30835E-03-1.97236E-13-1.53985E-13
 -1      2046 1.99914E+01-1.65531E-04 1.50661E-05-2.40053E-03-2.39822E-13 1.03220E-13
 -1      2047 1.99903E+01-1.59676E-04-4.38701E-06-2.48841E-03-2.09374E-13-9.59664E-14
 -1      2048 1.99915E+01-2.44754E-04-1.31957E-05-3.09080E-03-1.84049E-13-1.99339E-14
 -1      2049 1.99931E+01-1.73651E-04 1.10964E-05-2.09839E-03-1.96730E-14 3.76285E-13
 -1      2050 1.99921E+01-1.77920E-04-7.84109E-06-2.20840E-03-2.23216E-13 1.88788E-13
 -1      2051 1.99929E+01-2.70236E-04-8.47795E-06-2.77220E-03-2.81035E-13 4.99177E-14
 -1      2052 1.99945E+01-1.67655E-04 7.96480E-06-1.79082E-03 2.78414E-13 4.66551E-13
 -1      2053 1.99937E+01-1.77498E-04-9.45452E-06-1.90701E-03 2.11526E-13 4.83918E-13
 -1      2054 1.99943E+01-2.68228E-04-5.11458E-06-2.41348E-03 1.43042E-13 3.45223E-13
 -1      2055 1.99958E+01-1.54455E-04 5.46984E-06-1.49845E-03-6.85814E-14 4.69154E-13
 -1      2056 1.99951E+01-1.66586E-04-9.89951E-06-1.61137E-03 1.10430E-13 4.93131E-13
 -1      2057 1.99955E+01-2.50739E-04-2.77381E-06-2.05280E-03 6.69198E-14 6.88356E-13
 -1      2058 1.99969E+01-1.39344E-04 3.41029E-06-1.23065E-03 3.94328E-13 3.50502E-13
 -1      2059 1.99963E+01-1.51335E-04-9.67114E-06-1.33581E-03 2.49109E-13 4.65484E-13
 -1      2060 1.99966E+01-2.26725E-04-1.18269E-06-1.71140E-03 2.47881E-13 5.99641E-13
 -1      2061 1.99978E+01-1.26500E-04 1.69551E-06-9.88077E-04-6.81945E-16 1.49944E-13
 -1      2062 1.99973E+01-1.36619E-04-9.12434E-06-1.08500E-03 2.13395E-13 2.99611E-13
 -1      2063 1.99975E+01-2.03161E-04-1.22498E-07-1.39779E-03 3.21397E-13 4.92458E-13
 -1      2064 1.99985E+01-1.18976E-04 4.03245E-07-7.65127E-04-9.17082E-14 7.54628E-14
 -1      2065 1.99981E+01-1.25966E-04-8.36498E-06-8.56199E-04-1.03515E-13 1.57323E-13
 -1      2066 1.99982E+01-1.84755E-04 8.63895E-07-1.11062E-03-8.03974E-14 3.62895E-13
 -1      2067 1.99990E+01-1.19473E-04-4.23854E-07-5.51699E-04 1.52591E-13 1.03610E-13
 -1      2068 1.99987E+01-1.22399E-04-7.33407E-06-6.41857E-04-3.05458E-14 7.01201E-14
 -1      2069 1.99988E+01-1.76127E-04 1.76635E-06-8.42456E-04 2.88641E-14 1.04233E-13
 -1      2070 1.99994E+01-1.27598E-04-2.43339E-06-3.37673E-04 8.18147E-14 2.60086E-13
 -1      2071 1.99992E+01-1.25987E-04-5.61987E-06-4.31781E-04 1.71720E-13 2.76084E-13
 -1      2072 1.99992E+01-1.79732E-04 2.10809E-06-5.82599E-04 9.59958E-14 3.32352E-13
 -1      2073 1.99996E+01-1.30223E-04-4.52255E-06-1.78428E-04-9.85355E-14 5.49529E-13
 -1      2074 1.99995E+01-1.36094E-04-3.94418E-06-2.70805E-04-1.15621E-14 4.01314E-13
 -1      2075 1.99995E+01-1.91366E-04 2.09615E-06-3.78516E-04-7.52770E-14 8.57715E-13
 -1      2076 1.99996E+01-1.92762E-04-7.53546E-09-2.30762E-04-4.98421E-14 8.09782E-13
 -1      2077 1.99998E+01-1.17731E-03 2.58273E-06-6.46431E-04 1.24405E-13-1.79443E-13
 -1      2078 1.99998E+01-9.70591E-04-3.65351E-06-6.29743E-04 2.29178E-14-1.07053E-13
 -1      2079 1.99997E+01-7.80883E-04 6.11669E-07-5.84517E-04 5.97767E-15-2.48285E-13
 -1      2080 1.99997E+01-5.95096E-04-4.71880E-06-5.19939E-04 5.76403E-14 9.31427E-15
 -1      2081 1.99997E+01-8.81898E-04 2.30333E-07-7.78480E-04-1.90571E-14-2.18488E-13
 -1      2082 1.99997E+01-4.57428E-04-9.67939E-07-4.31147E-04-1.13970E-13 3.68625E-14
 -1      2083 1.99996E+01-3.10947E-04-4.20413E-06-3.37077E-04 2.48695E-14 1.58740E-13
 -1      2084 1.99996E+01-3.14822E-04-2.85083E-06-4.16007E-04-7.77275E-14 4.38317E-13
 -1      2085 1.99996E+01-5.62713E-04 1.74154E-06-6.25294E-04-8.19741E-14 9.06638E-14
 -1      2086 1.99999E+01-1.55578E-03 4.67059E-06-6.10427E-04 2.35194E-14-1.96179E-13
 -1      2087 1.99998E+01-1.35812E-03-6.63459E-07-6.36505E-04 1.29545E-13-1.85458E-13
 -1      2088 1.99998E+01-1.24940E-03-1.42430E-06-8.14325E-04 8.90051E-15-1.70782E-13
 -1      2089 1.99999E+01-1.88332E-03 6.42897E-06-4.86127E-04 9.65642E-14 6.29372E-14
 -1      2090 1.99999E+01-1.71642E-03 2.32391E-06-5.49396E-04 8.00832E-14 4.78830E-14
 -1      2091 1.99999E+01-1.59098E-03-3.86353E-06-7.33247E-04 1.13346E-13-1.63169E-14
 -1      2092 2.00000E+01-2.11109E-03 7.44635E-06-2.95263E-04 9.06995E-15-8.72940E-14
 -1      2093 1.99999E+01-2.00132E-03 4.94967E-06-3.84675E-04 1.33007E-14 6.35507E-14
 -1      2094 2.00000E+01-1.86992E-03-5.62909E-06-5.49442E-04 1.58519E-13-6.33016E-14
 -1      2095 2.00000E+01-2.21114E-03 7.57247E-06-6.55725E-05-2.24020E-13-4.43502E-13
 -1      2096 2.00000E+01-2.17332E-03 6.74730E-06-1.68450E-04-3.30394E-14-3.52743E-13
 -1      2097 2.00001E+01-2.05064E-03-6.78214E-06-2.92351E-04 5.70906E-14-2.62976E-13
 -1      2098 2.00000E+01-2.17138E-03 6.73074E-06 1.72520E-04-4.58771E-13-4.50955E-13
 -1      2099 2.00000E+01-2.21055E-03 7.58008E-06 6.97856E-05-2.94330E-13-3.93234E-13
 -1      2100 2.00001E+01-2.11248E-03-7.17202E-06 2.66670E-06-2.76192E-13-5.30511E-13
 -1      2101 1.99999E+01-1.99705E-03 4.98513E-06 3.87973E-04-4.44202E-13-3.48697E-13
 -1      2102 2.00000E+01-2.10811E-03 7.38579E-06 2.99017E-04-4.66614E-13-1.87232E-13
 -1      2103 2.00000E+01-2.04838E-03-6.74459E-06 2.97306E-04-3.69412E-13-3.61704E-13
 -1      2104 1.99999E+01-1.71613E-03 2.33102E-06 5.49253E-04-2.16296E-13 1.23148E-13
 -1      2105 1.99999E+01-1.88065E-03 6.37352E-06 4.87397E-04-2.52939E-13-1.52570E-13
 -1      2106 2.00000E+01-1.86783E-03-5.68449E-06 5.51637E-04-1.29804E-13-7.47340E-14
 -1      2107 1.99998E+01-1.35443E-03-7.32230E-07 6.36391E-04-9.80817E-14 8.90513E-13
 -1      2108 1.99999E+01-1.55553E-03 4.67546E-06 6.10295E-04-2.12082E-13 7.10064E-13
 -1      2109 1.99999E+01-1.59064E-03-3.88224E-06 7.33212E-04 8.97594E-14 3.61429E-13
 -1      2110 1.99997E+01-9.63447E-04-3.64222E-06 6.28598E-04 7.17850E-14 1.56997E-13
 -1      2111 1.99998E+01-1.17036E-03 2.62801E-06 6.45959E-04-8.38366E-14 5.38004E-13
 -1      2112 1.99998E+01-1.24573E-03-1.28759E-06 8.13893E-04 1.08909E-13 7.44026E-13
 -1      2113 1.99997E+01-5.80262E-04-1.77768E-06 5.19849E-04 1.33171E-14 6.05532E-14
 -1      2114 1.99997E+01-7.74164E-04 8.49751E-07 5.82604E-04-4.90368E-14-5.30316E-15
 -1      2115 1.99997E+01-8.76579E-04 2.36158E-07 7.75882E-04 7.97850E-14 4.26175E-15
 -1      2116 1.05006E+01-4.72902E+00-1.34899E-01 6.47439E+00 7.71050E-13 8.73378E-13
 -1      2117 6.98452E+00-5.98095E+00-3.61776E-01 5.29993E+00 6.65135E-13 8.51402E-13
 -1      2118 6.83956E-01-5.60408E+00-2.93215E-01 6.27833E-01 3.16441E-13 1.33976E-12
 -1      2119 5.67625E-01-6.44984E+00-4.18208E-01-1.01773E+00 1.38806E-13 1.42053E-12
 -1      2120 4.18652E+00-5.65936E+00-2.75558E-01 4.46378E+00 6.63691E-13 9.91041E-13
 -1      2121 2.24534E+00-5.81646E+00-3.00576E-01 3.12261E+00 3.49831E-13 1.02601E-12
 -1      2122 7.79115E+00-4.69716E+00-1.03482E-01 5.87034E+00 1.73750E-14 8.19012E-13
 -1      2123 1.89109E+01-3.33105E+00-5.27859E-02 6.98126E+00 8.28781E-13 8.13932E-13
 -1      2124 1.39612E+01-4.90361E+00-3.08119E-01 6.25229E+00 7.47402E-13 9.09356E-13
 -1      2125 1.45740E+01-5.14402E+00-3.63176E-02 6.85721E+00 7.22200E-14 5.69579E-13
 -1      2126 2.86985E+01-3.85898E-01 2.01632E-01 5.54061E+00 1.00059E-12 4.20552E-13
 -1      2127 2.40638E+01-2.48101E+00-1.11632E-01 5.28140E+00 8.77187E-13 4.65072E-13
 -1      2128 2.05387E+01 3.25086E+00-3.01331E-02-6.62382E-01-2.14840E-13-6.67758E-13
 -1      2129 2.13555E+01 3.28917E+00-3.34570E-02-1.10627E+00-3.10106E-13-5.71425E-13
 -1      2130 2.21950E+01 2.40340E+00-1.26447E-02-1.32851E+00-3.54207E-13-4.39003E-13
 -1      2131 2.04827E+01 2.51859E+00-2.74744E-02-4.07697E-01-1.81272E-13-6.53783E-13
 -1      2132 3.88000E+01 5.57540E+00 2.72967E-01 1.81827E+00 1.36918E-12-2.95985E-13
 -1      2133 3.66302E+01 4.55673E+00 2.28593E-01 3.09780E+00 1.35650E-12 2.97540E-14
 -1      2134 3.96341E+01 7.09033E+00 2.62691E-01 2.60306E-01 1.46361E-12-6.61417E-13
 -1      2135 3.86518E+01 6.91818E+00 2.07642E-01 1.07020E+00 1.48287E-12-3.40700E-13
 -1      2136 3.88491E+01 6.43880E+00 2.32312E-01-9.06615E-01 1.51418E-12-1.03273E-12
 -1      2137 4.01229E+01 6.89541E+00 2.89036E-01 1.30125E-01 1.46838E-12-7.00967E-13
 -1      2138 3.55235E+01 7.98283E+00 2.90623E-01 3.51564E-01 1.56475E-12-4.01713E-13
 -1      2139 3.44067E+01 3.34546E+00 4.85579E-02-2.13460E+00 1.50976E-12-1.17162E-12
 -1      2140 3.78671E+01 4.73952E+00 2.97527E-01-1.48216E+00 1.50904E-12-1.04150E-12
 -1      2141 2.76804E+01-6.55695E-02-8.23520E-02-4.57541E+00 1.45270E-12-1.59561E-12
 -1      2142 3.22710E+01 1.24467E+00 1.09064E-01-3.84439E+00 1.42364E-12-1.31795E-12
 -1      2143 1.89382E+01-2.33048E+00-2.93810E-01-5.84023E+00 1.44995E-12-1.81793E-12
 -1      2144 2.40763E+01-8.22588E-01 2.71355E-02-6.28688E+00 1.53016E-12-1.85851E-12
 -1      2145 1.09371E+01-4.07393E+00-3.74645E-01-5.57977E+00 1.09024E-12-1.70126E-12
 -1      2146 1.52292E+01-2.66910E+00-9.02627E-02-6.54949E+00 1.34204E-12-1.84441E-12
 -1      2147 4.56562E+00-4.45893E+00-3.48393E-01-4.16483E+00 6.09401E-13-1.59661E-12
 -1      2148 7.45197E+00-3.73717E+00-2.23072E-01-5.30631E+00 1.08696E-12-1.75245E-12
 -1      2149 9.02593E-01-4.28224E+00-3.24980E-01-1.03756E+00 9.28979E-14-1.57740E-12
 -1      2150 2.20529E+00-3.50330E+00-1.88517E-01-2.72868E+00 5.27162E-13-1.66511E-12
 -1      2151 1.03033E+00-4.33115E+00-3.26000E-01 2.06768E+00-3.94296E-13-1.51995E-12
 -1      2152 3.36610E-01-4.63557E+00-3.69569E-01 6.42555E-01 8.42763E-14-1.50080E-12
 -1      2153 5.45018E+00-3.31086E+00-2.10094E-01 5.04396E+00-5.56166E-13-1.51915E-12
 -1      2154 2.64558E+00-4.61839E+00-4.22503E-01 3.37136E+00-4.03122E-13-1.50285E-12
 -1      2155 3.17116E+00-2.32070E+00-1.26433E-01 3.37405E+00-1.18239E-14-1.66078E-12
 -1      2156 1.33778E+01-2.58517E+00-9.72103E-02 6.62886E+00-1.23390E-12-1.61239E-12
 -1      2157 9.96594E+00-3.57885E+00-1.79827E-01 6.01601E+00-7.81042E-13-1.41832E-12
 -1      2158 2.08243E+01-9.98173E-01-1.92500E-03 6.78466E+00-1.46855E-12-1.60022E-12
 -1      2159 1.62609E+01-2.49345E+00-2.92075E-01 6.19311E+00-1.33588E-12-1.55909E-12
 -1      2160 1.71385E+01-3.45331E+00-8.61382E-02 6.40858E+00-5.16920E-13-1.18872E-12
 -1      2161 2.94279E+01 1.09127E+00 1.47197E-01 5.41587E+00-1.49111E-12-1.50363E-12
 -1      2162 2.47702E+01-2.84665E-01-1.34464E-01 5.46785E+00-1.45822E-12-1.52789E-12
 -1      2163 3.52893E+01 3.59436E+00 1.46949E-01 2.70564E+00-1.49458E-12-1.05677E-12
 -1      2164 3.19118E+01 2.48070E+00 7.66064E-02 4.00680E+00-1.54131E-12-1.39733E-12
 -1      2165 3.07121E+01 6.50109E-01 1.91235E-01 2.33732E+00-1.12028E-12-7.60447E-13
 -1      2166 3.89630E+01 6.48299E+00 3.33755E-01 5.73084E-01-1.49047E-12-7.37133E-13
 -1      2167 3.64067E+01 5.60802E+00 1.16531E-01 1.24270E+00-1.55576E-12-9.48686E-13
 -1      2168 4.02525E+01 7.08559E+00 3.53183E-01-8.59684E-01-1.41964E-12-4.37234E-13
 -1      2169 3.96310E+01 7.06400E+00 2.42887E-01 2.74152E-01-1.46005E-12-7.35051E-13
 -1      2170 3.76735E+01 6.16819E+00 1.94247E-01-2.05312E+00-1.27076E-12-1.39666E-13
 -1      2171 4.01349E+01 6.67249E+00 4.02718E-01-1.31655E+00-1.32594E-12-3.87301E-13
 -1      2172 3.60728E+01 7.95062E+00 3.66143E-01-1.99606E-01-1.49225E-12-5.38777E-13
 -1      2173 3.34472E+01 3.08609E+00 9.95874E-02-3.80354E+00-1.10837E-12 2.49134E-13
 -1      2174 3.62634E+01 4.33488E+00 2.34245E-01-2.75914E+00-1.11844E-12-1.01696E-13
 -1      2175 2.77043E+01 4.07710E-01-4.63348E-02-5.28154E+00-9.00557E-13 5.94969E-13
 -1      2176 3.19821E+01 1.87806E+00 2.35242E-01-5.06610E+00-9.73166E-13 4.34985E-13
 -1      2177 3.21966E+01 1.51707E+00 2.23104E-01-1.86453E+00-7.50129E-13-3.34843E-13
 -1      2178 1.99341E+01-2.73784E+00-2.17778E-01-6.28749E+00-5.76483E-13 8.48044E-13
 -1      2179 2.44956E+01-9.87900E-01 1.10088E-01-6.66000E+00-7.18425E-13 7.61835E-13
 -1      2180 1.21487E+01-4.87870E+00-3.41406E-01-6.23355E+00-3.19522E-13 9.47742E-13
 -1      2181 1.62468E+01-3.15374E+00-4.41788E-02-7.08864E+00-5.22027E-13 1.06629E-12
 -1      2182 5.82004E+00-6.12119E+00-3.93451E-01-5.04307E+00 1.15130E-13 1.10503E-12
 -1      2183 8.88150E+00-4.78832E+00-1.73527E-01-6.21180E+00-2.51132E-13 1.05431E-12
 -1      2184 1.27127E+00-6.72876E+00-4.39106E-01-2.34150E+00 2.46275E-13 1.29130E-12
 -1      2185 2.75591E+00-5.94417E+00-3.43752E-01-3.73790E+00-3.63598E-14 1.30240E-12
 -1      2186 2.15522E+00-4.10631E+00-1.96961E-01-2.10175E+00 2.48052E-13 1.46294E-12
 -1      2187 3.50202E+01 2.93418E+00 3.26097E-01 4.15325E+00 1.22197E-12 8.02691E-14
 -1      2188 3.07408E+01 1.37813E+00-1.14176E-02 4.57889E+00 1.20870E-12 3.52274E-13
 -1      2189 3.02385E+01-1.07627E+00 7.54352E-02 2.60043E+00 6.70596E-13-2.90767E-13
 -1      2190 3.42668E+01 3.12447E+00 2.72836E-01 1.04935E+00 1.14392E-12-4.34930E-13
 -1      2191 2.48016E+01 8.18728E-01-3.61423E-02-1.69773E+00-5.25274E-13 4.04315E-13
 -1      2192 3.52606E+01 5.95782E+00 2.51510E-01 7.72310E-01 1.44379E-12-4.74870E-13
 -1      2193 2.44302E+01 8.56292E-01-1.79932E-02-1.89568E+00-5.34680E-13 1.46202E-13
 -1      2194 2.56389E+00-4.43801E+00-1.37821E-01 2.14781E+00 8.82627E-14 1.12998E-12
 -1      2195 3.29958E+00-2.37458E+00 7.12037E-02 1.19855E+00-7.59531E-14 1.15763E-12
 -1      2196 4.68032E+00-2.88193E+00-2.55670E-02 3.71327E+00-2.68091E-13 9.58345E-13
 -1      2197 1.99996E+01-4.73781E-04-2.89722E-06 4.96085E-04-1.37680E-14 8.59614E-14
 -1      2198 2.34350E+01-4.19944E+00 5.17000E-02 5.42580E+00 3.44003E-13 1.43330E-13
 -1      2199 6.03322E+00-4.69455E+00-1.50812E-01-5.38811E+00 4.25437E-13 1.14014E-12
 -1      2200 1.29298E+01-5.05148E+00-8.85921E-02-6.91199E+00 3.79752E-13 8.08090E-13
 -1      2201 2.76274E+01-1.93379E+00 1.09211E-01-4.25329E+00-2.68313E-13 6.75016E-14
 -1      2202 3.48367E+01 5.23296E+00 2.55351E-01-4.32256E-01-1.17872E-12-4.75342E-13
 -1      2203 3.40170E+01 4.48037E+00 1.92623E-01 1.84402E-01-1.42569E-12-5.61828E-13
 -1      2204 2.45361E+01-2.13413E+00 6.38075E-02 4.94454E+00-8.64031E-13-9.76164E-13
 -1      2205 8.84908E+00-3.14236E+00-9.27031E-02 5.86660E+00-3.62488E-13-1.44570E-12
 -1      2206 8.32452E+00-2.01072E+00 1.19090E-01 5.80781E+00 8.59313E-14-1.36724E-12
 -1      2207 1.23343E+01-3.01838E+00-8.99066E-02 6.49146E+00 5.59830E-14-1.20293E-12
 -1      2208 1.88130E+00-1.85093E+00-1.25173E-01-3.19848E-01 1.20910E-13-1.77702E-12
 -1      2209 4.96035E+00-2.59976E+00-1.23583E-01-4.05881E+00 1.78552E-13-1.74988E-12
 -1      2210 1.16079E+01-3.76578E+00-1.14216E-01-6.16142E+00 4.02955E-13-1.57499E-12
 -1      2211 1.95563E+01-3.66689E+00-3.56497E-02-5.84729E+00 6.38767E-13-1.36724E-12
 -1      2212 2.73342E+01-1.88815E+00 1.22632E-01-3.77893E+00 8.72191E-13-9.75442E-13
 -1      2213 3.55288E+01 6.62124E+00 2.53756E-01 1.56809E-01 1.46683E-12-4.60409E-13
 -1      2214 3.26653E+01 1.54389E+00 1.82343E-01-7.34216E-01 1.14579E-12-5.16420E-13
 -1      2215 3.53405E+01 7.63940E+00 2.74008E-01-5.99173E-01-1.56125E-12-4.82669E-13
 -1      2216 2.04859E+01-4.31050E+00 6.70143E-03-6.38831E+00 9.20375E-14 4.85639E-13
 -1      2217 2.50515E+01-3.67209E-01-1.57914E-02 1.14622E+00 3.54345E-13 5.17646E-13
 -1      2218 2.53417E+01-6.51795E-02 2.71331E-02 1.11095E+00 4.12946E-13 5.69146E-13
 -1      2219 1.57369E+01 2.88555E+00-3.15452E-02 1.60747E+00 1.90420E-13-8.95160E-13
 -1      2220 1.70911E+01 2.62407E+00 2.93601E-02 1.38221E+00 1.35289E-13-8.41779E-13
 -1      2221 1.83590E+01 2.18376E+00-1.65848E-02 9.49929E-01 7.12106E-14-7.54318E-13
 -1      2222 1.95317E+01 1.99783E+00 5.99191E-03 5.11497E-01-2.20787E-14-7.00450E-13
 -1      2223 1.80000E+01 1.68138E+00-2.35259E-02 1.46775E+00 1.41900E-13-7.39168E-13
 -1      2224 1.20018E+01 4.39277E+00-6.24404E-03 6.68060E-01 1.99167E-13-1.10758E-12
 -1      2225 1.24586E+01 4.27915E+00 2.72420E-02 1.05011E+00 2.12086E-13-1.09188E-12
 -1      2226 1.25018E+01 4.33061E+00 2.49322E-02-4.15428E-01 1.41247E-13-1.06643E-12
 -1      2227 1.20117E+01 4.41360E+00-5.15344E-03-1.67122E-02 1.55577E-13-1.09560E-12
 -1      2228 1.17349E+01 4.22378E+00 5.24284E-02 3.39085E-01 1.80157E-13-1.13153E-12
 -1      2229 1.45709E+01 3.65608E+00 4.00887E-02-1.03534E+00 1.26675E-13-9.14166E-13
 -1      2230 1.33666E+01 3.88220E+00-2.99213E-02-8.95829E-01 1.06823E-13-9.95181E-13
 -1      2231 1.27285E+01 3.82157E+00 3.22460E-02-9.10349E-01 1.01753E-13-1.04699E-12
 -1      2232 1.74234E+01 2.77192E+00 3.02737E-02-8.76485E-01 1.85167E-13-7.07020E-13
 -1      2233 1.59371E+01 3.03558E+00-3.17438E-02-1.06488E+00 1.32067E-13-8.00710E-13
 -1      2234 1.52625E+01 2.83791E+00 9.47059E-04-1.41338E+00 8.36163E-14-8.41180E-13
 -1      2235 2.02092E+01 2.07094E+00 1.74466E-03-1.08548E-01 3.04414E-13-4.59778E-13
 -1      2236 1.88419E+01 2.29084E+00-2.02655E-02-5.11429E-01 2.29372E-13-5.77786E-13
 -1      2237 1.83437E+01 1.84578E+00-2.03993E-02-9.93523E-01 1.57434E-13-5.96873E-13
 -1      2238 2.25755E+01 1.58988E+00-4.15777E-02 8.27072E-01 4.49143E-13-1.45071E-13
 -1      2239 2.14498E+01 1.80923E+00-1.08679E-02 3.94208E-01 3.55648E-13-2.97791E-13
 -1      2240 2.11556E+01 1.20268E+00-1.61873E-02-4.90931E-02 2.79558E-13-3.18881E-13
 -1      2241 2.48652E+01-6.73861E-01-1.56367E-02 1.57526E+00 2.50098E-13 5.12817E-13
 -1      2242 2.51714E+01-5.79465E-01 2.07863E-02 1.33821E+00 2.84002E-13 5.56498E-13
 -1      2243 2.49444E+01-6.10286E-01-1.07766E-02 1.31446E+00 3.41545E-13 3.81014E-13
 -1      2244 2.41817E+01 9.09103E-03 1.22863E-02-1.62403E+00-3.91517E-13 9.09956E-14
 -1      2245 2.39083E+01-2.47496E-01-1.93586E-02-1.59710E+00-3.54178E-13 9.82273E-14
 -1      2246 3.20634E+01 4.47650E+00-6.96220E-02 1.63799E+00 1.25089E-12-1.52184E-13
 -1      2247 3.26059E+01 6.00527E+00-1.48649E-01 1.30229E+00 1.39949E-12-2.01200E-13
 -1      2248 2.39622E+01-3.67233E-01 1.16695E-02-1.73472E+00-3.08826E-13 1.61870E-13
 -1      2249 2.36803E+01-3.65814E-01-6.53546E-03-1.83469E+00-2.59941E-13 1.37598E-13
 -1      2250 2.40464E+01-3.61137E-01 1.45926E-04-1.77583E+00-3.24417E-13 5.85558E-14
 -1      2251 2.36063E+01-2.36248E-01-3.33239E-03-1.98642E+00-2.28172E-13 1.70762E-13
 -1      2252 2.33155E+01 1.33606E-02 9.19119E-03-2.01970E+00-2.29451E-13 1.32367E-13
 -1      2253 2.40206E+01-3.57066E-01 5.09683E-03-2.07068E+00-2.56669E-13 9.81409E-14
 -1      2254 2.30830E+01 3.45400E-01-1.76734E-02-1.99217E+00-2.75606E-13 8.82992E-14
 -1      2255 2.28147E+01 7.43331E-01 2.10148E-02-1.80390E+00-3.22168E-13 3.71435E-14
 -1      2256 2.37678E+01 2.63925E-01 7.43222E-03-2.23789E+00-2.94579E-13 9.03192E-14
 -1      2257 2.25160E+01 1.11826E+00-1.64072E-02-1.43944E+00-3.63146E-13-7.11185E-14
 -1      2258 2.23341E+01 1.42531E+00 1.79415E-02-9.88986E-01-3.97571E-13-1.17740E-13
 -1      2259 2.32969E+01 1.22095E+00-5.74983E-03-1.86088E+00-4.27753E-13-3.69492E-14
 -1      2260 2.21756E+01 1.58258E+00 1.53719E-03-3.40987E-01-4.04734E-13-2.41008E-13
 -1      2261 2.21428E+01 1.56341E+00-1.16024E-03 2.19652E-01-4.10931E-13-3.11827E-13
 -1      2262 2.28736E+01 1.95507E+00-1.63762E-02-7.85286E-01-4.84197E-13-2.30761E-13
 -1      2263 2.22319E+01 1.37248E+00 1.79795E-02 8.47195E-01-4.12706E-13-4.34585E-13
 -1      2264 2.23350E+01 1.03179E+00-2.20378E-02 1.26758E+00-3.62785E-13-5.06457E-13
 -1      2265 2.28000E+01 1.89356E+00-2.14103E-02 5.92307E-01-4.91089E-13-4.76848E-13
 -1      2266 2.25542E+01 6.25807E-01 2.12988E-02 1.58367E+00-3.46861E-13-5.68109E-13
 -1      2267 2.27211E+01 1.83887E-01-2.39568E-02 1.71189E+00-2.74122E-13-6.13473E-13
 -1      2268 2.30691E+01 1.07938E+00-5.38033E-03 1.59330E+00-4.20218E-13-6.52900E-13
 -1      2269 2.28561E+01-1.96987E-01 1.02850E-02 1.64811E+00-1.84563E-13-6.08233E-13
 -1      2270 2.30011E+01-5.10069E-01-1.21773E-02 1.50833E+00-1.20883E-13-6.26859E-13
 -1      2271 2.33587E+01 4.80584E-03 1.16998E-02 1.81623E+00-2.46703E-13-6.76081E-13
 -1      2272 2.29451E+01-7.12351E-01-5.94951E-03 1.20942E+00-6.49160E-14-6.15531E-13
 -1      2273 2.30143E+01-8.21855E-01-1.99897E-03 9.34080E-01-8.76512E-15-6.36542E-13
 -1      2274 2.33759E+01-7.97070E-01 8.55392E-03 1.38221E+00-9.70482E-14-6.17050E-13
 -1      2275 2.28153E+01-8.46848E-01-1.49670E-02 5.81276E-01-2.25362E-14-5.97613E-13
 -1      2276 2.27986E+01-8.01579E-01 4.28916E-03 2.94532E-01 2.67835E-14-5.51512E-13
 -1      2277 2.30970E+01-1.09401E+00 2.87288E-04 6.80236E-01 9.99418E-16-5.80839E-13
 -1      2278 2.25437E+01-7.21687E-01-1.56290E-02 2.53268E-03 5.88687E-14-5.59530E-13
 -1      2279 2.24602E+01-6.06483E-01 6.42574E-03-2.25077E-01 5.66205E-14-5.28094E-13
 -1      2280 2.26517E+01-1.00109E+00-5.04917E-03 1.28129E-02 3.97796E-14-5.49551E-13
 -1      2281 2.22140E+01-4.93680E-01-1.19729E-02-4.18535E-01-1.15728E-14-4.96177E-13
 -1      2282 2.20897E+01-3.71728E-01 5.93311E-03-5.65757E-01 1.44121E-14-4.97137E-13
 -1      2283 2.21769E+01-7.24592E-01-6.39068E-03-4.76180E-01 1.76667E-14-5.59958E-13
 -1      2284 2.18803E+01-2.68814E-01-7.39463E-03-6.67529E-01 1.71178E-14-4.64465E-13
 -1      2285 2.17372E+01-1.70549E-01 4.44837E-03-7.41625E-01-2.71439E-14-4.25835E-13
 -1      2286 2.17503E+01-4.23410E-01-5.55954E-03-7.66795E-01 2.77188E-14-4.97336E-13
 -1      2287 2.15689E+01-9.39591E-02-3.45538E-03-7.74374E-01-1.11961E-13-4.14666E-13
 -1      2288 2.14224E+01-2.69608E-02 2.93615E-03-7.93631E-01-9.92103E-14-4.08263E-13
 -1      2289 2.13958E+01-1.76439E-01-4.17023E-03-8.94241E-01-5.98361E-14-4.50303E-13
 -1      2290 2.12899E+01 2.22539E-02-5.93363E-04-7.81052E-01-2.52977E-14-4.34303E-13
 -1      2291 2.11500E+01 6.15987E-02 1.77909E-03-7.64639E-01-1.22896E-14-4.02589E-13
 -1      2292 2.11099E+01-5.20780E-03-2.96560E-03-9.06959E-01-1.04262E-13-3.80700E-13
 -1      2293 2.10454E+01 8.87376E-02 1.24107E-03-7.25992E-01-5.62803E-14-4.08885E-13
 -1      2294 2.09180E+01 1.07583E-01 1.01462E-03-6.89645E-01-1.55313E-14-4.53271E-13
 -1      2295 2.08806E+01 9.75204E-02-2.13143E-03-8.48435E-01-2.47554E-14-4.12267E-13
 -1      2296 2.08349E+01 1.19224E-01 2.25750E-03-6.38753E-01 2.85203E-14-4.87990E-13
 -1      2297 2.07230E+01 1.24543E-01 5.57068E-04-5.93752E-01 3.63552E-14-4.92875E-13
 -1      2298 2.06957E+01 1.48657E-01-1.61762E-03-7.51865E-01-1.66685E-14-4.06267E-13
 -1      2299 2.06565E+01 1.26372E-01 2.68924E-03-5.39698E-01 3.56137E-14-4.89530E-13
 -1      2300 2.05611E+01 1.23646E-01 3.03871E-04-4.93349E-01-3.32417E-14-5.44291E-13
 -1      2301 2.05458E+01 1.65234E-01-1.31409E-03-6.40237E-01-4.79754E-15-4.83713E-13
 -1      2302 2.05078E+01 1.19880E-01 2.73836E-03-4.41611E-01-5.46028E-14-4.67987E-13
 -1      2303 2.04285E+01 1.12951E-01 1.73394E-04-3.98183E-01 5.75895E-14-3.72173E-13
 -1      2304 2.04240E+01 1.60889E-01-1.12551E-03-5.28220E-01 1.11297E-14-4.91479E-13
 -1      2305 2.03859E+01 1.06438E-01 2.56004E-03-3.51697E-01 1.19343E-13-3.37704E-13
 -1      2306 2.03215E+01 9.77932E-02 1.10639E-04-3.13348E-01 1.25552E-13-2.72734E-13
 -1      2307 2.03253E+01 1.45318E-01-9.90046E-04-4.24343E-01 1.04014E-13-2.66905E-13
 -1      2308 2.02876E+01 9.03242E-02 2.26427E-03-2.73378E-01 8.29816E-14-2.81610E-13
 -1      2309 2.02366E+01 8.14589E-02 8.22584E-05-2.40901E-01 6.02712E-14-3.01447E-13
 -1      2310 2.02460E+01 1.24879E-01-8.74867E-04-3.32888E-01 9.84650E-14-2.79783E-13
 -1      2311 2.02099E+01 7.40818E-02 1.92396E-03-2.07662E-01 2.14965E-15-3.55642E-13
 -1      2312 2.01702E+01 6.58219E-02 6.96155E-05-1.81031E-01 1.91623E-14-3.59978E-13
 -1      2313 2.01828E+01 1.03457E-01-7.66166E-04-2.55368E-01-1.28467E-14-2.79176E-13
 -1      2314 2.01494E+01 5.90935E-02 1.58421E-03-1.54135E-01 5.70145E-14-3.32500E-13
 -1      2315 2.01192E+01 5.18345E-02 6.31042E-05-1.32874E-01 1.07510E-13-2.12932E-13
 -1      2316 2.01333E+01 8.32383E-02-6.60511E-04-1.91605E-01 3.35883E-14-2.87595E-13
 -1      2317 2.01033E+01 4.60026E-02 1.27054E-03-1.11624E-01 1.09219E-13-2.83533E-13
 -1      2318 2.00807E+01 3.98772E-02 5.82550E-05-9.50482E-02 8.93083E-14-2.29898E-13
 -1      2319 2.00949E+01 6.53082E-02-5.59056E-04-1.40472E-01 1.08163E-13-3.09617E-13
 -1      2320 2.00688E+01 3.50044E-02 9.95359E-04-7.86230E-02-6.52218E-15-1.92137E-13
 -1      2321 2.00523E+01 2.99939E-02 5.33171E-05-6.59854E-02 2.12642E-14-2.45885E-13
 -1      2322 2.00657E+01 5.00718E-02-4.64270E-04-1.00388E-01 7.60959E-14-3.36701E-13
 -1      2323 2.00435E+01 2.60382E-02 7.62768E-04-5.35592E-02 8.85795E-14-1.66102E-13
 -1      2324 2.00318E+01 2.20443E-02 4.78592E-05-4.41358E-02 5.71503E-14-1.63147E-13
 -1      2325 2.00439E+01 3.75350E-02-3.78365E-04-6.96337E-02 8.80336E-14-2.55328E-13
 -1      2326 2.00254E+01 1.89108E-02 5.71868E-04-3.49393E-02-5.44674E-14-2.64253E-13
 -1      2327 2.00173E+01 1.57993E-02 4.20088E-05-2.80755E-02-1.17134E-13-3.48895E-13
 -1      2328 2.00279E+01 2.74887E-02-3.02727E-04-4.65354E-02-8.52203E-14-2.55593E-13
 -1      2329 2.00128E+01 1.33715E-02 4.19034E-04-2.14287E-02-1.68023E-13-2.47571E-13
 -1      2330 2.00075E+01 1.09995E-02 3.60665E-05-1.65582E-02-8.29532E-14-2.33504E-13
 -1      2331 2.00164E+01 1.96228E-02-2.37851E-04-2.95703E-02-1.11464E-13-1.79488E-13
 -1      2332 2.00044E+01 9.15831E-03 2.99378E-04-1.18824E-02-1.25841E-14-3.62557E-13
 -1      2333 2.00010E+01 7.38893E-03 3.03290E-05-8.53146E-03-5.98437E-14-1.49295E-13
 -1      2334 2.00085E+01 1.35964E-02-1.83508E-04-1.74121E-02-1.08375E-13-3.27630E-13
 -1      2335 1.99990E+01 6.02253E-03 2.07656E-04-5.34802E-03-1.11438E-13-1.24795E-13
 -1      2336 1.99971E+01 4.73266E-03 2.50218E-05-3.13097E-03-1.44825E-13-1.56147E-13
 -1      2337 2.00031E+01 9.07752E-03-1.38958E-04-8.94369E-03-4.33380E-14-4.45162E-13
 -1      2338 1.99958E+01 3.74199E-03 1.38817E-04-1.05345E-03-2.20277E-13-9.36731E-16
 -1      2339 1.99949E+01 2.82555E-03 2.02851E-05 3.36466E-04-2.16051E-13-5.77918E-14
 -1      2340 1.99996E+01 5.76443E-03-1.03160E-04-3.24956E-03-1.01040E-13-2.20836E-13
 -1      2341 1.99942E+01 2.12603E-03 8.82796E-05 1.61319E-03-2.46568E-13 1.83551E-15
 -1      2342 1.99939E+01 1.49447E-03 1.61828E-05 2.41492E-03-1.76226E-13-3.09749E-14
 -1      2343 1.99976E+01 3.39496E-03-7.49372E-05 4.03718E-04-1.81886E-13 2.02130E-13
 -1      2344 1.99935E+01 1.01598E-03 5.20730E-05 3.12691E-03-5.13658E-14-7.42817E-14
 -1      2345 1.99936E+01 5.97231E-04 1.27198E-05 3.52281E-03 6.33231E-14 4.49936E-14
 -1      2346 1.99965E+01 1.74884E-03-5.30972E-05 2.59129E-03-7.48234E-14 1.44178E-13
 -1      2347 1.99935E+01 2.83038E-04 2.68590E-05 3.84905E-03 8.21758E-14 6.26497E-14
 -1      2348 1.99939E+01 1.97529E-05 9.85843E-06 3.97539E-03 5.97513E-14 8.85638E-14
 -1      2349 1.99960E+01 6.45838E-04-3.65108E-05 3.75519E-03 8.30227E-14 2.06560E-14
 -1      2350 1.99940E+01-1.75097E-04 9.90681E-06 4.04875E-03 7.14621E-15-1.14152E-14
 -1      2351 1.99945E+01-3.27699E-04 7.53349E-06 4.00510E-03 3.25430E-14-6.34047E-14
 -1      2352 1.99960E+01-5.82416E-05-2.41568E-05 4.22828E-03-3.10187E-14 2.81424E-14
 -1      2353 1.99946E+01-4.38174E-04-9.67381E-07 3.92196E-03 6.84310E-14-2.47556E-13
 -1      2354 1.99952E+01-5.14442E-04 5.66210E-06 3.77919E-03 1.03243E-14-2.56023E-13
 -1      2355 1.99962E+01-4.76522E-04-1.51448E-05 4.25581E-03-2.40401E-14-1.58162E-13
 -1      2356 1.99954E+01-5.67305E-04-7.47253E-06 3.60752E-03-4.24440E-14-1.66450E-13
 -1      2357 1.99959E+01-5.93190E-04 4.15081E-06 3.41444E-03-1.01954E-13-4.65276E-14
 -1      2358 1.99966E+01-6.96200E-04-8.72063E-06 4.01411E-03 3.61472E-14-1.83780E-13
 -1      2359 1.99961E+01-6.08651E-04-1.09174E-05 3.20048E-03-1.37704E-13 9.26268E-14
 -1      2360 1.99966E+01-6.03536E-04 2.90009E-06 2.98917E-03 1.90526E-14 1.64106E-13
 -1      2361 1.99971E+01-7.83478E-04-4.26226E-06 3.62611E-03-5.69085E-14 1.41797E-13
 -1      2362 1.99968E+01-5.96734E-04-1.22815E-05 2.76274E-03 6.44708E-14 2.20352E-13
 -1      2363 1.99973E+01-5.75016E-04 1.80970E-06 2.55272E-03 4.16239E-14 3.71573E-13
 -1      2364 1.99975E+01-7.88045E-04-1.26982E-06 3.17409E-03 4.02602E-14 4.60042E-13
 -1      2365 1.99975E+01-5.57297E-04-1.22794E-05 2.33136E-03 3.31102E-14 1.91411E-13
 -1      2366 1.99979E+01-5.29686E-04 8.30447E-07 2.13281E-03 8.96071E-14 3.89280E-14
 -1      2367 1.99980E+01-7.46966E-04 6.51783E-07 2.70967E-03-4.42835E-14 3.29626E-13
 -1      2368 1.99980E+01-5.09735E-04-1.14363E-05 1.92531E-03 5.89226E-14-3.79658E-14
 -1      2369 1.99984E+01-4.85103E-04-3.99395E-07 1.74158E-03 1.67492E-13 7.97909E-14
 -1      2370 1.99984E+01-6.87680E-04 1.80289E-06 2.26176E-03 2.23268E-14 6.10945E-14
 -1      2371 1.99985E+01-4.69244E-04-1.00580E-05 1.54865E-03 3.97691E-13 1.22173E-13
 -1      2372 1.99988E+01-4.51687E-04-1.38406E-06 1.37792E-03 2.59102E-13 2.20199E-13
 -1      2373 1.99987E+01-6.33173E-04 1.80437E-06 1.84349E-03 2.49366E-13 9.16286E-14
 -1      2374 1.99989E+01-4.43666E-04-8.20083E-06 1.19953E-03 5.97871E-14 2.83092E-13
 -1      2375 1.99991E+01-4.39445E-04-3.32110E-06 1.03811E-03 2.51046E-13 4.10569E-13
 -1      2376 1.99991E+01-5.90976E-04 2.62135E-06 1.45361E-03 3.22489E-13 3.32845E-13
 -1      2377 1.07556E+01-3.84948E+00 4.67123E-02 6.52413E+00-2.34840E-13 4.71206E-13
 -1      2378 8.05555E+00-3.30600E+00 1.18574E-01 5.35434E+00-3.43253E-13 7.43211E-13
 -1      2379 2.40077E+01 3.46406E-01 1.66959E-02 2.27881E+00 2.65569E-13 3.88061E-13
 -1      2380 2.44026E+01-1.18752E-01-2.10857E-02 2.32051E+00 2.24667E-13 4.69244E-13
 -1      2381 2.33580E+01 1.33531E+00 1.73709E-02 1.56048E+00 4.56468E-13 1.61255E-13
 -1      2382 2.36705E+01 8.60198E-01-3.16046E-02 2.01619E+00 3.69049E-13 2.95444E-13
 -1      2383 2.46692E+01 8.48284E-01-6.74820E-03 2.46719E+00 3.92178E-13 3.06333E-13
 -1      2384 2.29895E+01 1.75297E+00-1.78862E-02 7.63101E-02 5.53699E-13-4.93299E-14
 -1      2385 2.31022E+01 1.65546E+00-1.85539E-02 7.83202E-01 5.07740E-13 3.16223E-14
 -1      2386 2.41204E+01 2.04047E+00-2.73870E-02 1.37951E+00 5.91228E-13 5.69271E-14
 -1      2387 2.32235E+01 1.21144E+00-3.52702E-02-1.41480E+00 5.12836E-13-3.32083E-13
 -1      2388 2.30649E+01 1.60652E+00 6.78929E-03-8.35712E-01 5.44370E-13-2.25961E-13
 -1      2389 2.38893E+01 2.24319E+00-3.06141E-02-4.36912E-01 6.55417E-13-2.30567E-13
 -1      2390 2.37622E+01 1.67523E-01-3.51382E-02-2.04495E+00 2.34750E-13-4.58055E-13
 -1      2391 2.34827E+01 7.05334E-01 1.75726E-02-1.87375E+00 4.22048E-13-3.83207E-13
 -1      2392 2.42136E+01 1.31003E+00-2.17219E-02-1.86346E+00 5.17870E-13-5.43322E-13
 -1      2393 2.41469E+01-6.56049E-01-1.77788E-02-1.72704E+00 1.99526E-14-4.96585E-13
 -1      2394 2.39035E+01-3.05959E-01 2.72921E-03-1.93627E+00 1.41336E-13-4.87932E-13
 -1      2395 2.45578E+01-7.81039E-02 2.17658E-03-2.17578E+00 2.20416E-13-5.99461E-13
 -1      2396 2.41402E+01-9.39441E-01-1.79395E-03-9.17613E-01-2.99812E-14-5.32088E-13
 -1      2397 2.40298E+01-8.59491E-01-1.27539E-02-1.29013E+00-1.04994E-14-5.29648E-13
 -1      2398 2.45144E+01-1.02458E+00 8.56331E-03-1.53340E+00 5.65474E-14-5.66717E-13
 -1      2399 2.38206E+01-8.17837E-01 5.20003E-03-8.44660E-02-4.57186E-14-4.47611E-13
 -1      2400 2.38535E+01-9.14365E-01-2.01769E-02-4.39951E-01-4.68289E-14-4.93716E-13
 -1      2401 2.40733E+01-1.26408E+00 4.72691E-03-5.64044E-01-4.58600E-14-5.55045E-13
 -1      2402 2.33462E+01-5.35876E-01 4.98981E-03 5.22485E-01 3.48029E-15-4.11437E-13
 -1      2403 2.34864E+01-6.84295E-01-1.91116E-02 2.71559E-01 5.55510E-14-3.99420E-13
 -1      2404 2.34456E+01-1.03971E+00-5.97076E-03 2.84074E-01-3.23743E-14-4.35173E-13
 -1      2405 2.28404E+01-2.63139E-01 3.82888E-03 8.63352E-01 2.93138E-14-3.44479E-13
 -1      2406 2.30422E+01-3.93374E-01-1.32910E-02 7.27134E-01 1.06048E-14-3.47106E-13
 -1      2407 2.28258E+01-6.49182E-01-8.19762E-03 8.35426E-01-9.60321E-15-4.31261E-13
 -1      2408 2.23612E+01-6.50787E-02 2.55111E-03 9.91277E-01-7.64876E-14-2.61690E-13
 -1      2409 2.25880E+01-1.54537E-01-6.80127E-03 9.44782E-01-1.27125E-14-2.62932E-13
 -1      2410 2.22911E+01-2.96311E-01-6.68873E-03 1.10841E+00-2.46261E-14-3.76774E-13
 -1      2411 2.19307E+01 5.42725E-02 1.68361E-03 9.79384E-01-6.99235E-15-2.89160E-13
 -1      2412 2.21569E+01 2.94205E-03-1.81622E-03 9.90863E-01-4.31678E-14-2.54094E-13
 -1      2413 2.18508E+01-4.85800E-02-4.66991E-03 1.17808E+00-8.14714E-14-3.43095E-13
 -1      2414 2.15547E+01 1.13458E-01 1.21350E-03 8.89804E-01 1.39227E-13-3.22667E-13
 -1      2415 2.17648E+01 8.97264E-02 1.39126E-03 9.32689E-01 6.91296E-14-2.54860E-13
 -1      2416 2.14907E+01 9.65014E-02-3.15724E-03 1.12188E+00 4.69270E-14-3.57812E-13
 -1      2417 2.12328E+01 1.33714E-01 9.90655E-04 7.65998E-01 3.62700E-14-1.52782E-13
 -1      2418 2.14186E+01 1.27213E-01 3.13350E-03 8.21910E-01 8.83159E-14-2.23375E-13
 -1      2419 2.11938E+01 1.65565E-01-2.24025E-03 9.99635E-01 3.10064E-14-1.85916E-13
 -1      2420 2.09623E+01 1.31763E-01 8.81250E-04 6.34822E-01 5.87466E-14-1.65925E-13
 -1      2421 2.11205E+01 1.34772E-01 3.84656E-03 6.92594E-01 1.28314E-13-1.33892E-13
 -1      2422 2.09474E+01 1.86341E-01-1.73907E-03 8.51449E-01 5.70206E-14-8.00212E-14
 -1      2423 2.07388E+01 1.18779E-01 8.08278E-04 5.11097E-01 4.20575E-14-3.37551E-13
 -1      2424 2.08698E+01 1.26298E-01 3.91592E-03 5.64731E-01 6.15543E-14-2.48687E-13
 -1      2425 2.07432E+01 1.80018E-01-1.46383E-03 7.01560E-01 1.21703E-13-8.36053E-14
 -1      2426 2.05574E+01 1.01499E-01 7.37628E-04 4.01844E-01 1.39361E-13-3.31450E-13
 -1      2427 2.06632E+01 1.10579E-01 3.62788E-03 4.48647E-01 6.05013E-14-3.70189E-13
 -1      2428 2.05749E+01 1.60556E-01-1.28778E-03 5.63095E-01 7.40183E-14-2.43677E-13
 -1      2429 2.04127E+01 8.36541E-02 6.59778E-04 3.09425E-01 5.14262E-14-1.58164E-13
 -1      2430 2.04964E+01 9.26965E-02 3.17312E-03 3.48633E-01 1.61715E-13-2.81299E-13
 -1      2431 2.04377E+01 1.36297E-01-1.14503E-03 4.42052E-01 6.28157E-14-5.88589E-14
 -1      2432 2.02993E+01 6.71171E-02 5.75986E-04 2.33625E-01-1.61026E-13-1.70153E-13
 -1      2433 2.03641E+01 7.53429E-02 2.66843E-03 2.65511E-01-4.39965E-14-1.95649E-13
 -1      2434 2.03276E+01 1.11825E-01-1.00894E-03 3.40160E-01-1.78335E-14-3.21518E-15
 -1      2435 2.02118E+01 5.26853E-02 4.90853E-04 1.72940E-01-2.69069E-13-1.91346E-13
 -1      2436 2.02612E+01 5.97848E-02 2.17936E-03 1.98271E-01-2.05601E-13-1.59163E-13
 -1      2437 2.02404E+01 8.94057E-02-8.73334E-04 2.56777E-01-1.26573E-13 1.34903E-14
 -1      2438 2.01456E+01 4.05665E-02 4.08963E-04 1.25342E-01-1.16036E-13-2.65223E-13
 -1      2439 2.01824E+01 4.64839E-02 1.73864E-03 1.45065E-01-1.85262E-13-2.58810E-13
 -1      2440 2.01726E+01 6.99724E-02-7.40554E-04 1.90081E-01-2.11485E-13-1.88206E-13
 -1      2441 2.00964E+01 3.06671E-02 3.33690E-04 8.86983E-02-1.63389E-16-2.33491E-13
 -1      2442 2.01234E+01 3.54740E-02 1.35924E-03 1.03773E-01-7.43842E-14-2.93162E-13
 -1      2443 2.01207E+01 5.37275E-02-6.15088E-04 1.37778E-01-5.83325E-14-2.83126E-13
 -1      2444 2.00606E+01 2.27549E-02 2.67008E-04 6.09945E-02 1.17827E-13-2.00616E-13
 -1      2445 2.00799E+01 2.65794E-02 1.04298E-03 7.23070E-02 6.85306E-14-1.89738E-13
 -1      2446 2.00817E+01 4.05030E-02-5.00798E-04 9.75067E-02 7.93948E-16-2.98972E-13
 -1      2447 2.00352E+01 1.65484E-02 2.09710E-04 4.04361E-02 2.23989E-13-9.74559E-14
 -1      2448 2.00486E+01 1.95362E-02 7.85772E-04 4.87644E-02 1.43067E-13-1.09301E-13
 -1      2449 2.00529E+01 2.99634E-02-4.00059E-04 6.70531E-02 6.16040E-14-8.96385E-14
 -1      2450 2.00176E+01 1.17637E-02 1.61732E-04 2.54849E-02 1.67229E-13 2.22216E-14
 -1      2451 2.00266E+01 1.40580E-02 5.80853E-04 3.14883E-02 2.54614E-13 3.01158E-15
 -1      2452 2.00322E+01 2.17177E-02-3.13761E-04 4.44484E-02 1.46932E-13-8.15442E-14
 -1      2453 2.00058E+01 8.13797E-03 1.22455E-04 1.48582E-02-2.75944E-15-4.06101E-14
 -1      2454 2.00117E+01 9.86946E-03 4.20559E-04 1.90812E-02 1.69943E-13-2.58967E-14
 -1      2455 2.00177E+01 1.53774E-02-2.41647E-04 2.80056E-02 1.87615E-13 3.17580E-15
 -1      2456 1.99984E+01 5.43913E-03 9.09511E-05 7.50973E-03-2.93330E-14-2.82514E-13
 -1      2457 2.00019E+01 6.72234E-03 2.97340E-04 1.03929E-02-1.67449E-14-6.58442E-14
 -1      2458 2.00077E+01 1.05858E-02-1.82698E-04 1.63172E-02 5.85959E-14-3.84009E-14
 -1      2459 1.99940E+01 3.46916E-03 6.61630E-05 2.60163E-03-2.85489E-13-2.20720E-13
 -1      2460 1.99959E+01 4.40121E-03 2.04262E-04 4.49515E-03-1.71910E-13-1.85170E-13
 -1      2461 2.00013E+01 7.02974E-03-1.35466E-04 8.23411E-03-1.41925E-13-1.27325E-13
 -1      2462 1.99917E+01 2.06297E-03 4.70196E-05-5.25291E-04-1.82571E-13-1.41268E-13
 -1      2463 1.99925E+01 2.72442E-03 1.35232E-04 6.52143E-04-2.56877E-13-2.47571E-13
 -1      2464 1.99973E+01 4.44265E-03-9.83305E-05 2.83557E-03-2.54598E-13-8.58840E-14
 -1      2465 1.99909E+01 1.08567E-03 3.25120E-05-2.38118E-03 1.66810E-13-7.20687E-14
 -1      2466 1.99910E+01 1.54208E-03 8.50594E-05-1.70958E-03-3.95287E-15-1.38263E-13
 -1      2467 1.99950E+01 2.60318E-03-6.96629E-05-6.03260E-04-7.89101E-14-7.91001E-14
 -1      2468 1.99910E+01 4.29005E-04 2.17321E-05-3.35424E-03 2.08408E-13 4.42345E-14
 -1      2469 1.99906E+01 7.32794E-04 4.94285E-05-3.02960E-03 3.07820E-13 1.34611E-13
 -1      2470 1.99940E+01 1.33095E-03-4.79372E-05-2.64363E-03 1.02107E-13 1.18589E-13
 -1      2471 1.99916E+01 7.42307E-06 1.38902E-05-3.73462E-03-1.80801E-13-3.47758E-14
 -1      2472 1.99910E+01 1.99857E-04 2.48200E-05-3.63911E-03 2.65150E-14-1.81728E-14
 -1      2473 1.99937E+01 4.81491E-04-3.17867E-05-3.71270E-03 1.09757E-13 1.41424E-13
 -1      2474 1.99925E+01-2.45608E-04 8.31617E-06-3.73496E-03-1.61482E-13-9.82561E-14
 -1      2475 1.99918E+01-1.32541E-04 8.41598E-06-3.78296E-03-2.84174E-13-1.82298E-13
 -1      2476 1.99940E+01-5.90389E-05-2.00283E-05-4.12980E-03-5.11073E-14-5.26301E-14
 -1      2477 1.99936E+01-3.81088E-04 4.45118E-06-3.50752E-03-2.82056E-13-5.52621E-14
 -1      2478 1.99928E+01-3.22949E-04-2.00246E-06-3.63836E-03-1.11093E-13-1.26996E-13
 -1      2479 1.99945E+01-3.79001E-04-1.16653E-05-4.12888E-03-1.55978E-13-1.55728E-13
 -1      2480 1.99946E+01-4.37585E-04 1.83389E-06-3.15827E-03-2.60738E-13-1.85689E-14
 -1      2481 1.99939E+01-4.15945E-04-8.15456E-06-3.33028E-03-3.87265E-13-5.68676E-14
 -1      2482 1.99952E+01-5.45985E-04-5.87791E-06-3.87740E-03-3.41848E-13-2.42978E-13
 -1      2483 1.99956E+01-4.43952E-04 8.49649E-08-2.75804E-03 7.07041E-14 3.69484E-13
 -1      2484 1.99950E+01-4.45044E-04-1.13503E-05-2.94392E-03-5.70338E-14 9.92844E-14
 -1      2485 1.99959E+01-6.11024E-04-2.00599E-06-3.49172E-03-2.44938E-13-2.63379E-13
 -1      2486 1.99965E+01-4.21676E-04-1.10734E-06-2.35135E-03 2.12393E-14 3.87191E-13
 -1      2487 1.99959E+01-4.35242E-04-1.25670E-05-2.53454E-03 2.47054E-14 4.43969E-13
 -1      2488 1.99966E+01-6.12278E-04 4.70253E-07-3.04950E-03-7.03872E-14 8.05974E-15
 -1      2489 1.99973E+01-3.86827E-04-1.97549E-06-1.96306E-03 3.87283E-13 4.34820E-13
 -1      2490 1.99968E+01-4.05181E-04-1.25189E-05-2.13506E-03 2.10141E-13 4.54657E-13
 -1      2491 1.99973E+01-5.78169E-04 1.95972E-06-2.59932E-03 1.47422E-13 5.40050E-14
 -1      2492 1.99980E+01-3.51767E-04-2.81236E-06-1.60344E-03 2.47752E-13 5.03519E-13
 -1      2493 1.99976E+01-3.68956E-04-1.17372E-05-1.76181E-03 4.83953E-13 6.22540E-13
 -1      2494 1.99979E+01-5.29918E-04 2.75412E-06-2.16802E-03 2.77701E-13 3.54670E-13
 -1      2495 1.99985E+01-3.25646E-04-3.12719E-06-1.27065E-03-1.50367E-14 2.91878E-13
 -1      2496 1.99982E+01-3.38476E-04-1.07208E-05-1.41856E-03 9.87516E-15 4.14160E-13
 -1      2497 1.99984E+01-4.82845E-04 3.68008E-06-1.76873E-03 2.35740E-13 5.76352E-13
 -1      2498 1.99990E+01-3.13949E-04-3.25644E-06-9.58349E-04 1.17379E-13 2.21011E-13
 -1      2499 1.99987E+01-3.19633E-04-9.70251E-06-1.10030E-03 6.62815E-14 3.34752E-13
 -1      2500 1.99988E+01-4.47110E-04 6.32460E-06-1.39933E-03 3.82870E-14 2.91457E-13
 -1      2501 1.99993E+01-3.18245E-04-4.24013E-06-6.60519E-04-1.14777E-13 4.86763E-13
 -1      2502 1.99991E+01-3.15522E-04-8.58963E-06-7.99110E-04 1.21150E-13 3.80690E-13
 -1      2503 1.99992E+01-4.31171E-04 7.06851E-06-1.04807E-03-2.30070E-14 3.66759E-13
 -1      2504 1.99995E+01-3.11121E-04-5.17432E-06-4.94325E-04-1.28921E-13 3.83358E-13
 -1      2505 2.00000E+01-1.63126E-03 7.13995E-06-8.26376E-04 1.56606E-13-3.36262E-14
 -1      2506 2.00000E+01-1.48601E-03-1.75649E-06-9.01062E-04 2.32258E-13-1.97384E-13
 -1      2507 2.00002E+01-1.87053E-03 7.30438E-06-5.83451E-04 2.81505E-13 1.41575E-13
 -1      2508 2.00001E+01-1.76303E-03 1.12574E-06-7.05452E-04 2.04347E-13 2.65996E-14
 -1      2509 2.00002E+01-1.68760E-03-4.71583E-06-8.80627E-04 2.44957E-13 6.11922E-14
 -1      2510 1.99997E+01-9.72717E-04 4.45364E-06-9.62088E-04-2.88427E-14-1.56275E-13
 -1      2511 1.99996E+01-7.99148E-04-6.55395E-06-9.16165E-04 1.95513E-14-2.03910E-13
 -1      2512 1.99999E+01-1.31835E-03 5.79216E-06-9.58988E-04 4.32789E-14-2.61374E-13
 -1      2513 1.99998E+01-1.15508E-03-4.55399E-06-9.71025E-04 5.94316E-15-3.01973E-14
 -1      2514 1.99997E+01-1.06304E-03 1.93532E-06-1.12130E-03 1.34639E-13-1.89457E-13
 -1      2515 2.00000E+01-1.40014E-03-3.80342E-06-1.07510E-03 2.69243E-13-1.06395E-13
 -1      2516 2.00002E+01-2.01144E-03 6.73925E-06-2.66226E-04 2.80907E-15-4.88811E-13
 -1      2517 2.00002E+01-1.95468E-03 3.54533E-06-4.18242E-04 1.89959E-13-3.83870E-13
 -1      2518 2.00003E+01-1.89525E-03-5.79307E-06-5.74738E-04 2.14312E-13-1.97944E-13
 -1      2519 2.00002E+01-2.03943E-03 5.45590E-06 8.42042E-05-2.54257E-13-5.50467E-13
 -1      2520 2.00002E+01-2.03998E-03 5.48026E-06-7.79143E-05-2.44781E-13-4.02680E-13
 -1      2521 2.00004E+01-2.00381E-03-6.43432E-06-1.97259E-04 1.05367E-14-6.31843E-13
 -1      2522 2.00002E+01-1.95188E-03 3.57903E-06 4.23837E-04-2.16121E-13-1.66202E-13
 -1      2523 2.00002E+01-2.00980E-03 6.70888E-06 2.72291E-04-2.49163E-13-4.83988E-13
 -1      2524 2.00004E+01-2.00274E-03-6.42310E-06 2.04401E-04-8.40835E-14-4.95504E-13
 -1      2525 2.00001E+01-1.76264E-03 1.11937E-06 7.05465E-04 1.16797E-13 8.01112E-14
 -1      2526 2.00002E+01-1.86860E-03 7.25264E-06 5.85859E-04-1.32691E-13 2.06888E-14
 -1      2527 2.00003E+01-1.89366E-03-5.89618E-06 5.78127E-04 2.06883E-14 3.10677E-14
 -1      2528 2.00000E+01-1.48565E-03-1.85702E-06 9.00964E-04 2.88080E-13 4.66815E-13
 -1      2529 2.00000E+01-1.63091E-03 7.09424E-06 8.26325E-04 3.16053E-13 1.62095E-13
 -1      2530 2.00002E+01-1.68705E-03-4.70947E-06 8.80663E-04 2.41785E-13 2.42141E-13
 -1      2531 1.99998E+01-1.14985E-03-4.28871E-06 9.70334E-04 2.19572E-13 5.89854E-13
 -1      2532 1.99999E+01-1.31652E-03 5.68725E-06 9.59181E-04 2.25368E-13 7.53465E-13
 -1      2533 2.00000E+01-1.39880E-03-3.69046E-06 1.07569E-03 3.25967E-13 4.88915E-13
 -1      2534 1.99996E+01-7.89849E-04-5.25428E-06 9.08074E-04 1.11709E-13-2.56179E-13
 -1      2535 1.99997E+01-9.65561E-04 4.02923E-06 9.61445E-04 2.07563E-13 4.94819E-14
 -1      2536 1.99997E+01-1.05649E-03 2.46904E-06 1.12149E-03 2.51115E-13 3.52031E-13
 -1      2537 1.75569E+01-5.04199E+00-3.36020E-02 6.80957E+00-2.10054E-13 3.26496E-13
 -1      2538 1.41274E+01-4.71171E+00 5.21246E-02 6.67226E+00-2.34757E-13 3.34927E-13
 -1      2539 2.57241E+01-4.25511E+00-6.23918E-02 4.03938E+00 1.16573E-13-3.48249E-13
 -1      2540 2.15711E+01-5.04883E+00 3.97770E-02 5.51437E+00-8.21010E-14 7.52176E-15
 -1      2541 2.45506E+01-4.48788E-01-2.55333E-03 2.12715E+00 1.99779E-13 4.98067E-13
 -1      2542 2.49114E+01-6.39714E-01-5.13333E-04 1.90626E+00 1.82639E-13 5.35607E-13
 -1      2543 2.50849E+01-3.55556E-01 1.57437E-03 2.46100E+00 2.53279E-13 4.41931E-13
 -1      2544 1.99995E+01-4.88211E-04-4.49690E-06 6.37059E-04 1.67913E-13 1.51238E-13
 -1      2545 5.86015E+00-3.34736E+00 4.36181E-02-4.67473E+00 5.09537E-13 1.00325E-12
 -1      2546 8.72815E+00-3.73559E+00 8.39424E-03-6.27229E+00 5.64326E-13 8.69083E-13
 -1      2547 3.45301E+00-2.38509E+00 6.29714E-02-1.73372E+00 2.34979E-13 1.26527E-12
 -1      2548 4.31194E+00-2.85903E+00 4.72541E-02-3.47178E+00 3.48277E-13 1.18916E-12
 -1      2549 6.90483E+00-2.22363E+00 1.27941E-01-4.31366E+00 5.09676E-13 9.61647E-13
 -1      2550 3.17671E+01 4.66589E+00-1.85832E-01-1.31747E+00-1.32661E-12-2.33258E-13
 -1      2551 3.13913E+01 2.67423E+00-4.29973E-02-6.21492E-01-1.16546E-12-2.69063E-13
 -1      2552 3.14940E+00-2.79745E-01 7.07175E-02 9.97158E-01 8.91093E-14-1.65906E-12
 -1      2553 3.55463E+00 8.13872E-02 8.73166E-02-1.01261E+00 9.95107E-14-1.67644E-12
 -1      2554 1.32801E+01 3.76797E+00-2.81636E-02 1.52957E+00 2.34815E-13-1.02644E-12
 -1      2555 1.44426E+01 3.51391E+00 4.20663E-02 1.64081E+00 2.16483E-13-9.78512E-13
 -1      2556 1.51194E+01 2.64210E+00-6.90135E-03 2.03759E+00 2.45515E-13-9.14960E-13
 -1      2557 2.39890E+01 1.25912E+00-2.17776E-02-1.91121E+00-4.84956E-13-8.54525E-14
 -1      2558 2.39844E+01 4.00444E-01-2.14506E-02-1.61407E+00-4.56272E-13 1.15703E-14
 -1      2559 2.38823E+01 3.14599E-01 2.04637E-02-1.66323E+00-3.84740E-13-5.19571E-14
 -1      2560 2.32904E+01 1.50585E+00-1.73146E-02-1.71420E+00-4.41036E-13-2.34077E-13
 -1      2561 3.03432E+01-3.19006E-01-1.84918E-02-7.87931E-02 7.82409E-13-1.47105E-13
 -1      2562 3.16025E+01 1.64401E+00-1.96377E-01 9.42725E-01 1.03380E-12-5.39568E-14
 -1      2563 3.25311E+01 6.89225E+00-1.09288E-01 9.62834E-01 1.43724E-12-2.67925E-13
 -1      2564 3.19692E+01 7.14958E+00-1.51216E-01 4.16339E-01 1.46866E-12-3.11893E-13
 -1      2565 3.03449E+01 5.91284E+00-5.09436E-02 1.49633E+00 1.30151E-12-4.22162E-14
 -1      2566 3.18558E+01 7.17027E+00-1.63521E-01-5.85390E-01-1.49242E-12-4.74516E-13
 -1      2567 3.12615E+01 6.62935E+00-1.46592E-01-1.14268E+00-1.44862E-12-3.89133E-13
 -1      2568 3.23699E+01 6.49306E+00-1.33858E-01-7.20319E-01 1.40193E-12-4.86208E-13
 -1      2569 3.28540E+01 5.06717E+00-6.20932E-02-6.99379E-01 1.29319E-12-5.72653E-13
 -1      2570 2.54433E+01-3.36309E+00-2.58433E-02-3.37137E+00 3.77670E-13-6.14508E-13
 -1      2571 2.81767E+01-2.48262E+00-1.57394E-01-2.01416E+00 5.30034E-13-3.27183E-13
 -1      2572 1.89584E+01-3.94365E+00 1.20628E-02-5.44651E+00 9.25371E-14-9.63209E-13
 -1      2573 2.26694E+01-3.78752E+00-4.03964E-02-4.89479E+00 3.03535E-13-8.38621E-13
 -1      2574 2.47445E+01-3.82552E+00 7.26516E-02-3.16813E+00-7.18869E-15-3.72355E-13
 -1      2575 1.12202E+01-2.83830E+00 2.35203E-02-5.82901E+00 3.02813E-14-1.37051E-12
 -1      2576 1.48549E+01-3.35530E+00 1.88740E-04-6.30510E+00 1.44829E-13-1.26724E-12
 -1      2577 5.69799E+00-5.67773E-01 1.11350E-01-3.50666E+00 3.88578E-16-1.61984E-12
 -1      2578 8.26275E+00-1.61558E+00 8.43107E-02-5.23750E+00 7.90201E-14-1.54324E-12
 -1      2579 5.40819E+00-7.72845E-01 6.87377E-02 4.19973E+00 1.75471E-13-1.50391E-12
 -1      2580 3.77331E+00-5.80577E-01 6.07206E-02 2.51064E+00 2.01561E-13-1.58978E-12
 -1      2581 5.21206E+00 8.34463E-01 1.64570E-01 1.76634E+00 2.36526E-13-1.61693E-12
 -1      2582 2.00494E+01-3.40000E+00-3.10036E-03 5.92370E+00-2.91045E-13-8.28199E-13
 -1      2583 1.69897E+01-3.35968E+00 3.46399E-02 6.16296E+00-8.73468E-14-9.09828E-13
 -1      2584 2.66130E+01-2.32077E+00-7.86860E-02 3.44878E+00-6.13537E-13-5.61662E-13
 -1      2585 2.31438E+01-3.13687E+00-2.70133E-02 4.60245E+00-4.42313E-13-6.73211E-13
 -1      2586 2.28528E+01-3.50531E+00 3.81257E-02 4.44381E+00-4.23273E-14-5.10883E-13
 -1      2587 3.04349E+01 4.10174E-01-1.39242E-01 5.97796E-01-9.47867E-13-2.98095E-13
 -1      2588 2.86986E+01-9.93290E-01-3.25039E-02 1.56597E+00-7.40789E-13-3.79557E-13
 -1      2589 1.94722E+01-4.94445E+00 5.40609E-03-6.25192E+00 4.73954E-13 3.11570E-13
 -1      2590 2.29070E+01-4.48465E+00-5.08940E-02-5.60899E+00 2.57822E-13 7.00273E-14
 -1      2591 3.19443E+01 6.90288E+00-1.51113E-01 2.72958E-01-1.34032E-12-6.09957E-13
 -1      2592 3.19463E+01 7.23943E+00-1.97006E-01-1.07118E-01-1.44190E-12-5.38344E-13
 -1      2593 2.93338E+01 6.91442E+00-5.01900E-02-3.72916E-01-1.35980E-12-4.94238E-13
 -1      2594 3.15013E+01 3.87399E+00-8.91588E-02 5.31517E-01-9.89653E-13-7.16011E-13
 -1      2595 3.23415E+01 5.68036E+00-1.38624E-01 6.19343E-01-1.21803E-12-6.97969E-13
 -1      2596 2.98918E+01 5.95289E+00-5.69174E-02 9.42987E-01-1.17506E-12-7.99430E-13
 -1      2597 3.00172E+01-3.88726E-01-4.86441E-02-1.09583E+00-4.02258E-13-5.51670E-13
 -1      2598 3.09680E+01 1.04166E+00-1.62766E-01-3.00588E-01-6.55545E-13-7.07934E-13
 -1      2599 2.58958E+01-3.57430E+00-1.90082E-02-3.84100E+00 1.17184E-13-1.73250E-13
 -1      2600 2.86224E+01-2.09620E+00-7.88744E-02-2.67363E+00-1.47521E-13-3.25795E-13
 -1      2601 2.87609E+01-1.95289E+00 8.71954E-03-1.06129E+00-6.28161E-14-6.47649E-13
 -1      2602 1.27652E+01-4.53501E+00 5.87580E-02-6.81046E+00 6.23446E-13 6.77292E-13
 -1      2603 1.61244E+01-4.81018E+00-6.89432E-03-7.09165E+00 4.87888E-13 4.63463E-13
 -1      2604 2.53147E+01 2.35314E-01-2.31595E-02 1.11779E+00 4.82659E-13 5.77200E-13
 -1      2605 2.55986E+01 7.51219E-01-1.27896E-02 1.39898E+00 5.09620E-13 6.27699E-13
 -1      2606 2.49245E+01 1.12741E+00-3.22466E-02 1.50687E+00 5.46186E-13 3.92877E-13
 -1      2607 2.48728E+01 5.41921E-02-3.08226E-02 1.19338E+00 4.60887E-13 3.61985E-13
 -1      2608 1.26811E+01 3.71440E+00 3.36255E-02 1.58682E+00 2.47839E-13-1.07153E-12
 -1      2609 2.04384E+01 1.14123E+00-2.00152E-02 3.74230E-01-2.30636E-14-5.86049E-13
 -1      2610 2.05674E+01 1.80879E+00-3.65210E-04-6.39590E-02-9.41851E-14-6.36925E-13
 -1      2611 2.14286E+01 1.69072E+00-2.80395E-02-5.71373E-01-2.02361E-13-5.64175E-13
 -1      2612 2.51336E+01-8.63090E-01-2.21352E-03 1.86474E+00 2.36863E-13 4.46035E-13
 -1      2613 2.39838E+01 1.39556E+00-3.67226E-03 1.28790E+00 4.99910E-13 1.23068E-13
 -1      2614 3.01845E+01 2.24222E+00-3.90431E-02 1.04892E+00-6.87339E-13-8.66834E-13
 -1      2615 1.91358E+01-4.88450E+00 8.54101E-02-6.30203E+00 6.33049E-13 2.69357E-13
 -1      2616 2.89842E+01-1.79967E+00 1.67501E-02-1.39621E-01 4.13267E-13 3.73035E-14
 -1      2617 2.98294E+01 5.16587E+00-8.14207E-02-1.62399E+00-1.25555E-12-1.93581E-13
 -1      2618 7.77130E+00-2.21170E+00 1.55403E-01 4.48733E+00-4.06480E-13 8.13405E-13
 -1      2619 5.35745E+00-9.79916E-01 8.63431E-02 1.18538E+00-2.84432E-13 8.60867E-13
 -1      2620 4.28599E+00-1.72423E+00 1.42493E-01-2.59398E-01-4.99167E-15 1.11489E-12
 -1      2621 5.58306E+00-9.77641E-01 1.04064E-01-1.56051E+00 1.29782E-13 9.32698E-13
 -1      2622 1.20702E+01-3.70086E+00 1.04850E-01-6.48092E+00 6.62220E-13 7.33608E-13
 -1      2623 1.39670E+01-3.86916E+00 1.11221E-01 6.37972E+00-4.83030E-13 2.96541E-13
 -1      2624 1.99994E+01-4.32455E-04-5.80734E-06 7.73536E-04 3.07016E-13 3.96914E-13
 -1      2625 1.99995E+01-6.29526E-04 3.13536E-06 8.68654E-04 1.50671E-13 1.92858E-13
 -1      2626 1.99995E+01-7.27857E-04-2.56895E-06 1.06485E-03 2.20089E-13 7.90092E-14
 -1      2627 1.99992E+01-4.39063E-04-8.34942E-06 9.18606E-04 2.94886E-13 3.91332E-13
 -1      2628 1.99994E+01-4.37470E-04-1.00855E-06-7.03249E-04-1.13278E-13 3.38049E-13
 -1      2629 2.78850E+01-3.41034E+00 7.25369E-04 2.43518E+00 2.19935E-13-4.97602E-13
 -1      2630 2.61129E+01-4.43911E+00 1.73802E-02 2.97109E+00-3.74145E-14-5.62592E-13
 -1      2631 1.99995E+01-5.68621E-04 6.66865E-07-8.01252E-04 1.15137E-14 2.51166E-13
 -1      2632 2.76629E+01-2.05047E+00 1.81626E-02 1.61875E+00-4.13537E-13-1.97287E-13
 -1      2633 2.09376E+01-4.99481E+00 9.00645E-02 5.58034E+00-3.98070E-13-5.94594E-14
 -1      2634 7.70870E+00-9.20180E-01 1.09388E-01 4.96534E+00 2.69729E-13-1.40488E-12
 -1      2635 7.69069E+00 3.85504E-01 1.20636E-01 4.20723E+00 3.60129E-13-1.38156E-12
 -1      2636 1.02624E+01-9.84213E-01 6.18922E-02 5.53462E+00 4.15348E-13-1.21461E-12
 -1      2637 5.71930E+00 5.07250E-01 1.61371E-01-2.34975E+00 2.72699E-14-1.64463E-12
 -1      2638 8.22082E+00 8.71073E-01 1.17962E-01-3.29777E+00-1.27745E-13-1.47543E-12
 -1      2639 6.12280E+00 1.66473E+00 1.44973E-01-1.17300E+00 8.32077E-14-1.56619E-12
 -1      2640 2.37932E+01 8.00677E-01 1.91662E-02 9.54727E-01 4.29923E-13 9.53525E-14
 -1      2641 3.11329E+01-1.62071E-01-3.84807E-02 6.33750E-01 7.22977E-13-6.01019E-13
 -1      2642 2.90301E+01-1.93403E+00-6.74340E-02 1.43401E+00 4.66733E-13-5.85726E-13
 -1      2643 2.88946E+01-2.39090E+00-6.52467E-02 3.93486E-01 3.27132E-13-6.99413E-13
 -1      2644 2.99258E+01 1.19490E+00-1.55266E-02-1.08518E+00-8.57495E-13-4.80171E-14
 -1      2645 2.50170E+01-4.38789E+00 4.95706E-02-4.04144E+00 4.00152E-13-2.40946E-13
 -1      2646 1.84100E+01-3.46316E+00 9.28562E-02-5.37643E+00-1.51351E-13-9.03642E-13
 -1      2647 3.09229E+01 6.49244E+00-1.47771E-01-3.21750E-01 1.39971E-12-3.64389E-13
 -1      2648 2.92704E+01 5.65502E+00-1.34020E-01-1.00279E+00 1.25483E-12-4.83003E-13
 -1      2649 2.88917E+01 6.29492E+00-1.38428E-01 1.61628E-01 1.33132E-12-2.30680E-13
 -1      2650 1.78824E+01-3.06349E+00 2.47193E-02 5.63168E+00 3.29570E-13-7.12062E-13
 -1      2651 1.52869E+01-2.95891E+00 5.18560E-02 6.30143E+00 9.63674E-14-1.00512E-12
 -1      2652 1.37126E+01-2.06146E+00 1.35297E-01 6.18533E+00 3.25850E-13-9.90680E-13
 -1      2653 3.05803E+01 2.65182E+00-2.86518E-02 2.07864E+00 9.38916E-13 1.49492E-13
 -1      2654 2.26483E+01 1.58886E+00-3.61772E-03-1.31706E+00-3.37261E-13-3.60302E-13
 -1      2655 3.09017E+01 3.86660E+00-5.06720E-02-1.53131E+00 1.07503E-12-7.04797E-13
 -1      2656 3.25965E+01 3.37173E+00-1.09783E-01-5.37443E-01 1.10928E-12-6.46844E-13
 -1      2657 1.14290E+01-1.50566E+00 1.12954E-01-5.29448E+00-1.77108E-13-1.36946E-12
 -1      2658 3.15232E+01 1.51757E+00-1.04513E-01-3.22607E-02 8.93383E-13-6.15730E-13
 -1      2659 1.99993E+01-5.70303E-04 4.50871E-06 1.14015E-03 2.61259E-13 3.57587E-13
 -1      2660 1.99994E+01-6.65591E-04-4.62648E-06-1.00522E-03-6.40565E-14 1.08865E-13
 -1      2661 1.27081E+01 3.23283E+00 6.70623E-02-1.58584E+00 3.05305E-14-1.04870E-12
 -1      2662 1.14368E+01 3.54465E+00-1.57675E-02-1.10017E+00 7.16016E-14-1.12569E-12
 -1      2663 1.07655E+01 3.94619E+00 4.36142E-02 5.74791E-03 1.63294E-13-1.17819E-12
 -1      2664 1.07680E+01 3.89349E+00 3.40705E-02 7.39230E-01 2.25466E-13-1.18352E-12
 -1      2665 1.05024E+01 3.38814E+00 8.16130E-02-7.78282E-01 1.10743E-13-1.23686E-12
 -1      2666 1.96871E+01 8.66447E-01 3.20053E-02-1.17416E+00 9.69251E-14-4.77836E-13
 -1      2667 1.80082E+01 1.24656E+00-9.13044E-03-1.61128E+00 2.41766E-14-5.97713E-13
 -1      2668 2.23794E+01 3.08811E-01 1.37481E-02 1.86435E-02 2.30930E-13-1.91585E-13
 -1      2669 2.11126E+01 5.52417E-01 7.58324E-03-4.82724E-01 1.56761E-13-3.28991E-13
 -1      2670 2.08227E+01-1.66077E-01-2.05439E-02-1.11806E+00 5.78409E-14-3.32265E-13
 -1      2671 2.47373E+01-1.00760E+00-2.67980E-02 1.12430E+00 2.61396E-13 2.58871E-13
 -1      2672 2.47038E+01-6.06768E-01 3.20928E-02 9.55994E-01 2.83937E-13 2.33162E-13
 -1      2673 2.53066E+01-1.26010E+00-3.01420E-02 1.78792E+00 1.77676E-13 3.79940E-13
 -1      2674 2.52832E+01-1.22894E+00 1.66759E-02 1.46233E+00 1.98482E-13 3.61810E-13
 -1      2675 2.48614E+01-1.33949E+00-3.71258E-03 1.03116E+00 1.81052E-13 2.18378E-13
 -1      2676 1.99996E+01-8.91166E-04 1.01684E-06-1.29542E-03-8.53503E-14-1.09239E-13
 -1      2677 1.99994E+01-6.75281E-04-3.94390E-06-1.18747E-03-1.66217E-13 1.07576E-13
 -1      2678 1.99992E+01-6.83687E-04-9.08442E-06-1.36791E-03-8.10316E-14 3.64763E-14
 -1      2679 2.43913E+01-6.77192E-01 5.47988E-03-1.93013E+00-2.24695E-13 5.06305E-14
 -1      2680 2.43134E+01-5.01886E-01-1.04995E-02-2.08354E+00-2.37506E-13 3.89972E-14
 -1      2681 2.44216E+01-1.23920E-01-2.36384E-02-2.33397E+00-2.54618E-13 6.15169E-14
 -1      2682 2.42527E+01 4.71239E-01 2.98268E-03-2.34250E+00-3.44126E-13 4.23317E-14
 -1      2683 2.48415E+01-3.95953E-01-5.17457E-04-2.21645E+00-2.72350E-13 5.77307E-14
 -1      2684 2.40560E+01 1.16818E+00-5.32906E-02-2.24313E+00-4.61044E-13 1.26171E-14
 -1      2685 2.38339E+01 1.90151E+00-4.94527E-03-1.90195E+00-5.38580E-13-6.22593E-14
 -1      2686 2.48566E+01 9.90470E-01-4.36263E-03-2.47580E+00-4.35180E-13 3.42504E-14
 -1      2687 2.36026E+01 2.49032E+00-3.60706E-02-1.24136E+00-6.00287E-13-1.77127E-13
 -1      2688 2.34830E+01 2.80430E+00-1.07678E-02-5.85910E-01-6.08309E-13-3.06320E-13
 -1      2689 2.44662E+01 2.67765E+00-2.18755E-02-1.74960E+00-6.66210E-13-1.07768E-13
 -1      2690 2.34210E+01 2.77922E+00-1.87250E-02 3.37985E-01-6.17582E-13-4.77284E-13
 -1      2691 2.34661E+01 2.38688E+00-5.18240E-02 9.89787E-01-6.07368E-13-5.90891E-13
 -1      2692 2.41772E+01 3.43282E+00-4.04576E-02-1.75156E-01-7.35436E-13-4.42624E-13
 -1      2693 2.36856E+01 1.75103E+00 7.32157E-03 1.58187E+00-5.12156E-13-6.64738E-13
 -1      2694 2.37858E+01 9.45284E-01-5.83079E-02 1.88121E+00-3.95937E-13-6.97748E-13
 -1      2695 2.43224E+01 2.45707E+00-3.38887E-02 1.41834E+00-5.93085E-13-7.11493E-13
 -1      2696 2.39280E+01 1.73580E-01 1.08328E-02 1.89709E+00-3.05562E-13-7.08672E-13
 -1      2697 2.40120E+01-5.22983E-01-1.57041E-02 1.79686E+00-1.79221E-13-6.96631E-13
 -1      2698 2.45791E+01 6.70111E-01-1.95095E-03 2.00266E+00-3.64483E-13-7.52396E-13
 -1      2699 2.37906E+01-1.00976E+00-7.96291E-03 1.37601E+00-1.13576E-13-6.31352E-13
 -1      2700 2.37729E+01-1.29738E+00 1.68946E-02 1.08350E+00-3.76564E-14-6.56697E-13
 -1      2701 2.44132E+01-1.01711E+00-4.29176E-02 1.53436E+00-1.51329E-13-7.67957E-13
 -1      2702 2.33246E+01-1.46191E+00-1.91267E-02 5.75493E-01 4.12322E-15-5.56204E-13
 -1      2703 2.31893E+01-1.42268E+00 2.39092E-02 2.46715E-01 3.67981E-14-5.92873E-13
 -1      2704 2.37660E+01-1.83190E+00-6.43642E-02 6.03583E-01-5.53377E-16-5.88541E-13
 -1      2705 2.27081E+01-1.34209E+00-1.58130E-02-1.39544E-01 3.37178E-14-5.30820E-13
 -1      2706 2.25074E+01-1.15033E+00 2.07432E-02-4.05080E-01 6.00113E-14-5.27540E-13
 -1      2707 2.29038E+01-1.79417E+00-6.03251E-02-2.38531E-01 5.40102E-14-5.08310E-13
 -1      2708 2.21053E+01-9.70036E-01-9.11360E-03-6.34383E-01 6.92035E-14-5.52902E-13
 -1      2709 2.18954E+01-7.53166E-01 1.44582E-02-8.07438E-01 5.71643E-14-5.25478E-13
 -1      2710 2.20982E+01-1.34912E+00-4.45444E-02-7.94980E-01 6.32075E-14-4.95185E-13
 -1      2711 2.16016E+01-5.67945E-01-3.70879E-03-9.11565E-01 1.48544E-14-4.65805E-13
 -1      2712 2.14126E+01-3.87363E-01 8.60251E-03-1.00020E+00 7.79170E-15-4.64258E-13
 -1      2713 2.14645E+01-8.27131E-01-2.81400E-02-1.08344E+00 6.37354E-14-4.17181E-13
 -1      2714 2.12142E+01-2.39395E-01-3.82917E-04-1.02091E+00-1.52569E-15-4.54761E-13
 -1      2715 2.10548E+01-1.12387E-01 4.20488E-03-1.04593E+00-3.40761E-14-4.28613E-13
 -1      2716 2.10123E+01-3.86468E-01-1.55890E-02-1.18010E+00 2.64114E-14-4.12890E-13
 -1      2717 2.09269E+01-1.08531E-02 1.43240E-03-1.01679E+00-8.39019E-14-3.47063E-13
 -1      2718 2.07957E+01 6.68275E-02 1.34041E-03-9.99563E-01-6.77023E-14-3.28842E-13
 -1      2719 2.07065E+01-7.21961E-02-7.36764E-03-1.15625E+00 1.90086E-14-3.32630E-13
 -1      2720 2.07150E+01 1.27786E-01 2.35541E-03-9.43836E-01-3.47398E-14-2.82920E-13
 -1      2721 2.06073E+01 1.67696E-01-3.28724E-04-9.01940E-01-1.27939E-14-3.09050E-13
 -1      2722 2.05045E+01 1.24243E-01-2.50785E-03-1.06384E+00-1.95008E-14-2.52009E-13
 -1      2723 2.05563E+01 1.98457E-01 2.76094E-03-8.34757E-01-2.23842E-14-3.73066E-13
 -1      2724 2.04677E+01 2.12562E-01-1.17713E-03-7.81067E-01-2.80585E-14-4.13012E-13
 -1      2725 2.03706E+01 2.29673E-01 8.25756E-05-9.37568E-01-6.34612E-14-3.52078E-13
 -1      2726 2.04347E+01 2.23088E-01 2.85486E-03-7.11878E-01-3.46116E-14-4.08654E-13
 -1      2727 2.03617E+01 2.21176E-01-1.50859E-03-6.55079E-01-1.33024E-14-4.25077E-13
 -1      2728 2.02796E+01 2.72198E-01 1.26968E-03-7.99704E-01-4.43025E-14-4.62828E-13
 -1      2729 2.03396E+01 2.19335E-01 2.75470E-03-5.89490E-01 7.64179E-14-4.76496E-13
 -1      2730 2.02795E+01 2.08522E-01-1.53891E-03-5.34972E-01 1.12552E-13-3.66226E-13
 -1      2731 2.02152E+01 2.74991E-01 1.65432E-03-6.64063E-01-1.40344E-14-4.21490E-13
 -1      2732 2.02639E+01 1.99913E-01 2.53554E-03-4.76011E-01 6.73279E-14-3.39654E-13
 -1      2733 2.02149E+01 1.84982E-01-1.41064E-03-4.26770E-01 5.78262E-14-3.25925E-13
 -1      2734 2.01677E+01 2.55057E-01 1.61971E-03-5.38710E-01 1.11706E-13-4.10752E-13
 -1      2735 2.02032E+01 1.73304E-01 2.25042E-03-3.75766E-01 1.30360E-13-3.74980E-13
 -1      2736 2.01637E+01 1.57261E-01-1.21247E-03-3.33160E-01 1.31460E-13-3.16998E-13
 -1      2737 2.01313E+01 2.23951E-01 1.39494E-03-4.27813E-01 1.23569E-13-4.24136E-13
 -1      2738 2.01547E+01 1.44812E-01 1.93824E-03-2.90357E-01-2.10570E-14-2.98333E-13
 -1      2739 2.01231E+01 1.29408E-01-9.96422E-04-2.54688E-01-2.50031E-14-3.14024E-13
 -1      2740 2.01026E+01 1.89049E-01 1.10902E-03-3.32930E-01 4.39682E-14-3.25758E-13
 -1      2741 2.01160E+01 1.17511E-01 1.62667E-03-2.19668E-01-2.16152E-14-3.19563E-13
 -1      2742 2.00912E+01 1.03664E-01-7.90805E-04-1.90605E-01 8.87474E-15-3.09411E-13
 -1      2743 2.00796E+01 1.54750E-01 8.29046E-04-2.53948E-01 2.38841E-14-3.09584E-13
 -1      2744 2.00855E+01 9.30029E-02 1.33403E-03-1.62591E-01 2.04493E-14-3.38471E-13
 -1      2745 2.00664E+01 8.10992E-02-6.09239E-04-1.39463E-01 1.06247E-13-3.79296E-13
 -1      2746 2.00611E+01 1.23442E-01 5.85607E-04-1.89742E-01-1.35811E-14-3.36254E-13
 -1      2747 2.00618E+01 7.19529E-02 1.07108E-03-1.17515E-01 1.18247E-13-4.74352E-13
 -1      2748 2.00472E+01 6.20558E-02-4.56608E-04-9.95063E-02 7.35020E-14-4.60929E-13
 -1      2749 2.00463E+01 9.62185E-02 3.88793E-04-1.38659E-01 5.59580E-14-5.36851E-13
 -1      2750 2.00435E+01 5.44623E-02 8.42880E-04-8.26545E-02 9.89048E-14-4.50208E-13
 -1      2751 2.00327E+01 4.64536E-02-3.32889E-04-6.89221E-02 4.29817E-14-4.63465E-13
 -1      2752 2.00345E+01 7.33744E-02 2.38022E-04-9.88311E-02 1.02428E-13-5.62781E-13
 -1      2753 2.00297E+01 4.03152E-02 6.50414E-04-5.62437E-02 7.50812E-15-2.85503E-13
 -1      2754 2.00218E+01 3.39852E-02-2.35534E-04-4.59924E-02-3.17108E-14-2.25302E-13
 -1      2755 2.00253E+01 5.47404E-02 1.27774E-04-6.83905E-02 1.14614E-13-5.60261E-13
 -1      2756 2.00195E+01 2.91369E-02 4.92031E-04-3.66561E-02-9.47632E-14-2.56852E-13
 -1      2757 2.00139E+01 2.42409E-02-1.60904E-04-2.91743E-02-1.05027E-13-1.50275E-13
 -1      2758 2.00181E+01 3.99036E-02 5.08158E-05-4.55934E-02-3.20196E-14-2.92815E-13
 -1      2759 2.00121E+01 2.04926E-02 3.64531E-04-2.24599E-02-2.41283E-13-2.84300E-13
 -1      2760 2.00082E+01 1.67848E-02-1.05106E-04-1.71354E-02-2.07157E-13-4.02834E-13
 -1      2761 2.00126E+01 2.83464E-02-1.15841E-07-2.88868E-02-2.25874E-13-3.28559E-13
 -1      2762 2.00068E+01 1.39469E-02 2.63965E-04-1.24371E-02-6.47756E-14-4.37486E-13
 -1      2763 2.00042E+01 1.11990E-02-6.44352E-05-8.75917E-03 5.74948E-15-4.38951E-13
 -1      2764 2.00085E+01 1.95309E-02-3.15112E-05-1.69364E-02-1.31094E-13-3.12522E-13
 -1      2765 2.00032E+01 9.09606E-03 1.86188E-04-5.58027E-03 7.06909E-14-3.81018E-13
 -1      2766 2.00015E+01 7.10661E-03-3.56060E-05-3.13325E-03 2.92197E-14-2.72458E-13
 -1      2767 2.00054E+01 1.29479E-02-4.87898E-05-8.62722E-03 2.41668E-15-4.07825E-13
 -1      2768 2.00008E+01 5.58405E-03 1.27205E-04-1.07554E-03-6.50062E-14-7.32165E-14
 -1      2769 1.99998E+01 4.18155E-03-1.58275E-05 4.71502E-04-1.09919E-13-4.34107E-15
 -1      2770 2.00032E+01 8.14158E-03-5.62676E-05-3.05017E-03 6.47035E-14-5.03777E-13
 -1      2771 1.99993E+01 3.10799E-03 8.33821E-05 1.72093E-03-2.49015E-13 1.01257E-13
 -1      2772 1.99988E+01 2.15060E-03-2.80962E-06 2.62600E-03-8.92409E-14 4.90283E-15
 -1      2773 2.00017E+01 4.71976E-03-5.72544E-05 5.20332E-04-1.46092E-13-3.42673E-13
 -1      2774 1.99984E+01 1.41742E-03 5.15365E-05 3.30819E-03 8.34015E-14-1.04356E-13
 -1      2775 1.99982E+01 7.90515E-04 5.27520E-06 3.76852E-03 7.21333E-14-1.58153E-13
 -1      2776 2.00006E+01 2.35521E-03-5.42047E-05 2.65191E-03-1.15364E-13-3.20764E-13
 -1      2777 1.99980E+01 3.09976E-04 2.89727E-05 4.06550E-03-1.43993E-15-2.40533E-13
 -1      2778 1.99980E+01-7.71509E-05 9.84963E-06 4.22874E-03-1.07000E-13-2.90718E-13
 -1      2779 2.00000E+01 7.81470E-04-4.88780E-05 3.77995E-03-6.50142E-14-3.36995E-13
 -1      2780 1.99978E+01-3.74516E-04 1.34653E-05 4.27509E-03-5.24291E-14-2.97224E-13
 -1      2781 1.99980E+01-5.92329E-04 1.19946E-05 4.24934E-03 7.60693E-15-3.33213E-13
 -1      2782 1.99995E+01-2.13838E-04-4.24913E-05 4.23176E-03-4.06270E-14-4.27744E-13
 -1      2783 1.99979E+01-7.60556E-04 3.22072E-06 4.14223E-03 8.12441E-14-1.82630E-13
 -1      2784 1.99981E+01-8.62887E-04 1.25113E-05 4.00459E-03 6.51176E-14-1.53452E-13
 -1      2785 1.99993E+01-7.96834E-04-3.58503E-05 4.24811E-03 9.57023E-14-1.74214E-13
 -1      2786 1.99980E+01-9.43370E-04-3.17350E-06 3.81217E-03 1.17190E-13 4.07897E-14
 -1      2787 1.99983E+01-9.70758E-04 1.19795E-05 3.61583E-03 1.17209E-13 1.81917E-13
 -1      2788 1.99992E+01-1.09529E-03-2.94601E-05 4.00174E-03 2.53345E-13-2.55789E-14
 -1      2789 1.99983E+01-9.94836E-04-6.80185E-06 3.38414E-03 1.07465E-14 3.72061E-13
 -1      2790 1.99985E+01-9.77483E-04 1.08105E-05 3.16410E-03 5.39972E-14 3.77521E-13
 -1      2791 1.99992E+01-1.20607E-03-2.36089E-05 3.61281E-03 1.70911E-13 2.35857E-13
 -1      2792 1.99985E+01-9.68728E-04-8.47278E-06 2.92253E-03-3.11045E-14 3.03049E-13
 -1      2793 1.99987E+01-9.28982E-04 9.29781E-06 2.70010E-03-3.75008E-14 2.47723E-13
 -1      2794 1.99992E+01-1.20179E-03-1.84196E-05 3.16151E-03-5.96200E-14 3.89744E-13
 -1      2795 1.99987E+01-9.05390E-04-8.83885E-06 2.46557E-03-4.75427E-15 3.05198E-13
 -1      2796 1.99989E+01-8.59640E-04 7.39726E-06 2.25193E-03 2.16739E-14 3.57863E-13
 -1      2797 1.99993E+01-1.13627E-03-1.37389E-05 2.69820E-03-5.67412E-14 3.47963E-13
 -1      2798 1.99990E+01-8.33042E-04-8.16879E-06 2.03195E-03 8.77492E-14 3.57415E-13
 -1      2799 1.99991E+01-7.97485E-04 1.57113E-06 1.83074E-03 2.18652E-13 1.43335E-13
 -1      2800 1.99993E+01-1.04788E-03-8.16250E-06 2.25165E-03 3.67279E-14 4.34548E-13
 -1      2801 1.99992E+01-7.75274E-04-5.20830E-06 1.63164E-03 2.96155E-13 8.90024E-14
 -1      2802 1.99993E+01-7.50682E-04 2.24699E-06 1.43966E-03 3.90085E-13 4.27635E-14
 -1      2803 1.99994E+01-9.64757E-04-4.46412E-06 1.82810E-03 2.32141E-13 8.30804E-14
 -1      2804 2.75534E+01-1.93721E+00-1.47426E-01 2.55365E-01-3.25215E-13 2.84217E-14
 -1      2805 2.61882E+01-2.81383E+00 1.95565E-02 1.69686E+00-1.11300E-13-1.01238E-13
 -1      2806 2.54230E+01 1.50520E+00-1.01242E-02 2.52831E+00 5.23005E-13 3.00491E-13
 -1      2807 2.56723E+01 4.55701E-01-6.75720E-02 2.75607E+00 3.81473E-13 3.72046E-13
 -1      2808 2.50673E+01 1.11878E+00-8.80769E-02-2.21940E+00 4.81892E-13-5.97728E-13
 -1      2809 2.48558E+01 2.14261E+00-9.44795E-03-1.76280E+00 6.69319E-13-5.03219E-13
 -1      2810 2.52094E+01-7.68564E-01-5.56433E-02-2.08171E+00 1.36637E-13-7.02063E-13
 -1      2811 2.51768E+01 1.56156E-01 1.03207E-03-2.24949E+00 3.03070E-13-6.94865E-13
 -1      2812 2.59256E+01 6.61795E-01-2.76937E-02-2.29045E+00 4.36769E-13-6.94778E-13
 -1      2813 2.47874E+01-1.64449E+00-7.36339E-03-1.07005E+00-1.57513E-15-6.41599E-13
 -1      2814 2.49430E+01-1.31371E+00-8.00682E-03-1.53893E+00 4.50664E-14-6.43468E-13
 -1      2815 2.56057E+01-1.30902E+00-1.02448E-02-1.71700E+00 6.32463E-14-7.36146E-13
 -1      2816 2.39768E+01-1.62791E+00 1.50593E-02 4.99218E-03-1.66339E-13-4.96037E-13
 -1      2817 2.42384E+01-1.72170E+00-1.63680E-02-4.76157E-01-5.80178E-14-5.59570E-13
 -1      2818 2.46755E+01-2.04502E+00-1.25733E-03-5.17310E-01-1.02514E-13-6.45983E-13
 -1      2819 2.31031E+01-1.14876E+00 1.79728E-02 7.62472E-01-4.50193E-14-4.35690E-13
 -1      2820 2.33868E+01-1.42117E+00-1.91945E-02 4.30183E-01-7.87877E-14-4.50457E-13
 -1      2821 2.35175E+01-1.84727E+00-2.31295E-02 5.34630E-01-1.25490E-13-5.29420E-13
 -1      2822 2.23686E+01-6.28025E-01 1.36519E-02 1.17734E+00-7.49963E-14-3.62566E-13
 -1      2823 2.26327E+01-8.98281E-01-1.43052E-02 9.95185E-01-4.52975E-14-3.73796E-13
 -1      2824 2.25350E+01-1.24106E+00-2.15677E-02 1.15417E+00-9.44031E-14-4.11021E-13
 -1      2825 2.18124E+01-2.21146E-01 8.41856E-03 1.32682E+00-1.09973E-13-2.84469E-13
 -1      2826 2.20404E+01-4.19907E-01-7.29167E-03 1.26080E+00-7.57272E-14-3.23745E-13
 -1      2827 2.18077E+01-6.33439E-01-1.52816E-02 1.43142E+00-1.05604E-13-2.46482E-13
 -1      2828 2.14050E+01 4.09832E-02 4.42404E-03 1.30805E+00-3.11987E-14-2.98590E-13
 -1      2829 2.15968E+01-8.15438E-02-2.40924E-03 1.31836E+00-8.57570E-14-2.66004E-13
 -1      2830 2.13145E+01-1.81925E-01-9.29492E-03 1.47993E+00-9.31168E-14-2.43361E-13
 -1      2831 2.11030E+01 1.83361E-01 1.84993E-03 1.19591E+00 2.61310E-14-3.13185E-13
 -1      2832 2.12642E+01 1.19948E-01 5.91352E-04 1.24954E+00-2.05862E-15-3.37365E-13
 -1      2833 2.09864E+01 9.88575E-02-5.12597E-03 1.39651E+00-1.18910E-14-2.77882E-13
 -1      2834 2.08719E+01 2.43432E-01 3.89905E-04 1.04092E+00 2.37798E-15-1.41790E-13
 -1      2835 2.10081E+01 2.19201E-01 2.26093E-03 1.11454E+00 1.10195E-14-2.03927E-13
 -1      2836 2.07626E+01 2.45730E-01-2.66602E-03 1.24610E+00-4.75561E-14-2.31205E-13
 -1      2837 2.06893E+01 2.53532E-01-3.40825E-04 8.74551E-01 4.05369E-14-1.70783E-13
 -1      2838 2.08042E+01 2.52452E-01 3.04723E-03 9.53271E-01 3.16877E-14-1.44839E-13
 -1      2839 2.06017E+01 3.03014E-01-1.38931E-03 1.06958E+00 7.94783E-15-1.53748E-13
 -1      2840 2.05418E+01 2.36656E-01-6.39821E-04 7.14859E-01 1.35646E-13-6.96053E-14
 -1      2841 2.06381E+01 2.47715E-01 3.27327E-03 7.90085E-01 9.78109E-14-1.24228E-13
 -1      2842 2.04789E+01 3.06918E-01-8.03991E-04 8.91375E-01 3.07565E-14-1.52182E-13
 -1      2843 2.04216E+01 2.07444E-01-7.06339E-04 5.71148E-01 3.40982E-17 2.65468E-14
 -1      2844 2.05013E+01 2.23773E-01 3.16370E-03 6.38501E-01 1.02034E-13-2.60621E-14
 -1      2845 2.03810E+01 2.82566E-01-5.70535E-04 7.25199E-01 7.43242E-14 3.94884E-14
 -1      2846 2.03237E+01 1.74493E-01-6.59897E-04 4.47235E-01 5.00531E-14-3.99684E-14
 -1      2847 2.03887E+01 1.92117E-01 2.87092E-03 5.04991E-01 4.87537E-14-5.04961E-14
 -1      2848 2.03008E+01 2.45766E-01-4.91861E-04 5.77840E-01 7.42821E-14 6.60797E-15
 -1      2849 2.02447E+01 1.42461E-01-5.67625E-04 3.43683E-01-1.46937E-14-1.14991E-13
 -1      2850 2.02969E+01 1.59260E-01 2.49586E-03 3.91677E-01 6.91893E-14-2.23243E-14
 -1      2851 2.02348E+01 2.05730E-01-4.66122E-04 4.51761E-01 6.24946E-14-2.00066E-13
 -1      2852 2.01816E+01 1.13604E-01-4.64702E-04 2.59258E-01-1.52139E-13 8.32934E-14
 -1      2853 2.02228E+01 1.28578E-01 2.10183E-03 2.98166E-01-9.48113E-14 1.63845E-14
 -1      2854 2.01805E+01 1.67411E-01-4.47726E-04 3.46827E-01-1.00139E-13-3.13360E-14
 -1      2855 2.01321E+01 8.87883E-02-3.67923E-04 1.91850E-01-9.25192E-14-1.62326E-13
 -1      2856 2.01641E+01 1.01584E-01 1.72582E-03 2.22740E-01-9.36319E-14-1.34178E-14
 -1      2857 2.01365E+01 1.33168E-01-4.20784E-04 2.61457E-01-1.19320E-13 9.14633E-14
 -1      2858 2.00938E+01 6.81238E-02-2.84066E-04 1.39030E-01-2.35506E-14-2.31538E-13
 -1      2859 2.01182E+01 7.87338E-02 1.38715E-03 1.63097E-01-1.09123E-13-2.57659E-13
 -1      2860 2.01012E+01 1.03863E-01-3.83224E-04 1.93369E-01-5.13042E-14-9.67676E-14
 -1      2861 2.00647E+01 5.13308E-02-2.14776E-04 9.83702E-02-2.25967E-14-2.16589E-13
 -1      2862 2.00829E+01 5.99262E-02 1.09391E-03 1.16788E-01-1.66477E-14-2.16966E-13
 -1      2863 2.00735E+01 7.95357E-02-3.38237E-04 1.40046E-01-2.69992E-14-1.61065E-13
 -1      2864 2.00430E+01 3.79573E-02-1.59282E-04 6.76229E-02 1.18713E-13-2.19873E-13
 -1      2865 2.00564E+01 4.47851E-02 8.47344E-04 8.14651E-02 5.70693E-14-2.48092E-13
 -1      2866 2.00520E+01 5.98125E-02-2.90140E-04 9.90145E-02 2.69415E-14-2.57995E-13
 -1      2867 2.00271E+01 2.74975E-02-1.15840E-04 4.47991E-02 1.41925E-13-8.64432E-14
 -1      2868 2.00367E+01 3.28256E-02 6.44871E-04 5.50062E-02 1.22356E-13-1.56790E-13
 -1      2869 2.00357E+01 4.41359E-02-2.42648E-04 6.79961E-02 6.04398E-14-2.77222E-13
 -1      2870 2.00158E+01 1.94561E-02-8.24562E-05 2.81970E-02 1.73850E-13-3.98743E-14
 -1      2871 2.00225E+01 2.35432E-02 4.81924E-04 3.55666E-02 2.14212E-13 4.09927E-14
 -1      2872 2.00235E+01 3.18966E-02-1.98374E-04 4.49798E-02 1.17469E-13 4.84755E-15
 -1      2873 2.00079E+01 1.33800E-02-5.72246E-05 1.63966E-02 3.00076E-15-1.23173E-13
 -1      2874 2.00125E+01 1.64611E-02 3.53158E-04 2.15893E-02 1.54068E-13-4.42366E-14
 -1      2875 2.00147E+01 2.25041E-02-1.58849E-04 2.82460E-02 1.83816E-13-2.72005E-14
 -1      2876 2.00027E+01 8.87207E-03-3.84639E-05 8.23826E-03-1.87388E-13-1.80304E-13
 -1      2877 2.00056E+01 1.11522E-02 2.53152E-04 1.17899E-02-5.26304E-14-1.52251E-13
 -1      2878 2.00084E+01 1.54204E-02-1.24744E-04 1.63603E-02-6.08964E-15-1.97909E-13
 -1      2879 1.99994E+01 5.59421E-03-2.47540E-05 2.79220E-03-3.41719E-13-1.02655E-13
 -1      2880 2.00011E+01 7.24738E-03 1.76808E-04 5.12985E-03-3.11286E-13-1.96265E-13
 -1      2881 2.00041E+01 1.01759E-02-9.61265E-05 8.15073E-03-1.70911E-13-2.20142E-13
 -1      2882 1.99974E+01 3.26539E-03-1.49284E-05-6.73964E-04-3.17114E-14-6.60238E-14
 -1      2883 1.99983E+01 4.43585E-03 1.19556E-04 7.83983E-04-1.46083E-13-1.54153E-13
 -1      2884 2.00012E+01 6.37163E-03-7.26784E-05 2.67788E-03-2.08537E-13-1.91976E-13
 -1      2885 1.99963E+01 1.65649E-03-8.04839E-06-2.72750E-03 1.44527E-13 2.69325E-14
 -1      2886 1.99968E+01 2.46162E-03 7.74388E-05-1.89185E-03 8.53173E-14-3.36702E-14
 -1      2887 1.99993E+01 3.67655E-03-5.38669E-05-7.98377E-04 1.44743E-14-1.48852E-13
 -1      2888 1.99959E+01 5.83932E-04-3.37044E-06-3.80026E-03 1.64273E-13-7.39096E-14
 -1      2889 1.99960E+01 1.11758E-03 4.71147E-05-3.39216E-03 2.13499E-13 5.53909E-14
 -1      2890 1.99983E+01 1.82129E-03-3.90654E-05-2.85118E-03 1.29773E-13-1.51997E-13
 -1      2891 1.99960E+01-9.70005E-05-3.15750E-07-4.21505E-03-6.96863E-14-1.60621E-13
 -1      2892 1.99958E+01 2.39025E-04 2.58260E-05-4.08989E-03 8.01653E-14-3.28552E-14
 -1      2893 1.99977E+01 5.90351E-04-2.76327E-05-3.91671E-03 6.89284E-14-1.97440E-13
 -1      2894 1.99962E+01-4.98664E-04 1.55815E-06-4.20834E-03-1.77422E-13-1.79398E-13
 -1      2895 1.99959E+01-3.03030E-04 1.13405E-05-4.26095E-03-1.08187E-13-1.21295E-13
 -1      2896 1.99976E+01-1.85895E-04-1.89621E-05-4.32081E-03-1.58374E-14-1.04316E-13
 -1      2897 1.99966E+01-7.07032E-04 2.58149E-06-3.94922E-03-4.15848E-13-1.86060E-13
 -1      2898 1.99963E+01-6.08059E-04 1.88470E-06-4.10509E-03-2.66124E-13-1.59751E-13
 -1      2899 1.99976E+01-6.38959E-04-1.25088E-05-4.30194E-03-2.37190E-13-4.02374E-14
 -1      2900 1.99971E+01-7.87047E-04 2.99299E-06-3.55507E-03-1.60556E-13-2.86674E-13
 -1      2901 1.99967E+01-7.51735E-04-3.92592E-06-3.76310E-03-3.88109E-13-3.19953E-13
 -1      2902 1.99978E+01-8.69360E-04-7.80279E-06-4.03042E-03-3.20259E-13-1.87754E-13
 -1      2903 1.99976E+01-7.87292E-04 2.96050E-06-3.10404E-03-1.12146E-13-2.19968E-13
 -1      2904 1.99972E+01-7.90955E-04-7.15128E-06-3.33080E-03-1.24362E-13-2.55963E-13
 -1      2905 1.99980E+01-9.52969E-04-4.45277E-06-3.62425E-03-2.85274E-13-4.22549E-13
 -1      2906 1.99980E+01-7.43915E-04 2.65250E-06-2.64481E-03 1.51474E-13-3.43656E-14
 -1      2907 1.99977E+01-7.68214E-04-8.57844E-06-2.87014E-03 3.27004E-14-1.57522E-13
 -1      2908 1.99983E+01-9.46565E-04-2.13709E-06-3.16172E-03-7.20890E-14-3.91662E-13
 -1      2909 1.99984E+01-6.84583E-04 1.62723E-06-2.20450E-03 2.68420E-13 7.39010E-14
 -1      2910 1.99981E+01-7.15440E-04-8.82993E-06-2.41797E-03 2.21446E-13-1.84170E-14
 -1      2911 1.99986E+01-8.92182E-04-5.42800E-07-2.69154E-03 1.02612E-13-1.34405E-13
 -1      2912 1.99988E+01-6.30577E-04-2.70182E-06-1.79393E-03 1.90953E-13 1.84074E-13
 -1      2913 1.99985E+01-6.55955E-04-8.47643E-06-1.98961E-03 4.17461E-13 3.18022E-13
 -1      2914 1.99988E+01-8.20690E-04 2.25206E-06-2.24206E-03 1.92715E-13-1.16689E-13
 -1      2915 1.99991E+01-6.47086E-04-5.16339E-06-1.48686E-03 3.62899E-14 8.33301E-14
 -1      2916 1.99989E+01-6.63432E-04-8.65459E-06-1.67289E-03 5.19059E-14 1.78480E-13
 -1      2917 1.99991E+01-8.04396E-04 1.20742E-05-1.89082E-03 1.57167E-13 1.40750E-13
 -1      2918 1.99994E+01-8.56963E-04 1.24694E-05-1.62349E-03 7.39439E-15 2.61507E-13
 -1      2919 2.87742E+01 1.55946E+00-1.94995E-01-1.94861E+00-8.27061E-13 7.85622E-14
 -1      2920 2.86236E+01-6.85088E-02-1.22762E-02-1.24871E+00-5.60260E-13 1.10911E-13
 -1      2921 2.63066E+01-4.23052E+00-1.12773E-01 1.90702E+00-5.21111E-14-6.97845E-13
 -1      2922 2.49516E+01-4.63906E+00 7.44354E-02 3.19471E+00-2.02380E-13-5.28431E-13
 -1      2923 2.00006E+01-2.00823E-03 4.65845E-06-1.16662E-04 5.65276E-14-6.00918E-13
 -1      2924 2.00006E+01-1.98376E-03 2.61080E-06-3.24300E-04 1.36893E-13-7.49191E-13
 -1      2925 2.00004E+01-1.74436E-03 7.27472E-06-9.22152E-04 2.24419E-13 3.13566E-14
 -1      2926 2.00002E+01-1.62897E-03-1.68602E-06-1.05714E-03 2.20548E-13-6.22493E-14
 -1      2927 2.00006E+01-1.98204E-03 2.62782E-06 3.32336E-04 5.13460E-14-3.86555E-13
 -1      2928 2.00006E+01-2.00774E-03 4.63290E-06 1.24891E-04 1.04990E-13-5.80668E-13
 -1      2929 2.00008E+01-2.03639E-03-6.19818E-06 4.60572E-06 2.31194E-13-6.21967E-13
 -1      2930 2.00005E+01-1.92670E-03 6.28975E-06-5.52413E-04-9.17530E-14-5.95044E-13
 -1      2931 2.00004E+01-1.85373E-03 4.32613E-07-7.34892E-04 1.27542E-13-4.20886E-14
 -1      2932 2.00005E+01-1.82729E-03-5.22531E-06-9.19174E-04 1.00108E-14-4.44430E-14
 -1      2933 2.00007E+01-1.98341E-03-5.67684E-06-4.85309E-04-2.57585E-14-5.59841E-13
 -1      2934 2.00004E+01-1.85368E-03 2.21887E-07 7.35230E-04 1.61561E-13 1.31470E-13
 -1      2935 2.00005E+01-1.92501E-03 6.33186E-06 5.56057E-04 9.52716E-14 5.17995E-14
 -1      2936 2.00007E+01-1.98234E-03-6.00078E-06 4.90068E-04 2.32704E-13-2.23424E-13
 -1      2937 2.00002E+01-1.63063E-03-2.67179E-06 1.05691E-03 1.81021E-13 3.37489E-13
 -1      2938 2.00004E+01-1.74273E-03 7.54497E-06 9.22233E-04 1.31665E-13 3.16594E-13
 -1      2939 2.00005E+01-1.82577E-03-5.11999E-06 9.19202E-04 1.69041E-13 2.91425E-13
 -1      2940 2.00000E+01-1.33729E-03-7.42699E-06 1.25333E-03 3.80341E-13 7.66794E-13
 -1      2941 2.00001E+01-1.47431E-03 9.56513E-06 1.17787E-03 3.22235E-13 5.59085E-13
 -1      2942 2.00003E+01-1.57560E-03-3.87337E-06 1.24322E-03 2.33204E-13 5.69645E-13
 -1      2943 1.99994E+01-7.39202E-04-2.14681E-06 1.18756E-03 2.74386E-13 1.52007E-13
 -1      2944 1.99996E+01-8.90191E-04-3.26001E-06 1.23214E-03 2.99799E-13-1.96922E-13
 -1      2945 1.99993E+01-7.49143E-04-7.10954E-06 1.31810E-03 3.60509E-13 1.06779E-13
 -1      2946 1.12939E+01-2.64609E+00 1.55514E-01-5.86107E+00 6.86312E-13 7.13679E-13
 -1      2947 1.46355E+01-3.77136E+00 1.96906E-02-6.58564E+00 7.22922E-13 4.67570E-13
 -1      2948 7.53192E+00-1.12427E+00 1.93042E-01-3.55639E+00 4.26076E-13 8.34527E-13
 -1      2949 8.83202E+00-1.74434E+00 9.05382E-02-4.89415E+00 5.31464E-13 7.30971E-13
 -1      2950 9.87695E+00-1.77220E+00 9.10001E-02 4.84067E+00-5.15477E-13 5.33851E-13
 -1      2951 7.37639E+00-1.05137E+00 2.24061E-01 3.20209E+00-4.15855E-13 8.26783E-13
 -1      2952 2.37903E+01 2.48373E-01-6.82262E-03 8.38648E-01 3.69208E-13 7.03018E-14
 -1      2953 2.82969E+01 8.33567E-01-5.17503E-02 2.60752E+00 5.72431E-13 3.74339E-13
 -1      2954 2.79467E+01 2.74566E+00-2.05429E-01 2.58770E+00 8.28629E-13 2.80054E-13
 -1      2955 2.56118E+01-3.95939E-01-1.74199E-02 2.51647E+00 2.89947E-13 4.06186E-13
 -1      2956 2.57362E+01-9.65648E-01-1.45080E-02 2.30138E+00 2.04520E-13 4.19057E-13
 -1      2957 2.58566E+01-1.43876E+00-2.92910E-02 1.88174E+00 1.88388E-13 3.60007E-13
 -1      2958 2.64181E+01-3.27525E-02-6.99625E-02 2.76454E+00 3.81833E-13 4.35613E-13
 -1      2959 1.43089E+01 2.20401E+00-3.49846E-02 2.64643E+00 3.34020E-13-9.27182E-13
 -1      2960 1.61404E+01 1.78093E+00 7.57437E-02 2.53371E+00 3.09514E-13-8.41842E-13
 -1      2961 2.57098E+01 3.66278E+00-9.48256E-02-9.71526E-01 9.17239E-13-3.23865E-13
 -1      2962 2.56665E+01 4.04850E+00-8.76536E-02 1.81678E-02 9.74235E-13-1.71347E-13
 -1      2963 2.40004E+01-4.12397E-01-3.62695E-03-1.55241E+00-2.75930E-13-3.41861E-14
 -1      2964 2.40428E+01-6.36813E-01-2.23036E-02-1.63925E+00-2.43896E-13-8.71807E-16
 -1      2965 2.43539E+01-8.34852E-01-1.28821E-02-1.64081E+00-2.21705E-13-5.02896E-15
 -1      2966 2.93837E+01 4.00690E+00-1.93624E-01-1.70069E+00 1.08200E-12-6.03323E-13
 -1      2967 2.94623E+01 2.62173E+00-1.28763E-01-1.92110E+00 9.14990E-13-7.00676E-13
 -1      2968 2.26518E+01 8.79659E-01-8.04955E-03-1.02307E+00-2.75839E-13-3.28157E-13
 -1      2969 1.61855E+01 1.95194E+00 6.58603E-02-1.97574E+00-1.00345E-14-7.73014E-13
 -1      2970 1.43372E+01 2.42046E+00-2.28216E-02-1.99438E+00-2.51795E-14-8.94521E-13
 -1      2971 1.73325E+01 7.46825E-01 7.12334E-03-2.30853E+00-7.56166E-14-6.49427E-13
 -1      2972 2.83413E+01 4.70142E+00-1.26163E-01 1.58518E+00-9.90541E-13-9.03028E-13
 -1      2973 2.79074E+01 5.65354E+00-1.97736E-01 8.30156E-01-1.13062E-12-7.36661E-13
 -1      2974 1.77993E+01 1.09983E+00-1.53507E-02 2.07873E+00 2.57459E-13-6.98757E-13
 -1      2975 1.93272E+01 7.50531E-01 2.59685E-02 1.57803E+00 1.64785E-13-6.22872E-13
 -1      2976 1.71390E+01 6.14534E-01-8.57271E-03 2.81634E+00 3.21970E-13-7.33233E-13
 -1      2977 1.12081E+01-3.78273E-01 1.03410E-01-4.61931E+00-2.15453E-13-1.25919E-12
 -1      2978 1.40553E+01-1.68846E+00 7.47132E-02-5.38768E+00-2.28595E-13-1.13273E-12
 -1      2979 2.79289E+01 5.33725E+00-1.68399E-01-1.69710E+00-1.19721E-12-1.77823E-13
 -1      2980 2.86248E+01 3.75806E+00-9.28811E-02-2.25747E+00-1.02759E-12-2.03032E-14
 -1      2981 2.36087E+01-3.65835E+00 8.51873E-02-3.02638E+00-1.83055E-13-2.51972E-13
 -1      2982 2.55651E+01-3.69616E+00-1.17098E-01-1.92149E+00-2.57017E-14-3.28348E-14
 -1      2983 3.04278E+01 6.95866E-01-5.17111E-02-1.09623E+00 7.08988E-13-7.73465E-13
 -1      2984 6.59747E+00 1.53302E+00 1.82595E-01 2.57340E+00 2.84814E-13-1.47612E-12
 -1      2985 5.90530E+00 1.81703E+00 1.51036E-01 9.49828E-01 2.40677E-13-1.52522E-12
 -1      2986 2.24221E+01-4.94374E+00-5.22421E-02 4.66039E+00-3.76491E-13-2.23032E-13
 -1      2987 1.93994E+01-4.55228E+00 1.14316E-01 5.67077E+00-5.73513E-13-1.42178E-14
 -1      2988 2.33806E+01-4.54384E+00 3.48811E-02 3.65587E+00-3.64070E-13-3.69194E-13
 -1      2989 2.43780E+01-3.33299E+00-4.61003E-02 3.10871E+00 2.49800E-15-2.46581E-13
 -1      2990 2.18150E+01-3.35981E+00 4.23672E-02 4.20289E+00 2.04767E-13-3.87548E-13
 -1      2991 2.51554E+01-2.94619E+00 2.55896E-02 1.69486E+00 9.72833E-14-7.71050E-14
 -1      2992 2.37003E+01-4.70960E+00 7.19679E-02-4.19287E+00 6.21864E-13-2.09791E-13
 -1      2993 2.58568E+01-4.23255E+00-1.09708E-01-2.78609E+00 3.83797E-13-4.06258E-13
 -1      2994 1.71402E+01-2.66819E+00 1.06240E-01-5.12743E+00-2.75155E-13-8.54004E-13
 -1      2995 2.05381E+01-3.54123E+00-3.62263E-02-4.48209E+00-2.23752E-13-5.49633E-13
 -1      2996 1.67594E+01-1.70519E+00 1.21408E-01-4.61186E+00-3.20452E-13-8.53310E-13
 -1      2997 2.78643E+01 6.06469E+00-1.79096E-01 3.20951E-01-1.17342E-12-5.95711E-13
 -1      2998 2.76538E+01 6.13648E+00-1.57895E-01-3.95160E-01-1.22474E-12-4.32630E-13
 -1      2999 2.67795E+01 5.10310E+00-9.01127E-02 7.92803E-01-9.88321E-13-6.75220E-13
 -1      3000 1.82345E+01-4.42378E+00 1.30776E-01-6.15663E+00 7.31123E-13 2.52180E-13
 -1      3001 2.08938E+01-4.92100E+00-4.53221E-02-5.59895E+00 6.83786E-13 3.53034E-14
 -1      3002 2.75317E+01-2.66385E+00 3.35102E-02-1.80249E-01 1.37215E-13 1.84769E-13
 -1      3003 2.86681E+01-1.24727E+00-1.75755E-01 1.34235E+00 4.32362E-13 3.27585E-13
 -1      3004 2.75151E+01-2.96565E+00 1.29310E-02-1.10426E+00 1.76222E-13-6.28539E-13
 -1      3005 2.82561E+01-1.70124E+00-1.68951E-01 6.65785E-02-1.14842E-13-7.87981E-13
 -1      3006 1.14540E+01 3.49030E+00-2.73808E-03 1.79657E+00 2.89181E-13-1.11554E-12
 -1      3007 1.26936E+01 3.11883E+00 8.52378E-02 2.28581E+00 3.23650E-13-1.05138E-12
 -1      3008 1.32671E+01 1.99691E+00 1.49089E-02 3.06347E+00 3.68868E-13-9.98861E-13
 -1      3009 1.05778E+01 3.28365E+00 8.36241E-02 1.56672E+00 2.86260E-13-1.20704E-12
 -1      3010 1.65207E+01-3.97692E+00 4.50119E-02 6.23354E+00-5.20223E-13 1.40887E-13
 -1      3011 1.35768E+01-2.94111E+00 1.14415E-01 5.87013E+00-5.54834E-13 2.92821E-13
 -1      3012 1.87908E+01-3.86476E+00 1.01913E-01 5.36263E+00-5.60232E-13 3.45488E-14
 -1      3013 2.87448E+01 5.54412E-01-5.64006E-02 1.33702E+00-4.31058E-13-9.59899E-13
 -1      3014 2.86006E+01 2.77346E+00-1.91063E-01 1.67268E+00-7.53730E-13-9.38263E-13
 -1      3015 2.06008E+01 5.22244E-01 1.54185E-02 7.93690E-01 7.46504E-14-5.25584E-13
 -1      3016 2.15812E+01 3.08832E-01-1.92754E-02 1.88670E-01-3.42296E-14-4.82817E-13
 -1      3017 2.04480E+01-1.74291E-01-1.44896E-02 1.41577E+00 1.42504E-13-4.88666E-13
 -1      3018 1.48876E+01-2.19201E+00 9.13248E-02 5.12318E+00-4.94861E-13 2.46761E-13
 -1      3019 1.24830E+01-2.00669E+00 1.49541E-01 5.28036E+00-5.00322E-13 3.71203E-13
 -1      3020 1.15444E+01-1.01561E+00 9.22262E-02 4.25709E+00-4.59938E-13 4.54303E-13
 -1      3021 2.73945E+01-1.18243E+00-3.89877E-02-8.50165E-01-3.02206E-13 1.33393E-13
 -1      3022 2.86182E+01-1.76344E+00-1.16058E-01-6.67890E-01 3.31041E-13-7.37591E-13
 -1      3023 2.78124E+01-2.83197E+00 5.31178E-03 1.73080E-01 1.37432E-13-7.39075E-13
 -1      3024 2.63075E+01-3.66166E+00 3.48575E-03-1.55593E+00 3.33244E-13-5.37570E-13
 -1      3025 1.99997E+01-1.06255E-03 4.66427E-06-1.30555E-03 1.16121E-13 1.50527E-13
 -1      3026 2.64645E+01-2.89258E+00 2.85338E-02-3.14572E-01-2.77139E-14 1.82424E-13
 -1      3027 2.23263E+01-3.16204E+00 7.65661E-02-3.15497E+00-2.61374E-13-3.08056E-13
 -1      3028 2.85104E+01 1.69207E+00-8.99756E-02-2.09278E+00 7.66665E-13-6.12232E-13
 -1      3029 2.95172E+01 1.28952E+00-1.50553E-01-1.66902E+00 7.55687E-13-6.92460E-13
 -1      3030 2.91781E+01-1.24511E-01-9.79717E-02-1.28975E+00 5.95239E-13-7.35315E-13
 -1      3031 7.70344E+00-4.79758E-01 1.73562E-01 1.94153E+00-2.86590E-13 7.72105E-13
 -1      3032 1.99995E+01-8.99846E-04 8.83183E-06 1.48724E-03 2.91963E-13-1.46628E-13
 -1      3033 2.67399E+01-3.42479E+00-3.80484E-03 6.54584E-01-5.47826E-14-7.29014E-13
 -1      3034 2.76756E+01 2.24574E+00-7.99955E-02-2.31074E+00-7.87898E-13 7.13041E-14
 -1      3035 2.20837E+01-2.91030E+00 2.15237E-02 3.30907E+00 3.47972E-13-3.23953E-13
 -1      3036 2.03884E+01-3.09730E+00 5.52418E-02 4.69964E+00 2.98789E-13-5.32197E-13
 -1      3037 1.86363E+01-2.26498E+00 1.50357E-01 4.86819E+00 4.24813E-13-5.95638E-13
 -1      3038 2.00003E+01-1.58202E-03-5.16058E-06-1.24232E-03 1.30790E-13-5.22337E-14
 -1      3039 2.00001E+01-1.47874E-03 9.07231E-06-1.17806E-03 2.88057E-13-9.93785E-14
 -1      3040 2.00000E+01-1.33609E-03-5.66672E-06-1.25390E-03 3.15248E-13-1.04753E-14
 -1      3041 2.26958E+01-4.57939E+00 6.13611E-02-4.32035E+00 6.80109E-13-1.45082E-13
 -1      3042 7.72199E+00-5.04997E-01 1.75327E-01-2.25570E+00 1.69288E-13 7.43516E-13
 -1      3043 1.33517E+01 2.22183E+00 5.48756E-02-2.34857E+00-6.44311E-14-1.01967E-12
 -1      3044 1.99997E+01-1.05409E-03 6.61200E-06 1.24832E-03 2.87777E-13 3.20117E-13
 -1      3045 1.99998E+01-1.16865E-03-1.74381E-06 1.38846E-03 3.81792E-13 4.07541E-13
 -1      3046 1.17192E+01-1.77108E+00 1.67892E-01-5.10966E+00 5.96245E-13 6.38919E-13
 -1      3047 1.26537E+01-1.20268E+00 1.38923E-01 5.64987E+00 4.22384E-13-1.10087E-12
 -1      3048 1.16507E+01-1.05469E-02 1.09593E-01 5.02205E+00 4.76369E-13-1.10456E-12
 -1      3049 1.47665E+01-1.54610E+00-3.88593E-03 5.49578E+00 4.76508E-13-8.76854E-13
 -1      3050 8.28839E+00 1.30063E+00 1.42005E-01 3.33098E+00 3.91326E-13-1.36946E-12
 -1      3051 7.35387E+00 2.21597E+00 1.60097E-01-2.87455E-01 1.27757E-13-1.50896E-12
 -1      3052 2.33913E+01-7.53387E-02-1.00488E-02 5.61357E-01 2.83996E-13-3.19102E-15
 -1      3053 2.82789E+01 4.42008E+00-1.24933E-01-1.45829E+00 1.12949E-12-4.85591E-13
 -1      3054 2.74208E+01-3.79944E-01-2.35745E-02 2.25738E+00 3.62186E-13 4.05419E-13
 -1      3055 2.69798E+01 4.84689E+00-1.24532E-01 8.27895E-01 1.07918E-12-4.43465E-14
 -1      3056 2.49256E+01 3.21185E+00-4.71204E-02 1.20754E+00 7.90965E-13 5.61010E-14
 -1      3057 2.51885E+01 2.48255E+00-9.62973E-02 2.00030E+00 6.81399E-13 1.88315E-13
 -1      3058 2.77996E+01 4.99665E+00-2.08090E-01 1.42327E+00 1.12146E-12 8.49321E-15
 -1      3059 2.25565E+01 3.64524E-01 2.93152E-02-6.32994E-01-1.38364E-13-3.60467E-13
 -1      3060 2.34681E+01 1.96123E-01-2.38238E-02-1.31464E+00-2.98428E-13-2.02097E-13
 -1      3061 2.36725E+01-2.26395E-01-1.86235E-02-1.35579E+00-2.82672E-13-1.10990E-13
 -1      3062 2.26570E+01-3.21188E-01 6.37754E-03-2.37938E-01-8.08156E-14-3.12247E-13
 -1      3063 1.70997E+01-3.68210E+00 1.09255E-01-5.93069E+00 7.69856E-13 3.11071E-13
 -1      3064 2.73701E+01 3.07864E+00-5.36972E-02 1.79335E+00-7.47097E-13-8.90781E-13
 -1      3065 2.79145E+01 4.32423E+00-1.55815E-01 2.14700E+00 1.02152E-12 1.63126E-13
 -1      3066 2.64086E+01 2.40435E+00-4.15396E-02 2.53417E+00 6.90524E-13 2.59598E-13
 -1      3067 2.77409E+01-6.88897E-01-3.84444E-02 1.10098E+00-2.19401E-13-8.79893E-13
 -1      3068 2.33124E+01-7.53475E-01-2.38957E-02 1.47687E-01 1.77094E-13-3.14948E-14
 -1      3069 2.37703E+01-4.68582E-01 2.48259E-02-1.19433E+00-1.82757E-13-1.35935E-13
 -1      3070 2.67381E+01 3.81567E+00-1.26725E-01-1.54235E+00 1.00016E-12-4.60992E-13
 -1      3071 2.69683E+01 2.39974E+00-1.13228E-01-2.29681E+00 8.26311E-13-6.24500E-13
 -1      3072 2.24851E+01-1.09515E+00 3.24630E-02-9.21159E-01-8.39606E-16-2.02801E-13
 -1      3073 2.09290E+01-8.47470E-01 9.21475E-03-1.66365E+00-9.16298E-14-3.32294E-13
 -1      3074 2.81269E+01-8.88052E-01-6.62478E-02-1.55363E+00 3.57530E-13-6.87533E-13
 -1      3075 2.52259E+01-3.80901E+00 6.87486E-02-1.81944E+00 4.70077E-13-4.31540E-13
 -1      3076 2.60927E+01-3.21305E+00-1.21869E-01-5.34716E-01 2.23391E-13-5.80452E-13
 -1      3077 1.59164E+01-6.05028E-01 7.08359E-02-4.00728E+00-2.77167E-13-8.20101E-13
 -1      3078 1.85003E+01-1.76145E+00-6.07823E-04-3.90150E+00-2.84314E-13-5.96308E-13
 -1      3079 2.39506E+01-4.30994E+00-8.88711E-02 2.70059E+00-3.51864E-13-5.38969E-13
 -1      3080 2.22354E+01-4.04948E+00 8.98501E-02 3.82940E+00-5.02980E-13-3.00193E-13
 -1      3081 2.73224E+01 5.61334E+00-1.67425E-01-1.06730E+00-1.18491E-12-3.19054E-13
 -1      3082 2.64885E+01 4.56382E+00-8.21359E-02-1.61172E+00-1.02998E-12-1.92672E-13
 -1      3083 1.76388E+01-6.26724E-01 2.59687E-02 3.70133E+00 4.43666E-13-6.60597E-13
 -1      3084 1.98211E+01-1.12837E+00 6.07668E-02 3.06697E+00 3.50404E-13-5.29909E-13
 -1      3085 2.56715E+01 3.22747E-01-4.88129E-02-2.51197E+00-3.65685E-13 9.30974E-14
 -1      3086 2.55168E+01 1.45470E+00-2.89850E-02-2.46131E+00-5.41178E-13 6.24552E-14
 -1      3087 2.49887E+01 4.09760E+00-8.41719E-02-1.05917E+00-8.86180E-13-3.02331E-13
 -1      3088 2.49387E+01 4.25923E+00-5.42407E-02-4.18208E-02-8.74661E-13-4.89012E-13
 -1      3089 2.53449E+01 4.00748E+00-6.74186E-02 1.12626E+00-7.99319E-13-7.15893E-13
 -1      3090 2.54826E+01 2.90345E+00-1.16873E-01 1.71928E+00-6.48398E-13-7.85306E-13
 -1      3091 2.53683E+01 1.09918E+00-2.39904E-02 2.02222E+00-4.17902E-13-8.68727E-13
 -1      3092 2.53249E+01-1.78291E-01-9.54810E-02 1.88490E+00-2.78664E-13-8.34572E-13
 -1      3093 2.53006E+01-1.80872E+00-3.87376E-03 8.35149E-01 1.96128E-14-7.35200E-13
 -1      3094 2.50344E+01-2.33613E+00 5.10776E-02 3.66679E-01 1.68029E-13-6.99853E-13
 -1      3095 2.40271E+01-2.43464E+00 1.91693E-02-2.62335E-01 2.04974E-13-5.41123E-13
 -1      3096 2.35916E+01-2.40292E+00 7.16483E-02-7.34429E-01 2.33395E-13-4.30796E-13
 -1      3097 2.40464E+01-3.43865E+00-8.34109E-02-1.38417E+00 3.99057E-13-3.71975E-13
 -1      3098 2.27613E+01-2.08917E+00 3.64911E-02-1.00693E+00 1.39923E-13-3.02355E-13
 -1      3099 2.22753E+01-1.83422E+00 5.46566E-02-1.33455E+00 1.32665E-13-2.84526E-13
 -1      3100 2.21303E+01-2.83917E+00-8.95747E-02-2.09924E+00 3.18788E-13-1.53608E-13
 -1      3101 2.17171E+01-1.42885E+00 3.57654E-02-1.36849E+00 1.31684E-13-2.66528E-13
 -1      3102 2.13030E+01-1.13948E+00 3.34381E-02-1.54362E+00 1.24855E-13-2.47562E-13
 -1      3103 2.08468E+01-1.84199E+00-7.00715E-02-2.20988E+00 2.05757E-13-2.22045E-14
 -1      3104 2.09753E+01-7.90696E-01 2.69362E-02-1.46847E+00 1.19321E-13-1.82871E-13
 -1      3105 2.06705E+01-5.47947E-01 1.73219E-02-1.53244E+00 9.81704E-14-1.91645E-13
 -1      3106 2.01089E+01-9.54033E-01-4.41668E-02-2.03289E+00 1.69277E-13 3.24385E-14
 -1      3107 2.05019E+01-2.93537E-01 1.76260E-02-1.41999E+00 9.15719E-14-1.74810E-13
 -1      3108 2.02957E+01-1.20426E-01 6.96165E-03-1.41476E+00 6.09332E-14-1.48866E-13
 -1      3109 1.97349E+01-3.08397E-01-2.47248E-02-1.76468E+00 1.57239E-13-7.98927E-15
 -1      3110 2.02256E+01 4.47493E-02 1.03614E-02-1.29773E+00 1.00203E-14-7.88261E-14
 -1      3111 2.00926E+01 1.53226E-01 1.09631E-03-1.25336E+00 5.17631E-14-9.98785E-14
 -1      3112 1.95817E+01 1.11284E-01-1.18272E-02-1.49151E+00 6.21512E-14 1.16256E-13
 -1      3113 2.00786E+01 2.48343E-01 5.55428E-03-1.14402E+00 2.26774E-14-1.34419E-13
 -1      3114 1.99945E+01 3.06361E-01-1.90351E-03-1.08000E+00-3.33963E-14-8.65856E-14
 -1      3115 1.95519E+01 3.54994E-01-4.19492E-03-1.24365E+00-5.07038E-15 5.00101E-14
 -1      3116 2.00094E+01 3.51628E-01 2.67531E-03-9.82019E-01-1.06390E-13-1.15052E-13
 -1      3117 1.99559E+01 3.74203E-01-3.21221E-03-9.10519E-01-1.01149E-13-1.79577E-13
 -1      3118 1.95853E+01 4.74390E-01-6.25634E-05-1.02708E+00-7.06377E-14 5.35739E-14
 -1      3119 1.99834E+01 3.86555E-01 1.08885E-03-8.24549E-01-5.79735E-14-1.44671E-13
 -1      3120 1.99483E+01 3.86333E-01-3.57216E-03-7.53078E-01-4.51849E-14-1.59845E-13
 -1      3121 1.96462E+01 5.11194E-01 1.90309E-03-8.40302E-01-6.83072E-14 7.95260E-14
 -1      3122 1.99793E+01 3.78564E-01 2.98770E-04-6.78762E-01-1.40734E-14-2.21778E-13
 -1      3123 1.99551E+01 3.65046E-01-3.42813E-03-6.11791E-01 4.42604E-14-2.06369E-13
 -1      3124 1.97144E+01 4.96731E-01 2.62907E-03-6.80297E-01-1.39507E-14 1.16042E-13
 -1      3125 1.99845E+01 3.46206E-01-3.78748E-05-5.48456E-01 7.52151E-14-1.44972E-13
 -1      3126 1.99669E+01 3.26015E-01-3.04326E-03-4.88431E-01 1.07468E-13-1.39558E-13
 -1      3127 1.97793E+01 4.53231E-01 2.69052E-03-5.44218E-01 5.84330E-14 1.66832E-13
 -1      3128 1.99925E+01 3.02178E-01-1.37416E-04-4.35249E-01 6.05256E-14-2.32121E-13
 -1      3129 1.99790E+01 2.79655E-01-2.56912E-03-3.83247E-01 5.09363E-14-2.54155E-13
 -1      3130 1.98360E+01 3.95825E-01 2.42814E-03-4.29622E-01 1.57368E-14 9.09870E-14
 -1      3131 2.00000E+01 2.54685E-01-1.26483E-04-3.39280E-01 4.25674E-14-2.44335E-13
 -1      3132 1.99893E+01 2.32492E-01-2.08990E-03-2.95465E-01 1.94132E-14-2.19577E-13
 -1      3133 1.98827E+01 3.34350E-01 2.03730E-03-3.34288E-01-2.15966E-14-1.20375E-13
 -1      3134 2.00059E+01 2.08686E-01-7.44617E-05-2.59693E-01 3.01506E-14-2.90381E-13
 -1      3135 1.99972E+01 1.88317E-01-1.64936E-03-2.23653E-01 2.91107E-14-2.61340E-13
 -1      3136 1.99196E+01 2.74834E-01 1.62468E-03-2.56071E-01 9.53649E-15-1.12180E-13
 -1      3137 2.00098E+01 1.66906E-01-1.63300E-05-1.95020E-01 4.24561E-14-3.18814E-13
 -1      3138 2.00027E+01 1.49078E-01-1.26714E-03-1.66009E-01 3.00917E-14-2.85097E-13
 -1      3139 1.99478E+01 2.20651E-01 1.24402E-03-1.92849E-01 3.42727E-14-2.87948E-13
 -1      3140 2.00119E+01 1.30594E-01 3.25208E-05-1.43466E-01-2.73985E-14-3.26318E-13
 -1      3141 2.00061E+01 1.15527E-01-9.48735E-04-1.20578E-01 7.90920E-14-3.26897E-13
 -1      3142 1.99686E+01 1.73389E-01 9.18301E-04-1.42538E-01 4.21372E-14-2.22594E-13
 -1      3143 2.00127E+01 1.00064E-01 6.71841E-05-1.03130E-01 1.56069E-13-3.51163E-13
 -1      3144 2.00080E+01 8.76836E-02-6.91822E-04-8.54225E-02 1.82920E-13-3.74027E-13
 -1      3145 1.99833E+01 1.33488E-01 6.53325E-04-1.03143E-01 1.20880E-13-1.83910E-13
 -1      3146 2.00124E+01 7.50800E-02 8.78945E-05-7.21530E-02 1.83696E-13-3.67406E-13
 -1      3147 2.00087E+01 6.51475E-02-4.90061E-04-5.87197E-02 1.47210E-13-3.69963E-13
 -1      3148 1.99935E+01 1.00689E-01 4.45985E-04-7.28072E-02 1.61633E-13-2.60595E-13
 -1      3149 2.00115E+01 5.51044E-02 9.70405E-05-4.88164E-02 5.74436E-14-3.48725E-13
 -1      3150 2.00086E+01 4.73067E-02-3.35480E-04-3.88315E-02-5.72218E-14-3.67414E-13
 -1      3151 2.00000E+01 7.43434E-02 2.89072E-04-4.98573E-02 1.27090E-13-4.95036E-13
 -1      3152 2.00103E+01 3.94695E-02 9.75916E-05-3.15912E-02-9.25564E-14-3.13478E-13
 -1      3153 2.00080E+01 3.34725E-02-2.19863E-04-2.43325E-02-1.41187E-13-2.13692E-13
 -1      3154 2.00041E+01 5.36229E-02 1.74028E-04-3.28220E-02-7.51425E-15-4.78087E-13
 -1      3155 2.00089E+01 2.74792E-02 9.23425E-05-1.91615E-02-1.88918E-13-1.80304E-13
 -1      3156 2.00071E+01 2.29607E-02-1.35520E-04-1.40161E-02-1.45659E-13-1.97830E-13
 -1      3157 2.00062E+01 3.76511E-02 9.24282E-05-2.04408E-02-1.72239E-13-2.94437E-13
 -1      3158 2.00074E+01 1.84704E-02 8.36076E-05-1.04243E-02-7.96305E-14-3.32994E-13
 -1      3159 2.00061E+01 1.51383E-02-7.56607E-05-6.88538E-03-1.77304E-15-4.09893E-13
 -1      3160 2.00071E+01 2.55850E-02 3.67031E-05-1.16576E-02-1.26070E-13-4.75241E-13
 -1      3161 2.00061E+01 1.18465E-02 7.31507E-05-4.47570E-03 4.52491E-14-5.10024E-13
 -1      3162 2.00051E+01 9.44655E-03-3.45326E-05-2.13350E-03 4.45437E-14-5.21120E-13
 -1      3163 2.00072E+01 1.66590E-02 4.28564E-07-5.60608E-03-3.95191E-14-4.15030E-13
 -1      3164 2.00049E+01 7.09120E-03 6.22259E-05-5.90780E-04 2.95250E-14-4.62565E-13
 -1      3165 2.00042E+01 5.40914E-03-7.41342E-06 8.79358E-04 2.66058E-16-4.27625E-13
 -1      3166 2.00068E+01 1.02060E-02-2.16332E-05-1.58872E-03 9.57960E-14-3.25028E-13
 -1      3167 2.00038E+01 3.77104E-03 5.16632E-05 1.80092E-03-5.38726E-14-3.69181E-13
 -1      3168 2.00033E+01 2.63087E-03 9.47152E-06 2.65117E-03-5.03188E-14-3.44575E-13
 -1      3169 2.00061E+01 5.66235E-03-3.36183E-05 9.45482E-04 8.75390E-14-1.52371E-13
 -1      3170 2.00029E+01 1.53111E-03 4.19638E-05 3.13971E-03-1.15195E-13-2.26518E-13
 -1      3171 2.00026E+01 7.91391E-04 1.90693E-05 3.56215E-03-3.38317E-14-3.42297E-13
 -1      3172 2.00052E+01 2.56400E-03-3.87040E-05 2.42403E-03-6.85380E-15-1.33741E-13
 -1      3173 2.00022E+01 8.69455E-05 3.33874E-05 3.75892E-03 1.11334E-13-2.84958E-13
 -1      3174 2.00019E+01-3.63827E-04 2.36298E-05 3.89691E-03 1.43657E-13-1.49885E-13
 -1      3175 2.00044E+01 5.36894E-04-3.92683E-05 3.17245E-03 1.42011E-13-5.99864E-14
 -1      3176 2.00016E+01-7.85189E-04 2.60268E-05 3.90569E-03 2.20122E-13-1.74863E-13
 -1      3177 2.00014E+01-1.03338E-03 2.48330E-05 3.86383E-03 2.90702E-13-3.57979E-14
 -1      3178 2.00035E+01-7.14575E-04-3.70459E-05 3.43378E-03 3.26860E-13-2.22677E-14
 -1      3179 2.00011E+01-1.25829E-03 1.98674E-05 3.75907E-03 3.43229E-13-1.53566E-13
 -1      3180 2.00010E+01-1.36976E-03 2.39044E-05 3.61168E-03 3.99653E-13-7.02350E-14
 -1      3181 2.00028E+01-1.42003E-03-3.32695E-05 3.38554E-03 3.30386E-13-7.30944E-14
 -1      3182 2.00007E+01-1.46411E-03 1.48323E-05 3.44518E-03 3.32654E-13-7.80783E-14
 -1      3183 2.00007E+01-1.48844E-03 2.17174E-05 3.24329E-03 2.38126E-13-5.44707E-15
 -1      3184 2.00021E+01-1.75509E-03-2.87875E-05 3.15413E-03 3.59784E-13-2.69962E-13
 -1      3185 2.00004E+01-1.50177E-03 1.08126E-05 3.04964E-03 7.42961E-14 1.58877E-13
 -1      3186 2.00004E+01-1.47588E-03 1.88966E-05 2.82669E-03 7.72821E-15 2.02028E-13
 -1      3187 2.00016E+01-1.85222E-03-2.41489E-05 2.82659E-03 2.84047E-13-1.68541E-13
 -1      3188 2.00002E+01-1.44538E-03 7.52057E-06 2.62765E-03-5.89190E-14 4.71033E-13
 -1      3189 2.00002E+01-1.39714E-03 1.51657E-05 2.40466E-03 8.28594E-14 4.19755E-13
 -1      3190 2.00011E+01-1.81001E-03-1.96499E-05 2.46014E-03 1.70623E-13 2.47754E-14
 -1      3191 2.00000E+01-1.35028E-03 4.40355E-06 2.20986E-03 8.30957E-14 4.53193E-13
 -1      3192 2.00000E+01-1.30455E-03 5.60537E-06 1.99701E-03 7.73472E-14 5.08802E-13
 -1      3193 2.00007E+01-1.70526E-03-1.58034E-05 2.09074E-03 1.26459E-13 4.90124E-13
 -1      3194 9.84368E+00 2.49198E+00 1.14777E-01-2.00263E+00-1.91375E-14-1.30421E-12
 -1      3195 8.62631E+00 2.85541E+00 6.55474E-02-8.31233E-01 1.03357E-13-1.36410E-12
 -1      3196 2.62267E+01 5.31732E+00-9.05252E-02-4.17731E-01-1.06638E-12-4.17878E-13
 -1      3197 2.68801E+01 9.26348E-01-1.03821E-01-2.25907E+00 5.40609E-13-6.69735E-13
 -1      3198 2.29825E+01-1.92903E+00 3.62639E-02 1.29570E+00-1.91337E-13-5.05714E-13
 -1      3199 2.34608E+01-2.34369E+00-1.22484E-02 9.61198E-01-2.02626E-13-4.86170E-13
 -1      3200 2.18755E+01-1.11728E+00 2.20592E-02 1.65979E+00-1.73314E-13-2.72570E-13
 -1      3201 2.22952E+01-1.53039E+00-4.50145E-03 1.48797E+00-1.54463E-13-3.83514E-13
 -1      3202 2.20455E+01-2.00569E+00-4.03284E-02 1.90869E+00-2.50870E-13-3.60601E-13
 -1      3203 2.11688E+01-4.54645E-01 1.19079E-02 1.71712E+00-1.24366E-13-1.78111E-13
 -1      3204 2.14687E+01-7.64838E-01 2.09559E-03 1.67119E+00-1.41217E-13-2.14403E-13
 -1      3205 2.10519E+01-1.04895E+00-2.68183E-02 2.00110E+00-1.99010E-13-2.37277E-13
 -1      3206 2.07500E+01-1.17825E-02 5.46987E-03 1.62011E+00-4.66661E-14-1.91099E-13
 -1      3207 2.09517E+01-2.09095E-01 3.75616E-03 1.64930E+00-6.25934E-14-1.41405E-13
 -1      3208 2.04994E+01-3.42307E-01-1.54312E-02 1.88515E+00-8.52479E-14-1.69856E-13
 -1      3209 2.05107E+01 2.42354E-01 1.71678E-03 1.45102E+00-1.93740E-14-2.06465E-13
 -1      3210 2.06467E+01 1.34893E-01 3.87535E-03 1.52029E+00-3.50925E-14-2.13841E-13
 -1      3211 2.02209E+01 1.04982E-01-7.76214E-03 1.68663E+00-7.66870E-15-1.18487E-13
 -1      3212 2.03732E+01 3.62081E-01-2.70808E-04 1.25516E+00-6.19192E-14-2.34277E-13
 -1      3213 2.04688E+01 3.15950E-01 3.52969E-03 1.34228E+00-4.80468E-14-2.22874E-13
 -1      3214 2.00972E+01 3.48977E-01-3.30233E-03 1.46365E+00-2.66249E-14-1.86476E-13
 -1      3215 2.02897E+01 3.96610E-01-1.20495E-03 1.05744E+00 1.03746E-14-1.91428E-13
 -1      3216 2.03610E+01 3.88122E-01 3.15435E-03 1.14873E+00-2.33946E-14-2.07642E-13
 -1      3217 2.00518E+01 4.54624E-01-1.02192E-03 1.24247E+00-3.46057E-14-2.17307E-13
 -1      3218 2.02335E+01 3.82354E-01-1.53525E-03 8.71471E-01-2.98961E-15-1.68871E-13
 -1      3219 2.02899E+01 3.94720E-01 2.83826E-03 9.58866E-01-4.94396E-17-2.05305E-13
 -1      3220 2.00413E+01 4.75070E-01-1.56426E-05 1.03518E+00 4.50464E-15-1.91316E-13
 -1      3221 2.01913E+01 3.43458E-01-1.54637E-03 7.04333E-01 7.81887E-15 4.76319E-14
 -1      3222 2.02375E+01 3.65824E-01 2.56139E-03 7.83448E-01-1.06819E-14-4.55644E-14
 -1      3223 2.00430E+01 4.47883E-01 3.28025E-04 8.47659E-01-8.98860E-14-1.04149E-13
 -1      3224 2.01568E+01 2.94809E-01-1.40394E-03 5.59059E-01 1.16830E-13-6.44871E-15
 -1      3225 2.01952E+01 3.20614E-01 2.29174E-03 6.27926E-01 1.27684E-13 7.56062E-14
 -1      3226 2.00467E+01 3.97469E-01 3.59677E-04 6.82613E-01 6.51936E-14 5.99396E-14
 -1      3227 2.01274E+01 2.44988E-01-1.20150E-03 4.36118E-01 3.85197E-14-7.67107E-14
 -1      3228 2.01593E+01 2.70527E-01 2.01807E-03 4.94299E-01 6.77004E-14-4.98713E-14
 -1      3229 2.00484E+01 3.38736E-01 2.70053E-04 5.40759E-01 1.46807E-13 1.39373E-13
 -1      3230 2.01020E+01 1.98539E-01-9.89244E-04 3.34398E-01-2.34225E-13 1.57849E-14
 -1      3231 2.01283E+01 2.21908E-01 1.74334E-03 3.82369E-01-5.93350E-14-7.27322E-14
 -1      3232 2.00474E+01 2.80216E-01 1.53767E-04 4.21414E-01-4.14607E-14 1.01232E-13
 -1      3233 2.00804E+01 1.57556E-01-7.91934E-04 2.51896E-01-1.27337E-13-5.54061E-14
 -1      3234 2.01017E+01 1.77933E-01 1.47630E-03 2.90632E-01-1.81010E-13 7.53439E-15
 -1      3235 2.00441E+01 2.26382E-01 5.15983E-05 3.22956E-01-1.85478E-13-3.17278E-14
 -1      3236 2.00622E+01 1.22707E-01-6.19992E-04 1.86195E-01-2.47525E-14-1.18972E-13
 -1      3237 2.00793E+01 1.39890E-01 1.22604E-03 2.16890E-01-6.31856E-14-1.06650E-13
 -1      3238 2.00394E+01 1.79229E-01-2.34755E-05 2.43205E-01-1.12315E-13-4.63321E-14
 -1      3239 2.00471E+01 9.38732E-02-4.76101E-04 1.34777E-01-4.12360E-14-1.35009E-13
 -1      3240 2.00606E+01 1.08000E-01 9.99347E-04 1.58672E-01-6.73170E-14-1.32917E-13
 -1      3241 2.00339E+01 1.39309E-01-7.13898E-05 1.79727E-01-2.11907E-14-1.17472E-13
 -1      3242 2.00350E+01 7.05351E-02-3.59048E-04 9.52246E-02 9.55639E-14-2.48452E-13
 -1      3243 2.00454E+01 8.19080E-02 8.00089E-04 1.13503E-01 5.77044E-14-1.59669E-13
 -1      3244 2.00284E+01 1.06376E-01-9.70620E-05 1.30055E-01-1.90081E-14-1.85620E-13
 -1      3245 2.00254E+01 5.20023E-02-2.65880E-04 6.53299E-02-5.49393E-14-1.45233E-13
 -1      3246 2.00333E+01 6.09903E-02 6.29482E-04 7.90628E-02 1.64401E-14-2.22330E-13
 -1      3247 2.00231E+01 7.97775E-02-1.06506E-04 9.18456E-02 4.47915E-14-1.59716E-13
 -1      3248 2.00179E+01 3.75419E-02-1.93072E-04 4.31525E-02 1.17565E-13-8.47428E-14
 -1      3249 2.00238E+01 4.45229E-02 4.86739E-04 5.32745E-02-4.40793E-15-1.87762E-13
 -1      3250 2.00184E+01 5.86942E-02-1.05154E-04 6.29665E-02-2.45817E-15-9.18818E-14
 -1      3251 2.00123E+01 2.64508E-02-1.37116E-04 2.70344E-02 1.46355E-13-2.75535E-15
 -1      3252 2.00165E+01 3.17807E-02 3.69759E-04 3.43378E-02 2.27565E-13-1.05771E-14
 -1      3253 2.00144E+01 4.22715E-02-9.73031E-05 4.15446E-02 1.28671E-13-4.84251E-14
 -1      3254 2.00080E+01 1.80914E-02-9.48121E-05 1.55926E-02 2.63335E-14-6.68382E-14
 -1      3255 2.00111E+01 2.20892E-02 2.75700E-04 2.07333E-02 4.91326E-14 2.44301E-14
 -1      3256 2.00110E+01 2.96969E-02-8.60801E-05 2.59795E-02 1.72197E-13 1.14378E-13
 -1      3257 2.00050E+01 1.19074E-02-6.33676E-05 7.69660E-03-2.78941E-13 2.50067E-14
 -1      3258 2.00071E+01 1.48493E-02 2.01424E-04 1.12074E-02-8.54738E-14-9.32958E-15
 -1      3259 2.00082E+01 2.02368E-02-7.36138E-05 1.49349E-02-4.20370E-14 1.99679E-13
 -1      3260 2.00028E+01 7.42635E-03-4.04252E-05 2.43975E-03-7.90895E-14-2.08106E-13
 -1      3261 2.00042E+01 9.54529E-03 1.43791E-04 4.74520E-03-1.74945E-13-9.68371E-14
 -1      3262 2.00060E+01 1.32529E-02-6.12597E-05 7.31817E-03-7.47157E-14 1.57665E-13
 -1      3263 2.00013E+01 4.25636E-03-2.40385E-05-8.92464E-04-8.07974E-15-1.65272E-13
 -1      3264 2.00021E+01 5.74461E-03 9.98571E-05 5.40268E-04-1.09364E-13-2.87460E-13
 -1      3265 2.00042E+01 8.20441E-03-4.98105E-05 2.25233E-03-2.63994E-14-1.52375E-13
 -1      3266 2.00003E+01 2.07835E-03-1.26300E-05-2.85343E-03 2.04368E-14-6.55231E-14
 -1      3267 2.00008E+01 3.09167E-03 6.69798E-05-2.03733E-03 3.63381E-14-1.14193E-13
 -1      3268 2.00029E+01 4.64337E-03-3.96692E-05-9.53822E-04-5.45047E-14-2.13056E-13
 -1      3269 1.99996E+01 6.37076E-04-4.94210E-06-3.86423E-03 5.39303E-14-8.09958E-14
 -1      3270 1.99999E+01 1.29953E-03 4.28636E-05-3.47108E-03 8.92348E-14-4.80953E-14
 -1      3271 2.00019E+01 2.20563E-03-3.09820E-05-2.83568E-03 8.74523E-14 4.26512E-14
 -1      3272 1.99993E+01-2.68345E-04 1.12499E-08-4.23933E-03-1.01844E-13 1.30722E-13
 -1      3273 1.99994E+01 1.40470E-04 2.55697E-05-4.12543E-03 4.31186E-15 6.71034E-14
 -1      3274 2.00012E+01 6.00369E-04-2.37348E-05-3.80061E-03-2.09510E-14 1.44577E-14
 -1      3275 1.99991E+01-7.93637E-04 2.99071E-06-4.20867E-03-2.61402E-13 1.69632E-13
 -1      3276 1.99991E+01-5.63389E-04 1.34980E-05-4.26972E-03-8.22256E-14 1.95420E-13
 -1      3277 2.00006E+01-4.01039E-04-1.78218E-05-4.15266E-03-1.19801E-13 3.48279E-13
 -1      3278 1.99990E+01-1.05781E-03 4.57114E-06-3.93631E-03-2.58704E-13-3.78429E-14
 -1      3279 1.99989E+01-9.48970E-04 5.35558E-06-4.09858E-03-3.04067E-13-1.91411E-14
 -1      3280 2.00003E+01-9.75573E-04-1.30927E-05-4.11407E-03-1.57334E-13 2.98101E-13
 -1      3281 1.99991E+01-1.15066E-03 5.17910E-06-3.53567E-03-2.33671E-13-2.74265E-13
 -1      3282 1.99989E+01-1.12025E-03 1.16216E-07-3.74879E-03-2.70050E-13-1.90056E-13
 -1      3283 2.00000E+01-1.25834E-03-9.38706E-06-3.84320E-03-1.88356E-13-6.50916E-14
 -1      3284 1.99991E+01-1.13938E-03 5.13819E-06-3.08186E-03 5.23143E-15-2.46124E-13
 -1      3285 1.99990E+01-1.15529E-03-3.01765E-06-3.31309E-03-1.55720E-13-3.24997E-13
 -1      3286 1.99998E+01-1.35120E-03-6.54215E-06-3.44939E-03-1.12839E-13-2.23090E-13
 -1      3287 1.99992E+01-1.07432E-03 4.24918E-06-2.62135E-03 4.12946E-14-7.62346E-14
 -1      3288 1.99991E+01-1.11265E-03-4.70830E-06-2.85089E-03 8.95717E-14-1.17148E-13
 -1      3289 1.99997E+01-1.33025E-03-4.34584E-06-3.00486E-03-6.55254E-14-2.01187E-13
 -1      3290 1.99993E+01-9.96759E-04-4.87411E-07-2.18192E-03 1.25405E-13 1.04645E-13
 -1      3291 1.99992E+01-1.03538E-03-6.28726E-06-2.39551E-03 6.68607E-14-1.01797E-13
 -1      3292 1.99997E+01-1.25038E-03-1.09944E-06-2.55470E-03 7.78753E-14 8.64036E-14
 -1      3293 2.67520E+01 2.32211E+00-1.01515E-01-2.51327E+00-7.48790E-13 8.04079E-14
 -1      3294 2.72755E+01 6.40118E-01-2.47266E-02-2.39516E+00-5.09391E-13 1.79981E-13
 -1      3295 1.99998E+01-1.17938E-03-4.95462E-06-1.44833E-03 1.89531E-13 2.89669E-13
 -1      3296 2.00009E+01-1.99165E-03 2.96742E-07 6.56491E-04 3.01471E-13-1.25505E-13
 -1      3297 2.00010E+01-2.03900E-03 4.90842E-06 4.18475E-04 3.98803E-13-4.77451E-13
 -1      3298 2.00010E+01-2.06942E-03 2.81311E-06 1.31224E-04 3.42379E-13-6.34935E-13
 -1      3299 2.00010E+01-2.07032E-03 2.59737E-06-1.25663E-04 2.16279E-13-3.80592E-13
 -1      3300 2.00012E+01-2.11299E-03-5.19928E-06 2.96684E-04 3.64732E-13-5.10135E-13
 -1      3301 2.54869E+01-2.84667E+00 7.70224E-02-5.21601E-01-9.27904E-14 1.50088E-13
 -1      3302 2.65138E+01-2.46074E+00-1.02585E-01 7.38555E-01 9.37809E-14 2.77456E-13
 -1      3303 2.70647E+01-7.80631E-01-9.81643E-02-1.53598E+00-3.69069E-13 1.57138E-13
 -1      3304 2.65419E+01-2.00174E+00 2.32492E-02-3.77048E-01-1.06351E-13 9.47784E-14
 -1      3305 2.65097E+01-5.32144E-01-5.89458E-02-1.82269E+00-3.20653E-13 1.26878E-13
 -1      3306 2.00007E+01-1.81197E-03-2.80137E-06 1.11243E-03 2.74126E-13 3.39534E-13
 -1      3307 2.00008E+01-1.90288E-03 6.72085E-06 9.12981E-04 2.39054E-13 2.08883E-14
 -1      3308 2.00011E+01-2.00346E-03-5.05076E-06 8.57002E-04 3.21317E-13-2.05952E-13
 -1      3309 2.65819E+01-2.84466E+00-7.52053E-02-3.75156E-01-6.32133E-15-7.11903E-13
 -1      3310 2.57773E+01-3.65241E+00 6.95216E-02 1.09377E+00-1.92957E-13-6.82801E-13
 -1      3311 2.36058E+01-7.76829E-01-2.87560E-02-8.26188E-01-1.36794E-13-2.13923E-13
 -1      3312 2.40201E+01-8.76674E-01 1.85629E-02-1.08285E+00-1.37270E-13-1.09960E-13
 -1      3313 2.43674E+01-1.09541E+00-1.97376E-02-1.30852E+00-1.61557E-13-7.00681E-14
 -1      3314 2.30010E+01-7.64547E-01 2.80362E-02-7.77957E-02 1.41553E-15-2.91584E-13
 -1      3315 2.49204E+01-2.64357E+00 1.76959E-02 1.46734E-01-1.58904E-13-6.14734E-13
 -1      3316 2.54286E+01-2.51529E+00-1.58315E-02-4.61716E-01-7.85275E-14-6.62250E-13
 -1      3317 2.63291E+01-2.18882E+00-3.34240E-02-1.01643E+00-1.01317E-14-6.68871E-13
 -1      3318 2.67232E+01-1.23486E+00-2.13647E-02-1.63562E+00 1.56118E-13-7.41549E-13
 -1      3319 1.16880E+01-8.83661E-01 1.30885E-01-4.28641E+00 4.88269E-13 5.25066E-13
 -1      3320 1.36286E+01-1.94328E+00 3.11883E-02-5.29100E+00 6.25486E-13 4.72844E-13
 -1      3321 2.15660E+01-4.14026E+00 1.17306E-01-4.44189E+00 7.23088E-13-3.75498E-14
 -1      3322 2.34293E+01-4.43680E+00-8.56504E-02-3.34604E+00 5.89057E-13-2.15401E-13
 -1      3323 2.71489E+01-1.48706E+00 1.04045E-02 1.89076E+00 1.96440E-13 3.93074E-13
 -1      3324 2.51332E+01-1.06121E+00 8.97222E-03-1.77562E+00-2.05725E-13 6.62994E-14
 -1      3325 2.52326E+01-6.28827E-01-3.15955E-02-2.05117E+00-2.53830E-13 5.47548E-14
 -1      3326 2.60063E+01-3.94592E-01-3.31122E-02-2.10027E+00-3.23391E-13 1.44461E-13
 -1      3327 2.46869E+01-1.30610E+00-1.74423E-02-1.13014E+00-1.32320E-13-4.61736E-14
 -1      3328 1.87512E+01-1.87887E-01 7.37995E-02-2.57114E+00-1.53065E-13-5.56767E-13
 -1      3329 1.65055E+01 4.02153E-01 2.49944E-02-2.96171E+00-2.06751E-13-7.19862E-13
 -1      3330 1.01346E+01 1.14526E+00 1.43108E-01 4.12846E+00 4.29837E-13-1.23067E-12
 -1      3331 8.93725E+00 2.21592E+00 1.40868E-01 2.59789E+00 3.49540E-13-1.31291E-12
 -1      3332 9.76481E+00 7.51398E-01 1.53928E-01-3.82643E+00-1.29896E-13-1.38034E-12
 -1      3333 1.21826E+01 5.25642E-01 1.14957E-01-3.92473E+00-2.32397E-13-1.18625E-12
 -1      3334 2.13058E+01-2.56594E+00 8.13869E-02-3.08936E+00-2.96409E-13-3.43827E-13
 -1      3335 2.35598E+01-3.16082E+00-8.13252E-02-1.96217E+00-1.81216E-13-7.73860E-14
 -1      3336 2.44844E+01-2.54009E+00 3.31270E-02-7.39780E-01-9.64593E-14 4.31842E-14
 -1      3337 2.04275E+01-1.65889E+00 5.55269E-02-2.75449E+00-2.61985E-13-3.98275E-13
 -1      3338 9.23426E+00-1.33085E-01 8.96950E-02 2.41779E+00-2.80300E-13 6.17117E-13
 -1      3339 7.86153E+00 1.24388E-01 1.45838E-01 5.22148E-01-1.08728E-13 6.82149E-13
 -1      3340 2.02990E+01-3.91212E+00-1.67734E-02 4.64343E+00-5.07337E-13-8.55045E-14
 -1      3341 1.80459E+01-3.14961E+00 5.86648E-02 5.02560E+00-5.23595E-13 3.61863E-14
 -1      3342 2.13647E+01-3.55046E+00 1.87822E-02 3.75340E+00-4.38365E-13-2.42011E-13
 -1      3343 8.57527E+00 3.06925E+00 1.12719E-01 1.09796E+00 2.42459E-13-1.35099E-12
 -1      3344 2.53096E+01-2.58657E+00-6.76074E-02 6.79064E-01 2.87721E-14-1.07726E-14
 -1      3345 2.40390E+01-2.74740E+00 1.85229E-02 1.73365E+00 1.87506E-13-1.07388E-13
 -1      3346 9.36376E+00 1.73831E+00 1.41025E-01-2.81344E+00-4.19595E-14-1.37926E-12
 -1      3347 8.35249E+00 1.57268E-01 1.36464E-01-1.22723E+00 1.01510E-13 5.65242E-13
 -1      3348 9.81245E+00-2.49054E-01 5.92532E-02-3.13902E+00 3.21153E-13 4.78256E-13
 -1      3349 9.96322E+00 5.09321E-01 1.50070E-01-5.56837E-01 1.18690E-13 4.56329E-13
 -1      3350 2.44842E+01-1.45787E+00 2.82753E-02 4.24532E-01 9.51017E-14 1.07524E-13
 -1      3351 2.33981E+01-1.22364E+00 6.54405E-03-1.71769E-01 6.62927E-14-4.05544E-14
 -1      3352 2.36463E+01-1.93688E+00 8.50381E-03-6.34384E-01-3.77181E-14-2.95666E-14
 -1      3353 2.49970E+01-1.88070E+00-2.68885E-02 7.07878E-01 9.55628E-14 1.73949E-13
 -1      3354 1.60595E+01-2.75958E+00 1.29669E-01-5.54095E+00 7.40318E-13 3.09995E-13
 -1      3355 1.87471E+01-3.83384E+00-3.89674E-02-5.36985E+00 7.53370E-13 1.27613E-13
 -1      3356 1.58479E+01-1.95834E+00 1.05703E-01-4.85193E+00 6.29372E-13 2.86993E-13
 -1      3357 1.68184E+01-2.42630E+00 7.40255E-02 4.96376E+00-4.51673E-13 1.33692E-13
 -1      3358 1.54980E+01-1.55530E+00 4.03259E-02 4.45866E+00-3.70141E-13 1.70343E-13
 -1      3359 1.85439E+01-2.41755E+00 6.06054E-02 4.26125E+00-4.06456E-13 3.45210E-15
 -1      3360 2.40032E+01-3.80686E+00 1.01546E-03-2.25443E+00 4.69690E-13-2.90701E-13
 -1      3361 2.03004E+01-3.53436E+00 5.66308E-02-4.41676E+00 6.68764E-13 4.76043E-14
 -1      3362 9.43742E+00 2.66147E+00 8.68993E-02 2.26731E+00 3.45526E-13-1.24978E-12
 -1      3363 2.51681E+01 3.38559E+00-6.87795E-02-1.81752E+00-8.20059E-13-1.37459E-13
 -1      3364 2.57480E+01 2.71216E+00-1.18585E-01-2.35694E+00-7.45001E-13-2.37033E-14
 -1      3365 2.14722E+01-2.08887E+00 1.24398E-02 2.71662E+00 3.06121E-13-3.23403E-13
 -1      3366 2.08111E+01-8.71822E-01 4.06804E-02 1.94498E+00 2.77319E-13-4.24931E-13
 -1      3367 2.20386E+01-1.07821E+00-5.26029E-03 1.11349E+00 1.29646E-13-3.44533E-13
 -1      3368 2.28905E+01-2.54306E+00-1.31153E-03 2.29436E+00 2.24876E-13-2.23846E-13
 -1      3369 2.51953E+01 4.28585E+00-1.33570E-01 4.99914E-01-8.64600E-13-5.92815E-13
 -1      3370 2.66355E+01 2.40052E+00-8.92288E-02 1.91720E+00-6.17770E-13-8.97865E-13
 -1      3371 2.34789E+01-2.07862E+00 2.43528E-02 1.13328E+00 1.94307E-13-1.35040E-13
 -1      3372 1.99997E+01-1.13483E-03 8.43810E-06 1.91904E-03 4.11084E-14 4.68910E-13
 -1      3373 1.99997E+01-1.12111E-03-2.90008E-06 1.71188E-03 1.73010E-13 2.36647E-13
 -1      3374 2.41547E+01-2.96007E+00-2.23982E-02 1.03804E+00-2.17420E-13-5.68545E-13
 -1      3375 1.99994E+01-1.01970E-03-9.00748E-06-2.02290E-03 7.94478E-14 1.04681E-13
 -1      3376 1.99998E+01-1.21261E-03 5.71853E-06-2.16022E-03 5.01138E-14 2.38178E-13
 -1      3377 1.99995E+01-1.04690E-03-8.42696E-06-1.88308E-03 8.44856E-15 4.05394E-13
 -1      3378 1.99998E+01-1.16237E-03-4.62431E-06-1.59626E-03 7.09534E-15 4.56926E-13
 -1      3379 1.99997E+01-1.13911E-03-7.60842E-06-1.74327E-03-1.55806E-14 4.00406E-13
 -1      3380 2.00001E+01-1.39860E-03 1.05322E-05-1.52807E-03 2.30145E-13 1.59470E-13
 -1      3381 2.45070E+01-3.68054E+00-1.60771E-02 1.62342E+00-2.58890E-13-5.60968E-13
 -1      3382 2.00005E+01-1.70131E-03 7.25183E-06-1.25530E-03 5.82607E-14-1.11431E-14
 -1      3383 2.00003E+01-1.57567E-03-2.59547E-06-1.38451E-03 9.49058E-14-1.30575E-13
 -1      3384 2.00004E+01-1.56654E-03-3.58424E-06-1.55055E-03 1.17828E-13-1.18287E-13
 -1      3385 2.00012E+01-2.11337E-03-5.10502E-06-2.95982E-04 8.29765E-14-2.91681E-13
 -1      3386 2.00010E+01-2.03972E-03 4.84736E-06-4.13150E-04 2.58012E-14-4.88816E-13
 -1      3387 2.00009E+01-1.99185E-03 6.83674E-07-6.55353E-04-4.85007E-14-4.64590E-13
 -1      3388 1.10089E+01-2.36004E-01 1.59802E-01 3.29179E+00-3.61242E-13 5.09856E-13
 -1      3389 1.06192E+01 2.71930E-01 3.33735E-02 2.06596E+00-1.38783E-13 4.46657E-13
 -1      3390 1.28627E+01-5.68800E-01 7.61685E-02 3.70670E+00-3.84462E-13 3.56687E-13
 -1      3391 2.55593E+01-2.06331E+00 1.40313E-02-1.99595E-01-1.17185E-14 2.92821E-14
 -1      3392 1.47031E+01 4.53497E-01 8.01872E-02-3.67459E+00-2.00520E-13-9.43030E-13
 -1      3393 1.99997E+01-1.09824E-03-4.48401E-06 1.58261E-03 1.94840E-13 2.53922E-13
 -1      3394 2.00001E+01-1.34617E-03 9.69525E-06 1.57794E-03 2.72513E-13 6.52408E-13
 -1      3395 1.71102E+01-1.62410E+00 1.67555E-02 4.75155E+00 4.52291E-13-7.07316E-13
 -1      3396 2.00003E+01-1.54176E-03-6.61985E-06 1.43983E-03 3.18380E-13 7.80288E-13
 -1      3397 2.00005E+01-1.66846E-03 9.61616E-06 1.30748E-03 1.80751E-13 5.87198E-13
 -1      3398 1.18332E+01 8.09635E-01 5.64343E-02 4.21129E+00 4.81948E-13-1.09801E-12
 -1      3399 2.00008E+01-1.91327E-03 6.29404E-06-8.78953E-04 8.36266E-15-1.86219E-13
 -1      3400 2.00007E+01-1.82154E-03-4.49853E-07-1.07849E-03 4.30426E-14 4.75335E-14
 -1      3401 2.00008E+01-1.83244E-03-5.09844E-06-1.23059E-03 6.80695E-15-3.69022E-14
 -1      3402 2.00011E+01-2.01225E-03-5.06289E-06-8.20817E-04 1.67270E-15-4.32897E-13
 -1      3403 2.71093E+01-1.96462E-01-9.24750E-02-2.14242E+00 3.65846E-13-6.84168E-13
 -1      3404 1.20973E+01-2.69345E-01 1.24729E-01-3.40758E+00 3.55216E-13 4.11976E-13
 -1      3405 2.62036E+01-1.83588E+00-1.50544E-02 1.47683E+00 1.24589E-13 2.92214E-13
 -1      3406 2.69530E+01-1.71166E+00 2.14952E-02 8.24457E-01-5.74124E-14-8.15029E-13
 -1      3407 2.68703E+01-1.74820E-01-1.21464E-01 1.73196E+00-3.28987E-13-9.63403E-13
 -1      3408 2.56979E+01-1.98419E+00 3.59205E-02 9.83253E-01 6.30500E-14 2.57845E-13
 -1      3409 1.30472E+01 1.54118E+00 6.95527E-02-2.99753E+00-1.38934E-13-1.03439E-12
 -1      3410 2.00007E+01-1.79034E-03-4.26436E-06 1.32349E-03 2.80244E-13 3.98487E-13
 -1      3411 2.50810E+01-2.30427E+00-4.85567E-02 2.95524E-01 2.30042E-14 1.73653E-13
 -1      3412 2.00002E+01-1.48629E-03-6.56883E-06 1.66964E-03 1.18571E-13 6.96157E-13
 -1      3413 1.46576E+01 6.14382E-01 1.52881E-01 4.12786E+00 5.01012E-13-9.35828E-13
 -1      3414 2.03323E+01-1.37471E+00 9.18362E-03-2.45758E+00-1.90143E-13-3.88176E-13
 -1      3415 1.21564E+01 4.00149E-01 1.05393E-01-2.43820E+00 2.23642E-13 2.57024E-13
 -1      3416 1.34570E+01-4.38136E-01-1.35447E-02-3.61691E+00 3.85119E-13 2.86902E-13
 -1      3417 2.32804E+01-1.46936E+00 1.38455E-03 3.90700E-01 5.93163E-14-2.10913E-13
 -1      3418 2.00002E+01-1.47354E-03-1.13132E-05 1.85435E-03 7.37095E-14 6.73969E-13
 -1      3419 2.18010E+01-2.96320E+00 1.99870E-02-2.78032E+00 4.53774E-13-1.16806E-13
 -1      3420 2.10383E+01-2.35511E+00 5.75507E-02-2.81751E+00 4.07382E-13-2.63305E-14
 -1      3421 2.04556E+01-1.78998E+00 3.06841E-02-2.63190E+00 3.00370E-13 3.62141E-14
 -1      3422 1.99367E+01-1.28500E+00 2.46545E-02-2.51664E+00 2.27011E-13 7.25665E-14
 -1      3423 1.96724E+01-2.08673E+00-4.66568E-02-3.26564E+00 4.05154E-13 1.25896E-13
 -1      3424 1.97134E+01-8.54729E-01 2.49992E-02-2.26152E+00 1.64266E-13 5.23197E-14
 -1      3425 1.94095E+01-5.02077E-01 5.94746E-03-2.11127E+00 1.89714E-13 7.35280E-14
 -1      3426 1.90030E+01-9.60174E-01-2.00781E-02-2.66148E+00 1.90753E-13 1.42164E-13
 -1      3427 1.93692E+01-1.99760E-01 1.78909E-02-1.87694E+00 1.81542E-13 1.32875E-14
 -1      3428 1.92126E+01 2.33425E-02-2.11233E-03-1.72923E+00 1.39892E-13-1.93543E-14
 -1      3429 1.87863E+01-2.15603E-01-9.48153E-03-2.10810E+00 1.70063E-13 5.38992E-14
 -1      3430 1.92611E+01 2.12660E-01 1.18120E-02-1.53747E+00 9.35945E-14-5.89468E-14
 -1      3431 1.91951E+01 3.41102E-01-4.71457E-03-1.40709E+00 5.27023E-14-2.88398E-15
 -1      3432 1.87961E+01 2.47636E-01-3.04777E-03-1.65693E+00 7.60035E-14-1.08679E-13
 -1      3433 1.92788E+01 4.47921E-01 7.56102E-03-1.25432E+00 1.92004E-14 3.66265E-15
 -1      3434 1.92643E+01 5.10437E-01-5.17689E-03-1.14256E+00-1.49896E-14 1.30579E-14
 -1      3435 1.89107E+01 5.07843E-01-4.73981E-05-1.30940E+00 3.12380E-14-1.19276E-13
 -1      3436 1.93578E+01 5.59635E-01 4.83561E-03-1.02069E+00-3.65077E-14 1.03978E-13
 -1      3437 1.93699E+01 5.78054E-01-4.86972E-03-9.25443E-01-6.64682E-15 1.22056E-13
 -1      3438 1.90666E+01 6.32068E-01 1.43456E-03-1.03990E+00 1.65203E-14 4.76802E-14
 -1      3439 1.94602E+01 5.89298E-01 3.12066E-03-8.27322E-01-4.78551E-14 8.03474E-14
 -1      3440 1.94838E+01 5.79902E-01-4.32619E-03-7.46067E-01-5.62945E-14 1.72298E-13
 -1      3441 1.92301E+01 6.66200E-01 1.98618E-03-8.28329E-01-5.57058E-14 7.68388E-14
 -1      3442 1.95650E+01 5.67685E-01 2.08747E-03-6.66263E-01-3.96064E-14 1.64205E-13
 -1      3443 1.95916E+01 5.42115E-01-3.73186E-03-5.97026E-01 1.67548E-14 1.53832E-13
 -1      3444 1.93838E+01 6.43892E-01 2.08147E-03-6.59295E-01-5.28554E-14 1.45581E-13
 -1      3445 1.96615E+01 5.16736E-01 1.47132E-03-5.31778E-01 3.32728E-14 1.33542E-13
 -1      3446 1.96866E+01 4.83111E-01-3.15767E-03-4.73112E-01 2.97897E-14 1.39354E-13
 -1      3447 1.95196E+01 5.88736E-01 1.95567E-03-5.22405E-01-2.22266E-14 6.58975E-14
 -1      3448 1.97447E+01 4.51630E-01 1.09640E-03-4.19781E-01-6.76417E-14 6.60111E-14
 -1      3449 1.97663E+01 4.15397E-01-2.62865E-03-3.70543E-01-1.02456E-13-6.86393E-15
 -1      3450 1.96347E+01 5.17170E-01 1.72677E-03-4.10800E-01-2.46082E-14 5.57108E-14
 -1      3451 1.98134E+01 3.82439E-01 8.56969E-04-3.27170E-01-3.98596E-14-4.31079E-14
 -1      3452 1.98308E+01 3.47057E-01-2.15413E-03-2.86351E-01 2.89041E-14-5.00642E-14
 -1      3453 1.97291E+01 4.40283E-01 1.46089E-03-3.19780E-01-1.25248E-13-3.00937E-14
 -1      3454 1.98680E+01 3.15471E-01 6.92333E-04-2.51376E-01-2.45116E-14-2.53439E-14
 -1      3455 1.98815E+01 2.82961E-01-1.73737E-03-2.18006E-01-2.53996E-14-7.79251E-14
 -1      3456 1.98045E+01 3.65181E-01 1.19556E-03-2.45901E-01-4.48013E-14-1.80801E-14
 -1      3457 1.99103E+01 2.54341E-01 5.69332E-04-1.90113E-01 3.31713E-14-5.02937E-14
 -1      3458 1.99202E+01 2.25723E-01-1.37849E-03-1.63241E-01 4.14849E-14-6.38272E-14
 -1      3459 1.98631E+01 2.96067E-01 9.51226E-04-1.86440E-01-1.99080E-14 9.66874E-14
 -1      3460 1.99420E+01 2.00810E-01 4.70744E-04-1.41277E-01 1.47479E-14-9.23728E-14
 -1      3461 1.99491E+01 1.76431E-01-1.07541E-03-1.19974E-01 3.07162E-14-8.96686E-14
 -1      3462 1.99077E+01 2.35094E-01 7.37676E-04-1.39106E-01-8.94560E-15 5.44322E-14
 -1      3463 1.99651E+01 1.55411E-01 3.88069E-04-1.02924E-01-2.49013E-14-1.50291E-13
 -1      3464 1.99699E+01 1.35193E-01-8.24311E-04-8.63069E-02 6.73162E-14-1.85797E-13
 -1      3465 1.99408E+01 1.83025E-01 5.58086E-04-1.01905E-01-4.57884E-15-4.89079E-14
 -1      3466 1.99814E+01 1.17909E-01 3.17281E-04-7.32724E-02 1.40071E-13-2.58414E-13
 -1      3467 1.99845E+01 1.01528E-01-6.20143E-04-6.05285E-02 1.69544E-13-3.09854E-13
 -1      3468 1.99647E+01 1.39735E-01 4.11675E-04-7.30784E-02 5.02259E-14-1.41830E-13
 -1      3469 1.99926E+01 8.76324E-02 2.56462E-04-5.07300E-02 1.82131E-13-3.80364E-13
 -1      3470 1.99944E+01 7.46347E-02-4.57170E-04-4.11293E-02 1.35531E-13-2.97344E-13
 -1      3471 1.99814E+01 1.04566E-01 2.95475E-04-5.10839E-02 1.26660E-13-1.53441E-13
 -1      3472 1.99998E+01 6.36923E-02 2.04561E-04-3.38989E-02 4.22039E-14-4.32416E-13
 -1      3473 2.00007E+01 5.35827E-02-3.29438E-04-2.68048E-02-8.07625E-14-3.80015E-13
 -1      3474 1.99928E+01 7.65869E-02 2.05496E-04-3.45827E-02 8.49330E-14-2.58051E-13
 -1      3475 2.00042E+01 4.51345E-02 1.60805E-04-2.15801E-02-1.11870E-13-2.98041E-13
 -1      3476 2.00045E+01 3.74239E-02-2.31157E-04-1.64502E-02-1.46771E-13-3.18916E-13
 -1      3477 2.00001E+01 5.47632E-02 1.37464E-04-2.24322E-02-4.31364E-14-2.55264E-13
 -1      3478 2.00066E+01 3.10293E-02 1.24450E-04-1.27665E-02-2.06312E-13-3.45831E-13
 -1      3479 2.00065E+01 2.52658E-02-1.56966E-04-9.14904E-03-1.15945E-13-4.44936E-13
 -1      3480 2.00045E+01 3.80687E-02 8.72693E-05-1.36731E-02-1.89097E-13-2.19594E-13
 -1      3481 2.00076E+01 2.05246E-02 9.47120E-05-6.62872E-03 2.41541E-14-4.15153E-13
 -1      3482 2.00073E+01 1.63087E-02-1.02087E-04-4.15445E-03 5.70783E-14-3.24881E-13
 -1      3483 2.00069E+01 2.55493E-02 5.12033E-05-7.51456E-03-3.04439E-14-2.65562E-13
 -1      3484 2.00077E+01 1.28717E-02 7.07735E-05-2.49594E-03 6.87491E-14-1.93227E-13
 -1      3485 2.00073E+01 9.86184E-03-6.23979E-05-8.69133E-04 1.88617E-13-4.49125E-14
 -1      3486 2.00079E+01 1.63583E-02 2.60677E-05-3.31542E-03 2.12177E-13-1.94282E-13
 -1      3487 2.00073E+01 7.43363E-03 5.18125E-05 1.64290E-04 1.05048E-13-6.53678E-14
 -1      3488 2.00068E+01 5.34566E-03-3.44315E-05 1.17632E-03 3.20040E-14-1.27373E-13
 -1      3489 2.00079E+01 9.76875E-03 9.19690E-06-5.64691E-04 1.34152E-13-7.49442E-14
 -1      3490 2.00065E+01 3.68262E-03 3.70398E-05 1.76733E-03 2.80634E-14-2.40762E-13
 -1      3491 2.00060E+01 2.28525E-03-1.53430E-05 2.34433E-03 4.52567E-14-1.56621E-13
 -1      3492 2.00074E+01 5.17354E-03-1.56965E-06 1.13799E-03 7.74298E-14-2.99114E-13
 -1      3493 2.00056E+01 1.19070E-03 2.57259E-05 2.63135E-03 1.29899E-13-1.13130E-13
 -1      3494 2.00051E+01 2.99522E-04-2.84565E-06 2.90956E-03 2.38007E-13-4.15429E-14
 -1      3495 2.00066E+01 2.07725E-03-7.94077E-06 2.10091E-03 5.79319E-14-2.72815E-13
 -1      3496 2.00047E+01-3.82271E-04 1.72186E-05 2.99549E-03 3.35731E-13-6.36898E-14
 -1      3497 2.00043E+01-9.11655E-04 4.86164E-06 3.07614E-03 2.93397E-13-6.16354E-14
 -1      3498 2.00057E+01 8.35802E-05-1.12389E-05 2.55716E-03 2.33787E-13-2.88381E-13
 -1      3499 2.00038E+01-1.30188E-03 1.09499E-05 3.03580E-03 1.53234E-13-1.96940E-14
 -1      3500 2.00034E+01-1.58071E-03 9.17178E-06 2.99237E-03 1.67162E-13-1.51411E-13
 -1      3501 2.00048E+01-1.11871E-03-1.24674E-05 2.67959E-03 1.93911E-13-6.31426E-14
 -1      3502 2.00030E+01-1.77222E-03 6.44231E-06 2.87885E-03 2.55274E-13-2.08561E-13
 -1      3503 2.00027E+01-1.88492E-03 1.11382E-05 2.76326E-03 2.80255E-13-1.28458E-13
 -1      3504 2.00038E+01-1.77005E-03-1.23723E-05 2.59351E-03 1.54819E-13-1.30802E-14
 -1      3505 2.00023E+01-1.94795E-03 3.30536E-06 2.61297E-03 2.81578E-13-2.76250E-13
 -1      3506 2.00020E+01-1.95778E-03 1.16254E-05 2.46055E-03 3.41742E-13-1.36685E-13
 -1      3507 2.00030E+01-2.05343E-03-1.14809E-05 2.38746E-03 2.52394E-13-1.56996E-13
 -1      3508 2.00017E+01-1.94509E-03 1.14553E-06 2.29742E-03 4.08378E-13-1.62439E-13
 -1      3509 2.00014E+01-1.89885E-03 1.10967E-05 2.13124E-03 1.47602E-13 5.17800E-14
 -1      3510 2.00023E+01-2.10607E-03-1.00964E-05 2.12150E-03 3.04235E-13-2.16844E-13
 -1      3511 2.00011E+01-1.84513E-03 7.20957E-07 1.96963E-03 8.26255E-14 2.06714E-13
 -1      3512 2.00010E+01-1.78972E-03 3.77396E-06 1.80754E-03 2.59589E-13 3.34502E-13
 -1      3513 2.00016E+01-2.03050E-03-7.85879E-06 1.83561E-03 3.32055E-13-1.21428E-13
 -1      3514 1.09683E+01 2.22126E+00 2.32876E-02-2.53172E+00-7.19980E-14-1.18080E-12
 -1      3515 2.29624E+01-3.06736E+00 6.38148E-02 2.32914E+00-3.32294E-13-4.09979E-13
 -1      3516 2.00006E+01-1.62103E-03 1.18508E-05 1.70746E-03 9.19126E-14 6.29454E-13
 -1      3517 2.00015E+01-2.15352E-03 1.52162E-06 4.70156E-04 2.84331E-13-4.82398E-13
 -1      3518 2.00016E+01-2.18502E-03 1.59694E-06 1.75038E-04 2.46904E-13-2.91097E-13
 -1      3519 2.01833E+01-6.67540E-01 1.29590E-02 2.25739E+00-2.13709E-13-1.86252E-13
 -1      3520 2.05693E+01-1.10605E+00 1.55869E-02 2.31957E+00-2.49834E-13-1.98200E-13
 -1      3521 2.09888E+01-1.59844E+00 3.81782E-02 2.48662E+00-3.49686E-13-2.35922E-13
 -1      3522 2.15753E+01-2.25335E+00-2.13071E-03 2.45692E+00-3.41355E-13-2.79553E-13
 -1      3523 1.98383E+01-1.34788E+00-2.43107E-02 2.80889E+00-2.96416E-13-1.49140E-13
 -1      3524 1.96925E+01 3.24561E-01-1.01737E-03 1.66619E+00-4.55875E-14-5.17286E-14
 -1      3525 1.97974E+01 1.71635E-01 8.95631E-03 1.78142E+00-6.25942E-14-1.01754E-13
 -1      3526 1.96889E+01 5.05220E-01-2.52773E-03 1.40167E+00-2.47597E-14-2.01459E-14
 -1      3527 1.97344E+01 4.35807E-01 5.93095E-03 1.51517E+00-8.44356E-15-4.90701E-14
 -1      3528 1.92693E+01 4.85191E-01-1.81941E-03 1.60264E+00-3.45705E-14 8.11323E-14
 -1      3529 1.97355E+01 5.66525E-01-2.99865E-03 1.16724E+00-7.94953E-14-6.26836E-14
 -1      3530 1.97522E+01 5.49397E-01 3.96174E-03 1.27372E+00-6.65749E-14-8.57873E-14
 -1      3531 1.93773E+01 6.27109E-01 7.02016E-04 1.32214E+00 1.23970E-15 3.59595E-14
 -1      3532 1.97960E+01 5.57007E-01-2.96981E-03 9.61030E-01-8.24927E-15-6.24209E-14
 -1      3533 1.98008E+01 5.70030E-01 2.79641E-03 1.05808E+00-1.61682E-14-7.04160E-14
 -1      3534 1.95023E+01 6.59849E-01 1.65314E-03 1.08808E+00-4.70713E-14 2.08591E-14
 -1      3535 1.98536E+01 5.09353E-01-2.71930E-03 7.81164E-01-1.11521E-13 2.53364E-14
 -1      3536 1.98547E+01 5.37941E-01 2.14760E-03 8.67537E-01-6.29685E-14-1.31646E-15
 -1      3537 1.96199E+01 6.29524E-01 1.85425E-03 8.89616E-01-4.53539E-14 1.07564E-13
 -1      3538 1.99015E+01 4.44502E-01-2.37838E-03 6.26177E-01 5.49788E-14 3.85364E-14
 -1      3539 1.99025E+01 4.79457E-01 1.76907E-03 7.01355E-01-5.91166E-14-3.97977E-14
 -1      3540 1.97203E+01 5.66358E-01 1.70265E-03 7.20252E-01-5.21223E-14-4.50752E-15
 -1      3541 1.99384E+01 3.75154E-01-2.01552E-03 4.94586E-01 9.90364E-14 1.88117E-13
 -1      3542 1.99405E+01 4.10990E-01 1.51926E-03 5.58660E-01 1.86022E-13 1.18853E-13
 -1      3543 1.98010E+01 4.89562E-01 1.41730E-03 5.76102E-01 5.24045E-14 3.01500E-14
 -1      3544 1.99651E+01 3.08523E-01-1.66697E-03 3.84649E-01-1.17229E-13 1.22660E-13
 -1      3545 1.99683E+01 3.42194E-01 1.32393E-03 4.38185E-01 2.06038E-14 2.38069E-13
 -1      3546 1.98633E+01 4.10746E-01 1.10990E-03 4.54516E-01 3.30385E-14 2.12156E-13
 -1      3547 1.99836E+01 2.48316E-01-1.35103E-03 2.94317E-01-1.49052E-13 6.04733E-14
 -1      3548 1.99875E+01 2.78321E-01 1.14999E-03 3.38217E-01-1.59232E-13 8.34239E-14
 -1      3549 1.99098E+01 3.36470E-01 8.31365E-04 3.53270E-01-7.37728E-14 4.81613E-14
 -1      3550 1.99957E+01 1.96084E-01-1.07547E-03 2.21321E-01-6.44196E-14-5.39174E-14
 -1      3551 1.99999E+01 2.21866E-01 9.86334E-04 2.56682E-01-6.00323E-14 4.55814E-14
 -1      3552 1.99435E+01 2.70047E-01 6.00116E-04 2.70202E-01-5.74018E-14 2.31735E-14
 -1      3553 2.00032E+01 1.52103E-01-8.41914E-04 1.63307E-01 1.68804E-14-1.71971E-13
 -1      3554 2.00073E+01 1.73655E-01 8.31902E-04 1.91302E-01-6.73275E-14-1.37366E-13
 -1      3555 1.99673E+01 2.12768E-01 4.18319E-04 2.03114E-01 2.03817E-14-2.12668E-13
 -1      3556 2.00073E+01 1.15936E-01-6.48412E-04 1.17962E-01 3.23213E-14-1.41301E-13
 -1      3557 2.00112E+01 1.33554E-01 6.89033E-04 1.39750E-01 3.85458E-14-1.72762E-13
 -1      3558 1.99835E+01 1.64719E-01 2.80870E-04 1.49805E-01-5.53786E-15-2.25725E-13
 -1      3559 2.00093E+01 8.67897E-02-4.91181E-04 8.31169E-02 1.50086E-14-7.93324E-14
 -1      3560 2.00127E+01 1.00914E-01 5.60351E-04 9.97840E-02 2.05640E-14-8.18303E-14
 -1      3561 1.99943E+01 1.25313E-01 1.80163E-04 1.08139E-01 3.79742E-14-8.71264E-14
 -1      3562 2.00098E+01 6.37243E-02-3.65626E-04 5.68098E-02 1.78377E-14-8.89285E-14
 -1      3563 2.00128E+01 7.48480E-02 4.47540E-04 6.93321E-02 4.14490E-14-9.83532E-14
 -1      3564 2.00010E+01 9.36204E-02 1.08443E-04 7.61230E-02 6.15081E-14-1.34206E-13
 -1      3565 2.00094E+01 4.57844E-02-2.66993E-04 3.73219E-02 6.87872E-14 1.86054E-13
 -1      3566 2.00119E+01 5.43957E-02 3.51108E-04 4.65496E-02-1.92922E-14 3.47313E-14
 -1      3567 2.00049E+01 6.85861E-02 5.88175E-05 5.19572E-02-4.67434E-14-4.22031E-14
 -1      3568 2.00086E+01 3.20689E-02-1.90744E-04 2.31858E-02 1.28556E-13 3.03988E-13
 -1      3569 2.00106E+01 3.86209E-02 2.70549E-04 2.98403E-02 1.98341E-13 3.02433E-13
 -1      3570 2.00069E+01 4.91487E-02 2.55904E-05 3.40627E-02 3.05184E-14 2.18920E-13
 -1      3571 2.00075E+01 2.17680E-02-1.32753E-04 1.31769E-02-9.09417E-14 3.39215E-13
 -1      3572 2.00091E+01 2.66637E-02 2.04650E-04 1.78565E-02 6.99409E-14 3.50016E-13
 -1      3573 2.00077E+01 3.43151E-02 4.25317E-06 2.10907E-02 6.27400E-14 3.37130E-13
 -1      3574 2.00063E+01 1.41784E-02-8.94023E-05 6.29429E-03 7.11735E-15 1.21364E-13
 -1      3575 2.00076E+01 1.77653E-02 1.51789E-04 9.48537E-03-6.66561E-14 2.24819E-13
 -1      3576 2.00076E+01 2.31964E-02-8.65620E-06 1.19146E-02 2.82506E-14 1.83209E-13
 -1      3577 2.00052E+01 8.70533E-03-5.76021E-05 1.73495E-03 7.81426E-14 6.98738E-14
 -1      3578 2.00062E+01 1.12752E-02 1.10166E-04 3.82562E-03 1.09555E-13 1.91647E-13
 -1      3579 2.00070E+01 1.50226E-02-1.57362E-05 5.61307E-03 4.29780E-14 2.18389E-13
 -1      3580 2.00042E+01 4.85641E-03-3.47701E-05-1.13363E-03-3.22585E-14 2.90845E-14
 -1      3581 2.00049E+01 6.64957E-03 7.79843E-05 1.60866E-04-7.02172E-14 1.46006E-14
 -1      3582 2.00062E+01 9.14369E-03-1.89004E-05 1.44664E-03 8.77347E-14 2.37669E-13
 -1      3583 2.00033E+01 2.23190E-03-1.87904E-05-2.80091E-03-7.59706E-15 1.65417E-13
 -1      3584 2.00038E+01 3.44249E-03 5.35568E-05-2.06834E-03 1.05731E-13 1.99721E-13
 -1      3585 2.00053E+01 5.02261E-03-1.95325E-05-1.16712E-03-1.06417E-13 1.44670E-14
 -1      3586 2.00025E+01 5.12836E-04-7.95905E-06-3.63885E-03-1.22571E-14 2.86293E-13
 -1      3587 2.00029E+01 1.29506E-03 3.53713E-05-3.29108E-03 1.85027E-14 2.54546E-13
 -1      3588 2.00044E+01 2.22399E-03-1.86146E-05-2.67885E-03-3.62960E-14 2.91579E-13
 -1      3589 2.00019E+01-5.51215E-04-9.26239E-07-3.92463E-03-2.36590E-13 3.86954E-13
 -1      3590 2.00021E+01-7.68118E-05 2.21187E-05-3.83038E-03-1.18367E-13 2.76648E-13
 -1      3591 2.00036E+01 4.00991E-04-1.68288E-05-3.43082E-03-8.12583E-14 3.08803E-13
 -1      3592 2.00014E+01-1.15390E-03 3.35884E-06-3.86039E-03 2.36110E-14 1.71092E-13
 -1      3593 2.00015E+01-8.94488E-04 1.26979E-05-3.92451E-03 1.93304E-14 2.90894E-13
 -1      3594 2.00028E+01-7.18336E-04-1.46378E-05-3.67792E-03 2.72778E-14 5.66630E-14
 -1      3595 2.00009E+01-1.44289E-03 5.68624E-06-3.58981E-03-1.01929E-13-1.31027E-13
 -1      3596 2.00011E+01-1.32794E-03 6.20514E-06-3.74519E-03-1.20172E-13 8.15733E-14
 -1      3597 2.00022E+01-1.34399E-03-1.23504E-05-3.60583E-03 1.07567E-13 1.26798E-13
 -1      3598 2.00006E+01-1.52922E-03 6.69799E-06-3.21163E-03-1.26064E-13-2.46708E-13
 -1      3599 2.00007E+01-1.50597E-03 1.90684E-06-3.41262E-03-1.07320E-13-1.27312E-13
 -1      3600 2.00016E+01-1.63599E-03-1.01950E-05-3.34629E-03-6.14099E-14-1.66761E-14
 -1      3601 2.00003E+01-1.49697E-03 6.52959E-06-2.79103E-03-1.20405E-13-9.64677E-14
 -1      3602 2.00004E+01-1.52553E-03-8.82133E-07-3.00823E-03-1.15362E-13-2.12864E-13
 -1      3603 2.00011E+01-1.71446E-03-8.26770E-06-2.99007E-03-1.50920E-13 9.18730E-14
 -1      3604 2.00001E+01-1.40842E-03 4.24891E-06-2.36823E-03 1.01184E-13 3.69367E-14
 -1      3605 2.00002E+01-1.45885E-03-3.24071E-06-2.58150E-03-6.88729E-14-3.11457E-14
 -1      3606 2.00008E+01-1.66787E-03-5.09434E-06-2.59700E-03-8.00408E-14 1.12714E-15
 -1      3607 2.00013E+01-2.01504E-03 1.16382E-06 1.05934E-03 3.96982E-13-1.39766E-13
 -1      3608 2.00014E+01-2.09561E-03 4.19886E-06 7.99281E-04 4.37525E-13-4.18798E-13
 -1      3609 2.00017E+01-2.19212E-03-2.42636E-06 6.84607E-04 3.16190E-13-4.13895E-13
 -1      3610 2.00009E+01-1.80602E-03-2.90153E-06 1.60194E-03 2.30359E-13 4.17439E-13
 -1      3611 2.38305E+01-2.19883E+00 4.25016E-02-8.63762E-01-8.50292E-14-8.79635E-15
 -1      3612 1.98162E+01-4.11079E-02 3.02352E-03 1.95848E+00-6.96032E-14-1.64854E-13
 -1      3613 2.00292E+01-3.17013E-01 1.28316E-02 2.06272E+00-1.38628E-13-1.59325E-13
 -1      3614 1.93578E+01-4.16195E-01-1.66490E-02 2.35474E+00-1.83707E-13-1.79302E-13
 -1      3615 1.92294E+01 1.67104E-01-7.24320E-03 1.94378E+00-7.62011E-14-7.85008E-14
 -1      3616 2.60103E+01-2.32296E+00 1.71069E-03 4.50758E-01 8.01720E-14-7.33455E-13
 -1      3617 1.93055E+01-2.70045E+00 9.32113E-02-4.26752E+00 6.10619E-13 1.26101E-13
 -1      3618 2.11810E+01-3.43422E+00-5.90973E-02-3.60141E+00 5.31700E-13-1.19280E-14
 -1      3619 2.30059E+01-3.47121E+00 9.24571E-02-2.63760E+00 4.96045E-13-2.37805E-13
 -1      3620 2.42828E+01-1.79534E+00 1.89176E-03-8.17146E-02 3.75177E-14-1.53795E-13
 -1      3621 2.14065E+01-2.84317E+00-1.16721E-02 3.03614E+00-3.74344E-13-2.97783E-13
 -1      3622 2.01235E+01-2.45456E+00 6.35922E-02 3.65222E+00-4.00834E-13-1.30236E-13
 -1      3623 2.00012E+01-1.93121E-03 4.45941E-06 1.39538E-03 3.68010E-13 7.98887E-14
 -1      3624 1.08252E+01 8.16465E-01 1.33490E-01 5.21761E-01 4.64082E-15 3.73486E-13
 -1      3625 1.10109E+01 6.80177E-01 1.22340E-02-1.05684E+00 1.38272E-13 2.91031E-13
 -1      3626 2.69445E+01 5.98252E-01-1.09325E-01 1.99908E+00-3.98355E-13-9.86419E-13
 -1      3627 2.59812E+01-1.46771E+00-8.44748E-03-1.34230E+00-1.47138E-13 8.94354E-14
 -1      3628 1.22236E+01 1.37064E+00 6.57352E-02 3.77224E+00 4.69652E-13-1.06345E-12
 -1      3629 1.52880E+01-1.10995E+00 9.28938E-02-4.24630E+00 4.79313E-13 2.86923E-13
 -1      3630 1.70621E+01-2.18119E+00-2.95412E-02-4.59457E+00 5.82631E-13 1.34101E-13
 -1      3631 1.86238E+01-2.00400E+00 5.33445E-02-3.86953E+00 4.99361E-13 1.63279E-13
 -1      3632 1.50731E+01-4.97424E-01 4.22002E-02-3.46718E+00 3.81604E-13 2.26041E-13
 -1      3633 1.26925E+01 7.24239E-01 6.85280E-02-1.43903E+00 1.21906E-13 2.51722E-13
 -1      3634 1.88897E+01-1.85838E+00 1.32038E-02 3.64738E+00-3.52390E-13-1.30510E-13
 -1      3635 1.19481E+01 6.31158E-01 7.63695E-02 1.37510E+00-5.82876E-14 3.37591E-13
 -1      3636 2.00001E+01-1.41911E-03-4.02025E-06-2.19124E-03 1.21137E-13 2.97799E-13
 -1      3637 2.00006E+01-1.61853E-03 2.08075E-06-2.21006E-03-1.01393E-13 2.92726E-13
 -1      3638 2.00002E+01-1.42890E-03 1.33335E-06-2.01343E-03-7.16555E-14 4.41342E-13
 -1      3639 2.00015E+01-2.04768E-03-1.90320E-06 1.35071E-03 4.51307E-13-3.56172E-14
 -1      3640 2.00016E+01-2.17934E-03 4.42591E-06-1.72782E-04 2.52605E-13-8.98321E-14
 -1      3641 2.00015E+01-2.15776E-03 1.91340E-07-4.69450E-04 1.02617E-13-2.46820E-13
 -1      3642 2.00018E+01-2.25084E-03-1.53713E-06 1.68310E-06 2.39982E-13-1.78246E-13
 -1      3643 1.45843E+01-8.43542E-01 8.25924E-02 4.03484E+00-3.98126E-13 2.98470E-13
 -1      3644 1.36135E+01-2.13567E-01 8.35887E-04 3.23112E+00-3.23148E-13 3.27280E-13
 -1      3645 1.63130E+01-1.07343E+00 6.06292E-02 3.85181E+00-3.84684E-13 1.37702E-13
 -1      3646 2.64151E+01-4.11952E-01 1.03167E-02 1.63536E+00-2.68868E-13-9.16378E-13
 -1      3647 2.00011E+01-1.92592E-03 6.42962E-06-1.25539E-03 2.12041E-13 1.24305E-13
 -1      3648 2.00009E+01-1.82636E-03-3.09680E-06-1.43999E-03 1.75415E-13 1.17053E-13
 -1      3649 2.50836E+01-1.89030E+00-2.36937E-02-4.52721E-01-5.20885E-14-2.44162E-14
 -1      3650 2.54676E+01-6.97636E-01-2.97371E-02 1.72980E+00-2.18072E-13-8.52634E-13
 -1      3651 2.00009E+01-1.78661E-03-3.01506E-06-1.75767E-03 2.09191E-13 7.35506E-14
 -1      3652 2.00006E+01-1.66636E-03 5.10082E-06-1.70087E-03 4.56922E-14-9.09984E-14
 -1      3653 2.26373E+01-2.22490E+00-1.83248E-02-1.71114E+00-1.58470E-13-1.76532E-13
 -1      3654 1.80955E+01-1.33693E+00 2.71952E-02-3.49326E+00 3.53843E-13 1.33282E-13
 -1      3655 1.82988E+01-7.70421E-01 3.63525E-02-2.85705E+00 1.95870E-13 1.40498E-13
 -1      3656 1.80436E+01-3.80441E-01-1.75291E-03-2.54428E+00 1.52489E-13 1.24087E-13
 -1      3657 1.82161E+01-5.54802E-02 1.86587E-02-2.17943E+00 1.28055E-13 1.02259E-13
 -1      3658 1.81568E+01 1.89800E-01-5.56934E-03-1.91837E+00 9.52662E-14 2.99932E-14
 -1      3659 1.73482E+01 2.50508E-02-1.92406E-02-2.34721E+00 8.93842E-14 1.00951E-13
 -1      3660 1.83558E+01 3.75948E-01 1.08802E-02-1.66002E+00 3.04135E-14-3.93030E-14
 -1      3661 1.83767E+01 5.10117E-01-8.25987E-03-1.46530E+00 3.78875E-14-1.20075E-13
 -1      3662 1.77563E+01 4.87614E-01 5.85647E-03-1.71346E+00-1.26508E-14 3.38544E-14
 -1      3663 1.85684E+01 6.16633E-01 6.94469E-03-1.27842E+00 3.97110E-14-1.16677E-13
 -1      3664 1.86275E+01 6.80064E-01-6.80141E-03-1.13070E+00 3.16460E-14-8.04366E-14
 -1      3665 1.81243E+01 7.20091E-01 4.10914E-03-1.26957E+00 1.26368E-14-5.23597E-14
 -1      3666 1.87980E+01 7.25535E-01 4.00656E-03-9.95545E-01 6.58281E-14-5.14599E-14
 -1      3667 1.88723E+01 7.42599E-01-5.37976E-03-8.81982E-01 5.58292E-14-1.49777E-14
 -1      3668 1.84687E+01 8.21773E-01 4.52906E-03-9.58931E-01 4.64606E-14-6.67331E-14
 -1      3669 1.90186E+01 7.48649E-01 2.25320E-03-7.81715E-01-2.52466E-14 1.04937E-16
 -1      3670 1.90940E+01 7.36139E-01-4.29681E-03-6.92467E-01-5.61354E-14 2.26243E-14
 -1      3671 1.87696E+01 8.37284E-01 4.10720E-03-7.35230E-01 1.03372E-14-9.53830E-14
 -1      3672 1.92174E+01 7.17414E-01 1.25573E-03-6.15946E-01-7.78438E-14 7.89074E-14
 -1      3673 1.92869E+01 6.87087E-01-3.47099E-03-5.44434E-01-6.33068E-14 3.31856E-14
 -1      3674 1.90266E+01 7.99206E-01 3.58718E-03-5.68895E-01-4.13179E-14-2.01858E-14
 -1      3675 1.93894E+01 6.54105E-01 7.03026E-04-4.84853E-01-4.37624E-14-3.53265E-14
 -1      3676 1.94499E+01 6.14429E-01-2.82593E-03-4.26830E-01 3.24474E-14-1.18359E-14
 -1      3677 1.92424E+01 7.28845E-01 3.07609E-03-4.41818E-01-7.34684E-14-1.01013E-14
 -1      3678 1.95336E+01 5.74649E-01 4.05812E-04-3.79840E-01-3.41262E-14-4.58216E-14
 -1      3679 1.95842E+01 5.31553E-01-2.30627E-03-3.32520E-01-8.44869E-14-8.23884E-14
 -1      3680 1.94204E+01 6.41843E-01 2.59720E-03-3.42834E-01-2.15686E-14-1.09128E-13
 -1      3681 1.96516E+01 4.90057E-01 2.51838E-04-2.95235E-01-2.37695E-14-1.61761E-13
 -1      3682 1.96926E+01 4.47490E-01-1.87696E-03-2.56688E-01-4.71118E-14-4.60672E-14
 -1      3683 1.95648E+01 5.49317E-01 2.15857E-03-2.64793E-01-9.57887E-14-2.06178E-13
 -1      3684 1.97459E+01 4.07550E-01 1.74763E-04-2.27098E-01-8.51208E-14 8.81259E-14
 -1      3685 1.97781E+01 3.67957E-01-1.51687E-03-1.95884E-01-1.64711E-14 4.10464E-14
 -1      3686 1.96800E+01 4.58774E-01 1.76439E-03-2.02933E-01 2.74432E-14-2.21829E-15
 -1      3687 1.98196E+01 3.31502E-01 1.36774E-04-1.72501E-01 4.31681E-14 1.58547E-13
 -1      3688 1.98443E+01 2.96219E-01-1.21342E-03-1.47458E-01 5.23512E-14 2.20644E-13
 -1      3689 1.97701E+01 3.74906E-01 1.41729E-03-1.53913E-01 7.40571E-14 1.75048E-13
 -1      3690 1.98760E+01 2.64214E-01 1.17155E-04-1.29121E-01-8.22999E-14 1.65353E-13
 -1      3691 1.98945E+01 2.33796E-01-9.58652E-04-1.09260E-01-2.87666E-14 1.25746E-13
 -1      3692 1.98394E+01 3.00290E-01 1.11815E-03-1.15249E-01-1.71196E-14 1.86021E-13
 -1      3693 1.99182E+01 2.06547E-01 1.05145E-04-9.50248E-02-5.83628E-14 3.61919E-14
 -1      3694 1.99317E+01 1.81026E-01-7.46747E-04-7.94791E-02-6.69538E-14 8.35815E-14
 -1      3695 1.98917E+01 2.35982E-01 8.65860E-04-8.49915E-02-1.21542E-13 1.58932E-13
 -1      3696 1.99490E+01 1.58413E-01 9.55876E-05-6.85634E-02-1.80587E-15 4.69282E-14
 -1      3697 1.99586E+01 1.37496E-01-5.72716E-04-5.65703E-02 1.22033E-13 2.71428E-14
 -1      3698 1.99302E+01 1.82002E-01 6.57563E-04-6.15555E-02-9.32581E-14 1.64902E-13
 -1      3699 1.99710E+01 1.19146E-01 8.63476E-05-4.83165E-02 1.07003E-13-2.25485E-14
 -1      3700 1.99775E+01 1.02361E-01-4.31857E-04-3.92088E-02 9.09550E-14-6.91913E-14
 -1      3701 1.99580E+01 1.37720E-01 4.89099E-04-4.36254E-02 9.04466E-14 4.03285E-14
 -1      3702 1.99862E+01 8.77724E-02 7.68139E-05-3.30663E-02 7.21029E-14-2.21178E-13
 -1      3703 1.99904E+01 7.45652E-02-3.19610E-04-2.62682E-02-2.80513E-14-2.88789E-13
 -1      3704 1.99775E+01 1.02142E-01 3.55565E-04-3.01001E-02-4.07957E-14-2.14554E-13
 -1      3705 1.99962E+01 6.31901E-02 6.70631E-05-2.17793E-02-4.69553E-14-3.03874E-13
 -1      3706 1.99988E+01 5.29950E-02-2.31605E-04-1.68020E-02-5.44439E-14-2.19290E-13
 -1      3707 1.99908E+01 7.41072E-02 2.51806E-04-2.00605E-02-3.61077E-14-4.22014E-13
 -1      3708 2.00025E+01 4.42944E-02 5.74145E-05-1.35904E-02-7.67890E-14-1.28327E-13
 -1      3709 2.00040E+01 3.65748E-02-1.63763E-04-1.00257E-02-1.36994E-13-8.74157E-14
 -1      3710 1.99993E+01 5.24315E-02 1.72793E-04-1.27444E-02-3.76307E-14-1.42913E-13
 -1      3711 2.00062E+01 3.00498E-02 4.82112E-05-7.78574E-03-1.79235E-13 3.36884E-14
 -1      3712 2.00068E+01 2.43219E-02-1.12386E-04-5.29890E-03 1.31032E-13 3.11739E-14
 -1      3713 2.00045E+01 3.59893E-02 1.13881E-04-7.52677E-03-2.88871E-14 4.48481E-14
 -1      3714 2.00080E+01 1.95304E-02 3.97262E-05-3.78576E-03 2.33207E-13-5.26722E-14
 -1      3715 2.00081E+01 1.53734E-02-7.42136E-05-2.10682E-03 1.69681E-13 2.38843E-16
 -1      3716 2.00074E+01 2.37641E-02 7.09483E-05-3.90164E-03 9.58434E-14 2.66315E-13
 -1      3717 2.00085E+01 1.19368E-02 3.21353E-05-1.12733E-03 1.69873E-13-9.09892E-14
 -1      3718 2.00083E+01 8.99526E-03-4.64464E-05-4.22093E-05 1.57882E-13-4.44472E-14
 -1      3719 2.00086E+01 1.48703E-02 4.04630E-05-1.46475E-03 1.68975E-13-9.58097E-14
 -1      3720 2.00083E+01 6.59741E-03 2.55218E-05 5.53776E-04 8.24306E-14-5.37974E-14
 -1      3721 2.00079E+01 4.57847E-03-2.67344E-05 1.21198E-03 8.60270E-14-8.82141E-14
 -1      3722 2.00088E+01 8.55885E-03 1.94776E-05 1.02145E-04 1.01056E-13 6.74736E-14
 -1      3723 2.00076E+01 2.96146E-03 1.98942E-05 1.53927E-03 8.53978E-14-2.50471E-13
 -1      3724 2.00071E+01 1.62870E-03-1.31470E-05 1.89842E-03 4.98624E-14-1.61146E-13
 -1      3725 2.00083E+01 4.21122E-03 5.59267E-06 1.04575E-03 2.50459E-14-1.22919E-13
 -1      3726 2.00066E+01 5.86272E-04 1.52075E-05 2.04330E-03 1.91213E-13-8.32279E-14
 -1      3727 2.00061E+01-2.47571E-04-4.12904E-06 2.19953E-03 3.71213E-13-1.95525E-14
 -1      3728 2.00074E+01 1.32720E-03-3.10378E-06 1.55426E-03 1.95851E-13 1.05987E-14
 -1      3729 2.00056E+01-8.77386E-04 1.13809E-05 2.22561E-03 2.95407E-13 1.91031E-14
 -1      3730 2.00051E+01-1.35809E-03 1.54558E-06 2.24977E-03 1.76536E-13 8.80889E-14
 -1      3731 2.00064E+01-4.90077E-04-8.10582E-06 1.76871E-03 3.97660E-13 1.24528E-13
 -1      3732 2.00046E+01-1.70042E-03 8.30459E-06 2.20289E-03 1.42254E-13 8.47751E-14
 -1      3733 2.00042E+01-1.93966E-03 4.82351E-06 2.14597E-03 2.18201E-13 1.44458E-13
 -1      3734 2.00053E+01-1.55011E-03-1.05630E-05 1.79273E-03 1.74238E-13 1.30293E-13
 -1      3735 2.00037E+01-2.08974E-03 5.87262E-06 2.05834E-03 1.29874E-13-1.48875E-13
 -1      3736 2.00033E+01-2.17170E-03 6.62449E-06 1.95595E-03 3.13852E-14-2.56841E-13
 -1      3737 2.00043E+01-2.09036E-03-1.12943E-05 1.70080E-03 7.06861E-14 5.85105E-14
 -1      3738 2.00028E+01-2.20270E-03 3.56284E-06 1.84996E-03 1.77927E-13-2.23754E-13
 -1      3739 2.00025E+01-2.18905E-03 7.73433E-06 1.72483E-03 3.31475E-13-2.96961E-13
 -1      3740 2.00034E+01-2.28963E-03-1.06444E-05 1.54488E-03 9.41540E-15-1.63623E-13
 -1      3741 2.00021E+01-2.16205E-03 1.66902E-06 1.59884E-03 3.91707E-13-2.04893E-13
 -1      3742 2.00018E+01-2.10413E-03 6.30480E-06 1.46895E-03 4.28348E-13-2.18110E-14
 -1      3743 2.00019E+01-2.19636E-03-5.23793E-06 1.12552E-03 5.19623E-13-1.80601E-13
 -1      3744 2.00026E+01-2.29302E-03-9.07071E-06 1.34587E-03 2.75087E-13-1.41539E-13
 -1      3745 1.92781E+01 7.41193E-01-4.54571E-03 9.54314E-01-5.08832E-14 1.29131E-13
 -1      3746 1.92206E+01 7.56052E-01 2.41680E-03 1.05645E+00-2.69608E-14 1.10244E-13
 -1      3747 2.00000E+01-1.30761E-03 1.04536E-05-1.83284E-03-6.02001E-14 4.47611E-13
 -1      3748 2.00003E+01-1.50998E-03-4.39536E-06-1.84772E-03 1.96304E-14 1.84639E-13
 -1      3749 1.90768E+01 7.50237E-01-5.51606E-03 1.16962E+00 4.22741E-15 1.60993E-13
 -1      3750 1.90231E+01 7.29770E-01 4.36655E-03 1.29165E+00 2.17973E-14 1.19921E-13
 -1      3751 1.88863E+01 8.55222E-01 4.41376E-03 1.02557E+00 1.17633E-14 1.73062E-13
 -1      3752 1.88568E+01 6.75566E-01-6.59897E-03 1.43782E+00-5.27838E-14 9.24684E-14
 -1      3753 1.88269E+01 5.95398E-01 7.84771E-03 1.58782E+00-8.32023E-14 9.12413E-14
 -1      3754 1.85895E+01 8.27806E-01 4.67184E-03 1.27244E+00-5.93238E-14 2.81717E-14
 -1      3755 1.94502E+01 6.84726E-01-3.75038E-03 7.76090E-01-6.74047E-14 1.26068E-13
 -1      3756 1.93982E+01 7.18966E-01 1.45131E-03 8.63043E-01-3.82284E-14 1.73614E-13
 -1      3757 1.91387E+01 8.15606E-01 3.92352E-03 8.32369E-01-5.66822E-14 1.54877E-13
 -1      3758 1.95910E+01 6.04962E-01-3.10088E-03 6.26204E-01-1.13721E-14 1.73795E-13
 -1      3759 1.95478E+01 6.48044E-01 9.87652E-04 7.00587E-01-3.42270E-14 1.72195E-13
 -1      3760 1.93463E+01 7.38963E-01 3.32009E-03 6.75150E-01-4.17144E-14 1.46290E-13
 -1      3761 1.97025E+01 5.17288E-01-2.55953E-03 4.99708E-01 7.88596E-14 2.05199E-13
 -1      3762 1.96687E+01 5.62564E-01 7.78401E-04 5.63031E-01 4.14403E-14 2.35359E-13
 -1      3763 1.95130E+01 6.45451E-01 2.71442E-03 5.44152E-01-1.42353E-14 2.75847E-13
 -1      3764 1.97888E+01 4.31038E-01-2.10008E-03 3.93528E-01-3.46757E-14 2.91290E-13
 -1      3765 1.97634E+01 4.74537E-01 6.80657E-04 4.46856E-01 6.80326E-14 2.09268E-13
 -1      3766 1.96440E+01 5.47997E-01 2.16298E-03 4.34080E-01 1.94454E-14 2.77819E-13
 -1      3767 1.98540E+01 3.51458E-01-1.70711E-03 3.05363E-01-7.71388E-14 6.55430E-14
 -1      3768 1.98356E+01 3.91008E-01 6.21737E-04 3.49644E-01 8.70752E-15 1.43587E-13
 -1      3769 1.97452E+01 4.54491E-01 1.68761E-03 3.41835E-01 3.68985E-14 2.87468E-13
 -1      3770 1.99024E+01 2.81116E-01-1.37170E-03 2.33159E-01 1.76778E-14-5.44447E-14
 -1      3771 1.98895E+01 3.15722E-01 5.69550E-04 2.69358E-01-8.14557E-14-4.80922E-14
 -1      3772 1.98220E+01 3.69353E-01 1.29236E-03 2.65256E-01 2.99570E-14 3.71365E-14
 -1      3773 1.99375E+01 2.20874E-01-1.08790E-03 1.74926E-01-1.76821E-14-6.27753E-14
 -1      3774 1.99288E+01 2.50287E-01 5.13275E-04 2.04040E-01 3.44979E-14-4.15348E-14
 -1      3775 1.98793E+01 2.94671E-01 9.72382E-04 2.02517E-01 2.58772E-14-4.02955E-14
 -1      3776 1.99625E+01 1.70564E-01-8.50731E-04 1.28710E-01 7.50902E-15-1.47762E-13
 -1      3777 1.99569E+01 1.94977E-01 4.51977E-04 1.51739E-01-2.82234E-14-1.17305E-13
 -1      3778 1.99213E+01 2.31017E-01 7.18799E-04 1.51890E-01 2.35480E-14 2.94766E-14
 -1      3779 1.99798E+01 1.29433E-01-6.55329E-04 9.26367E-02 1.50339E-14-9.18750E-14
 -1      3780 1.99764E+01 1.49286E-01 3.88438E-04 1.10548E-01-2.12346E-14-1.80276E-13
 -1      3781 1.99515E+01 1.78030E-01 5.21461E-04 1.11694E-01 2.19590E-14-1.27038E-13
 -1      3782 1.99914E+01 9.64372E-02-4.96743E-04 6.49623E-02-2.96655E-14 3.17221E-14
 -1      3783 1.99895E+01 1.12287E-01 3.26111E-04 7.86530E-02 7.52124E-14 5.80884E-14
 -1      3784 1.99726E+01 1.34816E-01 3.70415E-04 8.03129E-02-1.99928E-14-2.16340E-14
 -1      3785 1.99989E+01 7.04323E-02-3.70003E-04 4.41134E-02-1.16325E-13 1.37336E-13
 -1      3786 1.99981E+01 8.28666E-02 2.67845E-04 5.43877E-02-6.60633E-14 8.74349E-14
 -1      3787 1.99870E+01 1.00220E-01 2.56640E-04 5.62389E-02-1.14567E-13 4.10640E-13
 -1      3788 2.00035E+01 5.02868E-02-2.70285E-04 2.87113E-02-2.14549E-14 3.48219E-13
 -1      3789 2.00033E+01 5.98753E-02 2.15502E-04 3.62703E-02-1.13772E-13 1.48605E-13
 -1      3790 1.99964E+01 7.30070E-02 1.72335E-04 3.81084E-02-1.60159E-13 3.04996E-13
 -1      3791 2.00060E+01 3.49495E-02-1.93073E-04 1.75789E-02 5.32098E-14 4.10373E-13
 -1      3792 2.00062E+01 4.22149E-02 1.70011E-04 2.30178E-02 5.44636E-14 3.92715E-13
 -1      3793 2.00023E+01 5.19658E-02 1.10969E-04 2.47235E-02-5.30265E-14 5.33347E-13
 -1      3794 2.00070E+01 2.34839E-02-1.34275E-04 9.73342E-03 1.56927E-13 2.23262E-13
 -1      3795 2.00075E+01 2.88876E-02 1.31566E-04 1.35466E-02 2.12644E-13 3.84117E-13
 -1      3796 2.00057E+01 3.59794E-02 6.71937E-05 1.50588E-02 1.76524E-13 5.06249E-13
 -1      3797 2.00072E+01 1.50811E-02-9.02892E-05 4.37198E-03 2.50422E-15 2.98770E-13
 -1      3798 2.00078E+01 1.90188E-02 9.98528E-05 6.96133E-03-2.02931E-14 2.79116E-13
 -1      3799 2.00073E+01 2.40554E-02 3.67122E-05 8.25767E-03 7.49637E-14 4.05713E-13
 -1      3800 2.00069E+01 9.05966E-03-5.80184E-05 8.51039E-04 4.33804E-14 2.03052E-13
 -1      3801 2.00074E+01 1.18627E-02 7.42537E-05 2.53731E-03 9.58930E-14 2.84461E-13
 -1      3802 2.00078E+01 1.53392E-02 1.61226E-05 3.61949E-03 3.93772E-14 3.03337E-13
 -1      3803 2.00062E+01 4.85795E-03-3.48620E-05-1.33559E-03-1.37129E-13 3.07689E-13
 -1      3804 2.00067E+01 6.79806E-03 5.39996E-05-3.01145E-04-5.41827E-14 2.70261E-13
 -1      3805 2.00076E+01 9.11241E-03 2.77016E-06 5.82558E-04-1.76471E-14 5.64299E-13
 -1      3806 2.00053E+01 2.02147E-03-1.86776E-05-2.57878E-03-1.08251E-13 2.86132E-13
 -1      3807 2.00059E+01 3.31749E-03 3.82793E-05-2.00290E-03-1.24634E-13 2.48619E-13
 -1      3808 2.00070E+01 4.78381E-03-5.38957E-06-1.29489E-03-1.44272E-13 5.38076E-13
 -1      3809 2.00045E+01 1.88836E-04-7.73251E-06-3.17473E-03 7.84233E-14 1.43450E-13
 -1      3810 2.00049E+01 1.01402E-03 2.63104E-05-2.91156E-03 6.25781E-14 3.63251E-13
 -1      3811 2.00061E+01 1.87597E-03-9.90883E-06-2.35383E-03-4.28825E-14 3.00661E-13
 -1      3812 2.00037E+01-9.22671E-04-6.48620E-07-3.34339E-03 1.42568E-13-2.76641E-14
 -1      3813 2.00040E+01-4.33364E-04 1.73814E-05-3.28507E-03 1.55859E-13 2.67430E-14
 -1      3814 2.00052E+01 9.85946E-06-1.19485E-05-2.85243E-03 2.08074E-13 1.91848E-13
 -1      3815 2.00029E+01-1.53092E-03 3.66737E-06-3.24446E-03 8.59110E-15 3.16234E-14
 -1      3816 2.00032E+01-1.27391E-03 1.08715E-05-3.31307E-03-1.06917E-14-1.28863E-14
 -1      3817 2.00043E+01-1.11054E-03-1.23619E-05-2.98220E-03 4.35549E-14 1.04043E-13
 -1      3818 2.00022E+01-1.80189E-03 5.86006E-06-2.99098E-03-1.17244E-13 2.34810E-14
 -1      3819 2.00025E+01-1.69833E-03 6.25900E-06-3.13169E-03 2.55076E-14-8.41030E-15
 -1      3820 2.00034E+01-1.71297E-03-1.17976E-05-2.88197E-03-3.12920E-14 1.45175E-13
 -1      3821 2.00016E+01-1.85861E-03 7.51605E-06-2.66069E-03-1.45747E-13 1.80353E-13
 -1      3822 2.00019E+01-1.84999E-03 3.41650E-06-2.83503E-03-2.13047E-13 3.26762E-14
 -1      3823 2.00026E+01-1.97170E-03-1.11920E-05-2.64976E-03-1.59808E-13 1.07808E-13
 -1      3824 2.00011E+01-1.79583E-03 5.18871E-06-2.30051E-03-1.16186E-13 2.33371E-13
 -1      3825 2.00013E+01-1.84216E-03-8.96132E-07-2.48539E-03-7.62640E-14 2.36426E-13
 -1      3826 2.00020E+01-2.01031E-03-8.11951E-06-2.34574E-03-1.69838E-13 2.80439E-13
 -1      3827 2.00021E+01-2.25403E-03 3.82706E-06 7.50658E-04 4.33431E-13-3.06986E-13
 -1      3828 2.00022E+01-2.31612E-03-4.73233E-06 4.13606E-04 3.19916E-13-2.72673E-13
 -1      3829 2.00024E+01-2.31183E-03 6.64036E-07 8.45314E-04 4.48204E-13-2.08660E-13
 -1      3830 2.00010E+01-1.79977E-03 1.67695E-06-1.92619E-03 7.28179E-15 2.86587E-13
 -1      3831 2.00010E+01-1.80253E-03-3.66825E-06-2.11866E-03-1.23937E-13 2.75324E-13
 -1      3832 2.00016E+01-1.97398E-03 2.61487E-06-2.00952E-03-1.52996E-13 2.38122E-13
 -1      3833 2.00013E+01-1.94707E-03 3.98267E-06-1.65237E-03 2.39739E-13 2.39320E-13
 -1      3834 2.00014E+01-2.09341E-03 5.58807E-06-7.88117E-04 4.77956E-15-5.43329E-13
 -1      3835 2.00013E+01-2.02901E-03-1.23589E-06-1.01859E-03 1.33794E-13-3.85090E-13
 -1      3836 2.00014E+01-2.04031E-03-4.28834E-06-1.24117E-03 2.67243E-13-2.26247E-13
 -1      3837 1.10408E+01 2.53521E+00 1.31552E-01 2.98409E+00 4.10746E-13-1.12993E-12
 -1      3838 1.91514E+01-1.32325E+00 2.77381E-02 3.12100E+00-3.47761E-13-1.30524E-13
 -1      3839 1.76210E+01-1.26897E+00 1.91391E-02 3.69392E+00-3.69250E-13-2.88589E-14
 -1      3840 1.65599E+01-6.38472E-01-6.85916E-03 3.33509E+00-3.62232E-13 7.26589E-14
 -1      3841 1.87366E+01-7.56255E-01 8.10202E-03 2.85178E+00-3.05966E-13-8.15823E-14
 -1      3842 1.30985E+01 1.03477E+00 4.20633E-02-5.62032E-01 3.37629E-14 1.90126E-13
 -1      3843 1.37244E+01 6.38657E-01-1.41910E-02-1.83210E+00 1.58469E-13 1.62342E-13
 -1      3844 1.28875E+01 5.77795E-01 7.93136E-02 2.17945E+00-1.29351E-13 3.03216E-13
 -1      3845 1.26924E+01 8.88105E-01 8.17304E-03 8.27506E-01-3.08503E-14 2.64837E-13
 -1      3846 1.43689E+01 2.74740E-01 5.94728E-02 2.52610E+00-2.09490E-13 1.84887E-13
 -1      3847 1.69287E+01-7.27351E-01 1.78781E-02-3.34218E+00 3.05263E-13 1.28869E-13
 -1      3848 1.82556E+01 6.88671E-01 4.00487E-03 1.60582E+00-1.24320E-13 3.67040E-15
 -1      3849 1.86466E+01 4.63004E-01-7.59784E-03 1.78555E+00-1.11207E-13 2.93374E-14
 -1      3850 1.86797E+01 2.87876E-01 1.38956E-02 1.97464E+00-1.24130E-13-6.61036E-14
 -1      3851 1.48694E+01 6.99770E-01 1.47378E-02-1.72779E+00 1.18182E-13 1.17599E-13
 -1      3852 1.47311E+01 4.17333E-01 7.09818E-02-2.49293E+00 2.38248E-13 2.00163E-13
 -1      3853 2.00026E+01-2.37911E-03 2.03871E-06 5.11319E-05 3.84617E-13-2.17017E-13
 -1      3854 2.00022E+01-2.31374E-03 4.73492E-06 1.16705E-05 3.02571E-13-2.51724E-13
 -1      3855 2.00022E+01-2.31635E-03-3.70144E-06-3.44251E-04 3.18040E-13-2.36754E-13
 -1      3856 2.00016E+01-2.06539E-03-5.45804E-07-1.39015E-03 3.32290E-13-2.50791E-13
 -1      3857 2.00017E+01-2.08723E-03-4.32770E-06-1.56459E-03 1.63703E-13-1.63165E-13
 -1      3858 2.00018E+01-2.15374E-03 4.44242E-06-1.14545E-03 2.38374E-13-7.63442E-13
 -1      3859 1.34764E+01 1.09281E+00 3.96524E-02 9.60688E-02 3.31835E-14 2.14018E-13
 -1      3860 1.43723E+01 1.07845E+00-6.77737E-03-3.25314E-01 6.04421E-14 1.40190E-13
 -1      3861 1.40719E+01 1.03337E+00 4.20843E-03 9.20150E-01-6.27103E-15 1.60842E-13
 -1      3862 1.59587E+01-4.09630E-01 9.02684E-04-3.15004E+00 3.20076E-13 1.46619E-13
 -1      3863 2.00017E+01-2.19473E-03-3.19133E-06-6.73829E-04 1.71915E-13-5.15750E-13
 -1      3864 1.85142E+01 3.73219E-02-4.61874E-03 2.25092E+00-1.32890E-13-9.88832E-14
 -1      3865 1.86680E+01-2.88432E-01 2.13944E-02 2.48958E+00-2.03098E-13-1.04584E-13
 -1      3866 1.79111E+01 3.60290E-01-1.29809E-03 2.07373E+00-1.66330E-13-5.45101E-14
 -1      3867 1.77733E+01-3.08909E-01-6.48573E-03 2.76116E+00-2.21723E-13-2.57671E-14
 -1      3868 1.50797E+01 1.07108E+00 5.44200E-02-1.09355E+00 7.40100E-14 1.18361E-13
 -1      3869 1.56327E+01 6.62010E-01-2.58974E-02-1.73305E+00 1.08195E-13 1.12867E-13
 -1      3870 1.68035E+01 2.54750E-01-1.84604E-02 2.34520E+00-1.32830E-13 4.10340E-14
 -1      3871 1.69125E+01-1.10115E-01 3.76658E-02 2.76918E+00-2.60576E-13 6.87727E-14
 -1      3872 1.55996E+01 2.25694E-02 2.72810E-02 2.89128E+00-2.58238E-13 1.11158E-13
 -1      3873 2.00019E+01-2.10308E-03-1.29425E-06-1.72803E-03-9.84664E-14 1.04375E-13
 -1      3874 2.00020E+01-2.10061E-03 1.29764E-06-1.92153E-03-1.18964E-13 1.33680E-13
 -1      3875 2.00022E+01-2.20594E-03 1.53441E-06-1.46525E-03 1.93349E-14-1.58385E-13
 -1      3876 1.71518E+01 6.22898E-01-7.92017E-03-1.59245E+00-4.41988E-14 1.34550E-13
 -1      3877 1.73628E+01 7.61043E-01-1.53398E-02-1.32596E+00-5.89646E-14 9.91844E-14
 -1      3878 1.77185E+01 8.37293E-01 2.27941E-03-1.14505E+00-4.33697E-14 9.97937E-14
 -1      3879 1.78937E+01 8.85400E-01-1.14283E-02-9.73244E-01 6.37571E-15 9.74142E-14
 -1      3880 1.72396E+01 9.73709E-01 8.85735E-03-9.99352E-01-8.08716E-14 2.55701E-13
 -1      3881 1.81720E+01 9.15194E-01 2.10710E-03-8.43851E-01 3.13264E-15 4.78432E-14
 -1      3882 1.83276E+01 9.19222E-01-7.89953E-03-7.24773E-01 9.46134E-15 4.14317E-14
 -1      3883 1.78302E+01 1.03218E+00 9.59959E-03-7.14442E-01-4.30266E-14 1.56463E-13
 -1      3884 1.85451E+01 9.14998E-01 7.74764E-04-6.35155E-01 1.21904E-14-9.41490E-14
 -1      3885 1.86810E+01 8.93415E-01-5.70410E-03-5.48372E-01-4.45236E-14-1.28285E-13
 -1      3886 1.82992E+01 1.01071E+00 7.46685E-03-5.22159E-01-4.17768E-14-6.01520E-14
 -1      3887 1.88547E+01 8.66454E-01 1.75491E-04-4.83588E-01-4.52115E-14-1.02102E-13
 -1      3888 1.89705E+01 8.28426E-01-4.26169E-03-4.18387E-01-3.87610E-14-9.38133E-14
 -1      3889 1.86717E+01 9.49234E-01 5.79206E-03-3.86024E-01-4.28413E-14-1.13061E-13
 -1      3890 1.91098E+01 7.87812E-01-1.54055E-04-3.70683E-01-1.70472E-13-5.96427E-14
 -1      3891 1.92065E+01 7.40848E-01-3.26913E-03-3.20484E-01-1.36115E-13-8.79586E-14
 -1      3892 1.89717E+01 8.60744E-01 4.58598E-03-2.88021E-01-8.13117E-14-1.46516E-13
 -1      3893 1.93181E+01 6.93539E-01-2.99629E-04-2.84749E-01-6.72113E-14-1.73141E-13
 -1      3894 1.93975E+01 6.43236E-01-2.55219E-03-2.45425E-01-9.04934E-14-2.56985E-13
 -1      3895 1.92130E+01 7.58019E-01 3.67665E-03-2.16075E-01-1.67906E-13-2.76757E-13
 -1      3896 1.94863E+01 5.94245E-01-3.39591E-04-2.18326E-01-5.07099E-14-2.14494E-13
 -1      3897 1.95501E+01 5.44566E-01-2.01182E-03-1.87211E-01-2.39858E-14-1.58451E-13
 -1      3898 1.94062E+01 6.50859E-01 2.96159E-03-1.62369E-01-6.97897E-14-3.54688E-13
 -1      3899 1.96201E+01 4.97304E-01-3.23331E-04-1.66515E-01 2.08499E-14-3.03247E-14
 -1      3900 1.96706E+01 4.50850E-01-1.59014E-03-1.41808E-01 1.39371E-13 3.31109E-14
 -1      3901 1.95593E+01 5.46378E-01 2.38004E-03-1.21794E-01 7.74504E-14-1.02012E-13
 -1      3902 1.97251E+01 4.07446E-01-2.80482E-04-1.25963E-01 1.30562E-13-1.64652E-14
 -1      3903 1.97642E+01 3.65735E-01-1.25327E-03-1.06375E-01 1.08585E-13-8.46154E-15
 -1      3904 1.96792E+01 4.49320E-01 1.89828E-03-9.09147E-02 1.28721E-13-1.27092E-13
 -1      3905 1.98060E+01 3.27330E-01-2.28390E-04-9.42605E-02 1.59987E-14-2.92320E-15
 -1      3906 1.98358E+01 2.91065E-01-9.80861E-04-7.88192E-02-7.23711E-14 2.11207E-14
 -1      3907 1.97718E+01 3.62467E-01 1.49722E-03-6.73410E-02 6.60824E-14-8.02817E-14
 -1      3908 1.98673E+01 2.58087E-01-1.76768E-04-6.95988E-02-9.52093E-14 3.51371E-14
 -1      3909 1.98895E+01 2.27390E-01-7.59961E-04-5.75288E-02-1.67107E-13 1.42118E-14
 -1      3910 1.98422E+01 2.87072E-01 1.16484E-03-4.93551E-02-1.07489E-13-1.27448E-13
 -1      3911 1.99129E+01 1.99782E-01-1.30581E-04-5.05631E-02-2.60977E-13 5.14367E-14
 -1      3912 1.99291E+01 1.74396E-01-5.81517E-04-4.12292E-02-6.67600E-14 5.73978E-14
 -1      3913 1.98947E+01 2.23292E-01 8.92216E-04-3.56837E-02-1.97495E-13-1.11219E-13
 -1      3914 1.99460E+01 1.51791E-01-9.18922E-05-3.60188E-02-1.55573E-14-7.17307E-14
 -1      3915 1.99575E+01 1.31231E-01-4.38559E-04-2.88913E-02-1.44846E-14-2.01578E-13
 -1      3916 1.99332E+01 1.70543E-01 6.71620E-04-2.53596E-02-2.12290E-13-2.51202E-13
 -1      3917 1.99694E+01 1.13095E-01-6.10644E-05-2.50420E-02-8.28377E-14-1.94747E-13
 -1      3918 1.99773E+01 9.67660E-02-3.25298E-04-1.96771E-02-1.03577E-13-2.29187E-13
 -1      3919 1.99606E+01 1.27805E-01 4.95861E-04-1.76336E-02-3.77542E-14-2.27033E-13
 -1      3920 1.99856E+01 8.24915E-02-3.75315E-05-1.68760E-02-8.98928E-14-3.09379E-13
 -1      3921 1.99908E+01 6.97627E-02-2.36728E-04-1.29034E-02-1.81519E-14-3.45639E-13
 -1      3922 1.99797E+01 9.38352E-02 3.58125E-04-1.19187E-02-1.44160E-13-1.33195E-13
 -1      3923 1.99962E+01 5.87358E-02-2.02911E-05-1.09022E-02 4.72956E-14-2.81476E-13
 -1      3924 1.99995E+01 4.89972E-02-1.68466E-04-8.01531E-03 3.05598E-14-2.18828E-13
 -1      3925 1.99925E+01 6.73307E-02 2.52057E-04-7.75139E-03 2.61154E-14-1.89702E-13
 -1      3926 2.00029E+01 4.06390E-02-8.20259E-06-6.61763E-03 6.81056E-14-6.92179E-14
 -1      3927 2.00048E+01 3.33304E-02-1.16682E-04-4.56561E-03 1.51490E-13 1.04458E-13
 -1      3928 2.00007E+01 4.70294E-02 1.71874E-04-4.76528E-03 1.26166E-13 2.34483E-14
 -1      3929 2.00067E+01 2.71199E-02-1.58982E-07-3.61722E-03 5.13294E-14 1.36253E-13
 -1      3930 2.00076E+01 2.17471E-02-7.80792E-05-2.19726E-03 6.83311E-15 3.51310E-14
 -1      3931 2.00056E+01 3.17734E-02 1.12460E-04-2.67138E-03 9.38580E-14 5.36859E-14
 -1      3932 2.00086E+01 1.72317E-02 4.82590E-06-1.57807E-03 7.16226E-14-5.23644E-14
 -1      3933 2.00088E+01 1.33723E-02-4.98579E-05-6.28555E-04 2.58333E-13-8.57278E-14
 -1      3934 2.00082E+01 2.05407E-02 6.94040E-05-1.24288E-03-3.96058E-14-4.50425E-14
 -1      3935 2.00091E+01 1.01699E-02 7.58159E-06-2.46055E-04 2.04235E-13-1.66159E-13
 -1      3936 2.00090E+01 7.47141E-03-2.96856E-05 3.59967E-04 1.38939E-14-1.32280E-13
 -1      3937 2.00092E+01 1.24565E-02 3.89961E-05-3.03172E-04 1.73733E-13-1.05731E-13
 -1      3938 2.00088E+01 5.26687E-03 8.77645E-06 5.76154E-04-3.49584E-15-1.86428E-13
 -1      3939 2.00085E+01 3.44195E-03-1.56501E-05 9.36870E-04 7.03646E-14-1.37654E-13
 -1      3940 2.00092E+01 6.79072E-03 1.81838E-05 2.83922E-04 1.23657E-14-3.09891E-13
 -1      3941 2.00081E+01 1.98073E-03 8.92993E-06 1.03951E-03 1.11425E-13-9.85346E-14
 -1      3942 2.00076E+01 7.99494E-04-6.21131E-06 1.22963E-03 3.09624E-13-1.78201E-13
 -1      3943 2.00086E+01 2.94734E-03 4.50662E-06 6.22155E-04 1.32896E-13-2.42444E-13
 -1      3944 2.00071E+01-1.20228E-04 8.43245E-06 1.25765E-03 4.39637E-13-1.56931E-13
 -1      3945 2.00065E+01-8.38409E-04-1.49744E-07 1.33299E-03 3.84088E-13-9.01784E-14
 -1      3946 2.00076E+01 4.48941E-04-3.98076E-06 7.89492E-04 3.56114E-13-4.08592E-13
 -1      3947 2.00060E+01-1.37392E-03 7.56485E-06 1.31451E-03 2.01978E-13-3.69987E-14
 -1      3948 2.00054E+01-1.76869E-03 3.44727E-06 1.31596E-03 1.61928E-13-3.32999E-14
 -1      3949 2.00065E+01-1.08005E-03-8.79041E-06 8.43574E-04 3.48584E-13-1.36781E-13
 -1      3950 2.00049E+01-2.04059E-03 6.48937E-06 1.27071E-03 8.96317E-14-3.05506E-14
 -1      3951 2.00044E+01-2.21759E-03 5.65340E-06 1.22734E-03 4.46893E-14-9.86388E-14
 -1      3952 2.00054E+01-1.93035E-03-1.10759E-05 8.26142E-04 8.09410E-14-1.35983E-13
 -1      3953 2.00039E+01-2.31985E-03 4.70994E-06 1.17012E-03 4.44156E-14-6.81888E-14
 -1      3954 2.00034E+01-2.35548E-03 7.47605E-06 1.10051E-03 7.27443E-14-2.17904E-14
 -1      3955 2.00043E+01-2.32188E-03-1.14891E-05 7.66868E-04 1.30076E-13-1.65126E-13
 -1      3956 2.00031E+01-2.36466E-03 2.80414E-06 1.01679E-03 1.57739E-13-1.04279E-13
 -1      3957 2.00027E+01-2.33788E-03 6.49400E-06 9.18207E-04 3.48128E-13-1.68833E-13
 -1      3958 2.00028E+01-2.41550E-03-9.17362E-06 5.31507E-04 3.03817E-13-2.10924E-13
 -1      3959 2.00035E+01-2.43477E-03-1.15687E-05 6.63511E-04 1.39657E-13-3.96818E-15
 -1      3960 1.87129E+01 9.22007E-01-6.34147E-03 8.26793E-01-3.76994E-14 3.72481E-14
 -1      3961 1.85789E+01 9.42398E-01 1.10951E-03 9.24848E-01-3.80372E-14-1.49242E-15
 -1      3962 1.83429E+01 9.40451E-01-8.74004E-03 1.02651E+00-1.04374E-13-1.12631E-13
 -1      3963 1.81897E+01 9.27368E-01 2.76201E-03 1.15508E+00-1.04023E-13-1.37735E-13
 -1      3964 1.82352E+01 1.04682E+00 8.78698E-03 8.11080E-01-1.40631E-13-1.04744E-13
 -1      3965 1.94415E+01 6.58523E-01-2.92553E-03 4.39898E-01-6.74905E-14 1.81486E-13
 -1      3966 1.93684E+01 7.11656E-01-1.99525E-04 4.95055E-01-5.01228E-14 1.88597E-13
 -1      3967 1.95897E+01 5.55297E-01-2.35579E-03 3.50961E-01-1.71505E-15 1.79667E-13
 -1      3968 1.95329E+01 6.07248E-01-1.38286E-04 3.97662E-01 1.08199E-14 1.66687E-13
 -1      3969 1.94121E+01 6.78881E-01 3.22265E-03 3.51071E-01-5.93199E-14 1.17668E-13
 -1      3970 1.97041E+01 4.58306E-01-1.90464E-03 2.76249E-01 6.04376E-14 1.80263E-13
 -1      3971 1.96608E+01 5.06412E-01-5.02161E-05 3.15508E-01 8.88374E-15 2.33949E-13
 -1      3972 1.95679E+01 5.69547E-01 2.52949E-03 2.80800E-01 1.55525E-14 1.96681E-13
 -1      3973 1.97913E+01 3.71044E-01-1.53484E-03 2.14130E-01 6.42956E-14 5.13009E-14
 -1      3974 1.97588E+01 4.13882E-01 2.88407E-05 2.46727E-01 1.37053E-13 1.01434E-13
 -1      3975 1.96881E+01 4.68349E-01 1.97048E-03 2.21451E-01 1.32933E-13 6.93439E-14
 -1      3976 1.98567E+01 2.95064E-01-1.22677E-03 1.63204E-01-2.10807E-15 8.31879E-14
 -1      3977 1.98328E+01 3.32073E-01 8.61353E-05 1.89863E-01 1.06316E-14 5.38361E-14
 -1      3978 1.97797E+01 3.78096E-01 1.51970E-03 1.71884E-01 1.96431E-14 4.06017E-14
 -1      3979 1.99049E+01 2.30631E-01-9.69483E-04 1.22112E-01 7.78104E-14 1.44865E-13
 -1      3980 1.98878E+01 2.61817E-01 1.20442E-04 1.43563E-01 6.12120E-14 1.01263E-13
 -1      3981 1.98486E+01 2.99942E-01 1.15809E-03 1.31103E-01 3.13686E-14 9.59875E-14
 -1      3982 1.99399E+01 1.77198E-01-7.55911E-04 8.95119E-02 3.68475E-14 1.38482E-13
 -1      3983 1.99278E+01 2.02919E-01 1.35483E-04 1.06481E-01 5.75175E-14 1.01852E-13
 -1      3984 1.98995E+01 2.33914E-01 8.70481E-04 9.81134E-02 1.00566E-13 2.08115E-13
 -1      3985 1.99647E+01 1.33758E-01-5.80578E-04 6.40959E-02-1.32553E-13 2.70149E-13
 -1      3986 1.99564E+01 1.54566E-01 1.36413E-04 7.72878E-02-2.55612E-14 1.83999E-13
 -1      3987 1.99364E+01 1.79313E-01 6.44138E-04 7.18935E-02-4.59005E-14 2.83533E-13
 -1      3988 1.99818E+01 9.90828E-02-4.38591E-04 4.46372E-02-2.19820E-13 4.37396E-13
 -1      3989 1.99764E+01 1.15616E-01 1.28133E-04 5.47095E-02-2.11167E-13 3.34590E-13
 -1      3990 1.99626E+01 1.35030E-01 4.68158E-04 5.14299E-02-2.22750E-13 3.49702E-13
 -1      3991 1.99932E+01 7.18835E-02-3.25325E-04 3.00211E-02-1.85729E-13 5.01333E-13
 -1      3992 1.99898E+01 8.47935E-02 1.14622E-04 3.75668E-02-1.94529E-13 4.91713E-13
 -1      3993 1.99807E+01 9.97574E-02 3.33151E-04 3.57556E-02-2.25744E-13 4.14024E-13
 -1      3994 2.00005E+01 5.09150E-02-2.36394E-04 1.92667E-02 9.53711E-15 4.97188E-13
 -1      3995 1.99986E+01 6.08221E-02 9.88075E-05 2.48044E-02-4.26637E-14 4.53780E-13
 -1      3996 1.99929E+01 7.21490E-02 2.31082E-04 2.39832E-02-8.88256E-14 3.70696E-13
 -1      3997 2.00048E+01 3.50344E-02-1.67717E-04 1.15344E-02 2.10123E-13 4.32572E-13
 -1      3998 2.00039E+01 4.25015E-02 8.26704E-05 1.55053E-02 1.78950E-13 4.27891E-13
 -1      3999 2.00006E+01 5.09124E-02 1.55153E-04 1.53267E-02 1.85192E-13 2.67277E-13
 -1      4000 2.00071E+01 2.32316E-02-1.15599E-04 6.12254E-03 3.34852E-14 3.25223E-13
 -1      4001 2.00068E+01 2.87523E-02 6.74392E-05 8.89367E-03 9.47241E-14 3.82133E-13
 -1      4002 2.00052E+01 3.48675E-02 9.96918E-05 9.10986E-03 1.67035E-13 2.87472E-13
 -1      4003 2.00080E+01 1.46394E-02-7.67810E-05 2.45828E-03 2.55612E-15 5.04196E-13
 -1      4004 2.00081E+01 1.86346E-02 5.37872E-05 4.32817E-03 2.10092E-15 4.21684E-13
 -1      4005 2.00076E+01 2.29746E-02 6.00294E-05 4.76662E-03-4.71700E-14 4.24820E-13
 -1      4006 2.00080E+01 8.53144E-03-4.84624E-05 8.31116E-05-1.39063E-13 5.96626E-13
 -1      4007 2.00084E+01 1.13517E-02 4.20046E-05 1.28984E-03-2.15980E-14 5.51920E-13
 -1      4008 2.00085E+01 1.43439E-02 3.23784E-05 1.83366E-03-3.10430E-14 6.18948E-13
 -1      4009 2.00075E+01 4.31144E-03-2.82881E-05-1.36275E-03-3.92725E-14 5.38413E-13
 -1      4010 2.00079E+01 6.24311E-03 3.21335E-05-6.32899E-04-2.26975E-14 5.74725E-13
 -1      4011 2.00085E+01 8.23137E-03 1.37107E-05-5.99986E-05-3.04233E-14 5.81449E-13
 -1      4012 2.00067E+01 1.49933E-03-1.43191E-05-2.15622E-03 1.15885E-13 2.71929E-13
 -1      4013 2.00072E+01 2.77186E-03 2.40670E-05-1.76025E-03-1.00892E-14 4.07846E-13
 -1      4014 2.00080E+01 4.02801E-03 1.64045E-06-1.20552E-03 9.54605E-14 5.05094E-13
 -1      4015 2.00057E+01-2.84951E-04-4.98819E-06-2.50625E-03 1.98949E-13 3.49781E-13
 -1      4016 2.00062E+01 5.09309E-04 1.76209E-05-2.33654E-03 1.37377E-13 2.72555E-13
 -1      4017 2.00071E+01 1.24421E-03-5.68395E-06-1.82688E-03 8.19658E-14 2.32154E-13
 -1      4018 2.00047E+01-1.33745E-03 9.56368E-07-2.56723E-03 8.95922E-14 3.35140E-13
 -1      4019 2.00052E+01-8.81156E-04 1.25811E-05-2.54447E-03 2.23845E-13 4.27177E-13
 -1      4020 2.00061E+01-5.06779E-04-9.67528E-06-2.09297E-03 2.03656E-13 3.50727E-13
 -1      4021 2.00038E+01-1.88554E-03 4.30199E-06-2.45059E-03-1.72259E-14 3.79515E-13
 -1      4022 2.00042E+01-1.65979E-03 8.72917E-06-2.51769E-03-4.14735E-14 2.37548E-13
 -1      4023 2.00050E+01-1.52562E-03-1.13977E-05-2.12838E-03 1.34187E-13 4.06078E-13
 -1      4024 2.00030E+01-2.10697E-03 5.09259E-06-2.23709E-03-1.63726E-13 2.38729E-13
 -1      4025 2.00033E+01-2.02327E-03 6.30022E-06-2.35127E-03-7.56569E-14 3.11065E-13
 -1      4026 2.00040E+01-2.04298E-03-1.15153E-05-2.02278E-03-2.87037E-14 4.61929E-13
 -1      4027 2.00024E+01-2.12375E-03 3.38553E-06-2.05651E-03-1.34770E-13 1.79546E-13
 -1      4028 1.90124E+01 8.54676E-01-4.75627E-03 6.71684E-01-7.97337E-14 1.43230E-13
 -1      4029 1.88994E+01 8.94712E-01 1.57486E-04 7.50302E-01-2.21696E-14 1.45965E-13
 -1      4030 1.86387E+01 9.89333E-01 6.65003E-03 6.53841E-01-5.45328E-14 1.28432E-13
 -1      4031 1.63992E+01 8.12470E-02 4.56692E-03-2.54079E+00 1.80837E-13 1.56839E-13
 -1      4032 2.00021E+01-2.27408E-03 4.05236E-06-5.91709E-04 4.00079E-13-2.72744E-13
 -1      4033 2.00019E+01-2.22117E-03-1.04715E-06-9.21436E-04 2.96498E-13-5.40866E-13
 -1      4034 2.00021E+01-2.25270E-03-2.94844E-06-1.07538E-03 3.97801E-13-5.46909E-13
 -1      4035 2.00024E+01-2.34449E-03-5.82364E-08-6.05490E-04 4.46113E-13-3.65722E-13
 -1      4036 1.92520E+01 7.61702E-01-3.68395E-03 5.45417E-01-4.75041E-14 1.88752E-13
 -1      4037 1.91599E+01 8.11636E-01-1.54800E-04 6.10711E-01-7.41479E-14 1.71067E-13
 -1      4038 1.89589E+01 8.98692E-01 5.19186E-03 5.32703E-01-6.96311E-14 2.03896E-13
 -1      4039 1.46694E+01 5.98759E-01-1.42332E-02 1.96351E+00-9.58790E-14 1.18787E-13
 -1      4040 1.66951E+01 3.78669E-01 2.43949E-02-2.12564E+00 9.03420E-14 1.19036E-13
 -1      4041 1.78935E+01 8.76116E-01-1.19011E-02 1.29661E+00-4.83588E-14-1.34375E-13
 -1      4042 1.77345E+01 8.10204E-01 7.91083E-03 1.47057E+00-1.11639E-13-1.17616E-13
 -1      4043 1.77387E+01 1.04940E+00 1.63676E-02 1.03492E+00-9.07505E-14-1.72184E-13
 -1      4044 1.66540E+01 6.45735E-01-4.71408E-03-1.63061E+00 6.53297E-15 1.03096E-13
 -1      4045 1.63791E+01 9.73731E-01 1.48083E-02-1.17688E+00-1.89786E-14 9.19132E-14
 -1      4046 2.00032E+01-2.43173E-03 4.53916E-06 1.35890E-04 2.15277E-13-2.09761E-13
 -1      4047 2.00029E+01-2.40732E-03 6.43718E-06 8.08937E-05 2.63044E-13-2.85655E-13
 -1      4048 2.00029E+01-2.42404E-03-7.15402E-06-3.24099E-04 3.32598E-13-4.47799E-13
 -1      4049 2.00030E+01-2.22709E-03-8.31542E-06-1.78983E-03-9.42048E-14 2.87728E-13
 -1      4050 1.51544E+01 8.85600E-01 1.73591E-02 1.34918E+00-9.87600E-15 9.54098E-14
 -1      4051 1.92125E+01 7.91279E-01 4.08880E-03 4.33970E-01-6.63493E-14 2.16222E-13
 -1      4052 1.73641E+01 6.74452E-01-2.06234E-02 1.71615E+00-1.49839E-13-6.91008E-14
 -1      4053 1.72566E+01 5.23193E-01 2.17617E-02 1.97688E+00-1.05188E-13-1.96995E-14
 -1      4054 1.63539E+01 6.59290E-01 1.85760E-02 1.96156E+00-7.65872E-14 8.15040E-14
 -1      4055 1.70895E+01 9.71017E-01 2.17604E-02 1.39020E+00-6.70077E-14-1.41458E-13
 -1      4056 1.52030E+01 1.08936E+00 5.09122E-03-4.94858E-01 8.99220E-14 1.28861E-13
 -1      4057 1.54327E+01 1.26424E+00 3.52016E-02 1.77828E-01 9.27158E-14 1.28588E-13
 -1      4058 1.58506E+01 1.11310E+00-1.73296E-02-5.27189E-01 8.25247E-14 1.21816E-13
 -1      4059 2.00024E+01-2.26931E-03 5.52676E-07-1.22065E-03 2.44751E-13-3.90246E-13
 -1      4060 2.00026E+01-2.27753E-03 1.90962E-06-1.39547E-03 2.50419E-14-1.05447E-13
 -1      4061 2.00026E+01-2.32461E-03 1.84957E-06-9.97464E-04 3.60378E-13-4.03861E-13
 -1      4062 1.75571E+01 1.10111E+00 3.63204E-03-5.03261E-01-1.89374E-13 2.30944E-13
 -1      4063 1.78026E+01 1.08049E+00-9.78968E-03-4.12461E-01-1.16567E-13 1.14102E-13
 -1      4064 1.80864E+01 1.06564E+00-1.83055E-03-3.56811E-01-1.03803E-13 5.61004E-14
 -1      4065 1.82934E+01 1.03382E+00-6.62862E-03-2.90261E-01-1.05413E-13 2.58258E-14
 -1      4066 1.78857E+01 1.15120E+00 1.15912E-02-1.61324E-01-1.73733E-13 1.32154E-13
 -1      4067 1.85131E+01 9.97646E-01-1.75533E-03-2.52852E-01-1.94980E-14 8.36726E-15
 -1      4068 1.86799E+01 9.52211E-01-4.77198E-03-2.05684E-01-1.19954E-14 4.52406E-15
 -1      4069 1.83686E+01 1.06996E+00 8.69301E-03-9.59856E-02-6.08017E-14 6.33761E-14
 -1      4070 1.88517E+01 9.04282E-01-1.50749E-03-1.80424E-01-6.16110E-14-3.96811E-14
 -1      4071 1.89862E+01 8.50982E-01-3.52963E-03-1.46441E-01-1.19690E-13-1.13061E-13
 -1      4072 1.87447E+01 9.67033E-01 6.51205E-03-5.38352E-02-7.29167E-14-3.30912E-14
 -1      4073 1.91215E+01 7.97099E-01-1.29441E-03-1.29472E-01-1.93118E-13-8.01039E-14
 -1      4074 1.92296E+01 7.40829E-01-2.66764E-03-1.04522E-01-2.01766E-13-1.67120E-13
 -1      4075 1.90412E+01 8.52395E-01 5.01413E-03-2.71465E-02-1.43870E-13-8.69970E-14
 -1      4076 1.93361E+01 6.85551E-01-1.10514E-03-9.32619E-02-1.38763E-13-1.65299E-13
 -1      4077 1.94223E+01 6.30057E-01-2.04472E-03-7.46563E-02-5.05666E-15-1.47101E-13
 -1      4078 1.92755E+01 7.34287E-01 3.92940E-03-1.09081E-02-1.32304E-13 2.62639E-14
 -1      4079 1.95058E+01 5.76707E-01-9.32471E-04-6.73083E-02 9.11752E-14-1.90897E-13
 -1      4080 1.95738E+01 5.24615E-01-1.57809E-03-5.32707E-02 1.00234E-13-2.24738E-13
 -1      4081 1.94600E+01 6.19284E-01 3.10252E-03-1.61764E-03 3.00876E-14-9.66825E-14
 -1      4082 1.96387E+01 4.75395E-01-7.74168E-04-4.85739E-02 9.62187E-14-1.19575E-13
 -1      4083 1.96916E+01 4.28334E-01-1.21904E-03-3.79004E-02 1.59990E-13-1.58647E-13
 -1      4084 1.96042E+01 5.12094E-01 2.44896E-03 3.19146E-03 1.53549E-13-2.37066E-13
 -1      4085 1.97414E+01 3.84504E-01-6.30783E-04-3.49738E-02 1.42335E-13-2.35959E-13
 -1      4086 1.97820E+01 3.43296E-01-9.38117E-04-2.68255E-02 3.47782E-14-1.82400E-13
 -1      4087 1.97156E+01 4.15651E-01 1.92180E-03 5.23130E-03 1.37491E-13-2.08328E-13
 -1      4088 1.98197E+01 3.05389E-01-5.03651E-04-2.50603E-02-1.14831E-13-1.34053E-13
 -1      4089 1.98503E+01 2.70245E-01-7.16614E-04-1.88360E-02-2.08847E-13-2.61456E-13
 -1      4090 1.98006E+01 3.31397E-01 1.49349E-03 5.65949E-03-4.89442E-14-2.87032E-13
 -1      4091 1.98783E+01 2.38269E-01-3.93707E-04-1.78174E-02-1.76709E-13-1.60458E-13
 -1      4092 1.99010E+01 2.08980E-01-5.41819E-04-1.30746E-02-2.02668E-13-1.90412E-13
 -1      4093 1.98644E+01 2.59635E-01 1.14612E-03 5.23201E-03-1.37914E-13-1.67779E-13
 -1      4094 1.99215E+01 1.82596E-01-3.01028E-04-1.25247E-02-3.16055E-13-1.14937E-13
 -1      4095 1.99378E+01 1.58688E-01-4.04455E-04-8.92977E-03-2.10148E-13-1.37219E-13
 -1      4096 1.99115E+01 1.99867E-01 8.66548E-04 4.42145E-03-2.40352E-13-3.62356E-14
 -1      4097 1.99525E+01 1.37351E-01-2.24830E-04-8.66581E-03-8.25199E-14-7.55530E-14
 -1      4098 1.99640E+01 1.18208E-01-2.97334E-04-5.96214E-03-3.27058E-14-6.89997E-14
 -1      4099 1.99455E+01 1.51089E-01 6.44070E-04 3.50680E-03-9.70829E-14 8.82267E-14
 -1      4100 1.99742E+01 1.01277E-01-1.63672E-04-5.86624E-03-1.15622E-13-1.75270E-13
 -1      4101 1.99821E+01 8.62290E-02-2.14651E-04-3.85373E-03-1.26992E-13-1.41769E-13
 -1      4102 1.99694E+01 1.12029E-01 4.69417E-04 2.63962E-03-1.02572E-13-2.38823E-13
 -1      4103 1.99890E+01 7.30369E-02-1.15724E-04-3.85145E-03-4.32366E-14-2.69513E-14
 -1      4104 1.99942E+01 6.14215E-02-1.51612E-04-2.37266E-03 4.73907E-14-3.45046E-14
 -1      4105 1.99858E+01 8.13143E-02 3.34376E-04 1.89116E-03-3.59283E-14-2.09879E-13
 -1      4106 1.99986E+01 5.13299E-02-7.89985E-05-2.41818E-03 1.99223E-13-3.40066E-14
 -1      4107 2.00018E+01 4.25287E-02-1.04227E-04-1.34869E-03 1.79751E-13 4.42882E-14
 -1      4108 1.99966E+01 5.75929E-02 2.31681E-04 1.28465E-03 1.21857E-13-1.33673E-13
 -1      4109 2.00044E+01 3.49543E-02-5.15347E-05-1.41466E-03 3.17575E-14 1.60068E-13
 -1      4110 2.00063E+01 2.84146E-02-6.91815E-05-6.56163E-04 6.75715E-15 6.17375E-14
 -1      4111 2.00033E+01 3.96059E-02 1.54985E-04 8.16749E-04 1.72240E-13-6.53901E-14
 -1      4112 2.00077E+01 2.28444E-02-3.15167E-05-7.26973E-04-7.88086E-14 6.63347E-14
 -1      4113 2.00085E+01 1.80884E-02-4.37437E-05-2.02053E-04-5.71830E-14 2.81226E-14
 -1      4114 2.00071E+01 2.62288E-02 9.88516E-05 4.71054E-04-3.52866E-15 1.35745E-13
 -1      4115 2.00091E+01 1.40846E-02-1.73411E-05-2.69321E-04-9.32113E-14-1.06634E-13
 -1      4116 2.00093E+01 1.07096E-02-2.56837E-05 8.25790E-05 2.19313E-14-2.56310E-13
 -1      4117 2.00089E+01 1.64893E-02 5.87064E-05 2.26310E-04-1.66935E-13-1.01232E-14
 -1      4118 2.00094E+01 7.90766E-03-7.64323E-06 2.28463E-05 9.05320E-14-2.39938E-13
 -1      4119 2.00092E+01 5.58208E-03-1.32043E-05 2.48690E-04 2.49299E-14-2.22771E-13
 -1      4120 2.00094E+01 9.56815E-03 3.07776E-05 6.10143E-05-2.88606E-15-2.76102E-13
 -1      4121 2.00089E+01 3.68480E-03-1.29648E-06 1.97933E-04-1.10038E-14-2.51852E-13
 -1      4122 2.00085E+01 2.14116E-03-4.87531E-06 3.33742E-04 1.09307E-13-2.61878E-13
 -1      4123 2.00091E+01 4.79053E-03 1.20118E-05-4.42364E-05 6.39633E-15-2.81844E-13
 -1      4124 2.00080E+01 9.10770E-04 2.60537E-06 2.91984E-04 2.94265E-13-2.53954E-13
 -1      4125 2.00075E+01-6.29398E-05 4.27126E-07 3.65024E-04 5.04181E-13-1.77613E-13
 -1      4126 2.00083E+01 1.61153E-03-1.72678E-08-1.05777E-04 2.12560E-13-5.00965E-14
 -1      4127 2.00069E+01-8.13221E-04 4.77588E-06 3.31570E-04 4.55098E-13-3.15866E-13
 -1      4128 2.00064E+01-1.38220E-03 3.58418E-06 3.62155E-04 3.02738E-13-2.66109E-13
 -1      4129 2.00072E+01-4.00952E-04-7.19956E-06-1.36695E-04 4.56843E-13-1.55821E-13
 -1      4130 2.00058E+01-1.79675E-03 5.77016E-06 3.36071E-04 1.66403E-13-3.34029E-13
 -1      4131 2.00052E+01-2.08773E-03 5.35017E-06 3.39008E-04 5.82054E-14-3.39273E-13
 -1      4132 2.00061E+01-1.58383E-03-1.09765E-05-1.47044E-04 1.76508E-13-5.06703E-13
 -1      4133 2.00047E+01-2.27778E-03 5.69771E-06 3.19052E-04 5.89325E-14-3.02247E-13
 -1      4134 2.00042E+01-2.38088E-03 8.48325E-06 3.04172E-04 1.32977E-13-2.48349E-13
 -1      4135 2.00050E+01-2.19588E-03-1.27377E-05-1.44066E-04 1.27912E-13-5.39819E-13
 -1      4136 2.00038E+01-2.41975E-03 3.50475E-06 2.40388E-04 1.67424E-13-1.33665E-13
 -1      4137 2.00035E+01-2.43217E-03 6.54908E-06 1.82403E-04 2.10110E-13-1.37613E-13
 -1      4138 2.00035E+01-2.45300E-03-8.15895E-06-2.63595E-04 2.40062E-13-3.39589E-13
 -1      4139 2.00041E+01-2.41798E-03-1.13651E-05-1.89498E-04 1.97349E-13-4.40472E-13
 -1      4140 1.81564E+01 1.07566E+00-7.84711E-03 5.50242E-01-1.93730E-13-3.72240E-14
 -1      4141 1.79277E+01 1.10198E+00-3.20746E-03 6.25926E-01-1.59373E-13-7.32878E-14
 -1      4142 1.89213E+01 8.96703E-01-3.97453E-03 3.74067E-01-1.04804E-13 1.47633E-13
 -1      4143 1.87780E+01 9.50689E-01-1.92086E-03 4.19405E-01-8.13318E-14 1.38551E-13
 -1      4144 1.95515E+01 5.58379E-01-1.92620E-03 2.01512E-01 7.11860E-14 2.88004E-13
 -1      4145 1.94829E+01 6.12921E-01-8.70488E-04 2.29876E-01 1.59629E-14 2.38432E-13
 -1      4146 1.93908E+01 6.68491E-01-2.40239E-03 2.50859E-01-8.68513E-14 1.01231E-13
 -1      4147 1.93022E+01 7.26262E-01-1.17111E-03 2.83826E-01-6.85794E-14 7.92050E-14
 -1      4148 1.94000E+01 6.69285E-01 3.43997E-03 1.66392E-01-1.16906E-13 1.68040E-13
 -1      4149 1.97704E+01 3.68054E-01-1.24522E-03 1.23674E-01 2.51544E-14 1.70820E-13
 -1      4150 1.97307E+01 4.11543E-01-4.37784E-04 1.43917E-01 7.02844E-14 1.50881E-13
 -1      4151 1.98417E+01 2.91018E-01-9.90659E-04 9.42352E-02 5.11212E-14 1.28112E-13
 -1      4152 1.98123E+01 3.28244E-01-2.95061E-04 1.10906E-01-3.75933E-14 9.38001E-14
 -1      4153 1.97750E+01 3.65121E-01 1.63416E-03 8.42329E-02 3.47369E-14 1.19896E-13
 -1      4154 1.98946E+01 2.26196E-01-7.78544E-04 7.03547E-02 6.78164E-14 1.89025E-13
 -1      4155 1.98731E+01 2.57342E-01-1.90703E-04 8.38309E-02 1.11605E-13 2.15501E-13
 -1      4156 1.98454E+01 2.87992E-01 1.25267E-03 6.44691E-02 3.35447E-15 6.65856E-14
 -1      4157 1.99330E+01 1.72785E-01-6.03008E-04 5.13590E-02-1.16854E-13 1.68775E-13
 -1      4158 1.99176E+01 1.98317E-01-1.16542E-04 6.20505E-02 2.33786E-14 2.40233E-13
 -1      4159 1.98975E+01 2.23294E-01 9.47410E-04 4.82752E-02 7.78728E-15 2.40239E-13
 -1      4160 1.99604E+01 1.29610E-01-4.59478E-04 3.65434E-02-2.86610E-13 2.37683E-13
 -1      4161 1.99497E+01 1.50150E-01-6.53534E-05 4.48668E-02-2.00489E-13 2.69763E-13
 -1      4162 1.99354E+01 1.70125E-01 7.05380E-04 3.53019E-02-1.91539E-13 1.34440E-13
 -1      4163 1.99794E+01 9.53345E-02-3.43831E-04 2.52168E-02-2.02277E-13 3.08355E-13
 -1      4164 1.99721E+01 1.11566E-01-3.11490E-05 3.15728E-02-2.59458E-13 2.55079E-13
 -1      4165 1.99623E+01 1.27251E-01 5.15738E-04 2.51335E-02-2.18509E-13 7.25195E-14
 -1      4166 1.99921E+01 6.85975E-02-2.52145E-04 1.67358E-02 6.75428E-14 1.57433E-13
 -1      4167 1.99874E+01 8.12012E-02-9.18580E-06 2.14928E-02-1.68787E-14 3.16217E-13
 -1      4168 1.99809E+01 9.32969E-02 3.69158E-04 1.73344E-02-6.73718E-14 1.61121E-13
 -1      4169 2.00002E+01 4.81054E-02-1.80683E-04 1.05260E-02 1.48626E-13 2.31736E-13
 -1      4170 1.99974E+01 5.77197E-02 4.16777E-06 1.40098E-02 9.17590E-14 1.64234E-13
 -1      4171 1.99933E+01 6.68757E-02 2.57570E-04 1.14832E-02 1.21558E-13 2.51461E-14
 -1      4172 2.00051E+01 3.26839E-02-1.25969E-04 6.09147E-03 1.66415E-13 3.28366E-13
 -1      4173 2.00035E+01 3.98829E-02 1.16188E-05 8.58152E-03 2.49366E-13 3.72417E-13
 -1      4174 2.00012E+01 4.66789E-02 1.74034E-04 7.19520E-03 1.08861E-13 1.49544E-13
 -1      4175 2.00077E+01 2.13038E-02-8.48648E-05 3.01655E-03-5.22817E-14 1.86738E-13
 -1      4176 2.00070E+01 2.65868E-02 1.51399E-05 4.74612E-03 1.73392E-14 1.56579E-13
 -1      4177 2.00058E+01 3.15235E-02 1.12663E-04 4.13329E-03 2.10182E-13 1.57802E-13
 -1      4178 2.00087E+01 1.30876E-02-5.46142E-05 9.61202E-04-7.66614E-14 3.64285E-13
 -1      4179 2.00086E+01 1.68776E-02 1.61397E-05 2.12051E-03-6.71952E-14 2.05935E-13
 -1      4180 2.00082E+01 2.03764E-02 6.85356E-05 2.01226E-03-9.87528E-14 1.05392E-14
 -1      4181 2.00088E+01 7.30489E-03-3.28610E-05-3.46361E-04-7.77236E-14 4.36321E-13
 -1      4182 2.00090E+01 9.95207E-03 1.56037E-05 3.94470E-04-1.42710E-13 4.89507E-13
 -1      4183 2.00091E+01 1.23594E-02 3.76089E-05 5.97496E-04-1.74985E-13 1.78626E-13
 -1      4184 2.00082E+01 3.35940E-03-1.76375E-05-1.11886E-03 1.97252E-13 3.96740E-13
 -1      4185 2.00086E+01 5.14810E-03 1.42071E-05-6.77834E-04 1.44635E-13 5.02607E-13
 -1      4186 2.00091E+01 6.74313E-03 1.66132E-05-2.99251E-04 2.29662E-14 2.75089E-13
 -1      4187 2.00073E+01 7.73758E-04-7.33430E-06-1.51937E-03 1.36295E-13 2.55000E-13
 -1      4188 2.00078E+01 1.93065E-03 1.24012E-05-1.28721E-03 1.93409E-13 3.29461E-13
 -1      4189 2.00084E+01 2.93392E-03 2.94955E-06-8.25621E-04 2.64818E-13 4.59592E-13
 -1      4190 2.00063E+01-8.27921E-04-6.57420E-07-1.67030E-03 2.77576E-13 1.67682E-13
 -1      4191 2.00068E+01-1.25149E-04 1.04813E-05-1.57875E-03 1.93223E-13 1.20480E-13
 -1      4192 2.00075E+01 4.57570E-04-5.41308E-06-1.09491E-03 2.34517E-13 2.97181E-13
 -1      4193 2.00052E+01-1.73700E-03 3.33955E-06-1.66151E-03 5.98583E-14 1.83294E-13
 -1      4194 2.00057E+01-1.35115E-03 8.63322E-06-1.66042E-03 2.14567E-13 1.70061E-13
 -1      4195 2.00064E+01-1.05844E-03-1.00312E-05-1.19217E-03 2.01813E-13 2.31765E-14
 -1      4196 2.00042E+01-2.17954E-03 4.80977E-06-1.55915E-03-3.42892E-14 3.03463E-13
 -1      4197 2.00047E+01-2.00207E-03 7.01172E-06-1.61066E-03 3.77389E-14 2.88529E-13
 -1      4198 2.00053E+01-1.90208E-03-1.19564E-05-1.17978E-03 6.54234E-14 1.25989E-13
 -1      4199 1.55649E+01 1.00050E+00-2.69883E-02 1.05114E+00 3.82628E-14-2.84503E-14
 -1      4200 1.91845E+01 7.83517E-01-3.04429E-03 3.07928E-01-5.16380E-14 1.29592E-13
 -1      4201 1.90714E+01 8.41549E-01-1.52592E-03 3.46243E-01-6.12627E-14 1.25449E-13
 -1      4202 1.91963E+01 7.88289E-01 4.39297E-03 2.01136E-01-4.21224E-14 6.95235E-14
 -1      4203 1.96756E+01 4.57460E-01-1.55144E-03 1.59267E-01 2.02135E-13 1.93586E-13
 -1      4204 1.96231E+01 5.06943E-01-6.27228E-04 1.83417E-01 2.48022E-13 2.65665E-13
 -1      4205 1.95588E+01 5.57008E-01 2.69844E-03 1.35217E-01 1.58090E-13 2.36604E-13
 -1      4206 1.96814E+01 4.54993E-01 2.10839E-03 1.07795E-01 1.92694E-13 2.29266E-13
 -1      4207 1.68642E+01 1.03795E+00 8.83797E-03-8.52091E-01-2.48083E-14 2.12042E-13
 -1      4208 1.71448E+01 1.06254E+00-1.55187E-02-6.99774E-01-7.47133E-14 2.51388E-13
 -1      4209 1.72200E+01 1.18769E+00 1.33809E-02-3.58105E-01-1.24269E-13 3.03423E-13
 -1      4210 1.63343E+01 1.09581E+00 1.11959E-02-8.37840E-01 4.00218E-14 1.64872E-13
 -1      4211 1.85859E+01 9.98384E-01-5.42187E-03 4.52476E-01-1.33120E-13 1.39466E-13
 -1      4212 1.84053E+01 1.04254E+00-2.34047E-03 5.08595E-01-1.75158E-13 3.98905E-15
 -1      4213 1.81821E+01 1.12092E+00 1.01004E-02 3.32996E-01-2.13266E-13 4.50703E-15
 -1      4214 1.86058E+01 1.02250E+00 7.44760E-03 2.82440E-01-1.33715E-13 6.74254E-15
 -1      4215 1.89366E+01 9.08533E-01 5.66401E-03 2.39502E-01-4.92503E-14 2.61455E-16
 -1      4216 1.62890E+01 1.07587E+00-6.40411E-04 8.44633E-01-1.09385E-15-1.13693E-14
 -1      4217 1.63785E+01 1.18144E+00-2.03138E-02-2.44322E-01 4.66417E-14 1.97789E-13
 -1      4218 1.75924E+01 1.11318E+00-1.32497E-02 6.80498E-01-8.42488E-14-6.46962E-14
 -1      4219 1.72767E+01 1.10819E+00-1.33235E-02 8.03632E-01-9.66572E-14-8.84392E-14
 -1      4220 1.76320E+01 1.19387E+00 1.45998E-02 3.96888E-01-1.43025E-13-4.88136E-14
 -1      4221 2.00028E+01-2.39271E-03 3.52772E-06-5.47786E-04 2.70384E-13-4.92897E-13
 -1      4222 2.00027E+01-2.36325E-03-1.59686E-06-7.95128E-04 3.78104E-13-4.27288E-13
 -1      4223 2.00029E+01-2.37370E-03-2.37093E-06-9.51011E-04 1.74304E-13-5.39667E-13
 -1      4224 2.00031E+01-2.42258E-03 2.50619E-06-5.29009E-04 3.77021E-13-4.00537E-13
 -1      4225 2.00030E+01-2.31702E-03 2.95787E-06-1.34662E-03-3.14918E-14-1.26276E-13
 -1      4226 2.00036E+01-2.29060E-03 4.21156E-06-1.47028E-03-3.04296E-14 5.48329E-14
 -1      4227 2.00041E+01-2.30551E-03-1.06820E-05-1.09254E-03 4.64513E-14-1.67312E-13
 -1      4228 1.99020E+01 2.08964E-01-5.60695E-04 2.35753E-02-1.40958E-13 1.81721E-13
 -1      4229 1.98795E+01 2.38306E-01-4.89147E-04 2.96294E-02-4.56313E-14 1.04649E-13
 -1      4230 1.82450E+01 1.08282E+00-5.08774E-03 9.81456E-02-1.30781E-13 5.91259E-14
 -1      4231 1.84617E+01 1.03579E+00-4.79156E-03 1.11315E-01-6.48347E-14 2.69747E-15
 -1      4232 1.86529E+01 9.84719E-01-3.70880E-03 9.92853E-02-2.73673E-14-2.93435E-14
 -1      4233 1.88224E+01 9.29307E-01-3.53699E-03 1.06512E-01-7.97061E-14-6.96908E-14
 -1      4234 1.89720E+01 8.72087E-01-2.82005E-03 9.45287E-02-7.40172E-14-1.03492E-13
 -1      4235 1.91057E+01 8.13047E-01-2.65911E-03 9.77312E-02-6.35915E-14-7.69733E-15
 -1      4236 1.92228E+01 7.54106E-01-2.21603E-03 8.57334E-02-1.15029E-13 4.13891E-14
 -1      4237 1.93283E+01 6.95323E-01-2.01869E-03 8.63568E-02-1.22062E-13 9.65907E-14
 -1      4238 1.94198E+01 6.38072E-01-1.77500E-03 7.46773E-02-1.24032E-13 4.62917E-14
 -1      4239 1.95026E+01 5.82389E-01-1.53707E-03 7.37796E-02 4.87348E-14-3.16728E-14
 -1      4240 1.95735E+01 5.29192E-01-1.43139E-03 6.28257E-02 2.15812E-13-1.92171E-15
 -1      4241 1.96380E+01 4.78461E-01-1.16793E-03 6.11512E-02 2.77835E-13 6.25023E-14
 -1      4242 1.96924E+01 4.30746E-01-1.15146E-03 5.12500E-02 1.53539E-13-1.16629E-14
 -1      4243 1.97420E+01 3.85967E-01-8.82264E-04 4.92935E-02 8.58192E-14-3.50497E-14
 -1      4244 1.97831E+01 3.44404E-01-9.18271E-04 4.06409E-02 4.09407E-14-1.25680E-13
 -1      4245 1.98207E+01 3.05923E-01-6.60652E-04 3.87076E-02-5.44019E-14-9.20289E-14
 -1      4246 1.98514E+01 2.70613E-01-7.23073E-04 3.13710E-02 1.77268E-14-4.47302E-14
 -1      4247 1.99225E+01 1.82400E-01-3.57200E-04 2.21015E-02-1.39829E-13 2.26179E-13
 -1      4248 1.99386E+01 1.58502E-01-4.27295E-04 1.72279E-02-1.85963E-13 1.34950E-13
 -1      4249 1.99533E+01 1.37076E-01-2.56536E-04 1.60390E-02-1.57568E-13 1.12639E-13
 -1      4250 1.99646E+01 1.17972E-01-3.19415E-04 1.22059E-02-1.11783E-13-2.85453E-14
 -1      4251 1.99748E+01 1.01004E-01-1.80538E-04 1.12850E-02-1.62035E-13-1.34671E-13
 -1      4252 1.99825E+01 8.60053E-02-2.33676E-04 8.33712E-03-4.21222E-14-7.11094E-14
 -1      4253 1.99894E+01 7.28035E-02-1.23869E-04 7.65015E-03 7.19108E-14-3.65603E-14
 -1      4254 1.99944E+01 6.12369E-02-1.66773E-04 5.43358E-03 4.80848E-14 2.59657E-14
 -1      4255 1.99988E+01 5.11487E-02-8.22201E-05 4.94027E-03 1.26515E-13-1.27031E-14
 -1      4256 2.00019E+01 4.23903E-02-1.15560E-04 3.31237E-03 2.10957E-13 4.28715E-14
 -1      4257 2.00046E+01 3.48243E-02-5.21298E-05 2.97277E-03 2.57380E-13 1.16563E-13
 -1      4258 2.00063E+01 2.83195E-02-7.71437E-05 1.80771E-03 1.49421E-13-1.17254E-14
 -1      4259 2.00077E+01 2.27585E-02-3.08317E-05 1.58575E-03-6.62139E-15 2.16120E-14
 -1      4260 2.00085E+01 1.80292E-02-4.89549E-05 7.76522E-04-1.88002E-13 5.06919E-14
 -1      4261 2.00091E+01 1.40336E-02-1.61354E-05 6.41548E-04-1.36827E-13 6.25315E-14
 -1      4262 2.00093E+01 1.06780E-02-2.87776E-05 9.98791E-05-1.54527E-13 1.44033E-13
 -1      4263 2.00093E+01 7.88233E-03-6.32290E-06 2.69734E-05-4.71977E-14-2.81936E-14
 -1      4264 2.00091E+01 5.57033E-03-1.47519E-05-3.18100E-04 1.35009E-13-6.21366E-14
 -1      4265 2.00088E+01 3.67732E-03-6.12398E-08-3.48455E-04 1.11825E-13 1.24412E-13
 -1      4266 2.00084E+01 2.14260E-03-5.35273E-06-5.52666E-04 2.05322E-13 1.60311E-13
 -1      4267 2.00080E+01 9.14859E-04 3.67284E-06-5.55269E-04 4.28921E-13 2.97800E-13
 -1      4268 2.00074E+01-5.34155E-05 6.44867E-07-6.61426E-04 3.47056E-13 1.32861E-13
 -1      4269 2.00069E+01-8.02288E-04 5.65563E-06-6.47145E-04 2.90702E-13-5.07745E-14
 -1      4270 2.00063E+01-1.36835E-03 4.20220E-06-6.87437E-04 2.08459E-13-5.25650E-14
 -1      4271 2.00057E+01-1.78230E-03 6.44743E-06-6.64021E-04 6.28484E-14-1.41931E-13
 -1      4272 2.00052E+01-2.07226E-03 6.03223E-06-6.62192E-04 7.65103E-14-1.99762E-13
 -1      4273 2.00046E+01-2.26390E-03 5.70197E-06-6.33749E-04 1.06998E-13-2.09096E-13
 -1      4274 1.70117E+01 1.19532E+00 1.64157E-03-2.34879E-02-1.90338E-14 7.78302E-14
 -1      4275 1.73862E+01 1.17081E+00-1.29981E-02 1.08167E-01-1.47768E-13 1.05722E-13
 -1      4276 1.66617E+01 1.12251E+00-1.37396E-02 6.66093E-01-9.24608E-15-5.74763E-14
 -1      4277 1.77168E+01 1.15702E+00-6.84615E-03 8.99006E-02-2.13868E-13 1.08098E-13
 -1      4278 1.79979E+01 1.12223E+00-6.71079E-03 1.11242E-01-1.82954E-13 1.10032E-13
 -1      4279 1.67429E+01 1.24579E+00 2.26173E-02 2.69013E-01-2.65428E-14 1.23278E-14
 -1      4280 2.00040E+01-2.39000E-03 2.32659E-06-5.99232E-04 1.08098E-13-3.02688E-13
 -1      4281 2.00032E+01-2.37544E-03-5.32938E-06-1.09289E-03 1.60533E-13-5.03584E-13
 -1      4282 2.00037E+01-2.40271E-03 7.11054E-06-6.30934E-04 1.69750E-13-4.19183E-13
 -1      4283 2.00033E+01-2.40460E-03-3.17925E-06-8.81330E-04 1.78496E-13-5.35040E-13
 -1      4284 2.00034E+01-2.41772E-03 2.88427E-06-6.60557E-04 3.39861E-13-3.21049E-13
 -3
    1PSTEP                         3           1           1          
  100CL  101 1.000000000        4284                     0    1           1
 -4  TOSTRAIN    6    1
 -5  EXX         1    4    1    1
 -5  EYY         1    4    2    2
 -5  EZZ         1    4    3    3
 -5  EXY         1    4    1    2
 -5  EYZ         1    4    2    3
 -5  EZX         1    4    3    1
 -1         1 3.04378E-04-9.43134E-05-7.77661E-05 5.73610E-07-3.96438E-19-4.73761E-18
 -1         2 3.42058E-05-1.04412E-04 1.84415E-05-1.45912E-06 8.70031E-18 1.00643E-18
 -1         3 9.52373E-05-2.85710E-05-2.85714E-05 9.55458E-11-2.34534E-18-3.19136E-18
 -1         4 9.52373E-05-2.85710E-05-2.85714E-05-9.00025E-11-4.94091E-19 1.20433E-18
 -1         5 1.72579E-04-2.51389E-05-5.23631E-05 4.28044E-05-3.64171E-19 2.77679E-17
 -1         6 1.69806E-04 3.15415E-10-5.24956E-05-5.97889E-05-1.77242E-18 2.61301E-17
 -1         7 1.08231E-04-9.49738E-07-4.61461E-05-2.95896E-05-2.34522E-19 4.36076E-18
 -1         8 9.84083E-05-3.70061E-08-4.17545E-05-1.71049E-05-2.75127E-19-1.99075E-18
 -1         9 9.16377E-05-1.97612E-08-3.88625E-05-9.82056E-06-2.17052E-19-5.29291E-18
 -1        10 8.53622E-05-4.11033E-08-3.61621E-05-3.76490E-06-1.12285E-19-6.84815E-18
 -1        11 7.86309E-05-9.26231E-09-3.33741E-05 1.24089E-06-6.05629E-20-7.61418E-18
 -1        12 7.15587E-05 8.05497E-08-3.05680E-05 4.59194E-06 4.02341E-21-8.04901E-18
 -1        13 6.47202E-05 2.15649E-07-2.79583E-05 5.74041E-06 2.09641E-20-8.37966E-18
 -1        14 5.96955E-05 3.40896E-07-2.61011E-05 4.47676E-06 3.74812E-20-8.53548E-18
 -1        15 5.79577E-05 3.98565E-07-2.54890E-05 1.57991E-06 4.90849E-20-8.50784E-18
 -1        16 6.02020E-05 3.60170E-07-2.63510E-05-1.40690E-06 6.52480E-20-8.25137E-18
 -1        17 6.59415E-05 2.44956E-07-2.85340E-05-2.88049E-06 9.06325E-20-7.68187E-18
 -1        18 7.36824E-05 1.23965E-07-3.15429E-05-1.98458E-06 1.35737E-19-6.80601E-18
 -1        19 8.23638E-05 3.24246E-08-3.50266E-05 1.37081E-06 2.11017E-19-5.40746E-18
 -1        20 9.11502E-05-3.75089E-09-3.86721E-05 6.78791E-06 2.81427E-19-3.10148E-18
 -1        21 1.00387E-04-2.33897E-08-4.25379E-05 1.43036E-05 3.53530E-19 1.15179E-18
 -1        22 1.12976E-04-6.38363E-07-4.72131E-05 2.62264E-05 6.68097E-20 9.36387E-18
 -1        23 1.38699E-04-4.67928E-05-4.32020E-05-4.06813E-06-1.21912E-18 2.00822E-17
 -1        24 1.18356E-04-3.53482E-05-3.65986E-05 5.78126E-07-2.90426E-19 1.49194E-17
 -1        25 1.13690E-04-3.42174E-05-3.41102E-05 3.16573E-07-1.36540E-19 9.99946E-18
 -1        26 1.08953E-04-3.27640E-05-3.24791E-05-7.18061E-08-8.17540E-20 6.25737E-18
 -1        27 1.02771E-04-3.08876E-05-3.06732E-05-3.25994E-07-7.76301E-20 3.96988E-18
 -1        28 9.54688E-05-2.86827E-05-2.86283E-05-4.60749E-07 4.58175E-21 3.12018E-18
 -1        29 8.86682E-05-2.66335E-05-2.67677E-05-4.01615E-07 4.52666E-20 2.25537E-18
 -1        30 8.45590E-05-2.53937E-05-2.56629E-05-1.39574E-07-1.83651E-20 8.25539E-19
 -1        31 8.47078E-05-2.54342E-05-2.57078E-05 2.11745E-07 1.01316E-19-1.35662E-18
 -1        32 8.90572E-05-2.67360E-05-2.68879E-05 4.78229E-07-1.93964E-19-3.51177E-18
 -1        33 9.59316E-05-2.87916E-05-2.87813E-05 5.52456E-07 7.62793E-20-5.29186E-18
 -1        34 1.03021E-04-3.09067E-05-3.07821E-05 4.52383E-07 1.36820E-19-5.36111E-18
 -1        35 1.08511E-04-3.25407E-05-3.23828E-05 2.72643E-07-1.03828E-20-5.46878E-18
 -1        36 1.11613E-04-3.34626E-05-3.33321E-05 1.02108E-07-5.90169E-20-5.19143E-18
 -1        37 1.12439E-04-3.37087E-05-3.36276E-05-1.55003E-08-2.71935E-19-4.96779E-18
 -1        38 1.11577E-04-3.34539E-05-3.34175E-05-7.65812E-08 1.56474E-20-5.79835E-18
 -1        39 1.09709E-04-3.29003E-05-3.28938E-05-9.62211E-08-1.48859E-19-6.76725E-18
 -1        40 1.07406E-04-3.22163E-05-3.22253E-05-9.19659E-08 5.44866E-20-6.04961E-18
 -1        41 1.05059E-04-3.15179E-05-3.15324E-05-7.70227E-08 7.71495E-20-7.10288E-18
 -1        42 1.02898E-04-3.08735E-05-3.08880E-05-5.93446E-08-1.66433E-19-7.10021E-18
 -1        43 1.01031E-04-3.03159E-05-3.03279E-05-4.29194E-08-2.75223E-19-6.85600E-18
 -1        44 9.94919E-05-2.98549E-05-2.98640E-05-2.93079E-08-3.12893E-20-5.15547E-18
 -1        45 9.82663E-05-2.94872E-05-2.94935E-05-1.87899E-08-2.85176E-19-5.24740E-18
 -1        46 9.73191E-05-2.92025E-05-2.92065E-05-1.10667E-08 2.49147E-19-6.82961E-18
 -1        47 9.66067E-05-2.89880E-05-2.89903E-05-5.63963E-09-1.08682E-19-4.43628E-18
 -1        48 9.60852E-05-2.88306E-05-2.88317E-05-1.99341E-09 5.70124E-19-3.52398E-18
 -1        49 9.57140E-05-2.87183E-05-2.87187E-05 3.27692E-10 3.41340E-19-3.70726E-18
 -1        50 9.54585E-05-2.86408E-05-2.86407E-05 1.69641E-09-2.64242E-19-4.57767E-18
 -1        51 9.52896E-05-2.85894E-05-2.85890E-05 2.40349E-09-3.38458E-19-5.49266E-18
 -1        52 9.51841E-05-2.85572E-05-2.85566E-05 2.66814E-09 2.19942E-19-5.33560E-18
 -1        53 9.51237E-05-2.85386E-05-2.85380E-05 2.65103E-09 1.31242E-19-3.63253E-18
 -1        54 9.50946E-05-2.85294E-05-2.85288E-05 2.46680E-09 4.02063E-21-1.59679E-18
 -1        55 9.50861E-05-2.85266E-05-2.85261E-05 2.19492E-09-5.20936E-20-3.48355E-18
 -1        56 9.50908E-05-2.85278E-05-2.85273E-05 1.88861E-09 9.62192E-22-5.95348E-18
 -1        57 9.51030E-05-2.85312E-05-2.85308E-05 1.58191E-09-1.64619E-19-6.52815E-18
 -1        58 9.51191E-05-2.85359E-05-2.85356E-05 1.29524E-09 2.62839E-19-6.66168E-18
 -1        59 9.51364E-05-2.85411E-05-2.85408E-05 1.03954E-09-4.68768E-19-6.87631E-18
 -1        60 9.51535E-05-2.85461E-05-2.85459E-05 8.19382E-10 2.89232E-20-4.62614E-18
 -1        61 9.51693E-05-2.85508E-05-2.85506E-05 6.35276E-10 2.94726E-19-4.14697E-18
 -1        62 9.51834E-05-2.85550E-05-2.85549E-05 4.85258E-10-9.73718E-20-5.98803E-18
 -1        63 9.51956E-05-2.85587E-05-2.85586E-05 3.66016E-10-6.17063E-19-5.39156E-18
 -1        64 9.52059E-05-2.85617E-05-2.85617E-05 2.73611E-10-5.65675E-19-6.86558E-18
 -1        65 9.52145E-05-2.85643E-05-2.85643E-05 2.03875E-10 8.71361E-21-7.67113E-18
 -1        66 9.52215E-05-2.85664E-05-2.85664E-05 1.52404E-10 6.80940E-19-6.69657E-18
 -1        67 9.52272E-05-2.85681E-05-2.85681E-05 1.14051E-10-1.47318E-19-4.58348E-18
 -1        68 9.52316E-05-2.85694E-05-2.85694E-05 8.23384E-11-3.64465E-19-5.25361E-18
 -1        69 9.52348E-05-2.85704E-05-2.85704E-05 4.59314E-11 9.00386E-19-2.29399E-18
 -1        70 9.52368E-05-2.85710E-05-2.85710E-05-2.30720E-11-2.70116E-19 2.99988E-19
 -1        71 9.52374E-05-2.85712E-05-2.85712E-05-1.15820E-10 5.82868E-19 3.39865E-18
 -1        72 1.33386E-04-4.00046E-05-4.39550E-05-3.18070E-06 4.75397E-19 2.52970E-17
 -1        73 1.27426E-04-3.79668E-05-3.92284E-05-6.95770E-07 2.27097E-19 1.94017E-17
 -1        74 1.24468E-04-3.73355E-05-3.72932E-05-2.97700E-07 1.35454E-19 1.52426E-17
 -1        75 1.20260E-04-3.61618E-05-3.57563E-05-5.07124E-08 8.88450E-20 1.26364E-17
 -1        76 1.13033E-04-3.40263E-05-3.35985E-05 3.01875E-07 1.87009E-20 1.06632E-17
 -1        77 1.02945E-04-3.09876E-05-3.07903E-05 6.74132E-07 1.39958E-19 8.86994E-18
 -1        78 9.24923E-05-2.77729E-05-2.80138E-05 8.31413E-07-1.51985E-19 8.30045E-18
 -1        79 8.57428E-05-2.56375E-05-2.62851E-05 5.73339E-07-2.08019E-20 6.67491E-18
 -1        80 8.58795E-05-2.56184E-05-2.63400E-05-8.11849E-09 6.12147E-20 4.39731E-18
 -1        81 9.27776E-05-2.77265E-05-2.81211E-05-5.56494E-07 2.72380E-19 2.27627E-18
 -1        82 1.03027E-04-3.08838E-05-3.08430E-05-7.70684E-07 1.74347E-19 4.44904E-19
 -1        83 1.12441E-04-3.37700E-05-3.34487E-05-6.53700E-07 6.27334E-20-9.15325E-20
 -1        84 1.18419E-04-3.55817E-05-3.52069E-05-3.88478E-07-2.20507E-19 2.61839E-19
 -1        85 1.20481E-04-3.61891E-05-3.59037E-05-1.40484E-07 9.38163E-20 9.51261E-19
 -1        86 1.19502E-04-3.58755E-05-3.57165E-05 2.11847E-08 7.66246E-20-1.11839E-18
 -1        87 1.16728E-04-3.50283E-05-3.49695E-05 9.95518E-08-1.21282E-19-2.54347E-18
 -1        88 1.13216E-04-3.39665E-05-3.39678E-05 1.22482E-07-4.27732E-19-1.55589E-18
 -1        89 1.09660E-04-3.28965E-05-3.29258E-05 1.16234E-07 7.50635E-21-1.37526E-18
 -1        90 1.06433E-04-3.19283E-05-3.19661E-05 9.80884E-08 8.52743E-20-1.36562E-18
 -1        91 1.03693E-04-3.11067E-05-3.11431E-05 7.74120E-08 2.11668E-19-3.24334E-18
 -1        92 1.01464E-04-3.04389E-05-3.04700E-05 5.84597E-08-1.59005E-19-2.63882E-18
 -1        93 9.97085E-05-2.99130E-05-2.99379E-05 4.27073E-08-2.53041E-19-3.73409E-18
 -1        94 9.83608E-05-2.95090E-05-2.95282E-05 3.03105E-08 3.97581E-19-5.96291E-18
 -1        95 9.73488E-05-2.92056E-05-2.92200E-05 2.08911E-08-1.37372E-20-7.31097E-18
 -1        96 9.66052E-05-2.89826E-05-2.89931E-05 1.39171E-08 3.25500E-20-5.22035E-18
 -1        97 9.60709E-05-2.88222E-05-2.88298E-05 8.86708E-09 6.49662E-20-3.48778E-18
 -1        98 9.56967E-05-2.87098E-05-2.87151E-05 5.29005E-09-3.83055E-19-1.15250E-18
 -1        99 9.54424E-05-2.86335E-05-2.86371E-05 2.81837E-09-1.86730E-19-2.21003E-18
 -1       100 9.52765E-05-2.85836E-05-2.85859E-05 1.16204E-09-2.01229E-19-2.29762E-18
 -1       101 9.51742E-05-2.85528E-05-2.85543E-05 9.70100E-11 6.21907E-20-5.04143E-18
 -1       102 9.51168E-05-2.85354E-05-2.85363E-05-5.47265E-10 6.50175E-19-7.83932E-18
 -1       103 9.50899E-05-2.85273E-05-2.85277E-05-8.98852E-10-2.05866E-19-7.45624E-18
 -1       104 9.50832E-05-2.85252E-05-2.85253E-05-1.05265E-09 7.30493E-20-1.46174E-18
 -1       105 9.50890E-05-2.85269E-05-2.85269E-05-1.07793E-09 8.25075E-19-1.08942E-18
 -1       106 9.51021E-05-2.85308E-05-2.85306E-05-1.02436E-09-6.19098E-19-1.05530E-18
 -1       107 9.51187E-05-2.85357E-05-2.85355E-05-9.26822E-10-3.34918E-19-1.71332E-18
 -1       108 9.51363E-05-2.85410E-05-2.85408E-05-8.09121E-10 6.08359E-19-2.76622E-18
 -1       109 9.51536E-05-2.85461E-05-2.85459E-05-6.86963E-10 7.22200E-20-2.11487E-18
 -1       110 9.51695E-05-2.85509E-05-2.85507E-05-5.70204E-10 1.32033E-19-1.45970E-18
 -1       111 9.51836E-05-2.85551E-05-2.85549E-05-4.64589E-10 1.14331E-19-1.38634E-18
 -1       112 9.51958E-05-2.85588E-05-2.85586E-05-3.73060E-10 6.17906E-20 5.52404E-19
 -1       113 9.52061E-05-2.85618E-05-2.85617E-05-2.96718E-10 2.21865E-19-1.09026E-18
 -1       114 9.52147E-05-2.85644E-05-2.85643E-05-2.35487E-10-3.45427E-19-2.59852E-18
 -1       115 9.52217E-05-2.85665E-05-2.85664E-05-1.88379E-10 4.76959E-19-4.67109E-18
 -1       116 9.52273E-05-2.85682E-05-2.85681E-05-1.53408E-10-1.00202E-19-4.54130E-18
 -1       117 9.52317E-05-2.85695E-05-2.85694E-05-1.27329E-10-4.64918E-19-5.94930E-18
 -1       118 9.52349E-05-2.85705E-05-2.85704E-05-1.01773E-10-3.12255E-20-5.65252E-18
 -1       119 9.52368E-05-2.85710E-05-2.85710E-05-4.76324E-11-3.84551E-19-7.53667E-18
 -1       120 9.52374E-05-2.85713E-05-2.85712E-05 8.19385E-11 9.79322E-19-5.48932E-18
 -1       121 9.52371E-05-2.85709E-05-2.85712E-05 1.26103E-10-3.52990E-18 1.16661E-18
 -1       122 9.52373E-05-2.85716E-05-2.85709E-05-1.20274E-11 2.60115E-18-3.00110E-19
 -1       123 9.52379E-05-2.85735E-05-2.85704E-05-9.46472E-11 5.22297E-18-4.26504E-19
 -1       124 9.52386E-05-2.85762E-05-2.85696E-05-1.28384E-10 1.22434E-20 4.79100E-19
 -1       125 9.52395E-05-2.85790E-05-2.85688E-05-1.27911E-10-3.22285E-18-1.99616E-19
 -1       126 9.52403E-05-2.85816E-05-2.85680E-05-1.06798E-10-4.76944E-18 5.87844E-19
 -1       127 9.52409E-05-2.85836E-05-2.85675E-05-6.96495E-11-5.29776E-19 4.38798E-19
 -1       128 9.52412E-05-2.85847E-05-2.85671E-05-2.38496E-11-2.56518E-18-1.51776E-18
 -1       129 9.52412E-05-2.85847E-05-2.85671E-05 2.47154E-11-3.35676E-18 1.38264E-18
 -1       130 9.52409E-05-2.85836E-05-2.85675E-05 7.02999E-11-6.34946E-18-1.27588E-18
 -1       131 9.52403E-05-2.85816E-05-2.85680E-05 1.08140E-10-1.39701E-17-8.21392E-19
 -1       132 9.52395E-05-2.85790E-05-2.85688E-05 1.28003E-10-1.08103E-17 2.65044E-18
 -1       133 9.52386E-05-2.85761E-05-2.85696E-05 1.27502E-10-4.19591E-18-2.56951E-19
 -1       134 9.52378E-05-2.85735E-05-2.85704E-05 1.03832E-10-5.81257E-18-6.30392E-19
 -1       135 9.52373E-05-2.85716E-05-2.85709E-05 1.70906E-11-2.50931E-18 8.06920E-19
 -1       136 9.52371E-05-2.85710E-05-2.85712E-05-2.14736E-10-3.08070E-18-1.26619E-18
 -1       137 2.40027E-05-8.14248E-05 1.39183E-05-2.15757E-05 2.22926E-17 4.91348E-18
 -1       138 7.93498E-06-3.25359E-05 2.40943E-06-1.67546E-05 2.74367E-17 1.26362E-17
 -1       139 1.15889E-05 1.43170E-05-1.50397E-05 2.32126E-05 2.75057E-17 2.07523E-17
 -1       140 6.35822E-05 2.66563E-05-3.71863E-05 8.21131E-05 2.22655E-17 2.58786E-17
 -1       141 1.48324E-04-3.53766E-06-5.56755E-05 1.13915E-04 1.40173E-17 2.43073E-17
 -1       142 2.42529E-04-5.42523E-05-7.02147E-05 9.85625E-05 4.77854E-18 1.34555E-17
 -1       143 3.04559E-04-9.21669E-05-7.82798E-05 3.27237E-05 3.20284E-19-4.17915E-18
 -1       144 2.93212E-04-8.61463E-05-7.65741E-05-5.02066E-05 3.37378E-18-2.19121E-17
 -1       145 2.17818E-04-4.21208E-05-6.62177E-05-1.02798E-04 1.28735E-17-3.41270E-17
 -1       146 1.12350E-04 8.99897E-06-4.81088E-05-1.01496E-04 2.48528E-17-3.82054E-17
 -1       147 3.53935E-05 2.69166E-05-2.81804E-05-5.71831E-05 3.24248E-17-3.25045E-17
 -1       148 5.51614E-06 3.44669E-06-9.65352E-06-6.87626E-06 3.25091E-17-2.11801E-17
 -1       149 1.08875E-05-4.32336E-05 5.05820E-06 1.97141E-05 2.48833E-17-9.85195E-18
 -1       150 2.58035E-05-8.19887E-05 1.37791E-05 1.56024E-05 9.90626E-18-1.85487E-18
 -1       151 2.87745E-05-8.71036E-05 1.47109E-05-8.21489E-06-8.22014E-18-1.01324E-18
 -1       152 1.49060E-05-5.50157E-05 8.24705E-06-2.03562E-05-2.26738E-17-7.05563E-18
 -1       153 5.57790E-06-5.68197E-06-6.07547E-06 8.76760E-07-3.15003E-17-1.79529E-17
 -1       154 2.32529E-05 2.60677E-05-2.34277E-05 4.48128E-05-3.21673E-17-2.81452E-17
 -1       155 8.06997E-05 2.14826E-05-4.16679E-05 9.10486E-05-2.57892E-17-3.38030E-17
 -1       156 1.73521E-04-1.90682E-05-5.92442E-05 1.08953E-04-1.53690E-17-3.21652E-17
 -1       157 2.67036E-04-7.13217E-05-7.30285E-05 7.39262E-05-5.02534E-18-2.04696E-17
 -1       158 2.75453E-04-7.53271E-05-7.43623E-05-7.17351E-05-3.06773E-18 1.06453E-17
 -1       159 1.96401E-04-2.89513E-05-6.32568E-05-1.10956E-04-9.67100E-18 2.28974E-17
 -1       160 1.06485E-04 1.46360E-05-4.75325E-05-1.04382E-04-1.90172E-17 2.70915E-17
 -1       161 3.81081E-05 2.97945E-05-2.93190E-05-6.27353E-05-2.44776E-17 2.41036E-17
 -1       162 7.02714E-06 7.90169E-06-1.10958E-05-1.26141E-05-2.46936E-17 1.61688E-17
 -1       163 9.60948E-06-3.89445E-05 4.21000E-06 1.92287E-05-2.09166E-17 8.71173E-18
 -1       164 2.61245E-05-8.53422E-05 1.46102E-05 2.09025E-05-7.89308E-18 2.23249E-18
 -1       165 1.13198E-04-1.68323E-05-4.15340E-05-2.14205E-05-3.65029E-18 1.24514E-18
 -1       166 1.03207E-04-1.25907E-05-3.90321E-05-1.45124E-05-3.02192E-18-2.56699E-18
 -1       167 9.57208E-05-1.05429E-05-3.66402E-05-8.33178E-06-2.02437E-18-4.69902E-18
 -1       168 8.81205E-05-8.76989E-06-3.41063E-05-2.67955E-06-1.09629E-18-5.87257E-18
 -1       169 7.94918E-05-6.25933E-06-3.14611E-05 1.95226E-06-3.17465E-19-6.48596E-18
 -1       170 6.98076E-05-2.73033E-06-2.88117E-05 4.85093E-06 2.91134E-19-6.98407E-18
 -1       171 6.09513E-05 1.02812E-06-2.66192E-05 5.23354E-06 6.75290E-19-7.33096E-18
 -1       172 5.55541E-05 3.57882E-06-2.53954E-05 3.25135E-06 7.86361E-19-7.49464E-18
 -1       173 5.57005E-05 3.70097E-06-2.55113E-05 2.16857E-07 8.31303E-19-7.35921E-18
 -1       174 6.15672E-05 1.30260E-06-2.70039E-05-1.93867E-06 9.69237E-19-6.93090E-18
 -1       175 7.11369E-05-2.44841E-06-2.95101E-05-1.81079E-06 1.32529E-18-6.14639E-18
 -1       176 8.22953E-05-6.32701E-06-3.26515E-05 9.07646E-07 1.97721E-18-4.94715E-18
 -1       177 9.33140E-05-9.64217E-06-3.59947E-05 5.69108E-06 2.73271E-18-3.17390E-18
 -1       178 1.04393E-04-1.30616E-05-3.93322E-05 1.18120E-05 3.29709E-18-2.44872E-19
 -1       179 1.18274E-04-1.95789E-05-4.25225E-05 1.84768E-05 3.48228E-18 4.83201E-18
 -1       180 1.34020E-04-3.48829E-05-4.38216E-05 1.64380E-05 2.81878E-18 1.14018E-17
 -1       181 1.25431E-04-3.41654E-05-3.91288E-05-1.18924E-05-3.28585E-18 6.35434E-18
 -1       182 1.18601E-04-3.54072E-05-3.57024E-05-5.85202E-06-2.86876E-18 4.91076E-18
 -1       183 1.13478E-04-3.43602E-05-3.38664E-05-5.19657E-06-2.14538E-18 3.63862E-18
 -1       184 1.09098E-04-3.31691E-05-3.25074E-05-6.20368E-06-1.48810E-18 2.60268E-18
 -1       185 1.04412E-04-3.14780E-05-3.12345E-05-7.06209E-06-6.69412E-19 1.90491E-18
 -1       186 9.97291E-05-2.95018E-05-3.00797E-05-6.50603E-06-8.04855E-19 1.19203E-18
 -1       187 9.60772E-05-2.78165E-05-2.92405E-05-3.95273E-06-1.10349E-18 1.26489E-19
 -1       188 9.46197E-05-2.71357E-05-2.89103E-05 4.99279E-08-1.48650E-18-8.97857E-19
 -1       189 9.58294E-05-2.77744E-05-2.91557E-05 3.97975E-06-1.43334E-18-2.23740E-18
 -1       190 9.90825E-05-2.93690E-05-2.98678E-05 6.31900E-06-9.98526E-19-2.97900E-18
 -1       191 1.03050E-04-3.11681E-05-3.08012E-05 6.49054E-06-5.50131E-19-3.86942E-18
 -1       192 1.06453E-04-3.25391E-05-3.16796E-05 4.97719E-06-2.81877E-19-4.34589E-18
 -1       193 1.08574E-04-3.32351E-05-3.22971E-05 2.74210E-06 3.87782E-20-4.39107E-18
 -1       194 1.09285E-04-3.33231E-05-3.25672E-05 6.14813E-07-1.13881E-19-4.24279E-18
 -1       195 1.08834E-04-3.29997E-05-3.25122E-05-9.68724E-07-4.24385E-19-3.68746E-18
 -1       196 1.07605E-04-3.24580E-05-3.22147E-05-1.91837E-06-3.90169E-19-3.52842E-18
 -1       197 1.05963E-04-3.18383E-05-3.17727E-05-2.33478E-06 1.49119E-19-3.86998E-18
 -1       198 1.04189E-04-3.12272E-05-3.12713E-05-2.37893E-06-2.07668E-19-4.02132E-18
 -1       199 1.02474E-04-3.06713E-05-3.07720E-05-2.20064E-06-3.94970E-19-4.20241E-18
 -1       200 1.00926E-04-3.01908E-05-3.03129E-05-1.91283E-06 2.60297E-19-4.10202E-18
 -1       201 9.95945E-05-2.97908E-05-2.99131E-05-1.59020E-06 1.75802E-19-4.07926E-18
 -1       202 9.84915E-05-2.94675E-05-2.95787E-05-1.27694E-06-4.22954E-19-4.37189E-18
 -1       203 9.76050E-05-2.92127E-05-2.93081E-05-9.95978E-07-5.71772E-20-3.35749E-18
 -1       204 9.69108E-05-2.90164E-05-2.90950E-05-7.56672E-07 9.89949E-19-3.19730E-18
 -1       205 9.63803E-05-2.88687E-05-2.89314E-05-5.60361E-07 4.88314E-19-2.48344E-18
 -1       206 9.59845E-05-2.87600E-05-2.88087E-05-4.04062E-07-9.25299E-20-2.98788E-18
 -1       207 9.56963E-05-2.86821E-05-2.87190E-05-2.82781E-07-5.64037E-19-3.33755E-18
 -1       208 9.54922E-05-2.86278E-05-2.86551E-05-1.90889E-07-1.93110E-20-3.02300E-18
 -1       209 9.53523E-05-2.85913E-05-2.86110E-05-1.22892E-07 8.26220E-20-1.84758E-18
 -1       210 9.52603E-05-2.85680E-05-2.85818E-05-7.38207E-08 5.47702E-19-2.05381E-18
 -1       211 9.52032E-05-2.85541E-05-2.85634E-05-3.93931E-08-1.46484E-19-2.56791E-18
 -1       212 9.51709E-05-2.85468E-05-2.85529E-05-1.60488E-08-8.90264E-19-3.26365E-18
 -1       213 9.51556E-05-2.85440E-05-2.85476E-05-9.07209E-10-1.12055E-18-3.64491E-18
 -1       214 9.51517E-05-2.85440E-05-2.85460E-05 8.30755E-09 2.50007E-19-2.71260E-18
 -1       215 9.51548E-05-2.85458E-05-2.85466E-05 1.33554E-08-4.64223E-19-3.35319E-18
 -1       216 9.51621E-05-2.85485E-05-2.85486E-05 1.55689E-08-5.86384E-19-4.46824E-18
 -1       217 9.51713E-05-2.85516E-05-2.85513E-05 1.59359E-08 4.70266E-19-5.98138E-18
 -1       218 9.51813E-05-2.85548E-05-2.85542E-05 1.51718E-08 4.28141E-19-4.22351E-18
 -1       219 9.51910E-05-2.85578E-05-2.85571E-05 1.37807E-08-3.11686E-19-4.35332E-18
 -1       220 9.52000E-05-2.85605E-05-2.85598E-05 1.21056E-08-3.03062E-19-4.34205E-18
 -1       221 9.52080E-05-2.85629E-05-2.85622E-05 1.03691E-08-9.22648E-19-4.02091E-18
 -1       222 9.52149E-05-2.85649E-05-2.85643E-05 8.70372E-09 2.43929E-19-3.18315E-18
 -1       223 9.52208E-05-2.85666E-05-2.85661E-05 7.17514E-09 5.02252E-19-2.47766E-18
 -1       224 9.52257E-05-2.85680E-05-2.85676E-05 5.79736E-09 1.44787E-18-2.71955E-18
 -1       225 9.52296E-05-2.85692E-05-2.85688E-05 4.54423E-09 1.04645E-18-3.94250E-19
 -1       226 9.52326E-05-2.85701E-05-2.85697E-05 3.35808E-09 1.32999E-18 2.94290E-19
 -1       227 9.52349E-05-2.85708E-05-2.85703E-05 2.16251E-09 1.38505E-18-3.12088E-19
 -1       228 9.52364E-05-2.85713E-05-2.85708E-05 9.29333E-10 1.21629E-18 7.96272E-19
 -1       229 1.28677E-04-3.77921E-05-3.91272E-05 5.54533E-06 2.66453E-18 1.01246E-17
 -1       230 1.23771E-04-3.72618E-05-3.70264E-05 3.24616E-06 2.03501E-18 8.30688E-18
 -1       231 1.19920E-04-3.65660E-05-3.56548E-05 4.42375E-06 1.36205E-18 6.74406E-18
 -1       232 1.15134E-04-3.52015E-05-3.42065E-05 6.78014E-06 9.62253E-19 5.74450E-18
 -1       233 1.08985E-04-3.29468E-05-3.25673E-05 8.51480E-06 8.82434E-19 5.20179E-18
 -1       234 1.02539E-04-3.01869E-05-3.10296E-05 7.76923E-06 6.05225E-19 4.07009E-18
 -1       235 9.80498E-05-2.80723E-05-3.00491E-05 3.76471E-06 1.35203E-18 2.65147E-18
 -1       236 9.75429E-05-2.77966E-05-2.99509E-05-2.02994E-06 1.81259E-18 1.02725E-18
 -1       237 1.01149E-04-2.95254E-05-3.07142E-05-6.66697E-06 1.36081E-18-9.11778E-19
 -1       238 1.06838E-04-3.21207E-05-3.20030E-05-8.08158E-06 7.16901E-19-1.63761E-18
 -1       239 1.12063E-04-3.42738E-05-3.33071E-05-6.47657E-06-1.70588E-19-1.57256E-18
 -1       240 1.15250E-04-3.53656E-05-3.42155E-05-3.44243E-06-1.40720E-20-1.51603E-18
 -1       241 1.16093E-04-3.54564E-05-3.45537E-05-5.01035E-07 1.85755E-19-1.78242E-18
 -1       242 1.15077E-04-3.49012E-05-3.43674E-05 1.57924E-06 5.82206E-19-1.47472E-18
 -1       243 1.12921E-04-3.40389E-05-3.38159E-05 2.69815E-06 3.03994E-19-1.25693E-18
 -1       244 1.10257E-04-3.30967E-05-3.30765E-05 3.07346E-06-6.26805E-19-1.76143E-18
 -1       245 1.07530E-04-3.22001E-05-3.22887E-05 2.98348E-06-4.61867E-20-1.17703E-18
 -1       246 1.05002E-04-3.14081E-05-3.15418E-05 2.65380E-06 4.34453E-19-1.76601E-18
 -1       247 1.02799E-04-3.07402E-05-3.08820E-05 2.23386E-06 5.74633E-19-2.22656E-18
 -1       248 1.00961E-04-3.01951E-05-3.03265E-05 1.80963E-06-7.13995E-19-3.07027E-18
 -1       249 9.94743E-05-2.97615E-05-2.98747E-05 1.42407E-06 7.82181E-19-2.45851E-18
 -1       250 9.83027E-05-2.94239E-05-2.95172E-05 1.09421E-06 1.29473E-18-3.40100E-18
 -1       251 9.73993E-05-2.91660E-05-2.92407E-05 8.22922E-07 2.14748E-19-4.36014E-18
 -1       252 9.67168E-05-2.89729E-05-2.90313E-05 6.06076E-07-1.03592E-18-3.73282E-18
 -1       253 9.62115E-05-2.88311E-05-2.88758E-05 4.36632E-07-1.13814E-18-1.80855E-18
 -1       254 9.58453E-05-2.87292E-05-2.87628E-05 3.06816E-07-8.17675E-19-1.34549E-18
 -1       255 9.55861E-05-2.86578E-05-2.86826E-05 2.09200E-07 5.54190E-19-1.28164E-18
 -1       256 9.54080E-05-2.86093E-05-2.86272E-05 1.37182E-07 6.38556E-19-2.24906E-18
 -1       257 9.52899E-05-2.85777E-05-2.85903E-05 8.51339E-08 1.23439E-18-3.86085E-18
 -1       258 9.52154E-05-2.85582E-05-2.85669E-05 4.83979E-08 7.90638E-19-4.21612E-18
 -1       259 9.51721E-05-2.85474E-05-2.85531E-05 2.32024E-08-1.02815E-18-3.15128E-18
 -1       260 9.51501E-05-2.85423E-05-2.85459E-05 6.54898E-09-1.66899E-18-3.87623E-18
 -1       261 9.51425E-05-2.85412E-05-2.85433E-05-3.90698E-09 2.38563E-19-2.07453E-18
 -1       262 9.51441E-05-2.85424E-05-2.85434E-05-9.96927E-09-5.13800E-19-1.50141E-18
 -1       263 9.51510E-05-2.85450E-05-2.85453E-05-1.30030E-08 1.01305E-18-2.22408E-18
 -1       264 9.51608E-05-2.85483E-05-2.85482E-05-1.40231E-08 1.69477E-19-3.63836E-18
 -1       265 9.51717E-05-2.85517E-05-2.85514E-05-1.37697E-08-4.75689E-19-1.69010E-18
 -1       266 9.51825E-05-2.85551E-05-2.85546E-05-1.27701E-08-3.68899E-19-9.01231E-19
 -1       267 9.51928E-05-2.85582E-05-2.85577E-05-1.13895E-08-8.48013E-19 1.32445E-18
 -1       268 9.52020E-05-2.85610E-05-2.85604E-05-9.87103E-09 2.00792E-19 3.24687E-18
 -1       269 9.52100E-05-2.85633E-05-2.85629E-05-8.36718E-09 1.95615E-18 1.82315E-18
 -1       270 9.52169E-05-2.85654E-05-2.85649E-05-6.96315E-09-2.17466E-21 1.87896E-18
 -1       271 9.52226E-05-2.85670E-05-2.85667E-05-5.69366E-09 2.06186E-18 9.44886E-19
 -1       272 9.52273E-05-2.85684E-05-2.85681E-05-4.55371E-09-2.63808E-19-9.91820E-19
 -1       273 9.52310E-05-2.85695E-05-2.85692E-05-3.50824E-09-1.52614E-19 1.05208E-19
 -1       274 9.52338E-05-2.85704E-05-2.85700E-05-2.49583E-09 7.61432E-19-6.61287E-19
 -1       275 9.52357E-05-2.85710E-05-2.85706E-05-1.44125E-09 6.50698E-19-1.40280E-18
 -1       276 9.52368E-05-2.85713E-05-2.85709E-05-3.86589E-10-6.40689E-19-3.40947E-20
 -1       277 9.52370E-05-2.85719E-05-2.85708E-05-9.87735E-10 5.72247E-19 4.00529E-18
 -1       278 9.52375E-05-2.85733E-05-2.85704E-05-2.04807E-09 6.11964E-19 3.89455E-19
 -1       279 9.52382E-05-2.85752E-05-2.85699E-05-2.74930E-09 2.50520E-19-1.41506E-18
 -1       280 9.52390E-05-2.85773E-05-2.85693E-05-2.94759E-09 6.07235E-19-1.39479E-18
 -1       281 9.52397E-05-2.85793E-05-2.85687E-05-2.68015E-09-2.72427E-19-9.37606E-19
 -1       282 9.52403E-05-2.85810E-05-2.85683E-05-2.01700E-09-4.42118E-19 6.87130E-19
 -1       283 9.52407E-05-2.85821E-05-2.85680E-05-1.07500E-09-4.17745E-19-4.31073E-19
 -1       284 9.52409E-05-2.85825E-05-2.85679E-05 9.74724E-12-1.57236E-18-1.44204E-18
 -1       285 9.52407E-05-2.85821E-05-2.85680E-05 1.09298E-09-4.08986E-18-1.38741E-18
 -1       286 9.52403E-05-2.85810E-05-2.85683E-05 2.03100E-09-3.30522E-18-2.93997E-18
 -1       287 9.52397E-05-2.85793E-05-2.85687E-05 2.67991E-09-2.83329E-18 1.39357E-18
 -1       288 9.52390E-05-2.85773E-05-2.85693E-05 2.94675E-09-2.10247E-18 4.37279E-18
 -1       289 9.52382E-05-2.85752E-05-2.85699E-05 2.73960E-09-1.26629E-18-2.99514E-19
 -1       290 9.52375E-05-2.85733E-05-2.85704E-05 2.02757E-09-3.86084E-19 9.89413E-19
 -1       291 9.52369E-05-2.85722E-05-2.85706E-05 1.65850E-09-1.04498E-18 1.05069E-18
 -1       292 1.11066E-05-3.79834E-05 9.06273E-06 9.27029E-06 4.15618E-18 7.76708E-18
 -1       293 2.63323E-05-3.91551E-05 2.93438E-06 2.27602E-05 8.58002E-18 7.12731E-18
 -1       294 5.31996E-05-3.50797E-05-9.45251E-06 3.59377E-05 9.53526E-18 8.17334E-18
 -1       295 9.72727E-05-3.58983E-05-2.66341E-05 4.38021E-05 8.81571E-18 7.72600E-18
 -1       296 1.35821E-04-2.99376E-05-4.42465E-05 4.74622E-05 9.65607E-18 7.84480E-18
 -1       297 1.75251E-04-3.24235E-05-5.86673E-05 4.05439E-05 9.01955E-18 3.97491E-18
 -1       298 1.97954E-04-3.27376E-05-6.78386E-05 1.87526E-05 8.72179E-18-1.17367E-18
 -1       299 2.08792E-04-3.52056E-05-7.09937E-05-5.13063E-07 8.59950E-18-6.24221E-18
 -1       300 1.95293E-04-3.47634E-05-6.58354E-05-2.08977E-05 9.92161E-18-1.10049E-17
 -1       301 1.62553E-04-3.39583E-05-5.34614E-05-3.47423E-05 1.13705E-17-1.33926E-17
 -1       302 1.16285E-04-2.84914E-05-3.73065E-05-4.61729E-05 1.35085E-17-1.64555E-17
 -1       303 7.19375E-05-2.70134E-05-2.04608E-05-4.02697E-05 1.37192E-17-1.52246E-17
 -1       304 3.77165E-05-2.92557E-05-5.90459E-06-2.81042E-05 1.15103E-17-1.24339E-17
 -1       305 1.67445E-05-3.09266E-05 3.63434E-06-1.68261E-05 5.94416E-18-1.02449E-17
 -1       306 8.02615E-06-3.58735E-05 8.76613E-06-5.54792E-07 7.07471E-19-8.46599E-18
 -1       307 1.24793E-05-3.35143E-05 6.12904E-06 1.23674E-05-5.47014E-18-8.88898E-18
 -1       308 3.48820E-05-2.85941E-05-4.18660E-06 3.19343E-05-7.25251E-18-1.02519E-17
 -1       309 6.10425E-05-2.49053E-05-1.68159E-05 3.89625E-05-1.31218E-17-1.30951E-17
 -1       310 1.00173E-04-2.48873E-05-3.23416E-05 4.68005E-05-1.34750E-17-1.43034E-17
 -1       311 1.43508E-04-2.84208E-05-4.79912E-05 4.58754E-05-1.22360E-17-1.41963E-17
 -1       312 1.78428E-04-3.18002E-05-6.08019E-05 2.49421E-05-1.03322E-17-9.15071E-18
 -1       313 2.03016E-04-3.40449E-05-6.92489E-05 9.07248E-06-8.69808E-18-6.42453E-18
 -1       314 2.07775E-04-3.59474E-05-7.01182E-05-1.26655E-05-7.73818E-18-1.41312E-18
 -1       315 1.84141E-04-3.11660E-05-6.30467E-05-2.78385E-05-7.86894E-18 2.15040E-18
 -1       316 1.55506E-04-2.95591E-05-5.20654E-05-4.57716E-05-8.52115E-18 7.44965E-18
 -1       317 1.15970E-04-2.75284E-05-3.72771E-05-4.88383E-05-8.77208E-18 9.19221E-18
 -1       318 7.70856E-05-2.90149E-05-2.13673E-05-4.35993E-05-8.11521E-18 9.71631E-18
 -1       319 4.51418E-05-3.41209E-05-6.73176E-06-3.28962E-05-6.51284E-18 7.96799E-18
 -1       320 2.29855E-05-4.03299E-05 4.47883E-06-2.01617E-05-2.59404E-18 8.24814E-18
 -1       321 1.20774E-05-4.47200E-05 1.06384E-05-6.99722E-06 1.16663E-18 8.28197E-18
 -1       322 1.05713E-04-2.15754E-05-3.61550E-05-1.08904E-05-2.86342E-18-1.96115E-18
 -1       323 1.13580E-04-2.59857E-05-3.76424E-05-1.42152E-05-3.61919E-18 2.17515E-19
 -1       324 8.96276E-05-1.55649E-05-3.18039E-05 5.12733E-07-6.19815E-19-4.54258E-18
 -1       325 7.85009E-05-1.04336E-05-2.92158E-05 5.63107E-06 3.42890E-19-5.22498E-18
 -1       326 6.62546E-05-3.90335E-06-2.67404E-05 8.03569E-06 9.60362E-19-5.89138E-18
 -1       327 5.61011E-05 2.04811E-06-2.49096E-05 6.53435E-06 1.19952E-18-6.47433E-18
 -1       328 5.21420E-05 4.57284E-06-2.42869E-05 1.93498E-06 1.07596E-18-6.64138E-18
 -1       329 5.64028E-05 2.25998E-06-2.51320E-05-2.82100E-06 9.00818E-19-6.27716E-18
 -1       330 6.70249E-05-3.60600E-06-2.71951E-05-4.67543E-06 1.08003E-18-5.31196E-18
 -1       331 8.05675E-05-1.05737E-05-3.00413E-05-2.70358E-06 1.62248E-18-4.16420E-18
 -1       332 9.36935E-05-1.66199E-05-3.31081E-05 2.03085E-06 2.36525E-18-2.58402E-18
 -1       333 1.05546E-04-2.17382E-05-3.60239E-05 7.41821E-06 3.22962E-18-6.46107E-19
 -1       334 1.16767E-04-2.74947E-05-3.84103E-05 1.10135E-05 3.63575E-18 2.76481E-18
 -1       335 1.23984E-04-3.31811E-05-3.90312E-05 9.48176E-06 3.40955E-18 5.83657E-18
 -1       336 1.22405E-04-3.65714E-05-3.67786E-05 6.06741E-06 2.80987E-18 4.98667E-18
 -1       337 1.15802E-04-3.42843E-05-3.49117E-05-9.58365E-06-2.88032E-18 1.23641E-18
 -1       338 1.13772E-04-3.52122E-05-3.36596E-05-9.58699E-06-2.20708E-18 1.32717E-18
 -1       339 1.11149E-04-3.43021E-05-3.29263E-05-1.09129E-05-1.41485E-18 1.25240E-18
 -1       340 1.07700E-04-3.17801E-05-3.25267E-05-1.12729E-05-1.30426E-18 8.62823E-19
 -1       341 1.03965E-04-2.84545E-05-3.23480E-05-8.92331E-06-1.78828E-18 2.47724E-20
 -1       342 1.01322E-04-2.60133E-05-3.22599E-05-3.52971E-06-2.03753E-18-9.07326E-19
 -1       343 1.01069E-04-2.60272E-05-3.21472E-05 3.12089E-06-2.20597E-18-1.73506E-18
 -1       344 1.03108E-04-2.84481E-05-3.19880E-05 8.19376E-06-1.87408E-18-2.79228E-18
 -1       345 1.06034E-04-3.17356E-05-3.18360E-05 9.89221E-06-1.24954E-18-3.69539E-18
 -1       346 1.08298E-04-3.42107E-05-3.17534E-05 8.38978E-06-6.91508E-19-4.03395E-18
 -1       347 1.09189E-04-3.51860E-05-3.17282E-05 5.14905E-06-2.53448E-19-4.28022E-18
 -1       348 1.08817E-04-3.48994E-05-3.16952E-05 1.67193E-06 1.87069E-19-4.03321E-18
 -1       349 1.07632E-04-3.39360E-05-3.15985E-05-1.13265E-06 1.50391E-19-3.22322E-18
 -1       350 1.06066E-04-3.27888E-05-3.14149E-05-2.96644E-06-8.17205E-20-3.04986E-18
 -1       351 1.04408E-04-3.17330E-05-3.11523E-05-3.90382E-06-2.59532E-19-2.59474E-18
 -1       352 1.02819E-04-3.08706E-05-3.08371E-05-4.16710E-06-3.59161E-19-3.08962E-18
 -1       353 1.01377E-04-3.02092E-05-3.05002E-05-3.99300E-06-6.98035E-20-3.01813E-18
 -1       354 1.00116E-04-2.97189E-05-3.01684E-05-3.57555E-06 1.84967E-19-2.84497E-18
 -1       355 9.90432E-05-2.93622E-05-2.98606E-05-3.05292E-06 3.25323E-19-2.99392E-18
 -1       356 9.81507E-05-2.91056E-05-2.95880E-05-2.51376E-06-3.38643E-19-2.93493E-18
 -1       357 9.74241E-05-2.89225E-05-2.93552E-05-2.00923E-06 3.41602E-19-1.96259E-18
 -1       358 9.68440E-05-2.87932E-05-2.91623E-05-1.56481E-06 4.78382E-19-1.26263E-18
 -1       359 9.63898E-05-2.87032E-05-2.90066E-05-1.18959E-06 4.37766E-19-1.98474E-18
 -1       360 9.60410E-05-2.86416E-05-2.88839E-05-8.82924E-07-7.94600E-21-3.11740E-18
 -1       361 9.57783E-05-2.86006E-05-2.87892E-05-6.38962E-07 2.94754E-19-2.15662E-18
 -1       362 9.55847E-05-2.85744E-05-2.87178E-05-4.49466E-07 6.90317E-20-1.08348E-18
 -1       363 9.54454E-05-2.85585E-05-2.86651E-05-3.05561E-07 4.43731E-19-1.29596E-18
 -1       364 9.53478E-05-2.85499E-05-2.86271E-05-1.98724E-07 3.39182E-19-1.20676E-18
 -1       365 9.52817E-05-2.85461E-05-2.86006E-05-1.21290E-07-7.67098E-19-2.05923E-18
 -1       366 9.52389E-05-2.85455E-05-2.85827E-05-6.66643E-08-4.07553E-19-1.94120E-18
 -1       367 9.52130E-05-2.85467E-05-2.85711E-05-2.93557E-08-7.45487E-19-2.55594E-19
 -1       368 9.51989E-05-2.85491E-05-2.85641E-05-4.91261E-09-1.13537E-18-2.30457E-19
 -1       369 9.51929E-05-2.85519E-05-2.85604E-05 1.01920E-08-1.35011E-18-1.43319E-18
 -1       370 9.51921E-05-2.85548E-05-2.85588E-05 1.86945E-08-5.54944E-19-1.83789E-18
 -1       371 9.51946E-05-2.85577E-05-2.85587E-05 2.26741E-08-1.31545E-19-1.88493E-20
 -1       372 9.51989E-05-2.85603E-05-2.85594E-05 2.36782E-08 6.78133E-19 2.21160E-19
 -1       373 9.52040E-05-2.85625E-05-2.85606E-05 2.28318E-08 4.70093E-19-9.53403E-19
 -1       374 9.52093E-05-2.85645E-05-2.85621E-05 2.09314E-08-6.06496E-19-7.04019E-19
 -1       375 9.52144E-05-2.85661E-05-2.85636E-05 1.85215E-08-9.80033E-19-2.65736E-19
 -1       376 9.52191E-05-2.85675E-05-2.85650E-05 1.59565E-08-4.61850E-19-1.68134E-19
 -1       377 9.52233E-05-2.85686E-05-2.85663E-05 1.34483E-08 5.76569E-19 7.02188E-19
 -1       378 9.52269E-05-2.85695E-05-2.85674E-05 1.11032E-08 1.06114E-18 9.98240E-19
 -1       379 9.52299E-05-2.85703E-05-2.85684E-05 8.94531E-09 2.09681E-18 9.29675E-19
 -1       380 9.52323E-05-2.85710E-05-2.85692E-05 6.94745E-09 6.40251E-20 9.70787E-19
 -1       381 9.52343E-05-2.85716E-05-2.85698E-05 5.04629E-09 1.94854E-18 1.76906E-18
 -1       382 9.52357E-05-2.85719E-05-2.85702E-05 3.31118E-09 1.98312E-18 2.07114E-18
 -1       383 1.20508E-04-3.76571E-05-3.54893E-05 6.90092E-06 1.97521E-18 4.39403E-18
 -1       384 1.17942E-04-3.72664E-05-3.45717E-05 9.89555E-06 1.36453E-18 3.79713E-18
 -1       385 1.14043E-04-3.50264E-05-3.38639E-05 1.25125E-05 1.14616E-18 3.41361E-18
 -1       386 1.09008E-04-3.11093E-05-3.33888E-05 1.18861E-05 1.40047E-18 2.64105E-18
 -1       387 1.04708E-04-2.73974E-05-3.31406E-05 6.40168E-06 2.26380E-18 1.08773E-18
 -1       388 1.03569E-04-2.64890E-05-3.30514E-05-2.12882E-06 2.73625E-18-3.25350E-19
 -1       389 1.06227E-04-2.91711E-05-3.30227E-05-9.27342E-06 2.59031E-18-1.45179E-18
 -1       390 1.10485E-04-3.32002E-05-3.31221E-05-1.16031E-05 9.34991E-19-2.57594E-18
 -1       391 1.13812E-04-3.61076E-05-3.33086E-05-9.30950E-06-1.89474E-19-2.64735E-18
 -1       392 1.15059E-04-3.69994E-05-3.34721E-05-4.82141E-06-2.46037E-20-2.50145E-18
 -1       393 1.14431E-04-3.63631E-05-3.34810E-05-4.28324E-07 2.92273E-19-2.32620E-18
 -1       394 1.12641E-04-3.50560E-05-3.32731E-05 2.70847E-06 1.72954E-19-2.00613E-18
 -1       395 1.10326E-04-3.36699E-05-3.28674E-05 4.42553E-06 2.90216E-19-1.47214E-18
 -1       396 1.07897E-04-3.24641E-05-3.23353E-05 5.02576E-06-3.40433E-19-1.25012E-18
 -1       397 1.05586E-04-3.14985E-05-3.17529E-05 4.90856E-06-1.67382E-19-1.43595E-18
 -1       398 1.03511E-04-3.07514E-05-3.11802E-05 4.40693E-06 1.06452E-18-2.45417E-18
 -1       399 1.01720E-04-3.01806E-05-3.06556E-05 3.74861E-06 8.17037E-19-2.14249E-18
 -1       400 1.00220E-04-2.97462E-05-3.01984E-05 3.06988E-06-6.18967E-20-2.52283E-18
 -1       401 9.89949E-05-2.94167E-05-2.98148E-05 2.44250E-06 8.26635E-20-3.27887E-18
 -1       402 9.80153E-05-2.91681E-05-2.95020E-05 1.89775E-06 1.54897E-18-3.39904E-18
 -1       403 9.72473E-05-2.89822E-05-2.92531E-05 1.44372E-06 4.87544E-19-2.47398E-18
 -1       404 9.66562E-05-2.88449E-05-2.90593E-05 1.07631E-06-1.20916E-18-2.09096E-18
 -1       405 9.62096E-05-2.87451E-05-2.89112E-05 7.85868E-07-1.78433E-18-2.04225E-18
 -1       406 9.58787E-05-2.86740E-05-2.88003E-05 5.60819E-07-7.21521E-19-2.29594E-18
 -1       407 9.56384E-05-2.86246E-05-2.87189E-05 3.89657E-07 3.96913E-19-1.30820E-18
 -1       408 9.54682E-05-2.85915E-05-2.86605E-05 2.61865E-07 1.13293E-18-1.77086E-18
 -1       409 9.53509E-05-2.85702E-05-2.86196E-05 1.68301E-07 2.10349E-18-6.99518E-19
 -1       410 9.52730E-05-2.85574E-05-2.85919E-05 1.01272E-07 8.67185E-19-7.92765E-19
 -1       411 9.52239E-05-2.85506E-05-2.85739E-05 5.44648E-08-6.81495E-19-8.67137E-19
 -1       412 9.51951E-05-2.85477E-05-2.85629E-05 2.27989E-08-1.00054E-18-2.49205E-18
 -1       413 9.51805E-05-2.85476E-05-2.85568E-05 2.25757E-09-1.33695E-18-2.29757E-18
 -1       414 9.51754E-05-2.85490E-05-2.85541E-05-1.02826E-08-6.84646E-19-5.73907E-19
 -1       415 9.51763E-05-2.85512E-05-2.85536E-05-1.72107E-08 1.96885E-18-5.32137E-19
 -1       416 9.51808E-05-2.85539E-05-2.85544E-05-2.03229E-08 8.98269E-19-1.54297E-18
 -1       417 9.51872E-05-2.85566E-05-2.85560E-05-2.09448E-08-1.60159E-18-1.48518E-18
 -1       418 9.51944E-05-2.85592E-05-2.85579E-05-2.00340E-08-4.99934E-19-1.51939E-19
 -1       419 9.52016E-05-2.85616E-05-2.85600E-05-1.82645E-08-2.07544E-18 1.15193E-19
 -1       420 9.52083E-05-2.85637E-05-2.85620E-05-1.60955E-08-7.78897E-19 8.63217E-19
 -1       421 9.52144E-05-2.85655E-05-2.85639E-05-1.38242E-08 1.31550E-18 3.96085E-18
 -1       422 9.52198E-05-2.85670E-05-2.85655E-05-1.16273E-08 1.02513E-19 4.08522E-18
 -1       423 9.52243E-05-2.85682E-05-2.85669E-05-9.59199E-09 3.25160E-18 3.63074E-18
 -1       424 9.52281E-05-2.85693E-05-2.85681E-05-7.73648E-09 2.21673E-19 2.33666E-18
 -1       425 9.52312E-05-2.85701E-05-2.85690E-05-6.02812E-09-5.11853E-19 1.60912E-18
 -1       426 9.52336E-05-2.85709E-05-2.85698E-05-4.40495E-09 8.09014E-19 7.77094E-19
 -1       427 9.52354E-05-2.85714E-05-2.85703E-05-2.80052E-09-1.48139E-19 3.89818E-18
 -1       428 9.52363E-05-2.85718E-05-2.85705E-05-1.88964E-09-7.76440E-19 5.82317E-18
 -1       429 9.52385E-05-2.85762E-05-2.85696E-05-5.07920E-09-1.45311E-19-4.53889E-19
 -1       430 9.52373E-05-2.85742E-05-2.85699E-05-4.46595E-09 2.86980E-20-7.41167E-19
 -1       431 9.52367E-05-2.85729E-05-2.85702E-05-3.28363E-09-8.85578E-19 1.87772E-19
 -1       432 9.52395E-05-2.85780E-05-2.85692E-05-4.93477E-09 6.20366E-19-1.54917E-18
 -1       433 9.52404E-05-2.85797E-05-2.85689E-05-4.08306E-09 8.90523E-19 1.53866E-19
 -1       434 9.52411E-05-2.85809E-05-2.85687E-05-2.67679E-09 1.12608E-18-2.93844E-19
 -1       435 9.52415E-05-2.85815E-05-2.85685E-05-9.20675E-10-1.05834E-18-2.72790E-18
 -1       436 9.52414E-05-2.85815E-05-2.85685E-05 9.53365E-10-2.07770E-18-3.72898E-18
 -1       437 9.52411E-05-2.85808E-05-2.85687E-05 2.70478E-09-2.21380E-18-9.97765E-19
 -1       438 9.52404E-05-2.85797E-05-2.85689E-05 4.08329E-09 6.32029E-19 1.27557E-19
 -1       439 9.52395E-05-2.85780E-05-2.85692E-05 4.93377E-09 7.22490E-19 5.34705E-18
 -1       440 9.52384E-05-2.85761E-05-2.85696E-05 5.07560E-09 1.05101E-18 2.27659E-18
 -1       441 9.52373E-05-2.85742E-05-2.85699E-05 4.46992E-09 1.62365E-19-5.59511E-19
 -1       442 5.89217E-05-3.87954E-05-8.65876E-06 4.27679E-05 2.25205E-19 3.44922E-18
 -1       443 1.28215E-05-1.81468E-05 2.24517E-06-2.77883E-06 7.38765E-19 9.11302E-18
 -1       444 2.91378E-05-2.59262E-05-1.38958E-06 2.98042E-05-5.31354E-19 5.70233E-18
 -1       445 9.44783E-05-5.06509E-05-1.89209E-05 4.21990E-05 7.21460E-19 2.95829E-18
 -1       446 1.37627E-04-5.48795E-05-3.54195E-05 2.23679E-05 2.57572E-18-1.78205E-18
 -1       447 9.84738E-05-1.89384E-05-3.41886E-05-5.46834E-06-1.66474E-18-3.53880E-18
 -1       448 1.60112E-04-2.72723E-05-5.67474E-05 2.09451E-06 8.28599E-18-3.02507E-18
 -1       449 1.52917E-04-1.23642E-05-6.03310E-05-3.42618E-07 9.72976E-18-2.58927E-18
 -1       450 1.58084E-04-1.55166E-05-6.10374E-05 4.70608E-06 9.51144E-18-2.52813E-18
 -1       451 1.55925E-04-3.07195E-05-5.36896E-05 4.03427E-06 8.22215E-18-2.24379E-18
 -1       452 1.45245E-04-4.75280E-05-4.19278E-05-1.27770E-05 5.66787E-18-3.69105E-18
 -1       453 1.16646E-04-4.85082E-05-2.93331E-05-3.22585E-05 4.83359E-18-7.40879E-18
 -1       454 7.94526E-05-4.08817E-05-1.67059E-05-4.01276E-05 2.67673E-18-8.71483E-18
 -1       455 4.21965E-05-2.64223E-05-6.91629E-06-3.56485E-05 1.83700E-18-9.99599E-18
 -1       456 1.47107E-05-9.85243E-06-1.89565E-06-1.44494E-05 5.89350E-19-1.10854E-17
 -1       457 1.03706E-05-1.11444E-05 1.97346E-07 1.05807E-05 3.61815E-19-1.04676E-17
 -1       458 2.76678E-05-1.78712E-05-4.22605E-06 3.07068E-05 2.84285E-20-9.47438E-18
 -1       459 7.19242E-05-3.64153E-05-1.52967E-05 4.18790E-05-1.92065E-18-7.44924E-18
 -1       460 1.01702E-04-4.41170E-05-2.48679E-05 3.76817E-05-4.28122E-18-6.41744E-18
 -1       461 1.35647E-04-4.59091E-05-3.84440E-05 2.19663E-05-5.83992E-18-4.99040E-18
 -1       462 1.51742E-04-3.64967E-05-4.93582E-05 6.95413E-06-7.83611E-18-3.70863E-18
 -1       463 1.53121E-04-1.78906E-05-5.79887E-05-5.13661E-06-9.51197E-18-2.69155E-18
 -1       464 1.57358E-04-1.26851E-05-6.18963E-05-2.07665E-06-9.76438E-18-3.28786E-18
 -1       465 1.58225E-04-1.72318E-05-6.01872E-05-6.06468E-07-8.56287E-18-3.33075E-18
 -1       466 1.52938E-04-3.33461E-05-5.12581E-05-4.88195E-06-5.89456E-18-3.28024E-18
 -1       467 1.45487E-04-4.51263E-05-4.28934E-05-1.77216E-05-3.09186E-18-1.14392E-18
 -1       468 1.20302E-04-5.19401E-05-2.93423E-05-3.42427E-05-9.59265E-20 1.08452E-18
 -1       469 8.59512E-05-4.70113E-05-1.68251E-05-4.38831E-05 1.79656E-18 3.86610E-18
 -1       470 5.15752E-05-3.58573E-05-6.82761E-06-4.19855E-05 3.28617E-18 5.70058E-18
 -1       471 2.09915E-05-2.43065E-05 1.15291E-06-2.36462E-05 2.08862E-18 8.08440E-18
 -1       472 1.52794E-04-4.22027E-05-4.73135E-05 1.07082E-05 5.76960E-18-2.56238E-18
 -1       473 2.53710E-05-1.46108E-05-4.08522E-06 1.65237E-05-2.34247E-18 6.12225E-18
 -1       474 5.59658E-05-2.59808E-05-1.25046E-05 3.93430E-05 1.88936E-18-7.49487E-18
 -1       475 1.19091E-04-3.71073E-05-3.51354E-05 7.19448E-06 2.37764E-18 2.08952E-18
 -1       476 7.62127E-05-1.36730E-05-2.67979E-05 1.18608E-05 1.36937E-18-5.08622E-18
 -1       477 9.05481E-05-2.13545E-05-2.96616E-05 6.01842E-06 4.28493E-19-4.03528E-18
 -1       478 4.97355E-05 3.11803E-06-2.25783E-05 6.51430E-06 1.40697E-18-6.97816E-18
 -1       479 4.97429E-05 3.26463E-06-2.26510E-05-2.33246E-06 8.33488E-19-6.87305E-18
 -1       480 6.04693E-05-3.35544E-06-2.44339E-05-8.40827E-06 4.45173E-19-5.92953E-18
 -1       481 7.68289E-05-1.29968E-05-2.73381E-05-8.48554E-06 5.98234E-19-4.47300E-18
 -1       482 9.27174E-05-2.14634E-05-3.05483E-05-3.52100E-06 1.31347E-18-2.92939E-18
 -1       483 1.05611E-04-2.75547E-05-3.34710E-05 2.93327E-06 2.17485E-18-1.08184E-18
 -1       484 1.20749E-04-4.00803E-05-3.45804E-05 9.46398E-06 1.73064E-18 2.50506E-18
 -1       485 1.14576E-04-3.50923E-05-3.40786E-05-1.04039E-05-2.19813E-18 4.02986E-20
 -1       486 1.37188E-04-1.94789E-05-5.09521E-05 1.36422E-05 7.43658E-18 5.82441E-19
 -1       487 1.15420E-04-3.68833E-05-3.36661E-05-1.18146E-05-1.65915E-18 5.36318E-19
 -1       488 1.14335E-04-3.51619E-05-3.39376E-05-1.37682E-05-1.46333E-18 6.39490E-19
 -1       489 1.11141E-04-3.02977E-05-3.46666E-05-1.35636E-05-2.26181E-18 3.15964E-19
 -1       490 1.07176E-04-2.46039E-05-3.54139E-05-8.95234E-06-2.94771E-18-7.99677E-19
 -1       491 1.05211E-04-2.21336E-05-3.56294E-05-5.45862E-07-3.02195E-18-2.21387E-18
 -1       492 1.06620E-04-2.48658E-05-3.50752E-05 7.60263E-06-3.02222E-18-3.60790E-18
 -1       493 1.09914E-04-3.07703E-05-3.39391E-05 1.15500E-05-2.13300E-18-4.21611E-18
 -1       494 1.12343E-04-3.60430E-05-3.27007E-05 1.04901E-05-9.72308E-19-3.86588E-18
 -1       495 1.12426E-04-3.83613E-05-3.17484E-05 6.51844E-06-1.18653E-19-3.70579E-18
 -1       496 1.10643E-04-3.80091E-05-3.11382E-05 1.98417E-06 1.01772E-19-3.44821E-18
 -1       497 1.08015E-04-3.61977E-05-3.07868E-05-1.68818E-06 4.37344E-19-3.45389E-18
 -1       498 1.05365E-04-3.40333E-05-3.05759E-05-4.08225E-06 3.96718E-20-3.21720E-18
 -1       499 1.03084E-04-3.21241E-05-3.04141E-05-5.31839E-06 4.72867E-20-2.85451E-18
 -1       500 1.01263E-04-3.06766E-05-3.02522E-05-5.69214E-06-7.67560E-19-2.50101E-18
 -1       501 9.98552E-05-2.96808E-05-3.00743E-05-5.50133E-06-2.11008E-19-2.47212E-18
 -1       502 9.87744E-05-2.90450E-05-2.98830E-05-4.98580E-06-2.28770E-19-2.28558E-18
 -1       503 9.79416E-05-2.86664E-05-2.96881E-05-4.31780E-06 3.19948E-20-2.74294E-18
 -1       504 9.72953E-05-2.84591E-05-2.94999E-05-3.61114E-06 6.70842E-20-3.41990E-18
 -1       505 9.67911E-05-2.83600E-05-2.93264E-05-2.93501E-06 2.50032E-19-2.14644E-18
 -1       506 9.63974E-05-2.83258E-05-2.91725E-05-2.32690E-06 7.19799E-19-1.78172E-18
 -1       507 9.60910E-05-2.83283E-05-2.90403E-05-1.80315E-06 3.07517E-19-1.68530E-18
 -1       508 9.58543E-05-2.83498E-05-2.89298E-05-1.36675E-06-1.01612E-19-1.87165E-18
 -1       509 9.56735E-05-2.83795E-05-2.88397E-05-1.01287E-06 4.31723E-19-1.65510E-18
 -1       510 9.55372E-05-2.84112E-05-2.87678E-05-7.32644E-07 9.12879E-19-2.05336E-18
 -1       511 9.54360E-05-2.84415E-05-2.87116E-05-5.15541E-07 3.18791E-19-1.74099E-18
 -1       512 9.53624E-05-2.84685E-05-2.86686E-05-3.50880E-07 1.78801E-19-1.17361E-18
 -1       513 9.53100E-05-2.84916E-05-2.86363E-05-2.28676E-07-7.80411E-19-1.71505E-18
 -1       514 9.52738E-05-2.85108E-05-2.86126E-05-1.40075E-07-8.69917E-19-7.13532E-19
 -1       515 9.52496E-05-2.85263E-05-2.85956E-05-7.75130E-08-2.85544E-19-2.77573E-18
 -1       516 9.52342E-05-2.85386E-05-2.85838E-05-3.47157E-08-2.00201E-19-2.20169E-18
 -1       517 9.52251E-05-2.85481E-05-2.85758E-05-6.60710E-09-9.76856E-19 3.35654E-19
 -1       518 9.52204E-05-2.85553E-05-2.85707E-05 1.08318E-08-1.33496E-18 1.40527E-18
 -1       519 9.52187E-05-2.85607E-05-2.85677E-05 2.07182E-08 4.10005E-19 4.64152E-19
 -1       520 9.52188E-05-2.85646E-05-2.85661E-05 2.54218E-08 5.96273E-19 1.88119E-19
 -1       521 9.52201E-05-2.85674E-05-2.85655E-05 2.67067E-08-4.29544E-19-3.55378E-19
 -1       522 9.52221E-05-2.85693E-05-2.85655E-05 2.58560E-08 1.66923E-19-1.64171E-18
 -1       523 9.52243E-05-2.85706E-05-2.85659E-05 2.37783E-08-5.75439E-20-4.20930E-19
 -1       524 9.52265E-05-2.85714E-05-2.85665E-05 2.10944E-08-3.24356E-19 2.06510E-18
 -1       525 9.52286E-05-2.85719E-05-2.85671E-05 1.82076E-08 3.45304E-19 2.77040E-18
 -1       526 9.52305E-05-2.85723E-05-2.85678E-05 1.53579E-08-1.43276E-19 1.00954E-18
 -1       527 9.52322E-05-2.85725E-05-2.85684E-05 1.26707E-08 4.36795E-19 6.85443E-19
 -1       528 9.52337E-05-2.85728E-05-2.85690E-05 1.01671E-08 2.24898E-18 1.16897E-18
 -1       529 9.52350E-05-2.85730E-05-2.85694E-05 7.85100E-09 1.92208E-18 2.12437E-18
 -1       530 5.53610E-05-2.89799E-05-1.07674E-05 3.74189E-05-3.34477E-18 2.86461E-18
 -1       531 1.18673E-04-3.51826E-05-3.58263E-05 1.64209E-05 1.79750E-18 2.40905E-18
 -1       532 1.13715E-04-2.72891E-05-3.71166E-05 1.32800E-05 3.18358E-18 1.29198E-18
 -1       533 1.09966E-04-2.21437E-05-3.77398E-05 3.19668E-06 4.16382E-18-4.92973E-19
 -1       534 1.11266E-04-2.46433E-05-3.71831E-05-8.26693E-06 3.89853E-18-2.61981E-18
 -1       535 1.15456E-04-3.21086E-05-3.57882E-05-1.40081E-05 2.23789E-18-3.59566E-18
 -1       536 1.18331E-04-3.87733E-05-3.41354E-05-1.22957E-05 5.69338E-19-3.61165E-18
 -1       537 1.17825E-04-4.10243E-05-3.29289E-05-6.56084E-06 7.57152E-20-3.63836E-18
 -1       538 1.14987E-04-3.98078E-05-3.22321E-05-5.19724E-07-6.57197E-19-2.97959E-18
 -1       539 1.11358E-04-3.70628E-05-3.18582E-05 3.85886E-06 6.28049E-20-2.69459E-18
 -1       540 1.07999E-04-3.43216E-05-3.15876E-05 6.33296E-06-5.20243E-20-2.54571E-18
 -1       541 1.05242E-04-3.21795E-05-3.13182E-05 7.28629E-06-5.74852E-19-1.86179E-18
 -1       542 1.03076E-04-3.07069E-05-3.10167E-05 7.23700E-06-1.63175E-19-2.30890E-18
 -1       543 1.01383E-04-2.97694E-05-3.06900E-05 6.62044E-06 5.26321E-19-1.80905E-18
 -1       544 1.00044E-04-2.92011E-05-3.03585E-05 5.74291E-06-6.86878E-20-5.61614E-19
 -1       545 9.89736E-05-2.88680E-05-3.00422E-05 4.79728E-06 6.66540E-19-3.88909E-19
 -1       546 9.81134E-05-2.86781E-05-2.97550E-05 3.89333E-06 8.16679E-19-9.73840E-19
 -1       547 9.74230E-05-2.85731E-05-2.95044E-05 3.08581E-06 2.31982E-19-9.05907E-19
 -1       548 9.68728E-05-2.85181E-05-2.92926E-05 2.39558E-06 3.81272E-19 2.20187E-19
 -1       549 9.64391E-05-2.84922E-05-2.91182E-05 1.82407E-06-5.74428E-19-3.27298E-19
 -1       550 9.61019E-05-2.84832E-05-2.89779E-05 1.36246E-06-1.32712E-18-1.63561E-19
 -1       551 9.58437E-05-2.84840E-05-2.88673E-05 9.97325E-07-8.79073E-19-1.74239E-18
 -1       552 9.56493E-05-2.84901E-05-2.87816E-05 7.13874E-07-1.09407E-19-1.76378E-18
 -1       553 9.55058E-05-2.84989E-05-2.87166E-05 4.97761E-07 1.54721E-19-1.31603E-18
 -1       554 9.54021E-05-2.85087E-05-2.86681E-05 3.35961E-07 8.35888E-19-4.83203E-19
 -1       555 9.53291E-05-2.85185E-05-2.86328E-05 2.17145E-07 1.19167E-18 1.65708E-19
 -1       556 9.52791E-05-2.85277E-05-2.86075E-05 1.31756E-07 8.96686E-19-7.17782E-20
 -1       557 9.52463E-05-2.85360E-05-2.85900E-05 7.19163E-08 6.90563E-20-6.63044E-19
 -1       558 9.52260E-05-2.85432E-05-2.85782E-05 3.12639E-08-1.75261E-18-6.08760E-19
 -1       559 9.52145E-05-2.85493E-05-2.85707E-05 4.74915E-09-1.61982E-18-4.65056E-19
 -1       560 9.52090E-05-2.85544E-05-2.85662E-05-1.15674E-08 2.39975E-19-1.73814E-19
 -1       561 9.52075E-05-2.85585E-05-2.85639E-05-2.07078E-08 1.35046E-18 1.61370E-18
 -1       562 9.52086E-05-2.85618E-05-2.85629E-05-2.49503E-08 2.58541E-19 4.86982E-19
 -1       563 9.52111E-05-2.85644E-05-2.85629E-05-2.59799E-08-1.09936E-18-8.66348E-19
 -1       564 9.52144E-05-2.85664E-05-2.85634E-05-2.50167E-08-1.26996E-18-1.38968E-18
 -1       565 9.52179E-05-2.85680E-05-2.85643E-05-2.29208E-08-2.77927E-18-1.68223E-18
 -1       566 9.52214E-05-2.85691E-05-2.85653E-05-2.02784E-08-4.11874E-19-5.66154E-19
 -1       567 9.52246E-05-2.85700E-05-2.85663E-05-1.74689E-08-2.93032E-19 2.44696E-19
 -1       568 9.52274E-05-2.85707E-05-2.85672E-05-1.47176E-08 1.61989E-18 1.05564E-18
 -1       569 9.52299E-05-2.85712E-05-2.85680E-05-1.21368E-08 2.57527E-18 3.58412E-18
 -1       570 9.52321E-05-2.85717E-05-2.85688E-05-9.77759E-09 3.33914E-20 2.15507E-18
 -1       571 9.52339E-05-2.85721E-05-2.85693E-05-7.56648E-09 1.77028E-19 1.53727E-18
 -1       572 9.52354E-05-2.85725E-05-2.85698E-05-5.45362E-09-4.31283E-19 3.20279E-18
 -1       573 9.52407E-05-2.85789E-05-2.85693E-05-6.21525E-09 1.93046E-18-2.17310E-19
 -1       574 9.52418E-05-2.85804E-05-2.85692E-05-4.62341E-09 2.08457E-18 1.42249E-18
 -1       575 9.52375E-05-2.85751E-05-2.85696E-05-6.88126E-09 1.01296E-19-1.58229E-18
 -1       576 9.52391E-05-2.85771E-05-2.85695E-05-6.99072E-09 1.14847E-18-5.90155E-19
 -1       577 9.52426E-05-2.85813E-05-2.85691E-05-2.45139E-09 7.22243E-19-4.36452E-18
 -1       578 9.52429E-05-2.85816E-05-2.85691E-05 2.26381E-11-7.31542E-19-3.38890E-18
 -1       579 9.52426E-05-2.85813E-05-2.85691E-05 2.49352E-09-5.51538E-19-1.48820E-18
 -1       580 9.52418E-05-2.85803E-05-2.85692E-05 4.62429E-09 5.42832E-19 1.02144E-18
 -1       581 9.52407E-05-2.85789E-05-2.85693E-05 6.21545E-09 2.16725E-18 1.99142E-18
 -1       582 9.52391E-05-2.85771E-05-2.85695E-05 6.99132E-09 1.75879E-18 4.57847E-18
 -1       583 9.52374E-05-2.85750E-05-2.85696E-05 6.84579E-09 1.48147E-18-1.36732E-18
 -1       584 8.86482E-05-4.73622E-05-1.73920E-05 4.11001E-05-3.20268E-18 9.38314E-19
 -1       585 1.22708E-04-5.89324E-05-2.72417E-05 2.68459E-05-1.32521E-18-2.42106E-18
 -1       586 1.21126E-04-3.98923E-05-3.48446E-05 1.37137E-05 1.18918E-18 2.81082E-18
 -1       587 4.36665E-05-2.49875E-05-7.58901E-06-3.51360E-05 3.90837E-18 5.26701E-18
 -1       588 2.73863E-05-1.53628E-05-4.63861E-06-1.86949E-05 2.29699E-18 6.61872E-18
 -1       589 1.39025E-04-2.76961E-05-4.81941E-05-1.23414E-05-6.74228E-18-1.44419E-19
 -1       590 1.93812E-05-5.84913E-07-7.50778E-06 1.12232E-06 9.61254E-19-1.00752E-17
 -1       591 6.03188E-05-4.06195E-06-2.40665E-05 1.26256E-05 1.70036E-18-6.16187E-18
 -1       592 1.11790E-04-3.04014E-05-3.49196E-05-1.03538E-05-2.61255E-18-9.72690E-19
 -1       593 1.43778E-04-4.26647E-05-4.37175E-05 1.01414E-05 4.23064E-18 1.58374E-18
 -1       594 1.33151E-04-1.09953E-05-5.29736E-05 5.77223E-06 8.49839E-18-1.00740E-18
 -1       595 1.28346E-04-9.23817E-06-5.16640E-05-6.81323E-06-8.60035E-18-2.19192E-18
 -1       596 1.38187E-04-1.79197E-05-5.21098E-05-8.87247E-06 7.67253E-18-3.71707E-18
 -1       597 1.33613E-04-5.55436E-05-3.36191E-05-1.11131E-05 7.08146E-19-5.86914E-19
 -1       598 1.11185E-04-5.11727E-05-2.55354E-05-2.78996E-05-9.26442E-19-3.43340E-18
 -1       599 7.25554E-05-3.36713E-05-1.63308E-05-3.71402E-05-1.15752E-18-7.29986E-18
 -1       600 4.10232E-05-1.31086E-05-1.14197E-05-2.80075E-05-9.34383E-19-9.12652E-18
 -1       601 2.64709E-05-5.53434E-06-8.40848E-06 2.09341E-05 1.88415E-18-9.34754E-18
 -1       602 9.96543E-05-4.55812E-05-2.30075E-05 3.45026E-05 9.75835E-19-3.87996E-18
 -1       603 1.26716E-04-5.20502E-05-3.20560E-05 1.98461E-05-1.38032E-18-2.01970E-18
 -1       604 1.40055E-04-4.56296E-05-4.07225E-05-5.70375E-07-3.68101E-18-1.38702E-19
 -1       605 1.12715E-04-5.60461E-05-2.41907E-05-3.44539E-05 3.77311E-18 3.66342E-20
 -1       606 1.29579E-04-8.98338E-06-5.23925E-05 2.04866E-06-8.07604E-18-3.95147E-18
 -1       607 1.36390E-04-2.04087E-05-5.02051E-05 9.56250E-06-6.34391E-18-5.65662E-18
 -1       608 1.41856E-04-4.42019E-05-4.22418E-05 2.26979E-06-2.11339E-18-5.40328E-18
 -1       609 1.35729E-04-5.61686E-05-3.42068E-05-1.48675E-05 1.33936E-18-3.00707E-18
 -1       610 8.20423E-05-4.45455E-05-1.57480E-05-4.32817E-05 4.31886E-18 2.71450E-18
 -1       611 1.18000E-04-3.31233E-05-3.64149E-05 7.93505E-06 3.14182E-18 2.20200E-18
 -1       612 1.01040E-04-2.60158E-05-3.21790E-05-1.50876E-06-7.15901E-19-3.25242E-18
 -1       613 2.95586E-05-1.03559E-05-7.64755E-06-9.73241E-07-8.04822E-19 5.03768E-18
 -1       614 9.52358E-05-2.85732E-05-2.85697E-05 6.29880E-09 1.50886E-18 2.74092E-18
 -1       615 1.37492E-04-5.72269E-05-3.45177E-05 8.99142E-06 6.42964E-19-4.29297E-18
 -1       616 4.54155E-05-1.28150E-05-1.35026E-05 3.03751E-05 2.91713E-18-7.80419E-18
 -1       617 3.46419E-05-2.11118E-06-1.33899E-05-1.41159E-05-1.50825E-19-9.27771E-18
 -1       618 1.43997E-04-4.72619E-05-4.17714E-05-3.33545E-06 3.35388E-18-4.95551E-18
 -1       619 1.24683E-04-1.23970E-05-4.86476E-05-3.62806E-06 7.86115E-18-1.90885E-18
 -1       620 8.00395E-05-3.42565E-05-1.93420E-05 3.61236E-05 2.70818E-18-4.82346E-18
 -1       621 1.42970E-04-3.30141E-05-4.75988E-05-9.73348E-06 5.50529E-18-4.84376E-18
 -1       622 5.01159E-05-2.22823E-06-2.03519E-05-1.14878E-05-3.02748E-20-7.14638E-18
 -1       623 4.10156E-05 3.53824E-06-1.88471E-05 2.62395E-06 1.30427E-18-7.84519E-18
 -1       624 9.19325E-05-2.68210E-05-2.78400E-05-1.14126E-05-2.25824E-19-2.96781E-18
 -1       625 1.06823E-04-3.38190E-05-3.12790E-05-2.55090E-06 7.85152E-19-1.23083E-18
 -1       626 1.17497E-04-3.96040E-05-3.33663E-05 4.53117E-06 1.27775E-18 8.36337E-19
 -1       627 1.23464E-04-4.41699E-05-3.40014E-05 8.48078E-06 8.80825E-19 1.87507E-18
 -1       628 9.52370E-05-2.85750E-05-2.85694E-05-9.23682E-09-5.39733E-19 1.31624E-18
 -1       629 1.18899E-04-3.94351E-05-3.40759E-05-1.19889E-05-1.40003E-18 2.36948E-19
 -1       630 1.18770E-04-3.53554E-05-3.58094E-05-1.54055E-05-1.83354E-18 3.06897E-19
 -1       631 1.14573E-04-2.62152E-05-3.80082E-05-1.48135E-05-3.51138E-18 2.76411E-20
 -1       632 1.10763E-04-1.87333E-05-3.96022E-05-6.67718E-06-4.50393E-18-1.62037E-18
 -1       633 1.09870E-04-1.84594E-05-3.93785E-05 4.92750E-06-4.40292E-18-3.83814E-18
 -1       634 1.14080E-04-2.70977E-05-3.73913E-05 1.21375E-05-2.96175E-18-4.71939E-18
 -1       635 1.17730E-04-3.68559E-05-3.47949E-05 1.21259E-05-1.55292E-18-4.77626E-18
 -1       636 1.18045E-04-4.22131E-05-3.25045E-05 7.04387E-06-2.84798E-19-4.49194E-18
 -1       637 1.14536E-04-4.23853E-05-3.09246E-05 9.61684E-07 3.18436E-19-3.32098E-18
 -1       638 1.09782E-04-3.96155E-05-3.00742E-05-3.51464E-06 3.79908E-19-3.03862E-18
 -1       639 1.05386E-04-3.60990E-05-2.96971E-05-6.09259E-06 5.35861E-19-2.95081E-18
 -1       640 1.01976E-04-3.29987E-05-2.95633E-05-7.20546E-06 2.38831E-19-2.51558E-18
 -1       641 9.95813E-05-3.06948E-05-2.95236E-05-7.36031E-06 5.88500E-20-2.37461E-18
 -1       642 9.79994E-05-2.91692E-05-2.94991E-05-6.94830E-06 7.76940E-20-1.87072E-18
 -1       643 9.69937E-05-2.82594E-05-2.94576E-05-6.23546E-06-2.87862E-19-1.37482E-18
 -1       644 9.63674E-05-2.77843E-05-2.93926E-05-5.39390E-06-3.34742E-19-2.59963E-18
 -1       645 9.59800E-05-2.75919E-05-2.93089E-05-4.53193E-06-3.13165E-19-2.61184E-18
 -1       646 9.57385E-05-2.75700E-05-2.92147E-05-3.71476E-06 5.64862E-19-2.67040E-18
 -1       647 9.55850E-05-2.76420E-05-2.91180E-05-2.97843E-06 5.72306E-19-2.56154E-18
 -1       648 9.54845E-05-2.77584E-05-2.90251E-05-2.33931E-06 9.48857E-19-2.52934E-18
 -1       649 9.54163E-05-2.78891E-05-2.89399E-05-1.80087E-06-4.00959E-20-2.07174E-18
 -1       650 9.53684E-05-2.80167E-05-2.88647E-05-1.35854E-06 7.38617E-20-1.93419E-18
 -1       651 9.53337E-05-2.81322E-05-2.88004E-05-1.00320E-06-4.43628E-20-2.40353E-18
 -1       652 9.53080E-05-2.82319E-05-2.87467E-05-7.23600E-07 5.80731E-19-3.47283E-18
 -1       653 9.52887E-05-2.83147E-05-2.87030E-05-5.07942E-07 7.74212E-19-3.74562E-18
 -1       654 9.52742E-05-2.83818E-05-2.86681E-05-3.44902E-07 5.00375E-19-1.92618E-18
 -1       655 9.52633E-05-2.84347E-05-2.86407E-05-2.24198E-07-7.79688E-19-1.81101E-18
 -1       656 9.52552E-05-2.84755E-05-2.86198E-05-1.36858E-07-1.57054E-18-1.89160E-18
 -1       657 9.52491E-05-2.85064E-05-2.86040E-05-7.52943E-08-3.58939E-19-2.06571E-18
 -1       658 9.52447E-05-2.85292E-05-2.85923E-05-3.32520E-08 6.04568E-19-2.89809E-18
 -1       659 9.52416E-05-2.85456E-05-2.85840E-05-5.69195E-09-2.40605E-19-2.65734E-18
 -1       660 9.52394E-05-2.85572E-05-2.85781E-05 1.13644E-08-1.37384E-18-1.80001E-18
 -1       661 9.52380E-05-2.85651E-05-2.85741E-05 2.09963E-08-2.67094E-19-1.90152E-18
 -1       662 9.52371E-05-2.85702E-05-2.85715E-05 2.55404E-08-3.94611E-19-3.08703E-18
 -1       663 9.52365E-05-2.85733E-05-2.85699E-05 2.67333E-08 3.23676E-20-2.11423E-18
 -1       664 9.52362E-05-2.85750E-05-2.85691E-05 2.58362E-08 1.12079E-18-7.67695E-19
 -1       665 9.52361E-05-2.85758E-05-2.85687E-05 2.37399E-08 1.72968E-18 6.32091E-19
 -1       666 9.52361E-05-2.85760E-05-2.85686E-05 2.10515E-08 1.98195E-19 2.29366E-18
 -1       667 9.52363E-05-2.85759E-05-2.85687E-05 1.81644E-08-7.51493E-19 2.43977E-18
 -1       668 9.52364E-05-2.85756E-05-2.85689E-05 1.53145E-08 1.25652E-20 2.47726E-18
 -1       669 9.52366E-05-2.85753E-05-2.85691E-05 1.26001E-08 5.27562E-19 2.08880E-18
 -1       670 9.52370E-05-2.85751E-05-2.85694E-05 1.00204E-08 2.00717E-18-7.72616E-19
 -1       671 1.29996E-04-5.02731E-05-3.42879E-05 2.78938E-06-3.00339E-19 3.98251E-19
 -1       672 1.24624E-04-3.24311E-05-3.97647E-05 1.88982E-05 3.14776E-18 2.53203E-18
 -1       673 1.19959E-04-2.73017E-05-3.99840E-05-1.40768E-05 4.24606E-18-3.74321E-18
 -1       674 1.23866E-04-3.96946E-05-3.62107E-05-1.40298E-05 1.18986E-18-4.77279E-18
 -1       675 1.22980E-04-4.54693E-05-3.32489E-05-6.84099E-06-3.19841E-19-4.26251E-18
 -1       676 1.17915E-04-4.45678E-05-3.14519E-05 6.44767E-07-1.05023E-18-3.32496E-18
 -1       677 1.11845E-04-4.02555E-05-3.06943E-05 5.71535E-06-5.07506E-19-3.13477E-18
 -1       678 1.06735E-04-3.58626E-05-3.03830E-05 8.37451E-06-6.63705E-19-1.87025E-18
 -1       679 1.03064E-04-3.24407E-05-3.02719E-05 9.23607E-06-6.90448E-19-1.28871E-18
 -1       680 1.00629E-04-3.01743E-05-3.01966E-05 9.02418E-06-3.16148E-19-1.60787E-18
 -1       681 9.90578E-05-2.88388E-05-3.00938E-05 8.23372E-06-8.89432E-20-1.80064E-18
 -1       682 9.80334E-05-2.81401E-05-2.99533E-05 7.18108E-06-2.47809E-19-1.12148E-18
 -1       683 9.73394E-05-2.78346E-05-2.97865E-05 6.05967E-06 1.03036E-19-1.07188E-18
 -1       684 9.68441E-05-2.77526E-05-2.96093E-05 4.98142E-06 5.14377E-19-5.16548E-19
 -1       685 9.64729E-05-2.77867E-05-2.94357E-05 4.00566E-06 3.49678E-19 6.92899E-19
 -1       686 9.61848E-05-2.78740E-05-2.92750E-05 3.15831E-06 4.52048E-19-7.74027E-19
 -1       687 9.59572E-05-2.79792E-05-2.91325E-05 2.44475E-06 3.00422E-19-1.07394E-18
 -1       688 9.57766E-05-2.80840E-05-2.90104E-05 1.85847E-06-1.18432E-18 5.97367E-19
 -1       689 9.56341E-05-2.81796E-05-2.89085E-05 1.38677E-06-3.59256E-19-1.23470E-19
 -1       690 9.55228E-05-2.82625E-05-2.88254E-05 1.01432E-06-3.81359E-19-8.86793E-19
 -1       691 9.54374E-05-2.83321E-05-2.87591E-05 7.25432E-07-5.43730E-20-9.99584E-19
 -1       692 9.53728E-05-2.83891E-05-2.87071E-05 5.05250E-07 5.52974E-19-2.06418E-18
 -1       693 9.53251E-05-2.84349E-05-2.86671E-05 3.40447E-07 1.78072E-19-9.78090E-19
 -1       694 9.52906E-05-2.84711E-05-2.86368E-05 2.19472E-07 1.35169E-18 2.06995E-19
 -1       695 9.52663E-05-2.84992E-05-2.86144E-05 1.32585E-07 5.65929E-19-5.17312E-19
 -1       696 9.52498E-05-2.85206E-05-2.85981E-05 7.17550E-08-1.02550E-19-1.42842E-18
 -1       697 9.52390E-05-2.85367E-05-2.85866E-05 3.04916E-08-2.16759E-18-1.15306E-18
 -1       698 9.52324E-05-2.85486E-05-2.85787E-05 3.63953E-09-5.93661E-19-1.59562E-18
 -1       699 9.52287E-05-2.85572E-05-2.85735E-05-1.28247E-08 8.64035E-19-7.80113E-19
 -1       700 9.52270E-05-2.85633E-05-2.85702E-05-2.19877E-08 1.01361E-18-8.86469E-19
 -1       701 9.52267E-05-2.85674E-05-2.85683E-05-2.61755E-08 2.74414E-19-8.86405E-19
 -1       702 9.52272E-05-2.85702E-05-2.85673E-05-2.71073E-08-5.95234E-19-3.96990E-19
 -1       703 9.52282E-05-2.85719E-05-2.85670E-05-2.60255E-08-2.28872E-18-6.36256E-19
 -1       704 9.52294E-05-2.85729E-05-2.85671E-05-2.38040E-08-1.82046E-18-1.82294E-18
 -1       705 9.52307E-05-2.85734E-05-2.85674E-05-2.10356E-08-1.39102E-18-2.77772E-18
 -1       706 9.52319E-05-2.85736E-05-2.85679E-05-1.81016E-08 5.51421E-19-1.45788E-18
 -1       707 9.52331E-05-2.85737E-05-2.85683E-05-1.52315E-08 7.52929E-19-1.46997E-18
 -1       708 9.52342E-05-2.85737E-05-2.85688E-05-1.25500E-08 1.81648E-18 1.28706E-19
 -1       709 9.52358E-05-2.85744E-05-2.85692E-05-1.09125E-08 3.99829E-19 1.58302E-18
 -1       710 1.32685E-04-3.81787E-05-4.08086E-05-1.31704E-05-3.42084E-18 1.24067E-18
 -1       711 1.27230E-04-5.75164E-05-2.99113E-05 1.40094E-05-1.43740E-18-4.03965E-18
 -1       712 9.52447E-05-2.85822E-05-2.85697E-05-1.52309E-09 8.82500E-19-3.76669E-18
 -1       713 9.52426E-05-2.85802E-05-2.85696E-05-6.87381E-09 6.79784E-19 1.08755E-19
 -1       714 9.52447E-05-2.85822E-05-2.85697E-05 1.58036E-09 1.87417E-18-4.10498E-18
 -1       715 9.52440E-05-2.85815E-05-2.85696E-05-4.45533E-09-5.97717E-19-2.22050E-18
 -1       716 9.52440E-05-2.85815E-05-2.85696E-05 4.45629E-09 1.28923E-18 3.44055E-19
 -1       717 9.52426E-05-2.85802E-05-2.85696E-05 6.86777E-09 8.25108E-19 2.68841E-18
 -1       718 9.52406E-05-2.85784E-05-2.85695E-05 8.47692E-09 2.60415E-18 4.78499E-18
 -1       719 9.52371E-05-2.85750E-05-2.85695E-05 8.46685E-09 1.91691E-18-6.34083E-19
 -1       720 7.00251E-05-3.32340E-05-1.53635E-05-3.76766E-05 4.65439E-18 3.22119E-18
 -1       721 4.59439E-05-1.74395E-05-1.16593E-05-2.55059E-05 2.76689E-18 3.93992E-18
 -1       722 4.55849E-05-1.69092E-05-1.17236E-05 2.32664E-05-2.87159E-18 3.99117E-18
 -1       723 1.27086E-04-4.26921E-05-3.62365E-05 1.50938E-05 1.48310E-18 2.53480E-18
 -1       724 7.08136E-05-1.57281E-05-2.34495E-05 2.03150E-05 2.51353E-18-5.38969E-18
 -1       725 1.15469E-04-3.76132E-05-3.33499E-05-8.66667E-06-1.22470E-18-3.82327E-19
 -1       726 1.30726E-04-2.65968E-05-4.51516E-05-1.37449E-05 5.77523E-18-3.77470E-18
 -1       727 7.07937E-05-1.49838E-05-2.37885E-05-1.66386E-05-7.61506E-19-5.17630E-18
 -1       728 1.21180E-04-1.60695E-05-4.54341E-05 9.38689E-06-5.73542E-18-5.04049E-18
 -1       729 9.10379E-05-2.70785E-05-2.73764E-05 1.38742E-05 1.65539E-18-3.67352E-18
 -1       730 6.67867E-05-2.28729E-05-1.84418E-05-2.92279E-05-1.81990E-18-6.65191E-18
 -1       731 1.23526E-04-1.94813E-05-4.50001E-05-1.44962E-05-6.13985E-18-2.14643E-19
 -1       732 1.23144E-04-5.22356E-05-3.03468E-05-1.12060E-05-1.18684E-18 9.79779E-20
 -1       733 3.10372E-05 8.88674E-07-1.30969E-05 1.09438E-05 1.81704E-18-8.94477E-18
 -1       734 1.07351E-04-5.19275E-05-2.35807E-05 3.00772E-05-3.39443E-18-7.16550E-19
 -1       735 1.16595E-04-4.90492E-05-2.89049E-05 1.78316E-05 1.50020E-18-1.15535E-18
 -1       736 1.25009E-04-5.72970E-05-2.90193E-05-1.86673E-05 3.58632E-18-2.12751E-18
 -1       737 9.68087E-05-4.11459E-05-2.36324E-05-2.70167E-05-2.08214E-18-3.52269E-18
 -1       738 1.18717E-04-1.14872E-05-4.64358E-05 1.35381E-06-6.55222E-18-3.32047E-18
 -1       739 1.02458E-04-5.03816E-05-2.21053E-05-3.42607E-05 4.85596E-18 4.34793E-19
 -1       740 1.35210E-04-4.97585E-05-3.67823E-05 7.33058E-06 1.04269E-18 2.32901E-18
 -1       741 1.34352E-04-5.16587E-05-3.56225E-05-3.05087E-07 5.89942E-19-4.47726E-18
 -1       742 4.99444E-05-2.51982E-06-2.00956E-05 1.63688E-05 2.32043E-18-6.85839E-18
 -1       743 8.14541E-05-3.81807E-05-1.82312E-05 3.54864E-05-3.50380E-18 1.09521E-18
 -1       744 1.30198E-04-3.40368E-05-4.16650E-05 1.25165E-05-3.06621E-18-6.25534E-18
 -1       745 1.04202E-04-3.27466E-05-3.06106E-05 3.65982E-06 3.04651E-19-2.55598E-18
 -1       746 6.70242E-05-2.58262E-05-1.73305E-05 2.85889E-05-2.67308E-18 1.89664E-18
 -1       747 1.34975E-04-5.03190E-05-3.64637E-05-5.80089E-06 6.99848E-19-4.63487E-18
 -1       748 1.35634E-04-3.85063E-05-4.20167E-05-1.23283E-05 3.75745E-18-3.95959E-18
 -1       749 1.01657E-04-4.13156E-05-2.56383E-05 2.43500E-05 2.60948E-18-2.70114E-18
 -1       750 9.52406E-05-2.85784E-05-2.85695E-05-8.48630E-09 1.58943E-18-2.98967E-19
 -1       751 6.53126E-05-2.14564E-05-1.85415E-05 3.14724E-05 3.32799E-18-6.13935E-18
 -1       752 1.18818E-04-1.95166E-05-4.30509E-05 1.24323E-05 5.39248E-18 1.04004E-18
 -1       753 1.11936E-04-3.49118E-05-3.30044E-05-6.10095E-06-1.13734E-18-1.37972E-18
 -1       754 1.10201E-04-4.11997E-05-2.95895E-05-9.00604E-06-7.23406E-19-1.13842E-18
 -1       755 1.25798E-04-5.25372E-05-3.14489E-05-4.51469E-06 2.17114E-18-3.19160E-18
 -1       756 8.61176E-05-2.89247E-05-2.43773E-05-2.08336E-05-1.65026E-18-3.78814E-18
 -1       757 1.14736E-04-5.11590E-05-2.72339E-05 1.85274E-05-2.57790E-18-2.73668E-18
 -1       758 1.16068E-04-1.31352E-05-4.44495E-05-6.36315E-06-6.53692E-18-1.98608E-18
 -1       759 1.25087E-04-3.41796E-05-3.91311E-05-1.60212E-05-2.97862E-18 1.01322E-18
 -1       760 1.25078E-04-3.62861E-05-3.82615E-05 1.24044E-05-2.08003E-18-5.92703E-18
 -1       761 1.15175E-04-4.84040E-05-2.85806E-05-1.14180E-05 2.56879E-18-1.85865E-18
 -1       762 1.05908E-04-4.15052E-05-2.75866E-05-1.37030E-05 1.55478E-18-3.83289E-19
 -1       763 9.95311E-05-3.54167E-05-2.74749E-05-1.32575E-05 1.08407E-18-1.67545E-20
 -1       764 9.56997E-05-3.10447E-05-2.77102E-05-1.17790E-05 1.09115E-18 2.06504E-19
 -1       765 9.36573E-05-2.82464E-05-2.80357E-05-1.00646E-05 7.55824E-19 1.55318E-19
 -1       766 9.27503E-05-2.66390E-05-2.83355E-05-8.44412E-06 1.27249E-19 7.00048E-19
 -1       767 9.25131E-05-2.58540E-05-2.85697E-05-7.00743E-06-3.04983E-19 3.76111E-19
 -1       768 9.26429E-05-2.56036E-05-2.87322E-05-5.76091E-06-4.53559E-19 3.22577E-19
 -1       769 9.29507E-05-2.56790E-05-2.88315E-05-4.68883E-06-3.98981E-19 9.11770E-19
 -1       770 9.33229E-05-2.59354E-05-2.88809E-05-3.77305E-06 2.96148E-19 6.83740E-19
 -1       771 9.36954E-05-2.62767E-05-2.88942E-05-2.99767E-06 2.86825E-19 1.10199E-18
 -1       772 9.40347E-05-2.66415E-05-2.88832E-05-2.34859E-06-2.17218E-19-3.52824E-19
 -1       773 9.43262E-05-2.69931E-05-2.88573E-05-1.81243E-06 6.12364E-20-5.71204E-19
 -1       774 9.45664E-05-2.73115E-05-2.88238E-05-1.37596E-06 9.03498E-20-1.42294E-18
 -1       775 9.47579E-05-2.75876E-05-2.87875E-05-1.02606E-06 4.00736E-19-1.50845E-18
 -1       776 9.49063E-05-2.78192E-05-2.87518E-05-7.50010E-07 1.11249E-19-1.05738E-18
 -1       777 9.50183E-05-2.80084E-05-2.87186E-05-5.35774E-07 1.10454E-18-1.54231E-18
 -1       778 9.51006E-05-2.81594E-05-2.86892E-05-3.72353E-07 1.18137E-18-2.45411E-18
 -1       779 9.51595E-05-2.82774E-05-2.86638E-05-2.49958E-07 4.17364E-19-2.81258E-18
 -1       780 9.52002E-05-2.83676E-05-2.86426E-05-1.60110E-07-6.62101E-19-2.12277E-18
 -1       781 9.52272E-05-2.84352E-05-2.86252E-05-9.56290E-08-1.25090E-18-1.91835E-18
 -1       782 9.52442E-05-2.84848E-05-2.86112E-05-5.05702E-08-3.39968E-19-3.00531E-18
 -1       783 9.52540E-05-2.85202E-05-2.86002E-05-2.01056E-08 8.99009E-20-2.53388E-18
 -1       784 9.52588E-05-2.85449E-05-2.85917E-05-3.88526E-10 9.67678E-19-1.38757E-18
 -1       785 9.52603E-05-2.85614E-05-2.85853E-05 1.15904E-08 1.97591E-19-1.08230E-18
 -1       786 9.52597E-05-2.85719E-05-2.85805E-05 1.81427E-08 2.75181E-20-4.72616E-19
 -1       787 9.52578E-05-2.85782E-05-2.85770E-05 2.10102E-08 1.83567E-18 2.32121E-19
 -1       788 9.52553E-05-2.85815E-05-2.85745E-05 2.14786E-08 2.03717E-18 1.54998E-20
 -1       789 9.52525E-05-2.85828E-05-2.85727E-05 2.04746E-08 2.33038E-18-1.48537E-18
 -1       790 9.52498E-05-2.85828E-05-2.85716E-05 1.86472E-08 2.12406E-18-1.65403E-18
 -1       791 9.52473E-05-2.85821E-05-2.85708E-05 1.64332E-08 1.78973E-18-6.51976E-19
 -1       792 9.52450E-05-2.85811E-05-2.85703E-05 1.41155E-08 1.47764E-19 2.36053E-18
 -1       793 9.52432E-05-2.85800E-05-2.85699E-05 1.18578E-08 8.62290E-19 3.64651E-18
 -1       794 1.12054E-04-4.43744E-05-2.89718E-05 1.09395E-05-1.67546E-18-2.69320E-18
 -1       795 1.04469E-04-3.75748E-05-2.86705E-05 1.24969E-05-1.48596E-18-1.70547E-18
 -1       796 9.96396E-05-3.25236E-05-2.87658E-05 1.21925E-05-1.02166E-18-1.11613E-18
 -1       797 9.69105E-05-2.92939E-05-2.89793E-05 1.11128E-05-1.41322E-19-8.44702E-19
 -1       798 9.55322E-05-2.74797E-05-2.91654E-05 9.75982E-06-4.28842E-20-9.65593E-19
 -1       799 9.49358E-05-2.66202E-05-2.92778E-05 8.36314E-06-3.27278E-19-1.30308E-18
 -1       800 9.47502E-05-2.63444E-05-2.93164E-05 7.02659E-06-8.49041E-20-1.15354E-18
 -1       801 9.47574E-05-2.63947E-05-2.92979E-05 5.79957E-06-1.30067E-19-1.13627E-18
 -1       802 9.48394E-05-2.66074E-05-2.92419E-05 4.70637E-06-4.61985E-19-6.55226E-20
 -1       803 9.49379E-05-2.68846E-05-2.91653E-05 3.75665E-06 1.09870E-18 7.22155E-19
 -1       804 9.50272E-05-2.71712E-05-2.90809E-05 2.94984E-06 4.42239E-19 9.04332E-19
 -1       805 9.50988E-05-2.74387E-05-2.89970E-05 2.27828E-06-1.19702E-18 2.08860E-19
 -1       806 9.51521E-05-2.76742E-05-2.89189E-05 1.72976E-06-8.43317E-19-1.78074E-19
 -1       807 9.51897E-05-2.78739E-05-2.88495E-05 1.28966E-06-4.94223E-19-4.70938E-19
 -1       808 9.52151E-05-2.80387E-05-2.87898E-05 9.42584E-07-1.54756E-19-8.86780E-19
 -1       809 9.52313E-05-2.81717E-05-2.87398E-05 6.73485E-07 3.32290E-19-1.07876E-18
 -1       810 9.52411E-05-2.82771E-05-2.86988E-05 4.68426E-07-1.22548E-19-5.27933E-19
 -1       811 9.52465E-05-2.83591E-05-2.86660E-05 3.14976E-07 1.37637E-19-9.14641E-19
 -1       812 9.52490E-05-2.84219E-05-2.86402E-05 2.02385E-07 1.44642E-18 6.11599E-19
 -1       813 9.52496E-05-2.84692E-05-2.86202E-05 1.21582E-07 5.73594E-19 1.07088E-18
 -1       814 9.52492E-05-2.85041E-05-2.86050E-05 6.50824E-08-1.16892E-18 1.55986E-18
 -1       815 9.52481E-05-2.85294E-05-2.85937E-05 2.68295E-08 3.01349E-20-3.84339E-20
 -1       816 9.52467E-05-2.85473E-05-2.85855E-05 2.00849E-09-5.34682E-19-1.41464E-18
 -1       817 9.52453E-05-2.85596E-05-2.85796E-05-1.31398E-08 3.95306E-19-8.01520E-20
 -1       818 9.52439E-05-2.85677E-05-2.85755E-05-2.14993E-08 2.89285E-19 1.15350E-19
 -1       819 9.52426E-05-2.85728E-05-2.85728E-05-2.52422E-08-4.32434E-19 1.30182E-18
 -1       820 9.52414E-05-2.85757E-05-2.85710E-05-2.59719E-08-1.01514E-18 2.75692E-18
 -1       821 9.52405E-05-2.85772E-05-2.85700E-05-2.48455E-08-1.19485E-18 7.75310E-19
 -1       822 9.52397E-05-2.85777E-05-2.85694E-05-2.26742E-08-9.95684E-19-1.00897E-18
 -1       823 9.52390E-05-2.85776E-05-2.85692E-05-2.00068E-08-5.17405E-19-2.10300E-18
 -1       824 9.52386E-05-2.85772E-05-2.85692E-05-1.71943E-08-1.07796E-19 5.45485E-20
 -1       825 9.52382E-05-2.85767E-05-2.85692E-05-1.44522E-08 1.03775E-18 6.58106E-19
 -1       826 9.52468E-05-2.85830E-05-2.85702E-05 3.65268E-09 2.51471E-18-2.51867E-18
 -1       827 9.52473E-05-2.85834E-05-2.85702E-05 5.52231E-12 1.73956E-18-1.83875E-18
 -1       828 1.26636E-04-4.87484E-05-3.33829E-05 3.25531E-06 4.00025E-20 1.43722E-18
 -1       829 1.28271E-04-4.56081E-05-3.54934E-05-6.80664E-06-9.31541E-19 7.18893E-19
 -1       830 9.52453E-05-2.85819E-05-2.85700E-05 6.90432E-09 2.01595E-18 4.29247E-19
 -1       831 1.27235E-04-5.19419E-05-3.22718E-05 1.04275E-06-7.49664E-19-4.30329E-18
 -1       832 1.16001E-04-3.99885E-05-3.25946E-05-4.57229E-06-4.45093E-19-1.12298E-18
 -1       833 6.65042E-05-2.45052E-05-1.77179E-05-2.79512E-05 3.21479E-18 2.57307E-18
 -1       834 1.12993E-04-5.14774E-05-2.62992E-05-2.20473E-05 3.70076E-18-7.50662E-19
 -1       835 1.23277E-04-4.26501E-05-3.46216E-05-9.84728E-06-1.19040E-18 4.96169E-19
 -1       836 4.74185E-05-5.70554E-06-1.73661E-05 2.07500E-05 2.58369E-18-7.35240E-18
 -1       837 4.82159E-05-7.74570E-06-1.69662E-05-2.00200E-05-7.86629E-19-7.79956E-18
 -1       838 1.12370E-04-4.47793E-05-2.88955E-05-1.22317E-05-1.35439E-18-9.82212E-19
 -1       839 4.39703E-05-1.13290E-05-1.35934E-05 6.96604E-06-4.62569E-19 3.38625E-18
 -1       840 9.85410E-05-4.34060E-05-2.35209E-05 2.69853E-05-2.89931E-18-3.94353E-19
 -1       841 1.20265E-04-4.65716E-05-3.15861E-05 4.18308E-06 8.10749E-19-4.25093E-19
 -1       842 4.89214E-05-1.29525E-05-1.50664E-05-1.34291E-05 1.51706E-18 2.20109E-18
 -1       843 1.19929E-04-4.46709E-05-3.22459E-05 7.34236E-07 1.40409E-19 6.87758E-19
 -1       844 8.92457E-05-3.95629E-05-2.11106E-05-3.16406E-05 4.46909E-18 8.98927E-19
 -1       845 8.49873E-05-3.31651E-05-2.20475E-05 2.62666E-05-2.24063E-18 2.92478E-19
 -1       846 1.09192E-04-4.05233E-05-2.93811E-05 1.01596E-05 1.39939E-18-1.48804E-18
 -1       847 9.52398E-05-2.85776E-05-2.85695E-05 1.11059E-08 5.02396E-19 3.95131E-18
 -1       848 9.52391E-05-2.85771E-05-2.85694E-05-1.23221E-08-3.96683E-19 2.51010E-18
 -1       849 9.52407E-05-2.85783E-05-2.85696E-05-1.04545E-08 3.57777E-19 1.67455E-18
 -1       850 9.52435E-05-2.85805E-05-2.85698E-05-8.69909E-09 1.87672E-19-1.04237E-18
 -1       851 9.52468E-05-2.85830E-05-2.85702E-05-3.64304E-09-4.32334E-19-2.95132E-18
 -1       852 5.73667E-05-1.66468E-05-1.72089E-05 1.77096E-05-1.44867E-18 2.39934E-18
 -1       853 9.52430E-05-2.85800E-05-2.85698E-05 9.40179E-09 9.02902E-19 4.62157E-18
 -1       854 9.52454E-05-2.85820E-05-2.85700E-05-6.46568E-09 4.12234E-19-6.85280E-19
 -1       855 1.27284E-04-4.29367E-05-3.60980E-05 9.32804E-06-1.10960E-18-5.66210E-18
 -1       856 6.41707E-05-1.79898E-05-1.96409E-05-1.68832E-05 1.64362E-18 1.35681E-18
 -1       857 1.00750E-04-4.18210E-05-2.51871E-05-2.19866E-05 3.20176E-18 5.40055E-19
 -1       858 9.38456E-05-3.41666E-05-2.55588E-05-1.83661E-05 1.66553E-18 8.83057E-19
 -1       859 9.05265E-05-2.93123E-05-2.62239E-05-1.46583E-05 1.04941E-18 7.69309E-19
 -1       860 8.92550E-05-2.64276E-05-2.69219E-05-1.15112E-05 7.32016E-19-1.16153E-19
 -1       861 8.91142E-05-2.49232E-05-2.75082E-05-9.06986E-06 3.73062E-19-9.91252E-19
 -1       862 8.95294E-05-2.42791E-05-2.79632E-05-7.18718E-06 1.32518E-19-3.27705E-19
 -1       863 9.02094E-05-2.41850E-05-2.82954E-05-5.72060E-06 2.33475E-20 6.13338E-19
 -1       864 9.09776E-05-2.44201E-05-2.85243E-05-4.55837E-06-5.67024E-19 8.32051E-19
 -1       865 9.17365E-05-2.48358E-05-2.86716E-05-3.62191E-06-2.70737E-19 5.99189E-19
 -1       866 9.24337E-05-2.53326E-05-2.87576E-05-2.85977E-06 2.05309E-19 5.47420E-19
 -1       867 9.30441E-05-2.58454E-05-2.87995E-05-2.23757E-06-6.99292E-19-1.83374E-19
 -1       868 9.35599E-05-2.63338E-05-2.88112E-05-1.73097E-06-4.90802E-19 9.08892E-20
 -1       869 9.39833E-05-2.67752E-05-2.88035E-05-1.32138E-06-3.10617E-19-1.89739E-20
 -1       870 9.43221E-05-2.71590E-05-2.87842E-05-9.93518E-07 9.60605E-21 8.04493E-19
 -1       871 9.45872E-05-2.74827E-05-2.87591E-05-7.34237E-07 1.05215E-19-4.87516E-22
 -1       872 9.47901E-05-2.77489E-05-2.87320E-05-5.31961E-07-2.40788E-19-4.74281E-19
 -1       873 9.49419E-05-2.79630E-05-2.87053E-05-3.76491E-07 8.41700E-19-9.07565E-19
 -1       874 9.50529E-05-2.81315E-05-2.86806E-05-2.58915E-07 1.00696E-18-1.04624E-18
 -1       875 9.51319E-05-2.82617E-05-2.86587E-05-1.71568E-07-1.61690E-19-2.01134E-18
 -1       876 9.51865E-05-2.83602E-05-2.86399E-05-1.07959E-07-5.19180E-19-1.23743E-18
 -1       877 9.52227E-05-2.84332E-05-2.86241E-05-6.26955E-08-1.45924E-18-1.41373E-18
 -1       878 9.52455E-05-2.84861E-05-2.86112E-05-3.13673E-08 1.31257E-18-1.76770E-18
 -1       879 9.52587E-05-2.85235E-05-2.86008E-05-1.04337E-08 1.10585E-18-4.26294E-19
 -1       880 9.52653E-05-2.85490E-05-2.85927E-05 2.90169E-09 5.43054E-19-1.01637E-18
 -1       881 9.52674E-05-2.85658E-05-2.85864E-05 1.08097E-08 3.58325E-19-1.95735E-18
 -1       882 9.52666E-05-2.85762E-05-2.85816E-05 1.49457E-08 6.09998E-19-1.39211E-18
 -1       883 9.52642E-05-2.85821E-05-2.85780E-05 1.65486E-08 1.96529E-18-1.21995E-18
 -1       884 9.52609E-05-2.85849E-05-2.85754E-05 1.65262E-08 5.05235E-19-9.08080E-20
 -1       885 9.52573E-05-2.85857E-05-2.85735E-05 1.55282E-08 1.61980E-18-2.13960E-19
 -1       886 9.52537E-05-2.85852E-05-2.85722E-05 1.40054E-08 1.30872E-18-1.56425E-18
 -1       887 9.52503E-05-2.85841E-05-2.85712E-05 1.22587E-08 2.44057E-18-1.56666E-18
 -1       888 9.52473E-05-2.85827E-05-2.85706E-05 1.04780E-08 2.13271E-18 5.50393E-19
 -1       889 9.52500E-05-2.85847E-05-2.85708E-05 2.19620E-09 1.20216E-18-2.03509E-18
 -1       890 9.41419E-05-3.15517E-05-2.68166E-05 1.59850E-05-1.56224E-18-9.63633E-19
 -1       891 9.94494E-05-3.80212E-05-2.62713E-05 1.88142E-05-2.30554E-18-1.25476E-18
 -1       892 9.10320E-05-2.56598E-05-2.80169E-05 1.08902E-05-4.38815E-19 1.65531E-19
 -1       893 9.11248E-05-2.47867E-05-2.84304E-05 8.98449E-06 4.02848E-20 5.80778E-19
 -1       894 9.15999E-05-2.46144E-05-2.87079E-05 7.40839E-06-3.39758E-19 1.52169E-19
 -1       895 9.22033E-05-2.48301E-05-2.88741E-05 6.08039E-06-1.64404E-19 5.06754E-19
 -1       896 9.28056E-05-2.52376E-05-2.89576E-05 4.94819E-06-4.75259E-19 6.23883E-19
 -1       897 9.33461E-05-2.57170E-05-2.89838E-05 3.98179E-06-1.45180E-19 3.31005E-21
 -1       898 9.38024E-05-2.61984E-05-2.89731E-05 3.16232E-06 7.88920E-19 6.67718E-19
 -1       899 9.41727E-05-2.66445E-05-2.89406E-05 2.47542E-06-2.20213E-19 1.20285E-18
 -1       900 9.44646E-05-2.70378E-05-2.88971E-05 1.90775E-06-8.75704E-19 2.57044E-19
 -1       901 9.46893E-05-2.73729E-05-2.88499E-05 1.44585E-06 2.29517E-19-3.65145E-19
 -1       902 9.48591E-05-2.76509E-05-2.88035E-05 1.07602E-06-1.36917E-19-1.40129E-18
 -1       903 9.49848E-05-2.78767E-05-2.87606E-05 7.84728E-07 2.28044E-19-1.09018E-18
 -1       904 9.50761E-05-2.80566E-05-2.87226E-05 5.59122E-07 3.41957E-19-2.42794E-19
 -1       905 9.51410E-05-2.81976E-05-2.86900E-05 3.87408E-07 4.91745E-20-9.73325E-19
 -1       906 9.51860E-05-2.83062E-05-2.86628E-05 2.59107E-07-5.25231E-19 4.77336E-19
 -1       907 9.52162E-05-2.83884E-05-2.86405E-05 1.65159E-07 6.86261E-19 2.05119E-18
 -1       908 9.52357E-05-2.84495E-05-2.86226E-05 9.79185E-08 1.64664E-19 2.25245E-18
 -1       909 9.52474E-05-2.84941E-05-2.86086E-05 5.10741E-08 4.83557E-20 6.67290E-19
 -1       910 9.52538E-05-2.85258E-05-2.85977E-05 1.95172E-08 8.86074E-19 1.86134E-18
 -1       911 9.52565E-05-2.85478E-05-2.85895E-05-8.10689E-10-4.43776E-19 3.36909E-19
 -1       912 9.52569E-05-2.85625E-05-2.85833E-05-1.30757E-08-4.14254E-19 1.07483E-18
 -1       913 9.52558E-05-2.85718E-05-2.85789E-05-1.97034E-08-1.37147E-19 2.54392E-18
 -1       914 9.52540E-05-2.85774E-05-2.85757E-05-2.25167E-08-6.96522E-19 1.05982E-18
 -1       915 9.52517E-05-2.85803E-05-2.85734E-05-2.28579E-08 9.66787E-19 2.79959E-19
 -1       916 9.52494E-05-2.85815E-05-2.85719E-05-2.16916E-08 1.52123E-19 1.37411E-19
 -1       917 9.52471E-05-2.85815E-05-2.85710E-05-1.96898E-08-1.00243E-18-1.65372E-19
 -1       918 9.52451E-05-2.85809E-05-2.85704E-05-1.73125E-08-6.57875E-19 4.72624E-19
 -1       919 9.52433E-05-2.85800E-05-2.85700E-05-1.48517E-08-6.50266E-19 4.14899E-19
 -1       920 9.52487E-05-2.85838E-05-2.85707E-05 6.28245E-09 3.02083E-18-1.93961E-18
 -1       921 9.17818E-05-2.77024E-05-2.74623E-05 1.32194E-05-6.20222E-19-8.88478E-19
 -1       922 5.54016E-05-1.22790E-05-1.82769E-05-3.83233E-07 1.54671E-19 1.70456E-18
 -1       923 8.10462E-05-2.99521E-05-2.17864E-05-2.51358E-05 2.79108E-18 9.01667E-19
 -1       924 9.52432E-05-2.85800E-05-2.85699E-05-1.25356E-08-7.88674E-20 1.57709E-18
 -1       925 9.52500E-05-2.85847E-05-2.85708E-05-2.14258E-09 1.66935E-18-1.07876E-18
 -1       926 7.32683E-05-2.39258E-05-2.10223E-05 2.16443E-05-2.31009E-18 1.37641E-18
 -1       927 9.52465E-05-2.85823E-05-2.85704E-05-9.16482E-09 2.19677E-18 1.44735E-18
 -1       928 8.22984E-05-2.57137E-05-2.42272E-05-1.69679E-05 9.85424E-19 8.44235E-19
 -1       929 8.31110E-05-2.35368E-05-2.55419E-05-1.23181E-05 1.20967E-19 5.93128E-19
 -1       930 8.44515E-05-2.25755E-05-2.65215E-05-9.03035E-06-1.56185E-19-2.88582E-19
 -1       931 8.59719E-05-2.23641E-05-2.72610E-05-6.76194E-06 1.85599E-19-2.59617E-19
 -1       932 8.74489E-05-2.25920E-05-2.77957E-05-5.15463E-06 5.13496E-19-4.48620E-19
 -1       933 8.88085E-05-2.30720E-05-2.81727E-05-3.97670E-06-2.63769E-19-3.42309E-19
 -1       934 9.00222E-05-2.36876E-05-2.84291E-05-3.08631E-06-4.95349E-19 5.15308E-20
 -1       935 9.10795E-05-2.43572E-05-2.85953E-05-2.39785E-06-8.07321E-20-3.42987E-19
 -1       936 9.19801E-05-2.50236E-05-2.86956E-05-1.85728E-06-5.70931E-19-1.12597E-18
 -1       937 9.27314E-05-2.56498E-05-2.87492E-05-1.42929E-06-1.50518E-19-9.61449E-19
 -1       938 9.33457E-05-2.62138E-05-2.87708E-05-1.08974E-06 3.06080E-19 6.91890E-19
 -1       939 9.38384E-05-2.67052E-05-2.87714E-05-8.21146E-07 5.97972E-19 1.31860E-18
 -1       940 9.42262E-05-2.71217E-05-2.87591E-05-6.10063E-07-5.65302E-19 1.28725E-18
 -1       941 9.45257E-05-2.74663E-05-2.87397E-05-4.45721E-07-1.27724E-18 8.93978E-19
 -1       942 9.47525E-05-2.77454E-05-2.87173E-05-3.19230E-07 4.14220E-19 9.64245E-19
 -1       943 9.49208E-05-2.79670E-05-2.86944E-05-2.23163E-07 1.21344E-19-4.75344E-19
 -1       944 9.50428E-05-2.81397E-05-2.86728E-05-1.51301E-07-3.71230E-19-2.15419E-18
 -1       945 9.51290E-05-2.82716E-05-2.86532E-05-9.84688E-08-7.32033E-20-2.05408E-18
 -1       946 9.51880E-05-2.83704E-05-2.86361E-05-6.03974E-08-2.46268E-19-6.96675E-19
 -1       947 9.52267E-05-2.84429E-05-2.86216E-05-3.36087E-08 1.38125E-19 1.61148E-18
 -1       948 9.52508E-05-2.84948E-05-2.86097E-05-1.53063E-08 6.54271E-19 5.22041E-19
 -1       949 9.52643E-05-2.85310E-05-2.86000E-05-3.27360E-09 1.46896E-18-4.06523E-19
 -1       950 9.52707E-05-2.85554E-05-2.85923E-05 4.22031E-09-3.89193E-20 1.98915E-19
 -1       951 9.52724E-05-2.85710E-05-2.85863E-05 8.50587E-09 3.63050E-19-4.45633E-19
 -1       952 9.52710E-05-2.85804E-05-2.85817E-05 1.05885E-08 2.48945E-18 4.67220E-19
 -1       953 9.52679E-05-2.85854E-05-2.85782E-05 1.12140E-08 1.67734E-18 7.94726E-19
 -1       954 9.52639E-05-2.85874E-05-2.85756E-05 1.09238E-08 9.53887E-19 1.24309E-18
 -1       955 9.52596E-05-2.85876E-05-2.85737E-05 1.01012E-08-3.21555E-19-1.14021E-18
 -1       956 9.52555E-05-2.85866E-05-2.85723E-05 9.01589E-09 8.65731E-19-1.08287E-18
 -1       957 9.52519E-05-2.85853E-05-2.85714E-05 7.63002E-09 2.86842E-18-7.85822E-19
 -1       958 8.93246E-05-2.31464E-05-2.83621E-05 5.69540E-06-1.23297E-19 9.14111E-19
 -1       959 8.79853E-05-2.26832E-05-2.79865E-05 7.02767E-06-1.88134E-20 7.32571E-19
 -1       960 8.65603E-05-2.25584E-05-2.74291E-05 8.77335E-06-5.02885E-19 1.53511E-19
 -1       961 9.05177E-05-2.37787E-05-2.86024E-05 4.62739E-06-4.64271E-19 9.40588E-19
 -1       962 9.15392E-05-2.44674E-05-2.87451E-05 3.74429E-06-1.73852E-19 1.36575E-18
 -1       963 9.23890E-05-2.51436E-05-2.88195E-05 3.00314E-06 1.53258E-19 1.84819E-18
 -1       964 9.30805E-05-2.57684E-05-2.88480E-05 2.38013E-06 2.00623E-20 1.92693E-18
 -1       965 9.36322E-05-2.63221E-05-2.88472E-05 1.86008E-06 3.95885E-19 1.05303E-18
 -1       966 9.40651E-05-2.67977E-05-2.88289E-05 1.43114E-06 7.04779E-20-2.94412E-19
 -1       967 9.43991E-05-2.71963E-05-2.88012E-05 1.08246E-06 1.45527E-19 1.95324E-19
 -1       968 9.46527E-05-2.75232E-05-2.87698E-05 8.03480E-07 1.69126E-19-2.29338E-19
 -1       969 9.48420E-05-2.77865E-05-2.87381E-05 5.83957E-07 2.52324E-20-7.04595E-19
 -1       970 9.49808E-05-2.79948E-05-2.87083E-05 4.14169E-07-4.50792E-19 1.36890E-18
 -1       971 9.50805E-05-2.81569E-05-2.86815E-05 2.85191E-07-9.07477E-19 2.42023E-18
 -1       972 9.51503E-05-2.82808E-05-2.86584E-05 1.89075E-07-8.22771E-19 2.62053E-18
 -1       973 9.51979E-05-2.83740E-05-2.86388E-05 1.18941E-07 1.43064E-19 3.45350E-18
 -1       974 9.52289E-05-2.84426E-05-2.86227E-05 6.89738E-08 1.40816E-18 2.95052E-18
 -1       975 9.52481E-05-2.84921E-05-2.86097E-05 3.43744E-08 4.88807E-20 2.11544E-18
 -1       976 9.52589E-05-2.85270E-05-2.85994E-05 1.12589E-08 3.51933E-19 2.38261E-18
 -1       977 9.52640E-05-2.85508E-05-2.85914E-05-3.45335E-09-7.75041E-19 3.90436E-18
 -1       978 9.52653E-05-2.85664E-05-2.85852E-05-1.21611E-08-1.04368E-18 2.36283E-18
 -1       979 9.52642E-05-2.85760E-05-2.85806E-05-1.66966E-08 8.83699E-19 1.47951E-18
 -1       980 9.52617E-05-2.85815E-05-2.85772E-05-1.84324E-08 1.44514E-18 1.13987E-18
 -1       981 9.52586E-05-2.85841E-05-2.85748E-05-1.83742E-08-4.86368E-19 2.68048E-19
 -1       982 9.52552E-05-2.85848E-05-2.85730E-05-1.72433E-08-2.17460E-19 1.00980E-18
 -1       983 9.52519E-05-2.85844E-05-2.85718E-05-1.55187E-08-1.37291E-18 1.12682E-18
 -1       984 9.52489E-05-2.85832E-05-2.85710E-05-1.35740E-08-8.83056E-19 1.79631E-18
 -1       985 9.52536E-05-2.85864E-05-2.85717E-05 2.87736E-09 2.44392E-18-1.26606E-18
 -1       986 9.52478E-05-2.85829E-05-2.85707E-05-1.13032E-08-6.84571E-20 1.63238E-18
 -1       987 9.52487E-05-2.85838E-05-2.85706E-05-6.16095E-09 7.88878E-19-4.27376E-18
 -1       988 8.62731E-05-2.91702E-05-2.44344E-05 1.96398E-05-2.13573E-18-1.14623E-19
 -1       989 6.57761E-05-1.53357E-05-2.15786E-05-6.17429E-06 4.17687E-19 6.93545E-19
 -1       990 6.31529E-05-1.52748E-05-2.04503E-05 9.75543E-06-4.31237E-19 1.18081E-18
 -1       991 8.52277E-05-2.30780E-05-2.66372E-05 1.11734E-05-1.05961E-18-2.20504E-19
 -1       992 7.37839E-05-2.03814E-05-2.28382E-05-1.43058E-05 1.10008E-18 8.58888E-19
 -1       993 9.52537E-05-2.85864E-05-2.85717E-05-2.16854E-09 2.14178E-18-2.24852E-18
 -1       994 9.52507E-05-2.85847E-05-2.85711E-05-8.03628E-09 1.66182E-18-3.71057E-18
 -1       995 6.79400E-05-1.51530E-05-2.26012E-05 1.87940E-06 5.61535E-19 6.55627E-19
 -1       996 8.43044E-05-2.46821E-05-2.55501E-05 1.46342E-05-8.29155E-19-3.38542E-19
 -1       997 7.37565E-05-1.77482E-05-2.39779E-05-7.26982E-06 3.62193E-19 5.25789E-19
 -1       998 7.50855E-05-2.06141E-05-2.33050E-05 1.43978E-05-8.60987E-19 6.88858E-19
 -1       999 9.52527E-05-2.85855E-05-2.85717E-05-1.01415E-08-8.05898E-19 7.74984E-19
 -1      1000 7.90463E-05-1.97262E-05-2.54112E-05-7.25116E-06-4.05104E-19 1.15778E-18
 -1      1001 8.20663E-05-2.02212E-05-2.65075E-05-5.16630E-06-5.44334E-19 1.55785E-18
 -1      1002 8.45708E-05-2.09351E-05-2.72722E-05-3.73915E-06-1.55146E-19 4.12241E-19
 -1      1003 8.66272E-05-2.17364E-05-2.78104E-05-2.75225E-06-2.58974E-19-6.71476E-19
 -1      1004 8.83404E-05-2.25839E-05-2.81814E-05-2.04634E-06-2.36323E-20-6.77422E-19
 -1      1005 8.97698E-05-2.34340E-05-2.84296E-05-1.53264E-06-1.15059E-18-1.03049E-18
 -1      1006 9.09570E-05-2.42500E-05-2.85887E-05-1.15170E-06-9.57902E-19-2.19282E-18
 -1      1007 9.19342E-05-2.50048E-05-2.86840E-05-8.65175E-07 2.47376E-19-1.44558E-18
 -1      1008 9.27287E-05-2.56812E-05-2.87347E-05-6.47640E-07 6.30285E-19-3.79441E-19
 -1      1009 9.33658E-05-2.62706E-05-2.87550E-05-4.81670E-07 9.88103E-19-9.28709E-19
 -1      1010 9.38687E-05-2.67719E-05-2.87558E-05-3.54918E-07-1.40841E-19-4.07159E-19
 -1      1011 9.42594E-05-2.71889E-05-2.87445E-05-2.58348E-07-1.01036E-18-9.20480E-19
 -1      1012 9.45576E-05-2.75288E-05-2.87266E-05-1.85165E-07-1.53655E-18-7.35332E-19
 -1      1013 9.47811E-05-2.78005E-05-2.87059E-05-1.30145E-07-6.10055E-19-1.88966E-18
 -1      1014 9.49452E-05-2.80138E-05-2.86849E-05-8.92108E-08-5.83846E-19-9.49531E-19
 -1      1015 9.50629E-05-2.81783E-05-2.86649E-05-5.91512E-08-5.94832E-19-9.47021E-19
 -1      1016 9.51452E-05-2.83026E-05-2.86468E-05-3.74270E-08 6.20479E-19-8.56903E-19
 -1      1017 9.52006E-05-2.83948E-05-2.86311E-05-2.20315E-08 8.36074E-19 7.61429E-19
 -1      1018 9.52364E-05-2.84617E-05-2.86177E-05-1.13856E-08-1.73951E-19-6.09966E-20
 -1      1019 9.52580E-05-2.85090E-05-2.86067E-05-4.25420E-09 4.92235E-19-1.43005E-19
 -1      1020 9.52697E-05-2.85415E-05-2.85978E-05 3.19275E-10 7.34096E-19-1.74557E-18
 -1      1021 9.52745E-05-2.85629E-05-2.85907E-05 3.06815E-09 2.05488E-19-1.63763E-18
 -1      1022 9.52749E-05-2.85763E-05-2.85851E-05 4.54716E-09 1.29984E-18-2.15713E-18
 -1      1023 9.52726E-05-2.85840E-05-2.85809E-05 5.16968E-09 3.05598E-18-1.70830E-18
 -1      1024 9.52688E-05-2.85877E-05-2.85776E-05 5.23836E-09 1.26133E-18-5.02146E-19
 -1      1025 9.52644E-05-2.85889E-05-2.85752E-05 4.96613E-09 2.34412E-19-8.82002E-19
 -1      1026 9.52598E-05-2.85884E-05-2.85735E-05 4.52060E-09 7.00539E-19-1.65968E-19
 -1      1027 9.52566E-05-2.85875E-05-2.85725E-05 3.66091E-09 1.41460E-18-6.13901E-19
 -1      1028 8.63399E-05-2.14810E-05-2.77968E-05 4.47441E-06-7.01320E-19-1.89272E-19
 -1      1029 8.41172E-05-2.06746E-05-2.71899E-05 5.59788E-06-7.81526E-19-1.09618E-18
 -1      1030 9.09275E-05-2.41100E-05-2.86361E-05 2.41202E-06-4.24685E-19 1.03741E-18
 -1      1031 9.19334E-05-2.48953E-05-2.87306E-05 1.94078E-06-3.91767E-20 8.61940E-19
 -1      1032 9.27411E-05-2.55947E-05-2.87770E-05 1.54128E-06 4.35755E-19 1.22806E-18
 -1      1033 9.33816E-05-2.62012E-05-2.87916E-05 1.20549E-06 6.34940E-19 2.54119E-19
 -1      1034 9.38827E-05-2.67150E-05-2.87862E-05 9.27120E-07-2.31487E-19 6.07193E-19
 -1      1035 9.42692E-05-2.71414E-05-2.87691E-05 7.00094E-07 7.95466E-19 1.20626E-18
 -1      1036 9.45628E-05-2.74885E-05-2.87461E-05 5.18149E-07 3.67659E-19 1.44203E-18
 -1      1037 9.47821E-05-2.77663E-05-2.87210E-05 3.74940E-07-7.69779E-19 2.20751E-18
 -1      1038 9.49429E-05-2.79848E-05-2.86964E-05 2.64287E-07-1.82564E-18 2.25823E-18
 -1      1039 9.50584E-05-2.81537E-05-2.86735E-05 1.80415E-07-1.08552E-18 3.07091E-18
 -1      1040 9.51393E-05-2.82821E-05-2.86531E-05 1.18125E-07 2.70398E-19 1.74139E-18
 -1      1041 9.51943E-05-2.83779E-05-2.86356E-05 7.28874E-08 1.62475E-18 2.03931E-18
 -1      1042 9.52300E-05-2.84479E-05-2.86209E-05 4.08621E-08 2.94084E-19 1.88509E-18
 -1      1043 9.52520E-05-2.84979E-05-2.86089E-05 1.88747E-08-3.05743E-19 3.00928E-18
 -1      1044 9.52643E-05-2.85327E-05-2.85992E-05 4.35816E-09-5.34656E-19 4.13442E-18
 -1      1045 9.52698E-05-2.85561E-05-2.85916E-05-4.72038E-09 3.29863E-19 3.66050E-18
 -1      1046 9.52710E-05-2.85711E-05-2.85857E-05-9.93932E-09 8.51420E-19 1.89066E-18
 -1      1047 9.52695E-05-2.85801E-05-2.85812E-05-1.24999E-08 6.90239E-19 1.53217E-18
 -1      1048 9.52664E-05-2.85849E-05-2.85778E-05-1.32973E-08 1.60592E-18 2.87705E-18
 -1      1049 9.52625E-05-2.85868E-05-2.85753E-05-1.29849E-08-4.06288E-21 2.34461E-18
 -1      1050 9.52584E-05-2.85870E-05-2.85735E-05-1.20276E-08-6.14940E-19 2.77057E-18
 -1      1051 8.81759E-05-2.23648E-05-2.82048E-05 3.63734E-06-2.45483E-19 1.29802E-18
 -1      1052 9.52525E-05-2.85857E-05-2.85714E-05-5.24977E-09 3.32354E-18-2.17034E-18
 -1      1053 8.96884E-05-2.32564E-05-2.84709E-05 2.96853E-06-5.38052E-19 1.28267E-18
 -1      1054 8.13700E-05-1.99873E-05-2.62982E-05 7.26911E-06-3.87549E-19-1.14595E-18
 -1      1055 9.52569E-05-2.85877E-05-2.85725E-05-1.88096E-09 2.08049E-18-2.13978E-18
 -1      1056 7.83076E-05-1.98096E-05-2.50609E-05 1.00661E-05-4.35686E-19-3.78553E-19
 -1      1057 7.45985E-05-1.69544E-05-2.47023E-05 4.76768E-07 3.28850E-19 7.50618E-19
 -1      1058 9.52549E-05-2.85866E-05-2.85721E-05-7.11955E-09 1.27856E-18-2.68305E-18
 -1      1059 8.20265E-05-1.95382E-05-2.67804E-05-1.22786E-06-1.33687E-18 1.44114E-18
 -1      1060 8.47452E-05-2.06286E-05-2.74784E-05-7.57982E-07-9.07156E-19 7.35581E-19
 -1      1061 8.69203E-05-2.16802E-05-2.79600E-05-4.38982E-07-6.24090E-21 1.22233E-19
 -1      1062 8.86784E-05-2.26805E-05-2.82848E-05-2.33848E-07-6.69630E-19-6.82493E-19
 -1      1063 9.01101E-05-2.36164E-05-2.84973E-05-1.06470E-07-1.09726E-18-8.64234E-20
 -1      1064 9.12751E-05-2.44726E-05-2.86296E-05-3.13328E-08-6.53750E-19 3.55922E-20
 -1      1065 9.22169E-05-2.52370E-05-2.87056E-05 9.58400E-09 8.73731E-19-1.51830E-18
 -1      1066 9.29707E-05-2.59038E-05-2.87429E-05 2.89104E-08 1.18938E-18-8.55627E-19
 -1      1067 9.35666E-05-2.64727E-05-2.87545E-05 3.53007E-08 5.10818E-19-1.91814E-18
 -1      1068 9.40311E-05-2.69480E-05-2.87499E-05 3.45012E-08-8.60449E-19-1.65994E-18
 -1      1069 9.43875E-05-2.73376E-05-2.87357E-05 3.01788E-08-1.02908E-18-4.66522E-19
 -1      1070 9.46564E-05-2.76510E-05-2.87166E-05 2.45581E-08-1.36797E-18 3.52382E-19
 -1      1071 9.48556E-05-2.78987E-05-2.86958E-05 1.88978E-08-3.35551E-19-1.10370E-19
 -1      1072 9.50001E-05-2.80910E-05-2.86753E-05 1.38360E-08-8.79024E-19-1.82467E-18
 -1      1073 9.51023E-05-2.82377E-05-2.86563E-05 9.62989E-09 4.53285E-20-4.06621E-19
 -1      1074 9.51726E-05-2.83475E-05-2.86393E-05 6.31838E-09 1.51237E-18-9.36584E-19
 -1      1075 9.52191E-05-2.84280E-05-2.86248E-05 3.82605E-09 5.70493E-19 3.41784E-19
 -1      1076 9.52482E-05-2.84856E-05-2.86126E-05 2.02794E-09-7.30527E-19 7.18393E-19
 -1      1077 9.52651E-05-2.85258E-05-2.86025E-05 7.87073E-10-8.72977E-19-8.81453E-19
 -1      1078 9.52733E-05-2.85529E-05-2.85945E-05-2.54103E-11 4.51320E-19-2.05166E-18
 -1      1079 9.52759E-05-2.85703E-05-2.85881E-05-5.20935E-10-4.63252E-20-1.17013E-18
 -1      1080 9.52749E-05-2.85808E-05-2.85832E-05-7.90583E-10 2.85660E-18 7.53382E-20
 -1      1081 9.52717E-05-2.85865E-05-2.85794E-05-9.05658E-10 2.15765E-18-2.15882E-18
 -1      1082 9.52674E-05-2.85888E-05-2.85765E-05-9.19189E-10 6.17927E-19-3.45056E-18
 -1      1083 9.52627E-05-2.85891E-05-2.85744E-05-8.69784E-10 8.40732E-19-2.59170E-18
 -1      1084 9.52597E-05-2.85885E-05-2.85734E-05-1.44113E-09 1.35745E-18-2.61502E-18
 -1      1085 8.36325E-05-2.00965E-05-2.72301E-05 2.24058E-06-1.43040E-18-6.39169E-20
 -1      1086 8.80196E-05-2.22411E-05-2.81909E-05 1.60885E-06-4.73170E-19 9.84396E-20
 -1      1087 9.18987E-05-2.49365E-05-2.86981E-05 9.28983E-07-1.77081E-19 1.32646E-18
 -1      1088 9.08699E-05-2.41260E-05-2.86045E-05 1.13328E-06-6.98150E-19 6.15956E-19
 -1      1089 9.33727E-05-2.62571E-05-2.87638E-05 5.89453E-07 4.96476E-19 1.24362E-18
 -1      1090 9.38812E-05-2.67695E-05-2.87622E-05 4.55520E-07-2.55071E-19 2.68361E-19
 -1      1091 9.42728E-05-2.71919E-05-2.87490E-05 3.44589E-07 4.31705E-19 9.43716E-19
 -1      1092 9.45696E-05-2.75339E-05-2.87296E-05 2.54803E-07-4.73999E-19 1.48703E-18
 -1      1093 9.47908E-05-2.78059E-05-2.87078E-05 1.83724E-07-1.64865E-18 9.58719E-19
 -1      1094 9.49524E-05-2.80185E-05-2.86860E-05 1.28665E-07-1.20322E-18 6.03190E-19
 -1      1095 9.50680E-05-2.81820E-05-2.86654E-05 8.69345E-08 5.97222E-19 7.21385E-19
 -1      1096 9.51483E-05-2.83053E-05-2.86470E-05 5.60174E-08 4.96341E-19 5.95337E-19
 -1      1097 9.52024E-05-2.83966E-05-2.86311E-05 3.36689E-08 1.67953E-18 1.76896E-18
 -1      1098 9.52372E-05-2.84628E-05-2.86176E-05 1.79614E-08 2.78553E-19-1.87886E-19
 -1      1099 9.52581E-05-2.85096E-05-2.86065E-05 7.28966E-09-8.88948E-19 3.54123E-19
 -1      1100 9.52693E-05-2.85417E-05-2.85976E-05 3.51249E-10-1.27522E-18 1.88742E-18
 -1      1101 9.52739E-05-2.85629E-05-2.85905E-05-3.88567E-09 1.34651E-18 2.41860E-18
 -1      1102 9.52743E-05-2.85761E-05-2.85849E-05-6.22076E-09 1.83166E-18 2.58544E-18
 -1      1103 9.52720E-05-2.85837E-05-2.85807E-05-7.26038E-09 1.48821E-18 7.00494E-19
 -1      1104 9.52682E-05-2.85874E-05-2.85775E-05-7.45451E-09 6.32884E-19 5.37392E-19
 -1      1105 9.52638E-05-2.85885E-05-2.85751E-05-7.13178E-09 3.34628E-19 6.18682E-19
 -1      1106 8.95944E-05-2.32232E-05-2.84449E-05 1.35925E-06-1.20463E-19 9.49786E-20
 -1      1107 9.27216E-05-2.56473E-05-2.87461E-05 7.47334E-07 1.94838E-18 1.76735E-18
 -1      1108 7.83087E-05-1.84611E-05-2.56521E-05-3.33341E-06 8.92094E-20 1.61550E-18
 -1      1109 8.60709E-05-2.11953E-05-2.78041E-05 1.89265E-06-1.18888E-18 5.61686E-20
 -1      1110 8.04981E-05-1.89279E-05-2.63908E-05 2.72213E-06-5.28378E-19-4.20903E-19
 -1      1111 9.52561E-05-2.85873E-05-2.85724E-05-4.62092E-09 1.22447E-18-3.14821E-18
 -1      1112 9.52583E-05-2.85879E-05-2.85730E-05-6.36401E-09 7.01268E-19-2.49753E-18
 -1      1113 1.37801E-04 3.15415E-10-4.95758E-05-4.50194E-05-4.91703E-19 1.49620E-17
 -1      1114 1.04145E-04 9.76887E-11-4.34734E-05-2.25603E-05-2.56016E-19 1.89545E-18
 -1      1115 9.51435E-05 6.31029E-11-4.02253E-05-1.33683E-05-1.63477E-19-3.47397E-18
 -1      1116 8.85117E-05 5.28131E-11-3.74671E-05-6.75349E-06-1.01432E-19-5.88963E-18
 -1      1117 8.19673E-05 4.38650E-11-3.47399E-05-1.19458E-06-5.97158E-20-7.07771E-18
 -1      1118 7.50515E-05 3.07811E-11-3.19463E-05 3.02934E-06-2.85874E-20-7.69205E-18
 -1      1119 6.81301E-05 1.23842E-11-2.92338E-05 5.31324E-06-4.87044E-21-8.08101E-18
 -1      1120 6.22585E-05-7.21621E-12-2.69915E-05 5.23935E-06 4.55280E-21-8.32671E-18
 -1      1121 5.89290E-05-2.04953E-11-2.57497E-05 3.08541E-06 1.64642E-20-8.39108E-18
 -1      1122 5.91857E-05-2.11609E-11-2.58734E-05 4.15484E-08 3.12873E-20-8.25674E-18
 -1      1123 6.31270E-05-8.75470E-12-2.74004E-05-2.27035E-06 4.34104E-20-7.84121E-18
 -1      1124 6.98202E-05 1.07737E-11-3.00044E-05-2.57623E-06 6.79744E-20-7.10041E-18
 -1      1125 7.80000E-05 3.08423E-11-3.32499E-05-4.34989E-07 9.06325E-20-5.95225E-18
 -1      1126 8.67612E-05 4.79000E-11-3.68030E-05 3.98038E-06 1.25784E-19-4.09765E-18
 -1      1127 9.58765E-05 6.54279E-11-4.05204E-05 1.04210E-05 1.82536E-19-8.07527E-19
 -1      1128 1.06714E-04 1.00427E-10-4.46440E-05 1.98772E-05 2.24675E-19 5.31606E-18
 -1      1129 1.30851E-04 2.20593E-10-4.98460E-05 3.74895E-05 4.92126E-19 1.78099E-17
 -1      1130 1.55506E-04-3.15413E-05-4.83236E-05-2.86150E-05-2.01911E-18 2.32095E-17
 -1      1131 1.22574E-04-3.63509E-05-3.92431E-05-3.14898E-07-6.63915E-19 1.86835E-17
 -1      1132 1.15556E-04-3.45850E-05-3.53128E-05 4.37588E-07-2.63043E-19 1.23584E-17
 -1      1133 1.11393E-04-3.34514E-05-3.33126E-05 7.63214E-08-1.86713E-19 8.20898E-18
 -1      1134 1.06039E-04-3.18322E-05-3.16030E-05-2.09000E-07-1.69139E-19 4.88947E-18
 -1      1135 9.91551E-05-2.97711E-05-2.96613E-05-3.98424E-07-3.22351E-20 3.74569E-18
 -1      1136 9.18137E-05-2.76079E-05-2.76794E-05-4.33873E-07 2.22743E-20 2.62898E-18
 -1      1137 8.60693E-05-2.59345E-05-2.61685E-05-2.71976E-07 2.00641E-20 1.68239E-18
 -1      1138 8.39734E-05-2.53253E-05-2.56270E-05 3.60710E-08-1.39959E-20-3.33102E-19
 -1      1139 8.63595E-05-2.60096E-05-2.62516E-05 3.46036E-07-1.27055E-21-2.22918E-18
 -1      1140 9.22835E-05-2.77223E-05-2.78166E-05 5.17117E-07-8.03308E-20-4.74545E-18
 -1      1141 9.95870E-05-2.98508E-05-2.97926E-05 5.04995E-07 5.12852E-20-5.38263E-18
 -1      1142 1.06078E-04-3.17616E-05-3.16106E-05 3.66351E-07-1.14250E-20-5.31556E-18
 -1      1143 1.10426E-04-3.30572E-05-3.28892E-05 1.92307E-07 1.98523E-22-5.39428E-18
 -1      1144 1.12335E-04-3.36397E-05-3.35058E-05 4.83687E-08-3.80933E-20-5.11857E-18
 -1      1145 1.12218E-04-3.36224E-05-3.35394E-05-4.18766E-08-1.31874E-19-5.38231E-18
 -1      1146 1.10756E-04-3.32021E-05-3.31641E-05-8.37151E-08-1.38798E-19-6.62670E-18
 -1      1147 1.08595E-04-3.25693E-05-3.25618E-05-9.28992E-08 4.06869E-20-6.13636E-18
 -1      1148 1.06221E-04-3.18681E-05-3.18774E-05-8.44629E-08-7.45372E-21-6.85656E-18
 -1      1149 1.03940E-04-3.11907E-05-3.12069E-05-6.88916E-08-3.22365E-20-6.90217E-18
 -1      1150 1.01915E-04-3.05867E-05-3.06041E-05-5.22094E-08-1.47170E-19-7.50167E-18
 -1      1151 1.00210E-04-3.00766E-05-3.00922E-05-3.72966E-08-6.09343E-20-6.03625E-18
 -1      1152 9.88311E-05-2.96626E-05-2.96754E-05-2.51764E-08-1.09563E-19-4.44943E-18
 -1      1153 9.77509E-05-2.93373E-05-2.93472E-05-1.59178E-08-2.75814E-19-6.52615E-18
 -1      1154 9.69280E-05-2.90888E-05-2.90961E-05-9.17421E-09 1.83787E-19-5.79223E-18
 -1      1155 9.63178E-05-2.89041E-05-2.89092E-05-4.46960E-09 8.09185E-20-3.73858E-18
 -1      1156 9.58775E-05-2.87703E-05-2.87739E-05-1.33439E-09 3.90359E-19-3.27877E-18
 -1      1157 9.55694E-05-2.86764E-05-2.86787E-05 6.38995E-10-1.36619E-20-4.42480E-18
 -1      1158 9.53614E-05-2.86127E-05-2.86141E-05 1.78114E-09-1.80124E-19-4.49345E-18
 -1      1159 9.52276E-05-2.85716E-05-2.85723E-05 2.34873E-09 6.43809E-20-6.43214E-18
 -1      1160 9.51474E-05-2.85466E-05-2.85469E-05 2.53469E-09 4.43107E-20-4.58862E-18
 -1      1161 9.51047E-05-2.85331E-05-2.85332E-05 2.48003E-09 2.39177E-19-2.13080E-18
 -1      1162 9.50874E-05-2.85274E-05-2.85273E-05 2.28507E-09 4.02116E-20-2.46724E-18
 -1      1163 9.50866E-05-2.85268E-05-2.85266E-05 2.01902E-09 7.19080E-20-4.61362E-18
 -1      1164 9.50958E-05-2.85293E-05-2.85290E-05 1.72796E-09-1.24951E-19-6.50532E-18
 -1      1165 9.51105E-05-2.85335E-05-2.85332E-05 1.44112E-09 7.35126E-20-6.69377E-18
 -1      1166 9.51276E-05-2.85385E-05-2.85382E-05 1.17575E-09-2.44096E-19-6.96606E-18
 -1      1167 9.51450E-05-2.85436E-05-2.85434E-05 9.40822E-10-9.55475E-20-5.65055E-18
 -1      1168 9.51616E-05-2.85485E-05-2.85483E-05 7.39810E-10 1.79752E-19-4.31739E-18
 -1      1169 9.51766E-05-2.85530E-05-2.85528E-05 5.72654E-10-9.07183E-20-5.09175E-18
 -1      1170 9.51898E-05-2.85569E-05-2.85567E-05 4.37198E-10-9.15852E-20-5.77831E-18
 -1      1171 9.52010E-05-2.85602E-05-2.85601E-05 3.30142E-10-5.22476E-19-5.35028E-18
 -1      1172 9.52105E-05-2.85631E-05-2.85630E-05 2.47640E-10-2.09683E-19-7.35039E-18
 -1      1173 9.52183E-05-2.85654E-05-2.85653E-05 1.85536E-10 2.96367E-19-7.27195E-18
 -1      1174 9.52246E-05-2.85673E-05-2.85673E-05 1.39099E-10 2.11007E-19-5.30406E-18
 -1      1175 9.52296E-05-2.85688E-05-2.85688E-05 1.02555E-10-3.39684E-19-4.82344E-18
 -1      1176 9.52334E-05-2.85700E-05-2.85699E-05 6.73740E-11 1.53489E-19-4.25662E-18
 -1      1177 9.52360E-05-2.85707E-05-2.85707E-05 1.75794E-11 2.86647E-19-3.96035E-19
 -1      1178 9.52372E-05-2.85711E-05-2.85711E-05-7.75339E-11 3.46823E-20 1.28126E-18
 -1      1179 9.52374E-05-2.85712E-05-2.85713E-05-8.13741E-11 1.69170E-19 2.81825E-18
 -1      1180 1.61353E-04-4.62093E-05-4.83874E-05 1.32070E-05-2.84497E-19 2.81232E-17
 -1      1181 1.29829E-04-3.80401E-05-4.13934E-05 4.06307E-07 2.24808E-19 2.26262E-17
 -1      1182 1.25829E-04-3.74986E-05-3.82244E-05-1.83301E-07 1.74509E-19 1.74040E-17
 -1      1183 1.22657E-04-3.67357E-05-3.65546E-05-1.76901E-07 5.93750E-20 1.41216E-17
 -1      1184 1.17168E-04-3.51590E-05-3.47375E-05 4.69964E-09 2.33364E-20 1.17573E-17
 -1      1185 1.08469E-04-3.26234E-05-3.22514E-05 3.24968E-07 9.05134E-20 9.70128E-18
 -1      1186 9.78337E-05-2.94888E-05-2.94190E-05 6.41188E-07-9.75014E-20 8.67457E-18
 -1      1187 8.86831E-05-2.67168E-05-2.71065E-05 7.29164E-07-7.82711E-20 7.72441E-18
 -1      1188 8.49793E-05-2.55006E-05-2.62275E-05 4.60787E-07-4.99419E-20 5.68278E-18
 -1      1189 8.85061E-05-2.64643E-05-2.71444E-05-3.11001E-08 1.92098E-19 3.34313E-18
 -1      1190 9.74414E-05-2.91396E-05-2.94304E-05-4.58936E-07 1.98982E-19 1.32211E-18
 -1      1191 1.07697E-04-3.22693E-05-3.21377E-05-6.20639E-07 2.45697E-19-1.06303E-19
 -1      1192 1.15660E-04-3.47108E-05-3.43486E-05-5.35472E-07 9.75577E-20 2.27746E-19
 -1      1193 1.19756E-04-3.59610E-05-3.55856E-05-3.35653E-07-1.97660E-19 7.84220E-19
 -1      1194 1.20253E-04-3.61061E-05-3.58370E-05-1.41365E-07 2.95433E-19 1.96694E-19
 -1      1195 1.18291E-04-3.55049E-05-3.53617E-05-5.74376E-09-9.40736E-20-1.89352E-18
 -1      1196 1.15069E-04-3.45279E-05-3.44793E-05 6.75852E-08-1.57134E-19-2.17264E-18
 -1      1197 1.11477E-04-3.34447E-05-3.34517E-05 9.59250E-08-1.05531E-19-1.39652E-18
 -1      1198 1.08049E-04-3.24145E-05-3.24472E-05 9.79659E-08-8.44742E-20-1.15207E-18
 -1      1199 1.05046E-04-3.15136E-05-3.15538E-05 8.73687E-08 2.13311E-19-2.57024E-18
 -1      1200 1.02553E-04-3.07662E-05-3.08049E-05 7.23405E-08-5.53591E-21-2.95877E-18
 -1      1201 1.00558E-04-3.01686E-05-3.02020E-05 5.71418E-08-1.72186E-19-3.01284E-18
 -1      1202 9.90077E-05-2.97039E-05-2.97311E-05 4.36482E-08 8.59904E-20-4.75151E-18
 -1      1203 9.78307E-05-2.93511E-05-2.93723E-05 3.24587E-08 3.58471E-20-7.09747E-18
 -1      1204 9.69564E-05-2.90888E-05-2.91050E-05 2.35595E-08 4.14856E-20-6.52486E-18
 -1      1205 9.63209E-05-2.88980E-05-2.89101E-05 1.66839E-08 1.63962E-19-4.17993E-18
 -1      1206 9.58698E-05-2.87626E-05-2.87714E-05 1.14907E-08-1.92863E-19-2.60892E-18
 -1      1207 9.55584E-05-2.86689E-05-2.86753E-05 7.64616E-09-1.47987E-19-1.83518E-18
 -1      1208 9.53508E-05-2.86064E-05-2.86108E-05 4.85627E-09-9.77935E-20-1.84263E-18
 -1      1209 9.52187E-05-2.85666E-05-2.85696E-05 2.87528E-09-1.68289E-19-3.63537E-18
 -1      1210 9.51405E-05-2.85429E-05-2.85449E-05 1.50429E-09 2.98978E-19-6.28486E-18
 -1      1211 9.50996E-05-2.85305E-05-2.85317E-05 5.85713E-10 6.33247E-19-8.42849E-18
 -1      1212 9.50838E-05-2.85256E-05-2.85263E-05-3.29002E-12-4.11217E-19-4.69976E-18
 -1      1213 9.50842E-05-2.85256E-05-2.85260E-05-3.57039E-10 2.39679E-19-1.85590E-18
 -1      1214 9.50942E-05-2.85285E-05-2.85286E-05-5.46937E-10 1.50304E-19-1.61589E-19
 -1      1215 9.51095E-05-2.85330E-05-2.85330E-05-6.26221E-10-2.22282E-19-1.51912E-18
 -1      1216 9.51270E-05-2.85382E-05-2.85381E-05-6.33925E-10 3.04620E-19-1.95686E-18
 -1      1217 9.51446E-05-2.85435E-05-2.85433E-05-5.98127E-10 2.70911E-19-2.73610E-18
 -1      1218 9.51614E-05-2.85485E-05-2.85483E-05-5.38582E-10 2.10930E-19-1.88596E-18
 -1      1219 9.51765E-05-2.85530E-05-2.85528E-05-4.68827E-10-3.49615E-20-1.46042E-18
 -1      1220 9.51897E-05-2.85569E-05-2.85568E-05-3.97852E-10-1.70314E-19-1.08661E-18
 -1      1221 9.52010E-05-2.85603E-05-2.85602E-05-3.31398E-10 8.00278E-20 1.46705E-19
 -1      1222 9.52105E-05-2.85631E-05-2.85630E-05-2.72962E-10-1.38466E-19-1.71202E-18
 -1      1223 9.52182E-05-2.85655E-05-2.85654E-05-2.24466E-10 3.32859E-19-3.89321E-18
 -1      1224 9.52246E-05-2.85674E-05-2.85673E-05-1.86551E-10-1.91318E-19-4.15830E-18
 -1      1225 9.52296E-05-2.85689E-05-2.85688E-05-1.58577E-10 1.45700E-19-5.73240E-18
 -1      1226 9.52334E-05-2.85700E-05-2.85699E-05-1.37207E-10-4.03171E-19-5.38934E-18
 -1      1227 9.52360E-05-2.85708E-05-2.85707E-05-1.08049E-10 1.27184E-19-6.81951E-18
 -1      1228 9.52373E-05-2.85712E-05-2.85711E-05-3.17308E-11 3.88748E-19-7.05202E-18
 -1      1229 9.52374E-05-2.85712E-05-2.85713E-05 7.32985E-11-2.70284E-19-4.03815E-18
 -1      1230 9.52371E-05-2.85709E-05-2.85713E-05 7.17729E-11-3.43190E-18-4.46055E-19
 -1      1231 9.52372E-05-2.85711E-05-2.85711E-05 6.42169E-11-1.58997E-18 5.65862E-20
 -1      1232 9.52375E-05-2.85724E-05-2.85707E-05-5.46397E-11 5.03336E-18-4.32259E-19
 -1      1233 9.52382E-05-2.85747E-05-2.85700E-05-1.11159E-10 3.33375E-18 1.15152E-19
 -1      1234 9.52391E-05-2.85776E-05-2.85692E-05-1.27329E-10-1.19861E-18-6.84943E-19
 -1      1235 9.52399E-05-2.85804E-05-2.85684E-05-1.15695E-10-5.83662E-18 4.33080E-19
 -1      1236 9.52406E-05-2.85828E-05-2.85677E-05-8.78475E-11-2.08414E-18 5.03896E-19
 -1      1237 9.52410E-05-2.85843E-05-2.85673E-05-4.65220E-11-8.31370E-19-8.18834E-19
 -1      1238 9.52412E-05-2.85849E-05-2.85671E-05 4.26747E-13-3.12213E-18-7.86737E-20
 -1      1239 9.52410E-05-2.85843E-05-2.85673E-05 4.73454E-11-3.68980E-18 5.24286E-19
 -1      1240 9.52406E-05-2.85827E-05-2.85677E-05 8.83782E-11-1.12207E-17-1.42825E-18
 -1      1241 9.52399E-05-2.85804E-05-2.85684E-05 1.17483E-10-1.32210E-17 3.40407E-19
 -1      1242 9.52391E-05-2.85776E-05-2.85692E-05 1.27129E-10-6.88071E-18 5.76876E-19
 -1      1243 9.52382E-05-2.85747E-05-2.85700E-05 1.12429E-10-4.66405E-18 1.65079E-19
 -1      1244 9.52375E-05-2.85723E-05-2.85707E-05 6.60107E-11-5.56265E-18 1.55724E-19
 -1      1245 9.52372E-05-2.85711E-05-2.85711E-05-1.21387E-10-9.38751E-19-8.22335E-19
 -1      1246 9.52371E-05-2.85709E-05-2.85713E-05-8.31513E-11-2.59185E-18-8.18884E-20
 -1      1247 3.16011E-05-1.00148E-04 1.65161E-05-1.33078E-05 1.67369E-17 3.50023E-18
 -1      1248 1.65865E-05-6.16904E-05 8.32007E-06-2.34302E-05 2.57998E-17 9.13102E-18
 -1      1249 7.73204E-06-9.30618E-06-6.13753E-06-6.64867E-07 2.82079E-17 1.71888E-17
 -1      1250 3.43498E-05 2.38979E-05-2.60908E-05 5.23586E-05 2.57058E-17 2.43522E-17
 -1      1251 1.05504E-04 1.44568E-05-4.65571E-05 1.01690E-04 1.86034E-17 2.62987E-17
 -1      1252 1.99672E-04-2.84035E-05-6.30792E-05 1.11712E-04 9.51514E-18 2.02102E-17
 -1      1253 2.82692E-04-7.58126E-05-7.45649E-05 6.94399E-05 2.34607E-18 5.03476E-18
 -1      1254 3.10557E-04-9.37732E-05-7.77418E-05-9.48605E-06 1.39813E-18-1.34801E-17
 -1      1255 2.63907E-04-6.63140E-05-7.16379E-05-8.10873E-05 7.98689E-18-2.90160E-17
 -1      1256 1.67545E-04-1.49253E-05-5.73437E-05-1.07288E-04 1.91844E-17-3.77150E-17
 -1      1257 7.18624E-05 2.13892E-05-3.81273E-05-8.13316E-05 2.96453E-17-3.66748E-17
 -1      1258 1.76888E-05 1.70298E-05-1.88332E-05-3.02314E-05 3.32477E-17-2.77081E-17
 -1      1259 7.22245E-06-2.16442E-05-2.15218E-06 1.04787E-05 2.96597E-17-1.60318E-17
 -1      1260 1.94045E-05-6.72562E-05 9.63915E-06 2.07052E-05 1.79275E-17-6.18016E-18
 -1      1261 3.06946E-05-9.18227E-05 1.45175E-05 4.15860E-06 8.53386E-19-1.31936E-18
 -1      1262 2.41831E-05-7.70907E-05 1.16698E-05-1.70123E-05-1.62016E-17-4.17455E-18
 -1      1263 9.51910E-06-3.25197E-05 1.32448E-06-1.33519E-05-2.79047E-17-1.30583E-17
 -1      1264 1.17824E-05 1.12533E-05-1.47204E-05 2.02135E-05-3.29564E-17-2.41726E-17
 -1      1265 4.97567E-05 2.66940E-05-3.25410E-05 6.85357E-05-2.96453E-17-3.20229E-17
 -1      1266 1.27677E-04 3.69917E-06-5.04959E-05 1.04368E-04-2.12063E-17-3.44370E-17
 -1      1267 2.26066E-04-4.55728E-05-6.64066E-05 9.64515E-05-1.01669E-17-2.72296E-17
 -1      1268 2.96082E-04-8.65795E-05-7.56736E-05 3.93982E-05-2.22486E-18-1.30989E-17
 -1      1269 3.00258E-04-8.86641E-05-7.62901E-05-3.76083E-05-1.35725E-18 3.48723E-18
 -1      1270 2.41920E-04-5.26913E-05-6.90392E-05-9.56156E-05-6.39573E-18 1.73726E-17
 -1      1271 1.53564E-04-5.39526E-06-5.54853E-05-1.12416E-04-1.48832E-17 2.62682E-17
 -1      1272 7.08171E-05 2.53329E-05-3.84645E-05-8.55467E-05-2.25006E-17 2.68543E-17
 -1      1273 1.99692E-05 2.10905E-05-2.01603E-05-3.65377E-05-2.50891E-17 2.10361E-17
 -1      1274 6.85144E-06-1.62171E-05-3.32688E-06 6.61345E-06-2.34459E-17 1.27521E-17
 -1      1275 1.86280E-05-6.63703E-05 9.58379E-06 2.34867E-05-1.53855E-17 5.85977E-18
 -1      1276 3.31897E-05-1.02548E-04 1.67175E-05 1.13844E-05 3.60836E-19 1.33143E-18
 -1      1277 1.26390E-04-2.71974E-05-4.53564E-05-1.74223E-05-7.51742E-19 1.19893E-17
 -1      1278 1.06175E-04-9.16192E-06-4.17147E-05-1.84252E-05-1.82123E-18-6.38081E-19
 -1      1279 1.10659E-04-9.40845E-06-4.37415E-05-2.52571E-05-2.43818E-18 2.18164E-18
 -1      1280 9.73005E-05-6.26016E-06-3.90204E-05-1.20868E-05-1.63456E-18-4.49107E-18
 -1      1281 1.00771E-04-6.27376E-06-4.04389E-05-1.57520E-05-1.92276E-18-2.86006E-18
 -1      1282 1.08292E-04-1.46810E-05-4.01977E-05-1.71099E-05-3.10713E-18-3.49189E-19
 -1      1283 9.04556E-05-5.28703E-06-3.64493E-05-6.02416E-06-1.07425E-18-6.36802E-18
 -1      1284 9.37035E-05-5.27321E-06-3.77863E-05-9.03998E-06-1.33101E-18-5.55214E-18
 -1      1285 9.94337E-05-1.14157E-05-3.78129E-05-1.13708E-05-2.42243E-18-3.52037E-18
 -1      1286 8.32697E-05-4.38807E-06-3.37767E-05-6.96226E-07-5.78947E-19-7.33930E-18
 -1      1287 8.68052E-05-4.41901E-06-3.51629E-05-3.20294E-06-7.30884E-19-6.92704E-18
 -1      1288 9.19225E-05-9.62087E-06-3.53610E-05-5.47614E-06-1.46362E-18-5.19970E-18
 -1      1289 7.53692E-05-3.05278E-06-3.10429E-05 3.29436E-06-1.27902E-19-7.84413E-18
 -1      1290 7.91841E-05-3.13747E-06-3.24406E-05 1.56245E-06-2.69568E-19-7.60115E-18
 -1      1291 8.38053E-05-7.55860E-06-3.27721E-05-3.04746E-07-6.93085E-19-6.11031E-18
 -1      1292 6.70745E-05-1.15930E-06-2.84061E-05 5.32774E-06 1.94818E-19-8.24677E-18
 -1      1293 7.08574E-05-1.28754E-06-2.97083E-05 4.63027E-06 1.25784E-19-8.08915E-18
 -1      1294 7.46513E-05-4.60572E-06-3.01176E-05 3.50588E-06 1.32878E-20-6.71905E-18
 -1      1295 6.01664E-05 8.45030E-07-2.63761E-05 4.90830E-06 3.99058E-19-8.49073E-18
 -1      1296 6.30056E-05 7.24766E-07-2.73041E-05 5.35544E-06 3.34366E-19-8.40672E-18
 -1      1297 6.53731E-05-9.99199E-07-2.76820E-05 5.16764E-06 4.56577E-19-7.10561E-18
 -1      1298 5.67025E-05 2.18115E-06-2.54557E-05 2.50540E-06 4.63383E-19-8.55005E-18
 -1      1299 5.77139E-05 2.12372E-06-2.57622E-05 3.73248E-06 4.12240E-19-8.57055E-18
 -1      1300 5.82472E-05 2.14366E-06-2.59595E-05 4.33209E-06 7.08874E-19-7.38194E-18
 -1      1301 5.80287E-05 2.20503E-06-2.59449E-05-4.67744E-07 5.13090E-19-8.33490E-18
 -1      1302 5.67897E-05 2.23985E-06-2.55145E-05 7.97594E-07 4.50741E-19-8.48474E-18
 -1      1303 5.56190E-05 3.48064E-06-2.53986E-05 1.73607E-06 7.64467E-19-7.40704E-18
 -1      1304 6.39170E-05 8.91729E-07-2.77844E-05-2.27714E-06 6.12934E-19-7.83314E-18
 -1      1305 6.07327E-05 1.00105E-06-2.66945E-05-1.74221E-06 5.26907E-19-8.12914E-18
 -1      1306 5.86181E-05 2.34008E-06-2.62064E-05-9.50154E-07 8.47880E-19-7.09612E-18
 -1      1307 7.25905E-05-1.10665E-06-3.05460E-05-1.79660E-06 8.54550E-19-6.98445E-18
 -1      1308 6.83505E-05-9.90596E-07-2.90466E-05-2.38979E-06 7.32683E-19-7.45546E-18
 -1      1309 6.63472E-05-7.30688E-07-2.82202E-05-1.99587E-06 1.08272E-18-6.50829E-18
 -1      1310 8.24736E-05-3.12967E-06-3.38646E-05 1.18273E-06 1.26991E-18-5.67613E-18
 -1      1311 7.78094E-05-3.04114E-06-3.21304E-05-5.79250E-07 1.08558E-18-6.41106E-18
 -1      1312 7.67059E-05-4.50583E-06-3.10541E-05-5.64566E-07 1.54229E-18-5.47707E-18
 -1      1313 9.23256E-05-4.80609E-06-3.73669E-05 6.22510E-06 1.75526E-18-3.61545E-18
 -1      1314 8.76832E-05-4.76922E-06-3.55579E-05 3.49029E-06 1.51905E-18-4.80297E-18
 -1      1315 8.77983E-05-8.02073E-06-3.43027E-05 3.22461E-06 2.21552E-18-3.98495E-18
 -1      1316 1.02454E-04-6.50859E-06-4.09790E-05 1.30080E-05 2.13918E-18-2.17052E-20
 -1      1317 9.75798E-05-6.47906E-06-3.90735E-05 9.24873E-06 1.84854E-18-2.14876E-18
 -1      1318 9.88153E-05-1.12262E-05-3.76382E-05 8.68540E-06 2.86879E-18-1.62154E-18
 -1      1319 1.15516E-04-1.03518E-05-4.49084E-05 2.24029E-05 1.99053E-18 6.49801E-18
 -1      1320 1.09019E-04-9.67133E-06-4.26857E-05 1.64416E-05 1.91705E-18 2.55068E-18
 -1      1321 1.11076E-04-1.57040E-05-4.09146E-05 1.50693E-05 3.26944E-18 2.40653E-18
 -1      1322 1.52804E-04-3.17320E-05-4.82330E-05 2.93495E-05 1.07107E-18 1.87838E-17
 -1      1323 1.25150E-04-1.96879E-05-4.58814E-05 2.23921E-05 1.05689E-18 1.02550E-17
 -1      1324 1.27183E-04-2.63421E-05-4.32381E-05 1.86328E-05 3.31466E-18 8.36254E-18
 -1      1325 1.32295E-04-3.67757E-05-4.39230E-05 5.25126E-06 1.95919E-18 1.80875E-17
 -1      1326 1.28721E-04-3.75098E-05-4.06774E-05-7.65961E-06-2.09154E-18 1.29647E-17
 -1      1327 1.21943E-04-3.51219E-05-3.78043E-05-4.72686E-06-1.90392E-18 1.05443E-17
 -1      1328 1.18913E-04-3.51485E-05-3.61439E-05-2.90086E-06-1.48633E-18 9.61803E-18
 -1      1329 1.16113E-04-3.47354E-05-3.48987E-05-2.71061E-06-1.44356E-18 7.43236E-18
 -1      1330 1.21306E-04-3.50919E-05-3.73217E-05-8.19474E-06-3.29861E-18 5.73539E-18
 -1      1331 1.13649E-04-3.41843E-05-3.40019E-05-2.48558E-06-1.13220E-18 6.69603E-18
 -1      1332 1.11165E-04-3.35370E-05-3.31894E-05-2.66142E-06-1.10351E-18 4.99841E-18
 -1      1333 1.15604E-04-3.46428E-05-3.47550E-05-5.37634E-06-2.54438E-18 4.37219E-18
 -1      1334 1.08926E-04-3.29133E-05-3.24849E-05-3.09486E-06-7.80981E-19 4.31708E-18
 -1      1335 1.05896E-04-3.19561E-05-3.16225E-05-3.28379E-06-7.79803E-19 3.24474E-18
 -1      1336 1.11259E-04-3.37227E-05-3.31846E-05-5.68047E-06-1.91098E-18 3.15219E-18
 -1      1337 1.03498E-04-3.11947E-05-3.09252E-05-3.64493E-06-3.50683E-19 2.93674E-18
 -1      1338 1.00015E-04-3.00067E-05-2.99732E-05-3.72020E-06-3.82547E-19 2.48959E-18
 -1      1339 1.06752E-04-3.22886E-05-3.18696E-05-6.68655E-06-1.08258E-18 2.31912E-18
 -1      1340 9.76201E-05-2.91752E-05-2.93169E-05-3.48359E-06-3.96302E-19 2.01864E-18
 -1      1341 9.44183E-05-2.80355E-05-2.84603E-05-3.33256E-06-3.91601E-19 1.56182E-18
 -1      1342 1.01976E-04-3.04706E-05-3.06507E-05-6.88940E-06-7.95337E-19 1.64349E-18
 -1      1343 9.25564E-05-2.73492E-05-2.79748E-05-2.26302E-06-4.76648E-19 1.21671E-18
 -1      1344 9.06314E-05-2.66477E-05-2.74670E-05-1.87427E-06-5.91474E-19 5.10642E-19
 -1      1345 9.76638E-05-2.86672E-05-2.96457E-05-5.33842E-06-8.81364E-19 6.87599E-19
 -1      1346 8.98960E-05-2.63707E-05-2.72802E-05-2.04648E-07-7.80435E-19-1.62392E-20
 -1      1347 8.99560E-05-2.63960E-05-2.72955E-05 2.83386E-07-7.33332E-19-1.15853E-18
 -1      1348 9.50050E-05-2.75098E-05-2.90554E-05-1.99618E-06-1.33627E-18-3.24592E-19
 -1      1349 9.05868E-05-2.66423E-05-2.74540E-05 1.92373E-06-6.89617E-19-1.81007E-18
 -1      1350 9.26023E-05-2.73850E-05-2.79847E-05 2.30075E-06-8.41812E-19-2.85768E-18
 -1      1351 9.48926E-05-2.74886E-05-2.90138E-05 2.06683E-06-1.42140E-18-1.60784E-18
 -1      1352 9.42861E-05-2.80169E-05-2.84215E-05 3.28344E-06-7.63802E-19-3.36730E-18
 -1      1353 9.74904E-05-2.91720E-05-2.92777E-05 3.41290E-06-4.14556E-19-4.20287E-18
 -1      1354 9.72538E-05-2.85823E-05-2.95001E-05 5.26503E-06-1.32839E-18-2.71620E-18
 -1      1355 9.95531E-05-2.99032E-05-2.98408E-05 3.49405E-06-2.82270E-19-4.54423E-18
 -1      1356 1.02882E-04-3.10642E-05-3.07491E-05 3.38525E-06-1.64189E-19-4.79135E-18
 -1      1357 1.01042E-04-3.02539E-05-3.03331E-05 6.51892E-06-7.17374E-19-3.48649E-18
 -1      1358 1.04669E-04-3.16449E-05-3.12720E-05 2.75928E-06-1.78459E-19-4.75598E-18
 -1      1359 1.07272E-04-3.25123E-05-3.20011E-05 2.52018E-06-2.36852E-19-4.93685E-18
 -1      1360 1.04873E-04-3.18302E-05-3.12473E-05 5.80107E-06-4.02996E-19-4.24367E-18
 -1      1361 1.08405E-04-3.28323E-05-3.23656E-05 1.58645E-06 1.21172E-19-4.90781E-18
 -1      1362 1.09898E-04-3.32954E-05-3.27984E-05 1.33171E-06 1.55576E-20-4.78063E-18
 -1      1363 1.07705E-04-3.28693E-05-3.19996E-05 3.87476E-06-5.59174E-20-4.46380E-18
 -1      1364 1.10304E-04-3.33642E-05-3.29601E-05 4.38622E-07-2.39419E-20-4.70374E-18
 -1      1365 1.10720E-04-3.34618E-05-3.30928E-05 2.37597E-07-8.19571E-20-4.71681E-18
 -1      1366 1.09121E-04-3.32711E-05-3.24435E-05 1.66007E-06-1.61347E-19-4.28136E-18
 -1      1367 1.10519E-04-3.33463E-05-3.30694E-05-4.29408E-07-4.26911E-19-4.27988E-18
 -1      1368 1.10124E-04-3.31852E-05-3.29677E-05-5.56211E-07-2.40104E-19-4.69248E-18
 -1      1369 1.09210E-04-3.31612E-05-3.25488E-05-2.07584E-07-2.04545E-19-4.11064E-18
 -1      1370 1.09513E-04-3.29601E-05-3.28096E-05-9.57396E-07-2.58782E-19-4.74737E-18
 -1      1371 1.08626E-04-3.26531E-05-3.25609E-05-1.01864E-06-3.51606E-19-5.21939E-18
 -1      1372 1.08316E-04-3.27326E-05-3.23694E-05-1.47282E-06-4.65431E-19-3.70195E-18
 -1      1373 1.07795E-04-3.23787E-05-3.23245E-05-1.19553E-06 1.01890E-19-5.10249E-18
 -1      1374 1.06687E-04-3.20142E-05-3.20068E-05-1.21010E-06 1.90380E-19-5.04270E-18
 -1      1375 1.06831E-04-3.21529E-05-3.19966E-05-2.14889E-06-9.77496E-20-3.56633E-18
 -1      1376 1.05784E-04-3.17321E-05-3.17397E-05-1.23024E-06-1.91486E-19-5.04310E-18
 -1      1377 1.04646E-04-3.13684E-05-3.14093E-05-1.21655E-06-2.04061E-19-5.61005E-18
 -1      1378 1.05085E-04-3.15369E-05-3.15226E-05-2.37153E-06-6.15518E-20-4.06948E-18
 -1      1379 1.03771E-04-3.11038E-05-3.11449E-05-1.14302E-06 3.97063E-20-5.54920E-18
 -1      1380 1.02716E-04-3.07734E-05-3.08364E-05-1.11502E-06-2.21585E-19-5.54118E-18
 -1      1381 1.03316E-04-3.09523E-05-3.10207E-05-2.29822E-06-2.48393E-19-4.23846E-18
 -1      1382 1.01926E-04-3.05395E-05-3.05947E-05-9.95390E-07-5.10040E-21-5.66260E-18
 -1      1383 1.01010E-04-3.02570E-05-3.03255E-05-9.62291E-07-1.64104E-19-5.63094E-18
 -1      1384 1.01671E-04-3.04330E-05-3.05407E-05-2.06077E-06-1.29771E-19-4.17047E-18
 -1      1385 1.00331E-04-3.00588E-05-3.01163E-05-8.27993E-07 6.02113E-20-5.31281E-18
 -1      1386 9.95727E-05-2.98275E-05-2.98924E-05-7.95207E-07 2.61035E-19-4.79906E-18
 -1      1387 1.00226E-04-2.99919E-05-3.01108E-05-1.75276E-06 1.44533E-19-4.21635E-18
 -1      1388 9.90108E-05-2.96651E-05-2.97185E-05-6.64808E-07-1.92803E-19-4.69613E-18
 -1      1389 9.84045E-05-2.94820E-05-2.95389E-05-6.35145E-07-2.83461E-19-4.70293E-18
 -1      1390 9.90082E-05-2.96296E-05-2.97436E-05-1.43320E-06-1.07727E-19-4.14718E-18
 -1      1391 9.79535E-05-2.93525E-05-2.93990E-05-5.18252E-07-2.69192E-19-4.61812E-18
 -1      1392 9.74832E-05-2.92117E-05-2.92592E-05-4.92890E-07-4.51392E-21-4.96662E-18
 -1      1393 9.80160E-05-2.93402E-05-2.94413E-05-1.13525E-06-3.01125E-19-3.99296E-18
 -1      1394 9.71307E-05-2.91111E-05-2.91497E-05-3.93403E-07 7.61403E-19-4.82809E-18
 -1      1395 9.67757E-05-2.90057E-05-2.90439E-05-3.72565E-07 6.52590E-19-4.03072E-18
 -1      1396 9.72297E-05-2.91144E-05-2.91997E-05-8.74776E-07 4.49027E-19-2.93248E-18
 -1      1397 9.65069E-05-2.89293E-05-2.89603E-05-2.91026E-07 1.95826E-19-3.29481E-18
 -1      1398 9.62458E-05-2.88525E-05-2.88823E-05-2.74428E-07 5.23880E-19-3.03667E-18
 -1      1399 9.66219E-05-2.89423E-05-2.90116E-05-6.56914E-07 8.44040E-19-3.00702E-18
 -1      1400 9.60457E-05-2.87958E-05-2.88200E-05-2.09572E-07 4.83543E-19-3.43207E-18
 -1      1401 9.58591E-05-2.87414E-05-2.87641E-05-1.96695E-07 1.41888E-19-3.56980E-18
 -1      1402 9.61631E-05-2.88141E-05-2.88687E-05-4.80712E-07 2.51184E-19-2.72667E-18
 -1      1403 9.57138E-05-2.87003E-05-2.87189E-05-1.46424E-07-1.30354E-19-3.63163E-18
 -1      1404 9.55846E-05-2.86631E-05-2.86800E-05-1.36673E-07-4.27934E-19-3.91981E-18
 -1      1405 9.58251E-05-2.87208E-05-2.87628E-05-3.42100E-07-4.98923E-19-3.39799E-18
 -1      1406 9.54820E-05-2.86343E-05-2.86481E-05-9.86286E-08 3.98842E-20-3.84732E-18
 -1      1407 9.53960E-05-2.86099E-05-2.86220E-05-9.14184E-08-1.78871E-19-3.94030E-18
 -1      1408 9.55824E-05-2.86547E-05-2.86862E-05-2.35717E-07-5.11760E-20-3.47100E-18
 -1      1409 9.53260E-05-2.85902E-05-2.86003E-05-6.33036E-08-3.36655E-19-3.81577E-18
 -1      1410 9.52717E-05-2.85751E-05-2.85837E-05-5.81048E-08 2.18874E-19-3.65474E-18
 -1      1411 9.54133E-05-2.86094E-05-2.86324E-05-1.55973E-07-3.49428E-19-2.39788E-18
 -1      1412 9.52260E-05-2.85624E-05-2.85695E-05-3.78456E-08 3.28938E-19-3.47356E-18
 -1      1413 9.51944E-05-2.85539E-05-2.85597E-05-3.42023E-08 2.96751E-19-3.29734E-18
 -1      1414 9.52996E-05-2.85795E-05-2.85959E-05-9.76225E-08 4.73771E-19-1.96998E-18
 -1      1415 9.51662E-05-2.85461E-05-2.85510E-05-2.00148E-08 1.21017E-19-2.77611E-18
 -1      1416 9.51504E-05-2.85422E-05-2.85460E-05-1.75477E-08-1.08379E-19-1.98034E-18
 -1      1417 9.52269E-05-2.85609E-05-2.85723E-05-5.60328E-08 2.94192E-19-2.15991E-18
 -1      1418 9.51347E-05-2.85379E-05-2.85411E-05-7.94996E-09-3.21526E-19-2.54659E-18
 -1      1419 9.51294E-05-2.85370E-05-2.85393E-05-6.35278E-09-4.27164E-19-3.34743E-18
 -1      1420 9.51837E-05-2.85503E-05-2.85579E-05-2.72812E-08-6.40821E-19-3.15745E-18
 -1      1421 9.51222E-05-2.85351E-05-2.85371E-05-1.47364E-10-4.22969E-19-3.88860E-18
 -1      1422 9.51236E-05-2.85360E-05-2.85373E-05 8.21890E-10-3.00079E-19-4.85346E-18
 -1      1423 9.51610E-05-2.85453E-05-2.85501E-05-8.14821E-09-9.36705E-19-3.61733E-18
 -1      1424 9.51221E-05-2.85357E-05-2.85368E-05 4.57988E-09-1.16544E-19-4.42023E-18
 -1      1425 9.51275E-05-2.85377E-05-2.85383E-05 5.10811E-09-1.48541E-19-4.50484E-18
 -1      1426 9.51522E-05-2.85439E-05-2.85467E-05 3.94213E-09-4.67764E-19-3.00140E-18
 -1      1427 9.51294E-05-2.85384E-05-2.85389E-05 7.14846E-09-4.05017E-19-4.68532E-18
 -1      1428 9.51369E-05-2.85409E-05-2.85410E-05 7.37709E-09 6.56493E-20-5.03693E-18
 -1      1429 9.51523E-05-2.85448E-05-2.85463E-05 1.10047E-08-2.26402E-19-2.80762E-18
 -1      1430 9.51409E-05-2.85421E-05-2.85422E-05 8.25179E-09 1.18945E-19-5.74725E-18
 -1      1431 9.51491E-05-2.85448E-05-2.85446E-05 8.28555E-09-3.73202E-19-5.42757E-18
 -1      1432 9.51579E-05-2.85471E-05-2.85476E-05 1.45827E-08-2.97891E-19-4.41425E-18
 -1      1433 9.51540E-05-2.85462E-05-2.85461E-05 8.40321E-09 4.84694E-19-6.43849E-18
 -1      1434 9.51622E-05-2.85488E-05-2.85485E-05 8.31791E-09 5.63525E-19-5.47414E-18
 -1      1435 9.51665E-05-2.85500E-05-2.85499E-05 1.58335E-08-2.27435E-19-4.76150E-18
 -1      1436 9.51674E-05-2.85504E-05-2.85501E-05 7.97397E-09 5.79329E-20-4.27934E-18
 -1      1437 9.51750E-05-2.85528E-05-2.85523E-05 7.82302E-09 3.20420E-19-4.32669E-18
 -1      1438 9.51762E-05-2.85532E-05-2.85527E-05 1.56059E-08 4.65673E-19-4.95974E-18
 -1      1439 9.51801E-05-2.85542E-05-2.85539E-05 7.22535E-09-2.40705E-19-4.47817E-18
 -1      1440 9.51870E-05-2.85564E-05-2.85559E-05 7.04517E-09-7.40434E-19-5.42160E-18
 -1      1441 9.51862E-05-2.85563E-05-2.85556E-05 1.45075E-08 1.35350E-19-4.54942E-18
 -1      1442 9.51916E-05-2.85577E-05-2.85574E-05 6.33496E-09-3.92029E-20-5.15288E-18
 -1      1443 9.51976E-05-2.85595E-05-2.85591E-05 6.14924E-09-5.43920E-19-5.42731E-18
 -1      1444 9.51956E-05-2.85591E-05-2.85584E-05 1.29599E-08-3.43564E-19-4.13077E-18
 -1      1445 9.52017E-05-2.85607E-05-2.85604E-05 5.41772E-09-9.08237E-19-4.97899E-18
 -1      1446 9.52068E-05-2.85623E-05-2.85619E-05 5.24077E-09-7.16210E-19-5.53786E-18
 -1      1447 9.52041E-05-2.85617E-05-2.85610E-05 1.12445E-08-7.13969E-19-4.47018E-18
 -1      1448 9.52103E-05-2.85633E-05-2.85630E-05 4.54204E-09-3.18443E-19-5.43029E-18
 -1      1449 9.52145E-05-2.85646E-05-2.85643E-05 4.38130E-09 1.08624E-19-6.01315E-18
 -1      1450 9.52116E-05-2.85639E-05-2.85633E-05 9.53774E-09-4.70040E-19-3.12938E-18
 -1      1451 9.52176E-05-2.85654E-05-2.85652E-05 3.74177E-09 5.59183E-20-5.05395E-18
 -1      1452 9.52210E-05-2.85665E-05-2.85662E-05 3.59948E-09 7.41833E-19-4.64940E-18
 -1      1453 9.52180E-05-2.85658E-05-2.85652E-05 7.93774E-09 3.98826E-19-3.27905E-18
 -1      1454 9.52235E-05-2.85672E-05-2.85670E-05 3.02415E-09 1.12020E-18-5.00780E-18
 -1      1455 9.52263E-05-2.85681E-05-2.85678E-05 2.89825E-09 6.72385E-19-4.10924E-18
 -1      1456 9.52234E-05-2.85673E-05-2.85668E-05 6.48391E-09 1.22303E-18-2.80610E-18
 -1      1457 9.52283E-05-2.85686E-05-2.85684E-05 2.37549E-09 2.13166E-19-2.95200E-18
 -1      1458 9.52305E-05-2.85693E-05-2.85691E-05 2.26057E-09 1.72959E-19-2.87314E-18
 -1      1459 9.52278E-05-2.85686E-05-2.85682E-05 5.16949E-09 1.13733E-18-1.55023E-18
 -1      1460 9.52320E-05-2.85698E-05-2.85695E-05 1.76518E-09 6.01153E-19-2.60009E-18
 -1      1461 9.52336E-05-2.85702E-05-2.85700E-05 1.65173E-09 1.37812E-18-1.13414E-18
 -1      1462 9.52312E-05-2.85696E-05-2.85692E-05 3.95278E-09 1.05884E-18-2.46421E-19
 -1      1463 9.52347E-05-2.85706E-05-2.85703E-05 1.15217E-09 8.37212E-19-1.30329E-18
 -1      1464 9.52357E-05-2.85709E-05-2.85706E-05 1.02707E-09 2.93593E-19-3.15498E-19
 -1      1465 9.52339E-05-2.85705E-05-2.85700E-05 2.76496E-09 1.28876E-18 1.10240E-19
 -1      1466 9.52365E-05-2.85711E-05-2.85709E-05 5.03643E-10 5.90916E-19 3.95721E-19
 -1      1467 9.52368E-05-2.85712E-05-2.85710E-05 3.64494E-10 1.06325E-18 2.00816E-18
 -1      1468 9.52357E-05-2.85710E-05-2.85706E-05 1.55661E-09 1.35337E-18-1.05987E-19
 -1      1469 9.52372E-05-2.85712E-05-2.85712E-05-9.13594E-11-1.56379E-18 1.30985E-18
 -1      1470 9.52369E-05-2.85713E-05-2.85710E-05 3.09570E-10-6.46241E-19 1.51156E-19
 -1      1471 1.28547E-04-3.81908E-05-3.91935E-05 2.04587E-06 1.56185E-18 1.45956E-17
 -1      1472 1.33233E-04-3.87021E-05-4.13634E-05 3.26785E-06 1.38336E-18 1.71315E-17
 -1      1473 1.30786E-04-3.54627E-05-4.12198E-05 1.08146E-05 2.78197E-18 1.14867E-17
 -1      1474 1.24199E-04-3.73869E-05-3.71695E-05 1.49757E-06 1.18452E-18 1.16261E-17
 -1      1475 1.26047E-04-3.75488E-05-3.81098E-05 1.44886E-06 1.12916E-18 1.34538E-17
 -1      1476 1.25850E-04-3.73746E-05-3.80650E-05 4.22533E-06 2.29075E-18 9.43317E-18
 -1      1477 1.19957E-04-3.62814E-05-3.57203E-05 2.33533E-06 7.64196E-19 9.61032E-18
 -1      1478 1.22185E-04-3.69194E-05-3.64837E-05 2.00267E-06 6.95738E-19 1.08114E-17
 -1      1479 1.21901E-04-3.69081E-05-3.63596E-05 3.76970E-06 1.65186E-18 7.73694E-18
 -1      1480 1.13898E-04-3.44392E-05-3.39333E-05 3.70150E-06 6.09983E-19 8.15619E-18
 -1      1481 1.17469E-04-3.56663E-05-3.49680E-05 3.22967E-06 5.27298E-19 9.04292E-18
 -1      1482 1.17754E-04-3.59083E-05-3.49541E-05 5.54510E-06 1.14271E-18 6.36573E-18
 -1      1483 1.05877E-04-3.18019E-05-3.17242E-05 4.64792E-06 5.80764E-19 6.91968E-18
 -1      1484 1.10692E-04-3.34935E-05-3.30313E-05 4.28868E-06 4.18183E-19 7.66284E-18
 -1      1485 1.12313E-04-3.41311E-05-3.34082E-05 7.64524E-06 8.69929E-19 5.43435E-18
 -1      1486 9.76457E-05-2.89602E-05-2.95660E-05 4.17606E-06 2.90380E-19 6.08625E-18
 -1      1487 1.02504E-04-3.06213E-05-3.08275E-05 4.22532E-06 3.45517E-19 6.42660E-18
 -1      1488 1.05875E-04-3.16357E-05-3.18076E-05 8.22431E-06 7.42477E-19 4.78566E-18
 -1      1489 9.22442E-05-2.70538E-05-2.81891E-05 1.90777E-06 6.44235E-19 4.58279E-18
 -1      1490 9.52624E-05-2.79575E-05-2.89488E-05 2.48121E-06 5.42736E-19 5.36283E-18
 -1      1491 1.00153E-04-2.91507E-05-3.05307E-05 5.89425E-06 9.62574E-19 3.42938E-18
 -1      1492 9.21229E-05-2.70450E-05-2.81351E-05-1.29159E-06 8.76070E-19 2.63078E-18
 -1      1493 9.19005E-05-2.67165E-05-2.80772E-05-4.35156E-07 8.56655E-19 3.66780E-18
 -1      1494 9.74439E-05-2.78805E-05-2.99790E-05 9.50129E-07 1.53265E-18 1.82889E-18
 -1      1495 9.72394E-05-2.89107E-05-2.93840E-05-3.78635E-06 6.91497E-19 7.36178E-19
 -1      1496 9.39213E-05-2.75239E-05-2.85511E-05-3.09018E-06 6.89736E-19 1.71037E-18
 -1      1497 9.89474E-05-2.85558E-05-3.03078E-05-4.35432E-06 1.62964E-18 8.59474E-20
 -1      1498 1.04985E-04-3.16116E-05-3.13818E-05-4.47135E-06 2.91958E-19-5.30666E-19
 -1      1499 1.00191E-04-2.98686E-05-3.01378E-05-4.22449E-06 4.71854E-19 3.83706E-19
 -1      1500 1.03711E-04-3.07462E-05-3.13375E-05-7.42451E-06 1.05978E-18-1.19612E-18
 -1      1501 1.12130E-04-3.39669E-05-3.33428E-05-3.51427E-06-1.41706E-19-1.01284E-18
 -1      1502 1.07780E-04-3.25526E-05-3.21667E-05-3.67508E-06 1.09353E-19-6.61374E-19
 -1      1503 1.09337E-04-3.31771E-05-3.26417E-05-7.31649E-06 4.64015E-19-1.67138E-18
 -1      1504 1.16643E-04-3.53385E-05-3.46882E-05-1.82288E-06-1.70399E-19-6.24422E-19
 -1      1505 1.13912E-04-3.45742E-05-3.39070E-05-2.17542E-06 6.97015E-20-8.24375E-19
 -1      1506 1.13679E-04-3.48394E-05-3.37558E-05-4.96863E-06-9.45236E-20-1.57013E-18
 -1      1507 1.18111E-04-3.56852E-05-3.52178E-05-2.29214E-07-1.71590E-20-4.27758E-19
 -1      1508 1.17205E-04-3.55425E-05-3.49241E-05-5.76843E-07-2.37110E-19-6.99332E-19
 -1      1509 1.15764E-04-3.54430E-05-3.43849E-05-1.96327E-06-1.68612E-20-1.54946E-18
 -1      1510 1.17167E-04-3.52869E-05-3.50402E-05 8.69332E-07 3.01448E-19-1.36361E-18
 -1      1511 1.17678E-04-3.55694E-05-3.51507E-05 6.19983E-07 4.79824E-19-5.05859E-19
 -1      1512 1.15693E-04-3.52063E-05-3.44643E-05 5.49390E-07 5.64415E-19-1.58353E-18
 -1      1513 1.14758E-04-3.44745E-05-3.43964E-05 1.44109E-06 1.74237E-20-2.00869E-18
 -1      1514 1.16109E-04-3.49745E-05-3.47623E-05 1.30152E-06 1.93521E-19-1.39358E-18
 -1      1515 1.14091E-04-3.44883E-05-3.40965E-05 2.14477E-06 4.58212E-19-1.29982E-18
 -1      1516 1.11713E-04-3.35061E-05-3.35285E-05 1.61758E-06-5.80387E-19-1.75340E-18
 -1      1517 1.13411E-04-3.40716E-05-3.40096E-05 1.56217E-06-3.33553E-19-2.07969E-18
 -1      1518 1.11653E-04-3.35780E-05-3.34508E-05 2.88757E-06-1.18293E-19-1.55511E-18
 -1      1519 1.08599E-04-3.25448E-05-3.26143E-05 1.55368E-06 1.30609E-19-1.32035E-18
 -1      1520 1.10318E-04-3.30862E-05-3.31122E-05 1.55112E-06-1.88341E-19-1.41920E-18
 -1      1521 1.08931E-04-3.26528E-05-3.26863E-05 3.02801E-06-4.66980E-19-1.57540E-18
 -1      1522 1.05736E-04-3.16767E-05-3.17605E-05 1.37025E-06 1.87137E-19-1.61949E-18
 -1      1523 1.07298E-04-3.21512E-05-3.22188E-05 1.39568E-06 6.85402E-21-1.46232E-18
 -1      1524 1.06282E-04-3.18050E-05-3.19178E-05 2.81766E-06 1.58081E-19-1.01710E-18
 -1      1525 1.03271E-04-3.09374E-05-3.10183E-05 1.14507E-06 4.65139E-19-2.65686E-18
 -1      1526 1.04600E-04-3.13311E-05-3.14116E-05 1.18220E-06 4.86551E-19-1.99351E-18
 -1      1527 1.03902E-04-3.10731E-05-3.12133E-05 2.44325E-06 6.88285E-19-2.31870E-18
 -1      1528 1.01238E-04-3.03323E-05-3.04029E-05 9.21673E-07-5.46134E-19-2.77759E-18
 -1      1529 1.02322E-04-3.06470E-05-3.07252E-05 9.61090E-07-3.33488E-19-2.80527E-18
 -1      1530 1.01872E-04-3.04657E-05-3.06049E-05 2.02182E-06-6.52248E-20-2.34203E-18
 -1      1531 9.96152E-05-2.98518E-05-2.99100E-05 7.21029E-07 5.11878E-19-2.99670E-18
 -1      1532 1.00471E-04-3.00962E-05-3.01653E-05 7.57887E-07 3.90795E-19-2.31716E-18
 -1      1533 1.00205E-04-2.99760E-05-3.01006E-05 1.61753E-06-1.02797E-19-2.85056E-18
 -1      1534 9.83525E-05-2.94793E-05-2.95255E-05 5.50888E-07 8.94331E-19-4.53094E-18
 -1      1535 9.90106E-05-2.96648E-05-2.97225E-05 5.83089E-07 4.32218E-19-3.51467E-18
 -1      1536 9.88746E-05-2.95904E-05-2.96956E-05 1.26023E-06 1.09076E-18-2.69121E-18
 -1      1537 9.73914E-05-2.91966E-05-2.92324E-05 4.11961E-07 2.16953E-20-5.76455E-18
 -1      1538 9.78867E-05-2.93344E-05-2.93810E-05 4.38921E-07 3.81905E-19-5.27503E-18
 -1      1539 9.78372E-05-2.92929E-05-2.93784E-05 9.59865E-07 1.01957E-18-4.12557E-18
 -1      1540 9.66751E-05-2.89866E-05-2.90137E-05 3.01599E-07-7.11044E-19-4.49259E-18
 -1      1541 9.70399E-05-2.90867E-05-2.91234E-05 3.23509E-07-5.84434E-19-5.47733E-18
 -1      1542 9.70454E-05-2.90677E-05-2.91354E-05 7.15856E-07-4.70494E-19-4.07946E-18
 -1      1543 9.61524E-05-2.88337E-05-2.88538E-05 2.15846E-07-4.32876E-19-2.54405E-18
 -1      1544 9.64152E-05-2.89047E-05-2.89331E-05 2.33245E-07-4.34005E-19-3.29736E-18
 -1      1545 9.64530E-05-2.89005E-05-2.89529E-05 5.22661E-07-1.05727E-18-2.57257E-18
 -1      1546 9.57797E-05-2.87250E-05-2.87397E-05 1.50500E-07-6.71482E-19-1.10690E-18
 -1      1547 9.59642E-05-2.87741E-05-2.87955E-05 1.64050E-07-6.01260E-19-2.15650E-18
 -1      1548 9.60189E-05-2.87789E-05-2.88187E-05 3.72916E-07-9.88297E-19-1.32924E-18
 -1      1549 9.55209E-05-2.86498E-05-2.86603E-05 1.01628E-07 3.16074E-19-1.73318E-18
 -1      1550 9.56467E-05-2.86826E-05-2.86985E-05 1.11992E-07 4.16457E-19-1.23540E-18
 -1      1551 9.57078E-05-2.86925E-05-2.87221E-05 2.59053E-07 1.13448E-19-1.53824E-18
 -1      1552 9.53472E-05-2.85996E-05-2.86069E-05 6.57757E-08 1.30393E-19-2.24617E-18
 -1      1553 9.54297E-05-2.86204E-05-2.86320E-05 7.35643E-08-1.14871E-19-2.23618E-18
 -1      1554 9.54907E-05-2.86328E-05-2.86544E-05 1.74079E-07 2.14043E-19-1.92126E-18
 -1      1555 9.52357E-05-2.85676E-05-2.85725E-05 4.00288E-08 7.88501E-19-4.25443E-18
 -1      1556 9.52869E-05-2.85799E-05-2.85882E-05 4.57734E-08 4.74075E-19-3.21010E-18
 -1      1557 9.53439E-05-2.85929E-05-2.86084E-05 1.11894E-07 9.39325E-19-2.81053E-18
 -1      1558 9.51687E-05-2.85485E-05-2.85517E-05 2.19906E-08 7.77645E-19-5.82690E-18
 -1      1559 9.51979E-05-2.85550E-05-2.85607E-05 2.61415E-08 5.28463E-19-4.99310E-18
 -1      1560 9.52487E-05-2.85675E-05-2.85783E-05 6.73628E-08 1.04549E-18-4.42764E-18
 -1      1561 9.51328E-05-2.85385E-05-2.85404E-05 9.73256E-09-7.45641E-19-5.34776E-18
 -1      1562 9.51468E-05-2.85410E-05-2.85449E-05 1.26614E-08-1.42104E-19-5.84976E-18
 -1      1563 9.51907E-05-2.85525E-05-2.85598E-05 3.62749E-08 1.68994E-19-3.54309E-18
 -1      1564 9.51179E-05-2.85346E-05-2.85356E-05 1.72950E-09-8.78352E-19-2.53144E-18
 -1      1565 9.51219E-05-2.85346E-05-2.85370E-05 3.73708E-09-1.39738E-18-4.90977E-18
 -1      1566 9.51588E-05-2.85446E-05-2.85493E-05 1.52465E-08-1.63710E-18-3.26097E-18
 -1      1567 9.51166E-05-2.85346E-05-2.85350E-05-3.20524E-09 4.94267E-19-1.94998E-18
 -1      1568 9.51143E-05-2.85330E-05-2.85345E-05-1.87956E-09 1.70261E-19-1.66767E-18
 -1      1569 9.51446E-05-2.85416E-05-2.85444E-05 1.60546E-09-4.76800E-19-3.30048E-18
 -1      1570 9.51236E-05-2.85369E-05-2.85370E-05-5.98021E-09-7.10918E-19-1.24776E-18
 -1      1571 9.51176E-05-2.85345E-05-2.85353E-05-5.14912E-09 2.02066E-19-1.22939E-18
 -1      1572 9.51421E-05-2.85417E-05-2.85432E-05-6.72376E-09-1.85317E-19-1.65593E-18
 -1      1573 9.51351E-05-2.85405E-05-2.85404E-05-7.27962E-09 2.76074E-19-1.57117E-18
 -1      1574 9.51273E-05-2.85378E-05-2.85382E-05-6.79883E-09 5.06598E-20-1.60637E-18
 -1      1575 9.51466E-05-2.85436E-05-2.85443E-05-1.13276E-08 1.62218E-19-1.84107E-18
 -1      1576 9.51487E-05-2.85447E-05-2.85444E-05-7.60954E-09 5.78699E-19-3.05863E-18
 -1      1577 9.51403E-05-2.85419E-05-2.85420E-05-7.36976E-09 1.68130E-19-2.93681E-18
 -1      1578 9.51553E-05-2.85466E-05-2.85467E-05-1.33981E-08 8.87543E-19-3.04297E-18
 -1      1579 9.51627E-05-2.85490E-05-2.85486E-05-7.33681E-09-2.81327E-19-1.86658E-18
 -1      1580 9.51544E-05-2.85463E-05-2.85462E-05-7.25673E-09-3.22721E-20-2.43528E-18
 -1      1581 9.51658E-05-2.85500E-05-2.85497E-05-1.38148E-08-2.08582E-19-2.30689E-18
 -1      1582 9.51760E-05-2.85530E-05-2.85526E-05-6.72104E-09-1.12337E-21-1.00549E-18
 -1      1583 9.51683E-05-2.85506E-05-2.85504E-05-6.74134E-09-1.44814E-19-1.41699E-18
 -1      1584 9.51769E-05-2.85534E-05-2.85530E-05-1.32135E-08-3.89336E-19-1.46025E-18
 -1      1585 9.51881E-05-2.85566E-05-2.85563E-05-5.94045E-09-1.18986E-19 9.02459E-20
 -1      1586 9.51813E-05-2.85545E-05-2.85543E-05-6.01894E-09-1.83741E-19-3.13904E-19
 -1      1587 9.51875E-05-2.85566E-05-2.85561E-05-1.20420E-08-5.24479E-19-9.73671E-20
 -1      1588 9.51988E-05-2.85598E-05-2.85595E-05-5.11241E-09 1.34045E-20 1.56084E-18
 -1      1589 9.51929E-05-2.85580E-05-2.85577E-05-5.21995E-09-1.81222E-19 6.50286E-19
 -1      1590 9.51973E-05-2.85596E-05-2.85590E-05-1.06058E-08-6.71816E-19 2.64666E-18
 -1      1591 9.52080E-05-2.85625E-05-2.85623E-05-4.30912E-09 1.00593E-18 1.52965E-19
 -1      1592 9.52030E-05-2.85611E-05-2.85608E-05-4.42661E-09 1.11464E-18 1.21373E-18
 -1      1593 9.52060E-05-2.85621E-05-2.85616E-05-9.10425E-09 1.42948E-18 2.37934E-18
 -1      1594 9.52157E-05-2.85648E-05-2.85646E-05-3.56949E-09-8.11193E-20-6.17894E-19
 -1      1595 9.52115E-05-2.85636E-05-2.85634E-05-3.68548E-09 1.61829E-19 2.82841E-19
 -1      1596 9.52134E-05-2.85644E-05-2.85639E-05-7.65720E-09 5.78280E-19 2.00949E-18
 -1      1597 9.52221E-05-2.85667E-05-2.85665E-05-2.90724E-09 1.04752E-18-1.96884E-18
 -1      1598 9.52187E-05-2.85657E-05-2.85655E-05-3.01649E-09 1.02033E-18-8.10189E-19
 -1      1599 9.52197E-05-2.85662E-05-2.85658E-05-6.32565E-09 1.46402E-18 1.47837E-18
 -1      1600 9.52272E-05-2.85683E-05-2.85681E-05-2.31633E-09-3.35928E-19-2.83642E-18
 -1      1601 9.52245E-05-2.85675E-05-2.85673E-05-2.41885E-09-3.74782E-20-2.93103E-18
 -1      1602 9.52250E-05-2.85677E-05-2.85674E-05-5.12553E-09 8.46218E-19-1.03293E-19
 -1      1603 9.52312E-05-2.85695E-05-2.85693E-05-1.77515E-09-6.49673E-20-2.62351E-18
 -1      1604 9.52291E-05-2.85689E-05-2.85687E-05-1.87566E-09 3.40956E-19-2.19008E-18
 -1      1605 9.52291E-05-2.85690E-05-2.85686E-05-4.03756E-09-6.12990E-20-6.28227E-19
 -1      1606 9.52342E-05-2.85704E-05-2.85702E-05-1.24730E-09-1.54205E-20-3.48319E-18
 -1      1607 9.52327E-05-2.85699E-05-2.85697E-05-1.35655E-09-3.15894E-19-3.48383E-18
 -1      1608 9.52324E-05-2.85699E-05-2.85696E-05-3.01468E-09-1.74129E-19-2.25705E-20
 -1      1609 9.52362E-05-2.85710E-05-2.85708E-05-6.86516E-10-1.63808E-19-4.54653E-18
 -1      1610 9.52352E-05-2.85707E-05-2.85705E-05-8.23878E-10 4.55315E-19-3.89278E-18
 -1      1611 9.52348E-05-2.85707E-05-2.85703E-05-1.99126E-09 8.99692E-19-1.25620E-18
 -1      1612 9.52370E-05-2.85712E-05-2.85711E-05-1.32794E-10-1.14723E-19-3.27379E-18
 -1      1613 9.52367E-05-2.85712E-05-2.85710E-05-2.76988E-10-3.31988E-19-4.42571E-18
 -1      1614 9.52363E-05-2.85711E-05-2.85708E-05-9.24515E-10 2.51446E-19-1.16075E-18
 -1      1615 9.52372E-05-2.85712E-05-2.85712E-05 6.44236E-11-1.46319E-18-1.40233E-18
 -1      1616 9.52372E-05-2.85718E-05-2.85708E-05-5.39229E-10 1.25323E-18 1.68312E-18
 -1      1617 9.52371E-05-2.85715E-05-2.85710E-05-3.95149E-10-1.29010E-18 2.49932E-18
 -1      1618 9.52377E-05-2.85735E-05-2.85704E-05-1.09632E-09 2.88096E-18-3.36345E-19
 -1      1619 9.52374E-05-2.85725E-05-2.85706E-05-9.95089E-10 1.86913E-18 1.74269E-19
 -1      1620 9.52373E-05-2.85725E-05-2.85706E-05-1.52295E-09 4.98898E-19 2.06500E-18
 -1      1621 9.52385E-05-2.85757E-05-2.85698E-05-1.43957E-09 1.18167E-19-6.67871E-19
 -1      1622 9.52380E-05-2.85744E-05-2.85701E-05-1.39091E-09 2.75325E-18-8.04141E-19
 -1      1623 9.52379E-05-2.85742E-05-2.85701E-05-2.42302E-09 1.21012E-18-1.11535E-18
 -1      1624 9.52393E-05-2.85781E-05-2.85691E-05-1.52026E-09-1.02017E-18-9.44970E-19
 -1      1625 9.52388E-05-2.85768E-05-2.85694E-05-1.52562E-09 2.95024E-20-2.69920E-19
 -1      1626 9.52386E-05-2.85762E-05-2.85696E-05-2.87421E-09 3.11562E-19-1.32051E-18
 -1      1627 9.52400E-05-2.85804E-05-2.85684E-05-1.36074E-09-2.74107E-18-9.80069E-20
 -1      1628 9.52396E-05-2.85792E-05-2.85688E-05-1.40985E-09-1.73400E-18-1.99249E-19
 -1      1629 9.52394E-05-2.85783E-05-2.85690E-05-2.83546E-09-1.83038E-19-1.65295E-18
 -1      1630 9.52406E-05-2.85822E-05-2.85679E-05-1.00070E-09-9.60112E-19 1.04445E-19
 -1      1631 9.52403E-05-2.85813E-05-2.85681E-05-1.08524E-09-1.95039E-18 7.81934E-19
 -1      1632 9.52400E-05-2.85802E-05-2.85685E-05-2.36634E-09-2.97584E-19 2.95195E-19
 -1      1633 9.52409E-05-2.85833E-05-2.85676E-05-5.02960E-10-1.16949E-18-1.29778E-18
 -1      1634 9.52408E-05-2.85828E-05-2.85677E-05-6.08652E-10-7.42803E-19 6.78961E-19
 -1      1635 9.52405E-05-2.85817E-05-2.85681E-05-1.55694E-09-1.16917E-18 4.25797E-19
 -1      1636 9.52410E-05-2.85835E-05-2.85675E-05 6.14227E-11-2.42109E-18-5.91025E-20
 -1      1637 9.52410E-05-2.85835E-05-2.85675E-05-5.13472E-11-1.93296E-18-1.10445E-18
 -1      1638 9.52408E-05-2.85824E-05-2.85679E-05-5.36291E-10-4.25062E-19-1.70470E-18
 -1      1639 9.52408E-05-2.85828E-05-2.85677E-05 6.17772E-10-5.26665E-18-9.30051E-19
 -1      1640 9.52409E-05-2.85833E-05-2.85676E-05 5.12429E-10-4.07941E-18 2.14239E-19
 -1      1641 9.52408E-05-2.85824E-05-2.85679E-05 5.55224E-10-2.86565E-18-1.54021E-18
 -1      1642 9.52403E-05-2.85813E-05-2.85682E-05 1.09184E-09-8.15303E-18-1.74741E-18
 -1      1643 9.52406E-05-2.85822E-05-2.85679E-05 1.00821E-09-5.07458E-18-2.25987E-18
 -1      1644 9.52405E-05-2.85817E-05-2.85681E-05 1.57313E-09-3.72873E-18-2.21124E-18
 -1      1645 9.52396E-05-2.85792E-05-2.85688E-05 1.41003E-09-6.62165E-18 1.86769E-18
 -1      1646 9.52400E-05-2.85804E-05-2.85684E-05 1.36187E-09-7.62552E-18-7.71169E-19
 -1      1647 9.52400E-05-2.85802E-05-2.85685E-05 2.37261E-09-3.38398E-18-1.32700E-18
 -1      1648 9.52388E-05-2.85767E-05-2.85695E-05 1.52441E-09-3.34181E-18 1.37487E-18
 -1      1649 9.52393E-05-2.85781E-05-2.85691E-05 1.51996E-09-6.16252E-18 4.09428E-18
 -1      1650 9.52394E-05-2.85783E-05-2.85690E-05 2.83602E-09-2.74876E-18 4.48599E-18
 -1      1651 9.52380E-05-2.85744E-05-2.85701E-05 1.38869E-09-3.55604E-18-2.92397E-19
 -1      1652 9.52385E-05-2.85756E-05-2.85698E-05 1.43532E-09-3.09392E-18 3.06265E-20
 -1      1653 9.52386E-05-2.85762E-05-2.85696E-05 2.86935E-09-1.78688E-18 9.45299E-19
 -1      1654 9.52374E-05-2.85725E-05-2.85707E-05 9.94454E-10-2.21178E-18 1.75543E-18
 -1      1655 9.52377E-05-2.85734E-05-2.85704E-05 1.09873E-09-3.03795E-18-1.75046E-19
 -1      1656 9.52379E-05-2.85742E-05-2.85701E-05 2.41104E-09-9.56214E-19-5.20809E-19
 -1      1657 9.52370E-05-2.85716E-05-2.85709E-05 6.38164E-10-2.00656E-18-3.13827E-19
 -1      1658 9.52372E-05-2.85720E-05-2.85708E-05 8.44430E-10-1.51444E-18 9.02668E-19
 -1      1659 9.52372E-05-2.85727E-05-2.85705E-05 1.84605E-09-7.10579E-19 1.78763E-18
 -1      1660 9.52366E-05-2.85717E-05-2.85707E-05 1.30596E-09-1.85516E-19 6.73595E-19
 -1      1661 1.87132E-05-5.84081E-05 1.16846E-05-3.95105E-06 1.27398E-17 5.80281E-18
 -1      1662 2.16090E-05-6.76986E-05 1.38200E-05 2.28967E-06 6.58420E-18 4.76456E-18
 -1      1663 1.93332E-05-3.58531E-05 2.84735E-06 3.90182E-06 1.78063E-17 9.43806E-18
 -1      1664 2.31649E-05-5.61010E-05 8.31551E-06 6.57106E-07 1.50467E-17 6.27061E-18
 -1      1665 3.40462E-05-1.10289E-05-1.20041E-05 2.82617E-05 1.84272E-17 1.37698E-17
 -1      1666 2.85996E-05-3.08958E-05-3.69754E-06 1.12833E-05 1.80096E-17 1.04270E-17
 -1      1667 8.08417E-05-5.25760E-06-3.15881E-05 5.99508E-05 1.55388E-17 1.59767E-17
 -1      1668 5.49669E-05-1.10672E-05-2.11421E-05 3.67738E-05 1.74167E-17 1.41455E-17
 -1      1669 1.39054E-04-1.46415E-05-4.97823E-05 7.87426E-05 1.21825E-17 1.56803E-17
 -1      1670 9.98324E-05-3.14042E-06-4.09603E-05 6.63246E-05 1.52923E-17 1.67577E-17
 -1      1671 2.03628E-04-4.08424E-05-6.42835E-05 6.92091E-05 7.19332E-18 8.88792E-18
 -1      1672 1.62057E-04-2.07763E-05-5.73503E-05 7.66566E-05 1.09449E-17 1.37253E-17
 -1      1673 2.45720E-04-6.05965E-05-7.29935E-05 2.79485E-05 4.62882E-18-2.19212E-18
 -1      1674 2.19388E-04-4.59243E-05-6.91810E-05 5.59100E-05 6.51538E-18 5.40915E-18
 -1      1675 2.48152E-04-6.12415E-05-7.38724E-05-2.24947E-05 5.76935E-18-1.34818E-17
 -1      1676 2.52880E-04-6.35730E-05-7.46762E-05 1.27804E-05 4.60024E-18-5.64156E-18
 -1      1677 2.06096E-04-4.13110E-05-6.61796E-05-5.96900E-05 1.07624E-17-2.18933E-17
 -1      1678 2.38877E-04-5.84495E-05-7.10894E-05-3.69818E-05 7.03133E-18-1.65616E-17
 -1      1679 1.39057E-04-1.60221E-05-5.10560E-05-6.82500E-05 1.70931E-17-2.53890E-17
 -1      1680 1.85252E-04-3.56083E-05-5.96223E-05-6.75257E-05 1.25846E-17-2.35077E-17
 -1      1681 7.57090E-05-1.57720E-06-3.29452E-05-5.37592E-05 2.21914E-17-2.44581E-17
 -1      1682 1.11663E-04-8.16391E-06-4.24595E-05-7.15232E-05 1.95919E-17-2.65901E-17
 -1      1683 3.76753E-05-1.04578E-05-1.52636E-05-2.57958E-05 2.25387E-17-1.83662E-17
 -1      1684 5.44338E-05-2.71880E-07-2.40961E-05-4.67252E-05 2.31333E-17-2.30173E-17
 -1      1685 2.23105E-05-3.29677E-05-5.63735E-07-5.11069E-06 1.79851E-17-1.12422E-17
 -1      1686 2.36518E-05-1.33575E-05-7.59529E-06-1.71127E-05 2.19534E-17-1.60809E-17
 -1      1687 1.96448E-05-5.28098E-05 8.60667E-06-5.15309E-08 7.98159E-18-6.29473E-18
 -1      1688 1.60476E-05-3.70776E-05 4.48245E-06-1.51025E-08 1.49044E-17-9.54611E-18
 -1      1689 1.84906E-05-5.97561E-05 1.17837E-05-2.68349E-06-3.50598E-18-4.50240E-18
 -1      1690 1.74908E-05-5.73727E-05 1.13338E-05 5.60594E-06 5.06801E-18-4.79357E-18
 -1      1691 1.50738E-05-4.35790E-05 7.27707E-06-2.83786E-06-1.37905E-17-7.37077E-18
 -1      1692 1.93078E-05-5.73207E-05 1.03741E-05 7.70949E-07-6.86647E-18-5.02746E-18
 -1      1693 2.30243E-05-1.85108E-05-4.83201E-06 1.66762E-05-1.88566E-17-1.32376E-17
 -1      1694 2.28828E-05-3.79514E-05 1.88991E-06 7.29821E-06-1.45944E-17-8.93228E-18
 -1      1695 4.30429E-05 6.65553E-07-1.99433E-05 4.04588E-05-2.27420E-17-1.98816E-17
 -1      1696 3.16811E-05-1.28349E-05-1.16482E-05 2.18781E-05-2.18348E-17-1.55680E-17
 -1      1697 8.94806E-05-1.06350E-06-3.67872E-05 6.66194E-05-1.98621E-17-2.34264E-17
 -1      1698 6.17451E-05 7.64742E-08-2.81023E-05 4.80248E-05-2.21338E-17-2.11131E-17
 -1      1699 1.54285E-04-2.15488E-05-5.34140E-05 7.58325E-05-1.42098E-17-2.29182E-17
 -1      1700 1.12390E-04-5.46793E-06-4.50196E-05 6.93165E-05-1.83014E-17-2.38084E-17
 -1      1701 2.16914E-04-4.89872E-05-6.67488E-05 4.95313E-05-8.18213E-18-1.46952E-17
 -1      1702 1.76963E-04-2.89855E-05-6.02572E-05 6.51908E-05-1.21652E-17-1.97689E-17
 -1      1703 2.49526E-04-6.32096E-05-7.34991E-05 6.99727E-06-4.71713E-18-5.98217E-18
 -1      1704 2.32977E-04-5.42528E-05-7.12471E-05 3.84415E-05-6.49928E-18-1.28817E-17
 -1      1705 2.39278E-04-5.67238E-05-7.23127E-05-3.97100E-05-5.01020E-18 4.04035E-18
 -1      1706 2.51972E-04-6.42868E-05-7.39414E-05-8.40032E-06-4.10515E-18-2.59896E-18
 -1      1707 1.90505E-04-3.32199E-05-6.33369E-05-6.71484E-05-8.25825E-18 1.17331E-17
 -1      1708 2.24542E-04-5.10992E-05-6.85850E-05-4.98706E-05-5.89546E-18 6.55434E-18
 -1      1709 1.31217E-04-9.78795E-06-4.99821E-05-7.53469E-05-1.31307E-17 1.68839E-17
 -1      1710 1.71475E-04-2.69690E-05-5.74853E-05-7.70931E-05-9.39952E-18 1.51483E-17
 -1      1711 7.73088E-05-1.86667E-07-3.35036E-05-5.75433E-05-1.60445E-17 1.65358E-17
 -1      1712 1.09405E-04-5.47488E-06-4.21826E-05-7.41954E-05-1.40607E-17 1.76640E-17
 -1      1713 4.12507E-05-9.69695E-06-1.64310E-05-3.03442E-05-1.60377E-17 1.29977E-17
 -1      1714 5.80738E-05 2.20981E-07-2.51210E-05-5.11154E-05-1.62969E-17 1.62664E-17
 -1      1715 2.56112E-05-3.37436E-05-1.42367E-06-8.14446E-06-1.33018E-17 8.38923E-18
 -1      1716 2.80619E-05-1.37976E-05-8.71949E-06-2.20082E-05-1.54905E-17 1.13634E-17
 -1      1717 2.28627E-05-5.92772E-05 9.44320E-06 5.13518E-07-5.41593E-18 5.36881E-18
 -1      1718 1.83902E-05-3.97065E-05 4.48763E-06-1.37117E-06-1.14858E-17 7.93278E-18
 -1      1719 2.23677E-05-7.12616E-05 1.45205E-05-2.59475E-06 4.48875E-18 4.32453E-18
 -1      1720 1.98233E-05-6.34779E-05 1.27017E-05 5.17613E-06-3.12894E-18 5.09564E-18
 -1      1721 1.16687E-04-3.26523E-05-3.53403E-05 4.47899E-05 9.40757E-18 8.46779E-18
 -1      1722 7.51508E-05-3.56142E-05-1.80554E-05 4.07909E-05 9.65109E-18 8.60162E-18
 -1      1723 9.52370E-05-2.85712E-05-2.85711E-05-1.08777E-10-2.04443E-18 8.67445E-19
 -1      1724 9.52369E-05-2.85716E-05-2.85709E-05-6.71284E-10-6.66090E-19 3.45151E-18
 -1      1725 1.82283E-05-4.19609E-05 6.31084E-06 1.52416E-05 6.69029E-18 7.30502E-18
 -1      1726 3.89399E-05-3.87058E-05-3.11321E-06 2.87683E-05 9.55877E-18 7.78381E-18
 -1      1727 1.08946E-05-4.44094E-05 1.01351E-05 9.33138E-07 3.30597E-18 8.47668E-18
 -1      1728 1.57682E-04-3.03237E-05-5.15806E-05 4.53603E-05 9.56597E-18 6.41627E-18
 -1      1729 1.91397E-04-3.24724E-05-6.35017E-05 3.07725E-05 9.01497E-18 1.63731E-18
 -1      1730 2.07920E-04-3.29443E-05-6.96636E-05 9.40958E-06 8.66091E-18-3.58994E-18
 -1      1731 2.07191E-04-3.45506E-05-6.86594E-05-1.08860E-05 9.19666E-18-9.15092E-18
 -1      1732 1.82033E-04-3.33983E-05-5.97707E-05-2.85388E-05 1.09137E-17-1.28825E-17
 -1      1733 1.42133E-04-3.10311E-05-4.55436E-05-4.19018E-05 1.27944E-17-1.56362E-17
 -1      1734 9.41785E-05-2.75083E-05-2.88379E-05-4.36183E-05 1.39947E-17-1.65400E-17
 -1      1735 5.42390E-05-2.88698E-05-1.30930E-05-3.39043E-05 1.30655E-17-1.43943E-17
 -1      1736 2.67835E-05-3.24616E-05-9.23440E-07-2.15025E-05 8.84599E-18-1.16382E-17
 -1      1737 1.16799E-05-3.56236E-05 6.37891E-06-8.45453E-06 3.75236E-18-9.78196E-18
 -1      1738 9.94383E-06-3.77151E-05 7.67702E-06 5.70291E-06-2.52522E-18-8.94297E-18
 -1      1739 2.23012E-05-3.16099E-05 1.07744E-06 2.21193E-05-7.16505E-18-9.98631E-18
 -1      1740 4.73837E-05-2.89549E-05-1.01980E-05 3.39223E-05-1.04803E-17-1.20042E-17
 -1      1741 8.04017E-05-2.47832E-05-2.45623E-05 4.31795E-05-1.38786E-17-1.43064E-17
 -1      1742 1.22817E-04-2.59974E-05-4.01859E-05 4.69970E-05-1.31388E-17-1.49467E-17
 -1      1743 1.65030E-04-3.01726E-05-5.46484E-05 3.70028E-05-1.13819E-17-1.20770E-17
 -1      1744 1.94064E-04-3.16727E-05-6.51880E-05 1.75372E-05-9.54733E-18-8.35683E-18
 -1      1745 2.10441E-04-3.46634E-05-6.99075E-05-1.59740E-06-8.32591E-18-3.81641E-18
 -1      1746 1.99736E-04-3.27528E-05-6.67368E-05-2.10535E-05-7.73405E-18 7.87317E-19
 -1      1747 1.73583E-04-2.99306E-05-5.77446E-05-3.81220E-05-8.31103E-18 5.19316E-18
 -1      1748 1.37268E-04-2.77386E-05-4.47347E-05-4.82776E-05-9.01243E-18 9.00904E-18
 -1      1749 9.67851E-05-2.78968E-05-2.93065E-05-4.65688E-05-8.73460E-18 1.01068E-17
 -1      1750 6.06631E-05-3.21056E-05-1.39776E-05-3.79322E-05-7.75967E-18 9.23097E-18
 -1      1751 3.35249E-05-3.89164E-05-1.01161E-06-2.59055E-05-4.84164E-18 8.38041E-18
 -1      1752 1.70832E-05-4.53617E-05 7.73276E-06-1.32102E-05-1.06980E-18 8.65710E-18
 -1      1753 1.28265E-04-2.91972E-05-4.25210E-05-1.65896E-05-2.50121E-18 9.91960E-18
 -1      1754 1.00852E-04-1.62376E-05-3.63922E-05-9.67077E-06-2.34995E-18-2.83068E-18
 -1      1755 1.04436E-04-1.73314E-05-3.75291E-05-1.25865E-05-3.01205E-18-1.83155E-18
 -1      1756 1.08459E-04-1.94383E-05-3.83431E-05-1.43746E-05-3.19742E-18-5.54489E-19
 -1      1757 1.12170E-04-2.15148E-05-3.94352E-05-1.68627E-05-3.63142E-18 1.19972E-18
 -1      1758 1.09303E-04-2.32907E-05-3.69142E-05-1.24645E-05-3.25194E-18-8.31998E-19
 -1      1759 8.44370E-05-1.08605E-05-3.16287E-05 1.22284E-06-4.48742E-19-4.93918E-18
 -1      1760 8.89248E-05-1.21532E-05-3.29311E-05-1.16747E-06-8.90602E-19-4.65543E-18
 -1      1761 7.39469E-05-6.51310E-06-2.90162E-05 5.23234E-06 3.18789E-19-5.54301E-18
 -1      1762 7.91434E-05-8.28863E-06-3.03291E-05 3.64556E-06-9.03943E-21-5.28854E-18
 -1      1763 8.40538E-05-1.31132E-05-3.05084E-05 3.15093E-06-1.46437E-19-4.87502E-18
 -1      1764 6.33779E-05-1.37727E-06-2.66922E-05 6.60683E-06 8.19048E-19-6.02745E-18
 -1      1765 6.82488E-05-3.24509E-06-2.77853E-05 6.26761E-06 6.00758E-19-5.84786E-18
 -1      1766 7.23511E-05-7.30686E-06-2.79588E-05 7.00022E-06 6.36082E-19-5.61570E-18
 -1      1767 5.57111E-05 2.85503E-06-2.51797E-05 4.86216E-06 9.90168E-19-6.40216E-18
 -1      1768 5.87323E-05 1.59132E-06-2.57926E-05 5.75889E-06 9.41530E-19-6.31826E-18
 -1      1769 6.11790E-05-1.02388E-06-2.57880E-05 7.48301E-06 1.07618E-18-6.22577E-18
 -1      1770 5.39817E-05 4.17949E-06-2.49344E-05 1.10632E-06 9.44204E-19-6.42590E-18
 -1      1771 5.39117E-05 4.12206E-06-2.48767E-05 2.56630E-06 9.59854E-19-6.49838E-18
 -1      1772 5.41257E-05 3.29504E-06-2.45452E-05 4.32434E-06 1.13956E-18-6.63888E-18
 -1      1773 5.91832E-05 1.83598E-06-2.60971E-05-2.25093E-06 9.39439E-19-6.03437E-18
 -1      1774 5.59285E-05 3.04058E-06-2.53506E-05-1.26368E-06 8.95105E-19-6.26557E-18
 -1      1775 5.42670E-05 3.41457E-06-2.46558E-05-5.24400E-07 9.68552E-19-6.50048E-18
 -1      1776 6.92964E-05-2.95292E-06-2.83648E-05-3.06206E-06 1.22983E-18-5.19009E-18
 -1      1777 6.40744E-05-1.07392E-06-2.71189E-05-3.26204E-06 1.02946E-18-5.58761E-18
 -1      1778 6.17133E-05-7.54240E-07-2.61249E-05-3.92637E-06 9.43667E-19-5.82237E-18
 -1      1779 8.15803E-05-8.39408E-06-3.13369E-05-7.37446E-07 1.84997E-18-4.04748E-18
 -1      1780 7.56304E-05-6.42559E-06-2.97829E-05-2.24180E-06 1.45748E-18-4.65871E-18
 -1      1781 7.37711E-05-7.21748E-06-2.85953E-05-3.86065E-06 1.30946E-18-4.77663E-18
 -1      1782 9.35614E-05-1.31560E-05-3.45194E-05 3.94172E-06 2.59478E-18-2.41576E-18
 -1      1783 8.78677E-05-1.14322E-05-3.28814E-05 1.48450E-06 2.13918E-18-3.27976E-18
 -1      1784 8.71146E-05-1.36890E-05-3.15707E-05-4.16984E-07 1.95696E-18-3.35095E-18
 -1      1785 1.04906E-04-1.75952E-05-3.76092E-05 9.51494E-06 3.30134E-18-9.69323E-20
 -1      1786 9.93521E-05-1.57244E-05-3.60008E-05 6.60222E-06 2.93564E-18-1.46177E-18
 -1      1787 9.95290E-05-1.90710E-05-3.45662E-05 4.75620E-06 2.78375E-18-1.55870E-18
 -1      1788 1.17542E-04-2.40588E-05-4.03144E-05 1.42165E-05 3.56692E-18 4.10562E-18
 -1      1789 1.10918E-04-2.06669E-05-3.88789E-05 1.17080E-05 3.32782E-18 1.69809E-18
 -1      1790 1.11399E-04-2.44186E-05-3.72634E-05 9.41775E-06 3.33418E-18 1.08852E-18
 -1      1791 1.28483E-04-3.35846E-05-4.11774E-05 1.20039E-05 3.19596E-18 9.00481E-18
 -1      1792 1.21955E-04-2.70375E-05-4.06838E-05 1.40862E-05 3.35164E-18 5.88127E-18
 -1      1793 1.20393E-04-3.02196E-05-3.87539E-05 1.03477E-05 3.56054E-18 4.29165E-18
 -1      1794 1.25865E-04-3.50988E-05-3.91441E-05 7.37636E-06 3.18286E-18 8.03203E-18
 -1      1795 1.20400E-04-2.52106E-05-4.04578E-05-1.85019E-05-3.25922E-18 4.43623E-18
 -1      1796 1.22907E-04-3.69068E-05-3.69191E-05 4.56717E-06 2.49377E-18 6.68955E-18
 -1      1797 1.25255E-04-3.68287E-05-3.79673E-05 5.67900E-06 2.59991E-18 7.57697E-18
 -1      1798 1.23205E-04-3.48344E-05-3.78683E-05 7.65431E-06 3.05525E-18 5.50626E-18
 -1      1799 1.19738E-04-2.92332E-05-3.84887E-05-1.42473E-05-3.38093E-18 3.28559E-18
 -1      1800 1.17349E-04-3.46200E-05-3.53451E-05-7.82775E-06-2.78406E-18 3.06558E-18
 -1      1801 1.14752E-04-3.45527E-05-3.44066E-05-7.27453E-06-2.43968E-18 2.34366E-18
 -1      1802 1.13680E-04-3.47031E-05-3.37664E-05-7.44474E-06-2.11527E-18 2.47500E-18
 -1      1803 1.11483E-04-3.42350E-05-3.31095E-05-7.90437E-06-1.83119E-18 1.93600E-18
 -1      1804 1.14688E-04-3.47494E-05-3.42573E-05-9.44743E-06-2.57293E-18 1.30112E-18
 -1      1805 1.10159E-04-3.37911E-05-3.26941E-05-8.54706E-06-1.36772E-18 1.88586E-18
 -1      1806 1.07793E-04-3.27882E-05-3.21211E-05-8.97797E-06-9.60678E-19 1.60337E-18
 -1      1807 1.12418E-04-3.47402E-05-3.32768E-05-1.02491E-05-1.90656E-18 1.24892E-18
 -1      1808 1.06111E-04-3.17966E-05-3.18457E-05-9.14231E-06-9.27532E-19 1.38265E-18
 -1      1809 1.03749E-04-3.04498E-05-3.13527E-05-8.81653E-06-1.02969E-18 1.12802E-18
 -1      1810 1.09398E-04-3.30192E-05-3.27164E-05-1.11960E-05-1.38362E-18 1.19973E-18
 -1      1811 1.01950E-04-2.91844E-05-3.11837E-05-7.73690E-06-1.30672E-18 6.28207E-19
 -1      1812 1.00107E-04-2.79644E-05-3.08362E-05-6.29374E-06-1.44900E-18-3.22600E-21
 -1      1813 1.05758E-04-3.01063E-05-3.24322E-05-1.02684E-05-1.59303E-18 4.97630E-19
 -1      1814 9.88379E-05-2.70391E-05-3.07420E-05-3.84915E-06-1.59477E-18-5.10602E-19
 -1      1815 9.81002E-05-2.65458E-05-3.06017E-05-1.57959E-06-1.68618E-18-9.66709E-19
 -1      1816 1.02490E-04-2.72472E-05-3.23025E-05-6.36235E-06-1.93632E-18-3.88725E-19
 -1      1817 9.79703E-05-2.65336E-05-3.05511E-05 1.42445E-06-1.87016E-18-1.25464E-18
 -1      1818 9.85758E-05-2.70404E-05-3.06362E-05 3.64581E-06-1.76769E-18-1.85217E-18
 -1      1819 1.01009E-04-2.60453E-05-3.22037E-05-1.96554E-07-2.12531E-18-1.34016E-18
 -1      1820 9.95391E-05-2.79220E-05-3.06180E-05 5.95230E-06-1.71189E-18-2.43476E-18
 -1      1821 1.01170E-04-2.91324E-05-3.08885E-05 7.25575E-06-1.31801E-18-2.72229E-18
 -1      1822 1.01961E-04-2.72537E-05-3.20685E-05 5.80448E-06-2.03694E-18-2.37828E-18
 -1      1823 1.02558E-04-3.03342E-05-3.09050E-05 8.05336E-06-1.08058E-18-3.24473E-18
 -1      1824 1.04548E-04-3.16436E-05-3.12712E-05 8.12354E-06-7.98554E-19-3.62741E-18
 -1      1825 1.04551E-04-3.00840E-05-3.19120E-05 9.23006E-06-1.65757E-18-3.37778E-18
 -1      1826 1.05622E-04-3.25430E-05-3.13199E-05 7.46907E-06-7.45994E-19-3.82052E-18
 -1      1827 1.07328E-04-3.34714E-05-3.16746E-05 6.59975E-06-3.37837E-19-4.22528E-18
 -1      1828 1.07235E-04-3.29543E-05-3.17938E-05 9.26734E-06-9.68519E-19-3.94733E-18
 -1      1829 1.07749E-04-3.38144E-05-3.17285E-05 5.13654E-06-2.40385E-19-4.16473E-18
 -1      1830 1.08808E-04-3.42157E-05-3.19827E-05 3.87534E-06-9.03546E-20-4.23101E-18
 -1      1831 1.08849E-04-3.46889E-05-3.17409E-05 6.81028E-06-3.79239E-19-4.31800E-18
 -1      1832 1.08626E-04-3.40906E-05-3.20042E-05 2.28863E-06-2.86602E-20-4.36289E-18
 -1      1833 1.08978E-04-3.40630E-05-3.21145E-05 1.09596E-06-7.66300E-21-4.07940E-18
 -1      1834 1.09100E-04-3.50394E-05-3.17132E-05 3.39074E-06-9.60654E-20-4.31198E-18
 -1      1835 1.08405E-04-3.36845E-05-3.20797E-05-1.90723E-07-2.99075E-20-3.71332E-18
 -1      1836 1.08176E-04-3.34035E-05-3.20495E-05-1.07722E-06 2.82399E-20-3.38395E-18
 -1      1837 1.08295E-04-3.44175E-05-3.16495E-05 2.24608E-07 1.83760E-19-3.71021E-18
 -1      1838 1.07416E-04-3.29517E-05-3.19549E-05-1.92089E-06-3.00435E-19-3.28607E-18
 -1      1839 1.06799E-04-3.25654E-05-3.18162E-05-2.45302E-06-1.93183E-19-3.11713E-18
 -1      1840 1.06892E-04-3.33633E-05-3.15096E-05-2.09588E-06-5.62483E-23-3.26789E-18
 -1      1841 1.05990E-04-3.21415E-05-3.16735E-05-2.88564E-06-1.69680E-19-3.05309E-18
 -1      1842 1.05168E-04-3.17428E-05-3.14680E-05-3.11887E-06-3.27448E-20-3.12380E-18
 -1      1843 1.05256E-04-3.22622E-05-3.12859E-05-3.47205E-06-1.20333E-19-2.82231E-18
 -1      1844 1.04387E-04-3.13858E-05-3.12959E-05-3.24251E-06-2.78839E-19-3.56897E-18
 -1      1845 1.03502E-04-3.10217E-05-3.10614E-05-3.26557E-06-1.71049E-19-3.62907E-18
 -1      1846 1.03615E-04-3.13033E-05-3.09960E-05-4.06064E-06-4.46770E-19-2.77979E-18
 -1      1847 1.02789E-04-3.07368E-05-3.08787E-05-3.18934E-06 2.01075E-20-3.72662E-18
 -1      1848 1.01933E-04-3.04255E-05-3.06436E-05-3.08548E-06-2.08702E-19-3.64546E-18
 -1      1849 1.02087E-04-3.05413E-05-3.06689E-05-4.09500E-06-1.63759E-19-3.13316E-18
 -1      1850 1.01307E-04-3.02044E-05-3.04652E-05-2.89855E-06-2.70816E-19-3.39812E-18
 -1      1851 1.00534E-04-2.99490E-05-3.02474E-05-2.73122E-06 3.33912E-19-3.15890E-18
 -1      1852 1.00727E-04-2.99653E-05-3.03336E-05-3.79168E-06 3.37093E-20-3.12966E-18
 -1      1853 9.99986E-05-2.97797E-05-3.00835E-05-2.49679E-06 3.85945E-19-3.48919E-18
 -1      1854 9.93343E-05-2.95761E-05-2.98926E-05-2.30850E-06 1.39904E-19-3.54403E-18
 -1      1855 9.95561E-05-2.95415E-05-3.00132E-05-3.31665E-06 1.55368E-19-2.90810E-18
 -1      1856 9.88875E-05-2.94477E-05-2.97486E-05-2.06685E-06-1.49176E-19-3.32440E-18
 -1      1857 9.83369E-05-2.92892E-05-2.95880E-05-1.88314E-06-3.01512E-19-3.27673E-18
 -1      1858 9.85721E-05-2.92345E-05-2.97227E-05-2.78275E-06 8.58163E-20-2.93632E-18
 -1      1859 9.79720E-05-2.91925E-05-2.94661E-05-1.65737E-06-2.18262E-19-3.03469E-18
 -1      1860 9.75292E-05-2.90717E-05-2.93352E-05-1.49177E-06 2.06008E-19-2.61419E-18
 -1      1861 9.77634E-05-2.90144E-05-2.94699E-05-2.25930E-06-1.39963E-19-2.40832E-18
 -1      1862 9.72373E-05-2.89997E-05-2.92350E-05-1.29325E-06 2.12039E-19-2.26136E-18
 -1      1863 9.68903E-05-2.89094E-05-2.91314E-05-1.15148E-06 4.92729E-19-2.13200E-18
 -1      1864 9.71121E-05-2.88581E-05-2.92571E-05-1.78413E-06 5.34980E-19-1.44061E-18
 -1      1865 9.66614E-05-2.88563E-05-2.90510E-05-9.84182E-07 6.36324E-19-2.57122E-18
 -1      1866 9.63960E-05-2.87904E-05-2.89709E-05-8.67294E-07 5.64718E-19-2.02751E-18
 -1      1867 9.65977E-05-2.87483E-05-2.90829E-05-1.37416E-06 5.38052E-19-1.60709E-18
 -1      1868 9.62199E-05-2.87519E-05-2.89081E-05-7.30826E-07 1.09388E-19-2.88453E-18
 -1      1869 9.60217E-05-2.87048E-05-2.88476E-05-6.37288E-07-1.72702E-19-2.84673E-18
 -1      1870 9.61991E-05-2.86723E-05-2.89439E-05-1.03339E-06 1.62366E-19-2.67713E-18
 -1      1871 9.58890E-05-2.86774E-05-2.87995E-05-5.28931E-07-1.86665E-19-2.62590E-18
 -1      1872 9.57445E-05-2.86448E-05-2.87550E-05-4.55972E-07-2.71934E-19-2.94804E-18
 -1      1873 9.58962E-05-2.86210E-05-2.88354E-05-7.58398E-07 1.16209E-19-2.73978E-18
 -1      1874 9.56465E-05-2.86258E-05-2.87189E-05-3.71973E-07-2.22253E-19-2.21994E-18
 -1      1875 9.55441E-05-2.86039E-05-2.86870E-05-3.16391E-07 6.13084E-20-2.05769E-18
 -1      1876 9.56707E-05-2.85874E-05-2.87526E-05-5.42050E-07 2.68770E-19-1.86873E-18
 -1      1877 9.54735E-05-2.85911E-05-2.86606E-05-2.52735E-07 6.70417E-20-2.14130E-18
 -1      1878 9.54031E-05-2.85772E-05-2.86384E-05-2.11361E-07 4.17879E-19-1.46061E-18
 -1      1879 9.55065E-05-2.85663E-05-2.86907E-05-3.75730E-07 3.00103E-20-1.50244E-18
 -1      1880 9.53536E-05-2.85690E-05-2.86196E-05-1.64210E-07 3.33414E-19-1.50340E-18
 -1      1881 9.53072E-05-2.85608E-05-2.86046E-05-1.34151E-07 5.03520E-19-1.49052E-18
 -1      1882 9.53900E-05-2.85541E-05-2.86455E-05-2.50712E-07 5.14342E-19-1.03164E-18
 -1      1883 9.52736E-05-2.85558E-05-2.85916E-05-1.00064E-07-1.45381E-19-1.80043E-18
 -1      1884 9.52448E-05-2.85515E-05-2.85821E-05-7.88071E-08-3.43678E-19-1.94983E-18
 -1      1885 9.53098E-05-2.85479E-05-2.86134E-05-1.58885E-07-8.38715E-20-1.79635E-18
 -1      1886 9.52230E-05-2.85488E-05-2.85734E-05-5.48344E-08-5.28293E-19-2.39638E-18
 -1      1887 9.52066E-05-2.85472E-05-2.85678E-05-4.02760E-08-9.10387E-19-2.11339E-18
 -1      1888 9.52567E-05-2.85457E-05-2.85913E-05-9.31162E-08-5.74462E-19-2.18990E-18
 -1      1889 9.51933E-05-2.85460E-05-2.85623E-05-2.39661E-08-8.33004E-19-1.72446E-18
 -1      1890 9.51855E-05-2.85461E-05-2.85593E-05-1.43948E-08-9.77852E-19-2.12459E-18
 -1      1891 9.52233E-05-2.85460E-05-2.85766E-05-4.73631E-08-6.33978E-19-1.02622E-18
 -1      1892 9.51782E-05-2.85460E-05-2.85561E-05-3.76487E-09-1.18982E-18-1.52734E-18
 -1      1893 9.51761E-05-2.85471E-05-2.85550E-05 2.17909E-09-6.75434E-20-1.54676E-18
 -1      1894 9.52041E-05-2.85478E-05-2.85674E-05-1.66588E-08-8.21814E-19-5.12315E-19
 -1      1895 9.51729E-05-2.85476E-05-2.85534E-05 8.69681E-09-1.92207E-19-2.29794E-18
 -1      1896 9.51743E-05-2.85492E-05-2.85534E-05 1.20706E-08-8.31250E-19-2.42825E-18
 -1      1897 9.51946E-05-2.85504E-05-2.85621E-05 2.98054E-09-1.22030E-18-1.04050E-18
 -1      1898 9.51739E-05-2.85500E-05-2.85529E-05 1.56897E-08-4.97311E-19-3.04468E-18
 -1      1899 9.51774E-05-2.85519E-05-2.85536E-05 1.72982E-08-5.17165E-19-3.22762E-18
 -1      1900 9.51917E-05-2.85533E-05-2.85595E-05 1.46808E-08-1.07532E-18-1.65444E-18
 -1      1901 9.51785E-05-2.85529E-05-2.85538E-05 1.89391E-08-1.02434E-18-2.33070E-18
 -1      1902 9.51831E-05-2.85548E-05-2.85549E-05 1.93823E-08-6.24395E-19-2.83279E-18
 -1      1903 9.51928E-05-2.85562E-05-2.85587E-05 2.08441E-08-1.64992E-19-9.23216E-19
 -1      1904 9.51852E-05-2.85558E-05-2.85554E-05 1.97285E-08 5.37378E-19-2.75264E-18
 -1      1905 9.51901E-05-2.85576E-05-2.85567E-05 1.94438E-08 7.19607E-19-2.00699E-18
 -1      1906 9.51964E-05-2.85590E-05-2.85590E-05 2.32788E-08 3.45082E-19 3.44343E-19
 -1      1907 9.51927E-05-2.85586E-05-2.85575E-05 1.89907E-08 4.21505E-19-2.75653E-18
 -1      1908 9.51975E-05-2.85602E-05-2.85588E-05 1.82886E-08 4.04287E-19-2.49670E-18
 -1      1909 9.52013E-05-2.85614E-05-2.85600E-05 2.33166E-08 2.66317E-19-4.87014E-19
 -1      1910 9.52001E-05-2.85611E-05-2.85596E-05 1.73862E-08 3.48840E-20-1.99497E-18
 -1      1911 9.52046E-05-2.85625E-05-2.85609E-05 1.64801E-08-5.80789E-19-1.89361E-18
 -1      1912 9.52066E-05-2.85635E-05-2.85613E-05 2.19146E-08 2.37876E-19-8.63451E-19
 -1      1913 9.52072E-05-2.85633E-05-2.85617E-05 1.53667E-08-5.69329E-19-1.98825E-18
 -1      1914 9.52111E-05-2.85645E-05-2.85628E-05 1.43966E-08-5.01045E-19-1.93655E-18
 -1      1915 9.52119E-05-2.85653E-05-2.85628E-05 1.97403E-08-1.18269E-18-2.73788E-19
 -1      1916 9.52135E-05-2.85652E-05-2.85636E-05 1.32265E-08-9.55927E-19-1.58893E-18
 -1      1917 9.52170E-05-2.85662E-05-2.85646E-05 1.22778E-08-3.49893E-19-6.53872E-19
 -1      1918 9.52169E-05-2.85668E-05-2.85643E-05 1.72408E-08-5.09293E-19-3.38688E-19
 -1      1919 9.52190E-05-2.85668E-05-2.85653E-05 1.11424E-08 5.62023E-19-1.25495E-18
 -1      1920 9.52220E-05-2.85676E-05-2.85662E-05 1.02595E-08 8.68736E-19-1.07494E-18
 -1      1921 9.52213E-05-2.85680E-05-2.85657E-05 1.46974E-08-3.30411E-19 8.90424E-20
 -1      1922 9.52238E-05-2.85681E-05-2.85668E-05 9.20349E-09 9.23524E-19-2.44186E-19
 -1      1923 9.52262E-05-2.85688E-05-2.85675E-05 8.39989E-09 1.44348E-18 6.67890E-20
 -1      1924 9.52252E-05-2.85691E-05-2.85669E-05 1.22680E-08 1.22142E-18 7.70128E-19
 -1      1925 9.52277E-05-2.85692E-05-2.85680E-05 7.43145E-09 1.58422E-18 9.82525E-21
 -1      1926 9.52297E-05-2.85697E-05-2.85686E-05 6.69592E-09 2.12864E-18 8.01306E-19
 -1      1927 9.52285E-05-2.85699E-05-2.85679E-05 1.00174E-08 1.20494E-18 1.10999E-18
 -1      1928 9.52309E-05-2.85701E-05-2.85690E-05 5.80043E-09 7.77514E-19 7.41355E-19
 -1      1929 9.52324E-05-2.85705E-05-2.85694E-05 5.10656E-09 5.94589E-19 7.43719E-19
 -1      1930 9.52312E-05-2.85706E-05-2.85688E-05 7.94086E-09 1.57929E-18 7.71540E-19
 -1      1931 9.52334E-05-2.85708E-05-2.85697E-05 4.25210E-09 1.32455E-18 8.54163E-19
 -1      1932 9.52346E-05-2.85712E-05-2.85700E-05 3.56154E-09 1.82369E-18 1.19355E-18
 -1      1933 9.52334E-05-2.85713E-05-2.85695E-05 5.99599E-09 8.12755E-19 8.24422E-19
 -1      1934 9.52353E-05-2.85714E-05-2.85703E-05 2.76630E-09 2.04141E-18 1.22075E-18
 -1      1935 9.52360E-05-2.85716E-05-2.85705E-05 2.08976E-09 1.40037E-18 1.36423E-18
 -1      1936 9.52363E-05-2.85720E-05-2.85704E-05 2.48038E-09 5.50780E-19 1.68416E-18
 -1      1937 9.52351E-05-2.85718E-05-2.85700E-05 4.16636E-09 2.11248E-18 1.89944E-18
 -1      1938 1.20051E-04-3.70545E-05-3.55727E-05 5.72781E-06 1.76929E-18 5.58095E-18
 -1      1939 1.22033E-04-3.73396E-05-3.62622E-05 5.02151E-06 1.92848E-18 6.34833E-18
 -1      1940 1.21405E-04-3.70897E-05-3.61325E-05 6.34754E-06 2.41608E-18 4.73984E-18
 -1      1941 1.16419E-04-3.61346E-05-3.43960E-05 8.45769E-06 1.24773E-18 4.73735E-18
 -1      1942 1.18819E-04-3.69247E-05-3.50768E-05 7.02461E-06 1.36192E-18 5.19919E-18
 -1      1943 1.19226E-04-3.74082E-05-3.50343E-05 8.33386E-06 1.69053E-18 4.25706E-18
 -1      1944 1.11476E-04-3.38512E-05-3.32380E-05 1.05948E-05 1.08502E-18 4.39168E-18
 -1      1945 1.14504E-04-3.52459E-05-3.39642E-05 9.49300E-06 9.43423E-19 4.50721E-18
 -1      1946 1.16051E-04-3.61018E-05-3.42234E-05 1.12562E-05 1.24300E-18 3.63704E-18
 -1      1947 1.05828E-04-3.05415E-05-3.22440E-05 9.78284E-06 1.02844E-18 3.36263E-18
 -1      1948 1.08987E-04-3.22312E-05-3.28939E-05 1.01420E-05 1.11880E-18 4.08014E-18
 -1      1949 1.11548E-04-3.30376E-05-3.36284E-05 1.23987E-05 1.26449E-18 3.10124E-18
 -1      1950 1.01467E-04-2.77321E-05-3.16283E-05 4.91775E-06 1.90479E-18 1.93258E-18
 -1      1951 1.03695E-04-2.89219E-05-3.20280E-05 7.19783E-06 1.34269E-18 2.61188E-18
 -1      1952 1.06794E-04-2.92854E-05-3.32616E-05 9.37796E-06 1.75234E-18 1.91481E-18
 -1      1953 1.00610E-04-2.72556E-05-3.15165E-05-2.27238E-06 2.28402E-18 3.17505E-19
 -1      1954 1.00922E-04-2.72247E-05-3.15518E-05 1.02619E-06 2.04866E-18 1.15412E-18
 -1      1955 1.04017E-04-2.70184E-05-3.30860E-05 2.20264E-06 2.51511E-18 3.72365E-19
 -1      1956 1.03697E-04-2.94874E-05-3.18644E-05-8.09632E-06 1.93605E-18-1.38458E-18
 -1      1957 1.01972E-04-2.82555E-05-3.15528E-05-5.49927E-06 2.26555E-18-2.42291E-19
 -1      1958 1.04779E-04-2.78597E-05-3.30264E-05-5.87636E-06 2.64392E-18-9.28884E-19
 -1      1959 1.08681E-04-3.27643E-05-3.25407E-05-9.88715E-06 7.22567E-19-2.27190E-18
 -1      1960 1.05883E-04-3.11512E-05-3.20094E-05-9.07961E-06 1.23392E-18-1.79889E-18
 -1      1961 1.08297E-04-3.11587E-05-3.30653E-05-1.06574E-05 1.78731E-18-1.91207E-18
 -1      1962 1.12991E-04-3.52370E-05-3.32797E-05-7.88397E-06-2.38413E-19-2.00241E-18
 -1      1963 1.10373E-04-3.40262E-05-3.27365E-05-8.69295E-06 3.87518E-19-2.15379E-18
 -1      1964 1.12142E-04-3.45972E-05-3.32118E-05-1.05757E-05 4.79100E-19-2.68574E-18
 -1      1965 1.15226E-04-3.61884E-05-3.38188E-05-4.09104E-06 9.22339E-20-1.92317E-18
 -1      1966 1.13591E-04-3.56600E-05-3.34395E-05-5.65385E-06-1.48085E-19-1.68127E-18
 -1      1967 1.14452E-04-3.65160E-05-3.33902E-05-7.06778E-06-2.24570E-19-2.44773E-18
 -1      1968 1.15323E-04-3.58965E-05-3.40007E-05-4.14537E-07 3.76010E-19-2.18764E-18
 -1      1969 1.14854E-04-3.59392E-05-3.38675E-05-1.93832E-06 1.02107E-19-1.76470E-18
 -1      1970 1.14771E-04-3.66704E-05-3.34793E-05-2.56592E-06 1.15587E-19-2.48344E-18
 -1      1971 1.13895E-04-3.49604E-05-3.38123E-05 2.18922E-06 4.25621E-19-1.50219E-18
 -1      1972 1.14366E-04-3.53319E-05-3.39118E-05 1.09654E-06 3.74845E-19-1.90124E-18
 -1      1973 1.13567E-04-3.57181E-05-3.33813E-05 1.20463E-06 3.08221E-19-2.31963E-18
 -1      1974 1.11634E-04-3.38368E-05-3.33405E-05 3.59452E-06 2.75458E-19-1.16697E-18
 -1      1975 1.12691E-04-3.43405E-05-3.36054E-05 2.99043E-06 3.99512E-19-1.28181E-18
 -1      1976 1.11512E-04-3.43771E-05-3.30741E-05 3.61434E-06 3.25840E-19-1.71057E-18
 -1      1977 1.09070E-04-3.27649E-05-3.27088E-05 4.06819E-06-4.29169E-19-1.47989E-18
 -1      1978 1.10394E-04-3.32832E-05-3.30603E-05 3.84833E-06-1.32718E-19-1.16832E-18
 -1      1979 1.09132E-04-3.30803E-05-3.26040E-05 4.75305E-06-8.84488E-20-1.55661E-18
 -1      1980 1.06542E-04-3.18363E-05-3.20255E-05 3.95278E-06-3.03078E-19-1.41785E-18
 -1      1981 1.07906E-04-3.23109E-05-3.24001E-05 3.97945E-06-5.91240E-19-1.64051E-18
 -1      1982 1.06751E-04-3.19909E-05-3.20454E-05 4.97960E-06-2.83762E-19-1.31216E-18
 -1      1983 1.04238E-04-3.10691E-05-3.13661E-05 3.52883E-06 6.35845E-19-2.07675E-18
 -1      1984 1.05507E-04-3.14771E-05-3.17222E-05 3.68757E-06 3.84272E-19-1.91068E-18
 -1      1985 1.04547E-04-3.11306E-05-3.14667E-05 4.66095E-06 5.39229E-19-1.89710E-18
 -1      1986 1.02242E-04-3.04519E-05-3.07735E-05 2.98471E-06 5.54568E-19-2.31698E-18
 -1      1987 1.03351E-04-3.07890E-05-3.10890E-05 3.19770E-06 8.45241E-19-2.50187E-18
 -1      1988 1.02606E-04-3.04685E-05-3.09172E-05 4.07611E-06 1.04052E-18-2.38970E-18
 -1      1989 1.00576E-04-2.99639E-05-3.02665E-05 2.43079E-06-2.70738E-19-3.05686E-18
 -1      1990 1.01502E-04-3.02348E-05-3.05330E-05 2.65177E-06 1.12995E-19-2.44072E-18
 -1      1991 1.00955E-04-2.99638E-05-3.04258E-05 3.40549E-06 3.02877E-19-2.27211E-18
 -1      1992 9.92228E-05-2.95839E-05-2.98480E-05 1.92360E-06 2.29867E-19-3.44753E-18
 -1      1993 9.99729E-05-2.97967E-05-3.00654E-05 2.12834E-06-2.30294E-19-3.48897E-18
 -1      1994 9.95899E-05-2.95807E-05-3.00051E-05 2.75190E-06-3.22948E-20-2.89670E-18
 -1      1995 9.81500E-05-2.92920E-05-2.95121E-05 1.48662E-06 1.42689E-18-3.60557E-18
 -1      1996 9.87417E-05-2.94560E-05-2.96847E-05 1.66460E-06 1.01198E-18-3.05934E-18
 -1      1997 9.84872E-05-2.92911E-05-2.96568E-05 2.16606E-06 8.07170E-19-3.21085E-18
 -1      1998 9.73167E-05-2.90712E-05-2.92488E-05 1.12484E-06 4.42901E-19-3.49826E-18
 -1      1999 9.77733E-05-2.91951E-05-2.93827E-05 1.27330E-06 1.07619E-18-3.21295E-18
 -1      2000 9.76144E-05-2.90737E-05-2.93761E-05 1.66722E-06 1.11987E-18-3.18614E-18
 -1      2001 9.66818E-05-2.89067E-05-2.90467E-05 8.33836E-07-1.04286E-18-3.02154E-18
 -1      2002 9.70270E-05-2.89988E-05-2.91484E-05 9.54065E-07-6.64135E-19-3.25339E-18
 -1      2003 9.69366E-05-2.89121E-05-2.91549E-05 1.25712E-06-3.87490E-19-2.25524E-18
 -1      2004 9.62073E-05-2.87865E-05-2.88945E-05 6.05065E-07-1.75007E-18-2.14154E-18
 -1      2005 9.64631E-05-2.88535E-05-2.89702E-05 7.00197E-07-1.38539E-18-3.11257E-18
 -1      2006 9.64198E-05-2.87937E-05-2.89841E-05 9.28795E-07-1.53103E-18-2.16149E-18
 -1      2007 9.58598E-05-2.87005E-05-2.87823E-05 4.28749E-07-6.68669E-19-2.22837E-18
 -1      2008 9.60454E-05-2.87481E-05-2.88375E-05 5.02539E-07-1.04170E-18-2.15014E-18
 -1      2009 9.60332E-05-2.87084E-05-2.88548E-05 6.71567E-07-1.22756E-18-1.90243E-18
 -1      2010 9.56110E-05-2.86405E-05-2.87013E-05 2.95362E-07 4.15728E-19-1.24756E-18
 -1      2011 9.57424E-05-2.86734E-05-2.87406E-05 3.51553E-07-5.97299E-20-1.83221E-18
 -1      2012 9.57496E-05-2.86484E-05-2.87589E-05 4.73892E-07-1.72994E-19-2.20766E-18
 -1      2013 9.54373E-05-2.85999E-05-2.86442E-05 1.96321E-07 1.04166E-18-2.30889E-18
 -1      2014 9.55277E-05-2.86219E-05-2.86714E-05 2.38335E-07 5.97135E-19-1.50358E-18
 -1      2015 9.55461E-05-2.86073E-05-2.86891E-05 3.24761E-07 8.52543E-19-1.33891E-18
 -1      2016 9.53200E-05-2.85736E-05-2.86052E-05 1.24241E-07 1.60902E-18-2.25298E-18
 -1      2017 9.53800E-05-2.85877E-05-2.86234E-05 1.55053E-07 1.56823E-18-1.34806E-18
 -1      2018 9.54039E-05-2.85802E-05-2.86396E-05 2.14355E-07 1.34419E-18-1.51666E-18
 -1      2019 9.52441E-05-2.85577E-05-2.85795E-05 7.29532E-08 6.49031E-19-2.73463E-18
 -1      2020 9.52820E-05-2.85660E-05-2.85912E-05 9.50705E-08 9.11060E-19-2.58982E-18
 -1      2021 9.53076E-05-2.85633E-05-2.86054E-05 1.34267E-07 1.48224E-18-5.29170E-19
 -1      2022 9.51980E-05-2.85489E-05-2.85636E-05 3.74299E-08-7.73586E-19-2.06168E-18
 -1      2023 9.52202E-05-2.85533E-05-2.85706E-05 5.29118E-08 6.09107E-20-2.58553E-18
 -1      2024 9.52451E-05-2.85536E-05-2.85826E-05 7.75077E-08 2.15749E-19-1.18313E-18
 -1      2025 9.51728E-05-2.85450E-05-2.85545E-05 1.36474E-08-1.43073E-18-3.42308E-18
 -1      2026 9.51840E-05-2.85468E-05-2.85582E-05 2.41534E-08-1.18274E-18-2.91687E-18
 -1      2027 9.52070E-05-2.85489E-05-2.85682E-05 3.83890E-08-9.39314E-19-1.76428E-18
 -1      2028 9.51617E-05-2.85444E-05-2.85500E-05-1.55884E-09-2.60319E-19-2.28653E-18
 -1      2029 9.51657E-05-2.85444E-05-2.85515E-05 5.28513E-09-9.21286E-19-3.32156E-18
 -1      2030 9.51860E-05-2.85475E-05-2.85597E-05 1.23717E-08-1.04083E-18-1.98558E-18
 -1      2031 9.51599E-05-2.85457E-05-2.85488E-05-1.06374E-08-6.25993E-19-6.07307E-19
 -1      2032 9.51593E-05-2.85447E-05-2.85488E-05-6.43227E-09-3.57895E-19-1.05601E-18
 -1      2033 9.51767E-05-2.85481E-05-2.85554E-05-4.10725E-09-1.10574E-18-1.38438E-18
 -1      2034 9.51639E-05-2.85482E-05-2.85494E-05-1.54517E-08 1.51722E-18-1.43352E-18
 -1      2035 9.51604E-05-2.85466E-05-2.85486E-05-1.31017E-08 5.93764E-19-8.35141E-19
 -1      2036 9.51750E-05-2.85500E-05-2.85537E-05-1.37981E-08 5.51793E-19-5.31487E-19
 -1      2037 9.51710E-05-2.85511E-05-2.85512E-05-1.73959E-08 2.89732E-19-2.80980E-18
 -1      2038 9.51661E-05-2.85493E-05-2.85500E-05-1.63104E-08 1.28125E-18-2.42760E-18
 -1      2039 9.51780E-05-2.85525E-05-2.85539E-05-1.87888E-08 1.82100E-18-1.15890E-18
 -1      2040 9.51796E-05-2.85542E-05-2.85536E-05-1.74927E-08-7.22698E-19-1.66975E-18
 -1      2041 9.51742E-05-2.85524E-05-2.85522E-05-1.72355E-08-8.42885E-19-2.55955E-18
 -1      2042 9.51836E-05-2.85552E-05-2.85551E-05-2.06366E-08-6.23112E-19-1.26184E-18
 -1      2043 9.51886E-05-2.85572E-05-2.85562E-05-1.64765E-08-3.71680E-19-4.24390E-19
 -1      2044 9.51832E-05-2.85554E-05-2.85547E-05-1.67315E-08-6.59109E-19-7.91198E-19
 -1      2045 9.51906E-05-2.85579E-05-2.85569E-05-2.04803E-08-1.22099E-18-9.53240E-19
 -1      2046 9.51973E-05-2.85599E-05-2.85588E-05-1.48604E-08-1.48461E-18 6.38983E-19
 -1      2047 9.51922E-05-2.85583E-05-2.85574E-05-1.54045E-08-1.29613E-18-5.94078E-19
 -1      2048 9.51979E-05-2.85604E-05-2.85590E-05-1.91335E-08-1.13935E-18-1.23400E-19
 -1      2049 9.52053E-05-2.85624E-05-2.85612E-05-1.29900E-08-1.21785E-19 2.32938E-18
 -1      2050 9.52006E-05-2.85609E-05-2.85599E-05-1.36711E-08-1.38181E-18 1.16869E-18
 -1      2051 9.52049E-05-2.85626E-05-2.85610E-05-1.71613E-08-1.73974E-18 3.09014E-19
 -1      2052 9.52123E-05-2.85644E-05-2.85633E-05-1.10860E-08 1.72351E-18 2.88817E-18
 -1      2053 9.52083E-05-2.85632E-05-2.85622E-05-1.18053E-08 1.30944E-18 2.99568E-18
 -1      2054 9.52114E-05-2.85646E-05-2.85629E-05-1.49406E-08 8.85499E-19 2.13709E-18
 -1      2055 9.52184E-05-2.85662E-05-2.85652E-05-9.27610E-09-4.24551E-19 2.90429E-18
 -1      2056 9.52149E-05-2.85652E-05-2.85642E-05-9.97515E-09 6.83617E-19 3.05271E-18
 -1      2057 9.52171E-05-2.85662E-05-2.85647E-05-1.27078E-08 4.14266E-19 4.26125E-18
 -1      2058 9.52235E-05-2.85677E-05-2.85668E-05-7.61833E-09 2.44108E-18 2.16978E-18
 -1      2059 9.52206E-05-2.85668E-05-2.85659E-05-8.26931E-09 1.54211E-18 2.88157E-18
 -1      2060 9.52221E-05-2.85676E-05-2.85662E-05-1.05944E-08 1.53450E-18 3.71206E-18
 -1      2061 9.52277E-05-2.85689E-05-2.85681E-05-6.11667E-09-4.22156E-21 9.28226E-19
 -1      2062 9.52254E-05-2.85682E-05-2.85674E-05-6.71664E-09 1.32102E-18 1.85474E-18
 -1      2063 9.52263E-05-2.85688E-05-2.85675E-05-8.65297E-09 1.98960E-18 3.04855E-18
 -1      2064 9.52311E-05-2.85698E-05-2.85691E-05-4.73650E-09-5.67717E-19 4.67151E-19
 -1      2065 9.52292E-05-2.85693E-05-2.85686E-05-5.30028E-09-6.40804E-19 9.73902E-19
 -1      2066 9.52297E-05-2.85697E-05-2.85686E-05-6.87525E-09-4.97698E-19 2.24649E-18
 -1      2067 9.52337E-05-2.85706E-05-2.85699E-05-3.41528E-09 9.44614E-19 6.41398E-19
 -1      2068 9.52323E-05-2.85702E-05-2.85695E-05-3.97340E-09-1.89093E-19 4.34077E-19
 -1      2069 9.52325E-05-2.85705E-05-2.85694E-05-5.21521E-09 1.78683E-19 6.45250E-19
 -1      2070 9.52355E-05-2.85712E-05-2.85704E-05-2.09036E-09 5.06472E-19 1.61006E-18
 -1      2071 9.52346E-05-2.85709E-05-2.85702E-05-2.67293E-09 1.06303E-18 1.70909E-18
 -1      2072 9.52346E-05-2.85712E-05-2.85700E-05-3.60656E-09 5.94260E-19 2.05742E-18
 -1      2073 9.52366E-05-2.85715E-05-2.85707E-05-1.10455E-09-6.09982E-19 3.40185E-18
 -1      2074 9.52360E-05-2.85714E-05-2.85706E-05-1.67641E-09-7.15751E-20 2.48432E-18
 -1      2075 9.52359E-05-2.85716E-05-2.85704E-05-2.34320E-09-4.66001E-19 5.30966E-18
 -1      2076 9.52367E-05-2.85718E-05-2.85706E-05-1.42853E-09-3.08546E-19 5.01293E-18
 -1      2077 9.52388E-05-2.85767E-05-2.85694E-05-4.00172E-09 7.70128E-19-1.11084E-18
 -1      2078 9.52383E-05-2.85757E-05-2.85697E-05-3.89841E-09 1.41872E-19-6.62707E-19
 -1      2079 9.52378E-05-2.85747E-05-2.85699E-05-3.61844E-09 3.70046E-20-1.53700E-18
 -1      2080 9.52374E-05-2.85738E-05-2.85701E-05-3.21867E-09 3.56821E-19 5.76598E-20
 -1      2081 9.52379E-05-2.85752E-05-2.85697E-05-4.81916E-09-1.17973E-19-1.35255E-18
 -1      2082 9.52371E-05-2.85731E-05-2.85703E-05-2.66900E-09-7.05529E-19 2.28196E-19
 -1      2083 9.52368E-05-2.85724E-05-2.85705E-05-2.08667E-09 1.53954E-19 9.82677E-19
 -1      2084 9.52365E-05-2.85723E-05-2.85704E-05-2.57528E-09-4.81170E-19 2.71339E-18
 -1      2085 9.52370E-05-2.85736E-05-2.85701E-05-3.87087E-09-5.07459E-19 5.61252E-19
 -1      2086 9.52397E-05-2.85787E-05-2.85690E-05-3.77883E-09 1.45596E-19-1.21444E-18
 -1      2087 9.52392E-05-2.85776E-05-2.85692E-05-3.94027E-09 8.01947E-19-1.14807E-18
 -1      2088 9.52390E-05-2.85771E-05-2.85694E-05-5.04106E-09 5.50984E-20-1.05722E-18
 -1      2089 9.52404E-05-2.85803E-05-2.85686E-05-3.00936E-09 5.97779E-19 3.89611E-19
 -1      2090 9.52400E-05-2.85795E-05-2.85688E-05-3.40103E-09 4.95753E-19 2.96418E-19
 -1      2091 9.52400E-05-2.85789E-05-2.85691E-05-4.53915E-09 7.01664E-19-1.01010E-19
 -1      2092 9.52409E-05-2.85814E-05-2.85683E-05-1.82782E-09 5.61473E-20-5.40391E-19
 -1      2093 9.52407E-05-2.85809E-05-2.85685E-05-2.38132E-09 8.23375E-20 3.93409E-19
 -1      2094 9.52408E-05-2.85803E-05-2.85688E-05-3.40131E-09 9.81305E-19-3.91867E-19
 -1      2095 9.52412E-05-2.85819E-05-2.85682E-05-4.05925E-10-1.38679E-18-2.74549E-18
 -1      2096 9.52411E-05-2.85818E-05-2.85683E-05-1.04279E-09-2.04530E-19-2.18365E-18
 -1      2097 9.52413E-05-2.85813E-05-2.85686E-05-1.80979E-09 3.53418E-19-1.62795E-18
 -1      2098 9.52411E-05-2.85817E-05-2.85683E-05 1.06798E-09-2.84001E-18-2.79163E-18
 -1      2099 9.52412E-05-2.85819E-05-2.85682E-05 4.32006E-10-1.82204E-18-2.43431E-18
 -1      2100 9.52414E-05-2.85816E-05-2.85685E-05 1.65081E-11-1.70976E-18-3.28411E-18
 -1      2101 9.52407E-05-2.85809E-05-2.85685E-05 2.40174E-09-2.74982E-18-2.15860E-18
 -1      2102 9.52409E-05-2.85814E-05-2.85683E-05 1.85106E-09-2.88856E-18-1.15905E-18
 -1      2103 9.52413E-05-2.85812E-05-2.85686E-05 1.84047E-09-2.28684E-18-2.23912E-18
 -1      2104 9.52400E-05-2.85795E-05-2.85688E-05 3.40014E-09-1.33898E-18 7.62343E-19
 -1      2105 9.52404E-05-2.85803E-05-2.85686E-05 3.01722E-09-1.56581E-18-9.44480E-19
 -1      2106 9.52408E-05-2.85803E-05-2.85688E-05 3.41490E-09-8.03551E-19-4.62639E-19
 -1      2107 9.52392E-05-2.85776E-05-2.85692E-05 3.93956E-09-6.07173E-19 5.51270E-18
 -1      2108 9.52397E-05-2.85786E-05-2.85690E-05 3.77801E-09-1.31289E-18 4.39563E-18
 -1      2109 9.52400E-05-2.85789E-05-2.85691E-05 4.53893E-09 5.55654E-19 2.23742E-18
 -1      2110 9.52383E-05-2.85757E-05-2.85697E-05 3.89132E-09 4.44384E-19 9.71885E-19
 -1      2111 9.52388E-05-2.85767E-05-2.85694E-05 3.99879E-09-5.18988E-19 3.33050E-18
 -1      2112 9.52390E-05-2.85771E-05-2.85694E-05 5.03838E-09 6.74199E-19 4.60588E-18
 -1      2113 9.52374E-05-2.85737E-05-2.85701E-05 3.21812E-09 8.24393E-20 3.74853E-19
 -1      2114 9.52378E-05-2.85747E-05-2.85699E-05 3.60660E-09-3.03561E-19-3.28291E-20
 -1      2115 9.52379E-05-2.85752E-05-2.85697E-05 4.80308E-09 4.93907E-19 2.63823E-20
 -1      2116 5.69512E-05-3.73273E-05-8.88747E-06 4.00795E-05 4.77345E-18 5.40680E-18
 -1      2117 4.23207E-05-3.79418E-05-3.15642E-06 3.28091E-05 4.11743E-18 5.27056E-18
 -1      2118 1.16816E-05-2.72443E-05 5.63249E-06 3.88659E-06 1.95887E-18 8.29372E-18
 -1      2119 1.25145E-05-3.09270E-05 6.41170E-06-6.30024E-06 8.59315E-19 8.79432E-18
 -1      2120 2.84143E-05-3.25364E-05 7.91889E-07 2.76329E-05 4.10811E-18 6.13464E-18
 -1      2121 1.94307E-05-3.04757E-05 3.67029E-06 1.93304E-05 2.16544E-18 6.35190E-18
 -1      2122 4.39588E-05-3.33498E-05-4.91277E-06 3.63402E-05 1.07150E-19 5.07013E-18
 -1      2123 9.48861E-05-4.28024E-05-2.25083E-05 4.32173E-05 5.13090E-18 5.03921E-18
 -1      2124 7.39273E-05-4.28550E-05-1.44067E-05 3.87046E-05 4.62734E-18 5.62949E-18
 -1      2125 7.68005E-05-4.52634E-05-1.36444E-05 4.24494E-05 4.46810E-19 3.52596E-18
 -1      2126 1.36923E-04-4.31236E-05-3.94865E-05 3.42990E-05 6.19393E-18 2.60336E-18
 -1      2127 1.18293E-04-4.60317E-05-3.13641E-05 3.26944E-05 5.43033E-18 2.87822E-18
 -1      2128 9.32025E-05-1.38177E-05-3.41286E-05-4.10046E-06-1.32997E-18-4.13373E-18
 -1      2129 9.70417E-05-1.47973E-05-3.53660E-05-6.84833E-06-1.91972E-18-3.53747E-18
 -1      2130 1.02275E-04-2.02443E-05-3.52008E-05-8.22413E-06-2.19272E-18-2.71768E-18
 -1      2131 9.39778E-05-1.72284E-05-3.29898E-05-2.52384E-06-1.12216E-18-4.04722E-18
 -1      2132 1.76407E-04-2.92690E-05-6.20936E-05 1.12560E-05 8.47584E-18-1.83256E-18
 -1      2133 1.67593E-04-3.09567E-05-5.77499E-05 1.91769E-05 8.39727E-18 1.84230E-19
 -1      2134 1.78229E-04-2.32319E-05-6.54983E-05 1.61142E-06 9.06071E-18-4.09450E-18
 -1      2135 1.73876E-04-2.25697E-05-6.41111E-05 6.62503E-06 9.17887E-18-2.10869E-18
 -1      2136 1.75466E-04-2.51697E-05-6.35908E-05-5.61238E-06 9.37369E-18-6.39340E-18
 -1      2137 1.80798E-04-2.48961E-05-6.57927E-05 8.05536E-07 9.09036E-18-4.33924E-18
 -1      2138 1.57340E-04-1.31496E-05-6.07680E-05 2.17635E-06 9.68709E-18-2.48684E-18
 -1      2139 1.58993E-04-3.32910E-05-5.37004E-05-1.32142E-05 9.34595E-18-7.25314E-18
 -1      2140 1.73124E-04-3.19518E-05-5.94498E-05-9.17528E-06 9.34129E-18-6.44719E-18
 -1      2141 1.32023E-04-3.97380E-05-3.98419E-05-2.83240E-05 8.99274E-18-9.87810E-18
 -1      2142 1.51737E-04-4.03302E-05-4.73601E-05-2.37986E-05 8.81327E-18-8.15862E-18
 -1      2143 9.39310E-05-3.77324E-05-2.51244E-05-3.61538E-05 8.97686E-18-1.12533E-17
 -1      2144 1.15785E-04-3.83506E-05-3.30904E-05-3.89188E-05 9.47322E-18-1.15061E-17
 -1      2145 5.84365E-05-3.44889E-05-1.15885E-05-3.45415E-05 6.74916E-18-1.05315E-17
 -1      2146 7.64618E-05-3.43370E-05-1.83728E-05-4.05445E-05 8.30685E-18-1.14176E-17
 -1      2147 2.86086E-05-2.72576E-05-1.81142E-06-2.57823E-05 3.77311E-18-9.88360E-18
 -1      2148 4.11431E-05-2.81230E-05-6.36910E-06-3.28486E-05 6.72841E-18-1.08486E-17
 -1      2149 1.08798E-05-2.12168E-05 3.28054E-06-6.42300E-06 5.75029E-19-9.76460E-18
 -1      2150 1.57754E-05-1.95635E-05 9.56614E-07-1.68918E-05 3.26362E-18-1.03080E-17
 -1      2151 1.15594E-05-2.16307E-05 3.16308E-06 1.27999E-05-2.44115E-18-9.40927E-18
 -1      2152 8.75311E-06-2.20271E-05 4.38153E-06 3.97772E-06 5.21746E-19-9.29026E-18
 -1      2153 3.09831E-05-2.32518E-05-4.05661E-06 3.12245E-05-3.44277E-18-9.40418E-18
 -1      2154 1.97993E-05-2.51682E-05 8.06385E-07 2.08703E-05-2.49536E-18-9.30339E-18
 -1      2155 1.85967E-05-1.54006E-05-1.81701E-06 2.08870E-05-7.28448E-20-1.02807E-17
 -1      2156 6.75357E-05-3.12826E-05-1.58809E-05 4.10358E-05-7.63770E-18-9.98165E-18
 -1      2157 5.28264E-05-3.10223E-05-9.98074E-06 3.72420E-05-4.83486E-18-8.78013E-18
 -1      2158 1.00592E-04-3.44995E-05-2.83322E-05 4.20003E-05-9.09120E-18-9.90605E-18
 -1      2159 8.14122E-05-3.46862E-05-2.10586E-05 3.83383E-05-8.27043E-18-9.65131E-18
 -1      2160 8.66684E-05-4.08049E-05-1.99605E-05 3.96721E-05-3.20009E-18-7.35881E-18
 -1      2161 1.38364E-04-3.70537E-05-4.28979E-05 3.35268E-05-9.23075E-18-9.30847E-18
 -1      2162 1.18552E-04-3.65494E-05-3.56196E-05 3.38486E-05-9.02725E-18-9.45839E-18
 -1      2163 1.62700E-04-3.35073E-05-5.48484E-05 1.67492E-05-9.25214E-18-6.54248E-18
 -1      2164 1.48308E-04-3.38849E-05-4.87674E-05 2.48040E-05-9.54151E-18-8.65117E-18
 -1      2165 1.45046E-04-4.10518E-05-4.38925E-05 1.44691E-05-6.93519E-18-4.70739E-18
 -1      2166 1.75800E-04-2.52668E-05-6.33335E-05 3.54767E-06-9.22673E-18-4.56297E-18
 -1      2167 1.65187E-04-2.54711E-05-5.94661E-05 7.69290E-06-9.63076E-18-5.87333E-18
 -1      2168 1.81052E-04-2.42672E-05-6.59440E-05-5.32185E-06-8.78797E-18-2.70669E-18
 -1      2169 1.78280E-04-2.33245E-05-6.55505E-05 1.69713E-06-9.03827E-18-4.55005E-18
 -1      2170 1.70308E-04-2.47244E-05-6.17059E-05-1.27098E-05-7.86597E-18-8.64821E-19
 -1      2171 1.81011E-04-2.61371E-05-6.49500E-05-8.15007E-06-8.20817E-18-2.39753E-18
 -1      2172 1.59894E-04-1.41955E-05-6.11470E-05-1.23566E-06-9.23732E-18-3.33530E-18
 -1      2173 1.54721E-04-3.32283E-05-5.17162E-05-2.35457E-05-6.86147E-18 1.54160E-18
 -1      2174 1.66155E-04-3.14971E-05-5.68820E-05-1.70804E-05-6.92386E-18-6.29345E-19
 -1      2175 1.31409E-04-3.75699E-05-4.03806E-05-3.26953E-05-5.57475E-18 3.68375E-18
 -1      2176 1.49277E-04-3.70816E-05-4.72514E-05-3.13616E-05-6.02442E-18 2.69441E-18
 -1      2177 1.50831E-04-3.90898E-05-4.71000E-05-1.15423E-05-4.64367E-18-2.07311E-18
 -1      2178 9.91468E-05-4.12035E-05-2.56032E-05-3.89226E-05-3.56940E-18 5.25076E-18
 -1      2179 1.17900E-04-3.98553E-05-3.30582E-05-4.12286E-05-4.44735E-18 4.71628E-18
 -1      2180 6.53081E-05-4.00994E-05-1.20114E-05-3.85887E-05-1.97952E-18 5.86687E-18
 -1      2181 8.19340E-05-3.81644E-05-1.89147E-05-4.38820E-05-3.23228E-18 6.60093E-18
 -1      2182 3.70211E-05-3.69008E-05-1.44337E-06-3.12190E-05 7.12355E-19 6.84064E-18
 -1      2183 4.93812E-05-3.52415E-05-6.67372E-06-3.84540E-05-1.55515E-18 6.52649E-18
 -1      2184 1.62935E-05-3.32305E-05 5.70544E-06-1.44950E-05 1.52424E-18 7.99430E-18
 -1      2185 2.21061E-05-3.17515E-05 2.91773E-06-2.31394E-05-2.24464E-19 8.06248E-18
 -1      2186 1.64105E-05-2.23514E-05 1.84936E-06-1.30109E-05 1.53546E-18 9.05605E-18
 -1      2187 1.62105E-04-3.65223E-05-5.26676E-05 2.57106E-05 7.56463E-18 4.96785E-19
 -1      2188 1.44432E-04-3.73365E-05-4.59385E-05 2.83455E-05 7.48227E-18 2.18111E-18
 -1      2189 1.45423E-04-4.84308E-05-4.13012E-05 1.60979E-05 4.15141E-18-1.80037E-18
 -1      2190 1.58322E-04-3.44639E-05-5.21169E-05 6.49594E-06 7.08141E-18-2.69272E-18
 -1      2191 1.16985E-04-3.14805E-05-3.67725E-05-1.05098E-05-3.25171E-18 2.50293E-18
 -1      2192 1.59037E-04-2.23610E-05-5.76858E-05 4.78097E-06 8.93747E-18-2.93942E-18
 -1      2193 1.15137E-04-3.07970E-05-3.62092E-05-1.17351E-05-3.30993E-18 9.05081E-19
 -1      2194 1.87459E-05-2.45992E-05 2.02103E-06 1.32959E-05 5.46230E-19 6.99543E-18
 -1      2195 1.90028E-05-1.61230E-05-9.82363E-07 7.41959E-06-4.70156E-19 7.16675E-18
 -1      2196 2.64408E-05-2.03731E-05-2.69089E-06 2.29869E-05-1.65966E-18 5.93325E-18
 -1      2197 9.52370E-05-2.85732E-05-2.85702E-05 3.07100E-09-8.52303E-20 5.32142E-19
 -1      2198 1.17521E-04-5.35498E-05-2.72332E-05 3.35883E-05 2.12965E-18 8.87055E-19
 -1      2199 3.56516E-05-3.07584E-05-2.63054E-06-3.33550E-05 2.63364E-18 7.05833E-18
 -1      2200 6.89134E-05-4.23992E-05-1.16766E-05-4.27885E-05 2.35136E-18 5.00236E-18
 -1      2201 1.34166E-04-4.88323E-05-3.61851E-05-2.63299E-05-1.66103E-18 4.17587E-19
 -1      2202 1.58049E-04-2.52127E-05-5.60264E-05-2.67587E-06-7.29677E-18-2.94238E-18
 -1      2203 1.55310E-04-2.75358E-05-5.40790E-05 1.14154E-06-8.82608E-18-3.47792E-18
 -1      2204 1.19796E-04-4.53053E-05-3.16990E-05 3.06090E-05-5.34859E-18-6.04337E-18
 -1      2205 4.67600E-05-2.74727E-05-8.59390E-06 3.63171E-05-2.24421E-18-8.94975E-18
 -1      2206 4.23429E-05-2.16371E-05-8.45263E-06 3.59531E-05 5.31937E-19-8.46398E-18
 -1      2207 6.31753E-05-3.18653E-05-1.37366E-05 4.01852E-05 3.46436E-19-7.44680E-18
 -1      2208 1.17816E-05-1.13227E-05-6.39440E-07-1.98001E-06 7.48420E-19-1.10004E-17
 -1      2209 2.75112E-05-1.92895E-05-3.96077E-06-2.51260E-05 1.10580E-18-1.08327E-17
 -1      2210 6.08185E-05-3.43518E-05-1.17469E-05-3.81421E-05 2.49451E-18-9.74998E-18
 -1      2211 9.84145E-05-4.53480E-05-2.28689E-05-3.61975E-05 3.95437E-18-8.46355E-18
 -1      2212 1.32685E-04-4.82152E-05-3.57675E-05-2.33934E-05 5.39941E-18-6.03892E-18
 -1      2213 1.59363E-04-1.95882E-05-5.90059E-05 9.70724E-07 9.08062E-18-2.85069E-18
 -1      2214 1.53083E-04-3.95733E-05-4.80020E-05-4.54514E-06 7.09321E-18-3.19755E-18
 -1      2215 1.56983E-04-1.44998E-05-6.00951E-05-3.70916E-06-9.66507E-18-2.98801E-18
 -1      2216 1.03700E-04-4.98013E-05-2.30758E-05-3.95467E-05 5.70053E-19 3.00633E-18
 -1      2217 1.19840E-04-3.75139E-05-3.53385E-05 7.09562E-06 2.19356E-18 3.20448E-18
 -1      2218 1.20729E-04-3.65515E-05-3.59800E-05 6.87734E-06 2.55635E-18 3.52329E-18
 -1      2219 7.08606E-05-8.69553E-06-2.67537E-05 9.95099E-06 1.17879E-18-5.54147E-18
 -1      2220 7.75958E-05-1.19623E-05-2.80248E-05 8.55654E-06 8.37502E-19-5.21101E-18
 -1      2221 8.43277E-05-1.58046E-05-2.94257E-05 5.88051E-06 4.40824E-19-4.66959E-18
 -1      2222 9.01455E-05-1.83975E-05-3.07279E-05 3.16641E-06-1.36682E-19-4.33613E-18
 -1      2223 8.33461E-05-1.76742E-05-2.82283E-05 9.08606E-06 8.78436E-19-4.57580E-18
 -1      2224 5.08848E-05 3.78150E-06-2.34505E-05 4.13561E-06 1.23294E-18-6.85645E-18
 -1      2225 5.31747E-05 2.53997E-06-2.37813E-05 6.50069E-06 1.31291E-18-6.75929E-18
 -1      2226 5.33102E-05 2.72660E-06-2.39276E-05-2.57170E-06 8.74389E-19-6.60170E-18
 -1      2227 5.09009E-05 3.86490E-06-2.34893E-05-1.03456E-07 9.63098E-19-6.78227E-18
 -1      2228 4.97716E-05 3.27418E-06-2.25485E-05 2.09910E-06 1.11526E-18-7.00471E-18
 -1      2229 6.41052E-05-3.46297E-06-2.58477E-05-6.40927E-06 7.84174E-19-5.65913E-18
 -1      2230 5.81474E-05-5.65784E-07-2.47837E-05-5.54561E-06 6.61280E-19-6.16064E-18
 -1      2231 5.51066E-05-3.17354E-08-2.34894E-05-5.63549E-06 6.29901E-19-6.48134E-18
 -1      2232 7.89655E-05-1.17342E-05-2.87063E-05-5.42586E-06 1.14628E-18-4.37678E-18
 -1      2233 7.15995E-05-8.26671E-06-2.72549E-05-6.59210E-06 8.17546E-19-4.95676E-18
 -1      2234 6.86232E-05-8.29109E-06-2.58533E-05-8.74950E-06 5.17617E-19-5.20730E-18
 -1      2235 9.32733E-05-1.90111E-05-3.18205E-05-6.71962E-07 1.88447E-18-2.84626E-18
 -1      2236 8.64796E-05-1.59793E-05-3.02861E-05-3.16599E-06 1.41992E-18-3.57676E-18
 -1      2237 8.47431E-05-1.73866E-05-2.89392E-05-6.15038E-06 9.74591E-19-3.69494E-18
 -1      2238 1.05291E-04-2.46205E-05-3.47200E-05 5.11997E-06 2.78042E-18-8.98093E-19
 -1      2239 9.95726E-05-2.20116E-05-3.32789E-05 2.44033E-06 2.20163E-18-1.84349E-18
 -1      2240 9.90458E-05-2.44721E-05-3.20174E-05-3.03909E-07 1.73060E-18-1.97402E-18
 -1      2241 1.19390E-04-3.87082E-05-3.46334E-05 9.75163E-06 1.54823E-18 3.17458E-18
 -1      2242 1.20662E-04-3.87482E-05-3.50324E-05 8.28418E-06 1.75811E-18 3.44498E-18
 -1      2243 1.19670E-04-3.85255E-05-3.48143E-05 8.13715E-06 2.11432E-18 2.35866E-18
 -1      2244 1.15120E-04-3.45195E-05-3.44998E-05-1.00535E-05-2.42368E-18 5.63307E-19
 -1      2245 1.14230E-04-3.53057E-05-3.38934E-05-9.88678E-06-2.19252E-18 6.08071E-19
 -1      2246 1.46387E-04-2.43887E-05-5.25313E-05 1.01399E-05 7.74358E-18-9.41901E-19
 -1      2247 1.46899E-04-1.77709E-05-5.58666E-05 8.06181E-06 8.66345E-18-1.24556E-18
 -1      2248 1.14614E-04-3.59971E-05-3.36515E-05-1.07387E-05-1.91178E-18 1.00206E-18
 -1      2249 1.13295E-04-3.55617E-05-3.33376E-05-1.13576E-05-1.60916E-18 8.51802E-19
 -1      2250 1.15023E-04-3.60720E-05-3.38354E-05-1.09933E-05-2.00829E-18 3.62489E-19
 -1      2251 1.12753E-04-3.48435E-05-3.34017E-05-1.22969E-05-1.41249E-18 1.05710E-18
 -1      2252 1.10994E-04-3.32573E-05-3.32831E-05-1.25029E-05-1.42041E-18 8.19415E-19
 -1      2253 1.14886E-04-3.60227E-05-3.37807E-05-1.28185E-05-1.58891E-18 6.07538E-19
 -1      2254 1.09451E-04-3.13056E-05-3.35532E-05-1.23325E-05-1.70614E-18 5.46613E-19
 -1      2255 1.07550E-04-2.90828E-05-3.35543E-05-1.11670E-05-1.99437E-18 2.29931E-19
 -1      2256 1.12793E-04-3.27079E-05-3.42957E-05-1.38536E-05-1.82358E-18 5.59124E-19
 -1      2257 1.05645E-04-2.68172E-05-3.38413E-05-8.91083E-06-2.24805E-18-4.40262E-19
 -1      2258 1.04291E-04-2.51443E-05-3.38566E-05-6.12230E-06-2.46115E-18-7.28865E-19
 -1      2259 1.09202E-04-2.74590E-05-3.50528E-05-1.15197E-05-2.64800E-18-2.28734E-19
 -1      2260 1.03335E-04-2.41455E-05-3.39329E-05-2.11087E-06-2.50549E-18-1.49195E-18
 -1      2261 1.03210E-04-2.41861E-05-3.38716E-05 1.35975E-06-2.54386E-18-1.93035E-18
 -1      2262 1.06153E-04-2.33434E-05-3.55476E-05-4.86130E-06-2.99741E-18-1.42852E-18
 -1      2263 1.03880E-04-2.52499E-05-3.36349E-05 5.24454E-06-2.55486E-18-2.69029E-18
 -1      2264 1.04915E-04-2.69625E-05-3.34861E-05 7.84695E-06-2.24582E-18-3.13521E-18
 -1      2265 1.05897E-04-2.35239E-05-3.53785E-05 3.66666E-06-3.04007E-18-2.95191E-18
 -1      2266 1.06476E-04-2.92706E-05-3.30128E-05 9.80364E-06-2.14724E-18-3.51687E-18
 -1      2267 1.07967E-04-3.15488E-05-3.28355E-05 1.05974E-05-1.69695E-18-3.79769E-18
 -1      2268 1.08319E-04-2.78084E-05-3.45235E-05 9.86329E-06-2.60135E-18-4.04177E-18
 -1      2269 1.09105E-04-3.36043E-05-3.23211E-05 1.02026E-05-1.14253E-18-3.76525E-18
 -1      2270 1.10275E-04-3.52702E-05-3.21880E-05 9.33726E-06-7.48321E-19-3.88055E-18
 -1      2271 1.11208E-04-3.33634E-05-3.33207E-05 1.12433E-05-1.52720E-18-4.18526E-18
 -1      2272 1.10289E-04-3.61624E-05-3.17894E-05 7.48686E-06-4.01864E-19-3.81043E-18
 -1      2273 1.10769E-04-3.67883E-05-3.17130E-05 5.78240E-06-5.42597E-20-3.94049E-18
 -1      2274 1.12440E-04-3.72019E-05-3.22147E-05 8.55652E-06-6.00778E-19-3.81984E-18
 -1      2275 1.09876E-04-3.66045E-05-3.14548E-05 3.59837E-06-1.39506E-19-3.69951E-18
 -1      2276 1.09704E-04-3.63926E-05-3.14039E-05 1.82329E-06 1.65807E-19-3.41412E-18
 -1      2277 1.11548E-04-3.82058E-05-3.14315E-05 4.21098E-06 6.18566E-21-3.59567E-18
 -1      2278 1.08404E-04-3.56196E-05-3.12488E-05 1.56785E-08 3.64426E-19-3.46376E-18
 -1      2279 1.07811E-04-3.49832E-05-3.11890E-05-1.39333E-06 3.50511E-19-3.26915E-18
 -1      2280 1.09303E-04-3.71194E-05-3.09535E-05 7.93179E-08 2.46256E-19-3.40198E-18
 -1      2281 1.06503E-04-3.40681E-05-3.10861E-05-2.59093E-06-7.16371E-20-3.07157E-18
 -1      2282 1.05712E-04-3.33354E-05-3.09975E-05-3.50231E-06 8.92147E-20-3.07752E-18
 -1      2283 1.06649E-04-3.51227E-05-3.06767E-05-2.94778E-06 1.09365E-19-3.46641E-18
 -1      2284 1.04586E-04-3.25270E-05-3.09087E-05-4.13232E-06 1.05967E-19-2.87526E-18
 -1      2285 1.03748E-04-3.18716E-05-3.07883E-05-4.59101E-06-1.68033E-19-2.63612E-18
 -1      2286 1.04186E-04-3.30802E-05-3.04935E-05-4.74682E-06 1.71590E-19-3.07875E-18
 -1      2287 1.02848E-04-3.12553E-05-3.06950E-05-4.79375E-06-6.93094E-19-2.56698E-18
 -1      2288 1.02046E-04-3.07361E-05-3.05510E-05-4.91296E-06-6.14158E-19-2.52734E-18
 -1      2289 1.02143E-04-3.13996E-05-3.03332E-05-5.53578E-06-3.70414E-19-2.78759E-18
 -1      2290 1.01349E-04-3.03073E-05-3.04487E-05-4.83508E-06-1.56605E-19-2.68854E-18
 -1      2291 1.00624E-04-2.99234E-05-3.02937E-05-4.73348E-06-7.60792E-20-2.49222E-18
 -1      2292 1.00535E-04-3.01776E-05-3.01637E-05-5.61451E-06-6.45432E-19-2.35671E-18
 -1      2293 1.00088E-04-2.96441E-05-3.01858E-05-4.49424E-06-3.48402E-19-2.53119E-18
 -1      2294 9.94542E-05-2.93720E-05-3.00317E-05-4.26923E-06-9.61459E-20-2.80596E-18
 -1      2295 9.92951E-05-2.93620E-05-2.99789E-05-5.25221E-06-1.53248E-19-2.55213E-18
 -1      2296 9.90404E-05-2.91997E-05-2.99238E-05-3.95418E-06 1.76554E-19-3.02089E-18
 -1      2297 9.85021E-05-2.90120E-05-2.97795E-05-3.67560E-06 2.25056E-19-3.05113E-18
 -1      2298 9.83410E-05-2.88551E-05-2.97854E-05-4.65440E-06-1.03186E-19-2.51499E-18
 -1      2299 9.81800E-05-2.89114E-05-2.96770E-05-3.34099E-06 2.20466E-19-3.03042E-18
 -1      2300 9.77329E-05-2.87846E-05-2.95482E-05-3.05407E-06-2.05781E-19-3.36942E-18
 -1      2301 9.76029E-05-2.85624E-05-2.95934E-05-3.96337E-06-2.96989E-20-2.99441E-18
 -1      2302 9.74809E-05-2.87299E-05-2.94551E-05-2.73378E-06-3.38017E-19-2.89706E-18
 -1      2303 9.71170E-05-2.86460E-05-2.93441E-05-2.46494E-06 3.56506E-19-2.30393E-18
 -1      2304 9.70288E-05-2.84094E-05-2.94123E-05-3.26993E-06 6.88979E-20-3.04249E-18
 -1      2305 9.69198E-05-2.86195E-05-2.92625E-05-2.17717E-06 7.38791E-19-2.09055E-18
 -1      2306 9.66294E-05-2.85652E-05-2.91699E-05-1.93977E-06 7.77224E-19-1.68836E-18
 -1      2307 9.65810E-05-2.83427E-05-2.92485E-05-2.62689E-06 6.43895E-19-1.65227E-18
 -1      2308 9.64755E-05-2.85555E-05-2.91006E-05-1.69234E-06 5.13695E-19-1.74330E-18
 -1      2309 9.62481E-05-2.85216E-05-2.90253E-05-1.49129E-06 3.73107E-19-1.86610E-18
 -1      2310 9.62322E-05-2.83269E-05-2.91054E-05-2.06073E-06 6.09545E-19-1.73199E-18
 -1      2311 9.61289E-05-2.85212E-05-2.89679E-05-1.28552E-06 1.33073E-20-2.20159E-18
 -1      2312 9.59542E-05-2.85012E-05-2.89082E-05-1.12067E-06 1.18624E-19-2.22844E-18
 -1      2313 9.59620E-05-2.83389E-05-2.89841E-05-1.58085E-06-7.95275E-20-1.72823E-18
 -1      2314 9.58630E-05-2.85058E-05-2.88618E-05-9.54168E-07 3.52947E-19-2.05833E-18
 -1      2315 9.57314E-05-2.84949E-05-2.88154E-05-8.22556E-07 6.65538E-19-1.31815E-18
 -1      2316 9.57547E-05-2.83645E-05-2.88839E-05-1.18613E-06 2.07927E-19-1.78035E-18
 -1      2317 9.56625E-05-2.85018E-05-2.87787E-05-6.91003E-07 6.76116E-19-1.75520E-18
 -1      2318 9.55654E-05-2.84969E-05-2.87434E-05-5.88394E-07 5.52861E-19-1.42318E-18
 -1      2319 9.55975E-05-2.83952E-05-2.88030E-05-8.69588E-07 6.69582E-19-1.91668E-18
 -1      2320 9.55142E-05-2.85044E-05-2.87150E-05-4.86714E-07-4.03757E-20-1.18942E-18
 -1      2321 9.54443E-05-2.85034E-05-2.86887E-05-4.08481E-07 1.31636E-19-1.52215E-18
 -1      2322 9.54802E-05-2.84262E-05-2.87390E-05-6.21451E-07 4.71070E-19-2.08434E-18
 -1      2323 9.54069E-05-2.85107E-05-2.86671E-05-3.31557E-07 5.48350E-19-1.02825E-18
 -1      2324 9.53579E-05-2.85119E-05-2.86481E-05-2.73222E-07 3.53788E-19-1.00996E-18
 -1      2325 9.53940E-05-2.84548E-05-2.86896E-05-4.31066E-07 5.44970E-19-1.58060E-18
 -1      2326 9.53312E-05-2.85185E-05-2.86320E-05-2.16291E-07-3.37179E-19-1.63585E-18
 -1      2327 9.52980E-05-2.85210E-05-2.86186E-05-1.73800E-07-7.25118E-19-2.15983E-18
 -1      2328 9.53321E-05-2.84799E-05-2.86520E-05-2.88076E-07-5.27554E-19-1.58224E-18
 -1      2329 9.52795E-05-2.85267E-05-2.86069E-05-1.32654E-07-1.04014E-18-1.53258E-18
 -1      2330 9.52580E-05-2.85298E-05-2.85977E-05-1.02503E-07-5.13520E-19-1.44550E-18
 -1      2331 9.52887E-05-2.85011E-05-2.86241E-05-1.83054E-07-6.90016E-19-1.11112E-18
 -1      2332 9.52456E-05-2.85345E-05-2.85894E-05-7.35579E-08-7.79013E-20-2.24440E-18
 -1      2333 9.52325E-05-2.85378E-05-2.85833E-05-5.28138E-08-3.70461E-19-9.24207E-19
 -1      2334 9.52592E-05-2.85185E-05-2.86038E-05-1.07789E-07-6.70896E-19-2.02818E-18
 -1      2335 9.52246E-05-2.85417E-05-2.85777E-05-3.31068E-08-6.89856E-19-7.72539E-19
 -1      2336 9.52174E-05-2.85448E-05-2.85739E-05-1.93822E-08-8.96535E-19-9.66621E-19
 -1      2337 9.52400E-05-2.85324E-05-2.85895E-05-5.53657E-08-2.68283E-19-2.75576E-18
 -1      2338 9.52127E-05-2.85478E-05-2.85702E-05-6.52134E-09-1.36362E-18-5.79882E-21
 -1      2339 9.52096E-05-2.85507E-05-2.85680E-05 2.08288E-09-1.33746E-18-3.57759E-19
 -1      2340 9.52283E-05-2.85433E-05-2.85796E-05-2.01163E-08-6.25486E-19-1.36708E-18
 -1      2341 9.52071E-05-2.85531E-05-2.85657E-05 9.98640E-09-1.52637E-18 1.13627E-20
 -1      2342 9.52067E-05-2.85556E-05-2.85647E-05 1.49495E-08-1.09092E-18-1.91750E-19
 -1      2343 9.52218E-05-2.85517E-05-2.85732E-05 2.49921E-09-1.12596E-18 1.25128E-18
 -1      2344 9.52057E-05-2.85574E-05-2.85634E-05 1.93570E-08-3.17979E-19-4.59839E-19
 -1      2345 9.52069E-05-2.85595E-05-2.85631E-05 2.18079E-08 3.92000E-19 2.78532E-19
 -1      2346 9.52189E-05-2.85580E-05-2.85691E-05 1.60413E-08-4.63192E-19 8.92531E-19
 -1      2347 9.52069E-05-2.85609E-05-2.85625E-05 2.38274E-08 5.08707E-19 3.87832E-19
 -1      2348 9.52090E-05-2.85626E-05-2.85627E-05 2.46096E-08 3.69889E-19 5.48252E-19
 -1      2349 9.52183E-05-2.85626E-05-2.85668E-05 2.32464E-08 5.13950E-19 1.27871E-19
 -1      2350 9.52096E-05-2.85637E-05-2.85625E-05 2.50637E-08 4.42385E-20-7.06654E-20
 -1      2351 9.52122E-05-2.85651E-05-2.85630E-05 2.47935E-08 2.01457E-19-3.92505E-19
 -1      2352 9.52192E-05-2.85660E-05-2.85658E-05 2.61751E-08-1.92020E-19 1.74215E-19
 -1      2353 9.52131E-05-2.85658E-05-2.85631E-05 2.42788E-08 4.23620E-19-1.53249E-18
 -1      2354 9.52157E-05-2.85670E-05-2.85637E-05 2.33950E-08 6.39123E-20-1.58490E-18
 -1      2355 9.52209E-05-2.85683E-05-2.85655E-05 2.63455E-08-1.48820E-19-9.79101E-19
 -1      2356 9.52168E-05-2.85675E-05-2.85640E-05 2.23323E-08-2.62749E-19-1.03040E-18
 -1      2357 9.52194E-05-2.85684E-05-2.85647E-05 2.11370E-08-6.31144E-19-2.88028E-19
 -1      2358 9.52231E-05-2.85699E-05-2.85657E-05 2.48492E-08 2.23769E-19-1.13769E-18
 -1      2359 9.52205E-05-2.85688E-05-2.85651E-05 1.98125E-08-8.52453E-19 5.73404E-19
 -1      2360 9.52228E-05-2.85695E-05-2.85657E-05 1.85044E-08 1.17945E-19 1.01589E-18
 -1      2361 9.52253E-05-2.85710E-05-2.85662E-05 2.24473E-08-3.52291E-19 8.77790E-19
 -1      2362 9.52238E-05-2.85697E-05-2.85661E-05 1.71027E-08 3.99105E-19 1.36408E-18
 -1      2363 9.52259E-05-2.85703E-05-2.85667E-05 1.58026E-08 2.57672E-19 2.30021E-18
 -1      2364 9.52275E-05-2.85717E-05-2.85668E-05 1.96491E-08 2.49230E-19 2.84788E-18
 -1      2365 9.52269E-05-2.85705E-05-2.85671E-05 1.44322E-08 2.04968E-19 1.18493E-18
 -1      2366 9.52287E-05-2.85709E-05-2.85676E-05 1.32031E-08 5.54711E-19 2.40983E-19
 -1      2367 9.52296E-05-2.85721E-05-2.85675E-05 1.67741E-08-2.74136E-19 2.04054E-18
 -1      2368 9.52295E-05-2.85710E-05-2.85680E-05 1.19186E-08 3.64759E-19-2.35027E-19
 -1      2369 9.52310E-05-2.85714E-05-2.85684E-05 1.07812E-08 1.03685E-18 4.93944E-19
 -1      2370 9.52314E-05-2.85724E-05-2.85681E-05 1.40014E-08 1.38213E-19 3.78204E-19
 -1      2371 9.52318E-05-2.85715E-05-2.85687E-05 9.58689E-09 2.46190E-18 7.56308E-19
 -1      2372 9.52330E-05-2.85719E-05-2.85691E-05 8.52998E-09 1.60396E-18 1.36314E-18
 -1      2373 9.52330E-05-2.85727E-05-2.85687E-05 1.14121E-08 1.54369E-18 5.67224E-19
 -1      2374 9.52337E-05-2.85720E-05-2.85693E-05 7.42569E-09 3.70111E-19 1.75248E-18
 -1      2375 9.52347E-05-2.85723E-05-2.85696E-05 6.42639E-09 1.55410E-18 2.54162E-18
 -1      2376 9.52344E-05-2.85729E-05-2.85692E-05 8.99855E-09 1.99636E-18 2.06047E-18
 -1      2377 5.66498E-05-3.37627E-05-9.64348E-06 4.03875E-05-1.45372E-18 2.91697E-18
 -1      2378 4.29132E-05-2.74202E-05-6.22044E-06 3.31459E-05-2.12436E-18 4.60087E-18
 -1      2379 1.13804E-04-3.26710E-05-3.47121E-05 1.41069E-05 1.64398E-18 2.40230E-18
 -1      2380 1.16403E-04-3.53962E-05-3.47916E-05 1.43650E-05 1.39080E-18 2.90485E-18
 -1      2381 1.09296E-04-2.70348E-05-3.51935E-05 9.66012E-06 2.82578E-18 9.98248E-19
 -1      2382 1.11533E-04-2.96737E-05-3.51944E-05 1.24812E-05 2.28457E-18 1.82897E-18
 -1      2383 1.16270E-04-3.11926E-05-3.64856E-05 1.52731E-05 2.42778E-18 1.89634E-18
 -1      2384 1.06995E-04-2.44691E-05-3.54316E-05 4.72396E-07 3.42768E-18-3.05385E-19
 -1      2385 1.07672E-04-2.50936E-05-3.54565E-05 4.84839E-06 3.14315E-18 1.95744E-19
 -1      2386 1.11983E-04-2.47020E-05-3.75030E-05 8.53985E-06 3.65995E-18 3.52399E-19
 -1      2387 1.08908E-04-2.73572E-05-3.50749E-05-8.75832E-06 3.17471E-18-2.05575E-18
 -1      2388 1.07528E-04-2.53094E-05-3.52125E-05-5.17346E-06 3.36989E-18-1.39880E-18
 -1      2389 1.10598E-04-2.34020E-05-3.74779E-05-2.70469E-06 4.05736E-18-1.42732E-18
 -1      2390 1.12964E-04-3.30981E-05-3.43526E-05-1.26592E-05 1.45320E-18-2.83558E-18
 -1      2391 1.10790E-04-3.02131E-05-3.44707E-05-1.15994E-05 2.61270E-18-2.37223E-18
 -1      2392 1.13462E-04-2.83216E-05-3.65657E-05-1.15357E-05 3.20585E-18-3.36342E-18
 -1      2393 1.15948E-04-3.75943E-05-3.36430E-05-1.06912E-05 1.23513E-19-3.07410E-18
 -1      2394 1.14259E-04-3.56086E-05-3.36977E-05-1.19864E-05 8.74932E-19-3.02053E-18
 -1      2395 1.17050E-04-3.54575E-05-3.49606E-05-1.34691E-05 1.36446E-18-3.71096E-18
 -1      2396 1.16298E-04-3.89569E-05-3.31524E-05-5.68046E-06-1.85606E-19-3.29388E-18
 -1      2397 1.15674E-04-3.84029E-05-3.31612E-05-7.98652E-06-6.49965E-20-3.27878E-18
 -1      2398 1.18187E-04-3.99117E-05-3.35161E-05-9.49248E-06 3.50057E-19-3.50825E-18
 -1      2399 1.14592E-04-3.79313E-05-3.28363E-05-5.22885E-07-2.83015E-19-2.77093E-18
 -1      2400 1.14923E-04-3.84017E-05-3.28662E-05-2.72351E-06-2.89904E-19-3.05633E-18
 -1      2401 1.16434E-04-4.04166E-05-3.25621E-05-3.49170E-06-2.83895E-19-3.43599E-18
 -1      2402 1.11931E-04-3.59106E-05-3.25624E-05 3.23443E-06 2.15464E-20-2.54699E-18
 -1      2403 1.12845E-04-3.67832E-05-3.26654E-05 1.68108E-06 3.43889E-19-2.47260E-18
 -1      2404 1.13140E-04-3.84362E-05-3.20368E-05 1.75855E-06-2.00413E-19-2.69392E-18
 -1      2405 1.09134E-04-3.38877E-05-3.22350E-05 5.34456E-06 1.81464E-19-2.13249E-18
 -1      2406 1.10306E-04-3.47717E-05-3.24188E-05 4.50130E-06 6.56451E-20-2.14875E-18
 -1      2407 1.09634E-04-3.56880E-05-3.17200E-05 5.17169E-06-5.94478E-20-2.66971E-18
 -1      2408 1.06571E-04-3.22581E-05-3.18395E-05 6.13648E-06-4.73493E-19-1.61999E-18
 -1      2409 1.07792E-04-3.29947E-05-3.20802E-05 5.84865E-06-7.86947E-20-1.62768E-18
 -1      2410 1.06581E-04-3.32459E-05-3.14530E-05 6.86160E-06-1.52449E-19-2.33241E-18
 -1      2411 1.04352E-04-3.10735E-05-3.13990E-05 6.06285E-06-4.32861E-20-1.79004E-18
 -1      2412 1.05508E-04-3.16362E-05-3.16656E-05 6.13392E-06-2.67229E-19-1.57296E-18
 -1      2413 1.04128E-04-3.14401E-05-3.11683E-05 7.29288E-06-5.04346E-19-2.12392E-18
 -1      2414 1.02477E-04-3.02538E-05-3.09487E-05 5.50831E-06 8.61881E-19-1.99746E-18
 -1      2415 1.03512E-04-3.06673E-05-3.12141E-05 5.77379E-06 4.27945E-19-1.57771E-18
 -1      2416 1.02203E-04-3.02369E-05-3.08538E-05 6.94497E-06 2.90501E-19-2.21503E-18
 -1      2417 1.00916E-04-2.96973E-05-3.05189E-05 4.74189E-06 2.24528E-19-9.45792E-19
 -1      2418 1.01807E-04-2.99967E-05-3.07648E-05 5.08802E-06 5.46718E-19-1.38280E-18
 -1      2419 1.00689E-04-2.94852E-05-3.05240E-05 6.18822E-06 1.91944E-19-1.15091E-18
 -1      2420 9.96308E-05-2.93199E-05-3.01301E-05 3.92985E-06 3.63671E-19-1.02716E-18
 -1      2421 1.00376E-04-2.95359E-05-3.03464E-05 4.28748E-06 7.94327E-19-8.28857E-19
 -1      2422 9.94860E-05-2.90351E-05-3.01994E-05 5.27088E-06 3.52985E-19-4.95369E-19
 -1      2423 9.85853E-05-2.90624E-05-2.97927E-05 3.16393E-06 2.60355E-19-2.08960E-18
 -1      2424 9.91939E-05-2.92182E-05-2.99758E-05 3.49596E-06 3.81052E-19-1.53949E-18
 -1      2425 9.85219E-05-2.87738E-05-2.98972E-05 4.34299E-06 7.53401E-19-5.17557E-19
 -1      2426 9.77463E-05-2.88854E-05-2.95092E-05 2.48761E-06 8.62715E-19-2.05184E-18
 -1      2427 9.82331E-05-2.89975E-05-2.96596E-05 2.77734E-06 3.74533E-19-2.29165E-18
 -1      2428 9.77480E-05-2.86263E-05-2.96281E-05 3.48583E-06 4.58209E-19-1.50848E-18
 -1      2429 9.70829E-05-2.87636E-05-2.92774E-05 1.91549E-06 3.18353E-19-9.79110E-19
 -1      2430 9.74648E-05-2.88436E-05-2.93978E-05 2.15821E-06 1.00109E-18-1.74137E-18
 -1      2431 9.71295E-05-2.85461E-05-2.93969E-05 2.73651E-06 3.88859E-19-3.64364E-19
 -1      2432 9.65664E-05-2.86802E-05-2.90921E-05 1.44625E-06-9.96827E-19-1.05333E-18
 -1      2433 9.68605E-05-2.87366E-05-2.91865E-05 1.64364E-06-2.72359E-19-1.21116E-18
 -1      2434 9.66397E-05-2.85055E-05-2.92040E-05 2.10575E-06-1.10398E-19-1.99036E-20
 -1      2435 9.61708E-05-2.86238E-05-2.89470E-05 1.07058E-06-1.66567E-18-1.18452E-18
 -1      2436 9.63932E-05-2.86629E-05-2.90195E-05 1.22739E-06-1.27277E-18-9.85295E-19
 -1      2437 9.62566E-05-2.84879E-05-2.90468E-05 1.58957E-06-7.83545E-19 8.35114E-20
 -1      2438 9.58730E-05-2.85869E-05-2.88355E-05 7.75926E-07-7.18320E-19-1.64185E-18
 -1      2439 9.60380E-05-2.86132E-05-2.88902E-05 8.98023E-07-1.14686E-18-1.60216E-18
 -1      2440 9.59611E-05-2.84837E-05-2.89215E-05 1.17669E-06-1.30920E-18-1.16508E-18
 -1      2441 9.56530E-05-2.85636E-05-2.87514E-05 5.49085E-07-1.01102E-21-1.44542E-18
 -1      2442 9.57729E-05-2.85807E-05-2.87919E-05 6.42403E-07-4.60474E-19-1.81481E-18
 -1      2443 9.57369E-05-2.84871E-05-2.88235E-05 8.52909E-07-3.61106E-19-1.75268E-18
 -1      2444 9.54939E-05-2.85501E-05-2.86893E-05 3.77585E-07 7.29404E-19-1.24191E-18
 -1      2445 9.55790E-05-2.85605E-05-2.87185E-05 4.47614E-07 4.24237E-19-1.17457E-18
 -1      2446 9.55699E-05-2.84945E-05-2.87484E-05 6.03613E-07 4.91500E-21-1.85078E-18
 -1      2447 9.53816E-05-2.85432E-05-2.86443E-05 2.50318E-07 1.38660E-18-6.03298E-19
 -1      2448 9.54404E-05-2.85489E-05-2.86650E-05 3.01875E-07 8.85650E-19-6.76626E-19
 -1      2449 9.54479E-05-2.85038E-05-2.86918E-05 4.15090E-07 3.81358E-19-5.54905E-19
 -1      2450 9.53048E-05-2.85408E-05-2.86126E-05 1.57763E-07 1.03523E-18 1.37563E-19
 -1      2451 9.53439E-05-2.85433E-05-2.86267E-05 1.94927E-07 1.57618E-18 1.86431E-20
 -1      2452 9.53609E-05-2.85136E-05-2.86500E-05 2.75157E-07 9.09581E-19-5.04797E-19
 -1      2453 9.52541E-05-2.85412E-05-2.85908E-05 9.19796E-08-1.70824E-20-2.51396E-19
 -1      2454 9.52789E-05-2.85417E-05-2.86002E-05 1.18122E-07 1.05203E-18-1.60313E-19
 -1      2455 9.53005E-05-2.85231E-05-2.86198E-05 1.73368E-07 1.16143E-18 1.96598E-20
 -1      2456 9.52226E-05-2.85434E-05-2.85765E-05 4.64888E-08-1.81586E-19-1.74889E-18
 -1      2457 9.52371E-05-2.85426E-05-2.85823E-05 6.43372E-08-1.03659E-19-4.07607E-19
 -1      2458 9.52601E-05-2.85318E-05-2.85985E-05 1.01011E-07 3.62736E-19-2.37720E-19
 -1      2459 9.52045E-05-2.85464E-05-2.85675E-05 1.61053E-08-1.76731E-18-1.36636E-18
 -1      2460 9.52120E-05-2.85449E-05-2.85709E-05 2.78271E-08-1.06420E-18-1.14629E-18
 -1      2461 9.52342E-05-2.85396E-05-2.85839E-05 5.09731E-08-8.78581E-19-7.88200E-19
 -1      2462 9.51957E-05-2.85499E-05-2.85623E-05-3.25180E-09-1.13020E-18-8.74518E-19
 -1      2463 9.51984E-05-2.85480E-05-2.85640E-05 4.03707E-09-1.59019E-18-1.53258E-18
 -1      2464 9.52188E-05-2.85462E-05-2.85743E-05 1.75536E-08-1.57608E-18-5.31663E-19
 -1      2465 9.51931E-05-2.85533E-05-2.85598E-05-1.47407E-08 1.03264E-18-4.46140E-19
 -1      2466 9.51928E-05-2.85513E-05-2.85603E-05-1.05831E-08-2.44702E-20-8.55913E-19
 -1      2467 9.52108E-05-2.85518E-05-2.85684E-05-3.73447E-09-4.88491E-19-4.89667E-19
 -1      2468 9.51944E-05-2.85565E-05-2.85590E-05-2.07644E-08 1.29015E-18 2.73833E-19
 -1      2469 9.51923E-05-2.85546E-05-2.85588E-05-1.87547E-08 1.90555E-18 8.33309E-19
 -1      2470 9.52076E-05-2.85564E-05-2.85650E-05-1.63653E-08 6.32089E-19 7.34123E-19
 -1      2471 9.51980E-05-2.85594E-05-2.85594E-05-2.31191E-08-1.11924E-18-2.15279E-19
 -1      2472 9.51949E-05-2.85576E-05-2.85587E-05-2.25278E-08 1.64140E-19-1.12498E-19
 -1      2473 9.52077E-05-2.85602E-05-2.85633E-05-2.29834E-08 6.79448E-19 8.75482E-19
 -1      2474 9.52028E-05-2.85619E-05-2.85603E-05-2.31212E-08-9.99652E-19-6.08252E-19
 -1      2475 9.51993E-05-2.85604E-05-2.85595E-05-2.34183E-08-1.75917E-18-1.12851E-18
 -1      2476 9.52096E-05-2.85631E-05-2.85629E-05-2.55654E-08-3.16378E-19-3.25805E-19
 -1      2477 9.52079E-05-2.85640E-05-2.85617E-05-2.17132E-08-1.74606E-18-3.42099E-19
 -1      2478 9.52044E-05-2.85627E-05-2.85607E-05-2.25232E-08-6.87719E-19-7.86166E-19
 -1      2479 9.52126E-05-2.85654E-05-2.85631E-05-2.55597E-08-9.65579E-19-9.64028E-19
 -1      2480 9.52130E-05-2.85658E-05-2.85631E-05-1.95512E-08-1.61409E-18-1.14950E-19
 -1      2481 9.52097E-05-2.85647E-05-2.85622E-05-2.06160E-08-2.39735E-18-3.52038E-19
 -1      2482 9.52161E-05-2.85672E-05-2.85638E-05-2.40029E-08-2.11620E-18-1.50415E-18
 -1      2483 9.52178E-05-2.85673E-05-2.85645E-05-1.70736E-08 4.37692E-19 2.28728E-18
 -1      2484 9.52148E-05-2.85663E-05-2.85637E-05-1.82242E-08-3.53067E-19 6.14618E-19
 -1      2485 9.52196E-05-2.85685E-05-2.85648E-05-2.16154E-08-1.51629E-18-1.63044E-18
 -1      2486 9.52221E-05-2.85684E-05-2.85658E-05-1.45560E-08 1.31481E-19 2.39690E-18
 -1      2487 9.52194E-05-2.85677E-05-2.85651E-05-1.56900E-08 1.52938E-19 2.74838E-18
 -1      2488 9.52230E-05-2.85695E-05-2.85658E-05-1.88779E-08-4.35731E-19 4.98937E-20
 -1      2489 9.52258E-05-2.85694E-05-2.85670E-05-1.21523E-08 2.39746E-18 2.69174E-18
 -1      2490 9.52235E-05-2.85688E-05-2.85664E-05-1.32170E-08 1.30087E-18 2.81454E-18
 -1      2491 9.52260E-05-2.85703E-05-2.85667E-05-1.60910E-08 9.12611E-19 3.34316E-19
 -1      2492 9.52289E-05-2.85702E-05-2.85680E-05-9.92604E-09 1.53370E-18 3.11702E-18
 -1      2493 9.52270E-05-2.85697E-05-2.85675E-05-1.09064E-08 2.99590E-18 3.85382E-18
 -1      2494 9.52287E-05-2.85709E-05-2.85676E-05-1.34211E-08 1.71910E-18 2.19558E-18
 -1      2495 9.52316E-05-2.85709E-05-2.85689E-05-7.86594E-09-9.30846E-20 1.80687E-18
 -1      2496 9.52300E-05-2.85705E-05-2.85684E-05-8.78157E-09 6.11319E-20 2.56385E-18
 -1      2497 9.52311E-05-2.85714E-05-2.85684E-05-1.09493E-08 1.45934E-18 3.56789E-18
 -1      2498 9.52337E-05-2.85715E-05-2.85695E-05-5.93264E-09 7.26630E-19 1.36816E-18
 -1      2499 9.52325E-05-2.85711E-05-2.85692E-05-6.81139E-09 4.10314E-19 2.07227E-18
 -1      2500 9.52330E-05-2.85719E-05-2.85691E-05-8.66252E-09 2.37015E-19 1.80426E-18
 -1      2501 9.52354E-05-2.85720E-05-2.85700E-05-4.08893E-09-7.10522E-19 3.01330E-18
 -1      2502 9.52344E-05-2.85717E-05-2.85698E-05-4.94687E-09 7.49976E-19 2.35665E-18
 -1      2503 9.52347E-05-2.85723E-05-2.85696E-05-6.48806E-09-1.42424E-19 2.27041E-18
 -1      2504 9.52360E-05-2.85721E-05-2.85703E-05-3.06011E-09-7.98080E-19 2.37317E-18
 -1      2505 9.52406E-05-2.85793E-05-2.85691E-05-5.11566E-09 9.69465E-19-2.08162E-19
 -1      2506 9.52400E-05-2.85784E-05-2.85693E-05-5.57800E-09 1.43779E-18-1.22190E-18
 -1      2507 9.52415E-05-2.85806E-05-2.85689E-05-3.61184E-09 1.74265E-18 8.76414E-19
 -1      2508 9.52411E-05-2.85800E-05-2.85691E-05-4.36708E-09 1.26501E-18 1.64664E-19
 -1      2509 9.52413E-05-2.85797E-05-2.85693E-05-5.45150E-09 1.51640E-18 3.78809E-19
 -1      2510 9.52380E-05-2.85756E-05-2.85696E-05-5.95578E-09-1.78550E-19-9.67418E-19
 -1      2511 9.52373E-05-2.85747E-05-2.85697E-05-5.67150E-09 1.21032E-19-1.26230E-18
 -1      2512 9.52394E-05-2.85775E-05-2.85693E-05-5.93659E-09 2.67917E-19-1.61803E-18
 -1      2513 9.52387E-05-2.85766E-05-2.85695E-05-6.01110E-09 3.67910E-20-1.86935E-19
 -1      2514 9.52384E-05-2.85761E-05-2.85695E-05-6.94140E-09 8.33477E-19-1.17283E-18
 -1      2515 9.52399E-05-2.85780E-05-2.85694E-05-6.65539E-09 1.66674E-18-6.58634E-19
 -1      2516 9.52420E-05-2.85813E-05-2.85688E-05-1.64807E-09 1.73895E-20-3.02597E-18
 -1      2517 9.52418E-05-2.85810E-05-2.85689E-05-2.58912E-09 1.17594E-18-2.37634E-18
 -1      2518 9.52422E-05-2.85809E-05-2.85692E-05-3.55790E-09 1.32669E-18-1.22537E-18
 -1      2519 9.52422E-05-2.85815E-05-2.85688E-05 5.21264E-10-1.57397E-18-3.40766E-18
 -1      2520 9.52422E-05-2.85815E-05-2.85688E-05-4.82327E-10-1.51531E-18-2.49278E-18
 -1      2521 9.52427E-05-2.85815E-05-2.85691E-05-1.22113E-09 6.52275E-20-3.91141E-18
 -1      2522 9.52418E-05-2.85810E-05-2.85689E-05 2.62375E-09-1.33789E-18-1.02887E-18
 -1      2523 9.52420E-05-2.85813E-05-2.85689E-05 1.68561E-09-1.54243E-18-2.99612E-18
 -1      2524 9.52427E-05-2.85815E-05-2.85691E-05 1.26534E-09-5.20517E-19-3.06741E-18
 -1      2525 9.52411E-05-2.85800E-05-2.85691E-05 4.36717E-09 7.23027E-19 4.95926E-19
 -1      2526 9.52415E-05-2.85806E-05-2.85690E-05 3.62675E-09-8.21418E-19 1.28073E-19
 -1      2527 9.52422E-05-2.85809E-05-2.85692E-05 3.57888E-09 1.28071E-19 1.92324E-19
 -1      2528 9.52400E-05-2.85784E-05-2.85693E-05 5.57740E-09 1.78335E-18 2.88981E-18
 -1      2529 9.52406E-05-2.85793E-05-2.85691E-05 5.11535E-09 1.95652E-18 1.00344E-18
 -1      2530 9.52413E-05-2.85797E-05-2.85693E-05 5.45172E-09 1.49676E-18 1.49897E-18
 -1      2531 9.52387E-05-2.85766E-05-2.85695E-05 6.00683E-09 1.35925E-18 3.65148E-18
 -1      2532 9.52394E-05-2.85775E-05-2.85693E-05 5.93778E-09 1.39514E-18 4.66431E-18
 -1      2533 9.52399E-05-2.85780E-05-2.85694E-05 6.65905E-09 2.01789E-18 3.02661E-18
 -1      2534 9.52373E-05-2.85746E-05-2.85698E-05 5.62141E-09 6.91533E-19-1.58587E-18
 -1      2535 9.52380E-05-2.85756E-05-2.85696E-05 5.95180E-09 1.28491E-18 3.06317E-19
 -1      2536 9.52383E-05-2.85761E-05-2.85695E-05 6.94253E-09 1.55452E-18 2.17924E-18
 -1      2537 9.08549E-05-4.90427E-05-1.80384E-05 4.21545E-05-1.29977E-18 2.02125E-18
 -1      2538 7.39300E-05-4.26932E-05-1.32028E-05 4.13045E-05-1.45351E-18 2.07311E-18
 -1      2539 1.28663E-04-5.69220E-05-3.09670E-05 2.50057E-05 7.21884E-19-2.15580E-18
 -1      2540 1.09875E-04-5.49148E-05-2.34138E-05 3.41366E-05-5.07796E-19 4.65868E-20
 -1      2541 1.17552E-04-3.72057E-05-3.44433E-05 1.31681E-05 1.23673E-18 3.08328E-18
 -1      2542 1.19540E-04-3.86332E-05-3.46762E-05 1.18006E-05 1.13062E-18 3.31566E-18
 -1      2543 1.19958E-04-3.75309E-05-3.53201E-05 1.52348E-05 1.56792E-18 2.73576E-18
 -1      2544 9.52365E-05-2.85731E-05-2.85701E-05 3.94370E-09 1.03946E-18 9.36234E-19
 -1      2545 3.26251E-05-2.43737E-05-3.38200E-06-2.89388E-05 3.15435E-18 6.21066E-18
 -1      2546 4.68872E-05-3.02693E-05-7.09225E-06-3.88285E-05 3.49359E-18 5.37993E-18
 -1      2547 1.97602E-05-1.63804E-05-1.22574E-06-1.07326E-05 1.45467E-18 7.83209E-18
 -1      2548 2.45499E-05-1.98418E-05-1.85057E-06-2.14920E-05 2.15591E-18 7.36178E-18
 -1      2549 3.58740E-05-2.06355E-05-6.07818E-06-2.67036E-05 3.15509E-18 5.95316E-18
 -1      2550 1.44872E-04-2.28976E-05-5.29321E-05-8.15575E-06-8.21283E-18-1.44398E-18
 -1      2551 1.45723E-04-3.20488E-05-4.88698E-05-3.84733E-06-7.21460E-18-1.66590E-18
 -1      2552 1.52958E-05-5.93229E-06-3.76276E-06 6.17288E-06 5.51683E-19-1.02705E-17
 -1      2553 1.66858E-05-4.81522E-06-4.77851E-06-6.26854E-06 6.16005E-19-1.03783E-17
 -1      2554 5.78962E-05-9.88695E-07-2.44886E-05 9.46877E-06 1.45362E-18-6.35414E-18
 -1      2555 6.36943E-05-3.95945E-06-2.54518E-05 1.01574E-05 1.34014E-18-6.05745E-18
 -1      2556 6.82327E-05-9.00789E-06-2.54065E-05 1.26136E-05 1.51985E-18-5.66403E-18
 -1      2557 1.12466E-04-2.82431E-05-3.61725E-05-1.18313E-05-3.00210E-18-5.28959E-19
 -1      2558 1.13670E-04-3.23259E-05-3.49376E-05-9.99189E-06-2.82454E-18 7.16247E-20
 -1      2559 1.13246E-04-3.26487E-05-3.44695E-05-1.02962E-05-2.38172E-18-3.21638E-19
 -1      2560 1.08780E-04-2.60766E-05-3.55057E-05-1.06117E-05-2.73022E-18-1.44907E-18
 -1      2561 1.44974E-04-4.48401E-05-4.29798E-05-4.87767E-07 4.84347E-18-9.10560E-19
 -1      2562 1.48420E-04-3.70372E-05-4.84301E-05 5.83592E-06 6.39976E-18-3.34154E-19
 -1      2563 1.45220E-04-1.34966E-05-5.68394E-05 5.96040E-06 8.89723E-18-1.65860E-18
 -1      2564 1.42237E-04-1.14087E-05-5.66041E-05 2.57734E-06 9.09163E-18-1.93077E-18
 -1      2565 1.36125E-04-1.51206E-05-5.20393E-05 9.26302E-06 8.05698E-18-2.61363E-19
 -1      2566 1.41685E-04-1.11306E-05-5.65303E-05-3.62384E-06-9.23859E-18-2.93747E-18
 -1      2567 1.39603E-04-1.28816E-05-5.48279E-05-7.07371E-06-8.96775E-18-2.40928E-18
 -1      2568 1.45058E-04-1.51322E-05-5.61560E-05-4.45912E-06 8.67870E-18-3.00983E-18
 -1      2569 1.49298E-04-2.27162E-05-5.44688E-05-4.32949E-06 8.00552E-18-3.54504E-18
 -1      2570 1.26000E-04-5.23254E-05-3.16663E-05-2.08704E-05 2.33781E-18-3.80424E-18
 -1      2571 1.37946E-04-5.18496E-05-3.74553E-05-1.24686E-05 3.28119E-18-2.02526E-18
 -1      2572 9.58945E-05-4.58799E-05-2.13922E-05-3.37165E-05 5.73018E-19-5.96266E-18
 -1      2573 1.13418E-04-5.03629E-05-2.71664E-05-3.03011E-05 1.87935E-18-5.19136E-18
 -1      2574 1.23192E-04-5.36699E-05-2.95383E-05-1.96122E-05-4.45751E-20-2.30509E-18
 -1      2575 5.74507E-05-2.95782E-05-1.18622E-05-3.60844E-05 1.87194E-19-8.48420E-18
 -1      2576 7.55309E-05-3.71992E-05-1.64272E-05-3.90316E-05 8.96373E-19-7.84469E-18
 -1      2577 2.77853E-05-1.10027E-05-6.79865E-06-2.17079E-05 2.32934E-21-1.00274E-17
 -1      2578 4.15340E-05-1.96176E-05-9.09448E-06-3.24226E-05 4.89162E-19-9.55326E-18
 -1      2579 2.67591E-05-1.15044E-05-6.29460E-06 2.59983E-05 1.08611E-18-9.30974E-18
 -1      2580 1.87108E-05-8.24184E-06-4.27190E-06 1.55421E-05 1.24768E-18-9.84083E-18
 -1      2581 2.33921E-05-3.70727E-06-7.85422E-06 1.09345E-05 1.46415E-18-1.00096E-17
 -1      2582 1.00335E-04-4.48280E-05-2.37996E-05 3.66705E-05-1.80206E-18-5.12704E-18
 -1      2583 8.56534E-05-4.03190E-05-1.93065E-05 3.81516E-05-5.40195E-19-5.63225E-18
 -1      2584 1.30156E-04-4.89574E-05-3.50779E-05 2.13496E-05-3.79831E-18-3.47728E-18
 -1      2585 1.14728E-04-4.79615E-05-2.87100E-05 2.84913E-05-2.73825E-18-4.16740E-18
 -1      2586 1.13776E-04-4.93933E-05-2.74578E-05 2.75093E-05-2.61839E-19-3.16250E-18
 -1      2587 1.44541E-04-4.13264E-05-4.47275E-05 3.70064E-06-5.86779E-18-1.84526E-18
 -1      2588 1.38125E-04-4.56815E-05-3.97338E-05 9.69410E-06-4.58584E-18-2.34967E-18
 -1      2589 9.97807E-05-5.13702E-05-2.07282E-05-3.87023E-05 2.93455E-18 1.92875E-18
 -1      2590 1.15560E-04-5.40070E-05-2.65600E-05-3.47223E-05 1.59623E-18 4.33681E-19
 -1      2591 1.42470E-04-1.25479E-05-5.62155E-05 1.68974E-06-8.29753E-18-3.77607E-18
 -1      2592 1.42065E-04-1.08827E-05-5.69177E-05-6.63108E-07-8.92603E-18-3.33261E-18
 -1      2593 1.29879E-04-8.90787E-06-5.20221E-05-2.30853E-06-8.41803E-18-3.05958E-18
 -1      2594 1.44599E-04-2.64269E-05-5.09606E-05 3.29035E-06-6.12638E-18-4.43252E-18
 -1      2595 1.46090E-04-1.89548E-05-5.49771E-05 3.83403E-06-7.54029E-18-4.32114E-18
 -1      2596 1.33919E-04-1.42741E-05-5.14777E-05 5.83754E-06-7.27390E-18-4.94900E-18
 -1      2597 1.43564E-04-4.46633E-05-4.25581E-05-6.78372E-06-2.49017E-18-3.41524E-18
 -1      2598 1.46211E-04-3.90472E-05-4.65032E-05-1.86078E-06-4.05813E-18-4.38212E-18
 -1      2599 1.28447E-04-5.39874E-05-3.19784E-05-2.37776E-05 7.25166E-19-1.07277E-18
 -1      2600 1.39404E-04-5.07584E-05-3.82702E-05-1.65510E-05-9.13260E-19-2.01679E-18
 -1      2601 1.39734E-04-5.03990E-05-3.82557E-05-6.56989E-06-3.88947E-19-4.00943E-18
 -1      2602 6.71815E-05-3.99153E-05-1.14777E-05-4.21600E-05 3.85908E-18 4.19271E-18
 -1      2603 8.36643E-05-4.59306E-05-1.61960E-05-4.39007E-05 3.02052E-18 2.86906E-18
 -1      2604 1.20243E-04-3.50102E-05-3.66103E-05 6.91967E-06 2.98791E-18 3.57313E-18
 -1      2605 1.20843E-04-3.29739E-05-3.77035E-05 8.66036E-06 3.15480E-18 3.88579E-18
 -1      2606 1.17123E-04-3.01917E-05-3.73705E-05 9.32826E-06 3.38115E-18 2.43207E-18
 -1      2607 1.18408E-04-3.52304E-05-3.57567E-05 7.38762E-06 2.85310E-18 2.24086E-18
 -1      2608 5.50317E-05-4.76231E-07-2.32620E-05 9.82320E-06 1.53424E-18-6.63328E-18
 -1      2609 9.57242E-05-2.37347E-05-3.09234E-05 2.31666E-06-1.42765E-19-3.62791E-18
 -1      2610 9.53563E-05-2.07681E-05-3.19677E-05-3.95937E-07-5.83048E-19-3.94286E-18
 -1      2611 9.96656E-05-2.25211E-05-3.31611E-05-3.53707E-06-1.25271E-18-3.49252E-18
 -1      2612 1.20920E-04-4.00119E-05-3.46827E-05 1.15436E-05 1.46630E-18 2.76116E-18
 -1      2613 1.12220E-04-2.76118E-05-3.62737E-05 7.97270E-06 3.09468E-18 7.61853E-19
 -1      2614 1.40588E-04-3.23877E-05-4.65097E-05 6.49330E-06-4.25528E-18-5.36617E-18
 -1      2615 9.79785E-05-5.07183E-05-1.99522E-05-3.90125E-05 3.91922E-18 1.66748E-18
 -1      2616 1.40567E-04-4.99998E-05-3.87553E-05-8.64322E-07 2.55828E-18 2.31240E-19
 -1      2617 1.34781E-04-1.78977E-05-5.03809E-05-1.00532E-05-7.77280E-18-1.19855E-18
 -1      2618 3.99438E-05-2.18558E-05-7.20227E-06 2.77787E-05-2.51611E-18 5.03561E-18
 -1      2619 2.67882E-05-1.24431E-05-5.84246E-06 7.33809E-06-1.76074E-18 5.32890E-18
 -1      2620 2.26691E-05-1.45370E-05-2.98112E-06-1.60580E-06-3.09035E-20 6.90120E-18
 -1      2621 2.78340E-05-1.27799E-05-6.08363E-06-9.66029E-06 8.03411E-19 5.77359E-18
 -1      2622 6.26143E-05-3.50161E-05-1.14569E-05-4.01200E-05 4.09964E-18 4.54126E-18
 -1      2623 7.18779E-05-3.85363E-05-1.38958E-05 3.94935E-05-2.99003E-18 1.83563E-18
 -1      2624 9.52357E-05-2.85726E-05-2.85699E-05 4.78856E-09 1.90057E-18 2.45709E-18
 -1      2625 9.52366E-05-2.85737E-05-2.85698E-05 5.37738E-09 9.32724E-19 1.19389E-18
 -1      2626 9.52366E-05-2.85741E-05-2.85696E-05 6.59195E-09 1.36245E-18 4.89105E-19
 -1      2627 9.52350E-05-2.85724E-05-2.85697E-05 5.68661E-09 1.82549E-18 2.42253E-18
 -1      2628 9.52361E-05-2.85727E-05-2.85700E-05-4.35345E-09-7.01247E-19 2.09268E-18
 -1      2629 1.37657E-04-5.60765E-05-3.49604E-05 1.50749E-05 1.36150E-18-3.08024E-18
 -1      2630 1.30664E-04-5.84676E-05-3.08798E-05 1.83925E-05-2.31452E-19-3.48258E-18
 -1      2631 9.52364E-05-2.85734E-05-2.85699E-05-4.96013E-09 7.12752E-20 1.55484E-18
 -1      2632 1.34631E-04-4.93085E-05-3.65027E-05 1.00208E-05-2.56010E-18-1.22153E-18
 -1      2633 1.06709E-04-5.38243E-05-2.23465E-05 3.45450E-05-2.46402E-18-3.68036E-19
 -1      2634 3.78664E-05-1.55505E-05-9.17700E-06 3.07378E-05 1.66961E-18-8.69691E-18
 -1      2635 3.58993E-05-9.32330E-06-1.09630E-05 2.60447E-05 2.22939E-18-8.55249E-18
 -1      2636 5.01863E-05-1.94357E-05-1.29599E-05 3.42619E-05 2.57117E-18-7.51901E-18
 -1      2637 2.62796E-05-5.98548E-06-8.12663E-06-1.45461E-05 1.68877E-19-1.01811E-17
 -1      2638 3.77339E-05-7.76458E-06-1.24267E-05-2.04148E-05-7.90758E-19-9.13377E-18
 -1      2639 2.65709E-05-1.02665E-06-1.04347E-05-7.26141E-06 5.15102E-19-9.69577E-18
 -1      2640 1.12130E-04-3.02049E-05-3.50428E-05 5.91022E-06 2.66142E-18 5.90276E-19
 -1      2641 1.48538E-04-4.51924E-05-4.44273E-05 3.92321E-06 4.47559E-18-3.72080E-18
 -1      2642 1.41098E-04-5.05850E-05-3.90298E-05 8.87723E-06 2.88932E-18-3.62572E-18
 -1      2643 1.41102E-04-5.25700E-05-3.81731E-05 2.43586E-06 2.02511E-18-4.32961E-18
 -1      2644 1.40819E-04-3.70389E-05-4.45321E-05-6.71779E-06-5.30825E-18-2.97309E-19
 -1      2645 1.25326E-04-5.67041E-05-2.92341E-05-2.50185E-05 2.47694E-18-1.49152E-18
 -1      2646 9.24813E-05-4.29239E-05-2.09104E-05-3.32826E-05-9.37030E-19-5.59391E-18
 -1      2647 1.38188E-04-1.30481E-05-5.41541E-05-1.99178E-06 8.66472E-18-2.25575E-18
 -1      2648 1.31496E-04-1.46947E-05-5.05316E-05-6.20774E-06 7.76772E-18-2.98997E-18
 -1      2649 1.28784E-04-1.11003E-05-5.09258E-05 1.00056E-06 8.24205E-18-1.42803E-18
 -1      2650 8.94955E-05-4.01697E-05-2.10522E-05 3.48628E-05 2.04029E-18-4.40801E-18
 -1      2651 7.69478E-05-3.60026E-05-1.73645E-05 3.90089E-05 5.97158E-19-6.22220E-18
 -1      2652 6.80498E-05-2.95992E-05-1.60002E-05 3.82901E-05 2.01742E-18-6.13273E-18
 -1      2653 1.41873E-04-3.10175E-05-4.76109E-05 1.28678E-05 5.81266E-18 9.25595E-19
 -1      2654 1.05585E-04-2.47836E-05-3.46418E-05-8.15321E-06-2.08780E-18-2.23042E-18
 -1      2655 1.41700E-04-2.56606E-05-4.99103E-05-9.47953E-06 6.65514E-18-4.36328E-18
 -1      2656 1.50561E-04-3.03537E-05-5.19059E-05-3.32703E-06 6.86690E-18-4.00414E-18
 -1      2657 5.64134E-05-2.36583E-05-1.36383E-05-3.27753E-05-1.09670E-18-8.47764E-18
 -1      2658 1.48092E-04-3.76573E-05-4.76988E-05-1.99709E-07 5.53060E-18-3.81165E-18
 -1      2659 9.52355E-05-2.85731E-05-2.85696E-05 7.05806E-09 1.61732E-18 2.21363E-18
 -1      2660 9.52364E-05-2.85738E-05-2.85697E-05-6.22279E-09-3.96540E-19 6.73924E-19
 -1      2661 5.58008E-05-2.85587E-06-2.24535E-05-9.81713E-06 1.88989E-19-6.49195E-18
 -1      2662 4.94198E-05 5.63518E-07-2.14772E-05-6.81055E-06 4.43243E-19-6.96854E-18
 -1      2663 4.55648E-05 3.34973E-06-2.08091E-05 3.55823E-08 1.01088E-18-7.29354E-18
 -1      2664 4.56653E-05 3.10893E-06-2.07827E-05 4.57618E-06 1.39575E-18-7.32657E-18
 -1      2665 4.50545E-05 1.01402E-06-1.94549E-05-4.81794E-06 6.85541E-19-7.65675E-18
 -1      2666 9.24648E-05-2.40443E-05-2.92099E-05-7.26862E-06 6.00015E-19-2.95804E-18
 -1      2667 8.39856E-05-1.97770E-05-2.75503E-05-9.97458E-06 1.49649E-19-3.70012E-18
 -1      2668 1.06108E-04-3.05197E-05-3.23463E-05 1.15412E-07 1.42957E-18-1.18600E-18
 -1      2669 9.97361E-05-2.75411E-05-3.09139E-05-2.98829E-06 9.70421E-19-2.03660E-18
 -1      2670 9.94224E-05-3.05082E-05-2.96073E-05-6.92132E-06 3.58057E-19-2.05687E-18
 -1      2671 1.19274E-04-4.00988E-05-3.40271E-05 6.95996E-06 1.61817E-18 1.60253E-18
 -1      2672 1.18458E-04-3.82264E-05-3.42715E-05 5.91806E-06 1.75771E-18 1.44338E-18
 -1      2673 1.22351E-04-4.21096E-05-3.44956E-05 1.10681E-05 1.09991E-18 2.35201E-18
 -1      2674 1.22128E-04-4.19947E-05-3.42838E-05 9.05249E-06 1.22869E-18 2.23979E-18
 -1      2675 1.20307E-04-4.18895E-05-3.36204E-05 6.38337E-06 1.12079E-18 1.35187E-18
 -1      2676 9.52372E-05-2.85750E-05-2.85695E-05-8.01924E-09-5.28359E-19-6.76244E-19
 -1      2677 9.52360E-05-2.85737E-05-2.85696E-05-7.35097E-09-1.02896E-18 6.65948E-19
 -1      2678 9.52353E-05-2.85735E-05-2.85694E-05-8.46802E-09-5.01624E-19 2.25806E-19
 -1      2679 1.17109E-04-3.80772E-05-3.38512E-05-1.19484E-05-1.39097E-18 3.13429E-19
 -1      2680 1.16510E-04-3.71084E-05-3.40665E-05-1.28981E-05-1.47027E-18 2.41418E-19
 -1      2681 1.16504E-04-3.54444E-05-3.48236E-05-1.44484E-05-1.57621E-18 3.80822E-19
 -1      2682 1.14812E-04-3.24070E-05-3.53058E-05-1.45012E-05-2.13031E-18 2.62066E-19
 -1      2683 1.18859E-04-3.73725E-05-3.49246E-05-1.37209E-05-1.68598E-18 3.57382E-19
 -1      2684 1.12960E-04-2.87268E-05-3.62883E-05-1.38860E-05-2.85405E-18 7.81049E-20
 -1      2685 1.10785E-04-2.49865E-05-3.67884E-05-1.17740E-05-3.33403E-18-3.85412E-19
 -1      2686 1.16956E-04-3.07866E-05-3.69451E-05-1.53264E-05-2.69396E-18 2.12023E-19
 -1      2687 1.08887E-04-2.18077E-05-3.74473E-05-7.68460E-06-3.71608E-18-1.09649E-18
 -1      2688 1.07833E-04-2.01779E-05-3.76045E-05-3.62706E-06-3.76574E-18-1.89628E-18
 -1      2689 1.12712E-04-2.21697E-05-3.88811E-05-1.08309E-05-4.12418E-18-6.67118E-19
 -1      2690 1.07585E-04-2.01974E-05-3.75180E-05 2.09229E-06-3.82311E-18-2.95461E-18
 -1      2691 1.08408E-04-2.20829E-05-3.71796E-05 6.12725E-06-3.75985E-18-3.65789E-18
 -1      2692 1.10283E-04-1.81343E-05-3.96356E-05-1.08430E-06-4.55270E-18-2.74007E-18
 -1      2693 1.10276E-04-2.55088E-05-3.63031E-05 9.79251E-06-3.17050E-18-4.11504E-18
 -1      2694 1.11999E-04-2.93951E-05-3.56078E-05 1.16456E-05-2.45104E-18-4.31939E-18
 -1      2695 1.12359E-04-2.29975E-05-3.84177E-05 8.78019E-06-3.67149E-18-4.40449E-18
 -1      2696 1.13679E-04-3.33717E-05-3.43792E-05 1.17439E-05-1.89157E-18-4.38702E-18
 -1      2697 1.15112E-04-3.67708E-05-3.36305E-05 1.11234E-05-1.10947E-18-4.31248E-18
 -1      2698 1.16089E-04-3.19191E-05-3.60795E-05 1.23974E-05-2.25631E-18-4.65768E-18
 -1      2699 1.14743E-04-3.87836E-05-3.25820E-05 8.51815E-06-7.03094E-19-3.90838E-18
 -1      2700 1.15033E-04-4.01634E-05-3.20274E-05 6.70741E-06-2.33112E-19-4.06526E-18
 -1      2701 1.17768E-04-3.96581E-05-3.36274E-05 9.49843E-06-9.36832E-19-4.75402E-18
 -1      2702 1.13185E-04-4.02550E-05-3.13234E-05 3.56257E-06 2.55251E-20-3.44317E-18
 -1      2703 1.12423E-04-3.99363E-05-3.09813E-05 1.52728E-06 2.27798E-19-3.67017E-18
 -1      2704 1.15880E-04-4.25828E-05-3.16409E-05 3.73647E-06-3.43776E-21-3.64335E-18
 -1      2705 1.10074E-04-3.88084E-05-3.05981E-05-8.63846E-07 2.08731E-19-3.28603E-18
 -1      2706 1.08792E-04-3.76608E-05-3.04113E-05-2.50764E-06 3.71498E-19-3.26572E-18
 -1      2707 1.11715E-04-4.11773E-05-3.04439E-05-1.47662E-06 3.34343E-19-3.14669E-18
 -1      2708 1.06662E-04-3.61852E-05-3.02367E-05-3.92713E-06 4.28403E-19-3.42272E-18
 -1      2709 1.05319E-04-3.48864E-05-3.01344E-05-4.99843E-06 3.53875E-19-3.25296E-18
 -1      2710 1.07220E-04-3.79296E-05-2.98537E-05-4.92130E-06 3.91286E-19-3.06543E-18
 -1      2711 1.03682E-04-3.35587E-05-3.00658E-05-5.64302E-06 9.19560E-20-2.88355E-18
 -1      2712 1.02506E-04-3.24462E-05-2.99950E-05-6.19174E-06 4.82354E-20-2.87398E-18
 -1      2713 1.03434E-04-3.45621E-05-2.96159E-05-6.70698E-06 3.94549E-19-2.58255E-18
 -1      2714 1.01363E-04-3.14455E-05-2.99659E-05-6.31994E-06-9.44475E-21-2.81519E-18
 -1      2715 1.00415E-04-3.06194E-05-2.98977E-05-6.47482E-06-2.10947E-19-2.65332E-18
 -1      2716 1.00633E-04-3.18356E-05-2.95396E-05-7.30536E-06 1.63500E-19-2.55598E-18
 -1      2717 9.96656E-05-2.99494E-05-2.98733E-05-6.29441E-06-5.19393E-19-2.14848E-18
 -1      2718 9.89296E-05-2.93918E-05-2.97972E-05-6.18777E-06-4.19110E-19-2.03569E-18
 -1      2719 9.87161E-05-2.99140E-05-2.95127E-05-7.15773E-06 1.17672E-19-2.05914E-18
 -1      2720 9.84569E-05-2.89877E-05-2.97642E-05-5.84280E-06-2.15056E-19-1.75141E-18
 -1      2721 9.78908E-05-2.86399E-05-2.96801E-05-5.58344E-06-7.92005E-20-1.91316E-18
 -1      2722 9.74665E-05-2.86969E-05-2.94816E-05-6.58567E-06-1.20719E-19-1.56005E-18
 -1      2723 9.75997E-05-2.84251E-05-2.96365E-05-5.16754E-06-1.38568E-19-2.30945E-18
 -1      2724 9.71632E-05-2.82257E-05-2.95488E-05-4.83518E-06-1.73696E-19-2.55674E-18
 -1      2725 9.66745E-05-2.80072E-05-2.94285E-05-5.80399E-06-3.92855E-19-2.17953E-18
 -1      2726 9.69855E-05-2.81343E-05-2.94976E-05-4.40686E-06-2.14263E-19-2.52976E-18
 -1      2727 9.66467E-05-2.80328E-05-2.94113E-05-4.05525E-06-8.23488E-20-2.63143E-18
 -1      2728 9.61786E-05-2.76764E-05-2.93536E-05-4.95055E-06-2.74253E-19-2.86512E-18
 -1      2729 9.65377E-05-2.80160E-05-2.93567E-05-3.64922E-06 4.73063E-19-2.94974E-18
 -1      2730 9.62735E-05-2.79756E-05-2.92760E-05-3.31173E-06 6.96751E-19-2.26712E-18
 -1      2731 9.58678E-05-2.75718E-05-2.92639E-05-4.11086E-06-8.68797E-20-2.60923E-18
 -1      2732 9.62053E-05-2.80000E-05-2.92219E-05-2.94673E-06 4.16791E-19-2.10262E-18
 -1      2733 9.59990E-05-2.79955E-05-2.91494E-05-2.64191E-06 3.57972E-19-2.01763E-18
 -1      2734 9.56701E-05-2.75988E-05-2.91677E-05-3.33487E-06 6.91513E-19-2.54275E-18
 -1      2735 9.59550E-05-2.80397E-05-2.90986E-05-2.32617E-06 8.06992E-19-2.32131E-18
 -1      2736 9.57945E-05-2.80546E-05-2.90357E-05-2.06242E-06 8.13800E-19-1.96237E-18
 -1      2737 9.55413E-05-2.76945E-05-2.90723E-05-2.64836E-06 7.64950E-19-2.62561E-18
 -1      2738 9.57649E-05-2.81056E-05-2.89900E-05-1.79745E-06-1.30353E-19-1.84682E-18
 -1      2739 9.56410E-05-2.81297E-05-2.89369E-05-1.57664E-06-1.54781E-19-1.94396E-18
 -1      2740 9.54548E-05-2.78193E-05-2.89827E-05-2.06100E-06 2.72184E-19-2.01660E-18
 -1      2741 9.56203E-05-2.81799E-05-2.88973E-05-1.35985E-06-1.33808E-19-1.97825E-18
 -1      2742 9.55256E-05-2.82070E-05-2.88536E-05-1.17993E-06 5.49390E-20-1.91540E-18
 -1      2743 9.53947E-05-2.79494E-05-2.89022E-05-1.57206E-06 1.47854E-19-1.91647E-18
 -1      2744 9.55105E-05-2.82526E-05-2.88201E-05-1.00651E-06 1.26591E-19-2.09530E-18
 -1      2745 9.54391E-05-2.82792E-05-2.87850E-05-8.63343E-07 6.57721E-19-2.34802E-18
 -1      2746 9.53518E-05-2.80717E-05-2.88323E-05-1.17460E-06-8.40732E-20-2.08157E-18
 -1      2747 9.54278E-05-2.83185E-05-2.87573E-05-7.27476E-07 7.32007E-19-2.93647E-18
 -1      2748 9.53749E-05-2.83427E-05-2.87297E-05-6.15992E-07 4.55012E-19-2.85337E-18
 -1      2749 9.53205E-05-2.81799E-05-2.87732E-05-8.58365E-07 3.46407E-19-3.32336E-18
 -1      2750 9.53663E-05-2.83755E-05-2.87074E-05-5.11671E-07 6.12268E-19-2.78700E-18
 -1      2751 9.53277E-05-2.83964E-05-2.86860E-05-4.26661E-07 2.66077E-19-2.86907E-18
 -1      2752 9.52973E-05-2.82717E-05-2.87244E-05-6.11811E-07 6.34077E-19-3.48388E-18
 -1      2753 9.53212E-05-2.84229E-05-2.86684E-05-3.48175E-07 4.64789E-20-1.76740E-18
 -1      2754 9.52937E-05-2.84404E-05-2.86523E-05-2.84715E-07-1.96305E-19-1.39473E-18
 -1      2755 9.52800E-05-2.83470E-05-2.86851E-05-4.23370E-07 7.09515E-19-3.46828E-18
 -1      2756 9.52887E-05-2.84613E-05-2.86386E-05-2.26919E-07-5.86629E-19-1.59003E-18
 -1      2757 9.52697E-05-2.84756E-05-2.86266E-05-1.80603E-07-6.50169E-19-9.30271E-19
 -1      2758 9.52671E-05-2.84073E-05-2.86540E-05-2.82245E-07-1.98217E-19-1.81266E-18
 -1      2759 9.52659E-05-2.84916E-05-2.86162E-05-1.39037E-07-1.49366E-18-1.75995E-18
 -1      2760 9.52532E-05-2.85030E-05-2.86076E-05-1.06076E-07-1.28240E-18-2.49373E-18
 -1      2761 9.52576E-05-2.84544E-05-2.86299E-05-1.78823E-07-1.39827E-18-2.03394E-18
 -1      2762 9.52503E-05-2.85151E-05-2.85998E-05-7.69914E-08-4.00992E-19-2.70825E-18
 -1      2763 9.52422E-05-2.85240E-05-2.85937E-05-5.42234E-08 3.55920E-20-2.71731E-18
 -1      2764 9.52506E-05-2.84905E-05-2.86116E-05-1.04844E-07-8.11532E-19-1.93466E-18
 -1      2765 9.52401E-05-2.85329E-05-2.85881E-05-3.45445E-08 4.37610E-19-2.35868E-18
 -1      2766 9.52353E-05-2.85397E-05-2.85839E-05-1.93963E-08 1.80884E-19-1.68665E-18
 -1      2767 9.52455E-05-2.85175E-05-2.85979E-05-5.34066E-08 1.49604E-20-2.52463E-18
 -1      2768 9.52337E-05-2.85462E-05-2.85799E-05-6.65810E-09-4.02419E-19-4.53245E-19
 -1      2769 9.52312E-05-2.85512E-05-2.85772E-05 2.91882E-09-6.80449E-19-2.68733E-20
 -1      2770 9.52419E-05-2.85372E-05-2.85879E-05-1.88820E-08 4.00545E-19-3.11862E-18
 -1      2771 9.52301E-05-2.85557E-05-2.85744E-05 1.06534E-08-1.54152E-18 6.26830E-19
 -1      2772 9.52292E-05-2.85594E-05-2.85728E-05 1.62562E-08-5.52444E-19 3.03508E-20
 -1      2773 9.52395E-05-2.85513E-05-2.85809E-05 3.22111E-09-9.04378E-19-2.12131E-18
 -1      2774 9.52284E-05-2.85625E-05-2.85709E-05 2.04793E-08 5.16295E-19-6.46015E-19
 -1      2775 9.52285E-05-2.85651E-05-2.85700E-05 2.33289E-08 4.46540E-19-9.79045E-19
 -1      2776 9.52379E-05-2.85610E-05-2.85760E-05 1.64166E-08-7.14161E-19-1.98568E-18
 -1      2777 9.52279E-05-2.85671E-05-2.85688E-05 2.51674E-08-8.91382E-21-1.48901E-18
 -1      2778 9.52286E-05-2.85689E-05-2.85684E-05 2.61779E-08-6.62384E-19-1.79969E-18
 -1      2779 9.52368E-05-2.85676E-05-2.85727E-05 2.33997E-08-4.02469E-19-2.08616E-18
 -1      2780 9.52283E-05-2.85701E-05-2.85677E-05 2.64648E-08-3.24561E-19-1.83996E-18
 -1      2781 9.52293E-05-2.85714E-05-2.85676E-05 2.63054E-08 4.70905E-20-2.06275E-18
 -1      2782 9.52362E-05-2.85717E-05-2.85707E-05 2.61966E-08-2.51500E-19-2.64794E-18
 -1      2783 9.52291E-05-2.85720E-05-2.85673E-05 2.56424E-08 5.02940E-19-1.13056E-18
 -1      2784 9.52302E-05-2.85728E-05-2.85674E-05 2.47903E-08 4.03109E-19-9.49940E-19
 -1      2785 9.52359E-05-2.85742E-05-2.85695E-05 2.62978E-08 5.92443E-19-1.07847E-18
 -1      2786 9.52301E-05-2.85731E-05-2.85673E-05 2.35992E-08 7.25464E-19 2.52508E-19
 -1      2787 9.52313E-05-2.85736E-05-2.85675E-05 2.23837E-08 7.25578E-19 1.12615E-18
 -1      2788 9.52358E-05-2.85754E-05-2.85688E-05 2.47727E-08 1.56832E-18-1.58346E-19
 -1      2789 9.52312E-05-2.85737E-05-2.85675E-05 2.09495E-08 6.65257E-20 2.30324E-18
 -1      2790 9.52323E-05-2.85740E-05-2.85678E-05 1.95873E-08 3.34269E-19 2.33704E-18
 -1      2791 9.52359E-05-2.85759E-05-2.85686E-05 2.23650E-08 1.05802E-18 1.46007E-18
 -1      2792 9.52323E-05-2.85739E-05-2.85679E-05 1.80918E-08-1.92551E-19 1.87601E-18
 -1      2793 9.52333E-05-2.85740E-05-2.85682E-05 1.67149E-08-2.32148E-19 1.53352E-18
 -1      2794 9.52360E-05-2.85760E-05-2.85687E-05 1.95713E-08-3.69076E-19 2.41270E-18
 -1      2795 9.52334E-05-2.85739E-05-2.85684E-05 1.52630E-08-2.94312E-20 1.88932E-18
 -1      2796 9.52343E-05-2.85740E-05-2.85687E-05 1.39405E-08 1.34172E-19 2.21534E-18
 -1      2797 9.52362E-05-2.85758E-05-2.85688E-05 1.67031E-08-3.51255E-19 2.15406E-18
 -1      2798 9.52344E-05-2.85739E-05-2.85688E-05 1.25788E-08 5.43209E-19 2.21257E-18
 -1      2799 9.52351E-05-2.85740E-05-2.85691E-05 1.13332E-08 1.35356E-18 8.87311E-19
 -1      2800 9.52365E-05-2.85755E-05-2.85690E-05 1.39388E-08 2.27363E-19 2.69006E-18
 -1      2801 9.52353E-05-2.85740E-05-2.85692E-05 1.01006E-08 1.83334E-18 5.50967E-19
 -1      2802 9.52360E-05-2.85740E-05-2.85694E-05 8.91219E-09 2.41481E-18 2.64727E-19
 -1      2803 9.52367E-05-2.85752E-05-2.85692E-05 1.13168E-08 1.43707E-18 5.14307E-19
 -1      2804 1.34185E-04-4.83763E-05-3.72967E-05 1.58083E-06-2.01328E-18 1.76183E-19
 -1      2805 1.28698E-04-5.08389E-05-3.32989E-05 1.05044E-05-6.89008E-19-6.26804E-19
 -1      2806 1.18926E-04-2.91365E-05-3.85171E-05 1.56515E-05 3.23768E-18 1.86016E-18
 -1      2807 1.21694E-04-3.44081E-05-3.76474E-05 1.70614E-05 2.36149E-18 2.30315E-18
 -1      2808 1.17896E-04-3.03571E-05-3.78281E-05-1.37391E-05 2.98317E-18-3.70022E-18
 -1      2809 1.15313E-04-2.52918E-05-3.86141E-05-1.09126E-05 4.14342E-18-3.11514E-18
 -1      2810 1.21222E-04-3.95938E-05-3.51805E-05-1.28868E-05 8.45848E-19-4.34610E-18
 -1      2811 1.19665E-04-3.52248E-05-3.61851E-05-1.39254E-05 1.87613E-18-4.30155E-18
 -1      2812 1.22549E-04-3.38456E-05-3.81139E-05-1.41790E-05 2.70378E-18-4.30102E-18
 -1      2813 1.20395E-04-4.32310E-05-3.30964E-05-6.62415E-06-9.74750E-21-3.97180E-18
 -1      2814 1.20665E-04-4.18772E-05-3.37943E-05-9.52671E-06 2.78985E-19-3.98337E-18
 -1      2815 1.23817E-04-4.27984E-05-3.47584E-05-1.06291E-05 3.91501E-19-4.55708E-18
 -1      2816 1.16479E-04-4.20260E-05-3.18552E-05 3.09039E-08-1.02971E-18-3.07071E-18
 -1      2817 1.17904E-04-4.28015E-05-3.22446E-05-2.94764E-06-3.59168E-19-3.46400E-18
 -1      2818 1.20425E-04-4.49870E-05-3.23352E-05-3.20239E-06-6.34620E-19-3.99894E-18
 -1      2819 1.11630E-04-3.85004E-05-3.12778E-05 4.72006E-06-2.78694E-19-2.69713E-18
 -1      2820 1.13423E-04-4.01498E-05-3.14709E-05 2.66304E-06-4.87735E-19-2.78854E-18
 -1      2821 1.14660E-04-4.23599E-05-3.10676E-05 3.30961E-06-7.76828E-19-3.27736E-18
 -1      2822 1.07395E-04-3.49653E-05-3.09930E-05 7.28829E-06-4.64263E-19-2.24446E-18
 -1      2823 1.09078E-04-3.65895E-05-3.11173E-05 6.16067E-06-2.80414E-19-2.31397E-18
 -1      2824 1.09113E-04-3.80718E-05-3.05226E-05 7.14489E-06-5.84404E-19-2.54441E-18
 -1      2825 1.04172E-04-3.22256E-05-3.08045E-05 8.21367E-06-6.80783E-19-1.76100E-18
 -1      2826 1.05565E-04-3.34755E-05-3.09212E-05 7.80497E-06-4.68788E-19-2.00414E-18
 -1      2827 1.04773E-04-3.41484E-05-3.03217E-05 8.86116E-06-6.53737E-19-1.52584E-18
 -1      2828 1.01864E-04-3.03897E-05-3.06160E-05 8.09745E-06-1.93135E-19-1.84841E-18
 -1      2829 1.02962E-04-3.12374E-05-3.07475E-05 8.16128E-06-5.30877E-19-1.64669E-18
 -1      2830 1.01771E-04-3.13023E-05-3.02336E-05 9.16149E-06-5.76437E-19-1.50652E-18
 -1      2831 1.00226E-04-2.92766E-05-3.04002E-05 7.40323E-06 1.61764E-19-1.93877E-18
 -1      2832 1.01086E-04-2.98072E-05-3.05460E-05 7.73524E-06-1.27438E-20-2.08845E-18
 -1      2833 9.98014E-05-2.95025E-05-3.01462E-05 8.64506E-06-7.36108E-20-1.72022E-18
 -1      2834 9.90417E-05-2.86584E-05-3.01629E-05 6.44382E-06 1.47209E-20-8.77749E-19
 -1      2835 9.97222E-05-2.89710E-05-3.03139E-05 6.89952E-06 6.82159E-20-1.26241E-18
 -1      2836 9.85225E-05-2.84870E-05-3.00247E-05 7.71398E-06-2.94395E-19-1.43127E-18
 -1      2837 9.81588E-05-2.83484E-05-2.99200E-05 5.41389E-06 2.50943E-19-1.05723E-18
 -1      2838 9.87027E-05-2.85225E-05-3.00664E-05 5.90120E-06 1.96162E-19-8.96624E-19
 -1      2839 9.76724E-05-2.79861E-05-2.98705E-05 6.62118E-06 4.92011E-20-9.51775E-19
 -1      2840 9.74809E-05-2.82176E-05-2.96865E-05 4.42532E-06 8.39716E-19-4.30890E-19
 -1      2841 9.79179E-05-2.83080E-05-2.98212E-05 4.89100E-06 6.05496E-19-7.69032E-19
 -1      2842 9.70815E-05-2.77930E-05-2.96979E-05 5.51804E-06 1.90397E-19-9.42078E-19
 -1      2843 9.69502E-05-2.81848E-05-2.94734E-05 3.53568E-06 2.10931E-22 1.64337E-19
 -1      2844 9.73009E-05-2.82264E-05-2.95921E-05 3.95262E-06 6.31636E-19-1.61337E-19
 -1      2845 9.66495E-05-2.77693E-05-2.95221E-05 4.48933E-06 4.60102E-19 2.44452E-19
 -1      2846 9.65311E-05-2.82020E-05-2.92863E-05 2.76860E-06 3.09853E-19-2.47424E-19
 -1      2847 9.68105E-05-2.82160E-05-2.93875E-05 3.12614E-06 3.01808E-19-3.12595E-19
 -1      2848 9.63203E-05-2.78302E-05-2.93547E-05 3.57710E-06 4.59841E-19 4.09065E-20
 -1      2849 9.62004E-05-2.82417E-05-2.91272E-05 2.12756E-06-9.09615E-20-7.11852E-19
 -1      2850 9.64206E-05-2.82407E-05-2.92111E-05 2.42467E-06 4.28315E-19-1.38198E-19
 -1      2851 9.60628E-05-2.79265E-05-2.92029E-05 2.79661E-06 3.86872E-19-1.23850E-18
 -1      2852 9.59414E-05-2.82893E-05-2.89954E-05 1.60493E-06-9.41813E-19 5.15626E-19
 -1      2853 9.61126E-05-2.82805E-05-2.90634E-05 1.84579E-06-5.86928E-19 1.01428E-19
 -1      2854 9.58592E-05-2.80315E-05-2.90706E-05 2.14702E-06-6.19907E-19-1.93985E-19
 -1      2855 9.57408E-05-2.83368E-05-2.88887E-05 1.18765E-06-5.72738E-19-1.00488E-18
 -1      2856 9.58718E-05-2.83246E-05-2.89427E-05 1.37887E-06-5.79626E-19-8.30626E-20
 -1      2857 9.56983E-05-2.81317E-05-2.89586E-05 1.61854E-06-7.38645E-19 5.66201E-19
 -1      2858 9.55878E-05-2.83806E-05-2.88041E-05 8.60661E-07-1.45789E-19-1.43333E-18
 -1      2859 9.56864E-05-2.83673E-05-2.88461E-05 1.00965E-06-6.75520E-19-1.59503E-18
 -1      2860 9.55723E-05-2.82209E-05-2.88662E-05 1.19704E-06-3.17598E-19-5.99038E-19
 -1      2861 9.54730E-05-2.84191E-05-2.87382E-05 6.08958E-07-1.39885E-19-1.34079E-18
 -1      2862 9.55459E-05-2.84061E-05-2.87703E-05 7.22972E-07-1.03057E-19-1.34313E-18
 -1      2863 9.54748E-05-2.82972E-05-2.87916E-05 8.66951E-07-1.67138E-19-9.97068E-19
 -1      2864 9.53887E-05-2.84518E-05-2.86878E-05 4.18618E-07 7.34889E-19-1.36112E-18
 -1      2865 9.54413E-05-2.84399E-05-2.87119E-05 5.04308E-07 3.53286E-19-1.53581E-18
 -1      2866 9.54007E-05-2.83605E-05-2.87325E-05 6.12947E-07 1.66780E-19-1.59711E-18
 -1      2867 9.53280E-05-2.84790E-05-2.86500E-05 2.77328E-07 8.78581E-19-5.35124E-19
 -1      2868 9.53651E-05-2.84685E-05-2.86677E-05 3.40514E-07 7.57441E-19-9.70606E-19
 -1      2869 9.53453E-05-2.84119E-05-2.86866E-05 4.20928E-07 3.74151E-19-1.71614E-18
 -1      2870 9.52856E-05-2.85012E-05-2.86222E-05 1.74553E-07 1.07621E-18-2.46841E-19
 -1      2871 9.53110E-05-2.84922E-05-2.86349E-05 2.20174E-07 1.32608E-18 2.53765E-19
 -1      2872 9.53049E-05-2.84529E-05-2.86516E-05 2.78447E-07 7.27192E-19 3.00086E-20
 -1      2873 9.52569E-05-2.85190E-05-2.86022E-05 1.01503E-07 1.85762E-20-7.62498E-19
 -1      2874 9.52736E-05-2.85114E-05-2.86111E-05 1.33648E-07 9.53756E-19-2.73846E-19
 -1      2875 9.52762E-05-2.84850E-05-2.86253E-05 1.74856E-07 1.13791E-18-1.68384E-19
 -1      2876 9.52383E-05-2.85330E-05-2.85881E-05 5.09987E-08-1.16002E-18-1.11617E-18
 -1      2877 9.52487E-05-2.85267E-05-2.85942E-05 7.29854E-08-3.25807E-19-9.42507E-19
 -1      2878 9.52563E-05-2.85098E-05-2.86061E-05 1.01278E-07-3.76977E-20-1.22515E-18
 -1      2879 9.52271E-05-2.85438E-05-2.85786E-05 1.72850E-08-2.11540E-18-6.35483E-19
 -1      2880 9.52329E-05-2.85388E-05-2.85826E-05 3.17562E-08-1.92701E-18-1.21497E-18
 -1      2881 9.52430E-05-2.85286E-05-2.85922E-05 5.04569E-08-1.05802E-18-1.36279E-18
 -1      2882 9.52209E-05-2.85521E-05-2.85724E-05-4.17216E-09-1.96308E-19-4.08719E-19
 -1      2883 9.52237E-05-2.85481E-05-2.85748E-05 4.85323E-09-9.04324E-19-9.54278E-19
 -1      2884 9.52347E-05-2.85427E-05-2.85825E-05 1.65773E-08-1.29095E-18-1.18842E-18
 -1      2885 9.52183E-05-2.85583E-05-2.85686E-05-1.68845E-08 8.94689E-19 1.66725E-19
 -1      2886 9.52190E-05-2.85552E-05-2.85699E-05-1.17115E-08 5.28155E-19-2.08435E-19
 -1      2887 9.52298E-05-2.85529E-05-2.85760E-05-4.94234E-09 8.96028E-20-9.21463E-19
 -1      2888 9.52180E-05-2.85628E-05-2.85665E-05-2.35254E-08 1.01693E-18-4.57535E-19
 -1      2889 9.52174E-05-2.85605E-05-2.85671E-05-2.09991E-08 1.32166E-18 3.42896E-19
 -1      2890 9.52273E-05-2.85602E-05-2.85718E-05-1.76502E-08 8.03359E-19-9.40934E-19
 -1      2891 9.52190E-05-2.85661E-05-2.85655E-05-2.60932E-08-4.31392E-19-9.94320E-19
 -1      2892 9.52177E-05-2.85643E-05-2.85657E-05-2.53183E-08 4.96261E-19-2.03389E-19
 -1      2893 9.52265E-05-2.85653E-05-2.85692E-05-2.42463E-08 4.26699E-19-1.22225E-18
 -1      2894 9.52209E-05-2.85684E-05-2.85653E-05-2.60516E-08-1.09832E-18-1.11056E-18
 -1      2895 9.52192E-05-2.85671E-05-2.85652E-05-2.63773E-08-6.69729E-19-7.50871E-19
 -1      2896 9.52267E-05-2.85688E-05-2.85678E-05-2.67478E-08-9.80412E-20-6.45764E-19
 -1      2897 9.52231E-05-2.85700E-05-2.85656E-05-2.44475E-08-2.57429E-18-1.15180E-18
 -1      2898 9.52213E-05-2.85690E-05-2.85653E-05-2.54125E-08-1.64743E-18-9.88936E-19
 -1      2899 9.52276E-05-2.85710E-05-2.85671E-05-2.66310E-08-1.46832E-18-2.49089E-19
 -1      2900 9.52254E-05-2.85710E-05-2.85661E-05-2.20076E-08-9.93920E-19-1.77465E-18
 -1      2901 9.52237E-05-2.85703E-05-2.85657E-05-2.32954E-08-2.40258E-18-1.98066E-18
 -1      2902 9.52287E-05-2.85724E-05-2.85670E-05-2.49502E-08-1.98256E-18-1.16229E-18
 -1      2903 9.52276E-05-2.85717E-05-2.85668E-05-1.92155E-08-6.94236E-19-1.36171E-18
 -1      2904 9.52260E-05-2.85712E-05-2.85664E-05-2.06192E-08-7.69863E-19-1.58453E-18
 -1      2905 9.52300E-05-2.85731E-05-2.85672E-05-2.24358E-08-1.76598E-18-2.61578E-18
 -1      2906 9.52297E-05-2.85721E-05-2.85675E-05-1.63726E-08 9.37694E-19-2.12739E-19
 -1      2907 9.52282E-05-2.85718E-05-2.85671E-05-1.77676E-08 2.02431E-19-9.75138E-19
 -1      2908 9.52313E-05-2.85735E-05-2.85676E-05-1.95725E-08-4.46265E-19-2.42458E-18
 -1      2909 9.52315E-05-2.85724E-05-2.85682E-05-1.36469E-08 1.66165E-18 4.57482E-19
 -1      2910 9.52303E-05-2.85722E-05-2.85678E-05-1.49684E-08 1.37086E-18-1.14010E-19
 -1      2911 9.52325E-05-2.85736E-05-2.85681E-05-1.66619E-08 6.35216E-19-8.32032E-19
 -1      2912 9.52331E-05-2.85727E-05-2.85688E-05-1.11053E-08 1.18209E-18 1.13950E-18
 -1      2913 9.52320E-05-2.85724E-05-2.85684E-05-1.23166E-08 2.58428E-18 1.96871E-18
 -1      2914 9.52337E-05-2.85737E-05-2.85686E-05-1.38794E-08 1.19300E-18-7.22359E-19
 -1      2915 9.52347E-05-2.85732E-05-2.85692E-05-9.20439E-09 2.24652E-19 5.15853E-19
 -1      2916 9.52339E-05-2.85730E-05-2.85690E-05-1.03560E-08 3.21322E-19 1.10488E-18
 -1      2917 9.52352E-05-2.85741E-05-2.85690E-05-1.17051E-08 9.72937E-19 8.71309E-19
 -1      2918 9.52365E-05-2.85747E-05-2.85693E-05-1.00502E-08 4.57748E-20 1.61885E-18
 -1      2919 1.35071E-04-3.34014E-05-4.42623E-05-1.20628E-05-5.11968E-18 4.86197E-19
 -1      2920 1.36418E-04-4.11995E-05-4.08514E-05-7.73011E-06-3.46823E-18 6.86732E-19
 -1      2921 1.31474E-04-5.75650E-05-3.20742E-05 1.18053E-05-3.22667E-19-4.31992E-18
 -1      2922 1.25338E-04-5.78422E-05-2.86634E-05 1.97768E-05-1.25281E-18-3.27119E-18
 -1      2923 9.52438E-05-2.85818E-05-2.85694E-05-7.22196E-10 3.49933E-19-3.71997E-18
 -1      2924 9.52436E-05-2.85817E-05-2.85694E-05-2.00757E-09 8.47431E-19-4.63785E-18
 -1      2925 9.52423E-05-2.85803E-05-2.85694E-05-5.70856E-09 1.38926E-18 1.94112E-19
 -1      2926 9.52416E-05-2.85795E-05-2.85694E-05-6.54419E-09 1.36530E-18-3.85353E-19
 -1      2927 9.52436E-05-2.85817E-05-2.85694E-05 2.05732E-09 3.17856E-19-2.39296E-18
 -1      2928 9.52438E-05-2.85818E-05-2.85694E-05 7.73136E-10 6.49941E-19-3.59461E-18
 -1      2929 9.52447E-05-2.85822E-05-2.85697E-05 2.85116E-11 1.43120E-18-3.85027E-18
 -1      2930 9.52433E-05-2.85814E-05-2.85694E-05-3.41970E-09-5.67995E-19-3.68361E-18
 -1      2931 9.52429E-05-2.85809E-05-2.85694E-05-4.54933E-09 7.89548E-19-2.60549E-19
 -1      2932 9.52433E-05-2.85809E-05-2.85696E-05-5.69012E-09 6.19713E-20-2.75123E-19
 -1      2933 9.52444E-05-2.85819E-05-2.85696E-05-3.00429E-09-1.59457E-19-3.46568E-18
 -1      2934 9.52429E-05-2.85809E-05-2.85694E-05 4.55142E-09 1.00014E-18 8.13859E-19
 -1      2935 9.52433E-05-2.85813E-05-2.85694E-05 3.44225E-09 5.89776E-19 3.20664E-19
 -1      2936 9.52443E-05-2.85819E-05-2.85696E-05 3.03375E-09 1.44055E-18-1.38310E-18
 -1      2937 9.52416E-05-2.85795E-05-2.85694E-05 6.54278E-09 1.12061E-18 2.08922E-18
 -1      2938 9.52423E-05-2.85802E-05-2.85694E-05 5.70906E-09 8.15069E-19 1.95987E-18
 -1      2939 9.52433E-05-2.85809E-05-2.85696E-05 5.69030E-09 1.04644E-18 1.80406E-18
 -1      2940 9.52398E-05-2.85777E-05-2.85695E-05 7.75870E-09 2.35449E-18 4.74682E-18
 -1      2941 9.52407E-05-2.85786E-05-2.85694E-05 7.29159E-09 1.99479E-18 3.46101E-18
 -1      2942 9.52416E-05-2.85793E-05-2.85696E-05 7.69612E-09 1.44364E-18 3.52638E-18
 -1      2943 9.52365E-05-2.85741E-05-2.85696E-05 7.35154E-09 1.69858E-18 9.40996E-19
 -1      2944 9.52373E-05-2.85750E-05-2.85695E-05 7.62755E-09 1.85590E-18-1.21904E-18
 -1      2945 9.52361E-05-2.85741E-05-2.85695E-05 8.15966E-09 2.23172E-18 6.61014E-19
 -1      2946 5.73385E-05-2.89567E-05-1.16135E-05-3.62828E-05 4.24861E-18 4.41802E-18
 -1      2947 7.50525E-05-3.88949E-05-1.54265E-05-4.07682E-05 4.47509E-18 2.89442E-18
 -1      2948 3.71966E-05-1.63893E-05-8.23453E-06-2.20157E-05 2.63766E-18 5.16605E-18
 -1      2949 4.44198E-05-2.10529E-05-9.69413E-06-3.02971E-05 3.28998E-18 4.52485E-18
 -1      2950 4.94348E-05-2.26790E-05-1.11449E-05 2.99661E-05-3.19098E-18 3.30470E-18
 -1      2951 3.63075E-05-1.58643E-05-7.96879E-06 1.98225E-05-2.57419E-18 5.11820E-18
 -1      2952 1.12942E-04-3.27937E-05-3.43735E-05 5.19163E-06 2.28558E-18 4.35200E-19
 -1      2953 1.33630E-04-3.63809E-05-4.18614E-05 1.61418E-05 3.54367E-18 2.31727E-18
 -1      2954 1.29451E-04-2.65558E-05-4.48244E-05 1.60191E-05 5.12974E-18 1.73366E-18
 -1      2955 1.22551E-04-3.84488E-05-3.61056E-05 1.55781E-05 1.79492E-18 2.51448E-18
 -1      2956 1.23953E-04-4.13435E-05-3.54555E-05 1.42466E-05 1.26608E-18 2.59413E-18
 -1      2957 1.25224E-04-4.37474E-05-3.50221E-05 1.16489E-05 1.16622E-18 2.22862E-18
 -1      2958 1.25947E-04-3.77962E-05-3.80265E-05 1.71138E-05 2.36370E-18 2.69666E-18
 -1      2959 6.50389E-05-9.89598E-06-2.37564E-05 1.63827E-05 2.06774E-18-5.73971E-18
 -1      2960 7.42068E-05-1.46853E-05-2.52413E-05 1.56848E-05 1.91603E-18-5.21140E-18
 -1      2961 1.17331E-04-1.91511E-05-4.24124E-05-6.01421E-06 5.67819E-18-2.00482E-18
 -1      2962 1.16563E-04-1.72626E-05-4.28674E-05 1.12467E-07 6.03109E-18-1.06074E-18
 -1      2963 1.14882E-04-3.62449E-05-3.37144E-05-9.61013E-06-1.70814E-18-2.11626E-19
 -1      2964 1.15431E-04-3.73475E-05-3.35434E-05-1.01478E-05-1.50984E-18-5.39570E-21
 -1      2965 1.17182E-04-3.87484E-05-3.36600E-05-1.01574E-05-1.37246E-18-3.11318E-20
 -1      2966 1.34475E-04-2.26197E-05-4.86229E-05-1.05281E-05 6.69791E-18-3.73499E-18
 -1      2967 1.36735E-04-2.94206E-05-4.64474E-05-1.18925E-05 5.66411E-18-4.33755E-18
 -1      2968 1.06621E-04-2.81594E-05-3.36548E-05-6.33332E-06-1.70758E-18-2.03145E-18
 -1      2969 7.41911E-05-1.39212E-05-2.55970E-05-1.22307E-05-6.21180E-20-4.78533E-18
 -1      2970 6.48470E-05-8.92303E-06-2.40481E-05-1.23462E-05-1.55881E-19-5.53748E-18
 -1      2971 8.14586E-05-2.12146E-05-2.57937E-05-1.42909E-05-4.68118E-19-4.02026E-18
 -1      2972 1.28423E-04-1.79196E-05-4.78047E-05 9.81300E-06-6.13210E-18-5.59010E-18
 -1      2973 1.25099E-04-1.26637E-05-4.88859E-05 5.13906E-06-6.99903E-18-4.56032E-18
 -1      2974 8.32094E-05-2.01684E-05-2.70719E-05 1.28683E-05 1.59379E-18-4.32565E-18
 -1      2975 9.09251E-05-2.40735E-05-2.85588E-05 9.76878E-06 1.02009E-18-3.85588E-18
 -1      2976 8.07489E-05-2.15458E-05-2.54031E-05 1.74345E-05 1.99315E-18-4.53909E-18
 -1      2977 5.37647E-05-1.79606E-05-1.49788E-05-2.85957E-05-1.33365E-18-7.79493E-18
 -1      2978 6.92355E-05-2.82261E-05-1.73112E-05-3.33523E-05-1.41497E-18-7.01206E-18
 -1      2979 1.25610E-04-1.42423E-05-4.83249E-05-1.05058E-05-7.41133E-18-1.10077E-18
 -1      2980 1.31072E-04-2.28643E-05-4.67035E-05-1.39748E-05-6.36122E-18-1.25890E-19
 -1      2981 1.17527E-04-5.12692E-05-2.80949E-05-1.87347E-05-1.13322E-18-1.55981E-18
 -1      2982 1.27186E-04-5.39551E-05-3.17990E-05-1.18950E-05-1.59083E-19-2.03288E-19
 -1      2983 1.43974E-04-4.00807E-05-4.47086E-05-6.78618E-06 4.38911E-18-4.78828E-18
 -1      2984 2.89657E-05-2.38570E-06-1.07455E-05 1.59306E-05 1.76310E-18-9.13779E-18
 -1      2985 2.53090E-05 6.23292E-10-1.03127E-05 5.87989E-06 1.48989E-18-9.44124E-18
 -1      2986 1.13909E-04-5.54986E-05-2.52179E-05 2.88500E-05-2.33061E-18-1.38062E-18
 -1      2987 9.87178E-05-4.95542E-05-2.06657E-05 3.51048E-05-3.55034E-18-8.80385E-20
 -1      2988 1.17777E-04-5.50880E-05-2.67435E-05 2.26316E-05-2.25364E-18-2.28549E-18
 -1      2989 1.20913E-04-5.06312E-05-3.02838E-05 1.92444E-05 1.55642E-20-1.52646E-18
 -1      2990 1.08620E-04-4.72239E-05-2.61628E-05 2.60179E-05 1.26737E-18-2.39909E-18
 -1      2991 1.23960E-04-5.00023E-05-3.16056E-05 1.04920E-05 6.02240E-19-4.77303E-19
 -1      2992 1.19484E-04-5.63870E-05-2.67868E-05-2.59559E-05 3.84966E-18-1.29861E-18
 -1      2993 1.29331E-04-5.69366E-05-3.14142E-05-1.72473E-05 2.37582E-18-2.51495E-18
 -1      2994 8.52798E-05-3.73434E-05-2.01683E-05-3.17413E-05-1.70328E-18-5.28665E-18
 -1      2995 1.02911E-04-4.61513E-05-2.44537E-05-2.77463E-05-1.38522E-18-3.40245E-18
 -1      2996 8.20692E-05-3.22354E-05-2.09279E-05-2.85496E-05-1.98386E-18-5.28247E-18
 -1      2997 1.24279E-04-1.06708E-05-4.93228E-05 1.98684E-06-7.26415E-18-3.68772E-18
 -1      2998 1.23144E-04-1.00585E-05-4.90237E-05-2.44623E-06-7.58200E-18-2.67818E-18
 -1      2999 1.20360E-04-1.38273E-05-4.59757E-05 4.90783E-06-6.11822E-18-4.17990E-18
 -1      3000 9.29640E-05-4.73018E-05-1.91069E-05-3.81125E-05 4.52612E-18 1.56113E-18
 -1      3001 1.06589E-04-5.32169E-05-2.30341E-05-3.46602E-05 4.23305E-18 2.18515E-19
 -1      3002 1.34861E-04-5.20638E-05-3.53659E-05-1.11583E-06 8.49468E-19 1.14371E-18
 -1      3003 1.38548E-04-4.66428E-05-4.00096E-05 8.30981E-06 2.67660E-18 2.02780E-18
 -1      3004 1.35242E-04-5.34479E-05-3.50090E-05-6.83587E-06 1.09087E-18-3.89095E-18
 -1      3005 1.37224E-04-4.82256E-05-3.87400E-05 4.12153E-07-7.10925E-19-4.87796E-18
 -1      3006 4.95608E-05 2.61479E-07-2.13621E-05 1.11216E-05 1.79017E-18-6.90570E-18
 -1      3007 5.58684E-05-3.40389E-06-2.21833E-05 1.41503E-05 2.00355E-18-6.50852E-18
 -1      3008 6.03027E-05-9.46522E-06-2.17348E-05 1.89644E-05 2.28347E-18-6.18345E-18
 -1      3009 4.55600E-05 4.05838E-07-1.94039E-05 9.69874E-06 1.77208E-18-7.47213E-18
 -1      3010 8.42871E-05-4.26030E-05-1.77054E-05 3.85886E-05-3.22042E-18 8.72126E-19
 -1      3011 6.86895E-05-3.35641E-05-1.46490E-05 3.63389E-05-3.43472E-18 1.81265E-18
 -1      3012 9.48555E-05-4.53932E-05-2.08376E-05 3.31973E-05-3.46818E-18 2.13849E-19
 -1      3013 1.36169E-04-3.83434E-05-4.21246E-05 8.27678E-06-2.66847E-18-5.94225E-18
 -1      3014 1.32504E-04-2.73780E-05-4.57299E-05 1.03547E-05-4.66609E-18-5.80821E-18
 -1      3015 9.73311E-05-2.69649E-05-3.01024E-05 4.91332E-06 4.62136E-19-3.25361E-18
 -1      3016 1.02354E-04-2.93322E-05-3.13633E-05 1.16796E-06-2.11891E-19-2.98886E-18
 -1      3017 9.76411E-05-3.00207E-05-2.90314E-05 8.76427E-06 8.82185E-19-3.02507E-18
 -1      3018 7.38944E-05-3.18366E-05-1.77017E-05 3.17149E-05-3.06345E-18 1.52762E-18
 -1      3019 6.20959E-05-2.76022E-05-1.42541E-05 3.26880E-05-3.09718E-18 2.29800E-18
 -1      3020 5.62922E-05-2.14599E-05-1.46019E-05 2.63534E-05-2.84730E-18 2.81215E-18
 -1      3021 1.32195E-04-4.47100E-05-3.76315E-05-5.26293E-06-1.87079E-18 8.25751E-19
 -1      3022 1.38962E-04-4.91147E-05-3.89167E-05-4.13456E-06 2.04925E-18-4.56593E-18
 -1      3023 1.36478E-04-5.32251E-05-3.56610E-05 1.07145E-06 8.50752E-19-4.57525E-18
 -1      3024 1.30500E-04-5.50236E-05-3.23346E-05-9.63195E-06 2.06290E-18-3.32783E-18
 -1      3025 9.52382E-05-2.85761E-05-2.85695E-05-8.08198E-09 7.18842E-19 9.31835E-19
 -1      3026 1.30113E-04-5.16214E-05-3.35383E-05-1.94735E-06-1.71577E-19 1.12920E-18
 -1      3027 1.10724E-04-4.70614E-05-2.70129E-05-1.95308E-05-1.61815E-18-1.90696E-18
 -1      3028 1.33475E-04-3.25431E-05-4.35748E-05-1.29553E-05 4.74603E-18-3.79005E-18
 -1      3029 1.38931E-04-3.58118E-05-4.47265E-05-1.03320E-05 4.67806E-18-4.28662E-18
 -1      3030 1.39261E-04-4.21360E-05-4.19717E-05-7.98419E-06 3.68486E-18-4.55206E-18
 -1      3031 3.71205E-05-1.35374E-05-9.49306E-06 1.20190E-05-1.77400E-18 4.78023E-18
 -1      3032 9.52371E-05-2.85750E-05-2.85694E-05 9.20670E-09 1.80739E-18-9.07694E-19
 -1      3033 1.32231E-04-5.45029E-05-3.33254E-05 4.05219E-06-3.39131E-19-4.51283E-18
 -1      3034 1.28695E-04-2.87283E-05-4.31258E-05-1.43046E-05-4.87737E-18 4.41251E-19
 -1      3035 1.09287E-04-4.54375E-05-2.72881E-05 2.04847E-05 2.15400E-18-2.00542E-18
 -1      3036 1.01433E-04-4.39543E-05-2.44385E-05 2.90930E-05 1.84950E-18-3.29455E-18
 -1      3037 9.17653E-05-3.76238E-05-2.26717E-05 3.01364E-05 2.62967E-18-3.68729E-18
 -1      3038 9.52416E-05-2.85793E-05-2.85696E-05-7.69058E-09 8.09654E-19-3.23352E-19
 -1      3039 9.52407E-05-2.85786E-05-2.85694E-05-7.29278E-09 1.78321E-18-6.15200E-19
 -1      3040 9.52398E-05-2.85777E-05-2.85695E-05-7.76224E-09 1.95154E-18-6.48473E-20
 -1      3041 1.14530E-04-5.43169E-05-2.55884E-05-2.67450E-05 4.21007E-18-8.98159E-19
 -1      3042 3.72424E-05-1.36866E-05-9.47510E-06-1.39639E-05 1.04799E-18 4.60278E-18
 -1      3043 6.03272E-05-8.57213E-06-2.19866E-05-1.45388E-05-3.98886E-19-6.31225E-18
 -1      3044 9.52382E-05-2.85761E-05-2.85695E-05 7.72770E-09 1.78148E-18 1.98168E-18
 -1      3045 9.52389E-05-2.85767E-05-2.85695E-05 8.59524E-09 2.36347E-18 2.52287E-18
 -1      3046 5.80959E-05-2.54152E-05-1.34121E-05-3.16312E-05 3.69095E-18 3.95533E-18
 -1      3047 6.17753E-05-2.40022E-05-1.56970E-05 3.49754E-05 2.61490E-18-6.81480E-18
 -1      3048 5.53382E-05-1.68507E-05-1.61070E-05 3.10889E-05 2.94895E-18-6.83778E-18
 -1      3049 7.25310E-05-2.84519E-05-1.89048E-05 3.40215E-05 2.94979E-18-5.42810E-18
 -1      3050 3.74076E-05-5.84993E-06-1.30224E-05 2.06203E-05 2.42246E-18-8.47753E-18
 -1      3051 3.16241E-05-1.81989E-07-1.29088E-05-1.77948E-06 7.90864E-19-9.34097E-18
 -1      3052 1.11509E-04-3.37605E-05-3.33563E-05 3.47507E-06 1.75808E-18-1.97663E-20
 -1      3053 1.28526E-04-1.91720E-05-4.73078E-05-9.02750E-06 6.99205E-18-3.00601E-18
 -1      3054 1.31152E-04-4.09482E-05-3.87421E-05 1.39743E-05 2.24212E-18 2.50979E-18
 -1      3055 1.21729E-04-1.52843E-05-4.60597E-05 5.12506E-06 6.68076E-18-2.74545E-19
 -1      3056 1.14173E-04-2.02462E-05-4.04208E-05 7.47522E-06 4.89638E-18 3.47284E-19
 -1      3057 1.16536E-04-2.40244E-05-3.99887E-05 1.23828E-05 4.21812E-18 1.16578E-18
 -1      3058 1.25538E-04-1.56228E-05-4.78426E-05 8.81073E-06 6.94239E-18 5.25425E-20
 -1      3059 1.06849E-04-3.05296E-05-3.26047E-05-3.91853E-06-8.56541E-19-2.23146E-18
 -1      3060 1.11507E-04-3.25579E-05-3.39194E-05-8.13824E-06-1.84741E-18-1.25108E-18
 -1      3061 1.13076E-04-3.48693E-05-3.35831E-05-8.39299E-06-1.74987E-18-6.87081E-19
 -1      3062 1.08340E-04-3.39057E-05-3.18780E-05-1.47295E-06-5.00279E-19-1.93296E-18
 -1      3063 8.65314E-05-4.21181E-05-1.86478E-05-3.67138E-05 4.76583E-18 1.92573E-18
 -1      3064 1.26012E-04-2.43632E-05-4.37539E-05 1.11017E-05-4.62480E-18-5.51434E-18
 -1      3065 1.26971E-04-1.90637E-05-4.67973E-05 1.32910E-05 6.32352E-18 1.00988E-18
 -1      3066 1.22380E-04-2.62179E-05-4.13591E-05 1.56877E-05 4.27476E-18 1.60709E-18
 -1      3067 1.33139E-04-4.28555E-05-3.88288E-05 6.81560E-06-1.35822E-18-5.44695E-18
 -1      3068 1.12122E-04-3.68573E-05-3.23409E-05 9.14252E-07 1.09631E-18-1.94983E-19
 -1      3069 1.13826E-04-3.62244E-05-3.31699E-05-7.39348E-06-1.13135E-18-8.41497E-19
 -1      3070 1.22054E-04-1.98464E-05-4.42517E-05-9.54787E-06 6.19160E-18-2.85371E-18
 -1      3071 1.25154E-04-2.69370E-05-4.24935E-05-1.42183E-05 5.11513E-18-3.86607E-18
 -1      3072 1.08590E-04-3.73830E-05-3.04025E-05-5.70241E-06-5.19469E-21-1.25544E-18
 -1      3073 1.00859E-04-3.39472E-05-2.86440E-05-1.02988E-05-5.67214E-19-2.05706E-18
 -1      3074 1.35301E-04-4.43155E-05-3.92281E-05-9.61770E-06 2.21330E-18-4.25613E-18
 -1      3075 1.25467E-04-5.42734E-05-3.02682E-05-1.12632E-05 2.91001E-18-2.67146E-18
 -1      3076 1.29015E-04-5.24015E-05-3.32656E-05-3.31015E-06 1.38289E-18-3.59333E-18
 -1      3077 7.65554E-05-2.57199E-05-2.15360E-05-2.48070E-05-1.71582E-18-5.07680E-18
 -1      3078 9.06141E-05-3.48161E-05-2.39156E-05-2.41521E-05-1.76013E-18-3.69142E-18
 -1      3079 1.20335E-04-5.46117E-05-2.84813E-05 1.67179E-05-2.17820E-18-3.33649E-18
 -1      3080 1.11540E-04-5.11765E-05-2.55521E-05 2.37058E-05-3.11364E-18-1.85832E-18
 -1      3081 1.22327E-04-1.20627E-05-4.78484E-05-6.60708E-06-7.33509E-18-1.97506E-18
 -1      3082 1.19733E-04-1.59909E-05-4.47515E-05-9.97729E-06-6.37593E-18-1.19273E-18
 -1      3083 8.48525E-05-2.82198E-05-2.41793E-05 2.29130E-05 2.74654E-18-4.08937E-18
 -1      3084 9.59115E-05-3.37759E-05-2.64146E-05 1.89860E-05 2.16917E-18-3.28037E-18
 -1      3085 1.21854E-04-3.50670E-05-3.73671E-05-1.55503E-05-2.26379E-18 5.76327E-19
 -1      3086 1.19472E-04-2.94841E-05-3.86688E-05-1.52367E-05-3.35012E-18 3.86624E-19
 -1      3087 1.13260E-04-1.60656E-05-4.19527E-05-6.55677E-06-5.48591E-18-1.87159E-18
 -1      3088 1.12748E-04-1.52671E-05-4.19696E-05-2.58891E-07-5.41461E-18-3.02723E-18
 -1      3089 1.15061E-04-1.70275E-05-4.22531E-05 6.97206E-06-4.94826E-18-4.43168E-18
 -1      3090 1.17365E-04-2.24108E-05-4.11080E-05 1.06432E-05-4.01393E-18-4.86143E-18
 -1      3091 1.19266E-04-3.09720E-05-3.79250E-05 1.25185E-05-2.58705E-18-5.37784E-18
 -1      3092 1.20986E-04-3.68910E-05-3.63783E-05 1.16684E-05-1.72505E-18-5.16640E-18
 -1      3093 1.23068E-04-4.47511E-05-3.35782E-05 5.16997E-06 1.21430E-19-4.55128E-18
 -1      3094 1.22476E-04-4.69608E-05-3.21828E-05 2.26991E-06 1.04017E-18-4.33241E-18
 -1      3095 1.17866E-04-4.59454E-05-3.07551E-05-1.62398E-06 1.26889E-18-3.34978E-18
 -1      3096 1.15671E-04-4.52472E-05-2.99284E-05-4.54647E-06 1.44483E-18-2.66682E-18
 -1      3097 1.19538E-04-5.06074E-05-2.98369E-05-8.56869E-06 2.47036E-18-2.30270E-18
 -1      3098 1.11320E-04-4.25167E-05-2.93578E-05-6.23335E-06 8.66171E-19-1.87172E-18
 -1      3099 1.08615E-04-4.06344E-05-2.89413E-05-8.26150E-06 8.21248E-19-1.76135E-18
 -1      3100 1.09566E-04-4.50066E-05-2.79853E-05-1.29953E-05 1.97345E-18-9.50900E-19
 -1      3101 1.05405E-04-3.78796E-05-2.88129E-05-8.47161E-06 8.15183E-19-1.64994E-18
 -1      3102 1.03023E-04-3.59067E-05-2.86458E-05-9.55574E-06 7.72914E-19-1.53253E-18
 -1      3103 1.02002E-04-3.84524E-05-2.74834E-05-1.36802E-05 1.27374E-18-1.37464E-19
 -1      3104 1.00973E-04-3.37684E-05-2.87069E-05-9.09053E-06 7.38659E-19-1.13205E-18
 -1      3105 9.91892E-05-3.21634E-05-2.86641E-05-9.48654E-06 6.07722E-19-1.18637E-18
 -1      3106 9.71826E-05-3.32069E-05-2.75744E-05-1.25845E-05 1.04791E-18 2.00810E-19
 -1      3107 9.80221E-05-3.07113E-05-2.87851E-05-8.79042E-06 5.66872E-19-1.08215E-18
 -1      3108 9.68082E-05-2.95772E-05-2.87886E-05-8.75804E-06 3.77207E-19-9.21547E-19
 -1      3109 9.44515E-05-2.96259E-05-2.78699E-05-1.09242E-05 9.73385E-19-4.94571E-20
 -1      3110 9.62336E-05-2.86954E-05-2.89083E-05-8.03359E-06 6.20311E-20-4.87970E-19
 -1      3111 9.54587E-05-2.79757E-05-2.89174E-05-7.75889E-06 3.20438E-19-6.18295E-19
 -1      3112 9.31040E-05-2.74270E-05-2.81891E-05-9.23318E-06 3.84747E-19 7.19681E-19
 -1      3113 9.52496E-05-2.75090E-05-2.90120E-05-7.08205E-06 1.40384E-19-8.32120E-19
 -1      3114 9.47769E-05-2.71020E-05-2.90103E-05-6.68569E-06-2.06739E-19-5.36006E-19
 -1      3115 9.26031E-05-2.62348E-05-2.84584E-05-7.69882E-06-3.13894E-20 3.09587E-19
 -1      3116 9.47768E-05-2.69143E-05-2.90745E-05-6.07916E-06-6.58604E-19-7.12225E-19
 -1      3117 9.44980E-05-2.67219E-05-2.90583E-05-5.63655E-06-6.26161E-19-1.11167E-18
 -1      3118 9.25856E-05-2.57199E-05-2.86570E-05-6.35810E-06-4.37280E-19 3.31648E-19
 -1      3119 9.46055E-05-2.67086E-05-2.90948E-05-5.10435E-06-3.58884E-19-8.95580E-19
 -1      3120 9.44452E-05-2.66528E-05-2.90665E-05-4.66191E-06-2.79716E-19-9.89516E-19
 -1      3121 9.28201E-05-2.56344E-05-2.87872E-05-5.20187E-06-4.22855E-19 4.92304E-19
 -1      3122 9.45981E-05-2.67395E-05-2.90812E-05-4.20186E-06-8.71208E-20-1.37291E-18
 -1      3123 9.45076E-05-2.67641E-05-2.90451E-05-3.78728E-06 2.73993E-19-1.27752E-18
 -1      3124 9.31646E-05-2.58018E-05-2.88605E-05-4.21136E-06-8.63612E-20 7.18354E-19
 -1      3125 9.46696E-05-2.69006E-05-2.90440E-05-3.39520E-06 4.65618E-19-8.97446E-19
 -1      3126 9.46190E-05-2.69673E-05-2.90043E-05-3.02362E-06 6.65279E-19-8.63929E-19
 -1      3127 9.35358E-05-2.61017E-05-2.88908E-05-3.36897E-06 3.61728E-19 1.03277E-18
 -1      3128 9.47707E-05-2.71215E-05-2.89930E-05-2.69440E-06 3.74682E-19-1.43694E-18
 -1      3129 9.47422E-05-2.72060E-05-2.89532E-05-2.37248E-06 3.15320E-19-1.57334E-18
 -1      3130 9.38880E-05-2.64557E-05-2.88910E-05-2.65956E-06 9.74181E-20 5.63253E-19
 -1      3131 9.48746E-05-2.73585E-05-2.89359E-05-2.10030E-06 2.63513E-19-1.51255E-18
 -1      3132 9.48581E-05-2.74461E-05-2.88983E-05-1.82907E-06 1.20177E-19-1.35929E-18
 -1      3133 9.41989E-05-2.68146E-05-2.88718E-05-2.06940E-06-1.33694E-19-7.45178E-19
 -1      3134 9.49682E-05-2.75860E-05-2.88783E-05-1.60763E-06 1.86647E-19-1.79759E-18
 -1      3135 9.49581E-05-2.76683E-05-2.88443E-05-1.38452E-06 1.80209E-19-1.61782E-18
 -1      3136 9.44604E-05-2.71502E-05-2.88415E-05-1.58520E-06 5.90354E-20-6.94449E-19
 -1      3137 9.50464E-05-2.77906E-05-2.88240E-05-1.20727E-06 2.62823E-19-1.97361E-18
 -1      3138 9.50398E-05-2.78636E-05-2.87943E-05-1.02767E-06 1.86282E-19-1.76488E-18
 -1      3139 9.46725E-05-2.74479E-05-2.88061E-05-1.19383E-06 2.12164E-19-1.78253E-18
 -1      3140 9.51083E-05-2.79667E-05-2.87749E-05-8.88122E-07-1.69610E-19-2.02006E-18
 -1      3141 9.51036E-05-2.80287E-05-2.87497E-05-7.46438E-07 4.89617E-19-2.02365E-18
 -1      3142 9.48393E-05-2.77022E-05-2.87698E-05-8.82379E-07 2.60849E-19-1.37796E-18
 -1      3143 9.51555E-05-2.81132E-05-2.87322E-05-6.38421E-07 9.66141E-19-2.17387E-18
 -1      3144 9.51518E-05-2.81643E-05-2.87114E-05-5.28806E-07 1.13236E-18-2.31541E-18
 -1      3145 9.49671E-05-2.79129E-05-2.87352E-05-6.38501E-07 7.48303E-19-1.13849E-18
 -1      3146 9.51899E-05-2.82318E-05-2.86960E-05-4.46662E-07 1.13717E-18-2.27442E-18
 -1      3147 9.51870E-05-2.82729E-05-2.86792E-05-3.63503E-07 9.11299E-19-2.29025E-18
 -1      3148 9.50624E-05-2.80832E-05-2.87038E-05-4.50711E-07 1.00058E-18-1.61321E-18
 -1      3149 9.52142E-05-2.83257E-05-2.86662E-05-3.02197E-07 3.55603E-19-2.15877E-18
 -1      3150 9.52117E-05-2.83579E-05-2.86528E-05-2.40386E-07-3.54230E-19-2.27447E-18
 -1      3151 9.51317E-05-2.82179E-05-2.86763E-05-3.08641E-07 7.86750E-19-3.06451E-18
 -1      3152 9.52306E-05-2.83983E-05-2.86420E-05-1.95565E-07-5.72968E-19-1.94058E-18
 -1      3153 9.52285E-05-2.84231E-05-2.86317E-05-1.50630E-07-8.74017E-19-1.32286E-18
 -1      3154 9.51805E-05-2.83221E-05-2.86530E-05-2.03184E-07-4.65168E-20-2.95959E-18
 -1      3155 9.52410E-05-2.84534E-05-2.86229E-05-1.18619E-07-1.16949E-18-1.11616E-18
 -1      3156 9.52392E-05-2.84720E-05-2.86150E-05-8.67666E-08-9.01696E-19-1.22466E-18
 -1      3157 9.52138E-05-2.84012E-05-2.86337E-05-1.26538E-07-1.06624E-18-1.82270E-18
 -1      3158 9.52471E-05-2.84942E-05-2.86081E-05-6.45312E-08-4.92951E-19-2.06139E-18
 -1      3159 9.52456E-05-2.85079E-05-2.86021E-05-4.26238E-08-1.09760E-20-2.53743E-18
 -1      3160 9.52354E-05-2.84598E-05-2.86180E-05-7.21662E-08-7.80433E-19-2.94196E-18
 -1      3161 9.52501E-05-2.85238E-05-2.85967E-05-2.77067E-08 2.80113E-19-3.15729E-18
 -1      3162 9.52489E-05-2.85337E-05-2.85924E-05-1.32074E-08 2.75747E-19-3.22598E-18
 -1      3163 9.52486E-05-2.85024E-05-2.86055E-05-3.47043E-08-2.44642E-19-2.56923E-18
 -1      3164 9.52511E-05-2.85447E-05-2.85882E-05-3.65721E-09 1.82774E-19-2.86349E-18
 -1      3165 9.52502E-05-2.85516E-05-2.85851E-05 5.44364E-09 1.64703E-21-2.64720E-18
 -1      3166 9.52558E-05-2.85325E-05-2.85958E-05-9.83496E-09 5.93023E-19-2.01208E-18
 -1      3167 9.52508E-05-2.85590E-05-2.85820E-05 1.11486E-08-3.33497E-19-2.28540E-18
 -1      3168 9.52501E-05-2.85636E-05-2.85799E-05 1.64120E-08-3.11497E-19-2.13308E-18
 -1      3169 9.52589E-05-2.85531E-05-2.85883E-05 5.85298E-09 5.41908E-19-9.43251E-19
 -1      3170 9.52497E-05-2.85684E-05-2.85776E-05 1.94363E-08-7.13114E-19-1.40226E-18
 -1      3171 9.52492E-05-2.85714E-05-2.85761E-05 2.20514E-08-2.09434E-19-2.11898E-18
 -1      3172 9.52594E-05-2.85666E-05-2.85827E-05 1.50059E-08-4.24283E-20-8.27918E-19
 -1      3173 9.52483E-05-2.85742E-05-2.85745E-05 2.32695E-08 6.89209E-19-1.76402E-18
 -1      3174 9.52478E-05-2.85760E-05-2.85736E-05 2.41237E-08 8.89305E-19-9.27859E-19
 -1      3175 9.52582E-05-2.85751E-05-2.85786E-05 1.96389E-08 8.79114E-19-3.71345E-19
 -1      3176 9.52466E-05-2.85774E-05-2.85724E-05 2.41781E-08 1.36266E-18-1.08248E-18
 -1      3177 9.52463E-05-2.85784E-05-2.85719E-05 2.39190E-08 1.79959E-18-2.21606E-19
 -1      3178 9.52561E-05-2.85798E-05-2.85757E-05 2.12567E-08 2.02342E-18-1.37848E-19
 -1      3179 9.52450E-05-2.85790E-05-2.85711E-05 2.32704E-08 2.12475E-18-9.50644E-19
 -1      3180 9.52448E-05-2.85794E-05-2.85708E-05 2.23580E-08 2.47404E-18-4.34788E-19
 -1      3181 9.52535E-05-2.85821E-05-2.85736E-05 2.09581E-08 2.04525E-18-4.52489E-19
 -1      3182 9.52435E-05-2.85794E-05-2.85703E-05 2.13273E-08 2.05928E-18-4.83342E-19
 -1      3183 9.52433E-05-2.85795E-05-2.85701E-05 2.00775E-08 1.47411E-18-3.37200E-20
 -1      3184 9.52508E-05-2.85828E-05-2.85721E-05 1.95256E-08 2.22724E-18-1.67119E-18
 -1      3185 9.52421E-05-2.85792E-05-2.85698E-05 1.88787E-08 4.59928E-19 9.83527E-19
 -1      3186 9.52420E-05-2.85790E-05-2.85698E-05 1.74986E-08 4.78413E-20 1.25065E-18
 -1      3187 9.52483E-05-2.85825E-05-2.85711E-05 1.74979E-08 1.75838E-18-1.04335E-18
 -1      3188 9.52410E-05-2.85786E-05-2.85696E-05 1.62664E-08-3.64737E-19 2.91592E-18
 -1      3189 9.52409E-05-2.85784E-05-2.85696E-05 1.48860E-08 5.12939E-19 2.59849E-18
 -1      3190 9.52459E-05-2.85816E-05-2.85705E-05 1.52294E-08 1.05624E-18 1.53371E-19
 -1      3191 9.52400E-05-2.85779E-05-2.85695E-05 1.36801E-08 5.14402E-19 2.80548E-18
 -1      3192 9.52400E-05-2.85777E-05-2.85695E-05 1.23624E-08 4.78816E-19 3.14973E-18
 -1      3193 9.52440E-05-2.85805E-05-2.85701E-05 1.29427E-08 7.82844E-19 3.03410E-18
 -1      3194 4.31508E-05-2.35981E-06-1.70758E-05-1.23972E-05-1.18439E-19-8.07381E-18
 -1      3195 3.69049E-05 1.18024E-06-1.60903E-05-5.14573E-06 6.39814E-19-8.44449E-18
 -1      3196 1.17422E-04-1.20168E-05-4.54939E-05-2.58595E-06-6.60135E-18-2.58687E-18
 -1      3197 1.26826E-04-3.38407E-05-4.02179E-05-1.39847E-05 3.34642E-18-4.14612E-18
 -1      3198 1.12144E-04-4.20698E-05-2.99037E-05 8.02103E-06-1.18446E-18-3.13061E-18
 -1      3199 1.15084E-04-4.46583E-05-3.02256E-05 5.95027E-06-1.25435E-18-3.00963E-18
 -1      3200 1.05734E-04-3.66025E-05-2.95495E-05 1.02749E-05-1.07289E-18-1.68733E-18
 -1      3201 1.08360E-04-3.91314E-05-2.96854E-05 9.21127E-06-9.56201E-19-2.37413E-18
 -1      3202 1.07902E-04-4.09869E-05-2.88204E-05 1.18157E-05-1.55302E-18-2.23229E-18
 -1      3203 1.01436E-04-3.24231E-05-2.95350E-05 1.06298E-05-7.69886E-19-1.10259E-18
 -1      3204 1.03321E-04-3.43146E-05-2.95669E-05 1.03455E-05-8.74201E-19-1.32726E-18
 -1      3205 1.01784E-04-3.50308E-05-2.87033E-05 1.23877E-05-1.23197E-18-1.46886E-18
 -1      3206 9.88187E-05-2.97068E-05-2.96000E-05 1.00293E-05-2.88886E-19-1.18299E-18
 -1      3207 1.00063E-04-3.09321E-05-2.96145E-05 1.02100E-05-3.87484E-19-8.75363E-19
 -1      3208 9.81273E-05-3.08929E-05-2.88694E-05 1.16700E-05-5.27726E-19-1.05149E-18
 -1      3209 9.73212E-05-2.81493E-05-2.96390E-05 8.98251E-06-1.19935E-19-1.27812E-18
 -1      3210 9.81193E-05-2.88584E-05-2.96695E-05 9.41132E-06-2.17239E-19-1.32378E-18
 -1      3211 9.61513E-05-2.83760E-05-2.90740E-05 1.04410E-05-4.74731E-20-7.33491E-19
 -1      3212 9.64983E-05-2.73800E-05-2.96231E-05 7.77001E-06-3.83310E-19-1.45029E-18
 -1      3213 9.70139E-05-2.77416E-05-2.96756E-05 8.30937E-06-2.97432E-19-1.37969E-18
 -1      3214 9.52070E-05-2.70437E-05-2.92245E-05 9.06072E-06-1.64821E-19-1.15437E-18
 -1      3215 9.60526E-05-2.70949E-05-2.95576E-05 6.54604E-06 6.42236E-20-1.18503E-18
 -1      3216 9.63983E-05-2.72435E-05-2.96266E-05 7.11118E-06-1.44823E-19-1.28540E-18
 -1      3217 9.48368E-05-2.64791E-05-2.92998E-05 7.69147E-06-2.14226E-19-1.34524E-18
 -1      3218 9.58062E-05-2.70821E-05-2.94586E-05 5.39482E-06-1.85071E-20-1.04539E-18
 -1      3219 9.60505E-05-2.71100E-05-2.95359E-05 5.93584E-06-3.06057E-22-1.27094E-18
 -1      3220 9.47559E-05-2.63681E-05-2.93091E-05 6.40828E-06 2.78856E-20-1.18433E-18
 -1      3221 9.56608E-05-2.72071E-05-2.93428E-05 4.36016E-06 4.84026E-20 2.94864E-19
 -1      3222 9.58426E-05-2.71723E-05-2.94211E-05 4.84992E-06-6.61265E-20-2.82065E-19
 -1      3223 9.48025E-05-2.65005E-05-2.92711E-05 5.24741E-06-5.56437E-19-6.44732E-19
 -1      3224 9.55658E-05-2.73896E-05-2.92233E-05 3.46084E-06 7.23235E-19-3.99207E-20
 -1      3225 9.57062E-05-2.73268E-05-2.92974E-05 3.88716E-06 7.90425E-19 4.68038E-19
 -1      3226 9.48921E-05-2.67459E-05-2.92042E-05 4.22570E-06 4.03580E-19 3.71055E-19
 -1      3227 9.54965E-05-2.75851E-05-2.91091E-05 2.69978E-06 2.38455E-19-4.74876E-19
 -1      3228 9.56073E-05-2.75136E-05-2.91758E-05 3.05994E-06 4.19098E-19-3.08727E-19
 -1      3229 9.49845E-05-2.70280E-05-2.91233E-05 3.34756E-06 9.08807E-19 8.62787E-19
 -1      3230 9.54418E-05-2.77704E-05-2.90055E-05 2.07008E-06-1.44997E-18 9.77159E-20
 -1      3231 9.55297E-05-2.77005E-05-2.90635E-05 2.36705E-06-3.67312E-19-4.50247E-19
 -1      3232 9.50635E-05-2.73051E-05-2.90388E-05 2.60875E-06-2.56662E-19 6.26674E-19
 -1      3233 9.53968E-05-2.79348E-05-2.89151E-05 1.55936E-06-7.88276E-19-3.42990E-19
 -1      3234 9.54663E-05-2.78716E-05-2.89639E-05 1.79915E-06-1.12054E-18 4.66415E-20
 -1      3235 9.51248E-05-2.75566E-05-2.89576E-05 1.99925E-06-1.14820E-18-1.96410E-19
 -1      3236 9.53596E-05-2.80750E-05-2.88385E-05 1.15264E-06-1.53230E-19-7.36491E-19
 -1      3237 9.54139E-05-2.80203E-05-2.88787E-05 1.34265E-06-3.91149E-19-6.60214E-19
 -1      3238 9.51695E-05-2.77742E-05-2.88838E-05 1.50555E-06-6.95283E-19-2.86818E-19
 -1      3239 9.53291E-05-2.81911E-05-2.87751E-05 8.34336E-07-2.55270E-19-8.35767E-19
 -1      3240 9.53709E-05-2.81451E-05-2.88075E-05 9.82254E-07-4.16725E-19-8.22821E-19
 -1      3241 9.52006E-05-2.79564E-05-2.88192E-05 1.11259E-06-1.31181E-19-7.27207E-19
 -1      3242 9.53045E-05-2.82850E-05-2.87239E-05 5.89486E-07 5.91586E-19-1.53804E-18
 -1      3243 9.53362E-05-2.82474E-05-2.87495E-05 7.02635E-07 3.57218E-19-9.88430E-19
 -1      3244 9.52213E-05-2.81052E-05-2.87644E-05 8.05103E-07-1.17669E-19-1.14908E-18
 -1      3245 9.52851E-05-2.83597E-05-2.86833E-05 4.04423E-07-3.40101E-19-8.99059E-19
 -1      3246 9.53086E-05-2.83295E-05-2.87031E-05 4.89436E-07 1.01772E-19-1.37633E-18
 -1      3247 9.52343E-05-2.82244E-05-2.87189E-05 5.68568E-07 2.77281E-19-9.88720E-19
 -1      3248 9.52702E-05-2.84180E-05-2.86516E-05 2.67134E-07 7.27784E-19-5.24598E-19
 -1      3249 9.52872E-05-2.83941E-05-2.86667E-05 3.29795E-07-2.72872E-20-1.16233E-18
 -1      3250 9.52421E-05-2.83181E-05-2.86821E-05 3.89792E-07-1.52172E-20-5.68792E-19
 -1      3251 9.52589E-05-2.84628E-05-2.86274E-05 1.67356E-07 9.06006E-19-1.70569E-20
 -1      3252 9.52709E-05-2.84443E-05-2.86387E-05 2.12567E-07 1.40874E-18-6.54774E-20
 -1      3253 9.52462E-05-2.83905E-05-2.86528E-05 2.57181E-07 7.96533E-19-2.99775E-19
 -1      3254 9.52507E-05-2.84966E-05-2.86092E-05 9.65256E-08 1.63017E-19-4.13760E-19
 -1      3255 9.52589E-05-2.84825E-05-2.86175E-05 1.28349E-07 3.04154E-19 1.51234E-19
 -1      3256 9.52480E-05-2.84456E-05-2.86299E-05 1.60826E-07 1.06598E-18 7.08056E-19
 -1      3257 9.52448E-05-2.85217E-05-2.85958E-05 4.76456E-08-1.72678E-18 1.54803E-19
 -1      3258 9.52502E-05-2.85111E-05-2.86018E-05 6.93790E-08-5.29124E-19-5.77545E-20
 -1      3259 9.52483E-05-2.84867E-05-2.86124E-05 9.24544E-08-2.60229E-19 1.23611E-18
 -1      3260 9.52408E-05-2.85400E-05-2.85862E-05 1.51032E-08-4.89602E-19-1.28828E-18
 -1      3261 9.52441E-05-2.85321E-05-2.85903E-05 2.93750E-08-1.08299E-18-5.99468E-19
 -1      3262 9.52477E-05-2.85168E-05-2.85992E-05 4.53029E-08-4.62526E-19 9.76022E-19
 -1      3263 9.52381E-05-2.85529E-05-2.85794E-05-5.52478E-09-5.00174E-20-1.02311E-18
 -1      3264 9.52400E-05-2.85473E-05-2.85822E-05 3.34452E-09-6.77015E-19-1.77951E-18
 -1      3265 9.52467E-05-2.85384E-05-2.85895E-05 1.39430E-08-1.63425E-19-9.43271E-19
 -1      3266 9.52364E-05-2.85619E-05-2.85748E-05-1.76641E-08 1.26514E-19-4.05619E-19
 -1      3267 9.52373E-05-2.85579E-05-2.85766E-05-1.26120E-08 2.24950E-19-7.06910E-19
 -1      3268 9.52454E-05-2.85534E-05-2.85824E-05-5.90461E-09-3.37410E-19-1.31892E-18
 -1      3269 9.52355E-05-2.85679E-05-2.85719E-05-2.39214E-08 3.33854E-19-5.01402E-19
 -1      3270 9.52357E-05-2.85652E-05-2.85729E-05-2.14876E-08 5.52406E-19-2.97732E-19
 -1      3271 9.52441E-05-2.85636E-05-2.85775E-05-1.75542E-08 5.41371E-19 2.64031E-19
 -1      3272 9.52350E-05-2.85717E-05-2.85700E-05-2.62435E-08-6.30461E-19 8.09234E-19
 -1      3273 9.52348E-05-2.85699E-05-2.85706E-05-2.55384E-08 2.66925E-20 4.15402E-19
 -1      3274 9.52429E-05-2.85702E-05-2.85741E-05-2.35276E-08-1.29697E-19 8.95000E-20
 -1      3275 9.52349E-05-2.85739E-05-2.85690E-05-2.60537E-08-1.61820E-18 1.05011E-18
 -1      3276 9.52345E-05-2.85728E-05-2.85692E-05-2.64316E-08-5.09016E-19 1.20974E-18
 -1      3277 9.52418E-05-2.85742E-05-2.85719E-05-2.57070E-08-7.41627E-19 2.15601E-18
 -1      3278 9.52350E-05-2.85751E-05-2.85685E-05-2.43677E-08-1.60150E-18-2.34265E-19
 -1      3279 9.52344E-05-2.85745E-05-2.85685E-05-2.53721E-08-1.88232E-18-1.18492E-19
 -1      3280 9.52408E-05-2.85764E-05-2.85705E-05-2.54681E-08-9.73970E-19 1.84539E-18
 -1      3281 9.52352E-05-2.85756E-05-2.85684E-05-2.18875E-08-1.44654E-18-1.69783E-18
 -1      3282 9.52346E-05-2.85752E-05-2.85683E-05-2.32068E-08-1.67174E-18-1.17654E-18
 -1      3283 9.52400E-05-2.85774E-05-2.85697E-05-2.37912E-08-1.16602E-18-4.02948E-19
 -1      3284 9.52355E-05-2.85756E-05-2.85685E-05-1.90782E-08 3.23851E-20-1.52362E-18
 -1      3285 9.52349E-05-2.85755E-05-2.85683E-05-2.05096E-08-9.63979E-19-2.01188E-18
 -1      3286 9.52393E-05-2.85776E-05-2.85693E-05-2.13534E-08-6.98524E-19-1.38104E-18
 -1      3287 9.52358E-05-2.85754E-05-2.85687E-05-1.62274E-08 2.55633E-19-4.71928E-19
 -1      3288 9.52353E-05-2.85754E-05-2.85685E-05-1.76484E-08 5.54491E-19-7.25204E-19
 -1      3289 9.52387E-05-2.85774E-05-2.85692E-05-1.86015E-08-4.05634E-19-1.24544E-18
 -1      3290 9.52362E-05-2.85752E-05-2.85690E-05-1.35071E-08 7.76314E-19 6.47800E-19
 -1      3291 9.52356E-05-2.85752E-05-2.85688E-05-1.48294E-08 4.13899E-19-6.30172E-19
 -1      3292 9.52384E-05-2.85769E-05-2.85692E-05-1.58148E-08 4.82085E-19 5.34879E-19
 -1      3293 1.24218E-04-2.70144E-05-4.20178E-05-1.55583E-05-4.63544E-18 4.97738E-19
 -1      3294 1.29004E-04-3.58816E-05-3.99973E-05-1.48272E-05-3.15340E-18 1.11422E-18
 -1      3295 9.52388E-05-2.85768E-05-2.85695E-05-8.96587E-09 1.17329E-18 1.79319E-18
 -1      3296 9.52453E-05-2.85822E-05-2.85699E-05 4.06399E-09 1.86625E-18-7.76938E-19
 -1      3297 9.52458E-05-2.85826E-05-2.85699E-05 2.59056E-09 2.46878E-18-2.95565E-18
 -1      3298 9.52460E-05-2.85828E-05-2.85699E-05 8.12338E-10 2.11949E-18-3.93055E-18
 -1      3299 9.52460E-05-2.85828E-05-2.85699E-05-7.77916E-10 1.33887E-18-2.35605E-18
 -1      3300 9.52470E-05-2.85833E-05-2.85702E-05 1.83662E-09 2.25786E-18-3.15798E-18
 -1      3301 1.25323E-04-5.00755E-05-3.19764E-05-3.22896E-06-5.74427E-19 9.29089E-19
 -1      3302 1.29918E-04-4.94482E-05-3.48501E-05 4.57200E-06 5.80545E-19 1.71760E-18
 -1      3303 1.30135E-04-4.22409E-05-3.80161E-05-9.50847E-06-2.28469E-18 9.72711E-19
 -1      3304 1.29217E-04-4.74823E-05-3.49467E-05-2.33410E-06-6.58356E-19 5.86782E-19
 -1      3305 1.27081E-04-4.03208E-05-3.73915E-05-1.12833E-05-1.98500E-18 7.85438E-19
 -1      3306 9.52439E-05-2.85810E-05-2.85698E-05 6.88647E-09 1.69697E-18 2.10187E-18
 -1      3307 9.52447E-05-2.85817E-05-2.85698E-05 5.65179E-09 1.47986E-18 1.29309E-19
 -1      3308 9.52460E-05-2.85825E-05-2.85701E-05 5.30525E-09 1.98910E-18-1.27494E-18
 -1      3309 1.30752E-04-5.14128E-05-3.42685E-05-2.32240E-06-3.91554E-20-4.40701E-18
 -1      3310 1.27868E-04-5.43165E-05-3.12759E-05 6.77096E-06-1.19453E-18-4.22680E-18
 -1      3311 1.13560E-04-3.73807E-05-3.27498E-05-5.11450E-06-8.46821E-19-1.32429E-18
 -1      3312 1.15607E-04-3.85156E-05-3.29737E-05-6.70334E-06-8.49766E-19-6.80700E-19
 -1      3313 1.17628E-04-3.99986E-05-3.33397E-05-8.10036E-06-1.00011E-18-4.33754E-19
 -1      3314 1.10581E-04-3.65393E-05-3.16328E-05-4.81592E-07 8.75488E-21-1.80505E-18
 -1      3315 1.22420E-04-4.82143E-05-3.17398E-05 9.08354E-07-9.83695E-19-3.80549E-18
 -1      3316 1.24705E-04-4.82816E-05-3.28087E-05-2.85824E-06-4.86144E-19-4.09963E-18
 -1      3317 1.28551E-04-4.79882E-05-3.46453E-05-6.29218E-06-6.27334E-20-4.14064E-18
 -1      3318 1.29048E-04-4.40258E-05-3.65137E-05-1.01253E-05 9.66438E-19-4.59053E-18
 -1      3319 5.67326E-05-2.10920E-05-1.48115E-05-2.65349E-05 3.02264E-18 3.25038E-18
 -1      3320 6.76299E-05-2.87678E-05-1.65449E-05-3.27538E-05 3.87205E-18 2.92713E-18
 -1      3321 1.08443E-04-5.06918E-05-2.43354E-05-2.74974E-05 4.47625E-18-2.32468E-19
 -1      3322 1.18029E-04-5.44757E-05-2.75401E-05-2.07136E-05 3.64658E-18-1.33345E-18
 -1      3323 1.31390E-04-4.58802E-05-3.66102E-05 1.17047E-05 1.21607E-18 2.43329E-18
 -1      3324 1.21185E-04-4.09707E-05-3.43458E-05-1.09919E-05-1.27354E-18 4.10424E-19
 -1      3325 1.21099E-04-3.89959E-05-3.52987E-05-1.26977E-05-1.57133E-18 3.38961E-19
 -1      3326 1.24450E-04-3.89835E-05-3.67458E-05-1.30017E-05-2.00192E-18 8.94282E-19
 -1      3327 1.19447E-04-4.14616E-05-3.34842E-05-6.99608E-06-8.19121E-19-2.85837E-19
 -1      3328 8.94545E-05-2.77876E-05-2.61676E-05-1.59166E-05-9.47552E-19-3.44666E-18
 -1      3329 7.79876E-05-2.17000E-05-2.40348E-05-1.83344E-05-1.27988E-18-4.45629E-18
 -1      3330 4.64196E-05-9.22886E-06-1.54327E-05 2.55571E-05 2.66090E-18-7.61843E-18
 -1      3331 3.91915E-05-2.41674E-06-1.52623E-05 1.60822E-05 2.16385E-18-8.12749E-18
 -1      3332 4.52058E-05-1.05915E-05-1.42902E-05-2.36874E-05-8.04099E-19-8.54487E-18
 -1      3333 5.70973E-05-1.50649E-05-1.76072E-05-2.42960E-05-1.43858E-18-7.34346E-18
 -1      3334 1.05006E-04-4.27719E-05-2.63837E-05-1.91246E-05-1.83489E-18-2.12846E-18
 -1      3335 1.16821E-04-4.85921E-05-2.95286E-05-1.21468E-05-1.12176E-18-4.79050E-19
 -1      3336 1.20174E-04-4.71207E-05-3.11912E-05-4.57959E-06-5.97132E-19 2.67318E-19
 -1      3337 9.95641E-05-3.71609E-05-2.65478E-05-1.70516E-05-1.62186E-18-2.46553E-18
 -1      3338 4.40346E-05-1.39537E-05-1.25746E-05 1.49673E-05-1.73521E-18 3.82033E-18
 -1      3339 3.70498E-05-1.08468E-05-1.07140E-05 3.23234E-06-6.73092E-19 4.22288E-18
 -1      3340 1.02274E-04-4.76037E-05-2.34897E-05 2.87450E-05-3.14069E-18-5.29316E-19
 -1      3341 9.03483E-05-4.08617E-05-2.10010E-05 3.11108E-05-3.24133E-18 2.24093E-19
 -1      3342 1.06782E-04-4.74547E-05-2.53594E-05 2.32353E-05-2.71376E-18-1.49816E-18
 -1      3343 3.62890E-05 2.20407E-06-1.60983E-05 6.79689E-06 1.50092E-18-8.36339E-18
 -1      3344 1.24313E-04-4.83769E-05-3.27833E-05 4.20373E-06 1.78102E-19-6.66774E-20
 -1      3345 1.18370E-04-4.74507E-05-3.03283E-05 1.07321E-05 1.16078E-18-6.64782E-19
 -1      3346 4.19046E-05-5.30061E-06-1.51886E-05-1.74165E-05-2.59721E-19-8.53820E-18
 -1      3347 3.93541E-05-1.13782E-05-1.15070E-05-7.59712E-06 6.28379E-19 3.49909E-18
 -1      3348 4.69971E-05-1.52884E-05-1.33798E-05-1.94320E-05 1.98809E-18 2.96070E-18
 -1      3349 4.65019E-05-1.20222E-05-1.42462E-05-3.44709E-06 7.34748E-19 2.82507E-18
 -1      3350 1.18633E-04-4.19600E-05-3.27600E-05 2.62806E-06 5.88728E-19 6.65619E-19
 -1      3351 1.13158E-04-3.92620E-05-3.16466E-05-1.06333E-06 4.10383E-19-2.51079E-19
 -1      3352 1.15356E-04-4.30158E-05-3.09729E-05-3.92714E-06-2.33477E-19-1.83029E-19
 -1      3353 1.21758E-04-4.46273E-05-3.31513E-05 4.38210E-06 5.91576E-19 1.07683E-18
 -1      3354 8.02309E-05-3.62683E-05-1.83824E-05-3.43011E-05 4.58308E-18 1.91895E-18
 -1      3355 9.48044E-05-4.49823E-05-2.14902E-05-3.32420E-05 4.66376E-18 7.89964E-19
 -1      3356 7.81130E-05-3.21163E-05-1.93389E-05-3.00358E-05 3.89611E-18 1.77657E-18
 -1      3357 8.34479E-05-3.56858E-05-2.02076E-05 3.07280E-05-2.79606E-18 8.27657E-19
 -1      3358 7.59644E-05-2.96038E-05-1.97261E-05 2.76012E-05-2.29133E-18 1.05445E-18
 -1      3359 9.16714E-05-3.80900E-05-2.27491E-05 2.63792E-05-2.51619E-18 2.13743E-20
 -1      3360 1.19738E-04-5.24196E-05-2.88470E-05-1.39560E-05 2.90757E-18-1.79961E-18
 -1      3361 1.01637E-04-4.59118E-05-2.36819E-05-2.73419E-05 4.13998E-18 2.94688E-19
 -1      3362 4.10138E-05-9.32502E-07-1.68703E-05 1.40357E-05 2.13900E-18-7.73680E-18
 -1      3363 1.15110E-04-1.97343E-05-4.11185E-05-1.12513E-05-5.07643E-18-8.50950E-19
 -1      3364 1.18904E-04-2.36984E-05-4.12220E-05-1.45906E-05-4.61194E-18-1.46722E-19
 -1      3365 1.05215E-04-4.06393E-05-2.76312E-05 1.68172E-05 1.89503E-18-2.00202E-18
 -1      3366 1.00288E-04-3.39398E-05-2.82909E-05 1.20403E-05 1.71672E-18-2.63053E-18
 -1      3367 1.06493E-04-3.66105E-05-2.99685E-05 6.89303E-06 8.02550E-19-2.13282E-18
 -1      3368 1.12637E-04-4.48086E-05-2.90740E-05 1.42032E-05 1.39207E-18-1.38573E-18
 -1      3369 1.14046E-04-1.53937E-05-4.27520E-05 3.09470E-06-5.35230E-18-3.66982E-18
 -1      3370 1.23534E-04-2.64922E-05-4.19049E-05 1.18684E-05-3.82430E-18-5.55823E-18
 -1      3371 1.14739E-04-4.34743E-05-3.04559E-05 7.01554E-06 1.20285E-18-8.35955E-19
 -1      3372 9.52383E-05-2.85764E-05-2.85694E-05 1.18797E-08 2.54481E-19 2.90278E-18
 -1      3373 9.52383E-05-2.85764E-05-2.85694E-05 1.05974E-08 1.07102E-18 1.46496E-18
 -1      3374 1.19283E-04-4.85702E-05-3.03846E-05 6.42594E-06-1.34595E-18-3.51955E-18
 -1      3375 9.52366E-05-2.85754E-05-2.85691E-05-1.25227E-08 4.91820E-19 6.48028E-19
 -1      3376 9.52387E-05-2.85769E-05-2.85693E-05-1.33728E-08 3.10228E-19 1.47443E-18
 -1      3377 9.52373E-05-2.85757E-05-2.85693E-05-1.16572E-08 5.23006E-20 2.50958E-18
 -1      3378 9.52388E-05-2.85767E-05-2.85695E-05-9.88163E-09 4.39236E-20 2.82859E-18
 -1      3379 9.52383E-05-2.85764E-05-2.85694E-05-1.07917E-08-9.64511E-20 2.47870E-18
 -1      3380 9.52407E-05-2.85783E-05-2.85696E-05-9.45948E-09 1.42471E-18 9.87198E-19
 -1      3381 1.21981E-04-5.25135E-05-2.98287E-05 1.00497E-05-1.60271E-18-3.47270E-18
 -1      3382 9.52430E-05-2.85803E-05-2.85697E-05-7.77089E-09 3.60662E-19-6.89808E-20
 -1      3383 9.52420E-05-2.85794E-05-2.85697E-05-8.57079E-09 5.87512E-19-8.08323E-19
 -1      3384 9.52421E-05-2.85794E-05-2.85697E-05-9.59862E-09 7.29413E-19-7.32251E-19
 -1      3385 9.52470E-05-2.85833E-05-2.85702E-05-1.83227E-09 5.13664E-19-1.80565E-18
 -1      3386 9.52458E-05-2.85826E-05-2.85699E-05-2.55760E-09 1.59721E-19-3.02600E-18
 -1      3387 9.52453E-05-2.85822E-05-2.85699E-05-4.05695E-09-3.00243E-19-2.87603E-18
 -1      3388 5.25323E-05-1.70791E-05-1.46289E-05 2.03778E-05-2.23627E-18 3.15615E-18
 -1      3389 5.01314E-05-1.39230E-05-1.53998E-05 1.27893E-05-8.59116E-19 2.76493E-18
 -1      3390 6.19546E-05-2.11926E-05-1.72000E-05 2.29462E-05-2.38000E-18 2.20800E-18
 -1      3391 1.24639E-04-4.63587E-05-3.34989E-05-1.23559E-06-7.25470E-20 1.81239E-19
 -1      3392 6.92526E-05-1.89595E-05-2.12705E-05-2.27475E-05-1.24135E-18-5.83786E-18
 -1      3393 9.52383E-05-2.85762E-05-2.85695E-05 9.79709E-09 1.20615E-18 1.57190E-18
 -1      3394 9.52403E-05-2.85779E-05-2.85695E-05 9.76818E-09 1.68699E-18 4.03872E-18
 -1      3395 8.37733E-05-3.22009E-05-2.20432E-05 2.94144E-05 2.79997E-18-4.37866E-18
 -1      3396 9.52417E-05-2.85792E-05-2.85697E-05 8.91322E-09 1.97093E-18 4.83035E-18
 -1      3397 9.52429E-05-2.85801E-05-2.85697E-05 8.09394E-09 1.11894E-18 3.63504E-18
 -1      3398 5.51114E-05-1.31298E-05-1.77925E-05 2.60699E-05 2.98346E-18-6.79723E-18
 -1      3399 9.52447E-05-2.85817E-05-2.85698E-05-5.44114E-09 5.17689E-20-1.15278E-18
 -1      3400 9.52439E-05-2.85811E-05-2.85698E-05-6.67634E-09 2.66454E-19 2.94255E-19
 -1      3401 9.52444E-05-2.85813E-05-2.85699E-05-7.61794E-09 4.21382E-20-2.28442E-19
 -1      3402 9.52461E-05-2.85825E-05-2.85701E-05-5.08125E-09 1.03548E-20-2.67984E-18
 -1      3403 1.29505E-04-3.95310E-05-3.88873E-05-1.32626E-05 2.26475E-18-4.23524E-18
 -1      3404 5.78129E-05-1.87427E-05-1.63032E-05-2.10945E-05 2.19895E-18 2.55036E-18
 -1      3405 1.27423E-04-4.61544E-05-3.48827E-05 9.14230E-06 7.71270E-19 1.80894E-18
 -1      3406 1.30762E-04-4.66858E-05-3.59567E-05 5.10378E-06-3.55410E-19-5.04546E-18
 -1      3407 1.28377E-04-3.90451E-05-3.87148E-05 1.07217E-05-2.03658E-18-5.96391E-18
 -1      3408 1.25154E-04-4.62112E-05-3.37057E-05 6.08680E-06 3.90308E-19 1.59618E-18
 -1      3409 5.98285E-05-1.13993E-05-2.05093E-05-1.85562E-05-8.60030E-19-6.40336E-18
 -1      3410 9.52441E-05-2.85810E-05-2.85699E-05 8.19303E-09 1.73484E-18 2.46682E-18
 -1      3411 1.22795E-04-4.67334E-05-3.27695E-05 1.82943E-06 1.42397E-19 1.07500E-18
 -1      3412 9.52414E-05-2.85788E-05-2.85697E-05 1.03359E-08 7.34008E-19 4.30955E-18
 -1      3413 6.87020E-05-1.82322E-05-2.10891E-05 2.55534E-05 3.10154E-18-5.79320E-18
 -1      3414 9.87711E-05-3.56055E-05-2.70385E-05-1.52136E-05-1.17706E-18-2.40299E-18
 -1      3415 5.71653E-05-1.56113E-05-1.74360E-05-1.50936E-05 1.38444E-18 1.59110E-18
 -1      3416 6.47261E-05-2.12913E-05-1.86628E-05-2.23904E-05 2.38408E-18 1.77602E-18
 -1      3417 1.12956E-04-4.02566E-05-3.11520E-05 2.41862E-06 3.67189E-19-1.30565E-18
 -1      3418 9.52413E-05-2.85788E-05-2.85697E-05 1.14793E-08 4.56297E-19 4.17219E-18
 -1      3419 1.08019E-04-4.52833E-05-2.68160E-05-1.72115E-05 2.80911E-18-7.23068E-19
 -1      3420 1.03465E-04-4.13517E-05-2.64162E-05-1.74418E-05 2.52188E-18-1.63008E-19
 -1      3421 9.99209E-05-3.77898E-05-2.65190E-05-1.62927E-05 1.85943E-18 2.24182E-19
 -1      3422 9.67374E-05-3.46353E-05-2.65279E-05-1.55792E-05 1.40530E-18 4.49219E-19
 -1      3423 9.67256E-05-3.79735E-05-2.53445E-05-2.02158E-05 2.50811E-18 7.79350E-19
 -1      3424 9.50589E-05-3.22679E-05-2.68220E-05-1.39999E-05 1.01688E-18 3.23889E-19
 -1      3425 9.31348E-05-3.01272E-05-2.69822E-05-1.30698E-05 1.17442E-18 4.55173E-19
 -1      3426 9.18908E-05-3.16907E-05-2.58711E-05-1.64758E-05 1.18085E-18 8.80061E-19
 -1      3427 9.24943E-05-2.86471E-05-2.72998E-05-1.16192E-05 1.12383E-18 8.22565E-20
 -1      3428 9.14583E-05-2.73324E-05-2.74900E-05-1.07048E-05 8.66000E-19-1.19812E-19
 -1      3429 8.97800E-05-2.78507E-05-2.65747E-05-1.30501E-05 1.05277E-18 3.33660E-19
 -1      3430 9.13989E-05-2.65201E-05-2.77634E-05-9.51769E-06 5.79395E-19-3.64909E-19
 -1      3431 9.09245E-05-2.57905E-05-2.79312E-05-8.71053E-06 3.26252E-19-1.78532E-20
 -1      3432 8.91557E-05-2.56680E-05-2.72198E-05-1.02572E-05 4.70499E-19-6.72774E-19
 -1      3433 9.11529E-05-2.54189E-05-2.81450E-05-7.76484E-06 1.18859E-19 2.26730E-20
 -1      3434 9.10130E-05-2.50824E-05-2.82743E-05-7.07301E-06-9.27921E-20 8.08346E-20
 -1      3435 8.93254E-05-2.45969E-05-2.77410E-05-8.10580E-06 1.93378E-19-7.38377E-19
 -1      3436 9.13735E-05-2.49959E-05-2.84304E-05-6.31855E-06-2.26000E-19 6.43671E-19
 -1      3437 9.14186E-05-2.49117E-05-2.85202E-05-5.72893E-06-4.11468E-20 7.55584E-19
 -1      3438 8.98884E-05-2.42302E-05-2.81342E-05-6.43749E-06 1.02269E-19 2.95163E-19
 -1      3439 9.18212E-05-2.49985E-05-2.86272E-05-5.12152E-06-2.96246E-19 4.97388E-19
 -1      3440 9.19577E-05-2.50664E-05-2.86830E-05-4.61851E-06-3.48490E-19 1.06661E-18
 -1      3441 9.06176E-05-2.43021E-05-2.84139E-05-5.12775E-06-3.44846E-19 4.75669E-19
 -1      3442 9.23528E-05-2.52498E-05-2.87511E-05-4.12448E-06-2.45182E-19 1.01651E-18
 -1      3443 9.25243E-05-2.54012E-05-2.87802E-05-3.69588E-06 1.03720E-19 9.52293E-19
 -1      3444 9.13811E-05-2.46280E-05-2.86011E-05-4.08135E-06-3.27200E-19 9.01217E-19
 -1      3445 9.28858E-05-2.56293E-05-2.88190E-05-3.29196E-06 2.05974E-19 8.26687E-19
 -1      3446 9.30599E-05-2.58186E-05-2.88289E-05-2.92879E-06 1.84412E-19 8.62668E-19
 -1      3447 9.21068E-05-2.50845E-05-2.87169E-05-3.23394E-06-1.37593E-19 4.07937E-19
 -1      3448 9.33756E-05-2.60577E-05-2.88467E-05-2.59864E-06-4.18735E-19 4.08641E-19
 -1      3449 9.35355E-05-2.62557E-05-2.88435E-05-2.29384E-06-6.34253E-19-4.24912E-20
 -1      3450 9.27574E-05-2.55894E-05-2.87802E-05-2.54305E-06-1.52337E-19 3.44876E-19
 -1      3451 9.38018E-05-2.64849E-05-2.88471E-05-2.02534E-06-2.46750E-19-2.66858E-19
 -1      3452 9.39398E-05-2.66740E-05-2.88358E-05-1.77265E-06 1.78930E-19-3.09921E-19
 -1      3453 9.33172E-05-2.60900E-05-2.88065E-05-1.97959E-06-7.75347E-19-1.86294E-19
 -1      3454 9.41580E-05-2.68817E-05-2.88303E-05-1.55614E-06-1.51739E-19-1.56891E-19
 -1      3455 9.42721E-05-2.70523E-05-2.88147E-05-1.34956E-06-1.57236E-19-4.82393E-19
 -1      3456 9.37836E-05-2.65549E-05-2.88081E-05-1.52224E-06-2.77342E-19-1.11925E-19
 -1      3457 9.44466E-05-2.72329E-05-2.88039E-05-1.17689E-06 2.05346E-19-3.11342E-19
 -1      3458 9.45378E-05-2.73807E-05-2.87865E-05-1.01054E-06 2.56811E-19-3.95121E-19
 -1      3459 9.41620E-05-2.69674E-05-2.87943E-05-1.15415E-06-1.23240E-19 5.98541E-19
 -1      3460 9.46742E-05-2.75330E-05-2.87732E-05-8.74574E-07 9.12968E-20-5.71832E-19
 -1      3461 9.47450E-05-2.76570E-05-2.87558E-05-7.42698E-07 1.90148E-19-5.55091E-19
 -1      3462 9.44616E-05-2.73211E-05-2.87719E-05-8.61132E-07-5.53775E-20 3.36961E-19
 -1      3463 9.48493E-05-2.77821E-05-2.87417E-05-6.37146E-07-1.54151E-19-9.30370E-19
 -1      3464 9.49028E-05-2.78835E-05-2.87255E-05-5.34281E-07 4.16719E-19-1.15017E-18
 -1      3465 9.46937E-05-2.76160E-05-2.87456E-05-6.30839E-07-2.83453E-20-3.02763E-19
 -1      3466 9.49808E-05-2.79839E-05-2.87119E-05-4.53591E-07 8.67105E-19-1.59971E-18
 -1      3467 9.50202E-05-2.80650E-05-2.86973E-05-3.74700E-07 1.04956E-18-1.91815E-18
 -1      3468 9.48696E-05-2.78561E-05-2.87186E-05-4.52390E-07 3.10922E-19-8.77997E-19
 -1      3469 9.50772E-05-2.81439E-05-2.86848E-05-3.14043E-07 1.12748E-18-2.35463E-18
 -1      3470 9.51054E-05-2.82073E-05-2.86722E-05-2.54610E-07 8.38999E-19-1.84070E-18
 -1      3471 9.49998E-05-2.80474E-05-2.86929E-05-3.16234E-07 7.84086E-19-9.49873E-19
 -1      3472 9.51459E-05-2.82682E-05-2.86612E-05-2.09850E-07 2.61263E-19-2.67686E-18
 -1      3473 9.51655E-05-2.83168E-05-2.86506E-05-1.65934E-07-4.99958E-19-2.35248E-18
 -1      3474 9.50940E-05-2.81967E-05-2.86695E-05-2.14084E-07 5.25776E-19-1.59746E-18
 -1      3475 9.51934E-05-2.83627E-05-2.86412E-05-1.33591E-07-6.92526E-19-1.84501E-18
 -1      3476 9.52064E-05-2.83993E-05-2.86324E-05-1.01835E-07-9.08585E-19-1.97424E-18
 -1      3477 9.51602E-05-2.83110E-05-2.86492E-05-1.38866E-07-2.67035E-19-1.58021E-18
 -1      3478 9.52250E-05-2.84333E-05-2.86246E-05-7.90309E-08-1.27717E-18-2.14086E-18
 -1      3479 9.52332E-05-2.84602E-05-2.86175E-05-5.66369E-08-7.17753E-19-2.75437E-18
 -1      3480 9.52051E-05-2.83967E-05-2.86319E-05-8.46428E-08-1.17060E-18-1.35939E-18
 -1      3481 9.52448E-05-2.84847E-05-2.86112E-05-4.10349E-08 1.49525E-19-2.56999E-18
 -1      3482 9.52495E-05-2.85040E-05-2.86056E-05-2.57180E-08 3.53342E-19-2.01117E-18
 -1      3483 9.52344E-05-2.84597E-05-2.86175E-05-4.65187E-08-1.88462E-19-1.64396E-18
 -1      3484 9.52563E-05-2.85212E-05-2.86005E-05-1.54511E-08 4.25590E-19-1.19617E-18
 -1      3485 9.52586E-05-2.85347E-05-2.85962E-05-5.38035E-09 1.16763E-18-2.78030E-19
 -1      3486 9.52522E-05-2.85048E-05-2.86059E-05-2.05241E-08 1.31347E-18-1.20270E-18
 -1      3487 9.52620E-05-2.85465E-05-2.85922E-05 1.01703E-09 6.50298E-19-4.04658E-19
 -1      3488 9.52627E-05-2.85556E-05-2.85889E-05 7.28199E-09 1.98120E-19-7.88501E-19
 -1      3489 9.52619E-05-2.85363E-05-2.85967E-05-3.49571E-09 8.30466E-19-4.63940E-19
 -1      3490 9.52637E-05-2.85632E-05-2.85858E-05 1.09406E-08 1.73726E-19-1.49043E-18
 -1      3491 9.52635E-05-2.85691E-05-2.85833E-05 1.45125E-08 2.80160E-19-9.69558E-19
 -1      3492 9.52662E-05-2.85574E-05-2.85895E-05 7.04471E-09 4.79327E-19-1.85166E-18
 -1      3493 9.52631E-05-2.85738E-05-2.85810E-05 1.62893E-08 8.04134E-19-7.00327E-19
 -1      3494 9.52622E-05-2.85773E-05-2.85792E-05 1.80116E-08 1.47338E-18-2.57170E-19
 -1      3495 9.52668E-05-2.85710E-05-2.85839E-05 1.30056E-08 3.58626E-19-1.68886E-18
 -1      3496 9.52609E-05-2.85800E-05-2.85775E-05 1.85435E-08 2.07833E-18-3.94270E-19
 -1      3497 9.52597E-05-2.85819E-05-2.85762E-05 1.90428E-08 1.81627E-18-3.81553E-19
 -1      3498 9.52652E-05-2.85792E-05-2.85798E-05 1.58301E-08 1.44725E-18-1.78521E-18
 -1      3499 9.52580E-05-2.85831E-05-2.85749E-05 1.87931E-08 9.48590E-19-1.21915E-19
 -1      3500 9.52567E-05-2.85839E-05-2.85740E-05 1.85242E-08 1.03481E-18-9.37308E-19
 -1      3501 9.52623E-05-2.85835E-05-2.85767E-05 1.65879E-08 1.20040E-18-3.90883E-19
 -1      3502 9.52548E-05-2.85841E-05-2.85731E-05 1.78214E-08 1.58026E-18-1.29109E-18
 -1      3503 9.52535E-05-2.85842E-05-2.85725E-05 1.71059E-08 1.73491E-18-7.95217E-19
 -1      3504 9.52589E-05-2.85853E-05-2.85744E-05 1.60551E-08 9.58401E-19-8.09729E-20
 -1      3505 9.52517E-05-2.85839E-05-2.85719E-05 1.61755E-08 1.74310E-18-1.71012E-18
 -1      3506 9.52505E-05-2.85836E-05-2.85715E-05 1.52319E-08 2.11554E-18-8.46145E-19
 -1      3507 9.52553E-05-2.85855E-05-2.85728E-05 1.47795E-08 1.56244E-18-9.71883E-19
 -1      3508 9.52488E-05-2.85831E-05-2.85710E-05 1.42221E-08 2.52806E-18-1.00558E-18
 -1      3509 9.52477E-05-2.85826E-05-2.85707E-05 1.31934E-08 9.13730E-19 3.20543E-19
 -1      3510 9.52519E-05-2.85847E-05-2.85717E-05 1.31331E-08 1.88336E-18-1.34237E-18
 -1      3511 9.52462E-05-2.85818E-05-2.85704E-05 1.21929E-08 5.11491E-19 1.27966E-18
 -1      3512 9.52452E-05-2.85813E-05-2.85702E-05 1.11895E-08 1.60698E-18 2.07073E-18
 -1      3513 9.52488E-05-2.85834E-05-2.85709E-05 1.13633E-08 2.05558E-18-7.51696E-19
 -1      3514 4.90235E-05-5.12484E-06-1.87313E-05-1.56726E-05-4.45685E-19-7.30968E-18
 -1      3515 1.13636E-04-4.75011E-05-2.81176E-05 1.44185E-05-2.05707E-18-2.53797E-18
 -1      3516 9.52431E-05-2.85800E-05-2.85699E-05 1.05700E-08 5.68983E-19 3.89662E-18
 -1      3517 9.52484E-05-2.85838E-05-2.85705E-05 2.91049E-09 1.76015E-18-2.98628E-18
 -1      3518 9.52486E-05-2.85841E-05-2.85705E-05 1.08357E-09 1.52845E-18-1.80203E-18
 -1      3519 9.70458E-05-3.20305E-05-2.78179E-05 1.39743E-05-1.32296E-18-1.15299E-18
 -1      3520 9.95067E-05-3.46739E-05-2.77304E-05 1.43593E-05-1.54660E-18-1.22695E-18
 -1      3521 1.02176E-04-3.76501E-05-2.75187E-05 1.53934E-05-2.16473E-18-1.46046E-18
 -1      3522 1.05962E-04-4.15491E-05-2.76130E-05 1.52095E-05-2.11315E-18-1.73057E-18
 -1      3523 9.64281E-05-3.47241E-05-2.65306E-05 1.73884E-05-1.83496E-18-9.23239E-19
 -1      3524 9.33118E-05-2.65852E-05-2.86007E-05 1.03145E-05-2.82208E-19-3.20225E-19
 -1      3525 9.40152E-05-2.74774E-05-2.84845E-05 1.10279E-05-3.87487E-19-6.29905E-19
 -1      3526 9.30386E-05-2.57176E-05-2.88608E-05 8.67700E-06-1.53275E-19-1.24713E-19
 -1      3527 9.33423E-05-2.61252E-05-2.87863E-05 9.37962E-06-5.22696E-20-3.03768E-19
 -1      3528 9.10682E-05-2.52146E-05-2.82294E-05 9.92111E-06-2.14008E-19 5.02248E-19
 -1      3529 9.31735E-05-2.54915E-05-2.90172E-05 7.22576E-06-4.92114E-19-3.88041E-19
 -1      3530 9.32676E-05-2.56069E-05-2.89834E-05 7.88490E-06-4.12130E-19-5.31064E-19
 -1      3531 9.13762E-05-2.46967E-05-2.85744E-05 8.18467E-06 7.67448E-21 2.22606E-19
 -1      3532 9.34754E-05-2.56234E-05-2.90899E-05 5.94923E-06-5.10669E-20-3.86415E-19
 -1      3533 9.34711E-05-2.55764E-05-2.90879E-05 6.55005E-06-1.00089E-19-4.35909E-19
 -1      3534 9.19230E-05-2.47206E-05-2.87952E-05 6.73571E-06-2.91394E-19 1.29128E-19
 -1      3535 9.38172E-05-2.59329E-05-2.91029E-05 4.83578E-06-6.90365E-19 1.56844E-19
 -1      3536 9.37747E-05-2.58053E-05-2.91221E-05 5.37047E-06-3.89805E-19-8.14959E-21
 -1      3537 9.25261E-05-2.50333E-05-2.89189E-05 5.50715E-06-2.80763E-19 6.65875E-19
 -1      3538 9.41375E-05-2.63107E-05-2.90771E-05 3.87633E-06 3.40345E-19 2.38559E-19
 -1      3539 9.40866E-05-2.61516E-05-2.91087E-05 4.34172E-06-3.65960E-19-2.46367E-19
 -1      3540 9.30945E-05-2.54773E-05-2.89728E-05 4.45871E-06-3.22662E-19-2.79036E-20
 -1      3541 9.44116E-05-2.66941E-05-2.90289E-05 3.06172E-06 6.13082E-19 1.16453E-18
 -1      3542 9.43653E-05-2.65315E-05-2.90663E-05 3.45837E-06 1.15156E-18 7.35758E-19
 -1      3543 9.35891E-05-2.59579E-05-2.89798E-05 3.56635E-06 3.24409E-19 1.86643E-19
 -1      3544 9.46337E-05-2.70501E-05-2.89703E-05 2.38116E-06-7.25704E-19 7.59326E-19
 -1      3545 9.45965E-05-2.68986E-05-2.90087E-05 2.71258E-06 1.27548E-19 1.47376E-18
 -1      3546 9.39986E-05-2.64218E-05-2.89576E-05 2.81367E-06 2.04524E-19 1.31335E-18
 -1      3547 9.48072E-05-2.73636E-05-2.89092E-05 1.82196E-06-9.22704E-19 3.74359E-19
 -1      3548 9.47794E-05-2.72299E-05-2.89457E-05 2.09372E-06-9.85724E-19 5.16434E-19
 -1      3549 9.43265E-05-2.68415E-05-2.89192E-05 2.18691E-06-4.56689E-19 2.98141E-19
 -1      3550 9.49391E-05-2.76300E-05-2.88505E-05 1.37008E-06-3.98788E-19-3.33774E-19
 -1      3551 9.49194E-05-2.75162E-05-2.88836E-05 1.58898E-06-3.71629E-19 2.82170E-19
 -1      3552 9.45823E-05-2.72056E-05-2.88736E-05 1.67268E-06-3.55344E-19 1.43455E-19
 -1      3553 9.50370E-05-2.78504E-05-2.87972E-05 1.01095E-06 1.04498E-19-1.06459E-18
 -1      3554 9.50237E-05-2.77562E-05-2.88260E-05 1.18425E-06-4.16790E-19-8.50362E-19
 -1      3555 9.47776E-05-2.75121E-05-2.88266E-05 1.25738E-06 1.26172E-19-1.31652E-18
 -1      3556 9.51083E-05-2.80289E-05-2.87506E-05 7.30242E-07 2.00084E-19-8.74720E-19
 -1      3557 9.50997E-05-2.79525E-05-2.87749E-05 8.65121E-07 2.38617E-19-1.06948E-18
 -1      3558 9.49240E-05-2.77639E-05-2.87819E-05 9.27363E-07-3.42820E-20-1.39734E-18
 -1      3559 9.51590E-05-2.81707E-05-2.87110E-05 5.14533E-07 9.29103E-20-4.91105E-19
 -1      3560 9.51538E-05-2.81099E-05-2.87311E-05 6.17710E-07 1.27301E-19-5.06569E-19
 -1      3561 9.50315E-05-2.79668E-05-2.87414E-05 6.69430E-07 2.35078E-19-5.39354E-19
 -1      3562 9.51942E-05-2.82815E-05-2.86782E-05 3.51680E-07 1.10424E-19-5.50510E-19
 -1      3563 9.51913E-05-2.82339E-05-2.86945E-05 4.29199E-07 2.56589E-19-6.08853E-19
 -1      3564 9.51090E-05-2.81272E-05-2.87061E-05 4.71237E-07 3.80764E-19-8.30799E-19
 -1      3565 9.52180E-05-2.83665E-05-2.86516E-05 2.31040E-07 4.25825E-19 1.15176E-18
 -1      3566 9.52166E-05-2.83299E-05-2.86645E-05 2.88164E-07-1.19428E-19 2.15003E-19
 -1      3567 9.51635E-05-2.82520E-05-2.86762E-05 3.21640E-07-2.89364E-19-2.61257E-19
 -1      3568 9.52334E-05-2.84307E-05-2.86304E-05 1.43531E-07 7.95820E-19 1.88183E-18
 -1      3569 9.52330E-05-2.84030E-05-2.86404E-05 1.84726E-07 1.22783E-18 1.87221E-18
 -1      3570 9.52009E-05-2.83473E-05-2.86514E-05 2.10865E-07 1.88924E-19 1.35522E-18
 -1      3571 9.52428E-05-2.84783E-05-2.86138E-05 8.15715E-08-5.62973E-19 2.09990E-18
 -1      3572 9.52430E-05-2.84577E-05-2.86215E-05 1.10540E-07 4.32967E-19 2.16677E-18
 -1      3573 9.52256E-05-2.84190E-05-2.86314E-05 1.30562E-07 3.88390E-19 2.08700E-18
 -1      3574 9.52481E-05-2.85128E-05-2.86011E-05 3.89647E-08 4.40598E-20 7.51303E-19
 -1      3575 9.52486E-05-2.84979E-05-2.86069E-05 5.87189E-08-4.12633E-19 1.39173E-18
 -1      3576 9.52411E-05-2.84718E-05-2.86155E-05 7.37573E-08 1.74885E-19 1.13415E-18
 -1      3577 9.52505E-05-2.85373E-05-2.85916E-05 1.07402E-08 4.83740E-19 4.32552E-19
 -1      3578 9.52512E-05-2.85267E-05-2.85958E-05 2.36824E-08 6.78197E-19 1.18639E-18
 -1      3579 9.52502E-05-2.85099E-05-2.86030E-05 3.47476E-08 2.66054E-19 1.35193E-18
 -1      3580 9.52511E-05-2.85542E-05-2.85845E-05-7.01769E-09-1.99695E-19 1.80047E-19
 -1      3581 9.52519E-05-2.85469E-05-2.85876E-05 9.95835E-10-4.34678E-19 9.03845E-20
 -1      3582 9.52548E-05-2.85368E-05-2.85935E-05 8.95537E-09 5.43120E-19 1.47128E-18
 -1      3583 9.52506E-05-2.85655E-05-2.85794E-05-1.73390E-08-4.70294E-20 1.02401E-18
 -1      3584 9.52513E-05-2.85606E-05-2.85815E-05-1.28040E-08 6.54526E-19 1.23637E-18
 -1      3585 9.52564E-05-2.85551E-05-2.85863E-05-7.22504E-09-6.58772E-19 8.95574E-20
 -1      3586 9.52494E-05-2.85726E-05-2.85758E-05-2.25262E-08-7.58773E-20 1.77229E-18
 -1      3587 9.52500E-05-2.85695E-05-2.85773E-05-2.03734E-08 1.14541E-19 1.57576E-18
 -1      3588 9.52561E-05-2.85672E-05-2.85810E-05-1.65834E-08-2.24690E-19 1.80501E-18
 -1      3589 9.52478E-05-2.85767E-05-2.85733E-05-2.42953E-08-1.46460E-18 2.39543E-18
 -1      3590 9.52484E-05-2.85749E-05-2.85743E-05-2.37119E-08-7.32749E-19 1.71258E-18
 -1      3591 9.52547E-05-2.85746E-05-2.85772E-05-2.12384E-08-5.03027E-19 1.91164E-18
 -1      3592 9.52462E-05-2.85789E-05-2.85717E-05-2.38976E-08 1.46163E-19 1.05914E-18
 -1      3593 9.52467E-05-2.85779E-05-2.85723E-05-2.42946E-08 1.19664E-19 1.80077E-18
 -1      3594 9.52526E-05-2.85789E-05-2.85745E-05-2.27681E-08 1.68862E-19 3.50771E-19
 -1      3595 9.52446E-05-2.85796E-05-2.85707E-05-2.22226E-08-6.30992E-19-8.11120E-19
 -1      3596 9.52450E-05-2.85793E-05-2.85710E-05-2.31845E-08-7.43922E-19 5.04978E-19
 -1      3597 9.52504E-05-2.85809E-05-2.85727E-05-2.23218E-08 6.65888E-19 7.84939E-19
 -1      3598 9.52431E-05-2.85796E-05-2.85701E-05-1.98815E-08-7.80393E-19-1.52724E-18
 -1      3599 9.52435E-05-2.85796E-05-2.85702E-05-2.11257E-08-6.64365E-19-7.88121E-19
 -1      3600 9.52481E-05-2.85815E-05-2.85714E-05-2.07151E-08-3.80157E-19-1.03233E-19
 -1      3601 9.52418E-05-2.85791E-05-2.85697E-05-1.72778E-08-7.45362E-19-5.97181E-19
 -1      3602 9.52421E-05-2.85792E-05-2.85698E-05-1.86224E-08-7.14148E-19-1.31773E-18
 -1      3603 9.52460E-05-2.85812E-05-2.85706E-05-1.85100E-08-9.34269E-19 5.68738E-19
 -1      3604 9.52408E-05-2.85783E-05-2.85696E-05-1.46604E-08 6.26377E-19 2.28656E-19
 -1      3605 9.52409E-05-2.85786E-05-2.85696E-05-1.59807E-08-4.26356E-19-1.92807E-19
 -1      3606 9.52441E-05-2.85805E-05-2.85702E-05-1.60766E-08-4.95490E-19 6.97754E-21
 -1      3607 9.52470E-05-2.85828E-05-2.85703E-05 6.55780E-09 2.45751E-18-8.65221E-19
 -1      3608 9.52478E-05-2.85834E-05-2.85704E-05 4.94793E-09 2.70849E-18-2.59256E-18
 -1      3609 9.52494E-05-2.85843E-05-2.85708E-05 4.23805E-09 1.95736E-18-2.56221E-18
 -1      3610 9.52450E-05-2.85813E-05-2.85702E-05 9.91678E-09 1.42603E-18 2.58415E-18
 -1      3611 1.16559E-04-4.45748E-05-3.07000E-05-5.34710E-06-5.26361E-19-5.44516E-20
 -1      3612 9.44173E-05-2.85089E-05-2.82357E-05 1.21239E-05-4.30878E-19-1.02053E-18
 -1      3613 9.58117E-05-3.01411E-05-2.80992E-05 1.27692E-05-8.58177E-19-9.86300E-19
 -1      3614 9.27982E-05-2.96121E-05-2.71387E-05 1.45770E-05-1.13724E-18-1.10996E-18
 -1      3615 9.13404E-05-2.66646E-05-2.77438E-05 1.20329E-05-4.71720E-19-4.85958E-19
 -1      3616 1.27174E-04-4.82217E-05-3.38309E-05 2.79041E-06 4.96322E-19-4.54052E-18
 -1      3617 9.56556E-05-4.05717E-05-2.32776E-05-2.64180E-05 3.78004E-18 7.80640E-19
 -1      3618 1.05852E-04-4.65275E-05-2.56339E-05-2.22944E-05 3.29149E-18-7.38375E-20
 -1      3619 1.14379E-04-4.95273E-05-2.74665E-05-1.63280E-05 3.07074E-18-1.47212E-18
 -1      3620 1.18194E-04-4.32416E-05-3.21159E-05-5.05852E-07 2.32249E-19-9.52065E-19
 -1      3621 1.06014E-04-4.41030E-05-2.65747E-05 1.87952E-05-2.31735E-18-1.84342E-18
 -1      3622 9.92419E-05-4.05271E-05-2.49385E-05 2.26090E-05-2.48136E-18-8.06210E-19
 -1      3623 9.52464E-05-2.85823E-05-2.85703E-05 8.63806E-09 2.27816E-18 4.94549E-19
 -1      3624 5.01917E-05-1.17674E-05-1.59954E-05 3.22995E-06 2.87346E-20 2.31208E-18
 -1      3625 5.14438E-05-1.25084E-05-1.66433E-05-6.54236E-06 8.55957E-19 1.80174E-18
 -1      3626 1.27609E-04-3.54871E-05-3.98674E-05 1.23752E-05-2.46600E-18-6.10637E-18
 -1      3627 1.25829E-04-4.40931E-05-3.50595E-05-8.30949E-06-9.10838E-19 5.53682E-19
 -1      3628 5.61555E-05-1.10293E-05-1.91073E-05 2.33519E-05 2.90736E-18-6.58325E-18
 -1      3629 7.42527E-05-2.72581E-05-1.98119E-05-2.62866E-05 2.96717E-18 1.77620E-18
 -1      3630 8.44062E-05-3.47188E-05-2.13991E-05-2.84426E-05 3.60675E-18 8.30225E-19
 -1      3631 9.14716E-05-3.62246E-05-2.34886E-05-2.39542E-05 3.09131E-18 1.01080E-18
 -1      3632 7.24268E-05-2.39619E-05-2.06214E-05-2.14635E-05 2.36231E-18 1.39930E-18
 -1      3633 5.93082E-05-1.47813E-05-1.88405E-05-8.90828E-06 7.54653E-19 1.55828E-18
 -1      3634 9.25870E-05-3.58536E-05-2.42676E-05 2.25790E-05-2.18146E-18-8.07937E-19
 -1      3635 5.58851E-05-1.41724E-05-1.76068E-05 8.51254E-06-3.60821E-19 2.08979E-18
 -1      3636 9.52407E-05-2.85784E-05-2.85696E-05-1.35648E-08 7.49895E-19 1.84352E-18
 -1      3637 9.52433E-05-2.85800E-05-2.85700E-05-1.36813E-08-6.27671E-19 1.81212E-18
 -1      3638 9.52411E-05-2.85785E-05-2.85697E-05-1.24641E-08-4.43582E-19 2.73212E-18
 -1      3639 9.52481E-05-2.85833E-05-2.85706E-05 8.36157E-09 2.79381E-18-2.20487E-19
 -1      3640 9.52486E-05-2.85840E-05-2.85705E-05-1.06961E-09 1.56374E-18-5.56103E-19
 -1      3641 9.52484E-05-2.85839E-05-2.85705E-05-2.90612E-09 6.35246E-19-1.52794E-18
 -1      3642 9.52500E-05-2.85848E-05-2.85708E-05 1.04192E-11 1.48560E-18-1.10343E-18
 -1      3643 7.05364E-05-2.49696E-05-1.92364E-05 2.49776E-05-2.46457E-18 1.84762E-18
 -1      3644 6.51299E-05-2.04660E-05-1.91387E-05 2.00022E-05-2.00044E-18 2.02610E-18
 -1      3645 7.91277E-05-2.85025E-05-2.14821E-05 2.38445E-05-2.38137E-18 8.52459E-19
 -1      3646 1.26360E-04-3.97123E-05-3.70983E-05 1.01237E-05-1.66445E-18-5.67282E-18
 -1      3647 9.52460E-05-2.85822E-05-2.85702E-05-7.77148E-09 1.31264E-18 7.69507E-19
 -1      3648 9.52449E-05-2.85814E-05-2.85701E-05-8.91424E-09 1.08590E-18 7.24617E-19
 -1      3649 1.22180E-04-4.48013E-05-3.32461E-05-2.80256E-06-3.22442E-19-1.51149E-19
 -1      3650 1.22313E-04-3.96619E-05-3.55273E-05 1.07083E-05-1.34993E-18-5.27826E-18
 -1      3651 9.52449E-05-2.85812E-05-2.85702E-05-1.08808E-08 1.29499E-18 4.55313E-19
 -1      3652 9.52434E-05-2.85803E-05-2.85699E-05-1.05292E-08 2.82857E-19-5.63324E-19
 -1      3653 1.11001E-04-4.29076E-05-2.92479E-05-1.05928E-05-9.80997E-19-1.09282E-18
 -1      3654 8.80403E-05-3.22559E-05-2.38114E-05-2.16250E-05 2.19048E-18 8.25076E-19
 -1      3655 8.81856E-05-2.98617E-05-2.48674E-05-1.76865E-05 1.21253E-18 8.69751E-19
 -1      3656 8.64679E-05-2.75857E-05-2.52414E-05-1.57503E-05 9.43980E-19 7.68153E-19
 -1      3657 8.67960E-05-2.63139E-05-2.58549E-05-1.34917E-05 7.92721E-19 6.33035E-19
 -1      3658 8.61977E-05-2.50265E-05-2.62359E-05-1.18756E-05 5.89746E-19 1.85671E-19
 -1      3659 8.26024E-05-2.46364E-05-2.49106E-05-1.45304E-05 5.53328E-19 6.24937E-19
 -1      3660 8.68560E-05-2.44479E-05-2.67078E-05-1.02763E-05 1.88275E-19-2.43304E-19
 -1      3661 8.67909E-05-2.38114E-05-2.70204E-05-9.07089E-06 2.34542E-19-7.43318E-19
 -1      3662 8.38489E-05-2.30526E-05-2.60349E-05-1.06071E-05-7.83142E-20 2.09574E-19
 -1      3663 8.75302E-05-2.35999E-05-2.73741E-05-7.91405E-06 2.45830E-19-7.22285E-19
 -1      3664 8.77406E-05-2.33626E-05-2.76146E-05-6.99957E-06 1.95904E-19-4.97941E-19
 -1      3665 8.52717E-05-2.24688E-05-2.69010E-05-7.85921E-06 7.82273E-20-3.24132E-19
 -1      3666 8.84722E-05-2.34051E-05-2.78717E-05-6.16290E-06 4.07507E-19-3.18561E-19
 -1      3667 8.88149E-05-2.34165E-05-2.80469E-05-5.45989E-06 3.45609E-19-9.27189E-20
 -1      3668 8.67657E-05-2.24771E-05-2.75362E-05-5.93624E-06 2.87613E-19-4.13110E-19
 -1      3669 8.94921E-05-2.36077E-05-2.82282E-05-4.83919E-06-1.56288E-19 6.49337E-22
 -1      3670 8.98783E-05-2.37656E-05-2.83492E-05-4.28670E-06-3.47505E-19 1.40055E-19
 -1      3671 8.81772E-05-2.28325E-05-2.79903E-05-4.55143E-06 6.39921E-20-5.90466E-19
 -1      3672 9.04847E-05-2.40390E-05-2.84723E-05-3.81300E-06-4.81891E-19 4.88474E-19
 -1      3673 9.08657E-05-2.42759E-05-2.85508E-05-3.37031E-06-3.91899E-19 2.05434E-19
 -1      3674 8.94561E-05-2.33803E-05-2.83055E-05-3.52173E-06-2.55777E-19-1.24960E-19
 -1      3675 9.13949E-05-2.45853E-05-2.86302E-05-3.00147E-06-2.70910E-19-2.18688E-19
 -1      3676 9.17447E-05-2.48556E-05-2.86767E-05-2.64228E-06 2.00865E-19-7.32705E-20
 -1      3677 9.05847E-05-2.40228E-05-2.85157E-05-2.73506E-06-4.54804E-19-6.25322E-20
 -1      3678 9.21959E-05-2.51694E-05-2.87242E-05-2.35139E-06-2.11258E-19-2.83658E-19
 -1      3679 9.25022E-05-2.54430E-05-2.87478E-05-2.05845E-06-5.23014E-19-5.10024E-19
 -1      3680 9.15575E-05-2.46908E-05-2.86480E-05-2.12231E-06-1.33520E-19-6.75552E-19
 -1      3681 9.28787E-05-2.57405E-05-2.87726E-05-1.82764E-06-1.47145E-19-1.00138E-18
 -1      3682 9.31376E-05-2.59987E-05-2.87805E-05-1.58902E-06-2.91644E-19-2.85178E-19
 -1      3683 9.23781E-05-2.53371E-05-2.87242E-05-1.63919E-06-5.92977E-19-1.27634E-18
 -1      3684 9.34456E-05-2.62679E-05-2.87898E-05-1.40584E-06-5.26938E-19 5.45541E-19
 -1      3685 9.36581E-05-2.65001E-05-2.87873E-05-1.21262E-06-1.01964E-19 2.54097E-19
 -1      3686 9.30563E-05-2.59321E-05-2.87612E-05-1.25625E-06 1.69886E-19-1.37323E-20
 -1      3687 9.39052E-05-2.67353E-05-2.87866E-05-1.06786E-06 2.67231E-19 9.81484E-19
 -1      3688 9.40753E-05-2.69367E-05-2.87780E-05-9.12837E-07 3.24079E-19 1.36589E-18
 -1      3689 9.36059E-05-2.64598E-05-2.87719E-05-9.52797E-07 4.58449E-19 1.08363E-18
 -1      3690 9.42698E-05-2.71362E-05-2.87711E-05-7.99318E-07-5.09476E-19 1.02361E-18
 -1      3691 9.44030E-05-2.73060E-05-2.87592E-05-6.76369E-07-1.78079E-19 7.78427E-19
 -1      3692 9.40429E-05-2.69137E-05-2.87657E-05-7.13447E-07-1.05978E-19 1.15156E-18
 -1      3693 9.45532E-05-2.74711E-05-2.87491E-05-5.88249E-07-3.61293E-19 2.24045E-19
 -1      3694 9.46551E-05-2.76107E-05-2.87360E-05-4.92014E-07-4.14476E-19 5.17409E-19
 -1      3695 9.43839E-05-2.72942E-05-2.87497E-05-5.26138E-07-7.52403E-19 9.83862E-19
 -1      3696 9.47689E-05-2.77444E-05-2.87245E-05-4.24440E-07-1.11792E-20 2.90508E-19
 -1      3697 9.48452E-05-2.78567E-05-2.87114E-05-3.50197E-07 7.55442E-19 1.68027E-19
 -1      3698 9.46450E-05-2.76060E-05-2.87286E-05-3.81058E-07-5.77312E-19 1.02082E-18
 -1      3699 9.49297E-05-2.79628E-05-2.86998E-05-2.99102E-07 6.62398E-19-1.39586E-19
 -1      3700 9.49855E-05-2.80513E-05-2.86876E-05-2.42721E-07 5.63055E-19-4.28327E-19
 -1      3701 9.48408E-05-2.78564E-05-2.87059E-05-2.70062E-07 5.59907E-19 2.49653E-19
 -1      3702 9.50467E-05-2.81338E-05-2.86767E-05-2.04696E-07 4.46351E-19-1.36920E-18
 -1      3703 9.50864E-05-2.82022E-05-2.86658E-05-1.62613E-07-1.73651E-19-1.78774E-18
 -1      3704 9.49847E-05-2.80535E-05-2.86836E-05-1.86334E-07-2.52545E-19-1.32819E-18
 -1      3705 9.51297E-05-2.82652E-05-2.86560E-05-1.34825E-07-2.90676E-19-1.88112E-18
 -1      3706 9.51572E-05-2.83171E-05-2.86466E-05-1.04012E-07-3.37034E-19-1.35751E-18
 -1      3707 9.50879E-05-2.82057E-05-2.86629E-05-1.24184E-07-2.23524E-19-2.61247E-18
 -1      3708 9.51868E-05-2.83642E-05-2.86380E-05-8.41312E-08-4.75360E-19-7.94407E-19
 -1      3709 9.52050E-05-2.84027E-05-2.86301E-05-6.20639E-08-8.48059E-19-5.41145E-19
 -1      3710 9.51597E-05-2.83210E-05-2.86445E-05-7.88937E-08-2.32952E-19-8.84698E-19
 -1      3711 9.52245E-05-2.84372E-05-2.86229E-05-4.81974E-08-1.10955E-18 2.08547E-19
 -1      3712 9.52360E-05-2.84652E-05-2.86164E-05-3.28027E-08 8.11151E-19 1.92981E-19
 -1      3713 9.52081E-05-2.84067E-05-2.86288E-05-4.65943E-08-1.78825E-19 2.77631E-19
 -1      3714 9.52480E-05-2.84898E-05-2.86105E-05-2.34357E-08 1.44366E-18-3.26066E-19
 -1      3715 9.52547E-05-2.85097E-05-2.86053E-05-1.30422E-08 1.05041E-18 1.47855E-21
 -1      3716 9.52391E-05-2.84689E-05-2.86156E-05-2.41530E-08 5.93317E-19 1.64861E-18
 -1      3717 9.52615E-05-2.85268E-05-2.86005E-05-6.97872E-09 1.05159E-18-5.63267E-19
 -1      3718 9.52648E-05-2.85404E-05-2.85964E-05-2.61296E-10 9.77367E-19-2.75149E-19
 -1      3719 9.52577E-05-2.85129E-05-2.86048E-05-9.06749E-09 1.04603E-18-5.93107E-19
 -1      3720 9.52680E-05-2.85519E-05-2.85926E-05 3.42814E-09 5.10285E-19-3.33032E-19
 -1      3721 9.52691E-05-2.85608E-05-2.85893E-05 7.50273E-09 5.32548E-19-5.46087E-19
 -1      3722 9.52675E-05-2.85432E-05-2.85961E-05 6.32324E-10 6.25585E-19 4.17694E-19
 -1      3723 9.52699E-05-2.85682E-05-2.85864E-05 9.52884E-09 5.28653E-19-1.55053E-18
 -1      3724 9.52696E-05-2.85738E-05-2.85839E-05 1.17521E-08 3.08672E-19-9.97572E-19
 -1      3725 9.52714E-05-2.85632E-05-2.85892E-05 6.47369E-09 1.55046E-19-7.60929E-19
 -1      3726 9.52689E-05-2.85781E-05-2.85817E-05 1.26490E-08 1.18370E-18-5.15221E-19
 -1      3727 9.52677E-05-2.85814E-05-2.85799E-05 1.36161E-08 2.29799E-18-1.21039E-19
 -1      3728 9.52715E-05-2.85757E-05-2.85839E-05 9.62162E-09 1.21241E-18 6.56109E-20
 -1      3729 9.52661E-05-2.85837E-05-2.85781E-05 1.37776E-08 1.82871E-18 1.18257E-19
 -1      3730 9.52644E-05-2.85852E-05-2.85768E-05 1.39271E-08 1.09284E-18 5.45312E-19
 -1      3731 9.52692E-05-2.85829E-05-2.85799E-05 1.09492E-08 2.46170E-18 7.70891E-19
 -1      3732 9.52625E-05-2.85861E-05-2.85755E-05 1.36369E-08 8.80621E-19 5.24798E-19
 -1      3733 9.52606E-05-2.85866E-05-2.85746E-05 1.32846E-08 1.35077E-18 8.94266E-19
 -1      3734 9.52657E-05-2.85864E-05-2.85769E-05 1.10978E-08 1.07862E-18 8.06573E-19
 -1      3735 9.52585E-05-2.85866E-05-2.85736E-05 1.27421E-08 8.03985E-19-9.21605E-19
 -1      3736 9.52567E-05-2.85864E-05-2.85729E-05 1.21082E-08 1.94289E-19-1.58997E-18
 -1      3737 9.52616E-05-2.85875E-05-2.85746E-05 1.05287E-08 4.37581E-19 3.62208E-19
 -1      3738 9.52546E-05-2.85859E-05-2.85723E-05 1.14521E-08 1.10146E-18-1.38514E-18
 -1      3739 9.52530E-05-2.85854E-05-2.85718E-05 1.06775E-08 2.05199E-18-1.83833E-18
 -1      3740 9.52574E-05-2.85871E-05-2.85730E-05 9.56353E-09 5.82858E-20-1.01290E-18
 -1      3741 9.52512E-05-2.85847E-05-2.85713E-05 9.89757E-09 2.42485E-18-1.26839E-18
 -1      3742 9.52497E-05-2.85840E-05-2.85710E-05 9.09349E-09 2.65168E-18-1.35020E-19
 -1      3743 9.52503E-05-2.85846E-05-2.85710E-05 6.96751E-09 3.21671E-18-1.11801E-18
 -1      3744 9.52536E-05-2.85860E-05-2.85719E-05 8.33158E-09 1.70292E-18-8.76193E-19
 -1      3745 9.07483E-05-2.40042E-05-2.86207E-05 5.90766E-06-3.14991E-19 7.99381E-19
 -1      3746 9.04433E-05-2.38613E-05-2.85266E-05 6.53993E-06-1.66900E-19 6.82462E-19
 -1      3747 9.52400E-05-2.85777E-05-2.85695E-05-1.13461E-08-3.72667E-19 2.77093E-18
 -1      3748 9.52418E-05-2.85791E-05-2.85698E-05-1.14383E-08 1.21521E-19 1.14300E-18
 -1      3749 8.97781E-05-2.36722E-05-2.83506E-05 7.24048E-06 2.61697E-20 9.96622E-19
 -1      3750 8.95372E-05-2.37069E-05-2.81975E-05 7.99594E-06 1.34935E-19 7.42367E-19
 -1      3751 8.87068E-05-2.29143E-05-2.81812E-05 6.34876E-06 7.28203E-20 1.07134E-18
 -1      3752 8.88388E-05-2.37119E-05-2.79348E-05 8.90077E-06-3.26756E-19 5.72424E-19
 -1      3753 8.87899E-05-2.40715E-05-2.77087E-05 9.82938E-06-5.15062E-19 5.64827E-19
 -1      3754 8.73322E-05-2.26212E-05-2.77168E-05 7.87703E-06-3.67243E-19 1.74397E-19
 -1      3755 9.16473E-05-2.45201E-05-2.87821E-05 4.80436E-06-4.17268E-19 7.80420E-19
 -1      3756 9.13432E-05-2.42902E-05-2.87319E-05 5.34265E-06-2.36652E-19 1.07475E-18
 -1      3757 8.99657E-05-2.34627E-05-2.84874E-05 5.15276E-06-3.50889E-19 9.58764E-19
 -1      3758 9.24306E-05-2.51019E-05-2.88661E-05 3.87650E-06-7.03991E-20 1.07587E-18
 -1      3759 9.21578E-05-2.48410E-05-2.88466E-05 4.33697E-06-2.11882E-19 1.06597E-18
 -1      3760 9.10649E-05-2.41235E-05-2.86774E-05 4.17950E-06-2.58232E-19 9.05606E-19
 -1      3761 9.30862E-05-2.56795E-05-2.88976E-05 3.09343E-06 4.88178E-19 1.27028E-18
 -1      3762 9.28559E-05-2.54204E-05-2.88982E-05 3.48543E-06 2.56535E-19 1.45699E-18
 -1      3763 9.19930E-05-2.48060E-05-2.87848E-05 3.36856E-06-8.81236E-20 1.70762E-18
 -1      3764 9.36194E-05-2.62141E-05-2.88954E-05 2.43613E-06-2.14659E-19 1.80323E-18
 -1      3765 9.34324E-05-2.59747E-05-2.89081E-05 2.76625E-06 4.21154E-19 1.29547E-18
 -1      3766 9.27571E-05-2.54565E-05-2.88355E-05 2.68716E-06 1.20377E-19 1.71983E-18
 -1      3767 9.40431E-05-2.66868E-05-2.88730E-05 1.89034E-06-4.77526E-19 4.05743E-19
 -1      3768 9.38957E-05-2.64755E-05-2.88922E-05 2.16447E-06 5.39037E-20 8.88873E-19
 -1      3769 9.33733E-05-2.60457E-05-2.88487E-05 2.11612E-06 2.28419E-19 1.77956E-18
 -1      3770 9.43735E-05-2.70913E-05-2.88401E-05 1.44337E-06 1.09434E-19-3.37039E-19
 -1      3771 9.42599E-05-2.69109E-05-2.88618E-05 1.66746E-06-5.04250E-19-2.97713E-19
 -1      3772 9.38612E-05-2.65602E-05-2.88387E-05 1.64206E-06 1.85448E-19 2.29893E-19
 -1      3773 9.46265E-05-2.74288E-05-2.88029E-05 1.08287E-06-1.09461E-19-3.88609E-19
 -1      3774 9.45407E-05-2.72786E-05-2.88248E-05 1.26310E-06 2.13558E-19-2.57120E-19
 -1      3775 9.42412E-05-2.69973E-05-2.88154E-05 1.25368E-06 1.60192E-19-2.49449E-19
 -1      3776 9.48170E-05-2.77044E-05-2.87656E-05 7.96775E-07 4.64844E-20-9.14720E-19
 -1      3777 9.47535E-05-2.75820E-05-2.87862E-05 9.39339E-07-1.74716E-19-7.26175E-19
 -1      3778 9.45324E-05-2.73600E-05-2.87856E-05 9.40273E-07 1.45773E-19 1.82474E-19
 -1      3779 9.49580E-05-2.79253E-05-2.87306E-05 5.73465E-07 9.30668E-20-5.68750E-19
 -1      3780 9.49118E-05-2.78274E-05-2.87491E-05 6.84348E-07-1.31452E-19-1.11600E-18
 -1      3781 9.47518E-05-2.76551E-05-2.87539E-05 6.91440E-07 1.35937E-19-7.86428E-19
 -1      3782 9.50603E-05-2.80993E-05-2.86993E-05 4.02148E-07-1.83644E-19 1.96375E-19
 -1      3783 9.50274E-05-2.80223E-05-2.87154E-05 4.86900E-07 4.65601E-19 3.59595E-19
 -1      3784 9.49144E-05-2.78908E-05-2.87231E-05 4.97175E-07-1.23765E-19-1.33925E-19
 -1      3785 9.51329E-05-2.82340E-05-2.86723E-05 2.73083E-07-7.20106E-19 8.50177E-19
 -1      3786 9.51101E-05-2.81745E-05-2.86858E-05 3.36686E-07-4.08963E-19 5.41264E-19
 -1      3787 9.50326E-05-2.80760E-05-2.86948E-05 3.48145E-07-7.09223E-19 2.54205E-18
 -1      3788 9.51832E-05-2.83365E-05-2.86495E-05 1.77737E-07-1.32816E-19 2.15564E-18
 -1      3789 9.51679E-05-2.82913E-05-2.86606E-05 2.24531E-07-7.04303E-19 9.19936E-19
 -1      3790 9.51166E-05-2.82189E-05-2.86698E-05 2.35909E-07-9.91462E-19 1.88807E-18
 -1      3791 9.52168E-05-2.84132E-05-2.86308E-05 1.08822E-07 3.29394E-19 2.54041E-18
 -1      3792 9.52069E-05-2.83795E-05-2.86397E-05 1.42491E-07 3.37156E-19 2.43110E-18
 -1      3793 9.51747E-05-2.83274E-05-2.86485E-05 1.53050E-07-3.28259E-19 3.30167E-18
 -1      3794 9.52383E-05-2.84695E-05-2.86157E-05 6.02545E-08 9.71455E-19 1.38210E-18
 -1      3795 9.52323E-05-2.84448E-05-2.86228E-05 8.38599E-08 1.31637E-18 2.37787E-18
 -1      3796 9.52137E-05-2.84083E-05-2.86306E-05 9.32210E-08 1.09277E-18 3.13392E-18
 -1      3797 9.52511E-05-2.85098E-05-2.86037E-05 2.70646E-08 1.55023E-20 1.84953E-18
 -1      3798 9.52478E-05-2.84921E-05-2.86092E-05 4.30940E-08-1.25624E-19 1.72786E-18
 -1      3799 9.52386E-05-2.84674E-05-2.86161E-05 5.11189E-08 4.64061E-19 2.51155E-18
 -1      3800 9.52579E-05-2.85380E-05-2.85944E-05 5.26834E-09 2.68545E-19 1.25699E-18
 -1      3801 9.52565E-05-2.85257E-05-2.85986E-05 1.57071E-08 5.93623E-19 1.76095E-18
 -1      3802 9.52534E-05-2.85096E-05-2.86044E-05 2.24064E-08 2.43764E-19 1.87780E-18
 -1      3803 9.52606E-05-2.85571E-05-2.85874E-05-8.26792E-09-8.48896E-19 1.90474E-18
 -1      3804 9.52604E-05-2.85488E-05-2.85905E-05-1.86423E-09-3.35417E-19 1.67304E-18
 -1      3805 9.52613E-05-2.85389E-05-2.85953E-05 3.60631E-09-1.09244E-19 3.49328E-18
 -1      3806 9.52607E-05-2.85694E-05-2.85820E-05-1.59639E-08-6.70128E-19 1.77129E-18
 -1      3807 9.52612E-05-2.85641E-05-2.85844E-05-1.23989E-08-7.71543E-19 1.53907E-18
 -1      3808 9.52644E-05-2.85586E-05-2.85882E-05-8.01599E-09-8.93114E-19 3.33095E-18
 -1      3809 9.52592E-05-2.85769E-05-2.85781E-05-1.96531E-08 4.85477E-19 8.88026E-19
 -1      3810 9.52601E-05-2.85737E-05-2.85798E-05-1.80240E-08 3.87388E-19 2.24870E-18
 -1      3811 9.52645E-05-2.85712E-05-2.85829E-05-1.45713E-08-2.65463E-19 1.86123E-18
 -1      3812 9.52568E-05-2.85810E-05-2.85753E-05-2.06972E-08 8.82562E-19-1.71254E-19
 -1      3813 9.52580E-05-2.85793E-05-2.85765E-05-2.03362E-08 9.64843E-19 1.65552E-19
 -1      3814 9.52628E-05-2.85788E-05-2.85789E-05-1.76579E-08 1.28808E-18 1.18763E-18
 -1      3815 9.52541E-05-2.85829E-05-2.85734E-05-2.00847E-08 5.31830E-20 1.95764E-19
 -1      3816 9.52552E-05-2.85821E-05-2.85742E-05-2.05095E-08-6.61865E-20-7.97725E-20
 -1      3817 9.52600E-05-2.85828E-05-2.85760E-05-1.84612E-08 2.69626E-19 6.44076E-19
 -1      3818 9.52512E-05-2.85832E-05-2.85720E-05-1.85156E-08-7.25793E-19 1.45358E-19
 -1      3819 9.52524E-05-2.85831E-05-2.85725E-05-1.93866E-08 1.57904E-19-5.20637E-20
 -1      3820 9.52567E-05-2.85844E-05-2.85739E-05-1.78408E-08-1.93713E-19 8.98703E-19
 -1      3821 9.52485E-05-2.85826E-05-2.85711E-05-1.64709E-08-9.02246E-19 1.11647E-18
 -1      3822 9.52496E-05-2.85829E-05-2.85714E-05-1.75502E-08-1.31886E-18 2.02281E-19
 -1      3823 9.52534E-05-2.85846E-05-2.85724E-05-1.64033E-08-9.89291E-19 6.67382E-19
 -1      3824 9.52461E-05-2.85816E-05-2.85705E-05-1.42412E-08-7.19247E-19 1.44468E-18
 -1      3825 9.52470E-05-2.85821E-05-2.85707E-05-1.53857E-08-4.72111E-19 1.46359E-18
 -1      3826 9.52503E-05-2.85838E-05-2.85714E-05-1.45212E-08-1.05138E-18 1.73605E-18
 -1      3827 9.52512E-05-2.85851E-05-2.85712E-05 4.64693E-09 2.68314E-18-1.90039E-18
 -1      3828 9.52518E-05-2.85856E-05-2.85712E-05 2.56042E-09 1.98043E-18-1.68797E-18
 -1      3829 9.52528E-05-2.85859E-05-2.85715E-05 5.23290E-09 2.77460E-18-1.29171E-18
 -1      3830 9.52455E-05-2.85815E-05-2.85703E-05-1.19240E-08 4.50777E-20 1.77411E-18
 -1      3831 9.52456E-05-2.85815E-05-2.85703E-05-1.31155E-08-7.67230E-19 1.70438E-18
 -1      3832 9.52484E-05-2.85831E-05-2.85708E-05-1.24399E-08-9.47116E-19 1.47409E-18
 -1      3833 9.52472E-05-2.85826E-05-2.85705E-05-1.02290E-08 1.48410E-18 1.48151E-18
 -1      3834 9.52477E-05-2.85834E-05-2.85704E-05-4.87882E-09 2.95878E-20-3.36347E-18
 -1      3835 9.52470E-05-2.85829E-05-2.85703E-05-6.30558E-09 8.28245E-19-2.38389E-18
 -1      3836 9.52476E-05-2.85831E-05-2.85705E-05-7.68346E-09 1.65436E-18-1.40058E-18
 -1      3837 4.87656E-05-3.88810E-06-1.87679E-05 1.84729E-05 2.54272E-18-6.99475E-18
 -1      3838 9.30480E-05-3.37000E-05-2.53367E-05 1.93205E-05-2.15281E-18-8.08000E-19
 -1      3839 8.56952E-05-3.12430E-05-2.32690E-05 2.28671E-05-2.28582E-18-1.78658E-19
 -1      3840 7.97785E-05-2.66875E-05-2.27775E-05 2.06458E-05-2.24239E-18 4.49794E-19
 -1      3841 9.02909E-05-3.03794E-05-2.56477E-05 1.76539E-05-1.89408E-18-5.05032E-19
 -1      3842 6.08355E-05-1.38447E-05-1.99901E-05-3.47925E-06 2.09005E-19 1.17697E-18
 -1      3843 6.44623E-05-1.65448E-05-2.05863E-05-1.13416E-05 9.81003E-19 1.00500E-18
 -1      3844 6.04304E-05-1.57726E-05-1.88585E-05 1.34919E-05-8.00751E-19 1.87700E-18
 -1      3845 5.91595E-05-1.39146E-05-1.93618E-05 5.12266E-06-1.90979E-19 1.63949E-18
 -1      3846 6.79460E-05-1.93037E-05-2.06363E-05 1.56378E-05-1.29684E-18 1.14454E-18
 -1      3847 8.16266E-05-2.76730E-05-2.30597E-05-2.06897E-05 1.88973E-18 7.97773E-19
 -1      3848 8.59419E-05-2.28058E-05-2.70442E-05 9.94079E-06-7.69600E-19 2.27218E-20
 -1      3849 8.81425E-05-2.44223E-05-2.73356E-05 1.10534E-05-6.88424E-19 1.81612E-19
 -1      3850 8.85201E-05-2.53344E-05-2.70304E-05 1.22240E-05-7.68425E-19-4.09214E-19
 -1      3851 6.97857E-05-1.79308E-05-2.21714E-05-1.06959E-05 7.31605E-19 7.27992E-19
 -1      3852 6.94504E-05-1.91585E-05-2.13026E-05-1.54324E-05 1.47487E-18 1.23910E-18
 -1      3853 9.52538E-05-2.85864E-05-2.85717E-05 3.16531E-10 2.38096E-18-1.34344E-18
 -1      3854 9.52519E-05-2.85856E-05-2.85713E-05 7.22458E-11 1.87306E-18-1.55829E-18
 -1      3855 9.52518E-05-2.85856E-05-2.85713E-05-2.13108E-09 1.96882E-18-1.46562E-18
 -1      3856 9.52485E-05-2.85835E-05-2.85707E-05-8.60570E-09 2.05703E-18-1.55252E-18
 -1      3857 9.52492E-05-2.85838E-05-2.85709E-05-9.68558E-09 1.01340E-18-1.01007E-18
 -1      3858 9.52497E-05-2.85842E-05-2.85709E-05-7.09086E-09 1.47565E-18-4.72607E-18
 -1      3859 6.25557E-05-1.41048E-05-2.06244E-05 5.94712E-07 2.05422E-19 1.32488E-18
 -1      3860 6.69084E-05-1.53866E-05-2.21047E-05-2.01385E-06 3.74164E-19 8.67832E-19
 -1      3861 6.55270E-05-1.51880E-05-2.15590E-05 5.69617E-06-3.88163E-20 9.95714E-19
 -1      3862 7.65775E-05-2.47500E-05-2.22086E-05-1.95003E-05 1.98141E-18 9.07609E-19
 -1      3863 9.52494E-05-2.85843E-05-2.85707E-05-4.17132E-09 1.06424E-18-3.19274E-18
 -1      3864 8.81159E-05-2.62645E-05-2.65241E-05 1.39343E-05-8.22651E-19-6.12135E-19
 -1      3865 8.92768E-05-2.80726E-05-2.61547E-05 1.54117E-05-1.25727E-18-6.47428E-19
 -1      3866 8.47780E-05-2.38697E-05-2.61081E-05 1.28374E-05-1.02966E-18-3.37443E-19
 -1      3867 8.50855E-05-2.68522E-05-2.49801E-05 1.70929E-05-1.37257E-18-1.59510E-19
 -1      3868 7.02002E-05-1.65198E-05-2.28134E-05-6.76959E-06 4.58159E-19 7.32713E-19
 -1      3869 7.35327E-05-1.91430E-05-2.34015E-05-1.07284E-05 6.69781E-19 6.98696E-19
 -1      3870 7.96789E-05-2.27655E-05-2.44568E-05 1.45179E-05-8.22280E-19 2.54017E-19
 -1      3871 8.06394E-05-2.47389E-05-2.38241E-05 1.71426E-05-1.61308E-18 4.25737E-19
 -1      3872 7.42125E-05-2.22166E-05-2.21875E-05 1.78984E-05-1.59861E-18 6.88108E-19
 -1      3873 9.52502E-05-2.85842E-05-2.85712E-05-1.06973E-08-6.09554E-19 6.46131E-19
 -1      3874 9.52508E-05-2.85844E-05-2.85713E-05-1.18952E-08-7.36442E-19 8.27543E-19
 -1      3875 9.52517E-05-2.85851E-05-2.85714E-05-9.07057E-09 1.19692E-19-9.80481E-19
 -1      3876 8.07969E-05-2.15251E-05-2.54302E-05-9.85801E-06-2.73610E-19 8.32932E-19
 -1      3877 8.16147E-05-2.11581E-05-2.59642E-05-8.20835E-06-3.65018E-19 6.13999E-19
 -1      3878 8.31742E-05-2.13282E-05-2.64974E-05-7.08843E-06-2.68479E-19 6.17771E-19
 -1      3879 8.39594E-05-2.13299E-05-2.68817E-05-6.02484E-06 3.94685E-20 6.03040E-19
 -1      3880 8.06899E-05-2.00040E-05-2.59769E-05-6.18647E-06-5.00634E-19 1.58291E-18
 -1      3881 8.52227E-05-2.16049E-05-2.72573E-05-5.22384E-06 1.93916E-20 2.96172E-19
 -1      3882 8.59725E-05-2.17938E-05-2.75331E-05-4.48669E-06 5.85706E-20 2.56482E-19
 -1      3883 8.34172E-05-2.05702E-05-2.69005E-05-4.42273E-06-2.66356E-19 9.68582E-19
 -1      3884 8.70018E-05-2.21370E-05-2.77965E-05-3.93191E-06 7.54645E-20-5.82827E-19
 -1      3885 8.76891E-05-2.24247E-05-2.79906E-05-3.39468E-06-2.75623E-19-7.94144E-19
 -1      3886 8.56844E-05-2.13394E-05-2.75500E-05-3.23241E-06-2.58618E-19-3.72370E-19
 -1      3887 8.85464E-05-2.28096E-05-2.81723E-05-2.99364E-06-2.79881E-19-6.32060E-19
 -1      3888 8.91582E-05-2.31497E-05-2.83044E-05-2.59002E-06-2.39949E-19-5.80749E-19
 -1      3889 8.75485E-05-2.21620E-05-2.80023E-05-2.38967E-06-2.65209E-19-6.99899E-19
 -1      3890 8.98739E-05-2.35480E-05-2.84259E-05-2.29471E-06-1.05531E-18-3.69217E-19
 -1      3891 9.04060E-05-2.39054E-05-2.85118E-05-1.98395E-06-8.42614E-19-5.44506E-19
 -1      3892 8.91052E-05-2.30102E-05-2.83102E-05-1.78298E-06-5.03358E-19-9.07005E-19
 -1      3893 9.10007E-05-2.42943E-05-2.85895E-05-1.76273E-06-4.16070E-19-1.07183E-18
 -1      3894 9.14536E-05-2.46440E-05-2.86417E-05-1.51930E-06-5.60197E-19-1.59086E-18
 -1      3895 9.04026E-05-2.38428E-05-2.85126E-05-1.33761E-06-1.03942E-18-1.71326E-18
 -1      3896 9.19433E-05-2.50073E-05-2.86880E-05-1.35154E-06-3.13918E-19-1.32782E-18
 -1      3897 9.23208E-05-2.53327E-05-2.87163E-05-1.15892E-06-1.48483E-19-9.80885E-19
 -1      3898 9.14764E-05-2.46280E-05-2.86388E-05-1.00514E-06-4.32031E-19-2.19568E-18
 -1      3899 9.27191E-05-2.56602E-05-2.87407E-05-1.03081E-06 1.29071E-19-1.87724E-19
 -1      3900 9.30278E-05-2.59517E-05-2.87525E-05-8.77857E-07 8.62773E-19 2.04972E-19
 -1      3901 9.23556E-05-2.53435E-05-2.87111E-05-7.53964E-07 4.79455E-19-6.31502E-19
 -1      3902 9.33472E-05-2.62380E-05-2.87621E-05-7.79769E-07 8.08243E-19-1.01928E-19
 -1      3903 9.35948E-05-2.64913E-05-2.87631E-05-6.58515E-07 6.72192E-19-5.23810E-20
 -1      3904 9.30660E-05-2.59763E-05-2.87460E-05-5.62805E-07 7.96842E-19-7.86758E-19
 -1      3905 9.38470E-05-2.67352E-05-2.87630E-05-5.83517E-07 9.90399E-20-1.80960E-20
 -1      3906 9.40419E-05-2.69495E-05-2.87574E-05-4.87928E-07-4.48011E-19 1.30747E-19
 -1      3907 9.36317E-05-2.65216E-05-2.87562E-05-4.16873E-07 4.09082E-19-4.96982E-19
 -1      3908 9.42378E-05-2.71526E-05-2.87514E-05-4.30850E-07-5.89391E-19 2.17515E-19
 -1      3909 9.43883E-05-2.73297E-05-2.87421E-05-3.56130E-07-1.03447E-18 8.79775E-20
 -1      3910 9.40750E-05-2.69807E-05-2.87506E-05-3.05531E-07-6.65411E-19-7.88963E-19
 -1      3911 9.45380E-05-2.74954E-05-2.87330E-05-3.13010E-07-1.61557E-18 3.18418E-19
 -1      3912 9.46520E-05-2.76388E-05-2.87220E-05-2.55228E-07-4.13276E-19 3.55320E-19
 -1      3913 9.44166E-05-2.73590E-05-2.87358E-05-2.20899E-07-1.22259E-18-6.88501E-19
 -1      3914 9.47641E-05-2.77713E-05-2.87115E-05-2.22974E-07-9.63072E-20-4.44047E-19
 -1      3915 9.48487E-05-2.78851E-05-2.87002E-05-1.78851E-07-8.96665E-20-1.24786E-18
 -1      3916 9.46753E-05-2.76648E-05-2.87164E-05-1.56988E-07-1.31417E-18-1.55506E-18
 -1      3917 9.49311E-05-2.79891E-05-2.86896E-05-1.55022E-07-5.12805E-19-1.20558E-18
 -1      3918 9.49924E-05-2.80778E-05-2.86789E-05-1.21811E-07-6.41191E-19-1.41878E-18
 -1      3919 9.48674E-05-2.79073E-05-2.86954E-05-1.09161E-07-2.33716E-19-1.40544E-18
 -1      3920 9.50515E-05-2.81579E-05-2.86688E-05-1.04470E-07-5.56480E-19-1.91520E-18
 -1      3921 9.50949E-05-2.82257E-05-2.86591E-05-7.98781E-08-1.12369E-19-2.13967E-18
 -1      3922 9.50070E-05-2.80962E-05-2.86748E-05-7.37826E-08-8.92421E-19-8.24539E-19
 -1      3923 9.51362E-05-2.82863E-05-2.86500E-05-6.74896E-08 2.92782E-19-1.74247E-18
 -1      3924 9.51659E-05-2.83371E-05-2.86415E-05-4.96186E-08 1.89179E-19-1.35465E-18
 -1      3925 9.51060E-05-2.82405E-05-2.86558E-05-4.79848E-08 1.61667E-19-1.17435E-18
 -1      3926 9.51938E-05-2.83820E-05-2.86336E-05-4.09663E-08 4.21606E-19-4.28492E-19
 -1      3927 9.52133E-05-2.84193E-05-2.86264E-05-2.82633E-08 9.37796E-19 6.46643E-19
 -1      3928 9.51742E-05-2.83488E-05-2.86388E-05-2.94994E-08 7.81031E-19 1.45156E-19
 -1      3929 9.52313E-05-2.84519E-05-2.86197E-05-2.23923E-08 3.17753E-19 8.43471E-19
 -1      3930 9.52434E-05-2.84786E-05-2.86137E-05-1.36021E-08 4.23002E-20 2.17478E-19
 -1      3931 9.52193E-05-2.84283E-05-2.86243E-05-1.65371E-08 5.81026E-19 3.32342E-19
 -1      3932 9.52542E-05-2.85016E-05-2.86083E-05-9.76903E-09 4.43378E-19-3.24161E-19
 -1      3933 9.52611E-05-2.85203E-05-2.86034E-05-3.89106E-09 1.59920E-18-5.30696E-19
 -1      3934 9.52476E-05-2.84854E-05-2.86121E-05-7.69403E-09-2.45179E-19-2.78835E-19
 -1      3935 9.52669E-05-2.85360E-05-2.85989E-05-1.52320E-09 1.26431E-18-1.02860E-18
 -1      3936 9.52702E-05-2.85486E-05-2.85951E-05 2.22837E-09 8.60098E-20-8.18877E-19
 -1      3937 9.52640E-05-2.85253E-05-2.86022E-05-1.87678E-09 1.07549E-18-6.54522E-19
 -1      3938 9.52726E-05-2.85590E-05-2.85915E-05 3.56667E-09-2.16409E-20-1.15408E-18
 -1      3939 9.52735E-05-2.85671E-05-2.85885E-05 5.79967E-09 4.35591E-19-8.52144E-19
 -1      3940 9.52721E-05-2.85522E-05-2.85942E-05 1.75761E-09 7.65498E-20-1.91837E-18
 -1      3941 9.52737E-05-2.85735E-05-2.85857E-05 6.43509E-09 6.89775E-19-6.09976E-19
 -1      3942 9.52730E-05-2.85784E-05-2.85834E-05 7.61200E-09 1.91672E-18-1.10315E-18
 -1      3943 9.52746E-05-2.85696E-05-2.85878E-05 3.85143E-09 8.22688E-19-1.50084E-18
 -1      3944 9.52719E-05-2.85821E-05-2.85813E-05 7.78544E-09 2.72157E-18-9.71479E-19
 -1      3945 9.52703E-05-2.85847E-05-2.85795E-05 8.25182E-09 2.37769E-18-5.58247E-19
 -1      3946 9.52736E-05-2.85801E-05-2.85829E-05 4.88733E-09 2.20452E-18-2.52938E-18
 -1      3947 9.52684E-05-2.85865E-05-2.85779E-05 8.13745E-09 1.25034E-18-2.29040E-19
 -1      3948 9.52664E-05-2.85876E-05-2.85766E-05 8.14640E-09 1.00241E-18-2.06142E-19
 -1      3949 9.52706E-05-2.85858E-05-2.85792E-05 5.22213E-09 2.15790E-18-8.46738E-19
 -1      3950 9.52642E-05-2.85881E-05-2.85754E-05 7.86631E-09 5.54863E-19-1.89123E-19
 -1      3951 9.52621E-05-2.85882E-05-2.85745E-05 7.59782E-09 2.76648E-19-6.10621E-19
 -1      3952 9.52664E-05-2.85883E-05-2.85764E-05 5.11421E-09 5.01064E-19-8.41800E-19
 -1      3953 9.52598E-05-2.85880E-05-2.85736E-05 7.24359E-09 2.74954E-19-4.22121E-19
 -1      3954 9.52577E-05-2.85875E-05-2.85729E-05 6.81270E-09 4.50322E-19-1.34893E-19
 -1      3955 9.52619E-05-2.85886E-05-2.85743E-05 4.74728E-09 8.05229E-19-1.02221E-18
 -1      3956 9.52561E-05-2.85871E-05-2.85724E-05 6.29440E-09 9.76482E-19-6.45539E-19
 -1      3957 9.52543E-05-2.85864E-05-2.85719E-05 5.68414E-09 2.15508E-18-1.04516E-18
 -1      3958 9.52551E-05-2.85870E-05-2.85721E-05 3.29028E-09 1.88077E-18-1.30572E-18
 -1      3959 9.52581E-05-2.85880E-05-2.85730E-05 4.10745E-09 8.64543E-19-2.45650E-20
 -1      3960 8.78008E-05-2.23331E-05-2.80800E-05 5.11824E-06-2.33377E-19 2.30583E-19
 -1      3961 8.71231E-05-2.20553E-05-2.78823E-05 5.72525E-06-2.35469E-19-9.23868E-21
 -1      3962 8.60161E-05-2.17133E-05-2.75893E-05 6.35461E-06-6.46126E-19-6.97240E-19
 -1      3963 8.52887E-05-2.15731E-05-2.72969E-05 7.15049E-06-6.43955E-19-8.52644E-19
 -1      3964 8.53261E-05-2.10779E-05-2.75038E-05 5.02097E-06-8.70575E-19-6.48413E-19
 -1      3965 9.16422E-05-2.46336E-05-2.87283E-05 2.72318E-06-4.17799E-19 1.12349E-18
 -1      3966 9.12141E-05-2.42800E-05-2.86868E-05 3.06463E-06-3.10284E-19 1.16750E-18
 -1      3967 9.24945E-05-2.53377E-05-2.87898E-05 2.17262E-06-1.06168E-20 1.11222E-18
 -1      3968 9.21464E-05-2.50123E-05-2.87723E-05 2.46172E-06 6.69801E-20 1.03187E-18
 -1      3969 9.14641E-05-2.45034E-05-2.86861E-05 2.17329E-06-3.67219E-19 7.28418E-19
 -1      3970 9.31773E-05-2.59637E-05-2.88126E-05 1.71011E-06 3.74137E-19 1.11592E-18
 -1      3971 9.28995E-05-2.56753E-05-2.88105E-05 1.95315E-06 5.49943E-20 1.44826E-18
 -1      3972 9.23631E-05-2.52456E-05-2.87557E-05 1.73828E-06 9.62771E-20 1.21755E-18
 -1      3973 9.37163E-05-2.65042E-05-2.88106E-05 1.32557E-06 3.98021E-19 3.17577E-19
 -1      3974 9.34984E-05-2.62561E-05-2.88180E-05 1.52736E-06 8.48423E-19 6.27925E-19
 -1      3975 9.30809E-05-2.58984E-05-2.87855E-05 1.37089E-06 8.22918E-19 4.29272E-19
 -1      3976 9.41357E-05-2.69598E-05-2.87940E-05 1.01031E-06-1.30500E-20 5.14973E-19
 -1      3977 9.39676E-05-2.67514E-05-2.88066E-05 1.17534E-06 6.58144E-20 3.33271E-19
 -1      3978 9.36469E-05-2.64585E-05-2.87897E-05 1.06404E-06 1.21600E-19 2.51344E-19
 -1      3979 9.44572E-05-2.73360E-05-2.87697E-05 7.55934E-07 4.81683E-19 8.96784E-19
 -1      3980 9.43295E-05-2.71645E-05-2.87846E-05 8.88722E-07 3.78931E-19 6.26867E-19
 -1      3981 9.40869E-05-2.69285E-05-2.87781E-05 8.11593E-07 1.94186E-19 5.94208E-19
 -1      3982 9.46998E-05-2.76407E-05-2.87423E-05 5.54122E-07 2.28103E-19 8.57268E-19
 -1      3983 9.46044E-05-2.75023E-05-2.87576E-05 6.59167E-07 3.56061E-19 6.30512E-19
 -1      3984 9.44240E-05-2.73152E-05-2.87578E-05 6.07369E-07 6.22549E-19 1.28833E-18
 -1      3985 9.48796E-05-2.78832E-05-2.87148E-05 3.96784E-07-8.20565E-19 1.67235E-18
 -1      3986 9.48097E-05-2.77734E-05-2.87294E-05 4.78448E-07-1.58236E-19 1.13904E-18
 -1      3987 9.46781E-05-2.76276E-05-2.87337E-05 4.45055E-07-2.84146E-19 1.75520E-18
 -1      3988 9.50105E-05-2.80730E-05-2.86891E-05 2.76325E-07-1.36079E-18 2.70769E-18
 -1      3989 9.49603E-05-2.79873E-05-2.87022E-05 3.38678E-07-1.30723E-18 2.07127E-18
 -1      3990 9.48665E-05-2.78757E-05-2.87087E-05 3.18376E-07-1.37893E-18 2.16482E-18
 -1      3991 9.51036E-05-2.82190E-05-2.86660E-05 1.85845E-07-1.14975E-18 3.10349E-18
 -1      3992 9.50684E-05-2.81533E-05-2.86775E-05 2.32557E-07-1.20423E-18 3.04394E-18
 -1      3993 9.50034E-05-2.80694E-05-2.86848E-05 2.21344E-07-1.39746E-18 2.56301E-18
 -1      3994 9.51682E-05-2.83294E-05-2.86460E-05 1.19270E-07 5.90393E-20 3.07783E-18
 -1      3995 9.51442E-05-2.82799E-05-2.86558E-05 1.53551E-07-2.64108E-19 2.80911E-18
 -1      3996 9.51007E-05-2.82180E-05-2.86632E-05 1.48468E-07-5.49873E-19 2.29479E-18
 -1      3997 9.52114E-05-2.84113E-05-2.86292E-05 7.14033E-08 1.30076E-18 2.67783E-18
 -1      3998 9.51957E-05-2.83747E-05-2.86373E-05 9.59852E-08 1.10779E-18 2.64885E-18
 -1      3999 9.51679E-05-2.83300E-05-2.86442E-05 9.48793E-08 1.14643E-18 1.65457E-18
 -1      4000 9.52390E-05-2.84708E-05-2.86153E-05 3.79014E-08 2.07289E-19 2.01329E-18
 -1      4001 9.52293E-05-2.84443E-05-2.86219E-05 5.50561E-08 5.86387E-19 2.36559E-18
 -1      4002 9.52128E-05-2.84129E-05-2.86282E-05 5.63944E-08 1.03402E-18 1.77959E-18
 -1      4003 9.52555E-05-2.85131E-05-2.86042E-05 1.52179E-08 1.58236E-20 3.12121E-18
 -1      4004 9.52500E-05-2.84943E-05-2.86094E-05 2.67934E-08 1.30057E-20 2.61043E-18
 -1      4005 9.52413E-05-2.84730E-05-2.86148E-05 2.95076E-08-2.92005E-19 2.62984E-18
 -1      4006 9.52642E-05-2.85422E-05-2.85953E-05 5.14500E-10-8.60865E-19 3.69340E-18
 -1      4007 9.52616E-05-2.85294E-05-2.85994E-05 7.98473E-09-1.33702E-19 3.41665E-18
 -1      4008 9.52582E-05-2.85154E-05-2.86040E-05 1.13513E-08-1.92171E-19 3.83158E-18
 -1      4009 9.52676E-05-2.85616E-05-2.85884E-05-8.43608E-09-2.43115E-19 3.33303E-18
 -1      4010 9.52670E-05-2.85531E-05-2.85915E-05-3.91794E-09-1.40509E-19 3.55782E-18
 -1      4011 9.52670E-05-2.85445E-05-2.85953E-05-3.71420E-10-1.88335E-19 3.59944E-18
 -1      4012 9.52677E-05-2.85738E-05-2.85832E-05-1.33480E-08 7.17386E-19 1.68337E-18
 -1      4013 9.52682E-05-2.85685E-05-2.85855E-05-1.08968E-08-6.24570E-20 2.52476E-18
 -1      4014 9.52703E-05-2.85636E-05-2.85886E-05-7.46271E-09 5.90946E-19 3.12677E-18
 -1      4015 9.52657E-05-2.85809E-05-2.85792E-05-1.55149E-08 1.23159E-18 2.16531E-18
 -1      4016 9.52669E-05-2.85779E-05-2.85809E-05-1.44643E-08 8.50430E-19 1.68725E-18
 -1      4017 9.52701E-05-2.85756E-05-2.85834E-05-1.13093E-08 5.07407E-19 1.43714E-18
 -1      4018 9.52626E-05-2.85846E-05-2.85763E-05-1.58924E-08 5.54619E-19 2.07467E-18
 -1      4019 9.52641E-05-2.85831E-05-2.85775E-05-1.57515E-08 1.38570E-18 2.64443E-18
 -1      4020 9.52677E-05-2.85825E-05-2.85794E-05-1.29565E-08 1.26073E-18 2.17117E-18
 -1      4021 9.52589E-05-2.85859E-05-2.85742E-05-1.51703E-08-1.06636E-19 2.34938E-18
 -1      4022 9.52606E-05-2.85854E-05-2.85751E-05-1.55857E-08-2.56741E-19 1.47053E-18
 -1      4023 9.52643E-05-2.85859E-05-2.85765E-05-1.31757E-08 8.30684E-19 2.51382E-18
 -1      4024 9.52552E-05-2.85857E-05-2.85726E-05-1.38487E-08-1.01354E-18 1.47785E-18
 -1      4025 9.52569E-05-2.85858E-05-2.85733E-05-1.45555E-08-4.68352E-19 1.92564E-18
 -1      4026 9.52603E-05-2.85869E-05-2.85743E-05-1.25220E-08-1.77690E-19 2.85956E-18
 -1      4027 9.52524E-05-2.85849E-05-2.85718E-05-1.27308E-08-8.34293E-19 1.11147E-18
 -1      4028 8.93210E-05-2.30839E-05-2.84042E-05 4.15805E-06-4.93589E-19 8.86659E-19
 -1      4029 8.87187E-05-2.27388E-05-2.82765E-05 4.64473E-06-1.37241E-19 9.03594E-19
 -1      4030 8.73327E-05-2.19251E-05-2.80083E-05 4.04758E-06-3.37584E-19 7.95053E-19
 -1      4031 7.79688E-05-2.30470E-05-2.35217E-05-1.57287E-05 1.11947E-18 9.70905E-19
 -1      4032 9.52513E-05-2.85852E-05-2.85711E-05-3.66296E-09 2.47668E-18-1.68842E-18
 -1      4033 9.52505E-05-2.85848E-05-2.85710E-05-5.70413E-09 1.83546E-18-3.34822E-18
 -1      4034 9.52515E-05-2.85852E-05-2.85713E-05-6.65709E-09 2.46258E-18-3.38563E-18
 -1      4035 9.52531E-05-2.85861E-05-2.85716E-05-3.74827E-09 2.76165E-18-2.26399E-18
 -1      4036 9.05933E-05-2.38704E-05-2.86085E-05 3.37639E-06-2.94073E-19 1.16846E-18
 -1      4037 9.00784E-05-2.35061E-05-2.85315E-05 3.78059E-06-4.59011E-19 1.05899E-18
 -1      4038 8.89893E-05-2.28121E-05-2.83433E-05 3.29768E-06-4.31050E-19 1.26222E-18
 -1      4039 6.90191E-05-1.80847E-05-2.18794E-05 1.21551E-05-5.93519E-19 7.35370E-19
 -1      4040 7.89247E-05-2.20818E-05-2.42749E-05-1.31587E-05 5.59257E-19 7.36891E-19
 -1      4041 8.39726E-05-2.13732E-05-2.68704E-05 8.02666E-06-2.99363E-19-8.31845E-19
 -1      4042 8.32814E-05-2.14882E-05-2.64548E-05 9.10353E-06-6.91098E-19-7.28098E-19
 -1      4043 8.29475E-05-2.03672E-05-2.67622E-05 6.40667E-06-5.61789E-19-1.06590E-18
 -1      4044 7.83890E-05-2.07097E-05-2.47363E-05-1.00943E-05 4.04458E-20 6.38214E-19
 -1      4045 7.65834E-05-1.87830E-05-2.47192E-05-7.28544E-06-1.17486E-19 5.68991E-19
 -1      4046 9.52569E-05-2.85876E-05-2.85725E-05 8.41226E-10 1.33267E-18-1.29852E-18
 -1      4047 9.52554E-05-2.85871E-05-2.85721E-05 5.00770E-10 1.62836E-18-1.76834E-18
 -1      4048 9.52552E-05-2.85871E-05-2.85721E-05-2.00633E-09 2.05894E-18-2.77209E-18
 -1      4049 9.52554E-05-2.85863E-05-2.85725E-05-1.10799E-08-5.83172E-19 1.78117E-18
 -1      4050 7.08739E-05-1.74568E-05-2.28316E-05 8.35209E-06-6.11386E-20 5.90620E-19
 -1      4051 9.03518E-05-2.36843E-05-2.85573E-05 2.68648E-06-4.10733E-19 1.33852E-18
 -1      4052 8.17520E-05-2.15647E-05-2.58675E-05 1.06238E-05-9.27575E-19-4.27765E-19
 -1      4053 8.13959E-05-2.21920E-05-2.52961E-05 1.22378E-05-6.51167E-19-1.21950E-19
 -1      4054 7.69073E-05-2.02498E-05-2.42161E-05 1.21430E-05-4.74113E-19 5.04547E-19
 -1      4055 7.99605E-05-1.98208E-05-2.56972E-05 8.60597E-06-4.14808E-19-8.75693E-19
 -1      4056 7.08319E-05-1.65385E-05-2.32506E-05-3.06341E-06 5.56666E-19 7.97716E-19
 -1      4057 7.16328E-05-1.60769E-05-2.36852E-05 1.10084E-06 5.73957E-19 7.96022E-19
 -1      4058 7.39138E-05-1.73185E-05-2.43164E-05-3.26355E-06 5.10867E-19 7.54106E-19
 -1      4059 9.52528E-05-2.85857E-05-2.85716E-05-7.55639E-09 1.51513E-18-2.41581E-18
 -1      4060 9.52538E-05-2.85860E-05-2.85719E-05-8.63864E-09 1.55021E-19-6.52770E-19
 -1      4061 9.52537E-05-2.85862E-05-2.85718E-05-6.17478E-09 2.23091E-18-2.50009E-18
 -1      4062 8.20271E-05-1.98434E-05-2.66373E-05-3.11542E-06-1.17232E-18 1.42965E-18
 -1      4063 8.32446E-05-2.02731E-05-2.70224E-05-2.55333E-06-7.21605E-19 7.06345E-19
 -1      4064 8.46062E-05-2.07607E-05-2.73688E-05-2.20883E-06-6.42590E-19 3.47288E-19
 -1      4065 8.56439E-05-2.12010E-05-2.76418E-05-1.79685E-06-6.52559E-19 1.59875E-19
 -1      4066 8.35091E-05-2.00857E-05-2.71405E-05-9.98672E-07-1.07549E-18 8.18099E-19
 -1      4067 8.67350E-05-2.16941E-05-2.78809E-05-1.56527E-06-1.20701E-19 5.17984E-20
 -1      4068 8.75985E-05-2.21444E-05-2.80686E-05-1.27328E-06-7.42575E-20 2.80059E-20
 -1      4069 8.59286E-05-2.11582E-05-2.77280E-05-5.94197E-07-3.76391E-19 3.92328E-19
 -1      4070 8.84805E-05-2.26228E-05-2.82301E-05-1.11691E-06-3.81401E-19-2.45645E-19
 -1      4071 8.91998E-05-2.30658E-05-2.83556E-05-9.06537E-07-7.40939E-19-6.99904E-19
 -1      4072 8.78699E-05-2.21826E-05-2.81287E-05-3.33266E-07-4.51389E-19-2.04850E-19
 -1      4073 8.99180E-05-2.35189E-05-2.84613E-05-8.01494E-07-1.19550E-18-4.95881E-19
 -1      4074 9.05148E-05-2.39392E-05-2.85418E-05-6.47040E-07-1.24903E-18-1.03456E-18
 -1      4075 8.94475E-05-2.31499E-05-2.83955E-05-1.68050E-07-8.90624E-19-5.38552E-19
 -1      4076 9.10991E-05-2.43570E-05-2.86077E-05-5.77335E-07-8.59010E-19-1.02328E-18
 -1      4077 9.15900E-05-2.47430E-05-2.86560E-05-4.62158E-07-3.13033E-20-9.10623E-19
 -1      4078 9.07334E-05-2.40454E-05-2.85667E-05-6.75265E-08-8.19026E-19 1.62586E-19
 -1      4079 9.20624E-05-2.51179E-05-2.86938E-05-4.16670E-07 5.64418E-19-1.18174E-18
 -1      4080 9.24614E-05-2.54622E-05-2.87196E-05-3.29771E-07 6.20493E-19-1.39123E-18
 -1      4081 9.17775E-05-2.48554E-05-2.86699E-05-1.00139E-08 1.86257E-19-5.98510E-19
 -1      4082 9.28396E-05-2.57904E-05-2.87381E-05-3.00696E-07 5.95640E-19-7.40228E-19
 -1      4083 9.31594E-05-2.60895E-05-2.87486E-05-2.34621E-07 9.90417E-19-9.82099E-19
 -1      4084 9.26181E-05-2.55709E-05-2.87259E-05 1.97567E-08 9.50539E-19-1.46755E-18
 -1      4085 9.34584E-05-2.63702E-05-2.87543E-05-2.16505E-07 8.81120E-19-1.46070E-18
 -1      4086 9.37109E-05-2.66239E-05-2.87549E-05-1.66063E-07 2.15294E-19-1.12915E-18
 -1      4087 9.32873E-05-2.61886E-05-2.87498E-05 3.23842E-08 8.51137E-19-1.28965E-18
 -1      4088 9.39440E-05-2.68589E-05-2.87525E-05-1.55135E-07-7.10859E-19-8.29849E-19
 -1      4089 9.41401E-05-2.70696E-05-2.87470E-05-1.16604E-07-1.29286E-18-1.61854E-18
 -1      4090 9.38130E-05-2.67106E-05-2.87529E-05 3.50349E-08-3.02988E-19-1.77687E-18
 -1      4091 9.43190E-05-2.72625E-05-2.87399E-05-1.10298E-07-1.09392E-18-9.93308E-19
 -1      4092 9.44687E-05-2.74340E-05-2.87311E-05-8.09382E-08-1.25461E-18-1.17874E-18
 -1      4093 9.42198E-05-2.71430E-05-2.87432E-05 3.23887E-08-8.53754E-19-1.03863E-18
 -1      4094 9.46037E-05-2.75893E-05-2.87215E-05-7.75339E-08-1.95653E-18-7.11513E-19
 -1      4095 9.47159E-05-2.77264E-05-2.87112E-05-5.52796E-08-1.30091E-18-8.49454E-19
 -1      4096 9.45297E-05-2.74944E-05-2.87263E-05 2.73709E-08-1.48789E-18-2.24315E-19
 -1      4097 9.48160E-05-2.78492E-05-2.87009E-05-5.36455E-08-5.10837E-19-4.67709E-19
 -1      4098 9.48984E-05-2.79567E-05-2.86903E-05-3.69085E-08-2.02465E-19-4.27141E-19
 -1      4099 9.47616E-05-2.77750E-05-2.87063E-05 2.17088E-08-6.00989E-19 5.46165E-19
 -1      4100 9.49710E-05-2.80521E-05-2.86801E-05-3.63148E-08-7.15755E-19-1.08501E-18
 -1      4101 9.50301E-05-2.81350E-05-2.86701E-05-2.38564E-08-7.86144E-19-8.77615E-19
 -1      4102 9.49318E-05-2.79949E-05-2.86856E-05 1.63405E-08-6.34970E-19-1.47843E-18
 -1      4103 9.50815E-05-2.82077E-05-2.86606E-05-2.38423E-08-2.67655E-19-1.66841E-19
 -1      4104 9.51228E-05-2.82704E-05-2.86516E-05-1.46879E-08 2.93371E-19-2.13600E-19
 -1      4105 9.50539E-05-2.81644E-05-2.86657E-05 1.17072E-08-2.22414E-19-1.29925E-18
 -1      4106 9.51582E-05-2.83249E-05-2.86431E-05-1.49697E-08 1.23329E-18-2.10517E-19
 -1      4107 9.51860E-05-2.83713E-05-2.86352E-05-8.34901E-09 1.11274E-18 2.74165E-19
 -1      4108 9.51393E-05-2.82926E-05-2.86477E-05 7.95261E-09 7.54355E-19-8.27497E-19
 -1      4109 9.52094E-05-2.84113E-05-2.86280E-05-8.75745E-09 1.96594E-19 9.90898E-19
 -1      4110 9.52274E-05-2.84450E-05-2.86213E-05-4.06196E-09 4.18300E-20 3.82184E-19
 -1      4111 9.51970E-05-2.83878E-05-2.86320E-05 5.05606E-09 1.06625E-18-4.04796E-19
 -1      4112 9.52421E-05-2.84736E-05-2.86152E-05-4.50031E-09-4.87863E-19 4.10643E-19
 -1      4113 9.52529E-05-2.84974E-05-2.86097E-05-1.25080E-09-3.53990E-19 1.74092E-19
 -1      4114 9.52343E-05-2.84568E-05-2.86186E-05 2.91605E-09-2.18441E-20 8.40328E-19
 -1      4115 9.52614E-05-2.85174E-05-2.86047E-05-1.66722E-09-5.77022E-19-6.60115E-19
 -1      4116 9.52673E-05-2.85337E-05-2.86002E-05 5.11203E-10 1.35765E-19-1.58668E-18
 -1      4117 9.52570E-05-2.85057E-05-2.86075E-05 1.40097E-09-1.03341E-18-6.26672E-20
 -1      4118 9.52715E-05-2.85472E-05-2.85962E-05 1.41429E-10 5.60436E-19-1.48533E-18
 -1      4119 9.52739E-05-2.85580E-05-2.85926E-05 1.53951E-09 1.54328E-19-1.37906E-18
 -1      4120 9.52693E-05-2.85394E-05-2.85984E-05 3.77707E-10-1.78661E-20-1.70921E-18
 -1      4121 9.52752E-05-2.85666E-05-2.85894E-05 1.22530E-09-6.81188E-20-1.55909E-18
 -1      4122 9.52754E-05-2.85733E-05-2.85866E-05 2.06602E-09 6.76663E-19-1.62115E-18
 -1      4123 9.52746E-05-2.85616E-05-2.85912E-05-2.73845E-10 3.95964E-20-1.74475E-18
 -1      4124 9.52749E-05-2.85785E-05-2.85842E-05 1.80752E-09 1.82164E-18-1.57210E-18
 -1      4125 9.52738E-05-2.85824E-05-2.85820E-05 2.25967E-09 3.12112E-18-1.09951E-18
 -1      4126 9.52753E-05-2.85756E-05-2.85856E-05-6.54811E-10 1.31584E-18-3.10121E-19
 -1      4127 9.52722E-05-2.85852E-05-2.85801E-05 2.05257E-09 2.81727E-18-1.95536E-18
 -1      4128 9.52703E-05-2.85871E-05-2.85785E-05 2.24191E-09 1.87409E-18-1.64734E-18
 -1      4129 9.52731E-05-2.85837E-05-2.85812E-05-8.46208E-10 2.82808E-18-9.64608E-19
 -1      4130 9.52682E-05-2.85883E-05-2.85771E-05 2.08044E-09 1.03011E-18-2.06780E-18
 -1      4131 9.52660E-05-2.85888E-05-2.85759E-05 2.09862E-09 3.60319E-19-2.10026E-18
 -1      4132 9.52694E-05-2.85877E-05-2.85779E-05-9.10269E-10 1.09267E-18-3.13673E-18
 -1      4133 9.52636E-05-2.85890E-05-2.85748E-05 1.97509E-09 3.64820E-19-1.87105E-18
 -1      4134 9.52613E-05-2.85887E-05-2.85739E-05 1.88297E-09 8.23189E-19-1.53740E-18
 -1      4135 9.52649E-05-2.85890E-05-2.85754E-05-8.91836E-10 7.91837E-19-3.34174E-18
 -1      4136 9.52598E-05-2.85884E-05-2.85734E-05 1.48811E-09 1.03643E-18-8.27451E-19
 -1      4137 9.52583E-05-2.85880E-05-2.85729E-05 1.12916E-09 1.30068E-18-8.51889E-19
 -1      4138 9.52582E-05-2.85881E-05-2.85730E-05-1.63178E-09 1.48610E-18-2.10221E-18
 -1      4139 9.52611E-05-2.85888E-05-2.85739E-05-1.17308E-09 1.22168E-18-2.72673E-18
 -1      4140 8.49335E-05-2.08043E-05-2.75117E-05 3.40626E-06-1.19928E-18-2.30434E-19
 -1      4141 8.38003E-05-2.03589E-05-2.72005E-05 3.87478E-06-9.86598E-19-4.53685E-19
 -1      4142 8.88259E-05-2.27547E-05-2.83303E-05 2.31565E-06-6.48785E-19 9.13915E-19
 -1      4143 8.80637E-05-2.22959E-05-2.81930E-05 2.59632E-06-5.03483E-19 8.57697E-19
 -1      4144 9.23074E-05-2.52690E-05-2.87376E-05 1.24746E-06 4.40675E-19 1.78288E-18
 -1      4145 9.19013E-05-2.49128E-05-2.87125E-05 1.42304E-06 9.88179E-20 1.47601E-18
 -1      4146 9.13854E-05-2.45144E-05-2.86675E-05 1.55293E-06-5.37651E-19 6.26667E-19
 -1      4147 9.08794E-05-2.41145E-05-2.86177E-05 1.75702E-06-4.24539E-19 4.90316E-19
 -1      4148 9.14198E-05-2.45321E-05-2.86540E-05 1.03004E-06-7.23706E-19 1.04025E-18
 -1      4149 9.36206E-05-2.64890E-05-2.87751E-05 7.65600E-07 1.55718E-19 1.05746E-18
 -1      4150 9.33686E-05-2.62264E-05-2.87768E-05 8.90918E-07 4.35093E-19 9.34027E-19
 -1      4151 9.40699E-05-2.69581E-05-2.87657E-05 5.83360E-07 3.16464E-19 7.93072E-19
 -1      4152 9.38756E-05-2.67397E-05-2.87735E-05 6.86560E-07-2.32720E-19 5.80667E-19
 -1      4153 9.36427E-05-2.65136E-05-2.87638E-05 5.21442E-07 2.15038E-19 7.42214E-19
 -1      4154 9.44139E-05-2.73426E-05-2.87476E-05 4.35529E-07 4.19816E-19 1.17015E-18
 -1      4155 9.42663E-05-2.71644E-05-2.87586E-05 5.18953E-07 6.90886E-19 1.33405E-18
 -1      4156 9.40888E-05-2.69810E-05-2.87560E-05 3.99095E-07 2.07657E-20 4.12197E-19
 -1      4157 9.46731E-05-2.76521E-05-2.87254E-05 3.17937E-07-7.23381E-19 1.04480E-18
 -1      4158 9.45627E-05-2.75092E-05-2.87376E-05 3.84122E-07 1.44725E-19 1.48716E-18
 -1      4159 9.44299E-05-2.73631E-05-2.87395E-05 2.98846E-07 4.82069E-20 1.48719E-18
 -1      4160 9.48649E-05-2.78970E-05-2.87022E-05 2.26221E-07-1.77425E-18 1.47137E-18
 -1      4161 9.47840E-05-2.77844E-05-2.87143E-05 2.77747E-07-1.24112E-18 1.66996E-18
 -1      4162 9.46865E-05-2.76700E-05-2.87188E-05 2.18535E-07-1.18572E-18 8.32245E-19
 -1      4163 9.50041E-05-2.80875E-05-2.86798E-05 1.56104E-07-1.25219E-18 1.90886E-18
 -1      4164 9.49459E-05-2.80003E-05-2.86911E-05 1.95451E-07-1.60617E-18 1.57906E-18
 -1      4165 9.48760E-05-2.79123E-05-2.86969E-05 1.55588E-07-1.35267E-18 4.48930E-19
 -1      4166 9.51028E-05-2.82331E-05-2.86593E-05 1.03602E-07 4.18122E-19 9.74585E-19
 -1      4167 9.50620E-05-2.81667E-05-2.86694E-05 1.33051E-07-1.04487E-19 1.95753E-18
 -1      4168 9.50132E-05-2.81004E-05-2.86756E-05 1.07308E-07-4.17064E-19 9.97413E-19
 -1      4169 9.51708E-05-2.83424E-05-2.86413E-05 6.51607E-08 9.20063E-19 1.43456E-18
 -1      4170 9.51431E-05-2.82928E-05-2.86501E-05 8.67272E-08 5.68032E-19 1.01669E-18
 -1      4171 9.51102E-05-2.82437E-05-2.86561E-05 7.10866E-08 7.52504E-19 1.55666E-19
 -1      4172 9.52159E-05-2.84229E-05-2.86260E-05 3.77091E-08 1.03019E-18 2.03274E-18
 -1      4173 9.51979E-05-2.83866E-05-2.86334E-05 5.31237E-08 1.54369E-18 2.30544E-18
 -1      4174 9.51767E-05-2.83510E-05-2.86389E-05 4.45417E-08 6.73900E-19 9.25750E-19
 -1      4175 9.52445E-05-2.84809E-05-2.86133E-05 1.86739E-08-3.23649E-19 1.15600E-18
 -1      4176 9.52334E-05-2.84548E-05-2.86193E-05 2.93807E-08 1.07338E-19 9.69299E-19
 -1      4177 9.52206E-05-2.84298E-05-2.86242E-05 2.55870E-08 1.30113E-18 9.76867E-19
 -1      4178 9.52611E-05-2.85215E-05-2.86029E-05 5.95030E-09-4.74570E-19 2.25510E-18
 -1      4179 9.52549E-05-2.85034E-05-2.86078E-05 1.31270E-08-4.15970E-19 1.27483E-18
 -1      4180 9.52481E-05-2.84862E-05-2.86120E-05 1.24568E-08-6.11327E-19 6.52426E-20
 -1      4181 9.52696E-05-2.85492E-05-2.85946E-05-2.14414E-09-4.81146E-19 2.70103E-18
 -1      4182 9.52667E-05-2.85369E-05-2.85984E-05 2.44196E-09-8.83446E-19 3.03028E-18
 -1      4183 9.52639E-05-2.85257E-05-2.86019E-05 3.69879E-09-1.08324E-18 1.10578E-18
 -1      4184 9.52725E-05-2.85672E-05-2.85881E-05-6.92627E-09 1.22109E-18 2.45601E-18
 -1      4185 9.52719E-05-2.85593E-05-2.85911E-05-4.19612E-09 8.95360E-19 3.11138E-18
 -1      4186 9.52716E-05-2.85523E-05-2.85939E-05-1.85250E-09 1.42172E-19 1.70293E-18
 -1      4187 9.52719E-05-2.85782E-05-2.85831E-05-9.40561E-09 8.43730E-19 1.57857E-18
 -1      4188 9.52727E-05-2.85735E-05-2.85853E-05-7.96845E-09 1.19729E-18 2.03952E-18
 -1      4189 9.52740E-05-2.85695E-05-2.85876E-05-5.11099E-09 1.63935E-18 2.84510E-18
 -1      4190 9.52692E-05-2.85844E-05-2.85792E-05-1.03399E-08 1.71833E-18 1.03803E-18
 -1      4191 9.52708E-05-2.85818E-05-2.85810E-05-9.77320E-09 1.19614E-18 7.45827E-19
 -1      4192 9.52730E-05-2.85799E-05-2.85828E-05-6.77800E-09 1.45177E-18 1.83969E-18
 -1      4193 9.52654E-05-2.85872E-05-2.85764E-05-1.02855E-08 3.70551E-19 1.13468E-18
 -1      4194 9.52674E-05-2.85861E-05-2.85777E-05-1.02788E-08 1.32827E-18 1.05276E-18
 -1      4195 9.52699E-05-2.85855E-05-2.85791E-05-7.38010E-09 1.24932E-18 1.43473E-19
 -1      4196 9.52612E-05-2.85878E-05-2.85743E-05-9.65188E-09-2.12266E-19 1.87858E-18
 -1      4197 9.52632E-05-2.85877E-05-2.85752E-05-9.97076E-09 2.33622E-19 1.78613E-18
 -1      4198 9.52658E-05-2.85880E-05-2.85763E-05-7.30342E-09 4.05002E-19 7.79932E-19
 -1      4199 7.27281E-05-1.74328E-05-2.37935E-05 6.50707E-06 2.36865E-19-1.76117E-19
 -1      4200 9.02396E-05-2.36710E-05-2.85402E-05 1.90622E-06-3.19664E-19 8.02235E-19
 -1      4201 8.96160E-05-2.32353E-05-2.84543E-05 2.14341E-06-3.79245E-19 7.76592E-19
 -1      4202 9.02786E-05-2.36758E-05-2.85285E-05 1.24513E-06-2.60757E-19 4.30384E-19
 -1      4203 9.30422E-05-2.59274E-05-2.87689E-05 9.85941E-07 1.25131E-18 1.19839E-18
 -1      4204 9.27201E-05-2.56181E-05-2.87602E-05 1.13544E-06 1.53537E-18 1.64459E-18
 -1      4205 9.23374E-05-2.52925E-05-2.87240E-05 8.37060E-07 9.78652E-19 1.46469E-18
 -1      4206 9.30679E-05-2.59527E-05-2.87562E-05 6.67302E-07 1.19286E-18 1.41927E-18
 -1      4207 7.88102E-05-1.91617E-05-2.55324E-05-5.27485E-06-1.53573E-19 1.31264E-18
 -1      4208 8.01464E-05-1.94108E-05-2.60844E-05-4.33194E-06-4.62511E-19 1.55621E-18
 -1      4209 8.02843E-05-1.89635E-05-2.62330E-05-2.21684E-06-7.69287E-19 1.87833E-18
 -1      4210 7.62008E-05-1.81325E-05-2.48468E-05-5.18663E-06 2.47752E-19 1.02064E-18
 -1      4211 8.70859E-05-2.17894E-05-2.80034E-05 2.80104E-06-8.24074E-19 8.63359E-19
 -1      4212 8.61582E-05-2.13254E-05-2.77938E-05 3.14844E-06-1.08431E-18 2.46939E-20
 -1      4213 8.49657E-05-2.06511E-05-2.75277E-05 2.06141E-06-1.32022E-18 2.79008E-20
 -1      4214 8.71277E-05-2.17213E-05-2.80050E-05 1.74844E-06-8.27762E-19 4.17387E-20
 -1      4215 8.88683E-05-2.27340E-05-2.83232E-05 1.48263E-06-3.04883E-19 1.61879E-21
 -1      4216 7.60308E-05-1.81460E-05-2.48101E-05 5.22868E-06-6.77130E-21-7.03790E-20
 -1      4217 7.63341E-05-1.77429E-05-2.51824E-05-1.51247E-06 2.88728E-19 1.22441E-18
 -1      4218 8.22018E-05-1.98121E-05-2.67853E-05 4.21260E-06-5.21540E-19-4.00499E-19
 -1      4219 8.07060E-05-1.93849E-05-2.63276E-05 4.97486E-06-5.98350E-19-5.47479E-19
 -1      4220 8.22357E-05-1.95244E-05-2.68246E-05 2.45692E-06-8.85395E-19-3.02178E-19
 -1      4221 9.52549E-05-2.85869E-05-2.85720E-05-3.39106E-09 1.67380E-18-3.05127E-18
 -1      4222 9.52543E-05-2.85865E-05-2.85719E-05-4.92222E-09 2.34064E-18-2.64511E-18
 -1      4223 9.52555E-05-2.85869E-05-2.85723E-05-5.88721E-09 1.07903E-18-3.34080E-18
 -1      4224 9.52565E-05-2.85875E-05-2.85725E-05-3.27482E-09 2.33394E-18-2.47951E-18
 -1      4225 9.52555E-05-2.85867E-05-2.85723E-05-8.33624E-09-1.94949E-19-7.81708E-19
 -1      4226 9.52584E-05-2.85875E-05-2.85732E-05-9.10175E-09-1.88374E-19 3.39442E-19
 -1      4227 9.52609E-05-2.85882E-05-2.85740E-05-6.76336E-09 2.87556E-19-1.03574E-18
 -1      4228 9.44735E-05-2.74355E-05-2.87326E-05 1.45942E-07-8.72598E-19 1.12494E-18
 -1      4229 9.43243E-05-2.72637E-05-2.87420E-05 1.83420E-07-2.82480E-19 6.47829E-19
 -1      4230 8.53414E-05-2.09008E-05-2.76354E-05 6.07568E-07-8.09598E-19 3.66017E-19
 -1      4231 8.64398E-05-2.14346E-05-2.78763E-05 6.89092E-07-4.01358E-19 1.66981E-20
 -1      4232 8.74220E-05-2.19526E-05-2.80714E-05 6.14623E-07-1.69417E-19-1.81651E-19
 -1      4233 8.83082E-05-2.24589E-05-2.82336E-05 6.59361E-07-4.93418E-19-4.31419E-19
 -1      4234 8.91008E-05-2.29460E-05-2.83621E-05 5.85178E-07-4.58202E-19-6.40666E-19
 -1      4235 8.98216E-05-2.34183E-05-2.84680E-05 6.05003E-07-3.93661E-19-4.76497E-20
 -1      4236 9.04631E-05-2.38670E-05-2.85490E-05 5.30731E-07-7.12087E-19 2.56218E-19
 -1      4237 9.10491E-05-2.42979E-05-2.86148E-05 5.34590E-07-7.55621E-19 5.97942E-19
 -1      4238 9.15662E-05-2.47016E-05-2.86626E-05 4.62288E-07-7.67816E-19 2.86568E-19
 -1      4239 9.20399E-05-2.50854E-05-2.87002E-05 4.56731E-07 3.01692E-19-1.96070E-19
 -1      4240 9.24534E-05-2.54402E-05-2.87250E-05 3.88921E-07 1.33598E-18-1.18963E-20
 -1      4241 9.28325E-05-2.57742E-05-2.87434E-05 3.78555E-07 1.71993E-18 3.86919E-19
 -1      4242 9.31596E-05-2.60792E-05-2.87528E-05 3.17262E-07 9.50479E-19-7.21989E-20
 -1      4243 9.34593E-05-2.63636E-05-2.87584E-05 3.05150E-07 5.31261E-19-2.16974E-19
 -1      4244 9.37148E-05-2.66203E-05-2.87580E-05 2.51587E-07 2.53442E-19-7.78022E-19
 -1      4245 9.39483E-05-2.68576E-05-2.87555E-05 2.39618E-07-3.36773E-19-5.69702E-19
 -1      4246 9.41451E-05-2.70695E-05-2.87492E-05 1.94202E-07 1.09737E-19-2.76901E-19
 -1      4247 9.46088E-05-2.75916E-05-2.87229E-05 1.36819E-07-8.65611E-19 1.40016E-18
 -1      4248 9.47199E-05-2.77283E-05-2.87122E-05 1.06649E-07-1.15120E-18 8.35406E-19
 -1      4249 9.48202E-05-2.78516E-05-2.87017E-05 9.92890E-08-9.75422E-19 6.97289E-19
 -1      4250 9.49014E-05-2.79586E-05-2.86909E-05 7.55601E-08-6.91992E-19-1.76709E-19
 -1      4251 9.49742E-05-2.80542E-05-2.86806E-05 6.98594E-08-1.00307E-18-8.33676E-19
 -1      4252 9.50322E-05-2.81365E-05-2.86704E-05 5.16107E-08-2.60756E-19-4.40201E-19
 -1      4253 9.50837E-05-2.82094E-05-2.86609E-05 4.73581E-08 4.45162E-19-2.26326E-19
 -1      4254 9.51242E-05-2.82716E-05-2.86517E-05 3.36365E-08 2.97668E-19 1.60740E-19
 -1      4255 9.51596E-05-2.83261E-05-2.86432E-05 3.05826E-08 7.83191E-19-7.86385E-20
 -1      4256 9.51868E-05-2.83721E-05-2.86353E-05 2.05052E-08 1.30593E-18 2.65395E-19
 -1      4257 9.52102E-05-2.84121E-05-2.86280E-05 1.84029E-08 1.59331E-18 7.21579E-19
 -1      4258 9.52277E-05-2.84455E-05-2.86212E-05 1.11906E-08 9.24986E-19-7.25858E-20
 -1      4259 9.52424E-05-2.84741E-05-2.86151E-05 9.81656E-09-4.09895E-20 1.33788E-19
 -1      4260 9.52530E-05-2.84977E-05-2.86096E-05 4.80704E-09-1.16382E-18 3.13807E-19
 -1      4261 9.52615E-05-2.85176E-05-2.86046E-05 3.97149E-09-8.47024E-19 3.87099E-19
 -1      4262 9.52671E-05-2.85338E-05-2.86001E-05 6.18299E-10-9.56593E-19 8.91632E-19
 -1      4263 9.52713E-05-2.85472E-05-2.85961E-05 1.66978E-10-2.92176E-19-1.74532E-19
 -1      4264 9.52736E-05-2.85579E-05-2.85925E-05-1.96919E-09 8.35769E-19-3.84655E-19
 -1      4265 9.52750E-05-2.85666E-05-2.85893E-05-2.15710E-09 6.92250E-19 7.70168E-19
 -1      4266 9.52751E-05-2.85732E-05-2.85865E-05-3.42127E-09 1.27104E-18 9.92402E-19
 -1      4267 9.52746E-05-2.85784E-05-2.85841E-05-3.43738E-09 2.65522E-18 1.84352E-18
 -1      4268 9.52735E-05-2.85823E-05-2.85819E-05-4.09454E-09 2.14844E-18 8.22474E-19
 -1      4269 9.52719E-05-2.85851E-05-2.85801E-05-4.00614E-09 1.79958E-18-3.14318E-19
 -1      4270 9.52700E-05-2.85870E-05-2.85785E-05-4.25556E-09 1.29046E-18-3.25402E-19
 -1      4271 9.52679E-05-2.85881E-05-2.85770E-05-4.11060E-09 3.89061E-19-8.78622E-19
 -1      4272 9.52657E-05-2.85887E-05-2.85758E-05-4.09929E-09 4.73635E-19-1.23662E-18
 -1      4273 9.52633E-05-2.85888E-05-2.85748E-05-3.92321E-09 6.62371E-19-1.29441E-18
 -1      4274 7.92980E-05-1.86127E-05-2.60022E-05-1.45401E-07-1.17832E-19 4.81805E-19
 -1      4275 8.11376E-05-1.92436E-05-2.65720E-05 6.69604E-07-9.14756E-19 6.54471E-19
 -1      4276 7.77576E-05-1.84376E-05-2.54715E-05 4.12343E-06-5.72359E-20-3.55804E-19
 -1      4277 8.27228E-05-1.97904E-05-2.69952E-05 5.56527E-07-1.32395E-18 6.69177E-19
 -1      4278 8.41105E-05-2.03577E-05-2.73464E-05 6.88638E-07-1.13257E-18 6.81152E-19
 -1      4279 7.79160E-05-1.80184E-05-2.55904E-05 1.66532E-06-1.64310E-19 7.63124E-20
 -1      4280 9.52605E-05-2.85885E-05-2.85737E-05-3.70953E-09 6.69176E-19-1.87378E-18
 -1      4281 9.52565E-05-2.85872E-05-2.85726E-05-6.76548E-09 9.93777E-19-3.11743E-18
 -1      4282 9.52590E-05-2.85881E-05-2.85732E-05-3.90578E-09 1.05083E-18-2.59494E-18
 -1      4283 9.52571E-05-2.85876E-05-2.85727E-05-5.45585E-09 1.10497E-18-3.31215E-18
 -1      4284 9.52576E-05-2.85878E-05-2.85728E-05-4.08916E-09 2.10390E-18-1.98744E-18
 -3
    1PSTEP                         4           1           1          
  100CL  101 1.000000000        4284                     0    1           1
 -4  ERROR       1    1
 -5  STR(%)      1    1    0    0
 -1         1 1.21050E+01
 -1         2 2.67557E+01
 -1         3 1.04738E-04
 -1         4 1.19664E-04
 -1         5 1.22075E+01
 -1         6 1.25764E+01
 -1         7 1.25764E+01
 -1         8 4.32864E+00
 -1         9 2.86370E+00
 -1        10 2.51280E+00
 -1        11 2.68310E+00
 -1        12 2.86390E+00
 -1        13 2.86390E+00
 -1        14 2.56219E+00
 -1        15 1.82184E+00
 -1        16 2.83359E+00
 -1        17 3.21628E+00
 -1        18 3.22970E+00
 -1        19 3.22970E+00
 -1        20 3.42879E+00
 -1        21 4.47743E+00
 -1        22 8.44482E+00
 -1        23 1.25764E+01
 -1        24 2.82956E+00
 -1        25 1.75680E+00
 -1        26 1.31476E+00
 -1        27 2.05907E+00
 -1        28 3.05092E+00
 -1        29 3.67667E+00
 -1        30 3.67667E+00
 -1        31 3.53366E+00
 -1        32 3.53366E+00
 -1        33 2.71872E+00
 -1        34 1.54525E+00
 -1        35 1.21185E+00
 -1        36 1.06133E+00
 -1        37 1.03523E+00
 -1        38 1.03511E+00
 -1        39 9.85714E-01
 -1        40 8.45684E-01
 -1        41 6.74591E-01
 -1        42 5.39368E-01
 -1        43 4.32327E-01
 -1        44 3.70213E-01
 -1        45 3.04356E-01
 -1        46 2.41889E-01
 -1        47 1.86577E-01
 -1        48 1.39911E-01
 -1        49 1.01979E-01
 -1        50 8.60793E-02
 -1        51 7.08229E-02
 -1        52 5.69525E-02
 -1        53 4.48539E-02
 -1        54 3.46304E-02
 -1        55 2.62133E-02
 -1        56 2.01938E-02
 -1        57 1.66999E-02
 -1        58 1.35181E-02
 -1        59 1.07303E-02
 -1        60 8.35939E-03
 -1        61 6.49201E-03
 -1        62 5.02458E-03
 -1        63 3.80995E-03
 -1        64 2.82172E-03
 -1        65 2.15001E-03
 -1        66 1.78219E-03
 -1        67 1.45296E-03
 -1        68 1.15679E-03
 -1        69 8.75774E-04
 -1        70 7.58389E-04
 -1        71 4.91408E-04
 -1        72 1.22075E+01
 -1        73 1.75180E+00
 -1        74 1.10546E+00
 -1        75 1.32079E+00
 -1        76 1.98166E+00
 -1        77 2.46619E+00
 -1        78 3.76640E+00
 -1        79 4.04094E+00
 -1        80 4.53522E+00
 -1        81 4.53522E+00
 -1        82 3.49975E+00
 -1        83 1.87208E+00
 -1        84 1.23341E+00
 -1        85 1.38206E+00
 -1        86 1.49235E+00
 -1        87 1.49235E+00
 -1        88 1.38562E+00
 -1        89 1.17855E+00
 -1        90 9.87884E-01
 -1        91 7.93235E-01
 -1        92 6.11880E-01
 -1        93 4.55504E-01
 -1        94 3.39947E-01
 -1        95 2.62790E-01
 -1        96 1.98244E-01
 -1        97 1.46036E-01
 -1        98 1.04935E-01
 -1        99 7.33271E-02
 -1       100 5.05082E-02
 -1       101 4.21981E-02
 -1       102 3.44871E-02
 -1       103 2.76349E-02
 -1       104 2.17398E-02
 -1       105 1.77306E-02
 -1       106 1.54729E-02
 -1       107 1.31263E-02
 -1       108 1.08762E-02
 -1       109 8.82807E-03
 -1       110 7.08083E-03
 -1       111 5.69571E-03
 -1       112 4.49524E-03
 -1       113 3.47960E-03
 -1       114 2.63529E-03
 -1       115 1.94090E-03
 -1       116 1.44651E-03
 -1       117 1.15167E-03
 -1       118 8.72231E-04
 -1       119 5.73270E-04
 -1       120 3.71765E-04
 -1       121 1.62324E-04
 -1       122 1.62324E-04
 -1       123 1.39349E-04
 -1       124 7.33936E-05
 -1       125 7.08973E-05
 -1       126 1.17597E-04
 -1       127 1.45525E-04
 -1       128 1.53620E-04
 -1       129 1.53620E-04
 -1       130 1.45128E-04
 -1       131 1.15887E-04
 -1       132 7.04212E-05
 -1       133 7.45961E-05
 -1       134 1.39168E-04
 -1       135 2.15715E-04
 -1       136 2.38051E-04
 -1       137 2.67557E+01
 -1       138 4.76194E+01
 -1       139 4.76194E+01
 -1       140 2.07269E+01
 -1       141 1.18989E+01
 -1       142 1.27666E+01
 -1       143 1.27666E+01
 -1       144 1.24024E+01
 -1       145 1.24024E+01
 -1       146 1.30273E+01
 -1       147 2.84502E+01
 -1       148 2.95867E+01
 -1       149 2.90024E+01
 -1       150 2.77845E+01
 -1       151 2.65805E+01
 -1       152 2.69308E+01
 -1       153 3.55927E+01
 -1       154 3.55927E+01
 -1       155 1.38885E+01
 -1       156 1.27448E+01
 -1       157 1.27448E+01
 -1       158 1.25300E+01
 -1       159 1.25300E+01
 -1       160 1.16882E+01
 -1       161 2.46786E+01
 -1       162 3.14390E+01
 -1       163 3.14390E+01
 -1       164 2.49440E+01
 -1       165 6.71126E+00
 -1       166 3.22397E+00
 -1       167 2.61701E+00
 -1       168 2.51921E+00
 -1       169 2.98459E+00
 -1       170 3.22417E+00
 -1       171 3.22417E+00
 -1       172 2.56323E+00
 -1       173 2.73948E+00
 -1       174 3.48957E+00
 -1       175 3.48957E+00
 -1       176 3.39833E+00
 -1       177 3.17186E+00
 -1       178 3.62918E+00
 -1       179 4.52750E+00
 -1       180 1.22075E+01
 -1       181 3.08543E+00
 -1       182 1.97578E+00
 -1       183 1.26854E+00
 -1       184 1.52993E+00
 -1       185 2.15600E+00
 -1       186 3.05092E+00
 -1       187 3.67667E+00
 -1       188 3.51912E+00
 -1       189 3.53366E+00
 -1       190 2.71872E+00
 -1       191 1.74381E+00
 -1       192 1.21185E+00
 -1       193 1.06133E+00
 -1       194 1.03523E+00
 -1       195 1.03511E+00
 -1       196 9.85714E-01
 -1       197 8.45684E-01
 -1       198 7.00172E-01
 -1       199 5.97254E-01
 -1       200 5.02968E-01
 -1       201 4.03024E-01
 -1       202 3.09318E-01
 -1       203 2.41889E-01
 -1       204 1.88840E-01
 -1       205 1.46790E-01
 -1       206 1.11210E-01
 -1       207 8.60793E-02
 -1       208 7.08229E-02
 -1       209 5.69525E-02
 -1       210 4.48539E-02
 -1       211 3.46304E-02
 -1       212 2.64479E-02
 -1       213 2.06731E-02
 -1       214 1.66999E-02
 -1       215 1.35181E-02
 -1       216 1.07303E-02
 -1       217 8.62115E-03
 -1       218 6.84684E-03
 -1       219 5.51511E-03
 -1       220 4.40099E-03
 -1       221 3.43535E-03
 -1       222 2.61783E-03
 -1       223 1.93857E-03
 -1       224 1.45296E-03
 -1       225 1.15679E-03
 -1       226 8.75774E-04
 -1       227 7.58389E-04
 -1       228 4.91408E-04
 -1       229 2.15322E+00
 -1       230 1.47601E+00
 -1       231 1.10546E+00
 -1       232 1.32079E+00
 -1       233 1.98166E+00
 -1       234 2.62671E+00
 -1       235 3.76640E+00
 -1       236 4.04094E+00
 -1       237 4.53522E+00
 -1       238 3.49975E+00
 -1       239 1.87208E+00
 -1       240 1.22891E+00
 -1       241 1.23341E+00
 -1       242 1.38206E+00
 -1       243 1.49235E+00
 -1       244 1.38562E+00
 -1       245 1.17855E+00
 -1       246 9.87884E-01
 -1       247 8.12222E-01
 -1       248 6.44610E-01
 -1       249 4.93576E-01
 -1       250 3.65814E-01
 -1       251 2.65244E-01
 -1       252 1.98244E-01
 -1       253 1.46036E-01
 -1       254 1.06801E-01
 -1       255 7.67382E-02
 -1       256 5.36702E-02
 -1       257 4.21981E-02
 -1       258 3.44871E-02
 -1       259 2.76349E-02
 -1       260 2.17398E-02
 -1       261 1.77306E-02
 -1       262 1.54729E-02
 -1       263 1.31263E-02
 -1       264 1.08762E-02
 -1       265 8.82807E-03
 -1       266 7.08083E-03
 -1       267 5.69571E-03
 -1       268 4.49524E-03
 -1       269 3.53084E-03
 -1       270 2.72241E-03
 -1       271 2.04631E-03
 -1       272 1.48681E-03
 -1       273 1.15167E-03
 -1       274 8.72231E-04
 -1       275 5.78770E-04
 -1       276 3.71765E-04
 -1       277 2.20446E-04
 -1       278 2.20446E-04
 -1       279 2.17043E-04
 -1       280 1.20056E-04
 -1       281 2.09303E-04
 -1       282 2.67408E-04
 -1       283 2.91096E-04
 -1       284 2.91096E-04
 -1       285 2.90965E-04
 -1       286 2.65703E-04
 -1       287 2.09869E-04
 -1       288 1.21429E-04
 -1       289 2.17603E-04
 -1       290 2.17603E-04
 -1       291 2.84498E-04
 -1       292 3.19883E+01
 -1       293 2.82901E+01
 -1       294 4.76194E+01
 -1       295 2.27132E+01
 -1       296 1.06000E+01
 -1       297 1.18989E+01
 -1       298 1.27666E+01
 -1       299 1.20443E+01
 -1       300 1.24024E+01
 -1       301 1.18454E+01
 -1       302 1.30273E+01
 -1       303 2.95867E+01
 -1       304 3.39624E+01
 -1       305 3.39624E+01
 -1       306 3.34465E+01
 -1       307 3.33919E+01
 -1       308 3.17021E+01
 -1       309 3.55927E+01
 -1       310 1.38885E+01
 -1       311 1.06815E+01
 -1       312 1.27448E+01
 -1       313 1.21050E+01
 -1       314 1.17139E+01
 -1       315 1.25300E+01
 -1       316 1.12706E+01
 -1       317 1.16882E+01
 -1       318 2.64433E+01
 -1       319 3.14390E+01
 -1       320 3.09080E+01
 -1       321 3.19883E+01
 -1       322 2.24179E+00
 -1       323 3.08543E+00
 -1       324 2.81793E+00
 -1       325 3.53277E+00
 -1       326 3.87887E+00
 -1       327 3.87887E+00
 -1       328 3.63560E+00
 -1       329 4.10661E+00
 -1       330 4.10661E+00
 -1       331 3.91772E+00
 -1       332 3.17953E+00
 -1       333 2.85186E+00
 -1       334 2.65303E+00
 -1       335 2.06943E+00
 -1       336 1.51142E+00
 -1       337 1.26854E+00
 -1       338 1.08594E+00
 -1       339 1.56295E+00
 -1       340 1.98429E+00
 -1       341 2.34619E+00
 -1       342 2.33479E+00
 -1       343 2.25568E+00
 -1       344 2.14516E+00
 -1       345 1.64061E+00
 -1       346 1.22027E+00
 -1       347 7.28750E-01
 -1       348 6.19117E-01
 -1       349 6.45657E-01
 -1       350 7.67293E-01
 -1       351 7.63542E-01
 -1       352 6.87206E-01
 -1       353 6.13610E-01
 -1       354 5.45084E-01
 -1       355 4.60291E-01
 -1       356 3.72424E-01
 -1       357 2.90455E-01
 -1       358 2.18990E-01
 -1       359 1.59663E-01
 -1       360 1.12289E-01
 -1       361 8.21244E-02
 -1       362 5.90210E-02
 -1       363 4.31105E-02
 -1       364 3.58806E-02
 -1       365 2.95748E-02
 -1       366 2.38599E-02
 -1       367 1.88711E-02
 -1       368 1.46425E-02
 -1       369 1.18854E-02
 -1       370 1.00652E-02
 -1       371 8.31892E-03
 -1       372 6.76166E-03
 -1       373 5.53193E-03
 -1       374 4.44121E-03
 -1       375 3.54631E-03
 -1       376 2.82329E-03
 -1       377 2.19062E-03
 -1       378 1.65156E-03
 -1       379 1.20372E-03
 -1       380 8.54915E-04
 -1       381 6.39548E-04
 -1       382 4.28995E-04
 -1       383 8.72935E-01
 -1       384 1.17727E+00
 -1       385 1.96230E+00
 -1       386 2.36735E+00
 -1       387 2.42394E+00
 -1       388 2.50092E+00
 -1       389 2.54047E+00
 -1       390 2.27662E+00
 -1       391 1.42547E+00
 -1       392 8.10793E-01
 -1       393 8.50202E-01
 -1       394 1.05312E+00
 -1       395 1.08538E+00
 -1       396 1.08856E+00
 -1       397 9.86059E-01
 -1       398 8.82153E-01
 -1       399 7.49095E-01
 -1       400 6.07872E-01
 -1       401 4.75534E-01
 -1       402 3.60421E-01
 -1       403 2.65244E-01
 -1       404 1.92937E-01
 -1       405 1.45154E-01
 -1       406 1.06801E-01
 -1       407 7.67382E-02
 -1       408 5.36702E-02
 -1       409 3.63253E-02
 -1       410 2.70370E-02
 -1       411 2.31060E-02
 -1       412 1.92593E-02
 -1       413 1.57079E-02
 -1       414 1.25601E-02
 -1       415 9.91466E-03
 -1       416 8.58166E-03
 -1       417 7.22566E-03
 -1       418 5.94092E-03
 -1       419 4.87630E-03
 -1       420 3.96853E-03
 -1       421 3.18772E-03
 -1       422 2.50530E-03
 -1       423 1.92216E-03
 -1       424 1.43237E-03
 -1       425 1.04469E-03
 -1       426 8.11552E-04
 -1       427 5.78770E-04
 -1       428 3.42487E-04
 -1       429 2.34016E-04
 -1       430 4.29273E-04
 -1       431 4.29273E-04
 -1       432 2.81956E-04
 -1       433 3.66323E-04
 -1       434 4.06957E-04
 -1       435 4.06957E-04
 -1       436 4.05589E-04
 -1       437 4.05589E-04
 -1       438 3.66437E-04
 -1       439 2.82904E-04
 -1       440 2.34929E-04
 -1       441 3.63293E-04
 -1       442 2.82901E+01
 -1       443 3.19883E+01
 -1       444 2.55012E+01
 -1       445 1.65175E+01
 -1       446 1.06337E+01
 -1       447 2.68438E+00
 -1       448 9.23341E+00
 -1       449 1.13592E+01
 -1       450 1.06265E+01
 -1       451 9.15148E+00
 -1       452 6.89740E+00
 -1       453 1.24352E+01
 -1       454 2.09172E+01
 -1       455 3.39624E+01
 -1       456 3.34465E+01
 -1       457 3.33919E+01
 -1       458 2.53841E+01
 -1       459 2.17843E+01
 -1       460 1.34781E+01
 -1       461 8.13579E+00
 -1       462 7.43605E+00
 -1       463 1.03547E+01
 -1       464 1.05779E+01
 -1       465 1.02350E+01
 -1       466 8.38566E+00
 -1       467 6.74157E+00
 -1       468 1.09099E+01
 -1       469 1.85198E+01
 -1       470 3.09080E+01
 -1       471 2.79348E+01
 -1       472 7.13923E+00
 -1       473 3.11066E+01
 -1       474 1.92384E+01
 -1       475 2.81723E+00
 -1       476 4.79050E+00
 -1       477 3.73551E+00
 -1       478 5.45873E+00
 -1       479 5.45873E+00
 -1       480 5.22434E+00
 -1       481 4.96771E+00
 -1       482 4.04039E+00
 -1       483 2.89635E+00
 -1       484 1.45684E+00
 -1       485 1.07460E+00
 -1       486 6.56358E+00
 -1       487 1.07598E+00
 -1       488 1.49971E+00
 -1       489 1.71876E+00
 -1       490 2.19468E+00
 -1       491 2.16513E+00
 -1       492 2.25710E+00
 -1       493 1.65703E+00
 -1       494 1.62364E+00
 -1       495 1.35381E+00
 -1       496 1.21209E+00
 -1       497 9.21702E-01
 -1       498 8.61626E-01
 -1       499 8.05493E-01
 -1       500 7.14886E-01
 -1       501 6.50820E-01
 -1       502 5.85222E-01
 -1       503 5.02488E-01
 -1       504 4.15364E-01
 -1       505 3.32503E-01
 -1       506 2.58663E-01
 -1       507 1.95854E-01
 -1       508 1.44328E-01
 -1       509 1.03316E-01
 -1       510 7.15358E-02
 -1       511 4.75283E-02
 -1       512 3.08269E-02
 -1       513 2.14027E-02
 -1       514 1.79716E-02
 -1       515 1.56350E-02
 -1       516 1.32217E-02
 -1       517 1.09142E-02
 -1       518 8.81677E-03
 -1       519 7.38841E-03
 -1       520 6.34807E-03
 -1       521 5.30709E-03
 -1       522 4.36062E-03
 -1       523 3.56861E-03
 -1       524 2.84852E-03
 -1       525 2.21582E-03
 -1       526 1.73279E-03
 -1       527 1.32063E-03
 -1       528 9.68032E-04
 -1       529 6.88518E-04
 -1       530 2.00777E+01
 -1       531 2.04162E+00
 -1       532 2.80132E+00
 -1       533 4.81951E+00
 -1       534 3.95405E+00
 -1       535 2.14171E+00
 -1       536 1.68239E+00
 -1       537 1.48359E+00
 -1       538 1.35429E+00
 -1       539 1.14607E+00
 -1       540 1.10434E+00
 -1       541 1.06949E+00
 -1       542 1.01415E+00
 -1       543 8.95913E-01
 -1       544 7.56620E-01
 -1       545 6.15765E-01
 -1       546 4.85536E-01
 -1       547 3.72300E-01
 -1       548 2.78058E-01
 -1       549 2.03902E-01
 -1       550 1.47417E-01
 -1       551 1.03697E-01
 -1       552 7.06118E-02
 -1       553 5.05480E-02
 -1       554 3.56515E-02
 -1       555 2.70370E-02
 -1       556 2.31060E-02
 -1       557 1.92593E-02
 -1       558 1.57079E-02
 -1       559 1.25601E-02
 -1       560 1.00459E-02
 -1       561 8.58166E-03
 -1       562 7.22566E-03
 -1       563 5.94092E-03
 -1       564 4.88957E-03
 -1       565 3.96465E-03
 -1       566 3.14039E-03
 -1       567 2.42676E-03
 -1       568 1.85492E-03
 -1       569 1.38265E-03
 -1       570 9.98121E-04
 -1       571 7.35808E-04
 -1       572 5.14657E-04
 -1       573 4.69970E-04
 -1       574 5.32972E-04
 -1       575 4.91793E-04
 -1       576 5.48977E-04
 -1       577 5.34356E-04
 -1       578 5.34425E-04
 -1       579 5.34425E-04
 -1       580 5.33326E-04
 -1       581 4.69462E-04
 -1       582 5.17100E-04
 -1       583 4.51127E-04
 -1       584 1.23767E+01
 -1       585 8.99657E+00
 -1       586 1.53413E+00
 -1       587 2.20945E+01
 -1       588 2.79348E+01
 -1       589 5.24203E+00
 -1       590 2.08645E+01
 -1       591 4.95457E+00
 -1       592 2.68438E+00
 -1       593 4.60317E+00
 -1       594 7.59031E+00
 -1       595 8.49602E+00
 -1       596 6.59197E+00
 -1       597 6.20951E+00
 -1       598 1.03557E+01
 -1       599 1.51863E+01
 -1       600 2.43896E+01
 -1       601 2.53841E+01
 -1       602 1.00738E+01
 -1       603 7.07227E+00
 -1       604 4.65432E+00
 -1       605 8.81568E+00
 -1       606 8.56998E+00
 -1       607 6.70182E+00
 -1       608 3.79776E+00
 -1       609 6.41622E+00
 -1       610 1.43332E+01
 -1       611 2.85186E+00
 -1       612 2.82823E+00
 -1       613 2.04640E+01
 -1       614 4.01922E-04
 -1       615 5.05660E+00
 -1       616 1.42231E+01
 -1       617 1.83345E+01
 -1       618 3.92907E+00
 -1       619 6.60019E+00
 -1       620 1.08937E+01
 -1       621 4.87390E+00
 -1       622 8.22647E+00
 -1       623 1.00302E+01
 -1       624 5.82133E+00
 -1       625 4.04472E+00
 -1       626 2.81723E+00
 -1       627 1.78819E+00
 -1       628 8.81480E-04
 -1       629 2.07682E+00
 -1       630 1.82654E+00
 -1       631 3.11063E+00
 -1       632 2.19468E+00
 -1       633 4.08954E+00
 -1       634 2.60348E+00
 -1       635 2.11928E+00
 -1       636 2.59011E+00
 -1       637 3.00534E+00
 -1       638 2.83516E+00
 -1       639 2.41057E+00
 -1       640 1.94955E+00
 -1       641 1.56695E+00
 -1       642 1.32172E+00
 -1       643 1.13655E+00
 -1       644 9.47061E-01
 -1       645 7.69808E-01
 -1       646 6.12471E-01
 -1       647 4.77708E-01
 -1       648 3.65403E-01
 -1       649 2.73952E-01
 -1       650 2.01016E-01
 -1       651 1.43980E-01
 -1       652 1.00235E-01
 -1       653 6.73447E-02
 -1       654 4.31358E-02
 -1       655 2.57333E-02
 -1       656 1.35649E-02
 -1       657 9.65584E-03
 -1       658 8.97206E-03
 -1       659 7.98261E-03
 -1       660 7.95984E-03
 -1       661 7.77880E-03
 -1       662 7.16011E-03
 -1       663 6.31370E-03
 -1       664 5.38080E-03
 -1       665 4.45209E-03
 -1       666 3.58208E-03
 -1       667 2.81710E-03
 -1       668 2.16902E-03
 -1       669 1.60895E-03
 -1       670 7.61713E-04
 -1       671 4.18750E+00
 -1       672 4.60317E+00
 -1       673 3.95405E+00
 -1       674 2.95042E+00
 -1       675 2.71322E+00
 -1       676 3.34687E+00
 -1       677 1.89984E+00
 -1       678 1.64683E+00
 -1       679 1.36543E+00
 -1       680 1.15041E+00
 -1       681 1.01266E+00
 -1       682 8.57474E-01
 -1       683 7.04802E-01
 -1       684 5.65342E-01
 -1       685 4.43854E-01
 -1       686 3.41601E-01
 -1       687 2.57836E-01
 -1       688 1.90759E-01
 -1       689 1.38120E-01
 -1       690 9.75872E-02
 -1       691 6.69517E-02
 -1       692 4.42386E-02
 -1       693 2.77461E-02
 -1       694 1.80971E-02
 -1       695 1.28213E-02
 -1       696 1.14376E-02
 -1       697 9.86961E-03
 -1       698 8.28978E-03
 -1       699 7.04856E-03
 -1       700 6.18337E-03
 -1       701 5.25901E-03
 -1       702 4.35644E-03
 -1       703 3.61341E-03
 -1       704 3.00844E-03
 -1       705 2.43728E-03
 -1       706 1.92108E-03
 -1       707 1.50361E-03
 -1       708 1.13956E-03
 -1       709 1.19706E-03
 -1       710 2.80945E+00
 -1       711 5.58883E+00
 -1       712 6.78432E-04
 -1       713 6.75403E-04
 -1       714 6.85949E-04
 -1       715 6.78432E-04
 -1       716 6.85949E-04
 -1       717 6.63208E-04
 -1       718 8.17257E-04
 -1       719 8.17257E-04
 -1       720 1.25520E+01
 -1       721 1.47260E+01
 -1       722 1.51432E+01
 -1       723 2.27609E+00
 -1       724 7.67478E+00
 -1       725 1.07598E+00
 -1       726 3.72238E+00
 -1       727 8.05498E+00
 -1       728 4.99056E+00
 -1       729 7.36868E+00
 -1       730 1.21462E+01
 -1       731 4.51024E+00
 -1       732 6.76859E+00
 -1       733 1.36009E+01
 -1       734 6.83865E+00
 -1       735 6.07779E+00
 -1       736 6.06177E+00
 -1       737 8.52074E+00
 -1       738 4.90058E+00
 -1       739 9.03900E+00
 -1       740 4.33355E+00
 -1       741 3.83472E+00
 -1       742 1.00302E+01
 -1       743 1.03710E+01
 -1       744 3.10791E+00
 -1       745 4.03161E+00
 -1       746 1.01398E+01
 -1       747 3.56668E+00
 -1       748 2.95042E+00
 -1       749 9.54208E+00
 -1       750 8.36422E-04
 -1       751 9.54208E+00
 -1       752 5.89081E+00
 -1       753 2.31970E+00
 -1       754 5.41297E+00
 -1       755 3.90807E+00
 -1       756 7.15518E+00
 -1       757 4.17989E+00
 -1       758 3.84758E+00
 -1       759 2.37723E+00
 -1       760 2.60348E+00
 -1       761 3.70053E+00
 -1       762 3.00534E+00
 -1       763 2.83516E+00
 -1       764 2.41057E+00
 -1       765 1.94955E+00
 -1       766 1.56695E+00
 -1       767 1.23451E+00
 -1       768 9.86175E-01
 -1       769 7.89671E-01
 -1       770 6.21253E-01
 -1       771 4.80619E-01
 -1       772 3.65503E-01
 -1       773 2.73952E-01
 -1       774 2.01016E-01
 -1       775 1.43980E-01
 -1       776 1.00235E-01
 -1       777 6.73447E-02
 -1       778 4.38001E-02
 -1       779 2.69731E-02
 -1       780 1.50809E-02
 -1       781 6.93134E-03
 -1       782 5.68545E-03
 -1       783 7.40201E-03
 -1       784 7.95984E-03
 -1       785 7.77880E-03
 -1       786 7.16011E-03
 -1       787 6.31370E-03
 -1       788 5.38080E-03
 -1       789 4.45209E-03
 -1       790 3.58208E-03
 -1       791 2.81710E-03
 -1       792 2.18173E-03
 -1       793 1.65560E-03
 -1       794 3.34687E+00
 -1       795 2.38620E+00
 -1       796 1.80497E+00
 -1       797 1.49536E+00
 -1       798 1.19797E+00
 -1       799 9.50258E-01
 -1       800 7.52400E-01
 -1       801 5.87238E-01
 -1       802 4.52681E-01
 -1       803 3.47997E-01
 -1       804 2.65355E-01
 -1       805 1.99717E-01
 -1       806 1.48032E-01
 -1       807 1.07782E-01
 -1       808 7.68391E-02
 -1       809 5.33947E-02
 -1       810 3.59180E-02
 -1       811 2.31266E-02
 -1       812 1.39605E-02
 -1       813 8.49580E-03
 -1       814 8.02202E-03
 -1       815 7.72608E-03
 -1       816 7.04856E-03
 -1       817 6.18337E-03
 -1       818 5.25901E-03
 -1       819 4.52961E-03
 -1       820 3.89049E-03
 -1       821 3.24546E-03
 -1       822 2.63606E-03
 -1       823 2.08498E-03
 -1       824 1.60304E-03
 -1       825 1.19828E-03
 -1       826 8.39738E-04
 -1       827 8.06959E-04
 -1       828 4.18614E+00
 -1       829 2.65118E+00
 -1       830 1.05074E-03
 -1       831 3.90237E+00
 -1       832 2.74561E+00
 -1       833 8.96040E+00
 -1       834 6.03138E+00
 -1       835 2.33249E+00
 -1       836 1.09240E+01
 -1       837 9.10274E+00
 -1       838 5.91023E+00
 -1       839 1.30224E+01
 -1       840 5.69355E+00
 -1       841 2.82014E+00
 -1       842 1.30224E+01
 -1       843 2.68705E+00
 -1       844 6.98427E+00
 -1       845 5.99615E+00
 -1       846 4.03161E+00
 -1       847 1.13744E-03
 -1       848 1.19706E-03
 -1       849 1.19706E-03
 -1       850 7.58296E-04
 -1       851 8.11353E-04
 -1       852 7.83806E+00
 -1       853 1.05074E-03
 -1       854 8.11353E-04
 -1       855 2.43384E+00
 -1       856 7.05360E+00
 -1       857 5.07180E+00
 -1       858 3.59060E+00
 -1       859 2.50448E+00
 -1       860 1.68223E+00
 -1       861 1.18967E+00
 -1       862 8.95451E-01
 -1       863 7.20100E-01
 -1       864 5.71357E-01
 -1       865 4.49027E-01
 -1       866 3.49323E-01
 -1       867 2.68657E-01
 -1       868 2.03901E-01
 -1       869 1.52408E-01
 -1       870 1.11920E-01
 -1       871 8.04957E-02
 -1       872 5.64618E-02
 -1       873 3.85367E-02
 -1       874 2.60663E-02
 -1       875 1.68829E-02
 -1       876 1.02632E-02
 -1       877 5.61151E-03
 -1       878 3.20995E-03
 -1       879 2.86865E-03
 -1       880 3.29485E-03
 -1       881 3.33743E-03
 -1       882 3.14441E-03
 -1       883 2.82021E-03
 -1       884 2.45460E-03
 -1       885 2.14551E-03
 -1       886 1.81260E-03
 -1       887 1.48472E-03
 -1       888 1.18534E-03
 -1       889 1.14438E-03
 -1       890 2.67241E+00
 -1       891 3.87748E+00
 -1       892 1.47244E+00
 -1       893 1.12210E+00
 -1       894 8.92185E-01
 -1       895 7.14395E-01
 -1       896 5.61606E-01
 -1       897 4.34403E-01
 -1       898 3.30777E-01
 -1       899 2.47804E-01
 -1       900 1.82384E-01
 -1       901 1.31572E-01
 -1       902 9.27054E-02
 -1       903 6.46765E-02
 -1       904 4.39807E-02
 -1       905 2.87350E-02
 -1       906 1.78842E-02
 -1       907 1.02377E-02
 -1       908 5.62930E-03
 -1       909 4.63332E-03
 -1       910 5.15069E-03
 -1       911 5.12802E-03
 -1       912 4.78048E-03
 -1       913 4.25815E-03
 -1       914 3.66242E-03
 -1       915 3.23839E-03
 -1       916 2.76712E-03
 -1       917 2.29412E-03
 -1       918 1.84840E-03
 -1       919 1.45090E-03
 -1       920 1.19968E-03
 -1       921 2.08413E+00
 -1       922 7.05360E+00
 -1       923 5.41009E+00
 -1       924 1.15842E-03
 -1       925 9.52574E-04
 -1       926 5.93311E+00
 -1       927 1.06599E-03
 -1       928 2.98169E+00
 -1       929 3.24534E+00
 -1       930 1.61471E+00
 -1       931 1.18967E+00
 -1       932 8.84504E-01
 -1       933 6.63338E-01
 -1       934 5.02592E-01
 -1       935 3.82106E-01
 -1       936 2.90198E-01
 -1       937 2.19275E-01
 -1       938 1.64247E-01
 -1       939 1.21558E-01
 -1       940 8.85960E-02
 -1       941 6.33544E-02
 -1       942 4.42414E-02
 -1       943 2.99686E-02
 -1       944 2.02772E-02
 -1       945 1.35333E-02
 -1       946 8.94402E-03
 -1       947 5.59482E-03
 -1       948 3.20995E-03
 -1       949 1.93726E-03
 -1       950 2.41236E-03
 -1       951 2.54196E-03
 -1       952 2.45385E-03
 -1       953 2.23895E-03
 -1       954 1.96002E-03
 -1       955 1.66732E-03
 -1       956 1.41000E-03
 -1       957 1.25100E-03
 -1       958 8.60692E-01
 -1       959 1.12210E+00
 -1       960 1.47244E+00
 -1       961 6.60927E-01
 -1       962 5.06730E-01
 -1       963 3.86713E-01
 -1       964 2.92793E-01
 -1       965 2.19269E-01
 -1       966 1.61951E-01
 -1       967 1.17611E-01
 -1       968 8.36722E-02
 -1       969 5.80293E-02
 -1       970 3.97446E-02
 -1       971 2.65201E-02
 -1       972 1.68766E-02
 -1       973 9.99625E-03
 -1       974 5.32871E-03
 -1       975 2.89670E-03
 -1       976 3.42699E-03
 -1       977 3.74053E-03
 -1       978 3.68514E-03
 -1       979 3.40987E-03
 -1       980 3.01840E-03
 -1       981 2.63889E-03
 -1       982 2.28606E-03
 -1       983 1.91550E-03
 -1       984 1.56660E-03
 -1       985 1.19968E-03
 -1       986 1.29719E-03
 -1       987 1.02652E-03
 -1       988 3.61819E+00
 -1       989 5.16013E+00
 -1       990 5.30436E+00
 -1       991 1.92953E+00
 -1       992 3.85324E+00
 -1       993 9.82903E-04
 -1       994 1.20498E-03
 -1       995 5.16013E+00
 -1       996 2.80858E+00
 -1       997 3.24534E+00
 -1       998 4.11610E+00
 -1       999 1.51782E-03
 -1      1000 2.23610E+00
 -1      1001 1.42131E+00
 -1      1002 1.00674E+00
 -1      1003 7.03323E-01
 -1      1004 5.11715E-01
 -1      1005 3.77675E-01
 -1      1006 2.85097E-01
 -1      1007 2.23099E-01
 -1      1008 1.72997E-01
 -1      1009 1.32559E-01
 -1      1010 1.00135E-01
 -1      1011 7.43973E-02
 -1      1012 5.42230E-02
 -1      1013 3.86348E-02
 -1      1014 2.68812E-02
 -1      1015 1.87871E-02
 -1      1016 1.27042E-02
 -1      1017 8.22043E-03
 -1      1018 4.98687E-03
 -1      1019 2.71367E-03
 -1      1020 1.40526E-03
 -1      1021 1.78592E-03
 -1      1022 1.90005E-03
 -1      1023 1.84547E-03
 -1      1024 1.69184E-03
 -1      1025 1.50204E-03
 -1      1026 1.35590E-03
 -1      1027 1.25100E-03
 -1      1028 9.63876E-01
 -1      1029 1.29285E+00
 -1      1030 4.06714E-01
 -1      1031 3.08987E-01
 -1      1032 2.33688E-01
 -1      1033 1.75173E-01
 -1      1034 1.29669E-01
 -1      1035 9.44571E-02
 -1      1036 6.74539E-02
 -1      1037 4.69947E-02
 -1      1038 3.19256E-02
 -1      1039 2.15324E-02
 -1      1040 1.39040E-02
 -1      1041 8.42205E-03
 -1      1042 5.11507E-03
 -1      1043 2.89670E-03
 -1      1044 2.34413E-03
 -1      1045 2.76045E-03
 -1      1046 2.83092E-03
 -1      1047 2.68752E-03
 -1      1048 2.42333E-03
 -1      1049 2.10248E-03
 -1      1050 1.81127E-03
 -1      1051 7.12380E-01
 -1      1052 1.09818E-03
 -1      1053 5.35968E-01
 -1      1054 2.47884E+00
 -1      1055 9.47101E-04
 -1      1056 3.80292E+00
 -1      1057 3.06668E+00
 -1      1058 1.31670E-03
 -1      1059 1.27995E+00
 -1      1060 7.93791E-01
 -1      1061 5.94407E-01
 -1      1062 4.54151E-01
 -1      1063 3.50277E-01
 -1      1064 2.70696E-01
 -1      1065 2.08438E-01
 -1      1066 1.59252E-01
 -1      1067 1.20334E-01
 -1      1068 8.96757E-02
 -1      1069 6.57253E-02
 -1      1070 4.72234E-02
 -1      1071 3.31207E-02
 -1      1072 2.31329E-02
 -1      1073 1.58775E-02
 -1      1074 1.04941E-02
 -1      1075 6.57858E-03
 -1      1076 3.79565E-03
 -1      1077 1.87200E-03
 -1      1078 1.19680E-03
 -1      1079 1.51443E-03
 -1      1080 1.61356E-03
 -1      1081 1.61356E-03
 -1      1082 1.57527E-03
 -1      1083 1.57816E-03
 -1      1084 1.11651E-03
 -1      1085 9.18057E-01
 -1      1086 5.09966E-01
 -1      1087 2.30621E-01
 -1      1088 2.99923E-01
 -1      1089 1.33688E-01
 -1      1090 1.00104E-01
 -1      1091 7.38430E-02
 -1      1092 5.34973E-02
 -1      1093 3.79204E-02
 -1      1094 2.63184E-02
 -1      1095 1.83377E-02
 -1      1096 1.23664E-02
 -1      1097 7.98025E-03
 -1      1098 4.82590E-03
 -1      1099 2.61358E-03
 -1      1100 1.66732E-03
 -1      1101 2.04315E-03
 -1      1102 2.13667E-03
 -1      1103 2.05336E-03
 -1      1104 1.86819E-03
 -1      1105 1.63007E-03
 -1      1106 3.89875E-01
 -1      1107 1.76386E-01
 -1      1108 2.00268E+00
 -1      1109 6.77270E-01
 -1      1110 2.00268E+00
 -1      1111 9.71489E-04
 -1      1112 1.57816E-03
 -1      1113 1.25764E+01
 -1      1114 8.45252E+00
 -1      1115 3.59617E+00
 -1      1116 2.68825E+00
 -1      1117 2.59795E+00
 -1      1118 2.77350E+00
 -1      1119 2.86390E+00
 -1      1120 2.71305E+00
 -1      1121 2.19201E+00
 -1      1122 2.32771E+00
 -1      1123 3.02493E+00
 -1      1124 3.22299E+00
 -1      1125 3.22970E+00
 -1      1126 3.32925E+00
 -1      1127 3.95311E+00
 -1      1128 6.46113E+00
 -1      1129 1.03262E+01
 -1      1130 1.25764E+01
 -1      1131 7.70298E+00
 -1      1132 2.29318E+00
 -1      1133 1.53578E+00
 -1      1134 1.68692E+00
 -1      1135 2.55500E+00
 -1      1136 3.36380E+00
 -1      1137 3.67667E+00
 -1      1138 3.60517E+00
 -1      1139 3.53366E+00
 -1      1140 3.12619E+00
 -1      1141 2.13199E+00
 -1      1142 1.37855E+00
 -1      1143 1.13659E+00
 -1      1144 1.04828E+00
 -1      1145 1.03517E+00
 -1      1146 1.01041E+00
 -1      1147 9.15699E-01
 -1      1148 7.60137E-01
 -1      1149 6.06979E-01
 -1      1150 4.85847E-01
 -1      1151 4.01270E-01
 -1      1152 3.37284E-01
 -1      1153 2.73123E-01
 -1      1154 2.14233E-01
 -1      1155 1.63244E-01
 -1      1156 1.20945E-01
 -1      1157 9.40292E-02
 -1      1158 7.84511E-02
 -1      1159 6.38877E-02
 -1      1160 5.09032E-02
 -1      1161 3.97421E-02
 -1      1162 3.04219E-02
 -1      1163 2.32036E-02
 -1      1164 1.84469E-02
 -1      1165 1.51090E-02
 -1      1166 1.21242E-02
 -1      1167 9.54484E-03
 -1      1168 7.42570E-03
 -1      1169 5.75829E-03
 -1      1170 4.41726E-03
 -1      1171 3.31584E-03
 -1      1172 2.48587E-03
 -1      1173 1.96610E-03
 -1      1174 1.61758E-03
 -1      1175 1.30487E-03
 -1      1176 1.01628E-03
 -1      1177 8.17081E-04
 -1      1178 6.24898E-04
 -1      1179 3.05536E-04
 -1      1180 1.22075E+01
 -1      1181 6.97965E+00
 -1      1182 1.42863E+00
 -1      1183 1.21312E+00
 -1      1184 1.65122E+00
 -1      1185 2.22392E+00
 -1      1186 3.11630E+00
 -1      1187 3.90367E+00
 -1      1188 4.28808E+00
 -1      1189 4.53522E+00
 -1      1190 4.01748E+00
 -1      1191 2.68591E+00
 -1      1192 1.55275E+00
 -1      1193 1.30773E+00
 -1      1194 1.43720E+00
 -1      1195 1.49235E+00
 -1      1196 1.43899E+00
 -1      1197 1.28209E+00
 -1      1198 1.08322E+00
 -1      1199 8.90560E-01
 -1      1200 7.02557E-01
 -1      1201 5.33692E-01
 -1      1202 3.97726E-01
 -1      1203 3.01369E-01
 -1      1204 2.30517E-01
 -1      1205 1.72140E-01
 -1      1206 1.25486E-01
 -1      1207 8.91311E-02
 -1      1208 6.19177E-02
 -1      1209 4.63532E-02
 -1      1210 3.83426E-02
 -1      1211 3.10610E-02
 -1      1212 2.46874E-02
 -1      1213 1.97352E-02
 -1      1214 1.66018E-02
 -1      1215 1.42996E-02
 -1      1216 1.20012E-02
 -1      1217 9.85214E-03
 -1      1218 7.95445E-03
 -1      1219 6.38827E-03
 -1      1220 5.09548E-03
 -1      1221 3.98742E-03
 -1      1222 3.05744E-03
 -1      1223 2.28809E-03
 -1      1224 1.69370E-03
 -1      1225 1.29909E-03
 -1      1226 1.01195E-03
 -1      1227 7.22750E-04
 -1      1228 4.72517E-04
 -1      1229 2.38251E-04
 -1      1230 1.33531E-04
 -1      1231 1.62324E-04
 -1      1232 1.50836E-04
 -1      1233 1.06371E-04
 -1      1234 7.21455E-05
 -1      1235 9.42472E-05
 -1      1236 1.31561E-04
 -1      1237 1.49573E-04
 -1      1238 1.53620E-04
 -1      1239 1.49374E-04
 -1      1240 1.30508E-04
 -1      1241 9.31543E-05
 -1      1242 7.25086E-05
 -1      1243 1.06882E-04
 -1      1244 1.77441E-04
 -1      1245 2.26883E-04
 -1      1246 1.78858E-04
 -1      1247 2.67557E+01
 -1      1248 3.71876E+01
 -1      1249 4.76194E+01
 -1      1250 3.41732E+01
 -1      1251 1.63129E+01
 -1      1252 1.23328E+01
 -1      1253 1.27666E+01
 -1      1254 1.25845E+01
 -1      1255 1.24024E+01
 -1      1256 1.27148E+01
 -1      1257 2.07387E+01
 -1      1258 2.90184E+01
 -1      1259 2.92946E+01
 -1      1260 2.83934E+01
 -1      1261 2.71825E+01
 -1      1262 2.67557E+01
 -1      1263 3.12617E+01
 -1      1264 3.55927E+01
 -1      1265 2.47406E+01
 -1      1266 1.33166E+01
 -1      1267 1.27448E+01
 -1      1268 1.24249E+01
 -1      1269 1.23175E+01
 -1      1270 1.25300E+01
 -1      1271 1.21091E+01
 -1      1272 1.81834E+01
 -1      1273 2.80588E+01
 -1      1274 3.14390E+01
 -1      1275 2.81915E+01
 -1      1276 2.58498E+01
 -1      1277 1.25764E+01
 -1      1278 5.51995E+00
 -1      1279 9.64383E+00
 -1      1280 3.04384E+00
 -1      1281 3.77631E+00
 -1      1282 4.96762E+00
 -1      1283 2.56491E+00
 -1      1284 2.74036E+00
 -1      1285 2.92049E+00
 -1      1286 2.60115E+00
 -1      1287 2.51600E+00
 -1      1288 2.56811E+00
 -1      1289 2.92425E+00
 -1      1290 2.83384E+00
 -1      1291 2.75190E+00
 -1      1292 3.04404E+00
 -1      1293 3.04404E+00
 -1      1294 3.10438E+00
 -1      1295 2.89318E+00
 -1      1296 3.04404E+00
 -1      1297 3.22417E+00
 -1      1298 2.19253E+00
 -1      1299 2.56271E+00
 -1      1300 2.89370E+00
 -1      1301 2.78653E+00
 -1      1302 2.28066E+00
 -1      1303 2.65135E+00
 -1      1304 3.35292E+00
 -1      1305 3.16158E+00
 -1      1306 3.11452E+00
 -1      1307 3.35963E+00
 -1      1308 3.35292E+00
 -1      1309 3.48957E+00
 -1      1310 3.31401E+00
 -1      1311 3.31401E+00
 -1      1312 3.44395E+00
 -1      1313 3.30033E+00
 -1      1314 3.20078E+00
 -1      1315 3.28509E+00
 -1      1316 4.05331E+00
 -1      1317 3.52899E+00
 -1      1318 3.40052E+00
 -1      1319 6.48616E+00
 -1      1320 4.50246E+00
 -1      1321 4.07834E+00
 -1      1322 1.22075E+01
 -1      1323 1.03262E+01
 -1      1324 8.36750E+00
 -1      1325 1.22075E+01
 -1      1326 7.83091E+00
 -1      1327 2.95749E+00
 -1      1328 2.40267E+00
 -1      1329 1.86629E+00
 -1      1330 2.53060E+00
 -1      1331 1.51267E+00
 -1      1332 1.29165E+00
 -1      1333 1.62216E+00
 -1      1334 1.42234E+00
 -1      1335 1.79450E+00
 -1      1336 1.39923E+00
 -1      1337 2.10754E+00
 -1      1338 2.60346E+00
 -1      1339 1.84297E+00
 -1      1340 3.05092E+00
 -1      1341 3.36380E+00
 -1      1342 2.60346E+00
 -1      1343 3.67667E+00
 -1      1344 3.67667E+00
 -1      1345 3.36380E+00
 -1      1346 3.59790E+00
 -1      1347 3.52639E+00
 -1      1348 3.59790E+00
 -1      1349 3.53366E+00
 -1      1350 3.53366E+00
 -1      1351 3.52639E+00
 -1      1352 3.12619E+00
 -1      1353 2.71872E+00
 -1      1354 3.12619E+00
 -1      1355 2.23126E+00
 -1      1356 1.64453E+00
 -1      1357 2.23126E+00
 -1      1358 1.37855E+00
 -1      1359 1.21185E+00
 -1      1360 1.47783E+00
 -1      1361 1.13659E+00
 -1      1362 1.06133E+00
 -1      1363 1.13659E+00
 -1      1364 1.04828E+00
 -1      1365 1.03523E+00
 -1      1366 1.04828E+00
 -1      1367 1.03517E+00
 -1      1368 1.03511E+00
 -1      1369 1.03517E+00
 -1      1370 1.01041E+00
 -1      1371 9.85714E-01
 -1      1372 1.01041E+00
 -1      1373 9.15699E-01
 -1      1374 8.45684E-01
 -1      1375 9.15699E-01
 -1      1376 7.72928E-01
 -1      1377 6.87381E-01
 -1      1378 7.72928E-01
 -1      1379 6.35922E-01
 -1      1380 5.68311E-01
 -1      1381 6.48713E-01
 -1      1382 5.21168E-01
 -1      1383 4.67648E-01
 -1      1384 5.50111E-01
 -1      1385 4.17675E-01
 -1      1386 3.86618E-01
 -1      1387 4.52996E-01
 -1      1388 3.39765E-01
 -1      1389 3.06837E-01
 -1      1390 3.56171E-01
 -1      1391 2.73123E-01
 -1      1392 2.41889E-01
 -1      1393 2.75604E-01
 -1      1394 2.15365E-01
 -1      1395 1.87708E-01
 -1      1396 2.15365E-01
 -1      1397 1.66683E-01
 -1      1398 1.43351E-01
 -1      1399 1.67815E-01
 -1      1400 1.25560E-01
 -1      1401 1.06594E-01
 -1      1402 1.29000E-01
 -1      1403 9.40292E-02
 -1      1404 8.60793E-02
 -1      1405 9.86445E-02
 -1      1406 7.84511E-02
 -1      1407 7.08229E-02
 -1      1408 7.84511E-02
 -1      1409 6.38877E-02
 -1      1410 5.69525E-02
 -1      1411 6.38877E-02
 -1      1412 5.09032E-02
 -1      1413 4.48539E-02
 -1      1414 5.09032E-02
 -1      1415 3.97421E-02
 -1      1416 3.46304E-02
 -1      1417 3.97421E-02
 -1      1418 3.05391E-02
 -1      1419 2.63306E-02
 -1      1420 3.05391E-02
 -1      1421 2.34432E-02
 -1      1422 2.04335E-02
 -1      1423 2.35605E-02
 -1      1424 1.84469E-02
 -1      1425 1.66999E-02
 -1      1426 1.86865E-02
 -1      1427 1.51090E-02
 -1      1428 1.35181E-02
 -1      1429 1.51090E-02
 -1      1430 1.21242E-02
 -1      1431 1.07303E-02
 -1      1432 1.21242E-02
 -1      1433 9.67572E-03
 -1      1434 8.49027E-03
 -1      1435 9.67572E-03
 -1      1436 7.60311E-03
 -1      1437 6.66943E-03
 -1      1438 7.73400E-03
 -1      1439 6.00356E-03
 -1      1440 5.26984E-03
 -1      1441 6.18098E-03
 -1      1442 4.71278E-03
 -1      1443 4.10547E-03
 -1      1444 4.95805E-03
 -1      1445 3.62265E-03
 -1      1446 3.12854E-03
 -1      1447 3.91817E-03
 -1      1448 2.71978E-03
 -1      1449 2.38392E-03
 -1      1450 3.02659E-03
 -1      1451 2.04429E-03
 -1      1452 1.86038E-03
 -1      1453 2.27820E-03
 -1      1454 1.61758E-03
 -1      1455 1.45296E-03
 -1      1456 1.69577E-03
 -1      1457 1.30487E-03
 -1      1458 1.15679E-03
 -1      1459 1.30487E-03
 -1      1460 1.01628E-03
 -1      1461 8.75774E-04
 -1      1462 1.01628E-03
 -1      1463 8.17081E-04
 -1      1464 7.58389E-04
 -1      1465 8.17081E-04
 -1      1466 6.24898E-04
 -1      1467 4.91408E-04
 -1      1468 6.24898E-04
 -1      1469 3.64729E-04
 -1      1470 3.64729E-04
 -1      1471 1.95251E+00
 -1      1472 7.18037E+00
 -1      1473 7.18037E+00
 -1      1474 1.29074E+00
 -1      1475 1.61391E+00
 -1      1476 1.81462E+00
 -1      1477 1.21312E+00
 -1      1478 1.10546E+00
 -1      1479 1.29074E+00
 -1      1480 1.65122E+00
 -1      1481 1.32079E+00
 -1      1482 1.21312E+00
 -1      1483 2.22392E+00
 -1      1484 1.98166E+00
 -1      1485 1.65122E+00
 -1      1486 3.19656E+00
 -1      1487 2.54645E+00
 -1      1488 2.30419E+00
 -1      1489 3.90367E+00
 -1      1490 3.76640E+00
 -1      1491 3.19656E+00
 -1      1492 4.28808E+00
 -1      1493 4.04094E+00
 -1      1494 3.90367E+00
 -1      1495 4.53522E+00
 -1      1496 4.53522E+00
 -1      1497 4.28808E+00
 -1      1498 3.49975E+00
 -1      1499 4.01748E+00
 -1      1500 4.01748E+00
 -1      1501 1.87208E+00
 -1      1502 2.68591E+00
 -1      1503 2.68591E+00
 -1      1504 1.23116E+00
 -1      1505 1.55050E+00
 -1      1506 1.55050E+00
 -1      1507 1.30773E+00
 -1      1508 1.23341E+00
 -1      1509 1.23116E+00
 -1      1510 1.43720E+00
 -1      1511 1.38206E+00
 -1      1512 1.30773E+00
 -1      1513 1.49235E+00
 -1      1514 1.49235E+00
 -1      1515 1.43720E+00
 -1      1516 1.38562E+00
 -1      1517 1.43899E+00
 -1      1518 1.43899E+00
 -1      1519 1.17855E+00
 -1      1520 1.28209E+00
 -1      1521 1.28209E+00
 -1      1522 9.87884E-01
 -1      1523 1.08322E+00
 -1      1524 1.08322E+00
 -1      1525 8.02729E-01
 -1      1526 9.00053E-01
 -1      1527 9.00053E-01
 -1      1528 6.28245E-01
 -1      1529 7.18923E-01
 -1      1530 7.28416E-01
 -1      1531 4.74540E-01
 -1      1532 5.52728E-01
 -1      1533 5.69093E-01
 -1      1534 3.52881E-01
 -1      1535 4.10659E-01
 -1      1536 4.29695E-01
 -1      1537 2.64017E-01
 -1      1538 3.02596E-01
 -1      1539 3.15529E-01
 -1      1540 1.98244E-01
 -1      1541 2.30517E-01
 -1      1542 2.31744E-01
 -1      1543 1.46036E-01
 -1      1544 1.72140E-01
 -1      1545 1.72140E-01
 -1      1546 1.05868E-01
 -1      1547 1.26418E-01
 -1      1548 1.26418E-01
 -1      1549 7.50327E-02
 -1      1550 9.08367E-02
 -1      1551 9.17694E-02
 -1      1552 5.20892E-02
 -1      1553 6.34986E-02
 -1      1554 6.52042E-02
 -1      1555 4.21981E-02
 -1      1556 4.63532E-02
 -1      1557 4.79341E-02
 -1      1558 3.44871E-02
 -1      1559 3.83426E-02
 -1      1560 3.83426E-02
 -1      1561 2.76349E-02
 -1      1562 3.10610E-02
 -1      1563 3.10610E-02
 -1      1564 2.17398E-02
 -1      1565 2.46874E-02
 -1      1566 2.46874E-02
 -1      1567 1.77306E-02
 -1      1568 1.97352E-02
 -1      1569 1.97352E-02
 -1      1570 1.54729E-02
 -1      1571 1.66018E-02
 -1      1572 1.66018E-02
 -1      1573 1.31263E-02
 -1      1574 1.42996E-02
 -1      1575 1.42996E-02
 -1      1576 1.08762E-02
 -1      1577 1.20012E-02
 -1      1578 1.20012E-02
 -1      1579 8.82807E-03
 -1      1580 9.85214E-03
 -1      1581 9.85214E-03
 -1      1582 7.08083E-03
 -1      1583 7.95445E-03
 -1      1584 7.95445E-03
 -1      1585 5.69571E-03
 -1      1586 6.38827E-03
 -1      1587 6.38827E-03
 -1      1588 4.49524E-03
 -1      1589 5.09548E-03
 -1      1590 5.09548E-03
 -1      1591 3.50522E-03
 -1      1592 4.01304E-03
 -1      1593 4.01304E-03
 -1      1594 2.67885E-03
 -1      1595 3.10100E-03
 -1      1596 3.12662E-03
 -1      1597 1.99361E-03
 -1      1598 2.34080E-03
 -1      1599 2.38436E-03
 -1      1600 1.46666E-03
 -1      1601 1.71386E-03
 -1      1602 1.76656E-03
 -1      1603 1.15167E-03
 -1      1604 1.29909E-03
 -1      1605 1.31924E-03
 -1      1606 8.72231E-04
 -1      1607 1.01195E-03
 -1      1608 1.01195E-03
 -1      1609 5.76020E-04
 -1      1610 7.25501E-04
 -1      1611 7.25501E-04
 -1      1612 3.71765E-04
 -1      1613 4.72517E-04
 -1      1614 4.75268E-04
 -1      1615 2.67045E-04
 -1      1616 1.91385E-04
 -1      1617 1.91385E-04
 -1      1618 1.79898E-04
 -1      1619 1.91385E-04
 -1      1620 2.20446E-04
 -1      1621 1.45218E-04
 -1      1622 1.78196E-04
 -1      1623 2.18745E-04
 -1      1624 9.54768E-05
 -1      1625 9.67249E-05
 -1      1626 1.68549E-04
 -1      1627 1.63450E-04
 -1      1628 1.40100E-04
 -1      1629 1.64680E-04
 -1      1630 2.06467E-04
 -1      1631 1.92502E-04
 -1      1632 2.38355E-04
 -1      1633 2.22358E-04
 -1      1634 2.18311E-04
 -1      1635 2.79252E-04
 -1      1636 2.22358E-04
 -1      1637 2.22358E-04
 -1      1638 2.91096E-04
 -1      1639 2.18047E-04
 -1      1640 2.22293E-04
 -1      1641 2.91031E-04
 -1      1642 1.90795E-04
 -1      1643 2.05416E-04
 -1      1644 2.78334E-04
 -1      1645 1.40145E-04
 -1      1646 1.62878E-04
 -1      1647 2.37786E-04
 -1      1648 9.80124E-05
 -1      1649 9.59250E-05
 -1      1650 1.65649E-04
 -1      1651 1.78385E-04
 -1      1652 1.46099E-04
 -1      1653 1.69516E-04
 -1      1654 2.16659E-04
 -1      1655 1.78385E-04
 -1      1656 2.17603E-04
 -1      1657 2.61275E-04
 -1      1658 2.50106E-04
 -1      1659 2.51050E-04
 -1      1660 3.87953E-04
 -1      1661 2.93720E+01
 -1      1662 2.93720E+01
 -1      1663 3.79548E+01
 -1      1664 2.75229E+01
 -1      1665 4.76194E+01
 -1      1666 4.76194E+01
 -1      1667 2.17201E+01
 -1      1668 3.51663E+01
 -1      1669 1.12494E+01
 -1      1670 1.56634E+01
 -1      1671 1.23328E+01
 -1      1672 1.18989E+01
 -1      1673 1.27666E+01
 -1      1674 1.27666E+01
 -1      1675 1.22233E+01
 -1      1676 1.24054E+01
 -1      1677 1.24024E+01
 -1      1678 1.24024E+01
 -1      1679 1.24363E+01
 -1      1680 1.21239E+01
 -1      1681 2.07387E+01
 -1      1682 1.30273E+01
 -1      1683 2.95867E+01
 -1      1684 2.90184E+01
 -1      1685 3.14824E+01
 -1      1686 3.17746E+01
 -1      1687 3.08735E+01
 -1      1688 3.14824E+01
 -1      1689 3.00135E+01
 -1      1690 3.06155E+01
 -1      1691 3.01613E+01
 -1      1692 2.99862E+01
 -1      1693 3.36474E+01
 -1      1694 2.93164E+01
 -1      1695 3.55927E+01
 -1      1696 3.55927E+01
 -1      1697 1.38885E+01
 -1      1698 2.47406E+01
 -1      1699 1.17132E+01
 -1      1700 1.22850E+01
 -1      1701 1.27448E+01
 -1      1702 1.27448E+01
 -1      1703 1.21050E+01
 -1      1704 1.24249E+01
 -1      1705 1.21219E+01
 -1      1706 1.19094E+01
 -1      1707 1.25300E+01
 -1      1708 1.25300E+01
 -1      1709 1.14794E+01
 -1      1710 1.19003E+01
 -1      1711 1.81834E+01
 -1      1712 1.16882E+01
 -1      1713 2.89412E+01
 -1      1714 2.55610E+01
 -1      1715 3.14390E+01
 -1      1716 3.14390E+01
 -1      1717 2.79260E+01
 -1      1718 3.11735E+01
 -1      1719 2.93720E+01
 -1      1720 2.84661E+01
 -1      1721 1.66566E+01
 -1      1722 3.51663E+01
 -1      1723 2.67045E-04
 -1      1724 2.96106E-04
 -1      1725 3.01392E+01
 -1      1726 3.79548E+01
 -1      1727 3.19883E+01
 -1      1728 1.12494E+01
 -1      1729 1.23328E+01
 -1      1730 1.24054E+01
 -1      1731 1.22233E+01
 -1      1732 1.21239E+01
 -1      1733 1.24363E+01
 -1      1734 2.13070E+01
 -1      1735 3.17746E+01
 -1      1736 3.39624E+01
 -1      1737 3.37045E+01
 -1      1738 3.34192E+01
 -1      1739 3.25470E+01
 -1      1740 3.36474E+01
 -1      1741 2.47406E+01
 -1      1742 1.22850E+01
 -1      1743 1.17132E+01
 -1      1744 1.24249E+01
 -1      1745 1.19094E+01
 -1      1746 1.21219E+01
 -1      1747 1.19003E+01
 -1      1748 1.14794E+01
 -1      1749 1.90658E+01
 -1      1750 2.89412E+01
 -1      1751 3.11735E+01
 -1      1752 3.14482E+01
 -1      1753 9.64383E+00
 -1      1754 2.42940E+00
 -1      1755 2.73288E+00
 -1      1756 3.15470E+00
 -1      1757 4.89834E+00
 -1      1758 2.66361E+00
 -1      1759 2.90126E+00
 -1      1760 2.66857E+00
 -1      1761 3.37847E+00
 -1      1762 3.25868E+00
 -1      1763 3.17535E+00
 -1      1764 3.55152E+00
 -1      1765 3.55152E+00
 -1      1766 3.70582E+00
 -1      1767 3.22105E+00
 -1      1768 3.55152E+00
 -1      1769 3.87887E+00
 -1      1770 3.18754E+00
 -1      1771 3.09942E+00
 -1      1772 3.75724E+00
 -1      1773 3.79809E+00
 -1      1774 3.42304E+00
 -1      1775 3.87110E+00
 -1      1776 3.79809E+00
 -1      1777 3.79809E+00
 -1      1778 4.10661E+00
 -1      1779 3.65803E+00
 -1      1780 3.70364E+00
 -1      1781 4.01216E+00
 -1      1782 3.17570E+00
 -1      1783 3.28893E+00
 -1      1784 3.54863E+00
 -1      1785 3.24052E+00
 -1      1786 3.01186E+00
 -1      1787 3.01569E+00
 -1      1788 3.59026E+00
 -1      1789 3.14110E+00
 -1      1790 2.75244E+00
 -1      1791 7.13847E+00
 -1      1792 3.29846E+00
 -1      1793 2.36123E+00
 -1      1794 2.11132E+00
 -1      1795 4.89834E+00
 -1      1796 1.49372E+00
 -1      1797 1.83232E+00
 -1      1798 1.79042E+00
 -1      1799 3.08543E+00
 -1      1800 1.62216E+00
 -1      1801 1.26854E+00
 -1      1802 1.17724E+00
 -1      1803 1.30794E+00
 -1      1804 1.17724E+00
 -1      1805 1.54644E+00
 -1      1806 1.85947E+00
 -1      1807 1.32444E+00
 -1      1808 2.07015E+00
 -1      1809 2.51761E+00
 -1      1810 1.77362E+00
 -1      1811 2.69856E+00
 -1      1812 3.01143E+00
 -1      1813 2.16524E+00
 -1      1814 3.00573E+00
 -1      1815 2.92695E+00
 -1      1816 2.34049E+00
 -1      1817 2.88740E+00
 -1      1818 2.89467E+00
 -1      1819 2.29523E+00
 -1      1820 2.83941E+00
 -1      1821 2.43194E+00
 -1      1822 2.20042E+00
 -1      1823 2.17966E+00
 -1      1824 1.69221E+00
 -1      1825 1.89288E+00
 -1      1826 1.48204E+00
 -1      1827 1.21606E+00
 -1      1828 1.43044E+00
 -1      1829 9.70301E-01
 -1      1830 8.95040E-01
 -1      1831 9.74510E-01
 -1      1832 8.40223E-01
 -1      1833 8.27173E-01
 -1      1834 6.73934E-01
 -1      1835 8.40443E-01
 -1      1836 8.40382E-01
 -1      1837 6.32387E-01
 -1      1838 9.01200E-01
 -1      1839 8.76503E-01
 -1      1840 7.06475E-01
 -1      1841 8.74628E-01
 -1      1842 8.04613E-01
 -1      1843 7.65417E-01
 -1      1844 7.66445E-01
 -1      1845 6.93689E-01
 -1      1846 7.25374E-01
 -1      1847 6.56891E-01
 -1      1848 6.05432E-01
 -1      1849 6.50408E-01
 -1      1850 5.71169E-01
 -1      1851 5.24026E-01
 -1      1852 5.79347E-01
 -1      1853 4.81630E-01
 -1      1854 4.31657E-01
 -1      1855 5.02687E-01
 -1      1856 3.87724E-01
 -1      1857 3.40871E-01
 -1      1858 4.16358E-01
 -1      1859 2.99887E-01
 -1      1860 2.66172E-01
 -1      1861 3.31440E-01
 -1      1862 2.30439E-01
 -1      1863 2.03915E-01
 -1      1864 2.54722E-01
 -1      1865 1.74252E-01
 -1      1866 1.53227E-01
 -1      1867 1.89326E-01
 -1      1868 1.29540E-01
 -1      1869 1.11749E-01
 -1      1870 1.35976E-01
 -1      1871 9.66671E-02
 -1      1872 8.41019E-02
 -1      1873 9.72067E-02
 -1      1874 7.25502E-02
 -1      1875 6.49219E-02
 -1      1876 7.05727E-02
 -1      1877 5.69667E-02
 -1      1878 5.00315E-02
 -1      1879 5.10657E-02
 -1      1880 4.64166E-02
 -1      1881 4.03672E-02
 -1      1882 3.94956E-02
 -1      1883 3.72143E-02
 -1      1884 3.21026E-02
 -1      1885 3.27277E-02
 -1      1886 2.92452E-02
 -1      1887 2.51539E-02
 -1      1888 2.67173E-02
 -1      1889 2.26595E-02
 -1      1890 1.97721E-02
 -1      1891 2.13655E-02
 -1      1892 1.76578E-02
 -1      1893 1.56712E-02
 -1      1894 1.67568E-02
 -1      1895 1.42927E-02
 -1      1896 1.27018E-02
 -1      1897 1.32640E-02
 -1      1898 1.17917E-02
 -1      1899 1.03978E-02
 -1      1900 1.09753E-02
 -1      1901 9.52460E-03
 -1      1902 8.47003E-03
 -1      1903 9.19207E-03
 -1      1904 7.69140E-03
 -1      1905 6.80425E-03
 -1      1906 7.54029E-03
 -1      1907 6.18939E-03
 -1      1908 5.52352E-03
 -1      1909 6.14679E-03
 -1      1910 4.97816E-03
 -1      1911 4.42110E-03
 -1      1912 4.98657E-03
 -1      1913 3.97365E-03
 -1      1914 3.49083E-03
 -1      1915 3.99376E-03
 -1      1916 3.12932E-03
 -1      1917 2.72056E-03
 -1      1918 3.18480E-03
 -1      1919 2.40423E-03
 -1      1920 2.06460E-03
 -1      1921 2.50696E-03
 -1      1922 1.79507E-03
 -1      1923 1.55226E-03
 -1      1924 1.92109E-03
 -1      1925 1.32834E-03
 -1      1926 1.18025E-03
 -1      1927 1.42764E-03
 -1      1928 1.00585E-03
 -1      1929 8.65344E-04
 -1      1930 1.02932E-03
 -1      1931 7.57661E-04
 -1      1932 6.98968E-04
 -1      1933 7.47231E-04
 -1      1934 5.93692E-04
 -1      1935 4.60201E-04
 -1      1936 3.56747E-04
 -1      1937 5.34272E-04
 -1      1938 9.89198E-01
 -1      1939 1.17447E+00
 -1      1940 1.19218E+00
 -1      1941 1.24903E+00
 -1      1942 1.14136E+00
 -1      1943 1.02510E+00
 -1      1944 1.97198E+00
 -1      1945 1.64154E+00
 -1      1946 1.56978E+00
 -1      1947 2.49703E+00
 -1      1948 2.17450E+00
 -1      1949 2.16482E+00
 -1      1950 3.09517E+00
 -1      1951 2.52533E+00
 -1      1952 2.39564E+00
 -1      1953 3.27093E+00
 -1      1954 3.13366E+00
 -1      1955 2.46243E+00
 -1      1956 3.53784E+00
 -1      1957 3.29070E+00
 -1      1958 2.52069E+00
 -1      1959 2.88818E+00
 -1      1960 3.40592E+00
 -1      1961 2.40854E+00
 -1      1962 1.64877E+00
 -1      1963 2.46261E+00
 -1      1964 1.85104E+00
 -1      1965 1.01985E+00
 -1      1966 1.34144E+00
 -1      1967 1.11813E+00
 -1      1968 1.04181E+00
 -1      1969 1.03956E+00
 -1      1970 8.30497E-01
 -1      1971 1.21759E+00
 -1      1972 1.14327E+00
 -1      1973 9.51662E-01
 -1      1974 1.28886E+00
 -1      1975 1.23372E+00
 -1      1976 1.06925E+00
 -1      1977 1.23709E+00
 -1      1978 1.29046E+00
 -1      1979 1.08697E+00
 -1      1980 1.08231E+00
 -1      1981 1.18584E+00
 -1      1982 1.03731E+00
 -1      1983 9.35018E-01
 -1      1984 1.03035E+00
 -1      1985 9.34106E-01
 -1      1986 7.80659E-01
 -1      1987 8.68489E-01
 -1      1988 8.15624E-01
 -1      1989 6.26241E-01
 -1      1990 7.10047E-01
 -1      1991 6.78484E-01
 -1      1992 4.84555E-01
 -1      1993 5.60072E-01
 -1      1994 5.41703E-01
 -1      1995 3.63118E-01
 -1      1996 4.26998E-01
 -1      1997 4.17977E-01
 -1      1998 2.65244E-01
 -1      1999 3.15529E-01
 -1      2000 3.12832E-01
 -1      2001 1.95590E-01
 -1      2002 2.29090E-01
 -1      2003 2.29090E-01
 -1      2004 1.45595E-01
 -1      2005 1.71699E-01
 -1      2006 1.69045E-01
 -1      2007 1.06801E-01
 -1      2008 1.26418E-01
 -1      2009 1.25977E-01
 -1      2010 7.67382E-02
 -1      2011 9.17694E-02
 -1      2012 9.17694E-02
 -1      2013 5.36702E-02
 -1      2014 6.52042E-02
 -1      2015 6.52042E-02
 -1      2016 3.92617E-02
 -1      2017 4.49977E-02
 -1      2018 4.49977E-02
 -1      2019 3.07621E-02
 -1      2020 3.46176E-02
 -1      2021 3.16812E-02
 -1      2022 2.53704E-02
 -1      2023 2.87965E-02
 -1      2024 2.50715E-02
 -1      2025 2.04996E-02
 -1      2026 2.34471E-02
 -1      2027 2.11826E-02
 -1      2028 1.67192E-02
 -1      2029 1.87239E-02
 -1      2030 1.74836E-02
 -1      2031 1.40165E-02
 -1      2032 1.51454E-02
 -1      2033 1.41340E-02
 -1      2034 1.15205E-02
 -1      2035 1.26938E-02
 -1      2036 1.12374E-02
 -1      2037 9.72894E-03
 -1      2038 1.08540E-02
 -1      2039 9.24816E-03
 -1      2040 8.02686E-03
 -1      2041 9.05094E-03
 -1      2042 7.90366E-03
 -1      2043 6.51088E-03
 -1      2044 7.38449E-03
 -1      2045 6.58329E-03
 -1      2046 5.28600E-03
 -1      2047 5.97857E-03
 -1      2048 5.40861E-03
 -1      2049 4.23189E-03
 -1      2050 4.83212E-03
 -1      2051 4.42241E-03
 -1      2052 3.35928E-03
 -1      2053 3.84148E-03
 -1      2054 3.57812E-03
 -1      2055 2.61385E-03
 -1      2056 3.01807E-03
 -1      2057 2.84651E-03
 -1      2058 1.98424E-03
 -1      2059 2.32229E-03
 -1      2060 2.21373E-03
 -1      2061 1.45959E-03
 -1      2062 1.73934E-03
 -1      2063 1.67727E-03
 -1      2064 1.09818E-03
 -1      2065 1.26575E-03
 -1      2066 1.23853E-03
 -1      2067 8.41892E-04
 -1      2068 9.81611E-04
 -1      2069 9.28122E-04
 -1      2070 5.78770E-04
 -1      2071 7.25501E-04
 -1      2072 6.95161E-04
 -1      2073 3.57126E-04
 -1      2074 4.60628E-04
 -1      2075 4.60628E-04
 -1      2076 2.81467E-04
 -1      2077 1.77036E-04
 -1      2078 2.25530E-04
 -1      2079 3.23158E-04
 -1      2080 3.24860E-04
 -1      2081 3.31645E-04
 -1      2082 3.24860E-04
 -1      2083 3.24860E-04
 -1      2084 3.85880E-04
 -1      2085 4.29273E-04
 -1      2086 2.45629E-04
 -1      2087 2.01006E-04
 -1      2088 2.57986E-04
 -1      2089 3.16865E-04
 -1      2090 2.87813E-04
 -1      2091 3.24140E-04
 -1      2092 3.49026E-04
 -1      2093 3.37182E-04
 -1      2094 3.86640E-04
 -1      2095 3.49026E-04
 -1      2096 3.49026E-04
 -1      2097 4.06957E-04
 -1      2098 3.48277E-04
 -1      2099 3.48342E-04
 -1      2100 4.06273E-04
 -1      2101 3.35646E-04
 -1      2102 3.48277E-04
 -1      2103 4.05589E-04
 -1      2104 2.88153E-04
 -1      2105 3.16070E-04
 -1      2106 3.86013E-04
 -1      2107 2.02166E-04
 -1      2108 2.46386E-04
 -1      2109 3.24671E-04
 -1      2110 2.26266E-04
 -1      2111 1.78179E-04
 -1      2112 2.58916E-04
 -1      2113 2.90448E-04
 -1      2114 2.90448E-04
 -1      2115 2.99111E-04
 -1      2116 3.79548E+01
 -1      2117 2.82901E+01
 -1      2118 3.19883E+01
 -1      2119 3.19883E+01
 -1      2120 2.68956E+01
 -1      2121 2.87448E+01
 -1      2122 2.68956E+01
 -1      2123 1.96153E+01
 -1      2124 3.20684E+01
 -1      2125 2.24038E+01
 -1      2126 1.06168E+01
 -1      2127 1.66735E+01
 -1      2128 2.60179E+00
 -1      2129 2.65070E+00
 -1      2130 2.46309E+00
 -1      2131 2.75116E+00
 -1      2132 1.10000E+01
 -1      2133 1.05661E+01
 -1      2134 1.17017E+01
 -1      2135 1.20629E+01
 -1      2136 1.15144E+01
 -1      2137 1.13354E+01
 -1      2138 1.09929E+01
 -1      2139 1.04984E+01
 -1      2140 1.07769E+01
 -1      2141 9.96234E+00
 -1      2142 9.37138E+00
 -1      2143 2.10110E+01
 -1      2144 1.27312E+01
 -1      2145 2.74398E+01
 -1      2146 2.52520E+01
 -1      2147 3.39624E+01
 -1      2148 3.39624E+01
 -1      2149 3.34465E+01
 -1      2150 3.37045E+01
 -1      2151 3.33919E+01
 -1      2152 3.34192E+01
 -1      2153 2.85431E+01
 -1      2154 2.93880E+01
 -1      2155 2.93880E+01
 -1      2156 2.86885E+01
 -1      2157 2.67432E+01
 -1      2158 1.36833E+01
 -1      2159 2.45354E+01
 -1      2160 1.76312E+01
 -1      2161 9.40867E+00
 -1      2162 1.10122E+01
 -1      2163 1.00904E+01
 -1      2164 9.05880E+00
 -1      2165 7.78592E+00
 -1      2166 1.12298E+01
 -1      2167 1.15497E+01
 -1      2168 1.11459E+01
 -1      2169 1.13414E+01
 -1      2170 1.13825E+01
 -1      2171 1.09744E+01
 -1      2172 1.04064E+01
 -1      2173 9.82815E+00
 -1      2174 1.04578E+01
 -1      2175 9.21491E+00
 -1      2176 9.00611E+00
 -1      2177 7.56361E+00
 -1      2178 1.86766E+01
 -1      2179 1.12991E+01
 -1      2180 2.49794E+01
 -1      2181 2.24816E+01
 -1      2182 3.09080E+01
 -1      2183 3.11735E+01
 -1      2184 2.99616E+01
 -1      2185 2.94214E+01
 -1      2186 2.99616E+01
 -1      2187 9.51904E+00
 -1      2188 8.86960E+00
 -1      2189 8.88648E+00
 -1      2190 8.18632E+00
 -1      2191 2.53060E+00
 -1      2192 9.88898E+00
 -1      2193 2.17698E+00
 -1      2194 3.15474E+01
 -1      2195 3.15474E+01
 -1      2196 2.83039E+01
 -1      2197 3.23895E-04
 -1      2198 1.35756E+01
 -1      2199 2.94214E+01
 -1      2200 2.47139E+01
 -1      2201 8.82572E+00
 -1      2202 9.31031E+00
 -1      2203 8.89537E+00
 -1      2204 1.08070E+01
 -1      2205 2.54703E+01
 -1      2206 2.23112E+01
 -1      2207 2.05114E+01
 -1      2208 3.34192E+01
 -1      2209 3.37045E+01
 -1      2210 2.74398E+01
 -1      2211 1.66762E+01
 -1      2212 9.66629E+00
 -1      2213 1.02963E+01
 -1      2214 8.02444E+00
 -1      2215 1.04663E+01
 -1      2216 1.47148E+01
 -1      2217 1.84508E+00
 -1      2218 2.16433E+00
 -1      2219 4.33469E+00
 -1      2220 4.16164E+00
 -1      2221 3.63414E+00
 -1      2222 3.27672E+00
 -1      2223 4.26301E+00
 -1      2224 4.54717E+00
 -1      2225 4.66880E+00
 -1      2226 4.78267E+00
 -1      2227 4.54717E+00
 -1      2228 5.45873E+00
 -1      2229 4.66547E+00
 -1      2230 4.66547E+00
 -1      2231 5.34154E+00
 -1      2232 4.44272E+00
 -1      2233 4.53716E+00
 -1      2234 5.09603E+00
 -1      2235 3.60996E+00
 -1      2236 3.97906E+00
 -1      2237 4.50405E+00
 -1      2238 2.87410E+00
 -1      2239 3.03794E+00
 -1      2240 3.46837E+00
 -1      2241 1.31705E+00
 -1      2242 1.16489E+00
 -1      2243 2.13703E+00
 -1      2244 1.17157E+00
 -1      2245 1.08027E+00
 -1      2246 7.85753E+00
 -1      2247 8.59503E+00
 -1      2248 1.08096E+00
 -1      2249 1.31946E+00
 -1      2250 1.07529E+00
 -1      2251 1.53133E+00
 -1      2252 1.74200E+00
 -1      2253 1.28784E+00
 -1      2254 1.85152E+00
 -1      2255 2.03247E+00
 -1      2256 1.60923E+00
 -1      2257 2.27044E+00
 -1      2258 2.26473E+00
 -1      2259 1.95672E+00
 -1      2260 2.24996E+00
 -1      2261 2.21041E+00
 -1      2262 2.17991E+00
 -1      2263 2.25639E+00
 -1      2264 2.20113E+00
 -1      2265 2.21112E+00
 -1      2266 1.90110E+00
 -1      2267 1.64882E+00
 -1      2268 1.95707E+00
 -1      2269 1.63213E+00
 -1      2270 1.42196E+00
 -1      2271 1.64034E+00
 -1      2272 1.28704E+00
 -1      2273 1.04128E+00
 -1      2274 1.48873E+00
 -1      2275 9.70420E-01
 -1      2276 9.15603E-01
 -1      2277 1.28295E+00
 -1      2278 7.70409E-01
 -1      2279 7.83679E-01
 -1      2280 1.06690E+00
 -1      2281 7.53642E-01
 -1      2282 8.14459E-01
 -1      2283 8.91664E-01
 -1      2284 7.86393E-01
 -1      2285 7.84518E-01
 -1      2286 8.33560E-01
 -1      2287 7.39214E-01
 -1      2288 7.01046E-01
 -1      2289 7.60189E-01
 -1      2290 6.69013E-01
 -1      2291 6.32215E-01
 -1      2292 6.82853E-01
 -1      2293 5.99416E-01
 -1      2294 5.65153E-01
 -1      2295 6.18021E-01
 -1      2296 5.23786E-01
 -1      2297 4.81389E-01
 -1      2298 5.43855E-01
 -1      2299 4.37827E-01
 -1      2300 3.93894E-01
 -1      2301 4.58926E-01
 -1      2302 3.52464E-01
 -1      2303 3.11479E-01
 -1      2304 3.73933E-01
 -1      2305 2.74559E-01
 -1      2306 2.38826E-01
 -1      2307 2.95583E-01
 -1      2308 2.07422E-01
 -1      2309 1.77758E-01
 -1      2310 2.27258E-01
 -1      2311 1.51995E-01
 -1      2312 1.28309E-01
 -1      2313 1.70091E-01
 -1      2314 1.07802E-01
 -1      2315 9.27200E-02
 -1      2316 1.23822E-01
 -1      2317 7.68301E-02
 -1      2318 6.52784E-02
 -1      2319 8.74257E-02
 -1      2320 5.32746E-02
 -1      2321 4.53194E-02
 -1      2322 5.95321E-02
 -1      2323 3.69687E-02
 -1      2324 3.33538E-02
 -1      2325 3.91776E-02
 -1      2326 2.86417E-02
 -1      2327 2.54887E-02
 -1      2328 2.61148E-02
 -1      2329 2.37732E-02
 -1      2330 2.09157E-02
 -1      2331 1.96871E-02
 -1      2332 1.97474E-02
 -1      2333 1.72530E-02
 -1      2334 1.68033E-02
 -1      2335 1.60464E-02
 -1      2336 1.39321E-02
 -1      2337 1.44284E-02
 -1      2338 1.27784E-02
 -1      2339 1.13998E-02
 -1      2340 1.20680E-02
 -1      2341 1.03511E-02
 -1      2342 9.44100E-03
 -1      2343 9.86550E-03
 -1      2344 8.72682E-03
 -1      2345 7.85366E-03
 -1      2346 8.10259E-03
 -1      2347 7.33350E-03
 -1      2348 6.55487E-03
 -1      2349 6.86824E-03
 -1      2350 6.03437E-03
 -1      2351 5.41951E-03
 -1      2352 5.82758E-03
 -1      2353 4.94628E-03
 -1      2354 4.40092E-03
 -1      2355 4.83385E-03
 -1      2356 4.00491E-03
 -1      2357 3.55746E-03
 -1      2358 3.96461E-03
 -1      2359 3.19742E-03
 -1      2360 2.83591E-03
 -1      2361 3.20856E-03
 -1      2362 2.51956E-03
 -1      2363 2.20322E-03
 -1      2364 2.53217E-03
 -1      2365 1.96171E-03
 -1      2366 1.69217E-03
 -1      2367 1.97431E-03
 -1      2368 1.48609E-03
 -1      2369 1.26218E-03
 -1      2370 1.52671E-03
 -1      2371 1.08588E-03
 -1      2372 9.11473E-04
 -1      2373 1.14433E-03
 -1      2374 7.71716E-04
 -1      2375 6.64033E-04
 -1      2376 8.28275E-04
 -1      2377 2.41839E+01
 -1      2378 2.27895E+01
 -1      2379 2.20448E+00
 -1      2380 2.00196E+00
 -1      2381 2.61263E+00
 -1      2382 2.58433E+00
 -1      2383 2.42147E+00
 -1      2384 3.66022E+00
 -1      2385 3.62172E+00
 -1      2386 3.81041E+00
 -1      2387 3.24726E+00
 -1      2388 3.22749E+00
 -1      2389 4.38678E+00
 -1      2390 2.20916E+00
 -1      2391 2.34109E+00
 -1      2392 3.04788E+00
 -1      2393 1.55393E+00
 -1      2394 1.97950E+00
 -1      2395 1.91205E+00
 -1      2396 1.14719E+00
 -1      2397 1.45453E+00
 -1      2398 1.58299E+00
 -1      2399 1.10224E+00
 -1      2400 1.08254E+00
 -1      2401 1.41894E+00
 -1      2402 1.09960E+00
 -1      2403 9.98138E-01
 -1      2404 1.25018E+00
 -1      2405 1.09486E+00
 -1      2406 1.07873E+00
 -1      2407 1.12520E+00
 -1      2408 1.07903E+00
 -1      2409 1.07743E+00
 -1      2410 1.08691E+00
 -1      2411 1.00011E+00
 -1      2412 1.05136E+00
 -1      2413 1.04182E+00
 -1      2414 8.89033E-01
 -1      2415 9.40986E-01
 -1      2416 9.55033E-01
 -1      2417 7.52857E-01
 -1      2418 8.19386E-01
 -1      2419 8.26266E-01
 -1      2420 6.11819E-01
 -1      2421 6.82430E-01
 -1      2422 6.86193E-01
 -1      2423 4.80535E-01
 -1      2424 5.46704E-01
 -1      2425 5.50651E-01
 -1      2426 3.66360E-01
 -1      2427 4.23917E-01
 -1      2428 4.28918E-01
 -1      2429 2.71651E-01
 -1      2430 3.19239E-01
 -1      2431 3.25179E-01
 -1      2432 1.98419E-01
 -1      2433 2.34573E-01
 -1      2434 2.40980E-01
 -1      2435 1.46286E-01
 -1      2436 1.70177E-01
 -1      2437 1.75659E-01
 -1      2438 1.05249E-01
 -1      2439 1.24425E-01
 -1      2440 1.25557E-01
 -1      2441 7.36750E-02
 -1      2442 8.87062E-02
 -1      2443 8.71542E-02
 -1      2444 5.21091E-02
 -1      2445 6.36431E-02
 -1      2446 6.05799E-02
 -1      2447 3.59884E-02
 -1      2448 4.46609E-02
 -1      2449 4.30998E-02
 -1      2450 2.70370E-02
 -1      2451 3.16812E-02
 -1      2452 3.13443E-02
 -1      2453 2.31060E-02
 -1      2454 2.50715E-02
 -1      2455 2.50715E-02
 -1      2456 1.92593E-02
 -1      2457 2.11826E-02
 -1      2458 2.11826E-02
 -1      2459 1.57079E-02
 -1      2460 1.74836E-02
 -1      2461 1.74836E-02
 -1      2462 1.25601E-02
 -1      2463 1.41340E-02
 -1      2464 1.41340E-02
 -1      2465 9.98028E-03
 -1      2466 1.13030E-02
 -1      2467 1.13030E-02
 -1      2468 8.58166E-03
 -1      2469 9.24816E-03
 -1      2470 9.31378E-03
 -1      2471 7.22566E-03
 -1      2472 7.90366E-03
 -1      2473 7.90366E-03
 -1      2474 5.94092E-03
 -1      2475 6.58329E-03
 -1      2476 6.58329E-03
 -1      2477 4.88293E-03
 -1      2478 5.41524E-03
 -1      2479 5.41524E-03
 -1      2480 3.96659E-03
 -1      2481 4.42047E-03
 -1      2482 4.42711E-03
 -1      2483 3.16405E-03
 -1      2484 3.55446E-03
 -1      2485 3.55252E-03
 -1      2486 2.46603E-03
 -1      2487 2.80724E-03
 -1      2488 2.78357E-03
 -1      2489 1.88854E-03
 -1      2490 2.18011E-03
 -1      2491 2.14084E-03
 -1      2492 1.40751E-03
 -1      2493 1.65240E-03
 -1      2494 1.61878E-03
 -1      2495 1.02141E-03
 -1      2496 1.21525E-03
 -1      2497 1.19038E-03
 -1      2498 7.73680E-04
 -1      2499 8.90251E-04
 -1      2500 8.66965E-04
 -1      2501 5.46713E-04
 -1      2502 6.63105E-04
 -1      2503 6.25233E-04
 -1      2504 5.04021E-04
 -1      2505 4.18146E-04
 -1      2506 3.75963E-04
 -1      2507 4.69964E-04
 -1      2508 4.49647E-04
 -1      2509 5.01471E-04
 -1      2510 3.62904E-04
 -1      2511 4.60533E-04
 -1      2512 4.15467E-04
 -1      2513 3.91497E-04
 -1      2514 5.20385E-04
 -1      2515 5.09473E-04
 -1      2516 4.70657E-04
 -1      2517 4.70657E-04
 -1      2518 5.33664E-04
 -1      2519 4.70007E-04
 -1      2520 4.70691E-04
 -1      2521 5.34391E-04
 -1      2522 4.70007E-04
 -1      2523 4.70007E-04
 -1      2524 5.34425E-04
 -1      2525 4.49881E-04
 -1      2526 4.69457E-04
 -1      2527 5.33876E-04
 -1      2528 3.76183E-04
 -1      2529 4.17949E-04
 -1      2530 5.01394E-04
 -1      2531 3.76014E-04
 -1      2532 4.00002E-04
 -1      2533 4.93281E-04
 -1      2534 4.07210E-04
 -1      2535 3.43028E-04
 -1      2536 4.84113E-04
 -1      2537 1.44471E+01
 -1      2538 2.03334E+01
 -1      2539 9.81515E+00
 -1      2540 1.27570E+01
 -1      2541 1.74822E+00
 -1      2542 1.35570E+00
 -1      2543 1.78787E+00
 -1      2544 3.96144E-04
 -1      2545 2.50147E+01
 -1      2546 2.65012E+01
 -1      2547 2.99616E+01
 -1      2548 2.79348E+01
 -1      2549 2.50147E+01
 -1      2550 7.79836E+00
 -1      2551 6.33904E+00
 -1      2552 2.71282E+01
 -1      2553 2.71555E+01
 -1      2554 4.41672E+00
 -1      2555 4.41672E+00
 -1      2556 4.87254E+00
 -1      2557 2.88490E+00
 -1      2558 1.97646E+00
 -1      2559 1.87949E+00
 -1      2560 2.46309E+00
 -1      2561 5.75028E+00
 -1      2562 6.87732E+00
 -1      2563 9.10839E+00
 -1      2564 9.47477E+00
 -1      2565 7.07695E+00
 -1      2566 9.53694E+00
 -1      2567 9.42536E+00
 -1      2568 8.97560E+00
 -1      2569 7.91269E+00
 -1      2570 9.32235E+00
 -1      2571 6.55345E+00
 -1      2572 1.56365E+01
 -1      2573 1.13955E+01
 -1      2574 8.28261E+00
 -1      2575 2.45744E+01
 -1      2576 1.80518E+01
 -1      2577 2.89181E+01
 -1      2578 2.91760E+01
 -1      2579 2.53841E+01
 -1      2580 2.93880E+01
 -1      2581 2.31243E+01
 -1      2582 1.17760E+01
 -1      2583 1.59291E+01
 -1      2584 7.60403E+00
 -1      2585 1.02752E+01
 -1      2586 8.57303E+00
 -1      2587 6.04518E+00
 -1      2588 6.39505E+00
 -1      2589 1.36677E+01
 -1      2590 9.86277E+00
 -1      2591 9.40247E+00
 -1      2592 9.57392E+00
 -1      2593 8.53300E+00
 -1      2594 7.54374E+00
 -1      2595 8.46839E+00
 -1      2596 7.63590E+00
 -1      2597 5.26966E+00
 -1      2598 6.09171E+00
 -1      2599 8.66304E+00
 -1      2600 6.57889E+00
 -1      2601 5.10699E+00
 -1      2602 2.26206E+01
 -1      2603 1.64265E+01
 -1      2604 2.18164E+00
 -1      2605 2.46064E+00
 -1      2606 2.75244E+00
 -1      2607 2.83454E+00
 -1      2608 5.20665E+00
 -1      2609 3.28187E+00
 -1      2610 2.82308E+00
 -1      2611 2.75631E+00
 -1      2612 1.49549E+00
 -1      2613 2.85186E+00
 -1      2614 5.24979E+00
 -1      2615 1.15744E+01
 -1      2616 5.40634E+00
 -1      2617 6.86902E+00
 -1      2618 2.55921E+01
 -1      2619 2.57853E+01
 -1      2620 2.62262E+01
 -1      2621 2.41994E+01
 -1      2622 1.82138E+01
 -1      2623 1.62272E+01
 -1      2624 4.15459E-04
 -1      2625 3.82607E-04
 -1      2626 4.26524E-04
 -1      2627 5.20735E-04
 -1      2628 4.71965E-04
 -1      2629 7.84517E+00
 -1      2630 7.02659E+00
 -1      2631 4.71965E-04
 -1      2632 5.86329E+00
 -1      2633 1.06866E+01
 -1      2634 1.98036E+01
 -1      2635 1.98036E+01
 -1      2636 1.67308E+01
 -1      2637 2.58905E+01
 -1      2638 2.13620E+01
 -1      2639 1.95995E+01
 -1      2640 2.87410E+00
 -1      2641 5.53415E+00
 -1      2642 7.28140E+00
 -1      2643 4.49284E+00
 -1      2644 4.94817E+00
 -1      2645 7.61595E+00
 -1      2646 1.27710E+01
 -1      2647 8.97971E+00
 -1      2648 6.59608E+00
 -1      2649 7.09525E+00
 -1      2650 1.04837E+01
 -1      2651 1.63390E+01
 -1      2652 1.50661E+01
 -1      2653 5.58337E+00
 -1      2654 2.68438E+00
 -1      2655 5.73294E+00
 -1      2656 7.05366E+00
 -1      2657 1.97880E+01
 -1      2658 6.00656E+00
 -1      2659 5.45220E-04
 -1      2660 5.03225E-04
 -1      2661 6.72541E+00
 -1      2662 6.84260E+00
 -1      2663 7.74445E+00
 -1      2664 7.74445E+00
 -1      2665 9.12832E+00
 -1      2666 4.93086E+00
 -1      2667 5.39452E+00
 -1      2668 3.47053E+00
 -1      2669 4.04255E+00
 -1      2670 4.93302E+00
 -1      2671 2.13703E+00
 -1      2672 2.81723E+00
 -1      2673 1.66116E+00
 -1      2674 1.62252E+00
 -1      2675 2.30271E+00
 -1      2676 6.86636E-04
 -1      2677 6.98069E-04
 -1      2678 8.08644E-04
 -1      2679 1.57640E+00
 -1      2680 1.78826E+00
 -1      2681 1.66312E+00
 -1      2682 1.77265E+00
 -1      2683 1.95168E+00
 -1      2684 2.41469E+00
 -1      2685 2.65266E+00
 -1      2686 2.46858E+00
 -1      2687 2.19468E+00
 -1      2688 2.17991E+00
 -1      2689 2.65266E+00
 -1      2690 3.12734E+00
 -1      2691 3.17332E+00
 -1      2692 3.14211E+00
 -1      2693 2.43029E+00
 -1      2694 2.13026E+00
 -1      2695 3.34651E+00
 -1      2696 1.88816E+00
 -1      2697 1.87146E+00
 -1      2698 2.36138E+00
 -1      2699 2.10688E+00
 -1      2700 1.97196E+00
 -1      2701 2.35470E+00
 -1      2702 2.17958E+00
 -1      2703 2.10872E+00
 -1      2704 2.79773E+00
 -1      2705 2.02362E+00
 -1      2706 1.87843E+00
 -1      2707 2.92025E+00
 -1      2708 1.66614E+00
 -1      2709 1.63610E+00
 -1      2710 2.62287E+00
 -1      2711 1.40559E+00
 -1      2712 1.37752E+00
 -1      2713 2.18006E+00
 -1      2714 1.18622E+00
 -1      2715 1.14092E+00
 -1      2716 1.75825E+00
 -1      2717 1.01830E+00
 -1      2718 9.86270E-01
 -1      2719 1.44433E+00
 -1      2720 8.93684E-01
 -1      2721 8.60885E-01
 -1      2722 1.22913E+00
 -1      2723 7.66142E-01
 -1      2724 7.24774E-01
 -1      2725 1.04180E+00
 -1      2726 6.36148E-01
 -1      2727 5.92586E-01
 -1      2728 8.58434E-01
 -1      2729 5.13917E-01
 -1      2730 4.72487E-01
 -1      2731 6.91139E-01
 -1      2732 4.05105E-01
 -1      2733 3.68185E-01
 -1      2734 5.45089E-01
 -1      2735 3.12033E-01
 -1      2736 2.80628E-01
 -1      2737 4.21555E-01
 -1      2738 2.34903E-01
 -1      2739 2.09140E-01
 -1      2740 3.19678E-01
 -1      2741 1.72672E-01
 -1      2742 1.52166E-01
 -1      2743 2.37484E-01
 -1      2744 1.23648E-01
 -1      2745 1.07758E-01
 -1      2746 1.72498E-01
 -1      2747 8.58853E-02
 -1      2748 7.38815E-02
 -1      2749 1.22107E-01
 -1      2750 5.74365E-02
 -1      2751 4.90858E-02
 -1      2752 8.37897E-02
 -1      2753 3.69813E-02
 -1      2754 3.22692E-02
 -1      2755 5.52402E-02
 -1      2756 2.35680E-02
 -1      2757 2.18524E-02
 -1      2758 3.44345E-02
 -1      2759 1.57682E-02
 -1      2760 1.45999E-02
 -1      2761 1.96491E-02
 -1      2762 1.26454E-02
 -1      2763 1.14388E-02
 -1      2764 1.16104E-02
 -1      2765 1.10969E-02
 -1      2766 9.94315E-03
 -1      2767 9.31395E-03
 -1      2768 9.44842E-03
 -1      2769 8.39969E-03
 -1      2770 8.47734E-03
 -1      2771 8.38830E-03
 -1      2772 7.67412E-03
 -1      2773 7.97122E-03
 -1      2774 7.58361E-03
 -1      2775 7.06344E-03
 -1      2776 7.86932E-03
 -1      2777 6.75409E-03
 -1      2778 6.23360E-03
 -1      2779 7.46946E-03
 -1      2780 5.81039E-03
 -1      2781 5.33716E-03
 -1      2782 6.73691E-03
 -1      2783 4.87071E-03
 -1      2784 4.47470E-03
 -1      2785 5.84725E-03
 -1      2786 4.01035E-03
 -1      2787 3.65031E-03
 -1      2788 4.91644E-03
 -1      2789 3.21530E-03
 -1      2790 2.89895E-03
 -1      2791 4.01709E-03
 -1      2792 2.51646E-03
 -1      2793 2.27495E-03
 -1      2794 3.19959E-03
 -1      2795 1.95091E-03
 -1      2796 1.74483E-03
 -1      2797 2.49306E-03
 -1      2798 1.46479E-03
 -1      2799 1.28849E-03
 -1      2800 1.88899E-03
 -1      2801 8.64873E-04
 -1      2802 7.25115E-04
 -1      2803 1.18533E-03
 -1      2804 4.42091E+00
 -1      2805 5.62989E+00
 -1      2806 3.70224E+00
 -1      2807 3.32239E+00
 -1      2808 3.04788E+00
 -1      2809 3.95405E+00
 -1      2810 2.31640E+00
 -1      2811 2.54606E+00
 -1      2812 3.45224E+00
 -1      2813 2.09840E+00
 -1      2814 2.19780E+00
 -1      2815 2.83182E+00
 -1      2816 2.35058E+00
 -1      2817 2.41523E+00
 -1      2818 3.03005E+00
 -1      2819 1.52296E+00
 -1      2820 1.62707E+00
 -1      2821 2.62336E+00
 -1      2822 1.37558E+00
 -1      2823 1.39645E+00
 -1      2824 1.77334E+00
 -1      2825 1.21746E+00
 -1      2826 1.23488E+00
 -1      2827 1.50613E+00
 -1      2828 1.08228E+00
 -1      2829 1.10995E+00
 -1      2830 1.25792E+00
 -1      2831 9.54289E-01
 -1      2832 1.01341E+00
 -1      2833 1.08154E+00
 -1      2834 8.07047E-01
 -1      2835 8.76693E-01
 -1      2836 9.35069E-01
 -1      2837 6.60284E-01
 -1      2838 7.30711E-01
 -1      2839 7.81138E-01
 -1      2840 5.25439E-01
 -1      2841 5.90553E-01
 -1      2842 6.35072E-01
 -1      2843 4.08077E-01
 -1      2844 4.64695E-01
 -1      2845 5.04598E-01
 -1      2846 3.09829E-01
 -1      2847 3.56951E-01
 -1      2848 3.92728E-01
 -1      2849 2.30869E-01
 -1      2850 2.67947E-01
 -1      2851 2.99719E-01
 -1      2852 1.69088E-01
 -1      2853 1.97330E-01
 -1      2854 2.24298E-01
 -1      2855 1.20909E-01
 -1      2856 1.42769E-01
 -1      2857 1.64440E-01
 -1      2858 8.40994E-02
 -1      2859 1.00642E-01
 -1      2860 1.17854E-01
 -1      2861 5.87499E-02
 -1      2862 6.87817E-02
 -1      2863 8.22694E-02
 -1      2864 3.99451E-02
 -1      2865 4.73933E-02
 -1      2866 5.55952E-02
 -1      2867 2.73916E-02
 -1      2868 3.16988E-02
 -1      2869 3.59923E-02
 -1      2870 2.06015E-02
 -1      2871 2.25671E-02
 -1      2872 2.29216E-02
 -1      2873 1.60403E-02
 -1      2874 1.79636E-02
 -1      2875 1.54592E-02
 -1      2876 1.35727E-02
 -1      2877 1.53484E-02
 -1      2878 1.21294E-02
 -1      2879 1.12149E-02
 -1      2880 1.27888E-02
 -1      2881 1.06536E-02
 -1      2882 9.16784E-03
 -1      2883 1.04250E-02
 -1      2884 9.07969E-03
 -1      2885 7.81511E-03
 -1      2886 8.54723E-03
 -1      2887 7.66917E-03
 -1      2888 6.70451E-03
 -1      2889 7.38251E-03
 -1      2890 6.61596E-03
 -1      2891 5.59996E-03
 -1      2892 6.24233E-03
 -1      2893 5.72119E-03
 -1      2894 4.62300E-03
 -1      2895 5.14868E-03
 -1      2896 4.80772E-03
 -1      2897 3.78903E-03
 -1      2898 4.25149E-03
 -1      2899 3.98492E-03
 -1      2900 3.07441E-03
 -1      2901 3.48654E-03
 -1      2902 3.31092E-03
 -1      2903 2.43202E-03
 -1      2904 2.78883E-03
 -1      2905 2.72286E-03
 -1      2906 1.88800E-03
 -1      2907 2.17392E-03
 -1      2908 2.17918E-03
 -1      2909 1.44313E-03
 -1      2910 1.67926E-03
 -1      2911 1.71235E-03
 -1      2912 1.06884E-03
 -1      2913 1.26110E-03
 -1      2914 1.32159E-03
 -1      2915 9.66432E-04
 -1      2916 1.09759E-03
 -1      2917 1.16831E-03
 -1      2918 1.03927E-03
 -1      2919 4.02574E+00
 -1      2920 3.73188E+00
 -1      2921 5.32272E+00
 -1      2922 7.29270E+00
 -1      2923 6.06429E-04
 -1      2924 6.06394E-04
 -1      2925 6.04187E-04
 -1      2926 5.72686E-04
 -1      2927 6.10187E-04
 -1      2928 6.10187E-04
 -1      2929 6.82191E-04
 -1      2930 6.06394E-04
 -1      2931 6.05702E-04
 -1      2932 6.76918E-04
 -1      2933 6.78432E-04
 -1      2934 6.09637E-04
 -1      2935 6.10187E-04
 -1      2936 6.85949E-04
 -1      2937 5.66335E-04
 -1      2938 5.98267E-04
 -1      2939 6.74578E-04
 -1      2940 6.67179E-04
 -1      2941 6.43359E-04
 -1      2942 7.40233E-04
 -1      2943 6.09590E-04
 -1      2944 6.34192E-04
 -1      2945 7.52887E-04
 -1      2946 1.73233E+01
 -1      2947 1.34426E+01
 -1      2948 2.13304E+01
 -1      2949 1.84102E+01
 -1      2950 1.76105E+01
 -1      2951 2.31249E+01
 -1      2952 2.85679E+00
 -1      2953 4.60317E+00
 -1      2954 5.58337E+00
 -1      2955 2.15885E+00
 -1      2956 1.90511E+00
 -1      2957 2.03214E+00
 -1      2958 3.43963E+00
 -1      2959 6.31468E+00
 -1      2960 6.23264E+00
 -1      2961 5.27712E+00
 -1      2962 5.70985E+00
 -1      2963 1.07529E+00
 -1      2964 1.07598E+00
 -1      2965 1.57640E+00
 -1      2966 5.15718E+00
 -1      2967 4.29814E+00
 -1      2968 2.75631E+00
 -1      2969 6.51135E+00
 -1      2970 6.63966E+00
 -1      2971 6.93816E+00
 -1      2972 5.84619E+00
 -1      2973 6.78027E+00
 -1      2974 6.07959E+00
 -1      2975 5.55209E+00
 -1      2976 7.52173E+00
 -1      2977 1.82679E+01
 -1      2978 1.36663E+01
 -1      2979 6.50313E+00
 -1      2980 4.87614E+00
 -1      2981 8.56215E+00
 -1      2982 6.48905E+00
 -1      2983 4.40149E+00
 -1      2984 1.94925E+01
 -1      2985 1.72327E+01
 -1      2986 7.91761E+00
 -1      2987 9.60765E+00
 -1      2988 6.21374E+00
 -1      2989 6.57503E+00
 -1      2990 8.07579E+00
 -1      2991 5.13264E+00
 -1      2992 7.43872E+00
 -1      2993 6.23899E+00
 -1      2994 1.18535E+01
 -1      2995 9.43823E+00
 -1      2996 1.03335E+01
 -1      2997 6.73528E+00
 -1      2998 6.69830E+00
 -1      2999 4.94557E+00
 -1      3000 1.16861E+01
 -1      3001 8.92734E+00
 -1      3002 5.27153E+00
 -1      3003 4.46836E+00
 -1      3004 5.12547E+00
 -1      3005 3.81624E+00
 -1      3006 7.74445E+00
 -1      3007 7.49237E+00
 -1      3008 8.85248E+00
 -1      3009 1.00302E+01
 -1      3010 1.13738E+01
 -1      3011 1.52244E+01
 -1      3012 8.60483E+00
 -1      3013 3.45283E+00
 -1      3014 4.90487E+00
 -1      3015 3.88356E+00
 -1      3016 3.42992E+00
 -1      3017 5.70015E+00
 -1      3018 1.02554E+01
 -1      3019 1.51088E+01
 -1      3020 1.26415E+01
 -1      3021 3.49848E+00
 -1      3022 3.74788E+00
 -1      3023 4.31164E+00
 -1      3024 4.94824E+00
 -1      3025 7.15229E-04
 -1      3026 5.55107E+00
 -1      3027 7.64466E+00
 -1      3028 3.33640E+00
 -1      3029 3.91216E+00
 -1      3030 3.43975E+00
 -1      3031 1.78036E+01
 -1      3032 7.89485E-04
 -1      3033 4.57776E+00
 -1      3034 3.65985E+00
 -1      3035 7.80993E+00
 -1      3036 9.80793E+00
 -1      3037 1.02179E+01
 -1      3038 7.55912E-04
 -1      3039 6.53196E-04
 -1      3040 6.92700E-04
 -1      3041 7.55038E+00
 -1      3042 1.75950E+01
 -1      3043 8.14073E+00
 -1      3044 6.67179E-04
 -1      3045 8.17257E-04
 -1      3046 1.36390E+01
 -1      3047 1.43902E+01
 -1      3048 1.18826E+01
 -1      3049 1.02179E+01
 -1      3050 1.39120E+01
 -1      3051 1.59677E+01
 -1      3052 2.85679E+00
 -1      3053 5.16128E+00
 -1      3054 4.46836E+00
 -1      3055 6.24550E+00
 -1      3056 5.35516E+00
 -1      3057 4.34607E+00
 -1      3058 6.74056E+00
 -1      3059 2.57397E+00
 -1      3060 2.50204E+00
 -1      3061 1.69715E+00
 -1      3062 3.17566E+00
 -1      3063 1.07955E+01
 -1      3064 4.04924E+00
 -1      3065 6.22720E+00
 -1      3066 5.24699E+00
 -1      3067 3.47132E+00
 -1      3068 3.43097E+00
 -1      3069 1.69784E+00
 -1      3070 5.27712E+00
 -1      3071 3.83822E+00
 -1      3072 4.72884E+00
 -1      3073 5.61715E+00
 -1      3074 3.25855E+00
 -1      3075 4.98492E+00
 -1      3076 3.87140E+00
 -1      3077 9.65069E+00
 -1      3078 7.83796E+00
 -1      3079 4.88436E+00
 -1      3080 5.50927E+00
 -1      3081 6.17180E+00
 -1      3082 4.17891E+00
 -1      3083 8.60843E+00
 -1      3084 8.45538E+00
 -1      3085 2.10188E+00
 -1      3086 2.74393E+00
 -1      3087 3.02113E+00
 -1      3088 3.96856E+00
 -1      3089 4.54005E+00
 -1      3090 3.79702E+00
 -1      3091 2.60348E+00
 -1      3092 2.36138E+00
 -1      3093 3.01368E+00
 -1      3094 3.24909E+00
 -1      3095 3.14532E+00
 -1      3096 3.35294E+00
 -1      3097 3.80430E+00
 -1      3098 3.00534E+00
 -1      3099 2.92025E+00
 -1      3100 3.35294E+00
 -1      3101 2.83516E+00
 -1      3102 2.62287E+00
 -1      3103 2.92025E+00
 -1      3104 2.41057E+00
 -1      3105 2.18006E+00
 -1      3106 2.62287E+00
 -1      3107 1.94955E+00
 -1      3108 1.75825E+00
 -1      3109 2.18006E+00
 -1      3110 1.56695E+00
 -1      3111 1.44433E+00
 -1      3112 1.75825E+00
 -1      3113 1.27812E+00
 -1      3114 1.18553E+00
 -1      3115 1.40073E+00
 -1      3116 1.06136E+00
 -1      3117 9.66618E-01
 -1      3118 1.11034E+00
 -1      3119 8.68366E-01
 -1      3120 7.79739E-01
 -1      3121 8.87923E-01
 -1      3122 6.95530E-01
 -1      3123 6.16862E-01
 -1      3124 7.05462E-01
 -1      3125 5.46545E-01
 -1      3126 4.79163E-01
 -1      3127 5.50936E-01
 -1      3128 4.21605E-01
 -1      3129 3.65453E-01
 -1      3130 4.23061E-01
 -1      3131 3.19678E-01
 -1      3132 2.73952E-01
 -1      3133 3.19728E-01
 -1      3134 2.37484E-01
 -1      3135 2.01016E-01
 -1      3136 2.37484E-01
 -1      3137 1.72498E-01
 -1      3138 1.43980E-01
 -1      3139 1.72498E-01
 -1      3140 1.22107E-01
 -1      3141 1.00235E-01
 -1      3142 1.22107E-01
 -1      3143 8.37897E-02
 -1      3144 6.73447E-02
 -1      3145 8.37897E-02
 -1      3146 5.55724E-02
 -1      3147 4.34679E-02
 -1      3148 5.55724E-02
 -1      3149 3.50544E-02
 -1      3150 2.63532E-02
 -1      3151 3.53866E-02
 -1      3152 2.04071E-02
 -1      3153 1.43229E-02
 -1      3154 2.10270E-02
 -1      3155 1.02481E-02
 -1      3156 8.29359E-03
 -1      3157 1.10061E-02
 -1      3158 7.67064E-03
 -1      3159 7.32876E-03
 -1      3160 6.30839E-03
 -1      3161 8.18704E-03
 -1      3162 7.69231E-03
 -1      3163 6.54373E-03
 -1      3164 7.97122E-03
 -1      3165 7.95984E-03
 -1      3166 7.68093E-03
 -1      3167 7.86932E-03
 -1      3168 7.77880E-03
 -1      3169 7.86932E-03
 -1      3170 7.46946E-03
 -1      3171 7.16011E-03
 -1      3172 7.46946E-03
 -1      3173 6.73691E-03
 -1      3174 6.31370E-03
 -1      3175 6.73691E-03
 -1      3176 5.84725E-03
 -1      3177 5.38080E-03
 -1      3178 5.84725E-03
 -1      3179 4.91644E-03
 -1      3180 4.45209E-03
 -1      3181 4.91644E-03
 -1      3182 4.01709E-03
 -1      3183 3.58208E-03
 -1      3184 4.01709E-03
 -1      3185 3.19959E-03
 -1      3186 2.81710E-03
 -1      3187 3.19959E-03
 -1      3188 2.49942E-03
 -1      3189 2.17538E-03
 -1      3190 2.49942E-03
 -1      3191 1.91231E-03
 -1      3192 1.63228E-03
 -1      3193 1.91867E-03
 -1      3194 1.32805E+01
 -1      3195 1.41823E+01
 -1      3196 4.37408E+00
 -1      3197 3.33640E+00
 -1      3198 2.62336E+00
 -1      3199 3.34687E+00
 -1      3200 2.01652E+00
 -1      3201 2.14302E+00
 -1      3202 2.86654E+00
 -1      3203 1.58520E+00
 -1      3204 1.72590E+00
 -1      3205 2.09559E+00
 -1      3206 1.32289E+00
 -1      3207 1.43039E+00
 -1      3208 1.65017E+00
 -1      3209 1.10532E+00
 -1      3210 1.17419E+00
 -1      3211 1.34667E+00
 -1      3212 9.03866E-01
 -1      3213 9.81461E-01
 -1      3214 1.07412E+00
 -1      3215 7.28601E-01
 -1      3216 8.04937E-01
 -1      3217 8.51329E-01
 -1      3218 5.76290E-01
 -1      3219 6.46020E-01
 -1      3220 6.69819E-01
 -1      3221 4.48267E-01
 -1      3222 5.09011E-01
 -1      3223 5.19959E-01
 -1      3224 3.44799E-01
 -1      3225 3.95926E-01
 -1      3226 4.00339E-01
 -1      3227 2.61596E-01
 -1      3228 3.03478E-01
 -1      3229 3.06676E-01
 -1      3230 1.95238E-01
 -1      3231 2.28776E-01
 -1      3232 2.32536E-01
 -1      3233 1.43076E-01
 -1      3234 1.69396E-01
 -1      3235 1.73874E-01
 -1      3236 1.02685E-01
 -1      3237 1.22951E-01
 -1      3238 1.27907E-01
 -1      3239 7.18954E-02
 -1      3240 8.72131E-02
 -1      3241 9.23105E-02
 -1      3242 4.88166E-02
 -1      3243 6.01732E-02
 -1      3244 6.51169E-02
 -1      3245 3.18320E-02
 -1      3246 4.00783E-02
 -1      3247 4.46563E-02
 -1      3248 2.06119E-02
 -1      3249 2.54363E-02
 -1      3250 2.95223E-02
 -1      3251 1.33909E-02
 -1      3252 1.60288E-02
 -1      3253 1.85435E-02
 -1      3254 9.96670E-03
 -1      3255 1.06585E-02
 -1      3256 1.12282E-02
 -1      3257 8.94581E-03
 -1      3258 9.72981E-03
 -1      3259 8.25891E-03
 -1      3260 8.00793E-03
 -1      3261 8.79784E-03
 -1      3262 7.87405E-03
 -1      3263 7.04856E-03
 -1      3264 7.66917E-03
 -1      3265 7.38732E-03
 -1      3266 6.18337E-03
 -1      3267 6.61596E-03
 -1      3268 6.61596E-03
 -1      3269 5.25901E-03
 -1      3270 5.72119E-03
 -1      3271 5.72119E-03
 -1      3272 4.44302E-03
 -1      3273 4.89431E-03
 -1      3274 4.89431E-03
 -1      3275 3.75195E-03
 -1      3276 4.12346E-03
 -1      3277 4.21005E-03
 -1      3278 3.12695E-03
 -1      3279 3.42943E-03
 -1      3280 3.56798E-03
 -1      3281 2.53667E-03
 -1      3282 2.82225E-03
 -1      3283 2.94076E-03
 -1      3284 2.00303E-03
 -1      3285 2.26113E-03
 -1      3286 2.36052E-03
 -1      3287 1.55332E-03
 -1      3288 1.76206E-03
 -1      3289 1.84401E-03
 -1      3290 1.16892E-03
 -1      3291 1.35094E-03
 -1      3292 1.40066E-03
 -1      3293 3.44374E+00
 -1      3294 2.59334E+00
 -1      3295 8.58951E-04
 -1      3296 7.62843E-04
 -1      3297 7.62843E-04
 -1      3298 7.46454E-04
 -1      3299 7.42696E-04
 -1      3300 8.23348E-04
 -1      3301 5.47737E+00
 -1      3302 4.25985E+00
 -1      3303 2.73031E+00
 -1      3304 3.41934E+00
 -1      3305 2.51420E+00
 -1      3306 8.56976E-04
 -1      3307 8.68346E-04
 -1      3308 9.45241E-04
 -1      3309 3.73453E+00
 -1      3310 4.74560E+00
 -1      3311 2.53266E+00
 -1      3312 1.91080E+00
 -1      3313 2.41121E+00
 -1      3314 3.38861E+00
 -1      3315 3.62462E+00
 -1      3316 3.30780E+00
 -1      3317 3.13995E+00
 -1      3318 3.25855E+00
 -1      3319 1.18432E+01
 -1      3320 1.07562E+01
 -1      3321 7.53519E+00
 -1      3322 6.04658E+00
 -1      3323 3.30482E+00
 -1      3324 2.20465E+00
 -1      3325 2.07951E+00
 -1      3326 2.35486E+00
 -1      3327 2.53905E+00
 -1      3328 6.48825E+00
 -1      3329 7.60508E+00
 -1      3330 1.25735E+01
 -1      3331 1.22624E+01
 -1      3332 1.67462E+01
 -1      3333 1.06245E+01
 -1      3334 7.21548E+00
 -1      3335 6.33941E+00
 -1      3336 5.04819E+00
 -1      3337 6.53270E+00
 -1      3338 1.40828E+01
 -1      3339 1.67432E+01
 -1      3340 6.26610E+00
 -1      3341 8.03228E+00
 -1      3342 4.93672E+00
 -1      3343 1.18155E+01
 -1      3344 3.50382E+00
 -1      3345 4.44896E+00
 -1      3346 1.37186E+01
 -1      3347 1.67432E+01
 -1      3348 1.38742E+01
 -1      3349 1.30224E+01
 -1      3350 2.75214E+00
 -1      3351 3.36589E+00
 -1      3352 4.05001E+00
 -1      3353 2.23762E+00
 -1      3354 9.76814E+00
 -1      3355 8.01164E+00
 -1      3356 7.97234E+00
 -1      3357 8.18358E+00
 -1      3358 8.06800E+00
 -1      3359 5.84485E+00
 -1      3360 4.96973E+00
 -1      3361 6.50783E+00
 -1      3362 1.18155E+01
 -1      3363 3.47910E+00
 -1      3364 3.81044E+00
 -1      3365 6.78684E+00
 -1      3366 5.70015E+00
 -1      3367 4.03161E+00
 -1      3368 5.05470E+00
 -1      3369 4.49506E+00
 -1      3370 3.79702E+00
 -1      3371 3.42588E+00
 -1      3372 1.37319E-03
 -1      3373 9.49574E-04
 -1      3374 3.62462E+00
 -1      3375 1.16831E-03
 -1      3376 1.19767E-03
 -1      3377 1.19706E-03
 -1      3378 1.03927E-03
 -1      3379 1.19706E-03
 -1      3380 1.01674E-03
 -1      3381 4.04113E+00
 -1      3382 7.16849E-04
 -1      3383 7.97359E-04
 -1      3384 9.77676E-04
 -1      3385 8.09156E-04
 -1      3386 7.44893E-04
 -1      3387 7.44893E-04
 -1      3388 1.14906E+01
 -1      3389 1.04302E+01
 -1      3390 8.98895E+00
 -1      3391 2.73566E+00
 -1      3392 1.01006E+01
 -1      3393 9.77346E-04
 -1      3394 9.77346E-04
 -1      3395 9.54208E+00
 -1      3396 9.34001E-04
 -1      3397 8.56976E-04
 -1      3398 1.02330E+01
 -1      3399 7.44893E-04
 -1      3400 7.43378E-04
 -1      3401 7.84824E-04
 -1      3402 8.11353E-04
 -1      3403 2.95042E+00
 -1      3404 1.09914E+01
 -1      3405 3.23112E+00
 -1      3406 3.13428E+00
 -1      3407 2.77088E+00
 -1      3408 2.98717E+00
 -1      3409 8.57886E+00
 -1      3410 1.05074E-03
 -1      3411 3.43660E+00
 -1      3412 1.09409E-03
 -1      3413 8.60843E+00
 -1      3414 6.28407E+00
 -1      3415 1.00380E+01
 -1      3416 8.00700E+00
 -1      3417 3.38861E+00
 -1      3418 1.39652E-03
 -1      3419 4.38617E+00
 -1      3420 4.03857E+00
 -1      3421 3.29797E+00
 -1      3422 3.21288E+00
 -1      3423 4.33120E+00
 -1      3424 2.66982E+00
 -1      3425 2.45753E+00
 -1      3426 3.04754E+00
 -1      3427 2.04640E+00
 -1      3428 1.81589E+00
 -1      3429 2.09336E+00
 -1      3430 1.56961E+00
 -1      3431 1.37831E+00
 -1      3432 1.43595E+00
 -1      3433 1.23120E+00
 -1      3434 1.06498E+00
 -1      3435 1.04256E+00
 -1      3436 9.77306E-01
 -1      3437 8.53138E-01
 -1      3438 8.07775E-01
 -1      3439 7.78766E-01
 -1      3440 6.80514E-01
 -1      3441 6.45728E-01
 -1      3442 6.19349E-01
 -1      3443 5.35140E-01
 -1      3444 5.10192E-01
 -1      3445 4.85288E-01
 -1      3446 4.14971E-01
 -1      3447 3.99175E-01
 -1      3448 3.74638E-01
 -1      3449 3.17080E-01
 -1      3450 3.08990E-01
 -1      3451 2.84702E-01
 -1      3452 2.38927E-01
 -1      3453 2.36279E-01
 -1      3454 2.13180E-01
 -1      3455 1.76712E-01
 -1      3456 1.78155E-01
 -1      3457 1.56468E-01
 -1      3458 1.27950E-01
 -1      3459 1.32164E-01
 -1      3460 1.12238E-01
 -1      3461 9.03652E-02
 -1      3462 9.62077E-02
 -1      3463 7.83483E-02
 -1      3464 6.19032E-02
 -1      3465 6.84788E-02
 -1      3466 5.29407E-02
 -1      3467 4.11684E-02
 -1      3468 4.74993E-02
 -1      3469 3.49332E-02
 -1      3470 2.65197E-02
 -1      3471 3.23015E-02
 -1      3472 2.19280E-02
 -1      3473 1.59819E-02
 -1      3474 2.14746E-02
 -1      3475 1.26720E-02
 -1      3476 8.59725E-03
 -1      3477 1.35730E-02
 -1      3478 6.27142E-03
 -1      3479 5.64848E-03
 -1      3480 7.93734E-03
 -1      3481 4.44770E-03
 -1      3482 5.30598E-03
 -1      3483 4.41073E-03
 -1      3484 5.13533E-03
 -1      3485 5.41424E-03
 -1      3486 3.03930E-03
 -1      3487 5.62735E-03
 -1      3488 5.53683E-03
 -1      3489 3.08175E-03
 -1      3490 5.55812E-03
 -1      3491 5.24877E-03
 -1      3492 3.31614E-03
 -1      3493 5.15226E-03
 -1      3494 4.72906E-03
 -1      3495 3.24092E-03
 -1      3496 4.56696E-03
 -1      3497 4.10050E-03
 -1      3498 2.98231E-03
 -1      3499 3.91770E-03
 -1      3500 3.45334E-03
 -1      3501 2.63740E-03
 -1      3502 3.29880E-03
 -1      3503 2.86380E-03
 -1      3504 2.30005E-03
 -1      3505 2.69734E-03
 -1      3506 2.31485E-03
 -1      3507 1.97906E-03
 -1      3508 2.15091E-03
 -1      3509 1.83323E-03
 -1      3510 1.64866E-03
 -1      3511 1.68353E-03
 -1      3512 1.42047E-03
 -1      3513 1.33503E-03
 -1      3514 8.66461E+00
 -1      3515 3.76338E+00
 -1      3516 1.35317E-03
 -1      3517 9.92061E-04
 -1      3518 9.75672E-04
 -1      3519 2.23869E+00
 -1      3520 2.52930E+00
 -1      3521 3.13184E+00
 -1      3522 3.61218E+00
 -1      3523 3.27494E+00
 -1      3524 1.33521E+00
 -1      3525 1.48390E+00
 -1      3526 1.03618E+00
 -1      3527 1.16004E+00
 -1      3528 1.29727E+00
 -1      3529 8.22293E-01
 -1      3530 9.21222E-01
 -1      3531 1.00714E+00
 -1      3532 6.50817E-01
 -1      3533 7.33398E-01
 -1      3534 8.03290E-01
 -1      3535 5.07143E-01
 -1      3536 5.74422E-01
 -1      3537 6.38001E-01
 -1      3538 3.91200E-01
 -1      3539 4.43542E-01
 -1      3540 4.98004E-01
 -1      3541 2.98066E-01
 -1      3542 3.39387E-01
 -1      3543 3.82590E-01
 -1      3544 2.23760E-01
 -1      3545 2.56580E-01
 -1      3546 2.89291E-01
 -1      3547 1.65208E-01
 -1      3548 1.91050E-01
 -1      3549 2.15094E-01
 -1      3550 1.19677E-01
 -1      3551 1.39802E-01
 -1      3552 1.56978E-01
 -1      3553 8.47722E-02
 -1      3554 1.00244E-01
 -1      3555 1.12139E-01
 -1      3556 5.90356E-02
 -1      3557 7.07578E-02
 -1      3558 7.86910E-02
 -1      3559 3.99493E-02
 -1      3560 4.86877E-02
 -1      3561 5.43286E-02
 -1      3562 2.59308E-02
 -1      3563 3.23265E-02
 -1      3564 3.63578E-02
 -1      3565 1.59224E-02
 -1      3566 2.05054E-02
 -1      3567 2.33096E-02
 -1      3568 9.36677E-03
 -1      3569 1.20991E-02
 -1      3570 1.40610E-02
 -1      3571 6.82566E-03
 -1      3572 7.06255E-03
 -1      3573 7.93352E-03
 -1      3574 6.17970E-03
 -1      3575 6.32767E-03
 -1      3576 5.13131E-03
 -1      3577 6.09963E-03
 -1      3578 6.43839E-03
 -1      3579 4.89201E-03
 -1      3580 5.65569E-03
 -1      3581 6.08829E-03
 -1      3582 5.13936E-03
 -1      3583 5.01974E-03
 -1      3584 5.48192E-03
 -1      3585 4.95425E-03
 -1      3586 4.39388E-03
 -1      3587 4.75858E-03
 -1      3588 4.51931E-03
 -1      3589 3.77646E-03
 -1      3590 4.09601E-03
 -1      3591 3.96029E-03
 -1      3592 3.24192E-03
 -1      3593 3.56444E-03
 -1      3594 3.45041E-03
 -1      3595 2.70159E-03
 -1      3596 3.00629E-03
 -1      3597 3.00275E-03
 -1      3598 2.18955E-03
 -1      3599 2.46509E-03
 -1      3600 2.53062E-03
 -1      3601 1.72572E-03
 -1      3602 1.96669E-03
 -1      3603 2.07126E-03
 -1      3604 1.32459E-03
 -1      3605 1.52697E-03
 -1      3606 1.64965E-03
 -1      3607 1.12521E-03
 -1      3608 1.01971E-03
 -1      3609 1.17203E-03
 -1      3610 1.11804E-03
 -1      3611 4.29864E+00
 -1      3612 1.78975E+00
 -1      3613 1.94455E+00
 -1      3614 2.37827E+00
 -1      3615 1.77829E+00
 -1      3616 3.17096E+00
 -1      3617 6.02804E+00
 -1      3618 5.55159E+00
 -1      3619 4.86596E+00
 -1      3620 2.78288E+00
 -1      3621 4.02869E+00
 -1      3622 4.78551E+00
 -1      3623 1.11804E-03
 -1      3624 1.00380E+01
 -1      3625 1.00380E+01
 -1      3626 2.85570E+00
 -1      3627 2.49183E+00
 -1      3628 9.78612E+00
 -1      3629 7.18525E+00
 -1      3630 6.19718E+00
 -1      3631 5.24095E+00
 -1      3632 6.23185E+00
 -1      3633 7.05360E+00
 -1      3634 4.93682E+00
 -1      3635 7.44583E+00
 -1      3636 1.17835E-03
 -1      3637 1.30466E-03
 -1      3638 1.17774E-03
 -1      3639 1.19251E-03
 -1      3640 8.79767E-04
 -1      3641 8.81963E-04
 -1      3642 1.04848E-03
 -1      3643 8.03648E+00
 -1      3644 6.88559E+00
 -1      3645 5.96463E+00
 -1      3646 2.51866E+00
 -1      3647 9.38672E-04
 -1      3648 9.12143E-04
 -1      3649 2.57632E+00
 -1      3650 2.27656E+00
 -1      3651 1.11221E-03
 -1      3652 9.58358E-04
 -1      3653 5.66160E+00
 -1      3654 4.50034E+00
 -1      3655 3.28614E+00
 -1      3656 2.74308E+00
 -1      3657 2.87491E+00
 -1      3658 2.46379E+00
 -1      3659 3.11352E+00
 -1      3660 1.64847E+00
 -1      3661 1.40219E+00
 -1      3662 2.43003E+00
 -1      3663 1.18967E+00
 -1      3664 1.04256E+00
 -1      3665 1.40219E+00
 -1      3666 8.89977E-01
 -1      3667 8.02302E-01
 -1      3668 1.03709E+00
 -1      3669 6.91719E-01
 -1      3670 6.17348E-01
 -1      3671 7.73921E-01
 -1      3672 5.36974E-01
 -1      3673 4.75810E-01
 -1      3674 5.82965E-01
 -1      3675 4.15567E-01
 -1      3676 3.65715E-01
 -1      3677 4.42349E-01
 -1      3678 3.19761E-01
 -1      3679 2.79427E-01
 -1      3680 3.36152E-01
 -1      3681 2.43966E-01
 -1      3682 2.11588E-01
 -1      3683 2.54736E-01
 -1      3684 1.84074E-01
 -1      3685 1.58327E-01
 -1      3686 1.91761E-01
 -1      3687 1.36983E-01
 -1      3688 1.16739E-01
 -1      3689 1.42903E-01
 -1      3690 1.00258E-01
 -1      3691 8.45459E-02
 -1      3692 1.05077E-01
 -1      3693 7.19251E-02
 -1      3694 5.99081E-02
 -1      3695 7.59752E-02
 -1      3696 5.03516E-02
 -1      3697 4.13891E-02
 -1      3698 5.37979E-02
 -1      3699 3.42527E-02
 -1      3700 2.80175E-02
 -1      3701 3.71050E-02
 -1      3702 2.31718E-02
 -1      3703 1.85800E-02
 -1      3704 2.51229E-02
 -1      3705 1.52081E-02
 -1      3706 1.18983E-02
 -1      3707 1.69053E-02
 -1      3708 9.60359E-03
 -1      3709 7.27776E-03
 -1      3710 1.12387E-02
 -1      3711 5.60316E-03
 -1      3712 4.40238E-03
 -1      3713 7.26942E-03
 -1      3714 3.20995E-03
 -1      3715 3.03930E-03
 -1      3716 4.40238E-03
 -1      3717 2.40295E-03
 -1      3718 2.61605E-03
 -1      3719 2.57360E-03
 -1      3720 2.85361E-03
 -1      3721 2.87490E-03
 -1      3722 2.17481E-03
 -1      3723 2.93970E-03
 -1      3724 2.84319E-03
 -1      3725 2.47716E-03
 -1      3726 2.79913E-03
 -1      3727 2.63703E-03
 -1      3728 2.49791E-03
 -1      3729 2.52958E-03
 -1      3730 2.34677E-03
 -1      3731 2.34640E-03
 -1      3732 2.20731E-03
 -1      3733 2.05277E-03
 -1      3734 2.09949E-03
 -1      3735 1.90642E-03
 -1      3736 1.73996E-03
 -1      3737 1.81367E-03
 -1      3738 1.61130E-03
 -1      3739 1.44736E-03
 -1      3740 1.53866E-03
 -1      3741 1.36786E-03
 -1      3742 1.21817E-03
 -1      3743 1.22534E-03
 -1      3744 1.33050E-03
 -1      3745 7.87544E-01
 -1      3746 8.76439E-01
 -1      3747 1.19706E-03
 -1      3748 1.17774E-03
 -1      3749 1.00714E+00
 -1      3750 1.12210E+00
 -1      3751 9.91395E-01
 -1      3752 1.29727E+00
 -1      3753 1.47244E+00
 -1      3754 1.29727E+00
 -1      3755 6.11266E-01
 -1      3756 6.87661E-01
 -1      3757 7.60809E-01
 -1      3758 4.70566E-01
 -1      3759 5.34168E-01
 -1      3760 5.83828E-01
 -1      3761 3.58745E-01
 -1      3762 4.10558E-01
 -1      3763 4.46722E-01
 -1      3764 2.70298E-01
 -1      3765 3.11785E-01
 -1      3766 3.39753E-01
 -1      3767 2.00826E-01
 -1      3768 2.33536E-01
 -1      3769 2.56031E-01
 -1      3770 1.46761E-01
 -1      3771 1.72167E-01
 -1      3772 1.90610E-01
 -1      3773 1.05158E-01
 -1      3774 1.24591E-01
 -1      3775 1.39781E-01
 -1      3776 7.41744E-02
 -1      3777 8.81888E-02
 -1      3778 1.00642E-01
 -1      3779 5.10050E-02
 -1      3780 6.13529E-02
 -1      3781 7.08508E-02
 -1      3782 3.42398E-02
 -1      3783 4.18627E-02
 -1      3784 4.88870E-02
 -1      3785 2.22022E-02
 -1      3786 2.76275E-02
 -1      3787 3.31324E-02
 -1      3788 1.35571E-02
 -1      3789 1.73804E-02
 -1      3790 2.16983E-02
 -1      3791 7.81278E-03
 -1      3792 1.01170E-02
 -1      3793 1.34364E-02
 -1      3794 4.98102E-03
 -1      3795 5.47900E-03
 -1      3796 7.66248E-03
 -1      3797 4.02369E-03
 -1      3798 3.76501E-03
 -1      3799 4.11270E-03
 -1      3800 4.27750E-03
 -1      3801 4.28884E-03
 -1      3802 3.16184E-03
 -1      3803 4.26051E-03
 -1      3804 4.43428E-03
 -1      3805 3.58376E-03
 -1      3806 3.97165E-03
 -1      3807 4.23281E-03
 -1      3808 3.71284E-03
 -1      3809 3.53615E-03
 -1      3810 3.83401E-03
 -1      3811 3.54751E-03
 -1      3812 3.12839E-03
 -1      3813 3.34041E-03
 -1      3814 3.21413E-03
 -1      3815 2.70301E-03
 -1      3816 2.93864E-03
 -1      3817 2.82864E-03
 -1      3818 2.29009E-03
 -1      3819 2.52659E-03
 -1      3820 2.46248E-03
 -1      3821 1.88195E-03
 -1      3822 2.10481E-03
 -1      3823 2.10078E-03
 -1      3824 1.50875E-03
 -1      3825 1.70750E-03
 -1      3826 1.74105E-03
 -1      3827 1.19968E-03
 -1      3828 1.17203E-03
 -1      3829 1.22534E-03
 -1      3830 1.22781E-03
 -1      3831 1.37405E-03
 -1      3832 1.43190E-03
 -1      3833 1.18159E-03
 -1      3834 9.18938E-04
 -1      3835 9.18938E-04
 -1      3836 1.04626E-03
 -1      3837 1.04771E+01
 -1      3838 3.74784E+00
 -1      3839 4.80717E+00
 -1      3840 4.77565E+00
 -1      3841 3.14530E+00
 -1      3842 6.10686E+00
 -1      3843 6.10686E+00
 -1      3844 6.57121E+00
 -1      3845 6.17898E+00
 -1      3846 5.61874E+00
 -1      3847 4.19589E+00
 -1      3848 1.70099E+00
 -1      3849 1.70099E+00
 -1      3850 2.00683E+00
 -1      3851 4.50668E+00
 -1      3852 5.45342E+00
 -1      3853 1.09129E-03
 -1      3854 1.06364E-03
 -1      3855 9.67739E-04
 -1      3856 1.13548E-03
 -1      3857 1.25108E-03
 -1      3858 1.11575E-03
 -1      3859 6.10686E+00
 -1      3860 5.16013E+00
 -1      3861 5.23225E+00
 -1      3862 4.63167E+00
 -1      3863 9.89549E-04
 -1      3864 2.44636E+00
 -1      3865 2.74049E+00
 -1      3866 2.36906E+00
 -1      3867 3.21339E+00
 -1      3868 4.20274E+00
 -1      3869 3.54929E+00
 -1      3870 3.46234E+00
 -1      3871 3.86715E+00
 -1      3872 5.02461E+00
 -1      3873 1.40751E-03
 -1      3874 1.54221E-03
 -1      3875 1.36140E-03
 -1      3876 2.74072E+00
 -1      3877 1.92540E+00
 -1      3878 1.51801E+00
 -1      3879 1.30549E+00
 -1      3880 1.82871E+00
 -1      3881 1.09820E+00
 -1      3882 9.45620E-01
 -1      3883 1.21402E+00
 -1      3884 7.93913E-01
 -1      3885 6.83331E-01
 -1      3886 8.55030E-01
 -1      3887 5.87527E-01
 -1      3888 5.07153E-01
 -1      3889 6.07519E-01
 -1      3890 4.40133E-01
 -1      3891 3.79891E-01
 -1      3892 4.44695E-01
 -1      3893 3.33602E-01
 -1      3894 2.87648E-01
 -1      3895 3.31386E-01
 -1      3896 2.56649E-01
 -1      3897 2.21187E-01
 -1      3898 2.54098E-01
 -1      3899 1.96136E-01
 -1      3900 1.68622E-01
 -1      3901 1.98048E-01
 -1      3902 1.48403E-01
 -1      3903 1.27059E-01
 -1      3904 1.52778E-01
 -1      3905 1.10846E-01
 -1      3906 9.43653E-02
 -1      3907 1.16347E-01
 -1      3908 8.14966E-02
 -1      3909 6.88759E-02
 -1      3910 8.72660E-02
 -1      3911 5.87887E-02
 -1      3912 4.92322E-02
 -1      3913 6.43102E-02
 -1      3914 4.14381E-02
 -1      3915 3.43017E-02
 -1      3916 4.64289E-02
 -1      3917 2.84249E-02
 -1      3918 2.35792E-02
 -1      3919 3.27580E-02
 -1      3920 1.95321E-02
 -1      3921 1.61602E-02
 -1      3922 2.28341E-02
 -1      3923 1.31188E-02
 -1      3924 1.08241E-02
 -1      3925 1.57456E-02
 -1      3926 8.58222E-03
 -1      3927 6.90762E-03
 -1      3928 1.04623E-02
 -1      3929 5.29084E-03
 -1      3930 4.09841E-03
 -1      3931 6.60365E-03
 -1      3932 2.96181E-03
 -1      3933 2.32546E-03
 -1      3934 3.85027E-03
 -1      3935 1.67126E-03
 -1      3936 1.90881E-03
 -1      3937 2.05946E-03
 -1      3938 2.09914E-03
 -1      3939 2.16394E-03
 -1      3940 1.59559E-03
 -1      3941 2.22101E-03
 -1      3942 2.17695E-03
 -1      3943 1.84299E-03
 -1      3944 2.14966E-03
 -1      3945 2.04221E-03
 -1      3946 1.87276E-03
 -1      3947 1.96540E-03
 -1      3948 1.82593E-03
 -1      3949 1.76865E-03
 -1      3950 1.73103E-03
 -1      3951 1.58468E-03
 -1      3952 1.59694E-03
 -1      3953 1.51161E-03
 -1      3954 1.38295E-03
 -1      3955 1.42897E-03
 -1      3956 1.33050E-03
 -1      3957 1.25100E-03
 -1      3958 1.22534E-03
 -1      3959 1.30345E-03
 -1      3960 9.12284E-01
 -1      3961 1.04299E+00
 -1      3962 1.20747E+00
 -1      3963 1.38265E+00
 -1      3964 1.12836E+00
 -1      3965 3.96714E-01
 -1      3966 4.56722E-01
 -1      3967 3.00890E-01
 -1      3968 3.47850E-01
 -1      3969 3.57850E-01
 -1      3970 2.26478E-01
 -1      3971 2.63240E-01
 -1      3972 2.71337E-01
 -1      3973 1.68562E-01
 -1      3974 1.97221E-01
 -1      3975 2.04431E-01
 -1      3976 1.23640E-01
 -1      3977 1.45810E-01
 -1      3978 1.52421E-01
 -1      3979 8.90647E-02
 -1      3980 1.06034E-01
 -1      3981 1.12063E-01
 -1      3982 6.27416E-02
 -1      3983 7.55631E-02
 -1      3984 8.09555E-02
 -1      3985 4.33697E-02
 -1      3986 5.25120E-02
 -1      3987 5.72243E-02
 -1      3988 2.92229E-02
 -1      3989 3.58351E-02
 -1      3990 3.94602E-02
 -1      3991 1.92045E-02
 -1      3992 2.40263E-02
 -1      3993 2.67290E-02
 -1      3994 1.19501E-02
 -1      3995 1.53903E-02
 -1      3996 1.77182E-02
 -1      3997 6.87538E-03
 -1      3998 9.20915E-03
 -1      3999 1.11630E-02
 -1      4000 4.00588E-03
 -1      4001 5.22189E-03
 -1      4002 6.76856E-03
 -1      4003 3.16184E-03
 -1      4004 2.89670E-03
 -1      4005 4.00588E-03
 -1      4006 3.04233E-03
 -1      4007 2.88556E-03
 -1      4008 2.62042E-03
 -1      4009 3.22280E-03
 -1      4010 3.25049E-03
 -1      4011 2.55229E-03
 -1      4012 3.12039E-03
 -1      4013 3.25803E-03
 -1      4014 2.79568E-03
 -1      4015 2.85296E-03
 -1      4016 3.04870E-03
 -1      4017 2.75922E-03
 -1      4018 2.53111E-03
 -1      4019 2.72086E-03
 -1      4020 2.55542E-03
 -1      4021 2.19427E-03
 -1      4022 2.37068E-03
 -1      4023 2.26290E-03
 -1      4024 1.86339E-03
 -1      4025 2.04867E-03
 -1      4026 1.95687E-03
 -1      4027 1.71666E-03
 -1      4028 6.86653E-01
 -1      4029 7.86536E-01
 -1      4030 8.38128E-01
 -1      4031 3.41746E+00
 -1      4032 1.02538E-03
 -1      4033 1.06235E-03
 -1      4034 1.15158E-03
 -1      4035 1.04054E-03
 -1      4036 5.21349E-01
 -1      4037 5.98447E-01
 -1      4038 6.24174E-01
 -1      4039 4.71023E+00
 -1      4040 3.54929E+00
 -1      4041 1.97564E+00
 -1      4042 2.20419E+00
 -1      4043 1.88585E+00
 -1      4044 3.24534E+00
 -1      4045 2.74072E+00
 -1      4046 1.09905E-03
 -1      4047 1.07339E-03
 -1      4048 9.65002E-04
 -1      4049 1.66455E-03
 -1      4050 4.63812E+00
 -1      4051 4.71341E-01
 -1      4052 2.86622E+00
 -1      4053 3.30575E+00
 -1      4054 3.95951E+00
 -1      4055 3.14088E+00
 -1      4056 4.20274E+00
 -1      4057 4.11340E+00
 -1      4058 3.15601E+00
 -1      4059 1.26084E-03
 -1      4060 1.41726E-03
 -1      4061 1.20744E-03
 -1      4062 1.35063E+00
 -1      4063 1.14334E+00
 -1      4064 9.00264E-01
 -1      4065 7.48557E-01
 -1      4066 1.03687E+00
 -1      4067 6.48865E-01
 -1      4068 5.53061E-01
 -1      4069 6.94099E-01
 -1      4070 4.82933E-01
 -1      4071 4.15913E-01
 -1      4072 5.24279E-01
 -1      4073 3.63976E-01
 -1      4074 3.17687E-01
 -1      4075 4.02214E-01
 -1      4076 2.77896E-01
 -1      4077 2.46898E-01
 -1      4078 3.10487E-01
 -1      4079 2.15769E-01
 -1      4080 1.90718E-01
 -1      4081 2.39567E-01
 -1      4082 1.66124E-01
 -1      4083 1.45905E-01
 -1      4084 1.83845E-01
 -1      4085 1.26447E-01
 -1      4086 1.10234E-01
 -1      4087 1.39793E-01
 -1      4088 9.49052E-02
 -1      4089 8.20365E-02
 -1      4090 1.05005E-01
 -1      4091 7.00613E-02
 -1      4092 5.99742E-02
 -1      4093 7.77005E-02
 -1      4094 5.07232E-02
 -1      4095 4.29291E-02
 -1      4096 5.64743E-02
 -1      4097 3.58777E-02
 -1      4098 3.00009E-02
 -1      4099 4.01720E-02
 -1      4100 2.50070E-02
 -1      4101 2.09600E-02
 -1      4102 2.81268E-02
 -1      4103 1.73323E-02
 -1      4104 1.42908E-02
 -1      4105 1.95052E-02
 -1      4106 1.15991E-02
 -1      4107 9.35728E-03
 -1      4108 1.31858E-02
 -1      4109 7.39950E-03
 -1      4110 5.78273E-03
 -1      4111 8.53636E-03
 -1      4112 4.39126E-03
 -1      4113 3.25466E-03
 -1      4114 5.18711E-03
 -1      4115 2.29283E-03
 -1      4116 1.63863E-03
 -1      4117 2.83382E-03
 -1      4118 1.30103E-03
 -1      4119 1.49136E-03
 -1      4120 1.53440E-03
 -1      4121 1.65018E-03
 -1      4122 1.70724E-03
 -1      4123 1.35561E-03
 -1      4124 1.75680E-03
 -1      4125 1.72951E-03
 -1      4126 1.56399E-03
 -1      4127 1.72951E-03
 -1      4128 1.65270E-03
 -1      4129 1.61356E-03
 -1      4130 1.63356E-03
 -1      4131 1.53865E-03
 -1      4132 1.59442E-03
 -1      4133 1.54010E-03
 -1      4134 1.46703E-03
 -1      4135 1.57672E-03
 -1      4136 1.23621E-03
 -1      4137 1.18376E-03
 -1      4138 1.03181E-03
 -1      4139 1.34734E-03
 -1      4140 9.40966E-01
 -1      4141 1.10545E+00
 -1      4142 5.22967E-01
 -1      4143 6.11173E-01
 -1      4144 2.32154E-01
 -1      4145 2.69804E-01
 -1      4146 3.04455E-01
 -1      4147 3.53318E-01
 -1      4148 2.65272E-01
 -1      4149 1.31678E-01
 -1      4150 1.54430E-01
 -1      4151 9.72806E-02
 -1      4152 1.14887E-01
 -1      4153 1.16896E-01
 -1      4154 7.06484E-02
 -1      4155 8.41500E-02
 -1      4156 8.69735E-02
 -1      4157 5.02460E-02
 -1      4158 6.04756E-02
 -1      4159 6.36701E-02
 -1      4160 3.49230E-02
 -1      4161 4.24575E-02
 -1      4162 4.57088E-02
 -1      4163 2.39254E-02
 -1      4164 2.91220E-02
 -1      4165 3.21194E-02
 -1      4166 1.61209E-02
 -1      4167 1.99351E-02
 -1      4168 2.23281E-02
 -1      4169 1.03942E-02
 -1      4170 1.31352E-02
 -1      4171 1.53521E-02
 -1      4172 6.54766E-03
 -1      4173 8.20115E-03
 -1      4174 1.01733E-02
 -1      4175 3.86130E-03
 -1      4176 4.97048E-03
 -1      4177 6.40307E-03
 -1      4178 2.47886E-03
 -1      4179 2.75514E-03
 -1      4180 3.71974E-03
 -1      4181 2.21388E-03
 -1      4182 2.00573E-03
 -1      4183 2.14045E-03
 -1      4184 2.43703E-03
 -1      4185 2.40180E-03
 -1      4186 1.85524E-03
 -1      4187 2.41210E-03
 -1      4188 2.48380E-03
 -1      4189 2.08991E-03
 -1      4190 2.23834E-03
 -1      4191 2.37044E-03
 -1      4192 2.09502E-03
 -1      4193 1.98533E-03
 -1      4194 2.14576E-03
 -1      4195 1.96077E-03
 -1      4196 1.72067E-03
 -1      4197 1.86627E-03
 -1      4198 1.74913E-03
 -1      4199 4.48152E+00
 -1      4200 3.98295E-01
 -1      4201 4.62921E-01
 -1      4202 3.44899E-01
 -1      4203 1.75780E-01
 -1      4204 2.05037E-01
 -1      4205 2.03503E-01
 -1      4206 1.55037E-01
 -1      4207 2.11939E+00
 -1      4208 1.71199E+00
 -1      4209 1.64132E+00
 -1      4210 2.62401E+00
 -1      4211 6.94825E-01
 -1      4212 8.20573E-01
 -1      4213 7.97663E-01
 -1      4214 5.93618E-01
 -1      4215 4.49921E-01
 -1      4216 3.43480E+00
 -1      4217 2.53468E+00
 -1      4218 1.64776E+00
 -1      4219 2.24076E+00
 -1      4220 1.46037E+00
 -1      4221 9.77196E-04
 -1      4222 1.03484E-03
 -1      4223 1.14409E-03
 -1      4224 9.59295E-04
 -1      4225 1.54799E-03
 -1      4226 1.69472E-03
 -1      4227 1.60412E-03
 -1      4228 5.96113E-02
 -1      4229 6.97841E-02
 -1      4230 7.35531E-01
 -1      4231 6.35839E-01
 -1      4232 5.52187E-01
 -1      4233 4.82059E-01
 -1      4234 4.22013E-01
 -1      4235 3.70076E-01
 -1      4236 3.25100E-01
 -1      4237 2.85309E-01
 -1      4238 2.50658E-01
 -1      4239 2.19529E-01
 -1      4240 1.92412E-01
 -1      4241 1.67819E-01
 -1      4242 1.46470E-01
 -1      4243 1.27011E-01
 -1      4244 1.10219E-01
 -1      4245 9.48899E-02
 -1      4246 8.17593E-02
 -1      4247 5.03603E-02
 -1      4248 4.25719E-02
 -1      4249 3.55205E-02
 -1      4250 2.97195E-02
 -1      4251 2.47256E-02
 -1      4252 2.07353E-02
 -1      4253 1.71076E-02
 -1      4254 1.41219E-02
 -1      4255 1.14303E-02
 -1      4256 9.23719E-03
 -1      4257 7.27941E-03
 -1      4258 5.70224E-03
 -1      4259 4.31077E-03
 -1      4260 3.20462E-03
 -1      4261 2.24279E-03
 -1      4262 1.76966E-03
 -1      4263 1.43206E-03
 -1      4264 1.61998E-03
 -1      4265 1.77879E-03
 -1      4266 1.82555E-03
 -1      4267 1.87512E-03
 -1      4268 1.83346E-03
 -1      4269 1.83346E-03
 -1      4270 1.74087E-03
 -1      4271 1.72173E-03
 -1      4272 1.60267E-03
 -1      4273 1.60412E-03
 -1      4274 2.00268E+00
 -1      4275 1.64132E+00
 -1      4276 2.77276E+00
 -1      4277 1.09900E+00
 -1      4278 8.55924E-01
 -1      4279 2.53468E+00
 -1      4280 1.57816E-03
 -1      4281 1.44743E-03
 -1      4282 1.34734E-03
 -1      4283 1.27483E-03
 -1      4284 1.26263E-03
 -3
 9999
