    1C
    1UUSER                                                              
    1UDATE              27.october.2022                                 
    1UTIME              00:12:48                                        
    1UHOST                                                              
    1UPGM               CalculiX                                        
    1UVERSION           Version 2.17                             
    1UCOMPILETIME       Thu Jul 23 21:43:50 CEST 2020                    
    1UDIR                                                               
    1UDBN                                                               
    1UMAT    1SOLIDMATERIAL                                             
    2C                          4348                                     1
 -1         1 8.45455E+01 3.06676E+01 0.00000E+00
 -1         2 9.59171E+01 2.52005E+01 0.00000E+00
 -1         3 1.50000E+02 0.00000E+00 0.00000E+00
 -1         4 1.50000E+02 5.00000E+01 0.00000E+00
 -1         5 0.00000E+00 0.00000E+00 0.00000E+00
 -1         6 0.00000E+00 5.00000E+01 0.00000E+00
 -1         7 0.00000E+00 4.70500E+01 0.00000E+00
 -1         8 0.00000E+00 4.41000E+01 0.00000E+00
 -1         9 0.00000E+00 4.11500E+01 0.00000E+00
 -1        10 0.00000E+00 3.82000E+01 0.00000E+00
 -1        11 0.00000E+00 3.52500E+01 0.00000E+00
 -1        12 0.00000E+00 3.23500E+01 0.00000E+00
 -1        13 0.00000E+00 2.94000E+01 0.00000E+00
 -1        14 0.00000E+00 2.64500E+01 0.00000E+00
 -1        15 0.00000E+00 2.35000E+01 0.00000E+00
 -1        16 0.00000E+00 2.05500E+01 0.00000E+00
 -1        17 0.00000E+00 1.76000E+01 0.00000E+00
 -1        18 0.00000E+00 1.47000E+01 0.00000E+00
 -1        19 0.00000E+00 1.17500E+01 0.00000E+00
 -1        20 0.00000E+00 8.80000E+00 0.00000E+00
 -1        21 0.00000E+00 5.85000E+00 0.00000E+00
 -1        22 0.00000E+00 2.90000E+00 0.00000E+00
 -1        23 3.15000E+00 5.00000E+01 0.00000E+00
 -1        24 6.15000E+00 5.00000E+01 0.00000E+00
 -1        25 9.15000E+00 5.00000E+01 0.00000E+00
 -1        26 1.21500E+01 5.00000E+01 0.00000E+00
 -1        27 1.51500E+01 5.00000E+01 0.00000E+00
 -1        28 1.81500E+01 5.00000E+01 0.00000E+00
 -1        29 2.11500E+01 5.00000E+01 0.00000E+00
 -1        30 2.41500E+01 5.00000E+01 0.00000E+00
 -1        31 2.71500E+01 5.00000E+01 0.00000E+00
 -1        32 3.01500E+01 5.00000E+01 0.00000E+00
 -1        33 3.31500E+01 5.00000E+01 0.00000E+00
 -1        34 3.61500E+01 5.00000E+01 0.00000E+00
 -1        35 3.91500E+01 5.00000E+01 0.00000E+00
 -1        36 4.21500E+01 5.00000E+01 0.00000E+00
 -1        37 4.51500E+01 5.00000E+01 0.00000E+00
 -1        38 4.81500E+01 5.00000E+01 0.00000E+00
 -1        39 5.11500E+01 5.00000E+01 0.00000E+00
 -1        40 5.41500E+01 5.00000E+01 0.00000E+00
 -1        41 5.71500E+01 5.00000E+01 0.00000E+00
 -1        42 6.01500E+01 5.00000E+01 0.00000E+00
 -1        43 6.31500E+01 5.00000E+01 0.00000E+00
 -1        44 6.61500E+01 5.00000E+01 0.00000E+00
 -1        45 6.91500E+01 5.00000E+01 0.00000E+00
 -1        46 7.21500E+01 5.00000E+01 0.00000E+00
 -1        47 7.51500E+01 5.00000E+01 0.00000E+00
 -1        48 7.81500E+01 5.00000E+01 0.00000E+00
 -1        49 8.11500E+01 5.00000E+01 0.00000E+00
 -1        50 8.41500E+01 5.00000E+01 0.00000E+00
 -1        51 8.71500E+01 5.00000E+01 0.00000E+00
 -1        52 9.01500E+01 5.00000E+01 0.00000E+00
 -1        53 9.31500E+01 5.00000E+01 0.00000E+00
 -1        54 9.61500E+01 5.00000E+01 0.00000E+00
 -1        55 9.91500E+01 5.00000E+01 0.00000E+00
 -1        56 1.02150E+02 5.00000E+01 0.00000E+00
 -1        57 1.05150E+02 5.00000E+01 0.00000E+00
 -1        58 1.08150E+02 5.00000E+01 0.00000E+00
 -1        59 1.11150E+02 5.00000E+01 0.00000E+00
 -1        60 1.14150E+02 5.00000E+01 0.00000E+00
 -1        61 1.17150E+02 5.00000E+01 0.00000E+00
 -1        62 1.20150E+02 5.00000E+01 0.00000E+00
 -1        63 1.23150E+02 5.00000E+01 0.00000E+00
 -1        64 1.26150E+02 5.00000E+01 0.00000E+00
 -1        65 1.29150E+02 5.00000E+01 0.00000E+00
 -1        66 1.32150E+02 5.00000E+01 0.00000E+00
 -1        67 1.35150E+02 5.00000E+01 0.00000E+00
 -1        68 1.38150E+02 5.00000E+01 0.00000E+00
 -1        69 1.41150E+02 5.00000E+01 0.00000E+00
 -1        70 1.44150E+02 5.00000E+01 0.00000E+00
 -1        71 1.47150E+02 5.00000E+01 0.00000E+00
 -1        72 3.15000E+00 0.00000E+00 0.00000E+00
 -1        73 6.15000E+00 0.00000E+00 0.00000E+00
 -1        74 9.15000E+00 0.00000E+00 0.00000E+00
 -1        75 1.21500E+01 0.00000E+00 0.00000E+00
 -1        76 1.51500E+01 0.00000E+00 0.00000E+00
 -1        77 1.81500E+01 0.00000E+00 0.00000E+00
 -1        78 2.11500E+01 0.00000E+00 0.00000E+00
 -1        79 2.41500E+01 0.00000E+00 0.00000E+00
 -1        80 2.71500E+01 0.00000E+00 0.00000E+00
 -1        81 3.01500E+01 0.00000E+00 0.00000E+00
 -1        82 3.31500E+01 0.00000E+00 0.00000E+00
 -1        83 3.61500E+01 0.00000E+00 0.00000E+00
 -1        84 3.91500E+01 0.00000E+00 0.00000E+00
 -1        85 4.21500E+01 0.00000E+00 0.00000E+00
 -1        86 4.51500E+01 0.00000E+00 0.00000E+00
 -1        87 4.81500E+01 0.00000E+00 0.00000E+00
 -1        88 5.11500E+01 0.00000E+00 0.00000E+00
 -1        89 5.41500E+01 0.00000E+00 0.00000E+00
 -1        90 5.71500E+01 0.00000E+00 0.00000E+00
 -1        91 6.01500E+01 0.00000E+00 0.00000E+00
 -1        92 6.31500E+01 0.00000E+00 0.00000E+00
 -1        93 6.61500E+01 0.00000E+00 0.00000E+00
 -1        94 6.91500E+01 0.00000E+00 0.00000E+00
 -1        95 7.21500E+01 0.00000E+00 0.00000E+00
 -1        96 7.51500E+01 0.00000E+00 0.00000E+00
 -1        97 7.81500E+01 0.00000E+00 0.00000E+00
 -1        98 8.11500E+01 0.00000E+00 0.00000E+00
 -1        99 8.41500E+01 0.00000E+00 0.00000E+00
 -1       100 8.71500E+01 0.00000E+00 0.00000E+00
 -1       101 9.01500E+01 0.00000E+00 0.00000E+00
 -1       102 9.31500E+01 0.00000E+00 0.00000E+00
 -1       103 9.61500E+01 0.00000E+00 0.00000E+00
 -1       104 9.91500E+01 0.00000E+00 0.00000E+00
 -1       105 1.02150E+02 0.00000E+00 0.00000E+00
 -1       106 1.05150E+02 0.00000E+00 0.00000E+00
 -1       107 1.08150E+02 0.00000E+00 0.00000E+00
 -1       108 1.11150E+02 0.00000E+00 0.00000E+00
 -1       109 1.14150E+02 0.00000E+00 0.00000E+00
 -1       110 1.17150E+02 0.00000E+00 0.00000E+00
 -1       111 1.20150E+02 0.00000E+00 0.00000E+00
 -1       112 1.23150E+02 0.00000E+00 0.00000E+00
 -1       113 1.26150E+02 0.00000E+00 0.00000E+00
 -1       114 1.29150E+02 0.00000E+00 0.00000E+00
 -1       115 1.32150E+02 0.00000E+00 0.00000E+00
 -1       116 1.35150E+02 0.00000E+00 0.00000E+00
 -1       117 1.38150E+02 0.00000E+00 0.00000E+00
 -1       118 1.41150E+02 0.00000E+00 0.00000E+00
 -1       119 1.44150E+02 0.00000E+00 0.00000E+00
 -1       120 1.47150E+02 0.00000E+00 0.00000E+00
 -1       121 1.50000E+02 2.95000E+00 0.00000E+00
 -1       122 1.50000E+02 5.90000E+00 0.00000E+00
 -1       123 1.50000E+02 8.85000E+00 0.00000E+00
 -1       124 1.50000E+02 1.18000E+01 0.00000E+00
 -1       125 1.50000E+02 1.47500E+01 0.00000E+00
 -1       126 1.50000E+02 1.76500E+01 0.00000E+00
 -1       127 1.50000E+02 2.06000E+01 0.00000E+00
 -1       128 1.50000E+02 2.35500E+01 0.00000E+00
 -1       129 1.50000E+02 2.65000E+01 0.00000E+00
 -1       130 1.50000E+02 2.94500E+01 0.00000E+00
 -1       131 1.50000E+02 3.24000E+01 0.00000E+00
 -1       132 1.50000E+02 3.53000E+01 0.00000E+00
 -1       133 1.50000E+02 3.82500E+01 0.00000E+00
 -1       134 1.50000E+02 4.12000E+01 0.00000E+00
 -1       135 1.50000E+02 4.41500E+01 0.00000E+00
 -1       136 1.50000E+02 4.71000E+01 0.00000E+00
 -1       137 9.57525E+01 2.36913E+01 0.00000E+00
 -1       138 9.52946E+01 2.23147E+01 0.00000E+00
 -1       139 9.44918E+01 2.09670E+01 0.00000E+00
 -1       140 9.35054E+01 1.99140E+01 0.00000E+00
 -1       141 9.22847E+01 1.90638E+01 0.00000E+00
 -1       142 9.09655E+01 1.85069E+01 0.00000E+00
 -1       143 8.94499E+01 1.82208E+01 0.00000E+00
 -1       144 8.79525E+01 1.82673E+01 0.00000E+00
 -1       145 8.65368E+01 1.86177E+01 0.00000E+00
 -1       146 8.52126E+01 1.92611E+01 0.00000E+00
 -1       147 8.39786E+01 2.02395E+01 0.00000E+00
 -1       148 8.30383E+01 2.14005E+01 0.00000E+00
 -1       149 8.24037E+01 2.26362E+01 0.00000E+00
 -1       150 8.20125E+01 2.40487E+01 0.00000E+00
 -1       151 8.19252E+01 2.55365E+01 0.00000E+00
 -1       152 8.21502E+01 2.69921E+01 0.00000E+00
 -1       153 8.26695E+01 2.83576E+01 0.00000E+00
 -1       154 8.34881E+01 2.96194E+01 0.00000E+00
 -1       155 8.57383E+01 3.14371E+01 0.00000E+00
 -1       156 8.71236E+01 3.19668E+01 0.00000E+00
 -1       157 8.84993E+01 3.21880E+01 0.00000E+00
 -1       158 8.99789E+01 3.21195E+01 0.00000E+00
 -1       159 9.13545E+01 3.17625E+01 0.00000E+00
 -1       160 9.26473E+01 3.11239E+01 0.00000E+00
 -1       161 9.37352E+01 3.02785E+01 0.00000E+00
 -1       162 9.47020E+01 2.91419E+01 0.00000E+00
 -1       163 9.53747E+01 2.79023E+01 0.00000E+00
 -1       164 9.57828E+01 2.65653E+01 0.00000E+00
 -1       165 2.59800E+00 4.55750E+01 0.00000E+00
 -1       166 2.59800E+00 4.26250E+01 0.00000E+00
 -1       167 2.59800E+00 3.96750E+01 0.00000E+00
 -1       168 2.59800E+00 3.67250E+01 0.00000E+00
 -1       169 2.59800E+00 3.38250E+01 0.00000E+00
 -1       170 2.59800E+00 3.08750E+01 0.00000E+00
 -1       171 2.59800E+00 2.79250E+01 0.00000E+00
 -1       172 2.59800E+00 2.49750E+01 0.00000E+00
 -1       173 2.59800E+00 2.20250E+01 0.00000E+00
 -1       174 2.59800E+00 1.90750E+01 0.00000E+00
 -1       175 2.59800E+00 1.61750E+01 0.00000E+00
 -1       176 2.59800E+00 1.32250E+01 0.00000E+00
 -1       177 2.59800E+00 1.02750E+01 0.00000E+00
 -1       178 2.59800E+00 7.32500E+00 0.00000E+00
 -1       179 2.59800E+00 4.37500E+00 0.00000E+00
 -1       180 2.87400E+00 2.18750E+00 0.00000E+00
 -1       181 4.65000E+00 4.74020E+01 0.00000E+00
 -1       182 7.65000E+00 4.74020E+01 0.00000E+00
 -1       183 1.06500E+01 4.74020E+01 0.00000E+00
 -1       184 1.36500E+01 4.74020E+01 0.00000E+00
 -1       185 1.66500E+01 4.74020E+01 0.00000E+00
 -1       186 1.96500E+01 4.74020E+01 0.00000E+00
 -1       187 2.26500E+01 4.74020E+01 0.00000E+00
 -1       188 2.56500E+01 4.74020E+01 0.00000E+00
 -1       189 2.86500E+01 4.74020E+01 0.00000E+00
 -1       190 3.16500E+01 4.74020E+01 0.00000E+00
 -1       191 3.46500E+01 4.74020E+01 0.00000E+00
 -1       192 3.76500E+01 4.74020E+01 0.00000E+00
 -1       193 4.06500E+01 4.74020E+01 0.00000E+00
 -1       194 4.36500E+01 4.74020E+01 0.00000E+00
 -1       195 4.66500E+01 4.74020E+01 0.00000E+00
 -1       196 4.96500E+01 4.74020E+01 0.00000E+00
 -1       197 5.26500E+01 4.74020E+01 0.00000E+00
 -1       198 5.56500E+01 4.74020E+01 0.00000E+00
 -1       199 5.86500E+01 4.74020E+01 0.00000E+00
 -1       200 6.16500E+01 4.74020E+01 0.00000E+00
 -1       201 6.46500E+01 4.74020E+01 0.00000E+00
 -1       202 6.76500E+01 4.74020E+01 0.00000E+00
 -1       203 7.06500E+01 4.74020E+01 0.00000E+00
 -1       204 7.36500E+01 4.74020E+01 0.00000E+00
 -1       205 7.66500E+01 4.74020E+01 0.00000E+00
 -1       206 7.96500E+01 4.74020E+01 0.00000E+00
 -1       207 8.26500E+01 4.74020E+01 0.00000E+00
 -1       208 8.56500E+01 4.74020E+01 0.00000E+00
 -1       209 8.86500E+01 4.74020E+01 0.00000E+00
 -1       210 9.16500E+01 4.74020E+01 0.00000E+00
 -1       211 9.46500E+01 4.74020E+01 0.00000E+00
 -1       212 9.76500E+01 4.74020E+01 0.00000E+00
 -1       213 1.00650E+02 4.74020E+01 0.00000E+00
 -1       214 1.03650E+02 4.74020E+01 0.00000E+00
 -1       215 1.06650E+02 4.74020E+01 0.00000E+00
 -1       216 1.09650E+02 4.74020E+01 0.00000E+00
 -1       217 1.12650E+02 4.74020E+01 0.00000E+00
 -1       218 1.15650E+02 4.74020E+01 0.00000E+00
 -1       219 1.18650E+02 4.74020E+01 0.00000E+00
 -1       220 1.21650E+02 4.74020E+01 0.00000E+00
 -1       221 1.24650E+02 4.74020E+01 0.00000E+00
 -1       222 1.27650E+02 4.74020E+01 0.00000E+00
 -1       223 1.30650E+02 4.74020E+01 0.00000E+00
 -1       224 1.33650E+02 4.74020E+01 0.00000E+00
 -1       225 1.36650E+02 4.74020E+01 0.00000E+00
 -1       226 1.39650E+02 4.74020E+01 0.00000E+00
 -1       227 1.42650E+02 4.74020E+01 0.00000E+00
 -1       228 1.45650E+02 4.74020E+01 0.00000E+00
 -1       229 5.87400E+00 2.18750E+00 0.00000E+00
 -1       230 8.87400E+00 2.18750E+00 0.00000E+00
 -1       231 1.18740E+01 2.18750E+00 0.00000E+00
 -1       232 1.48740E+01 2.18750E+00 0.00000E+00
 -1       233 1.78740E+01 2.18750E+00 0.00000E+00
 -1       234 2.08740E+01 2.18750E+00 0.00000E+00
 -1       235 2.38740E+01 2.18750E+00 0.00000E+00
 -1       236 2.68740E+01 2.18750E+00 0.00000E+00
 -1       237 2.98740E+01 2.18750E+00 0.00000E+00
 -1       238 3.28740E+01 2.18750E+00 0.00000E+00
 -1       239 3.58740E+01 2.18750E+00 0.00000E+00
 -1       240 3.88740E+01 2.18750E+00 0.00000E+00
 -1       241 4.18740E+01 2.18750E+00 0.00000E+00
 -1       242 4.48740E+01 2.18750E+00 0.00000E+00
 -1       243 4.78740E+01 2.18750E+00 0.00000E+00
 -1       244 5.08740E+01 2.18750E+00 0.00000E+00
 -1       245 5.38740E+01 2.18750E+00 0.00000E+00
 -1       246 5.68740E+01 2.18750E+00 0.00000E+00
 -1       247 5.98740E+01 2.18750E+00 0.00000E+00
 -1       248 6.28740E+01 2.18750E+00 0.00000E+00
 -1       249 6.58740E+01 2.18750E+00 0.00000E+00
 -1       250 6.88740E+01 2.18750E+00 0.00000E+00
 -1       251 7.18740E+01 2.18750E+00 0.00000E+00
 -1       252 7.48740E+01 2.18750E+00 0.00000E+00
 -1       253 7.78740E+01 2.18750E+00 0.00000E+00
 -1       254 8.08740E+01 2.18750E+00 0.00000E+00
 -1       255 8.38740E+01 2.18750E+00 0.00000E+00
 -1       256 8.68740E+01 2.18750E+00 0.00000E+00
 -1       257 8.98740E+01 2.18750E+00 0.00000E+00
 -1       258 9.28740E+01 2.18750E+00 0.00000E+00
 -1       259 9.58740E+01 2.18750E+00 0.00000E+00
 -1       260 9.88740E+01 2.18750E+00 0.00000E+00
 -1       261 1.01874E+02 2.18750E+00 0.00000E+00
 -1       262 1.04874E+02 2.18750E+00 0.00000E+00
 -1       263 1.07874E+02 2.18750E+00 0.00000E+00
 -1       264 1.10874E+02 2.18750E+00 0.00000E+00
 -1       265 1.13874E+02 2.18750E+00 0.00000E+00
 -1       266 1.16874E+02 2.18750E+00 0.00000E+00
 -1       267 1.19874E+02 2.18750E+00 0.00000E+00
 -1       268 1.22874E+02 2.18750E+00 0.00000E+00
 -1       269 1.25874E+02 2.18750E+00 0.00000E+00
 -1       270 1.28874E+02 2.18750E+00 0.00000E+00
 -1       271 1.31874E+02 2.18750E+00 0.00000E+00
 -1       272 1.34874E+02 2.18750E+00 0.00000E+00
 -1       273 1.37874E+02 2.18750E+00 0.00000E+00
 -1       274 1.40874E+02 2.18750E+00 0.00000E+00
 -1       275 1.43874E+02 2.18750E+00 0.00000E+00
 -1       276 1.46874E+02 2.18750E+00 0.00000E+00
 -1       277 1.47402E+02 4.42500E+00 0.00000E+00
 -1       278 1.47402E+02 7.37500E+00 0.00000E+00
 -1       279 1.47402E+02 1.03250E+01 0.00000E+00
 -1       280 1.47402E+02 1.32750E+01 0.00000E+00
 -1       281 1.47402E+02 1.61750E+01 0.00000E+00
 -1       282 1.47402E+02 1.91250E+01 0.00000E+00
 -1       283 1.47402E+02 2.20750E+01 0.00000E+00
 -1       284 1.47402E+02 2.50250E+01 0.00000E+00
 -1       285 1.47402E+02 2.79750E+01 0.00000E+00
 -1       286 1.47402E+02 3.09250E+01 0.00000E+00
 -1       287 1.47402E+02 3.38250E+01 0.00000E+00
 -1       288 1.47402E+02 3.67750E+01 0.00000E+00
 -1       289 1.47402E+02 3.97250E+01 0.00000E+00
 -1       290 1.47402E+02 4.26750E+01 0.00000E+00
 -1       291 1.46526E+02 4.50385E+01 0.00000E+00
 -1       292 9.71233E+01 2.43053E+01 0.00000E+00
 -1       293 9.66739E+01 2.26203E+01 0.00000E+00
 -1       294 9.60788E+01 2.09347E+01 0.00000E+00
 -1       295 9.48835E+01 1.96117E+01 0.00000E+00
 -1       296 9.35880E+01 1.84940E+01 0.00000E+00
 -1       297 9.20966E+01 1.76684E+01 0.00000E+00
 -1       298 9.04792E+01 1.69255E+01 0.00000E+00
 -1       299 8.86610E+01 1.69485E+01 0.00000E+00
 -1       300 8.69333E+01 1.71843E+01 0.00000E+00
 -1       301 8.53082E+01 1.77736E+01 0.00000E+00
 -1       302 8.36862E+01 1.86034E+01 0.00000E+00
 -1       303 8.25012E+01 2.00042E+01 0.00000E+00
 -1       304 8.16425E+01 2.14645E+01 0.00000E+00
 -1       305 8.10397E+01 2.30188E+01 0.00000E+00
 -1       306 8.06749E+01 2.47166E+01 0.00000E+00
 -1       307 8.08395E+01 2.64496E+01 0.00000E+00
 -1       308 8.11983E+01 2.81355E+01 0.00000E+00
 -1       309 8.20617E+01 2.96484E+01 0.00000E+00
 -1       310 8.30452E+01 3.11235E+01 0.00000E+00
 -1       311 8.44846E+01 3.20711E+01 0.00000E+00
 -1       312 8.59381E+01 3.29909E+01 0.00000E+00
 -1       313 8.76190E+01 3.32745E+01 0.00000E+00
 -1       314 8.93029E+01 3.35323E+01 0.00000E+00
 -1       315 9.09713E+01 3.31145E+01 0.00000E+00
 -1       316 9.26120E+01 3.26804E+01 0.00000E+00
 -1       317 9.39351E+01 3.16585E+01 0.00000E+00
 -1       318 9.52698E+01 3.06043E+01 0.00000E+00
 -1       319 9.61776E+01 2.91403E+01 0.00000E+00
 -1       320 9.67383E+01 2.75877E+01 0.00000E+00
 -1       321 9.70565E+01 2.60017E+01 0.00000E+00
 -1       322 5.19600E+00 4.11500E+01 0.00000E+00
 -1       323 5.19600E+00 4.41000E+01 0.00000E+00
 -1       324 5.19600E+00 3.52750E+01 0.00000E+00
 -1       325 5.19600E+00 3.23250E+01 0.00000E+00
 -1       326 5.19600E+00 2.93750E+01 0.00000E+00
 -1       327 5.19600E+00 2.64250E+01 0.00000E+00
 -1       328 5.19600E+00 2.34750E+01 0.00000E+00
 -1       329 5.19600E+00 2.05250E+01 0.00000E+00
 -1       330 5.19600E+00 1.76250E+01 0.00000E+00
 -1       331 5.19600E+00 1.46750E+01 0.00000E+00
 -1       332 5.19600E+00 1.17250E+01 0.00000E+00
 -1       333 5.19600E+00 8.77500E+00 0.00000E+00
 -1       334 5.19600E+00 5.82500E+00 0.00000E+00
 -1       335 5.53500E+00 4.00625E+00 0.00000E+00
 -1       336 8.53500E+00 4.00625E+00 0.00000E+00
 -1       337 9.15000E+00 4.48040E+01 0.00000E+00
 -1       338 1.21500E+01 4.48040E+01 0.00000E+00
 -1       339 1.51500E+01 4.48040E+01 0.00000E+00
 -1       340 1.81500E+01 4.48040E+01 0.00000E+00
 -1       341 2.11500E+01 4.48040E+01 0.00000E+00
 -1       342 2.41500E+01 4.48040E+01 0.00000E+00
 -1       343 2.71500E+01 4.48040E+01 0.00000E+00
 -1       344 3.01500E+01 4.48040E+01 0.00000E+00
 -1       345 3.31500E+01 4.48040E+01 0.00000E+00
 -1       346 3.61500E+01 4.48040E+01 0.00000E+00
 -1       347 3.91500E+01 4.48040E+01 0.00000E+00
 -1       348 4.21500E+01 4.48040E+01 0.00000E+00
 -1       349 4.51500E+01 4.48040E+01 0.00000E+00
 -1       350 4.81500E+01 4.48040E+01 0.00000E+00
 -1       351 5.11500E+01 4.48040E+01 0.00000E+00
 -1       352 5.41500E+01 4.48040E+01 0.00000E+00
 -1       353 5.71500E+01 4.48040E+01 0.00000E+00
 -1       354 6.01500E+01 4.48040E+01 0.00000E+00
 -1       355 6.31500E+01 4.48040E+01 0.00000E+00
 -1       356 6.61500E+01 4.48040E+01 0.00000E+00
 -1       357 6.91500E+01 4.48040E+01 0.00000E+00
 -1       358 7.21500E+01 4.48040E+01 0.00000E+00
 -1       359 7.51500E+01 4.48040E+01 0.00000E+00
 -1       360 7.81500E+01 4.48040E+01 0.00000E+00
 -1       361 8.11500E+01 4.48040E+01 0.00000E+00
 -1       362 8.41500E+01 4.48040E+01 0.00000E+00
 -1       363 8.71500E+01 4.48040E+01 0.00000E+00
 -1       364 9.01500E+01 4.48040E+01 0.00000E+00
 -1       365 9.31500E+01 4.48040E+01 0.00000E+00
 -1       366 9.61500E+01 4.48040E+01 0.00000E+00
 -1       367 9.91500E+01 4.48040E+01 0.00000E+00
 -1       368 1.02150E+02 4.48040E+01 0.00000E+00
 -1       369 1.05150E+02 4.48040E+01 0.00000E+00
 -1       370 1.08150E+02 4.48040E+01 0.00000E+00
 -1       371 1.11150E+02 4.48040E+01 0.00000E+00
 -1       372 1.14150E+02 4.48040E+01 0.00000E+00
 -1       373 1.17150E+02 4.48040E+01 0.00000E+00
 -1       374 1.20150E+02 4.48040E+01 0.00000E+00
 -1       375 1.23150E+02 4.48040E+01 0.00000E+00
 -1       376 1.26150E+02 4.48040E+01 0.00000E+00
 -1       377 1.29150E+02 4.48040E+01 0.00000E+00
 -1       378 1.32150E+02 4.48040E+01 0.00000E+00
 -1       379 1.35150E+02 4.48040E+01 0.00000E+00
 -1       380 1.38150E+02 4.48040E+01 0.00000E+00
 -1       381 1.41150E+02 4.48040E+01 0.00000E+00
 -1       382 1.43838E+02 4.49212E+01 0.00000E+00
 -1       383 1.15350E+01 4.00625E+00 0.00000E+00
 -1       384 1.45350E+01 4.00625E+00 0.00000E+00
 -1       385 1.75350E+01 4.00625E+00 0.00000E+00
 -1       386 2.05350E+01 4.00625E+00 0.00000E+00
 -1       387 2.35350E+01 4.00625E+00 0.00000E+00
 -1       388 2.65350E+01 4.00625E+00 0.00000E+00
 -1       389 2.95350E+01 4.00625E+00 0.00000E+00
 -1       390 3.25350E+01 4.00625E+00 0.00000E+00
 -1       391 3.55350E+01 4.00625E+00 0.00000E+00
 -1       392 3.85350E+01 4.00625E+00 0.00000E+00
 -1       393 4.15350E+01 4.00625E+00 0.00000E+00
 -1       394 4.45350E+01 4.00625E+00 0.00000E+00
 -1       395 4.75350E+01 4.00625E+00 0.00000E+00
 -1       396 5.05350E+01 4.00625E+00 0.00000E+00
 -1       397 5.35350E+01 4.00625E+00 0.00000E+00
 -1       398 5.65350E+01 4.00625E+00 0.00000E+00
 -1       399 5.95350E+01 4.00625E+00 0.00000E+00
 -1       400 6.25350E+01 4.00625E+00 0.00000E+00
 -1       401 6.55350E+01 4.00625E+00 0.00000E+00
 -1       402 6.85350E+01 4.00625E+00 0.00000E+00
 -1       403 7.15350E+01 4.00625E+00 0.00000E+00
 -1       404 7.45350E+01 4.00625E+00 0.00000E+00
 -1       405 7.75350E+01 4.00625E+00 0.00000E+00
 -1       406 8.05350E+01 4.00625E+00 0.00000E+00
 -1       407 8.35350E+01 4.00625E+00 0.00000E+00
 -1       408 8.65350E+01 4.00625E+00 0.00000E+00
 -1       409 8.95350E+01 4.00625E+00 0.00000E+00
 -1       410 9.25350E+01 4.00625E+00 0.00000E+00
 -1       411 9.55350E+01 4.00625E+00 0.00000E+00
 -1       412 9.85350E+01 4.00625E+00 0.00000E+00
 -1       413 1.01535E+02 4.00625E+00 0.00000E+00
 -1       414 1.04535E+02 4.00625E+00 0.00000E+00
 -1       415 1.07535E+02 4.00625E+00 0.00000E+00
 -1       416 1.10535E+02 4.00625E+00 0.00000E+00
 -1       417 1.13535E+02 4.00625E+00 0.00000E+00
 -1       418 1.16535E+02 4.00625E+00 0.00000E+00
 -1       419 1.19535E+02 4.00625E+00 0.00000E+00
 -1       420 1.22535E+02 4.00625E+00 0.00000E+00
 -1       421 1.25535E+02 4.00625E+00 0.00000E+00
 -1       422 1.28535E+02 4.00625E+00 0.00000E+00
 -1       423 1.31535E+02 4.00625E+00 0.00000E+00
 -1       424 1.34535E+02 4.00625E+00 0.00000E+00
 -1       425 1.37535E+02 4.00625E+00 0.00000E+00
 -1       426 1.40535E+02 4.00625E+00 0.00000E+00
 -1       427 1.43535E+02 4.00625E+00 0.00000E+00
 -1       428 1.45469E+02 4.21562E+00 0.00000E+00
 -1       429 1.44804E+02 1.18000E+01 0.00000E+00
 -1       430 1.44804E+02 8.85000E+00 0.00000E+00
 -1       431 1.45136E+02 6.53281E+00 0.00000E+00
 -1       432 1.44804E+02 1.47000E+01 0.00000E+00
 -1       433 1.44804E+02 1.76500E+01 0.00000E+00
 -1       434 1.44804E+02 2.06000E+01 0.00000E+00
 -1       435 1.44804E+02 2.35500E+01 0.00000E+00
 -1       436 1.44804E+02 2.65000E+01 0.00000E+00
 -1       437 1.44804E+02 2.94500E+01 0.00000E+00
 -1       438 1.44804E+02 3.23500E+01 0.00000E+00
 -1       439 1.44804E+02 3.53000E+01 0.00000E+00
 -1       440 1.44804E+02 3.82500E+01 0.00000E+00
 -1       441 1.44804E+02 4.12000E+01 0.00000E+00
 -1       442 9.78356E+01 2.12622E+01 0.00000E+00
 -1       443 9.84688E+01 2.52078E+01 0.00000E+00
 -1       444 9.82850E+01 2.29473E+01 0.00000E+00
 -1       445 9.66916E+01 1.91795E+01 0.00000E+00
 -1       446 9.53961E+01 1.80619E+01 0.00000E+00
 -1       447 5.19600E+00 3.82125E+01 0.00000E+00
 -1       448 9.18639E+01 1.60429E+01 0.00000E+00
 -1       449 8.95537E+01 1.56409E+01 0.00000E+00
 -1       450 8.75653E+01 1.53670E+01 0.00000E+00
 -1       451 8.55931E+01 1.60241E+01 0.00000E+00
 -1       452 8.39711E+01 1.68539E+01 0.00000E+00
 -1       453 8.19121E+01 1.83044E+01 0.00000E+00
 -1       454 8.08101E+01 1.99924E+01 0.00000E+00
 -1       455 7.99764E+01 2.17124E+01 0.00000E+00
 -1       456 7.93443E+01 2.35426E+01 0.00000E+00
 -1       457 7.93834E+01 2.57136E+01 0.00000E+00
 -1       458 7.96692E+01 2.75798E+01 0.00000E+00
 -1       459 8.02860E+01 2.96590E+01 0.00000E+00
 -1       460 8.12695E+01 3.11341E+01 0.00000E+00
 -1       461 8.30522E+01 3.26799E+01 0.00000E+00
 -1       462 8.45182E+01 3.36263E+01 0.00000E+00
 -1       463 8.65490E+01 3.44935E+01 0.00000E+00
 -1       464 8.82329E+01 3.47513E+01 0.00000E+00
 -1       465 9.05130E+01 3.48246E+01 0.00000E+00
 -1       466 9.21538E+01 3.43905E+01 0.00000E+00
 -1       467 9.41171E+01 3.32616E+01 0.00000E+00
 -1       468 9.54517E+01 3.22074E+01 0.00000E+00
 -1       469 9.68965E+01 3.05996E+01 0.00000E+00
 -1       470 9.77559E+01 2.88328E+01 0.00000E+00
 -1       471 9.84147E+01 2.70991E+01 0.00000E+00
 -1       472 9.35918E+01 1.67273E+01 0.00000E+00
 -1       473 9.09384E+01 1.47583E+01 0.00000E+00
 -1       474 1.00350E+01 6.60425E+00 0.00000E+00
 -1       475 7.79400E+00 3.08500E+01 0.00000E+00
 -1       476 7.79400E+00 3.38000E+01 0.00000E+00
 -1       477 7.79400E+00 2.49500E+01 0.00000E+00
 -1       478 7.79400E+00 2.20000E+01 0.00000E+00
 -1       479 7.79400E+00 1.91000E+01 0.00000E+00
 -1       480 7.79400E+00 1.61500E+01 0.00000E+00
 -1       481 7.79400E+00 1.32000E+01 0.00000E+00
 -1       482 7.79400E+00 1.02500E+01 0.00000E+00
 -1       483 1.30350E+01 6.60425E+00 0.00000E+00
 -1       484 1.06500E+01 4.22060E+01 0.00000E+00
 -1       485 8.60635E+01 1.41479E+01 0.00000E+00
 -1       486 1.36500E+01 4.22060E+01 0.00000E+00
 -1       487 1.66500E+01 4.22060E+01 0.00000E+00
 -1       488 1.96500E+01 4.22060E+01 0.00000E+00
 -1       489 2.26500E+01 4.22060E+01 0.00000E+00
 -1       490 2.56500E+01 4.22060E+01 0.00000E+00
 -1       491 2.86500E+01 4.22060E+01 0.00000E+00
 -1       492 3.16500E+01 4.22060E+01 0.00000E+00
 -1       493 3.46500E+01 4.22060E+01 0.00000E+00
 -1       494 3.76500E+01 4.22060E+01 0.00000E+00
 -1       495 4.06500E+01 4.22060E+01 0.00000E+00
 -1       496 4.36500E+01 4.22060E+01 0.00000E+00
 -1       497 4.66500E+01 4.22060E+01 0.00000E+00
 -1       498 4.96500E+01 4.22060E+01 0.00000E+00
 -1       499 5.26500E+01 4.22060E+01 0.00000E+00
 -1       500 5.56500E+01 4.22060E+01 0.00000E+00
 -1       501 5.86500E+01 4.22060E+01 0.00000E+00
 -1       502 6.16500E+01 4.22060E+01 0.00000E+00
 -1       503 6.46500E+01 4.22060E+01 0.00000E+00
 -1       504 6.76500E+01 4.22060E+01 0.00000E+00
 -1       505 7.06500E+01 4.22060E+01 0.00000E+00
 -1       506 7.36500E+01 4.22060E+01 0.00000E+00
 -1       507 7.66500E+01 4.22060E+01 0.00000E+00
 -1       508 7.96500E+01 4.22060E+01 0.00000E+00
 -1       509 8.26500E+01 4.22060E+01 0.00000E+00
 -1       510 8.56500E+01 4.22060E+01 0.00000E+00
 -1       511 8.86500E+01 4.22060E+01 0.00000E+00
 -1       512 9.16500E+01 4.22060E+01 0.00000E+00
 -1       513 9.46500E+01 4.22060E+01 0.00000E+00
 -1       514 9.76500E+01 4.22060E+01 0.00000E+00
 -1       515 1.00650E+02 4.22060E+01 0.00000E+00
 -1       516 1.03650E+02 4.22060E+01 0.00000E+00
 -1       517 1.06650E+02 4.22060E+01 0.00000E+00
 -1       518 1.09650E+02 4.22060E+01 0.00000E+00
 -1       519 1.12650E+02 4.22060E+01 0.00000E+00
 -1       520 1.15650E+02 4.22060E+01 0.00000E+00
 -1       521 1.18650E+02 4.22060E+01 0.00000E+00
 -1       522 1.21650E+02 4.22060E+01 0.00000E+00
 -1       523 1.24650E+02 4.22060E+01 0.00000E+00
 -1       524 1.27650E+02 4.22060E+01 0.00000E+00
 -1       525 1.30650E+02 4.22060E+01 0.00000E+00
 -1       526 1.33650E+02 4.22060E+01 0.00000E+00
 -1       527 1.36650E+02 4.22060E+01 0.00000E+00
 -1       528 1.39650E+02 4.22060E+01 0.00000E+00
 -1       529 9.97175E+01 2.16628E+01 0.00000E+00
 -1       530 1.90350E+01 6.60425E+00 0.00000E+00
 -1       531 2.20350E+01 6.60425E+00 0.00000E+00
 -1       532 2.50350E+01 6.60425E+00 0.00000E+00
 -1       533 2.80350E+01 6.60425E+00 0.00000E+00
 -1       534 3.10350E+01 6.60425E+00 0.00000E+00
 -1       535 3.40350E+01 6.60425E+00 0.00000E+00
 -1       536 3.70350E+01 6.60425E+00 0.00000E+00
 -1       537 4.00350E+01 6.60425E+00 0.00000E+00
 -1       538 4.30350E+01 6.60425E+00 0.00000E+00
 -1       539 4.60350E+01 6.60425E+00 0.00000E+00
 -1       540 4.90350E+01 6.60425E+00 0.00000E+00
 -1       541 5.20350E+01 6.60425E+00 0.00000E+00
 -1       542 5.50350E+01 6.60425E+00 0.00000E+00
 -1       543 5.80350E+01 6.60425E+00 0.00000E+00
 -1       544 6.10350E+01 6.60425E+00 0.00000E+00
 -1       545 6.40350E+01 6.60425E+00 0.00000E+00
 -1       546 6.70350E+01 6.60425E+00 0.00000E+00
 -1       547 7.00350E+01 6.60425E+00 0.00000E+00
 -1       548 7.30350E+01 6.60425E+00 0.00000E+00
 -1       549 7.60350E+01 6.60425E+00 0.00000E+00
 -1       550 7.90350E+01 6.60425E+00 0.00000E+00
 -1       551 8.20350E+01 6.60425E+00 0.00000E+00
 -1       552 8.50350E+01 6.60425E+00 0.00000E+00
 -1       553 8.80350E+01 6.60425E+00 0.00000E+00
 -1       554 9.10350E+01 6.60425E+00 0.00000E+00
 -1       555 9.40350E+01 6.60425E+00 0.00000E+00
 -1       556 9.70350E+01 6.60425E+00 0.00000E+00
 -1       557 1.00035E+02 6.60425E+00 0.00000E+00
 -1       558 1.03035E+02 6.60425E+00 0.00000E+00
 -1       559 1.06035E+02 6.60425E+00 0.00000E+00
 -1       560 1.09035E+02 6.60425E+00 0.00000E+00
 -1       561 1.12035E+02 6.60425E+00 0.00000E+00
 -1       562 1.15035E+02 6.60425E+00 0.00000E+00
 -1       563 1.18035E+02 6.60425E+00 0.00000E+00
 -1       564 1.21035E+02 6.60425E+00 0.00000E+00
 -1       565 1.24035E+02 6.60425E+00 0.00000E+00
 -1       566 1.27035E+02 6.60425E+00 0.00000E+00
 -1       567 1.30035E+02 6.60425E+00 0.00000E+00
 -1       568 1.33035E+02 6.60425E+00 0.00000E+00
 -1       569 1.36035E+02 6.60425E+00 0.00000E+00
 -1       570 1.39035E+02 6.60425E+00 0.00000E+00
 -1       571 1.42035E+02 6.60425E+00 0.00000E+00
 -1       572 1.42206E+02 1.61750E+01 0.00000E+00
 -1       573 1.42206E+02 1.91250E+01 0.00000E+00
 -1       574 1.42206E+02 1.03250E+01 0.00000E+00
 -1       575 1.42206E+02 1.32500E+01 0.00000E+00
 -1       576 1.42206E+02 2.20750E+01 0.00000E+00
 -1       577 1.42206E+02 2.50250E+01 0.00000E+00
 -1       578 1.42206E+02 2.79750E+01 0.00000E+00
 -1       579 1.42206E+02 3.08750E+01 0.00000E+00
 -1       580 1.42206E+02 3.38250E+01 0.00000E+00
 -1       581 1.42206E+02 3.67750E+01 0.00000E+00
 -1       582 1.42206E+02 3.97250E+01 0.00000E+00
 -1       583 9.99887E+01 2.61977E+01 0.00000E+00
 -1       584 1.60350E+01 6.60425E+00 0.00000E+00
 -1       585 9.86934E+01 1.94355E+01 0.00000E+00
 -1       586 9.71642E+01 1.73221E+01 0.00000E+00
 -1       587 7.92300E+00 4.16780E+01 0.00000E+00
 -1       588 9.96103E+01 2.85454E+01 0.00000E+00
 -1       589 8.49259E+01 3.54831E+01 0.00000E+00
 -1       590 7.83333E+01 2.91071E+01 0.00000E+00
 -1       591 7.79400E+00 2.79000E+01 0.00000E+00
 -1       592 8.87593E+01 1.40539E+01 0.00000E+00
 -1       593 7.99250E+01 1.82108E+01 0.00000E+00
 -1       594 9.32977E+01 1.49463E+01 0.00000E+00
 -1       595 8.44416E+01 1.49777E+01 0.00000E+00
 -1       596 8.29913E+01 3.43829E+01 0.00000E+00
 -1       597 8.19539E+01 1.61770E+01 0.00000E+00
 -1       598 7.89253E+01 2.01409E+01 0.00000E+00
 -1       599 7.81976E+01 2.21223E+01 0.00000E+00
 -1       600 7.74815E+01 2.46621E+01 0.00000E+00
 -1       601 7.81622E+01 2.68556E+01 0.00000E+00
 -1       602 7.92113E+01 3.14410E+01 0.00000E+00
 -1       603 9.87932E+01 3.04298E+01 0.00000E+00
 -1       604 8.11470E+01 3.30762E+01 0.00000E+00
 -1       605 8.71821E+01 3.59864E+01 0.00000E+00
 -1       606 8.93178E+01 3.65021E+01 0.00000E+00
 -1       607 9.17292E+01 3.61036E+01 0.00000E+00
 -1       608 9.39903E+01 3.53129E+01 0.00000E+00
 -1       609 9.58475E+01 3.40804E+01 0.00000E+00
 -1       610 9.74498E+01 3.25498E+01 0.00000E+00
 -1       611 9.99193E+01 2.39521E+01 0.00000E+00
 -1       612 7.61550E+00 6.21462E+00 0.00000E+00
 -1       613 9.53599E+01 1.59875E+01 0.00000E+00
 -1       614 7.79400E+00 3.67375E+01 0.00000E+00
 -1       615 8.72575E+01 1.28347E+01 0.00000E+00
 -1       616 1.41678E+02 4.22645E+01 0.00000E+00
 -1       617 7.85850E+00 3.92077E+01 0.00000E+00
 -1       618 1.03920E+01 2.05500E+01 0.00000E+00
 -1       619 1.03920E+01 2.35000E+01 0.00000E+00
 -1       620 1.03920E+01 1.46750E+01 0.00000E+00
 -1       621 1.03920E+01 1.17250E+01 0.00000E+00
 -1       622 1.15350E+01 9.20225E+00 0.00000E+00
 -1       623 9.94540E+01 1.72751E+01 0.00000E+00
 -1       624 1.51500E+01 3.96080E+01 0.00000E+00
 -1       625 1.81500E+01 3.96080E+01 0.00000E+00
 -1       626 2.11500E+01 3.96080E+01 0.00000E+00
 -1       627 2.41500E+01 3.96080E+01 0.00000E+00
 -1       628 2.71500E+01 3.96080E+01 0.00000E+00
 -1       629 3.01500E+01 3.96080E+01 0.00000E+00
 -1       630 3.31500E+01 3.96080E+01 0.00000E+00
 -1       631 3.61500E+01 3.96080E+01 0.00000E+00
 -1       632 3.91500E+01 3.96080E+01 0.00000E+00
 -1       633 4.21500E+01 3.96080E+01 0.00000E+00
 -1       634 4.51500E+01 3.96080E+01 0.00000E+00
 -1       635 4.81500E+01 3.96080E+01 0.00000E+00
 -1       636 5.11500E+01 3.96080E+01 0.00000E+00
 -1       637 5.41500E+01 3.96080E+01 0.00000E+00
 -1       638 5.71500E+01 3.96080E+01 0.00000E+00
 -1       639 6.01500E+01 3.96080E+01 0.00000E+00
 -1       640 6.31500E+01 3.96080E+01 0.00000E+00
 -1       641 6.61500E+01 3.96080E+01 0.00000E+00
 -1       642 6.91500E+01 3.96080E+01 0.00000E+00
 -1       643 7.21500E+01 3.96080E+01 0.00000E+00
 -1       644 7.51500E+01 3.96080E+01 0.00000E+00
 -1       645 7.81500E+01 3.96080E+01 0.00000E+00
 -1       646 8.11500E+01 3.96080E+01 0.00000E+00
 -1       647 8.41500E+01 3.96080E+01 0.00000E+00
 -1       648 8.71500E+01 3.96080E+01 0.00000E+00
 -1       649 9.01500E+01 3.96080E+01 0.00000E+00
 -1       650 9.31500E+01 3.96080E+01 0.00000E+00
 -1       651 9.61500E+01 3.96080E+01 0.00000E+00
 -1       652 9.91500E+01 3.96080E+01 0.00000E+00
 -1       653 1.02150E+02 3.96080E+01 0.00000E+00
 -1       654 1.05150E+02 3.96080E+01 0.00000E+00
 -1       655 1.08150E+02 3.96080E+01 0.00000E+00
 -1       656 1.11150E+02 3.96080E+01 0.00000E+00
 -1       657 1.14150E+02 3.96080E+01 0.00000E+00
 -1       658 1.17150E+02 3.96080E+01 0.00000E+00
 -1       659 1.20150E+02 3.96080E+01 0.00000E+00
 -1       660 1.23150E+02 3.96080E+01 0.00000E+00
 -1       661 1.26150E+02 3.96080E+01 0.00000E+00
 -1       662 1.29150E+02 3.96080E+01 0.00000E+00
 -1       663 1.32150E+02 3.96080E+01 0.00000E+00
 -1       664 1.35150E+02 3.96080E+01 0.00000E+00
 -1       665 1.38150E+02 3.96080E+01 0.00000E+00
 -1       666 7.66211E+01 2.81049E+01 0.00000E+00
 -1       667 7.90723E+01 3.35688E+01 0.00000E+00
 -1       668 2.05350E+01 9.20225E+00 0.00000E+00
 -1       669 2.95350E+01 9.20225E+00 0.00000E+00
 -1       670 3.25350E+01 9.20225E+00 0.00000E+00
 -1       671 3.55350E+01 9.20225E+00 0.00000E+00
 -1       672 3.85350E+01 9.20225E+00 0.00000E+00
 -1       673 4.15350E+01 9.20225E+00 0.00000E+00
 -1       674 4.45350E+01 9.20225E+00 0.00000E+00
 -1       675 4.75350E+01 9.20225E+00 0.00000E+00
 -1       676 5.05350E+01 9.20225E+00 0.00000E+00
 -1       677 5.35350E+01 9.20225E+00 0.00000E+00
 -1       678 5.65350E+01 9.20225E+00 0.00000E+00
 -1       679 5.95350E+01 9.20225E+00 0.00000E+00
 -1       680 6.25350E+01 9.20225E+00 0.00000E+00
 -1       681 6.55350E+01 9.20225E+00 0.00000E+00
 -1       682 6.85350E+01 9.20225E+00 0.00000E+00
 -1       683 7.15350E+01 9.20225E+00 0.00000E+00
 -1       684 7.45350E+01 9.20225E+00 0.00000E+00
 -1       685 7.75350E+01 9.20225E+00 0.00000E+00
 -1       686 8.05350E+01 9.20225E+00 0.00000E+00
 -1       687 8.35350E+01 9.20225E+00 0.00000E+00
 -1       688 8.65350E+01 9.20225E+00 0.00000E+00
 -1       689 8.95350E+01 9.20225E+00 0.00000E+00
 -1       690 9.25350E+01 9.20225E+00 0.00000E+00
 -1       691 9.55350E+01 9.20225E+00 0.00000E+00
 -1       692 9.85350E+01 9.20225E+00 0.00000E+00
 -1       693 1.01535E+02 9.20225E+00 0.00000E+00
 -1       694 1.04535E+02 9.20225E+00 0.00000E+00
 -1       695 1.07535E+02 9.20225E+00 0.00000E+00
 -1       696 1.10535E+02 9.20225E+00 0.00000E+00
 -1       697 1.13535E+02 9.20225E+00 0.00000E+00
 -1       698 1.16535E+02 9.20225E+00 0.00000E+00
 -1       699 1.19535E+02 9.20225E+00 0.00000E+00
 -1       700 1.22535E+02 9.20225E+00 0.00000E+00
 -1       701 1.25535E+02 9.20225E+00 0.00000E+00
 -1       702 1.28535E+02 9.20225E+00 0.00000E+00
 -1       703 1.31535E+02 9.20225E+00 0.00000E+00
 -1       704 1.34535E+02 9.20225E+00 0.00000E+00
 -1       705 1.37535E+02 9.20225E+00 0.00000E+00
 -1       706 1.39870E+02 9.76363E+00 0.00000E+00
 -1       707 1.39608E+02 2.35500E+01 0.00000E+00
 -1       708 1.40178E+02 3.96665E+01 0.00000E+00
 -1       709 1.39608E+02 1.76500E+01 0.00000E+00
 -1       710 1.39608E+02 2.65000E+01 0.00000E+00
 -1       711 1.39608E+02 2.06000E+01 0.00000E+00
 -1       712 9.04279E+01 1.26147E+01 0.00000E+00
 -1       713 1.39608E+02 2.94000E+01 0.00000E+00
 -1       714 1.39608E+02 3.23500E+01 0.00000E+00
 -1       715 1.39608E+02 3.53000E+01 0.00000E+00
 -1       716 1.75350E+01 9.20225E+00 0.00000E+00
 -1       717 7.58662E+01 2.28358E+01 0.00000E+00
 -1       718 1.05855E+01 3.97357E+01 0.00000E+00
 -1       719 7.59404E+01 2.59114E+01 0.00000E+00
 -1       720 2.65350E+01 9.20225E+00 0.00000E+00
 -1       721 2.35350E+01 9.20225E+00 0.00000E+00
 -1       722 1.28678E+01 3.96719E+01 0.00000E+00
 -1       723 1.01694E+02 2.26421E+01 0.00000E+00
 -1       724 7.68533E+01 3.09960E+01 0.00000E+00
 -1       725 1.00764E+02 1.98327E+01 0.00000E+00
 -1       726 1.45350E+01 9.20225E+00 0.00000E+00
 -1       727 1.00929E+02 3.02366E+01 0.00000E+00
 -1       728 1.03920E+01 1.76125E+01 0.00000E+00
 -1       729 8.23801E+01 1.38815E+01 0.00000E+00
 -1       730 9.34259E+01 3.73272E+01 0.00000E+00
 -1       731 8.40021E+01 1.30517E+01 0.00000E+00
 -1       732 7.69515E+01 2.05403E+01 0.00000E+00
 -1       733 1.03920E+01 3.23250E+01 0.00000E+00
 -1       734 9.27872E+01 1.28027E+01 0.00000E+00
 -1       735 7.96066E+01 1.58642E+01 0.00000E+00
 -1       736 1.01763E+02 2.48877E+01 0.00000E+00
 -1       737 7.77534E+01 1.83099E+01 0.00000E+00
 -1       738 9.79491E+01 3.46765E+01 0.00000E+00
 -1       739 8.11261E+01 3.50606E+01 0.00000E+00
 -1       740 8.31521E+01 3.63510E+01 0.00000E+00
 -1       741 1.01824E+02 2.76978E+01 0.00000E+00
 -1       742 9.10146E+01 3.77258E+01 0.00000E+00
 -1       743 9.59600E+01 3.62653E+01 0.00000E+00
 -1       744 9.95703E+01 3.24078E+01 0.00000E+00
 -1       745 9.75809E+01 1.48717E+01 0.00000E+00
 -1       746 9.51018E+01 1.39359E+01 0.00000E+00
 -1       747 1.03920E+01 3.52625E+01 0.00000E+00
 -1       748 1.03920E+01 2.64500E+01 0.00000E+00
 -1       749 8.51961E+01 1.17385E+01 0.00000E+00
 -1       750 1.39608E+02 1.47250E+01 0.00000E+00
 -1       751 7.67144E+01 3.31238E+01 0.00000E+00
 -1       752 1.39739E+02 1.22443E+01 0.00000E+00
 -1       753 8.00328E+01 1.35687E+01 0.00000E+00
 -1       754 1.38879E+02 3.74540E+01 0.00000E+00
 -1       755 1.03920E+01 2.93875E+01 0.00000E+00
 -1       756 8.47928E+01 3.74576E+01 0.00000E+00
 -1       757 1.29900E+01 1.32000E+01 0.00000E+00
 -1       758 1.96500E+01 3.70100E+01 0.00000E+00
 -1       759 2.26500E+01 3.70100E+01 0.00000E+00
 -1       760 2.56500E+01 3.70100E+01 0.00000E+00
 -1       761 2.86500E+01 3.70100E+01 0.00000E+00
 -1       762 3.16500E+01 3.70100E+01 0.00000E+00
 -1       763 3.46500E+01 3.70100E+01 0.00000E+00
 -1       764 3.76500E+01 3.70100E+01 0.00000E+00
 -1       765 4.06500E+01 3.70100E+01 0.00000E+00
 -1       766 4.36500E+01 3.70100E+01 0.00000E+00
 -1       767 4.66500E+01 3.70100E+01 0.00000E+00
 -1       768 4.96500E+01 3.70100E+01 0.00000E+00
 -1       769 5.26500E+01 3.70100E+01 0.00000E+00
 -1       770 5.56500E+01 3.70100E+01 0.00000E+00
 -1       771 5.86500E+01 3.70100E+01 0.00000E+00
 -1       772 6.16500E+01 3.70100E+01 0.00000E+00
 -1       773 6.46500E+01 3.70100E+01 0.00000E+00
 -1       774 6.76500E+01 3.70100E+01 0.00000E+00
 -1       775 7.06500E+01 3.70100E+01 0.00000E+00
 -1       776 7.36500E+01 3.70100E+01 0.00000E+00
 -1       777 7.66500E+01 3.70100E+01 0.00000E+00
 -1       778 8.26500E+01 3.77253E+01 0.00000E+00
 -1       779 9.76500E+01 3.72226E+01 0.00000E+00
 -1       780 1.00650E+02 3.72226E+01 0.00000E+00
 -1       781 1.03650E+02 3.72226E+01 0.00000E+00
 -1       782 1.06650E+02 3.72226E+01 0.00000E+00
 -1       783 1.09650E+02 3.72226E+01 0.00000E+00
 -1       784 1.12650E+02 3.72226E+01 0.00000E+00
 -1       785 1.15650E+02 3.72226E+01 0.00000E+00
 -1       786 1.18650E+02 3.72226E+01 0.00000E+00
 -1       787 1.21650E+02 3.72226E+01 0.00000E+00
 -1       788 1.24650E+02 3.72226E+01 0.00000E+00
 -1       789 1.27650E+02 3.72226E+01 0.00000E+00
 -1       790 1.30650E+02 3.72226E+01 0.00000E+00
 -1       791 1.33650E+02 3.72226E+01 0.00000E+00
 -1       792 1.36264E+02 3.73383E+01 0.00000E+00
 -1       793 3.10350E+01 1.18003E+01 0.00000E+00
 -1       794 4.00350E+01 1.18003E+01 0.00000E+00
 -1       795 4.30350E+01 1.18003E+01 0.00000E+00
 -1       796 4.60350E+01 1.18003E+01 0.00000E+00
 -1       797 4.90350E+01 1.18003E+01 0.00000E+00
 -1       798 5.20350E+01 1.18003E+01 0.00000E+00
 -1       799 5.50350E+01 1.18003E+01 0.00000E+00
 -1       800 5.80350E+01 1.18003E+01 0.00000E+00
 -1       801 6.10350E+01 1.18003E+01 0.00000E+00
 -1       802 6.40350E+01 1.18003E+01 0.00000E+00
 -1       803 6.70350E+01 1.18003E+01 0.00000E+00
 -1       804 7.00350E+01 1.18003E+01 0.00000E+00
 -1       805 7.30350E+01 1.18003E+01 0.00000E+00
 -1       806 7.60350E+01 1.18003E+01 0.00000E+00
 -1       807 8.80350E+01 1.12525E+01 0.00000E+00
 -1       808 9.40350E+01 1.14201E+01 0.00000E+00
 -1       809 9.70350E+01 1.15876E+01 0.00000E+00
 -1       810 1.00035E+02 1.15876E+01 0.00000E+00
 -1       811 1.03035E+02 1.15876E+01 0.00000E+00
 -1       812 1.06035E+02 1.15876E+01 0.00000E+00
 -1       813 1.09035E+02 1.15876E+01 0.00000E+00
 -1       814 1.12035E+02 1.15876E+01 0.00000E+00
 -1       815 1.15035E+02 1.15876E+01 0.00000E+00
 -1       816 1.18035E+02 1.15876E+01 0.00000E+00
 -1       817 1.21035E+02 1.15876E+01 0.00000E+00
 -1       818 1.24035E+02 1.15876E+01 0.00000E+00
 -1       819 1.27035E+02 1.15876E+01 0.00000E+00
 -1       820 1.30035E+02 1.15876E+01 0.00000E+00
 -1       821 1.33035E+02 1.15876E+01 0.00000E+00
 -1       822 1.36035E+02 1.15876E+01 0.00000E+00
 -1       823 1.37887E+02 1.19160E+01 0.00000E+00
 -1       824 7.40211E+01 2.44190E+01 0.00000E+00
 -1       825 1.29900E+01 2.20250E+01 0.00000E+00
 -1       826 1.37010E+02 2.50250E+01 0.00000E+00
 -1       827 1.37010E+02 3.38250E+01 0.00000E+00
 -1       828 1.37010E+02 2.79250E+01 0.00000E+00
 -1       829 1.90350E+01 1.18003E+01 0.00000E+00
 -1       830 1.03610E+02 2.37068E+01 0.00000E+00
 -1       831 1.04888E+01 3.74991E+01 0.00000E+00
 -1       832 7.46427E+01 2.75165E+01 0.00000E+00
 -1       833 8.22573E+01 1.16413E+01 0.00000E+00
 -1       834 1.37010E+02 3.08750E+01 0.00000E+00
 -1       835 3.70350E+01 1.18003E+01 0.00000E+00
 -1       836 3.40350E+01 1.18003E+01 0.00000E+00
 -1       837 1.66500E+01 3.70100E+01 0.00000E+00
 -1       838 2.80350E+01 1.18003E+01 0.00000E+00
 -1       839 1.03152E+02 2.95929E+01 0.00000E+00
 -1       840 7.50276E+01 2.96878E+01 0.00000E+00
 -1       841 2.50350E+01 1.18003E+01 0.00000E+00
 -1       842 7.45553E+01 2.08118E+01 0.00000E+00
 -1       843 1.00267E+02 1.47101E+01 0.00000E+00
 -1       844 7.53572E+01 1.85814E+01 0.00000E+00
 -1       845 2.20350E+01 1.18003E+01 0.00000E+00
 -1       846 1.37625E+01 1.12011E+01 0.00000E+00
 -1       847 7.89927E+01 3.58379E+01 0.00000E+00
 -1       848 1.01846E+02 3.23209E+01 0.00000E+00
 -1       849 1.00428E+02 3.47341E+01 0.00000E+00
 -1       850 1.03175E+02 2.05930E+01 0.00000E+00
 -1       851 1.02083E+02 1.75430E+01 0.00000E+00
 -1       852 7.70459E+01 1.58489E+01 0.00000E+00
 -1       853 1.03676E+02 2.62523E+01 0.00000E+00
 -1       854 1.29900E+01 2.49750E+01 0.00000E+00
 -1       855 1.43678E+01 3.70739E+01 0.00000E+00
 -1       856 1.37010E+02 1.61875E+01 0.00000E+00
 -1       857 7.27102E+01 2.23950E+01 0.00000E+00
 -1       858 1.29900E+01 3.37938E+01 0.00000E+00
 -1       859 1.29900E+01 1.90875E+01 0.00000E+00
 -1       860 1.37010E+02 1.91375E+01 0.00000E+00
 -1       861 1.37010E+02 2.20812E+01 0.00000E+00
 -1       862 7.48887E+01 3.18156E+01 0.00000E+00
 -1       863 1.63988E+01 1.15007E+01 0.00000E+00
 -1       864 1.05004E+02 2.81473E+01 0.00000E+00
 -1       865 1.29900E+01 1.61437E+01 0.00000E+00
 -1       866 8.12178E+01 3.71525E+01 0.00000E+00
 -1       867 1.36637E+02 3.55817E+01 0.00000E+00
 -1       868 1.29900E+01 3.08563E+01 0.00000E+00
 -1       869 2.41500E+01 3.44120E+01 0.00000E+00
 -1       870 2.71500E+01 3.44120E+01 0.00000E+00
 -1       871 3.01500E+01 3.44120E+01 0.00000E+00
 -1       872 3.31500E+01 3.44120E+01 0.00000E+00
 -1       873 3.61500E+01 3.44120E+01 0.00000E+00
 -1       874 3.91500E+01 3.44120E+01 0.00000E+00
 -1       875 4.21500E+01 3.44120E+01 0.00000E+00
 -1       876 4.51500E+01 3.44120E+01 0.00000E+00
 -1       877 4.81500E+01 3.44120E+01 0.00000E+00
 -1       878 5.11500E+01 3.44120E+01 0.00000E+00
 -1       879 5.41500E+01 3.44120E+01 0.00000E+00
 -1       880 5.71500E+01 3.44120E+01 0.00000E+00
 -1       881 6.01500E+01 3.44120E+01 0.00000E+00
 -1       882 6.31500E+01 3.44120E+01 0.00000E+00
 -1       883 6.61500E+01 3.44120E+01 0.00000E+00
 -1       884 6.91500E+01 3.44120E+01 0.00000E+00
 -1       885 7.21500E+01 3.44120E+01 0.00000E+00
 -1       886 1.05525E+02 2.49312E+01 0.00000E+00
 -1       887 1.04059E+02 1.45653E+01 0.00000E+00
 -1       888 1.03428E+02 3.47341E+01 0.00000E+00
 -1       889 1.06428E+02 3.47341E+01 0.00000E+00
 -1       890 1.09428E+02 3.47341E+01 0.00000E+00
 -1       891 1.12428E+02 3.47341E+01 0.00000E+00
 -1       892 1.15428E+02 3.47341E+01 0.00000E+00
 -1       893 1.18428E+02 3.47341E+01 0.00000E+00
 -1       894 1.21428E+02 3.47341E+01 0.00000E+00
 -1       895 1.24428E+02 3.47341E+01 0.00000E+00
 -1       896 1.27428E+02 3.47341E+01 0.00000E+00
 -1       897 1.30428E+02 3.47341E+01 0.00000E+00
 -1       898 1.33428E+02 3.47341E+01 0.00000E+00
 -1       899 4.45350E+01 1.43982E+01 0.00000E+00
 -1       900 7.28692E+01 1.89462E+01 0.00000E+00
 -1       901 4.15350E+01 1.43982E+01 0.00000E+00
 -1       902 5.05350E+01 1.43982E+01 0.00000E+00
 -1       903 5.35350E+01 1.43982E+01 0.00000E+00
 -1       904 5.65350E+01 1.43982E+01 0.00000E+00
 -1       905 5.95350E+01 1.43982E+01 0.00000E+00
 -1       906 6.25350E+01 1.43982E+01 0.00000E+00
 -1       907 6.55350E+01 1.43982E+01 0.00000E+00
 -1       908 6.85350E+01 1.43982E+01 0.00000E+00
 -1       909 7.15350E+01 1.43982E+01 0.00000E+00
 -1       910 7.45350E+01 1.43982E+01 0.00000E+00
 -1       911 1.05589E+02 2.18429E+01 0.00000E+00
 -1       912 1.07059E+02 1.45653E+01 0.00000E+00
 -1       913 1.10059E+02 1.45653E+01 0.00000E+00
 -1       914 1.13059E+02 1.45653E+01 0.00000E+00
 -1       915 1.16059E+02 1.45653E+01 0.00000E+00
 -1       916 1.19059E+02 1.45653E+01 0.00000E+00
 -1       917 1.22059E+02 1.45653E+01 0.00000E+00
 -1       918 1.25059E+02 1.45653E+01 0.00000E+00
 -1       919 1.28059E+02 1.45653E+01 0.00000E+00
 -1       920 1.31059E+02 1.45653E+01 0.00000E+00
 -1       921 1.34059E+02 1.45653E+01 0.00000E+00
 -1       922 2.05350E+01 1.43982E+01 0.00000E+00
 -1       923 2.65350E+01 1.43982E+01 0.00000E+00
 -1       924 1.37449E+02 1.40517E+01 0.00000E+00
 -1       925 3.85350E+01 1.43982E+01 0.00000E+00
 -1       926 1.34412E+02 2.64750E+01 0.00000E+00
 -1       927 7.29814E+01 2.89308E+01 0.00000E+00
 -1       928 7.21574E+01 2.64041E+01 0.00000E+00
 -1       929 4.75350E+01 1.43982E+01 0.00000E+00
 -1       930 1.81500E+01 3.44120E+01 0.00000E+00
 -1       931 2.95350E+01 1.43982E+01 0.00000E+00
 -1       932 1.29900E+01 2.79188E+01 0.00000E+00
 -1       933 1.04875E+02 1.82638E+01 0.00000E+00
 -1       934 1.04734E+02 3.20061E+01 0.00000E+00
 -1       935 2.35350E+01 1.43982E+01 0.00000E+00
 -1       936 2.11500E+01 3.44120E+01 0.00000E+00
 -1       937 7.37021E+01 1.66722E+01 0.00000E+00
 -1       938 1.06586E+02 3.05606E+01 0.00000E+00
 -1       939 1.55880E+01 3.23250E+01 0.00000E+00
 -1       940 1.06853E+02 2.68263E+01 0.00000E+00
 -1       941 1.34412E+02 2.35313E+01 0.00000E+00
 -1       942 3.25350E+01 1.43982E+01 0.00000E+00
 -1       943 1.75351E+01 1.43983E+01 0.00000E+00
 -1       944 7.28424E+01 3.10586E+01 0.00000E+00
 -1       945 1.34412E+02 2.94250E+01 0.00000E+00
 -1       946 7.08465E+01 2.43801E+01 0.00000E+00
 -1       947 3.55350E+01 1.43982E+01 0.00000E+00
 -1       948 1.46944E+01 1.38222E+01 0.00000E+00
 -1       949 1.34412E+02 1.76625E+01 0.00000E+00
 -1       950 1.55880E+01 2.35000E+01 0.00000E+00
 -1       951 1.55880E+01 2.05625E+01 0.00000E+00
 -1       952 2.56500E+01 3.18140E+01 0.00000E+00
 -1       953 2.86500E+01 3.18140E+01 0.00000E+00
 -1       954 3.16500E+01 3.18140E+01 0.00000E+00
 -1       955 3.46500E+01 3.18140E+01 0.00000E+00
 -1       956 3.76500E+01 3.18140E+01 0.00000E+00
 -1       957 4.06500E+01 3.18140E+01 0.00000E+00
 -1       958 4.36500E+01 3.18140E+01 0.00000E+00
 -1       959 4.66500E+01 3.18140E+01 0.00000E+00
 -1       960 4.96500E+01 3.18140E+01 0.00000E+00
 -1       961 5.26500E+01 3.18140E+01 0.00000E+00
 -1       962 5.56500E+01 3.18140E+01 0.00000E+00
 -1       963 5.86500E+01 3.18140E+01 0.00000E+00
 -1       964 6.16500E+01 3.18140E+01 0.00000E+00
 -1       965 6.46500E+01 3.18140E+01 0.00000E+00
 -1       966 6.76500E+01 3.18140E+01 0.00000E+00
 -1       967 4.30350E+01 1.69963E+01 0.00000E+00
 -1       968 1.08559E+02 1.71633E+01 0.00000E+00
 -1       969 1.55880E+01 2.93875E+01 0.00000E+00
 -1       970 1.85098E+01 3.13542E+01 0.00000E+00
 -1       971 1.10928E+02 3.21361E+01 0.00000E+00
 -1       972 1.13928E+02 3.21361E+01 0.00000E+00
 -1       973 1.16928E+02 3.21361E+01 0.00000E+00
 -1       974 1.19928E+02 3.21361E+01 0.00000E+00
 -1       975 1.22928E+02 3.21361E+01 0.00000E+00
 -1       976 1.25928E+02 3.21361E+01 0.00000E+00
 -1       977 1.28928E+02 3.21361E+01 0.00000E+00
 -1       978 1.31928E+02 3.21361E+01 0.00000E+00
 -1       979 7.02395E+01 2.05530E+01 0.00000E+00
 -1       980 1.90351E+01 1.69963E+01 0.00000E+00
 -1       981 5.50350E+01 1.69963E+01 0.00000E+00
 -1       982 5.20350E+01 1.69963E+01 0.00000E+00
 -1       983 6.10350E+01 1.69963E+01 0.00000E+00
 -1       984 6.40350E+01 1.69963E+01 0.00000E+00
 -1       985 6.70350E+01 1.69963E+01 0.00000E+00
 -1       986 7.00350E+01 1.69963E+01 0.00000E+00
 -1       987 1.11559E+02 1.71633E+01 0.00000E+00
 -1       988 1.14559E+02 1.71633E+01 0.00000E+00
 -1       989 1.17559E+02 1.71633E+01 0.00000E+00
 -1       990 1.20559E+02 1.71633E+01 0.00000E+00
 -1       991 1.23559E+02 1.71633E+01 0.00000E+00
 -1       992 1.26559E+02 1.71633E+01 0.00000E+00
 -1       993 1.29559E+02 1.71633E+01 0.00000E+00
 -1       994 1.31985E+02 1.74129E+01 0.00000E+00
 -1       995 2.20351E+01 1.69963E+01 0.00000E+00
 -1       996 1.55880E+01 2.64438E+01 0.00000E+00
 -1       997 1.34412E+02 2.05969E+01 0.00000E+00
 -1       998 4.00350E+01 1.69963E+01 0.00000E+00
 -1       999 1.34412E+02 3.23500E+01 0.00000E+00
 -1      1000 2.80350E+01 1.69963E+01 0.00000E+00
 -1      1001 1.07774E+02 2.34331E+01 0.00000E+00
 -1      1002 5.80350E+01 1.69963E+01 0.00000E+00
 -1      1003 2.50350E+01 1.69963E+01 0.00000E+00
 -1      1004 2.26500E+01 3.18140E+01 0.00000E+00
 -1      1005 1.55880E+01 1.76187E+01 0.00000E+00
 -1      1006 1.08167E+02 2.02982E+01 0.00000E+00
 -1      1007 1.08007E+02 3.26474E+01 0.00000E+00
 -1      1008 7.06202E+01 2.83031E+01 0.00000E+00
 -1      1009 1.08436E+02 2.92395E+01 0.00000E+00
 -1      1010 4.60350E+01 1.69963E+01 0.00000E+00
 -1      1011 7.06500E+01 3.18140E+01 0.00000E+00
 -1      1012 1.31814E+02 2.50031E+01 0.00000E+00
 -1      1013 3.10350E+01 1.69963E+01 0.00000E+00
 -1      1014 1.31985E+02 2.03473E+01 0.00000E+00
 -1      1015 1.81860E+01 2.49719E+01 0.00000E+00
 -1      1016 4.90350E+01 1.69963E+01 0.00000E+00
 -1      1017 7.06351E+01 3.00585E+01 0.00000E+00
 -1      1018 6.93092E+01 2.62790E+01 0.00000E+00
 -1      1019 1.31814E+02 2.79531E+01 0.00000E+00
 -1      1020 3.70350E+01 1.69963E+01 0.00000E+00
 -1      1021 1.81860E+01 2.20344E+01 0.00000E+00
 -1      1022 1.11167E+02 2.02982E+01 0.00000E+00
 -1      1023 3.01500E+01 2.92160E+01 0.00000E+00
 -1      1024 3.31500E+01 2.92160E+01 0.00000E+00
 -1      1025 3.61500E+01 2.92160E+01 0.00000E+00
 -1      1026 3.91500E+01 2.92160E+01 0.00000E+00
 -1      1027 4.21500E+01 2.92160E+01 0.00000E+00
 -1      1028 4.51500E+01 2.92160E+01 0.00000E+00
 -1      1029 4.81500E+01 2.92160E+01 0.00000E+00
 -1      1030 5.11500E+01 2.92160E+01 0.00000E+00
 -1      1031 5.41500E+01 2.92160E+01 0.00000E+00
 -1      1032 5.71500E+01 2.92160E+01 0.00000E+00
 -1      1033 6.01500E+01 2.92160E+01 0.00000E+00
 -1      1034 6.31500E+01 2.92160E+01 0.00000E+00
 -1      1035 6.61500E+01 2.92160E+01 0.00000E+00
 -1      1036 5.05350E+01 1.95942E+01 0.00000E+00
 -1      1037 1.84996E+01 2.82156E+01 0.00000E+00
 -1      1038 1.15428E+02 2.95381E+01 0.00000E+00
 -1      1039 1.18428E+02 2.95381E+01 0.00000E+00
 -1      1040 1.21428E+02 2.95381E+01 0.00000E+00
 -1      1041 1.24428E+02 2.95381E+01 0.00000E+00
 -1      1042 1.27428E+02 2.95381E+01 0.00000E+00
 -1      1043 3.40350E+01 1.69963E+01 0.00000E+00
 -1      1044 6.55350E+01 1.95942E+01 0.00000E+00
 -1      1045 6.25350E+01 1.95942E+01 0.00000E+00
 -1      1046 1.16059E+02 1.97613E+01 0.00000E+00
 -1      1047 1.19059E+02 1.97613E+01 0.00000E+00
 -1      1048 1.09454E+02 2.57107E+01 0.00000E+00
 -1      1049 1.22059E+02 1.97613E+01 0.00000E+00
 -1      1050 1.25059E+02 1.97613E+01 0.00000E+00
 -1      1051 1.28059E+02 1.97613E+01 0.00000E+00
 -1      1052 1.30022E+02 2.00543E+01 0.00000E+00
 -1      1053 5.95350E+01 1.95942E+01 0.00000E+00
 -1      1054 1.31900E+02 2.26752E+01 0.00000E+00
 -1      1055 6.79771E+01 2.28735E+01 0.00000E+00
 -1      1056 1.13613E+02 2.00298E+01 0.00000E+00
 -1      1057 5.35350E+01 1.95942E+01 0.00000E+00
 -1      1058 1.12428E+02 2.95381E+01 0.00000E+00
 -1      1059 2.41500E+01 2.92160E+01 0.00000E+00
 -1      1060 4.15350E+01 1.95942E+01 0.00000E+00
 -1      1061 5.65350E+01 1.95942E+01 0.00000E+00
 -1      1062 1.86105E+01 1.95153E+01 0.00000E+00
 -1      1063 2.16105E+01 1.95153E+01 0.00000E+00
 -1      1064 2.13248E+01 2.87158E+01 0.00000E+00
 -1      1065 2.71500E+01 2.92160E+01 0.00000E+00
 -1      1066 4.75350E+01 1.95942E+01 0.00000E+00
 -1      1067 2.46105E+01 1.95153E+01 0.00000E+00
 -1      1068 1.10310E+02 2.30045E+01 0.00000E+00
 -1      1069 2.07840E+01 2.35031E+01 0.00000E+00
 -1      1070 1.29261E+02 2.37435E+01 0.00000E+00
 -1      1071 2.10544E+01 2.61095E+01 0.00000E+00
 -1      1072 3.85350E+01 1.95942E+01 0.00000E+00
 -1      1073 4.45350E+01 1.95942E+01 0.00000E+00
 -1      1074 6.81032E+01 2.84967E+01 0.00000E+00
 -1      1075 2.95350E+01 1.95942E+01 0.00000E+00
 -1      1076 2.70728E+01 1.95548E+01 0.00000E+00
 -1      1077 1.28344E+02 2.66408E+01 0.00000E+00
 -1      1078 2.11973E+01 2.15092E+01 0.00000E+00
 -1      1079 3.46500E+01 2.66180E+01 0.00000E+00
 -1      1080 3.76500E+01 2.66180E+01 0.00000E+00
 -1      1081 4.06500E+01 2.66180E+01 0.00000E+00
 -1      1082 4.36500E+01 2.66180E+01 0.00000E+00
 -1      1083 4.66500E+01 2.66180E+01 0.00000E+00
 -1      1084 4.96500E+01 2.66180E+01 0.00000E+00
 -1      1085 5.26500E+01 2.66180E+01 0.00000E+00
 -1      1086 5.56500E+01 2.66180E+01 0.00000E+00
 -1      1087 5.86500E+01 2.66180E+01 0.00000E+00
 -1      1088 6.16500E+01 2.66180E+01 0.00000E+00
 -1      1089 6.46500E+01 2.66180E+01 0.00000E+00
 -1      1090 6.67710E+01 2.50912E+01 0.00000E+00
 -1      1091 2.86500E+01 2.66180E+01 0.00000E+00
 -1      1092 3.25350E+01 1.95942E+01 0.00000E+00
 -1      1093 1.19928E+02 2.69401E+01 0.00000E+00
 -1      1094 1.22928E+02 2.69401E+01 0.00000E+00
 -1      1095 1.25636E+02 2.67905E+01 0.00000E+00
 -1      1096 3.55350E+01 1.95942E+01 0.00000E+00
 -1      1097 1.29641E+02 2.18989E+01 0.00000E+00
 -1      1098 3.16500E+01 2.66180E+01 0.00000E+00
 -1      1099 1.17559E+02 2.23593E+01 0.00000E+00
 -1      1100 1.20559E+02 2.23593E+01 0.00000E+00
 -1      1101 6.10350E+01 2.21922E+01 0.00000E+00
 -1      1102 1.12993E+02 2.60305E+01 0.00000E+00
 -1      1103 5.80350E+01 2.21922E+01 0.00000E+00
 -1      1104 1.26559E+02 2.23593E+01 0.00000E+00
 -1      1105 4.30350E+01 2.21922E+01 0.00000E+00
 -1      1106 5.20350E+01 2.21922E+01 0.00000E+00
 -1      1107 2.56500E+01 2.66180E+01 0.00000E+00
 -1      1108 6.46723E+01 2.27856E+01 0.00000E+00
 -1      1109 1.23559E+02 2.23593E+01 0.00000E+00
 -1      1110 5.50350E+01 2.21922E+01 0.00000E+00
 -1      1111 1.16928E+02 2.69401E+01 0.00000E+00
 -1      1112 4.90350E+01 2.21922E+01 0.00000E+00
 -1      1113 1.12757E+02 2.27360E+01 0.00000E+00
 -1      1114 3.10350E+01 2.21922E+01 0.00000E+00
 -1      1115 4.60350E+01 2.21922E+01 0.00000E+00
 -1      1116 2.35346E+01 2.30334E+01 0.00000E+00
 -1      1117 2.40725E+01 2.12744E+01 0.00000E+00
 -1      1118 1.15158E+02 2.25477E+01 0.00000E+00
 -1      1119 2.85728E+01 2.21528E+01 0.00000E+00
 -1      1120 4.00350E+01 2.21922E+01 0.00000E+00
 -1      1121 1.26097E+02 2.45749E+01 0.00000E+00
 -1      1122 2.33522E+01 2.63637E+01 0.00000E+00
 -1      1123 3.61500E+01 2.40200E+01 0.00000E+00
 -1      1124 1.18428E+02 2.43421E+01 0.00000E+00
 -1      1125 3.40350E+01 2.21922E+01 0.00000E+00
 -1      1126 2.63226E+01 2.17136E+01 0.00000E+00
 -1      1127 3.70350E+01 2.21922E+01 0.00000E+00
 -1      1128 1.15545E+02 2.39541E+01 0.00000E+00
 -1      1129 0.00000E+00 4.85250E+01 0.00000E+00
 -1      1130 0.00000E+00 4.55750E+01 0.00000E+00
 -1      1131 0.00000E+00 4.26250E+01 0.00000E+00
 -1      1132 0.00000E+00 3.96750E+01 0.00000E+00
 -1      1133 0.00000E+00 3.67250E+01 0.00000E+00
 -1      1134 0.00000E+00 3.38000E+01 0.00000E+00
 -1      1135 0.00000E+00 3.08750E+01 0.00000E+00
 -1      1136 0.00000E+00 2.79250E+01 0.00000E+00
 -1      1137 0.00000E+00 2.49750E+01 0.00000E+00
 -1      1138 0.00000E+00 2.20250E+01 0.00000E+00
 -1      1139 0.00000E+00 1.90750E+01 0.00000E+00
 -1      1140 0.00000E+00 1.61500E+01 0.00000E+00
 -1      1141 0.00000E+00 1.32250E+01 0.00000E+00
 -1      1142 0.00000E+00 1.02750E+01 0.00000E+00
 -1      1143 0.00000E+00 7.32500E+00 0.00000E+00
 -1      1144 0.00000E+00 4.37500E+00 0.00000E+00
 -1      1145 0.00000E+00 1.45000E+00 0.00000E+00
 -1      1146 1.57500E+00 5.00000E+01 0.00000E+00
 -1      1147 4.65000E+00 5.00000E+01 0.00000E+00
 -1      1148 7.65000E+00 5.00000E+01 0.00000E+00
 -1      1149 1.06500E+01 5.00000E+01 0.00000E+00
 -1      1150 1.36500E+01 5.00000E+01 0.00000E+00
 -1      1151 1.66500E+01 5.00000E+01 0.00000E+00
 -1      1152 1.96500E+01 5.00000E+01 0.00000E+00
 -1      1153 2.26500E+01 5.00000E+01 0.00000E+00
 -1      1154 2.56500E+01 5.00000E+01 0.00000E+00
 -1      1155 2.86500E+01 5.00000E+01 0.00000E+00
 -1      1156 3.16500E+01 5.00000E+01 0.00000E+00
 -1      1157 3.46500E+01 5.00000E+01 0.00000E+00
 -1      1158 3.76500E+01 5.00000E+01 0.00000E+00
 -1      1159 4.06500E+01 5.00000E+01 0.00000E+00
 -1      1160 4.36500E+01 5.00000E+01 0.00000E+00
 -1      1161 4.66500E+01 5.00000E+01 0.00000E+00
 -1      1162 4.96500E+01 5.00000E+01 0.00000E+00
 -1      1163 5.26500E+01 5.00000E+01 0.00000E+00
 -1      1164 5.56500E+01 5.00000E+01 0.00000E+00
 -1      1165 5.86500E+01 5.00000E+01 0.00000E+00
 -1      1166 6.16500E+01 5.00000E+01 0.00000E+00
 -1      1167 6.46500E+01 5.00000E+01 0.00000E+00
 -1      1168 6.76500E+01 5.00000E+01 0.00000E+00
 -1      1169 7.06500E+01 5.00000E+01 0.00000E+00
 -1      1170 7.36500E+01 5.00000E+01 0.00000E+00
 -1      1171 7.66500E+01 5.00000E+01 0.00000E+00
 -1      1172 7.96500E+01 5.00000E+01 0.00000E+00
 -1      1173 8.26500E+01 5.00000E+01 0.00000E+00
 -1      1174 8.56500E+01 5.00000E+01 0.00000E+00
 -1      1175 8.86500E+01 5.00000E+01 0.00000E+00
 -1      1176 9.16500E+01 5.00000E+01 0.00000E+00
 -1      1177 9.46500E+01 5.00000E+01 0.00000E+00
 -1      1178 9.76500E+01 5.00000E+01 0.00000E+00
 -1      1179 1.00650E+02 5.00000E+01 0.00000E+00
 -1      1180 1.03650E+02 5.00000E+01 0.00000E+00
 -1      1181 1.06650E+02 5.00000E+01 0.00000E+00
 -1      1182 1.09650E+02 5.00000E+01 0.00000E+00
 -1      1183 1.12650E+02 5.00000E+01 0.00000E+00
 -1      1184 1.15650E+02 5.00000E+01 0.00000E+00
 -1      1185 1.18650E+02 5.00000E+01 0.00000E+00
 -1      1186 1.21650E+02 5.00000E+01 0.00000E+00
 -1      1187 1.24650E+02 5.00000E+01 0.00000E+00
 -1      1188 1.27650E+02 5.00000E+01 0.00000E+00
 -1      1189 1.30650E+02 5.00000E+01 0.00000E+00
 -1      1190 1.33650E+02 5.00000E+01 0.00000E+00
 -1      1191 1.36650E+02 5.00000E+01 0.00000E+00
 -1      1192 1.39650E+02 5.00000E+01 0.00000E+00
 -1      1193 1.42650E+02 5.00000E+01 0.00000E+00
 -1      1194 1.45650E+02 5.00000E+01 0.00000E+00
 -1      1195 1.48575E+02 5.00000E+01 0.00000E+00
 -1      1196 1.57500E+00 0.00000E+00 0.00000E+00
 -1      1197 4.65000E+00 0.00000E+00 0.00000E+00
 -1      1198 7.65000E+00 0.00000E+00 0.00000E+00
 -1      1199 1.06500E+01 0.00000E+00 0.00000E+00
 -1      1200 1.36500E+01 0.00000E+00 0.00000E+00
 -1      1201 1.66500E+01 0.00000E+00 0.00000E+00
 -1      1202 1.96500E+01 0.00000E+00 0.00000E+00
 -1      1203 2.26500E+01 0.00000E+00 0.00000E+00
 -1      1204 2.56500E+01 0.00000E+00 0.00000E+00
 -1      1205 2.86500E+01 0.00000E+00 0.00000E+00
 -1      1206 3.16500E+01 0.00000E+00 0.00000E+00
 -1      1207 3.46500E+01 0.00000E+00 0.00000E+00
 -1      1208 3.76500E+01 0.00000E+00 0.00000E+00
 -1      1209 4.06500E+01 0.00000E+00 0.00000E+00
 -1      1210 4.36500E+01 0.00000E+00 0.00000E+00
 -1      1211 4.66500E+01 0.00000E+00 0.00000E+00
 -1      1212 4.96500E+01 0.00000E+00 0.00000E+00
 -1      1213 5.26500E+01 0.00000E+00 0.00000E+00
 -1      1214 5.56500E+01 0.00000E+00 0.00000E+00
 -1      1215 5.86500E+01 0.00000E+00 0.00000E+00
 -1      1216 6.16500E+01 0.00000E+00 0.00000E+00
 -1      1217 6.46500E+01 0.00000E+00 0.00000E+00
 -1      1218 6.76500E+01 0.00000E+00 0.00000E+00
 -1      1219 7.06500E+01 0.00000E+00 0.00000E+00
 -1      1220 7.36500E+01 0.00000E+00 0.00000E+00
 -1      1221 7.66500E+01 0.00000E+00 0.00000E+00
 -1      1222 7.96500E+01 0.00000E+00 0.00000E+00
 -1      1223 8.26500E+01 0.00000E+00 0.00000E+00
 -1      1224 8.56500E+01 0.00000E+00 0.00000E+00
 -1      1225 8.86500E+01 0.00000E+00 0.00000E+00
 -1      1226 9.16500E+01 0.00000E+00 0.00000E+00
 -1      1227 9.46500E+01 0.00000E+00 0.00000E+00
 -1      1228 9.76500E+01 0.00000E+00 0.00000E+00
 -1      1229 1.00650E+02 0.00000E+00 0.00000E+00
 -1      1230 1.03650E+02 0.00000E+00 0.00000E+00
 -1      1231 1.06650E+02 0.00000E+00 0.00000E+00
 -1      1232 1.09650E+02 0.00000E+00 0.00000E+00
 -1      1233 1.12650E+02 0.00000E+00 0.00000E+00
 -1      1234 1.15650E+02 0.00000E+00 0.00000E+00
 -1      1235 1.18650E+02 0.00000E+00 0.00000E+00
 -1      1236 1.21650E+02 0.00000E+00 0.00000E+00
 -1      1237 1.24650E+02 0.00000E+00 0.00000E+00
 -1      1238 1.27650E+02 0.00000E+00 0.00000E+00
 -1      1239 1.30650E+02 0.00000E+00 0.00000E+00
 -1      1240 1.33650E+02 0.00000E+00 0.00000E+00
 -1      1241 1.36650E+02 0.00000E+00 0.00000E+00
 -1      1242 1.39650E+02 0.00000E+00 0.00000E+00
 -1      1243 1.42650E+02 0.00000E+00 0.00000E+00
 -1      1244 1.45650E+02 0.00000E+00 0.00000E+00
 -1      1245 1.48575E+02 0.00000E+00 0.00000E+00
 -1      1246 1.50000E+02 1.47500E+00 0.00000E+00
 -1      1247 1.50000E+02 4.42500E+00 0.00000E+00
 -1      1248 1.50000E+02 7.37500E+00 0.00000E+00
 -1      1249 1.50000E+02 1.03250E+01 0.00000E+00
 -1      1250 1.50000E+02 1.32750E+01 0.00000E+00
 -1      1251 1.50000E+02 1.62000E+01 0.00000E+00
 -1      1252 1.50000E+02 1.91250E+01 0.00000E+00
 -1      1253 1.50000E+02 2.20750E+01 0.00000E+00
 -1      1254 1.50000E+02 2.50250E+01 0.00000E+00
 -1      1255 1.50000E+02 2.79750E+01 0.00000E+00
 -1      1256 1.50000E+02 3.09250E+01 0.00000E+00
 -1      1257 1.50000E+02 3.38500E+01 0.00000E+00
 -1      1258 1.50000E+02 3.67750E+01 0.00000E+00
 -1      1259 1.50000E+02 3.97250E+01 0.00000E+00
 -1      1260 1.50000E+02 4.26750E+01 0.00000E+00
 -1      1261 1.50000E+02 4.56250E+01 0.00000E+00
 -1      1262 1.50000E+02 4.85500E+01 0.00000E+00
 -1      1263 9.58758E+01 2.44414E+01 0.00000E+00
 -1      1264 9.55593E+01 2.29911E+01 0.00000E+00
 -1      1265 9.49311E+01 2.16183E+01 0.00000E+00
 -1      1266 9.40258E+01 2.04150E+01 0.00000E+00
 -1      1267 9.29177E+01 1.94564E+01 0.00000E+00
 -1      1268 9.16394E+01 1.87515E+01 0.00000E+00
 -1      1269 9.02156E+01 1.83220E+01 0.00000E+00
 -1      1270 8.87000E+01 1.82039E+01 0.00000E+00
 -1      1271 8.72355E+01 1.84055E+01 0.00000E+00
 -1      1272 8.58577E+01 1.89045E+01 0.00000E+00
 -1      1273 8.45680E+01 1.97155E+01 0.00000E+00
 -1      1274 8.34774E+01 2.07949E+01 0.00000E+00
 -1      1275 8.26903E+01 2.20026E+01 0.00000E+00
 -1      1276 8.21710E+01 2.33322E+01 0.00000E+00
 -1      1277 8.19291E+01 2.47903E+01 0.00000E+00
 -1      1278 8.19993E+01 2.62702E+01 0.00000E+00
 -1      1279 8.23741E+01 2.76884E+01 0.00000E+00
 -1      1280 8.30448E+01 2.90105E+01 0.00000E+00
 -1      1281 8.39888E+01 3.01717E+01 0.00000E+00
 -1      1282 8.51223E+01 3.10827E+01 0.00000E+00
 -1      1283 8.64169E+01 3.17388E+01 0.00000E+00
 -1      1284 8.78059E+01 3.21118E+01 0.00000E+00
 -1      1285 8.92409E+01 3.21930E+01 0.00000E+00
 -1      1286 9.06758E+01 3.19760E+01 0.00000E+00
 -1      1287 9.20173E+01 3.14765E+01 0.00000E+00
 -1      1288 9.32121E+01 3.07280E+01 0.00000E+00
 -1      1289 9.42490E+01 2.97360E+01 0.00000E+00
 -1      1290 9.50697E+01 2.85391E+01 0.00000E+00
 -1      1291 9.56122E+01 2.72440E+01 0.00000E+00
 -1      1292 9.58834E+01 2.58862E+01 0.00000E+00
 -1      1293 1.57500E+00 4.85250E+01 0.00000E+00
 -1      1294 1.29900E+00 4.48375E+01 0.00000E+00
 -1      1295 1.29900E+00 4.63125E+01 0.00000E+00
 -1      1296 1.29900E+00 4.18875E+01 0.00000E+00
 -1      1297 1.29900E+00 4.33625E+01 0.00000E+00
 -1      1298 2.59800E+00 4.41000E+01 0.00000E+00
 -1      1299 1.29900E+00 3.89375E+01 0.00000E+00
 -1      1300 1.29900E+00 4.04125E+01 0.00000E+00
 -1      1301 2.59800E+00 4.11500E+01 0.00000E+00
 -1      1302 1.29900E+00 3.59875E+01 0.00000E+00
 -1      1303 1.29900E+00 3.74625E+01 0.00000E+00
 -1      1304 2.59800E+00 3.82000E+01 0.00000E+00
 -1      1305 1.29900E+00 3.30875E+01 0.00000E+00
 -1      1306 1.29900E+00 3.45375E+01 0.00000E+00
 -1      1307 2.59800E+00 3.52750E+01 0.00000E+00
 -1      1308 1.29900E+00 3.01375E+01 0.00000E+00
 -1      1309 1.29900E+00 3.16125E+01 0.00000E+00
 -1      1310 2.59800E+00 3.23500E+01 0.00000E+00
 -1      1311 1.29900E+00 2.71875E+01 0.00000E+00
 -1      1312 1.29900E+00 2.86625E+01 0.00000E+00
 -1      1313 2.59800E+00 2.94000E+01 0.00000E+00
 -1      1314 1.29900E+00 2.42375E+01 0.00000E+00
 -1      1315 1.29900E+00 2.57125E+01 0.00000E+00
 -1      1316 2.59800E+00 2.64500E+01 0.00000E+00
 -1      1317 1.29900E+00 2.12875E+01 0.00000E+00
 -1      1318 1.29900E+00 2.27625E+01 0.00000E+00
 -1      1319 2.59800E+00 2.35000E+01 0.00000E+00
 -1      1320 1.29900E+00 1.83375E+01 0.00000E+00
 -1      1321 1.29900E+00 1.98125E+01 0.00000E+00
 -1      1322 2.59800E+00 2.05500E+01 0.00000E+00
 -1      1323 1.29900E+00 1.54375E+01 0.00000E+00
 -1      1324 1.29900E+00 1.68875E+01 0.00000E+00
 -1      1325 2.59800E+00 1.76250E+01 0.00000E+00
 -1      1326 1.29900E+00 1.24875E+01 0.00000E+00
 -1      1327 1.29900E+00 1.39625E+01 0.00000E+00
 -1      1328 2.59800E+00 1.47000E+01 0.00000E+00
 -1      1329 1.29900E+00 9.53750E+00 0.00000E+00
 -1      1330 1.29900E+00 1.10125E+01 0.00000E+00
 -1      1331 2.59800E+00 1.17500E+01 0.00000E+00
 -1      1332 1.29900E+00 6.58750E+00 0.00000E+00
 -1      1333 1.29900E+00 8.06250E+00 0.00000E+00
 -1      1334 2.59800E+00 8.80000E+00 0.00000E+00
 -1      1335 1.29900E+00 3.63750E+00 0.00000E+00
 -1      1336 1.29900E+00 5.11250E+00 0.00000E+00
 -1      1337 2.59800E+00 5.85000E+00 0.00000E+00
 -1      1338 1.43700E+00 1.09375E+00 0.00000E+00
 -1      1339 1.43700E+00 2.54375E+00 0.00000E+00
 -1      1340 2.73600E+00 3.28125E+00 0.00000E+00
 -1      1341 3.01200E+00 1.09375E+00 0.00000E+00
 -1      1342 3.90000E+00 4.87010E+01 0.00000E+00
 -1      1343 5.40000E+00 4.87010E+01 0.00000E+00
 -1      1344 6.90000E+00 4.87010E+01 0.00000E+00
 -1      1345 8.40000E+00 4.87010E+01 0.00000E+00
 -1      1346 6.15000E+00 4.74020E+01 0.00000E+00
 -1      1347 9.90000E+00 4.87010E+01 0.00000E+00
 -1      1348 1.14000E+01 4.87010E+01 0.00000E+00
 -1      1349 9.15000E+00 4.74020E+01 0.00000E+00
 -1      1350 1.29000E+01 4.87010E+01 0.00000E+00
 -1      1351 1.44000E+01 4.87010E+01 0.00000E+00
 -1      1352 1.21500E+01 4.74020E+01 0.00000E+00
 -1      1353 1.59000E+01 4.87010E+01 0.00000E+00
 -1      1354 1.74000E+01 4.87010E+01 0.00000E+00
 -1      1355 1.51500E+01 4.74020E+01 0.00000E+00
 -1      1356 1.89000E+01 4.87010E+01 0.00000E+00
 -1      1357 2.04000E+01 4.87010E+01 0.00000E+00
 -1      1358 1.81500E+01 4.74020E+01 0.00000E+00
 -1      1359 2.19000E+01 4.87010E+01 0.00000E+00
 -1      1360 2.34000E+01 4.87010E+01 0.00000E+00
 -1      1361 2.11500E+01 4.74020E+01 0.00000E+00
 -1      1362 2.49000E+01 4.87010E+01 0.00000E+00
 -1      1363 2.64000E+01 4.87010E+01 0.00000E+00
 -1      1364 2.41500E+01 4.74020E+01 0.00000E+00
 -1      1365 2.79000E+01 4.87010E+01 0.00000E+00
 -1      1366 2.94000E+01 4.87010E+01 0.00000E+00
 -1      1367 2.71500E+01 4.74020E+01 0.00000E+00
 -1      1368 3.09000E+01 4.87010E+01 0.00000E+00
 -1      1369 3.24000E+01 4.87010E+01 0.00000E+00
 -1      1370 3.01500E+01 4.74020E+01 0.00000E+00
 -1      1371 3.39000E+01 4.87010E+01 0.00000E+00
 -1      1372 3.54000E+01 4.87010E+01 0.00000E+00
 -1      1373 3.31500E+01 4.74020E+01 0.00000E+00
 -1      1374 3.69000E+01 4.87010E+01 0.00000E+00
 -1      1375 3.84000E+01 4.87010E+01 0.00000E+00
 -1      1376 3.61500E+01 4.74020E+01 0.00000E+00
 -1      1377 3.99000E+01 4.87010E+01 0.00000E+00
 -1      1378 4.14000E+01 4.87010E+01 0.00000E+00
 -1      1379 3.91500E+01 4.74020E+01 0.00000E+00
 -1      1380 4.29000E+01 4.87010E+01 0.00000E+00
 -1      1381 4.44000E+01 4.87010E+01 0.00000E+00
 -1      1382 4.21500E+01 4.74020E+01 0.00000E+00
 -1      1383 4.59000E+01 4.87010E+01 0.00000E+00
 -1      1384 4.74000E+01 4.87010E+01 0.00000E+00
 -1      1385 4.51500E+01 4.74020E+01 0.00000E+00
 -1      1386 4.89000E+01 4.87010E+01 0.00000E+00
 -1      1387 5.04000E+01 4.87010E+01 0.00000E+00
 -1      1388 4.81500E+01 4.74020E+01 0.00000E+00
 -1      1389 5.19000E+01 4.87010E+01 0.00000E+00
 -1      1390 5.34000E+01 4.87010E+01 0.00000E+00
 -1      1391 5.11500E+01 4.74020E+01 0.00000E+00
 -1      1392 5.49000E+01 4.87010E+01 0.00000E+00
 -1      1393 5.64000E+01 4.87010E+01 0.00000E+00
 -1      1394 5.41500E+01 4.74020E+01 0.00000E+00
 -1      1395 5.79000E+01 4.87010E+01 0.00000E+00
 -1      1396 5.94000E+01 4.87010E+01 0.00000E+00
 -1      1397 5.71500E+01 4.74020E+01 0.00000E+00
 -1      1398 6.09000E+01 4.87010E+01 0.00000E+00
 -1      1399 6.24000E+01 4.87010E+01 0.00000E+00
 -1      1400 6.01500E+01 4.74020E+01 0.00000E+00
 -1      1401 6.39000E+01 4.87010E+01 0.00000E+00
 -1      1402 6.54000E+01 4.87010E+01 0.00000E+00
 -1      1403 6.31500E+01 4.74020E+01 0.00000E+00
 -1      1404 6.69000E+01 4.87010E+01 0.00000E+00
 -1      1405 6.84000E+01 4.87010E+01 0.00000E+00
 -1      1406 6.61500E+01 4.74020E+01 0.00000E+00
 -1      1407 6.99000E+01 4.87010E+01 0.00000E+00
 -1      1408 7.14000E+01 4.87010E+01 0.00000E+00
 -1      1409 6.91500E+01 4.74020E+01 0.00000E+00
 -1      1410 7.29000E+01 4.87010E+01 0.00000E+00
 -1      1411 7.44000E+01 4.87010E+01 0.00000E+00
 -1      1412 7.21500E+01 4.74020E+01 0.00000E+00
 -1      1413 7.59000E+01 4.87010E+01 0.00000E+00
 -1      1414 7.74000E+01 4.87010E+01 0.00000E+00
 -1      1415 7.51500E+01 4.74020E+01 0.00000E+00
 -1      1416 7.89000E+01 4.87010E+01 0.00000E+00
 -1      1417 8.04000E+01 4.87010E+01 0.00000E+00
 -1      1418 7.81500E+01 4.74020E+01 0.00000E+00
 -1      1419 8.19000E+01 4.87010E+01 0.00000E+00
 -1      1420 8.34000E+01 4.87010E+01 0.00000E+00
 -1      1421 8.11500E+01 4.74020E+01 0.00000E+00
 -1      1422 8.49000E+01 4.87010E+01 0.00000E+00
 -1      1423 8.64000E+01 4.87010E+01 0.00000E+00
 -1      1424 8.41500E+01 4.74020E+01 0.00000E+00
 -1      1425 8.79000E+01 4.87010E+01 0.00000E+00
 -1      1426 8.94000E+01 4.87010E+01 0.00000E+00
 -1      1427 8.71500E+01 4.74020E+01 0.00000E+00
 -1      1428 9.09000E+01 4.87010E+01 0.00000E+00
 -1      1429 9.24000E+01 4.87010E+01 0.00000E+00
 -1      1430 9.01500E+01 4.74020E+01 0.00000E+00
 -1      1431 9.39000E+01 4.87010E+01 0.00000E+00
 -1      1432 9.54000E+01 4.87010E+01 0.00000E+00
 -1      1433 9.31500E+01 4.74020E+01 0.00000E+00
 -1      1434 9.69000E+01 4.87010E+01 0.00000E+00
 -1      1435 9.84000E+01 4.87010E+01 0.00000E+00
 -1      1436 9.61500E+01 4.74020E+01 0.00000E+00
 -1      1437 9.99000E+01 4.87010E+01 0.00000E+00
 -1      1438 1.01400E+02 4.87010E+01 0.00000E+00
 -1      1439 9.91500E+01 4.74020E+01 0.00000E+00
 -1      1440 1.02900E+02 4.87010E+01 0.00000E+00
 -1      1441 1.04400E+02 4.87010E+01 0.00000E+00
 -1      1442 1.02150E+02 4.74020E+01 0.00000E+00
 -1      1443 1.05900E+02 4.87010E+01 0.00000E+00
 -1      1444 1.07400E+02 4.87010E+01 0.00000E+00
 -1      1445 1.05150E+02 4.74020E+01 0.00000E+00
 -1      1446 1.08900E+02 4.87010E+01 0.00000E+00
 -1      1447 1.10400E+02 4.87010E+01 0.00000E+00
 -1      1448 1.08150E+02 4.74020E+01 0.00000E+00
 -1      1449 1.11900E+02 4.87010E+01 0.00000E+00
 -1      1450 1.13400E+02 4.87010E+01 0.00000E+00
 -1      1451 1.11150E+02 4.74020E+01 0.00000E+00
 -1      1452 1.14900E+02 4.87010E+01 0.00000E+00
 -1      1453 1.16400E+02 4.87010E+01 0.00000E+00
 -1      1454 1.14150E+02 4.74020E+01 0.00000E+00
 -1      1455 1.17900E+02 4.87010E+01 0.00000E+00
 -1      1456 1.19400E+02 4.87010E+01 0.00000E+00
 -1      1457 1.17150E+02 4.74020E+01 0.00000E+00
 -1      1458 1.20900E+02 4.87010E+01 0.00000E+00
 -1      1459 1.22400E+02 4.87010E+01 0.00000E+00
 -1      1460 1.20150E+02 4.74020E+01 0.00000E+00
 -1      1461 1.23900E+02 4.87010E+01 0.00000E+00
 -1      1462 1.25400E+02 4.87010E+01 0.00000E+00
 -1      1463 1.23150E+02 4.74020E+01 0.00000E+00
 -1      1464 1.26900E+02 4.87010E+01 0.00000E+00
 -1      1465 1.28400E+02 4.87010E+01 0.00000E+00
 -1      1466 1.26150E+02 4.74020E+01 0.00000E+00
 -1      1467 1.29900E+02 4.87010E+01 0.00000E+00
 -1      1468 1.31400E+02 4.87010E+01 0.00000E+00
 -1      1469 1.29150E+02 4.74020E+01 0.00000E+00
 -1      1470 1.32900E+02 4.87010E+01 0.00000E+00
 -1      1471 1.34400E+02 4.87010E+01 0.00000E+00
 -1      1472 1.32150E+02 4.74020E+01 0.00000E+00
 -1      1473 1.35900E+02 4.87010E+01 0.00000E+00
 -1      1474 1.37400E+02 4.87010E+01 0.00000E+00
 -1      1475 1.35150E+02 4.74020E+01 0.00000E+00
 -1      1476 1.38900E+02 4.87010E+01 0.00000E+00
 -1      1477 1.40400E+02 4.87010E+01 0.00000E+00
 -1      1478 1.38150E+02 4.74020E+01 0.00000E+00
 -1      1479 1.41900E+02 4.87010E+01 0.00000E+00
 -1      1480 1.43400E+02 4.87010E+01 0.00000E+00
 -1      1481 1.41150E+02 4.74020E+01 0.00000E+00
 -1      1482 1.44900E+02 4.87010E+01 0.00000E+00
 -1      1483 1.46400E+02 4.87010E+01 0.00000E+00
 -1      1484 1.44150E+02 4.74020E+01 0.00000E+00
 -1      1485 1.48575E+02 4.85500E+01 0.00000E+00
 -1      1486 1.47825E+02 4.72510E+01 0.00000E+00
 -1      1487 6.01200E+00 1.09375E+00 0.00000E+00
 -1      1488 4.51200E+00 1.09375E+00 0.00000E+00
 -1      1489 4.37400E+00 2.18750E+00 0.00000E+00
 -1      1490 9.01200E+00 1.09375E+00 0.00000E+00
 -1      1491 7.51200E+00 1.09375E+00 0.00000E+00
 -1      1492 7.37400E+00 2.18750E+00 0.00000E+00
 -1      1493 1.20120E+01 1.09375E+00 0.00000E+00
 -1      1494 1.05120E+01 1.09375E+00 0.00000E+00
 -1      1495 1.03740E+01 2.18750E+00 0.00000E+00
 -1      1496 1.50120E+01 1.09375E+00 0.00000E+00
 -1      1497 1.35120E+01 1.09375E+00 0.00000E+00
 -1      1498 1.33740E+01 2.18750E+00 0.00000E+00
 -1      1499 1.80120E+01 1.09375E+00 0.00000E+00
 -1      1500 1.65120E+01 1.09375E+00 0.00000E+00
 -1      1501 1.63740E+01 2.18750E+00 0.00000E+00
 -1      1502 2.10120E+01 1.09375E+00 0.00000E+00
 -1      1503 1.95120E+01 1.09375E+00 0.00000E+00
 -1      1504 1.93740E+01 2.18750E+00 0.00000E+00
 -1      1505 2.40120E+01 1.09375E+00 0.00000E+00
 -1      1506 2.25120E+01 1.09375E+00 0.00000E+00
 -1      1507 2.23740E+01 2.18750E+00 0.00000E+00
 -1      1508 2.70120E+01 1.09375E+00 0.00000E+00
 -1      1509 2.55120E+01 1.09375E+00 0.00000E+00
 -1      1510 2.53740E+01 2.18750E+00 0.00000E+00
 -1      1511 3.00120E+01 1.09375E+00 0.00000E+00
 -1      1512 2.85120E+01 1.09375E+00 0.00000E+00
 -1      1513 2.83740E+01 2.18750E+00 0.00000E+00
 -1      1514 3.30120E+01 1.09375E+00 0.00000E+00
 -1      1515 3.15120E+01 1.09375E+00 0.00000E+00
 -1      1516 3.13740E+01 2.18750E+00 0.00000E+00
 -1      1517 3.60120E+01 1.09375E+00 0.00000E+00
 -1      1518 3.45120E+01 1.09375E+00 0.00000E+00
 -1      1519 3.43740E+01 2.18750E+00 0.00000E+00
 -1      1520 3.90120E+01 1.09375E+00 0.00000E+00
 -1      1521 3.75120E+01 1.09375E+00 0.00000E+00
 -1      1522 3.73740E+01 2.18750E+00 0.00000E+00
 -1      1523 4.20120E+01 1.09375E+00 0.00000E+00
 -1      1524 4.05120E+01 1.09375E+00 0.00000E+00
 -1      1525 4.03740E+01 2.18750E+00 0.00000E+00
 -1      1526 4.50120E+01 1.09375E+00 0.00000E+00
 -1      1527 4.35120E+01 1.09375E+00 0.00000E+00
 -1      1528 4.33740E+01 2.18750E+00 0.00000E+00
 -1      1529 4.80120E+01 1.09375E+00 0.00000E+00
 -1      1530 4.65120E+01 1.09375E+00 0.00000E+00
 -1      1531 4.63740E+01 2.18750E+00 0.00000E+00
 -1      1532 5.10120E+01 1.09375E+00 0.00000E+00
 -1      1533 4.95120E+01 1.09375E+00 0.00000E+00
 -1      1534 4.93740E+01 2.18750E+00 0.00000E+00
 -1      1535 5.40120E+01 1.09375E+00 0.00000E+00
 -1      1536 5.25120E+01 1.09375E+00 0.00000E+00
 -1      1537 5.23740E+01 2.18750E+00 0.00000E+00
 -1      1538 5.70120E+01 1.09375E+00 0.00000E+00
 -1      1539 5.55120E+01 1.09375E+00 0.00000E+00
 -1      1540 5.53740E+01 2.18750E+00 0.00000E+00
 -1      1541 6.00120E+01 1.09375E+00 0.00000E+00
 -1      1542 5.85120E+01 1.09375E+00 0.00000E+00
 -1      1543 5.83740E+01 2.18750E+00 0.00000E+00
 -1      1544 6.30120E+01 1.09375E+00 0.00000E+00
 -1      1545 6.15120E+01 1.09375E+00 0.00000E+00
 -1      1546 6.13740E+01 2.18750E+00 0.00000E+00
 -1      1547 6.60120E+01 1.09375E+00 0.00000E+00
 -1      1548 6.45120E+01 1.09375E+00 0.00000E+00
 -1      1549 6.43740E+01 2.18750E+00 0.00000E+00
 -1      1550 6.90120E+01 1.09375E+00 0.00000E+00
 -1      1551 6.75120E+01 1.09375E+00 0.00000E+00
 -1      1552 6.73740E+01 2.18750E+00 0.00000E+00
 -1      1553 7.20120E+01 1.09375E+00 0.00000E+00
 -1      1554 7.05120E+01 1.09375E+00 0.00000E+00
 -1      1555 7.03740E+01 2.18750E+00 0.00000E+00
 -1      1556 7.50120E+01 1.09375E+00 0.00000E+00
 -1      1557 7.35120E+01 1.09375E+00 0.00000E+00
 -1      1558 7.33740E+01 2.18750E+00 0.00000E+00
 -1      1559 7.80120E+01 1.09375E+00 0.00000E+00
 -1      1560 7.65120E+01 1.09375E+00 0.00000E+00
 -1      1561 7.63740E+01 2.18750E+00 0.00000E+00
 -1      1562 8.10120E+01 1.09375E+00 0.00000E+00
 -1      1563 7.95120E+01 1.09375E+00 0.00000E+00
 -1      1564 7.93740E+01 2.18750E+00 0.00000E+00
 -1      1565 8.40120E+01 1.09375E+00 0.00000E+00
 -1      1566 8.25120E+01 1.09375E+00 0.00000E+00
 -1      1567 8.23740E+01 2.18750E+00 0.00000E+00
 -1      1568 8.70120E+01 1.09375E+00 0.00000E+00
 -1      1569 8.55120E+01 1.09375E+00 0.00000E+00
 -1      1570 8.53740E+01 2.18750E+00 0.00000E+00
 -1      1571 9.00120E+01 1.09375E+00 0.00000E+00
 -1      1572 8.85120E+01 1.09375E+00 0.00000E+00
 -1      1573 8.83740E+01 2.18750E+00 0.00000E+00
 -1      1574 9.30120E+01 1.09375E+00 0.00000E+00
 -1      1575 9.15120E+01 1.09375E+00 0.00000E+00
 -1      1576 9.13740E+01 2.18750E+00 0.00000E+00
 -1      1577 9.60120E+01 1.09375E+00 0.00000E+00
 -1      1578 9.45120E+01 1.09375E+00 0.00000E+00
 -1      1579 9.43740E+01 2.18750E+00 0.00000E+00
 -1      1580 9.90120E+01 1.09375E+00 0.00000E+00
 -1      1581 9.75120E+01 1.09375E+00 0.00000E+00
 -1      1582 9.73740E+01 2.18750E+00 0.00000E+00
 -1      1583 1.02012E+02 1.09375E+00 0.00000E+00
 -1      1584 1.00512E+02 1.09375E+00 0.00000E+00
 -1      1585 1.00374E+02 2.18750E+00 0.00000E+00
 -1      1586 1.05012E+02 1.09375E+00 0.00000E+00
 -1      1587 1.03512E+02 1.09375E+00 0.00000E+00
 -1      1588 1.03374E+02 2.18750E+00 0.00000E+00
 -1      1589 1.08012E+02 1.09375E+00 0.00000E+00
 -1      1590 1.06512E+02 1.09375E+00 0.00000E+00
 -1      1591 1.06374E+02 2.18750E+00 0.00000E+00
 -1      1592 1.11012E+02 1.09375E+00 0.00000E+00
 -1      1593 1.09512E+02 1.09375E+00 0.00000E+00
 -1      1594 1.09374E+02 2.18750E+00 0.00000E+00
 -1      1595 1.14012E+02 1.09375E+00 0.00000E+00
 -1      1596 1.12512E+02 1.09375E+00 0.00000E+00
 -1      1597 1.12374E+02 2.18750E+00 0.00000E+00
 -1      1598 1.17012E+02 1.09375E+00 0.00000E+00
 -1      1599 1.15512E+02 1.09375E+00 0.00000E+00
 -1      1600 1.15374E+02 2.18750E+00 0.00000E+00
 -1      1601 1.20012E+02 1.09375E+00 0.00000E+00
 -1      1602 1.18512E+02 1.09375E+00 0.00000E+00
 -1      1603 1.18374E+02 2.18750E+00 0.00000E+00
 -1      1604 1.23012E+02 1.09375E+00 0.00000E+00
 -1      1605 1.21512E+02 1.09375E+00 0.00000E+00
 -1      1606 1.21374E+02 2.18750E+00 0.00000E+00
 -1      1607 1.26012E+02 1.09375E+00 0.00000E+00
 -1      1608 1.24512E+02 1.09375E+00 0.00000E+00
 -1      1609 1.24374E+02 2.18750E+00 0.00000E+00
 -1      1610 1.29012E+02 1.09375E+00 0.00000E+00
 -1      1611 1.27512E+02 1.09375E+00 0.00000E+00
 -1      1612 1.27374E+02 2.18750E+00 0.00000E+00
 -1      1613 1.32012E+02 1.09375E+00 0.00000E+00
 -1      1614 1.30512E+02 1.09375E+00 0.00000E+00
 -1      1615 1.30374E+02 2.18750E+00 0.00000E+00
 -1      1616 1.35012E+02 1.09375E+00 0.00000E+00
 -1      1617 1.33512E+02 1.09375E+00 0.00000E+00
 -1      1618 1.33374E+02 2.18750E+00 0.00000E+00
 -1      1619 1.38012E+02 1.09375E+00 0.00000E+00
 -1      1620 1.36512E+02 1.09375E+00 0.00000E+00
 -1      1621 1.36374E+02 2.18750E+00 0.00000E+00
 -1      1622 1.41012E+02 1.09375E+00 0.00000E+00
 -1      1623 1.39512E+02 1.09375E+00 0.00000E+00
 -1      1624 1.39374E+02 2.18750E+00 0.00000E+00
 -1      1625 1.44012E+02 1.09375E+00 0.00000E+00
 -1      1626 1.42512E+02 1.09375E+00 0.00000E+00
 -1      1627 1.42374E+02 2.18750E+00 0.00000E+00
 -1      1628 1.47012E+02 1.09375E+00 0.00000E+00
 -1      1629 1.45512E+02 1.09375E+00 0.00000E+00
 -1      1630 1.45374E+02 2.18750E+00 0.00000E+00
 -1      1631 1.48575E+02 1.47500E+00 0.00000E+00
 -1      1632 1.48701E+02 5.16250E+00 0.00000E+00
 -1      1633 1.48701E+02 3.68750E+00 0.00000E+00
 -1      1634 1.48701E+02 8.11250E+00 0.00000E+00
 -1      1635 1.48701E+02 6.63750E+00 0.00000E+00
 -1      1636 1.47402E+02 5.90000E+00 0.00000E+00
 -1      1637 1.48701E+02 1.10625E+01 0.00000E+00
 -1      1638 1.48701E+02 9.58750E+00 0.00000E+00
 -1      1639 1.47402E+02 8.85000E+00 0.00000E+00
 -1      1640 1.48701E+02 1.40125E+01 0.00000E+00
 -1      1641 1.48701E+02 1.25375E+01 0.00000E+00
 -1      1642 1.47402E+02 1.18000E+01 0.00000E+00
 -1      1643 1.48701E+02 1.69125E+01 0.00000E+00
 -1      1644 1.48701E+02 1.54625E+01 0.00000E+00
 -1      1645 1.47402E+02 1.47250E+01 0.00000E+00
 -1      1646 1.48701E+02 1.98625E+01 0.00000E+00
 -1      1647 1.48701E+02 1.83875E+01 0.00000E+00
 -1      1648 1.47402E+02 1.76500E+01 0.00000E+00
 -1      1649 1.48701E+02 2.28125E+01 0.00000E+00
 -1      1650 1.48701E+02 2.13375E+01 0.00000E+00
 -1      1651 1.47402E+02 2.06000E+01 0.00000E+00
 -1      1652 1.48701E+02 2.57625E+01 0.00000E+00
 -1      1653 1.48701E+02 2.42875E+01 0.00000E+00
 -1      1654 1.47402E+02 2.35500E+01 0.00000E+00
 -1      1655 1.48701E+02 2.87125E+01 0.00000E+00
 -1      1656 1.48701E+02 2.72375E+01 0.00000E+00
 -1      1657 1.47402E+02 2.65000E+01 0.00000E+00
 -1      1658 1.48701E+02 3.16625E+01 0.00000E+00
 -1      1659 1.48701E+02 3.01875E+01 0.00000E+00
 -1      1660 1.47402E+02 2.94500E+01 0.00000E+00
 -1      1661 1.48701E+02 3.45625E+01 0.00000E+00
 -1      1662 1.48701E+02 3.31125E+01 0.00000E+00
 -1      1663 1.47402E+02 3.23750E+01 0.00000E+00
 -1      1664 1.48701E+02 3.75125E+01 0.00000E+00
 -1      1665 1.48701E+02 3.60375E+01 0.00000E+00
 -1      1666 1.47402E+02 3.53000E+01 0.00000E+00
 -1      1667 1.48701E+02 4.04625E+01 0.00000E+00
 -1      1668 1.48701E+02 3.89875E+01 0.00000E+00
 -1      1669 1.47402E+02 3.82500E+01 0.00000E+00
 -1      1670 1.48701E+02 4.34125E+01 0.00000E+00
 -1      1671 1.48701E+02 4.19375E+01 0.00000E+00
 -1      1672 1.47402E+02 4.12000E+01 0.00000E+00
 -1      1673 1.48263E+02 4.60692E+01 0.00000E+00
 -1      1674 1.48263E+02 4.45942E+01 0.00000E+00
 -1      1675 1.46964E+02 4.38568E+01 0.00000E+00
 -1      1676 1.46088E+02 4.62202E+01 0.00000E+00
 -1      1677 9.64379E+01 2.39983E+01 0.00000E+00
 -1      1678 9.65202E+01 2.47529E+01 0.00000E+00
 -1      1679 9.59843E+01 2.24675E+01 0.00000E+00
 -1      1680 9.62132E+01 2.31558E+01 0.00000E+00
 -1      1681 9.52853E+01 2.09508E+01 0.00000E+00
 -1      1682 9.56867E+01 2.16247E+01 0.00000E+00
 -1      1683 9.41945E+01 1.97628E+01 0.00000E+00
 -1      1684 9.46876E+01 2.02893E+01 0.00000E+00
 -1      1685 9.29363E+01 1.87789E+01 0.00000E+00
 -1      1686 9.35467E+01 1.92040E+01 0.00000E+00
 -1      1687 9.15310E+01 1.80877E+01 0.00000E+00
 -1      1688 9.21906E+01 1.83661E+01 0.00000E+00
 -1      1689 8.99646E+01 1.75732E+01 0.00000E+00
 -1      1690 9.07224E+01 1.77162E+01 0.00000E+00
 -1      1691 8.83068E+01 1.76079E+01 0.00000E+00
 -1      1692 8.90555E+01 1.75847E+01 0.00000E+00
 -1      1693 8.67350E+01 1.79010E+01 0.00000E+00
 -1      1694 8.74429E+01 1.77258E+01 0.00000E+00
 -1      1695 8.52604E+01 1.85173E+01 0.00000E+00
 -1      1696 8.59225E+01 1.81956E+01 0.00000E+00
 -1      1697 8.38324E+01 1.94214E+01 0.00000E+00
 -1      1698 8.44494E+01 1.89322E+01 0.00000E+00
 -1      1699 8.27698E+01 2.07024E+01 0.00000E+00
 -1      1700 8.32399E+01 2.01219E+01 0.00000E+00
 -1      1701 8.20231E+01 2.20504E+01 0.00000E+00
 -1      1702 8.23404E+01 2.14325E+01 0.00000E+00
 -1      1703 8.15261E+01 2.35337E+01 0.00000E+00
 -1      1704 8.17217E+01 2.28275E+01 0.00000E+00
 -1      1705 8.13000E+01 2.51266E+01 0.00000E+00
 -1      1706 8.13437E+01 2.43826E+01 0.00000E+00
 -1      1707 8.14949E+01 2.67208E+01 0.00000E+00
 -1      1708 8.13824E+01 2.59931E+01 0.00000E+00
 -1      1709 8.19339E+01 2.82465E+01 0.00000E+00
 -1      1710 8.16743E+01 2.75638E+01 0.00000E+00
 -1      1711 8.27749E+01 2.96339E+01 0.00000E+00
 -1      1712 8.23656E+01 2.90030E+01 0.00000E+00
 -1      1713 8.37953E+01 3.08955E+01 0.00000E+00
 -1      1714 8.32667E+01 3.03714E+01 0.00000E+00
 -1      1715 8.51115E+01 3.17541E+01 0.00000E+00
 -1      1716 8.45150E+01 3.13694E+01 0.00000E+00
 -1      1717 8.65308E+01 3.24789E+01 0.00000E+00
 -1      1718 8.58382E+01 3.22140E+01 0.00000E+00
 -1      1719 8.80592E+01 3.27313E+01 0.00000E+00
 -1      1720 8.73713E+01 3.26207E+01 0.00000E+00
 -1      1721 8.96409E+01 3.28259E+01 0.00000E+00
 -1      1722 8.89011E+01 3.28602E+01 0.00000E+00
 -1      1723 9.11629E+01 3.24385E+01 0.00000E+00
 -1      1724 9.04751E+01 3.26170E+01 0.00000E+00
 -1      1725 9.26296E+01 3.19021E+01 0.00000E+00
 -1      1726 9.19832E+01 3.22214E+01 0.00000E+00
 -1      1727 9.38352E+01 3.09685E+01 0.00000E+00
 -1      1728 9.32912E+01 3.13912E+01 0.00000E+00
 -1      1729 9.49859E+01 2.98731E+01 0.00000E+00
 -1      1730 9.45025E+01 3.04414E+01 0.00000E+00
 -1      1731 9.57762E+01 2.85213E+01 0.00000E+00
 -1      1732 9.54398E+01 2.91411E+01 0.00000E+00
 -1      1733 9.62605E+01 2.70765E+01 0.00000E+00
 -1      1734 9.60565E+01 2.77450E+01 0.00000E+00
 -1      1735 9.64868E+01 2.56011E+01 0.00000E+00
 -1      1736 9.64196E+01 2.62835E+01 0.00000E+00
 -1      1737 9.42357E+01 1.90528E+01 0.00000E+00
 -1      1738 9.54811E+01 2.02732E+01 0.00000E+00
 -1      1739 1.48437E+02 2.56875E+00 0.00000E+00
 -1      1740 1.47138E+02 3.30625E+00 0.00000E+00
 -1      1741 9.68986E+01 2.34628E+01 0.00000E+00
 -1      1742 9.63764E+01 2.17775E+01 0.00000E+00
 -1      1743 9.70899E+01 2.51535E+01 0.00000E+00
 -1      1744 9.28423E+01 1.80812E+01 0.00000E+00
 -1      1745 9.12879E+01 1.72970E+01 0.00000E+00
 -1      1746 8.95701E+01 1.69370E+01 0.00000E+00
 -1      1747 8.77971E+01 1.70664E+01 0.00000E+00
 -1      1748 8.61207E+01 1.74789E+01 0.00000E+00
 -1      1749 8.44972E+01 1.81885E+01 0.00000E+00
 -1      1750 8.30937E+01 1.93038E+01 0.00000E+00
 -1      1751 8.20719E+01 2.07344E+01 0.00000E+00
 -1      1752 8.13411E+01 2.22417E+01 0.00000E+00
 -1      1753 8.08573E+01 2.38677E+01 0.00000E+00
 -1      1754 8.07572E+01 2.55831E+01 0.00000E+00
 -1      1755 8.10189E+01 2.72925E+01 0.00000E+00
 -1      1756 8.16300E+01 2.88919E+01 0.00000E+00
 -1      1757 8.25535E+01 3.03859E+01 0.00000E+00
 -1      1758 8.37649E+01 3.15973E+01 0.00000E+00
 -1      1759 8.52113E+01 3.25310E+01 0.00000E+00
 -1      1760 8.67785E+01 3.31327E+01 0.00000E+00
 -1      1761 8.84610E+01 3.34034E+01 0.00000E+00
 -1      1762 9.01371E+01 3.33234E+01 0.00000E+00
 -1      1763 9.17917E+01 3.28975E+01 0.00000E+00
 -1      1764 9.32736E+01 3.21695E+01 0.00000E+00
 -1      1765 9.46024E+01 3.11314E+01 0.00000E+00
 -1      1766 9.57237E+01 2.98723E+01 0.00000E+00
 -1      1767 9.64580E+01 2.83640E+01 0.00000E+00
 -1      1768 9.68974E+01 2.67947E+01 0.00000E+00
 -1      1769 2.87400E+00 4.77875E+01 0.00000E+00
 -1      1770 3.89700E+00 4.04125E+01 0.00000E+00
 -1      1771 3.89700E+00 4.18875E+01 0.00000E+00
 -1      1772 3.89700E+00 4.33625E+01 0.00000E+00
 -1      1773 3.89700E+00 4.48375E+01 0.00000E+00
 -1      1774 5.19600E+00 4.26250E+01 0.00000E+00
 -1      1775 3.89700E+00 3.45500E+01 0.00000E+00
 -1      1776 3.89700E+00 3.60000E+01 0.00000E+00
 -1      1777 3.89700E+00 3.16000E+01 0.00000E+00
 -1      1778 3.89700E+00 3.30750E+01 0.00000E+00
 -1      1779 5.19600E+00 3.38000E+01 0.00000E+00
 -1      1780 3.89700E+00 2.86500E+01 0.00000E+00
 -1      1781 3.89700E+00 3.01250E+01 0.00000E+00
 -1      1782 5.19600E+00 3.08500E+01 0.00000E+00
 -1      1783 3.89700E+00 2.57000E+01 0.00000E+00
 -1      1784 3.89700E+00 2.71750E+01 0.00000E+00
 -1      1785 5.19600E+00 2.79000E+01 0.00000E+00
 -1      1786 3.89700E+00 2.27500E+01 0.00000E+00
 -1      1787 3.89700E+00 2.42250E+01 0.00000E+00
 -1      1788 5.19600E+00 2.49500E+01 0.00000E+00
 -1      1789 3.89700E+00 1.98000E+01 0.00000E+00
 -1      1790 3.89700E+00 2.12750E+01 0.00000E+00
 -1      1791 5.19600E+00 2.20000E+01 0.00000E+00
 -1      1792 3.89700E+00 1.69000E+01 0.00000E+00
 -1      1793 3.89700E+00 1.83500E+01 0.00000E+00
 -1      1794 5.19600E+00 1.90750E+01 0.00000E+00
 -1      1795 3.89700E+00 1.39500E+01 0.00000E+00
 -1      1796 3.89700E+00 1.54250E+01 0.00000E+00
 -1      1797 5.19600E+00 1.61500E+01 0.00000E+00
 -1      1798 3.89700E+00 1.10000E+01 0.00000E+00
 -1      1799 3.89700E+00 1.24750E+01 0.00000E+00
 -1      1800 5.19600E+00 1.32000E+01 0.00000E+00
 -1      1801 3.89700E+00 8.05000E+00 0.00000E+00
 -1      1802 3.89700E+00 9.52500E+00 0.00000E+00
 -1      1803 5.19600E+00 1.02500E+01 0.00000E+00
 -1      1804 3.89700E+00 5.10000E+00 0.00000E+00
 -1      1805 3.89700E+00 6.57500E+00 0.00000E+00
 -1      1806 5.19600E+00 7.30000E+00 0.00000E+00
 -1      1807 4.20450E+00 3.09687E+00 0.00000E+00
 -1      1808 4.06650E+00 4.19063E+00 0.00000E+00
 -1      1809 5.36550E+00 4.91563E+00 0.00000E+00
 -1      1810 5.70450E+00 3.09687E+00 0.00000E+00
 -1      1811 3.62400E+00 4.64885E+01 0.00000E+00
 -1      1812 8.70450E+00 3.09687E+00 0.00000E+00
 -1      1813 7.20450E+00 3.09687E+00 0.00000E+00
 -1      1814 7.03500E+00 4.00625E+00 0.00000E+00
 -1      1815 4.92300E+00 4.57510E+01 0.00000E+00
 -1      1816 8.40000E+00 4.61030E+01 0.00000E+00
 -1      1817 9.90000E+00 4.61030E+01 0.00000E+00
 -1      1818 1.14000E+01 4.61030E+01 0.00000E+00
 -1      1819 1.29000E+01 4.61030E+01 0.00000E+00
 -1      1820 1.06500E+01 4.48040E+01 0.00000E+00
 -1      1821 1.44000E+01 4.61030E+01 0.00000E+00
 -1      1822 1.59000E+01 4.61030E+01 0.00000E+00
 -1      1823 1.36500E+01 4.48040E+01 0.00000E+00
 -1      1824 1.74000E+01 4.61030E+01 0.00000E+00
 -1      1825 1.89000E+01 4.61030E+01 0.00000E+00
 -1      1826 1.66500E+01 4.48040E+01 0.00000E+00
 -1      1827 2.04000E+01 4.61030E+01 0.00000E+00
 -1      1828 2.19000E+01 4.61030E+01 0.00000E+00
 -1      1829 1.96500E+01 4.48040E+01 0.00000E+00
 -1      1830 2.34000E+01 4.61030E+01 0.00000E+00
 -1      1831 2.49000E+01 4.61030E+01 0.00000E+00
 -1      1832 2.26500E+01 4.48040E+01 0.00000E+00
 -1      1833 2.64000E+01 4.61030E+01 0.00000E+00
 -1      1834 2.79000E+01 4.61030E+01 0.00000E+00
 -1      1835 2.56500E+01 4.48040E+01 0.00000E+00
 -1      1836 2.94000E+01 4.61030E+01 0.00000E+00
 -1      1837 3.09000E+01 4.61030E+01 0.00000E+00
 -1      1838 2.86500E+01 4.48040E+01 0.00000E+00
 -1      1839 3.24000E+01 4.61030E+01 0.00000E+00
 -1      1840 3.39000E+01 4.61030E+01 0.00000E+00
 -1      1841 3.16500E+01 4.48040E+01 0.00000E+00
 -1      1842 3.54000E+01 4.61030E+01 0.00000E+00
 -1      1843 3.69000E+01 4.61030E+01 0.00000E+00
 -1      1844 3.46500E+01 4.48040E+01 0.00000E+00
 -1      1845 3.84000E+01 4.61030E+01 0.00000E+00
 -1      1846 3.99000E+01 4.61030E+01 0.00000E+00
 -1      1847 3.76500E+01 4.48040E+01 0.00000E+00
 -1      1848 4.14000E+01 4.61030E+01 0.00000E+00
 -1      1849 4.29000E+01 4.61030E+01 0.00000E+00
 -1      1850 4.06500E+01 4.48040E+01 0.00000E+00
 -1      1851 4.44000E+01 4.61030E+01 0.00000E+00
 -1      1852 4.59000E+01 4.61030E+01 0.00000E+00
 -1      1853 4.36500E+01 4.48040E+01 0.00000E+00
 -1      1854 4.74000E+01 4.61030E+01 0.00000E+00
 -1      1855 4.89000E+01 4.61030E+01 0.00000E+00
 -1      1856 4.66500E+01 4.48040E+01 0.00000E+00
 -1      1857 5.04000E+01 4.61030E+01 0.00000E+00
 -1      1858 5.19000E+01 4.61030E+01 0.00000E+00
 -1      1859 4.96500E+01 4.48040E+01 0.00000E+00
 -1      1860 5.34000E+01 4.61030E+01 0.00000E+00
 -1      1861 5.49000E+01 4.61030E+01 0.00000E+00
 -1      1862 5.26500E+01 4.48040E+01 0.00000E+00
 -1      1863 5.64000E+01 4.61030E+01 0.00000E+00
 -1      1864 5.79000E+01 4.61030E+01 0.00000E+00
 -1      1865 5.56500E+01 4.48040E+01 0.00000E+00
 -1      1866 5.94000E+01 4.61030E+01 0.00000E+00
 -1      1867 6.09000E+01 4.61030E+01 0.00000E+00
 -1      1868 5.86500E+01 4.48040E+01 0.00000E+00
 -1      1869 6.24000E+01 4.61030E+01 0.00000E+00
 -1      1870 6.39000E+01 4.61030E+01 0.00000E+00
 -1      1871 6.16500E+01 4.48040E+01 0.00000E+00
 -1      1872 6.54000E+01 4.61030E+01 0.00000E+00
 -1      1873 6.69000E+01 4.61030E+01 0.00000E+00
 -1      1874 6.46500E+01 4.48040E+01 0.00000E+00
 -1      1875 6.84000E+01 4.61030E+01 0.00000E+00
 -1      1876 6.99000E+01 4.61030E+01 0.00000E+00
 -1      1877 6.76500E+01 4.48040E+01 0.00000E+00
 -1      1878 7.14000E+01 4.61030E+01 0.00000E+00
 -1      1879 7.29000E+01 4.61030E+01 0.00000E+00
 -1      1880 7.06500E+01 4.48040E+01 0.00000E+00
 -1      1881 7.44000E+01 4.61030E+01 0.00000E+00
 -1      1882 7.59000E+01 4.61030E+01 0.00000E+00
 -1      1883 7.36500E+01 4.48040E+01 0.00000E+00
 -1      1884 7.74000E+01 4.61030E+01 0.00000E+00
 -1      1885 7.89000E+01 4.61030E+01 0.00000E+00
 -1      1886 7.66500E+01 4.48040E+01 0.00000E+00
 -1      1887 8.04000E+01 4.61030E+01 0.00000E+00
 -1      1888 8.19000E+01 4.61030E+01 0.00000E+00
 -1      1889 7.96500E+01 4.48040E+01 0.00000E+00
 -1      1890 8.34000E+01 4.61030E+01 0.00000E+00
 -1      1891 8.49000E+01 4.61030E+01 0.00000E+00
 -1      1892 8.26500E+01 4.48040E+01 0.00000E+00
 -1      1893 8.64000E+01 4.61030E+01 0.00000E+00
 -1      1894 8.79000E+01 4.61030E+01 0.00000E+00
 -1      1895 8.56500E+01 4.48040E+01 0.00000E+00
 -1      1896 8.94000E+01 4.61030E+01 0.00000E+00
 -1      1897 9.09000E+01 4.61030E+01 0.00000E+00
 -1      1898 8.86500E+01 4.48040E+01 0.00000E+00
 -1      1899 9.24000E+01 4.61030E+01 0.00000E+00
 -1      1900 9.39000E+01 4.61030E+01 0.00000E+00
 -1      1901 9.16500E+01 4.48040E+01 0.00000E+00
 -1      1902 9.54000E+01 4.61030E+01 0.00000E+00
 -1      1903 9.69000E+01 4.61030E+01 0.00000E+00
 -1      1904 9.46500E+01 4.48040E+01 0.00000E+00
 -1      1905 9.84000E+01 4.61030E+01 0.00000E+00
 -1      1906 9.99000E+01 4.61030E+01 0.00000E+00
 -1      1907 9.76500E+01 4.48040E+01 0.00000E+00
 -1      1908 1.01400E+02 4.61030E+01 0.00000E+00
 -1      1909 1.02900E+02 4.61030E+01 0.00000E+00
 -1      1910 1.00650E+02 4.48040E+01 0.00000E+00
 -1      1911 1.04400E+02 4.61030E+01 0.00000E+00
 -1      1912 1.05900E+02 4.61030E+01 0.00000E+00
 -1      1913 1.03650E+02 4.48040E+01 0.00000E+00
 -1      1914 1.07400E+02 4.61030E+01 0.00000E+00
 -1      1915 1.08900E+02 4.61030E+01 0.00000E+00
 -1      1916 1.06650E+02 4.48040E+01 0.00000E+00
 -1      1917 1.10400E+02 4.61030E+01 0.00000E+00
 -1      1918 1.11900E+02 4.61030E+01 0.00000E+00
 -1      1919 1.09650E+02 4.48040E+01 0.00000E+00
 -1      1920 1.13400E+02 4.61030E+01 0.00000E+00
 -1      1921 1.14900E+02 4.61030E+01 0.00000E+00
 -1      1922 1.12650E+02 4.48040E+01 0.00000E+00
 -1      1923 1.16400E+02 4.61030E+01 0.00000E+00
 -1      1924 1.17900E+02 4.61030E+01 0.00000E+00
 -1      1925 1.15650E+02 4.48040E+01 0.00000E+00
 -1      1926 1.19400E+02 4.61030E+01 0.00000E+00
 -1      1927 1.20900E+02 4.61030E+01 0.00000E+00
 -1      1928 1.18650E+02 4.48040E+01 0.00000E+00
 -1      1929 1.22400E+02 4.61030E+01 0.00000E+00
 -1      1930 1.23900E+02 4.61030E+01 0.00000E+00
 -1      1931 1.21650E+02 4.48040E+01 0.00000E+00
 -1      1932 1.25400E+02 4.61030E+01 0.00000E+00
 -1      1933 1.26900E+02 4.61030E+01 0.00000E+00
 -1      1934 1.24650E+02 4.48040E+01 0.00000E+00
 -1      1935 1.28400E+02 4.61030E+01 0.00000E+00
 -1      1936 1.29900E+02 4.61030E+01 0.00000E+00
 -1      1937 1.27650E+02 4.48040E+01 0.00000E+00
 -1      1938 1.31400E+02 4.61030E+01 0.00000E+00
 -1      1939 1.32900E+02 4.61030E+01 0.00000E+00
 -1      1940 1.30650E+02 4.48040E+01 0.00000E+00
 -1      1941 1.34400E+02 4.61030E+01 0.00000E+00
 -1      1942 1.35900E+02 4.61030E+01 0.00000E+00
 -1      1943 1.33650E+02 4.48040E+01 0.00000E+00
 -1      1944 1.37400E+02 4.61030E+01 0.00000E+00
 -1      1945 1.38900E+02 4.61030E+01 0.00000E+00
 -1      1946 1.36650E+02 4.48040E+01 0.00000E+00
 -1      1947 1.40400E+02 4.61030E+01 0.00000E+00
 -1      1948 1.41900E+02 4.61030E+01 0.00000E+00
 -1      1949 1.39650E+02 4.48040E+01 0.00000E+00
 -1      1950 1.43244E+02 4.61616E+01 0.00000E+00
 -1      1951 1.44744E+02 4.61616E+01 0.00000E+00
 -1      1952 1.45182E+02 4.49799E+01 0.00000E+00
 -1      1953 1.42494E+02 4.48626E+01 0.00000E+00
 -1      1954 1.17045E+01 3.09687E+00 0.00000E+00
 -1      1955 1.02045E+01 3.09687E+00 0.00000E+00
 -1      1956 1.00350E+01 4.00625E+00 0.00000E+00
 -1      1957 1.47045E+01 3.09687E+00 0.00000E+00
 -1      1958 1.32045E+01 3.09687E+00 0.00000E+00
 -1      1959 1.30350E+01 4.00625E+00 0.00000E+00
 -1      1960 1.77045E+01 3.09687E+00 0.00000E+00
 -1      1961 1.62045E+01 3.09687E+00 0.00000E+00
 -1      1962 1.60350E+01 4.00625E+00 0.00000E+00
 -1      1963 2.07045E+01 3.09687E+00 0.00000E+00
 -1      1964 1.92045E+01 3.09687E+00 0.00000E+00
 -1      1965 1.90350E+01 4.00625E+00 0.00000E+00
 -1      1966 2.37045E+01 3.09687E+00 0.00000E+00
 -1      1967 2.22045E+01 3.09687E+00 0.00000E+00
 -1      1968 2.20350E+01 4.00625E+00 0.00000E+00
 -1      1969 2.67045E+01 3.09687E+00 0.00000E+00
 -1      1970 2.52045E+01 3.09687E+00 0.00000E+00
 -1      1971 2.50350E+01 4.00625E+00 0.00000E+00
 -1      1972 2.97045E+01 3.09687E+00 0.00000E+00
 -1      1973 2.82045E+01 3.09687E+00 0.00000E+00
 -1      1974 2.80350E+01 4.00625E+00 0.00000E+00
 -1      1975 3.27045E+01 3.09687E+00 0.00000E+00
 -1      1976 3.12045E+01 3.09687E+00 0.00000E+00
 -1      1977 3.10350E+01 4.00625E+00 0.00000E+00
 -1      1978 3.57045E+01 3.09687E+00 0.00000E+00
 -1      1979 3.42045E+01 3.09687E+00 0.00000E+00
 -1      1980 3.40350E+01 4.00625E+00 0.00000E+00
 -1      1981 3.87045E+01 3.09687E+00 0.00000E+00
 -1      1982 3.72045E+01 3.09687E+00 0.00000E+00
 -1      1983 3.70350E+01 4.00625E+00 0.00000E+00
 -1      1984 4.17045E+01 3.09687E+00 0.00000E+00
 -1      1985 4.02045E+01 3.09687E+00 0.00000E+00
 -1      1986 4.00350E+01 4.00625E+00 0.00000E+00
 -1      1987 4.47045E+01 3.09687E+00 0.00000E+00
 -1      1988 4.32045E+01 3.09687E+00 0.00000E+00
 -1      1989 4.30350E+01 4.00625E+00 0.00000E+00
 -1      1990 4.77045E+01 3.09687E+00 0.00000E+00
 -1      1991 4.62045E+01 3.09687E+00 0.00000E+00
 -1      1992 4.60350E+01 4.00625E+00 0.00000E+00
 -1      1993 5.07045E+01 3.09687E+00 0.00000E+00
 -1      1994 4.92045E+01 3.09687E+00 0.00000E+00
 -1      1995 4.90350E+01 4.00625E+00 0.00000E+00
 -1      1996 5.37045E+01 3.09687E+00 0.00000E+00
 -1      1997 5.22045E+01 3.09687E+00 0.00000E+00
 -1      1998 5.20350E+01 4.00625E+00 0.00000E+00
 -1      1999 5.67045E+01 3.09687E+00 0.00000E+00
 -1      2000 5.52045E+01 3.09687E+00 0.00000E+00
 -1      2001 5.50350E+01 4.00625E+00 0.00000E+00
 -1      2002 5.97045E+01 3.09687E+00 0.00000E+00
 -1      2003 5.82045E+01 3.09687E+00 0.00000E+00
 -1      2004 5.80350E+01 4.00625E+00 0.00000E+00
 -1      2005 6.27045E+01 3.09687E+00 0.00000E+00
 -1      2006 6.12045E+01 3.09687E+00 0.00000E+00
 -1      2007 6.10350E+01 4.00625E+00 0.00000E+00
 -1      2008 6.57045E+01 3.09687E+00 0.00000E+00
 -1      2009 6.42045E+01 3.09687E+00 0.00000E+00
 -1      2010 6.40350E+01 4.00625E+00 0.00000E+00
 -1      2011 6.87045E+01 3.09687E+00 0.00000E+00
 -1      2012 6.72045E+01 3.09687E+00 0.00000E+00
 -1      2013 6.70350E+01 4.00625E+00 0.00000E+00
 -1      2014 7.17045E+01 3.09687E+00 0.00000E+00
 -1      2015 7.02045E+01 3.09687E+00 0.00000E+00
 -1      2016 7.00350E+01 4.00625E+00 0.00000E+00
 -1      2017 7.47045E+01 3.09687E+00 0.00000E+00
 -1      2018 7.32045E+01 3.09687E+00 0.00000E+00
 -1      2019 7.30350E+01 4.00625E+00 0.00000E+00
 -1      2020 7.77045E+01 3.09687E+00 0.00000E+00
 -1      2021 7.62045E+01 3.09687E+00 0.00000E+00
 -1      2022 7.60350E+01 4.00625E+00 0.00000E+00
 -1      2023 8.07045E+01 3.09687E+00 0.00000E+00
 -1      2024 7.92045E+01 3.09687E+00 0.00000E+00
 -1      2025 7.90350E+01 4.00625E+00 0.00000E+00
 -1      2026 8.37045E+01 3.09687E+00 0.00000E+00
 -1      2027 8.22045E+01 3.09687E+00 0.00000E+00
 -1      2028 8.20350E+01 4.00625E+00 0.00000E+00
 -1      2029 8.67045E+01 3.09687E+00 0.00000E+00
 -1      2030 8.52045E+01 3.09687E+00 0.00000E+00
 -1      2031 8.50350E+01 4.00625E+00 0.00000E+00
 -1      2032 8.97045E+01 3.09687E+00 0.00000E+00
 -1      2033 8.82045E+01 3.09687E+00 0.00000E+00
 -1      2034 8.80350E+01 4.00625E+00 0.00000E+00
 -1      2035 9.27045E+01 3.09687E+00 0.00000E+00
 -1      2036 9.12045E+01 3.09687E+00 0.00000E+00
 -1      2037 9.10350E+01 4.00625E+00 0.00000E+00
 -1      2038 9.57045E+01 3.09687E+00 0.00000E+00
 -1      2039 9.42045E+01 3.09687E+00 0.00000E+00
 -1      2040 9.40350E+01 4.00625E+00 0.00000E+00
 -1      2041 9.87045E+01 3.09687E+00 0.00000E+00
 -1      2042 9.72045E+01 3.09687E+00 0.00000E+00
 -1      2043 9.70350E+01 4.00625E+00 0.00000E+00
 -1      2044 1.01704E+02 3.09687E+00 0.00000E+00
 -1      2045 1.00204E+02 3.09687E+00 0.00000E+00
 -1      2046 1.00035E+02 4.00625E+00 0.00000E+00
 -1      2047 1.04704E+02 3.09687E+00 0.00000E+00
 -1      2048 1.03204E+02 3.09687E+00 0.00000E+00
 -1      2049 1.03035E+02 4.00625E+00 0.00000E+00
 -1      2050 1.07704E+02 3.09687E+00 0.00000E+00
 -1      2051 1.06204E+02 3.09687E+00 0.00000E+00
 -1      2052 1.06035E+02 4.00625E+00 0.00000E+00
 -1      2053 1.10704E+02 3.09687E+00 0.00000E+00
 -1      2054 1.09204E+02 3.09687E+00 0.00000E+00
 -1      2055 1.09035E+02 4.00625E+00 0.00000E+00
 -1      2056 1.13704E+02 3.09687E+00 0.00000E+00
 -1      2057 1.12204E+02 3.09687E+00 0.00000E+00
 -1      2058 1.12035E+02 4.00625E+00 0.00000E+00
 -1      2059 1.16704E+02 3.09687E+00 0.00000E+00
 -1      2060 1.15204E+02 3.09687E+00 0.00000E+00
 -1      2061 1.15035E+02 4.00625E+00 0.00000E+00
 -1      2062 1.19704E+02 3.09687E+00 0.00000E+00
 -1      2063 1.18204E+02 3.09687E+00 0.00000E+00
 -1      2064 1.18035E+02 4.00625E+00 0.00000E+00
 -1      2065 1.22704E+02 3.09687E+00 0.00000E+00
 -1      2066 1.21204E+02 3.09687E+00 0.00000E+00
 -1      2067 1.21035E+02 4.00625E+00 0.00000E+00
 -1      2068 1.25704E+02 3.09687E+00 0.00000E+00
 -1      2069 1.24204E+02 3.09687E+00 0.00000E+00
 -1      2070 1.24035E+02 4.00625E+00 0.00000E+00
 -1      2071 1.28704E+02 3.09687E+00 0.00000E+00
 -1      2072 1.27204E+02 3.09687E+00 0.00000E+00
 -1      2073 1.27035E+02 4.00625E+00 0.00000E+00
 -1      2074 1.31704E+02 3.09687E+00 0.00000E+00
 -1      2075 1.30204E+02 3.09687E+00 0.00000E+00
 -1      2076 1.30035E+02 4.00625E+00 0.00000E+00
 -1      2077 1.34704E+02 3.09687E+00 0.00000E+00
 -1      2078 1.33204E+02 3.09687E+00 0.00000E+00
 -1      2079 1.33035E+02 4.00625E+00 0.00000E+00
 -1      2080 1.37704E+02 3.09687E+00 0.00000E+00
 -1      2081 1.36204E+02 3.09687E+00 0.00000E+00
 -1      2082 1.36035E+02 4.00625E+00 0.00000E+00
 -1      2083 1.40704E+02 3.09687E+00 0.00000E+00
 -1      2084 1.39204E+02 3.09687E+00 0.00000E+00
 -1      2085 1.39035E+02 4.00625E+00 0.00000E+00
 -1      2086 1.43704E+02 3.09687E+00 0.00000E+00
 -1      2087 1.42204E+02 3.09687E+00 0.00000E+00
 -1      2088 1.42035E+02 4.00625E+00 0.00000E+00
 -1      2089 1.46171E+02 3.20156E+00 0.00000E+00
 -1      2090 1.44671E+02 3.20156E+00 0.00000E+00
 -1      2091 1.44502E+02 4.11094E+00 0.00000E+00
 -1      2092 1.46435E+02 4.32031E+00 0.00000E+00
 -1      2093 1.46103E+02 1.25375E+01 0.00000E+00
 -1      2094 1.46103E+02 1.10625E+01 0.00000E+00
 -1      2095 1.46103E+02 9.58750E+00 0.00000E+00
 -1      2096 1.46103E+02 8.11250E+00 0.00000E+00
 -1      2097 1.44804E+02 1.03250E+01 0.00000E+00
 -1      2098 1.46269E+02 6.95391E+00 0.00000E+00
 -1      2099 1.46269E+02 5.47891E+00 0.00000E+00
 -1      2100 1.45302E+02 5.37422E+00 0.00000E+00
 -1      2101 1.44970E+02 7.69141E+00 0.00000E+00
 -1      2102 1.46103E+02 1.54375E+01 0.00000E+00
 -1      2103 1.46103E+02 1.39875E+01 0.00000E+00
 -1      2104 1.44804E+02 1.32500E+01 0.00000E+00
 -1      2105 1.46103E+02 1.83875E+01 0.00000E+00
 -1      2106 1.46103E+02 1.69125E+01 0.00000E+00
 -1      2107 1.44804E+02 1.61750E+01 0.00000E+00
 -1      2108 1.46103E+02 2.13375E+01 0.00000E+00
 -1      2109 1.46103E+02 1.98625E+01 0.00000E+00
 -1      2110 1.44804E+02 1.91250E+01 0.00000E+00
 -1      2111 1.46103E+02 2.42875E+01 0.00000E+00
 -1      2112 1.46103E+02 2.28125E+01 0.00000E+00
 -1      2113 1.44804E+02 2.20750E+01 0.00000E+00
 -1      2114 1.46103E+02 2.72375E+01 0.00000E+00
 -1      2115 1.46103E+02 2.57625E+01 0.00000E+00
 -1      2116 1.44804E+02 2.50250E+01 0.00000E+00
 -1      2117 1.46103E+02 3.01875E+01 0.00000E+00
 -1      2118 1.46103E+02 2.87125E+01 0.00000E+00
 -1      2119 1.44804E+02 2.79750E+01 0.00000E+00
 -1      2120 1.46103E+02 3.30875E+01 0.00000E+00
 -1      2121 1.46103E+02 3.16375E+01 0.00000E+00
 -1      2122 1.44804E+02 3.09000E+01 0.00000E+00
 -1      2123 1.46103E+02 3.60375E+01 0.00000E+00
 -1      2124 1.46103E+02 3.45625E+01 0.00000E+00
 -1      2125 1.44804E+02 3.38250E+01 0.00000E+00
 -1      2126 1.46103E+02 3.89875E+01 0.00000E+00
 -1      2127 1.46103E+02 3.75125E+01 0.00000E+00
 -1      2128 1.44804E+02 3.67750E+01 0.00000E+00
 -1      2129 1.46103E+02 4.19375E+01 0.00000E+00
 -1      2130 1.46103E+02 4.04625E+01 0.00000E+00
 -1      2131 1.44804E+02 3.97250E+01 0.00000E+00
 -1      2132 9.69572E+01 2.10984E+01 0.00000E+00
 -1      2133 9.72548E+01 2.19413E+01 0.00000E+00
 -1      2134 9.77961E+01 2.47566E+01 0.00000E+00
 -1      2135 9.77627E+01 2.56048E+01 0.00000E+00
 -1      2136 9.74795E+01 2.27838E+01 0.00000E+00
 -1      2137 9.77042E+01 2.36263E+01 0.00000E+00
 -1      2138 9.80603E+01 2.21048E+01 0.00000E+00
 -1      2139 9.57875E+01 1.93956E+01 0.00000E+00
 -1      2140 9.63852E+01 2.00571E+01 0.00000E+00
 -1      2141 9.44920E+01 1.82780E+01 0.00000E+00
 -1      2142 9.51398E+01 1.88368E+01 0.00000E+00
 -1      2143 9.60438E+01 1.86207E+01 0.00000E+00
 -1      2144 3.89700E+00 3.74688E+01 0.00000E+00
 -1      2145 3.89700E+00 3.89437E+01 0.00000E+00
 -1      2146 5.19600E+00 3.96813E+01 0.00000E+00
 -1      2147 5.19600E+00 3.67438E+01 0.00000E+00
 -1      2148 9.11716E+01 1.64842E+01 0.00000E+00
 -1      2149 9.19802E+01 1.68557E+01 0.00000E+00
 -1      2150 8.91074E+01 1.62947E+01 0.00000E+00
 -1      2151 9.00165E+01 1.62832E+01 0.00000E+00
 -1      2152 8.72493E+01 1.62756E+01 0.00000E+00
 -1      2153 8.81131E+01 1.61578E+01 0.00000E+00
 -1      2154 8.54506E+01 1.68988E+01 0.00000E+00
 -1      2155 8.62632E+01 1.66042E+01 0.00000E+00
 -1      2156 8.38287E+01 1.77286E+01 0.00000E+00
 -1      2157 8.46396E+01 1.73137E+01 0.00000E+00
 -1      2158 8.47821E+01 1.64390E+01 0.00000E+00
 -1      2159 8.22067E+01 1.91543E+01 0.00000E+00
 -1      2160 8.27992E+01 1.84539E+01 0.00000E+00
 -1      2161 8.12263E+01 2.07285E+01 0.00000E+00
 -1      2162 8.16556E+01 1.99983E+01 0.00000E+00
 -1      2163 8.05080E+01 2.23656E+01 0.00000E+00
 -1      2164 8.08095E+01 2.15885E+01 0.00000E+00
 -1      2165 8.00096E+01 2.41296E+01 0.00000E+00
 -1      2166 8.01920E+01 2.32807E+01 0.00000E+00
 -1      2167 8.01115E+01 2.60816E+01 0.00000E+00
 -1      2168 8.00292E+01 2.52151E+01 0.00000E+00
 -1      2169 8.04337E+01 2.78576E+01 0.00000E+00
 -1      2170 8.02544E+01 2.70147E+01 0.00000E+00
 -1      2171 8.11738E+01 2.96537E+01 0.00000E+00
 -1      2172 8.07421E+01 2.88973E+01 0.00000E+00
 -1      2173 8.21574E+01 3.11288E+01 0.00000E+00
 -1      2174 8.16656E+01 3.03912E+01 0.00000E+00
 -1      2175 8.07777E+01 3.03966E+01 0.00000E+00
 -1      2176 8.37684E+01 3.23755E+01 0.00000E+00
 -1      2177 8.30487E+01 3.19017E+01 0.00000E+00
 -1      2178 8.52281E+01 3.33086E+01 0.00000E+00
 -1      2179 8.45014E+01 3.28487E+01 0.00000E+00
 -1      2180 8.70840E+01 3.38840E+01 0.00000E+00
 -1      2181 8.62435E+01 3.37422E+01 0.00000E+00
 -1      2182 8.87679E+01 3.41418E+01 0.00000E+00
 -1      2183 8.79260E+01 3.40129E+01 0.00000E+00
 -1      2184 8.73910E+01 3.46224E+01 0.00000E+00
 -1      2185 9.07421E+01 3.39695E+01 0.00000E+00
 -1      2186 8.99080E+01 3.41784E+01 0.00000E+00
 -1      2187 9.23829E+01 3.35354E+01 0.00000E+00
 -1      2188 9.15625E+01 3.37525E+01 0.00000E+00
 -1      2189 9.13334E+01 3.46075E+01 0.00000E+00
 -1      2190 9.40261E+01 3.24601E+01 0.00000E+00
 -1      2191 9.33646E+01 3.29710E+01 0.00000E+00
 -1      2192 9.53607E+01 3.14059E+01 0.00000E+00
 -1      2193 9.46934E+01 3.19330E+01 0.00000E+00
 -1      2194 9.47844E+01 3.27345E+01 0.00000E+00
 -1      2195 9.65371E+01 2.98699E+01 0.00000E+00
 -1      2196 9.60831E+01 3.06020E+01 0.00000E+00
 -1      2197 9.72471E+01 2.82102E+01 0.00000E+00
 -1      2198 9.69668E+01 2.89865E+01 0.00000E+00
 -1      2199 9.77356E+01 2.65504E+01 0.00000E+00
 -1      2200 9.75765E+01 2.73434E+01 0.00000E+00
 -1      2201 9.28442E+01 1.71978E+01 0.00000E+00
 -1      2202 9.35899E+01 1.76107E+01 0.00000E+00
 -1      2203 9.44939E+01 1.73946E+01 0.00000E+00
 -1      2204 6.42300E+00 4.57510E+01 0.00000E+00
 -1      2205 8.65792E+01 1.56955E+01 0.00000E+00
 -1      2206 9.27278E+01 1.63851E+01 0.00000E+00
 -1      2207 7.17300E+00 4.44520E+01 0.00000E+00
 -1      2208 9.83769E+01 2.40775E+01 0.00000E+00
 -1      2209 9.72636E+01 2.02209E+01 0.00000E+00
 -1      2210 1.45665E+02 4.31193E+01 0.00000E+00
 -1      2211 9.84418E+01 2.61535E+01 0.00000E+00
 -1      2212 9.80853E+01 2.79659E+01 0.00000E+00
 -1      2213 9.61741E+01 3.14035E+01 0.00000E+00
 -1      2214 9.31354E+01 3.38261E+01 0.00000E+00
 -1      2215 8.93730E+01 3.47879E+01 0.00000E+00
 -1      2216 8.55336E+01 3.40599E+01 0.00000E+00
 -1      2217 8.21608E+01 3.19070E+01 0.00000E+00
 -1      2218 7.99776E+01 2.86194E+01 0.00000E+00
 -1      2219 7.95263E+01 2.66467E+01 0.00000E+00
 -1      2220 7.93639E+01 2.46281E+01 0.00000E+00
 -1      2221 7.96603E+01 2.26275E+01 0.00000E+00
 -1      2222 8.03932E+01 2.08524E+01 0.00000E+00
 -1      2223 8.29417E+01 1.75791E+01 0.00000E+00
 -1      2224 9.07088E+01 1.58419E+01 0.00000E+00
 -1      2225 9.14011E+01 1.54006E+01 0.00000E+00
 -1      2226 9.02461E+01 1.51996E+01 0.00000E+00
 -1      2227 8.85595E+01 1.55040E+01 0.00000E+00
 -1      2228 8.13611E+01 1.91484E+01 0.00000E+00
 -1      2229 8.37852E+01 3.31531E+01 0.00000E+00
 -1      2230 9.73262E+01 2.97162E+01 0.00000E+00
 -1      2231 1.07850E+01 5.30525E+00 0.00000E+00
 -1      2232 9.28500E+00 5.30525E+00 0.00000E+00
 -1      2233 6.49500E+00 3.01125E+01 0.00000E+00
 -1      2234 6.49500E+00 3.15875E+01 0.00000E+00
 -1      2235 6.49500E+00 3.30625E+01 0.00000E+00
 -1      2236 6.49500E+00 3.45375E+01 0.00000E+00
 -1      2237 7.79400E+00 3.23250E+01 0.00000E+00
 -1      2238 6.49500E+00 2.42125E+01 0.00000E+00
 -1      2239 6.49500E+00 2.56875E+01 0.00000E+00
 -1      2240 6.49500E+00 2.12625E+01 0.00000E+00
 -1      2241 6.49500E+00 2.27375E+01 0.00000E+00
 -1      2242 7.79400E+00 2.34750E+01 0.00000E+00
 -1      2243 6.49500E+00 1.83625E+01 0.00000E+00
 -1      2244 6.49500E+00 1.98125E+01 0.00000E+00
 -1      2245 7.79400E+00 2.05500E+01 0.00000E+00
 -1      2246 6.49500E+00 1.54125E+01 0.00000E+00
 -1      2247 6.49500E+00 1.68875E+01 0.00000E+00
 -1      2248 7.79400E+00 1.76250E+01 0.00000E+00
 -1      2249 6.49500E+00 1.24625E+01 0.00000E+00
 -1      2250 6.49500E+00 1.39375E+01 0.00000E+00
 -1      2251 7.79400E+00 1.46750E+01 0.00000E+00
 -1      2252 6.49500E+00 9.51250E+00 0.00000E+00
 -1      2253 6.49500E+00 1.09875E+01 0.00000E+00
 -1      2254 7.79400E+00 1.17250E+01 0.00000E+00
 -1      2255 1.37850E+01 5.30525E+00 0.00000E+00
 -1      2256 1.22850E+01 5.30525E+00 0.00000E+00
 -1      2257 1.15350E+01 6.60425E+00 0.00000E+00
 -1      2258 9.90000E+00 4.35050E+01 0.00000E+00
 -1      2259 1.14000E+01 4.35050E+01 0.00000E+00
 -1      2260 8.58283E+01 1.50860E+01 0.00000E+00
 -1      2261 8.68144E+01 1.47574E+01 0.00000E+00
 -1      2262 1.29000E+01 4.35050E+01 0.00000E+00
 -1      2263 1.44000E+01 4.35050E+01 0.00000E+00
 -1      2264 1.21500E+01 4.22060E+01 0.00000E+00
 -1      2265 1.59000E+01 4.35050E+01 0.00000E+00
 -1      2266 1.74000E+01 4.35050E+01 0.00000E+00
 -1      2267 1.51500E+01 4.22060E+01 0.00000E+00
 -1      2268 1.89000E+01 4.35050E+01 0.00000E+00
 -1      2269 2.04000E+01 4.35050E+01 0.00000E+00
 -1      2270 1.81500E+01 4.22060E+01 0.00000E+00
 -1      2271 2.19000E+01 4.35050E+01 0.00000E+00
 -1      2272 2.34000E+01 4.35050E+01 0.00000E+00
 -1      2273 2.11500E+01 4.22060E+01 0.00000E+00
 -1      2274 2.49000E+01 4.35050E+01 0.00000E+00
 -1      2275 2.64000E+01 4.35050E+01 0.00000E+00
 -1      2276 2.41500E+01 4.22060E+01 0.00000E+00
 -1      2277 2.79000E+01 4.35050E+01 0.00000E+00
 -1      2278 2.94000E+01 4.35050E+01 0.00000E+00
 -1      2279 2.71500E+01 4.22060E+01 0.00000E+00
 -1      2280 3.09000E+01 4.35050E+01 0.00000E+00
 -1      2281 3.24000E+01 4.35050E+01 0.00000E+00
 -1      2282 3.01500E+01 4.22060E+01 0.00000E+00
 -1      2283 3.39000E+01 4.35050E+01 0.00000E+00
 -1      2284 3.54000E+01 4.35050E+01 0.00000E+00
 -1      2285 3.31500E+01 4.22060E+01 0.00000E+00
 -1      2286 3.69000E+01 4.35050E+01 0.00000E+00
 -1      2287 3.84000E+01 4.35050E+01 0.00000E+00
 -1      2288 3.61500E+01 4.22060E+01 0.00000E+00
 -1      2289 3.99000E+01 4.35050E+01 0.00000E+00
 -1      2290 4.14000E+01 4.35050E+01 0.00000E+00
 -1      2291 3.91500E+01 4.22060E+01 0.00000E+00
 -1      2292 4.29000E+01 4.35050E+01 0.00000E+00
 -1      2293 4.44000E+01 4.35050E+01 0.00000E+00
 -1      2294 4.21500E+01 4.22060E+01 0.00000E+00
 -1      2295 4.59000E+01 4.35050E+01 0.00000E+00
 -1      2296 4.74000E+01 4.35050E+01 0.00000E+00
 -1      2297 4.51500E+01 4.22060E+01 0.00000E+00
 -1      2298 4.89000E+01 4.35050E+01 0.00000E+00
 -1      2299 5.04000E+01 4.35050E+01 0.00000E+00
 -1      2300 4.81500E+01 4.22060E+01 0.00000E+00
 -1      2301 5.19000E+01 4.35050E+01 0.00000E+00
 -1      2302 5.34000E+01 4.35050E+01 0.00000E+00
 -1      2303 5.11500E+01 4.22060E+01 0.00000E+00
 -1      2304 5.49000E+01 4.35050E+01 0.00000E+00
 -1      2305 5.64000E+01 4.35050E+01 0.00000E+00
 -1      2306 5.41500E+01 4.22060E+01 0.00000E+00
 -1      2307 5.79000E+01 4.35050E+01 0.00000E+00
 -1      2308 5.94000E+01 4.35050E+01 0.00000E+00
 -1      2309 5.71500E+01 4.22060E+01 0.00000E+00
 -1      2310 6.09000E+01 4.35050E+01 0.00000E+00
 -1      2311 6.24000E+01 4.35050E+01 0.00000E+00
 -1      2312 6.01500E+01 4.22060E+01 0.00000E+00
 -1      2313 6.39000E+01 4.35050E+01 0.00000E+00
 -1      2314 6.54000E+01 4.35050E+01 0.00000E+00
 -1      2315 6.31500E+01 4.22060E+01 0.00000E+00
 -1      2316 6.69000E+01 4.35050E+01 0.00000E+00
 -1      2317 6.84000E+01 4.35050E+01 0.00000E+00
 -1      2318 6.61500E+01 4.22060E+01 0.00000E+00
 -1      2319 6.99000E+01 4.35050E+01 0.00000E+00
 -1      2320 7.14000E+01 4.35050E+01 0.00000E+00
 -1      2321 6.91500E+01 4.22060E+01 0.00000E+00
 -1      2322 7.29000E+01 4.35050E+01 0.00000E+00
 -1      2323 7.44000E+01 4.35050E+01 0.00000E+00
 -1      2324 7.21500E+01 4.22060E+01 0.00000E+00
 -1      2325 7.59000E+01 4.35050E+01 0.00000E+00
 -1      2326 7.74000E+01 4.35050E+01 0.00000E+00
 -1      2327 7.51500E+01 4.22060E+01 0.00000E+00
 -1      2328 7.89000E+01 4.35050E+01 0.00000E+00
 -1      2329 8.04000E+01 4.35050E+01 0.00000E+00
 -1      2330 7.81500E+01 4.22060E+01 0.00000E+00
 -1      2331 8.19000E+01 4.35050E+01 0.00000E+00
 -1      2332 8.34000E+01 4.35050E+01 0.00000E+00
 -1      2333 8.11500E+01 4.22060E+01 0.00000E+00
 -1      2334 8.49000E+01 4.35050E+01 0.00000E+00
 -1      2335 8.64000E+01 4.35050E+01 0.00000E+00
 -1      2336 8.41500E+01 4.22060E+01 0.00000E+00
 -1      2337 8.79000E+01 4.35050E+01 0.00000E+00
 -1      2338 8.94000E+01 4.35050E+01 0.00000E+00
 -1      2339 8.71500E+01 4.22060E+01 0.00000E+00
 -1      2340 9.09000E+01 4.35050E+01 0.00000E+00
 -1      2341 9.24000E+01 4.35050E+01 0.00000E+00
 -1      2342 9.01500E+01 4.22060E+01 0.00000E+00
 -1      2343 9.39000E+01 4.35050E+01 0.00000E+00
 -1      2344 9.54000E+01 4.35050E+01 0.00000E+00
 -1      2345 9.31500E+01 4.22060E+01 0.00000E+00
 -1      2346 9.69000E+01 4.35050E+01 0.00000E+00
 -1      2347 9.84000E+01 4.35050E+01 0.00000E+00
 -1      2348 9.61500E+01 4.22060E+01 0.00000E+00
 -1      2349 9.99000E+01 4.35050E+01 0.00000E+00
 -1      2350 1.01400E+02 4.35050E+01 0.00000E+00
 -1      2351 9.91500E+01 4.22060E+01 0.00000E+00
 -1      2352 1.02900E+02 4.35050E+01 0.00000E+00
 -1      2353 1.04400E+02 4.35050E+01 0.00000E+00
 -1      2354 1.02150E+02 4.22060E+01 0.00000E+00
 -1      2355 1.05900E+02 4.35050E+01 0.00000E+00
 -1      2356 1.07400E+02 4.35050E+01 0.00000E+00
 -1      2357 1.05150E+02 4.22060E+01 0.00000E+00
 -1      2358 1.08900E+02 4.35050E+01 0.00000E+00
 -1      2359 1.10400E+02 4.35050E+01 0.00000E+00
 -1      2360 1.08150E+02 4.22060E+01 0.00000E+00
 -1      2361 1.11900E+02 4.35050E+01 0.00000E+00
 -1      2362 1.13400E+02 4.35050E+01 0.00000E+00
 -1      2363 1.11150E+02 4.22060E+01 0.00000E+00
 -1      2364 1.14900E+02 4.35050E+01 0.00000E+00
 -1      2365 1.16400E+02 4.35050E+01 0.00000E+00
 -1      2366 1.14150E+02 4.22060E+01 0.00000E+00
 -1      2367 1.17900E+02 4.35050E+01 0.00000E+00
 -1      2368 1.19400E+02 4.35050E+01 0.00000E+00
 -1      2369 1.17150E+02 4.22060E+01 0.00000E+00
 -1      2370 1.20900E+02 4.35050E+01 0.00000E+00
 -1      2371 1.22400E+02 4.35050E+01 0.00000E+00
 -1      2372 1.20150E+02 4.22060E+01 0.00000E+00
 -1      2373 1.23900E+02 4.35050E+01 0.00000E+00
 -1      2374 1.25400E+02 4.35050E+01 0.00000E+00
 -1      2375 1.23150E+02 4.22060E+01 0.00000E+00
 -1      2376 1.26900E+02 4.35050E+01 0.00000E+00
 -1      2377 1.28400E+02 4.35050E+01 0.00000E+00
 -1      2378 1.26150E+02 4.22060E+01 0.00000E+00
 -1      2379 1.29900E+02 4.35050E+01 0.00000E+00
 -1      2380 1.31400E+02 4.35050E+01 0.00000E+00
 -1      2381 1.29150E+02 4.22060E+01 0.00000E+00
 -1      2382 1.32900E+02 4.35050E+01 0.00000E+00
 -1      2383 1.34400E+02 4.35050E+01 0.00000E+00
 -1      2384 1.32150E+02 4.22060E+01 0.00000E+00
 -1      2385 1.35900E+02 4.35050E+01 0.00000E+00
 -1      2386 1.37400E+02 4.35050E+01 0.00000E+00
 -1      2387 1.35150E+02 4.22060E+01 0.00000E+00
 -1      2388 1.38900E+02 4.35050E+01 0.00000E+00
 -1      2389 1.40400E+02 4.35050E+01 0.00000E+00
 -1      2390 1.38150E+02 4.22060E+01 0.00000E+00
 -1      2391 9.87765E+01 2.14625E+01 0.00000E+00
 -1      2392 9.90012E+01 2.23050E+01 0.00000E+00
 -1      2393 1.97850E+01 5.30525E+00 0.00000E+00
 -1      2394 1.82850E+01 5.30525E+00 0.00000E+00
 -1      2395 2.27850E+01 5.30525E+00 0.00000E+00
 -1      2396 2.12850E+01 5.30525E+00 0.00000E+00
 -1      2397 2.05350E+01 6.60425E+00 0.00000E+00
 -1      2398 2.57850E+01 5.30525E+00 0.00000E+00
 -1      2399 2.42850E+01 5.30525E+00 0.00000E+00
 -1      2400 2.35350E+01 6.60425E+00 0.00000E+00
 -1      2401 2.87850E+01 5.30525E+00 0.00000E+00
 -1      2402 2.72850E+01 5.30525E+00 0.00000E+00
 -1      2403 2.65350E+01 6.60425E+00 0.00000E+00
 -1      2404 3.17850E+01 5.30525E+00 0.00000E+00
 -1      2405 3.02850E+01 5.30525E+00 0.00000E+00
 -1      2406 2.95350E+01 6.60425E+00 0.00000E+00
 -1      2407 3.47850E+01 5.30525E+00 0.00000E+00
 -1      2408 3.32850E+01 5.30525E+00 0.00000E+00
 -1      2409 3.25350E+01 6.60425E+00 0.00000E+00
 -1      2410 3.77850E+01 5.30525E+00 0.00000E+00
 -1      2411 3.62850E+01 5.30525E+00 0.00000E+00
 -1      2412 3.55350E+01 6.60425E+00 0.00000E+00
 -1      2413 4.07850E+01 5.30525E+00 0.00000E+00
 -1      2414 3.92850E+01 5.30525E+00 0.00000E+00
 -1      2415 3.85350E+01 6.60425E+00 0.00000E+00
 -1      2416 4.37850E+01 5.30525E+00 0.00000E+00
 -1      2417 4.22850E+01 5.30525E+00 0.00000E+00
 -1      2418 4.15350E+01 6.60425E+00 0.00000E+00
 -1      2419 4.67850E+01 5.30525E+00 0.00000E+00
 -1      2420 4.52850E+01 5.30525E+00 0.00000E+00
 -1      2421 4.45350E+01 6.60425E+00 0.00000E+00
 -1      2422 4.97850E+01 5.30525E+00 0.00000E+00
 -1      2423 4.82850E+01 5.30525E+00 0.00000E+00
 -1      2424 4.75350E+01 6.60425E+00 0.00000E+00
 -1      2425 5.27850E+01 5.30525E+00 0.00000E+00
 -1      2426 5.12850E+01 5.30525E+00 0.00000E+00
 -1      2427 5.05350E+01 6.60425E+00 0.00000E+00
 -1      2428 5.57850E+01 5.30525E+00 0.00000E+00
 -1      2429 5.42850E+01 5.30525E+00 0.00000E+00
 -1      2430 5.35350E+01 6.60425E+00 0.00000E+00
 -1      2431 5.87850E+01 5.30525E+00 0.00000E+00
 -1      2432 5.72850E+01 5.30525E+00 0.00000E+00
 -1      2433 5.65350E+01 6.60425E+00 0.00000E+00
 -1      2434 6.17850E+01 5.30525E+00 0.00000E+00
 -1      2435 6.02850E+01 5.30525E+00 0.00000E+00
 -1      2436 5.95350E+01 6.60425E+00 0.00000E+00
 -1      2437 6.47850E+01 5.30525E+00 0.00000E+00
 -1      2438 6.32850E+01 5.30525E+00 0.00000E+00
 -1      2439 6.25350E+01 6.60425E+00 0.00000E+00
 -1      2440 6.77850E+01 5.30525E+00 0.00000E+00
 -1      2441 6.62850E+01 5.30525E+00 0.00000E+00
 -1      2442 6.55350E+01 6.60425E+00 0.00000E+00
 -1      2443 7.07850E+01 5.30525E+00 0.00000E+00
 -1      2444 6.92850E+01 5.30525E+00 0.00000E+00
 -1      2445 6.85350E+01 6.60425E+00 0.00000E+00
 -1      2446 7.37850E+01 5.30525E+00 0.00000E+00
 -1      2447 7.22850E+01 5.30525E+00 0.00000E+00
 -1      2448 7.15350E+01 6.60425E+00 0.00000E+00
 -1      2449 7.67850E+01 5.30525E+00 0.00000E+00
 -1      2450 7.52850E+01 5.30525E+00 0.00000E+00
 -1      2451 7.45350E+01 6.60425E+00 0.00000E+00
 -1      2452 7.97850E+01 5.30525E+00 0.00000E+00
 -1      2453 7.82850E+01 5.30525E+00 0.00000E+00
 -1      2454 7.75350E+01 6.60425E+00 0.00000E+00
 -1      2455 8.27850E+01 5.30525E+00 0.00000E+00
 -1      2456 8.12850E+01 5.30525E+00 0.00000E+00
 -1      2457 8.05350E+01 6.60425E+00 0.00000E+00
 -1      2458 8.57850E+01 5.30525E+00 0.00000E+00
 -1      2459 8.42850E+01 5.30525E+00 0.00000E+00
 -1      2460 8.35350E+01 6.60425E+00 0.00000E+00
 -1      2461 8.87850E+01 5.30525E+00 0.00000E+00
 -1      2462 8.72850E+01 5.30525E+00 0.00000E+00
 -1      2463 8.65350E+01 6.60425E+00 0.00000E+00
 -1      2464 9.17850E+01 5.30525E+00 0.00000E+00
 -1      2465 9.02850E+01 5.30525E+00 0.00000E+00
 -1      2466 8.95350E+01 6.60425E+00 0.00000E+00
 -1      2467 9.47850E+01 5.30525E+00 0.00000E+00
 -1      2468 9.32850E+01 5.30525E+00 0.00000E+00
 -1      2469 9.25350E+01 6.60425E+00 0.00000E+00
 -1      2470 9.77850E+01 5.30525E+00 0.00000E+00
 -1      2471 9.62850E+01 5.30525E+00 0.00000E+00
 -1      2472 9.55350E+01 6.60425E+00 0.00000E+00
 -1      2473 1.00785E+02 5.30525E+00 0.00000E+00
 -1      2474 9.92850E+01 5.30525E+00 0.00000E+00
 -1      2475 9.85350E+01 6.60425E+00 0.00000E+00
 -1      2476 1.03785E+02 5.30525E+00 0.00000E+00
 -1      2477 1.02285E+02 5.30525E+00 0.00000E+00
 -1      2478 1.01535E+02 6.60425E+00 0.00000E+00
 -1      2479 1.06785E+02 5.30525E+00 0.00000E+00
 -1      2480 1.05285E+02 5.30525E+00 0.00000E+00
 -1      2481 1.04535E+02 6.60425E+00 0.00000E+00
 -1      2482 1.09785E+02 5.30525E+00 0.00000E+00
 -1      2483 1.08285E+02 5.30525E+00 0.00000E+00
 -1      2484 1.07535E+02 6.60425E+00 0.00000E+00
 -1      2485 1.12785E+02 5.30525E+00 0.00000E+00
 -1      2486 1.11285E+02 5.30525E+00 0.00000E+00
 -1      2487 1.10535E+02 6.60425E+00 0.00000E+00
 -1      2488 1.15785E+02 5.30525E+00 0.00000E+00
 -1      2489 1.14285E+02 5.30525E+00 0.00000E+00
 -1      2490 1.13535E+02 6.60425E+00 0.00000E+00
 -1      2491 1.18785E+02 5.30525E+00 0.00000E+00
 -1      2492 1.17285E+02 5.30525E+00 0.00000E+00
 -1      2493 1.16535E+02 6.60425E+00 0.00000E+00
 -1      2494 1.21785E+02 5.30525E+00 0.00000E+00
 -1      2495 1.20285E+02 5.30525E+00 0.00000E+00
 -1      2496 1.19535E+02 6.60425E+00 0.00000E+00
 -1      2497 1.24785E+02 5.30525E+00 0.00000E+00
 -1      2498 1.23285E+02 5.30525E+00 0.00000E+00
 -1      2499 1.22535E+02 6.60425E+00 0.00000E+00
 -1      2500 1.27785E+02 5.30525E+00 0.00000E+00
 -1      2501 1.26285E+02 5.30525E+00 0.00000E+00
 -1      2502 1.25535E+02 6.60425E+00 0.00000E+00
 -1      2503 1.30785E+02 5.30525E+00 0.00000E+00
 -1      2504 1.29285E+02 5.30525E+00 0.00000E+00
 -1      2505 1.28535E+02 6.60425E+00 0.00000E+00
 -1      2506 1.33785E+02 5.30525E+00 0.00000E+00
 -1      2507 1.32285E+02 5.30525E+00 0.00000E+00
 -1      2508 1.31535E+02 6.60425E+00 0.00000E+00
 -1      2509 1.36785E+02 5.30525E+00 0.00000E+00
 -1      2510 1.35285E+02 5.30525E+00 0.00000E+00
 -1      2511 1.34535E+02 6.60425E+00 0.00000E+00
 -1      2512 1.39785E+02 5.30525E+00 0.00000E+00
 -1      2513 1.38285E+02 5.30525E+00 0.00000E+00
 -1      2514 1.37535E+02 6.60425E+00 0.00000E+00
 -1      2515 1.42785E+02 5.30525E+00 0.00000E+00
 -1      2516 1.41285E+02 5.30525E+00 0.00000E+00
 -1      2517 1.40535E+02 6.60425E+00 0.00000E+00
 -1      2518 1.44336E+02 5.26953E+00 0.00000E+00
 -1      2519 1.43505E+02 1.69125E+01 0.00000E+00
 -1      2520 1.43505E+02 1.54375E+01 0.00000E+00
 -1      2521 1.43505E+02 1.98625E+01 0.00000E+00
 -1      2522 1.43505E+02 1.83875E+01 0.00000E+00
 -1      2523 1.42206E+02 1.76500E+01 0.00000E+00
 -1      2524 1.43505E+02 1.10625E+01 0.00000E+00
 -1      2525 1.43505E+02 9.58750E+00 0.00000E+00
 -1      2526 1.43505E+02 1.39750E+01 0.00000E+00
 -1      2527 1.43505E+02 1.25250E+01 0.00000E+00
 -1      2528 1.42206E+02 1.17875E+01 0.00000E+00
 -1      2529 1.42206E+02 1.47125E+01 0.00000E+00
 -1      2530 1.43505E+02 2.28125E+01 0.00000E+00
 -1      2531 1.43505E+02 2.13375E+01 0.00000E+00
 -1      2532 1.42206E+02 2.06000E+01 0.00000E+00
 -1      2533 1.43505E+02 2.57625E+01 0.00000E+00
 -1      2534 1.43505E+02 2.42875E+01 0.00000E+00
 -1      2535 1.42206E+02 2.35500E+01 0.00000E+00
 -1      2536 1.43505E+02 2.87125E+01 0.00000E+00
 -1      2537 1.43505E+02 2.72375E+01 0.00000E+00
 -1      2538 1.42206E+02 2.65000E+01 0.00000E+00
 -1      2539 1.43505E+02 3.16125E+01 0.00000E+00
 -1      2540 1.43505E+02 3.01625E+01 0.00000E+00
 -1      2541 1.42206E+02 2.94250E+01 0.00000E+00
 -1      2542 1.43505E+02 3.45625E+01 0.00000E+00
 -1      2543 1.43505E+02 3.30875E+01 0.00000E+00
 -1      2544 1.42206E+02 3.23500E+01 0.00000E+00
 -1      2545 1.43505E+02 3.75125E+01 0.00000E+00
 -1      2546 1.43505E+02 3.60375E+01 0.00000E+00
 -1      2547 1.42206E+02 3.53000E+01 0.00000E+00
 -1      2548 1.43505E+02 4.04625E+01 0.00000E+00
 -1      2549 1.43505E+02 3.89875E+01 0.00000E+00
 -1      2550 1.42206E+02 3.82500E+01 0.00000E+00
 -1      2551 1.44321E+02 4.30606E+01 0.00000E+00
 -1      2552 9.92287E+01 2.57028E+01 0.00000E+00
 -1      2553 9.92017E+01 2.66484E+01 0.00000E+00
 -1      2554 1.67850E+01 5.30525E+00 0.00000E+00
 -1      2555 1.52850E+01 5.30525E+00 0.00000E+00
 -1      2556 1.75350E+01 6.60425E+00 0.00000E+00
 -1      2557 9.76925E+01 1.93075E+01 0.00000E+00
 -1      2558 9.82645E+01 2.03489E+01 0.00000E+00
 -1      2559 9.62801E+01 1.76920E+01 0.00000E+00
 -1      2560 9.69279E+01 1.82508E+01 0.00000E+00
 -1      2561 6.55950E+00 4.28890E+01 0.00000E+00
 -1      2562 8.53650E+00 4.32410E+01 0.00000E+00
 -1      2563 9.28650E+00 4.19420E+01 0.00000E+00
 -1      2564 6.55950E+00 4.14140E+01 0.00000E+00
 -1      2565 9.90125E+01 2.78223E+01 0.00000E+00
 -1      2566 9.86831E+01 2.86891E+01 0.00000E+00
 -1      2567 8.57374E+01 3.49883E+01 0.00000E+00
 -1      2568 8.47220E+01 3.45547E+01 0.00000E+00
 -1      2569 7.93096E+01 2.93831E+01 0.00000E+00
 -1      2570 7.90012E+01 2.83435E+01 0.00000E+00
 -1      2571 6.49500E+00 2.71625E+01 0.00000E+00
 -1      2572 6.49500E+00 2.86375E+01 0.00000E+00
 -1      2573 7.79400E+00 2.93750E+01 0.00000E+00
 -1      2574 7.79400E+00 2.64250E+01 0.00000E+00
 -1      2575 8.81623E+01 1.47105E+01 0.00000E+00
 -1      2576 8.91565E+01 1.48474E+01 0.00000E+00
 -1      2577 8.03675E+01 1.91016E+01 0.00000E+00
 -1      2578 8.09186E+01 1.82576E+01 0.00000E+00
 -1      2579 9.25808E+01 1.54946E+01 0.00000E+00
 -1      2580 9.34447E+01 1.58368E+01 0.00000E+00
 -1      2581 8.42064E+01 1.59158E+01 0.00000E+00
 -1      2582 8.50173E+01 1.55009E+01 0.00000E+00
 -1      2583 8.52526E+01 1.45628E+01 0.00000E+00
 -1      2584 8.37548E+01 3.40046E+01 0.00000E+00
 -1      2585 8.30217E+01 3.35314E+01 0.00000E+00
 -1      2586 8.19330E+01 1.72407E+01 0.00000E+00
 -1      2587 8.29625E+01 1.65154E+01 0.00000E+00
 -1      2588 7.94508E+01 2.09266E+01 0.00000E+00
 -1      2589 7.98677E+01 2.00666E+01 0.00000E+00
 -1      2590 7.87709E+01 2.28325E+01 0.00000E+00
 -1      2591 7.90870E+01 2.19174E+01 0.00000E+00
 -1      2592 7.84325E+01 2.51879E+01 0.00000E+00
 -1      2593 7.84129E+01 2.41024E+01 0.00000E+00
 -1      2594 7.89157E+01 2.72177E+01 0.00000E+00
 -1      2595 7.87728E+01 2.62846E+01 0.00000E+00
 -1      2596 8.02404E+01 3.12875E+01 0.00000E+00
 -1      2597 7.97486E+01 3.05500E+01 0.00000E+00
 -1      2598 9.82745E+01 2.96313E+01 0.00000E+00
 -1      2599 9.78448E+01 3.05147E+01 0.00000E+00
 -1      2600 8.20996E+01 3.28781E+01 0.00000E+00
 -1      2601 8.12082E+01 3.21052E+01 0.00000E+00
 -1      2602 8.77075E+01 3.53688E+01 0.00000E+00
 -1      2603 8.68656E+01 3.52399E+01 0.00000E+00
 -1      2604 8.99154E+01 3.56634E+01 0.00000E+00
 -1      2605 8.87754E+01 3.56267E+01 0.00000E+00
 -1      2606 9.19415E+01 3.52470E+01 0.00000E+00
 -1      2607 9.11211E+01 3.54641E+01 0.00000E+00
 -1      2608 9.40537E+01 3.42873E+01 0.00000E+00
 -1      2609 9.30721E+01 3.48517E+01 0.00000E+00
 -1      2610 9.56496E+01 3.31439E+01 0.00000E+00
 -1      2611 9.49823E+01 3.36710E+01 0.00000E+00
 -1      2612 9.71732E+01 3.15747E+01 0.00000E+00
 -1      2613 9.64508E+01 3.23786E+01 0.00000E+00
 -1      2614 9.91022E+01 2.34497E+01 0.00000E+00
 -1      2615 9.91941E+01 2.45800E+01 0.00000E+00
 -1      2616 8.07525E+00 5.11044E+00 0.00000E+00
 -1      2617 6.57525E+00 5.11044E+00 0.00000E+00
 -1      2618 6.40575E+00 6.01981E+00 0.00000E+00
 -1      2619 8.82525E+00 6.40944E+00 0.00000E+00
 -1      2620 9.44758E+01 1.63574E+01 0.00000E+00
 -1      2621 9.53780E+01 1.70247E+01 0.00000E+00
 -1      2622 9.62620E+01 1.66548E+01 0.00000E+00
 -1      2623 8.98488E+01 1.44061E+01 0.00000E+00
 -1      2624 7.79400E+00 3.52687E+01 0.00000E+00
 -1      2625 6.49500E+00 3.60062E+01 0.00000E+00
 -1      2626 6.49500E+00 3.74750E+01 0.00000E+00
 -1      2627 1.45350E+01 6.60425E+00 0.00000E+00
 -1      2628 6.40575E+00 7.49481E+00 0.00000E+00
 -1      2629 9.43288E+01 1.54669E+01 0.00000E+00
 -1      2630 9.28598E+01 3.57083E+01 0.00000E+00
 -1      2631 9.05235E+01 3.63029E+01 0.00000E+00
 -1      2632 8.82500E+01 3.62443E+01 0.00000E+00
 -1      2633 9.97995E+01 2.73716E+01 0.00000E+00
 -1      2634 8.66605E+01 1.34913E+01 0.00000E+00
 -1      2635 8.74114E+01 1.41009E+01 0.00000E+00
 -1      2636 8.80084E+01 1.34443E+01 0.00000E+00
 -1      2637 8.20692E+01 3.37295E+01 0.00000E+00
 -1      2638 9.92017E+01 2.94876E+01 0.00000E+00
 -1      2639 9.92054E+01 2.05491E+01 0.00000E+00
 -1      2640 1.43586E+02 6.56853E+00 0.00000E+00
 -1      2641 1.43419E+02 7.72713E+00 0.00000E+00
 -1      2642 8.01791E+01 3.22586E+01 0.00000E+00
 -1      2643 1.42758E+02 4.35929E+01 0.00000E+00
 -1      2644 1.43241E+02 4.17323E+01 0.00000E+00
 -1      2645 1.41942E+02 4.09948E+01 0.00000E+00
 -1      2646 1.41414E+02 4.35342E+01 0.00000E+00
 -1      2647 7.82477E+01 2.79814E+01 0.00000E+00
 -1      2648 7.78219E+01 2.57588E+01 0.00000E+00
 -1      2649 9.99540E+01 2.50749E+01 0.00000E+00
 -1      2650 7.70475E+00 8.23231E+00 0.00000E+00
 -1      2651 9.79288E+01 1.83788E+01 0.00000E+00
 -1      2652 7.78395E+01 2.33922E+01 0.00000E+00
 -1      2653 6.52725E+00 3.87101E+01 0.00000E+00
 -1      2654 6.52725E+00 4.01789E+01 0.00000E+00
 -1      2655 7.89075E+00 4.04429E+01 0.00000E+00
 -1      2656 7.82625E+00 3.79726E+01 0.00000E+00
 -1      2657 9.98184E+01 2.28075E+01 0.00000E+00
 -1      2658 9.81215E+01 3.14898E+01 0.00000E+00
 -1      2659 9.66487E+01 3.33151E+01 0.00000E+00
 -1      2660 9.49189E+01 3.46967E+01 0.00000E+00
 -1      2661 8.60540E+01 3.57348E+01 0.00000E+00
 -1      2662 8.39586E+01 3.49330E+01 0.00000E+00
 -1      2663 7.85614E+01 2.11316E+01 0.00000E+00
 -1      2664 8.09394E+01 1.71939E+01 0.00000E+00
 -1      2665 8.31977E+01 1.55773E+01 0.00000E+00
 -1      2666 9.21180E+01 1.48523E+01 0.00000E+00
 -1      2667 7.87723E+01 3.02741E+01 0.00000E+00
 -1      2668 7.94251E+01 1.91758E+01 0.00000E+00
 -1      2669 1.42120E+02 8.46463E+00 0.00000E+00
 -1      2670 1.40664E+02 4.22352E+01 0.00000E+00
 -1      2671 9.09300E+00 1.98250E+01 0.00000E+00
 -1      2672 9.09300E+00 2.12750E+01 0.00000E+00
 -1      2673 9.09300E+00 2.27500E+01 0.00000E+00
 -1      2674 9.09300E+00 2.42250E+01 0.00000E+00
 -1      2675 1.03920E+01 2.20250E+01 0.00000E+00
 -1      2676 9.09300E+00 1.39375E+01 0.00000E+00
 -1      2677 9.09300E+00 1.54125E+01 0.00000E+00
 -1      2678 9.09300E+00 1.09875E+01 0.00000E+00
 -1      2679 9.09300E+00 1.24625E+01 0.00000E+00
 -1      2680 1.03920E+01 1.32000E+01 0.00000E+00
 -1      2681 1.22850E+01 7.90325E+00 0.00000E+00
 -1      2682 1.07850E+01 7.90325E+00 0.00000E+00
 -1      2683 9.83091E+01 1.72986E+01 0.00000E+00
 -1      2684 9.90737E+01 1.83553E+01 0.00000E+00
 -1      2685 1.44000E+01 4.09070E+01 0.00000E+00
 -1      2686 1.59000E+01 4.09070E+01 0.00000E+00
 -1      2687 1.74000E+01 4.09070E+01 0.00000E+00
 -1      2688 1.89000E+01 4.09070E+01 0.00000E+00
 -1      2689 1.66500E+01 3.96080E+01 0.00000E+00
 -1      2690 2.04000E+01 4.09070E+01 0.00000E+00
 -1      2691 2.19000E+01 4.09070E+01 0.00000E+00
 -1      2692 1.96500E+01 3.96080E+01 0.00000E+00
 -1      2693 2.34000E+01 4.09070E+01 0.00000E+00
 -1      2694 2.49000E+01 4.09070E+01 0.00000E+00
 -1      2695 2.26500E+01 3.96080E+01 0.00000E+00
 -1      2696 2.64000E+01 4.09070E+01 0.00000E+00
 -1      2697 2.79000E+01 4.09070E+01 0.00000E+00
 -1      2698 2.56500E+01 3.96080E+01 0.00000E+00
 -1      2699 2.94000E+01 4.09070E+01 0.00000E+00
 -1      2700 3.09000E+01 4.09070E+01 0.00000E+00
 -1      2701 2.86500E+01 3.96080E+01 0.00000E+00
 -1      2702 3.24000E+01 4.09070E+01 0.00000E+00
 -1      2703 3.39000E+01 4.09070E+01 0.00000E+00
 -1      2704 3.16500E+01 3.96080E+01 0.00000E+00
 -1      2705 3.54000E+01 4.09070E+01 0.00000E+00
 -1      2706 3.69000E+01 4.09070E+01 0.00000E+00
 -1      2707 3.46500E+01 3.96080E+01 0.00000E+00
 -1      2708 3.84000E+01 4.09070E+01 0.00000E+00
 -1      2709 3.99000E+01 4.09070E+01 0.00000E+00
 -1      2710 3.76500E+01 3.96080E+01 0.00000E+00
 -1      2711 4.14000E+01 4.09070E+01 0.00000E+00
 -1      2712 4.29000E+01 4.09070E+01 0.00000E+00
 -1      2713 4.06500E+01 3.96080E+01 0.00000E+00
 -1      2714 4.44000E+01 4.09070E+01 0.00000E+00
 -1      2715 4.59000E+01 4.09070E+01 0.00000E+00
 -1      2716 4.36500E+01 3.96080E+01 0.00000E+00
 -1      2717 4.74000E+01 4.09070E+01 0.00000E+00
 -1      2718 4.89000E+01 4.09070E+01 0.00000E+00
 -1      2719 4.66500E+01 3.96080E+01 0.00000E+00
 -1      2720 5.04000E+01 4.09070E+01 0.00000E+00
 -1      2721 5.19000E+01 4.09070E+01 0.00000E+00
 -1      2722 4.96500E+01 3.96080E+01 0.00000E+00
 -1      2723 5.34000E+01 4.09070E+01 0.00000E+00
 -1      2724 5.49000E+01 4.09070E+01 0.00000E+00
 -1      2725 5.26500E+01 3.96080E+01 0.00000E+00
 -1      2726 5.64000E+01 4.09070E+01 0.00000E+00
 -1      2727 5.79000E+01 4.09070E+01 0.00000E+00
 -1      2728 5.56500E+01 3.96080E+01 0.00000E+00
 -1      2729 5.94000E+01 4.09070E+01 0.00000E+00
 -1      2730 6.09000E+01 4.09070E+01 0.00000E+00
 -1      2731 5.86500E+01 3.96080E+01 0.00000E+00
 -1      2732 6.24000E+01 4.09070E+01 0.00000E+00
 -1      2733 6.39000E+01 4.09070E+01 0.00000E+00
 -1      2734 6.16500E+01 3.96080E+01 0.00000E+00
 -1      2735 6.54000E+01 4.09070E+01 0.00000E+00
 -1      2736 6.69000E+01 4.09070E+01 0.00000E+00
 -1      2737 6.46500E+01 3.96080E+01 0.00000E+00
 -1      2738 6.84000E+01 4.09070E+01 0.00000E+00
 -1      2739 6.99000E+01 4.09070E+01 0.00000E+00
 -1      2740 6.76500E+01 3.96080E+01 0.00000E+00
 -1      2741 7.14000E+01 4.09070E+01 0.00000E+00
 -1      2742 7.29000E+01 4.09070E+01 0.00000E+00
 -1      2743 7.06500E+01 3.96080E+01 0.00000E+00
 -1      2744 7.44000E+01 4.09070E+01 0.00000E+00
 -1      2745 7.59000E+01 4.09070E+01 0.00000E+00
 -1      2746 7.36500E+01 3.96080E+01 0.00000E+00
 -1      2747 7.74000E+01 4.09070E+01 0.00000E+00
 -1      2748 7.89000E+01 4.09070E+01 0.00000E+00
 -1      2749 7.66500E+01 3.96080E+01 0.00000E+00
 -1      2750 8.04000E+01 4.09070E+01 0.00000E+00
 -1      2751 8.19000E+01 4.09070E+01 0.00000E+00
 -1      2752 7.96500E+01 3.96080E+01 0.00000E+00
 -1      2753 8.34000E+01 4.09070E+01 0.00000E+00
 -1      2754 8.49000E+01 4.09070E+01 0.00000E+00
 -1      2755 8.26500E+01 3.96080E+01 0.00000E+00
 -1      2756 8.64000E+01 4.09070E+01 0.00000E+00
 -1      2757 8.79000E+01 4.09070E+01 0.00000E+00
 -1      2758 8.56500E+01 3.96080E+01 0.00000E+00
 -1      2759 8.94000E+01 4.09070E+01 0.00000E+00
 -1      2760 9.09000E+01 4.09070E+01 0.00000E+00
 -1      2761 8.86500E+01 3.96080E+01 0.00000E+00
 -1      2762 9.24000E+01 4.09070E+01 0.00000E+00
 -1      2763 9.39000E+01 4.09070E+01 0.00000E+00
 -1      2764 9.16500E+01 3.96080E+01 0.00000E+00
 -1      2765 9.54000E+01 4.09070E+01 0.00000E+00
 -1      2766 9.69000E+01 4.09070E+01 0.00000E+00
 -1      2767 9.46500E+01 3.96080E+01 0.00000E+00
 -1      2768 9.84000E+01 4.09070E+01 0.00000E+00
 -1      2769 9.99000E+01 4.09070E+01 0.00000E+00
 -1      2770 9.76500E+01 3.96080E+01 0.00000E+00
 -1      2771 1.01400E+02 4.09070E+01 0.00000E+00
 -1      2772 1.02900E+02 4.09070E+01 0.00000E+00
 -1      2773 1.00650E+02 3.96080E+01 0.00000E+00
 -1      2774 1.04400E+02 4.09070E+01 0.00000E+00
 -1      2775 1.05900E+02 4.09070E+01 0.00000E+00
 -1      2776 1.03650E+02 3.96080E+01 0.00000E+00
 -1      2777 1.07400E+02 4.09070E+01 0.00000E+00
 -1      2778 1.08900E+02 4.09070E+01 0.00000E+00
 -1      2779 1.06650E+02 3.96080E+01 0.00000E+00
 -1      2780 1.10400E+02 4.09070E+01 0.00000E+00
 -1      2781 1.11900E+02 4.09070E+01 0.00000E+00
 -1      2782 1.09650E+02 3.96080E+01 0.00000E+00
 -1      2783 1.13400E+02 4.09070E+01 0.00000E+00
 -1      2784 1.14900E+02 4.09070E+01 0.00000E+00
 -1      2785 1.12650E+02 3.96080E+01 0.00000E+00
 -1      2786 1.16400E+02 4.09070E+01 0.00000E+00
 -1      2787 1.17900E+02 4.09070E+01 0.00000E+00
 -1      2788 1.15650E+02 3.96080E+01 0.00000E+00
 -1      2789 1.19400E+02 4.09070E+01 0.00000E+00
 -1      2790 1.20900E+02 4.09070E+01 0.00000E+00
 -1      2791 1.18650E+02 3.96080E+01 0.00000E+00
 -1      2792 1.22400E+02 4.09070E+01 0.00000E+00
 -1      2793 1.23900E+02 4.09070E+01 0.00000E+00
 -1      2794 1.21650E+02 3.96080E+01 0.00000E+00
 -1      2795 1.25400E+02 4.09070E+01 0.00000E+00
 -1      2796 1.26900E+02 4.09070E+01 0.00000E+00
 -1      2797 1.24650E+02 3.96080E+01 0.00000E+00
 -1      2798 1.28400E+02 4.09070E+01 0.00000E+00
 -1      2799 1.29900E+02 4.09070E+01 0.00000E+00
 -1      2800 1.27650E+02 3.96080E+01 0.00000E+00
 -1      2801 1.31400E+02 4.09070E+01 0.00000E+00
 -1      2802 1.32900E+02 4.09070E+01 0.00000E+00
 -1      2803 1.30650E+02 3.96080E+01 0.00000E+00
 -1      2804 1.34400E+02 4.09070E+01 0.00000E+00
 -1      2805 1.35900E+02 4.09070E+01 0.00000E+00
 -1      2806 1.33650E+02 3.96080E+01 0.00000E+00
 -1      2807 1.37400E+02 4.09070E+01 0.00000E+00
 -1      2808 1.38900E+02 4.09070E+01 0.00000E+00
 -1      2809 1.36650E+02 3.96080E+01 0.00000E+00
 -1      2810 7.74772E+01 2.86060E+01 0.00000E+00
 -1      2811 7.73917E+01 2.74802E+01 0.00000E+00
 -1      2812 8.01097E+01 3.33225E+01 0.00000E+00
 -1      2813 7.91418E+01 3.25049E+01 0.00000E+00
 -1      2814 2.12850E+01 7.90325E+00 0.00000E+00
 -1      2815 1.97850E+01 7.90325E+00 0.00000E+00
 -1      2816 3.02850E+01 7.90325E+00 0.00000E+00
 -1      2817 2.87850E+01 7.90325E+00 0.00000E+00
 -1      2818 3.32850E+01 7.90325E+00 0.00000E+00
 -1      2819 3.17850E+01 7.90325E+00 0.00000E+00
 -1      2820 3.10350E+01 9.20225E+00 0.00000E+00
 -1      2821 3.62850E+01 7.90325E+00 0.00000E+00
 -1      2822 3.47850E+01 7.90325E+00 0.00000E+00
 -1      2823 3.40350E+01 9.20225E+00 0.00000E+00
 -1      2824 3.92850E+01 7.90325E+00 0.00000E+00
 -1      2825 3.77850E+01 7.90325E+00 0.00000E+00
 -1      2826 3.70350E+01 9.20225E+00 0.00000E+00
 -1      2827 4.22850E+01 7.90325E+00 0.00000E+00
 -1      2828 4.07850E+01 7.90325E+00 0.00000E+00
 -1      2829 4.00350E+01 9.20225E+00 0.00000E+00
 -1      2830 4.52850E+01 7.90325E+00 0.00000E+00
 -1      2831 4.37850E+01 7.90325E+00 0.00000E+00
 -1      2832 4.30350E+01 9.20225E+00 0.00000E+00
 -1      2833 4.82850E+01 7.90325E+00 0.00000E+00
 -1      2834 4.67850E+01 7.90325E+00 0.00000E+00
 -1      2835 4.60350E+01 9.20225E+00 0.00000E+00
 -1      2836 5.12850E+01 7.90325E+00 0.00000E+00
 -1      2837 4.97850E+01 7.90325E+00 0.00000E+00
 -1      2838 4.90350E+01 9.20225E+00 0.00000E+00
 -1      2839 5.42850E+01 7.90325E+00 0.00000E+00
 -1      2840 5.27850E+01 7.90325E+00 0.00000E+00
 -1      2841 5.20350E+01 9.20225E+00 0.00000E+00
 -1      2842 5.72850E+01 7.90325E+00 0.00000E+00
 -1      2843 5.57850E+01 7.90325E+00 0.00000E+00
 -1      2844 5.50350E+01 9.20225E+00 0.00000E+00
 -1      2845 6.02850E+01 7.90325E+00 0.00000E+00
 -1      2846 5.87850E+01 7.90325E+00 0.00000E+00
 -1      2847 5.80350E+01 9.20225E+00 0.00000E+00
 -1      2848 6.32850E+01 7.90325E+00 0.00000E+00
 -1      2849 6.17850E+01 7.90325E+00 0.00000E+00
 -1      2850 6.10350E+01 9.20225E+00 0.00000E+00
 -1      2851 6.62850E+01 7.90325E+00 0.00000E+00
 -1      2852 6.47850E+01 7.90325E+00 0.00000E+00
 -1      2853 6.40350E+01 9.20225E+00 0.00000E+00
 -1      2854 6.92850E+01 7.90325E+00 0.00000E+00
 -1      2855 6.77850E+01 7.90325E+00 0.00000E+00
 -1      2856 6.70350E+01 9.20225E+00 0.00000E+00
 -1      2857 7.22850E+01 7.90325E+00 0.00000E+00
 -1      2858 7.07850E+01 7.90325E+00 0.00000E+00
 -1      2859 7.00350E+01 9.20225E+00 0.00000E+00
 -1      2860 7.52850E+01 7.90325E+00 0.00000E+00
 -1      2861 7.37850E+01 7.90325E+00 0.00000E+00
 -1      2862 7.30350E+01 9.20225E+00 0.00000E+00
 -1      2863 7.82850E+01 7.90325E+00 0.00000E+00
 -1      2864 7.67850E+01 7.90325E+00 0.00000E+00
 -1      2865 7.60350E+01 9.20225E+00 0.00000E+00
 -1      2866 8.12850E+01 7.90325E+00 0.00000E+00
 -1      2867 7.97850E+01 7.90325E+00 0.00000E+00
 -1      2868 7.90350E+01 9.20225E+00 0.00000E+00
 -1      2869 8.42850E+01 7.90325E+00 0.00000E+00
 -1      2870 8.27850E+01 7.90325E+00 0.00000E+00
 -1      2871 8.20350E+01 9.20225E+00 0.00000E+00
 -1      2872 8.72850E+01 7.90325E+00 0.00000E+00
 -1      2873 8.57850E+01 7.90325E+00 0.00000E+00
 -1      2874 8.50350E+01 9.20225E+00 0.00000E+00
 -1      2875 9.02850E+01 7.90325E+00 0.00000E+00
 -1      2876 8.87850E+01 7.90325E+00 0.00000E+00
 -1      2877 8.80350E+01 9.20225E+00 0.00000E+00
 -1      2878 9.32850E+01 7.90325E+00 0.00000E+00
 -1      2879 9.17850E+01 7.90325E+00 0.00000E+00
 -1      2880 9.10350E+01 9.20225E+00 0.00000E+00
 -1      2881 9.62850E+01 7.90325E+00 0.00000E+00
 -1      2882 9.47850E+01 7.90325E+00 0.00000E+00
 -1      2883 9.40350E+01 9.20225E+00 0.00000E+00
 -1      2884 9.92850E+01 7.90325E+00 0.00000E+00
 -1      2885 9.77850E+01 7.90325E+00 0.00000E+00
 -1      2886 9.70350E+01 9.20225E+00 0.00000E+00
 -1      2887 1.02285E+02 7.90325E+00 0.00000E+00
 -1      2888 1.00785E+02 7.90325E+00 0.00000E+00
 -1      2889 1.00035E+02 9.20225E+00 0.00000E+00
 -1      2890 1.05285E+02 7.90325E+00 0.00000E+00
 -1      2891 1.03785E+02 7.90325E+00 0.00000E+00
 -1      2892 1.03035E+02 9.20225E+00 0.00000E+00
 -1      2893 1.08285E+02 7.90325E+00 0.00000E+00
 -1      2894 1.06785E+02 7.90325E+00 0.00000E+00
 -1      2895 1.06035E+02 9.20225E+00 0.00000E+00
 -1      2896 1.11285E+02 7.90325E+00 0.00000E+00
 -1      2897 1.09785E+02 7.90325E+00 0.00000E+00
 -1      2898 1.09035E+02 9.20225E+00 0.00000E+00
 -1      2899 1.14285E+02 7.90325E+00 0.00000E+00
 -1      2900 1.12785E+02 7.90325E+00 0.00000E+00
 -1      2901 1.12035E+02 9.20225E+00 0.00000E+00
 -1      2902 1.17285E+02 7.90325E+00 0.00000E+00
 -1      2903 1.15785E+02 7.90325E+00 0.00000E+00
 -1      2904 1.15035E+02 9.20225E+00 0.00000E+00
 -1      2905 1.20285E+02 7.90325E+00 0.00000E+00
 -1      2906 1.18785E+02 7.90325E+00 0.00000E+00
 -1      2907 1.18035E+02 9.20225E+00 0.00000E+00
 -1      2908 1.23285E+02 7.90325E+00 0.00000E+00
 -1      2909 1.21785E+02 7.90325E+00 0.00000E+00
 -1      2910 1.21035E+02 9.20225E+00 0.00000E+00
 -1      2911 1.26285E+02 7.90325E+00 0.00000E+00
 -1      2912 1.24785E+02 7.90325E+00 0.00000E+00
 -1      2913 1.24035E+02 9.20225E+00 0.00000E+00
 -1      2914 1.29285E+02 7.90325E+00 0.00000E+00
 -1      2915 1.27785E+02 7.90325E+00 0.00000E+00
 -1      2916 1.27035E+02 9.20225E+00 0.00000E+00
 -1      2917 1.32285E+02 7.90325E+00 0.00000E+00
 -1      2918 1.30785E+02 7.90325E+00 0.00000E+00
 -1      2919 1.30035E+02 9.20225E+00 0.00000E+00
 -1      2920 1.35285E+02 7.90325E+00 0.00000E+00
 -1      2921 1.33785E+02 7.90325E+00 0.00000E+00
 -1      2922 1.33035E+02 9.20225E+00 0.00000E+00
 -1      2923 1.38285E+02 7.90325E+00 0.00000E+00
 -1      2924 1.36785E+02 7.90325E+00 0.00000E+00
 -1      2925 1.36035E+02 9.20225E+00 0.00000E+00
 -1      2926 1.40953E+02 8.18394E+00 0.00000E+00
 -1      2927 1.39453E+02 8.18394E+00 0.00000E+00
 -1      2928 1.38703E+02 9.48294E+00 0.00000E+00
 -1      2929 1.41038E+02 1.00443E+01 0.00000E+00
 -1      2930 1.40907E+02 2.42875E+01 0.00000E+00
 -1      2931 1.40907E+02 2.28125E+01 0.00000E+00
 -1      2932 1.39914E+02 4.09362E+01 0.00000E+00
 -1      2933 1.40928E+02 4.09655E+01 0.00000E+00
 -1      2934 1.39164E+02 3.96372E+01 0.00000E+00
 -1      2935 1.40907E+02 1.83875E+01 0.00000E+00
 -1      2936 1.40907E+02 1.69125E+01 0.00000E+00
 -1      2937 1.40907E+02 2.72375E+01 0.00000E+00
 -1      2938 1.40907E+02 2.57625E+01 0.00000E+00
 -1      2939 1.39608E+02 2.50250E+01 0.00000E+00
 -1      2940 1.40907E+02 2.13375E+01 0.00000E+00
 -1      2941 1.40907E+02 1.98625E+01 0.00000E+00
 -1      2942 1.39608E+02 1.91250E+01 0.00000E+00
 -1      2943 1.39608E+02 2.20750E+01 0.00000E+00
 -1      2944 8.95936E+01 1.33343E+01 0.00000E+00
 -1      2945 9.06832E+01 1.36865E+01 0.00000E+00
 -1      2946 1.40907E+02 3.01375E+01 0.00000E+00
 -1      2947 1.40907E+02 2.86875E+01 0.00000E+00
 -1      2948 1.39608E+02 2.79500E+01 0.00000E+00
 -1      2949 1.40907E+02 3.30875E+01 0.00000E+00
 -1      2950 1.40907E+02 3.16125E+01 0.00000E+00
 -1      2951 1.39608E+02 3.08750E+01 0.00000E+00
 -1      2952 1.40907E+02 3.60375E+01 0.00000E+00
 -1      2953 1.40907E+02 3.45625E+01 0.00000E+00
 -1      2954 1.39608E+02 3.38250E+01 0.00000E+00
 -1      2955 1.82850E+01 7.90325E+00 0.00000E+00
 -1      2956 1.67850E+01 7.90325E+00 0.00000E+00
 -1      2957 1.90350E+01 9.20225E+00 0.00000E+00
 -1      2958 7.66739E+01 2.37490E+01 0.00000E+00
 -1      2959 7.70319E+01 2.24791E+01 0.00000E+00
 -1      2960 9.25425E+00 4.07069E+01 0.00000E+00
 -1      2961 1.06178E+01 4.09709E+01 0.00000E+00
 -1      2962 9.22200E+00 3.94717E+01 0.00000E+00
 -1      2963 8.91450E+00 8.42712E+00 0.00000E+00
 -1      2964 7.70513E+01 2.63835E+01 0.00000E+00
 -1      2965 7.67109E+01 2.52868E+01 0.00000E+00
 -1      2966 7.62807E+01 2.70082E+01 0.00000E+00
 -1      2967 2.72850E+01 7.90325E+00 0.00000E+00
 -1      2968 2.57850E+01 7.90325E+00 0.00000E+00
 -1      2969 2.80350E+01 9.20225E+00 0.00000E+00
 -1      2970 2.42850E+01 7.90325E+00 0.00000E+00
 -1      2971 2.27850E+01 7.90325E+00 0.00000E+00
 -1      2972 2.50350E+01 9.20225E+00 0.00000E+00
 -1      2973 1.17589E+01 4.09389E+01 0.00000E+00
 -1      2974 1.32589E+01 4.09389E+01 0.00000E+00
 -1      2975 1.40089E+01 3.96399E+01 0.00000E+00
 -1      2976 1.17266E+01 3.97038E+01 0.00000E+00
 -1      2977 1.00706E+02 2.21524E+01 0.00000E+00
 -1      2978 1.00807E+02 2.32971E+01 0.00000E+00
 -1      2979 7.80323E+01 3.12185E+01 0.00000E+00
 -1      2980 7.75933E+01 3.00516E+01 0.00000E+00
 -1      2981 9.97286E+01 1.96341E+01 0.00000E+00
 -1      2982 1.00241E+02 2.07477E+01 0.00000E+00
 -1      2983 1.52850E+01 7.90325E+00 0.00000E+00
 -1      2984 1.37850E+01 7.90325E+00 0.00000E+00
 -1      2985 1.30350E+01 9.20225E+00 0.00000E+00
 -1      2986 1.60350E+01 9.20225E+00 0.00000E+00
 -1      2987 1.00270E+02 2.93910E+01 0.00000E+00
 -1      2988 9.98611E+01 3.03332E+01 0.00000E+00
 -1      2989 9.09300E+00 1.68813E+01 0.00000E+00
 -1      2990 9.09300E+00 1.83563E+01 0.00000E+00
 -1      2991 1.03920E+01 1.90812E+01 0.00000E+00
 -1      2992 1.03920E+01 1.61437E+01 0.00000E+00
 -1      2993 8.21670E+01 1.50292E+01 0.00000E+00
 -1      2994 8.34108E+01 1.44296E+01 0.00000E+00
 -1      2995 9.37081E+01 3.63201E+01 0.00000E+00
 -1      2996 9.25776E+01 3.67154E+01 0.00000E+00
 -1      2997 8.42218E+01 1.40147E+01 0.00000E+00
 -1      2998 8.50328E+01 1.35998E+01 0.00000E+00
 -1      2999 8.31911E+01 1.34665E+01 0.00000E+00
 -1      3000 7.75745E+01 2.13313E+01 0.00000E+00
 -1      3001 7.79384E+01 2.03406E+01 0.00000E+00
 -1      3002 9.09300E+00 3.15875E+01 0.00000E+00
 -1      3003 9.09300E+00 3.30625E+01 0.00000E+00
 -1      3004 9.18628E+01 1.37805E+01 0.00000E+00
 -1      3005 9.30424E+01 1.38745E+01 0.00000E+00
 -1      3006 9.16076E+01 1.27087E+01 0.00000E+00
 -1      3007 7.97658E+01 1.70375E+01 0.00000E+00
 -1      3008 8.07802E+01 1.60206E+01 0.00000E+00
 -1      3009 1.00841E+02 2.44199E+01 0.00000E+00
 -1      3010 1.00876E+02 2.55427E+01 0.00000E+00
 -1      3011 1.01728E+02 2.37649E+01 0.00000E+00
 -1      3012 7.83393E+01 1.92254E+01 0.00000E+00
 -1      3013 7.88392E+01 1.82604E+01 0.00000E+00
 -1      3014 9.76995E+01 3.36132E+01 0.00000E+00
 -1      3015 9.68983E+01 3.43785E+01 0.00000E+00
 -1      3016 8.20587E+01 3.47218E+01 0.00000E+00
 -1      3017 8.11365E+01 3.40684E+01 0.00000E+00
 -1      3018 1.41192E+02 3.96958E+01 0.00000E+00
 -1      3019 8.40390E+01 3.59171E+01 0.00000E+00
 -1      3020 8.30717E+01 3.53670E+01 0.00000E+00
 -1      3021 1.00906E+02 2.69478E+01 0.00000E+00
 -1      3022 1.00717E+02 2.81216E+01 0.00000E+00
 -1      3023 8.82339E+01 3.80551E+01 0.00000E+00
 -1      3024 8.71661E+01 3.77972E+01 0.00000E+00
 -1      3025 9.13719E+01 3.69147E+01 0.00000E+00
 -1      3026 9.01662E+01 3.71140E+01 0.00000E+00
 -1      3027 9.22202E+01 3.75265E+01 0.00000E+00
 -1      3028 9.59037E+01 3.51729E+01 0.00000E+00
 -1      3029 9.49752E+01 3.57891E+01 0.00000E+00
 -1      3030 9.91817E+01 3.14188E+01 0.00000E+00
 -1      3031 9.85101E+01 3.24788E+01 0.00000E+00
 -1      3032 9.64704E+01 1.54296E+01 0.00000E+00
 -1      3033 9.73725E+01 1.60969E+01 0.00000E+00
 -1      3034 9.41997E+01 1.44411E+01 0.00000E+00
 -1      3035 9.52308E+01 1.49617E+01 0.00000E+00
 -1      3036 9.09300E+00 3.45313E+01 0.00000E+00
 -1      3037 9.09300E+00 3.60000E+01 0.00000E+00
 -1      3038 1.03920E+01 3.37938E+01 0.00000E+00
 -1      3039 1.03920E+01 2.49750E+01 0.00000E+00
 -1      3040 9.09300E+00 2.57000E+01 0.00000E+00
 -1      3041 9.09300E+00 2.71750E+01 0.00000E+00
 -1      3042 1.01376E+02 2.89672E+01 0.00000E+00
 -1      3043 1.00109E+02 1.85539E+01 0.00000E+00
 -1      3044 8.56298E+01 1.29432E+01 0.00000E+00
 -1      3045 8.62268E+01 1.22866E+01 0.00000E+00
 -1      3046 8.45991E+01 1.23951E+01 0.00000E+00
 -1      3047 7.73524E+01 1.94251E+01 0.00000E+00
 -1      3048 1.39608E+02 1.61875E+01 0.00000E+00
 -1      3049 1.40907E+02 1.54500E+01 0.00000E+00
 -1      3050 1.40907E+02 1.39875E+01 0.00000E+00
 -1      3051 7.67372E+01 2.95505E+01 0.00000E+00
 -1      3052 7.78934E+01 3.33463E+01 0.00000E+00
 -1      3053 7.79628E+01 3.22824E+01 0.00000E+00
 -1      3054 7.67839E+01 3.20599E+01 0.00000E+00
 -1      3055 7.64088E+01 2.16881E+01 0.00000E+00
 -1      3056 2.20350E+01 9.20225E+00 0.00000E+00
 -1      3057 9.39445E+01 1.33693E+01 0.00000E+00
 -1      3058 8.21391E+01 3.57058E+01 0.00000E+00
 -1      3059 8.88427E+01 1.27247E+01 0.00000E+00
 -1      3060 1.40973E+02 1.27472E+01 0.00000E+00
 -1      3061 1.40973E+02 1.12847E+01 0.00000E+00
 -1      3062 1.39805E+02 1.10040E+01 0.00000E+00
 -1      3063 1.39674E+02 1.34847E+01 0.00000E+00
 -1      3064 9.63413E+01 1.44038E+01 0.00000E+00
 -1      3065 8.09933E+01 1.48728E+01 0.00000E+00
 -1      3066 8.12065E+01 1.37251E+01 0.00000E+00
 -1      3067 7.98197E+01 1.47165E+01 0.00000E+00
 -1      3068 1.00250E+02 3.13222E+01 0.00000E+00
 -1      3069 1.41192E+02 3.82207E+01 0.00000E+00
 -1      3070 1.39529E+02 3.85602E+01 0.00000E+00
 -1      3071 1.40542E+02 3.71145E+01 0.00000E+00
 -1      3072 1.39243E+02 3.63770E+01 0.00000E+00
 -1      3073 1.38514E+02 3.85310E+01 0.00000E+00
 -1      3074 7.59033E+01 2.43736E+01 0.00000E+00
 -1      3075 1.01793E+02 2.62927E+01 0.00000E+00
 -1      3076 9.87597E+01 3.35421E+01 0.00000E+00
 -1      3077 7.86800E+01 1.70871E+01 0.00000E+00
 -1      3078 8.00992E+01 3.43147E+01 0.00000E+00
 -1      3079 1.01229E+02 2.12374E+01 0.00000E+00
 -1      3080 9.85175E+01 1.60734E+01 0.00000E+00
 -1      3081 9.09300E+00 2.86437E+01 0.00000E+00
 -1      3082 9.09300E+00 3.01187E+01 0.00000E+00
 -1      3083 1.03920E+01 3.08563E+01 0.00000E+00
 -1      3084 1.03920E+01 2.79188E+01 0.00000E+00
 -1      3085 9.66450E+00 9.72612E+00 0.00000E+00
 -1      3086 1.09635E+01 1.04636E+01 0.00000E+00
 -1      3087 9.46929E+01 3.67963E+01 0.00000E+00
 -1      3088 9.69545E+01 3.54709E+01 0.00000E+00
 -1      3089 8.48594E+01 3.64704E+01 0.00000E+00
 -1      3090 8.39725E+01 3.69043E+01 0.00000E+00
 -1      3091 8.59875E+01 3.67220E+01 0.00000E+00
 -1      3092 1.16910E+01 1.24625E+01 0.00000E+00
 -1      3093 1.16910E+01 1.39375E+01 0.00000E+00
 -1      3094 1.89000E+01 3.83090E+01 0.00000E+00
 -1      3095 2.04000E+01 3.83090E+01 0.00000E+00
 -1      3096 2.19000E+01 3.83090E+01 0.00000E+00
 -1      3097 2.34000E+01 3.83090E+01 0.00000E+00
 -1      3098 2.11500E+01 3.70100E+01 0.00000E+00
 -1      3099 2.49000E+01 3.83090E+01 0.00000E+00
 -1      3100 2.64000E+01 3.83090E+01 0.00000E+00
 -1      3101 2.41500E+01 3.70100E+01 0.00000E+00
 -1      3102 2.79000E+01 3.83090E+01 0.00000E+00
 -1      3103 2.94000E+01 3.83090E+01 0.00000E+00
 -1      3104 2.71500E+01 3.70100E+01 0.00000E+00
 -1      3105 3.09000E+01 3.83090E+01 0.00000E+00
 -1      3106 3.24000E+01 3.83090E+01 0.00000E+00
 -1      3107 3.01500E+01 3.70100E+01 0.00000E+00
 -1      3108 3.39000E+01 3.83090E+01 0.00000E+00
 -1      3109 3.54000E+01 3.83090E+01 0.00000E+00
 -1      3110 3.31500E+01 3.70100E+01 0.00000E+00
 -1      3111 3.69000E+01 3.83090E+01 0.00000E+00
 -1      3112 3.84000E+01 3.83090E+01 0.00000E+00
 -1      3113 3.61500E+01 3.70100E+01 0.00000E+00
 -1      3114 3.99000E+01 3.83090E+01 0.00000E+00
 -1      3115 4.14000E+01 3.83090E+01 0.00000E+00
 -1      3116 3.91500E+01 3.70100E+01 0.00000E+00
 -1      3117 4.29000E+01 3.83090E+01 0.00000E+00
 -1      3118 4.44000E+01 3.83090E+01 0.00000E+00
 -1      3119 4.21500E+01 3.70100E+01 0.00000E+00
 -1      3120 4.59000E+01 3.83090E+01 0.00000E+00
 -1      3121 4.74000E+01 3.83090E+01 0.00000E+00
 -1      3122 4.51500E+01 3.70100E+01 0.00000E+00
 -1      3123 4.89000E+01 3.83090E+01 0.00000E+00
 -1      3124 5.04000E+01 3.83090E+01 0.00000E+00
 -1      3125 4.81500E+01 3.70100E+01 0.00000E+00
 -1      3126 5.19000E+01 3.83090E+01 0.00000E+00
 -1      3127 5.34000E+01 3.83090E+01 0.00000E+00
 -1      3128 5.11500E+01 3.70100E+01 0.00000E+00
 -1      3129 5.49000E+01 3.83090E+01 0.00000E+00
 -1      3130 5.64000E+01 3.83090E+01 0.00000E+00
 -1      3131 5.41500E+01 3.70100E+01 0.00000E+00
 -1      3132 5.79000E+01 3.83090E+01 0.00000E+00
 -1      3133 5.94000E+01 3.83090E+01 0.00000E+00
 -1      3134 5.71500E+01 3.70100E+01 0.00000E+00
 -1      3135 6.09000E+01 3.83090E+01 0.00000E+00
 -1      3136 6.24000E+01 3.83090E+01 0.00000E+00
 -1      3137 6.01500E+01 3.70100E+01 0.00000E+00
 -1      3138 6.39000E+01 3.83090E+01 0.00000E+00
 -1      3139 6.54000E+01 3.83090E+01 0.00000E+00
 -1      3140 6.31500E+01 3.70100E+01 0.00000E+00
 -1      3141 6.69000E+01 3.83090E+01 0.00000E+00
 -1      3142 6.84000E+01 3.83090E+01 0.00000E+00
 -1      3143 6.61500E+01 3.70100E+01 0.00000E+00
 -1      3144 6.99000E+01 3.83090E+01 0.00000E+00
 -1      3145 7.14000E+01 3.83090E+01 0.00000E+00
 -1      3146 6.91500E+01 3.70100E+01 0.00000E+00
 -1      3147 7.29000E+01 3.83090E+01 0.00000E+00
 -1      3148 7.44000E+01 3.83090E+01 0.00000E+00
 -1      3149 7.21500E+01 3.70100E+01 0.00000E+00
 -1      3150 7.59000E+01 3.83090E+01 0.00000E+00
 -1      3151 7.74000E+01 3.83090E+01 0.00000E+00
 -1      3152 7.51500E+01 3.70100E+01 0.00000E+00
 -1      3153 8.19000E+01 3.86667E+01 0.00000E+00
 -1      3154 8.34000E+01 3.86667E+01 0.00000E+00
 -1      3155 8.44714E+01 3.85328E+01 0.00000E+00
 -1      3156 8.59714E+01 3.85328E+01 0.00000E+00
 -1      3157 9.05823E+01 3.86669E+01 0.00000E+00
 -1      3158 9.20823E+01 3.86669E+01 0.00000E+00
 -1      3159 9.32880E+01 3.84676E+01 0.00000E+00
 -1      3160 9.47880E+01 3.84676E+01 0.00000E+00
 -1      3161 9.69000E+01 3.84153E+01 0.00000E+00
 -1      3162 9.84000E+01 3.84153E+01 0.00000E+00
 -1      3163 9.99000E+01 3.84153E+01 0.00000E+00
 -1      3164 1.01400E+02 3.84153E+01 0.00000E+00
 -1      3165 9.91500E+01 3.72226E+01 0.00000E+00
 -1      3166 1.02900E+02 3.84153E+01 0.00000E+00
 -1      3167 1.04400E+02 3.84153E+01 0.00000E+00
 -1      3168 1.02150E+02 3.72226E+01 0.00000E+00
 -1      3169 1.05900E+02 3.84153E+01 0.00000E+00
 -1      3170 1.07400E+02 3.84153E+01 0.00000E+00
 -1      3171 1.05150E+02 3.72226E+01 0.00000E+00
 -1      3172 1.08900E+02 3.84153E+01 0.00000E+00
 -1      3173 1.10400E+02 3.84153E+01 0.00000E+00
 -1      3174 1.08150E+02 3.72226E+01 0.00000E+00
 -1      3175 1.11900E+02 3.84153E+01 0.00000E+00
 -1      3176 1.13400E+02 3.84153E+01 0.00000E+00
 -1      3177 1.11150E+02 3.72226E+01 0.00000E+00
 -1      3178 1.14900E+02 3.84153E+01 0.00000E+00
 -1      3179 1.16400E+02 3.84153E+01 0.00000E+00
 -1      3180 1.14150E+02 3.72226E+01 0.00000E+00
 -1      3181 1.17900E+02 3.84153E+01 0.00000E+00
 -1      3182 1.19400E+02 3.84153E+01 0.00000E+00
 -1      3183 1.17150E+02 3.72226E+01 0.00000E+00
 -1      3184 1.20900E+02 3.84153E+01 0.00000E+00
 -1      3185 1.22400E+02 3.84153E+01 0.00000E+00
 -1      3186 1.20150E+02 3.72226E+01 0.00000E+00
 -1      3187 1.23900E+02 3.84153E+01 0.00000E+00
 -1      3188 1.25400E+02 3.84153E+01 0.00000E+00
 -1      3189 1.23150E+02 3.72226E+01 0.00000E+00
 -1      3190 1.26900E+02 3.84153E+01 0.00000E+00
 -1      3191 1.28400E+02 3.84153E+01 0.00000E+00
 -1      3192 1.26150E+02 3.72226E+01 0.00000E+00
 -1      3193 1.29900E+02 3.84153E+01 0.00000E+00
 -1      3194 1.31400E+02 3.84153E+01 0.00000E+00
 -1      3195 1.29150E+02 3.72226E+01 0.00000E+00
 -1      3196 1.32900E+02 3.84153E+01 0.00000E+00
 -1      3197 1.34400E+02 3.84153E+01 0.00000E+00
 -1      3198 1.32150E+02 3.72226E+01 0.00000E+00
 -1      3199 1.35707E+02 3.84732E+01 0.00000E+00
 -1      3200 1.37207E+02 3.84732E+01 0.00000E+00
 -1      3201 1.37572E+02 3.73962E+01 0.00000E+00
 -1      3202 1.34957E+02 3.72805E+01 0.00000E+00
 -1      3203 3.17850E+01 1.05013E+01 0.00000E+00
 -1      3204 3.02850E+01 1.05013E+01 0.00000E+00
 -1      3205 4.07850E+01 1.05013E+01 0.00000E+00
 -1      3206 3.92850E+01 1.05013E+01 0.00000E+00
 -1      3207 4.37850E+01 1.05013E+01 0.00000E+00
 -1      3208 4.22850E+01 1.05013E+01 0.00000E+00
 -1      3209 4.15350E+01 1.18003E+01 0.00000E+00
 -1      3210 4.67850E+01 1.05013E+01 0.00000E+00
 -1      3211 4.52850E+01 1.05013E+01 0.00000E+00
 -1      3212 4.45350E+01 1.18003E+01 0.00000E+00
 -1      3213 4.97850E+01 1.05013E+01 0.00000E+00
 -1      3214 4.82850E+01 1.05013E+01 0.00000E+00
 -1      3215 4.75350E+01 1.18003E+01 0.00000E+00
 -1      3216 5.27850E+01 1.05013E+01 0.00000E+00
 -1      3217 5.12850E+01 1.05013E+01 0.00000E+00
 -1      3218 5.05350E+01 1.18003E+01 0.00000E+00
 -1      3219 5.57850E+01 1.05013E+01 0.00000E+00
 -1      3220 5.42850E+01 1.05013E+01 0.00000E+00
 -1      3221 5.35350E+01 1.18003E+01 0.00000E+00
 -1      3222 5.87850E+01 1.05013E+01 0.00000E+00
 -1      3223 5.72850E+01 1.05013E+01 0.00000E+00
 -1      3224 5.65350E+01 1.18003E+01 0.00000E+00
 -1      3225 6.17850E+01 1.05013E+01 0.00000E+00
 -1      3226 6.02850E+01 1.05013E+01 0.00000E+00
 -1      3227 5.95350E+01 1.18003E+01 0.00000E+00
 -1      3228 6.47850E+01 1.05013E+01 0.00000E+00
 -1      3229 6.32850E+01 1.05013E+01 0.00000E+00
 -1      3230 6.25350E+01 1.18003E+01 0.00000E+00
 -1      3231 6.77850E+01 1.05013E+01 0.00000E+00
 -1      3232 6.62850E+01 1.05013E+01 0.00000E+00
 -1      3233 6.55350E+01 1.18003E+01 0.00000E+00
 -1      3234 7.07850E+01 1.05013E+01 0.00000E+00
 -1      3235 6.92850E+01 1.05013E+01 0.00000E+00
 -1      3236 6.85350E+01 1.18003E+01 0.00000E+00
 -1      3237 7.37850E+01 1.05013E+01 0.00000E+00
 -1      3238 7.22850E+01 1.05013E+01 0.00000E+00
 -1      3239 7.15350E+01 1.18003E+01 0.00000E+00
 -1      3240 7.67850E+01 1.05013E+01 0.00000E+00
 -1      3241 7.52850E+01 1.05013E+01 0.00000E+00
 -1      3242 7.45350E+01 1.18003E+01 0.00000E+00
 -1      3243 8.02839E+01 1.13855E+01 0.00000E+00
 -1      3244 7.87839E+01 1.13855E+01 0.00000E+00
 -1      3245 8.58655E+01 1.04704E+01 0.00000E+00
 -1      3246 8.43655E+01 1.04704E+01 0.00000E+00
 -1      3247 8.87850E+01 1.02274E+01 0.00000E+00
 -1      3248 8.72850E+01 1.02274E+01 0.00000E+00
 -1      3249 9.14815E+01 1.09085E+01 0.00000E+00
 -1      3250 8.99815E+01 1.09085E+01 0.00000E+00
 -1      3251 9.47850E+01 1.03112E+01 0.00000E+00
 -1      3252 9.32850E+01 1.03112E+01 0.00000E+00
 -1      3253 9.77850E+01 1.03949E+01 0.00000E+00
 -1      3254 9.62850E+01 1.03949E+01 0.00000E+00
 -1      3255 1.00785E+02 1.03949E+01 0.00000E+00
 -1      3256 9.92850E+01 1.03949E+01 0.00000E+00
 -1      3257 9.85350E+01 1.15876E+01 0.00000E+00
 -1      3258 1.03785E+02 1.03949E+01 0.00000E+00
 -1      3259 1.02285E+02 1.03949E+01 0.00000E+00
 -1      3260 1.01535E+02 1.15876E+01 0.00000E+00
 -1      3261 1.06785E+02 1.03949E+01 0.00000E+00
 -1      3262 1.05285E+02 1.03949E+01 0.00000E+00
 -1      3263 1.04535E+02 1.15876E+01 0.00000E+00
 -1      3264 1.09785E+02 1.03949E+01 0.00000E+00
 -1      3265 1.08285E+02 1.03949E+01 0.00000E+00
 -1      3266 1.07535E+02 1.15876E+01 0.00000E+00
 -1      3267 1.12785E+02 1.03949E+01 0.00000E+00
 -1      3268 1.11285E+02 1.03949E+01 0.00000E+00
 -1      3269 1.10535E+02 1.15876E+01 0.00000E+00
 -1      3270 1.15785E+02 1.03949E+01 0.00000E+00
 -1      3271 1.14285E+02 1.03949E+01 0.00000E+00
 -1      3272 1.13535E+02 1.15876E+01 0.00000E+00
 -1      3273 1.18785E+02 1.03949E+01 0.00000E+00
 -1      3274 1.17285E+02 1.03949E+01 0.00000E+00
 -1      3275 1.16535E+02 1.15876E+01 0.00000E+00
 -1      3276 1.21785E+02 1.03949E+01 0.00000E+00
 -1      3277 1.20285E+02 1.03949E+01 0.00000E+00
 -1      3278 1.19535E+02 1.15876E+01 0.00000E+00
 -1      3279 1.24785E+02 1.03949E+01 0.00000E+00
 -1      3280 1.23285E+02 1.03949E+01 0.00000E+00
 -1      3281 1.22535E+02 1.15876E+01 0.00000E+00
 -1      3282 1.27785E+02 1.03949E+01 0.00000E+00
 -1      3283 1.26285E+02 1.03949E+01 0.00000E+00
 -1      3284 1.25535E+02 1.15876E+01 0.00000E+00
 -1      3285 1.30785E+02 1.03949E+01 0.00000E+00
 -1      3286 1.29285E+02 1.03949E+01 0.00000E+00
 -1      3287 1.28535E+02 1.15876E+01 0.00000E+00
 -1      3288 1.33785E+02 1.03949E+01 0.00000E+00
 -1      3289 1.32285E+02 1.03949E+01 0.00000E+00
 -1      3290 1.31535E+02 1.15876E+01 0.00000E+00
 -1      3291 1.36785E+02 1.03949E+01 0.00000E+00
 -1      3292 1.35285E+02 1.03949E+01 0.00000E+00
 -1      3293 1.34535E+02 1.15876E+01 0.00000E+00
 -1      3294 1.38879E+02 1.08398E+01 0.00000E+00
 -1      3295 1.37711E+02 1.05591E+01 0.00000E+00
 -1      3296 1.36961E+02 1.17518E+01 0.00000E+00
 -1      3297 1.38813E+02 1.20801E+01 0.00000E+00
 -1      3298 7.49808E+01 2.51652E+01 0.00000E+00
 -1      3299 7.49437E+01 2.36274E+01 0.00000E+00
 -1      3300 1.16910E+01 2.12875E+01 0.00000E+00
 -1      3301 1.16910E+01 2.27625E+01 0.00000E+00
 -1      3302 1.38309E+02 2.57625E+01 0.00000E+00
 -1      3303 1.38309E+02 2.42875E+01 0.00000E+00
 -1      3304 1.38309E+02 3.45625E+01 0.00000E+00
 -1      3305 1.38309E+02 3.30875E+01 0.00000E+00
 -1      3306 1.38309E+02 2.86625E+01 0.00000E+00
 -1      3307 1.38309E+02 2.72125E+01 0.00000E+00
 -1      3308 1.37010E+02 2.64750E+01 0.00000E+00
 -1      3309 1.97850E+01 1.05013E+01 0.00000E+00
 -1      3310 1.82850E+01 1.05013E+01 0.00000E+00
 -1      3311 8.97339E+01 3.80551E+01 0.00000E+00
 -1      3312 1.02652E+02 2.31744E+01 0.00000E+00
 -1      3313 1.02687E+02 2.42972E+01 0.00000E+00
 -1      3314 9.14137E+00 3.71183E+01 0.00000E+00
 -1      3315 9.17362E+00 3.83534E+01 0.00000E+00
 -1      3316 1.05371E+01 3.86174E+01 0.00000E+00
 -1      3317 1.04404E+01 3.63808E+01 0.00000E+00
 -1      3318 7.56319E+01 2.78107E+01 0.00000E+00
 -1      3319 7.52915E+01 2.67140E+01 0.00000E+00
 -1      3320 8.23187E+01 1.27614E+01 0.00000E+00
 -1      3321 8.31297E+01 1.23465E+01 0.00000E+00
 -1      3322 1.38309E+02 3.16125E+01 0.00000E+00
 -1      3323 1.38309E+02 3.01375E+01 0.00000E+00
 -1      3324 1.37010E+02 2.94000E+01 0.00000E+00
 -1      3325 1.37010E+02 3.23500E+01 0.00000E+00
 -1      3326 3.77850E+01 1.05013E+01 0.00000E+00
 -1      3327 3.62850E+01 1.05013E+01 0.00000E+00
 -1      3328 3.85350E+01 1.18003E+01 0.00000E+00
 -1      3329 3.47850E+01 1.05013E+01 0.00000E+00
 -1      3330 3.32850E+01 1.05013E+01 0.00000E+00
 -1      3331 3.25350E+01 1.18003E+01 0.00000E+00
 -1      3332 3.55350E+01 1.18003E+01 0.00000E+00
 -1      3333 9.34111E+01 1.21114E+01 0.00000E+00
 -1      3334 9.45684E+01 1.26780E+01 0.00000E+00
 -1      3335 1.59000E+01 3.83090E+01 0.00000E+00
 -1      3336 1.74000E+01 3.83090E+01 0.00000E+00
 -1      3337 1.81500E+01 3.70100E+01 0.00000E+00
 -1      3338 2.87850E+01 1.05013E+01 0.00000E+00
 -1      3339 2.72850E+01 1.05013E+01 0.00000E+00
 -1      3340 2.95350E+01 1.18003E+01 0.00000E+00
 -1      3341 1.02488E+02 2.86454E+01 0.00000E+00
 -1      3342 1.02040E+02 2.99147E+01 0.00000E+00
 -1      3343 9.77996E+01 3.59496E+01 0.00000E+00
 -1      3344 9.68050E+01 3.67440E+01 0.00000E+00
 -1      3345 7.59405E+01 3.03419E+01 0.00000E+00
 -1      3346 7.58244E+01 2.88964E+01 0.00000E+00
 -1      3347 2.57850E+01 1.05013E+01 0.00000E+00
 -1      3348 2.42850E+01 1.05013E+01 0.00000E+00
 -1      3349 2.65350E+01 1.18003E+01 0.00000E+00
 -1      3350 7.52108E+01 2.18238E+01 0.00000E+00
 -1      3351 7.57534E+01 2.06761E+01 0.00000E+00
 -1      3352 9.89238E+01 1.47909E+01 0.00000E+00
 -1      3353 9.98604E+01 1.59926E+01 0.00000E+00
 -1      3354 7.61543E+01 1.95609E+01 0.00000E+00
 -1      3355 7.65553E+01 1.84457E+01 0.00000E+00
 -1      3356 7.49563E+01 1.96966E+01 0.00000E+00
 -1      3357 2.27850E+01 1.05013E+01 0.00000E+00
 -1      3358 2.12850E+01 1.05013E+01 0.00000E+00
 -1      3359 2.35350E+01 1.18003E+01 0.00000E+00
 -1      3360 1.26488E+01 1.02017E+01 0.00000E+00
 -1      3361 1.20772E+01 1.14631E+01 0.00000E+00
 -1      3362 1.33763E+01 1.22006E+01 0.00000E+00
 -1      3363 1.41488E+01 1.02017E+01 0.00000E+00
 -1      3364 8.00594E+01 3.54493E+01 0.00000E+00
 -1      3365 7.90325E+01 3.47033E+01 0.00000E+00
 -1      3366 1.01387E+02 3.12787E+01 0.00000E+00
 -1      3367 1.00708E+02 3.23643E+01 0.00000E+00
 -1      3368 9.99990E+01 3.35710E+01 0.00000E+00
 -1      3369 9.91885E+01 3.47053E+01 0.00000E+00
 -1      3370 9.60684E+01 1.27617E+01 0.00000E+00
 -1      3371 9.73080E+01 1.32297E+01 0.00000E+00
 -1      3372 1.01969E+02 2.02128E+01 0.00000E+00
 -1      3373 1.02434E+02 2.16175E+01 0.00000E+00
 -1      3374 1.00768E+02 1.74091E+01 0.00000E+00
 -1      3375 1.01423E+02 1.86878E+01 0.00000E+00
 -1      3376 8.37214E+01 3.75915E+01 0.00000E+00
 -1      3377 8.29011E+01 3.70382E+01 0.00000E+00
 -1      3378 7.73996E+01 1.70794E+01 0.00000E+00
 -1      3379 7.83262E+01 1.58565E+01 0.00000E+00
 -1      3380 1.02719E+02 2.55700E+01 0.00000E+00
 -1      3381 1.02750E+02 2.69750E+01 0.00000E+00
 -1      3382 1.16910E+01 2.42375E+01 0.00000E+00
 -1      3383 1.16910E+01 2.57125E+01 0.00000E+00
 -1      3384 1.29900E+01 2.35000E+01 0.00000E+00
 -1      3385 2.05350E+01 1.18003E+01 0.00000E+00
 -1      3386 8.37267E+01 1.16899E+01 0.00000E+00
 -1      3387 1.36178E+01 3.83729E+01 0.00000E+00
 -1      3388 1.47589E+01 3.83409E+01 0.00000E+00
 -1      3389 1.55089E+01 3.70419E+01 0.00000E+00
 -1      3390 1.38309E+02 1.69188E+01 0.00000E+00
 -1      3391 1.38309E+02 1.54563E+01 0.00000E+00
 -1      3392 7.33657E+01 2.34070E+01 0.00000E+00
 -1      3393 7.42882E+01 2.26154E+01 0.00000E+00
 -1      3394 7.36328E+01 2.16034E+01 0.00000E+00
 -1      3395 1.02629E+02 1.90680E+01 0.00000E+00
 -1      3396 7.78214E+01 3.64240E+01 0.00000E+00
 -1      3397 7.85714E+01 3.77230E+01 0.00000E+00
 -1      3398 8.00714E+01 3.77230E+01 0.00000E+00
 -1      3399 1.03643E+02 2.49795E+01 0.00000E+00
 -1      3400 9.60550E+01 3.79367E+01 0.00000E+00
 -1      3401 1.02499E+02 3.09569E+01 0.00000E+00
 -1      3402 7.78536E+01 3.44809E+01 0.00000E+00
 -1      3403 1.16910E+01 3.30594E+01 0.00000E+00
 -1      3404 1.16910E+01 3.45281E+01 0.00000E+00
 -1      3405 9.55350E+01 1.15039E+01 0.00000E+00
 -1      3406 1.01137E+02 3.35275E+01 0.00000E+00
 -1      3407 7.80339E+01 1.26845E+01 0.00000E+00
 -1      3408 8.28962E+01 1.04218E+01 0.00000E+00
 -1      3409 8.13962E+01 1.04218E+01 0.00000E+00
 -1      3410 8.92315E+01 1.19336E+01 0.00000E+00
 -1      3411 7.43319E+01 2.59678E+01 0.00000E+00
 -1      3412 1.16910E+01 1.98188E+01 0.00000E+00
 -1      3413 1.29900E+01 2.05562E+01 0.00000E+00
 -1      3414 1.16910E+01 1.83500E+01 0.00000E+00
 -1      3415 1.38309E+02 1.98687E+01 0.00000E+00
 -1      3416 1.38309E+02 1.83937E+01 0.00000E+00
 -1      3417 1.37010E+02 1.76625E+01 0.00000E+00
 -1      3418 9.88080E+01 1.32297E+01 0.00000E+00
 -1      3419 1.00151E+02 1.31489E+01 0.00000E+00
 -1      3420 1.38309E+02 2.28156E+01 0.00000E+00
 -1      3421 1.38309E+02 2.13406E+01 0.00000E+00
 -1      3422 1.37010E+02 2.06094E+01 0.00000E+00
 -1      3423 1.37010E+02 2.35531E+01 0.00000E+00
 -1      3424 7.85393E+01 1.47088E+01 0.00000E+00
 -1      3425 7.58710E+01 3.14058E+01 0.00000E+00
 -1      3426 7.49581E+01 3.07517E+01 0.00000E+00
 -1      3427 7.58015E+01 3.24697E+01 0.00000E+00
 -1      3428 9.22315E+01 1.20174E+01 0.00000E+00
 -1      3429 1.03393E+02 2.21499E+01 0.00000E+00
 -1      3430 8.76463E+01 1.20436E+01 0.00000E+00
 -1      3431 1.16783E+01 3.85855E+01 0.00000E+00
 -1      3432 8.11451E+01 1.26050E+01 0.00000E+00
 -1      3433 8.66155E+01 1.14955E+01 0.00000E+00
 -1      3434 1.69669E+01 1.03515E+01 0.00000E+00
 -1      3435 1.54669E+01 1.03515E+01 0.00000E+00
 -1      3436 1.50806E+01 1.13509E+01 0.00000E+00
 -1      3437 1.77169E+01 1.16505E+01 0.00000E+00
 -1      3438 7.48352E+01 2.86022E+01 0.00000E+00
 -1      3439 9.92996E+01 3.59496E+01 0.00000E+00
 -1      3440 1.03414E+02 2.79226E+01 0.00000E+00
 -1      3441 1.04078E+02 2.88701E+01 0.00000E+00
 -1      3442 1.04340E+02 2.71998E+01 0.00000E+00
 -1      3443 1.00539E+02 3.59784E+01 0.00000E+00
 -1      3444 1.01175E+02 1.61265E+01 0.00000E+00
 -1      3445 7.62016E+01 1.72151E+01 0.00000E+00
 -1      3446 1.16910E+01 1.54094E+01 0.00000E+00
 -1      3447 1.16910E+01 1.68781E+01 0.00000E+00
 -1      3448 1.29900E+01 1.76156E+01 0.00000E+00
 -1      3449 1.29900E+01 1.46719E+01 0.00000E+00
 -1      3450 8.21850E+01 3.67517E+01 0.00000E+00
 -1      3451 8.11719E+01 3.61066E+01 0.00000E+00
 -1      3452 1.37758E+02 3.65178E+01 0.00000E+00
 -1      3453 1.38123E+02 3.54408E+01 0.00000E+00
 -1      3454 1.36824E+02 3.47033E+01 0.00000E+00
 -1      3455 1.36451E+02 3.64600E+01 0.00000E+00
 -1      3456 1.16910E+01 3.01219E+01 0.00000E+00
 -1      3457 1.16910E+01 3.15906E+01 0.00000E+00
 -1      3458 1.29900E+01 3.23250E+01 0.00000E+00
 -1      3459 8.19339E+01 3.74389E+01 0.00000E+00
 -1      3460 1.01651E+02 1.31489E+01 0.00000E+00
 -1      3461 7.66822E+01 3.50669E+01 0.00000E+00
 -1      3462 2.34000E+01 3.57110E+01 0.00000E+00
 -1      3463 2.49000E+01 3.57110E+01 0.00000E+00
 -1      3464 2.64000E+01 3.57110E+01 0.00000E+00
 -1      3465 2.79000E+01 3.57110E+01 0.00000E+00
 -1      3466 2.56500E+01 3.44120E+01 0.00000E+00
 -1      3467 2.94000E+01 3.57110E+01 0.00000E+00
 -1      3468 3.09000E+01 3.57110E+01 0.00000E+00
 -1      3469 2.86500E+01 3.44120E+01 0.00000E+00
 -1      3470 3.24000E+01 3.57110E+01 0.00000E+00
 -1      3471 3.39000E+01 3.57110E+01 0.00000E+00
 -1      3472 3.16500E+01 3.44120E+01 0.00000E+00
 -1      3473 3.54000E+01 3.57110E+01 0.00000E+00
 -1      3474 3.69000E+01 3.57110E+01 0.00000E+00
 -1      3475 3.46500E+01 3.44120E+01 0.00000E+00
 -1      3476 3.84000E+01 3.57110E+01 0.00000E+00
 -1      3477 3.99000E+01 3.57110E+01 0.00000E+00
 -1      3478 3.76500E+01 3.44120E+01 0.00000E+00
 -1      3479 4.14000E+01 3.57110E+01 0.00000E+00
 -1      3480 4.29000E+01 3.57110E+01 0.00000E+00
 -1      3481 4.06500E+01 3.44120E+01 0.00000E+00
 -1      3482 4.44000E+01 3.57110E+01 0.00000E+00
 -1      3483 4.59000E+01 3.57110E+01 0.00000E+00
 -1      3484 4.36500E+01 3.44120E+01 0.00000E+00
 -1      3485 4.74000E+01 3.57110E+01 0.00000E+00
 -1      3486 4.89000E+01 3.57110E+01 0.00000E+00
 -1      3487 4.66500E+01 3.44120E+01 0.00000E+00
 -1      3488 5.04000E+01 3.57110E+01 0.00000E+00
 -1      3489 5.19000E+01 3.57110E+01 0.00000E+00
 -1      3490 4.96500E+01 3.44120E+01 0.00000E+00
 -1      3491 5.34000E+01 3.57110E+01 0.00000E+00
 -1      3492 5.49000E+01 3.57110E+01 0.00000E+00
 -1      3493 5.26500E+01 3.44120E+01 0.00000E+00
 -1      3494 5.64000E+01 3.57110E+01 0.00000E+00
 -1      3495 5.79000E+01 3.57110E+01 0.00000E+00
 -1      3496 5.56500E+01 3.44120E+01 0.00000E+00
 -1      3497 5.94000E+01 3.57110E+01 0.00000E+00
 -1      3498 6.09000E+01 3.57110E+01 0.00000E+00
 -1      3499 5.86500E+01 3.44120E+01 0.00000E+00
 -1      3500 6.24000E+01 3.57110E+01 0.00000E+00
 -1      3501 6.39000E+01 3.57110E+01 0.00000E+00
 -1      3502 6.16500E+01 3.44120E+01 0.00000E+00
 -1      3503 6.54000E+01 3.57110E+01 0.00000E+00
 -1      3504 6.69000E+01 3.57110E+01 0.00000E+00
 -1      3505 6.46500E+01 3.44120E+01 0.00000E+00
 -1      3506 6.84000E+01 3.57110E+01 0.00000E+00
 -1      3507 6.99000E+01 3.57110E+01 0.00000E+00
 -1      3508 6.76500E+01 3.44120E+01 0.00000E+00
 -1      3509 7.14000E+01 3.57110E+01 0.00000E+00
 -1      3510 7.29000E+01 3.57110E+01 0.00000E+00
 -1      3511 7.06500E+01 3.44120E+01 0.00000E+00
 -1      3512 7.51822E+01 3.50669E+01 0.00000E+00
 -1      3513 8.11839E+01 3.83802E+01 0.00000E+00
 -1      3514 1.04568E+02 2.43190E+01 0.00000E+00
 -1      3515 1.04600E+02 2.55917E+01 0.00000E+00
 -1      3516 1.03547E+02 1.30765E+01 0.00000E+00
 -1      3517 1.02163E+02 1.46377E+01 0.00000E+00
 -1      3518 1.03071E+02 1.60542E+01 0.00000E+00
 -1      3519 1.05047E+02 1.30765E+01 0.00000E+00
 -1      3520 1.02039E+02 3.59784E+01 0.00000E+00
 -1      3521 1.03539E+02 3.59784E+01 0.00000E+00
 -1      3522 1.01928E+02 3.47341E+01 0.00000E+00
 -1      3523 1.05039E+02 3.59784E+01 0.00000E+00
 -1      3524 1.06539E+02 3.59784E+01 0.00000E+00
 -1      3525 1.04928E+02 3.47341E+01 0.00000E+00
 -1      3526 1.08039E+02 3.59784E+01 0.00000E+00
 -1      3527 1.09539E+02 3.59784E+01 0.00000E+00
 -1      3528 1.07928E+02 3.47341E+01 0.00000E+00
 -1      3529 1.11039E+02 3.59784E+01 0.00000E+00
 -1      3530 1.12539E+02 3.59784E+01 0.00000E+00
 -1      3531 1.10928E+02 3.47341E+01 0.00000E+00
 -1      3532 1.14039E+02 3.59784E+01 0.00000E+00
 -1      3533 1.15539E+02 3.59784E+01 0.00000E+00
 -1      3534 1.13928E+02 3.47341E+01 0.00000E+00
 -1      3535 1.17039E+02 3.59784E+01 0.00000E+00
 -1      3536 1.18539E+02 3.59784E+01 0.00000E+00
 -1      3537 1.16928E+02 3.47341E+01 0.00000E+00
 -1      3538 1.20039E+02 3.59784E+01 0.00000E+00
 -1      3539 1.21539E+02 3.59784E+01 0.00000E+00
 -1      3540 1.19928E+02 3.47341E+01 0.00000E+00
 -1      3541 1.23039E+02 3.59784E+01 0.00000E+00
 -1      3542 1.24539E+02 3.59784E+01 0.00000E+00
 -1      3543 1.22928E+02 3.47341E+01 0.00000E+00
 -1      3544 1.26039E+02 3.59784E+01 0.00000E+00
 -1      3545 1.27539E+02 3.59784E+01 0.00000E+00
 -1      3546 1.25928E+02 3.47341E+01 0.00000E+00
 -1      3547 1.29039E+02 3.59784E+01 0.00000E+00
 -1      3548 1.30539E+02 3.59784E+01 0.00000E+00
 -1      3549 1.28928E+02 3.47341E+01 0.00000E+00
 -1      3550 1.32039E+02 3.59784E+01 0.00000E+00
 -1      3551 1.33539E+02 3.59784E+01 0.00000E+00
 -1      3552 1.31928E+02 3.47341E+01 0.00000E+00
 -1      3553 4.52850E+01 1.30992E+01 0.00000E+00
 -1      3554 4.37850E+01 1.30992E+01 0.00000E+00
 -1      3555 7.37123E+01 1.98790E+01 0.00000E+00
 -1      3556 7.41132E+01 1.87638E+01 0.00000E+00
 -1      3557 4.22850E+01 1.30992E+01 0.00000E+00
 -1      3558 4.07850E+01 1.30992E+01 0.00000E+00
 -1      3559 4.30350E+01 1.43982E+01 0.00000E+00
 -1      3560 5.12850E+01 1.30992E+01 0.00000E+00
 -1      3561 4.97850E+01 1.30992E+01 0.00000E+00
 -1      3562 5.42850E+01 1.30992E+01 0.00000E+00
 -1      3563 5.27850E+01 1.30992E+01 0.00000E+00
 -1      3564 5.20350E+01 1.43982E+01 0.00000E+00
 -1      3565 5.72850E+01 1.30992E+01 0.00000E+00
 -1      3566 5.57850E+01 1.30992E+01 0.00000E+00
 -1      3567 5.50350E+01 1.43982E+01 0.00000E+00
 -1      3568 6.02850E+01 1.30992E+01 0.00000E+00
 -1      3569 5.87850E+01 1.30992E+01 0.00000E+00
 -1      3570 5.80350E+01 1.43982E+01 0.00000E+00
 -1      3571 6.32850E+01 1.30992E+01 0.00000E+00
 -1      3572 6.17850E+01 1.30992E+01 0.00000E+00
 -1      3573 6.10350E+01 1.43982E+01 0.00000E+00
 -1      3574 6.62850E+01 1.30992E+01 0.00000E+00
 -1      3575 6.47850E+01 1.30992E+01 0.00000E+00
 -1      3576 6.40350E+01 1.43982E+01 0.00000E+00
 -1      3577 6.92850E+01 1.30992E+01 0.00000E+00
 -1      3578 6.77850E+01 1.30992E+01 0.00000E+00
 -1      3579 6.70350E+01 1.43982E+01 0.00000E+00
 -1      3580 7.22850E+01 1.30992E+01 0.00000E+00
 -1      3581 7.07850E+01 1.30992E+01 0.00000E+00
 -1      3582 7.00350E+01 1.43982E+01 0.00000E+00
 -1      3583 7.52850E+01 1.30992E+01 0.00000E+00
 -1      3584 7.37850E+01 1.30992E+01 0.00000E+00
 -1      3585 7.30350E+01 1.43982E+01 0.00000E+00
 -1      3586 1.24283E+01 3.72865E+01 0.00000E+00
 -1      3587 8.01052E+01 3.64952E+01 0.00000E+00
 -1      3588 1.04382E+02 2.12180E+01 0.00000E+00
 -1      3589 1.04600E+02 2.27749E+01 0.00000E+00
 -1      3590 1.08047E+02 1.30765E+01 0.00000E+00
 -1      3591 1.06547E+02 1.30765E+01 0.00000E+00
 -1      3592 1.05559E+02 1.45653E+01 0.00000E+00
 -1      3593 1.11047E+02 1.30765E+01 0.00000E+00
 -1      3594 1.09547E+02 1.30765E+01 0.00000E+00
 -1      3595 1.08559E+02 1.45653E+01 0.00000E+00
 -1      3596 1.14047E+02 1.30765E+01 0.00000E+00
 -1      3597 1.12547E+02 1.30765E+01 0.00000E+00
 -1      3598 1.11559E+02 1.45653E+01 0.00000E+00
 -1      3599 1.17047E+02 1.30765E+01 0.00000E+00
 -1      3600 1.15547E+02 1.30765E+01 0.00000E+00
 -1      3601 1.14559E+02 1.45653E+01 0.00000E+00
 -1      3602 1.20047E+02 1.30765E+01 0.00000E+00
 -1      3603 1.18547E+02 1.30765E+01 0.00000E+00
 -1      3604 1.17559E+02 1.45653E+01 0.00000E+00
 -1      3605 1.23047E+02 1.30765E+01 0.00000E+00
 -1      3606 1.21547E+02 1.30765E+01 0.00000E+00
 -1      3607 1.20559E+02 1.45653E+01 0.00000E+00
 -1      3608 1.26047E+02 1.30765E+01 0.00000E+00
 -1      3609 1.24547E+02 1.30765E+01 0.00000E+00
 -1      3610 1.23559E+02 1.45653E+01 0.00000E+00
 -1      3611 1.29047E+02 1.30765E+01 0.00000E+00
 -1      3612 1.27547E+02 1.30765E+01 0.00000E+00
 -1      3613 1.26559E+02 1.45653E+01 0.00000E+00
 -1      3614 1.32047E+02 1.30765E+01 0.00000E+00
 -1      3615 1.30547E+02 1.30765E+01 0.00000E+00
 -1      3616 1.29559E+02 1.45653E+01 0.00000E+00
 -1      3617 1.35047E+02 1.30765E+01 0.00000E+00
 -1      3618 1.33547E+02 1.30765E+01 0.00000E+00
 -1      3619 1.32559E+02 1.45653E+01 0.00000E+00
 -1      3620 2.12850E+01 1.30992E+01 0.00000E+00
 -1      3621 1.97850E+01 1.30992E+01 0.00000E+00
 -1      3622 7.65404E+01 1.38246E+01 0.00000E+00
 -1      3623 2.72850E+01 1.30992E+01 0.00000E+00
 -1      3624 2.57850E+01 1.30992E+01 0.00000E+00
 -1      3625 1.38528E+02 1.43884E+01 0.00000E+00
 -1      3626 1.38594E+02 1.31480E+01 0.00000E+00
 -1      3627 1.37668E+02 1.29839E+01 0.00000E+00
 -1      3628 1.37229E+02 1.51196E+01 0.00000E+00
 -1      3629 1.02637E+02 3.35275E+01 0.00000E+00
 -1      3630 3.92850E+01 1.30992E+01 0.00000E+00
 -1      3631 3.77850E+01 1.30992E+01 0.00000E+00
 -1      3632 4.00350E+01 1.43982E+01 0.00000E+00
 -1      3633 1.35711E+02 2.72000E+01 0.00000E+00
 -1      3634 1.35711E+02 2.57500E+01 0.00000E+00
 -1      3635 7.40045E+01 2.93093E+01 0.00000E+00
 -1      3636 7.38120E+01 2.82237E+01 0.00000E+00
 -1      3637 7.34001E+01 2.69603E+01 0.00000E+00
 -1      3638 7.30893E+01 2.54115E+01 0.00000E+00
 -1      3639 7.44322E+01 3.37679E+01 0.00000E+00
 -1      3640 7.57904E+01 1.51236E+01 0.00000E+00
 -1      3641 4.82850E+01 1.30992E+01 0.00000E+00
 -1      3642 4.67850E+01 1.30992E+01 0.00000E+00
 -1      3643 4.60350E+01 1.43982E+01 0.00000E+00
 -1      3644 4.90350E+01 1.43982E+01 0.00000E+00
 -1      3645 1.74000E+01 3.57110E+01 0.00000E+00
 -1      3646 1.89000E+01 3.57110E+01 0.00000E+00
 -1      3647 3.02850E+01 1.30992E+01 0.00000E+00
 -1      3648 2.87850E+01 1.30992E+01 0.00000E+00
 -1      3649 2.80350E+01 1.43982E+01 0.00000E+00
 -1      3650 1.16910E+01 2.71844E+01 0.00000E+00
 -1      3651 1.16910E+01 2.86531E+01 0.00000E+00
 -1      3652 1.29900E+01 2.93875E+01 0.00000E+00
 -1      3653 1.03479E+02 1.79034E+01 0.00000E+00
 -1      3654 1.04025E+02 1.94284E+01 0.00000E+00
 -1      3655 1.03943E+02 3.07995E+01 0.00000E+00
 -1      3656 1.03290E+02 3.21635E+01 0.00000E+00
 -1      3657 1.04081E+02 3.33701E+01 0.00000E+00
 -1      3658 2.42850E+01 1.30992E+01 0.00000E+00
 -1      3659 2.27850E+01 1.30992E+01 0.00000E+00
 -1      3660 2.50350E+01 1.43982E+01 0.00000E+00
 -1      3661 2.04000E+01 3.57110E+01 0.00000E+00
 -1      3662 2.19000E+01 3.57110E+01 0.00000E+00
 -1      3663 2.26500E+01 3.44120E+01 0.00000E+00
 -1      3664 7.45297E+01 1.76268E+01 0.00000E+00
 -1      3665 7.53740E+01 1.62605E+01 0.00000E+00
 -1      3666 7.41186E+01 1.55352E+01 0.00000E+00
 -1      3667 7.32857E+01 1.78092E+01 0.00000E+00
 -1      3668 7.27897E+01 2.06706E+01 0.00000E+00
 -1      3669 1.04869E+02 3.00767E+01 0.00000E+00
 -1      3670 1.05660E+02 3.12833E+01 0.00000E+00
 -1      3671 1.05795E+02 2.93540E+01 0.00000E+00
 -1      3672 1.05557E+02 2.33871E+01 0.00000E+00
 -1      3673 1.04467E+02 1.64146E+01 0.00000E+00
 -1      3674 1.42890E+01 3.15906E+01 0.00000E+00
 -1      3675 1.42890E+01 3.30594E+01 0.00000E+00
 -1      3676 1.61190E+01 3.46675E+01 0.00000E+00
 -1      3677 1.68690E+01 3.33685E+01 0.00000E+00
 -1      3678 1.34846E+02 3.60362E+01 0.00000E+00
 -1      3679 1.06189E+02 2.58787E+01 0.00000E+00
 -1      3680 1.05264E+02 2.65393E+01 0.00000E+00
 -1      3681 1.05929E+02 2.74868E+01 0.00000E+00
 -1      3682 1.35711E+02 2.42781E+01 0.00000E+00
 -1      3683 1.35711E+02 2.28062E+01 0.00000E+00
 -1      3684 1.34412E+02 2.50031E+01 0.00000E+00
 -1      3685 3.32850E+01 1.30992E+01 0.00000E+00
 -1      3686 3.17850E+01 1.30992E+01 0.00000E+00
 -1      3687 3.10350E+01 1.43982E+01 0.00000E+00
 -1      3688 1.90350E+01 1.43983E+01 0.00000E+00
 -1      3689 1.82850E+01 1.30993E+01 0.00000E+00
 -1      3690 2.20350E+01 1.43982E+01 0.00000E+00
 -1      3691 1.36742E+02 1.28197E+01 0.00000E+00
 -1      3692 7.39350E+01 3.03732E+01 0.00000E+00
 -1      3693 7.29119E+01 2.99947E+01 0.00000E+00
 -1      3694 7.38655E+01 3.14371E+01 0.00000E+00
 -1      3695 1.05232E+02 2.00534E+01 0.00000E+00
 -1      3696 7.25694E+01 2.76675E+01 0.00000E+00
 -1      3697 1.35711E+02 2.86750E+01 0.00000E+00
 -1      3698 1.34412E+02 2.79500E+01 0.00000E+00
 -1      3699 1.35711E+02 3.01500E+01 0.00000E+00
 -1      3700 7.15020E+01 2.53921E+01 0.00000E+00
 -1      3701 7.24338E+01 2.43995E+01 0.00000E+00
 -1      3702 7.17784E+01 2.33875E+01 0.00000E+00
 -1      3703 1.69669E+01 1.29495E+01 0.00000E+00
 -1      3704 3.62850E+01 1.30992E+01 0.00000E+00
 -1      3705 3.47850E+01 1.30992E+01 0.00000E+00
 -1      3706 3.70350E+01 1.43982E+01 0.00000E+00
 -1      3707 1.35754E+02 1.43085E+01 0.00000E+00
 -1      3708 1.29900E+01 2.64469E+01 0.00000E+00
 -1      3709 1.48200E+01 3.54019E+01 0.00000E+00
 -1      3710 1.23799E+01 3.61682E+01 0.00000E+00
 -1      3711 1.42284E+01 1.25117E+01 0.00000E+00
 -1      3712 1.38422E+01 1.35111E+01 0.00000E+00
 -1      3713 1.38422E+01 1.49830E+01 0.00000E+00
 -1      3714 1.55466E+01 1.26615E+01 0.00000E+00
 -1      3715 1.36789E+01 3.54338E+01 0.00000E+00
 -1      3716 1.35711E+02 1.84000E+01 0.00000E+00
 -1      3717 1.35711E+02 1.69250E+01 0.00000E+00
 -1      3718 1.96500E+01 3.44120E+01 0.00000E+00
 -1      3719 1.42890E+01 2.27625E+01 0.00000E+00
 -1      3720 1.42890E+01 2.42375E+01 0.00000E+00
 -1      3721 1.35534E+02 1.53764E+01 0.00000E+00
 -1      3722 1.34235E+02 1.61139E+01 0.00000E+00
 -1      3723 1.42890E+01 2.12938E+01 0.00000E+00
 -1      3724 1.55880E+01 2.20313E+01 0.00000E+00
 -1      3725 1.42890E+01 1.98250E+01 0.00000E+00
 -1      3726 2.49000E+01 3.31130E+01 0.00000E+00
 -1      3727 2.64000E+01 3.31130E+01 0.00000E+00
 -1      3728 2.79000E+01 3.31130E+01 0.00000E+00
 -1      3729 2.94000E+01 3.31130E+01 0.00000E+00
 -1      3730 2.71500E+01 3.18140E+01 0.00000E+00
 -1      3731 3.09000E+01 3.31130E+01 0.00000E+00
 -1      3732 3.24000E+01 3.31130E+01 0.00000E+00
 -1      3733 3.01500E+01 3.18140E+01 0.00000E+00
 -1      3734 3.39000E+01 3.31130E+01 0.00000E+00
 -1      3735 3.54000E+01 3.31130E+01 0.00000E+00
 -1      3736 3.31500E+01 3.18140E+01 0.00000E+00
 -1      3737 3.69000E+01 3.31130E+01 0.00000E+00
 -1      3738 3.84000E+01 3.31130E+01 0.00000E+00
 -1      3739 3.61500E+01 3.18140E+01 0.00000E+00
 -1      3740 3.99000E+01 3.31130E+01 0.00000E+00
 -1      3741 4.14000E+01 3.31130E+01 0.00000E+00
 -1      3742 3.91500E+01 3.18140E+01 0.00000E+00
 -1      3743 4.29000E+01 3.31130E+01 0.00000E+00
 -1      3744 4.44000E+01 3.31130E+01 0.00000E+00
 -1      3745 4.21500E+01 3.18140E+01 0.00000E+00
 -1      3746 4.59000E+01 3.31130E+01 0.00000E+00
 -1      3747 4.74000E+01 3.31130E+01 0.00000E+00
 -1      3748 4.51500E+01 3.18140E+01 0.00000E+00
 -1      3749 4.89000E+01 3.31130E+01 0.00000E+00
 -1      3750 5.04000E+01 3.31130E+01 0.00000E+00
 -1      3751 4.81500E+01 3.18140E+01 0.00000E+00
 -1      3752 5.19000E+01 3.31130E+01 0.00000E+00
 -1      3753 5.34000E+01 3.31130E+01 0.00000E+00
 -1      3754 5.11500E+01 3.18140E+01 0.00000E+00
 -1      3755 5.49000E+01 3.31130E+01 0.00000E+00
 -1      3756 5.64000E+01 3.31130E+01 0.00000E+00
 -1      3757 5.41500E+01 3.18140E+01 0.00000E+00
 -1      3758 5.79000E+01 3.31130E+01 0.00000E+00
 -1      3759 5.94000E+01 3.31130E+01 0.00000E+00
 -1      3760 5.71500E+01 3.18140E+01 0.00000E+00
 -1      3761 6.09000E+01 3.31130E+01 0.00000E+00
 -1      3762 6.24000E+01 3.31130E+01 0.00000E+00
 -1      3763 6.01500E+01 3.18140E+01 0.00000E+00
 -1      3764 6.39000E+01 3.31130E+01 0.00000E+00
 -1      3765 6.54000E+01 3.31130E+01 0.00000E+00
 -1      3766 6.31500E+01 3.18140E+01 0.00000E+00
 -1      3767 6.69000E+01 3.31130E+01 0.00000E+00
 -1      3768 6.84000E+01 3.31130E+01 0.00000E+00
 -1      3769 6.61500E+01 3.18140E+01 0.00000E+00
 -1      3770 4.37850E+01 1.56973E+01 0.00000E+00
 -1      3771 4.22850E+01 1.56973E+01 0.00000E+00
 -1      3772 1.09309E+02 1.58643E+01 0.00000E+00
 -1      3773 1.07809E+02 1.58643E+01 0.00000E+00
 -1      3774 1.42890E+01 3.01219E+01 0.00000E+00
 -1      3775 1.55880E+01 3.08563E+01 0.00000E+00
 -1      3776 1.42890E+01 2.86531E+01 0.00000E+00
 -1      3777 1.70489E+01 3.18396E+01 0.00000E+00
 -1      3778 1.83299E+01 3.28831E+01 0.00000E+00
 -1      3779 1.05581E+02 3.33701E+01 0.00000E+00
 -1      3780 1.10178E+02 3.34351E+01 0.00000E+00
 -1      3781 1.11678E+02 3.34351E+01 0.00000E+00
 -1      3782 1.13178E+02 3.34351E+01 0.00000E+00
 -1      3783 1.14678E+02 3.34351E+01 0.00000E+00
 -1      3784 1.12428E+02 3.21361E+01 0.00000E+00
 -1      3785 1.16178E+02 3.34351E+01 0.00000E+00
 -1      3786 1.17678E+02 3.34351E+01 0.00000E+00
 -1      3787 1.15428E+02 3.21361E+01 0.00000E+00
 -1      3788 1.19178E+02 3.34351E+01 0.00000E+00
 -1      3789 1.20678E+02 3.34351E+01 0.00000E+00
 -1      3790 1.18428E+02 3.21361E+01 0.00000E+00
 -1      3791 1.22178E+02 3.34351E+01 0.00000E+00
 -1      3792 1.23678E+02 3.34351E+01 0.00000E+00
 -1      3793 1.21428E+02 3.21361E+01 0.00000E+00
 -1      3794 1.25178E+02 3.34351E+01 0.00000E+00
 -1      3795 1.26678E+02 3.34351E+01 0.00000E+00
 -1      3796 1.24428E+02 3.21361E+01 0.00000E+00
 -1      3797 1.28178E+02 3.34351E+01 0.00000E+00
 -1      3798 1.29678E+02 3.34351E+01 0.00000E+00
 -1      3799 1.27428E+02 3.21361E+01 0.00000E+00
 -1      3800 1.31178E+02 3.34351E+01 0.00000E+00
 -1      3801 1.32678E+02 3.34351E+01 0.00000E+00
 -1      3802 1.30428E+02 3.21361E+01 0.00000E+00
 -1      3803 7.14749E+01 2.14740E+01 0.00000E+00
 -1      3804 7.15544E+01 1.97496E+01 0.00000E+00
 -1      3805 1.97850E+01 1.56973E+01 0.00000E+00
 -1      3806 1.82851E+01 1.56973E+01 0.00000E+00
 -1      3807 5.57850E+01 1.56973E+01 0.00000E+00
 -1      3808 5.42850E+01 1.56973E+01 0.00000E+00
 -1      3809 5.27850E+01 1.56973E+01 0.00000E+00
 -1      3810 5.12850E+01 1.56973E+01 0.00000E+00
 -1      3811 5.35350E+01 1.69963E+01 0.00000E+00
 -1      3812 6.17850E+01 1.56973E+01 0.00000E+00
 -1      3813 6.02850E+01 1.56973E+01 0.00000E+00
 -1      3814 6.47850E+01 1.56973E+01 0.00000E+00
 -1      3815 6.32850E+01 1.56973E+01 0.00000E+00
 -1      3816 6.25350E+01 1.69963E+01 0.00000E+00
 -1      3817 6.77850E+01 1.56973E+01 0.00000E+00
 -1      3818 6.62850E+01 1.56973E+01 0.00000E+00
 -1      3819 6.55350E+01 1.69963E+01 0.00000E+00
 -1      3820 7.07850E+01 1.56973E+01 0.00000E+00
 -1      3821 6.92850E+01 1.56973E+01 0.00000E+00
 -1      3822 6.85350E+01 1.69963E+01 0.00000E+00
 -1      3823 7.26186E+01 1.55352E+01 0.00000E+00
 -1      3824 1.12309E+02 1.58643E+01 0.00000E+00
 -1      3825 1.10809E+02 1.58643E+01 0.00000E+00
 -1      3826 1.10059E+02 1.71633E+01 0.00000E+00
 -1      3827 1.05967E+02 1.64146E+01 0.00000E+00
 -1      3828 1.15309E+02 1.58643E+01 0.00000E+00
 -1      3829 1.13809E+02 1.58643E+01 0.00000E+00
 -1      3830 1.13059E+02 1.71633E+01 0.00000E+00
 -1      3831 1.18309E+02 1.58643E+01 0.00000E+00
 -1      3832 1.16809E+02 1.58643E+01 0.00000E+00
 -1      3833 1.16059E+02 1.71633E+01 0.00000E+00
 -1      3834 1.21309E+02 1.58643E+01 0.00000E+00
 -1      3835 1.19809E+02 1.58643E+01 0.00000E+00
 -1      3836 1.19059E+02 1.71633E+01 0.00000E+00
 -1      3837 1.24309E+02 1.58643E+01 0.00000E+00
 -1      3838 1.22809E+02 1.58643E+01 0.00000E+00
 -1      3839 1.22059E+02 1.71633E+01 0.00000E+00
 -1      3840 1.27309E+02 1.58643E+01 0.00000E+00
 -1      3841 1.25809E+02 1.58643E+01 0.00000E+00
 -1      3842 1.25059E+02 1.71633E+01 0.00000E+00
 -1      3843 1.30309E+02 1.58643E+01 0.00000E+00
 -1      3844 1.28809E+02 1.58643E+01 0.00000E+00
 -1      3845 1.28059E+02 1.71633E+01 0.00000E+00
 -1      3846 1.33022E+02 1.59891E+01 0.00000E+00
 -1      3847 1.31522E+02 1.59891E+01 0.00000E+00
 -1      3848 1.30772E+02 1.72881E+01 0.00000E+00
 -1      3849 1.33199E+02 1.75377E+01 0.00000E+00
 -1      3850 2.27850E+01 1.56973E+01 0.00000E+00
 -1      3851 2.12850E+01 1.56973E+01 0.00000E+00
 -1      3852 2.05351E+01 1.69963E+01 0.00000E+00
 -1      3853 1.42890E+01 2.57094E+01 0.00000E+00
 -1      3854 1.42890E+01 2.71812E+01 0.00000E+00
 -1      3855 1.55880E+01 2.79156E+01 0.00000E+00
 -1      3856 1.55880E+01 2.49719E+01 0.00000E+00
 -1      3857 1.35033E+02 3.51579E+01 0.00000E+00
 -1      3858 1.35219E+02 3.42796E+01 0.00000E+00
 -1      3859 1.35711E+02 2.13391E+01 0.00000E+00
 -1      3860 1.35711E+02 1.98672E+01 0.00000E+00
 -1      3861 1.34412E+02 1.91297E+01 0.00000E+00
 -1      3862 1.34412E+02 2.20641E+01 0.00000E+00
 -1      3863 4.07850E+01 1.56973E+01 0.00000E+00
 -1      3864 3.92850E+01 1.56973E+01 0.00000E+00
 -1      3865 4.15350E+01 1.69963E+01 0.00000E+00
 -1      3866 7.35193E+01 3.31138E+01 0.00000E+00
 -1      3867 1.35711E+02 3.30875E+01 0.00000E+00
 -1      3868 1.35711E+02 3.16125E+01 0.00000E+00
 -1      3869 2.87850E+01 1.56973E+01 0.00000E+00
 -1      3870 2.72850E+01 1.56973E+01 0.00000E+00
 -1      3871 1.06682E+02 2.26380E+01 0.00000E+00
 -1      3872 1.06650E+02 2.41822E+01 0.00000E+00
 -1      3873 5.87850E+01 1.56973E+01 0.00000E+00
 -1      3874 5.72850E+01 1.56973E+01 0.00000E+00
 -1      3875 5.95350E+01 1.69963E+01 0.00000E+00
 -1      3876 1.06717E+02 1.77136E+01 0.00000E+00
 -1      3877 2.57850E+01 1.56973E+01 0.00000E+00
 -1      3878 2.42850E+01 1.56973E+01 0.00000E+00
 -1      3879 2.35350E+01 1.69963E+01 0.00000E+00
 -1      3880 2.65350E+01 1.69963E+01 0.00000E+00
 -1      3881 1.98299E+01 3.28831E+01 0.00000E+00
 -1      3882 1.61147E+01 1.41102E+01 0.00000E+00
 -1      3883 2.19000E+01 3.31130E+01 0.00000E+00
 -1      3884 2.34000E+01 3.31130E+01 0.00000E+00
 -1      3885 2.41500E+01 3.18140E+01 0.00000E+00
 -1      3886 1.42890E+01 1.68813E+01 0.00000E+00
 -1      3887 1.42890E+01 1.83531E+01 0.00000E+00
 -1      3888 1.55880E+01 1.90906E+01 0.00000E+00
 -1      3889 1.06521E+02 1.92810E+01 0.00000E+00
 -1      3890 1.06878E+02 2.10706E+01 0.00000E+00
 -1      3891 1.07971E+02 2.18657E+01 0.00000E+00
 -1      3892 1.08363E+02 1.87308E+01 0.00000E+00
 -1      3893 7.24962E+01 3.27353E+01 0.00000E+00
 -1      3894 1.06371E+02 3.23267E+01 0.00000E+00
 -1      3895 1.07217E+02 3.36907E+01 0.00000E+00
 -1      3896 1.08717E+02 3.36907E+01 0.00000E+00
 -1      3897 1.07297E+02 3.16040E+01 0.00000E+00
 -1      3898 1.34412E+02 3.08875E+01 0.00000E+00
 -1      3899 1.33920E+02 3.35421E+01 0.00000E+00
 -1      3900 7.18008E+01 2.86169E+01 0.00000E+00
 -1      3901 7.13888E+01 2.73536E+01 0.00000E+00
 -1      3902 1.33170E+02 3.22431E+01 0.00000E+00
 -1      3903 1.06720E+02 2.86934E+01 0.00000E+00
 -1      3904 1.07511E+02 2.99000E+01 0.00000E+00
 -1      3905 1.07645E+02 2.80329E+01 0.00000E+00
 -1      3906 4.52850E+01 1.56973E+01 0.00000E+00
 -1      3907 4.45350E+01 1.69963E+01 0.00000E+00
 -1      3908 4.67850E+01 1.56973E+01 0.00000E+00
 -1      3909 6.99000E+01 3.31130E+01 0.00000E+00
 -1      3910 7.14000E+01 3.31130E+01 0.00000E+00
 -1      3911 1.70489E+01 3.03709E+01 0.00000E+00
 -1      3912 1.09467E+02 3.23917E+01 0.00000E+00
 -1      3913 7.05430E+01 2.24665E+01 0.00000E+00
 -1      3914 1.07314E+02 2.51297E+01 0.00000E+00
 -1      3915 1.73115E+01 1.73075E+01 0.00000E+00
 -1      3916 1.65615E+01 1.60085E+01 0.00000E+00
 -1      3917 1.33113E+02 2.57391E+01 0.00000E+00
 -1      3918 1.33113E+02 2.42672E+01 0.00000E+00
 -1      3919 3.40350E+01 1.43982E+01 0.00000E+00
 -1      3920 3.17850E+01 1.56973E+01 0.00000E+00
 -1      3921 3.02850E+01 1.56973E+01 0.00000E+00
 -1      3922 2.95350E+01 1.69963E+01 0.00000E+00
 -1      3923 7.17462E+01 3.14363E+01 0.00000E+00
 -1      3924 7.18686E+01 1.68342E+01 0.00000E+00
 -1      3925 1.51412E+01 1.57205E+01 0.00000E+00
 -1      3926 1.33199E+02 1.90049E+01 0.00000E+00
 -1      3927 1.31985E+02 1.88801E+01 0.00000E+00
 -1      3928 1.33199E+02 2.04721E+01 0.00000E+00
 -1      3929 1.68870E+01 2.42359E+01 0.00000E+00
 -1      3930 1.68870E+01 2.57078E+01 0.00000E+00
 -1      3931 4.97850E+01 1.56973E+01 0.00000E+00
 -1      3932 4.82850E+01 1.56973E+01 0.00000E+00
 -1      3933 4.75350E+01 1.69963E+01 0.00000E+00
 -1      3934 7.17388E+01 3.05586E+01 0.00000E+00
 -1      3935 7.18082E+01 2.94947E+01 0.00000E+00
 -1      3936 7.06276E+01 2.91808E+01 0.00000E+00
 -1      3937 7.06425E+01 3.09363E+01 0.00000E+00
 -1      3938 7.07333E+01 2.63416E+01 0.00000E+00
 -1      3939 7.00779E+01 2.53295E+01 0.00000E+00
 -1      3940 6.99647E+01 2.72911E+01 0.00000E+00
 -1      3941 1.33113E+02 2.86891E+01 0.00000E+00
 -1      3942 1.33113E+02 2.72141E+01 0.00000E+00
 -1      3943 1.31814E+02 2.64781E+01 0.00000E+00
 -1      3944 1.33170E+02 3.07806E+01 0.00000E+00
 -1      3945 2.05799E+01 3.15841E+01 0.00000E+00
 -1      3946 5.65350E+01 1.69963E+01 0.00000E+00
 -1      3947 3.77850E+01 1.56973E+01 0.00000E+00
 -1      3948 3.62850E+01 1.56973E+01 0.00000E+00
 -1      3949 3.85350E+01 1.69963E+01 0.00000E+00
 -1      3950 7.14521E+01 1.79712E+01 0.00000E+00
 -1      3951 1.68870E+01 2.12984E+01 0.00000E+00
 -1      3952 1.68870E+01 2.27672E+01 0.00000E+00
 -1      3953 1.81860E+01 2.35031E+01 0.00000E+00
 -1      3954 7.01372E+01 1.87746E+01 0.00000E+00
 -1      3955 6.91500E+01 3.18140E+01 0.00000E+00
 -1      3956 5.05350E+01 1.69963E+01 0.00000E+00
 -1      3957 1.08221E+02 3.09434E+01 0.00000E+00
 -1      3958 1.11363E+02 1.87308E+01 0.00000E+00
 -1      3959 1.09863E+02 1.87308E+01 0.00000E+00
 -1      3960 1.09667E+02 2.02982E+01 0.00000E+00
 -1      3961 2.94000E+01 3.05150E+01 0.00000E+00
 -1      3962 3.09000E+01 3.05150E+01 0.00000E+00
 -1      3963 3.24000E+01 3.05150E+01 0.00000E+00
 -1      3964 3.39000E+01 3.05150E+01 0.00000E+00
 -1      3965 3.16500E+01 2.92160E+01 0.00000E+00
 -1      3966 3.54000E+01 3.05150E+01 0.00000E+00
 -1      3967 3.69000E+01 3.05150E+01 0.00000E+00
 -1      3968 3.46500E+01 2.92160E+01 0.00000E+00
 -1      3969 3.84000E+01 3.05150E+01 0.00000E+00
 -1      3970 3.99000E+01 3.05150E+01 0.00000E+00
 -1      3971 3.76500E+01 2.92160E+01 0.00000E+00
 -1      3972 4.14000E+01 3.05150E+01 0.00000E+00
 -1      3973 4.29000E+01 3.05150E+01 0.00000E+00
 -1      3974 4.06500E+01 2.92160E+01 0.00000E+00
 -1      3975 4.44000E+01 3.05150E+01 0.00000E+00
 -1      3976 4.59000E+01 3.05150E+01 0.00000E+00
 -1      3977 4.36500E+01 2.92160E+01 0.00000E+00
 -1      3978 4.74000E+01 3.05150E+01 0.00000E+00
 -1      3979 4.89000E+01 3.05150E+01 0.00000E+00
 -1      3980 4.66500E+01 2.92160E+01 0.00000E+00
 -1      3981 5.04000E+01 3.05150E+01 0.00000E+00
 -1      3982 5.19000E+01 3.05150E+01 0.00000E+00
 -1      3983 4.96500E+01 2.92160E+01 0.00000E+00
 -1      3984 5.34000E+01 3.05150E+01 0.00000E+00
 -1      3985 5.49000E+01 3.05150E+01 0.00000E+00
 -1      3986 5.26500E+01 2.92160E+01 0.00000E+00
 -1      3987 5.64000E+01 3.05150E+01 0.00000E+00
 -1      3988 5.79000E+01 3.05150E+01 0.00000E+00
 -1      3989 5.56500E+01 2.92160E+01 0.00000E+00
 -1      3990 5.94000E+01 3.05150E+01 0.00000E+00
 -1      3991 6.09000E+01 3.05150E+01 0.00000E+00
 -1      3992 5.86500E+01 2.92160E+01 0.00000E+00
 -1      3993 6.24000E+01 3.05150E+01 0.00000E+00
 -1      3994 6.39000E+01 3.05150E+01 0.00000E+00
 -1      3995 6.16500E+01 2.92160E+01 0.00000E+00
 -1      3996 6.54000E+01 3.05150E+01 0.00000E+00
 -1      3997 6.69000E+01 3.05150E+01 0.00000E+00
 -1      3998 6.46500E+01 2.92160E+01 0.00000E+00
 -1      3999 5.12850E+01 1.82952E+01 0.00000E+00
 -1      4000 4.97850E+01 1.82952E+01 0.00000E+00
 -1      4001 1.70438E+01 2.88016E+01 0.00000E+00
 -1      4002 1.85047E+01 2.97849E+01 0.00000E+00
 -1      4003 1.09682E+02 3.06878E+01 0.00000E+00
 -1      4004 1.14678E+02 3.08371E+01 0.00000E+00
 -1      4005 1.16178E+02 3.08371E+01 0.00000E+00
 -1      4006 1.17678E+02 3.08371E+01 0.00000E+00
 -1      4007 1.19178E+02 3.08371E+01 0.00000E+00
 -1      4008 1.16928E+02 2.95381E+01 0.00000E+00
 -1      4009 1.20678E+02 3.08371E+01 0.00000E+00
 -1      4010 1.22178E+02 3.08371E+01 0.00000E+00
 -1      4011 1.19928E+02 2.95381E+01 0.00000E+00
 -1      4012 1.23678E+02 3.08371E+01 0.00000E+00
 -1      4013 1.25178E+02 3.08371E+01 0.00000E+00
 -1      4014 1.22928E+02 2.95381E+01 0.00000E+00
 -1      4015 1.26678E+02 3.08371E+01 0.00000E+00
 -1      4016 1.28178E+02 3.08371E+01 0.00000E+00
 -1      4017 1.25928E+02 2.95381E+01 0.00000E+00
 -1      4018 3.47850E+01 1.56973E+01 0.00000E+00
 -1      4019 3.32850E+01 1.56973E+01 0.00000E+00
 -1      4020 3.55350E+01 1.69963E+01 0.00000E+00
 -1      4021 6.62850E+01 1.82952E+01 0.00000E+00
 -1      4022 6.47850E+01 1.82952E+01 0.00000E+00
 -1      4023 6.32850E+01 1.82952E+01 0.00000E+00
 -1      4024 6.17850E+01 1.82952E+01 0.00000E+00
 -1      4025 6.40350E+01 1.95942E+01 0.00000E+00
 -1      4026 1.16809E+02 1.84623E+01 0.00000E+00
 -1      4027 1.15309E+02 1.84623E+01 0.00000E+00
 -1      4028 1.19809E+02 1.84623E+01 0.00000E+00
 -1      4029 1.18309E+02 1.84623E+01 0.00000E+00
 -1      4030 1.17559E+02 1.97613E+01 0.00000E+00
 -1      4031 1.08614E+02 2.45719E+01 0.00000E+00
 -1      4032 1.08154E+02 2.62685E+01 0.00000E+00
 -1      4033 1.22809E+02 1.84623E+01 0.00000E+00
 -1      4034 1.21309E+02 1.84623E+01 0.00000E+00
 -1      4035 1.20559E+02 1.97613E+01 0.00000E+00
 -1      4036 1.25809E+02 1.84623E+01 0.00000E+00
 -1      4037 1.24309E+02 1.84623E+01 0.00000E+00
 -1      4038 1.23559E+02 1.97613E+01 0.00000E+00
 -1      4039 1.28809E+02 1.84623E+01 0.00000E+00
 -1      4040 1.27309E+02 1.84623E+01 0.00000E+00
 -1      4041 1.26559E+02 1.97613E+01 0.00000E+00
 -1      4042 1.31004E+02 1.87336E+01 0.00000E+00
 -1      4043 1.29791E+02 1.86088E+01 0.00000E+00
 -1      4044 1.29041E+02 1.99078E+01 0.00000E+00
 -1      4045 1.31004E+02 2.02008E+01 0.00000E+00
 -1      4046 6.86372E+01 1.87746E+01 0.00000E+00
 -1      4047 6.02850E+01 1.82952E+01 0.00000E+00
 -1      4048 5.87850E+01 1.82952E+01 0.00000E+00
 -1      4049 6.10350E+01 1.95942E+01 0.00000E+00
 -1      4050 1.33156E+02 2.31032E+01 0.00000E+00
 -1      4051 1.33156E+02 2.16360E+01 0.00000E+00
 -1      4052 1.31943E+02 2.15112E+01 0.00000E+00
 -1      4053 1.31857E+02 2.38392E+01 0.00000E+00
 -1      4054 6.94118E+01 2.36268E+01 0.00000E+00
 -1      4055 6.91083E+01 2.17133E+01 0.00000E+00
 -1      4056 1.83428E+01 2.65938E+01 0.00000E+00
 -1      4057 1.70438E+01 2.73297E+01 0.00000E+00
 -1      4058 1.14086E+02 1.85966E+01 0.00000E+00
 -1      4059 1.12586E+02 1.85966E+01 0.00000E+00
 -1      4060 1.12390E+02 2.01640E+01 0.00000E+00
 -1      4061 1.14836E+02 1.98956E+01 0.00000E+00
 -1      4062 5.42850E+01 1.82952E+01 0.00000E+00
 -1      4063 5.27850E+01 1.82952E+01 0.00000E+00
 -1      4064 5.20350E+01 1.95942E+01 0.00000E+00
 -1      4065 1.11678E+02 3.08371E+01 0.00000E+00
 -1      4066 1.13178E+02 3.08371E+01 0.00000E+00
 -1      4067 1.13928E+02 2.95381E+01 0.00000E+00
 -1      4068 2.34000E+01 3.05150E+01 0.00000E+00
 -1      4069 2.49000E+01 3.05150E+01 0.00000E+00
 -1      4070 1.31871E+02 3.00446E+01 0.00000E+00
 -1      4071 4.22850E+01 1.82952E+01 0.00000E+00
 -1      4072 4.07850E+01 1.82952E+01 0.00000E+00
 -1      4073 5.72850E+01 1.82952E+01 0.00000E+00
 -1      4074 5.57850E+01 1.82952E+01 0.00000E+00
 -1      4075 5.50350E+01 1.95942E+01 0.00000E+00
 -1      4076 1.70993E+01 1.85670E+01 0.00000E+00
 -1      4077 1.70993E+01 2.00389E+01 0.00000E+00
 -1      4078 1.83983E+01 2.07748E+01 0.00000E+00
 -1      4079 1.88228E+01 1.82558E+01 0.00000E+00
 -1      4080 6.78872E+01 2.00736E+01 0.00000E+00
 -1      4081 2.18228E+01 1.82558E+01 0.00000E+00
 -1      4082 2.03228E+01 1.82558E+01 0.00000E+00
 -1      4083 2.01105E+01 1.95153E+01 0.00000E+00
 -1      4084 1.99173E+01 3.00350E+01 0.00000E+00
 -1      4085 2.19874E+01 3.02649E+01 0.00000E+00
 -1      4086 2.27374E+01 2.89659E+01 0.00000E+00
 -1      4087 1.99122E+01 2.84657E+01 0.00000E+00
 -1      4088 2.64000E+01 3.05150E+01 0.00000E+00
 -1      4089 2.79000E+01 3.05150E+01 0.00000E+00
 -1      4090 2.56500E+01 2.92160E+01 0.00000E+00
 -1      4091 2.86500E+01 2.92160E+01 0.00000E+00
 -1      4092 4.90350E+01 1.95942E+01 0.00000E+00
 -1      4093 4.82850E+01 1.82952E+01 0.00000E+00
 -1      4094 4.67850E+01 1.82952E+01 0.00000E+00
 -1      4095 1.10432E+02 2.93888E+01 0.00000E+00
 -1      4096 2.48228E+01 1.82558E+01 0.00000E+00
 -1      4097 2.33228E+01 1.82558E+01 0.00000E+00
 -1      4098 2.31105E+01 1.95153E+01 0.00000E+00
 -1      4099 1.09239E+02 2.16514E+01 0.00000E+00
 -1      4100 1.09042E+02 2.32188E+01 0.00000E+00
 -1      4101 1.09882E+02 2.43576E+01 0.00000E+00
 -1      4102 1.10739E+02 2.16514E+01 0.00000E+00
 -1      4103 3.25350E+01 1.69963E+01 0.00000E+00
 -1      4104 1.30371E+02 3.00446E+01 0.00000E+00
 -1      4105 6.67560E+01 2.12339E+01 0.00000E+00
 -1      4106 1.29621E+02 2.87456E+01 0.00000E+00
 -1      4107 1.08945E+02 2.74751E+01 0.00000E+00
 -1      4108 6.86432E+01 2.45763E+01 0.00000E+00
 -1      4109 1.94850E+01 2.27687E+01 0.00000E+00
 -1      4110 1.94850E+01 2.42375E+01 0.00000E+00
 -1      4111 1.30537E+02 2.43733E+01 0.00000E+00
 -1      4112 1.30580E+02 2.32094E+01 0.00000E+00
 -1      4113 1.96202E+01 2.55407E+01 0.00000E+00
 -1      4114 1.97770E+01 2.71626E+01 0.00000E+00
 -1      4115 2.11896E+01 2.74126E+01 0.00000E+00
 -1      4116 2.09192E+01 2.48063E+01 0.00000E+00
 -1      4117 4.00350E+01 1.95942E+01 0.00000E+00
 -1      4118 3.92850E+01 1.82952E+01 0.00000E+00
 -1      4119 3.77850E+01 1.82952E+01 0.00000E+00
 -1      4120 4.52850E+01 1.82952E+01 0.00000E+00
 -1      4121 4.37850E+01 1.82952E+01 0.00000E+00
 -1      4122 4.60350E+01 1.95942E+01 0.00000E+00
 -1      4123 6.93617E+01 2.83999E+01 0.00000E+00
 -1      4124 6.87062E+01 2.73879E+01 0.00000E+00
 -1      4125 3.02850E+01 1.82952E+01 0.00000E+00
 -1      4126 2.87850E+01 1.82952E+01 0.00000E+00
 -1      4127 5.80350E+01 1.95942E+01 0.00000E+00
 -1      4128 4.30350E+01 1.95942E+01 0.00000E+00
 -1      4129 6.78766E+01 3.01554E+01 0.00000E+00
 -1      4130 6.93766E+01 3.01554E+01 0.00000E+00
 -1      4131 2.75539E+01 1.82755E+01 0.00000E+00
 -1      4132 2.60539E+01 1.82755E+01 0.00000E+00
 -1      4133 2.58416E+01 1.95350E+01 0.00000E+00
 -1      4134 2.83039E+01 1.95745E+01 0.00000E+00
 -1      4135 6.71266E+01 2.88564E+01 0.00000E+00
 -1      4136 1.30079E+02 2.72970E+01 0.00000E+00
 -1      4137 1.30079E+02 2.58220E+01 0.00000E+00
 -1      4138 1.28802E+02 2.51922E+01 0.00000E+00
 -1      4139 1.27886E+02 2.80895E+01 0.00000E+00
 -1      4140 1.99039E+01 2.05123E+01 0.00000E+00
 -1      4141 1.96916E+01 2.17718E+01 0.00000E+00
 -1      4142 2.09906E+01 2.25062E+01 0.00000E+00
 -1      4143 2.14039E+01 2.05123E+01 0.00000E+00
 -1      4144 3.39000E+01 2.79170E+01 0.00000E+00
 -1      4145 3.54000E+01 2.79170E+01 0.00000E+00
 -1      4146 3.69000E+01 2.79170E+01 0.00000E+00
 -1      4147 3.84000E+01 2.79170E+01 0.00000E+00
 -1      4148 3.61500E+01 2.66180E+01 0.00000E+00
 -1      4149 3.99000E+01 2.79170E+01 0.00000E+00
 -1      4150 4.14000E+01 2.79170E+01 0.00000E+00
 -1      4151 3.91500E+01 2.66180E+01 0.00000E+00
 -1      4152 4.29000E+01 2.79170E+01 0.00000E+00
 -1      4153 4.44000E+01 2.79170E+01 0.00000E+00
 -1      4154 4.21500E+01 2.66180E+01 0.00000E+00
 -1      4155 4.59000E+01 2.79170E+01 0.00000E+00
 -1      4156 4.74000E+01 2.79170E+01 0.00000E+00
 -1      4157 4.51500E+01 2.66180E+01 0.00000E+00
 -1      4158 4.89000E+01 2.79170E+01 0.00000E+00
 -1      4159 5.04000E+01 2.79170E+01 0.00000E+00
 -1      4160 4.81500E+01 2.66180E+01 0.00000E+00
 -1      4161 5.19000E+01 2.79170E+01 0.00000E+00
 -1      4162 5.34000E+01 2.79170E+01 0.00000E+00
 -1      4163 5.11500E+01 2.66180E+01 0.00000E+00
 -1      4164 5.49000E+01 2.79170E+01 0.00000E+00
 -1      4165 5.64000E+01 2.79170E+01 0.00000E+00
 -1      4166 5.41500E+01 2.66180E+01 0.00000E+00
 -1      4167 5.79000E+01 2.79170E+01 0.00000E+00
 -1      4168 5.94000E+01 2.79170E+01 0.00000E+00
 -1      4169 5.71500E+01 2.66180E+01 0.00000E+00
 -1      4170 6.09000E+01 2.79170E+01 0.00000E+00
 -1      4171 6.24000E+01 2.79170E+01 0.00000E+00
 -1      4172 6.01500E+01 2.66180E+01 0.00000E+00
 -1      4173 6.39000E+01 2.79170E+01 0.00000E+00
 -1      4174 6.54000E+01 2.79170E+01 0.00000E+00
 -1      4175 6.31500E+01 2.66180E+01 0.00000E+00
 -1      4176 6.74371E+01 2.67939E+01 0.00000E+00
 -1      4177 6.80401E+01 2.56851E+01 0.00000E+00
 -1      4178 6.73741E+01 2.39824E+01 0.00000E+00
 -1      4179 2.79000E+01 2.79170E+01 0.00000E+00
 -1      4180 2.94000E+01 2.79170E+01 0.00000E+00
 -1      4181 3.32850E+01 1.82952E+01 0.00000E+00
 -1      4182 3.17850E+01 1.82952E+01 0.00000E+00
 -1      4183 3.10350E+01 1.95942E+01 0.00000E+00
 -1      4184 1.19178E+02 2.82391E+01 0.00000E+00
 -1      4185 1.20678E+02 2.82391E+01 0.00000E+00
 -1      4186 1.22178E+02 2.82391E+01 0.00000E+00
 -1      4187 1.23678E+02 2.82391E+01 0.00000E+00
 -1      4188 1.21428E+02 2.69401E+01 0.00000E+00
 -1      4189 1.25032E+02 2.81643E+01 0.00000E+00
 -1      4190 1.26532E+02 2.81643E+01 0.00000E+00
 -1      4191 1.26990E+02 2.67157E+01 0.00000E+00
 -1      4192 1.24282E+02 2.68653E+01 0.00000E+00
 -1      4193 3.62850E+01 1.82952E+01 0.00000E+00
 -1      4194 3.47850E+01 1.82952E+01 0.00000E+00
 -1      4195 3.70350E+01 1.95942E+01 0.00000E+00
 -1      4196 1.10941E+02 2.76244E+01 0.00000E+00
 -1      4197 1.30771E+02 2.22871E+01 0.00000E+00
 -1      4198 1.30813E+02 2.11231E+01 0.00000E+00
 -1      4199 1.29832E+02 2.09766E+01 0.00000E+00
 -1      4200 1.29451E+02 2.28212E+01 0.00000E+00
 -1      4201 3.09000E+01 2.79170E+01 0.00000E+00
 -1      4202 3.24000E+01 2.79170E+01 0.00000E+00
 -1      4203 3.01500E+01 2.66180E+01 0.00000E+00
 -1      4204 6.93691E+01 2.92776E+01 0.00000E+00
 -1      4205 1.18309E+02 2.10603E+01 0.00000E+00
 -1      4206 1.16809E+02 2.10603E+01 0.00000E+00
 -1      4207 1.21309E+02 2.10603E+01 0.00000E+00
 -1      4208 1.19809E+02 2.10603E+01 0.00000E+00
 -1      4209 1.19059E+02 2.23593E+01 0.00000E+00
 -1      4210 6.17850E+01 2.08932E+01 0.00000E+00
 -1      4211 6.02850E+01 2.08932E+01 0.00000E+00
 -1      4212 1.11223E+02 2.58706E+01 0.00000E+00
 -1      4213 1.12710E+02 2.77843E+01 0.00000E+00
 -1      4214 5.87850E+01 2.08932E+01 0.00000E+00
 -1      4215 5.72850E+01 2.08932E+01 0.00000E+00
 -1      4216 5.95350E+01 2.21922E+01 0.00000E+00
 -1      4217 1.27309E+02 2.10603E+01 0.00000E+00
 -1      4218 1.25809E+02 2.10603E+01 0.00000E+00
 -1      4219 4.37850E+01 2.08932E+01 0.00000E+00
 -1      4220 4.22850E+01 2.08932E+01 0.00000E+00
 -1      4221 5.27850E+01 2.08932E+01 0.00000E+00
 -1      4222 5.12850E+01 2.08932E+01 0.00000E+00
 -1      4223 2.49000E+01 2.79170E+01 0.00000E+00
 -1      4224 2.64000E+01 2.79170E+01 0.00000E+00
 -1      4225 2.71500E+01 2.66180E+01 0.00000E+00
 -1      4226 6.63247E+01 2.28296E+01 0.00000E+00
 -1      4227 6.51037E+01 2.11899E+01 0.00000E+00
 -1      4228 1.24309E+02 2.10603E+01 0.00000E+00
 -1      4229 1.22809E+02 2.10603E+01 0.00000E+00
 -1      4230 1.25059E+02 2.23593E+01 0.00000E+00
 -1      4231 5.57850E+01 2.08932E+01 0.00000E+00
 -1      4232 5.42850E+01 2.08932E+01 0.00000E+00
 -1      4233 5.65350E+01 2.21922E+01 0.00000E+00
 -1      4234 6.36037E+01 2.11899E+01 0.00000E+00
 -1      4235 1.16178E+02 2.82391E+01 0.00000E+00
 -1      4236 1.17678E+02 2.82391E+01 0.00000E+00
 -1      4237 1.18428E+02 2.69401E+01 0.00000E+00
 -1      4238 1.14210E+02 2.77843E+01 0.00000E+00
 -1      4239 4.97850E+01 2.08932E+01 0.00000E+00
 -1      4240 4.82850E+01 2.08932E+01 0.00000E+00
 -1      4241 5.05350E+01 2.21922E+01 0.00000E+00
 -1      4242 6.57217E+01 2.39384E+01 0.00000E+00
 -1      4243 6.63766E+01 2.75574E+01 0.00000E+00
 -1      4244 6.57105E+01 2.58546E+01 0.00000E+00
 -1      4245 1.11962E+02 2.15171E+01 0.00000E+00
 -1      4246 1.11534E+02 2.28702E+01 0.00000E+00
 -1      4247 1.13185E+02 2.13829E+01 0.00000E+00
 -1      4248 3.17850E+01 2.08932E+01 0.00000E+00
 -1      4249 3.02850E+01 2.08932E+01 0.00000E+00
 -1      4250 1.14960E+02 2.64853E+01 0.00000E+00
 -1      4251 3.40350E+01 1.95942E+01 0.00000E+00
 -1      4252 4.52850E+01 2.08932E+01 0.00000E+00
 -1      4253 4.45350E+01 2.21922E+01 0.00000E+00
 -1      4254 4.67850E+01 2.08932E+01 0.00000E+00
 -1      4255 2.23659E+01 2.22713E+01 0.00000E+00
 -1      4256 2.21593E+01 2.32683E+01 0.00000E+00
 -1      4257 2.22945E+01 2.45715E+01 0.00000E+00
 -1      4258 1.27910E+02 2.30514E+01 0.00000E+00
 -1      4259 1.28100E+02 2.21291E+01 0.00000E+00
 -1      4260 1.11652E+02 2.45175E+01 0.00000E+00
 -1      4261 2.28415E+01 2.03948E+01 0.00000E+00
 -1      4262 2.26349E+01 2.13918E+01 0.00000E+00
 -1      4263 2.38035E+01 2.21539E+01 0.00000E+00
 -1      4264 2.43415E+01 2.03948E+01 0.00000E+00
 -1      4265 1.22059E+02 2.23593E+01 0.00000E+00
 -1      4266 5.35350E+01 2.21922E+01 0.00000E+00
 -1      4267 3.31500E+01 2.66180E+01 0.00000E+00
 -1      4268 6.28537E+01 2.24889E+01 0.00000E+00
 -1      4269 1.28850E+02 2.08301E+01 0.00000E+00
 -1      4270 1.15608E+02 2.11545E+01 0.00000E+00
 -1      4271 1.14385E+02 2.12887E+01 0.00000E+00
 -1      4272 1.13957E+02 2.26418E+01 0.00000E+00
 -1      4273 1.16358E+02 2.24535E+01 0.00000E+00
 -1      4274 2.98039E+01 2.21725E+01 0.00000E+00
 -1      4275 2.90539E+01 2.08735E+01 0.00000E+00
 -1      4276 2.78228E+01 2.08538E+01 0.00000E+00
 -1      4277 4.15350E+01 2.21922E+01 0.00000E+00
 -1      4278 4.07850E+01 2.08932E+01 0.00000E+00
 -1      4279 3.92850E+01 2.08932E+01 0.00000E+00
 -1      4280 1.27221E+02 2.56079E+01 0.00000E+00
 -1      4281 1.27679E+02 2.41592E+01 0.00000E+00
 -1      4282 1.26328E+02 2.34671E+01 0.00000E+00
 -1      4283 1.25867E+02 2.56827E+01 0.00000E+00
 -1      4284 2.23385E+01 2.75398E+01 0.00000E+00
 -1      4285 2.37511E+01 2.77899E+01 0.00000E+00
 -1      4286 2.45011E+01 2.64909E+01 0.00000E+00
 -1      4287 2.22033E+01 2.62366E+01 0.00000E+00
 -1      4288 3.54000E+01 2.53190E+01 0.00000E+00
 -1      4289 3.69000E+01 2.53190E+01 0.00000E+00
 -1      4290 3.88425E+01 2.44051E+01 0.00000E+00
 -1      4291 4.03425E+01 2.44051E+01 0.00000E+00
 -1      4292 4.18425E+01 2.44051E+01 0.00000E+00
 -1      4293 4.33425E+01 2.44051E+01 0.00000E+00
 -1      4294 4.48425E+01 2.44051E+01 0.00000E+00
 -1      4295 4.63425E+01 2.44051E+01 0.00000E+00
 -1      4296 4.78425E+01 2.44051E+01 0.00000E+00
 -1      4297 4.93425E+01 2.44051E+01 0.00000E+00
 -1      4298 5.08425E+01 2.44051E+01 0.00000E+00
 -1      4299 5.23425E+01 2.44051E+01 0.00000E+00
 -1      4300 5.38425E+01 2.44051E+01 0.00000E+00
 -1      4301 5.53425E+01 2.44051E+01 0.00000E+00
 -1      4302 5.68425E+01 2.44051E+01 0.00000E+00
 -1      4303 5.83425E+01 2.44051E+01 0.00000E+00
 -1      4304 5.98425E+01 2.44051E+01 0.00000E+00
 -1      4305 6.13425E+01 2.44051E+01 0.00000E+00
 -1      4306 1.17678E+02 2.56411E+01 0.00000E+00
 -1      4307 1.19178E+02 2.56411E+01 0.00000E+00
 -1      4308 1.20243E+02 2.46497E+01 0.00000E+00
 -1      4309 1.21743E+02 2.46497E+01 0.00000E+00
 -1      4310 3.32850E+01 2.08932E+01 0.00000E+00
 -1      4311 3.25350E+01 2.21922E+01 0.00000E+00
 -1      4312 3.47850E+01 2.08932E+01 0.00000E+00
 -1      4313 1.24828E+02 2.34671E+01 0.00000E+00
 -1      4314 2.34434E+01 2.46986E+01 0.00000E+00
 -1      4315 1.12875E+02 2.43833E+01 0.00000E+00
 -1      4316 6.31612E+01 2.47018E+01 0.00000E+00
 -1      4317 2.98425E+01 2.44051E+01 0.00000E+00
 -1      4318 3.13425E+01 2.44051E+01 0.00000E+00
 -1      4319 1.23243E+02 2.46497E+01 0.00000E+00
 -1      4320 6.46612E+01 2.47018E+01 0.00000E+00
 -1      4321 2.71114E+01 2.43854E+01 0.00000E+00
 -1      4322 2.86114E+01 2.43854E+01 0.00000E+00
 -1      4323 2.66977E+01 2.06342E+01 0.00000E+00
 -1      4324 2.54666E+01 2.06144E+01 0.00000E+00
 -1      4325 2.51976E+01 2.14940E+01 0.00000E+00
 -1      4326 2.74477E+01 2.19332E+01 0.00000E+00
 -1      4327 3.28425E+01 2.44051E+01 0.00000E+00
 -1      4328 3.43425E+01 2.44051E+01 0.00000E+00
 -1      4329 3.77850E+01 2.08932E+01 0.00000E+00
 -1      4330 3.62850E+01 2.08932E+01 0.00000E+00
 -1      4331 3.55350E+01 2.21922E+01 0.00000E+00
 -1      4332 3.85350E+01 2.21922E+01 0.00000E+00
 -1      4333 1.14269E+02 2.49923E+01 0.00000E+00
 -1      4334 1.16237E+02 2.54471E+01 0.00000E+00
 -1      4335 4.75350E+01 2.21922E+01 0.00000E+00
 -1      4336 1.19493E+02 2.33507E+01 0.00000E+00
 -1      4337 1.17993E+02 2.33507E+01 0.00000E+00
 -1      4338 1.16552E+02 2.31567E+01 0.00000E+00
 -1      4339 1.15352E+02 2.32509E+01 0.00000E+00
 -1      4340 1.24513E+02 2.57575E+01 0.00000E+00
 -1      4341 1.16987E+02 2.41481E+01 0.00000E+00
 -1      4342 2.45923E+01 2.48257E+01 0.00000E+00
 -1      4343 2.49286E+01 2.23735E+01 0.00000E+00
 -1      4344 2.59863E+01 2.41658E+01 0.00000E+00
 -1      4345 3.50925E+01 2.31061E+01 0.00000E+00
 -1      4346 1.14151E+02 2.33450E+01 0.00000E+00
 -1      4347 3.80925E+01 2.31061E+01 0.00000E+00
 -1      4348 3.65925E+01 2.31061E+01 0.00000E+00
 -3
    3C                          2092                                     1
 -1       165    8    0    1
 -2         6         7        23      1129      1293      1146
 -1       166    8    0    1
 -2         7         8       165      1130      1294      1295
 -1       167    8    0    1
 -2         8         9       166      1131      1296      1297
 -1       168    8    0    1
 -2         8       166       165      1297      1298      1294
 -1       169    8    0    1
 -2         9        10       167      1132      1299      1300
 -1       170    8    0    1
 -2         9       167       166      1300      1301      1296
 -1       171    8    0    1
 -2        10        11       168      1133      1302      1303
 -1       172    8    0    1
 -2        10       168       167      1303      1304      1299
 -1       173    8    0    1
 -2        11        12       169      1134      1305      1306
 -1       174    8    0    1
 -2        11       169       168      1306      1307      1302
 -1       175    8    0    1
 -2        12        13       170      1135      1308      1309
 -1       176    8    0    1
 -2        12       170       169      1309      1310      1305
 -1       177    8    0    1
 -2        13        14       171      1136      1311      1312
 -1       178    8    0    1
 -2        13       171       170      1312      1313      1308
 -1       179    8    0    1
 -2        14        15       172      1137      1314      1315
 -1       180    8    0    1
 -2        14       172       171      1315      1316      1311
 -1       181    8    0    1
 -2        15        16       173      1138      1317      1318
 -1       182    8    0    1
 -2        15       173       172      1318      1319      1314
 -1       183    8    0    1
 -2        16        17       174      1139      1320      1321
 -1       184    8    0    1
 -2        16       174       173      1321      1322      1317
 -1       185    8    0    1
 -2        17        18       175      1140      1323      1324
 -1       186    8    0    1
 -2        17       175       174      1324      1325      1320
 -1       187    8    0    1
 -2        18        19       176      1141      1326      1327
 -1       188    8    0    1
 -2        18       176       175      1327      1328      1323
 -1       189    8    0    1
 -2        19        20       177      1142      1329      1330
 -1       190    8    0    1
 -2        19       177       176      1330      1331      1326
 -1       191    8    0    1
 -2        20        21       178      1143      1332      1333
 -1       192    8    0    1
 -2        20       178       177      1333      1334      1329
 -1       193    8    0    1
 -2        21        22       179      1144      1335      1336
 -1       194    8    0    1
 -2        21       179       178      1336      1337      1332
 -1       195    8    0    1
 -2        22         5       180      1145      1338      1339
 -1       196    8    0    1
 -2       179        22       180      1335      1339      1340
 -1       197    8    0    1
 -2         5        72       180      1196      1341      1338
 -1       198    8    0    1
 -2        24        23       181      1147      1342      1343
 -1       199    8    0    1
 -2        25        24       182      1148      1344      1345
 -1       200    8    0    1
 -2        24       181       182      1343      1346      1344
 -1       201    8    0    1
 -2        26        25       183      1149      1347      1348
 -1       202    8    0    1
 -2        25       182       183      1345      1349      1347
 -1       203    8    0    1
 -2        27        26       184      1150      1350      1351
 -1       204    8    0    1
 -2        26       183       184      1348      1352      1350
 -1       205    8    0    1
 -2        28        27       185      1151      1353      1354
 -1       206    8    0    1
 -2        27       184       185      1351      1355      1353
 -1       207    8    0    1
 -2        29        28       186      1152      1356      1357
 -1       208    8    0    1
 -2        28       185       186      1354      1358      1356
 -1       209    8    0    1
 -2        30        29       187      1153      1359      1360
 -1       210    8    0    1
 -2        29       186       187      1357      1361      1359
 -1       211    8    0    1
 -2        31        30       188      1154      1362      1363
 -1       212    8    0    1
 -2        30       187       188      1360      1364      1362
 -1       213    8    0    1
 -2        32        31       189      1155      1365      1366
 -1       214    8    0    1
 -2        31       188       189      1363      1367      1365
 -1       215    8    0    1
 -2        33        32       190      1156      1368      1369
 -1       216    8    0    1
 -2        32       189       190      1366      1370      1368
 -1       217    8    0    1
 -2        34        33       191      1157      1371      1372
 -1       218    8    0    1
 -2        33       190       191      1369      1373      1371
 -1       219    8    0    1
 -2        35        34       192      1158      1374      1375
 -1       220    8    0    1
 -2        34       191       192      1372      1376      1374
 -1       221    8    0    1
 -2        36        35       193      1159      1377      1378
 -1       222    8    0    1
 -2        35       192       193      1375      1379      1377
 -1       223    8    0    1
 -2        37        36       194      1160      1380      1381
 -1       224    8    0    1
 -2        36       193       194      1378      1382      1380
 -1       225    8    0    1
 -2        38        37       195      1161      1383      1384
 -1       226    8    0    1
 -2        37       194       195      1381      1385      1383
 -1       227    8    0    1
 -2        39        38       196      1162      1386      1387
 -1       228    8    0    1
 -2        38       195       196      1384      1388      1386
 -1       229    8    0    1
 -2        40        39       197      1163      1389      1390
 -1       230    8    0    1
 -2        39       196       197      1387      1391      1389
 -1       231    8    0    1
 -2        41        40       198      1164      1392      1393
 -1       232    8    0    1
 -2        40       197       198      1390      1394      1392
 -1       233    8    0    1
 -2        42        41       199      1165      1395      1396
 -1       234    8    0    1
 -2        41       198       199      1393      1397      1395
 -1       235    8    0    1
 -2        43        42       200      1166      1398      1399
 -1       236    8    0    1
 -2        42       199       200      1396      1400      1398
 -1       237    8    0    1
 -2        44        43       201      1167      1401      1402
 -1       238    8    0    1
 -2        43       200       201      1399      1403      1401
 -1       239    8    0    1
 -2        45        44       202      1168      1404      1405
 -1       240    8    0    1
 -2        44       201       202      1402      1406      1404
 -1       241    8    0    1
 -2        46        45       203      1169      1407      1408
 -1       242    8    0    1
 -2        45       202       203      1405      1409      1407
 -1       243    8    0    1
 -2        47        46       204      1170      1410      1411
 -1       244    8    0    1
 -2        46       203       204      1408      1412      1410
 -1       245    8    0    1
 -2        48        47       205      1171      1413      1414
 -1       246    8    0    1
 -2        47       204       205      1411      1415      1413
 -1       247    8    0    1
 -2        49        48       206      1172      1416      1417
 -1       248    8    0    1
 -2        48       205       206      1414      1418      1416
 -1       249    8    0    1
 -2        50        49       207      1173      1419      1420
 -1       250    8    0    1
 -2        49       206       207      1417      1421      1419
 -1       251    8    0    1
 -2        51        50       208      1174      1422      1423
 -1       252    8    0    1
 -2        50       207       208      1420      1424      1422
 -1       253    8    0    1
 -2        52        51       209      1175      1425      1426
 -1       254    8    0    1
 -2        51       208       209      1423      1427      1425
 -1       255    8    0    1
 -2        53        52       210      1176      1428      1429
 -1       256    8    0    1
 -2        52       209       210      1426      1430      1428
 -1       257    8    0    1
 -2        54        53       211      1177      1431      1432
 -1       258    8    0    1
 -2        53       210       211      1429      1433      1431
 -1       259    8    0    1
 -2        55        54       212      1178      1434      1435
 -1       260    8    0    1
 -2        54       211       212      1432      1436      1434
 -1       261    8    0    1
 -2        56        55       213      1179      1437      1438
 -1       262    8    0    1
 -2        55       212       213      1435      1439      1437
 -1       263    8    0    1
 -2        57        56       214      1180      1440      1441
 -1       264    8    0    1
 -2        56       213       214      1438      1442      1440
 -1       265    8    0    1
 -2        58        57       215      1181      1443      1444
 -1       266    8    0    1
 -2        57       214       215      1441      1445      1443
 -1       267    8    0    1
 -2        59        58       216      1182      1446      1447
 -1       268    8    0    1
 -2        58       215       216      1444      1448      1446
 -1       269    8    0    1
 -2        60        59       217      1183      1449      1450
 -1       270    8    0    1
 -2        59       216       217      1447      1451      1449
 -1       271    8    0    1
 -2        61        60       218      1184      1452      1453
 -1       272    8    0    1
 -2        60       217       218      1450      1454      1452
 -1       273    8    0    1
 -2        62        61       219      1185      1455      1456
 -1       274    8    0    1
 -2        61       218       219      1453      1457      1455
 -1       275    8    0    1
 -2        63        62       220      1186      1458      1459
 -1       276    8    0    1
 -2        62       219       220      1456      1460      1458
 -1       277    8    0    1
 -2        64        63       221      1187      1461      1462
 -1       278    8    0    1
 -2        63       220       221      1459      1463      1461
 -1       279    8    0    1
 -2        65        64       222      1188      1464      1465
 -1       280    8    0    1
 -2        64       221       222      1462      1466      1464
 -1       281    8    0    1
 -2        66        65       223      1189      1467      1468
 -1       282    8    0    1
 -2        65       222       223      1465      1469      1467
 -1       283    8    0    1
 -2        67        66       224      1190      1470      1471
 -1       284    8    0    1
 -2        66       223       224      1468      1472      1470
 -1       285    8    0    1
 -2        68        67       225      1191      1473      1474
 -1       286    8    0    1
 -2        67       224       225      1471      1475      1473
 -1       287    8    0    1
 -2        69        68       226      1192      1476      1477
 -1       288    8    0    1
 -2        68       225       226      1474      1478      1476
 -1       289    8    0    1
 -2        70        69       227      1193      1479      1480
 -1       290    8    0    1
 -2        69       226       227      1477      1481      1479
 -1       291    8    0    1
 -2        71        70       228      1194      1482      1483
 -1       292    8    0    1
 -2        70       227       228      1480      1484      1482
 -1       293    8    0    1
 -2         4        71       136      1195      1485      1262
 -1       294    8    0    1
 -2       136        71       228      1485      1483      1486
 -1       295    8    0    1
 -2        72        73       229      1197      1487      1488
 -1       296    8    0    1
 -2        72       229       180      1488      1489      1341
 -1       297    8    0    1
 -2        73        74       230      1198      1490      1491
 -1       298    8    0    1
 -2        73       230       229      1491      1492      1487
 -1       299    8    0    1
 -2        74        75       231      1199      1493      1494
 -1       300    8    0    1
 -2        74       231       230      1494      1495      1490
 -1       301    8    0    1
 -2        75        76       232      1200      1496      1497
 -1       302    8    0    1
 -2        75       232       231      1497      1498      1493
 -1       303    8    0    1
 -2        76        77       233      1201      1499      1500
 -1       304    8    0    1
 -2        76       233       232      1500      1501      1496
 -1       305    8    0    1
 -2        77        78       234      1202      1502      1503
 -1       306    8    0    1
 -2        77       234       233      1503      1504      1499
 -1       307    8    0    1
 -2        78        79       235      1203      1505      1506
 -1       308    8    0    1
 -2        78       235       234      1506      1507      1502
 -1       309    8    0    1
 -2        79        80       236      1204      1508      1509
 -1       310    8    0    1
 -2        79       236       235      1509      1510      1505
 -1       311    8    0    1
 -2        80        81       237      1205      1511      1512
 -1       312    8    0    1
 -2        80       237       236      1512      1513      1508
 -1       313    8    0    1
 -2        81        82       238      1206      1514      1515
 -1       314    8    0    1
 -2        81       238       237      1515      1516      1511
 -1       315    8    0    1
 -2        82        83       239      1207      1517      1518
 -1       316    8    0    1
 -2        82       239       238      1518      1519      1514
 -1       317    8    0    1
 -2        83        84       240      1208      1520      1521
 -1       318    8    0    1
 -2        83       240       239      1521      1522      1517
 -1       319    8    0    1
 -2        84        85       241      1209      1523      1524
 -1       320    8    0    1
 -2        84       241       240      1524      1525      1520
 -1       321    8    0    1
 -2        85        86       242      1210      1526      1527
 -1       322    8    0    1
 -2        85       242       241      1527      1528      1523
 -1       323    8    0    1
 -2        86        87       243      1211      1529      1530
 -1       324    8    0    1
 -2        86       243       242      1530      1531      1526
 -1       325    8    0    1
 -2        87        88       244      1212      1532      1533
 -1       326    8    0    1
 -2        87       244       243      1533      1534      1529
 -1       327    8    0    1
 -2        88        89       245      1213      1535      1536
 -1       328    8    0    1
 -2        88       245       244      1536      1537      1532
 -1       329    8    0    1
 -2        89        90       246      1214      1538      1539
 -1       330    8    0    1
 -2        89       246       245      1539      1540      1535
 -1       331    8    0    1
 -2        90        91       247      1215      1541      1542
 -1       332    8    0    1
 -2        90       247       246      1542      1543      1538
 -1       333    8    0    1
 -2        91        92       248      1216      1544      1545
 -1       334    8    0    1
 -2        91       248       247      1545      1546      1541
 -1       335    8    0    1
 -2        92        93       249      1217      1547      1548
 -1       336    8    0    1
 -2        92       249       248      1548      1549      1544
 -1       337    8    0    1
 -2        93        94       250      1218      1550      1551
 -1       338    8    0    1
 -2        93       250       249      1551      1552      1547
 -1       339    8    0    1
 -2        94        95       251      1219      1553      1554
 -1       340    8    0    1
 -2        94       251       250      1554      1555      1550
 -1       341    8    0    1
 -2        95        96       252      1220      1556      1557
 -1       342    8    0    1
 -2        95       252       251      1557      1558      1553
 -1       343    8    0    1
 -2        96        97       253      1221      1559      1560
 -1       344    8    0    1
 -2        96       253       252      1560      1561      1556
 -1       345    8    0    1
 -2        97        98       254      1222      1562      1563
 -1       346    8    0    1
 -2        97       254       253      1563      1564      1559
 -1       347    8    0    1
 -2        98        99       255      1223      1565      1566
 -1       348    8    0    1
 -2        98       255       254      1566      1567      1562
 -1       349    8    0    1
 -2        99       100       256      1224      1568      1569
 -1       350    8    0    1
 -2        99       256       255      1569      1570      1565
 -1       351    8    0    1
 -2       100       101       257      1225      1571      1572
 -1       352    8    0    1
 -2       100       257       256      1572      1573      1568
 -1       353    8    0    1
 -2       101       102       258      1226      1574      1575
 -1       354    8    0    1
 -2       101       258       257      1575      1576      1571
 -1       355    8    0    1
 -2       102       103       259      1227      1577      1578
 -1       356    8    0    1
 -2       102       259       258      1578      1579      1574
 -1       357    8    0    1
 -2       103       104       260      1228      1580      1581
 -1       358    8    0    1
 -2       103       260       259      1581      1582      1577
 -1       359    8    0    1
 -2       104       105       261      1229      1583      1584
 -1       360    8    0    1
 -2       104       261       260      1584      1585      1580
 -1       361    8    0    1
 -2       105       106       262      1230      1586      1587
 -1       362    8    0    1
 -2       105       262       261      1587      1588      1583
 -1       363    8    0    1
 -2       106       107       263      1231      1589      1590
 -1       364    8    0    1
 -2       106       263       262      1590      1591      1586
 -1       365    8    0    1
 -2       107       108       264      1232      1592      1593
 -1       366    8    0    1
 -2       107       264       263      1593      1594      1589
 -1       367    8    0    1
 -2       108       109       265      1233      1595      1596
 -1       368    8    0    1
 -2       108       265       264      1596      1597      1592
 -1       369    8    0    1
 -2       109       110       266      1234      1598      1599
 -1       370    8    0    1
 -2       109       266       265      1599      1600      1595
 -1       371    8    0    1
 -2       110       111       267      1235      1601      1602
 -1       372    8    0    1
 -2       110       267       266      1602      1603      1598
 -1       373    8    0    1
 -2       111       112       268      1236      1604      1605
 -1       374    8    0    1
 -2       111       268       267      1605      1606      1601
 -1       375    8    0    1
 -2       112       113       269      1237      1607      1608
 -1       376    8    0    1
 -2       112       269       268      1608      1609      1604
 -1       377    8    0    1
 -2       113       114       270      1238      1610      1611
 -1       378    8    0    1
 -2       113       270       269      1611      1612      1607
 -1       379    8    0    1
 -2       114       115       271      1239      1613      1614
 -1       380    8    0    1
 -2       114       271       270      1614      1615      1610
 -1       381    8    0    1
 -2       115       116       272      1240      1616      1617
 -1       382    8    0    1
 -2       115       272       271      1617      1618      1613
 -1       383    8    0    1
 -2       116       117       273      1241      1619      1620
 -1       384    8    0    1
 -2       116       273       272      1620      1621      1616
 -1       385    8    0    1
 -2       117       118       274      1242      1622      1623
 -1       386    8    0    1
 -2       117       274       273      1623      1624      1619
 -1       387    8    0    1
 -2       118       119       275      1243      1625      1626
 -1       388    8    0    1
 -2       118       275       274      1626      1627      1622
 -1       389    8    0    1
 -2       119       120       276      1244      1628      1629
 -1       390    8    0    1
 -2       119       276       275      1629      1630      1625
 -1       391    8    0    1
 -2       120         3       121      1245      1246      1631
 -1       392    8    0    1
 -2       121       122       277      1247      1632      1633
 -1       393    8    0    1
 -2       122       123       278      1248      1634      1635
 -1       394    8    0    1
 -2       122       278       277      1635      1636      1632
 -1       395    8    0    1
 -2       123       124       279      1249      1637      1638
 -1       396    8    0    1
 -2       123       279       278      1638      1639      1634
 -1       397    8    0    1
 -2       124       125       280      1250      1640      1641
 -1       398    8    0    1
 -2       124       280       279      1641      1642      1637
 -1       399    8    0    1
 -2       125       126       281      1251      1643      1644
 -1       400    8    0    1
 -2       125       281       280      1644      1645      1640
 -1       401    8    0    1
 -2       126       127       282      1252      1646      1647
 -1       402    8    0    1
 -2       126       282       281      1647      1648      1643
 -1       403    8    0    1
 -2       127       128       283      1253      1649      1650
 -1       404    8    0    1
 -2       127       283       282      1650      1651      1646
 -1       405    8    0    1
 -2       128       129       284      1254      1652      1653
 -1       406    8    0    1
 -2       128       284       283      1653      1654      1649
 -1       407    8    0    1
 -2       129       130       285      1255      1655      1656
 -1       408    8    0    1
 -2       129       285       284      1656      1657      1652
 -1       409    8    0    1
 -2       130       131       286      1256      1658      1659
 -1       410    8    0    1
 -2       130       286       285      1659      1660      1655
 -1       411    8    0    1
 -2       131       132       287      1257      1661      1662
 -1       412    8    0    1
 -2       131       287       286      1662      1663      1658
 -1       413    8    0    1
 -2       132       133       288      1258      1664      1665
 -1       414    8    0    1
 -2       132       288       287      1665      1666      1661
 -1       415    8    0    1
 -2       133       134       289      1259      1667      1668
 -1       416    8    0    1
 -2       133       289       288      1668      1669      1664
 -1       417    8    0    1
 -2       134       135       290      1260      1670      1671
 -1       418    8    0    1
 -2       134       290       289      1671      1672      1667
 -1       419    8    0    1
 -2       135       136       291      1261      1673      1674
 -1       420    8    0    1
 -2       290       135       291      1670      1674      1675
 -1       421    8    0    1
 -2       136       228       291      1486      1676      1673
 -1       422    8    0    1
 -2         2       137       292      1263      1677      1678
 -1       423    8    0    1
 -2       137       138       293      1264      1679      1680
 -1       424    8    0    1
 -2       138       139       294      1265      1681      1682
 -1       425    8    0    1
 -2       139       140       295      1266      1683      1684
 -1       426    8    0    1
 -2       140       141       296      1267      1685      1686
 -1       427    8    0    1
 -2       141       142       297      1268      1687      1688
 -1       428    8    0    1
 -2       142       143       298      1269      1689      1690
 -1       429    8    0    1
 -2       143       144       299      1270      1691      1692
 -1       430    8    0    1
 -2       144       145       300      1271      1693      1694
 -1       431    8    0    1
 -2       145       146       301      1272      1695      1696
 -1       432    8    0    1
 -2       146       147       302      1273      1697      1698
 -1       433    8    0    1
 -2       147       148       303      1274      1699      1700
 -1       434    8    0    1
 -2       148       149       304      1275      1701      1702
 -1       435    8    0    1
 -2       149       150       305      1276      1703      1704
 -1       436    8    0    1
 -2       150       151       306      1277      1705      1706
 -1       437    8    0    1
 -2       151       152       307      1278      1707      1708
 -1       438    8    0    1
 -2       152       153       308      1279      1709      1710
 -1       439    8    0    1
 -2       153       154       309      1280      1711      1712
 -1       440    8    0    1
 -2       154         1       310      1281      1713      1714
 -1       441    8    0    1
 -2         1       155       311      1282      1715      1716
 -1       442    8    0    1
 -2       155       156       312      1283      1717      1718
 -1       443    8    0    1
 -2       156       157       313      1284      1719      1720
 -1       444    8    0    1
 -2       157       158       314      1285      1721      1722
 -1       445    8    0    1
 -2       158       159       315      1286      1723      1724
 -1       446    8    0    1
 -2       159       160       316      1287      1725      1726
 -1       447    8    0    1
 -2       160       161       317      1288      1727      1728
 -1       448    8    0    1
 -2       161       162       318      1289      1729      1730
 -1       449    8    0    1
 -2       162       163       319      1290      1731      1732
 -1       450    8    0    1
 -2       163       164       320      1291      1733      1734
 -1       451    8    0    1
 -2       164         2       321      1292      1735      1736
 -1       452    8    0    1
 -2       295       140       296      1683      1686      1737
 -1       453    8    0    1
 -2       294       139       295      1681      1684      1738
 -1       454    8    0    1
 -2       120       121       276      1631      1739      1628
 -1       455    8    0    1
 -2       121       277       276      1633      1740      1739
 -1       456    8    0    1
 -2       292       137       293      1677      1680      1741
 -1       457    8    0    1
 -2       293       138       294      1679      1682      1742
 -1       458    8    0    1
 -2         2       292       321      1678      1743      1735
 -1       459    8    0    1
 -2       141       297       296      1688      1744      1685
 -1       460    8    0    1
 -2       142       298       297      1690      1745      1687
 -1       461    8    0    1
 -2       143       299       298      1692      1746      1689
 -1       462    8    0    1
 -2       144       300       299      1694      1747      1691
 -1       463    8    0    1
 -2       145       301       300      1696      1748      1693
 -1       464    8    0    1
 -2       146       302       301      1698      1749      1695
 -1       465    8    0    1
 -2       147       303       302      1700      1750      1697
 -1       466    8    0    1
 -2       148       304       303      1702      1751      1699
 -1       467    8    0    1
 -2       149       305       304      1704      1752      1701
 -1       468    8    0    1
 -2       150       306       305      1706      1753      1703
 -1       469    8    0    1
 -2       151       307       306      1708      1754      1705
 -1       470    8    0    1
 -2       152       308       307      1710      1755      1707
 -1       471    8    0    1
 -2       153       309       308      1712      1756      1709
 -1       472    8    0    1
 -2       154       310       309      1714      1757      1711
 -1       473    8    0    1
 -2         1       311       310      1716      1758      1713
 -1       474    8    0    1
 -2       155       312       311      1718      1759      1715
 -1       475    8    0    1
 -2       156       313       312      1720      1760      1717
 -1       476    8    0    1
 -2       157       314       313      1722      1761      1719
 -1       477    8    0    1
 -2       158       315       314      1724      1762      1721
 -1       478    8    0    1
 -2       159       316       315      1726      1763      1723
 -1       479    8    0    1
 -2       160       317       316      1728      1764      1725
 -1       480    8    0    1
 -2       161       318       317      1730      1765      1727
 -1       481    8    0    1
 -2       162       319       318      1732      1766      1729
 -1       482    8    0    1
 -2       163       320       319      1734      1767      1731
 -1       483    8    0    1
 -2       164       321       320      1736      1768      1733
 -1       484    8    0    1
 -2        23         7       165      1293      1295      1769
 -1       485    8    0    1
 -2       166       167       322      1301      1770      1771
 -1       486    8    0    1
 -2       165       166       323      1298      1772      1773
 -1       487    8    0    1
 -2       166       322       323      1771      1774      1772
 -1       488    8    0    1
 -2       168       169       324      1307      1775      1776
 -1       489    8    0    1
 -2       169       170       325      1310      1777      1778
 -1       490    8    0    1
 -2       169       325       324      1778      1779      1775
 -1       491    8    0    1
 -2       170       171       326      1313      1780      1781
 -1       492    8    0    1
 -2       170       326       325      1781      1782      1777
 -1       493    8    0    1
 -2       171       172       327      1316      1783      1784
 -1       494    8    0    1
 -2       171       327       326      1784      1785      1780
 -1       495    8    0    1
 -2       172       173       328      1319      1786      1787
 -1       496    8    0    1
 -2       172       328       327      1787      1788      1783
 -1       497    8    0    1
 -2       173       174       329      1322      1789      1790
 -1       498    8    0    1
 -2       173       329       328      1790      1791      1786
 -1       499    8    0    1
 -2       174       175       330      1325      1792      1793
 -1       500    8    0    1
 -2       174       330       329      1793      1794      1789
 -1       501    8    0    1
 -2       175       176       331      1328      1795      1796
 -1       502    8    0    1
 -2       175       331       330      1796      1797      1792
 -1       503    8    0    1
 -2       176       177       332      1331      1798      1799
 -1       504    8    0    1
 -2       176       332       331      1799      1800      1795
 -1       505    8    0    1
 -2       177       178       333      1334      1801      1802
 -1       506    8    0    1
 -2       177       333       332      1802      1803      1798
 -1       507    8    0    1
 -2       178       179       334      1337      1804      1805
 -1       508    8    0    1
 -2       178       334       333      1805      1806      1801
 -1       509    8    0    1
 -2       179       180       335      1340      1807      1808
 -1       510    8    0    1
 -2       334       179       335      1804      1808      1809
 -1       511    8    0    1
 -2       180       229       335      1489      1810      1807
 -1       512    8    0    1
 -2       181        23       165      1342      1769      1811
 -1       513    8    0    1
 -2       229       230       336      1492      1812      1813
 -1       514    8    0    1
 -2       229       336       335      1813      1814      1810
 -1       515    8    0    1
 -2       181       165       323      1811      1773      1815
 -1       516    8    0    1
 -2       183       182       337      1349      1816      1817
 -1       517    8    0    1
 -2       184       183       338      1352      1818      1819
 -1       518    8    0    1
 -2       183       337       338      1817      1820      1818
 -1       519    8    0    1
 -2       185       184       339      1355      1821      1822
 -1       520    8    0    1
 -2       184       338       339      1819      1823      1821
 -1       521    8    0    1
 -2       186       185       340      1358      1824      1825
 -1       522    8    0    1
 -2       185       339       340      1822      1826      1824
 -1       523    8    0    1
 -2       187       186       341      1361      1827      1828
 -1       524    8    0    1
 -2       186       340       341      1825      1829      1827
 -1       525    8    0    1
 -2       188       187       342      1364      1830      1831
 -1       526    8    0    1
 -2       187       341       342      1828      1832      1830
 -1       527    8    0    1
 -2       189       188       343      1367      1833      1834
 -1       528    8    0    1
 -2       188       342       343      1831      1835      1833
 -1       529    8    0    1
 -2       190       189       344      1370      1836      1837
 -1       530    8    0    1
 -2       189       343       344      1834      1838      1836
 -1       531    8    0    1
 -2       191       190       345      1373      1839      1840
 -1       532    8    0    1
 -2       190       344       345      1837      1841      1839
 -1       533    8    0    1
 -2       192       191       346      1376      1842      1843
 -1       534    8    0    1
 -2       191       345       346      1840      1844      1842
 -1       535    8    0    1
 -2       193       192       347      1379      1845      1846
 -1       536    8    0    1
 -2       192       346       347      1843      1847      1845
 -1       537    8    0    1
 -2       194       193       348      1382      1848      1849
 -1       538    8    0    1
 -2       193       347       348      1846      1850      1848
 -1       539    8    0    1
 -2       195       194       349      1385      1851      1852
 -1       540    8    0    1
 -2       194       348       349      1849      1853      1851
 -1       541    8    0    1
 -2       196       195       350      1388      1854      1855
 -1       542    8    0    1
 -2       195       349       350      1852      1856      1854
 -1       543    8    0    1
 -2       197       196       351      1391      1857      1858
 -1       544    8    0    1
 -2       196       350       351      1855      1859      1857
 -1       545    8    0    1
 -2       198       197       352      1394      1860      1861
 -1       546    8    0    1
 -2       197       351       352      1858      1862      1860
 -1       547    8    0    1
 -2       199       198       353      1397      1863      1864
 -1       548    8    0    1
 -2       198       352       353      1861      1865      1863
 -1       549    8    0    1
 -2       200       199       354      1400      1866      1867
 -1       550    8    0    1
 -2       199       353       354      1864      1868      1866
 -1       551    8    0    1
 -2       201       200       355      1403      1869      1870
 -1       552    8    0    1
 -2       200       354       355      1867      1871      1869
 -1       553    8    0    1
 -2       202       201       356      1406      1872      1873
 -1       554    8    0    1
 -2       201       355       356      1870      1874      1872
 -1       555    8    0    1
 -2       203       202       357      1409      1875      1876
 -1       556    8    0    1
 -2       202       356       357      1873      1877      1875
 -1       557    8    0    1
 -2       204       203       358      1412      1878      1879
 -1       558    8    0    1
 -2       203       357       358      1876      1880      1878
 -1       559    8    0    1
 -2       205       204       359      1415      1881      1882
 -1       560    8    0    1
 -2       204       358       359      1879      1883      1881
 -1       561    8    0    1
 -2       206       205       360      1418      1884      1885
 -1       562    8    0    1
 -2       205       359       360      1882      1886      1884
 -1       563    8    0    1
 -2       207       206       361      1421      1887      1888
 -1       564    8    0    1
 -2       206       360       361      1885      1889      1887
 -1       565    8    0    1
 -2       208       207       362      1424      1890      1891
 -1       566    8    0    1
 -2       207       361       362      1888      1892      1890
 -1       567    8    0    1
 -2       209       208       363      1427      1893      1894
 -1       568    8    0    1
 -2       208       362       363      1891      1895      1893
 -1       569    8    0    1
 -2       210       209       364      1430      1896      1897
 -1       570    8    0    1
 -2       209       363       364      1894      1898      1896
 -1       571    8    0    1
 -2       211       210       365      1433      1899      1900
 -1       572    8    0    1
 -2       210       364       365      1897      1901      1899
 -1       573    8    0    1
 -2       212       211       366      1436      1902      1903
 -1       574    8    0    1
 -2       211       365       366      1900      1904      1902
 -1       575    8    0    1
 -2       213       212       367      1439      1905      1906
 -1       576    8    0    1
 -2       212       366       367      1903      1907      1905
 -1       577    8    0    1
 -2       214       213       368      1442      1908      1909
 -1       578    8    0    1
 -2       213       367       368      1906      1910      1908
 -1       579    8    0    1
 -2       215       214       369      1445      1911      1912
 -1       580    8    0    1
 -2       214       368       369      1909      1913      1911
 -1       581    8    0    1
 -2       216       215       370      1448      1914      1915
 -1       582    8    0    1
 -2       215       369       370      1912      1916      1914
 -1       583    8    0    1
 -2       217       216       371      1451      1917      1918
 -1       584    8    0    1
 -2       216       370       371      1915      1919      1917
 -1       585    8    0    1
 -2       218       217       372      1454      1920      1921
 -1       586    8    0    1
 -2       217       371       372      1918      1922      1920
 -1       587    8    0    1
 -2       219       218       373      1457      1923      1924
 -1       588    8    0    1
 -2       218       372       373      1921      1925      1923
 -1       589    8    0    1
 -2       220       219       374      1460      1926      1927
 -1       590    8    0    1
 -2       219       373       374      1924      1928      1926
 -1       591    8    0    1
 -2       221       220       375      1463      1929      1930
 -1       592    8    0    1
 -2       220       374       375      1927      1931      1929
 -1       593    8    0    1
 -2       222       221       376      1466      1932      1933
 -1       594    8    0    1
 -2       221       375       376      1930      1934      1932
 -1       595    8    0    1
 -2       223       222       377      1469      1935      1936
 -1       596    8    0    1
 -2       222       376       377      1933      1937      1935
 -1       597    8    0    1
 -2       224       223       378      1472      1938      1939
 -1       598    8    0    1
 -2       223       377       378      1936      1940      1938
 -1       599    8    0    1
 -2       225       224       379      1475      1941      1942
 -1       600    8    0    1
 -2       224       378       379      1939      1943      1941
 -1       601    8    0    1
 -2       226       225       380      1478      1944      1945
 -1       602    8    0    1
 -2       225       379       380      1942      1946      1944
 -1       603    8    0    1
 -2       227       226       381      1481      1947      1948
 -1       604    8    0    1
 -2       226       380       381      1945      1949      1947
 -1       605    8    0    1
 -2       228       227       382      1484      1950      1951
 -1       606    8    0    1
 -2       291       228       382      1676      1951      1952
 -1       607    8    0    1
 -2       227       381       382      1948      1953      1950
 -1       608    8    0    1
 -2       230       231       383      1495      1954      1955
 -1       609    8    0    1
 -2       230       383       336      1955      1956      1812
 -1       610    8    0    1
 -2       231       232       384      1498      1957      1958
 -1       611    8    0    1
 -2       231       384       383      1958      1959      1954
 -1       612    8    0    1
 -2       232       233       385      1501      1960      1961
 -1       613    8    0    1
 -2       232       385       384      1961      1962      1957
 -1       614    8    0    1
 -2       233       234       386      1504      1963      1964
 -1       615    8    0    1
 -2       233       386       385      1964      1965      1960
 -1       616    8    0    1
 -2       234       235       387      1507      1966      1967
 -1       617    8    0    1
 -2       234       387       386      1967      1968      1963
 -1       618    8    0    1
 -2       235       236       388      1510      1969      1970
 -1       619    8    0    1
 -2       235       388       387      1970      1971      1966
 -1       620    8    0    1
 -2       236       237       389      1513      1972      1973
 -1       621    8    0    1
 -2       236       389       388      1973      1974      1969
 -1       622    8    0    1
 -2       237       238       390      1516      1975      1976
 -1       623    8    0    1
 -2       237       390       389      1976      1977      1972
 -1       624    8    0    1
 -2       238       239       391      1519      1978      1979
 -1       625    8    0    1
 -2       238       391       390      1979      1980      1975
 -1       626    8    0    1
 -2       239       240       392      1522      1981      1982
 -1       627    8    0    1
 -2       239       392       391      1982      1983      1978
 -1       628    8    0    1
 -2       240       241       393      1525      1984      1985
 -1       629    8    0    1
 -2       240       393       392      1985      1986      1981
 -1       630    8    0    1
 -2       241       242       394      1528      1987      1988
 -1       631    8    0    1
 -2       241       394       393      1988      1989      1984
 -1       632    8    0    1
 -2       242       243       395      1531      1990      1991
 -1       633    8    0    1
 -2       242       395       394      1991      1992      1987
 -1       634    8    0    1
 -2       243       244       396      1534      1993      1994
 -1       635    8    0    1
 -2       243       396       395      1994      1995      1990
 -1       636    8    0    1
 -2       244       245       397      1537      1996      1997
 -1       637    8    0    1
 -2       244       397       396      1997      1998      1993
 -1       638    8    0    1
 -2       245       246       398      1540      1999      2000
 -1       639    8    0    1
 -2       245       398       397      2000      2001      1996
 -1       640    8    0    1
 -2       246       247       399      1543      2002      2003
 -1       641    8    0    1
 -2       246       399       398      2003      2004      1999
 -1       642    8    0    1
 -2       247       248       400      1546      2005      2006
 -1       643    8    0    1
 -2       247       400       399      2006      2007      2002
 -1       644    8    0    1
 -2       248       249       401      1549      2008      2009
 -1       645    8    0    1
 -2       248       401       400      2009      2010      2005
 -1       646    8    0    1
 -2       249       250       402      1552      2011      2012
 -1       647    8    0    1
 -2       249       402       401      2012      2013      2008
 -1       648    8    0    1
 -2       250       251       403      1555      2014      2015
 -1       649    8    0    1
 -2       250       403       402      2015      2016      2011
 -1       650    8    0    1
 -2       251       252       404      1558      2017      2018
 -1       651    8    0    1
 -2       251       404       403      2018      2019      2014
 -1       652    8    0    1
 -2       252       253       405      1561      2020      2021
 -1       653    8    0    1
 -2       252       405       404      2021      2022      2017
 -1       654    8    0    1
 -2       253       254       406      1564      2023      2024
 -1       655    8    0    1
 -2       253       406       405      2024      2025      2020
 -1       656    8    0    1
 -2       254       255       407      1567      2026      2027
 -1       657    8    0    1
 -2       254       407       406      2027      2028      2023
 -1       658    8    0    1
 -2       255       256       408      1570      2029      2030
 -1       659    8    0    1
 -2       255       408       407      2030      2031      2026
 -1       660    8    0    1
 -2       256       257       409      1573      2032      2033
 -1       661    8    0    1
 -2       256       409       408      2033      2034      2029
 -1       662    8    0    1
 -2       257       258       410      1576      2035      2036
 -1       663    8    0    1
 -2       257       410       409      2036      2037      2032
 -1       664    8    0    1
 -2       258       259       411      1579      2038      2039
 -1       665    8    0    1
 -2       258       411       410      2039      2040      2035
 -1       666    8    0    1
 -2       259       260       412      1582      2041      2042
 -1       667    8    0    1
 -2       259       412       411      2042      2043      2038
 -1       668    8    0    1
 -2       260       261       413      1585      2044      2045
 -1       669    8    0    1
 -2       260       413       412      2045      2046      2041
 -1       670    8    0    1
 -2       261       262       414      1588      2047      2048
 -1       671    8    0    1
 -2       261       414       413      2048      2049      2044
 -1       672    8    0    1
 -2       262       263       415      1591      2050      2051
 -1       673    8    0    1
 -2       262       415       414      2051      2052      2047
 -1       674    8    0    1
 -2       263       264       416      1594      2053      2054
 -1       675    8    0    1
 -2       263       416       415      2054      2055      2050
 -1       676    8    0    1
 -2       264       265       417      1597      2056      2057
 -1       677    8    0    1
 -2       264       417       416      2057      2058      2053
 -1       678    8    0    1
 -2       265       266       418      1600      2059      2060
 -1       679    8    0    1
 -2       265       418       417      2060      2061      2056
 -1       680    8    0    1
 -2       266       267       419      1603      2062      2063
 -1       681    8    0    1
 -2       266       419       418      2063      2064      2059
 -1       682    8    0    1
 -2       267       268       420      1606      2065      2066
 -1       683    8    0    1
 -2       267       420       419      2066      2067      2062
 -1       684    8    0    1
 -2       268       269       421      1609      2068      2069
 -1       685    8    0    1
 -2       268       421       420      2069      2070      2065
 -1       686    8    0    1
 -2       269       270       422      1612      2071      2072
 -1       687    8    0    1
 -2       269       422       421      2072      2073      2068
 -1       688    8    0    1
 -2       270       271       423      1615      2074      2075
 -1       689    8    0    1
 -2       270       423       422      2075      2076      2071
 -1       690    8    0    1
 -2       271       272       424      1618      2077      2078
 -1       691    8    0    1
 -2       271       424       423      2078      2079      2074
 -1       692    8    0    1
 -2       272       273       425      1621      2080      2081
 -1       693    8    0    1
 -2       272       425       424      2081      2082      2077
 -1       694    8    0    1
 -2       273       274       426      1624      2083      2084
 -1       695    8    0    1
 -2       273       426       425      2084      2085      2080
 -1       696    8    0    1
 -2       274       275       427      1627      2086      2087
 -1       697    8    0    1
 -2       274       427       426      2087      2088      2083
 -1       698    8    0    1
 -2       275       276       428      1630      2089      2090
 -1       699    8    0    1
 -2       427       275       428      2086      2090      2091
 -1       700    8    0    1
 -2       276       277       428      1740      2092      2089
 -1       701    8    0    1
 -2       279       280       429      1642      2093      2094
 -1       702    8    0    1
 -2       278       279       430      1639      2095      2096
 -1       703    8    0    1
 -2       279       429       430      2094      2097      2095
 -1       704    8    0    1
 -2       277       278       431      1636      2098      2099
 -1       705    8    0    1
 -2       428       277       431      2092      2099      2100
 -1       706    8    0    1
 -2       278       430       431      2096      2101      2098
 -1       707    8    0    1
 -2       280       281       432      1645      2102      2103
 -1       708    8    0    1
 -2       280       432       429      2103      2104      2093
 -1       709    8    0    1
 -2       281       282       433      1648      2105      2106
 -1       710    8    0    1
 -2       281       433       432      2106      2107      2102
 -1       711    8    0    1
 -2       282       283       434      1651      2108      2109
 -1       712    8    0    1
 -2       282       434       433      2109      2110      2105
 -1       713    8    0    1
 -2       283       284       435      1654      2111      2112
 -1       714    8    0    1
 -2       283       435       434      2112      2113      2108
 -1       715    8    0    1
 -2       284       285       436      1657      2114      2115
 -1       716    8    0    1
 -2       284       436       435      2115      2116      2111
 -1       717    8    0    1
 -2       285       286       437      1660      2117      2118
 -1       718    8    0    1
 -2       285       437       436      2118      2119      2114
 -1       719    8    0    1
 -2       286       287       438      1663      2120      2121
 -1       720    8    0    1
 -2       286       438       437      2121      2122      2117
 -1       721    8    0    1
 -2       287       288       439      1666      2123      2124
 -1       722    8    0    1
 -2       287       439       438      2124      2125      2120
 -1       723    8    0    1
 -2       288       289       440      1669      2126      2127
 -1       724    8    0    1
 -2       288       440       439      2127      2128      2123
 -1       725    8    0    1
 -2       289       290       441      1672      2129      2130
 -1       726    8    0    1
 -2       289       441       440      2130      2131      2126
 -1       727    8    0    1
 -2       293       294       442      1742      2132      2133
 -1       728    8    0    1
 -2       321       292       443      1743      2134      2135
 -1       729    8    0    1
 -2       292       293       444      1741      2136      2137
 -1       730    8    0    1
 -2       293       442       444      2133      2138      2136
 -1       731    8    0    1
 -2       294       295       445      1738      2139      2140
 -1       732    8    0    1
 -2       295       296       446      1737      2141      2142
 -1       733    8    0    1
 -2       295       446       445      2142      2143      2139
 -1       734    8    0    1
 -2       167       168       447      1304      2144      2145
 -1       735    8    0    1
 -2       322       167       447      1770      2145      2146
 -1       736    8    0    1
 -2       168       324       447      1776      2147      2144
 -1       737    8    0    1
 -2       297       298       448      1745      2148      2149
 -1       738    8    0    1
 -2       298       299       449      1746      2150      2151
 -1       739    8    0    1
 -2       299       300       450      1747      2152      2153
 -1       740    8    0    1
 -2       300       301       451      1748      2154      2155
 -1       741    8    0    1
 -2       301       302       452      1749      2156      2157
 -1       742    8    0    1
 -2       301       452       451      2157      2158      2154
 -1       743    8    0    1
 -2       302       303       453      1750      2159      2160
 -1       744    8    0    1
 -2       303       304       454      1751      2161      2162
 -1       745    8    0    1
 -2       304       305       455      1752      2163      2164
 -1       746    8    0    1
 -2       305       306       456      1753      2165      2166
 -1       747    8    0    1
 -2       306       307       457      1754      2167      2168
 -1       748    8    0    1
 -2       307       308       458      1755      2169      2170
 -1       749    8    0    1
 -2       308       309       459      1756      2171      2172
 -1       750    8    0    1
 -2       309       310       460      1757      2173      2174
 -1       751    8    0    1
 -2       309       460       459      2174      2175      2171
 -1       752    8    0    1
 -2       310       311       461      1758      2176      2177
 -1       753    8    0    1
 -2       311       312       462      1759      2178      2179
 -1       754    8    0    1
 -2       312       313       463      1760      2180      2181
 -1       755    8    0    1
 -2       313       314       464      1761      2182      2183
 -1       756    8    0    1
 -2       313       464       463      2183      2184      2180
 -1       757    8    0    1
 -2       314       315       465      1762      2185      2186
 -1       758    8    0    1
 -2       315       316       466      1763      2187      2188
 -1       759    8    0    1
 -2       315       466       465      2188      2189      2185
 -1       760    8    0    1
 -2       316       317       467      1764      2190      2191
 -1       761    8    0    1
 -2       317       318       468      1765      2192      2193
 -1       762    8    0    1
 -2       317       468       467      2193      2194      2190
 -1       763    8    0    1
 -2       318       319       469      1766      2195      2196
 -1       764    8    0    1
 -2       319       320       470      1767      2197      2198
 -1       765    8    0    1
 -2       320       321       471      1768      2199      2200
 -1       766    8    0    1
 -2       296       297       472      1744      2201      2202
 -1       767    8    0    1
 -2       446       296       472      2141      2202      2203
 -1       768    8    0    1
 -2       181       323       182      1815      2204      1346
 -1       769    8    0    1
 -2       450       300       451      2152      2155      2205
 -1       770    8    0    1
 -2       297       448       472      2149      2206      2201
 -1       771    8    0    1
 -2       337       182       323      1816      2204      2207
 -1       772    8    0    1
 -2       443       292       444      2134      2137      2208
 -1       773    8    0    1
 -2       294       445       442      2140      2209      2132
 -1       774    8    0    1
 -2       441       290       291      2129      1675      2210
 -1       775    8    0    1
 -2       321       443       471      2135      2211      2199
 -1       776    8    0    1
 -2       470       320       471      2197      2200      2212
 -1       777    8    0    1
 -2       468       318       469      2192      2196      2213
 -1       778    8    0    1
 -2       466       316       467      2187      2191      2214
 -1       779    8    0    1
 -2       464       314       465      2182      2186      2215
 -1       780    8    0    1
 -2       462       312       463      2178      2181      2216
 -1       781    8    0    1
 -2       460       310       461      2173      2177      2217
 -1       782    8    0    1
 -2       458       308       459      2169      2172      2218
 -1       783    8    0    1
 -2       457       307       458      2167      2170      2219
 -1       784    8    0    1
 -2       456       306       457      2165      2168      2220
 -1       785    8    0    1
 -2       455       305       456      2163      2166      2221
 -1       786    8    0    1
 -2       454       304       455      2161      2164      2222
 -1       787    8    0    1
 -2       452       302       453      2156      2160      2223
 -1       788    8    0    1
 -2       448       298       473      2148      2224      2225
 -1       789    8    0    1
 -2       298       449       473      2151      2226      2224
 -1       790    8    0    1
 -2       449       299       450      2150      2153      2227
 -1       791    8    0    1
 -2       453       303       454      2159      2162      2228
 -1       792    8    0    1
 -2       461       311       462      2176      2179      2229
 -1       793    8    0    1
 -2       469       319       470      2195      2198      2230
 -1       794    8    0    1
 -2       336       383       474      1956      2231      2232
 -1       795    8    0    1
 -2       325       326       475      1782      2233      2234
 -1       796    8    0    1
 -2       324       325       476      1779      2235      2236
 -1       797    8    0    1
 -2       325       475       476      2234      2237      2235
 -1       798    8    0    1
 -2       327       328       477      1788      2238      2239
 -1       799    8    0    1
 -2       328       329       478      1791      2240      2241
 -1       800    8    0    1
 -2       328       478       477      2241      2242      2238
 -1       801    8    0    1
 -2       329       330       479      1794      2243      2244
 -1       802    8    0    1
 -2       329       479       478      2244      2245      2240
 -1       803    8    0    1
 -2       330       331       480      1797      2246      2247
 -1       804    8    0    1
 -2       330       480       479      2247      2248      2243
 -1       805    8    0    1
 -2       331       332       481      1800      2249      2250
 -1       806    8    0    1
 -2       331       481       480      2250      2251      2246
 -1       807    8    0    1
 -2       332       333       482      1803      2252      2253
 -1       808    8    0    1
 -2       332       482       481      2253      2254      2249
 -1       809    8    0    1
 -2       383       384       483      1959      2255      2256
 -1       810    8    0    1
 -2       383       483       474      2256      2257      2231
 -1       811    8    0    1
 -2       338       337       484      1820      2258      2259
 -1       812    8    0    1
 -2       450       451       485      2205      2260      2261
 -1       813    8    0    1
 -2       339       338       486      1823      2262      2263
 -1       814    8    0    1
 -2       338       484       486      2259      2264      2262
 -1       815    8    0    1
 -2       340       339       487      1826      2265      2266
 -1       816    8    0    1
 -2       339       486       487      2263      2267      2265
 -1       817    8    0    1
 -2       341       340       488      1829      2268      2269
 -1       818    8    0    1
 -2       340       487       488      2266      2270      2268
 -1       819    8    0    1
 -2       342       341       489      1832      2271      2272
 -1       820    8    0    1
 -2       341       488       489      2269      2273      2271
 -1       821    8    0    1
 -2       343       342       490      1835      2274      2275
 -1       822    8    0    1
 -2       342       489       490      2272      2276      2274
 -1       823    8    0    1
 -2       344       343       491      1838      2277      2278
 -1       824    8    0    1
 -2       343       490       491      2275      2279      2277
 -1       825    8    0    1
 -2       345       344       492      1841      2280      2281
 -1       826    8    0    1
 -2       344       491       492      2278      2282      2280
 -1       827    8    0    1
 -2       346       345       493      1844      2283      2284
 -1       828    8    0    1
 -2       345       492       493      2281      2285      2283
 -1       829    8    0    1
 -2       347       346       494      1847      2286      2287
 -1       830    8    0    1
 -2       346       493       494      2284      2288      2286
 -1       831    8    0    1
 -2       348       347       495      1850      2289      2290
 -1       832    8    0    1
 -2       347       494       495      2287      2291      2289
 -1       833    8    0    1
 -2       349       348       496      1853      2292      2293
 -1       834    8    0    1
 -2       348       495       496      2290      2294      2292
 -1       835    8    0    1
 -2       350       349       497      1856      2295      2296
 -1       836    8    0    1
 -2       349       496       497      2293      2297      2295
 -1       837    8    0    1
 -2       351       350       498      1859      2298      2299
 -1       838    8    0    1
 -2       350       497       498      2296      2300      2298
 -1       839    8    0    1
 -2       352       351       499      1862      2301      2302
 -1       840    8    0    1
 -2       351       498       499      2299      2303      2301
 -1       841    8    0    1
 -2       353       352       500      1865      2304      2305
 -1       842    8    0    1
 -2       352       499       500      2302      2306      2304
 -1       843    8    0    1
 -2       354       353       501      1868      2307      2308
 -1       844    8    0    1
 -2       353       500       501      2305      2309      2307
 -1       845    8    0    1
 -2       355       354       502      1871      2310      2311
 -1       846    8    0    1
 -2       354       501       502      2308      2312      2310
 -1       847    8    0    1
 -2       356       355       503      1874      2313      2314
 -1       848    8    0    1
 -2       355       502       503      2311      2315      2313
 -1       849    8    0    1
 -2       357       356       504      1877      2316      2317
 -1       850    8    0    1
 -2       356       503       504      2314      2318      2316
 -1       851    8    0    1
 -2       358       357       505      1880      2319      2320
 -1       852    8    0    1
 -2       357       504       505      2317      2321      2319
 -1       853    8    0    1
 -2       359       358       506      1883      2322      2323
 -1       854    8    0    1
 -2       358       505       506      2320      2324      2322
 -1       855    8    0    1
 -2       360       359       507      1886      2325      2326
 -1       856    8    0    1
 -2       359       506       507      2323      2327      2325
 -1       857    8    0    1
 -2       361       360       508      1889      2328      2329
 -1       858    8    0    1
 -2       360       507       508      2326      2330      2328
 -1       859    8    0    1
 -2       362       361       509      1892      2331      2332
 -1       860    8    0    1
 -2       361       508       509      2329      2333      2331
 -1       861    8    0    1
 -2       363       362       510      1895      2334      2335
 -1       862    8    0    1
 -2       362       509       510      2332      2336      2334
 -1       863    8    0    1
 -2       364       363       511      1898      2337      2338
 -1       864    8    0    1
 -2       363       510       511      2335      2339      2337
 -1       865    8    0    1
 -2       365       364       512      1901      2340      2341
 -1       866    8    0    1
 -2       364       511       512      2338      2342      2340
 -1       867    8    0    1
 -2       366       365       513      1904      2343      2344
 -1       868    8    0    1
 -2       365       512       513      2341      2345      2343
 -1       869    8    0    1
 -2       367       366       514      1907      2346      2347
 -1       870    8    0    1
 -2       366       513       514      2344      2348      2346
 -1       871    8    0    1
 -2       368       367       515      1910      2349      2350
 -1       872    8    0    1
 -2       367       514       515      2347      2351      2349
 -1       873    8    0    1
 -2       369       368       516      1913      2352      2353
 -1       874    8    0    1
 -2       368       515       516      2350      2354      2352
 -1       875    8    0    1
 -2       370       369       517      1916      2355      2356
 -1       876    8    0    1
 -2       369       516       517      2353      2357      2355
 -1       877    8    0    1
 -2       371       370       518      1919      2358      2359
 -1       878    8    0    1
 -2       370       517       518      2356      2360      2358
 -1       879    8    0    1
 -2       372       371       519      1922      2361      2362
 -1       880    8    0    1
 -2       371       518       519      2359      2363      2361
 -1       881    8    0    1
 -2       373       372       520      1925      2364      2365
 -1       882    8    0    1
 -2       372       519       520      2362      2366      2364
 -1       883    8    0    1
 -2       374       373       521      1928      2367      2368
 -1       884    8    0    1
 -2       373       520       521      2365      2369      2367
 -1       885    8    0    1
 -2       375       374       522      1931      2370      2371
 -1       886    8    0    1
 -2       374       521       522      2368      2372      2370
 -1       887    8    0    1
 -2       376       375       523      1934      2373      2374
 -1       888    8    0    1
 -2       375       522       523      2371      2375      2373
 -1       889    8    0    1
 -2       377       376       524      1937      2376      2377
 -1       890    8    0    1
 -2       376       523       524      2374      2378      2376
 -1       891    8    0    1
 -2       378       377       525      1940      2379      2380
 -1       892    8    0    1
 -2       377       524       525      2377      2381      2379
 -1       893    8    0    1
 -2       379       378       526      1943      2382      2383
 -1       894    8    0    1
 -2       378       525       526      2380      2384      2382
 -1       895    8    0    1
 -2       380       379       527      1946      2385      2386
 -1       896    8    0    1
 -2       379       526       527      2383      2387      2385
 -1       897    8    0    1
 -2       381       380       528      1949      2388      2389
 -1       898    8    0    1
 -2       380       527       528      2386      2390      2388
 -1       899    8    0    1
 -2       444       442       529      2138      2391      2392
 -1       900    8    0    1
 -2       385       386       530      1965      2393      2394
 -1       901    8    0    1
 -2       386       387       531      1968      2395      2396
 -1       902    8    0    1
 -2       386       531       530      2396      2397      2393
 -1       903    8    0    1
 -2       387       388       532      1971      2398      2399
 -1       904    8    0    1
 -2       387       532       531      2399      2400      2395
 -1       905    8    0    1
 -2       388       389       533      1974      2401      2402
 -1       906    8    0    1
 -2       388       533       532      2402      2403      2398
 -1       907    8    0    1
 -2       389       390       534      1977      2404      2405
 -1       908    8    0    1
 -2       389       534       533      2405      2406      2401
 -1       909    8    0    1
 -2       390       391       535      1980      2407      2408
 -1       910    8    0    1
 -2       390       535       534      2408      2409      2404
 -1       911    8    0    1
 -2       391       392       536      1983      2410      2411
 -1       912    8    0    1
 -2       391       536       535      2411      2412      2407
 -1       913    8    0    1
 -2       392       393       537      1986      2413      2414
 -1       914    8    0    1
 -2       392       537       536      2414      2415      2410
 -1       915    8    0    1
 -2       393       394       538      1989      2416      2417
 -1       916    8    0    1
 -2       393       538       537      2417      2418      2413
 -1       917    8    0    1
 -2       394       395       539      1992      2419      2420
 -1       918    8    0    1
 -2       394       539       538      2420      2421      2416
 -1       919    8    0    1
 -2       395       396       540      1995      2422      2423
 -1       920    8    0    1
 -2       395       540       539      2423      2424      2419
 -1       921    8    0    1
 -2       396       397       541      1998      2425      2426
 -1       922    8    0    1
 -2       396       541       540      2426      2427      2422
 -1       923    8    0    1
 -2       397       398       542      2001      2428      2429
 -1       924    8    0    1
 -2       397       542       541      2429      2430      2425
 -1       925    8    0    1
 -2       398       399       543      2004      2431      2432
 -1       926    8    0    1
 -2       398       543       542      2432      2433      2428
 -1       927    8    0    1
 -2       399       400       544      2007      2434      2435
 -1       928    8    0    1
 -2       399       544       543      2435      2436      2431
 -1       929    8    0    1
 -2       400       401       545      2010      2437      2438
 -1       930    8    0    1
 -2       400       545       544      2438      2439      2434
 -1       931    8    0    1
 -2       401       402       546      2013      2440      2441
 -1       932    8    0    1
 -2       401       546       545      2441      2442      2437
 -1       933    8    0    1
 -2       402       403       547      2016      2443      2444
 -1       934    8    0    1
 -2       402       547       546      2444      2445      2440
 -1       935    8    0    1
 -2       403       404       548      2019      2446      2447
 -1       936    8    0    1
 -2       403       548       547      2447      2448      2443
 -1       937    8    0    1
 -2       404       405       549      2022      2449      2450
 -1       938    8    0    1
 -2       404       549       548      2450      2451      2446
 -1       939    8    0    1
 -2       405       406       550      2025      2452      2453
 -1       940    8    0    1
 -2       405       550       549      2453      2454      2449
 -1       941    8    0    1
 -2       406       407       551      2028      2455      2456
 -1       942    8    0    1
 -2       406       551       550      2456      2457      2452
 -1       943    8    0    1
 -2       407       408       552      2031      2458      2459
 -1       944    8    0    1
 -2       407       552       551      2459      2460      2455
 -1       945    8    0    1
 -2       408       409       553      2034      2461      2462
 -1       946    8    0    1
 -2       408       553       552      2462      2463      2458
 -1       947    8    0    1
 -2       409       410       554      2037      2464      2465
 -1       948    8    0    1
 -2       409       554       553      2465      2466      2461
 -1       949    8    0    1
 -2       410       411       555      2040      2467      2468
 -1       950    8    0    1
 -2       410       555       554      2468      2469      2464
 -1       951    8    0    1
 -2       411       412       556      2043      2470      2471
 -1       952    8    0    1
 -2       411       556       555      2471      2472      2467
 -1       953    8    0    1
 -2       412       413       557      2046      2473      2474
 -1       954    8    0    1
 -2       412       557       556      2474      2475      2470
 -1       955    8    0    1
 -2       413       414       558      2049      2476      2477
 -1       956    8    0    1
 -2       413       558       557      2477      2478      2473
 -1       957    8    0    1
 -2       414       415       559      2052      2479      2480
 -1       958    8    0    1
 -2       414       559       558      2480      2481      2476
 -1       959    8    0    1
 -2       415       416       560      2055      2482      2483
 -1       960    8    0    1
 -2       415       560       559      2483      2484      2479
 -1       961    8    0    1
 -2       416       417       561      2058      2485      2486
 -1       962    8    0    1
 -2       416       561       560      2486      2487      2482
 -1       963    8    0    1
 -2       417       418       562      2061      2488      2489
 -1       964    8    0    1
 -2       417       562       561      2489      2490      2485
 -1       965    8    0    1
 -2       418       419       563      2064      2491      2492
 -1       966    8    0    1
 -2       418       563       562      2492      2493      2488
 -1       967    8    0    1
 -2       419       420       564      2067      2494      2495
 -1       968    8    0    1
 -2       419       564       563      2495      2496      2491
 -1       969    8    0    1
 -2       420       421       565      2070      2497      2498
 -1       970    8    0    1
 -2       420       565       564      2498      2499      2494
 -1       971    8    0    1
 -2       421       422       566      2073      2500      2501
 -1       972    8    0    1
 -2       421       566       565      2501      2502      2497
 -1       973    8    0    1
 -2       422       423       567      2076      2503      2504
 -1       974    8    0    1
 -2       422       567       566      2504      2505      2500
 -1       975    8    0    1
 -2       423       424       568      2079      2506      2507
 -1       976    8    0    1
 -2       423       568       567      2507      2508      2503
 -1       977    8    0    1
 -2       424       425       569      2082      2509      2510
 -1       978    8    0    1
 -2       424       569       568      2510      2511      2506
 -1       979    8    0    1
 -2       425       426       570      2085      2512      2513
 -1       980    8    0    1
 -2       425       570       569      2513      2514      2509
 -1       981    8    0    1
 -2       426       427       571      2088      2515      2516
 -1       982    8    0    1
 -2       426       571       570      2516      2517      2512
 -1       983    8    0    1
 -2       427       428       431      2091      2100      2518
 -1       984    8    0    1
 -2       432       433       572      2107      2519      2520
 -1       985    8    0    1
 -2       433       434       573      2110      2521      2522
 -1       986    8    0    1
 -2       433       573       572      2522      2523      2519
 -1       987    8    0    1
 -2       430       429       574      2097      2524      2525
 -1       988    8    0    1
 -2       429       432       575      2104      2526      2527
 -1       989    8    0    1
 -2       574       429       575      2524      2527      2528
 -1       990    8    0    1
 -2       432       572       575      2520      2529      2526
 -1       991    8    0    1
 -2       434       435       576      2113      2530      2531
 -1       992    8    0    1
 -2       434       576       573      2531      2532      2521
 -1       993    8    0    1
 -2       435       436       577      2116      2533      2534
 -1       994    8    0    1
 -2       435       577       576      2534      2535      2530
 -1       995    8    0    1
 -2       436       437       578      2119      2536      2537
 -1       996    8    0    1
 -2       436       578       577      2537      2538      2533
 -1       997    8    0    1
 -2       437       438       579      2122      2539      2540
 -1       998    8    0    1
 -2       437       579       578      2540      2541      2536
 -1       999    8    0    1
 -2       438       439       580      2125      2542      2543
 -1      1000    8    0    1
 -2       438       580       579      2543      2544      2539
 -1      1001    8    0    1
 -2       439       440       581      2128      2545      2546
 -1      1002    8    0    1
 -2       439       581       580      2546      2547      2542
 -1      1003    8    0    1
 -2       440       441       582      2131      2548      2549
 -1      1004    8    0    1
 -2       440       582       581      2549      2550      2545
 -1      1005    8    0    1
 -2       441       291       382      2210      1952      2551
 -1      1006    8    0    1
 -2       471       443       583      2211      2552      2553
 -1      1007    8    0    1
 -2       384       385       584      1962      2554      2555
 -1      1008    8    0    1
 -2       385       530       584      2394      2556      2554
 -1      1009    8    0    1
 -2       442       445       585      2209      2557      2558
 -1      1010    8    0    1
 -2       445       446       586      2143      2559      2560
 -1      1011    8    0    1
 -2       337       323       587      2207      2561      2562
 -1      1012    8    0    1
 -2       484       337       587      2258      2562      2563
 -1      1013    8    0    1
 -2       323       322       587      1774      2564      2561
 -1      1014    8    0    1
 -2       470       471       588      2212      2565      2566
 -1      1015    8    0    1
 -2       462       463       589      2216      2567      2568
 -1      1016    8    0    1
 -2       458       459       590      2218      2569      2570
 -1      1017    8    0    1
 -2       326       327       591      1785      2571      2572
 -1      1018    8    0    1
 -2       475       326       591      2233      2572      2573
 -1      1019    8    0    1
 -2       327       477       591      2239      2574      2571
 -1      1020    8    0    1
 -2       449       450       592      2227      2575      2576
 -1      1021    8    0    1
 -2       453       454       593      2228      2577      2578
 -1      1022    8    0    1
 -2       472       448       594      2206      2579      2580
 -1      1023    8    0    1
 -2       451       452       595      2158      2581      2582
 -1      1024    8    0    1
 -2       451       595       485      2582      2583      2260
 -1      1025    8    0    1
 -2       461       462       596      2229      2584      2585
 -1      1026    8    0    1
 -2       452       453       597      2223      2586      2587
 -1      1027    8    0    1
 -2       454       455       598      2222      2588      2589
 -1      1028    8    0    1
 -2       455       456       599      2221      2590      2591
 -1      1029    8    0    1
 -2       456       457       600      2220      2592      2593
 -1      1030    8    0    1
 -2       457       458       601      2219      2594      2595
 -1      1031    8    0    1
 -2       459       460       602      2175      2596      2597
 -1      1032    8    0    1
 -2       469       470       603      2230      2598      2599
 -1      1033    8    0    1
 -2       460       461       604      2217      2600      2601
 -1      1034    8    0    1
 -2       463       464       605      2184      2602      2603
 -1      1035    8    0    1
 -2       464       465       606      2215      2604      2605
 -1      1036    8    0    1
 -2       465       466       607      2189      2606      2607
 -1      1037    8    0    1
 -2       466       467       608      2214      2608      2609
 -1      1038    8    0    1
 -2       467       468       609      2194      2610      2611
 -1      1039    8    0    1
 -2       468       469       610      2213      2612      2613
 -1      1040    8    0    1
 -2       443       444       611      2208      2614      2615
 -1      1041    8    0    1
 -2       335       336       612      1814      2616      2617
 -1      1042    8    0    1
 -2       334       335       612      1809      2617      2618
 -1      1043    8    0    1
 -2       336       474       612      2232      2619      2616
 -1      1044    8    0    1
 -2       446       472       613      2203      2620      2621
 -1      1045    8    0    1
 -2       446       613       586      2621      2622      2559
 -1      1046    8    0    1
 -2       449       592       473      2576      2623      2226
 -1      1047    8    0    1
 -2       324       476       614      2236      2624      2625
 -1      1048    8    0    1
 -2       324       614       447      2625      2626      2147
 -1      1049    8    0    1
 -2       483       384       584      2255      2555      2627
 -1      1050    8    0    1
 -2       333       334       612      1806      2618      2628
 -1      1051    8    0    1
 -2       613       472       594      2620      2580      2629
 -1      1052    8    0    1
 -2       607       466       608      2606      2609      2630
 -1      1053    8    0    1
 -2       606       465       607      2604      2607      2631
 -1      1054    8    0    1
 -2       605       464       606      2602      2605      2632
 -1      1055    8    0    1
 -2       588       471       583      2565      2553      2633
 -1      1056    8    0    1
 -2       450       485       615      2261      2634      2635
 -1      1057    8    0    1
 -2       450       615       592      2635      2636      2575
 -1      1058    8    0    1
 -2       604       461       596      2600      2585      2637
 -1      1059    8    0    1
 -2       603       470       588      2598      2566      2638
 -1      1060    8    0    1
 -2       529       442       585      2391      2558      2639
 -1      1061    8    0    1
 -2       427       431       571      2518      2640      2515
 -1      1062    8    0    1
 -2       431       430       571      2101      2641      2640
 -1      1063    8    0    1
 -2       602       460       604      2596      2601      2642
 -1      1064    8    0    1
 -2       441       382       616      2551      2643      2644
 -1      1065    8    0    1
 -2       582       441       616      2548      2644      2645
 -1      1066    8    0    1
 -2       382       381       616      1953      2646      2643
 -1      1067    8    0    1
 -2       601       458       590      2594      2570      2647
 -1      1068    8    0    1
 -2       600       457       601      2592      2595      2648
 -1      1069    8    0    1
 -2       583       443       611      2552      2615      2649
 -1      1070    8    0    1
 -2       333       612       482      2628      2650      2252
 -1      1071    8    0    1
 -2       585       445       586      2557      2560      2651
 -1      1072    8    0    1
 -2       599       456       600      2590      2593      2652
 -1      1073    8    0    1
 -2       322       447       617      2146      2653      2654
 -1      1074    8    0    1
 -2       587       322       617      2564      2654      2655
 -1      1075    8    0    1
 -2       447       614       617      2626      2656      2653
 -1      1076    8    0    1
 -2       611       444       529      2614      2392      2657
 -1      1077    8    0    1
 -2       610       469       603      2612      2599      2658
 -1      1078    8    0    1
 -2       609       468       610      2610      2613      2659
 -1      1079    8    0    1
 -2       608       467       609      2608      2611      2660
 -1      1080    8    0    1
 -2       589       463       605      2567      2603      2661
 -1      1081    8    0    1
 -2       462       589       596      2568      2662      2584
 -1      1082    8    0    1
 -2       598       455       599      2588      2591      2663
 -1      1083    8    0    1
 -2       597       453       593      2586      2578      2664
 -1      1084    8    0    1
 -2       595       452       597      2581      2587      2665
 -1      1085    8    0    1
 -2       594       448       473      2579      2225      2666
 -1      1086    8    0    1
 -2       590       459       602      2569      2597      2667
 -1      1087    8    0    1
 -2       593       454       598      2577      2589      2668
 -1      1088    8    0    1
 -2       571       430       574      2641      2525      2669
 -1      1089    8    0    1
 -2       616       381       528      2646      2389      2670
 -1      1090    8    0    1
 -2       478       479       618      2245      2671      2672
 -1      1091    8    0    1
 -2       477       478       619      2242      2673      2674
 -1      1092    8    0    1
 -2       478       618       619      2672      2675      2673
 -1      1093    8    0    1
 -2       480       481       620      2251      2676      2677
 -1      1094    8    0    1
 -2       481       482       621      2254      2678      2679
 -1      1095    8    0    1
 -2       481       621       620      2679      2680      2676
 -1      1096    8    0    1
 -2       474       483       622      2257      2681      2682
 -1      1097    8    0    1
 -2       585       586       623      2651      2683      2684
 -1      1098    8    0    1
 -2       487       486       624      2267      2685      2686
 -1      1099    8    0    1
 -2       488       487       625      2270      2687      2688
 -1      1100    8    0    1
 -2       487       624       625      2686      2689      2687
 -1      1101    8    0    1
 -2       489       488       626      2273      2690      2691
 -1      1102    8    0    1
 -2       488       625       626      2688      2692      2690
 -1      1103    8    0    1
 -2       490       489       627      2276      2693      2694
 -1      1104    8    0    1
 -2       489       626       627      2691      2695      2693
 -1      1105    8    0    1
 -2       491       490       628      2279      2696      2697
 -1      1106    8    0    1
 -2       490       627       628      2694      2698      2696
 -1      1107    8    0    1
 -2       492       491       629      2282      2699      2700
 -1      1108    8    0    1
 -2       491       628       629      2697      2701      2699
 -1      1109    8    0    1
 -2       493       492       630      2285      2702      2703
 -1      1110    8    0    1
 -2       492       629       630      2700      2704      2702
 -1      1111    8    0    1
 -2       494       493       631      2288      2705      2706
 -1      1112    8    0    1
 -2       493       630       631      2703      2707      2705
 -1      1113    8    0    1
 -2       495       494       632      2291      2708      2709
 -1      1114    8    0    1
 -2       494       631       632      2706      2710      2708
 -1      1115    8    0    1
 -2       496       495       633      2294      2711      2712
 -1      1116    8    0    1
 -2       495       632       633      2709      2713      2711
 -1      1117    8    0    1
 -2       497       496       634      2297      2714      2715
 -1      1118    8    0    1
 -2       496       633       634      2712      2716      2714
 -1      1119    8    0    1
 -2       498       497       635      2300      2717      2718
 -1      1120    8    0    1
 -2       497       634       635      2715      2719      2717
 -1      1121    8    0    1
 -2       499       498       636      2303      2720      2721
 -1      1122    8    0    1
 -2       498       635       636      2718      2722      2720
 -1      1123    8    0    1
 -2       500       499       637      2306      2723      2724
 -1      1124    8    0    1
 -2       499       636       637      2721      2725      2723
 -1      1125    8    0    1
 -2       501       500       638      2309      2726      2727
 -1      1126    8    0    1
 -2       500       637       638      2724      2728      2726
 -1      1127    8    0    1
 -2       502       501       639      2312      2729      2730
 -1      1128    8    0    1
 -2       501       638       639      2727      2731      2729
 -1      1129    8    0    1
 -2       503       502       640      2315      2732      2733
 -1      1130    8    0    1
 -2       502       639       640      2730      2734      2732
 -1      1131    8    0    1
 -2       504       503       641      2318      2735      2736
 -1      1132    8    0    1
 -2       503       640       641      2733      2737      2735
 -1      1133    8    0    1
 -2       505       504       642      2321      2738      2739
 -1      1134    8    0    1
 -2       504       641       642      2736      2740      2738
 -1      1135    8    0    1
 -2       506       505       643      2324      2741      2742
 -1      1136    8    0    1
 -2       505       642       643      2739      2743      2741
 -1      1137    8    0    1
 -2       507       506       644      2327      2744      2745
 -1      1138    8    0    1
 -2       506       643       644      2742      2746      2744
 -1      1139    8    0    1
 -2       508       507       645      2330      2747      2748
 -1      1140    8    0    1
 -2       507       644       645      2745      2749      2747
 -1      1141    8    0    1
 -2       509       508       646      2333      2750      2751
 -1      1142    8    0    1
 -2       508       645       646      2748      2752      2750
 -1      1143    8    0    1
 -2       510       509       647      2336      2753      2754
 -1      1144    8    0    1
 -2       509       646       647      2751      2755      2753
 -1      1145    8    0    1
 -2       511       510       648      2339      2756      2757
 -1      1146    8    0    1
 -2       510       647       648      2754      2758      2756
 -1      1147    8    0    1
 -2       512       511       649      2342      2759      2760
 -1      1148    8    0    1
 -2       511       648       649      2757      2761      2759
 -1      1149    8    0    1
 -2       513       512       650      2345      2762      2763
 -1      1150    8    0    1
 -2       512       649       650      2760      2764      2762
 -1      1151    8    0    1
 -2       514       513       651      2348      2765      2766
 -1      1152    8    0    1
 -2       513       650       651      2763      2767      2765
 -1      1153    8    0    1
 -2       515       514       652      2351      2768      2769
 -1      1154    8    0    1
 -2       514       651       652      2766      2770      2768
 -1      1155    8    0    1
 -2       516       515       653      2354      2771      2772
 -1      1156    8    0    1
 -2       515       652       653      2769      2773      2771
 -1      1157    8    0    1
 -2       517       516       654      2357      2774      2775
 -1      1158    8    0    1
 -2       516       653       654      2772      2776      2774
 -1      1159    8    0    1
 -2       518       517       655      2360      2777      2778
 -1      1160    8    0    1
 -2       517       654       655      2775      2779      2777
 -1      1161    8    0    1
 -2       519       518       656      2363      2780      2781
 -1      1162    8    0    1
 -2       518       655       656      2778      2782      2780
 -1      1163    8    0    1
 -2       520       519       657      2366      2783      2784
 -1      1164    8    0    1
 -2       519       656       657      2781      2785      2783
 -1      1165    8    0    1
 -2       521       520       658      2369      2786      2787
 -1      1166    8    0    1
 -2       520       657       658      2784      2788      2786
 -1      1167    8    0    1
 -2       522       521       659      2372      2789      2790
 -1      1168    8    0    1
 -2       521       658       659      2787      2791      2789
 -1      1169    8    0    1
 -2       523       522       660      2375      2792      2793
 -1      1170    8    0    1
 -2       522       659       660      2790      2794      2792
 -1      1171    8    0    1
 -2       524       523       661      2378      2795      2796
 -1      1172    8    0    1
 -2       523       660       661      2793      2797      2795
 -1      1173    8    0    1
 -2       525       524       662      2381      2798      2799
 -1      1174    8    0    1
 -2       524       661       662      2796      2800      2798
 -1      1175    8    0    1
 -2       526       525       663      2384      2801      2802
 -1      1176    8    0    1
 -2       525       662       663      2799      2803      2801
 -1      1177    8    0    1
 -2       527       526       664      2387      2804      2805
 -1      1178    8    0    1
 -2       526       663       664      2802      2806      2804
 -1      1179    8    0    1
 -2       528       527       665      2390      2807      2808
 -1      1180    8    0    1
 -2       527       664       665      2805      2809      2807
 -1      1181    8    0    1
 -2       601       590       666      2647      2810      2811
 -1      1182    8    0    1
 -2       602       604       667      2642      2812      2813
 -1      1183    8    0    1
 -2       530       531       668      2397      2814      2815
 -1      1184    8    0    1
 -2       533       534       669      2406      2816      2817
 -1      1185    8    0    1
 -2       534       535       670      2409      2818      2819
 -1      1186    8    0    1
 -2       534       670       669      2819      2820      2816
 -1      1187    8    0    1
 -2       535       536       671      2412      2821      2822
 -1      1188    8    0    1
 -2       535       671       670      2822      2823      2818
 -1      1189    8    0    1
 -2       536       537       672      2415      2824      2825
 -1      1190    8    0    1
 -2       536       672       671      2825      2826      2821
 -1      1191    8    0    1
 -2       537       538       673      2418      2827      2828
 -1      1192    8    0    1
 -2       537       673       672      2828      2829      2824
 -1      1193    8    0    1
 -2       538       539       674      2421      2830      2831
 -1      1194    8    0    1
 -2       538       674       673      2831      2832      2827
 -1      1195    8    0    1
 -2       539       540       675      2424      2833      2834
 -1      1196    8    0    1
 -2       539       675       674      2834      2835      2830
 -1      1197    8    0    1
 -2       540       541       676      2427      2836      2837
 -1      1198    8    0    1
 -2       540       676       675      2837      2838      2833
 -1      1199    8    0    1
 -2       541       542       677      2430      2839      2840
 -1      1200    8    0    1
 -2       541       677       676      2840      2841      2836
 -1      1201    8    0    1
 -2       542       543       678      2433      2842      2843
 -1      1202    8    0    1
 -2       542       678       677      2843      2844      2839
 -1      1203    8    0    1
 -2       543       544       679      2436      2845      2846
 -1      1204    8    0    1
 -2       543       679       678      2846      2847      2842
 -1      1205    8    0    1
 -2       544       545       680      2439      2848      2849
 -1      1206    8    0    1
 -2       544       680       679      2849      2850      2845
 -1      1207    8    0    1
 -2       545       546       681      2442      2851      2852
 -1      1208    8    0    1
 -2       545       681       680      2852      2853      2848
 -1      1209    8    0    1
 -2       546       547       682      2445      2854      2855
 -1      1210    8    0    1
 -2       546       682       681      2855      2856      2851
 -1      1211    8    0    1
 -2       547       548       683      2448      2857      2858
 -1      1212    8    0    1
 -2       547       683       682      2858      2859      2854
 -1      1213    8    0    1
 -2       548       549       684      2451      2860      2861
 -1      1214    8    0    1
 -2       548       684       683      2861      2862      2857
 -1      1215    8    0    1
 -2       549       550       685      2454      2863      2864
 -1      1216    8    0    1
 -2       549       685       684      2864      2865      2860
 -1      1217    8    0    1
 -2       550       551       686      2457      2866      2867
 -1      1218    8    0    1
 -2       550       686       685      2867      2868      2863
 -1      1219    8    0    1
 -2       551       552       687      2460      2869      2870
 -1      1220    8    0    1
 -2       551       687       686      2870      2871      2866
 -1      1221    8    0    1
 -2       552       553       688      2463      2872      2873
 -1      1222    8    0    1
 -2       552       688       687      2873      2874      2869
 -1      1223    8    0    1
 -2       553       554       689      2466      2875      2876
 -1      1224    8    0    1
 -2       553       689       688      2876      2877      2872
 -1      1225    8    0    1
 -2       554       555       690      2469      2878      2879
 -1      1226    8    0    1
 -2       554       690       689      2879      2880      2875
 -1      1227    8    0    1
 -2       555       556       691      2472      2881      2882
 -1      1228    8    0    1
 -2       555       691       690      2882      2883      2878
 -1      1229    8    0    1
 -2       556       557       692      2475      2884      2885
 -1      1230    8    0    1
 -2       556       692       691      2885      2886      2881
 -1      1231    8    0    1
 -2       557       558       693      2478      2887      2888
 -1      1232    8    0    1
 -2       557       693       692      2888      2889      2884
 -1      1233    8    0    1
 -2       558       559       694      2481      2890      2891
 -1      1234    8    0    1
 -2       558       694       693      2891      2892      2887
 -1      1235    8    0    1
 -2       559       560       695      2484      2893      2894
 -1      1236    8    0    1
 -2       559       695       694      2894      2895      2890
 -1      1237    8    0    1
 -2       560       561       696      2487      2896      2897
 -1      1238    8    0    1
 -2       560       696       695      2897      2898      2893
 -1      1239    8    0    1
 -2       561       562       697      2490      2899      2900
 -1      1240    8    0    1
 -2       561       697       696      2900      2901      2896
 -1      1241    8    0    1
 -2       562       563       698      2493      2902      2903
 -1      1242    8    0    1
 -2       562       698       697      2903      2904      2899
 -1      1243    8    0    1
 -2       563       564       699      2496      2905      2906
 -1      1244    8    0    1
 -2       563       699       698      2906      2907      2902
 -1      1245    8    0    1
 -2       564       565       700      2499      2908      2909
 -1      1246    8    0    1
 -2       564       700       699      2909      2910      2905
 -1      1247    8    0    1
 -2       565       566       701      2502      2911      2912
 -1      1248    8    0    1
 -2       565       701       700      2912      2913      2908
 -1      1249    8    0    1
 -2       566       567       702      2505      2914      2915
 -1      1250    8    0    1
 -2       566       702       701      2915      2916      2911
 -1      1251    8    0    1
 -2       567       568       703      2508      2917      2918
 -1      1252    8    0    1
 -2       567       703       702      2918      2919      2914
 -1      1253    8    0    1
 -2       568       569       704      2511      2920      2921
 -1      1254    8    0    1
 -2       568       704       703      2921      2922      2917
 -1      1255    8    0    1
 -2       569       570       705      2514      2923      2924
 -1      1256    8    0    1
 -2       569       705       704      2924      2925      2920
 -1      1257    8    0    1
 -2       570       571       706      2517      2926      2927
 -1      1258    8    0    1
 -2       705       570       706      2923      2927      2928
 -1      1259    8    0    1
 -2       571       574       706      2669      2929      2926
 -1      1260    8    0    1
 -2       576       577       707      2535      2930      2931
 -1      1261    8    0    1
 -2       616       528       708      2670      2932      2933
 -1      1262    8    0    1
 -2       528       665       708      2808      2934      2932
 -1      1263    8    0    1
 -2       572       573       709      2523      2935      2936
 -1      1264    8    0    1
 -2       577       578       710      2538      2937      2938
 -1      1265    8    0    1
 -2       577       710       707      2938      2939      2930
 -1      1266    8    0    1
 -2       573       576       711      2532      2940      2941
 -1      1267    8    0    1
 -2       709       573       711      2935      2941      2942
 -1      1268    8    0    1
 -2       576       707       711      2931      2943      2940
 -1      1269    8    0    1
 -2       473       592       712      2623      2944      2945
 -1      1270    8    0    1
 -2       578       579       713      2541      2946      2947
 -1      1271    8    0    1
 -2       578       713       710      2947      2948      2937
 -1      1272    8    0    1
 -2       579       580       714      2544      2949      2950
 -1      1273    8    0    1
 -2       579       714       713      2950      2951      2946
 -1      1274    8    0    1
 -2       580       581       715      2547      2952      2953
 -1      1275    8    0    1
 -2       580       715       714      2953      2954      2949
 -1      1276    8    0    1
 -2       584       530       716      2556      2955      2956
 -1      1277    8    0    1
 -2       530       668       716      2815      2957      2955
 -1      1278    8    0    1
 -2       599       600       717      2652      2958      2959
 -1      1279    8    0    1
 -2       484       587       718      2563      2960      2961
 -1      1280    8    0    1
 -2       587       617       718      2655      2962      2960
 -1      1281    8    0    1
 -2       612       474       482      2619      2963      2650
 -1      1282    8    0    1
 -2       600       601       719      2648      2964      2965
 -1      1283    8    0    1
 -2       601       666       719      2811      2966      2964
 -1      1284    8    0    1
 -2       532       533       720      2403      2967      2968
 -1      1285    8    0    1
 -2       533       669       720      2817      2969      2967
 -1      1286    8    0    1
 -2       531       532       721      2400      2970      2971
 -1      1287    8    0    1
 -2       532       720       721      2968      2972      2970
 -1      1288    8    0    1
 -2       486       484       722      2264      2973      2974
 -1      1289    8    0    1
 -2       624       486       722      2685      2974      2975
 -1      1290    8    0    1
 -2       484       718       722      2961      2976      2973
 -1      1291    8    0    1
 -2       611       529       723      2657      2977      2978
 -1      1292    8    0    1
 -2       590       602       724      2667      2979      2980
 -1      1293    8    0    1
 -2       529       585       725      2639      2981      2982
 -1      1294    8    0    1
 -2       483       584       726      2627      2983      2984
 -1      1295    8    0    1
 -2       622       483       726      2681      2984      2985
 -1      1296    8    0    1
 -2       584       716       726      2956      2986      2983
 -1      1297    8    0    1
 -2       603       588       727      2638      2987      2988
 -1      1298    8    0    1
 -2       479       480       728      2248      2989      2990
 -1      1299    8    0    1
 -2       618       479       728      2671      2990      2991
 -1      1300    8    0    1
 -2       480       620       728      2677      2992      2989
 -1      1301    8    0    1
 -2       595       597       729      2665      2993      2994
 -1      1302    8    0    1
 -2       607       608       730      2630      2995      2996
 -1      1303    8    0    1
 -2       485       595       731      2583      2997      2998
 -1      1304    8    0    1
 -2       595       729       731      2994      2999      2997
 -1      1305    8    0    1
 -2       598       599       732      2663      3000      3001
 -1      1306    8    0    1
 -2       476       475       733      2237      3002      3003
 -1      1307    8    0    1
 -2       594       473       734      2666      3004      3005
 -1      1308    8    0    1
 -2       473       712       734      2945      3006      3004
 -1      1309    8    0    1
 -2       597       593       735      2664      3007      3008
 -1      1310    8    0    1
 -2       583       611       736      2649      3009      3010
 -1      1311    8    0    1
 -2       611       723       736      2978      3011      3009
 -1      1312    8    0    1
 -2       593       598       737      2668      3012      3013
 -1      1313    8    0    1
 -2       609       610       738      2659      3014      3015
 -1      1314    8    0    1
 -2       604       596       739      2637      3016      3017
 -1      1315    8    0    1
 -2       582       616       708      2645      2933      3018
 -1      1316    8    0    1
 -2       596       589       740      2662      3019      3020
 -1      1317    8    0    1
 -2       588       583       741      2633      3021      3022
 -1      1318    8    0    1
 -2       605       606       648      2632      3023      3024
 -1      1319    8    0    1
 -2       606       607       742      2631      3025      3026
 -1      1320    8    0    1
 -2       607       730       742      2996      3027      3025
 -1      1321    8    0    1
 -2       608       609       743      2660      3028      3029
 -1      1322    8    0    1
 -2       610       603       744      2658      3030      3031
 -1      1323    8    0    1
 -2       586       613       745      2622      3032      3033
 -1      1324    8    0    1
 -2       613       594       746      2629      3034      3035
 -1      1325    8    0    1
 -2       614       476       747      2624      3036      3037
 -1      1326    8    0    1
 -2       476       733       747      3003      3038      3036
 -1      1327    8    0    1
 -2       477       619       748      2674      3039      3040
 -1      1328    8    0    1
 -2       477       748       591      3040      3041      2574
 -1      1329    8    0    1
 -2       727       588       741      2987      3022      3042
 -1      1330    8    0    1
 -2       585       623       725      2684      3043      2981
 -1      1331    8    0    1
 -2       615       485       749      2634      3044      3045
 -1      1332    8    0    1
 -2       485       731       749      2998      3046      3044
 -1      1333    8    0    1
 -2       598       732       737      3001      3047      3012
 -1      1334    8    0    1
 -2       572       709       750      2936      3048      3049
 -1      1335    8    0    1
 -2       572       750       575      3049      3050      2529
 -1      1336    8    0    1
 -2       666       590       724      2810      2980      3051
 -1      1337    8    0    1
 -2       602       667       751      2813      3052      3053
 -1      1338    8    0    1
 -2       602       751       724      3053      3054      2979
 -1      1339    8    0    1
 -2       599       717       732      2959      3055      3000
 -1      1340    8    0    1
 -2       531       721       668      2971      3056      2814
 -1      1341    8    0    1
 -2       746       594       734      3034      3005      3057
 -1      1342    8    0    1
 -2       596       740       739      3020      3058      3016
 -1      1343    8    0    1
 -2       712       592       615      2944      2636      3059
 -1      1344    8    0    1
 -2       574       575       752      2528      3060      3061
 -1      1345    8    0    1
 -2       706       574       752      2929      3061      3062
 -1      1346    8    0    1
 -2       575       750       752      3050      3063      3060
 -1      1347    8    0    1
 -2       745       613       746      3032      3035      3064
 -1      1348    8    0    1
 -2       729       597       753      2993      3065      3066
 -1      1349    8    0    1
 -2       597       735       753      3008      3067      3065
 -1      1350    8    0    1
 -2       603       727       744      2988      3068      3030
 -1      1351    8    0    1
 -2       581       582       708      2550      3018      3069
 -1      1352    8    0    1
 -2       581       708       754      3069      3070      3071
 -1      1353    8    0    1
 -2       715       581       754      2952      3071      3072
 -1      1354    8    0    1
 -2       708       665       754      2934      3073      3070
 -1      1355    8    0    1
 -2       717       600       719      2958      2965      3074
 -1      1356    8    0    1
 -2       741       583       736      3021      3010      3075
 -1      1357    8    0    1
 -2       738       610       744      3014      3031      3076
 -1      1358    8    0    1
 -2       593       737       735      3013      3077      3007
 -1      1359    8    0    1
 -2       667       604       739      2812      3017      3078
 -1      1360    8    0    1
 -2       723       529       725      2977      2982      3079
 -1      1361    8    0    1
 -2       623       586       745      2683      3033      3080
 -1      1362    8    0    1
 -2       475       591       755      2573      3081      3082
 -1      1363    8    0    1
 -2       733       475       755      3002      3082      3083
 -1      1364    8    0    1
 -2       591       748       755      3041      3084      3081
 -1      1365    8    0    1
 -2       621       482       622      2678      3085      3086
 -1      1366    8    0    1
 -2       730       608       743      2995      3029      3087
 -1      1367    8    0    1
 -2       482       474       622      2963      2682      3085
 -1      1368    8    0    1
 -2       609       738       743      3015      3088      3028
 -1      1369    8    0    1
 -2       740       589       756      3019      3089      3090
 -1      1370    8    0    1
 -2       589       605       756      2661      3091      3089
 -1      1371    8    0    1
 -2       620       621       757      2680      3092      3093
 -1      1372    8    0    1
 -2       626       625       758      2692      3094      3095
 -1      1373    8    0    1
 -2       627       626       759      2695      3096      3097
 -1      1374    8    0    1
 -2       626       758       759      3095      3098      3096
 -1      1375    8    0    1
 -2       628       627       760      2698      3099      3100
 -1      1376    8    0    1
 -2       627       759       760      3097      3101      3099
 -1      1377    8    0    1
 -2       629       628       761      2701      3102      3103
 -1      1378    8    0    1
 -2       628       760       761      3100      3104      3102
 -1      1379    8    0    1
 -2       630       629       762      2704      3105      3106
 -1      1380    8    0    1
 -2       629       761       762      3103      3107      3105
 -1      1381    8    0    1
 -2       631       630       763      2707      3108      3109
 -1      1382    8    0    1
 -2       630       762       763      3106      3110      3108
 -1      1383    8    0    1
 -2       632       631       764      2710      3111      3112
 -1      1384    8    0    1
 -2       631       763       764      3109      3113      3111
 -1      1385    8    0    1
 -2       633       632       765      2713      3114      3115
 -1      1386    8    0    1
 -2       632       764       765      3112      3116      3114
 -1      1387    8    0    1
 -2       634       633       766      2716      3117      3118
 -1      1388    8    0    1
 -2       633       765       766      3115      3119      3117
 -1      1389    8    0    1
 -2       635       634       767      2719      3120      3121
 -1      1390    8    0    1
 -2       634       766       767      3118      3122      3120
 -1      1391    8    0    1
 -2       636       635       768      2722      3123      3124
 -1      1392    8    0    1
 -2       635       767       768      3121      3125      3123
 -1      1393    8    0    1
 -2       637       636       769      2725      3126      3127
 -1      1394    8    0    1
 -2       636       768       769      3124      3128      3126
 -1      1395    8    0    1
 -2       638       637       770      2728      3129      3130
 -1      1396    8    0    1
 -2       637       769       770      3127      3131      3129
 -1      1397    8    0    1
 -2       639       638       771      2731      3132      3133
 -1      1398    8    0    1
 -2       638       770       771      3130      3134      3132
 -1      1399    8    0    1
 -2       640       639       772      2734      3135      3136
 -1      1400    8    0    1
 -2       639       771       772      3133      3137      3135
 -1      1401    8    0    1
 -2       641       640       773      2737      3138      3139
 -1      1402    8    0    1
 -2       640       772       773      3136      3140      3138
 -1      1403    8    0    1
 -2       642       641       774      2740      3141      3142
 -1      1404    8    0    1
 -2       641       773       774      3139      3143      3141
 -1      1405    8    0    1
 -2       643       642       775      2743      3144      3145
 -1      1406    8    0    1
 -2       642       774       775      3142      3146      3144
 -1      1407    8    0    1
 -2       644       643       776      2746      3147      3148
 -1      1408    8    0    1
 -2       643       775       776      3145      3149      3147
 -1      1409    8    0    1
 -2       645       644       777      2749      3150      3151
 -1      1410    8    0    1
 -2       644       776       777      3148      3152      3150
 -1      1411    8    0    1
 -2       647       646       778      2755      3153      3154
 -1      1412    8    0    1
 -2       648       647       756      2758      3155      3156
 -1      1413    8    0    1
 -2       650       649       742      2764      3157      3158
 -1      1414    8    0    1
 -2       651       650       730      2767      3159      3160
 -1      1415    8    0    1
 -2       652       651       779      2770      3161      3162
 -1      1416    8    0    1
 -2       653       652       780      2773      3163      3164
 -1      1417    8    0    1
 -2       652       779       780      3162      3165      3163
 -1      1418    8    0    1
 -2       654       653       781      2776      3166      3167
 -1      1419    8    0    1
 -2       653       780       781      3164      3168      3166
 -1      1420    8    0    1
 -2       655       654       782      2779      3169      3170
 -1      1421    8    0    1
 -2       654       781       782      3167      3171      3169
 -1      1422    8    0    1
 -2       656       655       783      2782      3172      3173
 -1      1423    8    0    1
 -2       655       782       783      3170      3174      3172
 -1      1424    8    0    1
 -2       657       656       784      2785      3175      3176
 -1      1425    8    0    1
 -2       656       783       784      3173      3177      3175
 -1      1426    8    0    1
 -2       658       657       785      2788      3178      3179
 -1      1427    8    0    1
 -2       657       784       785      3176      3180      3178
 -1      1428    8    0    1
 -2       659       658       786      2791      3181      3182
 -1      1429    8    0    1
 -2       658       785       786      3179      3183      3181
 -1      1430    8    0    1
 -2       660       659       787      2794      3184      3185
 -1      1431    8    0    1
 -2       659       786       787      3182      3186      3184
 -1      1432    8    0    1
 -2       661       660       788      2797      3187      3188
 -1      1433    8    0    1
 -2       660       787       788      3185      3189      3187
 -1      1434    8    0    1
 -2       662       661       789      2800      3190      3191
 -1      1435    8    0    1
 -2       661       788       789      3188      3192      3190
 -1      1436    8    0    1
 -2       663       662       790      2803      3193      3194
 -1      1437    8    0    1
 -2       662       789       790      3191      3195      3193
 -1      1438    8    0    1
 -2       664       663       791      2806      3196      3197
 -1      1439    8    0    1
 -2       663       790       791      3194      3198      3196
 -1      1440    8    0    1
 -2       665       664       792      2809      3199      3200
 -1      1441    8    0    1
 -2       754       665       792      3073      3200      3201
 -1      1442    8    0    1
 -2       664       791       792      3197      3202      3199
 -1      1443    8    0    1
 -2       669       670       793      2820      3203      3204
 -1      1444    8    0    1
 -2       672       673       794      2829      3205      3206
 -1      1445    8    0    1
 -2       673       674       795      2832      3207      3208
 -1      1446    8    0    1
 -2       673       795       794      3208      3209      3205
 -1      1447    8    0    1
 -2       674       675       796      2835      3210      3211
 -1      1448    8    0    1
 -2       674       796       795      3211      3212      3207
 -1      1449    8    0    1
 -2       675       676       797      2838      3213      3214
 -1      1450    8    0    1
 -2       675       797       796      3214      3215      3210
 -1      1451    8    0    1
 -2       676       677       798      2841      3216      3217
 -1      1452    8    0    1
 -2       676       798       797      3217      3218      3213
 -1      1453    8    0    1
 -2       677       678       799      2844      3219      3220
 -1      1454    8    0    1
 -2       677       799       798      3220      3221      3216
 -1      1455    8    0    1
 -2       678       679       800      2847      3222      3223
 -1      1456    8    0    1
 -2       678       800       799      3223      3224      3219
 -1      1457    8    0    1
 -2       679       680       801      2850      3225      3226
 -1      1458    8    0    1
 -2       679       801       800      3226      3227      3222
 -1      1459    8    0    1
 -2       680       681       802      2853      3228      3229
 -1      1460    8    0    1
 -2       680       802       801      3229      3230      3225
 -1      1461    8    0    1
 -2       681       682       803      2856      3231      3232
 -1      1462    8    0    1
 -2       681       803       802      3232      3233      3228
 -1      1463    8    0    1
 -2       682       683       804      2859      3234      3235
 -1      1464    8    0    1
 -2       682       804       803      3235      3236      3231
 -1      1465    8    0    1
 -2       683       684       805      2862      3237      3238
 -1      1466    8    0    1
 -2       683       805       804      3238      3239      3234
 -1      1467    8    0    1
 -2       684       685       806      2865      3240      3241
 -1      1468    8    0    1
 -2       684       806       805      3241      3242      3237
 -1      1469    8    0    1
 -2       685       686       753      2868      3243      3244
 -1      1470    8    0    1
 -2       687       688       749      2874      3245      3246
 -1      1471    8    0    1
 -2       688       689       807      2877      3247      3248
 -1      1472    8    0    1
 -2       689       690       712      2880      3249      3250
 -1      1473    8    0    1
 -2       690       691       808      2883      3251      3252
 -1      1474    8    0    1
 -2       691       692       809      2886      3253      3254
 -1      1475    8    0    1
 -2       692       693       810      2889      3255      3256
 -1      1476    8    0    1
 -2       692       810       809      3256      3257      3253
 -1      1477    8    0    1
 -2       693       694       811      2892      3258      3259
 -1      1478    8    0    1
 -2       693       811       810      3259      3260      3255
 -1      1479    8    0    1
 -2       694       695       812      2895      3261      3262
 -1      1480    8    0    1
 -2       694       812       811      3262      3263      3258
 -1      1481    8    0    1
 -2       695       696       813      2898      3264      3265
 -1      1482    8    0    1
 -2       695       813       812      3265      3266      3261
 -1      1483    8    0    1
 -2       696       697       814      2901      3267      3268
 -1      1484    8    0    1
 -2       696       814       813      3268      3269      3264
 -1      1485    8    0    1
 -2       697       698       815      2904      3270      3271
 -1      1486    8    0    1
 -2       697       815       814      3271      3272      3267
 -1      1487    8    0    1
 -2       698       699       816      2907      3273      3274
 -1      1488    8    0    1
 -2       698       816       815      3274      3275      3270
 -1      1489    8    0    1
 -2       699       700       817      2910      3276      3277
 -1      1490    8    0    1
 -2       699       817       816      3277      3278      3273
 -1      1491    8    0    1
 -2       700       701       818      2913      3279      3280
 -1      1492    8    0    1
 -2       700       818       817      3280      3281      3276
 -1      1493    8    0    1
 -2       701       702       819      2916      3282      3283
 -1      1494    8    0    1
 -2       701       819       818      3283      3284      3279
 -1      1495    8    0    1
 -2       702       703       820      2919      3285      3286
 -1      1496    8    0    1
 -2       702       820       819      3286      3287      3282
 -1      1497    8    0    1
 -2       703       704       821      2922      3288      3289
 -1      1498    8    0    1
 -2       703       821       820      3289      3290      3285
 -1      1499    8    0    1
 -2       704       705       822      2925      3291      3292
 -1      1500    8    0    1
 -2       704       822       821      3292      3293      3288
 -1      1501    8    0    1
 -2       705       706       823      2928      3294      3295
 -1      1502    8    0    1
 -2       822       705       823      3291      3295      3296
 -1      1503    8    0    1
 -2       706       752       823      3062      3297      3294
 -1      1504    8    0    1
 -2       717       719       824      3074      3298      3299
 -1      1505    8    0    1
 -2       619       618       825      2675      3300      3301
 -1      1506    8    0    1
 -2       707       710       826      2939      3302      3303
 -1      1507    8    0    1
 -2       714       715       827      2954      3304      3305
 -1      1508    8    0    1
 -2       710       713       828      2948      3306      3307
 -1      1509    8    0    1
 -2       710       828       826      3307      3308      3302
 -1      1510    8    0    1
 -2       716       668       829      2957      3309      3310
 -1      1511    8    0    1
 -2       742       730       650      3027      3159      3158
 -1      1512    8    0    1
 -2       648       606       649      3023      3311      2761
 -1      1513    8    0    1
 -2       736       723       830      3011      3312      3313
 -1      1514    8    0    1
 -2       617       614       831      2656      3314      3315
 -1      1515    8    0    1
 -2       718       617       831      2962      3315      3316
 -1      1516    8    0    1
 -2       614       747       831      3037      3317      3314
 -1      1517    8    0    1
 -2       719       666       832      2966      3318      3319
 -1      1518    8    0    1
 -2       731       729       833      2999      3320      3321
 -1      1519    8    0    1
 -2       713       714       834      2951      3322      3323
 -1      1520    8    0    1
 -2       828       713       834      3306      3323      3324
 -1      1521    8    0    1
 -2       714       827       834      3305      3325      3322
 -1      1522    8    0    1
 -2       671       672       835      2826      3326      3327
 -1      1523    8    0    1
 -2       672       794       835      3206      3328      3326
 -1      1524    8    0    1
 -2       670       671       836      2823      3329      3330
 -1      1525    8    0    1
 -2       793       670       836      3203      3330      3331
 -1      1526    8    0    1
 -2       671       835       836      3327      3332      3329
 -1      1527    8    0    1
 -2       746       734       808      3057      3333      3334
 -1      1528    8    0    1
 -2       625       624       837      2689      3335      3336
 -1      1529    8    0    1
 -2       625       837       758      3336      3337      3094
 -1      1530    8    0    1
 -2       720       669       838      2969      3338      3339
 -1      1531    8    0    1
 -2       669       793       838      3204      3340      3338
 -1      1532    8    0    1
 -2       727       741       839      3042      3341      3342
 -1      1533    8    0    1
 -2       743       738       779      3088      3343      3344
 -1      1534    8    0    1
 -2       666       724       840      3051      3345      3346
 -1      1535    8    0    1
 -2       721       720       841      2972      3347      3348
 -1      1536    8    0    1
 -2       720       838       841      3339      3349      3347
 -1      1537    8    0    1
 -2       732       717       842      3055      3350      3351
 -1      1538    8    0    1
 -2       623       745       843      3080      3352      3353
 -1      1539    8    0    1
 -2       737       732       844      3047      3354      3355
 -1      1540    8    0    1
 -2       732       842       844      3351      3356      3354
 -1      1541    8    0    1
 -2       668       721       845      3056      3357      3358
 -1      1542    8    0    1
 -2       721       841       845      3348      3359      3357
 -1      1543    8    0    1
 -2       621       622       846      3086      3360      3361
 -1      1544    8    0    1
 -2       757       621       846      3092      3361      3362
 -1      1545    8    0    1
 -2       622       726       846      2985      3363      3360
 -1      1546    8    0    1
 -2       667       739       847      3078      3364      3365
 -1      1547    8    0    1
 -2       744       727       848      3068      3366      3367
 -1      1548    8    0    1
 -2       738       744       849      3076      3368      3369
 -1      1549    8    0    1
 -2       745       746       809      3064      3370      3371
 -1      1550    8    0    1
 -2       723       725       850      3079      3372      3373
 -1      1551    8    0    1
 -2       756       605       648      3091      3024      3156
 -1      1552    8    0    1
 -2       725       623       851      3043      3374      3375
 -1      1553    8    0    1
 -2       606       742       649      3026      3157      3311
 -1      1554    8    0    1
 -2       740       756       778      3090      3376      3377
 -1      1555    8    0    1
 -2       735       737       852      3077      3378      3379
 -1      1556    8    0    1
 -2       741       736       853      3075      3380      3381
 -1      1557    8    0    1
 -2       748       619       854      3039      3382      3383
 -1      1558    8    0    1
 -2       619       825       854      3301      3384      3382
 -1      1559    8    0    1
 -2       668       845       829      3358      3385      3309
 -1      1560    8    0    1
 -2       647       778       756      3154      3376      3155
 -1      1561    8    0    1
 -2       749       731       833      3046      3321      3386
 -1      1562    8    0    1
 -2       624       722       855      2975      3387      3388
 -1      1563    8    0    1
 -2       624       855       837      3388      3389      3335
 -1      1564    8    0    1
 -2       750       709       856      3048      3390      3391
 -1      1565    8    0    1
 -2       717       824       857      3299      3392      3393
 -1      1566    8    0    1
 -2       717       857       842      3393      3394      3350
 -1      1567    8    0    1
 -2       850       725       851      3372      3375      3395
 -1      1568    8    0    1
 -2       645       777       847      3151      3396      3397
 -1      1569    8    0    1
 -2       646       645       847      2752      3397      3398
 -1      1570    8    0    1
 -2       736       830       853      3313      3399      3380
 -1      1571    8    0    1
 -2       651       730       743      3160      3087      3400
 -1      1572    8    0    1
 -2       727       839       848      3342      3401      3366
 -1      1573    8    0    1
 -2       751       667       847      3052      3365      3402
 -1      1574    8    0    1
 -2       747       733       858      3038      3403      3404
 -1      1575    8    0    1
 -2       809       746       808      3370      3334      3405
 -1      1576    8    0    1
 -2       849       744       848      3368      3367      3406
 -1      1577    8    0    1
 -2       685       753       806      3244      3407      3240
 -1      1578    8    0    1
 -2       687       749       833      3246      3386      3408
 -1      1579    8    0    1
 -2       686       687       833      2871      3408      3409
 -1      1580    8    0    1
 -2       689       712       807      3250      3410      3247
 -1      1581    8    0    1
 -2       691       809       808      3254      3405      3251
 -1      1582    8    0    1
 -2       824       719       832      3298      3319      3411
 -1      1583    8    0    1
 -2       825       618       859      3300      3412      3413
 -1      1584    8    0    1
 -2       618       728       859      2991      3414      3412
 -1      1585    8    0    1
 -2       709       711       860      2942      3415      3416
 -1      1586    8    0    1
 -2       709       860       856      3416      3417      3390
 -1      1587    8    0    1
 -2       843       745       810      3352      3418      3419
 -1      1588    8    0    1
 -2       711       707       861      2943      3420      3421
 -1      1589    8    0    1
 -2       860       711       861      3415      3421      3422
 -1      1590    8    0    1
 -2       707       826       861      3303      3423      3420
 -1      1591    8    0    1
 -2       753       735       852      3067      3379      3424
 -1      1592    8    0    1
 -2       840       724       862      3345      3425      3426
 -1      1593    8    0    1
 -2       724       751       862      3054      3427      3425
 -1      1594    8    0    1
 -2       712       690       808      3249      3252      3428
 -1      1595    8    0    1
 -2       830       723       850      3312      3373      3429
 -1      1596    8    0    1
 -2       712       615       807      3059      3430      3410
 -1      1597    8    0    1
 -2       718       831       722      3316      3431      2976
 -1      1598    8    0    1
 -2       833       729       753      3320      3066      3432
 -1      1599    8    0    1
 -2       615       749       807      3045      3433      3430
 -1      1600    8    0    1
 -2       726       716       863      2986      3434      3435
 -1      1601    8    0    1
 -2       846       726       863      3363      3435      3436
 -1      1602    8    0    1
 -2       716       829       863      3310      3437      3434
 -1      1603    8    0    1
 -2       832       666       840      3318      3346      3438
 -1      1604    8    0    1
 -2       779       738       780      3343      3439      3165
 -1      1605    8    0    1
 -2       779       651       743      3161      3400      3344
 -1      1606    8    0    1
 -2       839       741       864      3341      3440      3441
 -1      1607    8    0    1
 -2       741       853       864      3381      3442      3440
 -1      1608    8    0    1
 -2       780       738       849      3439      3369      3443
 -1      1609    8    0    1
 -2       623       843       851      3353      3444      3374
 -1      1610    8    0    1
 -2       737       844       852      3355      3445      3378
 -1      1611    8    0    1
 -2       728       620       865      2992      3446      3447
 -1      1612    8    0    1
 -2       859       728       865      3414      3447      3448
 -1      1613    8    0    1
 -2       620       757       865      3093      3449      3446
 -1      1614    8    0    1
 -2       686       833       753      3409      3432      3243
 -1      1615    8    0    1
 -2       739       740       866      3058      3450      3451
 -1      1616    8    0    1
 -2       745       809       810      3371      3257      3418
 -1      1617    8    0    1
 -2       715       754       867      3072      3452      3453
 -1      1618    8    0    1
 -2       827       715       867      3304      3453      3454
 -1      1619    8    0    1
 -2       754       792       867      3201      3455      3452
 -1      1620    8    0    1
 -2       733       755       868      3083      3456      3457
 -1      1621    8    0    1
 -2       733       868       858      3457      3458      3403
 -1      1622    8    0    1
 -2       866       740       778      3450      3377      3459
 -1      1623    8    0    1
 -2       843       810       811      3419      3260      3460
 -1      1624    8    0    1
 -2       847       777       751      3396      3461      3402
 -1      1625    8    0    1
 -2       760       759       869      3101      3462      3463
 -1      1626    8    0    1
 -2       761       760       870      3104      3464      3465
 -1      1627    8    0    1
 -2       760       869       870      3463      3466      3464
 -1      1628    8    0    1
 -2       762       761       871      3107      3467      3468
 -1      1629    8    0    1
 -2       761       870       871      3465      3469      3467
 -1      1630    8    0    1
 -2       763       762       872      3110      3470      3471
 -1      1631    8    0    1
 -2       762       871       872      3468      3472      3470
 -1      1632    8    0    1
 -2       764       763       873      3113      3473      3474
 -1      1633    8    0    1
 -2       763       872       873      3471      3475      3473
 -1      1634    8    0    1
 -2       765       764       874      3116      3476      3477
 -1      1635    8    0    1
 -2       764       873       874      3474      3478      3476
 -1      1636    8    0    1
 -2       766       765       875      3119      3479      3480
 -1      1637    8    0    1
 -2       765       874       875      3477      3481      3479
 -1      1638    8    0    1
 -2       767       766       876      3122      3482      3483
 -1      1639    8    0    1
 -2       766       875       876      3480      3484      3482
 -1      1640    8    0    1
 -2       768       767       877      3125      3485      3486
 -1      1641    8    0    1
 -2       767       876       877      3483      3487      3485
 -1      1642    8    0    1
 -2       769       768       878      3128      3488      3489
 -1      1643    8    0    1
 -2       768       877       878      3486      3490      3488
 -1      1644    8    0    1
 -2       770       769       879      3131      3491      3492
 -1      1645    8    0    1
 -2       769       878       879      3489      3493      3491
 -1      1646    8    0    1
 -2       771       770       880      3134      3494      3495
 -1      1647    8    0    1
 -2       770       879       880      3492      3496      3494
 -1      1648    8    0    1
 -2       772       771       881      3137      3497      3498
 -1      1649    8    0    1
 -2       771       880       881      3495      3499      3497
 -1      1650    8    0    1
 -2       773       772       882      3140      3500      3501
 -1      1651    8    0    1
 -2       772       881       882      3498      3502      3500
 -1      1652    8    0    1
 -2       774       773       883      3143      3503      3504
 -1      1653    8    0    1
 -2       773       882       883      3501      3505      3503
 -1      1654    8    0    1
 -2       775       774       884      3146      3506      3507
 -1      1655    8    0    1
 -2       774       883       884      3504      3508      3506
 -1      1656    8    0    1
 -2       776       775       885      3149      3509      3510
 -1      1657    8    0    1
 -2       775       884       885      3507      3511      3509
 -1      1658    8    0    1
 -2       777       776       751      3152      3512      3461
 -1      1659    8    0    1
 -2       778       646       866      3153      3513      3459
 -1      1660    8    0    1
 -2       853       830       886      3399      3514      3515
 -1      1661    8    0    1
 -2       843       811       887      3460      3516      3517
 -1      1662    8    0    1
 -2       851       843       887      3444      3517      3518
 -1      1663    8    0    1
 -2       811       812       887      3263      3519      3516
 -1      1664    8    0    1
 -2       781       780       888      3168      3520      3521
 -1      1665    8    0    1
 -2       780       849       888      3443      3522      3520
 -1      1666    8    0    1
 -2       782       781       889      3171      3523      3524
 -1      1667    8    0    1
 -2       781       888       889      3521      3525      3523
 -1      1668    8    0    1
 -2       783       782       890      3174      3526      3527
 -1      1669    8    0    1
 -2       782       889       890      3524      3528      3526
 -1      1670    8    0    1
 -2       784       783       891      3177      3529      3530
 -1      1671    8    0    1
 -2       783       890       891      3527      3531      3529
 -1      1672    8    0    1
 -2       785       784       892      3180      3532      3533
 -1      1673    8    0    1
 -2       784       891       892      3530      3534      3532
 -1      1674    8    0    1
 -2       786       785       893      3183      3535      3536
 -1      1675    8    0    1
 -2       785       892       893      3533      3537      3535
 -1      1676    8    0    1
 -2       787       786       894      3186      3538      3539
 -1      1677    8    0    1
 -2       786       893       894      3536      3540      3538
 -1      1678    8    0    1
 -2       788       787       895      3189      3541      3542
 -1      1679    8    0    1
 -2       787       894       895      3539      3543      3541
 -1      1680    8    0    1
 -2       789       788       896      3192      3544      3545
 -1      1681    8    0    1
 -2       788       895       896      3542      3546      3544
 -1      1682    8    0    1
 -2       790       789       897      3195      3547      3548
 -1      1683    8    0    1
 -2       789       896       897      3545      3549      3547
 -1      1684    8    0    1
 -2       791       790       898      3198      3550      3551
 -1      1685    8    0    1
 -2       790       897       898      3548      3552      3550
 -1      1686    8    0    1
 -2       795       796       899      3212      3553      3554
 -1      1687    8    0    1
 -2       844       842       900      3356      3555      3556
 -1      1688    8    0    1
 -2       794       795       901      3209      3557      3558
 -1      1689    8    0    1
 -2       795       899       901      3554      3559      3557
 -1      1690    8    0    1
 -2       797       798       902      3218      3560      3561
 -1      1691    8    0    1
 -2       798       799       903      3221      3562      3563
 -1      1692    8    0    1
 -2       798       903       902      3563      3564      3560
 -1      1693    8    0    1
 -2       799       800       904      3224      3565      3566
 -1      1694    8    0    1
 -2       799       904       903      3566      3567      3562
 -1      1695    8    0    1
 -2       800       801       905      3227      3568      3569
 -1      1696    8    0    1
 -2       800       905       904      3569      3570      3565
 -1      1697    8    0    1
 -2       801       802       906      3230      3571      3572
 -1      1698    8    0    1
 -2       801       906       905      3572      3573      3568
 -1      1699    8    0    1
 -2       802       803       907      3233      3574      3575
 -1      1700    8    0    1
 -2       802       907       906      3575      3576      3571
 -1      1701    8    0    1
 -2       803       804       908      3236      3577      3578
 -1      1702    8    0    1
 -2       803       908       907      3578      3579      3574
 -1      1703    8    0    1
 -2       804       805       909      3239      3580      3581
 -1      1704    8    0    1
 -2       804       909       908      3581      3582      3577
 -1      1705    8    0    1
 -2       805       806       910      3242      3583      3584
 -1      1706    8    0    1
 -2       805       910       909      3584      3585      3580
 -1      1707    8    0    1
 -2       722       831       855      3431      3586      3387
 -1      1708    8    0    1
 -2       739       866       847      3451      3587      3364
 -1      1709    8    0    1
 -2       688       807       749      3248      3433      3245
 -1      1710    8    0    1
 -2       830       850       911      3429      3588      3589
 -1      1711    8    0    1
 -2       812       813       912      3266      3590      3591
 -1      1712    8    0    1
 -2       812       912       887      3591      3592      3519
 -1      1713    8    0    1
 -2       813       814       913      3269      3593      3594
 -1      1714    8    0    1
 -2       813       913       912      3594      3595      3590
 -1      1715    8    0    1
 -2       814       815       914      3272      3596      3597
 -1      1716    8    0    1
 -2       814       914       913      3597      3598      3593
 -1      1717    8    0    1
 -2       815       816       915      3275      3599      3600
 -1      1718    8    0    1
 -2       815       915       914      3600      3601      3596
 -1      1719    8    0    1
 -2       816       817       916      3278      3602      3603
 -1      1720    8    0    1
 -2       816       916       915      3603      3604      3599
 -1      1721    8    0    1
 -2       817       818       917      3281      3605      3606
 -1      1722    8    0    1
 -2       817       917       916      3606      3607      3602
 -1      1723    8    0    1
 -2       818       819       918      3284      3608      3609
 -1      1724    8    0    1
 -2       818       918       917      3609      3610      3605
 -1      1725    8    0    1
 -2       819       820       919      3287      3611      3612
 -1      1726    8    0    1
 -2       819       919       918      3612      3613      3608
 -1      1727    8    0    1
 -2       820       821       920      3290      3614      3615
 -1      1728    8    0    1
 -2       820       920       919      3615      3616      3611
 -1      1729    8    0    1
 -2       821       822       921      3293      3617      3618
 -1      1730    8    0    1
 -2       821       921       920      3618      3619      3614
 -1      1731    8    0    1
 -2       829       845       922      3385      3620      3621
 -1      1732    8    0    1
 -2       753       852       806      3424      3622      3407
 -1      1733    8    0    1
 -2       841       838       923      3349      3623      3624
 -1      1734    8    0    1
 -2       752       750       924      3063      3625      3626
 -1      1735    8    0    1
 -2       823       752       924      3297      3626      3627
 -1      1736    8    0    1
 -2       750       856       924      3391      3628      3625
 -1      1737    8    0    1
 -2       849       848       888      3406      3629      3522
 -1      1738    8    0    1
 -2       835       794       925      3328      3630      3631
 -1      1739    8    0    1
 -2       794       901       925      3558      3632      3630
 -1      1740    8    0    1
 -2       826       828       926      3308      3633      3634
 -1      1741    8    0    1
 -2       832       840       927      3438      3635      3636
 -1      1742    8    0    1
 -2       824       832       928      3411      3637      3638
 -1      1743    8    0    1
 -2       751       776       885      3512      3510      3639
 -1      1744    8    0    1
 -2       806       852       910      3622      3640      3583
 -1      1745    8    0    1
 -2       796       797       929      3215      3641      3642
 -1      1746    8    0    1
 -2       899       796       929      3553      3642      3643
 -1      1747    8    0    1
 -2       797       902       929      3561      3644      3641
 -1      1748    8    0    1
 -2       758       837       930      3337      3645      3646
 -1      1749    8    0    1
 -2       838       793       931      3340      3647      3648
 -1      1750    8    0    1
 -2       838       931       923      3648      3649      3623
 -1      1751    8    0    1
 -2       755       748       932      3084      3650      3651
 -1      1752    8    0    1
 -2       755       932       868      3651      3652      3456
 -1      1753    8    0    1
 -2       850       851       933      3395      3653      3654
 -1      1754    8    0    1
 -2       848       839       934      3401      3655      3656
 -1      1755    8    0    1
 -2       848       934       888      3656      3657      3629
 -1      1756    8    0    1
 -2       845       841       935      3359      3658      3659
 -1      1757    8    0    1
 -2       841       923       935      3624      3660      3658
 -1      1758    8    0    1
 -2       759       758       936      3098      3661      3662
 -1      1759    8    0    1
 -2       759       936       869      3662      3663      3462
 -1      1760    8    0    1
 -2       852       844       937      3445      3664      3665
 -1      1761    8    0    1
 -2       910       852       937      3640      3665      3666
 -1      1762    8    0    1
 -2       844       900       937      3556      3667      3664
 -1      1763    8    0    1
 -2       842       857       900      3394      3668      3555
 -1      1764    8    0    1
 -2       646       847       866      3398      3587      3513
 -1      1765    8    0    1
 -2       934       839       938      3655      3669      3670
 -1      1766    8    0    1
 -2       839       864       938      3441      3671      3669
 -1      1767    8    0    1
 -2       886       830       911      3514      3589      3672
 -1      1768    8    0    1
 -2       851       887       933      3518      3673      3653
 -1      1769    8    0    1
 -2       858       868       939      3458      3674      3675
 -1      1770    8    0    1
 -2       930       837       939      3645      3676      3677
 -1      1771    8    0    1
 -2       792       791       898      3202      3551      3678
 -1      1772    8    0    1
 -2       853       886       940      3515      3679      3680
 -1      1773    8    0    1
 -2       853       940       864      3680      3681      3442
 -1      1774    8    0    1
 -2       861       826       941      3423      3682      3683
 -1      1775    8    0    1
 -2       826       926       941      3634      3684      3682
 -1      1776    8    0    1
 -2       793       836       942      3331      3685      3686
 -1      1777    8    0    1
 -2       793       942       931      3686      3687      3647
 -1      1778    8    0    1
 -2       829       922       943      3621      3688      3689
 -1      1779    8    0    1
 -2       922       845       935      3620      3659      3690
 -1      1780    8    0    1
 -2       822       823       924      3296      3627      3691
 -1      1781    8    0    1
 -2       927       840       944      3635      3692      3693
 -1      1782    8    0    1
 -2       840       862       944      3426      3694      3692
 -1      1783    8    0    1
 -2       850       933       911      3654      3695      3588
 -1      1784    8    0    1
 -2       928       832       927      3637      3636      3696
 -1      1785    8    0    1
 -2       926       828       945      3633      3697      3698
 -1      1786    8    0    1
 -2       828       834       945      3324      3699      3697
 -1      1787    8    0    1
 -2       824       928       946      3638      3700      3701
 -1      1788    8    0    1
 -2       824       946       857      3701      3702      3392
 -1      1789    8    0    1
 -2       829       943       863      3689      3703      3437
 -1      1790    8    0    1
 -2       734       712       808      3006      3428      3333
 -1      1791    8    0    1
 -2       836       835       947      3332      3704      3705
 -1      1792    8    0    1
 -2       835       925       947      3631      3706      3704
 -1      1793    8    0    1
 -2       822       924       921      3691      3707      3617
 -1      1794    8    0    1
 -2       932       748       854      3650      3383      3708
 -1      1795    8    0    1
 -2       858       939       837      3675      3676      3709
 -1      1796    8    0    1
 -2       831       747       855      3317      3710      3586
 -1      1797    8    0    1
 -2       757       846       948      3362      3711      3712
 -1      1798    8    0    1
 -2       865       757       948      3449      3712      3713
 -1      1799    8    0    1
 -2       846       863       948      3436      3714      3711
 -1      1800    8    0    1
 -2       747       858       855      3404      3715      3710
 -1      1801    8    0    1
 -2       856       860       949      3417      3716      3717
 -1      1802    8    0    1
 -2       936       758       930      3661      3646      3718
 -1      1803    8    0    1
 -2       854       825       950      3384      3719      3720
 -1      1804    8    0    1
 -2       924       856       921      3628      3721      3707
 -1      1805    8    0    1
 -2       856       949       921      3717      3722      3721
 -1      1806    8    0    1
 -2       950       825       951      3719      3723      3724
 -1      1807    8    0    1
 -2       825       859       951      3413      3725      3723
 -1      1808    8    0    1
 -2       870       869       952      3466      3726      3727
 -1      1809    8    0    1
 -2       871       870       953      3469      3728      3729
 -1      1810    8    0    1
 -2       870       952       953      3727      3730      3728
 -1      1811    8    0    1
 -2       872       871       954      3472      3731      3732
 -1      1812    8    0    1
 -2       871       953       954      3729      3733      3731
 -1      1813    8    0    1
 -2       873       872       955      3475      3734      3735
 -1      1814    8    0    1
 -2       872       954       955      3732      3736      3734
 -1      1815    8    0    1
 -2       874       873       956      3478      3737      3738
 -1      1816    8    0    1
 -2       873       955       956      3735      3739      3737
 -1      1817    8    0    1
 -2       875       874       957      3481      3740      3741
 -1      1818    8    0    1
 -2       874       956       957      3738      3742      3740
 -1      1819    8    0    1
 -2       876       875       958      3484      3743      3744
 -1      1820    8    0    1
 -2       875       957       958      3741      3745      3743
 -1      1821    8    0    1
 -2       877       876       959      3487      3746      3747
 -1      1822    8    0    1
 -2       876       958       959      3744      3748      3746
 -1      1823    8    0    1
 -2       878       877       960      3490      3749      3750
 -1      1824    8    0    1
 -2       877       959       960      3747      3751      3749
 -1      1825    8    0    1
 -2       879       878       961      3493      3752      3753
 -1      1826    8    0    1
 -2       878       960       961      3750      3754      3752
 -1      1827    8    0    1
 -2       880       879       962      3496      3755      3756
 -1      1828    8    0    1
 -2       879       961       962      3753      3757      3755
 -1      1829    8    0    1
 -2       881       880       963      3499      3758      3759
 -1      1830    8    0    1
 -2       880       962       963      3756      3760      3758
 -1      1831    8    0    1
 -2       882       881       964      3502      3761      3762
 -1      1832    8    0    1
 -2       881       963       964      3759      3763      3761
 -1      1833    8    0    1
 -2       883       882       965      3505      3764      3765
 -1      1834    8    0    1
 -2       882       964       965      3762      3766      3764
 -1      1835    8    0    1
 -2       884       883       966      3508      3767      3768
 -1      1836    8    0    1
 -2       883       965       966      3765      3769      3767
 -1      1837    8    0    1
 -2       901       899       967      3559      3770      3771
 -1      1838    8    0    1
 -2       912       913       968      3595      3772      3773
 -1      1839    8    0    1
 -2       939       868       969      3674      3774      3775
 -1      1840    8    0    1
 -2       868       932       969      3652      3776      3774
 -1      1841    8    0    1
 -2       930       939       970      3677      3777      3778
 -1      1842    8    0    1
 -2       889       888       934      3525      3657      3779
 -1      1843    8    0    1
 -2       891       890       971      3531      3780      3781
 -1      1844    8    0    1
 -2       892       891       972      3534      3782      3783
 -1      1845    8    0    1
 -2       891       971       972      3781      3784      3782
 -1      1846    8    0    1
 -2       893       892       973      3537      3785      3786
 -1      1847    8    0    1
 -2       892       972       973      3783      3787      3785
 -1      1848    8    0    1
 -2       894       893       974      3540      3788      3789
 -1      1849    8    0    1
 -2       893       973       974      3786      3790      3788
 -1      1850    8    0    1
 -2       895       894       975      3543      3791      3792
 -1      1851    8    0    1
 -2       894       974       975      3789      3793      3791
 -1      1852    8    0    1
 -2       896       895       976      3546      3794      3795
 -1      1853    8    0    1
 -2       895       975       976      3792      3796      3794
 -1      1854    8    0    1
 -2       897       896       977      3549      3797      3798
 -1      1855    8    0    1
 -2       896       976       977      3795      3799      3797
 -1      1856    8    0    1
 -2       898       897       978      3552      3800      3801
 -1      1857    8    0    1
 -2       897       977       978      3798      3802      3800
 -1      1858    8    0    1
 -2       900       857       979      3668      3803      3804
 -1      1859    8    0    1
 -2       943       922       980      3688      3805      3806
 -1      1860    8    0    1
 -2       903       904       981      3567      3807      3808
 -1      1861    8    0    1
 -2       902       903       982      3564      3809      3810
 -1      1862    8    0    1
 -2       903       981       982      3808      3811      3809
 -1      1863    8    0    1
 -2       905       906       983      3573      3812      3813
 -1      1864    8    0    1
 -2       906       907       984      3576      3814      3815
 -1      1865    8    0    1
 -2       906       984       983      3815      3816      3812
 -1      1866    8    0    1
 -2       907       908       985      3579      3817      3818
 -1      1867    8    0    1
 -2       907       985       984      3818      3819      3814
 -1      1868    8    0    1
 -2       908       909       986      3582      3820      3821
 -1      1869    8    0    1
 -2       908       986       985      3821      3822      3817
 -1      1870    8    0    1
 -2       909       910       937      3585      3666      3823
 -1      1871    8    0    1
 -2       913       914       987      3598      3824      3825
 -1      1872    8    0    1
 -2       913       987       968      3825      3826      3772
 -1      1873    8    0    1
 -2       887       912       933      3592      3827      3673
 -1      1874    8    0    1
 -2       914       915       988      3601      3828      3829
 -1      1875    8    0    1
 -2       914       988       987      3829      3830      3824
 -1      1876    8    0    1
 -2       915       916       989      3604      3831      3832
 -1      1877    8    0    1
 -2       915       989       988      3832      3833      3828
 -1      1878    8    0    1
 -2       916       917       990      3607      3834      3835
 -1      1879    8    0    1
 -2       916       990       989      3835      3836      3831
 -1      1880    8    0    1
 -2       917       918       991      3610      3837      3838
 -1      1881    8    0    1
 -2       917       991       990      3838      3839      3834
 -1      1882    8    0    1
 -2       918       919       992      3613      3840      3841
 -1      1883    8    0    1
 -2       918       992       991      3841      3842      3837
 -1      1884    8    0    1
 -2       919       920       993      3616      3843      3844
 -1      1885    8    0    1
 -2       919       993       992      3844      3845      3840
 -1      1886    8    0    1
 -2       920       921       994      3619      3846      3847
 -1      1887    8    0    1
 -2       993       920       994      3843      3847      3848
 -1      1888    8    0    1
 -2       921       949       994      3722      3849      3846
 -1      1889    8    0    1
 -2       922       935       995      3690      3850      3851
 -1      1890    8    0    1
 -2       922       995       980      3851      3852      3805
 -1      1891    8    0    1
 -2       932       854       996      3708      3853      3854
 -1      1892    8    0    1
 -2       969       932       996      3776      3854      3855
 -1      1893    8    0    1
 -2       854       950       996      3720      3856      3853
 -1      1894    8    0    1
 -2       827       867       898      3454      3857      3858
 -1      1895    8    0    1
 -2       860       861       997      3422      3859      3860
 -1      1896    8    0    1
 -2       949       860       997      3716      3860      3861
 -1      1897    8    0    1
 -2       861       941       997      3683      3862      3859
 -1      1898    8    0    1
 -2       925       901       998      3632      3863      3864
 -1      1899    8    0    1
 -2       901       967       998      3771      3865      3863
 -1      1900    8    0    1
 -2       751       885       862      3639      3866      3427
 -1      1901    8    0    1
 -2       834       827       999      3325      3867      3868
 -1      1902    8    0    1
 -2       923       931      1000      3649      3869      3870
 -1      1903    8    0    1
 -2       886       911      1001      3672      3871      3872
 -1      1904    8    0    1
 -2       904       905      1002      3570      3873      3874
 -1      1905    8    0    1
 -2       905       983      1002      3813      3875      3873
 -1      1906    8    0    1
 -2       933       912       968      3827      3773      3876
 -1      1907    8    0    1
 -2       935       923      1003      3660      3877      3878
 -1      1908    8    0    1
 -2       995       935      1003      3850      3878      3879
 -1      1909    8    0    1
 -2       923      1000      1003      3870      3880      3877
 -1      1910    8    0    1
 -2       936       930       970      3718      3778      3881
 -1      1911    8    0    1
 -2       863       943       948      3703      3882      3714
 -1      1912    8    0    1
 -2       869       936      1004      3663      3883      3884
 -1      1913    8    0    1
 -2       869      1004       952      3884      3885      3726
 -1      1914    8    0    1
 -2       859       865      1005      3448      3886      3887
 -1      1915    8    0    1
 -2       859      1005       951      3887      3888      3725
 -1      1916    8    0    1
 -2       911       933      1006      3695      3889      3890
 -1      1917    8    0    1
 -2      1001       911      1006      3871      3890      3891
 -1      1918    8    0    1
 -2       933       968      1006      3876      3892      3889
 -1      1919    8    0    1
 -2       862       885       944      3866      3893      3694
 -1      1920    8    0    1
 -2       889       934      1007      3779      3894      3895
 -1      1921    8    0    1
 -2       890       889      1007      3528      3895      3896
 -1      1922    8    0    1
 -2       934       938      1007      3670      3897      3894
 -1      1923    8    0    1
 -2       834       999       945      3868      3898      3699
 -1      1924    8    0    1
 -2       999       827       898      3867      3858      3899
 -1      1925    8    0    1
 -2       928       927      1008      3696      3900      3901
 -1      1926    8    0    1
 -2       858       837       855      3709      3389      3715
 -1      1927    8    0    1
 -2       999       898       978      3899      3801      3902
 -1      1928    8    0    1
 -2       938       864      1009      3671      3903      3904
 -1      1929    8    0    1
 -2       864       940      1009      3681      3905      3903
 -1      1930    8    0    1
 -2       967       899      1010      3770      3906      3907
 -1      1931    8    0    1
 -2       899       929      1010      3643      3908      3906
 -1      1932    8    0    1
 -2       885       884      1011      3511      3909      3910
 -1      1933    8    0    1
 -2       939       969       970      3775      3911      3777
 -1      1934    8    0    1
 -2       971       890      1007      3780      3896      3912
 -1      1935    8    0    1
 -2       979       857       946      3803      3702      3913
 -1      1936    8    0    1
 -2       792       898       867      3678      3857      3455
 -1      1937    8    0    1
 -2       940       886      1001      3679      3872      3914
 -1      1938    8    0    1
 -2       943       980      1005      3806      3915      3916
 -1      1939    8    0    1
 -2       941       926      1012      3684      3917      3918
 -1      1940    8    0    1
 -2       942       836       947      3685      3705      3919
 -1      1941    8    0    1
 -2       931       942      1013      3687      3920      3921
 -1      1942    8    0    1
 -2       931      1013      1000      3921      3922      3869
 -1      1943    8    0    1
 -2       944       885      1011      3893      3910      3923
 -1      1944    8    0    1
 -2       909       937       986      3823      3924      3820
 -1      1945    8    0    1
 -2       865       948      1005      3713      3925      3886
 -1      1946    8    0    1
 -2       994       949      1014      3849      3926      3927
 -1      1947    8    0    1
 -2       949       997      1014      3861      3928      3926
 -1      1948    8    0    1
 -2       996       950      1015      3856      3929      3930
 -1      1949    8    0    1
 -2       929       902      1016      3644      3931      3932
 -1      1950    8    0    1
 -2       929      1016      1010      3932      3933      3908
 -1      1951    8    0    1
 -2       948       943      1005      3882      3916      3925
 -1      1952    8    0    1
 -2       927       944      1017      3693      3934      3935
 -1      1953    8    0    1
 -2      1008       927      1017      3900      3935      3936
 -1      1954    8    0    1
 -2       944      1011      1017      3923      3937      3934
 -1      1955    8    0    1
 -2       946       928      1018      3700      3938      3939
 -1      1956    8    0    1
 -2       928      1008      1018      3901      3940      3938
 -1      1957    8    0    1
 -2       926       945      1019      3698      3941      3942
 -1      1958    8    0    1
 -2       926      1019      1012      3942      3943      3917
 -1      1959    8    0    1
 -2       945       999       978      3898      3902      3944
 -1      1960    8    0    1
 -2       936       970      1004      3881      3945      3883
 -1      1961    8    0    1
 -2       981       904      1002      3807      3874      3946
 -1      1962    8    0    1
 -2       947       925      1020      3706      3947      3948
 -1      1963    8    0    1
 -2       925       998      1020      3864      3949      3947
 -1      1964    8    0    1
 -2       937       900       986      3667      3950      3924
 -1      1965    8    0    1
 -2       950       951      1021      3724      3951      3952
 -1      1966    8    0    1
 -2       950      1021      1015      3952      3953      3929
 -1      1967    8    0    1
 -2       986       900       979      3950      3804      3954
 -1      1968    8    0    1
 -2       884       966      1011      3768      3955      3909
 -1      1969    8    0    1
 -2      1016       902       982      3931      3810      3956
 -1      1970    8    0    1
 -2      1007       938      1009      3897      3904      3957
 -1      1971    8    0    1
 -2       968       987      1022      3826      3958      3959
 -1      1972    8    0    1
 -2       968      1022      1006      3959      3960      3892
 -1      1973    8    0    1
 -2       954       953      1023      3733      3961      3962
 -1      1974    8    0    1
 -2       955       954      1024      3736      3963      3964
 -1      1975    8    0    1
 -2       954      1023      1024      3962      3965      3963
 -1      1976    8    0    1
 -2       956       955      1025      3739      3966      3967
 -1      1977    8    0    1
 -2       955      1024      1025      3964      3968      3966
 -1      1978    8    0    1
 -2       957       956      1026      3742      3969      3970
 -1      1979    8    0    1
 -2       956      1025      1026      3967      3971      3969
 -1      1980    8    0    1
 -2       958       957      1027      3745      3972      3973
 -1      1981    8    0    1
 -2       957      1026      1027      3970      3974      3972
 -1      1982    8    0    1
 -2       959       958      1028      3748      3975      3976
 -1      1983    8    0    1
 -2       958      1027      1028      3973      3977      3975
 -1      1984    8    0    1
 -2       960       959      1029      3751      3978      3979
 -1      1985    8    0    1
 -2       959      1028      1029      3976      3980      3978
 -1      1986    8    0    1
 -2       961       960      1030      3754      3981      3982
 -1      1987    8    0    1
 -2       960      1029      1030      3979      3983      3981
 -1      1988    8    0    1
 -2       962       961      1031      3757      3984      3985
 -1      1989    8    0    1
 -2       961      1030      1031      3982      3986      3984
 -1      1990    8    0    1
 -2       963       962      1032      3760      3987      3988
 -1      1991    8    0    1
 -2       962      1031      1032      3985      3989      3987
 -1      1992    8    0    1
 -2       964       963      1033      3763      3990      3991
 -1      1993    8    0    1
 -2       963      1032      1033      3988      3992      3990
 -1      1994    8    0    1
 -2       965       964      1034      3766      3993      3994
 -1      1995    8    0    1
 -2       964      1033      1034      3991      3995      3993
 -1      1996    8    0    1
 -2       966       965      1035      3769      3996      3997
 -1      1997    8    0    1
 -2       965      1034      1035      3994      3998      3996
 -1      1998    8    0    1
 -2      1016       982      1036      3956      3999      4000
 -1      1999    8    0    1
 -2       970       969      1037      3911      4001      4002
 -1      2000    8    0    1
 -2       971      1007      1009      3912      3957      4003
 -1      2001    8    0    1
 -2       973       972      1038      3787      4004      4005
 -1      2002    8    0    1
 -2       974       973      1039      3790      4006      4007
 -1      2003    8    0    1
 -2       973      1038      1039      4005      4008      4006
 -1      2004    8    0    1
 -2       975       974      1040      3793      4009      4010
 -1      2005    8    0    1
 -2       974      1039      1040      4007      4011      4009
 -1      2006    8    0    1
 -2       976       975      1041      3796      4012      4013
 -1      2007    8    0    1
 -2       975      1040      1041      4010      4014      4012
 -1      2008    8    0    1
 -2       977       976      1042      3799      4015      4016
 -1      2009    8    0    1
 -2       976      1041      1042      4013      4017      4015
 -1      2010    8    0    1
 -2       942       947      1043      3919      4018      4019
 -1      2011    8    0    1
 -2       947      1020      1043      3948      4020      4018
 -1      2012    8    0    1
 -2       984       985      1044      3819      4021      4022
 -1      2013    8    0    1
 -2       983       984      1045      3816      4023      4024
 -1      2014    8    0    1
 -2       984      1044      1045      4022      4025      4023
 -1      2015    8    0    1
 -2       988       989      1046      3833      4026      4027
 -1      2016    8    0    1
 -2       989       990      1047      3836      4028      4029
 -1      2017    8    0    1
 -2       989      1047      1046      4029      4030      4026
 -1      2018    8    0    1
 -2       940      1001      1048      3914      4031      4032
 -1      2019    8    0    1
 -2       990       991      1049      3839      4033      4034
 -1      2020    8    0    1
 -2       990      1049      1047      4034      4035      4028
 -1      2021    8    0    1
 -2       991       992      1050      3842      4036      4037
 -1      2022    8    0    1
 -2       991      1050      1049      4037      4038      4033
 -1      2023    8    0    1
 -2       992       993      1051      3845      4039      4040
 -1      2024    8    0    1
 -2       992      1051      1050      4040      4041      4036
 -1      2025    8    0    1
 -2       993       994      1052      3848      4042      4043
 -1      2026    8    0    1
 -2      1051       993      1052      4039      4043      4044
 -1      2027    8    0    1
 -2       994      1014      1052      3927      4045      4042
 -1      2028    8    0    1
 -2       986       979       985      3954      4046      3822
 -1      2029    8    0    1
 -2      1002       983      1053      3875      4047      4048
 -1      2030    8    0    1
 -2       983      1045      1053      4024      4049      4047
 -1      2031    8    0    1
 -2       997       941      1054      3862      4050      4051
 -1      2032    8    0    1
 -2      1014       997      1054      3928      4051      4052
 -1      2033    8    0    1
 -2       941      1012      1054      3918      4053      4050
 -1      2034    8    0    1
 -2       979       946      1055      3913      4054      4055
 -1      2035    8    0    1
 -2       996      1015      1037      3930      4056      4057
 -1      2036    8    0    1
 -2       987       988      1056      3830      4058      4059
 -1      2037    8    0    1
 -2      1022       987      1056      3958      4059      4060
 -1      2038    8    0    1
 -2       988      1046      1056      4027      4061      4058
 -1      2039    8    0    1
 -2       982       981      1057      3811      4062      4063
 -1      2040    8    0    1
 -2       982      1057      1036      4063      4064      3999
 -1      2041    8    0    1
 -2       969       996      1037      3855      4057      4001
 -1      2042    8    0    1
 -2       972       971      1058      3784      4065      4066
 -1      2043    8    0    1
 -2       972      1058      1038      4066      4067      4004
 -1      2044    8    0    1
 -2       952      1004      1059      3885      4068      4069
 -1      2045    8    0    1
 -2       945       978      1019      3944      4070      3941
 -1      2046    8    0    1
 -2       998       967      1060      3865      4071      4072
 -1      2047    8    0    1
 -2       981      1002      1061      3946      4073      4074
 -1      2048    8    0    1
 -2       981      1061      1057      4074      4075      4062
 -1      2049    8    0    1
 -2       951      1005      1062      3888      4076      4077
 -1      2050    8    0    1
 -2      1021       951      1062      3951      4077      4078
 -1      2051    8    0    1
 -2      1005       980      1062      3915      4079      4076
 -1      2052    8    0    1
 -2       985       979      1044      4046      4080      4021
 -1      2053    8    0    1
 -2       980       995      1063      3852      4081      4082
 -1      2054    8    0    1
 -2       980      1063      1062      4082      4083      4079
 -1      2055    8    0    1
 -2      1004       970      1064      3945      4084      4085
 -1      2056    8    0    1
 -2      1059      1004      1064      4068      4085      4086
 -1      2057    8    0    1
 -2       970      1037      1064      4002      4087      4084
 -1      2058    8    0    1
 -2       953       952      1065      3730      4088      4089
 -1      2059    8    0    1
 -2       952      1059      1065      4069      4090      4088
 -1      2060    8    0    1
 -2      1023       953      1065      3961      4089      4091
 -1      2061    8    0    1
 -2      1016      1036      1066      4000      4092      4093
 -1      2062    8    0    1
 -2      1016      1066      1010      4093      4094      3933
 -1      2063    8    0    1
 -2       971      1009      1058      4003      4095      4065
 -1      2064    8    0    1
 -2       995      1003      1067      3879      4096      4097
 -1      2065    8    0    1
 -2       995      1067      1063      4097      4098      4081
 -1      2066    8    0    1
 -2      1001      1006      1068      3891      4099      4100
 -1      2067    8    0    1
 -2      1048      1001      1068      4031      4100      4101
 -1      2068    8    0    1
 -2      1006      1022      1068      3960      4102      4099
 -1      2069    8    0    1
 -2       942      1043      1013      4019      4103      3920
 -1      2070    8    0    1
 -2       978       977      1019      3802      4104      4070
 -1      2071    8    0    1
 -2      1044       979      1055      4080      4055      4105
 -1      2072    8    0    1
 -2      1019       977      1042      4104      4016      4106
 -1      2073    8    0    1
 -2       940      1048      1009      4032      4107      3905
 -1      2074    8    0    1
 -2      1055       946      1018      4054      3939      4108
 -1      2075    8    0    1
 -2      1015      1021      1069      3953      4109      4110
 -1      2076    8    0    1
 -2      1054      1012      1070      4053      4111      4112
 -1      2077    8    0    1
 -2      1037      1015      1071      4056      4113      4114
 -1      2078    8    0    1
 -2      1064      1037      1071      4087      4114      4115
 -1      2079    8    0    1
 -2      1015      1069      1071      4110      4116      4113
 -1      2080    8    0    1
 -2       998      1060      1072      4072      4117      4118
 -1      2081    8    0    1
 -2       998      1072      1020      4118      4119      3949
 -1      2082    8    0    1
 -2       967      1010      1073      3907      4120      4121
 -1      2083    8    0    1
 -2      1010      1066      1073      4094      4122      4120
 -1      2084    8    0    1
 -2      1018      1008      1074      3940      4123      4124
 -1      2085    8    0    1
 -2      1000      1013      1075      3922      4125      4126
 -1      2086    8    0    1
 -2      1002      1053      1061      4048      4127      4073
 -1      2087    8    0    1
 -2       967      1073      1060      4121      4128      4071
 -1      2088    8    0    1
 -2      1011       966      1074      3955      4129      4130
 -1      2089    8    0    1
 -2      1003      1000      1076      3880      4131      4132
 -1      2090    8    0    1
 -2      1067      1003      1076      4096      4132      4133
 -1      2091    8    0    1
 -2      1000      1075      1076      4126      4134      4131
 -1      2092    8    0    1
 -2       966      1035      1074      3997      4135      4129
 -1      2093    8    0    1
 -2      1012      1019      1077      3943      4136      4137
 -1      2094    8    0    1
 -2      1070      1012      1077      4111      4137      4138
 -1      2095    8    0    1
 -2      1019      1042      1077      4106      4139      4136
 -1      2096    8    0    1
 -2      1021      1062      1078      4078      4140      4141
 -1      2097    8    0    1
 -2      1069      1021      1078      4109      4141      4142
 -1      2098    8    0    1
 -2      1062      1063      1078      4083      4143      4140
 -1      2099    8    0    1
 -2      1025      1024      1079      3968      4144      4145
 -1      2100    8    0    1
 -2      1026      1025      1080      3971      4146      4147
 -1      2101    8    0    1
 -2      1025      1079      1080      4145      4148      4146
 -1      2102    8    0    1
 -2      1027      1026      1081      3974      4149      4150
 -1      2103    8    0    1
 -2      1026      1080      1081      4147      4151      4149
 -1      2104    8    0    1
 -2      1028      1027      1082      3977      4152      4153
 -1      2105    8    0    1
 -2      1027      1081      1082      4150      4154      4152
 -1      2106    8    0    1
 -2      1029      1028      1083      3980      4155      4156
 -1      2107    8    0    1
 -2      1028      1082      1083      4153      4157      4155
 -1      2108    8    0    1
 -2      1030      1029      1084      3983      4158      4159
 -1      2109    8    0    1
 -2      1029      1083      1084      4156      4160      4158
 -1      2110    8    0    1
 -2      1031      1030      1085      3986      4161      4162
 -1      2111    8    0    1
 -2      1030      1084      1085      4159      4163      4161
 -1      2112    8    0    1
 -2      1032      1031      1086      3989      4164      4165
 -1      2113    8    0    1
 -2      1031      1085      1086      4162      4166      4164
 -1      2114    8    0    1
 -2      1033      1032      1087      3992      4167      4168
 -1      2115    8    0    1
 -2      1032      1086      1087      4165      4169      4167
 -1      2116    8    0    1
 -2      1034      1033      1088      3995      4170      4171
 -1      2117    8    0    1
 -2      1033      1087      1088      4168      4172      4170
 -1      2118    8    0    1
 -2      1035      1034      1089      3998      4173      4174
 -1      2119    8    0    1
 -2      1034      1088      1089      4171      4175      4173
 -1      2120    8    0    1
 -2      1018      1074      1090      4124      4176      4177
 -1      2121    8    0    1
 -2      1018      1090      1055      4177      4178      4108
 -1      2122    8    0    1
 -2      1023      1065      1091      4091      4179      4180
 -1      2123    8    0    1
 -2      1013      1043      1092      4103      4181      4182
 -1      2124    8    0    1
 -2      1013      1092      1075      4182      4183      4125
 -1      2125    8    0    1
 -2      1040      1039      1093      4011      4184      4185
 -1      2126    8    0    1
 -2      1041      1040      1094      4014      4186      4187
 -1      2127    8    0    1
 -2      1040      1093      1094      4185      4188      4186
 -1      2128    8    0    1
 -2      1042      1041      1095      4017      4189      4190
 -1      2129    8    0    1
 -2      1077      1042      1095      4139      4190      4191
 -1      2130    8    0    1
 -2      1041      1094      1095      4187      4192      4189
 -1      2131    8    0    1
 -2      1043      1020      1096      4020      4193      4194
 -1      2132    8    0    1
 -2      1020      1072      1096      4119      4195      4193
 -1      2133    8    0    1
 -2      1009      1048      1058      4107      4196      4095
 -1      2134    8    0    1
 -2      1014      1054      1097      4052      4197      4198
 -1      2135    8    0    1
 -2      1052      1014      1097      4045      4198      4199
 -1      2136    8    0    1
 -2      1054      1070      1097      4112      4200      4197
 -1      2137    8    0    1
 -2      1024      1023      1098      3965      4201      4202
 -1      2138    8    0    1
 -2      1023      1091      1098      4180      4203      4201
 -1      2139    8    0    1
 -2      1008      1017      1074      3936      4204      4123
 -1      2140    8    0    1
 -2      1046      1047      1099      4030      4205      4206
 -1      2141    8    0    1
 -2      1047      1049      1100      4035      4207      4208
 -1      2142    8    0    1
 -2      1047      1100      1099      4208      4209      4205
 -1      2143    8    0    1
 -2      1053      1045      1101      4049      4210      4211
 -1      2144    8    0    1
 -2      1058      1048      1102      4196      4212      4213
 -1      2145    8    0    1
 -2      1061      1053      1103      4127      4214      4215
 -1      2146    8    0    1
 -2      1053      1101      1103      4211      4216      4214
 -1      2147    8    0    1
 -2      1050      1051      1104      4041      4217      4218
 -1      2148    8    0    1
 -2      1060      1073      1105      4128      4219      4220
 -1      2149    8    0    1
 -2      1036      1057      1106      4064      4221      4222
 -1      2150    8    0    1
 -2      1065      1059      1107      4090      4223      4224
 -1      2151    8    0    1
 -2      1065      1107      1091      4224      4225      4179
 -1      2152    8    0    1
 -2      1044      1055      1108      4105      4226      4227
 -1      2153    8    0    1
 -2      1049      1050      1109      4038      4228      4229
 -1      2154    8    0    1
 -2      1050      1104      1109      4218      4230      4228
 -1      2155    8    0    1
 -2      1057      1061      1110      4075      4231      4232
 -1      2156    8    0    1
 -2      1061      1103      1110      4215      4233      4231
 -1      2157    8    0    1
 -2      1045      1044      1108      4025      4227      4234
 -1      2158    8    0    1
 -2      1039      1038      1111      4008      4235      4236
 -1      2159    8    0    1
 -2      1039      1111      1093      4236      4237      4184
 -1      2160    8    0    1
 -2      1038      1058      1102      4067      4213      4238
 -1      2161    8    0    1
 -2      1066      1036      1112      4092      4239      4240
 -1      2162    8    0    1
 -2      1036      1106      1112      4222      4241      4239
 -1      2163    8    0    1
 -2      1055      1090      1108      4178      4242      4226
 -1      2164    8    0    1
 -2      1090      1074      1089      4176      4243      4244
 -1      2165    8    0    1
 -2      1068      1022      1113      4102      4245      4246
 -1      2166    8    0    1
 -2      1022      1056      1113      4060      4247      4245
 -1      2167    8    0    1
 -2      1075      1092      1114      4183      4248      4249
 -1      2168    8    0    1
 -2      1038      1102      1111      4238      4250      4235
 -1      2169    8    0    1
 -2      1043      1096      1092      4194      4251      4181
 -1      2170    8    0    1
 -2      1105      1073      1115      4219      4252      4253
 -1      2171    8    0    1
 -2      1073      1066      1115      4122      4254      4252
 -1      2172    8    0    1
 -2      1069      1078      1116      4142      4255      4256
 -1      2173    8    0    1
 -2      1071      1069      1116      4116      4256      4257
 -1      2174    8    0    1
 -2      1097      1070      1104      4200      4258      4259
 -1      2175    8    0    1
 -2      1102      1048      1068      4212      4101      4260
 -1      2176    8    0    1
 -2      1078      1063      1117      4143      4261      4262
 -1      2177    8    0    1
 -2      1116      1078      1117      4255      4262      4263
 -1      2178    8    0    1
 -2      1063      1067      1117      4098      4264      4261
 -1      2179    8    0    1
 -2      1100      1049      1109      4207      4229      4265
 -1      2180    8    0    1
 -2      1057      1110      1106      4232      4266      4221
 -1      2181    8    0    1
 -2      1079      1024      1098      4144      4202      4267
 -1      2182    8    0    1
 -2      1101      1045      1108      4210      4234      4268
 -1      2183    8    0    1
 -2      1051      1052      1097      4044      4199      4269
 -1      2184    8    0    1
 -2      1056      1046      1118      4061      4270      4271
 -1      2185    8    0    1
 -2      1113      1056      1118      4247      4271      4272
 -1      2186    8    0    1
 -2      1046      1099      1118      4206      4273      4270
 -1      2187    8    0    1
 -2      1075      1114      1119      4249      4274      4275
 -1      2188    8    0    1
 -2      1075      1119      1076      4275      4276      4134
 -1      2189    8    0    1
 -2      1051      1097      1104      4269      4259      4217
 -1      2190    8    0    1
 -2      1074      1035      1089      4135      4174      4243
 -1      2191    8    0    1
 -2      1060      1105      1120      4220      4277      4278
 -1      2192    8    0    1
 -2      1060      1120      1072      4278      4279      4117
 -1      2193    8    0    1
 -2      1070      1077      1121      4138      4280      4281
 -1      2194    8    0    1
 -2      1104      1070      1121      4258      4281      4282
 -1      2195    8    0    1
 -2      1077      1095      1121      4191      4283      4280
 -1      2196    8    0    1
 -2      1059      1064      1122      4086      4284      4285
 -1      2197    8    0    1
 -2      1107      1059      1122      4223      4285      4286
 -1      2198    8    0    1
 -2      1064      1071      1122      4115      4287      4284
 -1      2199    8    0    1
 -2      1080      1079      1123      4148      4288      4289
 -1      2200    8    0    1
 -2      1081      1080      1120      4151      4290      4291
 -1      2201    8    0    1
 -2      1082      1081      1105      4154      4292      4293
 -1      2202    8    0    1
 -2      1083      1082      1115      4157      4294      4295
 -1      2203    8    0    1
 -2      1084      1083      1112      4160      4296      4297
 -1      2204    8    0    1
 -2      1085      1084      1106      4163      4298      4299
 -1      2205    8    0    1
 -2      1086      1085      1110      4166      4300      4301
 -1      2206    8    0    1
 -2      1087      1086      1103      4169      4302      4303
 -1      2207    8    0    1
 -2      1088      1087      1101      4172      4304      4305
 -1      2208    8    0    1
 -2      1093      1111      1124      4237      4306      4307
 -1      2209    8    0    1
 -2      1094      1093      1100      4188      4308      4309
 -1      2210    8    0    1
 -2      1114      1092      1125      4248      4310      4311
 -1      2211    8    0    1
 -2      1092      1096      1125      4251      4312      4310
 -1      2212    8    0    1
 -2      1103      1101      1087      4216      4304      4303
 -1      2213    8    0    1
 -2      1109      1104      1121      4230      4282      4313
 -1      2214    8    0    1
 -2      1071      1116      1122      4257      4314      4287
 -1      2215    8    0    1
 -2      1102      1068      1113      4260      4246      4315
 -1      2216    8    0    1
 -2      1101      1108      1088      4268      4316      4305
 -1      2217    8    0    1
 -2      1098      1091      1114      4203      4317      4318
 -1      2218    8    0    1
 -2      1100      1109      1094      4265      4319      4309
 -1      2219    8    0    1
 -2      1110      1085      1106      4300      4299      4266
 -1      2220    8    0    1
 -2      1106      1084      1112      4298      4297      4241
 -1      2221    8    0    1
 -2      1103      1086      1110      4302      4301      4233
 -1      2222    8    0    1
 -2      1105      1081      1120      4292      4291      4277
 -1      2223    8    0    1
 -2      1017      1011      1074      3937      4130      4204
 -1      2224    8    0    1
 -2      1108      1090      1089      4242      4244      4320
 -1      2225    8    0    1
 -2      1091      1107      1119      4225      4321      4322
 -1      2226    8    0    1
 -2      1067      1076      1126      4133      4323      4324
 -1      2227    8    0    1
 -2      1117      1067      1126      4264      4324      4325
 -1      2228    8    0    1
 -2      1076      1119      1126      4276      4326      4323
 -1      2229    8    0    1
 -2      1079      1098      1125      4267      4327      4328
 -1      2230    8    0    1
 -2      1096      1072      1127      4195      4329      4330
 -1      2231    8    0    1
 -2      1125      1096      1127      4312      4330      4331
 -1      2232    8    0    1
 -2      1072      1120      1127      4279      4332      4329
 -1      2233    8    0    1
 -2      1082      1105      1115      4293      4253      4294
 -1      2234    8    0    1
 -2      1098      1114      1125      4318      4311      4327
 -1      2235    8    0    1
 -2      1088      1108      1089      4316      4320      4175
 -1      2236    8    0    1
 -2      1111      1102      1128      4250      4333      4334
 -1      2237    8    0    1
 -2      1115      1066      1112      4254      4240      4335
 -1      2238    8    0    1
 -2      1099      1100      1124      4209      4336      4337
 -1      2239    8    0    1
 -2      1114      1091      1119      4317      4322      4274
 -1      2240    8    0    1
 -2      1100      1093      1124      4308      4307      4336
 -1      2241    8    0    1
 -2      1118      1099      1128      4273      4338      4339
 -1      2242    8    0    1
 -2      1094      1109      1121      4319      4313      4340
 -1      2243    8    0    1
 -2      1099      1124      1128      4337      4341      4338
 -1      2244    8    0    1
 -2      1107      1122      1116      4286      4314      4342
 -1      2245    8    0    1
 -2      1112      1083      1115      4296      4295      4335
 -1      2246    8    0    1
 -2      1116      1117      1126      4263      4325      4343
 -1      2247    8    0    1
 -2      1107      1116      1126      4342      4343      4344
 -1      2248    8    0    1
 -2      1111      1128      1124      4334      4341      4306
 -1      2249    8    0    1
 -2      1095      1094      1121      4192      4340      4283
 -1      2250    8    0    1
 -2      1123      1079      1125      4288      4328      4345
 -1      2251    8    0    1
 -2      1102      1113      1128      4315      4346      4333
 -1      2252    8    0    1
 -2      1080      1123      1120      4289      4347      4290
 -1      2253    8    0    1
 -2      1118      1128      1113      4339      4346      4272
 -1      2254    8    0    1
 -2      1123      1125      1127      4345      4331      4348
 -1      2255    8    0    1
 -2      1119      1107      1126      4321      4344      4326
 -1      2256    8    0    1
 -2      1120      1123      1127      4347      4348      4332
 -3
    1PSTEP                         1           1           1          
  100CL  101 1.000000000        4348                     0    1           1
 -4  DISP        4    1
 -5  D1          1    2    1    0
 -5  D2          1    2    2    0
 -5  D3          1    2    3    0
 -5  ALL         1    2    0    0    1ALL
 -1         1 7.52112E-03-6.58362E-04-3.71096E-14
 -1         2 1.10740E-02-1.58166E-05-4.66934E-14
 -1         3 1.51553E-02 6.33174E-04-1.01451E-13
 -1         4 1.52009E-02-7.39444E-04-1.09098E-13
 -1         5 0.00000E+00 0.00000E+00 0.00000E+00
 -1         6 0.00000E+00 0.00000E+00 0.00000E+00
 -1         7 0.00000E+00 0.00000E+00 0.00000E+00
 -1         8 0.00000E+00 0.00000E+00 0.00000E+00
 -1         9 0.00000E+00 0.00000E+00 0.00000E+00
 -1        10 0.00000E+00 0.00000E+00 0.00000E+00
 -1        11 0.00000E+00 0.00000E+00 0.00000E+00
 -1        12 0.00000E+00 0.00000E+00 0.00000E+00
 -1        13 0.00000E+00 0.00000E+00 0.00000E+00
 -1        14 0.00000E+00 0.00000E+00 0.00000E+00
 -1        15 0.00000E+00 0.00000E+00 0.00000E+00
 -1        16 0.00000E+00 0.00000E+00 0.00000E+00
 -1        17 0.00000E+00 0.00000E+00 0.00000E+00
 -1        18 0.00000E+00 0.00000E+00 0.00000E+00
 -1        19 0.00000E+00 0.00000E+00 0.00000E+00
 -1        20 0.00000E+00 0.00000E+00 0.00000E+00
 -1        21 0.00000E+00 0.00000E+00 0.00000E+00
 -1        22 0.00000E+00 0.00000E+00 0.00000E+00
 -1        23 4.10838E-04-2.60466E-04 1.98172E-17
 -1        24 7.02342E-04-4.00411E-04-8.68073E-17
 -1        25 9.71922E-04-4.97324E-04-3.14063E-16
 -1        26 1.23592E-03-5.65395E-04-6.57626E-16
 -1        27 1.49897E-03-6.13723E-04-1.11409E-15
 -1        28 1.76320E-03-6.47635E-04-1.68196E-15
 -1        29 2.02960E-03-6.70770E-04-2.36009E-15
 -1        30 2.29863E-03-6.85749E-04-3.14793E-15
 -1        31 2.57046E-03-6.94512E-04-4.04136E-15
 -1        32 2.84511E-03-6.98508E-04-5.03850E-15
 -1        33 3.12259E-03-6.98826E-04-6.13603E-15
 -1        34 3.40295E-03-6.96297E-04-7.32724E-15
 -1        35 3.68633E-03-6.91578E-04-8.61417E-15
 -1        36 3.97302E-03-6.85240E-04-9.98865E-15
 -1        37 4.26350E-03-6.77860E-04-1.14516E-14
 -1        38 4.55844E-03-6.70120E-04-1.29967E-14
 -1        39 4.85872E-03-6.62927E-04-1.46206E-14
 -1        40 5.16544E-03-6.57552E-04-1.63261E-14
 -1        41 5.47981E-03-6.55784E-04-1.81152E-14
 -1        42 5.80299E-03-6.60082E-04-1.99848E-14
 -1        43 6.13581E-03-6.73675E-04-2.19298E-14
 -1        44 6.47826E-03-7.00498E-04-2.39522E-14
 -1        45 6.82874E-03-7.44771E-04-2.60549E-14
 -1        46 7.18328E-03-8.09953E-04-2.82472E-14
 -1        47 7.53498E-03-8.96831E-04-3.05304E-14
 -1        48 7.87441E-03-1.00089E-03-3.29054E-14
 -1        49 8.19207E-03-1.11000E-03-3.53677E-14
 -1        50 8.48269E-03-1.20465E-03-3.79105E-14
 -1        51 8.74975E-03-1.26289E-03-4.05368E-14
 -1        52 9.00634E-03-1.26914E-03-4.32413E-14
 -1        53 9.27032E-03-1.22197E-03-4.60202E-14
 -1        54 9.55616E-03-1.13484E-03-4.88719E-14
 -1        55 9.86912E-03-1.02928E-03-5.18079E-14
 -1        56 1.02052E-02-9.25737E-04-5.48311E-14
 -1        57 1.05554E-02-8.37757E-04-5.79319E-14
 -1        58 1.09099E-02-7.71076E-04-6.10871E-14
 -1        59 1.12614E-02-7.25630E-04-6.42966E-14
 -1        60 1.16054E-02-6.98248E-04-6.75490E-14
 -1        61 1.19399E-02-6.84724E-04-7.08438E-14
 -1        62 1.22648E-02-6.81003E-04-7.41868E-14
 -1        63 1.25808E-02-6.83697E-04-7.75833E-14
 -1        64 1.28891E-02-6.90195E-04-8.10150E-14
 -1        65 1.31910E-02-6.98588E-04-8.44865E-14
 -1        66 1.34878E-02-7.07528E-04-8.79876E-14
 -1        67 1.37807E-02-7.16086E-04-9.15073E-14
 -1        68 1.40704E-02-7.23635E-04-9.50292E-14
 -1        69 1.43579E-02-7.29771E-04-9.85649E-14
 -1        70 1.46441E-02-7.34296E-04-1.02110E-13
 -1        71 1.49296E-02-7.37331E-04-1.05678E-13
 -1        72 4.13282E-04 2.61168E-04 6.19079E-17
 -1        73 7.02164E-04 4.03112E-04 3.08489E-17
 -1        74 9.72458E-04 4.99092E-04-9.30991E-17
 -1        75 1.23675E-03 5.67105E-04-3.12016E-16
 -1        76 1.49993E-03 6.15482E-04-6.29610E-16
 -1        77 1.76423E-03 6.49484E-04-1.04815E-15
 -1        78 2.03067E-03 6.72730E-04-1.56589E-15
 -1        79 2.29973E-03 6.87833E-04-2.18361E-15
 -1        80 2.57157E-03 6.96728E-04-2.90111E-15
 -1        81 2.84623E-03 7.00864E-04-3.71820E-15
 -1        82 3.12373E-03 7.01329E-04-4.63508E-15
 -1        83 3.40409E-03 6.98956E-04-5.64920E-15
 -1        84 3.68748E-03 6.94406E-04-6.75934E-15
 -1        85 3.97416E-03 6.88257E-04-7.96340E-15
 -1        86 4.26461E-03 6.81090E-04-9.26286E-15
 -1        87 4.55949E-03 6.73595E-04-1.06593E-14
 -1        88 4.85964E-03 6.66684E-04-1.21446E-14
 -1        89 5.16612E-03 6.61629E-04-1.37110E-14
 -1        90 5.48006E-03 6.60203E-04-1.53527E-14
 -1        91 5.80254E-03 6.64821E-04-1.70723E-14
 -1        92 6.13424E-03 6.78618E-04-1.88734E-14
 -1        93 6.47501E-03 7.05354E-04-2.07440E-14
 -1        94 6.82314E-03 7.48972E-04-2.26836E-14
 -1        95 7.17461E-03 8.12557E-04-2.46942E-14
 -1        96 7.52268E-03 8.96504E-04-2.67756E-14
 -1        97 7.85841E-03 9.96082E-04-2.89221E-14
 -1        98 8.17294E-03 1.09943E-03-3.11571E-14
 -1        99 8.46157E-03 1.18798E-03-3.34736E-14
 -1       100 8.72782E-03 1.24118E-03-3.58747E-14
 -1       101 8.98413E-03 1.24460E-03-3.83569E-14
 -1       102 9.24736E-03 1.19691E-03-4.09207E-14
 -1       103 9.53131E-03 1.11055E-03-4.35796E-14
 -1       104 9.84124E-03 1.00559E-03-4.63328E-14
 -1       105 1.01737E-02 9.01418E-04-4.91753E-14
 -1       106 1.05202E-02 8.11241E-04-5.20964E-14
 -1       107 1.08715E-02 7.40967E-04-5.50803E-14
 -1       108 1.12206E-02 6.90930E-04-5.81262E-14
 -1       109 1.15628E-02 6.58351E-04-6.12340E-14
 -1       110 1.18961E-02 6.39317E-04-6.44187E-14
 -1       111 1.22202E-02 6.29957E-04-6.76649E-14
 -1       112 1.25357E-02 6.26983E-04-7.09523E-14
 -1       113 1.28438E-02 6.27833E-04-7.42783E-14
 -1       114 1.31456E-02 6.30614E-04-7.76483E-14
 -1       115 1.34423E-02 6.33978E-04-8.10428E-14
 -1       116 1.37351E-02 6.36993E-04-8.44397E-14
 -1       117 1.40248E-02 6.39024E-04-8.78554E-14
 -1       118 1.43124E-02 6.39661E-04-9.12882E-14
 -1       119 1.45985E-02 6.38704E-04-9.47356E-14
 -1       120 1.48840E-02 6.36256E-04-9.81871E-14
 -1       121 1.51586E-02 5.48749E-04-1.01929E-13
 -1       122 1.51627E-02 4.64307E-04-1.02420E-13
 -1       123 1.51682E-02 3.80503E-04-1.02886E-13
 -1       124 1.51747E-02 2.97977E-04-1.03335E-13
 -1       125 1.51817E-02 2.17081E-04-1.03810E-13
 -1       126 1.51883E-02 1.39184E-04-1.04297E-13
 -1       127 1.51942E-02 6.13539E-05-1.04785E-13
 -1       128 1.51986E-02-1.55264E-05-1.05270E-13
 -1       129 1.52013E-02-9.20750E-05-1.05752E-13
 -1       130 1.52022E-02-1.68961E-04-1.06228E-13
 -1       131 1.52017E-02-2.46802E-04-1.06688E-13
 -1       132 1.52003E-02-3.24716E-04-1.07160E-13
 -1       133 1.51987E-02-4.05632E-04-1.07604E-13
 -1       134 1.51976E-02-4.88182E-04-1.08009E-13
 -1       135 1.51976E-02-5.72023E-04-1.08395E-13
 -1       136 1.51989E-02-6.56433E-04-1.08758E-13
 -1       137 1.10223E-02 1.58082E-04-4.63976E-14
 -1       138 1.08804E-02 3.19245E-04-4.58336E-14
 -1       139 1.06315E-02 4.78991E-04-4.49494E-14
 -1       140 1.03250E-02 6.07792E-04-4.39340E-14
 -1       141 9.94378E-03 7.14781E-04-4.27344E-14
 -1       142 9.52932E-03 7.86430E-04-4.14950E-14
 -1       143 9.05545E-03 8.24676E-04-4.01282E-14
 -1       144 8.58409E-03 8.19202E-04-3.88321E-14
 -1       145 8.14004E-03 7.74219E-04-3.76575E-14
 -1       146 7.72594E-03 6.92928E-04-3.66089E-14
 -1       147 7.34287E-03 5.72168E-04-3.56781E-14
 -1       148 7.05155E-03 4.32713E-04-3.50172E-14
 -1       149 6.85591E-03 2.87015E-04-3.46188E-14
 -1       150 6.73583E-03 1.22721E-04-3.44342E-14
 -1       151 6.70918E-03-4.83760E-05-3.44968E-14
 -1       152 6.77862E-03-2.17504E-04-3.48090E-14
 -1       153 6.93898E-03-3.77411E-04-3.53532E-14
 -1       154 7.19257E-03-5.29030E-04-3.61379E-14
 -1       155 7.89477E-03-7.56079E-04-3.81839E-14
 -1       156 8.32832E-03-8.25579E-04-3.94200E-14
 -1       157 8.76272E-03-8.55176E-04-4.06366E-14
 -1       158 9.22678E-03-8.46714E-04-4.19330E-14
 -1       159 9.66026E-03-8.00775E-04-4.31265E-14
 -1       160 1.00637E-02-7.19114E-04-4.42399E-14
 -1       161 1.04030E-02-6.14023E-04-4.51572E-14
 -1       162 1.07020E-02-4.76278E-04-4.59439E-14
 -1       163 1.09090E-02-3.29625E-04-4.64459E-14
 -1       164 1.10337E-02-1.73698E-04-4.66989E-14
 -1       165 2.40202E-04-1.25430E-04-2.89482E-17
 -1       166 2.25182E-04-9.45573E-05-4.34867E-17
 -1       167 2.19533E-04-7.27282E-05-5.08220E-17
 -1       168 2.16790E-04-5.50504E-05-5.44744E-17
 -1       169 2.15344E-04-3.99149E-05-5.55179E-17
 -1       170 2.14542E-04-2.58743E-05-5.54366E-17
 -1       171 2.14142E-04-1.26215E-05-5.43321E-17
 -1       172 2.14026E-04 2.72730E-07-5.28515E-17
 -1       173 2.14161E-04 1.31793E-05-5.07644E-17
 -1       174 2.14583E-04 2.64720E-05-4.81420E-17
 -1       175 2.15395E-04 4.03414E-05-4.47674E-17
 -1       176 2.16893E-04 5.58584E-05-3.96174E-17
 -1       177 2.19678E-04 7.37612E-05-3.17875E-17
 -1       178 2.25357E-04 9.59572E-05-1.93530E-17
 -1       179 2.39131E-04 1.27508E-04 4.60786E-19
 -1       180 2.97361E-04 1.85340E-04 2.23380E-17
 -1       181 4.68098E-04-2.63256E-04-7.73680E-17
 -1       182 7.65896E-04-3.81470E-04-2.63847E-16
 -1       183 1.04942E-03-4.63783E-04-5.61468E-16
 -1       184 1.32652E-03-5.21755E-04-9.69216E-16
 -1       185 1.60089E-03-5.62350E-04-1.48660E-15
 -1       186 1.87464E-03-5.90187E-04-2.11262E-15
 -1       187 2.14898E-03-6.08489E-04-2.84599E-15
 -1       188 2.42458E-03-6.19591E-04-3.68398E-15
 -1       189 2.70185E-03-6.25213E-04-4.62505E-15
 -1       190 2.98102E-03-6.26629E-04-5.66559E-15
 -1       191 3.26227E-03-6.24781E-04-6.80193E-15
 -1       192 3.54581E-03-6.20385E-04-8.03152E-15
 -1       193 3.83189E-03-6.14017E-04-9.35289E-15
 -1       194 4.12085E-03-6.06199E-04-1.07617E-14
 -1       195 4.41316E-03-5.97505E-04-1.22576E-14
 -1       196 4.70941E-03-5.88666E-04-1.38338E-14
 -1       197 5.01033E-03-5.80711E-04-1.54904E-14
 -1       198 5.31671E-03-5.75123E-04-1.72283E-14
 -1       199 5.62935E-03-5.74014E-04-1.90486E-14
 -1       200 5.94894E-03-5.80286E-04-2.09467E-14
 -1       201 6.27576E-03-5.97709E-04-2.29217E-14
 -1       202 6.60941E-03-6.30754E-04-2.49752E-14
 -1       203 6.94835E-03-6.83930E-04-2.71153E-14
 -1       204 7.28954E-03-7.60301E-04-2.93433E-14
 -1       205 7.62832E-03-8.58978E-04-3.16590E-14
 -1       206 7.95902E-03-9.72041E-04-3.40623E-14
 -1       207 8.27680E-03-1.08261E-03-3.65490E-14
 -1       208 8.58034E-03-1.16704E-03-3.91193E-14
 -1       209 8.87396E-03-1.20293E-03-4.17712E-14
 -1       210 9.16667E-03-1.17989E-03-4.45030E-14
 -1       211 9.46794E-03-1.10528E-03-4.73119E-14
 -1       212 9.78309E-03-1.00012E-03-5.01981E-14
 -1       213 1.01117E-02-8.88574E-04-5.31667E-14
 -1       214 1.04495E-02-7.89020E-04-5.62130E-14
 -1       215 1.07905E-02-7.10905E-04-5.93250E-14
 -1       216 1.11301E-02-6.56132E-04-6.24949E-14
 -1       217 1.14648E-02-6.22107E-04-6.57122E-14
 -1       218 1.17929E-02-6.04417E-04-6.89761E-14
 -1       219 1.21139E-02-5.98490E-04-7.22876E-14
 -1       220 1.24279E-02-6.00384E-04-7.56509E-14
 -1       221 1.27357E-02-6.07017E-04-7.90573E-14
 -1       222 1.30380E-02-6.16126E-04-8.24987E-14
 -1       223 1.33359E-02-6.26115E-04-8.59697E-14
 -1       224 1.36301E-02-6.35895E-04-8.94698E-14
 -1       225 1.39214E-02-6.44731E-04-9.29823E-14
 -1       226 1.42106E-02-6.52141E-04-9.65062E-14
 -1       227 1.44981E-02-6.57838E-04-1.00038E-13
 -1       228 1.47846E-02-6.61764E-04-1.03592E-13
 -1       229 6.03845E-04 3.30588E-04-2.81046E-17
 -1       230 8.92578E-04 4.31753E-04-1.66090E-16
 -1       231 1.17113E-03 5.02844E-04-3.96266E-16
 -1       232 1.44517E-03 5.53017E-04-7.22719E-16
 -1       233 1.71775E-03 5.88035E-04-1.14752E-15
 -1       234 1.99054E-03 6.11804E-04-1.67066E-15
 -1       235 2.26445E-03 6.27115E-04-2.29269E-15
 -1       236 2.53999E-03 6.36013E-04-3.01394E-15
 -1       237 2.81746E-03 6.40009E-04-3.83351E-15
 -1       238 3.09704E-03 6.40230E-04-4.75126E-15
 -1       239 3.37890E-03 6.37517E-04-5.76576E-15
 -1       240 3.66324E-03 6.32525E-04-6.87594E-15
 -1       241 3.95035E-03 6.25805E-04-8.08079E-15
 -1       242 4.24061E-03 6.17903E-04-9.37955E-15
 -1       243 4.53457E-03 6.09454E-04-1.07707E-14
 -1       244 4.83287E-03 6.01309E-04-1.22508E-14
 -1       245 5.13629E-03 5.94671E-04-1.38136E-14
 -1       246 5.44563E-03 5.91251E-04-1.54525E-14
 -1       247 5.76164E-03 5.93432E-04-1.71683E-14
 -1       248 6.08479E-03 6.04379E-04-1.89681E-14
 -1       249 6.41499E-03 6.28005E-04-2.08391E-14
 -1       250 6.75118E-03 6.68604E-04-2.27816E-14
 -1       251 7.09091E-03 7.29880E-04-2.47905E-14
 -1       252 7.43011E-03 8.13107E-04-2.68718E-14
 -1       253 7.76331E-03 9.14487E-04-2.90262E-14
 -1       254 8.08494E-03 1.02264E-03-3.12620E-14
 -1       255 8.39161E-03 1.11835E-03-3.35785E-14
 -1       256 8.68467E-03 1.17909E-03-3.59793E-14
 -1       257 8.97100E-03 1.18788E-03-3.84611E-14
 -1       258 9.26056E-03 1.14178E-03-4.10292E-14
 -1       259 9.56183E-03 1.05347E-03-4.36884E-14
 -1       260 9.87820E-03 9.44587E-04-4.64414E-14
 -1       261 1.02078E-02 8.36289E-04-4.92820E-14
 -1       262 1.05454E-02 7.42910E-04-5.22004E-14
 -1       263 1.08854E-02 6.70746E-04-5.51810E-14
 -1       264 1.12232E-02 6.20024E-04-5.82240E-14
 -1       265 1.15558E-02 5.87650E-04-6.13280E-14
 -1       266 1.18815E-02 5.69374E-04-6.45003E-14
 -1       267 1.22002E-02 5.61054E-04-6.77378E-14
 -1       268 1.25121E-02 5.59214E-04-7.10237E-14
 -1       269 1.28180E-02 5.61171E-04-7.43512E-14
 -1       270 1.31187E-02 5.64970E-04-7.77174E-14
 -1       271 1.34151E-02 5.69235E-04-8.11038E-14
 -1       272 1.37081E-02 5.73026E-04-8.44981E-14
 -1       273 1.39985E-02 5.75709E-04-8.79075E-14
 -1       274 1.42869E-02 5.76871E-04-9.13343E-14
 -1       275 1.45739E-02 5.76301E-04-9.47726E-14
 -1       276 1.48600E-02 5.74056E-04-9.82165E-14
 -1       277 1.49131E-02 5.09748E-04-9.91853E-14
 -1       278 1.49180E-02 4.26194E-04-9.96624E-14
 -1       279 1.49244E-02 3.43578E-04-1.00137E-13
 -1       280 1.49316E-02 2.62151E-04-1.00611E-13
 -1       281 1.49389E-02 1.83345E-04-1.01086E-13
 -1       282 1.49456E-02 1.04334E-04-1.01571E-13
 -1       283 1.49510E-02 2.62072E-05-1.02054E-13
 -1       284 1.49547E-02-5.14439E-05-1.02529E-13
 -1       285 1.49564E-02-1.29096E-04-1.02992E-13
 -1       286 1.49563E-02-2.07227E-04-1.03445E-13
 -1       287 1.49550E-02-2.84898E-04-1.03888E-13
 -1       288 1.49529E-02-3.65063E-04-1.04320E-13
 -1       289 1.49511E-02-4.46503E-04-1.04725E-13
 -1       290 1.49501E-02-5.29126E-04-1.05105E-13
 -1       291 1.48669E-02-5.95317E-04-1.04356E-13
 -1       292 1.10829E-02 2.87935E-05-4.77583E-14
 -1       293 1.09451E-02 1.34010E-04-4.71558E-14
 -1       294 1.06824E-02 2.55746E-04-4.64139E-14
 -1       295 1.03513E-02 4.29692E-04-4.51602E-14
 -1       296 9.98059E-03 6.02132E-04-4.38481E-14
 -1       297 9.59993E-03 7.58291E-04-4.24070E-14
 -1       298 9.20706E-03 8.74863E-04-4.08872E-14
 -1       299 8.83196E-03 9.04155E-04-3.93100E-14
 -1       300 8.46123E-03 8.49779E-04-3.78617E-14
 -1       301 8.08448E-03 7.24186E-04-3.65674E-14
 -1       302 7.70162E-03 5.45335E-04-3.53276E-14
 -1       303 7.31074E-03 3.72793E-04-3.45072E-14
 -1       304 7.00370E-03 2.31331E-04-3.39601E-14
 -1       305 6.78924E-03 1.14164E-04-3.36260E-14
 -1       306 6.68414E-03 1.49264E-05-3.34924E-14
 -1       307 6.71613E-03-7.72128E-05-3.37654E-14
 -1       308 6.87705E-03-1.79048E-04-3.41891E-14
 -1       309 7.14479E-03-3.20964E-04-3.50008E-14
 -1       310 7.50311E-03-4.77735E-04-3.59193E-14
 -1       311 7.86305E-03-6.58245E-04-3.71826E-14
 -1       312 8.25333E-03-8.10356E-04-3.84828E-14
 -1       313 8.61178E-03-9.06692E-04-3.99531E-14
 -1       314 8.97418E-03-9.36281E-04-4.14519E-14
 -1       315 9.34476E-03-8.71782E-04-4.29044E-14
 -1       316 9.70269E-03-7.47974E-04-4.43571E-14
 -1       317 1.00820E-02-5.91031E-04-4.54833E-14
 -1       318 1.04274E-02-4.13467E-04-4.66327E-14
 -1       319 1.07461E-02-2.66881E-04-4.73468E-14
 -1       320 1.09711E-02-1.53878E-04-4.77249E-14
 -1       321 1.10867E-02-5.95279E-05-4.78676E-14
 -1       322 4.55222E-04-1.64498E-04-1.71795E-16
 -1       323 4.73970E-04-2.12703E-04-1.49562E-16
 -1       324 4.40648E-04-9.38119E-05-1.89962E-16
 -1       325 4.37761E-04-6.47488E-05-1.91358E-16
 -1       326 4.36185E-04-3.78001E-05-1.89844E-16
 -1       327 4.35496E-04-1.19813E-05-1.86605E-16
 -1       328 4.35526E-04 1.34980E-05-1.81553E-16
 -1       329 4.36282E-04 3.93747E-05-1.74607E-16
 -1       330 4.37904E-04 6.59761E-05-1.65778E-16
 -1       331 4.40883E-04 9.52120E-05-1.53550E-16
 -1       332 4.46153E-04 1.28099E-04-1.36613E-16
 -1       333 4.55821E-04 1.67059E-04-1.12323E-16
 -1       334 4.75595E-04 2.16767E-04-7.68123E-17
 -1       335 5.31529E-04 2.69618E-04-5.80319E-17
 -1       336 8.23749E-04 3.72723E-04-2.04853E-16
 -1       337 8.62669E-04-3.56541E-04-4.57899E-16
 -1       338 1.14886E-03-4.24613E-04-8.20626E-16
 -1       339 1.43153E-03-4.72835E-04-1.28980E-15
 -1       340 1.71222E-03-5.06291E-04-1.86546E-15
 -1       341 1.99210E-03-5.28697E-04-2.54717E-15
 -1       342 2.27197E-03-5.42786E-04-3.33176E-15
 -1       343 2.55241E-03-5.50576E-04-4.21803E-15
 -1       344 2.83379E-03-5.53557E-04-5.20407E-15
 -1       345 3.11636E-03-5.52825E-04-6.28639E-15
 -1       346 3.40036E-03-5.49189E-04-7.46132E-15
 -1       347 3.68600E-03-5.43268E-04-8.72811E-15
 -1       348 3.97354E-03-5.35573E-04-1.00849E-14
 -1       349 4.26328E-03-5.26607E-04-1.15279E-14
 -1       350 4.55561E-03-5.16968E-04-1.30558E-14
 -1       351 4.85099E-03-5.07467E-04-1.46632E-14
 -1       352 5.14997E-03-4.99281E-04-1.63513E-14
 -1       353 5.45318E-03-4.94116E-04-1.81219E-14
 -1       354 5.76131E-03-4.94388E-04-1.99718E-14
 -1       355 6.07507E-03-5.03380E-04-2.19027E-14
 -1       356 6.39509E-03-5.25271E-04-2.39097E-14
 -1       357 6.72181E-03-5.64889E-04-2.59971E-14
 -1       358 7.05501E-03-6.26861E-04-2.81719E-14
 -1       359 7.39331E-03-7.13778E-04-3.04317E-14
 -1       360 7.73340E-03-8.23126E-04-3.27738E-14
 -1       361 8.06999E-03-9.43516E-04-3.52024E-14
 -1       362 8.39768E-03-1.05265E-03-3.77155E-14
 -1       363 8.71495E-03-1.12193E-03-4.03170E-14
 -1       364 9.02693E-03-1.12923E-03-4.29961E-14
 -1       365 9.34269E-03-1.07242E-03-4.57579E-14
 -1       366 9.66845E-03-9.70866E-04-4.85969E-14
 -1       367 1.00038E-02-8.53151E-04-5.15189E-14
 -1       368 1.03436E-02-7.43226E-04-5.45127E-14
 -1       369 1.06825E-02-6.54405E-04-5.75771E-14
 -1       370 1.10168E-02-5.90506E-04-6.07038E-14
 -1       371 1.13447E-02-5.49559E-04-6.38860E-14
 -1       372 1.16659E-02-5.27105E-04-6.71197E-14
 -1       373 1.19808E-02-5.18245E-04-7.03992E-14
 -1       374 1.22901E-02-5.18622E-04-7.37294E-14
 -1       375 1.25943E-02-5.24765E-04-7.71054E-14
 -1       376 1.28944E-02-5.34087E-04-8.05241E-14
 -1       377 1.31910E-02-5.44745E-04-8.39705E-14
 -1       378 1.34846E-02-5.55475E-04-8.74424E-14
 -1       379 1.37759E-02-5.65429E-04-9.09404E-14
 -1       380 1.40654E-02-5.74047E-04-9.44491E-14
 -1       381 1.43534E-02-5.80970E-04-9.79670E-14
 -1       382 1.46105E-02-5.88909E-04-1.01153E-13
 -1       383 1.10900E-03 4.46408E-04-4.41148E-16
 -1       384 1.38956E-03 4.98583E-04-7.71610E-16
 -1       385 1.66776E-03 5.34990E-04-1.19895E-15
 -1       386 1.94517E-03 5.59679E-04-1.72344E-15
 -1       387 2.22279E-03 5.75572E-04-2.34534E-15
 -1       388 2.50125E-03 5.84812E-04-3.06636E-15
 -1       389 2.78094E-03 5.88980E-04-3.88484E-15
 -1       390 3.06214E-03 5.89245E-04-4.80010E-15
 -1       391 3.34506E-03 5.86473E-04-5.81115E-15
 -1       392 3.62993E-03 5.81323E-04-6.91796E-15
 -1       393 3.91701E-03 5.74339E-04-8.12007E-15
 -1       394 4.20662E-03 5.66037E-04-9.41480E-15
 -1       395 4.49920E-03 5.57014E-04-1.08009E-14
 -1       396 4.79524E-03 5.48058E-04-1.22744E-14
 -1       397 5.09537E-03 5.40296E-04-1.38313E-14
 -1       398 5.40022E-03 5.35344E-04-1.54647E-14
 -1       399 5.71047E-03 5.35485E-04-1.71768E-14
 -1       400 6.02667E-03 5.43797E-04-1.89706E-14
 -1       401 6.34911E-03 5.64174E-04-2.08401E-14
 -1       402 6.67760E-03 6.01058E-04-2.27794E-14
 -1       403 7.01111E-03 6.58623E-04-2.47877E-14
 -1       404 7.34738E-03 7.39090E-04-2.68673E-14
 -1       405 7.68270E-03 8.40059E-04-2.90213E-14
 -1       406 8.01225E-03 9.51496E-04-3.12540E-14
 -1       407 8.33179E-03 1.05438E-03-3.35678E-14
 -1       408 8.64047E-03 1.12421E-03-3.59637E-14
 -1       409 8.94275E-03 1.14052E-03-3.84451E-14
 -1       410 9.24681E-03 1.09777E-03-4.10114E-14
 -1       411 9.55974E-03 1.00859E-03-4.36666E-14
 -1       412 9.88375E-03 8.96579E-04-4.64157E-14
 -1       413 1.02162E-02 7.84835E-04-4.92531E-14
 -1       414 1.05525E-02 6.88763E-04-5.21673E-14
 -1       415 1.08879E-02 6.14905E-04-5.51466E-14
 -1       416 1.12195E-02 5.63347E-04-5.81863E-14
 -1       417 1.15456E-02 5.30762E-04-6.12833E-14
 -1       418 1.18655E-02 5.12689E-04-6.44450E-14
 -1       419 1.21793E-02 5.04824E-04-6.76766E-14
 -1       420 1.24875E-02 5.03572E-04-7.09615E-14
 -1       421 1.27907E-02 5.06172E-04-7.42873E-14
 -1       422 1.30897E-02 5.10614E-04-7.76483E-14
 -1       423 1.33851E-02 5.15495E-04-8.10280E-14
 -1       424 1.36776E-02 5.19857E-04-8.44202E-14
 -1       425 1.39679E-02 5.23062E-04-8.78263E-14
 -1       426 1.42564E-02 5.24693E-04-9.12467E-14
 -1       427 1.45436E-02 5.24523E-04-9.46772E-14
 -1       428 1.47285E-02 5.17477E-04-9.69268E-14
 -1       429 1.46812E-02 3.05266E-04-9.74051E-14
 -1       430 1.46738E-02 3.87137E-04-9.69202E-14
 -1       431 1.47006E-02 4.52027E-04-9.69235E-14
 -1       432 1.46890E-02 2.25959E-04-9.78795E-14
 -1       433 1.46966E-02 1.46415E-04-9.83581E-14
 -1       434 1.47031E-02 6.78052E-05-9.88360E-14
 -1       435 1.47078E-02-1.01926E-05-9.93069E-14
 -1       436 1.47105E-02-8.79774E-05-9.97673E-14
 -1       437 1.47111E-02-1.65975E-04-1.00214E-13
 -1       438 1.47100E-02-2.43245E-04-1.00643E-13
 -1       439 1.47077E-02-3.22773E-04-1.01061E-13
 -1       440 1.47052E-02-4.03443E-04-1.01458E-13
 -1       441 1.47032E-02-4.85320E-04-1.01839E-13
 -1       442 1.08291E-02 1.20811E-04-4.81008E-14
 -1       443 1.11182E-02-1.77573E-05-4.91397E-14
 -1       444 1.10211E-02 4.64794E-05-4.87183E-14
 -1       445 1.04510E-02 2.83371E-04-4.67832E-14
 -1       446 1.01402E-02 4.43699E-04-4.54506E-14
 -1       447 4.45770E-04-1.26261E-04-1.84142E-16
 -1       448 9.38361E-03 8.24807E-04-4.20116E-14
 -1       449 8.98949E-03 9.31674E-04-3.99395E-14
 -1       450 8.67454E-03 9.20181E-04-3.82143E-14
 -1       451 8.33117E-03 8.02543E-04-3.66406E-14
 -1       452 8.00416E-03 6.42564E-04-3.54049E-14
 -1       453 7.53508E-03 3.93526E-04-3.39124E-14
 -1       454 7.17542E-03 2.27788E-04-3.32095E-14
 -1       455 6.89373E-03 1.10566E-04-3.27220E-14
 -1       456 6.71151E-03 3.36108E-05-3.23997E-14
 -1       457 6.66766E-03-2.22432E-05-3.26071E-14
 -1       458 6.77211E-03-8.01547E-05-3.29751E-14
 -1       459 7.03417E-03-1.82984E-04-3.36158E-14
 -1       460 7.32691E-03-3.14668E-04-3.45014E-14
 -1       461 7.76780E-03-5.43440E-04-3.60532E-14
 -1       462 8.10080E-03-7.17416E-04-3.73348E-14
 -1       463 8.49848E-03-8.93175E-04-3.91243E-14
 -1       464 8.78244E-03-9.60939E-04-4.06076E-14
 -1       465 9.15157E-03-9.38036E-04-4.26384E-14
 -1       466 9.43527E-03-8.38427E-04-4.40896E-14
 -1       467 9.84952E-03-6.35612E-04-4.58033E-14
 -1       468 1.01741E-02-4.65699E-04-4.69605E-14
 -1       469 1.05686E-02-2.71987E-04-4.81822E-14
 -1       470 1.08669E-02-1.46873E-04-4.88312E-14
 -1       471 1.10534E-02-6.82072E-05-4.92869E-14
 -1       472 9.71460E-03 6.67027E-04-4.36426E-14
 -1       473 9.17949E-03 9.04025E-04-4.10448E-14
 -1       474 9.30820E-04 3.45021E-04-3.91109E-16
 -1       475 6.66270E-04-7.48427E-05-4.04682E-16
 -1       476 6.70146E-04-1.15488E-04-4.04570E-16
 -1       477 6.63654E-04 1.10226E-06-3.92583E-16
 -1       478 6.64361E-04 3.86108E-05-3.81002E-16
 -1       479 6.66458E-04 7.65288E-05-3.65874E-16
 -1       480 6.70467E-04 1.17329E-04-3.46148E-16
 -1       481 6.77338E-04 1.61866E-04-3.19955E-16
 -1       482 6.89043E-04 2.12172E-04-2.84501E-16
 -1       483 1.21662E-03 4.04759E-04-6.95922E-16
 -1       484 9.76023E-04-3.27518E-04-6.70528E-16
 -1       485 8.49317E-03 8.78723E-04-3.68377E-14
 -1       486 1.26189E-03-3.81597E-04-1.09379E-15
 -1       487 1.54693E-03-4.20261E-04-1.62087E-15
 -1       488 1.83115E-03-4.46860E-04-2.25148E-15
 -1       489 2.11487E-03-4.64214E-04-2.98490E-15
 -1       490 2.39848E-03-4.74518E-04-3.81832E-15
 -1       491 2.68226E-03-4.79436E-04-4.75083E-15
 -1       492 2.96646E-03-4.80210E-04-5.77883E-15
 -1       493 3.25127E-03-4.77756E-04-6.90150E-15
 -1       494 3.53685E-03-4.72753E-04-8.11471E-15
 -1       495 3.82336E-03-4.65731E-04-9.41927E-15
 -1       496 4.11098E-03-4.57154E-04-1.08103E-14
 -1       497 4.39992E-03-4.47516E-04-1.22850E-14
 -1       498 4.69044E-03-4.37442E-04-1.38452E-14
 -1       499 4.98287E-03-4.27815E-04-1.54854E-14
 -1       500 5.27768E-03-4.19916E-04-1.72070E-14
 -1       501 5.57550E-03-4.15586E-04-1.90089E-14
 -1       502 5.87721E-03-4.17401E-04-2.08920E-14
 -1       503 6.18407E-03-4.28818E-04-2.28553E-14
 -1       504 6.49778E-03-4.54242E-04-2.48943E-14
 -1       505 6.82036E-03-4.98854E-04-2.70159E-14
 -1       506 7.15357E-03-5.67869E-04-2.92204E-14
 -1       507 7.49748E-03-6.64476E-04-3.15074E-14
 -1       508 7.84854E-03-7.85779E-04-3.38752E-14
 -1       509 8.19860E-03-9.16545E-04-3.63293E-14
 -1       510 8.53894E-03-1.02518E-03-3.88718E-14
 -1       511 8.86858E-03-1.07364E-03-4.15018E-14
 -1       512 9.19708E-03-1.04156E-03-4.42111E-14
 -1       513 9.53532E-03-9.43605E-04-4.70050E-14
 -1       514 9.88416E-03-8.16720E-04-4.98795E-14
 -1       515 1.02357E-02-6.94704E-04-5.28289E-14
 -1       516 1.05813E-02-5.95699E-04-5.58447E-14
 -1       517 1.09165E-02-5.24369E-04-5.89246E-14
 -1       518 1.12409E-02-4.78165E-04-6.20690E-14
 -1       519 1.15560E-02-4.52014E-04-6.52682E-14
 -1       520 1.18640E-02-4.40626E-04-6.85191E-14
 -1       521 1.21666E-02-4.39409E-04-7.18164E-14
 -1       522 1.24652E-02-4.44710E-04-7.51597E-14
 -1       523 1.27607E-02-4.53778E-04-7.85497E-14
 -1       524 1.30538E-02-4.64630E-04-8.19731E-14
 -1       525 1.33450E-02-4.75884E-04-8.54215E-14
 -1       526 1.36347E-02-4.86602E-04-8.89031E-14
 -1       527 1.39232E-02-4.96161E-04-9.23953E-14
 -1       528 1.42107E-02-5.04153E-04-9.58962E-14
 -1       529 1.09722E-02 5.65738E-05-4.99387E-14
 -1       530 1.78348E-03 4.76895E-04-1.58894E-15
 -1       531 2.06565E-03 4.96418E-04-2.17886E-15
 -1       532 2.34773E-03 5.08372E-04-2.86554E-15
 -1       533 2.63016E-03 5.14568E-04-3.64984E-15
 -1       534 2.91324E-03 5.16348E-04-4.52998E-15
 -1       535 3.19719E-03 5.14706E-04-5.50558E-15
 -1       536 3.48221E-03 5.10377E-04-6.57562E-15
 -1       537 3.76851E-03 5.03931E-04-7.74077E-15
 -1       538 4.05630E-03 4.95858E-04-9.00019E-15
 -1       539 4.34584E-03 4.86666E-04-1.03500E-14
 -1       540 4.63744E-03 4.76981E-04-1.17875E-14
 -1       541 4.93151E-03 4.67673E-04-1.33082E-14
 -1       542 5.22853E-03 4.60001E-04-1.49085E-14
 -1       543 5.52911E-03 4.55770E-04-1.65874E-14
 -1       544 5.83398E-03 4.57493E-04-1.83484E-14
 -1       545 6.14408E-03 4.68523E-04-2.01886E-14
 -1       546 6.46048E-03 4.93048E-04-2.20996E-14
 -1       547 6.78422E-03 5.35801E-04-2.40815E-14
 -1       548 7.11590E-03 6.01176E-04-2.61351E-14
 -1       549 7.45462E-03 6.91265E-04-2.82606E-14
 -1       550 7.79697E-03 8.02423E-04-3.04624E-14
 -1       551 8.13672E-03 9.21135E-04-3.27444E-14
 -1       552 8.46755E-03 1.02186E-03-3.51057E-14
 -1       553 8.78851E-03 1.07402E-03-3.75558E-14
 -1       554 9.10651E-03 1.05825E-03-4.00906E-14
 -1       555 9.43109E-03 9.79940E-04-4.27121E-14
 -1       556 9.76612E-03 8.65383E-04-4.54232E-14
 -1       557 1.01078E-02 7.44600E-04-4.82249E-14
 -1       558 1.04493E-02 6.38319E-04-5.11093E-14
 -1       559 1.07853E-02 5.55538E-04-5.40657E-14
 -1       560 1.11137E-02 4.96998E-04-5.70814E-14
 -1       561 1.14344E-02 4.59313E-04-6.01542E-14
 -1       562 1.17481E-02 4.37766E-04-6.32862E-14
 -1       563 1.20560E-02 4.27755E-04-6.64862E-14
 -1       564 1.23591E-02 4.25394E-04-6.97486E-14
 -1       565 1.26584E-02 4.27659E-04-7.30618E-14
 -1       566 1.29545E-02 4.32320E-04-7.64048E-14
 -1       567 1.32480E-02 4.37800E-04-7.97729E-14
 -1       568 1.35394E-02 4.43019E-04-8.31574E-14
 -1       569 1.38291E-02 4.47251E-04-8.65521E-14
 -1       570 1.41175E-02 4.50019E-04-8.99627E-14
 -1       571 1.44047E-02 4.51016E-04-9.33875E-14
 -1       572 1.44471E-02 1.87261E-04-9.51437E-14
 -1       573 1.44549E-02 1.08563E-04-9.56167E-14
 -1       574 1.44302E-02 3.46837E-04-9.41898E-14
 -1       575 1.44386E-02 2.66408E-04-9.46697E-14
 -1       576 1.44609E-02 3.06975E-05-9.60873E-14
 -1       577 1.44648E-02-4.67263E-05-9.65458E-14
 -1       578 1.44663E-02-1.24148E-04-9.69890E-14
 -1       579 1.44656E-02-2.00682E-04-9.74079E-14
 -1       580 1.44632E-02-2.79356E-04-9.78175E-14
 -1       581 1.44600E-02-3.59159E-04-9.82102E-14
 -1       582 1.44569E-02-4.40268E-04-9.85880E-14
 -1       583 1.11339E-02-3.38953E-05-5.07145E-14
 -1       584 1.50069E-03 4.47396E-04-1.09491E-15
 -1       585 1.06740E-02 1.68818E-04-4.86941E-14
 -1       586 1.02695E-02 3.57176E-04-4.69974E-14
 -1       587 7.12515E-04-2.51287E-04-3.80531E-16
 -1       588 1.09875E-02-8.86326E-05-5.05953E-14
 -1       589 8.30921E-03-8.16374E-04-3.78165E-14
 -1       590 6.85130E-03-9.83096E-05-3.20835E-14
 -1       591 6.64250E-04-3.63699E-05-4.00562E-16
 -1       592 8.86395E-03 9.56268E-04-3.90826E-14
 -1       593 7.31856E-03 2.73671E-04-3.23816E-14
 -1       594 9.52729E-03 7.58964E-04-4.31620E-14
 -1       595 8.22866E-03 7.55161E-04-3.56031E-14
 -1       596 7.95138E-03-6.23443E-04-3.61295E-14
 -1       597 7.78606E-03 5.14524E-04-3.37510E-14
 -1       598 7.00569E-03 1.38625E-04-3.18005E-14
 -1       599 6.77182E-03 5.42316E-05-3.14273E-14
 -1       600 6.62823E-03-4.66913E-07-3.11024E-14
 -1       601 6.68089E-03-3.77794E-05-3.17828E-14
 -1       602 7.16445E-03-2.21799E-04-3.29220E-14
 -1       603 1.07494E-02-1.76020E-04-4.99942E-14
 -1       604 7.56792E-03-4.14305E-04-3.45509E-14
 -1       605 8.65116E-03-9.50609E-04-3.97871E-14
 -1       606 8.94875E-03-9.87398E-04-4.17022E-14
 -1       607 9.28681E-03-9.07322E-04-4.38438E-14
 -1       608 9.64542E-03-7.36106E-04-4.58678E-14
 -1       609 1.00052E-02-5.36636E-04-4.75093E-14
 -1       610 1.03715E-02-3.44567E-04-4.89017E-14
 -1       611 1.11229E-02 2.04670E-06-5.03980E-14
 -1       612 7.03428E-04 2.90312E-04-2.02810E-16
 -1       613 9.89780E-03 5.57006E-04-4.51634E-14
 -1       614 6.76812E-04-1.59580E-04-3.98844E-16
 -1       615 8.67627E-03 9.47249E-04-3.76826E-14
 -1       616 1.44046E-02-5.10172E-04-9.82825E-14
 -1       617 6.91877E-04-2.02357E-04-3.93779E-16
 -1       618 9.00328E-04 7.37105E-05-6.45466E-16
 -1       619 8.98265E-04 2.50388E-05-6.66693E-16
 -1       620 9.12210E-04 1.77421E-04-5.83213E-16
 -1       621 9.24371E-04 2.35856E-04-5.37818E-16
 -1       622 1.04879E-03 3.12646E-04-6.05232E-16
 -1       623 1.05328E-02 2.54299E-04-4.91485E-14
 -1       624 1.38337E-03-3.34788E-04-1.38130E-15
 -1       625 1.66962E-03-3.64504E-04-1.96212E-15
 -1       626 1.95591E-03-3.84684E-04-2.64453E-15
 -1       627 2.24205E-03-3.97402E-04-3.42634E-15
 -1       628 2.52804E-03-4.04349E-04-4.30618E-15
 -1       629 2.81395E-03-4.06837E-04-5.28211E-15
 -1       630 3.09982E-03-4.05860E-04-6.35168E-15
 -1       631 3.38573E-03-4.02154E-04-7.51259E-15
 -1       632 3.67173E-03-3.96273E-04-8.76406E-15
 -1       633 3.95786E-03-3.88665E-04-1.01034E-14
 -1       634 4.24419E-03-3.79749E-04-1.15270E-14
 -1       635 4.53080E-03-3.70003E-04-1.30365E-14
 -1       636 4.81782E-03-3.60056E-04-1.46288E-14
 -1       637 5.10548E-03-3.50801E-04-1.63032E-14
 -1       638 5.39421E-03-3.43515E-04-1.80573E-14
 -1       639 5.68477E-03-3.40000E-04-1.98931E-14
 -1       640 5.97843E-03-3.42751E-04-2.18103E-14
 -1       641 6.27731E-03-3.55147E-04-2.38042E-14
 -1       642 6.58454E-03-3.81706E-04-2.58752E-14
 -1       643 6.90434E-03-4.28356E-04-2.80274E-14
 -1       644 7.24102E-03-5.02242E-04-3.02588E-14
 -1       645 7.59618E-03-6.09909E-04-3.25671E-14
 -1       646 7.96560E-03-7.49632E-04-3.49585E-14
 -1       647 8.33497E-03-8.99068E-04-3.74411E-14
 -1       648 8.69175E-03-1.00637E-03-4.00164E-14
 -1       649 9.03909E-03-1.01766E-03-4.26757E-14
 -1       650 9.39364E-03-9.26923E-04-4.54201E-14
 -1       651 9.76175E-03-7.82990E-04-4.82482E-14
 -1       652 1.01318E-02-6.41421E-04-5.11512E-14
 -1       653 1.04902E-02-5.30202E-04-5.41236E-14
 -1       654 1.08302E-02-4.53242E-04-5.71632E-14
 -1       655 1.11527E-02-4.04746E-04-6.02645E-14
 -1       656 1.14619E-02-3.77448E-04-6.34249E-14
 -1       657 1.17620E-02-3.65157E-04-6.66404E-14
 -1       658 1.20565E-02-3.63099E-04-6.99082E-14
 -1       659 1.23475E-02-3.67682E-04-7.32241E-14
 -1       660 1.26365E-02-3.76248E-04-7.65826E-14
 -1       661 1.29244E-02-3.86860E-04-7.99811E-14
 -1       662 1.32115E-02-3.98142E-04-8.34102E-14
 -1       663 1.34982E-02-4.09144E-04-8.68674E-14
 -1       664 1.37846E-02-4.19217E-04-9.03440E-14
 -1       665 1.40707E-02-4.27932E-04-9.38267E-14
 -1       666 6.68618E-03-5.44310E-05-3.07273E-14
 -1       667 7.36369E-03-3.31861E-04-3.29574E-14
 -1       668 1.90572E-03 4.15846E-04-2.00030E-15
 -1       669 2.76098E-03 4.42574E-04-4.25076E-15
 -1       670 3.04623E-03 4.42403E-04-5.19145E-15
 -1       671 3.33178E-03 4.39297E-04-6.22659E-15
 -1       672 3.61774E-03 4.33863E-04-7.35533E-15
 -1       673 3.90422E-03 4.26590E-04-8.57831E-15
 -1       674 4.19134E-03 4.17921E-04-9.89241E-15
 -1       675 4.47926E-03 4.08352E-04-1.12946E-14
 -1       676 4.76817E-03 3.98527E-04-1.27803E-14
 -1       677 5.05838E-03 3.89358E-04-1.43479E-14
 -1       678 5.35035E-03 3.82152E-04-1.59953E-14
 -1       679 5.64480E-03 3.78763E-04-1.77235E-14
 -1       680 5.94285E-03 3.81748E-04-1.95312E-14
 -1       681 6.24618E-03 3.94515E-04-2.14133E-14
 -1       682 6.55717E-03 4.21436E-04-2.33681E-14
 -1       683 6.87873E-03 4.67788E-04-2.53938E-14
 -1       684 7.21347E-03 5.39138E-04-2.74918E-14
 -1       685 7.56155E-03 6.39245E-04-2.96628E-14
 -1       686 7.91834E-03 7.64280E-04-3.19110E-14
 -1       687 8.27386E-03 8.95771E-04-3.42396E-14
 -1       688 8.61769E-03 9.94997E-04-3.66522E-14
 -1       689 8.95159E-03 1.01982E-03-3.91573E-14
 -1       690 9.28845E-03 9.57856E-04-4.17472E-14
 -1       691 9.63770E-03 8.36928E-04-4.44272E-14
 -1       692 9.99508E-03 7.01703E-04-4.71940E-14
 -1       693 1.03494E-02 5.82929E-04-5.00424E-14
 -1       694 1.06922E-02 4.92074E-04-5.29725E-14
 -1       695 1.10213E-02 4.28793E-04-5.59682E-14
 -1       696 1.13382E-02 3.88169E-04-5.90185E-14
 -1       697 1.16457E-02 3.64613E-04-6.21257E-14
 -1       698 1.19467E-02 3.53166E-04-6.52965E-14
 -1       699 1.22431E-02 3.49832E-04-6.85346E-14
 -1       700 1.25365E-02 3.51544E-04-7.18258E-14
 -1       701 1.28278E-02 3.56030E-04-7.51608E-14
 -1       702 1.31176E-02 3.61660E-04-7.85160E-14
 -1       703 1.34063E-02 3.67298E-04-8.18898E-14
 -1       704 1.36942E-02 3.72175E-04-8.52808E-14
 -1       705 1.39813E-02 3.75775E-04-8.86861E-14
 -1       706 1.42061E-02 3.61841E-04-9.14342E-14
 -1       707 1.42195E-02-6.13365E-06-9.33313E-14
 -1       708 1.42638E-02-4.34514E-04-9.62019E-14
 -1       709 1.42064E-02 1.48099E-04-9.24090E-14
 -1       710 1.42222E-02-8.26064E-05-9.37734E-14
 -1       711 1.42141E-02 7.06044E-05-9.28750E-14
 -1       712 9.07196E-03 9.52989E-04-4.03472E-14
 -1       713 1.42222E-02-1.58029E-04-9.41909E-14
 -1       714 1.42198E-02-2.35490E-04-9.45982E-14
 -1       715 1.42159E-02-3.14107E-04-9.49834E-14
 -1       716 1.62028E-03 3.92917E-04-1.44122E-15
 -1       717 6.62225E-03 2.63223E-05-2.97672E-14
 -1       718 9.50416E-04-2.69021E-04-6.90389E-16
 -1       719 6.57918E-03-1.67266E-05-3.00626E-14
 -1       720 2.47591E-03 4.38996E-04-3.40518E-15
 -1       721 2.19088E-03 4.30573E-04-2.65483E-15
 -1       722 1.16646E-03-3.05927E-04-1.00651E-15
 -1       723 1.11344E-02 1.89401E-05-5.19663E-14
 -1       724 6.91187E-03-1.44613E-04-3.10981E-14
 -1       725 1.08847E-02 1.04207E-04-5.07221E-14
 -1       726 1.33454E-03 3.59425E-04-9.76649E-16
 -1       727 1.09308E-02-1.27422E-04-5.20587E-14
 -1       728 9.04712E-04 1.23989E-04-6.17985E-16
 -1       729 8.00122E-03 6.60344E-04-3.38559E-14
 -1       730 9.47727E-03-8.46247E-04-4.55047E-14
 -1       731 8.25193E-03 7.93973E-04-3.50505E-14
 -1       732 6.82500E-03 8.84811E-05-3.03710E-14
 -1       733 9.04336E-04-1.21580E-04-6.94957E-16
 -1       734 9.37405E-03 8.56272E-04-4.24391E-14
 -1       735 7.50461E-03 3.93138E-04-3.19199E-14
 -1       736 1.12007E-02-1.52055E-05-5.22975E-14
 -1       737 7.08366E-03 1.93109E-04-3.07642E-14
 -1       738 1.02323E-02-4.41795E-04-4.95779E-14
 -1       739 7.74847E-03-5.27128E-04-3.46685E-14
 -1       740 8.10577E-03-7.26603E-04-3.63988E-14
 -1       741 1.11469E-02-5.56118E-05-5.26721E-14
 -1       742 9.15810E-03-9.67397E-04-4.33206E-14
 -1       743 9.86253E-03-6.44486E-04-4.78053E-14
 -1       744 1.06194E-02-2.49073E-04-5.09434E-14
 -1       745 1.01116E-02 4.74421E-04-4.70756E-14
 -1       746 9.72441E-03 6.75098E-04-4.46669E-14
 -1       747 9.11603E-04-1.74759E-04-6.90982E-16
 -1       748 8.98203E-04-2.30225E-05-6.82048E-16
 -1       749 8.43553E-03 8.93921E-04-3.58651E-14
 -1       750 1.41972E-02 2.26087E-04-9.19401E-14
 -1       751 7.06801E-03-2.35187E-04-3.11256E-14
 -1       752 1.42014E-02 2.93400E-04-9.16881E-14
 -1       753 7.70748E-03 5.41038E-04-3.20128E-14
 -1       754 1.41435E-02-3.70714E-04-9.44098E-14
 -1       755 9.00121E-04-7.14292E-05-6.91609E-16
 -1       756 8.36802E-03-8.67919E-04-3.78447E-14
 -1       757 1.16188E-03 2.42209E-04-8.71702E-16
 -1       758 1.79763E-03-3.05668E-04-2.31384E-15
 -1       759 2.08520E-03-3.20093E-04-3.04453E-15
 -1       760 2.37282E-03-3.28727E-04-3.87214E-15
 -1       761 2.66021E-03-3.32832E-04-4.79574E-15
 -1       762 2.94723E-03-3.33402E-04-5.81330E-15
 -1       763 3.23377E-03-3.31192E-04-6.92190E-15
 -1       764 3.51975E-03-3.26768E-04-8.12084E-15
 -1       765 3.80509E-03-3.20567E-04-9.40868E-15
 -1       766 4.08971E-03-3.12957E-04-1.07811E-14
 -1       767 4.37352E-03-3.04305E-04-1.22406E-14
 -1       768 4.65647E-03-2.95049E-04-1.37832E-14
 -1       769 4.93853E-03-2.85770E-04-1.54085E-14
 -1       770 5.21984E-03-2.77277E-04-1.71168E-14
 -1       771 5.50076E-03-2.70693E-04-1.89050E-14
 -1       772 5.78214E-03-2.67563E-04-2.07751E-14
 -1       773 6.06561E-03-2.70021E-04-2.27251E-14
 -1       774 6.35403E-03-2.81110E-04-2.47486E-14
 -1       775 6.65206E-03-3.05419E-04-2.68498E-14
 -1       776 6.96638E-03-3.50520E-04-2.90307E-14
 -1       777 7.30564E-03-4.26672E-04-3.12836E-14
 -1       778 8.09675E-03-7.52594E-04-3.60740E-14
 -1       779 1.00375E-02-5.96026E-04-4.95049E-14
 -1       780 1.04114E-02-4.66404E-04-5.24333E-14
 -1       781 1.07567E-02-3.83385E-04-5.54304E-14
 -1       782 1.10764E-02-3.34794E-04-5.84923E-14
 -1       783 1.13783E-02-3.08800E-04-6.16120E-14
 -1       784 1.16693E-02-2.97416E-04-6.47911E-14
 -1       785 1.19545E-02-2.95527E-04-6.80266E-14
 -1       786 1.22370E-02-2.99765E-04-7.13127E-14
 -1       787 1.25186E-02-3.07766E-04-7.46468E-14
 -1       788 1.28002E-02-3.17824E-04-7.80197E-14
 -1       789 1.30824E-02-3.28697E-04-8.14276E-14
 -1       790 1.33652E-02-3.39503E-04-8.48626E-14
 -1       791 1.36487E-02-3.49630E-04-8.83199E-14
 -1       792 1.38959E-02-3.60677E-04-9.13591E-14
 -1       793 2.89348E-03 3.69472E-04-4.87027E-15
 -1       794 3.75167E-03 3.57745E-04-8.14983E-15
 -1       795 4.03714E-03 3.50187E-04-9.42877E-15
 -1       796 4.32231E-03 3.41484E-04-1.07953E-14
 -1       797 4.60719E-03 3.32098E-04-1.22483E-14
 -1       798 4.89188E-03 3.22647E-04-1.37833E-14
 -1       799 5.17659E-03 3.13999E-04-1.53975E-14
 -1       800 5.46180E-03 3.07375E-04-1.70944E-14
 -1       801 5.74839E-03 3.04477E-04-1.88701E-14
 -1       802 6.03794E-03 3.07657E-04-2.07217E-14
 -1       803 6.33306E-03 3.20157E-04-2.26472E-14
 -1       804 6.63771E-03 3.46534E-04-2.46448E-14
 -1       805 6.95715E-03 3.93299E-04-2.67152E-14
 -1       806 7.29632E-03 4.68901E-04-2.88576E-14
 -1       807 8.78085E-03 9.84160E-04-3.81472E-14
 -1       808 9.49950E-03 8.32366E-04-4.33746E-14
 -1       809 9.88101E-03 6.68811E-04-4.61317E-14
 -1       810 1.02529E-02 5.30860E-04-4.89457E-14
 -1       811 1.06059E-02 4.30283E-04-5.18421E-14
 -1       812 1.09375E-02 3.63758E-04-5.48111E-14
 -1       813 1.12512E-02 3.22412E-04-5.78399E-14
 -1       814 1.15524E-02 2.98680E-04-6.09279E-14
 -1       815 1.18459E-02 2.86916E-04-6.40768E-14
 -1       816 1.21349E-02 2.83083E-04-6.72870E-14
 -1       817 1.24215E-02 2.84258E-04-7.05562E-14
 -1       818 1.27069E-02 2.88307E-04-7.38718E-14
 -1       819 1.29920E-02 2.93684E-04-7.72194E-14
 -1       820 1.32770E-02 2.99292E-04-8.05855E-14
 -1       821 1.35620E-02 3.04368E-04-8.39711E-14
 -1       822 1.38472E-02 3.08389E-04-8.73724E-14
 -1       823 1.40244E-02 3.01210E-04-8.95281E-14
 -1       824 6.49354E-03 3.48181E-06-2.85525E-14
 -1       825 1.13886E-03 5.86128E-05-1.00341E-15
 -1       826 1.39790E-02-4.20218E-05-9.05709E-14
 -1       827 1.39735E-02-2.68888E-04-9.17806E-14
 -1       828 1.39800E-02-1.16004E-04-9.09872E-14
 -1       829 1.74595E-03 3.35363E-04-1.81150E-15
 -1       830 1.12645E-02-2.00337E-08-5.39777E-14
 -1       831 9.29138E-04-2.20013E-04-6.94093E-16
 -1       832 6.55953E-03-3.95591E-05-2.92304E-14
 -1       833 8.06980E-03 7.49747E-04-3.35190E-14
 -1       834 1.39780E-02-1.91865E-04-9.13911E-14
 -1       835 3.46589E-03 3.63762E-04-6.96322E-15
 -1       836 3.17982E-03 3.67834E-04-5.86979E-15
 -1       837 1.51058E-03-2.84019E-04-1.68217E-15
 -1       838 2.60687E-03 3.68039E-04-3.96400E-15
 -1       839 1.11297E-02-9.57871E-05-5.41912E-14
 -1       840 6.68389E-03-8.71500E-05-2.96574E-14
 -1       841 2.32002E-03 3.62678E-04-3.15165E-15
 -1       842 6.64415E-03 6.87836E-05-2.86471E-14
 -1       843 1.04363E-02 3.63977E-04-4.95915E-14
 -1       844 6.84169E-03 1.43775E-04-2.90329E-14
 -1       845 2.03300E-03 3.52263E-04-2.43417E-15
 -1       846 1.24639E-03 2.99081E-04-9.28531E-16
 -1       847 7.52490E-03-4.55991E-04-3.30322E-14
 -1       848 1.08494E-02-1.97539E-04-5.31707E-14
 -1       849 1.05287E-02-3.45099E-04-5.19981E-14
 -1       850 1.11136E-02 6.20641E-05-5.31660E-14
 -1       851 1.08249E-02 1.78738E-04-5.17107E-14
 -1       852 7.20144E-03 2.98281E-04-3.00096E-14
 -1       853 1.12774E-02-3.38806E-05-5.43437E-14
 -1       854 1.13750E-03 1.19148E-06-1.02931E-15
 -1       855 1.29332E-03-2.63098E-04-1.26809E-15
 -1       856 1.39574E-02 1.85913E-04-8.92159E-14
 -1       857 6.46178E-03 3.58283E-05-2.74593E-14
 -1       858 1.14969E-03-1.74949E-04-1.05768E-15
 -1       859 1.14294E-03 1.16966E-04-9.69361E-16
 -1       860 1.39673E-02 1.08827E-04-8.96806E-14
 -1       861 1.39747E-02 3.30877E-05-9.01314E-14
 -1       862 6.80457E-03-1.53653E-04-2.96863E-14
 -1       863 1.49582E-03 3.21489E-04-1.33234E-15
 -1       864 1.13084E-02-6.53197E-05-5.58903E-14
 -1       865 1.15027E-03 1.77813E-04-9.26183E-16
 -1       866 7.88461E-03-6.41933E-04-3.48733E-14
 -1       867 1.39350E-02-3.14532E-04-9.15727E-14
 -1       868 1.14260E-03-1.14365E-04-1.05683E-15
 -1       869 2.21816E-03-2.53352E-04-3.45107E-15
 -1       870 2.50660E-03-2.58592E-04-4.32231E-15
 -1       871 2.79463E-03-2.60478E-04-5.28746E-15
 -1       872 3.08195E-03-2.59721E-04-6.34463E-15
 -1       873 3.36830E-03-2.56862E-04-7.49105E-15
 -1       874 3.65348E-03-2.52313E-04-8.72582E-15
 -1       875 3.93727E-03-2.46400E-04-1.00482E-14
 -1       876 4.21944E-03-2.39412E-04-1.14566E-14
 -1       877 4.49975E-03-2.31649E-04-1.29500E-14
 -1       878 4.77798E-03-2.23476E-04-1.45264E-14
 -1       879 5.05393E-03-2.15367E-04-1.61859E-14
 -1       880 5.32753E-03-2.07950E-04-1.79286E-14
 -1       881 5.59895E-03-2.02046E-04-1.97500E-14
 -1       882 5.86886E-03-1.98738E-04-2.16524E-14
 -1       883 6.13876E-03-1.99535E-04-2.36329E-14
 -1       884 6.41164E-03-2.06845E-04-2.56873E-14
 -1       885 6.69332E-03-2.25156E-04-2.78211E-14
 -1       886 1.13820E-02-1.73657E-05-5.60361E-14
 -1       887 1.08517E-02 2.75733E-04-5.32602E-14
 -1       888 1.08551E-02-2.78163E-04-5.49797E-14
 -1       889 1.11531E-02-2.45712E-04-5.80270E-14
 -1       890 1.14349E-02-2.31520E-04-6.11314E-14
 -1       891 1.17092E-02-2.27542E-04-6.42970E-14
 -1       892 1.19807E-02-2.29720E-04-6.75188E-14
 -1       893 1.22522E-02-2.35781E-04-7.07968E-14
 -1       894 1.25250E-02-2.44204E-04-7.41240E-14
 -1       895 1.27997E-02-2.53888E-04-7.74924E-14
 -1       896 1.30765E-02-2.63997E-04-8.08895E-14
 -1       897 1.33551E-02-2.73913E-04-8.43120E-14
 -1       898 1.36354E-02-2.83175E-04-8.77600E-14
 -1       899 4.16765E-03 2.75561E-04-1.02898E-14
 -1       900 6.61191E-03 1.17784E-04-2.72838E-14
 -1       901 3.88422E-03 2.82811E-04-8.95914E-15
 -1       902 4.73043E-03 2.58773E-04-1.32106E-14
 -1       903 5.00960E-03 2.50161E-04-1.47942E-14
 -1       904 5.28736E-03 2.42298E-04-1.64592E-14
 -1       905 5.56413E-03 2.36163E-04-1.82039E-14
 -1       906 5.84080E-03 2.33091E-04-2.00253E-14
 -1       907 6.11921E-03 2.34974E-04-2.19220E-14
 -1       908 6.40258E-03 2.44610E-04-2.38901E-14
 -1       909 6.69641E-03 2.66868E-04-2.59324E-14
 -1       910 7.00870E-03 3.09843E-04-2.80437E-14
 -1       911 1.13297E-02 3.19300E-05-5.57247E-14
 -1       912 1.11572E-02 2.37151E-04-5.62558E-14
 -1       913 1.14461E-02 2.16586E-04-5.93134E-14
 -1       914 1.17266E-02 2.06774E-04-6.24331E-14
 -1       915 1.20034E-02 2.03577E-04-6.56150E-14
 -1       916 1.22792E-02 2.04516E-04-6.88540E-14
 -1       917 1.25554E-02 2.07908E-04-7.21439E-14
 -1       918 1.28328E-02 2.12541E-04-7.54768E-14
 -1       919 1.31117E-02 2.17524E-04-7.88344E-14
 -1       920 1.33919E-02 2.22215E-04-8.22139E-14
 -1       921 1.36734E-02 2.26142E-04-8.56102E-14
 -1       922 1.87619E-03 2.74795E-04-2.20612E-15
 -1       923 2.45239E-03 2.93154E-04-3.66917E-15
 -1       924 1.39908E-02 2.43033E-04-8.93756E-14
 -1       925 3.59961E-03 2.88835E-04-7.71655E-15
 -1       926 1.37394E-02-7.58365E-05-8.78004E-14
 -1       927 6.51129E-03-6.65431E-05-2.81211E-14
 -1       928 6.39685E-03-2.31431E-05-2.73646E-14
 -1       929 4.44976E-03 2.67415E-04-1.17077E-14
 -1       930 1.64199E-03-2.29093E-04-1.99617E-15
 -1       931 2.74020E-03 2.96024E-04-4.54225E-15
 -1       932 1.13870E-03-5.60845E-05-1.04720E-15
 -1       933 1.11217E-02 1.25061E-04-5.45534E-14
 -1       934 1.11250E-02-1.62204E-04-5.60309E-14
 -1       935 2.16427E-03 2.86427E-04-2.89065E-15
 -1       936 1.92976E-03-2.43866E-04-2.67537E-15
 -1       937 6.80386E-03 2.01936E-04-2.76694E-14
 -1       938 1.13370E-02-1.18710E-04-5.77594E-14
 -1       939 1.39077E-03-1.62715E-04-1.49511E-15
 -1       940 1.14520E-02-4.61947E-05-5.76080E-14
 -1       941 1.37367E-02-2.43817E-06-8.73785E-14
 -1       942 3.02745E-03 2.95865E-04-5.50788E-15
 -1       943 1.58874E-03 2.57014E-04-1.61454E-15
 -1       944 6.59344E-03-1.18931E-04-2.81493E-14
 -1       945 1.37381E-02-1.49771E-04-8.82052E-14
 -1       946 6.31285E-03 6.47988E-06-2.62984E-14
 -1       947 3.31397E-03 2.93310E-04-6.56598E-15
 -1       948 1.32053E-03 2.46935E-04-1.12699E-15
 -1       949 1.37199E-02 1.45827E-04-8.64937E-14
 -1       950 1.38155E-03 3.37693E-05-1.43821E-15
 -1       951 1.38471E-03 9.88545E-05-1.39899E-15
 -1       952 2.35425E-03-1.84755E-04-3.86229E-15
 -1       953 2.64301E-03-1.87401E-04-4.77514E-15
 -1       954 2.93109E-03-1.87778E-04-5.78005E-15
 -1       955 3.21806E-03-1.86349E-04-6.87516E-15
 -1       956 3.50357E-03-1.83472E-04-8.05773E-15
 -1       957 3.78728E-03-1.79421E-04-9.32740E-15
 -1       958 4.06886E-03-1.74421E-04-1.06845E-14
 -1       959 4.34794E-03-1.68680E-04-1.21294E-14
 -1       960 4.62411E-03-1.62421E-04-1.36577E-14
 -1       961 4.89695E-03-1.55909E-04-1.52684E-14
 -1       962 5.16601E-03-1.49466E-04-1.69631E-14
 -1       963 5.43088E-03-1.43478E-04-1.87368E-14
 -1       964 5.69123E-03-1.38390E-04-2.05908E-14
 -1       965 5.94698E-03-1.34703E-04-2.25242E-14
 -1       966 6.19871E-03-1.33094E-04-2.45337E-14
 -1       967 4.01586E-03 2.09765E-04-9.77863E-15
 -1       968 1.13953E-02 1.44304E-04-5.81297E-14
 -1       969 1.38443E-03-9.61277E-05-1.48702E-15
 -1       970 1.66656E-03-1.54218E-04-2.06953E-15
 -1       971 1.16420E-02-1.60089E-04-6.24303E-14
 -1       972 1.18965E-02-1.64223E-04-6.56163E-14
 -1       973 1.21548E-02-1.70569E-04-6.88608E-14
 -1       974 1.24171E-02-1.78262E-04-7.21595E-14
 -1       975 1.26835E-02-1.86730E-04-7.55026E-14
 -1       976 1.29536E-02-1.95497E-04-7.88804E-14
 -1       977 1.32270E-02-2.04128E-04-8.22864E-14
 -1       978 1.35032E-02-2.12369E-04-8.57118E-14
 -1       979 6.34568E-03 7.62542E-05-2.55850E-14
 -1       980 1.72204E-03 1.99824E-04-1.97159E-15
 -1       981 5.12291E-03 1.81745E-04-1.58176E-14
 -1       982 4.85026E-03 1.89084E-04-1.41835E-14
 -1       983 5.65907E-03 1.69174E-04-1.93226E-14
 -1       984 5.92321E-03 1.65345E-04-2.11887E-14
 -1       985 6.18624E-03 1.64725E-04-2.31290E-14
 -1       986 6.45145E-03 1.69206E-04-2.51429E-14
 -1       987 1.16580E-02 1.39226E-04-6.12274E-14
 -1       988 1.19200E-02 1.38260E-04-6.43864E-14
 -1       989 1.21837E-02 1.39746E-04-6.76059E-14
 -1       990 1.24502E-02 1.42687E-04-7.08810E-14
 -1       991 1.27198E-02 1.46403E-04-7.41988E-14
 -1       992 1.29924E-02 1.50327E-04-7.75481E-14
 -1       993 1.32677E-02 1.54027E-04-8.09230E-14
 -1       994 1.34933E-02 1.50281E-04-8.37044E-14
 -1       995 2.01014E-03 2.11375E-04-2.62389E-15
 -1       996 1.38145E-03-3.09250E-05-1.46755E-15
 -1       997 1.37300E-02 7.11314E-05-8.69408E-14
 -1       998 3.73319E-03 2.15186E-04-8.48455E-15
 -1       999 1.37333E-02-2.24144E-04-8.85912E-14
 -1      1000 2.58752E-03 2.22405E-04-4.20797E-15
 -1      1001 1.15081E-02 5.38642E-06-5.81342E-14
 -1      1002 5.39248E-03 1.74906E-04-1.75310E-14
 -1      1003 2.29886E-03 2.18620E-04-3.36898E-15
 -1      1004 2.06533E-03-1.79249E-04-3.04356E-15
 -1      1005 1.39122E-03 1.65644E-04-1.34902E-15
 -1      1006 1.14665E-02 6.53607E-05-5.81408E-14
 -1      1007 1.13780E-02-1.73335E-04-5.94382E-14
 -1      1008 6.33359E-03-5.55675E-05-2.64026E-14
 -1      1009 1.15156E-02-9.18678E-05-5.95086E-14
 -1      1010 4.29646E-03 2.03433E-04-1.11619E-14
 -1      1011 6.44771E-03-1.35146E-04-2.66213E-14
 -1      1012 1.35003E-02-3.68335E-05-8.46312E-14
 -1      1013 2.87563E-03 2.23450E-04-5.13997E-15
 -1      1014 1.35054E-02 7.68760E-05-8.41485E-14
 -1      1015 1.62781E-03 1.55507E-06-1.94902E-15
 -1      1016 4.57469E-03 1.96439E-04-1.26304E-14
 -1      1017 6.38429E-03-9.16839E-05-2.65164E-14
 -1      1018 6.21462E-03-2.21760E-05-2.53617E-14
 -1      1019 1.35004E-02-1.08584E-04-8.50368E-14
 -1      1020 3.44875E-03 2.19461E-04-7.27852E-15
 -1      1021 1.62958E-03 7.21506E-05-1.90594E-15
 -1      1022 1.17002E-02 6.60538E-05-6.12428E-14
 -1      1023 2.78184E-03-1.15582E-04-5.22966E-15
 -1      1024 3.06951E-03-1.15200E-04-6.27224E-15
 -1      1025 3.35566E-03-1.13781E-04-7.40342E-15
 -1      1026 3.63988E-03-1.11521E-04-8.62090E-15
 -1      1027 3.92173E-03-1.08582E-04-9.92652E-15
 -1      1028 4.20077E-03-1.05096E-04-1.13196E-14
 -1      1029 4.47650E-03-1.01192E-04-1.28001E-14
 -1      1030 4.74835E-03-9.70124E-05-1.43636E-14
 -1      1031 5.01565E-03-9.27149E-05-1.60098E-14
 -1      1032 5.27764E-03-8.84694E-05-1.77380E-14
 -1      1033 5.53339E-03-8.44344E-05-1.95440E-14
 -1      1034 5.78177E-03-8.07507E-05-2.14280E-14
 -1      1035 6.02134E-03-7.75294E-05-2.33906E-14
 -1      1036 4.69854E-03 1.29078E-04-1.35649E-14
 -1      1037 1.65969E-03-7.70697E-05-2.04841E-15
 -1      1038 1.20595E-02-1.11055E-04-6.69309E-14
 -1      1039 1.23106E-02-1.17540E-04-7.01961E-14
 -1      1040 1.25683E-02-1.24272E-04-7.35145E-14
 -1      1041 1.28316E-02-1.31143E-04-7.68723E-14
 -1      1042 1.30996E-02-1.37974E-04-8.02602E-14
 -1      1043 3.16280E-03 2.22325E-04-6.16342E-15
 -1      1044 5.99838E-03 1.02896E-04-2.23597E-14
 -1      1045 5.74954E-03 1.07389E-04-2.04491E-14
 -1      1046 1.20920E-02 8.01454E-05-6.63528E-14
 -1      1047 1.23476E-02 8.23010E-05-6.96115E-14
 -1      1048 1.16332E-02-3.13294E-05-6.01429E-14
 -1      1049 1.26087E-02 8.46781E-05-7.29144E-14
 -1      1050 1.28746E-02 8.70497E-05-7.62570E-14
 -1      1051 1.31446E-02 8.91960E-05-7.96222E-14
 -1      1052 1.33245E-02 8.32708E-05-8.18821E-14
 -1      1053 5.49462E-03 1.12490E-04-1.86126E-14
 -1      1054 1.35043E-02 1.97269E-05-8.43931E-14
 -1      1055 6.13306E-03 3.45801E-05-2.42217E-14
 -1      1056 1.18927E-02 7.29601E-05-6.37784E-14
 -1      1057 4.96855E-03 1.23542E-04-1.51665E-14
 -1      1058 1.18165E-02-1.05064E-04-6.37190E-14
 -1      1059 2.20402E-03-1.12130E-04-3.41736E-15
 -1      1060 3.86711E-03 1.43379E-04-9.26448E-15
 -1      1061 5.23411E-03 1.17942E-04-1.68503E-14
 -1      1062 1.67442E-03 1.34856E-04-1.94440E-15
 -1      1063 1.96225E-03 1.43540E-04-2.59580E-15
 -1      1064 1.93123E-03-9.49342E-05-2.68958E-15
 -1      1065 2.49315E-03-1.14666E-04-4.27761E-15
 -1      1066 4.42463E-03 1.34346E-04-1.20464E-14
 -1      1067 2.25113E-03 1.49117E-04-3.34045E-15
 -1      1068 1.16800E-02 1.34613E-05-6.06977E-14
 -1      1069 1.87705E-03 3.91280E-05-2.48992E-15
 -1      1070 1.32668E-02-4.92958E-06-8.15538E-14
 -1      1071 1.90274E-03-2.74830E-05-2.59374E-15
 -1      1072 3.58439E-03 1.46836E-04-8.00660E-15
 -1      1073 4.14733E-03 1.39165E-04-1.06118E-14
 -1      1074 6.15776E-03-6.15984E-05-2.46704E-14
 -1      1075 2.72514E-03 1.50844E-04-4.76707E-15
 -1      1076 2.48827E-03 1.50696E-04-4.02227E-15
 -1      1077 1.31866E-02-7.19060E-05-8.09185E-14
 -1      1078 1.91881E-03 9.08174E-05-2.54645E-15
 -1      1079 3.20992E-03-4.31737E-05-6.76243E-15
 -1      1080 3.49501E-03-4.24060E-05-7.92909E-15
 -1      1081 3.77773E-03-4.13684E-05-9.18284E-15
 -1      1082 4.05763E-03-4.00886E-05-1.05230E-14
 -1      1083 4.33418E-03-3.86344E-05-1.19534E-14
 -1      1084 4.60678E-03-3.70627E-05-1.34696E-14
 -1      1085 4.87470E-03-3.54373E-05-1.50676E-14
 -1      1086 5.13707E-03-3.38287E-05-1.67480E-14
 -1      1087 5.39279E-03-3.23081E-05-1.85090E-14
 -1      1088 5.64026E-03-3.08871E-05-2.03461E-14
 -1      1089 5.87742E-03-2.97262E-05-2.22591E-14
 -1      1090 6.03263E-03-2.50609E-06-2.35640E-14
 -1      1091 2.63468E-03-4.35224E-05-4.69425E-15
 -1      1092 3.01302E-03 1.50798E-04-5.75596E-15
 -1      1093 1.24504E-02-6.65063E-05-7.15278E-14
 -1      1094 1.27074E-02-7.08778E-05-7.48623E-14
 -1      1095 1.29450E-02-7.15708E-05-7.78806E-14
 -1      1096 3.29957E-03 1.49377E-04-6.83606E-15
 -1      1097 1.32966E-02 3.87427E-05-8.17208E-14
 -1      1098 2.92298E-03-4.35727E-05-5.68342E-15
 -1      1099 1.22436E-02 2.71713E-05-6.83322E-14
 -1      1100 1.24964E-02 2.75449E-05-7.16216E-14
 -1      1101 5.59794E-03 5.55688E-05-1.97020E-14
 -1      1102 1.18912E-02-4.01889E-05-6.38966E-14
 -1      1103 5.34648E-03 5.90017E-05-1.78943E-14
 -1      1104 1.30209E-02 2.79255E-05-7.83101E-14
 -1      1105 4.00205E-03 7.38088E-05-1.00582E-14
 -1      1106 4.82327E-03 6.55596E-05-1.45108E-14
 -1      1107 2.34560E-03-4.28985E-05-3.79554E-15
 -1      1108 5.88529E-03 3.97797E-05-2.20343E-14
 -1      1109 1.27558E-02 2.78574E-05-7.49509E-14
 -1      1110 5.08787E-03 6.23452E-05-1.61621E-14
 -1      1111 1.22006E-02-6.21855E-05-6.82402E-14
 -1      1112 4.55362E-03 6.85861E-05-1.29417E-14
 -1      1113 1.18610E-02 1.90552E-05-6.32290E-14
 -1      1114 2.86511E-03 7.89111E-05-5.34576E-15
 -1      1115 4.27967E-03 7.13580E-05-1.14571E-14
 -1      1116 2.14203E-03 5.33641E-05-3.15094E-15
 -1      1117 2.19596E-03 1.00913E-04-3.24851E-15
 -1      1118 1.20488E-02 2.30209E-05-6.57630E-14
 -1      1119 2.62844E-03 7.97083E-05-4.55439E-15
 -1      1120 3.72131E-03 7.58731E-05-8.74783E-15
 -1      1121 1.29853E-02-2.22312E-05-7.81008E-14
 -1      1122 2.12397E-03-3.52012E-05-3.16612E-15
 -1      1123 3.35244E-03 2.79733E-05-7.24995E-15
 -1      1124 1.23248E-02-1.26366E-05-6.95467E-14
 -1      1125 3.15237E-03 7.85225E-05-6.38992E-15
 -1      1126 2.41221E-03 9.08552E-05-3.87416E-15
 -1      1127 3.43792E-03 7.74769E-05-7.52477E-15
 -1      1128 1.20886E-02-3.91567E-06-6.63662E-14
 -1      1129 0.00000E+00 0.00000E+00 0.00000E+00
 -1      1130 0.00000E+00 0.00000E+00 0.00000E+00
 -1      1131 0.00000E+00 0.00000E+00 0.00000E+00
 -1      1132 0.00000E+00 0.00000E+00 0.00000E+00
 -1      1133 0.00000E+00 0.00000E+00 0.00000E+00
 -1      1134 0.00000E+00 0.00000E+00 0.00000E+00
 -1      1135 0.00000E+00 0.00000E+00 0.00000E+00
 -1      1136 0.00000E+00 0.00000E+00 0.00000E+00
 -1      1137 0.00000E+00 0.00000E+00 0.00000E+00
 -1      1138 0.00000E+00 0.00000E+00 0.00000E+00
 -1      1139 0.00000E+00 0.00000E+00 0.00000E+00
 -1      1140 0.00000E+00 0.00000E+00 0.00000E+00
 -1      1141 0.00000E+00 0.00000E+00 0.00000E+00
 -1      1142 0.00000E+00 0.00000E+00 0.00000E+00
 -1      1143 0.00000E+00 0.00000E+00 0.00000E+00
 -1      1144 0.00000E+00 0.00000E+00 0.00000E+00
 -1      1145 0.00000E+00 0.00000E+00 0.00000E+00
 -1      1146 2.11396E-04-1.48208E-04 7.79270E-18
 -1      1147 5.50852E-04-3.37149E-04-5.01308E-17
 -1      1148 8.32181E-04-4.58263E-04-2.14252E-16
 -1      1149 1.10127E-03-5.39383E-04-5.00468E-16
 -1      1150 1.36620E-03-5.95840E-04-9.01433E-16
 -1      1151 1.63056E-03-6.35478E-04-1.41379E-15
 -1      1152 1.89624E-03-6.62879E-04-2.03674E-15
 -1      1153 2.16415E-03-6.81090E-04-2.76886E-15
 -1      1154 2.43469E-03-6.92314E-04-3.60897E-15
 -1      1155 2.70800E-03-6.98194E-04-4.55389E-15
 -1      1156 2.98413E-03-6.99959E-04-5.60146E-15
 -1      1157 3.26309E-03-6.98536E-04-6.74589E-15
 -1      1158 3.54502E-03-6.94635E-04-7.98520E-15
 -1      1159 3.83011E-03-6.88839E-04-9.31616E-15
 -1      1160 4.11877E-03-6.81684E-04-1.07335E-14
 -1      1161 4.41155E-03-6.73760E-04-1.22364E-14
 -1      1162 4.70924E-03-6.65818E-04-1.38196E-14
 -1      1163 5.01281E-03-6.58898E-04-1.54843E-14
 -1      1164 5.32340E-03-6.54488E-04-1.72304E-14
 -1      1165 5.64217E-03-6.54691E-04-1.90594E-14
 -1      1166 5.97009E-03-6.62383E-04-2.09688E-14
 -1      1167 6.30754E-03-6.81279E-04-2.29551E-14
 -1      1168 6.65373E-03-7.15761E-04-2.50182E-14
 -1      1169 7.00595E-03-7.70190E-04-2.71642E-14
 -1      1170 7.35888E-03-8.47395E-04-2.94016E-14
 -1      1171 7.70449E-03-9.46156E-04-3.17308E-14
 -1      1172 8.03331E-03-1.05825E-03-3.41468E-14
 -1      1173 8.33774E-03-1.16686E-03-3.66485E-14
 -1      1174 8.61658E-03-1.24915E-03-3.92383E-14
 -1      1175 8.87808E-03-1.28398E-03-4.19032E-14
 -1      1176 9.13801E-03-1.26169E-03-4.46417E-14
 -1      1177 9.41285E-03-1.18913E-03-4.74591E-14
 -1      1178 9.71251E-03-1.08604E-03-5.03506E-14
 -1      1179 1.00373E-02-9.75654E-04-5.33270E-14
 -1      1180 1.03806E-02-8.76190E-04-5.63878E-14
 -1      1181 1.07328E-02-7.97351E-04-5.95176E-14
 -1      1182 1.10855E-02-7.41384E-04-6.26998E-14
 -1      1183 1.14329E-02-7.05952E-04-6.59330E-14
 -1      1184 1.17720E-02-6.86802E-04-6.92077E-14
 -1      1185 1.21016E-02-6.79463E-04-7.25240E-14
 -1      1186 1.24220E-02-6.80054E-04-7.58897E-14
 -1      1187 1.27342E-02-6.85528E-04-7.93024E-14
 -1      1188 1.30394E-02-6.93637E-04-8.27564E-14
 -1      1189 1.33389E-02-7.02786E-04-8.62427E-14
 -1      1190 1.36338E-02-7.11877E-04-8.97547E-14
 -1      1191 1.39252E-02-7.20161E-04-9.32689E-14
 -1      1192 1.42139E-02-7.27138E-04-9.67962E-14
 -1      1193 1.45008E-02-7.32503E-04-1.00341E-13
 -1      1194 1.47867E-02-7.36191E-04-1.03898E-13
 -1      1195 1.50651E-02-7.38595E-04-1.07393E-13
 -1      1196 2.28137E-04 1.60574E-04 3.13334E-17
 -1      1197 5.53021E-04 3.41775E-04 3.59142E-17
 -1      1198 8.33110E-04 4.60426E-04-4.22432E-17
 -1      1199 1.10216E-03 5.41067E-04-2.15214E-16
 -1      1200 1.36710E-03 5.97521E-04-4.83879E-16
 -1      1201 1.63151E-03 6.37247E-04-8.52793E-16
 -1      1202 1.89725E-03 6.64754E-04-1.32187E-15
 -1      1203 2.16520E-03 6.83085E-04-1.88879E-15
 -1      1204 2.43578E-03 6.94441E-04-2.55708E-15
 -1      1205 2.70911E-03 7.00461E-04-3.32388E-15
 -1      1206 2.98524E-03 7.02372E-04-4.19037E-15
 -1      1207 3.26422E-03 7.01103E-04-5.15598E-15
 -1      1208 3.54615E-03 6.97368E-04-6.21860E-15
 -1      1209 3.83124E-03 6.91752E-04-7.37537E-15
 -1      1210 4.11987E-03 6.84799E-04-8.62719E-15
 -1      1211 4.41261E-03 6.77105E-04-9.97604E-15
 -1      1212 4.71019E-03 6.69427E-04-1.14145E-14
 -1      1213 5.01357E-03 6.62813E-04-1.29387E-14
 -1      1214 5.32382E-03 6.58744E-04-1.45442E-14
 -1      1215 5.64202E-03 6.59300E-04-1.62258E-14
 -1      1216 5.96903E-03 6.67295E-04-1.79851E-14
 -1      1217 6.30510E-03 6.86317E-04-1.98194E-14
 -1      1218 6.64929E-03 7.20521E-04-2.17240E-14
 -1      1219 6.99882E-03 7.73929E-04-2.36987E-14
 -1      1220 7.34843E-03 8.48942E-04-2.57484E-14
 -1      1221 7.69037E-03 9.43980E-04-2.78630E-14
 -1      1222 8.01574E-03 1.05081E-03-3.00518E-14
 -1      1223 8.31756E-03 1.15327E-03-3.23258E-14
 -1      1224 8.59501E-03 1.22977E-03-3.46865E-14
 -1      1225 8.85602E-03 1.26055E-03-3.71280E-14
 -1      1226 9.11549E-03 1.23658E-03-3.96504E-14
 -1      1227 9.38903E-03 1.16423E-03-4.22629E-14
 -1      1228 9.68617E-03 1.06196E-03-4.49671E-14
 -1      1229 1.00076E-02 9.51711E-04-4.77640E-14
 -1      1230 1.03471E-02 8.50946E-04-5.06429E-14
 -1      1231 1.06959E-02 7.69262E-04-5.35972E-14
 -1      1232 1.10459E-02 7.09201E-04-5.66108E-14
 -1      1233 1.13912E-02 6.68843E-04-5.96889E-14
 -1      1234 1.17288E-02 6.44300E-04-6.28325E-14
 -1      1235 1.20575E-02 6.31350E-04-6.60520E-14
 -1      1236 1.23773E-02 6.26258E-04-6.93191E-14
 -1      1237 1.26891E-02 6.26052E-04-7.26241E-14
 -1      1238 1.29941E-02 6.28514E-04-7.59670E-14
 -1      1239 1.32935E-02 6.32058E-04-7.93455E-14
 -1      1240 1.35883E-02 6.35581E-04-8.27428E-14
 -1      1241 1.38797E-02 6.38328E-04-8.61484E-14
 -1      1242 1.41684E-02 6.39792E-04-8.95703E-14
 -1      1243 1.44553E-02 6.39662E-04-9.30131E-14
 -1      1244 1.47411E-02 6.37871E-04-9.64621E-14
 -1      1245 1.50195E-02 6.34923E-04-9.98228E-14
 -1      1246 1.51568E-02 5.91145E-04-1.01686E-13
 -1      1247 1.51603E-02 5.06678E-04-1.02177E-13
 -1      1248 1.51651E-02 4.22527E-04-1.02661E-13
 -1      1249 1.51712E-02 3.39357E-04-1.03111E-13
 -1      1250 1.51781E-02 2.57645E-04-1.03566E-13
 -1      1251 1.51852E-02 1.78245E-04-1.04048E-13
 -1      1252 1.51916E-02 1.00350E-04-1.04538E-13
 -1      1253 1.51969E-02 2.29577E-05-1.05024E-13
 -1      1254 1.52005E-02-5.38009E-05-1.05511E-13
 -1      1255 1.52023E-02-1.30562E-04-1.05989E-13
 -1      1256 1.52023E-02-2.07963E-04-1.06451E-13
 -1      1257 1.52012E-02-2.85871E-04-1.06918E-13
 -1      1258 1.51994E-02-3.65290E-04-1.07386E-13
 -1      1259 1.51979E-02-4.47024E-04-1.07805E-13
 -1      1260 1.51972E-02-5.30220E-04-1.08200E-13
 -1      1261 1.51978E-02-6.14372E-04-1.08581E-13
 -1      1262 1.51997E-02-6.98126E-04-1.08937E-13
 -1      1263 1.10992E-02 5.80286E-05-4.65854E-14
 -1      1264 1.09857E-02 2.05196E-04-4.61598E-14
 -1      1265 1.07654E-02 3.59110E-04-4.54365E-14
 -1      1266 1.04603E-02 5.12789E-04-4.44742E-14
 -1      1267 1.01012E-02 6.53223E-04-4.33675E-14
 -1      1268 9.70236E-03 7.69367E-04-4.21490E-14
 -1      1269 9.27257E-03 8.45197E-04-4.08444E-14
 -1      1270 8.82293E-03 8.67995E-04-3.95090E-14
 -1      1271 8.38728E-03 8.31578E-04-3.82672E-14
 -1      1272 7.96882E-03 7.45389E-04-3.71461E-14
 -1      1273 7.56375E-03 6.17028E-04-3.61384E-14
 -1      1274 7.20654E-03 4.66953E-04-3.53316E-14
 -1      1275 6.93806E-03 3.19572E-04-3.47960E-14
 -1      1276 6.75625E-03 1.75538E-04-3.44964E-14
 -1      1277 6.67040E-03 3.01705E-05-3.44335E-14
 -1      1278 6.69524E-03-1.14868E-04-3.46250E-14
 -1      1279 6.82880E-03-2.61462E-04-3.50627E-14
 -1      1280 7.06163E-03-4.13620E-04-3.57385E-14
 -1      1281 7.37812E-03-5.66297E-04-3.66282E-14
 -1      1282 7.74322E-03-7.03510E-04-3.76622E-14
 -1      1283 8.14455E-03-8.13155E-04-3.88261E-14
 -1      1284 8.56321E-03-8.81604E-04-4.00629E-14
 -1      1285 8.98950E-03-8.96343E-04-4.13241E-14
 -1      1286 9.41729E-03-8.57700E-04-4.25644E-14
 -1      1287 9.82590E-03-7.70553E-04-4.37188E-14
 -1      1288 1.02016E-02-6.51734E-04-4.47358E-14
 -1      1289 1.05402E-02-5.10992E-04-4.55923E-14
 -1      1290 1.08184E-02-3.62337E-04-4.62294E-14
 -1      1291 1.10079E-02-2.19962E-04-4.66037E-14
 -1      1292 1.11037E-02-8.30260E-05-4.67257E-14
 -1      1293 1.66493E-04-1.10274E-04-8.87691E-18
 -1      1294 1.12459E-04-5.69732E-05-2.68476E-17
 -1      1295 1.17509E-04-6.75683E-05-2.18060E-17
 -1      1296 1.08387E-04-4.35001E-05-3.48571E-17
 -1      1297 1.10224E-04-4.96093E-05-3.25125E-17
 -1      1298 2.26185E-04-1.07589E-04-7.68157E-17
 -1      1299 1.06862E-04-3.36253E-05-3.88551E-17
 -1      1300 1.07685E-04-3.83518E-05-3.77438E-17
 -1      1301 2.19065E-04-8.24510E-05-9.06800E-17
 -1      1302 1.06115E-04-2.53481E-05-4.10506E-17
 -1      1303 1.06533E-04-2.93820E-05-4.06305E-17
 -1      1304 2.15931E-04-6.32594E-05-9.82016E-17
 -1      1305 1.05730E-04-1.80863E-05-4.16876E-17
 -1      1306 1.05950E-04-2.16542E-05-4.16198E-17
 -1      1307 2.14322E-04-4.71576E-05-1.01793E-16
 -1      1308 1.05526E-04-1.12339E-05-4.17689E-17
 -1      1309 1.05642E-04-1.46172E-05-4.19044E-17
 -1      1310 2.13444E-04-3.27244E-05-1.02809E-16
 -1      1311 1.05434E-04-4.68660E-06-4.11455E-17
 -1      1312 1.05484E-04-7.93645E-06-4.14301E-17
 -1      1313 2.12974E-04-1.91689E-05-1.02294E-16
 -1      1314 1.05424E-04 1.74093E-06-4.01290E-17
 -1      1315 1.05422E-04-1.46843E-06-4.05085E-17
 -1      1316 2.12772E-04-6.15253E-06-1.00628E-16
 -1      1317 1.05492E-04 8.21871E-06-3.86383E-17
 -1      1318 1.05438E-04 4.96235E-06-3.90855E-17
 -1      1319 2.12780E-04 6.70060E-06-9.78221E-17
 -1      1320 1.05658E-04 1.49248E-05-3.67138E-17
 -1      1321 1.05537E-04 1.15267E-05-3.72966E-17
 -1      1322 2.12999E-04 1.97430E-05-9.39732E-17
 -1      1323 1.05972E-04 2.19465E-05-3.41930E-17
 -1      1324 1.05748E-04 1.83552E-05-3.49655E-17
 -1      1325 2.13485E-04 3.32384E-05-8.90266E-17
 -1      1326 1.06568E-04 2.98195E-05-3.04119E-17
 -1      1327 1.06144E-04 2.57410E-05-3.16316E-17
 -1      1328 2.14384E-04 4.77671E-05-8.21961E-17
 -1      1329 1.07720E-04 3.89245E-05-2.50586E-17
 -1      1330 1.06889E-04 3.41297E-05-2.71186E-17
 -1      1331 2.16028E-04 6.41863E-05-7.27906E-17
 -1      1332 1.10211E-04 5.03512E-05-1.66696E-17
 -1      1333 1.08398E-04 4.41700E-05-2.02204E-17
 -1      1334 2.19172E-04 8.36886E-05-5.91161E-17
 -1      1335 1.16825E-04 6.76055E-05-4.07931E-18
 -1      1336 1.12105E-04 5.77739E-05-1.01102E-17
 -1      1337 2.26179E-04 1.09413E-04-3.93294E-17
 -1      1338 1.57379E-04 1.09786E-04 1.51517E-17
 -1      1339 1.35508E-04 8.60546E-05 3.53721E-18
 -1      1340 2.55774E-04 1.52011E-04-1.60868E-17
 -1      1341 3.34649E-04 2.20560E-04 1.63308E-17
 -1      1342 4.20995E-04-2.61501E-04-5.86689E-17
 -1      1343 5.73879E-04-3.36411E-04-1.14560E-16
 -1      1344 7.20857E-04-3.96824E-04-2.02759E-16
 -1      1345 8.63818E-04-4.45887E-04-3.20450E-16
 -1      1346 6.11372E-04-3.30466E-04-1.87540E-16
 -1      1347 1.00364E-03-4.86678E-04-4.66085E-16
 -1      1348 1.14128E-03-5.20330E-04-6.40384E-16
 -1      1349 9.04269E-04-4.30695E-04-4.29181E-16
 -1      1350 1.27759E-03-5.48706E-04-8.42357E-16
 -1      1351 1.41306E-03-5.72279E-04-1.07232E-15
 -1      1352 1.18639E-03-4.99438E-04-7.82021E-16
 -1      1353 1.54813E-03-5.92105E-04-1.32949E-15
 -1      1354 1.68308E-03-6.08509E-04-1.61438E-15
 -1      1355 1.46307E-03-5.47274E-04-1.24458E-15
 -1      1356 1.81815E-03-6.22110E-04-1.92648E-15
 -1      1357 1.95345E-03-6.33192E-04-2.26545E-15
 -1      1358 1.73758E-03-5.80319E-04-1.81575E-15
 -1      1359 2.08913E-03-6.42145E-04-2.63159E-15
 -1      1360 2.22523E-03-6.49210E-04-3.02488E-15
 -1      1361 2.01185E-03-6.02475E-04-2.49509E-15
 -1      1362 2.36183E-03-6.54647E-04-3.44428E-15
 -1      1363 2.49895E-03-6.58656E-04-3.88936E-15
 -1      1364 2.28695E-03-6.16469E-04-3.28028E-15
 -1      1365 2.63663E-03-6.61413E-04-4.36095E-15
 -1      1366 2.77489E-03-6.63081E-04-4.85784E-15
 -1      1367 2.56346E-03-6.24282E-04-4.16939E-15
 -1      1368 2.91374E-03-6.63778E-04-5.37903E-15
 -1      1369 3.05320E-03-6.63636E-04-5.92559E-15
 -1      1370 2.84173E-03-6.27370E-04-5.15954E-15
 -1      1371 3.19328E-03-6.62734E-04-6.49536E-15
 -1      1372 3.33402E-03-6.61182E-04-7.08888E-15
 -1      1373 3.12198E-03-6.26808E-04-6.24769E-15
 -1      1374 3.47543E-03-6.59030E-04-7.70682E-15
 -1      1375 3.61753E-03-6.56378E-04-8.34739E-15
 -1      1376 3.40443E-03-6.23396E-04-7.43077E-15
 -1      1377 3.76039E-03-6.53259E-04-9.00969E-15
 -1      1378 3.90403E-03-6.49771E-04-9.69405E-15
 -1      1379 3.68929E-03-6.17748E-04-8.70663E-15
 -1      1380 4.04851E-03-6.45942E-04-1.04010E-14
 -1      1381 4.19390E-03-6.41879E-04-1.11296E-14
 -1      1382 3.97687E-03-6.10379E-04-1.00712E-14
 -1      1383 4.34028E-03-6.37621E-04-1.18786E-14
 -1      1384 4.48773E-03-6.33298E-04-1.26477E-14
 -1      1385 4.26759E-03-6.01800E-04-1.15228E-14
 -1      1386 4.63634E-03-6.28972E-04-1.34368E-14
 -1      1387 4.78622E-03-6.24812E-04-1.42474E-14
 -1      1388 4.56196E-03-5.92623E-04-1.30576E-14
 -1      1389 4.93748E-03-6.20928E-04-1.50780E-14
 -1      1390 5.09023E-03-6.17540E-04-1.59282E-14
 -1      1391 4.86064E-03-5.83683E-04-1.46731E-14
 -1      1392 5.24461E-03-6.14833E-04-1.67997E-14
 -1      1393 5.40072E-03-6.13095E-04-1.76915E-14
 -1      1394 5.16437E-03-5.76190E-04-1.63705E-14
 -1      1395 5.55868E-03-6.12619E-04-1.86034E-14
 -1      1396 5.71857E-03-6.13771E-04-1.95356E-14
 -1      1397 5.47393E-03-5.71909E-04-1.81498E-14
 -1      1398 5.88047E-03-6.16983E-04-2.04865E-14
 -1      1399 6.04440E-03-6.22699E-04-2.14587E-14
 -1      1400 5.79003E-03-5.73342E-04-2.00087E-14
 -1      1401 6.21035E-03-6.31508E-04-2.24491E-14
 -1      1402 6.37822E-03-6.43899E-04-2.34592E-14
 -1      1403 6.11310E-03-5.83891E-04-2.19461E-14
 -1      1404 6.54785E-03-6.60590E-04-2.44896E-14
 -1      1405 6.71895E-03-6.82033E-04-2.55394E-14
 -1      1406 6.44307E-03-6.07870E-04-2.39632E-14
 -1      1407 6.89115E-03-7.08939E-04-2.66117E-14
 -1      1408 7.06391E-03-7.41553E-04-2.77049E-14
 -1      1409 6.77896E-03-6.50158E-04-2.60604E-14
 -1      1410 7.23663E-03-7.80293E-04-2.88210E-14
 -1      1411 7.40849E-03-8.24917E-04-2.99605E-14
 -1      1412 7.11859E-03-7.15158E-04-2.82451E-14
 -1      1413 7.57871E-03-8.75094E-04-3.11216E-14
 -1      1414 7.74634E-03-9.29741E-04-3.23044E-14
 -1      1415 7.45827E-03-8.04720E-04-3.05155E-14
 -1      1416 7.91058E-03-9.87316E-04-3.35088E-14
 -1      1417 8.07069E-03-1.04569E-03-3.47325E-14
 -1      1418 7.79299E-03-9.14994E-04-3.28730E-14
 -1      1419 8.22620E-03-1.10201E-03-3.59798E-14
 -1      1420 8.37700E-03-1.15337E-03-3.72507E-14
 -1      1421 8.11749E-03-1.03332E-03-3.53174E-14
 -1      1422 8.52333E-03-1.19634E-03-3.85397E-14
 -1      1423 8.66603E-03-1.22820E-03-3.98496E-14
 -1      1424 8.42847E-03-1.13780E-03-3.78456E-14
 -1      1425 8.80613E-03-1.24645E-03-4.11802E-14
 -1      1426 8.94523E-03-1.24983E-03-4.25270E-14
 -1      1427 8.72717E-03-1.20279E-03-4.04577E-14
 -1      1428 9.08476E-03-1.23809E-03-4.38948E-14
 -1      1429 9.22640E-03-1.21214E-03-4.52815E-14
 -1      1430 9.02029E-03-1.20965E-03-4.31497E-14
 -1      1431 9.37130E-03-1.17415E-03-4.66884E-14
 -1      1432 9.52045E-03-1.12668E-03-4.81145E-14
 -1      1433 9.31736E-03-1.15666E-03-4.59201E-14
 -1      1434 9.67425E-03-1.07309E-03-4.95593E-14
 -1      1435 9.83273E-03-1.01637E-03-5.10238E-14
 -1      1436 9.62587E-03-1.05998E-03-4.87675E-14
 -1      1437 9.99555E-03-9.59533E-04-5.25098E-14
 -1      1438 1.01620E-02-9.04893E-04-5.40151E-14
 -1      1439 9.94807E-03-9.44878E-04-5.16945E-14
 -1      1440 1.03314E-02-8.54235E-04-5.55414E-14
 -1      1441 1.05027E-02-8.08817E-04-5.70863E-14
 -1      1442 1.02813E-02-8.34500E-04-5.47007E-14
 -1      1443 1.06752E-02-7.69156E-04-5.86442E-14
 -1      1444 1.08480E-02-7.35618E-04-6.02184E-14
 -1      1445 1.06204E-02-7.43237E-04-5.77774E-14
 -1      1446 1.10204E-02-7.07880E-04-6.18073E-14
 -1      1447 1.11919E-02-6.85757E-04-6.34070E-14
 -1      1448 1.09603E-02-6.76304E-04-6.09171E-14
 -1      1449 1.13621E-02-6.68560E-04-6.50192E-14
 -1      1450 1.15306E-02-6.55855E-04-6.66459E-14
 -1      1451 1.12971E-02-6.32600E-04-6.41124E-14
 -1      1452 1.16973E-02-6.46909E-04-6.82798E-14
 -1      1453 1.18619E-02-6.41229E-04-6.99227E-14
 -1      1454 1.16282E-02-6.07963E-04-6.73529E-14
 -1      1455 1.20246E-02-6.38194E-04-7.15813E-14
 -1      1456 1.21852E-02-6.37348E-04-7.32521E-14
 -1      1457 1.19526E-02-5.97470E-04-7.06407E-14
 -1      1458 1.23439E-02-6.38226E-04-7.49328E-14
 -1      1459 1.25008E-02-6.40445E-04-7.66240E-14
 -1      1460 1.22700E-02-5.96641E-04-7.39764E-14
 -1      1461 1.26559E-02-6.43686E-04-7.83290E-14
 -1      1462 1.28094E-02-6.47646E-04-8.00441E-14
 -1      1463 1.25809E-02-6.01879E-04-7.73589E-14
 -1      1464 1.29615E-02-6.52119E-04-8.17664E-14
 -1      1465 1.31122E-02-6.56877E-04-8.34999E-14
 -1      1466 1.28861E-02-6.10503E-04-8.07828E-14
 -1      1467 1.32617E-02-6.61790E-04-8.52395E-14
 -1      1468 1.34101E-02-6.66690E-04-8.69837E-14
 -1      1469 1.31863E-02-6.20612E-04-8.42387E-14
 -1      1470 1.35575E-02-6.71502E-04-8.87354E-14
 -1      1471 1.37040E-02-6.76104E-04-9.04928E-14
 -1      1472 1.34825E-02-6.30900E-04-8.77231E-14
 -1      1473 1.38498E-02-6.80450E-04-9.22496E-14
 -1      1474 1.39950E-02-6.84455E-04-9.40030E-14
 -1      1475 1.37754E-02-6.40490E-04-9.12271E-14
 -1      1476 1.41396E-02-6.88094E-04-9.57663E-14
 -1      1477 1.42837E-02-6.91308E-04-9.75367E-14
 -1      1478 1.40657E-02-6.48798E-04-9.47425E-14
 -1      1479 1.44274E-02-6.94093E-04-9.93089E-14
 -1      1480 1.45708E-02-6.96415E-04-1.01080E-13
 -1      1481 1.43541E-02-6.55449E-04-9.82737E-14
 -1      1482 1.47139E-02-6.98306E-04-1.02857E-13
 -1      1483 1.48569E-02-6.99785E-04-1.04642E-13
 -1      1484 1.46412E-02-6.60256E-04-1.01818E-13
 -1      1485 1.50639E-02-6.97167E-04-1.07225E-13
 -1      1486 1.49916E-02-6.59541E-04-1.06174E-13
 -1      1487 6.42206E-04 3.71537E-04-2.36763E-17
 -1      1488 4.92297E-04 3.03381E-04 7.88757E-18
 -1      1489 4.44348E-04 2.65641E-04-1.61411E-17
 -1      1490 9.27366E-04 4.71045E-04-1.56369E-16
 -1      1491 7.86715E-04 4.25805E-04-7.84556E-17
 -1      1492 7.43840E-04 3.90098E-04-1.09396E-16
 -1      1493 1.20185E-03 5.39805E-04-3.82479E-16
 -1      1494 1.06538E-03 5.08484E-04-2.57525E-16
 -1      1495 1.02954E-03 4.74993E-04-2.94808E-16
 -1      1496 1.47201E-03 5.88086E-04-7.05057E-16
 -1      1497 1.33715E-03 5.66120E-04-5.31476E-16
 -1      1498 1.30713E-03 5.34044E-04-5.73760E-16
 -1      1499 1.74123E-03 6.21750E-04-1.12708E-15
 -1      1500 1.60657E-03 6.06508E-04-9.03222E-16
 -1      1501 1.58110E-03 5.75274E-04-9.49639E-16
 -1      1502 2.01124E-03 6.44593E-04-1.64755E-15
 -1      1503 1.87605E-03 6.34355E-04-1.37496E-15
 -1      1504 1.85410E-03 6.03591E-04-1.42352E-15
 -1      1505 2.28292E-03 6.59281E-04-2.26734E-15
 -1      1506 2.14683E-03 6.52829E-04-1.94526E-15
 -1      1507 2.12761E-03 6.22299E-04-1.99640E-15
 -1      1508 2.55672E-03 6.67769E-04-2.98703E-15
 -1      1509 2.41954E-03 6.64202E-04-2.61465E-15
 -1      1510 2.40244E-03 6.33760E-04-2.66832E-15
 -1      1511 2.83286E-03 6.71511E-04-3.80474E-15
 -1      1512 2.69449E-03 6.70158E-04-3.38375E-15
 -1      1513 2.67900E-03 6.39707E-04-3.43856E-15
 -1      1514 3.11145E-03 6.71589E-04-4.72196E-15
 -1      1515 2.97184E-03 6.71948E-04-4.25099E-15
 -1      1516 2.95757E-03 6.41421E-04-4.30720E-15
 -1      1517 3.39265E-03 6.68819E-04-5.73554E-15
 -1      1518 3.25172E-03 6.70511E-04-5.21644E-15
 -1      1519 3.23833E-03 6.39853E-04-5.27296E-15
 -1      1520 3.67663E-03 6.63835E-04-6.84595E-15
 -1      1521 3.53428E-03 6.66559E-04-6.27880E-15
 -1      1522 3.52147E-03 6.35722E-04-6.33495E-15
 -1      1523 3.96369E-03 6.57179E-04-8.04986E-15
 -1      1524 3.81976E-03 6.60671E-04-7.43624E-15
 -1      1525 3.80725E-03 6.29598E-04-7.49251E-15
 -1      1526 4.25427E-03 6.49388E-04-9.34906E-15
 -1      1527 4.10851E-03 6.53372E-04-8.68712E-15
 -1      1528 4.09601E-03 6.21996E-04-8.74382E-15
 -1      1529 4.54896E-03 6.41096E-04-1.07422E-14
 -1      1530 4.40106E-03 6.45237E-04-1.00344E-14
 -1      1531 4.38820E-03 6.13468E-04-1.00888E-14
 -1      1532 4.84850E-03 6.33157E-04-1.22214E-14
 -1      1533 4.69807E-03 6.36992E-04-1.14716E-14
 -1      1534 4.68442E-03 6.04715E-04-1.15242E-14
 -1      1535 5.15375E-03 6.26781E-04-1.37844E-14
 -1      1536 5.00035E-03 6.29652E-04-1.29931E-14
 -1      1537 4.98537E-03 5.96721E-04-1.30445E-14
 -1      1538 5.46564E-03 6.23697E-04-1.54269E-14
 -1      1539 5.30881E-03 6.24669E-04-1.45957E-14
 -1      1540 5.29182E-03 5.90905E-04-1.46453E-14
 -1      1541 5.78498E-03 6.26319E-04-1.71467E-14
 -1      1542 5.62433E-03 6.24097E-04-1.62765E-14
 -1      1543 5.60452E-03 5.89297E-04-1.63241E-14
 -1      1544 6.11220E-03 6.37868E-04-1.89416E-14
 -1      1545 5.94758E-03 6.30749E-04-1.80348E-14
 -1      1546 5.92404E-03 5.94696E-04-1.80808E-14
 -1      1547 6.44702E-03 6.62340E-04-2.08124E-14
 -1      1548 6.27870E-03 6.48256E-04-1.98680E-14
 -1      1549 6.25053E-03 6.10759E-04-1.99146E-14
 -1      1550 6.78794E-03 7.04132E-04-2.27518E-14
 -1      1551 6.61685E-03 6.80894E-04-2.17735E-14
 -1      1552 6.58341E-03 6.41853E-04-2.18200E-14
 -1      1553 7.13173E-03 7.67026E-04-2.47634E-14
 -1      1554 6.95974E-03 7.32924E-04-2.37484E-14
 -1      1555 6.92095E-03 6.92436E-04-2.37951E-14
 -1      1556 7.47326E-03 8.52253E-04-2.68471E-14
 -1      1557 7.30318E-03 8.07134E-04-2.57967E-14
 -1      1558 7.26000E-03 7.65637E-04-2.58420E-14
 -1      1559 7.80594E-03 9.55728E-04-2.89996E-14
 -1      1560 7.64118E-03 9.02432E-04-2.79139E-14
 -1      1561 7.59594E-03 8.60839E-04-2.79613E-14
 -1      1562 8.12337E-03 1.06551E-03-3.12333E-14
 -1      1563 7.96694E-03 1.01101E-03-3.01063E-14
 -1      1564 7.92337E-03 9.70684E-04-3.01564E-14
 -1      1565 8.42217E-03 1.16171E-03-3.35502E-14
 -1      1566 8.27516E-03 1.11669E-03-3.23816E-14
 -1      1567 8.23776E-03 1.07914E-03-3.24323E-14
 -1      1568 8.70468E-03 1.22144E-03-3.59514E-14
 -1      1569 8.56505E-03 1.19723E-03-3.47402E-14
 -1      1570 8.53791E-03 1.16340E-03-3.47911E-14
 -1      1571 8.97959E-03 1.22790E-03-3.84332E-14
 -1      1572 8.84231E-03 1.23160E-03-3.71827E-14
 -1      1573 8.82780E-03 1.20126E-03-3.72329E-14
 -1      1574 9.25891E-03 1.17879E-03-4.10021E-14
 -1      1575 9.11790E-03 1.20955E-03-3.97065E-14
 -1      1576 9.11593E-03 1.18129E-03-3.97584E-14
 -1      1577 9.55267E-03 1.08755E-03-4.36612E-14
 -1      1578 9.40350E-03 1.13704E-03-4.23191E-14
 -1      1579 9.41161E-03 1.10896E-03-4.23717E-14
 -1      1580 9.86508E-03 9.76441E-04-4.64108E-14
 -1      1581 9.70652E-03 1.03305E-03-4.50250E-14
 -1      1582 9.72071E-03 1.00367E-03-4.50770E-14
 -1      1583 1.01941E-02 8.66883E-04-4.92503E-14
 -1      1584 1.00278E-02 9.20459E-04-4.78196E-14
 -1      1585 1.00438E-02 8.89192E-04-4.78725E-14
 -1      1586 1.05339E-02 7.73147E-04-5.21632E-14
 -1      1587 1.03631E-02 8.17576E-04-5.06979E-14
 -1      1588 1.03772E-02 7.84536E-04-5.07480E-14
 -1      1589 1.08776E-02 7.01243E-04-5.51485E-14
 -1      1590 1.07056E-02 7.34430E-04-5.36484E-14
 -1      1591 1.07157E-02 7.00122E-04-5.36983E-14
 -1      1592 1.12196E-02 6.51060E-04-5.81925E-14
 -1      1593 1.10491E-02 6.73635E-04-5.66621E-14
 -1      1594 1.10541E-02 6.38642E-04-5.67102E-14
 -1      1595 1.15563E-02 6.19251E-04-6.12998E-14
 -1      1596 1.13888E-02 6.33141E-04-5.97383E-14
 -1      1597 1.13889E-02 5.97962E-04-5.97849E-14
 -1      1598 1.18856E-02 6.01423E-04-6.44772E-14
 -1      1599 1.17220E-02 6.08866E-04-6.28808E-14
 -1      1600 1.17179E-02 5.73856E-04-6.29226E-14
 -1      1601 1.22072E-02 5.93385E-04-6.77180E-14
 -1      1602 1.20474E-02 5.96413E-04-6.60909E-14
 -1      1603 1.20400E-02 5.61791E-04-6.61298E-14
 -1      1604 1.25212E-02 5.91667E-04-7.10032E-14
 -1      1605 1.23651E-02 5.91916E-04-6.93545E-14
 -1      1606 1.23553E-02 5.57788E-04-6.93900E-14
 -1      1607 1.28286E-02 5.93622E-04-7.43274E-14
 -1      1608 1.26757E-02 5.92318E-04-7.26610E-14
 -1      1609 1.26642E-02 5.58715E-04-7.26961E-14
 -1      1610 1.31302E-02 5.97332E-04-7.76871E-14
 -1      1611 1.29800E-02 5.95351E-04-7.60032E-14
 -1      1612 1.29676E-02 5.62257E-04-7.60388E-14
 -1      1613 1.34272E-02 6.01456E-04-8.10725E-14
 -1      1614 1.32792E-02 5.99406E-04-7.93779E-14
 -1      1615 1.32663E-02 5.66778E-04-7.94102E-14
 -1      1616 1.37205E-02 6.05077E-04-8.44749E-14
 -1      1617 1.35742E-02 6.03373E-04-8.27720E-14
 -1      1618 1.35612E-02 5.71155E-04-8.28019E-14
 -1      1619 1.40108E-02 6.07577E-04-8.78838E-14
 -1      1620 1.38660E-02 6.06495E-04-8.61786E-14
 -1      1621 1.38530E-02 5.74632E-04-8.62042E-14
 -1      1622 1.42991E-02 6.08547E-04-9.13139E-14
 -1      1623 1.41552E-02 6.08268E-04-8.95965E-14
 -1      1624 1.41424E-02 5.76702E-04-8.96229E-14
 -1      1625 1.45858E-02 6.07779E-04-9.47555E-14
 -1      1626 1.44426E-02 6.08381E-04-9.30330E-14
 -1      1627 1.44302E-02 5.77057E-04-9.30540E-14
 -1      1628 1.48718E-02 6.05359E-04-9.82002E-14
 -1      1629 1.47289E-02 6.06748E-04-9.64781E-14
 -1      1630 1.47168E-02 5.75598E-04-9.64928E-14
 -1      1631 1.50211E-02 5.92779E-04-1.00055E-13
 -1      1632 1.50377E-02 4.87421E-04-1.00802E-13
 -1      1633 1.50356E-02 5.29441E-04-1.00560E-13
 -1      1634 1.50429E-02 4.03888E-04-1.01280E-13
 -1      1635 1.50401E-02 4.45548E-04-1.01043E-13
 -1      1636 1.49151E-02 4.68096E-04-9.94273E-14
 -1      1637 1.50494E-02 3.21388E-04-1.01736E-13
 -1      1638 1.50460E-02 3.62486E-04-1.01508E-13
 -1      1639 1.49209E-02 3.85014E-04-9.99014E-14
 -1      1640 1.50567E-02 2.40201E-04-1.02209E-13
 -1      1641 1.50530E-02 2.80620E-04-1.01973E-13
 -1      1642 1.49278E-02 3.03002E-04-1.00372E-13
 -1      1643 1.50638E-02 1.61732E-04-1.02689E-13
 -1      1644 1.50603E-02 2.00804E-04-1.02447E-13
 -1      1645 1.49353E-02 2.22890E-04-1.00847E-13
 -1      1646 1.50703E-02 8.31203E-05-1.03174E-13
 -1      1647 1.50672E-02 1.22290E-04-1.02932E-13
 -1      1648 1.49425E-02 1.43956E-04-1.01327E-13
 -1      1649 1.50752E-02 5.38651E-06-1.03657E-13
 -1      1650 1.50730E-02 4.41699E-05-1.03415E-13
 -1      1651 1.49488E-02 6.53484E-05-1.01807E-13
 -1      1652 1.50784E-02-7.19474E-05-1.04135E-13
 -1      1653 1.50771E-02-3.32988E-05-1.03898E-13
 -1      1654 1.49534E-02-1.25911E-05-1.02285E-13
 -1      1655 1.50796E-02-1.49419E-04-1.04602E-13
 -1      1656 1.50792E-02-1.10634E-04-1.04370E-13
 -1      1657 1.49561E-02-9.02978E-05-1.02755E-13
 -1      1658 1.50792E-02-2.27546E-04-1.05061E-13
 -1      1659 1.50796E-02-1.88373E-04-1.04835E-13
 -1      1660 1.49568E-02-1.68240E-04-1.03214E-13
 -1      1661 1.50777E-02-3.05395E-04-1.05512E-13
 -1      1662 1.50785E-02-2.66322E-04-1.05285E-13
 -1      1663 1.49559E-02-2.46183E-04-1.03663E-13
 -1      1664 1.50757E-02-3.85904E-04-1.05954E-13
 -1      1665 1.50767E-02-3.45476E-04-1.05738E-13
 -1      1666 1.49540E-02-3.25116E-04-1.04100E-13
 -1      1667 1.50741E-02-4.67786E-04-1.06359E-13
 -1      1668 1.50748E-02-4.26680E-04-1.06161E-13
 -1      1669 1.49518E-02-4.05920E-04-1.04520E-13
 -1      1670 1.50735E-02-5.50862E-04-1.06747E-13
 -1      1671 1.50736E-02-5.09197E-04-1.06555E-13
 -1      1672 1.49503E-02-4.87946E-04-1.04915E-13
 -1      1673 1.50326E-02-6.26138E-04-1.06556E-13
 -1      1674 1.50320E-02-5.84170E-04-1.06375E-13
 -1      1675 1.49082E-02-5.62426E-04-1.04734E-13
 -1      1676 1.48254E-02-6.28732E-04-1.03980E-13
 -1      1677 1.10919E-02 5.50944E-05-4.70801E-14
 -1      1678 1.11260E-02 9.70047E-06-4.72279E-14
 -1      1679 1.09278E-02 1.69114E-04-4.65063E-14
 -1      1680 1.10179E-02 1.15291E-04-4.67881E-14
 -1      1681 1.06369E-02 3.06663E-04-4.56919E-14
 -1      1682 1.07844E-02 2.34449E-04-4.61389E-14
 -1      1683 1.02958E-02 4.81703E-04-4.45568E-14
 -1      1684 1.04592E-02 4.04234E-04-4.50671E-14
 -1      1685 9.91288E-03 6.54695E-04-4.33100E-14
 -1      1686 1.00940E-02 5.74524E-04-4.39062E-14
 -1      1687 9.52893E-03 8.01847E-04-4.19792E-14
 -1      1688 9.70402E-03 7.38686E-04-4.25963E-14
 -1      1689 9.12809E-03 9.02108E-04-4.05423E-14
 -1      1690 9.30754E-03 8.65121E-04-4.12228E-14
 -1      1691 8.74334E-03 9.10097E-04-3.91071E-14
 -1      1692 8.91942E-03 9.16178E-04-3.97507E-14
 -1      1693 8.36257E-03 8.38251E-04-3.77969E-14
 -1      1694 8.53662E-03 8.80874E-04-3.83801E-14
 -1      1695 7.97530E-03 7.01628E-04-3.66196E-14
 -1      1696 8.15413E-03 7.71317E-04-3.71422E-14
 -1      1697 7.58056E-03 5.16770E-04-3.55269E-14
 -1      1698 7.76736E-03 6.04124E-04-3.59897E-14
 -1      1699 7.20245E-03 3.48344E-04-3.47760E-14
 -1      1700 7.36358E-03 4.25762E-04-3.51057E-14
 -1      1701 6.91679E-03 2.11412E-04-3.42957E-14
 -1      1702 7.03539E-03 2.71931E-04-3.44950E-14
 -1      1703 6.72351E-03 9.52178E-05-3.40326E-14
 -1      1704 6.80065E-03 1.46498E-04-3.41248E-14
 -1      1705 6.64913E-03-5.37027E-06-3.39954E-14
 -1      1706 6.66705E-03 3.81718E-05-3.39647E-14
 -1      1707 6.71134E-03-1.04846E-04-3.42909E-14
 -1      1708 6.66589E-03-5.80958E-05-3.41359E-14
 -1      1709 6.90006E-03-2.17221E-04-3.47825E-14
 -1      1710 6.79881E-03-1.61281E-04-3.45116E-14
 -1      1711 7.19106E-03-3.69848E-04-3.55880E-14
 -1      1712 7.04369E-03-2.97156E-04-3.51974E-14
 -1      1713 7.56066E-03-5.34398E-04-3.65383E-14
 -1      1714 7.38897E-03-4.52216E-04-3.60568E-14
 -1      1715 7.92778E-03-7.09365E-04-3.77132E-14
 -1      1716 7.75427E-03-6.33776E-04-3.71774E-14
 -1      1717 8.32393E-03-8.52149E-04-3.89844E-14
 -1      1718 8.14578E-03-7.89613E-04-3.83694E-14
 -1      1719 8.68794E-03-9.31801E-04-4.03310E-14
 -1      1720 8.52073E-03-9.03631E-04-3.97214E-14
 -1      1721 9.06241E-03-9.39025E-04-4.17261E-14
 -1      1722 8.88985E-03-9.47854E-04-4.10802E-14
 -1      1723 9.44157E-03-8.61286E-04-4.30393E-14
 -1      1724 9.26976E-03-9.04421E-04-4.24442E-14
 -1      1725 9.81112E-03-7.24442E-04-4.43205E-14
 -1      1726 9.63686E-03-7.94327E-04-4.37606E-14
 -1      1727 1.01883E-02-5.66497E-04-4.53392E-14
 -1      1728 1.00227E-02-6.41943E-04-4.48791E-14
 -1      1729 1.05376E-02-3.89487E-04-4.63022E-14
 -1      1730 1.03740E-02-4.68143E-04-4.59081E-14
 -1      1731 1.08366E-02-2.47841E-04-4.69028E-14
 -1      1732 1.07118E-02-3.10380E-04-4.66530E-14
 -1      1733 1.10387E-02-1.35950E-04-4.72127E-14
 -1      1734 1.09587E-02-1.86172E-04-4.70860E-14
 -1      1735 1.11276E-02-4.07635E-05-4.72789E-14
 -1      1736 1.11010E-02-8.25811E-05-4.72840E-14
 -1      1737 1.01341E-02 4.90671E-04-4.45168E-14
 -1      1738 1.05083E-02 2.99594E-04-4.57984E-14
 -1      1739 1.50091E-02 5.61688E-04-1.00073E-13
 -1      1740 1.48862E-02 5.42081E-04-9.87000E-14
 -1      1741 1.10574E-02 5.33614E-05-4.74648E-14
 -1      1742 1.08344E-02 1.52638E-04-4.67983E-14
 -1      1743 1.11363E-02-1.50604E-05-4.78150E-14
 -1      1744 9.74913E-03 6.81966E-04-4.31470E-14
 -1      1745 9.36545E-03 8.45153E-04-4.16739E-14
 -1      1746 9.01381E-03 9.35245E-04-4.01278E-14
 -1      1747 8.66404E-03 9.18767E-04-3.86155E-14
 -1      1748 8.30906E-03 8.09735E-04-3.72431E-14
 -1      1749 7.93113E-03 6.29790E-04-3.59696E-14
 -1      1750 7.53307E-03 4.26689E-04-3.49336E-14
 -1      1751 7.15765E-03 2.57572E-04-3.42425E-14
 -1      1752 6.86988E-03 1.32434E-04-3.37972E-14
 -1      1753 6.69003E-03 4.22001E-05-3.35612E-14
 -1      1754 6.64809E-03-2.37803E-05-3.36315E-14
 -1      1755 6.75672E-03-9.76605E-05-3.39861E-14
 -1      1756 6.99597E-03-2.04773E-04-3.46097E-14
 -1      1757 7.33810E-03-3.58867E-04-3.54818E-14
 -1      1758 7.71684E-03-5.47519E-04-3.65759E-14
 -1      1759 8.10160E-03-7.40281E-04-3.78623E-14
 -1      1760 8.45944E-03-8.91027E-04-3.92492E-14
 -1      1761 8.80376E-03-9.66193E-04-4.07339E-14
 -1      1762 9.13698E-03-9.44418E-04-4.22051E-14
 -1      1763 9.48948E-03-8.31673E-04-4.36503E-14
 -1      1764 9.84957E-03-6.62665E-04-4.49390E-14
 -1      1765 1.02273E-02-4.71743E-04-4.60740E-14
 -1      1766 1.05830E-02-2.95987E-04-4.70025E-14
 -1      1767 1.08819E-02-1.69307E-04-4.75416E-14
 -1      1768 1.10722E-02-8.17768E-05-4.77977E-14
 -1      1769 2.84903E-04-1.76112E-04-5.06187E-17
 -1      1770 3.32134E-04-1.16691E-04-1.43047E-16
 -1      1771 3.36164E-04-1.32890E-04-1.35837E-16
 -1      1772 3.42036E-04-1.51884E-04-1.26811E-16
 -1      1773 3.51509E-04-1.73875E-04-1.13475E-16
 -1      1774 4.58131E-04-1.87840E-04-1.97650E-16
 -1      1775 3.24740E-04-6.52873E-05-1.56084E-16
 -1      1776 3.25851E-04-7.65768E-05-1.54661E-16
 -1      1777 3.23308E-04-4.38113E-05-1.57020E-16
 -1      1778 3.23935E-04-5.42898E-05-1.56816E-16
 -1      1779 4.36763E-04-7.91190E-05-2.30650E-16
 -1      1780 3.22558E-04-2.37233E-05-1.55569E-16
 -1      1781 3.22876E-04-3.36200E-05-1.56545E-16
 -1      1782 4.34834E-04-5.11895E-05-2.30894E-16
 -1      1783 3.22278E-04-4.32736E-06-1.52561E-16
 -1      1784 3.22371E-04-1.39595E-05-1.54255E-16
 -1      1785 4.33850E-04-2.48555E-05-2.28333E-16
 -1      1786 3.22396E-04 1.49503E-05-1.48143E-16
 -1      1787 3.22287E-04 5.30794E-06-1.50691E-16
 -1      1788 4.33564E-04 7.56410E-07-2.23684E-16
 -1      1789 3.22938E-04 3.46643E-05-1.41990E-16
 -1      1790 3.22601E-04 2.47349E-05-1.45310E-16
 -1      1791 4.33908E-04 2.63973E-05-2.16746E-16
 -1      1792 3.24023E-04 5.50777E-05-1.34062E-16
 -1      1793 3.23385E-04 4.47257E-05-1.38439E-16
 -1      1794 4.34949E-04 5.25936E-05-2.07462E-16
 -1      1795 3.26009E-04 7.77166E-05-1.23070E-16
 -1      1796 3.24850E-04 6.61406E-05-1.29169E-16
 -1      1797 4.36939E-04 8.04296E-05-1.95373E-16
 -1      1798 3.29595E-04 1.03550E-04-1.07959E-16
 -1      1799 3.27502E-04 9.02019E-05-1.16376E-16
 -1      1800 4.40485E-04 1.11372E-04-1.78853E-16
 -1      1801 3.36491E-04 1.35001E-04-8.59095E-17
 -1      1802 3.32383E-04 1.18508E-04-9.82152E-17
 -1      1803 4.46808E-04 1.47124E-04-1.55976E-16
 -1      1804 3.52041E-04 1.77466E-04-5.43456E-17
 -1      1805 3.42638E-04 1.54639E-04-7.19639E-17
 -1      1806 4.59144E-04 1.91225E-04-1.23735E-16
 -1      1807 4.07263E-04 2.33475E-04-3.05745E-17
 -1      1808 3.77752E-04 2.02492E-04-4.54687E-17
 -1      1809 4.95474E-04 2.43710E-04-9.36615E-17
 -1      1810 5.57949E-04 3.02134E-04-6.79117E-17
 -1      1811 3.39682E-04-1.90766E-04-8.48253E-17
 -1      1812 8.52662E-04 4.06301E-04-2.11975E-16
 -1      1813 7.06409E-04 3.58806E-04-1.28749E-16
 -1      1814 6.72784E-04 3.28289E-04-1.45093E-16
 -1      1815 4.58555E-04-2.36473E-04-1.48183E-16
 -1      1816 8.06486E-04-3.73384E-04-3.89730E-16
 -1      1817 9.51629E-04-4.14281E-04-5.41627E-16
 -1      1818 1.09436E-03-4.48622E-04-7.20303E-16
 -1      1819 1.23592E-03-4.77113E-04-9.26247E-16
 -1      1820 1.00325E-03-3.96764E-04-6.57731E-16
 -1      1821 1.37624E-03-5.01121E-04-1.15890E-15
 -1      1822 1.51587E-03-5.20943E-04-1.41866E-15
 -1      1823 1.28880E-03-4.53910E-04-1.07308E-15
 -1      1824 1.65499E-03-5.37481E-04-1.70568E-15
 -1      1825 1.79382E-03-5.50971E-04-2.01907E-15
 -1      1826 1.57115E-03-4.93747E-04-1.59520E-15
 -1      1827 1.93257E-03-5.62003E-04-2.35865E-15
 -1      1828 2.07130E-03-5.70776E-04-2.72501E-15
 -1      1829 1.85182E-03-5.20808E-04-2.22322E-15
 -1      1830 2.21019E-03-5.77690E-04-3.11756E-15
 -1      1831 2.34923E-03-5.82910E-04-3.53547E-15
 -1      1832 2.13193E-03-5.38345E-04-2.95558E-15
 -1      1833 2.48856E-03-5.86712E-04-3.97905E-15
 -1      1834 2.62817E-03-5.89231E-04-4.44826E-15
 -1      1835 2.41223E-03-5.48715E-04-3.79051E-15
 -1      1836 2.76815E-03-5.90659E-04-4.94213E-15
 -1      1837 2.90849E-03-5.91105E-04-5.46025E-15
 -1      1838 2.69324E-03-5.53645E-04-4.72623E-15
 -1      1839 3.04925E-03-5.90699E-04-6.00278E-15
 -1      1840 3.19043E-03-5.89532E-04-6.56842E-15
 -1      1841 2.97529E-03-5.54400E-04-5.75988E-15
 -1      1842 3.33209E-03-5.87692E-04-7.15775E-15
 -1      1843 3.47424E-03-5.85255E-04-7.77101E-15
 -1      1844 3.25864E-03-5.51908E-04-6.88786E-15
 -1      1845 3.61691E-03-5.82283E-04-8.40644E-15
 -1      1846 3.76015E-03-5.78847E-04-9.06403E-15
 -1      1847 3.54352E-03-5.46854E-04-8.10859E-15
 -1      1848 3.90399E-03-5.74995E-04-9.74401E-15
 -1      1849 4.04848E-03-5.70801E-04-1.04463E-14
 -1      1850 3.83016E-03-5.39775E-04-9.42023E-15
 -1      1851 4.19365E-03-5.66316E-04-1.11705E-14
 -1      1852 4.33961E-03-5.61626E-04-1.19147E-14
 -1      1853 4.11886E-03-5.31145E-04-1.08198E-14
 -1      1854 4.48635E-03-5.56804E-04-1.26794E-14
 -1      1855 4.63400E-03-5.51960E-04-1.34647E-14
 -1      1856 4.40996E-03-5.21479E-04-1.23041E-14
 -1      1857 4.78258E-03-5.47207E-04-1.42714E-14
 -1      1858 4.93225E-03-5.42694E-04-1.50976E-14
 -1      1859 4.70387E-03-5.11442E-04-1.38714E-14
 -1      1860 5.08298E-03-5.38604E-04-1.59439E-14
 -1      1861 5.23498E-03-5.35138E-04-1.68106E-14
 -1      1862 5.00109E-03-5.01987E-04-1.55198E-14
 -1      1863 5.38821E-03-5.32580E-04-1.76984E-14
 -1      1864 5.54287E-03-5.31201E-04-1.86058E-14
 -1      1865 5.30218E-03-4.94521E-04-1.72493E-14
 -1      1866 5.69894E-03-5.31415E-04-1.95334E-14
 -1      1867 5.85655E-03-5.33583E-04-2.04803E-14
 -1      1868 5.60780E-03-4.91084E-04-1.90605E-14
 -1      1869 6.01573E-03-5.38267E-04-2.14460E-14
 -1      1870 6.17648E-03-5.45924E-04-2.24334E-14
 -1      1871 5.91860E-03-4.94548E-04-2.09496E-14
 -1      1872 6.33892E-03-5.57247E-04-2.34393E-14
 -1      1873 6.50279E-03-5.72774E-04-2.44656E-14
 -1      1874 6.23528E-03-5.08746E-04-2.29189E-14
 -1      1875 6.66835E-03-5.93236E-04-2.55125E-14
 -1      1876 6.83499E-03-6.19170E-04-2.65803E-14
 -1      1877 6.55839E-03-5.38417E-04-2.49669E-14
 -1      1878 7.00311E-03-6.51127E-04-2.76699E-14
 -1      1879 7.17163E-03-6.89430E-04-2.87807E-14
 -1      1880 6.88817E-03-5.88733E-04-2.70986E-14
 -1      1881 7.34109E-03-7.34079E-04-2.99131E-14
 -1      1882 7.50996E-03-7.84821E-04-3.10667E-14
 -1      1883 7.22405E-03-6.63972E-04-2.93147E-14
 -1      1884 7.67873E-03-8.40650E-04-3.22432E-14
 -1      1885 7.84569E-03-9.00163E-04-3.34386E-14
 -1      1886 7.56390E-03-7.64990E-04-3.16157E-14
 -1      1887 8.01106E-03-9.61034E-04-3.46575E-14
 -1      1888 8.17371E-03-1.02048E-03-3.58967E-14
 -1      1889 7.90332E-03-8.85333E-04-3.40019E-14
 -1      1890 8.33336E-03-1.07509E-03-3.71557E-14
 -1      1891 8.49042E-03-1.12123E-03-3.84384E-14
 -1      1892 8.23628E-03-1.00753E-03-3.64709E-14
 -1      1893 8.64414E-03-1.15558E-03-3.97417E-14
 -1      1894 8.79693E-03-1.17535E-03-4.10646E-14
 -1      1895 8.55834E-03-1.10373E-03-3.90279E-14
 -1      1896 8.94779E-03-1.17896E-03-4.24075E-14
 -1      1897 9.10017E-03-1.16614E-03-4.37692E-14
 -1      1898 8.87114E-03-1.14527E-03-4.16678E-14
 -1      1899 9.25305E-03-1.13802E-03-4.51529E-14
 -1      1900 9.40917E-03-1.09704E-03-4.65563E-14
 -1      1901 9.18302E-03-1.11821E-03-4.43884E-14
 -1      1902 9.56769E-03-1.04632E-03-4.79784E-14
 -1      1903 9.72937E-03-9.89492E-04-4.94200E-14
 -1      1904 9.50309E-03-1.03246E-03-4.71905E-14
 -1      1905 9.89384E-03-9.30063E-04-5.08799E-14
 -1      1906 1.00602E-02-8.71042E-04-5.23610E-14
 -1      1907 9.83431E-03-9.15249E-04-5.00695E-14
 -1      1908 1.02285E-02-8.14994E-04-5.38617E-14
 -1      1909 1.03972E-02-7.63543E-04-5.53797E-14
 -1      1910 1.01730E-02-7.95523E-04-5.30265E-14
 -1      1911 1.05667E-02-7.17919E-04-5.69135E-14
 -1      1912 1.07354E-02-6.78551E-04-5.84633E-14
 -1      1913 1.05131E-02-6.92826E-04-5.60529E-14
 -1      1914 1.09039E-02-6.45583E-04-6.00306E-14
 -1      1915 1.10709E-02-6.18751E-04-6.16120E-14
 -1      1916 1.08499E-02-6.15359E-04-5.91478E-14
 -1      1917 1.12370E-02-5.97571E-04-6.32077E-14
 -1      1918 1.14014E-02-5.81520E-04-6.48137E-14
 -1      1919 1.11809E-02-5.63252E-04-6.23038E-14
 -1      1920 1.15644E-02-5.69875E-04-6.64301E-14
 -1      1921 1.17258E-02-5.62088E-04-6.80592E-14
 -1      1922 1.15052E-02-5.32573E-04-6.55107E-14
 -1      1923 1.18856E-02-5.57444E-04-6.97025E-14
 -1      1924 1.20438E-02-5.55469E-04-7.13586E-14
 -1      1925 1.18230E-02-5.18159E-04-6.87666E-14
 -1      1926 1.22004E-02-5.55567E-04-7.30252E-14
 -1      1927 1.23557E-02-5.57361E-04-7.47014E-14
 -1      1928 1.21349E-02-5.15113E-04-7.20725E-14
 -1      1929 1.25096E-02-5.60404E-04-7.63906E-14
 -1      1930 1.26622E-02-5.64410E-04-7.80907E-14
 -1      1931 1.24416E-02-5.19400E-04-7.54247E-14
 -1      1932 1.28135E-02-5.69066E-04-7.97976E-14
 -1      1933 1.29639E-02-5.74163E-04-8.15165E-14
 -1      1934 1.27438E-02-5.27956E-04-7.88171E-14
 -1      1935 1.31131E-02-5.79494E-04-8.32430E-14
 -1      1936 1.32615E-02-5.84907E-04-8.49748E-14
 -1      1937 1.30422E-02-5.38576E-04-8.22474E-14
 -1      1938 1.34091E-02-5.90271E-04-8.67162E-14
 -1      1939 1.35559E-02-5.95477E-04-8.84613E-14
 -1      1940 1.33373E-02-5.49738E-04-8.57082E-14
 -1      1941 1.37020E-02-6.00445E-04-9.02073E-14
 -1      1942 1.38476E-02-6.05097E-04-9.19598E-14
 -1      1943 1.36299E-02-5.60419E-04-8.91930E-14
 -1      1944 1.39926E-02-6.09388E-04-9.37177E-14
 -1      1945 1.41372E-02-6.13259E-04-9.54768E-14
 -1      1946 1.39203E-02-5.69941E-04-9.26923E-14
 -1      1947 1.42813E-02-6.16692E-04-9.72410E-14
 -1      1948 1.44252E-02-6.19642E-04-9.90097E-14
 -1      1949 1.42091E-02-5.77866E-04-9.62091E-14
 -1      1950 1.45538E-02-6.23564E-04-1.00601E-13
 -1      1951 1.46972E-02-6.25600E-04-1.02375E-13
 -1      1952 1.47385E-02-5.92508E-04-1.02754E-13
 -1      1953 1.44817E-02-5.85326E-04-9.95612E-14
 -1      1954 1.13743E-03 4.78617E-04-4.46447E-16
 -1      1955 9.95800E-04 4.45718E-04-3.17427E-16
 -1      1956 9.63608E-04 4.16325E-04-3.37133E-16
 -1      1957 1.41632E-03 5.29194E-04-7.75923E-16
 -1      1958 1.27727E-03 5.06232E-04-5.99144E-16
 -1      1959 1.24788E-03 4.78170E-04-6.21112E-16
 -1      1960 1.69255E-03 5.64267E-04-1.20178E-15
 -1      1961 1.55458E-03 5.48427E-04-9.76636E-16
 -1      1962 1.52801E-03 5.21343E-04-1.00056E-15
 -1      1963 1.96809E-03 5.87939E-04-1.72563E-15
 -1      1964 1.83031E-03 5.77362E-04-1.45134E-15
 -1      1965 1.80621E-03 5.50931E-04-1.47601E-15
 -1      1966 2.24411E-03 6.03080E-04-2.34811E-15
 -1      1967 2.10599E-03 5.96454E-04-2.02460E-15
 -1      1968 2.08395E-03 5.70444E-04-2.04960E-15
 -1      1969 2.52126E-03 6.11770E-04-3.06892E-15
 -1      1970 2.38252E-03 6.08141E-04-2.69623E-15
 -1      1971 2.36212E-03 5.82391E-04-2.72110E-15
 -1      1972 2.79994E-03 6.15542E-04-3.88769E-15
 -1      1973 2.66039E-03 6.14203E-04-3.46583E-15
 -1      1974 2.64128E-03 5.88603E-04-3.49064E-15
 -1      1975 3.08040E-03 6.15524E-04-4.80384E-15
 -1      1976 2.93994E-03 6.15955E-04-4.33350E-15
 -1      1977 2.92179E-03 5.90426E-04-4.35695E-15
 -1      1978 3.36288E-03 6.12551E-04-5.81601E-15
 -1      1979 3.22138E-03 6.14366E-04-5.29818E-15
 -1      1980 3.20391E-03 5.88849E-04-5.32017E-15
 -1      1981 3.64758E-03 6.07261E-04-6.92461E-15
 -1      1982 3.50493E-03 6.10161E-04-6.35833E-15
 -1      1983 3.48785E-03 5.84606E-04-6.37896E-15
 -1      1984 3.93480E-03 6.00182E-04-8.12774E-15
 -1      1985 3.79085E-03 6.03911E-04-7.51419E-15
 -1      1986 3.77388E-03 5.78269E-04-7.53310E-15
 -1      1987 4.22490E-03 5.91819E-04-9.42367E-15
 -1      1988 4.07946E-03 5.96121E-04-8.76404E-15
 -1      1989 4.06229E-03 5.70336E-04-8.78112E-15
 -1      1990 4.51836E-03 5.82765E-04-1.08118E-14
 -1      1991 4.37117E-03 5.87328E-04-1.01062E-14
 -1      1992 4.35345E-03 5.61327E-04-1.01216E-14
 -1      1993 4.81575E-03 5.73816E-04-1.22870E-14
 -1      1994 4.66651E-03 5.78209E-04-1.15389E-14
 -1      1995 4.64784E-03 5.51895E-04-1.15507E-14
 -1      1996 5.11772E-03 5.66115E-04-1.38448E-14
 -1      1997 4.96610E-03 5.69715E-04-1.30564E-14
 -1      1998 4.94598E-03 5.42958E-04-1.30660E-14
 -1      1999 5.42498E-03 5.61321E-04-1.54821E-14
 -1      2000 5.27063E-03 5.63225E-04-1.46536E-14
 -1      2001 5.24851E-03 5.35851E-04-1.46602E-14
 -1      2002 5.73815E-03 5.61782E-04-1.71983E-14
 -1      2003 5.58077E-03 5.60724E-04-1.63302E-14
 -1      2004 5.55604E-03 5.32502E-04-1.63342E-14
 -1      2005 6.05768E-03 5.70688E-04-1.89914E-14
 -1      2006 5.89709E-03 5.64969E-04-1.80854E-14
 -1      2007 5.86917E-03 5.35608E-04-1.80870E-14
 -1      2008 6.38358E-03 5.92086E-04-2.08598E-14
 -1      2009 6.21985E-03 5.79589E-04-1.99163E-14
 -1      2010 6.18829E-03 5.48753E-04-1.99174E-14
 -1      2011 6.71518E-03 6.30589E-04-2.27992E-14
 -1      2012 6.54878E-03 6.08978E-04-2.18212E-14
 -1      2013 6.51348E-03 5.76333E-04-2.18198E-14
 -1      2014 7.05080E-03 6.90469E-04-2.48092E-14
 -1      2015 6.88273E-03 6.57737E-04-2.37959E-14
 -1      2016 6.84419E-03 6.23073E-04-2.37938E-14
 -1      2017 7.38744E-03 7.73819E-04-2.68917E-14
 -1      2018 7.21938E-03 7.29339E-04-2.58407E-14
 -1      2019 7.17893E-03 6.92792E-04-2.58386E-14
 -1      2020 7.72085E-03 8.77709E-04-2.90473E-14
 -1      2021 7.55504E-03 8.23751E-04-2.79598E-14
 -1      2022 7.51490E-03 7.86103E-04-2.79564E-14
 -1      2023 8.04617E-03 9.91151E-04-3.12814E-14
 -1      2024 7.88496E-03 9.34310E-04-3.01544E-14
 -1      2025 7.84786E-03 8.97173E-04-3.01497E-14
 -1      2026 8.35981E-03 1.09414E-03-3.35968E-14
 -1      2027 8.20459E-03 1.04537E-03-3.24291E-14
 -1      2028 8.17299E-03 1.01090E-03-3.24234E-14
 -1      2029 8.66190E-03 1.16200E-03-3.59960E-14
 -1      2030 8.51193E-03 1.13372E-03-3.47859E-14
 -1      2031 8.48718E-03 1.10363E-03-3.47776E-14
 -1      2032 8.95773E-03 1.17499E-03-3.84775E-14
 -1      2033 8.80978E-03 1.17577E-03-3.72261E-14
 -1      2034 8.79193E-03 1.15024E-03-3.72174E-14
 -1      2035 9.25591E-03 1.12878E-03-4.10471E-14
 -1      2036 9.10568E-03 1.15862E-03-3.97513E-14
 -1      2037 9.09412E-03 1.13600E-03-3.97416E-14
 -1      2038 9.56371E-03 1.03670E-03-4.37031E-14
 -1      2039 9.40812E-03 1.08707E-03-4.23630E-14
 -1      2040 9.40218E-03 1.06502E-03-4.23527E-14
 -1      2041 9.88373E-03 9.22505E-04-4.64532E-14
 -1      2042 9.72219E-03 9.80917E-04-4.50674E-14
 -1      2043 9.72097E-03 9.57743E-04-4.50539E-14
 -1      2044 1.02138E-02 8.09366E-04-4.92878E-14
 -1      2045 1.00479E-02 8.64819E-04-4.78602E-14
 -1      2046 1.00498E-02 8.39934E-04-4.78452E-14
 -1      2047 1.05495E-02 7.12654E-04-5.22001E-14
 -1      2048 1.03814E-02 7.58540E-04-5.07356E-14
 -1      2049 1.03846E-02 7.32150E-04-5.07189E-14
 -1      2050 1.08860E-02 6.38783E-04-5.51806E-14
 -1      2051 1.07180E-02 6.72867E-04-5.36824E-14
 -1      2052 1.07205E-02 6.45443E-04-5.36658E-14
 -1      2053 1.12198E-02 5.87620E-04-5.82205E-14
 -1      2054 1.10535E-02 6.10582E-04-5.66921E-14
 -1      2055 1.10538E-02 5.82571E-04-5.66723E-14
 -1      2056 1.15485E-02 5.55611E-04-6.13228E-14
 -1      2057 1.13849E-02 5.69505E-04-5.97651E-14
 -1      2058 1.13823E-02 5.41240E-04-5.97417E-14
 -1      2059 1.18712E-02 5.38118E-04-6.44934E-14
 -1      2060 1.17107E-02 5.45317E-04-6.28999E-14
 -1      2061 1.17051E-02 5.17031E-04-6.28749E-14
 -1      2062 1.21874E-02 5.30737E-04-6.77242E-14
 -1      2063 1.20301E-02 5.33381E-04-6.61012E-14
 -1      2064 1.20218E-02 5.05229E-04-6.60729E-14
 -1      2065 1.24977E-02 5.29833E-04-7.10061E-14
 -1      2066 1.23433E-02 5.29638E-04-6.93585E-14
 -1      2067 1.23328E-02 5.01717E-04-6.93277E-14
 -1      2068 1.28025E-02 5.32645E-04-7.43304E-14
 -1      2069 1.26507E-02 5.30890E-04-7.26624E-14
 -1      2070 1.26385E-02 5.03251E-04-7.26306E-14
 -1      2071 1.31026E-02 5.37187E-04-7.76856E-14
 -1      2072 1.29531E-02 5.34779E-04-7.60051E-14
 -1      2073 1.29396E-02 5.07441E-04-7.59685E-14
 -1      2074 1.33989E-02 5.42079E-04-8.10663E-14
 -1      2075 1.32512E-02 5.39642E-04-7.93756E-14
 -1      2076 1.32369E-02 5.12606E-04-7.93378E-14
 -1      2077 1.36919E-02 5.46388E-04-8.44620E-14
 -1      2078 1.35457E-02 5.44341E-04-8.27625E-14
 -1      2079 1.35309E-02 5.17594E-04-8.27251E-14
 -1      2080 1.39825E-02 5.49491E-04-8.78703E-14
 -1      2081 1.38375E-02 5.48112E-04-8.61640E-14
 -1      2082 1.38224E-02 5.21636E-04-8.61229E-14
 -1      2083 1.42711E-02 5.50979E-04-9.12931E-14
 -1      2084 1.41270E-02 5.50449E-04-8.95805E-14
 -1      2085 1.41119E-02 5.24223E-04-8.95374E-14
 -1      2086 1.45584E-02 5.50633E-04-9.47261E-14
 -1      2087 1.44149E-02 5.51037E-04-9.30099E-14
 -1      2088 1.43998E-02 5.25038E-04-9.29641E-14
 -1      2089 1.47940E-02 5.45996E-04-9.75757E-14
 -1      2090 1.46508E-02 5.47139E-04-9.58534E-14
 -1      2091 1.46358E-02 5.21306E-04-9.58076E-14
 -1      2092 1.48206E-02 5.13904E-04-9.80601E-14
 -1      2093 1.48064E-02 2.84179E-04-9.90098E-14
 -1      2094 1.48026E-02 3.24840E-04-9.87683E-14
 -1      2095 1.47990E-02 3.65810E-04-9.85299E-14
 -1      2096 1.47957E-02 4.07042E-04-9.82947E-14
 -1      2097 1.46772E-02 3.46258E-04-9.71628E-14
 -1      2098 1.48091E-02 4.39484E-04-9.82987E-14
 -1      2099 1.48065E-02 4.81159E-04-9.80558E-14
 -1      2100 1.47142E-02 4.84908E-04-9.69324E-14
 -1      2101 1.46869E-02 4.19714E-04-9.69263E-14
 -1      2102 1.48140E-02 2.05081E-04-9.94803E-14
 -1      2103 1.48102E-02 2.44489E-04-9.92435E-14
 -1      2104 1.46850E-02 2.65669E-04-9.76399E-14
 -1      2105 1.48213E-02 1.25702E-04-9.99609E-14
 -1      2106 1.48178E-02 1.65270E-04-9.97209E-14
 -1      2107 1.46929E-02 1.86233E-04-9.81140E-14
 -1      2108 1.48273E-02 4.71871E-05-1.00437E-13
 -1      2109 1.48245E-02 8.63642E-05-1.00200E-13
 -1      2110 1.47002E-02 1.07146E-04-9.85908E-14
 -1      2111 1.48316E-02-3.08061E-05-1.00912E-13
 -1      2112 1.48297E-02 8.16112E-06-1.00675E-13
 -1      2113 1.47059E-02 2.88258E-05-9.90655E-14
 -1      2114 1.48337E-02-1.08691E-04-1.01373E-13
 -1      2115 1.48329E-02-6.97236E-05-1.01144E-13
 -1      2116 1.47097E-02-4.90851E-05-9.95325E-14
 -1      2117 1.48339E-02-1.86896E-04-1.01824E-13
 -1      2118 1.48340E-02-1.47718E-04-1.01599E-13
 -1      2119 1.47113E-02-1.26996E-04-9.99858E-14
 -1      2120 1.48325E-02-2.64460E-04-1.02258E-13
 -1      2121 1.48334E-02-2.25566E-04-1.02043E-13
 -1      2122 1.47109E-02-2.04649E-04-1.00424E-13
 -1      2123 1.48303E-02-3.44348E-04-1.02685E-13
 -1      2124 1.48315E-02-3.04265E-04-1.02474E-13
 -1      2125 1.47090E-02-2.83055E-04-1.00850E-13
 -1      2126 1.48279E-02-4.25392E-04-1.03086E-13
 -1      2127 1.48291E-02-3.84726E-04-1.02888E-13
 -1      2128 1.47064E-02-3.63160E-04-1.01260E-13
 -1      2129 1.48264E-02-5.07607E-04-1.03468E-13
 -1      2130 1.48270E-02-4.66367E-04-1.03279E-13
 -1      2131 1.47039E-02-4.44440E-04-1.01649E-13
 -1      2132 1.07569E-02 1.34477E-04-4.72675E-14
 -1      2133 1.08979E-02 8.60797E-05-4.76419E-14
 -1      2134 1.11385E-02-8.93164E-06-4.84534E-14
 -1      2135 1.11403E-02-2.50659E-05-4.85093E-14
 -1      2136 1.10056E-02 4.79739E-05-4.79476E-14
 -1      2137 1.10856E-02 2.03644E-05-4.82476E-14
 -1      2138 1.09507E-02 4.98927E-05-4.84230E-14
 -1      2139 1.03706E-02 3.07566E-04-4.59837E-14
 -1      2140 1.05460E-02 2.21804E-04-4.66162E-14
 -1      2141 1.00190E-02 4.96775E-04-4.46637E-14
 -1      2142 1.01996E-02 3.98487E-04-4.53207E-14
 -1      2143 1.02742E-02 3.29467E-04-4.61324E-14
 -1      2144 3.27306E-04-8.88787E-05-1.52114E-16
 -1      2145 3.29360E-04-1.02055E-04-1.48075E-16
 -1      2146 4.46362E-04-1.44923E-04-2.16081E-16
 -1      2147 4.40202E-04-1.09760E-04-2.26246E-16
 -1      2148 9.27282E-03 8.79409E-04-4.14796E-14
 -1      2149 9.43574E-03 8.06549E-04-4.22372E-14
 -1      2150 8.92015E-03 9.58474E-04-3.96565E-14
 -1      2151 9.06969E-03 9.40022E-04-4.04435E-14
 -1      2152 8.60972E-03 9.18506E-04-3.80716E-14
 -1      2153 8.75370E-03 9.53193E-04-3.87898E-14
 -1      2154 8.26692E-03 7.73380E-04-3.66342E-14
 -1      2155 8.42518E-03 8.51336E-04-3.72783E-14
 -1      2156 7.90930E-03 5.76796E-04-3.53908E-14
 -1      2157 8.08969E-03 6.81946E-04-3.60092E-14
 -1      2158 8.20611E-03 7.31089E-04-3.60431E-14
 -1      2159 7.46297E-03 3.39958E-04-3.42286E-14
 -1      2160 7.65554E-03 4.36533E-04-3.46372E-14
 -1      2161 7.09944E-03 1.81033E-04-3.35973E-14
 -1      2162 7.26129E-03 2.49038E-04-3.38695E-14
 -1      2163 6.82335E-03 7.61811E-05-3.31813E-14
 -1      2164 6.94176E-03 1.18120E-04-3.33476E-14
 -1      2165 6.66262E-03 1.43103E-05-3.29504E-14
 -1      2166 6.72247E-03 3.65794E-05-3.30182E-14
 -1      2167 6.65549E-03-2.84562E-05-3.31917E-14
 -1      2168 6.63719E-03-1.10095E-05-3.30552E-14
 -1      2169 6.80322E-03-8.50020E-05-3.35924E-14
 -1      2170 6.71387E-03-5.59799E-05-3.33804E-14
 -1      2171 7.09685E-03-1.96187E-04-3.43232E-14
 -1      2172 6.95017E-03-1.37203E-04-3.39205E-14
 -1      2173 7.44237E-03-3.51684E-04-3.52301E-14
 -1      2174 7.26048E-03-2.69036E-04-3.47742E-14
 -1      2175 7.18242E-03-2.06977E-04-3.40768E-14
 -1      2176 7.86065E-03-5.82279E-04-3.66443E-14
 -1      2177 7.68237E-03-4.79366E-04-3.60150E-14
 -1      2178 8.21547E-03-7.73085E-04-3.79410E-14
 -1      2179 8.04144E-03-6.80353E-04-3.72929E-14
 -1      2180 8.57480E-03-9.33920E-04-3.95714E-14
 -1      2181 8.42563E-03-8.72443E-04-3.88373E-14
 -1      2182 8.86779E-03-9.89094E-04-4.10611E-14
 -1      2183 8.72513E-03-9.72246E-04-4.03116E-14
 -1      2184 8.65880E-03-9.62511E-04-3.98933E-14
 -1      2185 9.20539E-03-9.36845E-04-4.27970E-14
 -1      2186 9.05978E-03-9.75959E-04-4.20731E-14
 -1      2187 9.51118E-03-8.02542E-04-4.42482E-14
 -1      2188 9.35812E-03-8.79930E-04-4.35202E-14
 -1      2189 9.26628E-03-9.16294E-04-4.33868E-14
 -1      2190 9.90771E-03-5.93416E-04-4.56672E-14
 -1      2191 9.73378E-03-6.87903E-04-4.51005E-14
 -1      2192 1.02615E-02-4.00488E-04-4.68154E-14
 -1      2193 1.00858E-02-4.97894E-04-4.62382E-14
 -1      2194 9.97645E-03-5.32062E-04-4.64021E-14
 -1      2195 1.06449E-02-2.21485E-04-4.77784E-14
 -1      2196 1.04776E-02-2.93535E-04-4.74209E-14
 -1      2197 1.09343E-02-1.12086E-04-4.82841E-14
 -1      2198 1.08117E-02-1.54791E-04-4.80984E-14
 -1      2199 1.11032E-02-4.85066E-05-4.85820E-14
 -1      2200 1.10381E-02-7.10977E-05-4.85115E-14
 -1      2201 9.61425E-03 7.17844E-04-4.30479E-14
 -1      2202 9.78555E-03 6.21932E-04-4.37651E-14
 -1      2203 9.89080E-03 5.42907E-04-4.45625E-14
 -1      2204 6.07351E-04-2.97710E-04-2.38159E-16
 -1      2205 8.53119E-03 8.93523E-04-3.74495E-14
 -1      2206 9.51221E-03 7.58757E-04-4.28482E-14
 -1      2207 6.63176E-04-2.91924E-04-3.15218E-16
 -1      2208 1.11200E-02-1.20371E-07-4.89416E-14
 -1      2209 1.06470E-02 1.58815E-04-4.74555E-14
 -1      2210 1.47844E-02-5.40400E-04-1.03099E-13
 -1      2211 1.11302E-02-3.16316E-05-4.92235E-14
 -1      2212 1.09911E-02-7.43976E-05-4.90696E-14
 -1      2213 1.03561E-02-3.31018E-04-4.75876E-14
 -1      2214 9.60194E-03-7.46182E-04-4.49692E-14
 -1      2215 8.96367E-03-9.94670E-04-4.16434E-14
 -1      2216 8.33654E-03-8.25919E-04-3.82568E-14
 -1      2217 7.56887E-03-3.96720E-04-3.52970E-14
 -1      2218 6.87601E-03-9.39347E-05-3.33098E-14
 -1      2219 6.67726E-03-3.26565E-05-3.28011E-14
 -1      2220 6.63977E-03-8.21032E-07-3.25112E-14
 -1      2221 6.76858E-03 4.09260E-05-3.25691E-14
 -1      2222 7.02316E-03 1.27395E-04-3.29766E-14
 -1      2223 7.80100E-03 4.99863E-04-3.46736E-14
 -1      2224 9.16333E-03 9.21038E-04-4.09981E-14
 -1      2225 9.24767E-03 8.88653E-04-4.15544E-14
 -1      2226 9.07617E-03 9.49386E-04-4.05190E-14
 -1      2227 8.83191E-03 9.67577E-04-3.91000E-14
 -1      2228 7.36987E-03 2.72840E-04-3.35760E-14
 -1      2229 7.97314E-03-6.22421E-04-3.67218E-14
 -1      2230 1.07268E-02-1.67070E-04-4.85200E-14
 -1      2231 1.01592E-03 3.98630E-04-4.44848E-16
 -1      2232 8.71533E-04 3.62564E-04-3.20395E-16
 -1      2233 5.48188E-04-5.51282E-05-3.26887E-16
 -1      2234 5.49197E-04-7.18036E-05-3.27659E-16
 -1      2235 5.50577E-04-8.90914E-05-3.27429E-16
 -1      2236 5.52395E-04-1.07039E-04-3.26114E-16
 -1      2237 6.65703E-04-9.51551E-05-4.43249E-16
 -1      2238 5.46844E-04 8.82869E-06-3.15449E-16
 -1      2239 5.46824E-04-6.95630E-06-3.19433E-16
 -1      2240 5.47580E-04 4.07391E-05-3.05176E-16
 -1      2241 5.47093E-04 2.47138E-05-3.10773E-16
 -1      2242 6.61844E-04 1.98529E-05-4.24438E-16
 -1      2243 5.49361E-04 7.32764E-05-2.91894E-16
 -1      2244 5.48325E-04 5.68240E-05-2.99037E-16
 -1      2245 6.63144E-04 5.75677E-05-4.10249E-16
 -1      2246 5.52671E-04 1.08684E-04-2.74262E-16
 -1      2247 5.50793E-04 9.06390E-05-2.83831E-16
 -1      2248 6.65946E-04 9.69170E-05-3.91682E-16
 -1      2249 5.58419E-04 1.47976E-04-2.50288E-16
 -1      2250 5.55173E-04 1.27771E-04-2.63149E-16
 -1      2251 6.70931E-04 1.39596E-04-3.67192E-16
 -1      2252 5.68555E-04 1.93544E-04-2.17694E-16
 -1      2253 5.62821E-04 1.69841E-04-2.35367E-16
 -1      2254 6.79412E-04 1.87077E-04-3.34463E-16
 -1      2255 1.30125E-03 4.54746E-04-7.63224E-16
 -1      2256 1.15898E-03 4.29250E-04-5.92042E-16
 -1      2257 1.07130E-03 3.80000E-04-5.58988E-16
 -1      2258 9.14758E-04-3.45417E-04-5.94265E-16
 -1      2259 1.05880E-03-3.78401E-04-7.77712E-16
 -1      2260 8.45021E-03 8.59536E-04-3.67663E-14
 -1      2261 8.59752E-03 9.25274E-04-3.75486E-14
 -1      2262 1.20202E-03-4.06373E-04-9.87085E-16
 -1      2263 1.34480E-03-4.29775E-04-1.22303E-15
 -1      2264 1.11671E-03-3.59058E-04-9.01609E-16
 -1      2265 1.48697E-03-4.49435E-04-1.48541E-15
 -1      2266 1.62876E-03-4.65631E-04-1.77419E-15
 -1      2267 1.40302E-03-4.04869E-04-1.37654E-15
 -1      2268 1.77022E-03-4.79018E-04-2.08854E-15
 -1      2269 1.91147E-03-4.89806E-04-2.42887E-15
 -1      2270 1.68820E-03-4.36829E-04-1.95469E-15
 -1      2271 2.05260E-03-4.98470E-04-2.79486E-15
 -1      2272 2.19368E-03-5.05181E-04-3.18666E-15
 -1      2273 1.97253E-03-4.58178E-04-2.63578E-15
 -1      2274 2.33478E-03-5.10280E-04-3.60345E-15
 -1      2275 2.47594E-03-5.13903E-04-4.04588E-15
 -1      2276 2.25644E-03-4.71467E-04-3.41819E-15
 -1      2277 2.61723E-03-5.16293E-04-4.51229E-15
 -1      2278 2.75866E-03-5.17557E-04-5.00348E-15
 -1      2279 2.54031E-03-4.78629E-04-4.30069E-15
 -1      2280 2.90030E-03-5.17867E-04-5.51870E-15
 -1      2281 3.04214E-03-5.17309E-04-6.05780E-15
 -1      2282 2.82442E-03-4.81102E-04-5.28000E-15
 -1      2283 3.18423E-03-5.15999E-04-6.62003E-15
 -1      2284 3.32659E-03-5.14008E-04-7.20581E-15
 -1      2285 3.10902E-03-4.79949E-04-6.35471E-15
 -1      2286 3.46925E-03-5.11419E-04-7.81433E-15
 -1      2287 3.61224E-03-5.08289E-04-8.44539E-15
 -1      2288 3.39429E-03-4.75944E-04-7.52247E-15
 -1      2289 3.75557E-03-5.04682E-04-9.09884E-15
 -1      2290 3.89929E-03-5.00654E-04-9.77492E-15
 -1      2291 3.68040E-03-4.69669E-04-8.78060E-15
 -1      2292 4.04341E-03-4.96260E-04-1.04720E-14
 -1      2293 4.18799E-03-4.91563E-04-1.11911E-14
 -1      2294 3.96752E-03-4.61593E-04-1.01277E-14
 -1      2295 4.33304E-03-4.86629E-04-1.19319E-14
 -1      2296 4.47863E-03-4.81537E-04-1.26916E-14
 -1      2297 4.25584E-03-4.52166E-04-1.15603E-14
 -1      2298 4.62477E-03-4.76382E-04-1.34732E-14
 -1      2299 4.77156E-03-4.71271E-04-1.42761E-14
 -1      2300 4.54559E-03-4.41914E-04-1.30783E-14
 -1      2301 4.91900E-03-4.66351E-04-1.50980E-14
 -1      2302 5.06722E-03-4.61772E-04-1.59402E-14
 -1      2303 4.83706E-03-4.31557E-04-1.46784E-14
 -1      2304 5.21621E-03-4.57757E-04-1.68025E-14
 -1      2305 5.36613E-03-4.54521E-04-1.76860E-14
 -1      2306 5.13064E-03-4.22142E-04-1.63594E-14
 -1      2307 5.51698E-03-4.52387E-04-1.85894E-14
 -1      2308 5.66894E-03-4.51662E-04-1.95123E-14
 -1      2309 5.42685E-03-4.15201E-04-1.81209E-14
 -1      2310 5.82207E-03-4.52782E-04-2.04559E-14
 -1      2311 5.97649E-03-4.56178E-04-2.14185E-14
 -1      2312 5.72642E-03-4.12931E-04-1.99637E-14
 -1      2313 6.13239E-03-4.62399E-04-2.24012E-14
 -1      2314 6.28981E-03-4.72031E-04-2.34038E-14
 -1      2315 6.03045E-03-4.18374E-04-2.18871E-14
 -1      2316 6.44909E-03-4.85683E-04-2.44261E-14
 -1      2317 6.61011E-03-5.04101E-04-2.54691E-14
 -1      2318 6.34045E-03-4.35558E-04-2.38886E-14
 -1      2319 6.77340E-03-5.27840E-04-2.65321E-14
 -1      2320 6.93852E-03-5.57729E-04-2.76161E-14
 -1      2321 6.65844E-03-4.69496E-04-2.59691E-14
 -1      2322 7.10620E-03-5.94049E-04-2.87209E-14
 -1      2323 7.27543E-03-6.37377E-04-2.98465E-14
 -1      2324 6.98662E-03-5.25859E-04-2.81310E-14
 -1      2325 7.44697E-03-6.87387E-04-3.09937E-14
 -1      2326 7.61918E-03-7.43851E-04-3.21619E-14
 -1      2327 7.32628E-03-6.09635E-04-3.03763E-14
 -1      2328 7.79254E-03-8.05439E-04-3.33510E-14
 -1      2329 7.96482E-03-8.69915E-04-3.45610E-14
 -1      2330 7.67594E-03-7.22207E-04-3.27038E-14
 -1      2331 8.13586E-03-9.34657E-04-3.57918E-14
 -1      2332 8.30429E-03-9.95150E-04-3.70437E-14
 -1      2333 8.02908E-03-8.55457E-04-3.51155E-14
 -1      2334 8.46918E-03-1.04793E-03-3.83171E-14
 -1      2335 8.63164E-03-1.08727E-03-3.96145E-14
 -1      2336 8.37503E-03-9.84895E-04-3.76120E-14
 -1      2337 8.79045E-03-1.11045E-03-4.09321E-14
 -1      2338 8.94959E-03-1.11456E-03-4.22689E-14
 -1      2339 8.70696E-03-1.07130E-03-4.01978E-14
 -1      2340 9.10773E-03-1.09933E-03-4.36275E-14
 -1      2341 9.26927E-03-1.06679E-03-4.50069E-14
 -1      2342 9.03049E-03-1.08033E-03-4.28687E-14
 -1      2343 9.43295E-03-1.01933E-03-4.64043E-14
 -1      2344 9.60037E-03-9.62598E-04-4.78235E-14
 -1      2345 9.36018E-03-1.00833E-03-4.56213E-14
 -1      2346 9.77057E-03-9.00038E-04-4.92609E-14
 -1      2347 9.94242E-03-8.36485E-04-5.07177E-14
 -1      2348 9.70392E-03-8.86045E-04-4.84532E-14
 -1      2349 1.01156E-02-7.74822E-04-5.21946E-14
 -1      2350 1.02881E-02-7.17649E-04-5.36880E-14
 -1      2351 1.00565E-02-7.53818E-04-5.13636E-14
 -1      2352 1.04602E-02-6.66501E-04-5.51999E-14
 -1      2353 1.06301E-02-6.21943E-04-5.67254E-14
 -1      2354 1.04074E-02-6.39086E-04-5.43464E-14
 -1      2355 1.07985E-02-5.84446E-04-5.82697E-14
 -1      2356 1.09644E-02-5.53489E-04-5.98294E-14
 -1      2357 1.07491E-02-5.52565E-04-5.73967E-14
 -1      2358 1.11285E-02-5.28873E-04-6.14021E-14
 -1      2359 1.12902E-02-5.09777E-04-6.29926E-14
 -1      2360 1.10793E-02-4.94093E-04-6.05068E-14
 -1      2361 1.14502E-02-4.95674E-04-6.45925E-14
 -1      2362 1.16082E-02-4.85793E-04-6.62054E-14
 -1      2363 1.13990E-02-4.58934E-04-6.36755E-14
 -1      2364 1.17647E-02-4.79516E-04-6.78307E-14
 -1      2365 1.19196E-02-4.76229E-04-6.94695E-14
 -1      2366 1.17103E-02-4.41398E-04-6.68981E-14
 -1      2367 1.20733E-02-4.75360E-04-7.11220E-14
 -1      2368 1.22257E-02-4.76453E-04-7.27851E-14
 -1      2369 1.20153E-02-4.36292E-04-7.01712E-14
 -1      2370 1.23770E-02-4.79042E-04-7.44595E-14
 -1      2371 1.25274E-02-4.82800E-04-7.61431E-14
 -1      2372 1.23157E-02-4.39380E-04-7.34955E-14
 -1      2373 1.26768E-02-4.87378E-04-7.78384E-14
 -1      2374 1.28255E-02-4.92547E-04-7.95413E-14
 -1      2375 1.26126E-02-4.47421E-04-7.68587E-14
 -1      2376 1.29734E-02-4.98062E-04-8.12554E-14
 -1      2377 1.31207E-02-5.03763E-04-8.29768E-14
 -1      2378 1.29069E-02-4.58055E-04-8.02653E-14
 -1      2379 1.32673E-02-5.09488E-04-8.47033E-14
 -1      2380 1.34134E-02-5.15124E-04-8.64398E-14
 -1      2381 1.31990E-02-4.69621E-04-8.37008E-14
 -1      2382 1.35590E-02-5.20570E-04-8.81787E-14
 -1      2383 1.37042E-02-5.25745E-04-8.99190E-14
 -1      2384 1.34896E-02-4.80989E-04-8.71626E-14
 -1      2385 1.38490E-02-5.30589E-04-9.16681E-14
 -1      2386 1.39935E-02-5.35044E-04-9.34207E-14
 -1      2387 1.37787E-02-4.91406E-04-9.06462E-14
 -1      2388 1.41376E-02-5.39078E-04-9.51773E-14
 -1      2389 1.42814E-02-5.42647E-04-9.69365E-14
 -1      2390 1.40668E-02-5.00380E-04-9.41445E-14
 -1      2391 1.09135E-02 5.15894E-05-4.90325E-14
 -1      2392 1.10117E-02 2.54328E-05-4.93445E-14
 -1      2393 1.86441E-03 5.20599E-04-1.68513E-15
 -1      2394 1.72414E-03 5.08661E-04-1.41858E-15
 -1      2395 2.14469E-03 5.37883E-04-2.29171E-15
 -1      2396 2.00457E-03 5.30281E-04-1.97632E-15
 -1      2397 1.92415E-03 4.89570E-04-1.89970E-15
 -1      2398 2.42518E-03 5.48101E-04-2.99486E-15
 -1      2399 2.28489E-03 5.43775E-04-2.63079E-15
 -1      2400 2.20651E-03 5.04702E-04-2.53817E-15
 -1      2401 2.70636E-03 5.52952E-04-3.79582E-15
 -1      2402 2.56567E-03 5.51120E-04-3.38340E-15
 -1      2403 2.48893E-03 5.13279E-04-3.27333E-15
 -1      2404 2.98857E-03 5.53682E-04-4.69321E-15
 -1      2405 2.84733E-03 5.53773E-04-4.23224E-15
 -1      2406 2.77179E-03 5.16861E-04-4.10506E-15
 -1      2407 3.27205E-03 5.51208E-04-5.68614E-15
 -1      2408 3.13014E-03 5.52800E-04-5.17784E-15
 -1      2409 3.05539E-03 5.16594E-04-5.03307E-15
 -1      2410 3.55704E-03 5.46210E-04-6.77450E-15
 -1      2411 3.41434E-03 5.48987E-04-6.21859E-15
 -1      2412 3.33995E-03 5.13319E-04-6.05591E-15
 -1      2413 3.84377E-03 5.39223E-04-7.95769E-15
 -1      2414 3.70017E-03 5.42932E-04-7.35410E-15
 -1      2415 3.62567E-03 5.07663E-04-7.17337E-15
 -1      2416 4.13252E-03 5.30729E-04-9.23358E-15
 -1      2417 3.98786E-03 5.35131E-04-8.58401E-15
 -1      2418 3.91277E-03 5.00128E-04-8.38518E-15
 -1      2419 4.42362E-03 5.21254E-04-1.06003E-14
 -1      2420 4.27774E-03 5.26074E-04-9.90543E-15
 -1      2421 4.20148E-03 4.91184E-04-9.68828E-15
 -1      2422 4.71748E-03 5.11482E-04-1.20544E-14
 -1      2423 4.57016E-03 5.16352E-04-1.13168E-14
 -1      2424 4.49209E-03 4.81363E-04-1.10813E-14
 -1      2425 5.01459E-03 5.02388E-04-1.35917E-14
 -1      2426 4.86558E-03 5.06776E-04-1.28131E-14
 -1      2427 4.78495E-03 4.71378E-04-1.25595E-14
 -1      2428 5.31548E-03 4.95400E-04-1.52093E-14
 -1      2429 5.16450E-03 4.98525E-04-1.43910E-14
 -1      2430 5.08048E-03 4.62258E-04-1.41205E-14
 -1      2431 5.62078E-03 4.92573E-04-1.69064E-14
 -1      2432 5.46752E-03 4.93320E-04-1.60475E-14
 -1      2433 5.37922E-03 4.55508E-04-1.57610E-14
 -1      2434 5.93112E-03 4.96763E-04-1.86826E-14
 -1      2435 5.77528E-03 4.93593E-04-1.77852E-14
 -1      2436 5.68182E-03 4.53279E-04-1.74813E-14
 -1      2437 6.24715E-03 5.11726E-04-2.05344E-14
 -1      2438 6.08842E-03 5.02644E-04-1.95992E-14
 -1      2439 5.98911E-03 4.58539E-04-1.92804E-14
 -1      2440 6.56938E-03 5.42027E-04-2.24590E-14
 -1      2441 6.40754E-03 5.24662E-04-2.14881E-14
 -1      2442 6.30211E-03 4.75170E-04-2.11550E-14
 -1      2443 6.89797E-03 5.92500E-04-2.44558E-14
 -1      2444 6.73304E-03 5.64452E-04-2.34482E-14
 -1      2445 6.62199E-03 5.07882E-04-2.31017E-14
 -1      2446 7.23227E-03 6.66917E-04-2.65222E-14
 -1      2447 7.06472E-03 6.26552E-04-2.54789E-14
 -1      2448 6.94978E-03 5.61679E-04-2.51187E-14
 -1      2449 7.57008E-03 7.65489E-04-2.86627E-14
 -1      2450 7.40122E-03 7.13377E-04-2.75830E-14
 -1      2451 7.28560E-03 6.40519E-04-2.72080E-14
 -1      2452 7.90704E-03 8.81247E-04-3.08817E-14
 -1      2453 7.73923E-03 8.22064E-04-2.97628E-14
 -1      2454 7.62746E-03 7.44531E-04-2.93723E-14
 -1      2455 8.23744E-03 9.96630E-04-3.31775E-14
 -1      2456 8.07346E-03 9.40532E-04-3.20189E-14
 -1      2457 7.97019E-03 8.65514E-04-3.16138E-14
 -1      2458 8.55710E-03 1.08505E-03-3.55597E-14
 -1      2459 8.39839E-03 1.04615E-03-3.43589E-14
 -1      2460 8.30621E-03 9.83079E-04-3.39368E-14
 -1      2461 8.86796E-03 1.11967E-03-3.80245E-14
 -1      2462 8.71271E-03 1.11045E-03-3.67813E-14
 -1      2463 8.63063E-03 1.06632E-03-3.63433E-14
 -1      2464 9.17818E-03 1.08804E-03-4.05775E-14
 -1      2465 9.02194E-03 1.11188E-03-3.92896E-14
 -1      2466 8.94680E-03 1.08632E-03-3.88362E-14
 -1      2467 9.49658E-03 1.00073E-03-4.32145E-14
 -1      2468 9.33572E-03 1.04985E-03-4.18845E-14
 -1      2469 9.26528E-03 1.03503E-03-4.14141E-14
 -1      2470 9.82584E-03 8.83709E-04-4.59443E-14
 -1      2471 9.65998E-03 9.44034E-04-4.45681E-14
 -1      2472 9.59462E-03 9.30943E-04-4.40806E-14
 -1      2473 1.01623E-02 7.64347E-04-4.87618E-14
 -1      2474 9.99373E-03 8.22919E-04-4.73436E-14
 -1      2475 9.93427E-03 8.05891E-04-4.68384E-14
 -1      2476 1.05003E-02 6.61032E-04-5.16569E-14
 -1      2477 1.03317E-02 7.10006E-04-5.01990E-14
 -1      2478 1.02775E-02 6.87416E-04-4.96788E-14
 -1      2479 1.08350E-02 5.81570E-04-5.46230E-14
 -1      2480 1.06684E-02 6.18203E-04-5.31316E-14
 -1      2481 1.06173E-02 5.90570E-04-5.25960E-14
 -1      2482 1.11642E-02 5.26182E-04-5.76465E-14
 -1      2483 1.10005E-02 5.51042E-04-5.61267E-14
 -1      2484 1.09499E-02 5.19476E-04-5.55795E-14
 -1      2485 1.14871E-02 4.91264E-04-6.07352E-14
 -1      2486 1.13265E-02 5.06446E-04-5.91843E-14
 -1      2487 1.12744E-02 4.71976E-04-5.86247E-14
 -1      2488 1.18038E-02 4.71977E-04-6.38861E-14
 -1      2489 1.16462E-02 4.79951E-04-6.23025E-14
 -1      2490 1.15913E-02 4.43425E-04-6.17303E-14
 -1      2491 1.21147E-02 4.63682E-04-6.70994E-14
 -1      2492 1.19599E-02 4.66700E-04-6.54852E-14
 -1      2493 1.19019E-02 4.28804E-04-6.48965E-14
 -1      2494 1.24207E-02 4.62516E-04-7.03684E-14
 -1      2495 1.22683E-02 4.62400E-04-6.87274E-14
 -1      2496 1.22073E-02 4.23686E-04-6.81281E-14
 -1      2497 1.27222E-02 4.65521E-04-7.36833E-14
 -1      2498 1.25719E-02 4.63641E-04-7.20214E-14
 -1      2499 1.25084E-02 4.24541E-04-7.14112E-14
 -1      2500 1.30201E-02 4.70550E-04-7.70290E-14
 -1      2501 1.28716E-02 4.67886E-04-7.53525E-14
 -1      2502 1.28060E-02 4.28725E-04-7.47357E-14
 -1      2503 1.33150E-02 4.76112E-04-8.04014E-14
 -1      2504 1.31679E-02 4.73337E-04-7.87133E-14
 -1      2505 1.31008E-02 4.34349E-04-7.80888E-14
 -1      2506 1.36073E-02 4.81195E-04-8.37912E-14
 -1      2507 1.34614E-02 4.78763E-04-8.20951E-14
 -1      2508 1.33933E-02 4.40111E-04-8.14653E-14
 -1      2509 1.38976E-02 4.85127E-04-8.71926E-14
 -1      2510 1.37527E-02 4.83340E-04-8.54900E-14
 -1      2511 1.36840E-02 4.45137E-04-8.48570E-14
 -1      2512 1.41863E-02 4.87469E-04-9.06075E-14
 -1      2513 1.40421E-02 4.86523E-04-8.88983E-14
 -1      2514 1.39730E-02 4.48850E-04-8.82607E-14
 -1      2515 1.44737E-02 4.87954E-04-9.40335E-14
 -1      2516 1.43301E-02 4.87962E-04-9.23195E-14
 -1      2517 1.42609E-02 4.50869E-04-9.16769E-14
 -1      2518 1.46217E-02 4.88465E-04-9.58037E-14
 -1      2519 1.45720E-02 1.67127E-04-9.67488E-14
 -1      2520 1.45680E-02 2.06852E-04-9.65124E-14
 -1      2521 1.45792E-02 8.84039E-05-9.72233E-14
 -1      2522 1.45758E-02 1.27663E-04-9.69863E-14
 -1      2523 1.44513E-02 1.47863E-04-9.53828E-14
 -1      2524 1.45556E-02 3.26390E-04-9.57993E-14
 -1      2525 1.45517E-02 3.67299E-04-9.55593E-14
 -1      2526 1.45638E-02 2.46512E-04-9.62749E-14
 -1      2527 1.45597E-02 2.86124E-04-9.60370E-14
 -1      2528 1.44342E-02 3.06574E-04-9.44335E-14
 -1      2529 1.44429E-02 2.26779E-04-9.49089E-14
 -1      2530 1.45846E-02 1.03786E-05-9.76915E-14
 -1      2531 1.45821E-02 4.93354E-05-9.74577E-14
 -1      2532 1.44583E-02 6.95978E-05-9.58524E-14
 -1      2533 1.45878E-02-6.73310E-05-9.81512E-14
 -1      2534 1.45865E-02-2.84796E-05-9.79220E-14
 -1      2535 1.44634E-02-8.02566E-06-9.63149E-14
 -1      2536 1.45888E-02-1.45144E-04-9.85949E-14
 -1      2537 1.45886E-02-1.06189E-04-9.83738E-14
 -1      2538 1.44660E-02-8.54258E-05-9.67645E-14
 -1      2539 1.45878E-02-2.22135E-04-9.90195E-14
 -1      2540 1.45885E-02-1.83548E-04-9.88090E-14
 -1      2541 1.44663E-02-1.62385E-04-9.71964E-14
 -1      2542 1.45854E-02-3.01304E-04-9.94350E-14
 -1      2543 1.45867E-02-2.61590E-04-9.92296E-14
 -1      2544 1.44647E-02-2.39969E-04-9.76134E-14
 -1      2545 1.45824E-02-3.81587E-04-9.98346E-14
 -1      2546 1.45839E-02-3.41295E-04-9.96379E-14
 -1      2547 1.44617E-02-3.19199E-04-9.80182E-14
 -1      2548 1.45798E-02-4.63114E-04-1.00211E-13
 -1      2549 1.45810E-02-4.22197E-04-1.00024E-13
 -1      2550 1.44583E-02-3.99666E-04-9.84042E-14
 -1      2551 1.46563E-02-5.37138E-04-1.01500E-13
 -1      2552 1.11554E-02-2.34625E-05-4.99350E-14
 -1      2553 1.11226E-02-3.18307E-05-5.00104E-14
 -1      2554 1.58361E-03 4.93938E-04-1.17614E-15
 -1      2555 1.44270E-03 4.76222E-04-9.57838E-16
 -1      2556 1.64130E-03 4.65779E-04-1.35746E-15
 -1      2557 1.05559E-02 1.84302E-04-4.77525E-14
 -1      2558 1.07475E-02 1.08875E-04-4.84147E-14
 -1      2559 1.01760E-02 3.69476E-04-4.62408E-14
 -1      2560 1.03320E-02 2.88276E-04-4.69108E-14
 -1      2561 5.88287E-04-2.37612E-04-2.87503E-16
 -1      2562 7.80961E-04-3.04160E-04-4.54321E-16
 -1      2563 8.40574E-04-2.92800E-04-5.49121E-16
 -1      2564 5.78857E-04-2.09805E-04-3.01462E-16
 -1      2565 1.10398E-02-5.50416E-05-4.99520E-14
 -1      2566 1.09410E-02-8.09055E-05-4.97233E-14
 -1      2567 8.42823E-03-8.72800E-04-3.85002E-14
 -1      2568 8.25223E-03-7.74857E-04-3.76099E-14
 -1      2569 6.93190E-03-9.97728E-05-3.28604E-14
 -1      2570 6.79828E-03-6.08280E-05-3.25428E-14
 -1      2571 5.47032E-04-2.28245E-05-3.22496E-16
 -1      2572 5.47477E-04-3.88158E-05-3.25057E-16
 -1      2573 6.62994E-04-5.55997E-05-4.41230E-16
 -1      2574 6.61791E-04-1.76323E-05-4.34792E-16
 -1      2575 8.78381E-03 9.70324E-04-3.86773E-14
 -1      2576 8.91715E-03 9.74867E-04-3.95403E-14
 -1      2577 7.26840E-03 2.14049E-04-3.28131E-14
 -1      2578 7.44573E-03 2.97558E-04-3.31616E-14
 -1      2579 9.42637E-03 8.03839E-04-4.26122E-14
 -1      2580 9.57577E-03 7.17260E-04-4.34255E-14
 -1      2581 8.16328E-03 7.01590E-04-3.55288E-14
 -1      2582 8.31120E-03 7.88529E-04-3.61454E-14
 -1      2583 8.38905E-03 8.34776E-04-3.62416E-14
 -1      2584 8.06184E-03-6.64556E-04-3.67627E-14
 -1      2585 7.90488E-03-5.69217E-04-3.61223E-14
 -1      2586 7.70144E-03 4.32064E-04-3.38548E-14
 -1      2587 7.92748E-03 5.63946E-04-3.45950E-14
 -1      2588 6.94774E-03 8.94360E-05-3.22734E-14
 -1      2589 7.09210E-03 1.40632E-04-3.25158E-14
 -1      2590 6.71988E-03 2.29693E-05-3.19221E-14
 -1      2591 6.81633E-03 4.71519E-05-3.20827E-14
 -1      2592 6.61895E-03-7.69881E-06-3.18626E-14
 -1      2593 6.63958E-03 4.98902E-08-3.17603E-14
 -1      2594 6.70022E-03-3.38235E-05-3.23891E-14
 -1      2595 6.64504E-03-2.12866E-05-3.22053E-14
 -1      2596 7.25822E-03-2.26731E-04-3.37277E-14
 -1      2597 7.11000E-03-1.65235E-04-3.32889E-14
 -1      2598 1.08078E-02-1.25342E-04-4.94241E-14
 -1      2599 1.06557E-02-1.81168E-04-4.91003E-14
 -1      2600 7.69763E-03-4.50701E-04-3.53245E-14
 -1      2601 7.47803E-03-3.32683E-04-3.45526E-14
 -1      2602 8.72365E-03-9.86379E-04-4.02241E-14
 -1      2603 8.60316E-03-9.48287E-04-3.94847E-14
 -1      2604 9.03007E-03-9.95212E-04-4.21951E-14
 -1      2605 8.87661E-03-1.00729E-03-4.11807E-14
 -1      2606 9.32487E-03-8.91825E-04-4.39937E-14
 -1      2607 9.20240E-03-9.47314E-04-4.32647E-14
 -1      2608 9.69773E-03-6.83354E-04-4.58622E-14
 -1      2609 9.51137E-03-7.95080E-04-4.49997E-14
 -1      2610 1.00473E-02-4.78675E-04-4.72545E-14
 -1      2611 9.89251E-03-5.69547E-04-4.66749E-14
 -1      2612 1.04455E-02-2.72629E-04-4.85584E-14
 -1      2613 1.02487E-02-3.70067E-04-4.79444E-14
 -1      2614 1.11012E-02 1.10127E-06-4.95678E-14
 -1      2615 1.11514E-02-1.10659E-05-4.97800E-14
 -1      2616 7.57336E-04 3.33572E-04-2.31911E-16
 -1      2617 6.11022E-04 2.84434E-04-1.48360E-16
 -1      2618 5.84408E-04 2.57705E-04-1.58483E-16
 -1      2619 8.13305E-04 3.22141E-04-3.15760E-16
 -1      2620 9.77211E-03 6.02317E-04-4.44227E-14
 -1      2621 9.97324E-03 4.82306E-04-4.53275E-14
 -1      2622 1.00599E-02 4.38108E-04-4.60985E-14
 -1      2623 9.00777E-03 9.67658E-04-4.00856E-14
 -1      2624 6.70518E-04-1.37541E-04-4.39847E-16
 -1      2625 5.54815E-04-1.25918E-04-3.23336E-16
 -1      2626 5.57953E-04-1.45874E-04-3.18783E-16
 -1      2627 1.35727E-03 4.30510E-04-9.10987E-16
 -1      2628 5.72053E-04 2.27531E-04-1.84030E-16
 -1      2629 9.68128E-03 6.60329E-04-4.41805E-14
 -1      2630 9.43766E-03-8.40557E-04-4.48749E-14
 -1      2631 9.10364E-03-9.83233E-04-4.27916E-14
 -1      2632 8.80893E-03-1.00544E-03-4.07646E-14
 -1      2633 1.10982E-02-4.14182E-05-5.06690E-14
 -1      2634 8.60410E-03 9.36871E-04-3.72849E-14
 -1      2635 8.69125E-03 9.58439E-04-3.79780E-14
 -1      2636 8.77170E-03 9.78440E-04-3.84072E-14
 -1      2637 7.78688E-03-5.02098E-04-3.53634E-14
 -1      2638 1.08863E-02-1.00307E-04-5.03091E-14
 -1      2639 1.08410E-02 7.85059E-05-4.93349E-14
 -1      2640 1.45525E-02 4.51977E-04-9.51577E-14
 -1      2641 1.45391E-02 4.19383E-04-9.51541E-14
 -1      2642 7.37280E-03-2.83793E-04-3.37532E-14
 -1      2643 1.45070E-02-5.49759E-04-9.97197E-14
 -1      2644 1.45538E-02-4.98177E-04-1.00060E-13
 -1      2645 1.44304E-02-4.75242E-04-9.84393E-14
 -1      2646 1.43785E-02-5.45621E-04-9.81311E-14
 -1      2647 6.73541E-03-4.45198E-05-3.19463E-14
 -1      2648 6.61358E-03-1.22914E-05-3.14551E-14
 -1      2649 1.11705E-02-1.72211E-05-5.05693E-14
 -1      2650 6.89377E-04 2.50711E-04-2.75116E-16
 -1      2651 1.04661E-02 2.29195E-04-4.78645E-14
 -1      2652 6.65716E-03 8.53859E-06-3.12776E-14
 -1      2653 5.64377E-04-1.64626E-04-3.16262E-16
 -1      2654 5.69711E-04-1.87681E-04-3.07968E-16
 -1      2655 6.97805E-04-2.27238E-04-4.23395E-16
 -1      2656 6.80869E-04-1.81186E-04-4.33356E-16
 -1      2657 1.10813E-02 8.75905E-06-5.01851E-14
 -1      2658 1.05592E-02-2.24742E-04-4.94630E-14
 -1      2659 1.01668E-02-4.17483E-04-4.82209E-14
 -1      2660 9.79394E-03-6.32684E-04-4.67070E-14
 -1      2661 8.50348E-03-9.11314E-04-3.88240E-14
 -1      2662 8.16382E-03-7.26519E-04-3.69985E-14
 -1      2663 6.86863E-03 6.51759E-05-3.16264E-14
 -1      2664 7.57093E-03 3.68185E-04-3.30824E-14
 -1      2665 8.03791E-03 6.34653E-04-3.46929E-14
 -1      2666 9.33006E-03 8.55688E-04-4.21223E-14
 -1      2667 6.99483E-03-1.25757E-04-3.25176E-14
 -1      2668 7.16252E-03 1.72319E-04-3.21069E-14
 -1      2669 1.44169E-02 3.98817E-04-9.37930E-14
 -1      2670 1.43074E-02-5.07377E-04-9.70915E-14
 -1      2671 7.80722E-04 7.69907E-05-5.30961E-16
 -1      2672 7.79483E-04 5.52190E-05-5.41220E-16
 -1      2673 7.78650E-04 3.34045E-05-5.50124E-16
 -1      2674 7.78234E-04 1.18420E-05-5.57903E-16
 -1      2675 8.97096E-04 4.94098E-05-6.91748E-16
 -1      2676 7.91854E-04 1.72511E-04-4.73715E-16
 -1      2677 7.87924E-04 1.47151E-04-4.91252E-16
 -1      2678 8.03501E-04 2.27627E-04-4.30875E-16
 -1      2679 7.96998E-04 1.99273E-04-4.53833E-16
 -1      2680 9.15140E-04 2.06963E-04-5.93113E-16
 -1      2681 1.12954E-03 3.60475E-04-6.80161E-16
 -1      2682 9.85953E-04 3.31778E-04-5.22233E-16
 -1      2683 1.03913E-02 2.77234E-04-4.80892E-14
 -1      2684 1.05897E-02 1.85461E-04-4.89423E-14
 -1      2685 1.32006E-03-3.60685E-04-1.26831E-15
 -1      2686 1.46330E-03-3.79140E-04-1.53267E-15
 -1      2687 1.60637E-03-3.94596E-04-1.82239E-15
 -1      2688 1.74935E-03-4.07284E-04-2.13745E-15
 -1      2689 1.52511E-03-3.52600E-04-1.69152E-15
 -1      2690 1.89218E-03-4.17658E-04-2.47801E-15
 -1      2691 2.03492E-03-4.25899E-04-2.84385E-15
 -1      2692 1.81186E-03-3.77094E-04-2.32216E-15
 -1      2693 2.17757E-03-4.32367E-04-3.23500E-15
 -1      2694 2.32017E-03-4.37205E-04-3.65079E-15
 -1      2695 2.09842E-03-3.93094E-04-3.05361E-15
 -1      2696 2.46274E-03-4.40684E-04-4.09080E-15
 -1      2697 2.60530E-03-4.42916E-04-4.55522E-15
 -1      2698 2.38473E-03-4.02521E-04-3.88345E-15
 -1      2699 2.74789E-03-4.44101E-04-5.04393E-15
 -1      2700 2.89051E-03-4.44325E-04-5.55643E-15
 -1      2701 2.67087E-03-4.06888E-04-4.81042E-15
 -1      2702 3.03319E-03-4.43732E-04-6.09238E-15
 -1      2703 3.17595E-03-4.42387E-04-6.65126E-15
 -1      2704 2.95689E-03-4.07342E-04-5.83252E-15
 -1      2705 3.31879E-03-4.40394E-04-7.23336E-15
 -1      2706 3.46174E-03-4.37803E-04-7.83859E-15
 -1      2707 3.24289E-03-4.04735E-04-6.94736E-15
 -1      2708 3.60480E-03-4.34692E-04-8.46560E-15
 -1      2709 3.74801E-03-4.31104E-04-9.11481E-15
 -1      2710 3.52892E-03-3.99695E-04-8.15304E-15
 -1      2711 3.89134E-03-4.27102E-04-9.78587E-15
 -1      2712 4.03486E-03-4.22728E-04-1.04787E-14
 -1      2713 3.81505E-03-3.92701E-04-9.44709E-15
 -1      2714 4.17854E-03-4.18049E-04-1.11932E-14
 -1      2715 4.32244E-03-4.13113E-04-1.19289E-14
 -1      2716 4.10132E-03-3.84165E-04-1.08291E-14
 -1      2717 4.46653E-03-4.08004E-04-1.26852E-14
 -1      2718 4.61090E-03-4.02787E-04-1.34630E-14
 -1      2719 4.38780E-03-3.74506E-04-1.22955E-14
 -1      2720 4.75552E-03-3.97581E-04-1.42615E-14
 -1      2721 4.90048E-03-3.92483E-04-1.50797E-14
 -1      2722 4.67459E-03-3.64251E-04-1.38471E-14
 -1      2723 5.04577E-03-3.87663E-04-1.59183E-14
 -1      2724 5.19152E-03-3.83266E-04-1.67773E-14
 -1      2725 4.96185E-03-3.54129E-04-1.54795E-14
 -1      2726 5.33772E-03-3.79530E-04-1.76563E-14
 -1      2727 5.48455E-03-3.76680E-04-1.85552E-14
 -1      2728 5.24991E-03-3.45195E-04-1.71942E-14
 -1      2729 5.63205E-03-3.75030E-04-1.94749E-14
 -1      2730 5.78044E-03-3.74920E-04-2.04152E-14
 -1      2731 5.53932E-03-3.38960E-04-1.89892E-14
 -1      2732 5.92987E-03-3.76743E-04-2.13742E-14
 -1      2733 6.08058E-03-3.81010E-04-2.23533E-14
 -1      2734 5.83111E-03-3.37551E-04-2.08649E-14
 -1      2735 6.23288E-03-3.88165E-04-2.33526E-14
 -1      2736 6.38705E-03-3.98974E-04-2.43714E-14
 -1      2737 6.12699E-03-3.43892E-04-2.28200E-14
 -1      2738 6.54363E-03-4.13876E-04-2.54095E-14
 -1      2739 6.70279E-03-4.33958E-04-2.64673E-14
 -1      2740 6.42972E-03-3.61958E-04-2.48522E-14
 -1      2741 6.86539E-03-4.59575E-04-2.75466E-14
 -1      2742 7.03123E-03-4.92128E-04-2.86452E-14
 -1      2743 6.74326E-03-3.97080E-04-2.69647E-14
 -1      2744 7.20139E-03-5.31741E-04-2.97632E-14
 -1      2745 7.37481E-03-5.79553E-04-3.09021E-14
 -1      2746 7.07244E-03-4.56355E-04-2.91560E-14
 -1      2747 7.55258E-03-6.35109E-04-3.20622E-14
 -1      2748 7.73223E-03-6.98640E-04-3.32426E-14
 -1      2749 7.42104E-03-5.47421E-04-3.14258E-14
 -1      2750 7.91475E-03-7.68796E-04-3.44453E-14
 -1      2751 8.09558E-03-8.41431E-04-3.56676E-14
 -1      2752 7.78780E-03-6.75257E-04-3.37786E-14
 -1      2753 8.27428E-03-9.13810E-04-3.69114E-14
 -1      2754 8.44936E-03-9.77537E-04-3.81772E-14
 -1      2755 8.16150E-03-8.31363E-04-3.62146E-14
 -1      2756 8.61893E-03-1.02848E-03-3.94677E-14
 -1      2757 8.78627E-03-1.05767E-03-4.07803E-14
 -1      2758 8.52319E-03-9.75238E-04-3.87417E-14
 -1      2759 8.94907E-03-1.06319E-03-4.21137E-14
 -1      2760 9.11556E-03-1.04355E-03-4.34674E-14
 -1      2761 8.86605E-03-1.04357E-03-4.13603E-14
 -1      2762 9.28378E-03-1.00035E-03-4.48406E-14
 -1      2763 9.45736E-03-9.42232E-04-4.62346E-14
 -1      2764 9.20771E-03-9.96895E-04-4.40623E-14
 -1      2765 9.63487E-03-8.72916E-04-4.76482E-14
 -1      2766 9.81514E-03-8.01504E-04-4.90811E-14
 -1      2767 9.56627E-03-8.64209E-04-4.68457E-14
 -1      2768 9.99735E-03-7.31346E-04-5.05361E-14
 -1      2769 1.01777E-02-6.66659E-04-5.20073E-14
 -1      2770 9.93884E-03-7.09629E-04-4.97099E-14
 -1      2771 1.03566E-02-6.09243E-04-5.34961E-14
 -1      2772 1.05314E-02-5.59717E-04-5.50028E-14
 -1      2773 1.03079E-02-5.77823E-04-5.26493E-14
 -1      2774 1.07030E-02-5.18673E-04-5.65237E-14
 -1      2775 1.08702E-02-4.84832E-04-5.80613E-14
 -1      2776 1.06602E-02-4.82591E-04-5.56549E-14
 -1      2777 1.10340E-02-4.58214E-04-5.96137E-14
 -1      2778 1.11943E-02-4.37352E-04-6.11810E-14
 -1      2779 1.09926E-02-4.20817E-04-5.87237E-14
 -1      2780 1.13518E-02-4.21955E-04-6.27646E-14
 -1      2781 1.15067E-02-4.10862E-04-6.43602E-14
 -1      2782 1.13086E-02-3.84385E-04-6.18543E-14
 -1      2783 1.16597E-02-4.03642E-04-6.59681E-14
 -1      2784 1.18110E-02-3.99478E-04-6.75894E-14
 -1      2785 1.16129E-02-3.66031E-04-6.50405E-14
 -1      2786 1.19609E-02-3.97914E-04-6.92255E-14
 -1      2787 1.21096E-02-3.98399E-04-7.08744E-14
 -1      2788 1.19098E-02-3.60124E-04-6.82813E-14
 -1      2789 1.22575E-02-4.00522E-04-7.25316E-14
 -1      2790 1.24046E-02-4.03917E-04-7.42018E-14
 -1      2791 1.22022E-02-3.62452E-04-7.15718E-14
 -1      2792 1.25510E-02-4.08247E-04-7.58850E-14
 -1      2793 1.26970E-02-4.13273E-04-7.75751E-14
 -1      2794 1.24920E-02-3.69892E-04-7.49088E-14
 -1      2795 1.28425E-02-4.18735E-04-7.92743E-14
 -1      2796 1.29877E-02-4.24477E-04-8.09824E-14
 -1      2797 1.27803E-02-3.80168E-04-7.82873E-14
 -1      2798 1.31325E-02-4.30314E-04-8.26990E-14
 -1      2799 1.32771E-02-4.36143E-04-8.44231E-14
 -1      2800 1.30677E-02-3.91646E-04-8.16987E-14
 -1      2801 1.34214E-02-4.41837E-04-8.61504E-14
 -1      2802 1.35655E-02-4.47327E-04-8.78851E-14
 -1      2803 1.33546E-02-4.03193E-04-8.51407E-14
 -1      2804 1.37094E-02-4.52530E-04-8.96257E-14
 -1      2805 1.38532E-02-4.57400E-04-9.13679E-14
 -1      2806 1.36412E-02-4.14034E-04-8.86049E-14
 -1      2807 1.39967E-02-4.61885E-04-9.31129E-14
 -1      2808 1.41401E-02-4.65951E-04-9.48643E-14
 -1      2809 1.39274E-02-4.23650E-04-9.20846E-14
 -1      2810 6.74913E-03-5.18997E-05-3.14154E-14
 -1      2811 6.66630E-03-3.07479E-05-3.12678E-14
 -1      2812 7.48224E-03-3.46043E-04-3.37731E-14
 -1      2813 7.27897E-03-2.52106E-04-3.29611E-14
 -1      2814 1.98536E-03 4.57819E-04-2.11962E-15
 -1      2815 1.84323E-03 4.48479E-04-1.82010E-15
 -1      2816 2.83756E-03 4.80370E-04-4.41915E-15
 -1      2817 2.69541E-03 4.79671E-04-3.97597E-15
 -1      2818 3.12225E-03 4.79221E-04-5.37661E-15
 -1      2819 2.97984E-03 4.80195E-04-4.88574E-15
 -1      2820 2.90363E-03 4.43602E-04-4.73714E-15
 -1      2821 3.40759E-03 4.75262E-04-6.42951E-15
 -1      2822 3.26483E-03 4.77557E-04-5.89139E-15
 -1      2823 3.18913E-03 4.41677E-04-5.72457E-15
 -1      2824 3.69374E-03 4.69070E-04-7.57601E-15
 -1      2825 3.55055E-03 4.72416E-04-6.99096E-15
 -1      2826 3.47496E-03 4.37147E-04-6.80668E-15
 -1      2827 3.98088E-03 4.61116E-04-8.81574E-15
 -1      2828 3.83717E-03 4.65287E-04-8.18422E-15
 -1      2829 3.76125E-03 4.30538E-04-7.98169E-15
 -1      2830 4.26919E-03 4.51855E-04-1.01461E-14
 -1      2831 4.12486E-03 4.56620E-04-9.46965E-15
 -1      2832 4.04809E-03 4.22291E-04-9.24946E-15
 -1      2833 4.55890E-03 4.41827E-04-1.15645E-14
 -1      2834 4.41384E-03 4.46900E-04-1.08444E-14
 -1      2835 4.33563E-03 4.12847E-04-1.06062E-14
 -1      2836 4.85031E-03 4.31767E-04-1.30669E-14
 -1      2837 4.70435E-03 4.36748E-04-1.23058E-14
 -1      2838 4.62404E-03 4.02746E-04-1.20498E-14
 -1      2839 5.14380E-03 4.22741E-04-1.46509E-14
 -1      2840 4.99674E-03 4.27047E-04-1.38486E-14
 -1      2841 4.91356E-03 3.92736E-04-1.35764E-14
 -1      2842 5.43990E-03 4.16297E-04-1.63151E-14
 -1      2843 5.29146E-03 4.19083E-04-1.54732E-14
 -1      2844 5.20455E-03 3.83896E-04-1.51839E-14
 -1      2845 5.73938E-03 4.14638E-04-1.80591E-14
 -1      2846 5.58915E-03 4.14706E-04-1.71766E-14
 -1      2847 5.49759E-03 3.77783E-04-1.68718E-14
 -1      2848 6.04333E-03 4.20781E-04-1.98801E-14
 -1      2849 5.89072E-03 4.16505E-04-1.89603E-14
 -1      2850 5.79358E-03 3.76592E-04-1.86385E-14
 -1      2851 6.35327E-03 4.38673E-04-2.17770E-14
 -1      2852 6.19748E-03 4.27951E-04-2.08192E-14
 -1      2853 6.09396E-03 3.83328E-04-2.04827E-14
 -1      2854 6.67115E-03 4.73152E-04-2.37455E-14
 -1      2855 6.51117E-03 4.53449E-04-2.27523E-14
 -1      2856 6.40085E-03 4.01954E-04-2.24010E-14
 -1      2857 6.99899E-03 5.29534E-04-2.57856E-14
 -1      2858 6.83388E-03 4.98189E-04-2.47577E-14
 -1      2859 6.71711E-03 4.37502E-04-2.43922E-14
 -1      2860 7.33781E-03 6.12309E-04-2.78960E-14
 -1      2861 7.16730E-03 5.67331E-04-2.68305E-14
 -1      2862 7.04589E-03 4.95849E-04-2.64535E-14
 -1      2863 7.68562E-03 7.22142E-04-3.00843E-14
 -1      2864 7.51118E-03 6.64117E-04-2.89801E-14
 -1      2865 7.38903E-03 5.82723E-04-2.85869E-14
 -1      2866 8.03647E-03 8.49696E-04-3.23488E-14
 -1      2867 7.86177E-03 7.84802E-04-3.12077E-14
 -1      2868 7.74476E-03 6.99332E-04-3.07975E-14
 -1      2869 8.37925E-03 9.71317E-04-3.46969E-14
 -1      2870 8.20939E-03 9.13898E-04-3.35120E-14
 -1      2871 8.10416E-03 8.36233E-04-3.30869E-14
 -1      2872 8.70811E-03 1.04928E-03-3.71295E-14
 -1      2873 8.54475E-03 1.01856E-03-3.59025E-14
 -1      2874 8.45328E-03 9.62789E-04-3.54583E-14
 -1      2875 9.02942E-03 1.05193E-03-3.96484E-14
 -1      2876 8.86817E-03 1.06118E-03-3.83772E-14
 -1      2877 8.78699E-03 1.03250E-03-3.79181E-14
 -1      2878 9.35629E-03 9.76984E-04-4.22561E-14
 -1      2879 9.19046E-03 1.02226E-03-4.09426E-14
 -1      2880 9.11520E-03 1.01180E-03-4.04657E-14
 -1      2881 9.69767E-03 8.54815E-04-4.49505E-14
 -1      2882 9.52530E-03 9.18906E-04-4.35913E-14
 -1      2883 9.45456E-03 9.10070E-04-4.31017E-14
 -1      2884 1.00478E-02 7.23445E-04-4.77339E-14
 -1      2885 9.87257E-03 7.88115E-04-4.63318E-14
 -1      2886 9.80953E-03 7.71578E-04-4.58243E-14
 -1      2887 1.03964E-02 6.08683E-04-5.05968E-14
 -1      2888 1.02232E-02 6.63084E-04-4.91568E-14
 -1      2889 1.01688E-02 6.37880E-04-4.86318E-14
 -1      2890 1.07363E-02 5.20601E-04-5.35360E-14
 -1      2891 1.05679E-02 5.61257E-04-5.20573E-14
 -1      2892 1.05201E-02 5.30326E-04-5.15190E-14
 -1      2893 1.10652E-02 4.59165E-04-5.65371E-14
 -1      2894 1.09023E-02 4.86874E-04-5.50293E-14
 -1      2895 1.08573E-02 4.52951E-04-5.44766E-14
 -1      2896 1.13839E-02 4.20023E-04-5.96014E-14
 -1      2897 1.12258E-02 4.37207E-04-5.80612E-14
 -1      2898 1.11806E-02 4.01812E-04-5.74980E-14
 -1      2899 1.16946E-02 3.97807E-04-6.27256E-14
 -1      2900 1.15402E-02 4.07152E-04-6.11565E-14
 -1      2901 1.14927E-02 3.70903E-04-6.05799E-14
 -1      2902 1.19991E-02 3.87584E-04-6.59106E-14
 -1      2903 1.18475E-02 3.91477E-04-6.43098E-14
 -1      2904 1.17966E-02 3.54603E-04-6.37227E-14
 -1      2905 1.22990E-02 3.85299E-04-6.91554E-14
 -1      2906 1.21495E-02 3.85660E-04-6.75262E-14
 -1      2907 1.20950E-02 3.48295E-04-6.69247E-14
 -1      2908 1.25956E-02 3.87833E-04-7.24543E-14
 -1      2909 1.24477E-02 3.86117E-04-7.07999E-14
 -1      2910 1.23898E-02 3.48401E-04-7.01863E-14
 -1      2911 1.28895E-02 3.92892E-04-7.57866E-14
 -1      2912 1.27428E-02 3.90154E-04-7.41163E-14
 -1      2913 1.26820E-02 3.52242E-04-7.34963E-14
 -1      2914 1.31815E-02 3.98858E-04-7.91456E-14
 -1      2915 1.30357E-02 3.95836E-04-7.74641E-14
 -1      2916 1.29725E-02 3.57881E-04-7.68380E-14
 -1      2917 1.34718E-02 4.04620E-04-8.25261E-14
 -1      2918 1.33268E-02 4.01815E-04-8.08336E-14
 -1      2919 1.32617E-02 3.63959E-04-8.02013E-14
 -1      2920 1.37608E-02 4.09437E-04-8.59217E-14
 -1      2921 1.36164E-02 4.07181E-04-8.42225E-14
 -1      2922 1.35500E-02 3.69549E-04-8.35876E-14
 -1      2923 1.40487E-02 4.12822E-04-8.93260E-14
 -1      2924 1.39048E-02 4.11332E-04-8.76223E-14
 -1      2925 1.38375E-02 3.74034E-04-8.69846E-14
 -1      2926 1.43047E-02 4.06476E-04-9.24114E-14
 -1      2927 1.41613E-02 4.05793E-04-9.07032E-14
 -1      2928 1.40935E-02 3.68937E-04-9.00615E-14
 -1      2929 1.43180E-02 3.54568E-04-9.28153E-14
 -1      2930 1.43423E-02-2.63088E-05-9.49332E-14
 -1      2931 1.43403E-02 1.22174E-05-9.47077E-14
 -1      2932 1.42369E-02-4.69263E-04-9.60570E-14
 -1      2933 1.43337E-02-4.72358E-04-9.72478E-14
 -1      2934 1.41671E-02-4.31331E-04-9.50193E-14
 -1      2935 1.43308E-02 1.28527E-04-9.40132E-14
 -1      2936 1.43267E-02 1.67735E-04-9.37774E-14
 -1      2937 1.43443E-02-1.03310E-04-9.53770E-14
 -1      2938 1.43436E-02-6.47857E-05-9.51580E-14
 -1      2939 1.42214E-02-4.43700E-05-9.35523E-14
 -1      2940 1.43377E-02 5.08163E-05-9.44794E-14
 -1      2941 1.43345E-02 8.95786E-05-9.42481E-14
 -1      2942 1.42106E-02 1.09222E-04-9.26448E-14
 -1      2943 1.42173E-02 3.21665E-05-9.31042E-14
 -1      2944 8.96899E-03 9.82454E-04-3.97416E-14
 -1      2945 9.10623E-03 9.52554E-04-4.07228E-14
 -1      2946 1.43439E-02-1.79346E-04-9.57938E-14
 -1      2947 1.43444E-02-1.41250E-04-9.55860E-14
 -1      2948 1.42227E-02-1.20251E-04-9.39815E-14
 -1      2949 1.43414E-02-2.57473E-04-9.62031E-14
 -1      2950 1.43429E-02-2.18281E-04-9.60010E-14
 -1      2951 1.42214E-02-1.96630E-04-9.43918E-14
 -1      2952 1.43378E-02-3.36748E-04-9.65972E-14
 -1      2953 1.43397E-02-2.96945E-04-9.64018E-14
 -1      2954 1.42181E-02-2.74627E-04-9.47916E-14
 -1      2955 1.70096E-03 4.36815E-04-1.54466E-15
 -1      2956 1.55846E-03 4.22635E-04-1.29329E-15
 -1      2957 1.76214E-03 4.07197E-04-1.73789E-15
 -1      2958 6.60230E-03 4.89365E-06-3.04470E-14
 -1      2959 6.67778E-03 2.00614E-05-3.06064E-14
 -1      2960 8.27961E-04-2.64533E-04-5.59381E-16
 -1      2961 9.59536E-04-2.99504E-04-7.15641E-16
 -1      2962 8.17496E-04-2.37938E-04-5.66916E-16
 -1      2963 8.02925E-04 2.77515E-04-3.68466E-16
 -1      2964 6.60717E-03-1.62359E-05-3.09309E-14
 -1      2965 6.57948E-03-9.60825E-06-3.05947E-14
 -1      2966 6.60217E-03-2.36848E-05-3.04086E-14
 -1      2967 2.55334E-03 4.77944E-04-3.55644E-15
 -1      2968 2.41134E-03 4.75092E-04-3.16080E-15
 -1      2969 2.61835E-03 4.42229E-04-3.84434E-15
 -1      2970 2.26936E-03 4.70898E-04-2.78927E-15
 -1      2971 2.12739E-03 4.65240E-04-2.44238E-15
 -1      2972 2.33312E-03 4.36620E-04-3.04596E-15
 -1      2973 1.06806E-03-3.20296E-04-8.65153E-16
 -1      2974 1.21137E-03-3.45120E-04-1.08407E-15
 -1      2975 1.27298E-03-3.22975E-04-1.21962E-15
 -1      2976 1.05585E-03-2.90109E-04-8.74802E-16
 -1      2977 1.10739E-02 1.57297E-05-5.09673E-14
 -1      2978 1.11463E-02-1.49621E-06-5.11976E-14
 -1      2979 7.03298E-03-1.51783E-04-3.20221E-14
 -1      2980 6.88089E-03-9.67247E-05-3.16069E-14
 -1      2981 1.07847E-02 1.05760E-04-4.97249E-14
 -1      2982 1.09347E-02 5.64169E-05-5.03510E-14
 -1      2983 1.41577E-03 4.05417E-04-1.06547E-15
 -1      2984 1.27272E-03 3.84902E-04-8.61006E-16
 -1      2985 1.18958E-03 3.39855E-04-8.07812E-16
 -1      2986 1.47605E-03 3.79540E-04-1.22579E-15
 -1      2987 1.09659E-02-8.46075E-05-5.13418E-14
 -1      2988 1.08465E-02-1.21344E-04-5.10385E-14
 -1      2989 7.84836E-04 1.22960E-04-5.06173E-16
 -1      2990 7.82494E-04 9.95979E-05-5.19333E-16
 -1      2991 9.00165E-04 9.89364E-05-6.66689E-16
 -1      2992 9.05811E-04 1.50876E-04-6.34584E-16
 -1      2993 7.92907E-03 5.83731E-04-3.38273E-14
 -1      2994 8.13845E-03 7.06841E-04-3.47474E-14
 -1      2995 9.52892E-03-8.00727E-04-4.57116E-14
 -1      2996 9.36398E-03-8.90710E-04-4.46955E-14
 -1      2997 8.26913E-03 7.81801E-04-3.53516E-14
 -1      2998 8.38998E-03 8.49289E-04-3.59613E-14
 -1      2999 8.14869E-03 7.32736E-04-3.44722E-14
 -1      3000 6.78928E-03 4.86346E-05-3.09106E-14
 -1      3001 6.90648E-03 8.37370E-05-3.10967E-14
 -1      3002 7.82224E-04-9.75447E-05-5.77798E-16
 -1      3003 7.84488E-04-1.20822E-04-5.77405E-16
 -1      3004 9.26145E-03 8.97701E-04-4.17677E-14
 -1      3005 9.41979E-03 8.21279E-04-4.28258E-14
 -1      3006 9.20943E-03 9.29074E-04-4.14110E-14
 -1      3007 7.43617E-03 3.11790E-04-3.21721E-14
 -1      3008 7.66288E-03 4.32570E-04-3.28503E-14
 -1      3009 1.11851E-02-1.38702E-05-5.13583E-14
 -1      3010 1.11931E-02-2.00363E-05-5.15193E-14
 -1      3011 1.11974E-02-6.90907E-06-5.21514E-14
 -1      3012 7.05223E-03 1.38713E-04-3.12983E-14
 -1      3013 7.20530E-03 2.02891E-04-3.15867E-14
 -1      3014 1.02761E-02-3.72885E-04-4.92560E-14
 -1      3015 1.00988E-02-4.69591E-04-4.85567E-14
 -1      3016 7.87524E-03-5.61694E-04-3.54244E-14
 -1      3017 7.68936E-03-4.54220E-04-3.46380E-14
 -1      3018 1.43602E-02-4.37595E-04-9.73985E-14
 -1      3019 8.23125E-03-7.76066E-04-3.71351E-14
 -1      3020 8.06507E-03-6.74287E-04-3.62949E-14
 -1      3021 1.11597E-02-3.42035E-05-5.17015E-14
 -1      3022 1.10874E-02-5.04637E-05-5.16438E-14
 -1      3023 8.81400E-03-1.02276E-03-4.08838E-14
 -1      3024 8.68750E-03-9.98002E-04-3.99307E-14
 -1      3025 9.20215E-03-9.58614E-04-4.36085E-14
 -1      3026 9.05034E-03-1.00348E-03-4.25337E-14
 -1      3027 9.30084E-03-9.29291E-04-4.44309E-14
 -1      3028 9.89993E-03-5.83568E-04-4.76771E-14
 -1      3029 9.73062E-03-6.86434E-04-4.68531E-14
 -1      3030 1.06752E-02-1.84872E-04-5.04822E-14
 -1      3031 1.04884E-02-2.66066E-04-4.99327E-14
 -1      3032 9.98200E-03 4.99766E-04-4.61362E-14
 -1      3033 1.01606E-02 3.99834E-04-4.70593E-14
 -1      3034 9.60230E-03 7.18605E-04-4.39357E-14
 -1      3035 9.77625E-03 6.13789E-04-4.49385E-14
 -1      3036 7.87479E-04-1.44905E-04-5.75562E-16
 -1      3037 7.91269E-04-1.70030E-04-5.71605E-16
 -1      3038 9.05329E-04-1.48346E-04-7.29804E-16
 -1      3039 8.96083E-04 1.00757E-06-7.10640E-16
 -1      3040 7.78204E-04-9.67208E-06-5.64381E-16
 -1      3041 7.78561E-04-3.12177E-05-5.69640E-16
 -1      3042 1.10650E-02-6.94156E-05-5.23817E-14
 -1      3043 1.07145E-02 1.50807E-04-4.99553E-14
 -1      3044 8.48286E-03 8.99630E-04-3.63760E-14
 -1      3045 8.56494E-03 9.40397E-04-3.67924E-14
 -1      3046 8.36287E-03 8.57892E-04-3.54794E-14
 -1      3047 6.94543E-03 1.14528E-04-3.05843E-14
 -1      3048 1.42020E-02 1.86925E-04-9.21786E-14
 -1      3049 1.43223E-02 2.06886E-04-9.35430E-14
 -1      3050 1.43177E-02 2.46362E-04-9.33057E-14
 -1      3051 6.77931E-03-7.53168E-05-3.09302E-14
 -1      3052 7.21781E-03-2.59930E-04-3.20548E-14
 -1      3053 7.12909E-03-2.02723E-04-3.20402E-14
 -1      3054 6.99130E-03-1.70040E-04-3.11312E-14
 -1      3055 6.69755E-03 3.65866E-05-3.00841E-14
 -1      3056 2.04778E-03 4.25504E-04-2.34417E-15
 -1      3057 9.52539E-03 7.78761E-04-4.35703E-14
 -1      3058 7.95242E-03-6.23065E-04-3.55546E-14
 -1      3059 8.87633E-03 9.90947E-04-3.90278E-14
 -1      3060 1.43200E-02 2.80120E-04-9.31801E-14
 -1      3061 1.43155E-02 3.20238E-04-9.29446E-14
 -1      3062 1.42035E-02 3.27511E-04-9.15655E-14
 -1      3063 1.41993E-02 2.59613E-04-9.18199E-14
 -1      3064 9.89893E-03 5.67764E-04-4.58855E-14
 -1      3065 7.77684E-03 5.14635E-04-3.29023E-14
 -1      3066 7.86966E-03 5.93178E-04-3.29495E-14
 -1      3067 7.62729E-03 4.57164E-04-3.19892E-14
 -1      3068 1.07848E-02-1.59660E-04-5.15168E-14
 -1      3069 1.43619E-02-3.96893E-04-9.72141E-14
 -1      3070 1.42033E-02-4.02528E-04-9.53114E-14
 -1      3071 1.43017E-02-3.65259E-04-9.63102E-14
 -1      3072 1.41798E-02-3.42331E-04-9.46996E-14
 -1      3073 1.41070E-02-3.99204E-04-9.41216E-14
 -1      3074 6.56088E-03-4.61046E-07-2.99310E-14
 -1      3075 1.12104E-02-2.85180E-05-5.25011E-14
 -1      3076 1.04165E-02-3.21368E-04-5.02742E-14
 -1      3077 7.29957E-03 2.66543E-04-3.13596E-14
 -1      3078 7.57066E-03-4.09114E-04-3.38302E-14
 -1      3079 1.10368E-02 3.72269E-05-5.13655E-14
 -1      3080 1.03089E-02 3.44108E-04-4.81298E-14
 -1      3081 7.79326E-04-5.29051E-05-5.73611E-16
 -1      3082 7.80521E-04-7.50019E-05-5.76457E-16
 -1      3083 8.99881E-04-9.65908E-05-7.30170E-16
 -1      3084 8.96966E-04-4.72628E-05-7.23542E-16
 -1      3085 8.64832E-04 2.65722E-04-4.59254E-16
 -1      3086 9.83012E-04 2.74710E-04-6.02315E-16
 -1      3087 9.64667E-03-7.52845E-04-4.66689E-14
 -1      3088 1.00273E-02-5.33020E-04-4.87054E-14
 -1      3089 8.36700E-03-8.53795E-04-3.78627E-14
 -1      3090 8.26156E-03-8.08135E-04-3.71458E-14
 -1      3091 8.52138E-03-9.30254E-04-3.88375E-14
 -1      3092 1.04055E-03 2.42112E-04-7.24857E-16
 -1      3093 1.03403E-03 2.10468E-04-7.52423E-16
 -1      3094 1.73197E-03-3.36801E-04-2.16881E-15
 -1      3095 1.87566E-03-3.46232E-04-2.50910E-15
 -1      3096 2.01932E-03-3.53835E-04-2.87442E-15
 -1      3097 2.16297E-03-3.59751E-04-3.26452E-15
 -1      3098 1.94050E-03-3.14749E-04-2.69823E-15
 -1      3099 2.30657E-03-3.64244E-04-3.67896E-15
 -1      3100 2.45011E-03-3.67428E-04-4.11691E-15
 -1      3101 2.22842E-03-3.25953E-04-3.47653E-15
 -1      3102 2.59358E-03-3.69510E-04-4.57967E-15
 -1      3103 2.73698E-03-3.70578E-04-5.06599E-15
 -1      3104 2.51617E-03-3.32020E-04-4.35180E-15
 -1      3105 2.88031E-03-3.70789E-04-5.57509E-15
 -1      3106 3.02356E-03-3.70208E-04-6.10808E-15
 -1      3107 2.80357E-03-3.34087E-04-5.32125E-15
 -1      3108 3.16675E-03-3.68953E-04-6.66413E-15
 -1      3109 3.30987E-03-3.67068E-04-7.24258E-15
 -1      3110 3.09049E-03-3.33026E-04-6.38342E-15
 -1      3111 3.45290E-03-3.64644E-04-7.84363E-15
 -1      3112 3.59587E-03-3.61713E-04-8.46686E-15
 -1      3113 3.37685E-03-3.29488E-04-7.53713E-15
 -1      3114 3.73876E-03-3.58349E-04-9.11189E-15
 -1      3115 3.88158E-03-3.54575E-04-9.77826E-15
 -1      3116 3.66259E-03-3.23959E-04-8.77963E-15
 -1      3117 4.02431E-03-3.50462E-04-1.04669E-14
 -1      3118 4.16697E-03-3.46034E-04-1.11777E-14
 -1      3119 3.94761E-03-3.16824E-04-1.01090E-14
 -1      3120 4.30953E-03-3.41366E-04-1.19098E-14
 -1      3121 4.45203E-03-3.36492E-04-1.26623E-14
 -1      3122 4.23184E-03-3.08431E-04-1.15261E-14
 -1      3123 4.59443E-03-3.31507E-04-1.34348E-14
 -1      3124 4.73680E-03-3.26460E-04-1.42285E-14
 -1      3125 4.51519E-03-2.99158E-04-1.30266E-14
 -1      3126 4.87908E-03-3.21481E-04-1.50444E-14
 -1      3127 5.02138E-03-3.16648E-04-1.58793E-14
 -1      3128 4.79761E-03-2.89491E-04-1.46103E-14
 -1      3129 5.16365E-03-3.12135E-04-1.67336E-14
 -1      3130 5.30604E-03-3.08069E-04-1.76099E-14
 -1      3131 5.07914E-03-2.80098E-04-1.62773E-14
 -1      3132 5.44854E-03-3.04672E-04-1.85053E-14
 -1      3133 5.59137E-03-3.02152E-04-1.94215E-14
 -1      3134 5.36001E-03-2.71913E-04-1.80244E-14
 -1      3135 5.73460E-03-3.00776E-04-2.03587E-14
 -1      3136 5.87853E-03-3.00889E-04-2.13141E-14
 -1      3137 5.64080E-03-2.66230E-04-1.98531E-14
 -1      3138 6.02336E-03-3.02783E-04-2.22891E-14
 -1      3139 6.16954E-03-3.07031E-04-2.32846E-14
 -1      3140 5.92276E-03-2.64829E-04-2.17616E-14
 -1      3141 6.31747E-03-3.13915E-04-2.42996E-14
 -1      3142 6.46776E-03-3.24423E-04-2.53330E-14
 -1      3143 6.20818E-03-2.70190E-04-2.37485E-14
 -1      3144 6.62113E-03-3.38789E-04-2.63864E-14
 -1      3145 6.77825E-03-3.58610E-04-2.74607E-14
 -1      3146 6.50101E-03-2.85988E-04-2.58120E-14
 -1      3147 6.94025E-03-3.84189E-04-2.85523E-14
 -1      3148 7.10743E-03-4.17873E-04-2.96628E-14
 -1      3149 6.80739E-03-3.18076E-04-2.79528E-14
 -1      3150 7.28202E-03-4.59362E-04-3.07945E-14
 -1      3151 7.46206E-03-5.12161E-04-3.19456E-14
 -1      3152 7.13647E-03-3.76067E-04-3.01691E-14
 -1      3153 8.04508E-03-7.51921E-04-3.55453E-14
 -1      3154 8.23523E-03-8.36987E-04-3.67818E-14
 -1      3155 8.36751E-03-8.92769E-04-3.76718E-14
 -1      3156 8.55167E-03-9.63957E-04-3.89494E-14
 -1      3157 9.08856E-03-1.01235E-03-4.30248E-14
 -1      3158 9.26763E-03-9.61902E-04-4.43904E-14
 -1      3159 9.41662E-03-8.98510E-04-4.54882E-14
 -1      3160 9.60608E-03-8.15803E-04-4.68908E-14
 -1      3161 9.87957E-03-6.91847E-04-4.88950E-14
 -1      3162 1.00713E-02-6.14883E-04-5.03451E-14
 -1      3163 1.02608E-02-5.48690E-04-5.18128E-14
 -1      3164 1.04427E-02-4.92905E-04-5.32968E-14
 -1      3165 1.02177E-02-5.18475E-04-5.09795E-14
 -1      3166 1.06192E-02-4.48505E-04-5.47956E-14
 -1      3167 1.07887E-02-4.12883E-04-5.63130E-14
 -1      3168 1.05834E-02-4.11959E-04-5.39416E-14
 -1      3169 1.09529E-02-3.85878E-04-5.78438E-14
 -1      3170 1.11119E-02-3.64898E-04-5.93915E-14
 -1      3171 1.09181E-02-3.48920E-04-5.69686E-14
 -1      3172 1.12668E-02-3.49819E-04-6.09571E-14
 -1      3173 1.14184E-02-3.38872E-04-6.25347E-14
 -1      3174 1.12293E-02-3.14279E-04-6.00602E-14
 -1      3175 1.15674E-02-3.31849E-04-6.41244E-14
 -1      3176 1.17145E-02-3.27650E-04-6.57276E-14
 -1      3177 1.15255E-02-2.97568E-04-6.32102E-14
 -1      3178 1.18600E-02-3.26025E-04-6.73464E-14
 -1      3179 1.20045E-02-3.26289E-04-6.89796E-14
 -1      3180 1.18131E-02-2.92373E-04-6.64154E-14
 -1      3181 1.21481E-02-3.28179E-04-7.06247E-14
 -1      3182 1.22913E-02-3.31278E-04-7.22797E-14
 -1      3183 1.20965E-02-2.94645E-04-6.96760E-14
 -1      3184 1.24340E-02-3.35334E-04-7.39442E-14
 -1      3185 1.25766E-02-3.40089E-04-7.56242E-14
 -1      3186 1.23781E-02-3.01613E-04-7.29856E-14
 -1      3187 1.27190E-02-3.45328E-04-7.73127E-14
 -1      3188 1.28615E-02-3.50889E-04-7.90073E-14
 -1      3189 1.26595E-02-3.11306E-04-7.63372E-14
 -1      3190 1.30038E-02-3.56601E-04-8.07116E-14
 -1      3191 1.31462E-02-3.62364E-04-8.24257E-14
 -1      3192 1.29413E-02-3.22288E-04-7.97273E-14
 -1      3193 1.32886E-02-3.68051E-04-8.41445E-14
 -1      3194 1.34311E-02-3.73601E-04-8.58680E-14
 -1      3195 1.32237E-02-3.33524E-04-8.31479E-14
 -1      3196 1.35735E-02-3.78924E-04-8.75985E-14
 -1      3197 1.37161E-02-3.83969E-04-8.93324E-14
 -1      3198 1.35068E-02-3.44293E-04-8.65934E-14
 -1      3199 1.38402E-02-3.89677E-04-9.08517E-14
 -1      3200 1.39828E-02-3.94090E-04-9.25926E-14
 -1      3201 1.40195E-02-3.65743E-04-9.28833E-14
 -1      3202 1.37721E-02-3.55035E-04-8.98394E-14
 -1      3203 2.97001E-03 4.06607E-04-5.05906E-15
 -1      3204 2.82698E-03 4.06818E-04-4.58624E-15
 -1      3205 3.82821E-03 3.92180E-04-8.39111E-15
 -1      3206 3.68513E-03 3.95841E-04-7.77775E-15
 -1      3207 4.11445E-03 3.83785E-04-9.68541E-15
 -1      3208 3.97130E-03 3.88150E-04-9.02704E-15
 -1      3209 3.89463E-03 3.54097E-04-8.80359E-15
 -1      3210 4.40089E-03 3.74307E-04-1.10688E-14
 -1      3211 4.25763E-03 3.79157E-04-1.03663E-14
 -1      3212 4.17997E-03 3.45698E-04-1.01245E-14
 -1      3213 4.68763E-03 3.64280E-04-1.25378E-14
 -1      3214 4.54420E-03 3.69328E-04-1.17929E-14
 -1      3215 4.46498E-03 3.36329E-04-1.15344E-14
 -1      3216 4.97487E-03 3.54443E-04-1.40882E-14
 -1      3217 4.83115E-03 3.59287E-04-1.33029E-14
 -1      3218 4.74971E-03 3.26508E-04-1.30276E-14
 -1      3219 5.26295E-03 3.45861E-04-1.57196E-14
 -1      3220 5.11875E-03 3.49919E-04-1.48934E-14
 -1      3221 5.03429E-03 3.16947E-04-1.46023E-14
 -1      3222 5.55248E-03 3.40055E-04-1.74317E-14
 -1      3223 5.40746E-03 3.42497E-04-1.65657E-14
 -1      3224 5.31905E-03 3.08662E-04-1.62580E-14
 -1      3225 5.84455E-03 3.39152E-04-1.92218E-14
 -1      3226 5.69809E-03 3.38821E-04-1.83171E-14
 -1      3227 5.60465E-03 3.03085E-04-1.79941E-14
 -1      3228 6.14093E-03 3.46069E-04-2.10876E-14
 -1      3229 5.99205E-03 3.41381E-04-2.01454E-14
 -1      3230 5.89234E-03 3.02206E-04-1.98073E-14
 -1      3231 6.44439E-03 3.64736E-04-2.30279E-14
 -1      3232 6.29158E-03 3.53565E-04-2.20485E-14
 -1      3233 6.18425E-03 3.08780E-04-2.16951E-14
 -1      3234 6.75881E-03 4.00397E-04-2.50415E-14
 -1      3235 6.60003E-03 3.79900E-04-2.40251E-14
 -1      3236 6.48384E-03 3.26648E-04-2.36577E-14
 -1      3237 7.08867E-03 4.59780E-04-2.71229E-14
 -1      3238 6.92176E-03 4.26462E-04-2.60741E-14
 -1      3239 6.79615E-03 3.61452E-04-2.56912E-14
 -1      3240 7.43741E-03 5.50304E-04-2.92799E-14
 -1      3241 7.26102E-03 5.00361E-04-2.81915E-14
 -1      3242 7.12719E-03 4.21165E-04-2.77956E-14
 -1      3243 7.83910E-03 6.58140E-04-3.19911E-14
 -1      3244 7.65164E-03 5.87227E-04-3.08584E-14
 -1      3245 8.54009E-03 9.62007E-04-3.62841E-14
 -1      3246 8.36405E-03 9.02777E-04-3.50727E-14
 -1      3247 8.86952E-03 1.02084E-03-3.86755E-14
 -1      3248 8.70146E-03 1.00545E-03-3.74226E-14
 -1      3249 9.17561E-03 9.68175E-04-4.10755E-14
 -1      3250 9.00302E-03 1.00399E-03-3.97774E-14
 -1      3251 9.55841E-03 8.39508E-04-4.39267E-14
 -1      3252 9.37882E-03 9.09999E-04-4.25848E-14
 -1      3253 9.92834E-03 6.84743E-04-4.66862E-14
 -1      3254 9.74368E-03 7.59581E-04-4.52998E-14
 -1      3255 1.02944E-02 5.53892E-04-4.95180E-14
 -1      3256 1.01134E-02 6.15357E-04-4.80926E-14
 -1      3257 1.00595E-02 5.93120E-04-4.75523E-14
 -1      3258 1.06449E-02 4.57308E-04-5.24271E-14
 -1      3259 1.04724E-02 5.01566E-04-5.09635E-14
 -1      3260 1.04274E-02 4.70952E-04-5.04063E-14
 -1      3261 1.09766E-02 3.92071E-04-5.54029E-14
 -1      3262 1.08131E-02 4.21327E-04-5.39073E-14
 -1      3263 1.07725E-02 3.87890E-04-5.33361E-14
 -1      3264 1.12927E-02 3.51308E-04-5.84436E-14
 -1      3265 1.11364E-02 3.69239E-04-5.69171E-14
 -1      3266 1.10959E-02 3.35440E-04-5.63334E-14
 -1      3267 1.15975E-02 3.28074E-04-6.15451E-14
 -1      3268 1.14463E-02 3.37939E-04-5.99847E-14
 -1      3269 1.14033E-02 3.04550E-04-5.93915E-14
 -1      3270 1.18949E-02 3.16979E-04-6.47042E-14
 -1      3271 1.17469E-02 3.21322E-04-6.31168E-14
 -1      3272 1.17002E-02 2.88216E-04-6.25088E-14
 -1      3273 1.21877E-02 3.13937E-04-6.79251E-14
 -1      3274 1.20417E-02 3.14671E-04-6.63087E-14
 -1      3275 1.19910E-02 2.81572E-04-6.56882E-14
 -1      3276 1.24778E-02 3.15906E-04-7.12030E-14
 -1      3277 1.23330E-02 3.14450E-04-6.95574E-14
 -1      3278 1.22785E-02 2.81178E-04-6.89290E-14
 -1      3279 1.27663E-02 3.20651E-04-7.45214E-14
 -1      3280 1.26222E-02 3.18039E-04-7.28584E-14
 -1      3281 1.25643E-02 2.84537E-04-7.22181E-14
 -1      3282 1.30538E-02 3.26569E-04-7.78701E-14
 -1      3283 1.29101E-02 3.23538E-04-7.61934E-14
 -1      3284 1.28494E-02 2.89838E-04-7.55479E-14
 -1      3285 1.33408E-02 3.32541E-04-8.12408E-14
 -1      3286 1.31974E-02 3.29599E-04-7.95528E-14
 -1      3287 1.31343E-02 2.95785E-04-7.89024E-14
 -1      3288 1.36274E-02 3.37802E-04-8.46284E-14
 -1      3289 1.34841E-02 3.35295E-04-8.29310E-14
 -1      3290 1.34193E-02 3.01473E-04-8.22766E-14
 -1      3291 1.39137E-02 3.41848E-04-8.80284E-14
 -1      3292 1.37706E-02 3.39998E-04-8.63279E-14
 -1      3293 1.37044E-02 3.06287E-04-8.56680E-14
 -1      3294 1.41148E-02 3.31470E-04-9.04809E-14
 -1      3295 1.40026E-02 3.38261E-04-8.91071E-14
 -1      3296 1.39357E-02 3.04774E-04-8.84479E-14
 -1      3297 1.41128E-02 2.97366E-04-9.06099E-14
 -1      3298 6.51743E-03-6.34427E-06-2.93195E-14
 -1      3299 6.53667E-03 7.28639E-06-2.91742E-14
 -1      3300 1.01718E-03 6.77738E-05-8.49066E-16
 -1      3301 1.01602E-03 4.09591E-05-8.62103E-16
 -1      3302 1.41007E-02-6.21564E-05-9.21685E-14
 -1      3303 1.40994E-02-2.42315E-05-9.19485E-14
 -1      3304 1.40945E-02-2.91429E-04-9.33815E-14
 -1      3305 1.40968E-02-2.52312E-04-9.31880E-14
 -1      3306 1.41011E-02-1.36871E-04-9.25837E-14
 -1      3307 1.41013E-02-9.94541E-05-9.23807E-14
 -1      3308 1.39801E-02-7.89529E-05-9.07796E-14
 -1      3309 1.82477E-03 3.76884E-04-1.93613E-15
 -1      3310 1.68139E-03 3.66052E-04-1.65223E-15
 -1      3311 8.99312E-03-1.02221E-03-4.22163E-14
 -1      3312 1.12178E-02-2.19002E-07-5.29890E-14
 -1      3313 1.12491E-02-1.13709E-05-5.31541E-14
 -1      3314 7.99455E-04-1.90929E-04-5.72445E-16
 -1      3315 8.07372E-04-2.14767E-04-5.69287E-16
 -1      3316 9.36651E-04-2.45329E-04-7.27744E-16
 -1      3317 9.17631E-04-1.97910E-04-7.28543E-16
 -1      3318 6.60695E-03-3.44752E-05-2.99896E-14
 -1      3319 6.55063E-03-2.18937E-05-2.96607E-14
 -1      3320 8.05773E-03 7.07547E-04-3.37110E-14
 -1      3321 8.17616E-03 7.75578E-04-3.43033E-14
 -1      3322 1.40988E-02-2.13558E-04-9.29907E-14
 -1      3323 1.41003E-02-1.75089E-04-9.27891E-14
 -1      3324 1.39795E-02-1.53758E-04-9.11910E-14
 -1      3325 1.39761E-02-2.30106E-04-9.15891E-14
 -1      3326 3.54209E-03 3.99067E-04-7.18715E-15
 -1      3327 3.39906E-03 4.01823E-04-6.62025E-15
 -1      3328 3.60896E-03 3.61124E-04-7.57193E-15
 -1      3329 3.25604E-03 4.04034E-04-6.07678E-15
 -1      3330 3.11303E-03 4.05661E-04-5.55582E-15
 -1      3331 3.03665E-03 3.69494E-04-5.38599E-15
 -1      3332 3.32296E-03 3.66398E-04-6.43231E-15
 -1      3333 9.42251E-03 8.54154E-04-4.29325E-14
 -1      3334 9.58460E-03 7.63885E-04-4.40456E-14
 -1      3335 1.44485E-03-3.11329E-04-1.56295E-15
 -1      3336 1.58836E-03-3.25239E-04-1.85343E-15
 -1      3337 1.65275E-03-2.97006E-04-2.01794E-15
 -1      3338 2.68393E-03 4.06166E-04-4.13662E-15
 -1      3339 2.54086E-03 4.04576E-04-3.71018E-15
 -1      3340 2.75003E-03 3.69863E-04-4.43307E-15
 -1      3341 1.11500E-02-6.25961E-05-5.34437E-14
 -1      3342 1.10423E-02-9.24517E-05-5.31371E-14
 -1      3343 1.01108E-02-5.11777E-04-4.95597E-14
 -1      3344 9.93380E-03-6.13726E-04-4.86701E-14
 -1      3345 6.78369E-03-9.46663E-05-3.03909E-14
 -1      3346 6.67642E-03-5.52453E-05-3.02074E-14
 -1      3347 2.39775E-03 4.01874E-04-3.30775E-15
 -1      3348 2.25459E-03 3.97963E-04-2.92878E-15
 -1      3349 2.46312E-03 3.66769E-04-3.57434E-15
 -1      3350 6.62099E-03 3.49867E-05-2.92237E-14
 -1      3351 6.72453E-03 6.03147E-05-2.95212E-14
 -1      3352 1.02660E-02 4.01888E-04-4.83482E-14
 -1      3353 1.04676E-02 2.94131E-04-4.93930E-14
 -1      3354 6.83395E-03 9.75333E-05-2.97159E-14
 -1      3355 6.95839E-03 1.46011E-04-2.99116E-14
 -1      3356 6.73069E-03 8.89959E-05-2.88594E-14
 -1      3357 2.11137E-03 3.92608E-04-2.57406E-15
 -1      3358 1.96810E-03 3.85682E-04-2.24350E-15
 -1      3359 2.17594E-03 3.59226E-04-2.80987E-15
 -1      3360 1.14506E-03 3.09083E-04-7.87808E-16
 -1      3361 1.08254E-03 2.70345E-04-7.49523E-16
 -1      3362 1.20172E-03 2.71458E-04-9.30937E-16
 -1      3363 1.28824E-03 3.30619E-04-9.82721E-16
 -1      3364 7.65195E-03-4.76548E-04-3.38705E-14
 -1      3365 7.46302E-03-3.79654E-04-3.30175E-14
 -1      3366 1.08901E-02-1.43125E-04-5.26311E-14
 -1      3367 1.07356E-02-2.00062E-04-5.20670E-14
 -1      3368 1.05597E-02-2.79119E-04-5.14850E-14
 -1      3369 1.03734E-02-3.73192E-04-5.07977E-14
 -1      3370 9.78388E-03 6.68641E-04-4.54211E-14
 -1      3371 9.96856E-03 5.71423E-04-4.66270E-14
 -1      3372 1.10114E-02 6.26441E-05-5.19611E-14
 -1      3373 1.11346E-02 2.65405E-05-5.25878E-14
 -1      3374 1.06804E-02 1.93292E-04-5.04446E-14
 -1      3375 1.08506E-02 1.22680E-04-5.12401E-14
 -1      3376 8.24925E-03-8.18085E-04-3.69827E-14
 -1      3377 8.12271E-03-7.41895E-04-3.62660E-14
 -1      3378 7.15441E-03 2.27747E-04-3.04055E-14
 -1      3379 7.35922E-03 3.25073E-04-3.09768E-14
 -1      3380 1.12568E-02-2.32482E-05-5.33333E-14
 -1      3381 1.12329E-02-3.59217E-05-5.35212E-14
 -1      3382 1.01543E-03 1.43566E-05-8.73054E-16
 -1      3383 1.01539E-03-1.21448E-05-8.82581E-16
 -1      3384 1.13611E-03 2.99396E-05-1.05119E-15
 -1      3385 1.88857E-03 3.45943E-04-2.14019E-15
 -1      3386 8.26599E-03 8.33135E-04-3.47033E-14
 -1      3387 1.22737E-03-2.86634E-04-1.16853E-15
 -1      3388 1.33602E-03-2.99798E-04-1.35845E-15
 -1      3389 1.40019E-03-2.75419E-04-1.50104E-15
 -1      3390 1.40821E-02 1.67125E-04-9.08121E-14
 -1      3391 1.40771E-02 2.05930E-04-9.05800E-14
 -1      3392 6.46269E-03 1.43342E-05-2.80217E-14
 -1      3393 6.53480E-03 2.24763E-05-2.86198E-14
 -1      3394 6.53733E-03 4.17814E-05-2.80691E-14
 -1      3395 1.09829E-02 9.91169E-05-5.24625E-14
 -1      3396 7.42383E-03-4.29698E-04-3.21761E-14
 -1      3397 7.58227E-03-5.29818E-04-3.28271E-14
 -1      3398 7.77306E-03-6.03723E-04-3.40133E-14
 -1      3399 1.12969E-02-1.79241E-05-5.41811E-14
 -1      3400 9.78543E-03-7.17058E-04-4.80487E-14
 -1      3401 1.10052E-02-1.25196E-04-5.36975E-14
 -1      3402 7.30091E-03-3.23334E-04-3.20923E-14
 -1      3403 1.02418E-03-1.48258E-04-9.02666E-16
 -1      3404 1.02816E-03-1.77380E-04-9.00349E-16
 -1      3405 9.67691E-03 7.55130E-04-4.47677E-14
 -1      3406 1.06890E-02-2.50489E-04-5.26011E-14
 -1      3407 7.50725E-03 4.90533E-04-3.04385E-14
 -1      3408 8.18805E-03 8.33027E-04-3.39025E-14
 -1      3409 8.00477E-03 7.58051E-04-3.27346E-14
 -1      3410 8.92004E-03 9.98383E-04-3.92639E-14
 -1      3411 6.49483E-03-1.42370E-05-2.89093E-14
 -1      3412 1.01897E-03 9.48778E-05-8.34144E-16
 -1      3413 1.13875E-03 8.79135E-05-1.02091E-15
 -1      3414 1.02141E-03 1.22504E-04-8.17258E-16
 -1      3415 1.40909E-02 8.98571E-05-9.12770E-14
 -1      3416 1.40867E-02 1.28348E-04-9.10468E-14
 -1      3417 1.39627E-02 1.47098E-04-8.94496E-14
 -1      3418 1.01627E-02 4.94092E-04-4.80313E-14
 -1      3419 1.03288E-02 4.41288E-04-4.92947E-14
 -1      3420 1.40973E-02 1.36327E-05-9.17281E-14
 -1      3421 1.40944E-02 5.17047E-05-9.15039E-14
 -1      3422 1.39715E-02 7.07801E-05-8.99071E-14
 -1      3423 1.39775E-02-4.52865E-06-9.03518E-14
 -1      3424 7.46196E-03 4.00869E-04-3.10231E-14
 -1      3425 6.85714E-03-1.31489E-04-3.04063E-14
 -1      3426 6.73612E-03-1.04486E-04-2.96904E-14
 -1      3427 6.92983E-03-1.75316E-04-3.04192E-14
 -1      3428 9.27737E-03 9.15879E-04-4.18737E-14
 -1      3429 1.12153E-02 1.76387E-05-5.35961E-14
 -1      3430 8.73670E-03 9.86369E-04-3.79410E-14
 -1      3431 1.04437E-03-2.63607E-04-8.78082E-16
 -1      3432 7.90725E-03 6.46403E-04-3.27838E-14
 -1      3433 8.61838E-03 9.66682E-04-3.70196E-14
 -1      3434 1.55644E-03 3.58540E-04-1.41720E-15
 -1      3435 1.41304E-03 3.42952E-04-1.17801E-15
 -1      3436 1.36933E-03 3.12929E-04-1.15038E-15
 -1      3437 1.61957E-03 3.30745E-04-1.59172E-15
 -1      3438 6.60263E-03-5.00545E-05-2.94610E-14
 -1      3439 1.03048E-02-4.40118E-04-5.10171E-14
 -1      3440 1.12348E-02-5.07637E-05-5.42844E-14
 -1      3441 1.12344E-02-6.94264E-05-5.50537E-14
 -1      3442 1.13071E-02-4.35429E-05-5.51307E-14
 -1      3443 1.04576E-02-3.95413E-04-5.22350E-14
 -1      3444 1.06292E-02 2.50794E-04-5.06725E-14
 -1      3445 7.01733E-03 1.98677E-04-2.95387E-14
 -1      3446 1.02877E-03 1.80125E-04-7.76533E-16
 -1      3447 1.02466E-03 1.50915E-04-7.98054E-16
 -1      3448 1.14430E-03 1.47629E-04-9.81379E-16
 -1      3449 1.15350E-03 2.10438E-04-9.31479E-16
 -1      3450 8.01319E-03-6.80456E-04-3.56603E-14
 -1      3451 7.84231E-03-5.79225E-04-3.47998E-14
 -1      3452 1.40389E-02-3.42478E-04-9.29920E-14
 -1      3453 1.40754E-02-3.14443E-04-9.32780E-14
 -1      3454 1.39543E-02-2.91534E-04-9.16796E-14
 -1      3455 1.39154E-02-3.37395E-04-9.14674E-14
 -1      3456 1.01869E-03-9.24124E-05-9.00484E-16
 -1      3457 1.02104E-03-1.19981E-04-9.02625E-16
 -1      3458 1.14385E-03-1.44896E-04-1.09319E-15
 -1      3459 8.00734E-03-6.97545E-04-3.54995E-14
 -1      3460 1.05091E-02 3.89303E-04-5.07342E-14
 -1      3461 7.20332E-03-3.19135E-04-3.12303E-14
 -1      3462 2.15054E-03-2.87811E-04-3.27757E-15
 -1      3463 2.29474E-03-2.91706E-04-3.68995E-15
 -1      3464 2.43887E-03-2.94515E-04-4.12646E-15
 -1      3465 2.58292E-03-2.96323E-04-4.58692E-15
 -1      3466 2.36180E-03-2.57076E-04-3.90471E-15
 -1      3467 2.72685E-03-2.97284E-04-5.06989E-15
 -1      3468 2.87064E-03-2.97458E-04-5.57607E-15
 -1      3469 2.65028E-03-2.60418E-04-4.82175E-15
 -1      3470 3.01425E-03-2.96969E-04-6.10593E-15
 -1      3471 3.15768E-03-2.95855E-04-6.65859E-15
 -1      3472 2.93813E-03-2.60781E-04-5.83179E-15
 -1      3473 3.30089E-03-2.94214E-04-7.23416E-15
 -1      3474 3.44389E-03-2.92069E-04-7.83121E-15
 -1      3475 3.22511E-03-2.58787E-04-6.93380E-15
 -1      3476 3.58664E-03-2.89501E-04-8.44987E-15
 -1      3477 3.72913E-03-2.86521E-04-9.09094E-15
 -1      3478 3.51097E-03-2.54904E-04-8.12394E-15
 -1      3479 3.87133E-03-2.83202E-04-9.75397E-15
 -1      3480 4.01324E-03-2.79550E-04-1.04384E-14
 -1      3481 3.79552E-03-2.49490E-04-9.40184E-15
 -1      3482 4.15482E-03-2.75637E-04-1.11444E-14
 -1      3483 4.29608E-03-2.71468E-04-1.18726E-14
 -1      3484 4.07852E-03-2.42838E-04-1.07673E-14
 -1      3485 4.43695E-03-2.67128E-04-1.26205E-14
 -1      3486 4.57746E-03-2.62626E-04-1.33891E-14
 -1      3487 4.35974E-03-2.35226E-04-1.22174E-14
 -1      3488 4.71755E-03-2.58067E-04-1.41799E-14
 -1      3489 4.85726E-03-2.53472E-04-1.49916E-14
 -1      3490 4.63894E-03-2.26968E-04-1.37531E-14
 -1      3491 4.99653E-03-2.48973E-04-1.58232E-14
 -1      3492 5.13544E-03-2.44612E-04-1.66745E-14
 -1      3493 4.91588E-03-2.18463E-04-1.53709E-14
 -1      3494 5.27392E-03-2.40552E-04-1.75463E-14
 -1      3495 5.41214E-03-2.36874E-04-1.84385E-14
 -1      3496 5.19042E-03-2.10235E-04-1.70708E-14
 -1      3497 5.55004E-03-2.33764E-04-1.93516E-14
 -1      3498 5.68789E-03-2.31372E-04-2.02847E-14
 -1      3499 5.46257E-03-2.02972E-04-1.88526E-14
 -1      3500 5.82569E-03-2.29892E-04-2.12369E-14
 -1      3501 5.96391E-03-2.29615E-04-2.22087E-14
 -1      3502 5.73274E-03-1.97560E-04-2.07141E-14
 -1      3503 6.10263E-03-2.30721E-04-2.31993E-14
 -1      3504 6.24260E-03-2.33758E-04-2.42108E-14
 -1      3505 6.00200E-03-1.95171E-04-2.26542E-14
 -1      3506 6.38406E-03-2.38833E-04-2.52409E-14
 -1      3507 6.52828E-03-2.47174E-04-2.62900E-14
 -1      3508 6.27263E-03-1.97499E-04-2.46714E-14
 -1      3509 6.67572E-03-2.58896E-04-2.73567E-14
 -1      3510 6.82817E-03-2.76031E-04-2.84428E-14
 -1      3511 6.54911E-03-2.07622E-04-2.67643E-14
 -1      3512 7.03601E-03-2.82924E-04-3.00991E-14
 -1      3513 7.94344E-03-6.97148E-04-3.49463E-14
 -1      3514 1.13376E-02-1.12765E-05-5.50240E-14
 -1      3515 1.13438E-02-2.42731E-05-5.52066E-14
 -1      3516 1.07243E-02 3.43926E-04-5.25719E-14
 -1      3517 1.06458E-02 3.01584E-04-5.14309E-14
 -1      3518 1.08285E-02 2.16421E-04-5.25055E-14
 -1      3519 1.08883E-02 3.14101E-04-5.40523E-14
 -1      3520 1.06339E-02-3.54010E-04-5.37225E-14
 -1      3521 1.08010E-02-3.21788E-04-5.52238E-14
 -1      3522 1.06926E-02-2.93866E-04-5.34973E-14
 -1      3523 1.09602E-02-2.99510E-04-5.67406E-14
 -1      3524 1.11137E-02-2.83023E-04-5.82737E-14
 -1      3525 1.10072E-02-2.50074E-04-5.65112E-14
 -1      3526 1.12620E-02-2.72031E-04-5.98244E-14
 -1      3527 1.14072E-02-2.64541E-04-6.13907E-14
 -1      3528 1.12971E-02-2.30733E-04-5.95865E-14
 -1      3529 1.15495E-02-2.60214E-04-6.29683E-14
 -1      3530 1.16903E-02-2.58112E-04-6.45594E-14
 -1      3531 1.15745E-02-2.24115E-04-6.27223E-14
 -1      3532 1.18297E-02-2.57957E-04-6.61677E-14
 -1      3533 1.19686E-02-2.59260E-04-6.77885E-14
 -1      3534 1.18466E-02-2.24794E-04-6.59166E-14
 -1      3535 1.21070E-02-2.61746E-04-6.94222E-14
 -1      3536 1.22454E-02-2.65183E-04-7.10704E-14
 -1      3537 1.21175E-02-2.30010E-04-6.91668E-14
 -1      3538 1.23838E-02-2.69311E-04-7.27272E-14
 -1      3539 1.25223E-02-2.74009E-04-7.43952E-14
 -1      3540 1.23892E-02-2.38039E-04-7.24666E-14
 -1      3541 1.26612E-02-2.79050E-04-7.60746E-14
 -1      3542 1.28003E-02-2.84371E-04-7.77647E-14
 -1      3543 1.26626E-02-2.47684E-04-7.58099E-14
 -1      3544 1.29398E-02-2.89784E-04-7.94608E-14
 -1      3545 1.30796E-02-2.95257E-04-8.11651E-14
 -1      3546 1.29382E-02-2.58036E-04-7.91921E-14
 -1      3547 1.32197E-02-3.00644E-04-8.28771E-14
 -1      3548 1.33602E-02-3.05934E-04-8.45933E-14
 -1      3549 1.32157E-02-2.68394E-04-8.26038E-14
 -1      3550 1.35010E-02-3.11014E-04-8.63149E-14
 -1      3551 1.36420E-02-3.15883E-04-8.80427E-14
 -1      3552 1.34951E-02-2.78256E-04-8.60366E-14
 -1      3553 4.24477E-03 3.08148E-04-1.05671E-14
 -1      3554 4.10278E-03 3.12413E-04-9.88185E-15
 -1      3555 6.62431E-03 8.22842E-05-2.79820E-14
 -1      3556 6.71996E-03 1.16567E-04-2.81706E-14
 -1      3557 3.96059E-03 3.16397E-04-9.21936E-15
 -1      3558 3.81819E-03 3.20087E-04-8.57928E-15
 -1      3559 4.02612E-03 2.79170E-04-9.63820E-15
 -1      3560 4.81047E-03 2.89566E-04-1.35202E-14
 -1      3561 4.66937E-03 2.94324E-04-1.27508E-14
 -1      3562 5.09206E-03 2.80383E-04-1.51191E-14
 -1      3563 4.95134E-03 2.84897E-04-1.43094E-14
 -1      3564 4.87001E-03 2.53518E-04-1.40146E-14
 -1      3565 5.37311E-03 2.72430E-04-1.67995E-14
 -1      3566 5.23259E-03 2.76190E-04-1.59488E-14
 -1      3567 5.14827E-03 2.44797E-04-1.56383E-14
 -1      3568 5.65431E-03 2.67000E-04-1.85588E-14
 -1      3569 5.51360E-03 2.69301E-04-1.76696E-14
 -1      3570 5.42523E-03 2.37178E-04-1.73433E-14
 -1      3571 5.93700E-03 2.65885E-04-2.03939E-14
 -1      3572 5.79531E-03 2.65748E-04-1.94669E-14
 -1      3573 5.70153E-03 2.31766E-04-1.91253E-14
 -1      3574 6.22360E-03 2.71602E-04-2.23055E-14
 -1      3575 6.07956E-03 2.67628E-04-2.13404E-14
 -1      3576 5.97853E-03 2.30069E-04-2.09843E-14
 -1      3577 6.51815E-03 2.87843E-04-2.42885E-14
 -1      3578 6.36951E-03 2.77967E-04-2.32878E-14
 -1      3579 6.25883E-03 2.34294E-04-2.29170E-14
 -1      3580 6.82679E-03 3.20652E-04-2.63434E-14
 -1      3581 6.67021E-03 3.01407E-04-2.53072E-14
 -1      3582 6.54694E-03 2.47875E-04-2.49213E-14
 -1      3583 7.15796E-03 3.79697E-04-2.84695E-14
 -1      3584 6.98909E-03 3.45655E-04-2.73978E-14
 -1      3585 6.85032E-03 2.77510E-04-2.69983E-14
 -1      3586 1.10845E-03-2.45359E-04-9.94119E-16
 -1      3587 7.71982E-03-5.40094E-04-3.39699E-14
 -1      3588 1.12354E-02 3.60145E-05-5.44623E-14
 -1      3589 1.13076E-02 9.27370E-06-5.48702E-14
 -1      3590 1.12003E-02 2.74944E-04-5.70632E-14
 -1      3591 1.10469E-02 2.92144E-04-5.55494E-14
 -1      3592 1.10068E-02 2.46017E-04-5.47675E-14
 -1      3593 1.14969E-02 2.53536E-04-6.01380E-14
 -1      3594 1.13501E-02 2.62700E-04-5.85946E-14
 -1      3595 1.13040E-02 2.19712E-04-5.77935E-14
 -1      3596 1.17846E-02 2.43340E-04-6.32729E-14
 -1      3597 1.16415E-02 2.47411E-04-6.16980E-14
 -1      3598 1.15883E-02 2.06696E-04-6.08845E-14
 -1      3599 1.20678E-02 2.40367E-04-6.64666E-14
 -1      3600 1.19265E-02 2.41171E-04-6.48608E-14
 -1      3601 1.18664E-02 2.01597E-04-6.40336E-14
 -1      3602 1.23492E-02 2.41937E-04-6.97167E-14
 -1      3603 1.22086E-02 2.40724E-04-6.80843E-14
 -1      3604 1.21421E-02 2.01468E-04-6.72392E-14
 -1      3605 1.26301E-02 2.46135E-04-7.30175E-14
 -1      3606 1.24896E-02 2.43800E-04-7.13632E-14
 -1      3607 1.24178E-02 2.04379E-04-7.05036E-14
 -1      3608 1.29115E-02 2.51574E-04-7.63523E-14
 -1      3609 1.27707E-02 2.48762E-04-7.46821E-14
 -1      3610 1.26943E-02 2.08963E-04-7.38151E-14
 -1      3611 1.31935E-02 2.57254E-04-7.97152E-14
 -1      3612 1.30524E-02 2.54426E-04-7.80313E-14
 -1      3613 1.29723E-02 2.14211E-04-7.71568E-14
 -1      3614 1.34763E-02 2.62466E-04-8.30944E-14
 -1      3615 1.33348E-02 2.59949E-04-8.14032E-14
 -1      3616 1.32517E-02 2.19384E-04-8.05253E-14
 -1      3617 1.37597E-02 2.66732E-04-8.64909E-14
 -1      3618 1.36179E-02 2.64736E-04-8.47902E-14
 -1      3619 1.35325E-02 2.23948E-04-8.39113E-14
 -1      3620 1.95349E-03 3.14359E-04-2.35029E-15
 -1      3621 1.80954E-03 3.06562E-04-2.03526E-15
 -1      3622 7.26876E-03 3.77079E-04-2.94547E-14
 -1      3623 2.52922E-03 3.31323E-04-3.84600E-15
 -1      3624 2.38537E-03 3.28908E-04-3.43664E-15
 -1      3625 1.40940E-02 2.34626E-04-9.06594E-14
 -1      3626 1.40958E-02 2.68150E-04-9.05349E-14
 -1      3627 1.40075E-02 2.71922E-04-8.94519E-14
 -1      3628 1.39741E-02 2.14242E-04-8.92966E-14
 -1      3629 1.08455E-02-2.24873E-04-5.40909E-14
 -1      3630 3.67561E-03 3.23410E-04-7.96059E-15
 -1      3631 3.53284E-03 3.26354E-04-7.36492E-15
 -1      3632 3.74207E-03 2.86022E-04-8.35283E-15
 -1      3633 1.38598E-02-9.56905E-05-8.93931E-14
 -1      3634 1.38593E-02-5.91105E-05-8.91855E-14
 -1      3635 6.58575E-03-6.48028E-05-2.89002E-14
 -1      3636 6.52559E-03-4.45618E-05-2.86883E-14
 -1      3637 6.46482E-03-2.62475E-05-2.83063E-14
 -1      3638 6.42908E-03-9.41829E-06-2.79740E-14
 -1      3639 6.88147E-03-2.13517E-04-2.94746E-14
 -1      3640 7.11012E-03 2.92098E-04-2.90392E-14
 -1      3641 4.52807E-03 2.99043E-04-1.20022E-14
 -1      3642 4.38652E-03 3.03685E-04-1.12739E-14
 -1      3643 4.30888E-03 2.71224E-04-1.10120E-14
 -1      3644 4.59021E-03 2.62526E-04-1.24723E-14
 -1      3645 1.57447E-03-2.58080E-04-1.87029E-15
 -1      3646 1.71823E-03-2.67943E-04-2.18545E-15
 -1      3647 2.81663E-03 3.33359E-04-4.73472E-15
 -1      3648 2.67298E-03 3.32783E-04-4.27875E-15
 -1      3649 2.59596E-03 2.95624E-04-4.12250E-15
 -1      3650 1.01591E-03-3.86776E-05-8.90455E-16
 -1      3651 1.01699E-03-6.53508E-05-8.96351E-16
 -1      3652 1.13850E-03-8.53472E-05-1.08773E-15
 -1      3653 1.09808E-02 1.35417E-04-5.31472E-14
 -1      3654 1.11192E-02 8.15402E-05-5.38814E-14
 -1      3655 1.11294E-02-1.16726E-04-5.51237E-14
 -1      3656 1.09935E-02-1.63291E-04-5.46088E-14
 -1      3657 1.09959E-02-2.04549E-04-5.55235E-14
 -1      3658 2.24144E-03 3.25360E-04-3.05090E-15
 -1      3659 2.09747E-03 3.20583E-04-2.68874E-15
 -1      3660 2.30775E-03 2.91081E-04-3.29715E-15
 -1      3661 1.86222E-03-2.76089E-04-2.52497E-15
 -1      3662 2.00636E-03-2.82641E-04-2.88905E-15
 -1      3663 2.07308E-03-2.49948E-04-3.08167E-15
 -1      3664 6.82563E-03 1.60291E-04-2.83671E-14
 -1      3665 6.99624E-03 2.29637E-04-2.88477E-14
 -1      3666 6.90612E-03 2.43973E-04-2.78771E-14
 -1      3667 6.70163E-03 1.46921E-04-2.74969E-14
 -1      3668 6.51993E-03 6.42526E-05-2.73926E-14
 -1      3669 1.12352E-02-9.73422E-05-5.59796E-14
 -1      3670 1.12405E-02-1.29820E-04-5.69078E-14
 -1      3671 1.13301E-02-8.39138E-05-5.68374E-14
 -1      3672 1.13769E-02 2.00973E-06-5.59028E-14
 -1      3673 1.09891E-02 1.85331E-04-5.39289E-14
 -1      3674 1.26435E-03-1.38579E-04-1.30089E-15
 -1      3675 1.26814E-03-1.70905E-04-1.30157E-15
 -1      3676 1.44752E-03-2.22525E-04-1.62415E-15
 -1      3677 1.51433E-03-1.96096E-04-1.76995E-15
 -1      3678 1.37650E-02-3.21428E-04-8.95571E-14
 -1      3679 1.14299E-02-2.99702E-05-5.68403E-14
 -1      3680 1.13710E-02-3.65523E-05-5.59839E-14
 -1      3681 1.13925E-02-5.09361E-05-5.67632E-14
 -1      3682 1.38580E-02-2.20398E-05-8.89728E-14
 -1      3683 1.38557E-02 1.51012E-05-8.87564E-14
 -1      3684 1.37388E-02-3.91398E-05-8.75946E-14
 -1      3685 3.10355E-03 3.32320E-04-5.71721E-15
 -1      3686 2.96016E-03 3.33187E-04-5.21404E-15
 -1      3687 2.88367E-03 2.96748E-04-5.04112E-15
 -1      3688 1.73117E-03 2.67735E-04-1.92843E-15
 -1      3689 1.66570E-03 2.96934E-04-1.74332E-15
 -1      3690 2.01934E-03 2.82174E-04-2.56599E-15
 -1      3691 1.39191E-02 2.75526E-04-8.83733E-14
 -1      3692 6.63586E-03-9.10949E-05-2.89168E-14
 -1      3693 6.54249E-03-8.21957E-05-2.81499E-14
 -1      3694 6.69092E-03-1.22538E-04-2.89288E-14
 -1      3695 1.12424E-02 6.44597E-05-5.51627E-14
 -1      3696 6.43529E-03-3.79085E-05-2.77573E-14
 -1      3697 1.38593E-02-1.33010E-04-8.95967E-14
 -1      3698 1.37395E-02-1.12618E-04-8.80061E-14
 -1      3699 1.38580E-02-1.70562E-04-8.97971E-14
 -1      3700 6.34075E-03-8.14820E-06-2.68455E-14
 -1      3701 6.39637E-03 3.16523E-06-2.74330E-14
 -1      3702 6.37242E-03 1.73876E-05-2.68945E-14
 -1      3703 1.54025E-03 2.90706E-04-1.50192E-15
 -1      3704 3.38991E-03 3.28844E-04-6.79264E-15
 -1      3705 3.24680E-03 3.30861E-04-6.24349E-15
 -1      3706 3.45688E-03 2.91469E-04-7.15671E-15
 -1      3707 1.38318E-02 2.34565E-04-8.74913E-14
 -1      3708 1.13603E-03-2.74833E-05-1.07343E-15
 -1      3709 1.32684E-03-2.29102E-04-1.38745E-15
 -1      3710 1.09891E-03-2.20062E-04-9.93251E-16
 -1      3711 1.28111E-03 2.74468E-04-1.05668E-15
 -1      3712 1.23924E-03 2.46270E-04-1.02544E-15
 -1      3713 1.23291E-03 2.12445E-04-1.05670E-15
 -1      3714 1.40604E-03 2.84968E-04-1.25926E-15
 -1      3715 1.21867E-03-2.18638E-04-1.19616E-15
 -1      3716 1.38438E-02 1.27387E-04-8.80845E-14
 -1      3717 1.38384E-02 1.65625E-04-8.78542E-14
 -1      3718 1.78460E-03-2.38017E-04-2.35525E-15
 -1      3719 1.25807E-03 4.74375E-05-1.24466E-15
 -1      3720 1.25734E-03 1.66422E-05-1.25964E-15
 -1      3721 1.38157E-02 2.06055E-04-8.74117E-14
 -1      3722 1.36970E-02 1.85532E-04-8.60524E-14
 -1      3723 1.25953E-03 7.83258E-05-1.22707E-15
 -1      3724 1.38118E-03 6.64291E-05-1.45246E-15
 -1      3725 1.26172E-03 1.09564E-04-1.20712E-15
 -1      3726 2.28514E-03-2.19835E-04-3.68645E-15
 -1      3727 2.42962E-03-2.22087E-04-4.12046E-15
 -1      3728 2.57400E-03-2.23572E-04-4.57787E-15
 -1      3729 2.71823E-03-2.24340E-04-5.05790E-15
 -1      3730 2.49810E-03-1.86805E-04-4.33686E-15
 -1      3731 2.86227E-03-2.24505E-04-5.56085E-15
 -1      3732 3.00608E-03-2.24100E-04-6.08750E-15
 -1      3733 2.78674E-03-1.88164E-04-5.29443E-15
 -1      3734 3.14960E-03-2.23218E-04-6.63671E-15
 -1      3735 3.29282E-03-2.21877E-04-7.20851E-15
 -1      3736 3.07444E-03-1.87496E-04-6.34326E-15
 -1      3737 3.43568E-03-2.20156E-04-7.80154E-15
 -1      3738 3.57817E-03-2.18057E-04-8.41560E-15
 -1      3739 3.36080E-03-1.85208E-04-7.48179E-15
 -1      3740 3.72024E-03-2.15654E-04-9.05329E-15
 -1      3741 3.86186E-03-2.12938E-04-9.71227E-15
 -1      3742 3.64550E-03-1.81609E-04-8.70795E-15
 -1      3743 4.00298E-03-2.09980E-04-1.03929E-14
 -1      3744 4.14358E-03-2.06767E-04-1.10953E-14
 -1      3745 3.92819E-03-1.76940E-04-1.00217E-14
 -1      3746 4.28361E-03-2.03375E-04-1.18181E-14
 -1      3747 4.42304E-03-1.99787E-04-1.25629E-14
 -1      3748 4.20852E-03-1.71407E-04-1.14219E-14
 -1      3749 4.56180E-03-1.96091E-04-1.33285E-14
 -1      3750 4.69989E-03-1.92270E-04-1.41154E-14
 -1      3751 4.48609E-03-1.65212E-04-1.29079E-14
 -1      3752 4.83721E-03-1.88432E-04-1.49235E-14
 -1      3753 4.97380E-03-1.84559E-04-1.57515E-14
 -1      3754 4.76047E-03-1.58586E-04-1.44779E-14
 -1      3755 5.10953E-03-1.80781E-04-1.65992E-14
 -1      3756 5.24447E-03-1.77083E-04-1.74671E-14
 -1      3757 5.03121E-03-1.51805E-04-1.61302E-14
 -1      3758 5.37851E-03-1.73618E-04-1.83569E-14
 -1      3759 5.51177E-03-1.70379E-04-1.92663E-14
 -1      3760 5.29785E-03-1.45196E-04-1.78644E-14
 -1      3761 5.64412E-03-1.67533E-04-2.01947E-14
 -1      3762 5.77583E-03-1.65093E-04-2.11427E-14
 -1      3763 5.55999E-03-1.39132E-04-1.96781E-14
 -1      3764 5.90673E-03-1.63209E-04-2.21107E-14
 -1      3765 6.03737E-03-1.62018E-04-2.30978E-14
 -1      3766 5.81739E-03-1.33988E-04-2.15700E-14
 -1      3767 6.16754E-03-1.61668E-04-2.41046E-14
 -1      3768 6.29825E-03-1.62455E-04-2.51313E-14
 -1      3769 6.07018E-03-1.30176E-04-2.35407E-14
 -1      3770 4.09133E-03 2.42507E-04-1.00596E-14
 -1      3771 3.95007E-03 2.45919E-04-9.39319E-15
 -1      3772 1.14204E-02 1.75274E-04-5.87419E-14
 -1      3773 1.12814E-02 1.81502E-04-5.72080E-14
 -1      3774 1.26141E-03-1.06882E-04-1.29774E-15
 -1      3775 1.38558E-03-1.29665E-04-1.52558E-15
 -1      3776 1.25931E-03-7.56763E-05-1.29175E-15
 -1      3777 1.52690E-03-1.60081E-04-1.80421E-15
 -1      3778 1.65246E-03-1.92242E-04-2.06715E-15
 -1      3779 1.11364E-02-1.95102E-04-5.70398E-14
 -1      3780 1.15447E-02-1.88700E-04-6.17980E-14
 -1      3781 1.16765E-02-1.89339E-04-6.33771E-14
 -1      3782 1.18079E-02-1.91101E-04-6.49719E-14
 -1      3783 1.19396E-02-1.93654E-04-6.65820E-14
 -1      3784 1.17716E-02-1.58562E-04-6.40302E-14
 -1      3785 1.20716E-02-1.96853E-04-6.82049E-14
 -1      3786 1.22043E-02-2.00607E-04-6.98426E-14
 -1      3787 1.20272E-02-1.64970E-04-6.72457E-14
 -1      3788 1.23375E-02-2.04739E-04-7.14921E-14
 -1      3789 1.24716E-02-2.09223E-04-7.31509E-14
 -1      3790 1.22869E-02-1.72705E-04-7.05160E-14
 -1      3791 1.26064E-02-2.13891E-04-7.48224E-14
 -1      3792 1.27419E-02-2.18741E-04-7.65042E-14
 -1      3793 1.25509E-02-1.81288E-04-7.38358E-14
 -1      3794 1.28782E-02-2.23624E-04-7.81925E-14
 -1      3795 1.30152E-02-2.28542E-04-7.98897E-14
 -1      3796 1.28188E-02-1.90284E-04-7.71937E-14
 -1      3797 1.31528E-02-2.33369E-04-8.15929E-14
 -1      3798 1.32911E-02-2.38118E-04-8.33027E-14
 -1      3799 1.30904E-02-1.99284E-04-8.05834E-14
 -1      3800 1.34299E-02-2.42710E-04-8.50184E-14
 -1      3801 1.35693E-02-2.47125E-04-8.67371E-14
 -1      3802 1.33651E-02-2.07959E-04-8.39990E-14
 -1      3803 6.39900E-03 4.99096E-05-2.65336E-14
 -1      3804 6.46712E-03 8.69982E-05-2.64485E-14
 -1      3805 1.79761E-03 2.37712E-04-2.11937E-15
 -1      3806 1.65368E-03 2.29767E-04-1.82025E-15
 -1      3807 5.20327E-03 2.10314E-04-1.61609E-14
 -1      3808 5.06620E-03 2.14342E-04-1.53266E-14
 -1      3809 4.92860E-03 2.18476E-04-1.45124E-14
 -1      3810 4.79038E-03 2.22698E-04-1.37183E-14
 -1      3811 4.98639E-03 1.84490E-04-1.50127E-14
 -1      3812 5.74661E-03 1.97616E-04-1.96949E-14
 -1      3813 5.61129E-03 2.00055E-04-1.87833E-14
 -1      3814 6.01705E-03 1.95156E-04-2.15760E-14
 -1      3815 5.88170E-03 1.95905E-04-2.06255E-14
 -1      3816 5.78970E-03 1.64552E-04-2.02663E-14
 -1      3817 6.28962E-03 1.97463E-04-2.35307E-14
 -1      3818 6.15274E-03 1.95479E-04-2.25446E-14
 -1      3819 6.05257E-03 1.61032E-04-2.21698E-14
 -1      3820 6.56888E-03 2.07775E-04-2.55566E-14
 -1      3821 6.42786E-03 2.01232E-04-2.45339E-14
 -1      3822 6.31577E-03 1.60903E-04-2.41460E-14
 -1      3823 6.75394E-03 2.26459E-04-2.68159E-14
 -1      3824 1.16926E-02 1.69046E-04-6.18489E-14
 -1      3825 1.15569E-02 1.71494E-04-6.02869E-14
 -1      3826 1.15296E-02 1.36879E-04-5.96897E-14
 -1      3827 1.11326E-02 1.72891E-04-5.54234E-14
 -1      3828 1.19621E-02 1.67827E-04-6.50192E-14
 -1      3829 1.18274E-02 1.67989E-04-6.34282E-14
 -1      3830 1.17910E-02 1.35349E-04-6.28181E-14
 -1      3831 1.22318E-02 1.69688E-04-6.82432E-14
 -1      3832 1.20968E-02 1.68460E-04-6.66234E-14
 -1      3833 1.20532E-02 1.36587E-04-6.60063E-14
 -1      3834 1.25030E-02 1.73376E-04-7.15230E-14
 -1      3835 1.23671E-02 1.71355E-04-6.98762E-14
 -1      3836 1.23178E-02 1.39497E-04-6.92485E-14
 -1      3837 1.27764E-02 1.77973E-04-7.48442E-14
 -1      3838 1.26394E-02 1.75593E-04-7.31793E-14
 -1      3839 1.25855E-02 1.43342E-04-7.25431E-14
 -1      3840 1.30520E-02 1.82779E-04-7.81968E-14
 -1      3841 1.29139E-02 1.80371E-04-7.65169E-14
 -1      3842 1.28563E-02 1.47551E-04-7.58760E-14
 -1      3843 1.33297E-02 1.87268E-04-8.15715E-14
 -1      3844 1.31906E-02 1.85079E-04-7.98808E-14
 -1      3845 1.31300E-02 1.51658E-04-7.92358E-14
 -1      3846 1.35831E-02 1.87498E-04-8.46576E-14
 -1      3847 1.34432E-02 1.85691E-04-8.29611E-14
 -1      3848 1.33806E-02 1.51843E-04-8.23127E-14
 -1      3849 1.36066E-02 1.47892E-04-8.50972E-14
 -1      3850 2.08611E-03 2.49401E-04-2.78738E-15
 -1      3851 1.94178E-03 2.44213E-04-2.44170E-15
 -1      3852 1.86491E-03 2.06856E-04-2.31632E-15
 -1      3853 1.25729E-03-1.40214E-05-1.27243E-15
 -1      3854 1.25794E-03-4.47404E-05-1.28329E-15
 -1      3855 1.38101E-03-6.36376E-05-1.51173E-15
 -1      3856 1.37958E-03 1.42259E-06-1.48715E-15
 -1      3857 1.37848E-02-2.98705E-04-8.96648E-14
 -1      3858 1.38045E-02-2.76118E-04-8.97694E-14
 -1      3859 1.38526E-02 5.22380E-05-8.85362E-14
 -1      3860 1.38485E-02 8.97339E-05-8.83133E-14
 -1      3861 1.37255E-02 1.08144E-04-8.67190E-14
 -1      3862 1.37341E-02 3.41672E-05-8.71648E-14
 -1      3863 3.80840E-03 2.49038E-04-8.74786E-15
 -1      3864 3.66634E-03 2.51869E-04-8.12483E-15
 -1      3865 3.87465E-03 2.12542E-04-9.14618E-15
 -1      3866 6.75480E-03-1.79029E-04-2.87695E-14
 -1      3867 1.38532E-02-2.46271E-04-9.01864E-14
 -1      3868 1.38559E-02-2.08060E-04-8.99928E-14
 -1      3869 2.66332E-03 2.59702E-04-4.40426E-15
 -1      3870 2.51914E-03 2.58472E-04-3.96486E-15
 -1      3871 1.14307E-02 1.41609E-05-5.69461E-14
 -1      3872 1.14540E-02-7.82214E-06-5.71026E-14
 -1      3873 5.47577E-03 2.03066E-04-1.78888E-14
 -1      3874 5.33974E-03 2.06539E-04-1.70146E-14
 -1      3875 5.52489E-03 1.70118E-04-1.84379E-14
 -1      3876 1.12589E-02 1.26981E-04-5.63511E-14
 -1      3877 2.37485E-03 2.56407E-04-3.54903E-15
 -1      3878 2.23048E-03 2.53431E-04-3.15649E-15
 -1      3879 2.15367E-03 2.16070E-04-3.01457E-15
 -1      3880 2.44265E-03 2.21397E-04-3.80613E-15
 -1      3881 1.79636E-03-1.99021E-04-2.39569E-15
 -1      3882 1.45288E-03 2.54205E-04-1.38972E-15
 -1      3883 1.99619E-03-2.12559E-04-2.88971E-15
 -1      3884 2.14064E-03-2.16682E-04-3.27616E-15
 -1      3885 2.20897E-03-1.82890E-04-3.47179E-15
 -1      3886 1.26867E-03 1.73798E-04-1.15911E-15
 -1      3887 1.26476E-03 1.41367E-04-1.18446E-15
 -1      3888 1.38595E-03 1.32504E-04-1.40717E-15
 -1      3889 1.13083E-02 8.31212E-05-5.63589E-14
 -1      3890 1.14015E-02 4.25863E-05-5.69495E-14
 -1      3891 1.14996E-02 2.95218E-05-5.81609E-14
 -1      3892 1.14370E-02 9.72358E-05-5.81581E-14
 -1      3893 6.64198E-03-1.60592E-04-2.80051E-14
 -1      3894 1.12538E-02-1.59270E-04-5.77411E-14
 -1      3895 1.12718E-02-2.00021E-04-5.87482E-14
 -1      3896 1.14072E-02-1.96806E-04-6.03008E-14
 -1      3897 1.13606E-02-1.39283E-04-5.86127E-14
 -1      3898 1.37363E-02-1.86607E-04-8.84013E-14
 -1      3899 1.36848E-02-2.53364E-04-8.81785E-14
 -1      3900 6.41368E-03-5.48553E-05-2.72711E-14
 -1      3901 6.35543E-03-3.53166E-05-2.68999E-14
 -1      3902 1.36182E-02-2.18050E-04-8.71522E-14
 -1      3903 1.14145E-02-7.30488E-05-5.77046E-14
 -1      3904 1.14352E-02-9.90522E-05-5.86484E-14
 -1      3905 1.14924E-02-6.41392E-05-5.85747E-14
 -1      3906 4.23213E-03 2.38876E-04-1.07483E-14
 -1      3907 4.15629E-03 2.06485E-04-1.04840E-14
 -1      3908 4.37248E-03 2.35020E-04-1.14589E-14
 -1      3909 6.42906E-03-1.64369E-04-2.61757E-14
 -1      3910 6.56214E-03-1.68857E-04-2.72381E-14
 -1      3911 1.52344E-03-1.24948E-04-1.79978E-15
 -1      3912 1.15145E-02-1.60811E-04-6.09438E-14
 -1      3913 6.31155E-03 3.48898E-05-2.59619E-14
 -1      3914 1.14993E-02-2.05794E-05-5.78925E-14
 -1      3915 1.55482E-03 1.83935E-04-1.67698E-15
 -1      3916 1.48762E-03 2.11061E-04-1.51256E-15
 -1      3917 1.36200E-02-5.60773E-05-8.62134E-14
 -1      3918 1.36186E-02-1.98993E-05-8.60058E-14
 -1      3919 3.17069E-03 2.95182E-04-6.05267E-15
 -1      3920 2.95116E-03 2.60076E-04-5.35200E-15
 -1      3921 2.80734E-03 2.60220E-04-4.86654E-15
 -1      3922 2.73125E-03 2.23633E-04-4.69058E-15
 -1      3923 6.51729E-03-1.18915E-04-2.73980E-14
 -1      3924 6.62158E-03 1.73849E-04-2.64122E-14
 -1      3925 1.35336E-03 2.07247E-04-1.26911E-15
 -1      3926 1.36126E-02 1.10710E-04-8.53229E-14
 -1      3927 1.35001E-02 1.13087E-04-8.39292E-14
 -1      3928 1.36178E-02 7.39142E-05-8.55466E-14
 -1      3929 1.50284E-03 1.85100E-05-1.71697E-15
 -1      3930 1.50279E-03-1.55303E-05-1.73360E-15
 -1      3931 4.65164E-03 2.26881E-04-1.29447E-14
 -1      3932 4.51231E-03 2.31023E-04-1.21917E-14
 -1      3933 4.43566E-03 1.99608E-04-1.19096E-14
 -1      3934 6.47998E-03-9.61728E-05-2.73435E-14
 -1      3935 6.44345E-03-7.20550E-05-2.73305E-14
 -1      3936 6.35009E-03-6.78816E-05-2.64776E-14
 -1      3937 6.40944E-03-1.06330E-04-2.65881E-14
 -1      3938 6.29965E-03-2.10470E-05-2.63725E-14
 -1      3939 6.25309E-03-7.32086E-06-2.58468E-14
 -1      3940 6.26250E-03-3.57913E-05-2.58984E-14
 -1      3941 1.36193E-02-1.28813E-04-8.66173E-14
 -1      3942 1.36202E-02-9.23539E-05-8.64176E-14
 -1      3943 1.35014E-02-7.25852E-05-8.48354E-14
 -1      3944 1.36215E-02-1.81081E-04-8.69622E-14
 -1      3945 1.86456E-03-1.67991E-04-2.56517E-15
 -1      3946 5.25721E-03 1.76973E-04-1.66852E-14
 -1      3947 3.52392E-03 2.54343E-04-7.52482E-15
 -1      3948 3.38116E-03 2.56457E-04-6.94732E-15
 -1      3949 3.59105E-03 2.17550E-04-7.89622E-15
 -1      3950 6.53284E-03 1.36034E-04-2.62249E-14
 -1      3951 1.50534E-03 8.67562E-05-1.67525E-15
 -1      3952 1.50369E-03 5.25383E-05-1.69762E-15
 -1      3953 1.62694E-03 3.69221E-05-1.96153E-15
 -1      3954 6.39088E-03 1.13487E-04-2.53859E-14
 -1      3955 6.31939E-03-1.28486E-04-2.55881E-14
 -1      3956 4.71246E-03 1.92170E-04-1.34201E-14
 -1      3957 1.14574E-02-1.24174E-04-5.94952E-14
 -1      3958 1.16842E-02 9.76354E-05-6.12557E-14
 -1      3959 1.15600E-02 9.71670E-05-5.96993E-14
 -1      3960 1.15871E-02 6.15600E-05-5.97037E-14
 -1      3961 2.71164E-03-1.51825E-04-5.03098E-15
 -1      3962 2.85581E-03-1.51928E-04-5.53034E-15
 -1      3963 2.99970E-03-1.51655E-04-6.05292E-15
 -1      3964 3.14324E-03-1.51011E-04-6.59840E-15
 -1      3965 2.92541E-03-1.15705E-04-5.76687E-15
 -1      3966 3.28640E-03-1.50070E-04-7.16582E-15
 -1      3967 3.42912E-03-1.48824E-04-7.75473E-15
 -1      3968 3.21248E-03-1.14718E-04-6.85309E-15
 -1      3969 3.57135E-03-1.47340E-04-8.36603E-15
 -1      3970 3.71306E-03-1.45603E-04-8.99911E-15
 -1      3971 3.49778E-03-1.12793E-04-8.02773E-15
 -1      3972 3.85417E-03-1.43679E-04-9.65353E-15
 -1      3973 3.99466E-03-1.41541E-04-1.03302E-14
 -1      3974 3.78088E-03-1.10105E-04-9.28935E-15
 -1      3975 4.13446E-03-1.39258E-04-1.10288E-14
 -1      3976 4.27352E-03-1.36799E-04-1.17485E-14
 -1      3977 4.06135E-03-1.06796E-04-1.06383E-14
 -1      3978 4.41176E-03-1.34240E-04-1.24897E-14
 -1      3979 4.54915E-03-1.31541E-04-1.32518E-14
 -1      3980 4.33870E-03-1.02988E-04-1.20747E-14
 -1      3981 4.68559E-03-1.28797E-04-1.40345E-14
 -1      3982 4.82103E-03-1.25954E-04-1.48397E-14
 -1      3983 4.61239E-03-9.88101E-05-1.35954E-14
 -1      3984 4.95537E-03-1.23128E-04-1.56642E-14
 -1      3985 5.08857E-03-1.20249E-04-1.65081E-14
 -1      3986 4.88179E-03-9.44017E-05-1.51998E-14
 -1      3987 5.22049E-03-1.17457E-04-1.73735E-14
 -1      3988 5.35112E-03-1.14656E-04-1.82595E-14
 -1      3989 5.14617E-03-8.99148E-05-1.68863E-14
 -1      3990 5.48025E-03-1.12012E-04-1.91645E-14
 -1      3991 5.60796E-03-1.09398E-04-2.00887E-14
 -1      3992 5.40463E-03-8.54876E-05-1.86534E-14
 -1      3993 5.73393E-03-1.07018E-04-2.10333E-14
 -1      3994 5.85834E-03-1.04645E-04-2.19962E-14
 -1      3995 5.65610E-03-8.12236E-05-2.04987E-14
 -1      3996 5.98069E-03-1.02517E-04-2.29793E-14
 -1      3997 6.10139E-03-1.00360E-04-2.39825E-14
 -1      3998 5.89918E-03-7.70703E-05-2.24217E-14
 -1      3999 4.77299E-03 1.58459E-04-1.38983E-14
 -1      4000 4.63623E-03 1.61817E-04-1.31205E-14
 -1      4001 1.52024E-03-8.78466E-05-1.79003E-15
 -1      4002 1.66131E-03-1.15859E-04-2.09304E-15
 -1      4003 1.15804E-02-1.20689E-04-6.09797E-14
 -1      4004 1.19835E-02-1.34700E-04-6.62882E-14
 -1      4005 1.21094E-02-1.38374E-04-6.79085E-14
 -1      4006 1.22367E-02-1.42113E-04-6.95438E-14
 -1      4007 1.23655E-02-1.46033E-04-7.11905E-14
 -1      4008 1.21864E-02-1.12978E-04-6.85704E-14
 -1      4009 1.24956E-02-1.49974E-04-7.28484E-14
 -1      4010 1.26270E-02-1.54042E-04-7.45177E-14
 -1      4011 1.24402E-02-1.19972E-04-7.18625E-14
 -1      4012 1.27596E-02-1.58086E-04-7.61950E-14
 -1      4013 1.28934E-02-1.62178E-04-7.78807E-14
 -1      4014 1.27004E-02-1.27042E-04-7.51961E-14
 -1      4015 1.30281E-02-1.66195E-04-7.95735E-14
 -1      4016 1.31638E-02-1.70171E-04-8.12730E-14
 -1      4017 1.29658E-02-1.34110E-04-7.85649E-14
 -1      4018 3.23810E-03 2.58137E-04-6.39305E-15
 -1      4019 3.09476E-03 2.59372E-04-5.86114E-15
 -1      4020 3.30576E-03 2.21274E-04-6.73681E-15
 -1      4021 6.08554E-03 1.28553E-04-2.27651E-14
 -1      4022 5.95876E-03 1.30611E-04-2.17929E-14
 -1      4023 5.83136E-03 1.32933E-04-2.08392E-14
 -1      4024 5.70270E-03 1.35635E-04-1.99047E-14
 -1      4025 5.87192E-03 1.02841E-04-2.14149E-14
 -1      4026 1.21395E-02 1.07503E-04-6.69967E-14
 -1      4027 1.20108E-02 1.06143E-04-6.53879E-14
 -1      4028 1.24001E-02 1.10619E-04-7.02572E-14
 -1      4029 1.22692E-02 1.08969E-04-6.86201E-14
 -1      4030 1.22210E-02 7.97968E-05-6.79908E-14
 -1      4031 1.15816E-02-1.35125E-05-5.91570E-14
 -1      4032 1.15499E-02-3.74895E-05-5.88893E-14
 -1      4033 1.26651E-02 1.14081E-04-7.35652E-14
 -1      4034 1.25320E-02 1.12302E-04-7.19066E-14
 -1      4035 1.24789E-02 8.24973E-05-7.12678E-14
 -1      4036 1.29340E-02 1.17551E-04-7.69073E-14
 -1      4037 1.27991E-02 1.15813E-04-7.52320E-14
 -1      4038 1.27420E-02 8.51874E-05-7.45877E-14
 -1      4039 1.32065E-02 1.20738E-04-8.02765E-14
 -1      4040 1.30698E-02 1.19177E-04-7.85897E-14
 -1      4041 1.30097E-02 8.76733E-05-7.79396E-14
 -1      4042 1.34090E-02 1.16023E-04-8.27934E-14
 -1      4043 1.32971E-02 1.18076E-04-8.14044E-14
 -1      4044 1.32349E-02 8.59461E-05-8.07525E-14
 -1      4045 1.34152E-02 7.98775E-05-8.30169E-14
 -1      4046 6.26792E-03 1.14348E-04-2.43663E-14
 -1      4047 5.57312E-03 1.38530E-04-1.89883E-14
 -1      4048 5.44234E-03 1.41664E-04-1.80906E-14
 -1      4049 5.62079E-03 1.08335E-04-1.95408E-14
 -1      4050 1.36207E-02 8.71335E-06-8.58865E-14
 -1      4051 1.36173E-02 4.49803E-05-8.56696E-14
 -1      4052 1.35056E-02 4.80350E-05-8.42737E-14
 -1      4053 1.35031E-02-8.66208E-06-8.45132E-14
 -1      4054 6.21781E-03 1.81672E-05-2.52684E-14
 -1      4055 6.22758E-03 5.04166E-05-2.49201E-14
 -1      4056 1.64190E-03-3.76559E-05-2.03240E-15
 -1      4057 1.51859E-03-5.33808E-05-1.77886E-15
 -1      4058 1.19094E-02 1.02236E-04-6.41027E-14
 -1      4059 1.17830E-02 1.01227E-04-6.25175E-14
 -1      4060 1.17991E-02 6.69094E-05-6.25253E-14
 -1      4061 1.19942E-02 7.45997E-05-6.50789E-14
 -1      4062 5.04375E-03 1.51640E-04-1.55157E-14
 -1      4063 4.90883E-03 1.55081E-04-1.46968E-14
 -1      4064 4.83339E-03 1.25791E-04-1.43790E-14
 -1      4065 1.17367E-02-1.27980E-04-6.30911E-14
 -1      4066 1.18594E-02-1.31319E-04-6.46833E-14
 -1      4067 1.19401E-02-1.06146E-04-6.53331E-14
 -1      4068 2.13343E-03-1.46386E-04-3.26108E-15
 -1      4069 2.27807E-03-1.48611E-04-3.66860E-15
 -1      4070 1.35032E-02-1.59827E-04-8.53795E-14
 -1      4071 3.94094E-03 1.76592E-04-9.54767E-15
 -1      4072 3.79991E-03 1.79002E-04-8.89829E-15
 -1      4073 5.31056E-03 1.44888E-04-1.72125E-14
 -1      4074 5.17765E-03 1.48260E-04-1.63540E-14
 -1      4075 5.10093E-03 1.19963E-04-1.60209E-14
 -1      4076 1.53094E-03 1.52285E-04-1.66498E-15
 -1      4077 1.52766E-03 1.17130E-04-1.69321E-15
 -1      4078 1.65034E-03 1.03585E-04-1.95865E-15
 -1      4079 1.69662E-03 1.67624E-04-1.99072E-15
 -1      4080 6.17256E-03 8.55969E-05-2.39676E-14
 -1      4081 1.98490E-03 1.77796E-04-2.64192E-15
 -1      4082 1.84059E-03 1.73224E-04-2.30447E-15
 -1      4083 1.81699E-03 1.40064E-04-2.28970E-15
 -1      4084 1.79720E-03-1.26155E-04-2.40400E-15
 -1      4085 1.99678E-03-1.37034E-04-2.89716E-15
 -1      4086 2.06658E-03-1.03915E-04-3.07401E-15
 -1      4087 1.79405E-03-8.63195E-05-2.39016E-15
 -1      4088 2.42270E-03-1.50221E-04-4.09917E-15
 -1      4089 2.56725E-03-1.51263E-04-4.55369E-15
 -1      4090 2.34786E-03-1.13897E-04-3.86586E-15
 -1      4091 2.63703E-03-1.15529E-04-4.77067E-15
 -1      4092 4.56158E-03 1.31396E-04-1.28194E-14
 -1      4093 4.49865E-03 1.65050E-04-1.23630E-14
 -1      4094 4.36027E-03 1.68195E-04-1.16264E-14
 -1      4095 1.16677E-02-9.52965E-05-6.16152E-14
 -1      4096 2.27397E-03 1.84210E-04-3.38642E-15
 -1      4097 2.12938E-03 1.81428E-04-3.00222E-15
 -1      4098 2.10572E-03 1.47085E-04-2.98680E-15
 -1      4099 1.15858E-02 3.44764E-05-5.94351E-14
 -1      4100 1.15987E-02 7.42897E-06-5.94288E-14
 -1      4101 1.16669E-02-1.00695E-05-6.04407E-14
 -1      4102 1.16973E-02 3.62805E-05-6.09898E-14
 -1      4103 3.01907E-03 2.23426E-04-5.66787E-15
 -1      4104 1.33658E-02-1.56420E-04-8.36671E-14
 -1      4105 6.06120E-03 6.45679E-05-2.33049E-14
 -1      4106 1.33002E-02-1.23492E-04-8.26451E-14
 -1      4107 1.15902E-02-5.76326E-05-5.98471E-14
 -1      4108 6.15983E-03 4.60834E-06-2.48108E-14
 -1      4109 1.75179E-03 5.64862E-05-2.22057E-15
 -1      4110 1.75088E-03 1.98828E-05-2.24427E-15
 -1      4111 1.33838E-02-2.07032E-05-8.30915E-14
 -1      4112 1.33857E-02 7.10945E-06-8.29745E-14
 -1      4113 1.76375E-03-1.25700E-05-2.29240E-15
 -1      4114 1.77963E-03-5.32859E-05-2.34667E-15
 -1      4115 1.91555E-03-6.12585E-05-2.67470E-15
 -1      4116 1.88843E-03 5.92433E-06-2.57483E-15
 -1      4117 3.72582E-03 1.45208E-04-8.65046E-15
 -1      4118 3.65834E-03 1.81148E-04-8.27153E-15
 -1      4119 3.51626E-03 1.83050E-04-7.66690E-15
 -1      4120 4.22117E-03 1.71164E-04-1.09123E-14
 -1      4121 4.08137E-03 1.73988E-04-1.02195E-14
 -1      4122 4.28606E-03 1.36603E-04-1.13433E-14
 -1      4123 6.24087E-03-5.50351E-05-2.55486E-14
 -1      4124 6.17788E-03-3.89524E-05-2.50363E-14
 -1      4125 2.79976E-03 1.87458E-04-4.98195E-15
 -1      4126 2.65554E-03 1.87057E-04-4.51347E-15
 -1      4127 5.36360E-03 1.14095E-04-1.77425E-14
 -1      4128 4.00732E-03 1.41255E-04-9.95288E-15
 -1      4129 6.17008E-03-9.16250E-05-2.46263E-14
 -1      4130 6.28622E-03-8.94273E-05-2.56594E-14
 -1      4131 2.53709E-03 1.86854E-04-4.14566E-15
 -1      4132 2.39257E-03 1.85390E-04-3.71965E-15
 -1      4133 2.36901E-03 1.50456E-04-3.70312E-15
 -1      4134 2.60621E-03 1.51229E-04-4.41587E-15
 -1      4135 6.08580E-03-6.67388E-05-2.40478E-14
 -1      4136 1.33434E-02-8.98006E-05-8.29746E-14
 -1      4137 1.33436E-02-5.47299E-05-8.27737E-14
 -1      4138 1.32281E-02-3.85974E-05-8.12394E-14
 -1      4139 1.31446E-02-1.04727E-04-8.05923E-14
 -1      4140 1.79509E-03 1.14074E-04-2.26701E-15
 -1      4141 1.77272E-03 8.17792E-05-2.24672E-15
 -1      4142 1.89661E-03 6.50399E-05-2.55040E-15
 -1      4143 1.93928E-03 1.17398E-04-2.60295E-15
 -1      4144 3.13910E-03-7.91835E-05-6.54386E-15
 -1      4145 3.28220E-03-7.86510E-05-7.10737E-15
 -1      4146 3.42481E-03-7.79744E-05-7.69259E-15
 -1      4147 3.56687E-03-7.71390E-05-8.29978E-15
 -1      4148 3.35240E-03-4.28586E-05-7.36096E-15
 -1      4149 3.70831E-03-7.62041E-05-8.92855E-15
 -1      4150 3.84910E-03-7.51342E-05-9.57925E-15
 -1      4151 3.63640E-03-4.19219E-05-8.57101E-15
 -1      4152 3.98915E-03-7.39812E-05-1.02523E-14
 -1      4153 4.12842E-03-7.27140E-05-1.09466E-14
 -1      4154 3.91776E-03-4.07275E-05-9.86911E-15
 -1      4155 4.26682E-03-7.13915E-05-1.16627E-14
 -1      4156 4.40431E-03-6.99716E-05-1.24007E-14
 -1      4157 4.19598E-03-3.93245E-05-1.12538E-14
 -1      4158 4.54076E-03-6.85256E-05-1.31587E-14
 -1      4159 4.67614E-03-6.69986E-05-1.39386E-14
 -1      4160 4.47048E-03-3.77684E-05-1.27258E-14
 -1      4161 4.81030E-03-6.54795E-05-1.47402E-14
 -1      4162 4.94320E-03-6.38944E-05-1.55612E-14
 -1      4163 4.74060E-03-3.61173E-05-1.42821E-14
 -1      4164 5.07465E-03-6.23564E-05-1.64024E-14
 -1      4165 5.20459E-03-6.07601E-05-1.72644E-14
 -1      4166 5.00553E-03-3.44350E-05-1.59214E-14
 -1      4167 5.33280E-03-5.92535E-05-1.81456E-14
 -1      4168 5.45921E-03-5.76676E-05-1.90476E-14
 -1      4169 5.26424E-03-3.27865E-05-1.76410E-14
 -1      4170 5.58348E-03-5.61991E-05-1.99676E-14
 -1      4171 5.70556E-03-5.46355E-05-2.09070E-14
 -1      4172 5.51536E-03-3.12081E-05-1.94397E-14
 -1      4173 5.82498E-03-5.33066E-05-2.18670E-14
 -1      4174 5.94161E-03-5.15506E-05-2.28451E-14
 -1      4175 5.75698E-03-2.97221E-05-2.13140E-14
 -1      4176 6.08203E-03-3.03190E-05-2.41377E-14
 -1      4177 6.11792E-03-1.22673E-05-2.44752E-14
 -1      4178 6.07395E-03 1.48025E-05-2.39135E-14
 -1      4179 2.56298E-03-7.93586E-05-4.51464E-15
 -1      4180 2.70744E-03-7.96465E-05-4.98817E-15
 -1      4181 3.08741E-03 1.86843E-04-5.98805E-15
 -1      4182 2.94373E-03 1.87379E-04-5.47339E-15
 -1      4183 2.86880E-03 1.51247E-04-5.27876E-15
 -1      4184 1.23841E-02-9.12804E-05-7.08757E-14
 -1      4185 1.25114E-02-9.42462E-05-7.25306E-14
 -1      4186 1.26404E-02-9.71304E-05-7.41972E-14
 -1      4187 1.27710E-02-1.00106E-04-7.58724E-14
 -1      4188 1.25796E-02-6.83810E-05-7.31980E-14
 -1      4189 1.28903E-02-1.01055E-04-7.73821E-14
 -1      4190 1.30234E-02-1.03948E-04-7.90716E-14
 -1      4191 1.30661E-02-7.16016E-05-7.93986E-14
 -1      4192 1.28267E-02-7.10202E-05-7.63721E-14
 -1      4193 3.37372E-03 1.84641E-04-7.08473E-15
 -1      4194 3.23075E-03 1.85929E-04-6.52524E-15
 -1      4195 3.44198E-03 1.48315E-04-7.43669E-15
 -1      4196 1.17321E-02-6.44719E-05-6.19428E-14
 -1      4197 1.34008E-02 2.92021E-05-8.30552E-14
 -1      4198 1.34012E-02 5.73515E-05-8.29354E-14
 -1      4199 1.33112E-02 6.06350E-05-8.18009E-14
 -1      4200 1.32825E-02 1.66650E-05-8.16373E-14
 -1      4201 2.85166E-03-7.97017E-05-5.48438E-15
 -1      4202 2.99557E-03-7.95316E-05-6.00300E-15
 -1      4203 2.77845E-03-4.36686E-05-5.20553E-15
 -1      4204 6.26164E-03-7.12507E-05-2.56050E-14
 -1      4205 1.22981E-02 5.31297E-05-6.89845E-14
 -1      4206 1.21725E-02 5.20953E-05-6.73577E-14
 -1      4207 1.25543E-02 5.48811E-05-7.22778E-14
 -1      4208 1.24253E-02 5.39792E-05-7.06255E-14
 -1      4209 1.23710E-02 2.67420E-05-6.99820E-14
 -1      4210 5.66869E-03 7.97162E-05-2.00957E-14
 -1      4211 5.54370E-03 8.22620E-05-1.91756E-14
 -1      4212 1.17646E-02-3.51464E-05-6.20264E-14
 -1      4213 1.18638E-02-7.03198E-05-6.38275E-14
 -1      4214 5.41698E-03 8.46606E-05-1.82742E-14
 -1      4215 5.28844E-03 8.71182E-05-1.73916E-14
 -1      4216 5.47113E-03 5.66257E-05-1.88083E-14
 -1      4217 1.30836E-02 5.77914E-05-7.89712E-14
 -1      4218 1.29494E-02 5.71469E-05-7.72868E-14
 -1      4219 4.07395E-03 1.06558E-04-1.03616E-14
 -1      4220 3.93414E-03 1.08245E-04-9.68563E-15
 -1      4221 4.89407E-03 9.41786E-05-1.48625E-14
 -1      4222 4.75997E-03 9.64746E-05-1.40600E-14
 -1      4223 2.27366E-03-7.79400E-05-3.63650E-15
 -1      4224 2.41835E-03-7.87944E-05-4.06386E-15
 -1      4225 2.48952E-03-4.33584E-05-4.26278E-15
 -1      4226 6.00658E-03 3.56372E-05-2.31357E-14
 -1      4227 5.93343E-03 6.82552E-05-2.22206E-14
 -1      4228 1.28164E-02 5.64814E-05-7.56090E-14
 -1      4229 1.26847E-02 5.56796E-05-7.39395E-14
 -1      4230 1.28886E-02 2.75930E-05-7.66311E-14
 -1      4231 5.15842E-03 8.94816E-05-1.65291E-14
 -1      4232 5.02689E-03 9.18764E-05-1.56861E-14
 -1      4233 5.21655E-03 6.02254E-05-1.70392E-14
 -1      4234 5.81370E-03 7.08772E-05-2.12588E-14
 -1      4235 1.21352E-02-8.53881E-05-6.75996E-14
 -1      4236 1.22586E-02-8.83949E-05-6.92323E-14
 -1      4237 1.23266E-02-6.38166E-05-6.98905E-14
 -1      4238 1.19807E-02-7.32370E-05-6.54257E-14
 -1      4239 4.62476E-03 9.86625E-05-1.32782E-14
 -1      4240 4.48845E-03 1.00807E-04-1.25167E-14
 -1      4241 4.68835E-03 6.68801E-05-1.37394E-14
 -1      4242 5.95329E-03 1.72871E-05-2.28150E-14
 -1      4243 6.01158E-03-4.40184E-05-2.34721E-14
 -1      4244 5.95049E-03-1.53986E-05-2.29300E-14
 -1      4245 1.17885E-02 3.97188E-05-6.22532E-14
 -1      4246 1.17740E-02 1.48064E-05-6.19767E-14
 -1      4247 1.18822E-02 4.33421E-05-6.35242E-14
 -1      4248 2.93839E-03 1.15041E-04-5.57924E-15
 -1      4249 2.79436E-03 1.15089E-04-5.08240E-15
 -1      4250 1.20468E-02-5.02888E-05-6.60713E-14
 -1      4251 3.15617E-03 1.50403E-04-6.31213E-15
 -1      4252 4.21298E-03 1.04765E-04-1.10581E-14
 -1      4253 4.14093E-03 7.25485E-05-1.07719E-14
 -1      4254 4.35118E-03 1.02824E-04-1.17762E-14
 -1      4255 2.02924E-03 7.27302E-05-2.87186E-15
 -1      4256 2.00839E-03 4.63389E-05-2.84241E-15
 -1      4257 2.02081E-03 1.22251E-05-2.90011E-15
 -1      4258 1.31444E-02 1.15978E-05-7.99314E-14
 -1      4259 1.31588E-02 3.30253E-05-8.00131E-14
 -1      4260 1.17947E-02-1.33591E-05-6.23075E-14
 -1      4261 2.07795E-03 1.23102E-04-2.94395E-15
 -1      4262 2.05632E-03 9.62927E-05-2.91756E-15
 -1      4263 2.16796E-03 7.72556E-05-3.23106E-15
 -1      4264 2.22257E-03 1.25248E-04-3.32522E-15
 -1      4265 1.26267E-02 2.73246E-05-7.32878E-14
 -1      4266 4.95526E-03 6.36493E-05-1.53491E-14
 -1      4267 3.06625E-03-4.34652E-05-6.23863E-15
 -1      4268 5.74064E-03 4.66370E-05-2.08736E-14
 -1      4269 1.32216E-02 6.37910E-05-8.06718E-14
 -1      4270 1.20745E-02 4.94659E-05-6.60768E-14
 -1      4271 1.19767E-02 4.59030E-05-6.47857E-14
 -1      4272 1.19575E-02 1.98362E-05-6.45086E-14
 -1      4273 1.21481E-02 2.41465E-05-6.70574E-14
 -1      4274 2.74633E-03 7.95116E-05-4.97047E-15
 -1      4275 2.67597E-03 1.15430E-04-4.69061E-15
 -1      4276 2.55743E-03 1.15546E-04-4.31451E-15
 -1      4277 3.86174E-03 7.48667E-05-9.41768E-15
 -1      4278 3.79361E-03 1.09764E-04-9.03204E-15
 -1      4279 3.65241E-03 1.11145E-04-8.40098E-15
 -1      4280 1.30868E-02-4.66366E-05-7.95101E-14
 -1      4281 1.31261E-02-1.38375E-05-7.98272E-14
 -1      4282 1.30044E-02 2.54310E-06-7.82102E-14
 -1      4283 1.29666E-02-4.68697E-05-7.79953E-14
 -1      4284 2.02627E-03-6.57432E-05-2.95627E-15
 -1      4285 2.16269E-03-7.36431E-05-3.32335E-15
 -1      4286 2.23391E-03-3.91490E-05-3.50439E-15
 -1      4287 2.01227E-03-3.14113E-05-2.90456E-15
 -1      4288 3.28058E-03-7.47605E-06-7.03314E-15
 -1      4289 3.42313E-03-7.36935E-06-7.61439E-15
 -1      4290 3.60695E-03 1.72285E-05-8.36553E-15
 -1      4291 3.74811E-03 1.70673E-05-8.99576E-15
 -1      4292 3.88855E-03 1.68355E-05-9.64810E-15
 -1      4293 4.02821E-03 1.66200E-05-1.03227E-14
 -1      4294 4.16702E-03 1.63304E-05-1.10182E-14
 -1      4295 4.30491E-03 1.60665E-05-1.17352E-14
 -1      4296 4.44180E-03 1.57187E-05-1.24750E-14
 -1      4297 4.57760E-03 1.54087E-05-1.32344E-14
 -1      4298 4.71222E-03 1.49991E-05-1.40154E-14
 -1      4299 4.84555E-03 1.46435E-05-1.48186E-14
 -1      4300 4.97747E-03 1.41641E-05-1.56411E-14
 -1      4301 5.10786E-03 1.37614E-05-1.64835E-14
 -1      4302 5.23656E-03 1.31964E-05-1.73456E-14
 -1      4303 5.36341E-03 1.27430E-05-1.82280E-14
 -1      4304 5.48819E-03 1.20557E-05-1.91296E-14
 -1      4305 5.61071E-03 1.15470E-05-2.00497E-14
 -1      4306 1.22667E-02-3.74644E-05-6.89073E-14
 -1      4307 1.23908E-02-3.90216E-05-7.05483E-14
 -1      4308 1.24793E-02-1.98728E-05-7.15916E-14
 -1      4309 1.26069E-02-2.09759E-05-7.32501E-14
 -1      4310 3.08209E-03 1.14729E-04-6.09856E-15
 -1      4311 3.00851E-03 7.89038E-05-5.88426E-15
 -1      4312 3.22540E-03 1.14146E-04-6.64070E-15
 -1      4313 1.28720E-02 2.97161E-06-7.65272E-14
 -1      4314 2.13151E-03 9.04346E-06-3.19241E-15
 -1      4315 1.18855E-02-1.13775E-05-6.35825E-14
 -1      4316 5.75504E-03 5.11108E-06-2.12097E-14
 -1      4317 2.74848E-03 1.76250E-05-5.04948E-15
 -1      4318 2.89263E-03 1.76725E-05-5.54609E-15
 -1      4319 1.27362E-02-2.19662E-05-7.49179E-14
 -1      4320 5.87117E-03 4.79704E-06-2.21731E-14
 -1      4321 2.48540E-03 1.79751E-05-4.20225E-15
 -1      4322 2.62998E-03 1.81173E-05-4.65775E-15
 -1      4323 2.44936E-03 1.20959E-04-3.97876E-15
 -1      4324 2.33067E-03 1.20503E-04-3.63300E-15
 -1      4325 2.30328E-03 9.62665E-05-3.58437E-15
 -1      4326 2.51969E-03 8.55550E-05-4.23609E-15
 -1      4327 3.03644E-03 1.76472E-05-6.06589E-15
 -1      4328 3.17984E-03 1.76139E-05-6.60747E-15
 -1      4329 3.51061E-03 1.12329E-04-7.79212E-15
 -1      4330 3.36825E-03 1.13351E-04-7.20547E-15
 -1      4331 3.29506E-03 7.81327E-05-6.97321E-15
 -1      4332 3.57963E-03 7.67449E-05-8.15124E-15
 -1      4333 1.19940E-02-2.25488E-05-6.51428E-14
 -1      4334 1.21498E-02-3.24959E-05-6.73179E-14
 -1      4335 4.41667E-03 6.98662E-05-1.22129E-14
 -1      4336 1.24126E-02 6.68695E-06-7.05926E-14
 -1      4337 1.22875E-02 6.81070E-06-6.89516E-14
 -1      4338 1.21685E-02 1.06513E-05-6.73602E-14
 -1      4339 1.20724E-02 8.76241E-06-6.60796E-14
 -1      4340 1.28475E-02-4.70329E-05-7.64856E-14
 -1      4341 1.22082E-02-8.40350E-06-6.79623E-14
 -1      4342 2.24231E-03 5.74747E-06-3.49842E-15
 -1      4343 2.27622E-03 7.21730E-05-3.53446E-15
 -1      4344 2.37696E-03 2.38451E-05-3.87082E-15
 -1      4345 3.25204E-03 5.32042E-05-6.84164E-15
 -1      4346 1.19782E-02 6.89000E-06-6.48061E-14
 -1      4347 3.53687E-03 5.23224E-05-8.00954E-15
 -1      4348 3.39473E-03 5.28123E-05-7.41466E-15
 -3
    1PSTEP                         2           1           1          
  100CL  101 1.000000000        4348                     0    1           1
 -4  STRESS      6    1
 -5  SXX         1    4    1    1
 -5  SYY         1    4    2    2
 -5  SZZ         1    4    3    3
 -5  SXY         1    4    1    2
 -5  SYZ         1    4    2    3
 -5  SZX         1    4    3    1
 -1         1 1.89465E+01 1.08158E+01 6.39819E-01 1.41586E+01-1.47166E-12-1.86157E-12
 -1         2-6.93050E-01-2.42609E+01-3.34463E+00-9.55667E-02 1.42977E-12 4.28824E-14
 -1         3 1.99977E+01-2.31480E-03 1.10647E-02-2.37512E-03-4.70903E-13-5.48879E-13
 -1         4 1.99977E+01-2.22183E-03 1.12658E-02 2.32263E-03 1.87002E-13 1.58518E-13
 -1         5 3.27262E+01 6.13461E+00 2.73888E+00 6.21889E+00-3.72966E-14 2.53622E-12
 -1         6 3.57083E+01 1.22484E+01 5.11945E+00-8.63867E+00-1.53474E-13 2.04187E-12
 -1         7 2.07960E+01 6.09320E+00-1.28861E-01-4.72365E+00-2.08999E-14 2.25219E-13
 -1         8 1.96593E+01 5.93116E+00 5.07788E-02-3.27488E+00-2.28081E-14-2.90617E-13
 -1         9 1.91336E+01 5.77084E+00 4.91675E-02-2.52733E+00-1.72744E-14-5.53755E-13
 -1        10 1.88999E+01 5.69335E+00 5.14558E-02-1.95147E+00-8.66321E-15-6.74463E-13
 -1        11 1.87833E+01 5.65407E+00 5.05944E-02-1.45583E+00-6.96969E-15-7.16349E-13
 -1        12 1.87235E+01 5.63350E+00 4.89240E-02-1.01474E+00 5.42535E-16-7.21065E-13
 -1        13 1.86925E+01 5.62281E+00 4.75156E-02-5.94974E-01 1.68073E-15-7.05265E-13
 -1        14 1.86797E+01 5.61834E+00 4.67638E-02-1.91053E-01 4.00084E-15-6.75271E-13
 -1        15 1.86802E+01 5.61849E+00 4.68041E-02 2.08048E-01 1.06146E-14-6.38625E-13
 -1        16 1.86941E+01 5.62329E+00 4.76505E-02 6.12798E-01 1.33676E-14-5.97854E-13
 -1        17 1.87263E+01 5.63424E+00 4.92086E-02 1.03454E+00 1.56110E-14-5.44369E-13
 -1        18 1.87873E+01 5.65511E+00 5.10014E-02 1.47885E+00 1.74478E-14-4.66545E-13
 -1        19 1.89049E+01 5.69482E+00 5.17293E-02 1.98037E+00 2.77573E-14-3.43002E-13
 -1        20 1.91390E+01 5.77337E+00 4.89455E-02 2.56429E+00 3.07063E-14-1.24829E-13
 -1        21 1.96550E+01 5.94582E+00 4.59371E-02 3.30902E+00 3.50761E-14 2.75127E-13
 -1        22 2.11786E+01 6.37479E+00 1.39340E-01 4.52145E+00 4.91274E-15 1.00599E-12
 -1        23 2.29939E+01-1.37747E+00-9.37571E-01-7.11159E-01-1.04475E-13 1.50988E-12
 -1        24 1.93319E+01-9.94525E-02-3.09680E-01 6.29558E-02-2.41283E-14 1.04726E-12
 -1        25 1.86431E+01-5.63880E-02-6.87615E-02 6.05145E-02-7.31208E-15 6.01312E-13
 -1        26 1.84410E+01-2.22318E-02-6.49700E-03 3.27076E-02-4.29550E-15 2.99802E-13
 -1        27 1.84541E+01-1.20411E-02 1.45438E-03 2.22657E-02 2.59233E-15 1.16997E-13
 -1        28 1.85725E+01-6.60766E-03 1.51740E-03 1.59229E-02-3.61321E-15 3.85681E-14
 -1        29 1.87412E+01-3.62416E-03 1.28863E-03 1.17489E-02 4.68215E-15-9.54540E-14
 -1        30 1.89312E+01-1.99055E-03 1.24700E-03 8.78982E-03 5.76416E-15-2.27769E-13
 -1        31 1.91278E+01-1.17984E-03 1.10316E-03 6.61060E-03 1.00212E-14-4.17146E-13
 -1        32 1.93253E+01-9.12227E-04 7.31518E-04 5.00743E-03-3.82066E-14-6.10594E-13
 -1        33 1.95243E+01-1.02716E-03 1.20016E-04 3.88650E-03 3.01584E-14-6.37842E-13
 -1        34 1.97297E+01-1.42374E-03-7.13767E-04 3.21493E-03-2.92787E-14-7.03960E-13
 -1        35 1.99501E+01-2.02878E-03-1.75077E-03 3.00117E-03 1.87644E-14-6.74378E-13
 -1        36 2.01968E+01-2.77509E-03-2.96903E-03 3.28774E-03 6.03852E-15-5.19211E-13
 -1        37 2.04833E+01-3.58095E-03-4.32712E-03 4.14759E-03-1.06790E-14-5.70373E-13
 -1        38 2.08246E+01-4.32570E-03-5.73249E-03 5.67678E-03-2.06162E-14-5.19706E-13
 -1        39 2.12354E+01-4.81813E-03-6.98698E-03 7.97314E-03-1.20519E-14-6.51462E-13
 -1        40 2.17272E+01-4.75831E-03-7.69893E-03 1.10830E-02-6.69785E-15-6.86536E-13
 -1        41 2.23039E+01-3.70220E-03-7.15833E-03 1.48849E-02 2.32491E-14-9.63393E-13
 -1        42 2.29536E+01-1.06066E-03-4.20774E-03 1.88674E-02-4.37884E-14-1.13514E-12
 -1        43 2.36368E+01 3.79823E-03 2.76603E-03 2.17598E-02 1.22821E-14-1.17216E-12
 -1        44 2.42718E+01 1.12197E-02 1.53986E-02 2.10632E-02 1.75855E-14-6.66081E-13
 -1        45 2.47211E+01 2.05984E-02 3.39891E-02 1.28057E-02-6.57917E-14-5.44507E-13
 -1        46 2.47936E+01 2.94228E-02 5.48932E-02-7.61025E-03 5.88635E-15-6.74068E-13
 -1        47 2.42856E+01 3.28076E-02 6.80408E-02-4.22706E-02 1.77159E-16-5.59591E-13
 -1        48 2.30824E+01 2.47514E-02 5.74245E-02-8.47058E-02-2.86099E-15-5.38753E-13
 -1        49 2.13104E+01 2.65189E-03 1.19718E-02-1.15080E-01-1.67231E-14-8.74190E-13
 -1        50 1.94374E+01-2.73749E-02-5.79106E-02-1.06834E-01-1.33884E-14-9.81361E-13
 -1        51 1.81611E+01-5.04851E-02-1.15018E-01-4.91439E-02 1.01412E-14-7.23933E-13
 -1        52 1.80449E+01-5.26548E-02-1.20568E-01 3.48151E-02 1.94380E-14-5.13844E-13
 -1        53 1.91436E+01-3.24886E-02-7.03633E-02 1.00001E-01 2.71502E-14-5.63088E-13
 -1        54 2.09621E+01-2.46906E-03 5.57293E-04 1.17044E-01 6.15244E-16-5.60635E-13
 -1        55 2.27944E+01 2.17625E-02 5.18486E-02 9.16700E-02-1.32758E-14-6.98663E-13
 -1        56 2.41163E+01 3.23249E-02 6.82635E-02 4.95978E-02-1.14026E-14-1.21113E-12
 -1        57 2.47441E+01 3.05597E-02 5.82198E-02 1.27098E-02 4.41294E-14-1.34922E-12
 -1        58 2.47606E+01 2.22502E-02 3.76900E-02-1.02903E-02 1.22981E-14-1.25154E-12
 -1        59 2.43637E+01 1.26842E-02 1.82240E-02-2.03985E-02-3.65232E-14-1.12674E-12
 -1        60 2.37518E+01 4.78092E-03 4.44143E-03-2.21124E-02 6.15149E-15-8.64585E-13
 -1        61 2.30733E+01-5.86087E-04-3.49270E-03-1.96335E-02 9.71292E-14-6.05851E-13
 -1        62 2.24203E+01-3.65838E-03-7.11642E-03-1.57126E-02-1.60539E-14-3.27588E-13
 -1        63 2.18395E+01-5.05553E-03-8.10436E-03-1.17954E-02-9.08939E-14-5.25237E-13
 -1        64 2.13485E+01-5.39406E-03-7.71692E-03-8.48515E-03-7.94861E-14-7.78156E-13
 -1        65 2.09476E+01-5.15489E-03-6.76113E-03-5.93030E-03-4.84013E-14-3.04131E-13
 -1        66 2.06291E+01-4.67185E-03-5.72065E-03-4.06320E-03-5.82574E-14-3.26948E-13
 -1        67 2.03827E+01-4.16016E-03-4.90180E-03-2.71422E-03 2.35389E-13 2.66128E-13
 -1        68 2.01990E+01-3.73978E-03-4.52206E-03-1.63170E-03-1.43192E-13 5.01147E-13
 -1        69 2.00721E+01-3.40600E-03-4.61513E-03-4.25663E-04 8.38472E-14 3.91843E-14
 -1        70 2.00007E+01-2.66025E-03-4.26154E-03 1.74653E-03-3.69518E-14 3.76561E-13
 -1        71 1.99861E+01 4.77761E-04 7.16267E-04 4.46422E-03-3.95714E-14 3.99639E-13
 -1        72 2.10080E+01-4.04419E-01-9.79722E-01-3.10825E-01 2.79152E-14 2.37550E-12
 -1        73 1.92964E+01-6.58887E-02-2.91006E-01-5.36241E-02 1.26218E-14 1.90348E-12
 -1        74 1.86525E+01-2.05786E-02-6.42786E-02-2.01156E-02 4.96781E-15 1.56765E-12
 -1        75 1.84499E+01-1.00084E-02-9.38800E-03-1.51326E-02 1.98550E-15 1.38761E-12
 -1        76 1.84627E+01-5.37037E-03 5.16860E-04-1.19600E-02 2.32405E-14 1.14772E-12
 -1        77 1.85805E+01-2.92009E-03 1.45745E-03-9.56439E-03 5.06103E-15 9.82947E-13
 -1        78 1.87481E+01-1.58247E-03 1.41632E-03-7.68257E-03-1.99053E-14 9.48575E-13
 -1        79 1.89369E+01-8.89518E-04 1.37038E-03-6.09593E-03-5.83720E-15 8.04552E-13
 -1        80 1.91325E+01-6.07024E-04 1.19265E-03-4.70472E-03-4.25068E-14 7.24051E-13
 -1        81 1.93291E+01-6.06089E-04 7.86888E-04-3.48029E-03 4.41479E-14 7.10063E-13
 -1        82 1.95272E+01-8.08961E-04 1.43893E-04-2.42682E-03 1.00168E-14 5.02951E-13
 -1        83 1.97317E+01-1.16263E-03-7.17337E-04-1.56881E-03 6.66534E-16 3.81739E-13
 -1        84 1.99511E+01-1.62248E-03-1.77407E-03-9.51202E-04-5.37547E-15 3.97187E-13
 -1        85 2.01964E+01-2.13872E-03-2.99761E-03-6.46029E-04 1.27642E-14 3.65128E-13
 -1        86 2.04811E+01-2.64118E-03-4.33563E-03-7.62737E-04 1.12400E-14 2.31274E-13
 -1        87 2.08194E+01-3.02019E-03-5.67901E-03-1.45946E-03-3.57033E-14 3.55193E-13
 -1        88 2.12252E+01-3.10269E-03-6.80647E-03-2.94915E-03-2.58691E-16 2.27244E-13
 -1        89 2.17087E+01-2.62759E-03-7.29881E-03-5.48578E-03 4.70882E-14 3.31107E-14
 -1        90 2.22722E+01-1.23461E-03-6.42403E-03-9.29919E-03-5.42315E-14 3.58446E-14
 -1        91 2.29013E+01 1.49739E-03-3.03269E-03-1.44204E-02-2.03156E-14 2.33423E-13
 -1        92 2.35544E+01 5.89460E-03 4.40214E-03-2.03132E-02 3.25500E-14 3.61710E-13
 -1        93 2.41482E+01 1.18200E-02 1.72858E-02-2.52527E-02-2.29092E-15 4.51259E-13
 -1        94 2.45465E+01 1.80692E-02 3.54990E-02-2.56102E-02 5.61866E-14 3.14815E-13
 -1        95 2.45654E+01 2.18268E-02 5.49282E-02-1.57935E-02-6.74591E-16 2.56031E-13
 -1        96 2.40158E+01 1.90244E-02 6.52350E-02 9.53910E-03 1.25290E-14 6.01174E-13
 -1        97 2.28036E+01 6.76199E-03 5.17321E-02 4.96780E-02-3.44420E-14 8.14467E-13
 -1        98 2.10699E+01-1.25782E-02 5.75489E-03 9.07559E-02 5.32014E-14 9.71351E-13
 -1        99 1.92742E+01-3.00715E-02-6.07405E-02 1.06927E-01 2.58116E-14 6.02837E-13
 -1       100 1.80785E+01-3.55281E-02-1.11816E-01 7.78465E-02-5.28657E-14 8.03337E-13
 -1       101 1.80023E+01-2.61522E-02-1.13993E-01 1.15510E-02 6.14374E-15 9.04166E-13
 -1       102 1.90813E+01-8.26947E-03-6.54843E-02-5.65455E-02 3.98403E-14 8.41379E-13
 -1       103 2.08411E+01 8.55556E-03 1.23703E-03-9.25442E-02-4.02581E-14 6.84956E-13
 -1       104 2.26147E+01 1.82573E-02 4.96537E-02-8.91527E-02 1.18814E-14 5.02438E-13
 -1       105 2.39057E+01 2.00240E-02 6.57059E-02-6.20080E-02 7.19817E-14 2.19470E-13
 -1       106 2.45360E+01 1.64281E-02 5.68198E-02-3.05742E-02-4.11360E-14-9.80388E-14
 -1       107 2.45788E+01 1.07550E-02 3.75426E-02-6.27035E-03-6.06850E-14-1.61605E-14
 -1       108 2.42184E+01 5.34444E-03 1.87363E-02 8.16671E-03-5.05737E-15-1.14055E-13
 -1       109 2.36430E+01 1.26525E-03 5.10067E-03 1.45848E-02 1.15248E-13 9.06619E-14
 -1       110 2.29957E+01-1.32604E-03-2.95566E-03 1.59354E-02 7.29052E-14-6.99802E-13
 -1       111 2.23669E+01-2.70004E-03-6.77406E-03 1.46657E-02 1.19475E-14-6.00405E-13
 -1       112 2.18038E+01-3.23534E-03-7.93248E-03 1.23635E-02-1.04821E-13 3.71296E-14
 -1       113 2.13249E+01-3.26833E-03-7.66318E-03 9.90903E-03 1.22875E-13 3.45132E-13
 -1       114 2.09322E+01-3.05096E-03-6.77769E-03 7.72319E-03 3.39163E-14 8.95343E-14
 -1       115 2.06191E+01-2.75552E-03-5.77613E-03 5.96138E-03 4.84542E-14-3.09385E-13
 -1       116 2.03761E+01-2.48633E-03-4.98160E-03 4.62247E-03 3.35849E-14-6.62422E-14
 -1       117 2.01947E+01-2.29560E-03-4.63041E-03 3.58885E-03 4.22947E-14-6.40489E-13
 -1       118 2.00695E+01-2.14597E-03-4.76399E-03 2.58440E-03 6.64073E-14-1.06547E-12
 -1       119 1.99998E+01-1.56784E-03-4.34009E-03 6.63110E-04-6.85149E-14-1.22991E-12
 -1       120 1.99869E+01 1.81647E-03 1.05783E-03-3.45256E-03 2.58420E-13-1.13977E-12
 -1       121 2.00000E+01-1.13767E-02 4.86370E-04-4.92525E-03-1.24586E-12-3.86951E-14
 -1       122 1.99977E+01 4.23675E-03-4.47684E-03-4.71985E-04-4.78677E-13-3.93371E-14
 -1       123 1.99981E+01 7.48779E-02-3.65651E-03 2.42776E-03 1.09415E-12 4.46729E-13
 -1       124 1.99991E+01 1.81426E-01-1.52699E-03 3.80446E-03 6.97148E-13 2.29029E-14
 -1       125 2.00004E+01 3.01529E-01 5.87266E-04 4.01297E-03-1.38451E-13-2.24328E-13
 -1       126 2.00015E+01 4.11909E-01 2.28532E-03 3.46098E-03-3.79540E-13-6.93795E-14
 -1       127 2.00023E+01 4.97938E-01 3.47434E-03 2.30742E-03-2.82594E-13-1.13850E-13
 -1       128 2.00027E+01 5.44358E-01 4.09382E-03 8.03428E-04-7.61800E-13-1.01041E-13
 -1       129 2.00027E+01 5.44171E-01 4.09581E-03-8.18358E-04-6.98321E-13-1.14618E-13
 -1       130 2.00023E+01 4.97356E-01 3.47850E-03-2.32240E-03-6.87843E-13-9.44182E-14
 -1       131 2.00014E+01 4.10926E-01 2.26502E-03-3.50930E-03-1.31920E-12-2.03361E-13
 -1       132 2.00004E+01 3.00192E-01 5.75367E-04-4.03665E-03-2.04266E-12 2.92923E-13
 -1       133 1.99992E+01 1.79866E-01-1.53965E-03-3.79310E-03-7.23051E-13 4.97100E-14
 -1       134 1.99978E+01 7.30288E-02-3.89072E-03-2.71074E-03-7.15781E-13 3.31847E-15
 -1       135 1.99981E+01 4.33591E-03-3.99270E-03 6.59050E-04-9.98149E-13-7.28012E-14
 -1       136 1.99982E+01-1.07675E-02 6.21150E-04 8.04016E-03-5.61302E-13 7.25778E-14
 -1       137-1.37459E+00-1.95248E+01-3.06144E+00-3.77730E+00 1.89071E-12 4.50296E-13
 -1       138-1.57752E+00-8.29293E+00-2.26270E+00-2.98451E+00 9.12603E-13 2.45554E-13
 -1       139 3.50441E+00 3.97724E+00-1.01691E+00 4.02668E+00 5.89695E-13 5.21527E-13
 -1       140 1.57418E+01 1.05245E+01 3.95614E-01 1.27872E+01 5.11258E-13 6.95277E-13
 -1       141 3.47011E+01 1.00191E+01 1.80762E+00 1.81552E+01 2.57599E-13 2.83995E-13
 -1       142 5.34751E+01 5.20079E+00 2.89534E+00 1.53112E+01-1.20570E-13-3.97127E-13
 -1       143 6.49835E+01 1.32411E+00 3.50452E+00 4.88158E+00-1.43618E-13-1.09417E-12
 -1       144 6.30880E+01 1.95804E+00 3.42169E+00-8.37694E+00 3.97186E-13-1.88502E-12
 -1       145 4.91686E+01 6.55634E+00 2.67033E+00-1.69154E+01 7.61904E-13-2.35717E-12
 -1       146 2.94192E+01 1.06487E+01 1.43582E+00-1.72537E+01 1.57047E-12-2.35545E-12
 -1       147 1.11269E+01 8.97206E+00-6.69151E-02-9.98612E+00 2.01145E-12-2.02854E-12
 -1       148 9.19904E-01 3.15227E-01-1.46455E+00-1.11871E+00 1.72007E-12-1.18361E-12
 -1       149-1.74106E+00-1.14050E+01-2.50708E+00 3.77693E+00 9.70335E-13-3.18551E-13
 -1       150-1.13718E+00-2.14546E+01-3.18305E+00 3.16440E+00-1.16546E-13-2.67451E-14
 -1       151-7.27964E-01-2.40587E+01-3.33399E+00-9.94362E-01-1.09952E-12-1.26545E-13
 -1       152-1.59729E+00-1.76453E+01-2.93539E+00-4.16869E+00-2.08972E-12-6.33105E-13
 -1       153-1.17461E+00-5.93493E+00-2.08201E+00-2.11964E+00-2.45631E-12-1.26935E-12
 -1       154 4.99913E+00 5.49749E+00-7.89885E-01 5.40397E+00-2.25320E-12-1.77564E-12
 -1       155 3.78901E+01 9.31487E+00 2.00596E+00 1.81520E+01-1.07006E-12-1.90586E-12
 -1       156 5.60975E+01 4.45668E+00 3.05810E+00 1.43501E+01-3.84748E-13-1.30063E-12
 -1       157 6.55988E+01 1.06256E+00 3.56372E+00 3.55332E+00-2.43344E-13 1.73819E-13
 -1       158 6.26328E+01 2.14857E+00 3.41604E+00-9.00831E+00-2.97260E-13 1.72690E-12
 -1       159 4.83614E+01 6.83074E+00 2.63406E+00-1.72083E+01-5.50962E-13 1.64463E-12
 -1       160 2.92384E+01 1.06153E+01 1.43807E+00-1.71975E+01-6.28164E-13 1.12954E-12
 -1       161 1.24817E+01 9.53560E+00 5.85887E-02-1.08872E+01-7.76601E-13 7.79043E-13
 -1       162 1.70139E+00 1.45617E+00-1.32664E+00-2.03586E+00-8.49598E-13 5.32518E-13
 -1       163-1.69747E+00-1.01683E+01-2.41422E+00 3.50367E+00-3.42781E-13 2.26208E-13
 -1       164-1.26130E+00-2.03679E+01-3.10806E+00 3.64765E+00 6.60444E-13-9.47922E-14
 -1       165 2.09951E+01 3.69130E+00-5.73445E-02-3.60868E+00-3.18964E-13-2.12261E-14
 -1       166 1.99822E+01 4.20689E+00-4.58885E-02-2.80729E+00-2.68624E-13-3.39652E-13
 -1       167 1.95110E+01 4.47662E+00-3.12906E-02-2.19463E+00-1.93727E-13-5.08428E-13
 -1       168 1.92748E+01 4.61721E+00-2.34412E-02-1.67314E+00-1.29169E-13-5.89024E-13
 -1       169 1.91487E+01 4.70071E+00-1.94802E-02-1.21753E+00-6.91951E-14-6.03081E-13
 -1       170 1.90780E+01 4.75315E+00-1.73832E-02-7.90793E-01-1.48433E-14-6.05972E-13
 -1       171 1.90425E+01 4.78197E+00-1.63686E-02-3.86156E-01 3.91800E-14-5.70842E-13
 -1       172 1.90321E+01 4.79084E+00-1.60752E-02 8.26713E-03 8.87455E-14-5.41216E-13
 -1       173 1.90442E+01 4.78069E+00-1.64090E-02 4.03025E-01 1.39370E-13-5.11060E-13
 -1       174 1.90817E+01 4.75018E+00-1.74648E-02 8.08716E-01 1.90256E-13-4.78424E-13
 -1       175 1.91533E+01 4.69630E+00-1.96350E-02 1.22993E+00 2.36851E-13-4.09818E-13
 -1       176 1.92842E+01 4.60734E+00-2.39537E-02 1.69666E+00 2.99216E-13-3.22471E-13
 -1       177 1.95245E+01 4.45965E+00-3.27925E-02 2.22524E+00 3.36465E-13-1.70749E-13
 -1       178 2.00055E+01 4.18232E+00-4.71435E-02 2.84562E+00 3.58884E-13 9.70474E-14
 -1       179 2.11164E+01 3.46146E+00-5.97354E-02 3.53531E+00 3.21031E-13 5.61315E-13
 -1       180 2.23916E+01 1.14309E+00-3.36185E-01 3.01371E+00 2.20897E-13 1.14497E-12
 -1       181 2.19460E+01 8.57872E-01 6.87235E-04-1.95859E+00-2.87066E-13 3.85827E-13
 -1       182 2.04229E+01 1.90466E-01-9.89430E-03-7.63856E-01-2.53124E-13 2.55203E-13
 -1       183 1.96493E+01 1.01971E-01 1.36497E-02-2.84724E-01-1.83656E-13 1.38846E-13
 -1       184 1.93128E+01 4.78006E-02 1.00736E-02-6.56337E-02-1.21673E-13 5.21432E-14
 -1       185 1.91888E+01 2.36769E-02 5.25472E-03 4.41045E-02-6.95562E-14-3.05027E-14
 -1       186 1.91847E+01 1.12609E-02 2.56533E-03 1.00695E-01-7.55135E-14-9.71972E-14
 -1       187 1.92483E+01 4.68601E-03 1.31784E-03 1.28983E-01-6.16526E-14-1.18866E-13
 -1       188 1.93503E+01 1.54594E-03 7.52588E-04 1.42364E-01-1.03744E-13-1.69631E-13
 -1       189 1.94749E+01 6.63291E-04 5.01703E-04 1.49025E-01-9.52973E-14-2.05278E-13
 -1       190 1.96147E+01 1.39266E-03 4.16639E-04 1.54476E-01-4.45079E-14-1.89260E-13
 -1       191 1.97681E+01 3.34972E-03 4.34267E-04 1.62703E-01-4.10175E-14-3.48298E-13
 -1       192 1.99373E+01 6.28175E-03 5.20101E-04 1.76744E-01-8.36272E-15-3.04537E-13
 -1       193 2.01276E+01 9.98664E-03 6.47390E-04 1.98956E-01 6.54268E-14-3.20532E-13
 -1       194 2.03464E+01 1.42378E-02 7.87693E-04 2.31062E-01-1.91745E-14-2.79578E-13
 -1       195 2.06023E+01 1.86884E-02 9.03913E-04 2.73975E-01-1.88478E-14-2.56679E-13
 -1       196 2.09040E+01 2.27328E-02 9.43735E-04 3.27327E-01-6.97964E-14-2.37970E-13
 -1       197 2.12585E+01 2.53030E-02 8.34921E-04 3.88583E-01-6.31283E-14-3.02220E-13
 -1       198 2.16685E+01 2.45949E-02 4.87532E-04 4.51586E-01-1.17823E-13-4.76437E-13
 -1       199 2.21289E+01 1.77733E-02-1.86348E-04 5.04469E-01-1.56152E-13-4.87205E-13
 -1       200 2.26213E+01 8.62672E-04-1.22327E-03 5.27159E-01-1.60804E-14-5.19552E-13
 -1       201 2.31074E+01-3.06411E-02-2.51740E-03 4.89585E-01 2.07090E-13-5.60350E-13
 -1       202 2.35238E+01-7.94043E-02-3.72644E-03 3.53480E-01 8.91114E-14-6.26601E-13
 -1       203 2.37805E+01-1.40864E-01-4.24517E-03 8.32594E-02 8.29133E-14-4.24276E-13
 -1       204 2.37725E+01-1.95568E-01-3.53655E-03-3.27742E-01 1.06172E-13-2.34495E-13
 -1       205 2.34133E+01-2.04237E-01-1.35809E-03-8.16560E-01-5.45943E-14-1.07367E-13
 -1       206 2.26957E+01-1.20631E-01 1.01876E-03-1.21737E+00-1.65701E-13-7.56938E-14
 -1       207 2.17642E+01 6.45448E-02 2.04209E-03-1.29396E+00-6.33157E-14-2.68422E-13
 -1       208 2.09307E+01 2.76998E-01 1.16997E-03-8.84705E-01 1.31796E-13-3.38495E-13
 -1       209 2.05549E+01 3.84669E-01 3.55500E-04-8.06570E-02-1.08412E-14-2.48792E-13
 -1       210 2.08203E+01 3.07872E-01 9.90101E-04 7.61866E-01-1.43776E-13-4.52067E-13
 -1       211 2.15961E+01 1.03701E-01 2.05697E-03 1.25714E+00-1.21592E-13-5.36357E-13
 -1       212 2.25357E+01-9.41755E-02 1.23944E-03 1.26028E+00-1.92105E-14-5.31485E-13
 -1       213 2.33064E+01-1.96938E-01-1.00024E-03 9.00054E-01-1.20370E-13-4.68943E-13
 -1       214 2.37324E+01-2.01790E-01-3.24773E-03 4.12225E-01-2.52038E-14-4.40443E-13
 -1       215 2.37982E+01-1.51874E-01-4.26285E-03-1.96820E-02 2.02264E-14-6.10838E-13
 -1       216 2.35818E+01-8.94180E-02-3.88443E-03-3.15243E-01 5.93642E-14-6.10284E-13
 -1       217 2.31886E+01-3.75584E-02-2.71521E-03-4.71873E-01 8.03664E-14-5.39197E-13
 -1       218 2.27130E+01-2.84526E-03-1.38291E-03-5.22404E-01 1.30862E-13-2.91013E-13
 -1       219 2.22240E+01 1.66378E-02-2.68034E-04-5.05621E-01 1.86543E-13-3.37916E-13
 -1       220 2.17648E+01 2.53377E-02 4.95678E-04-4.53118E-01-1.02697E-13-3.41217E-13
 -1       221 2.13578E+01 2.74364E-02 9.28372E-04-3.86358E-01-7.16068E-14-4.44652E-13
 -1       222 2.10116E+01 2.60289E-02 1.11528E-03-3.18070E-01 3.07120E-13-3.15140E-13
 -1       223 2.07262E+01 2.31601E-02 1.14689E-03-2.54690E-01 1.26750E-13-6.21379E-14
 -1       224 2.04974E+01 2.01134E-02 1.09109E-03-1.98517E-01 1.92639E-13-1.21309E-14
 -1       225 2.03193E+01 1.77039E-02 9.78096E-04-1.49237E-01 2.35125E-13-4.09651E-14
 -1       226 2.01861E+01 1.64441E-02 8.02192E-04-1.04923E-01-9.50962E-14 2.07757E-13
 -1       227 2.00929E+01 1.64303E-02 6.48605E-04-6.31480E-02 1.20695E-13 1.81494E-13
 -1       228 2.00327E+01 1.63189E-02 4.84812E-04-2.32399E-02 5.88847E-14 2.81451E-13
 -1       229 2.09367E+01 2.76988E-01-5.12933E-02 1.16469E+00 2.38969E-13 9.89978E-13
 -1       230 1.98431E+01 1.26939E-01 8.33408E-03 4.42921E-01 1.70975E-13 7.95649E-13
 -1       231 1.93388E+01 5.83501E-02 1.27717E-02 1.49150E-01 1.28684E-13 6.31610E-13
 -1       232 1.91328E+01 2.82640E-02 7.68415E-03 8.40481E-03 1.30025E-13 5.21424E-13
 -1       233 1.90896E+01 1.39697E-02 3.90186E-03-6.31933E-02 7.04489E-14 4.37661E-13
 -1       234 1.91365E+01 6.51473E-03 2.01253E-03-9.94527E-02 1.97469E-14 3.41845E-13
 -1       235 1.92332E+01 2.62717E-03 1.14513E-03-1.16879E-01 6.83502E-14 3.17420E-13
 -1       236 1.93576E+01 8.96518E-04 7.26739E-04-1.24749E-01 3.70412E-14 2.63493E-13
 -1       237 1.94985E+01 6.21193E-04 5.11784E-04-1.28949E-01 3.27153E-14 1.53450E-13
 -1       238 1.96517E+01 1.40699E-03 4.04894E-04-1.33559E-01 6.99125E-14 2.04597E-13
 -1       239 1.98179E+01 3.01070E-03 3.62900E-04-1.41587E-01 8.22210E-14 2.54829E-13
 -1       240 2.00013E+01 5.26229E-03 3.58511E-04-1.55340E-01 1.49080E-14 1.16753E-13
 -1       241 2.02087E+01 8.00957E-03 3.67815E-04-1.76566E-01 5.16072E-14 5.21752E-14
 -1       242 2.04486E+01 1.10605E-02 3.64893E-04-2.06427E-01 1.29090E-14 4.26344E-14
 -1       243 2.07302E+01 1.41055E-02 3.18910E-04-2.45248E-01-6.97331E-14 6.99875E-14
 -1       244 2.10620E+01 1.66054E-02 1.94159E-04-2.91997E-01 3.45142E-14 7.88954E-14
 -1       245 2.14493E+01 1.76318E-02-4.33176E-05-3.43367E-01 7.64251E-14 9.99832E-14
 -1       246 2.18915E+01 1.56690E-02-4.06237E-04-3.92363E-01-1.28641E-14 6.39817E-14
 -1       247 2.23763E+01 8.44554E-03-8.46092E-04-4.26421E-01-8.14427E-14 5.93750E-14
 -1       248 2.28741E+01-6.99515E-03-1.19676E-03-4.25505E-01-6.57150E-14 8.91826E-14
 -1       249 2.33307E+01-3.34930E-02-1.13256E-03-3.61579E-01-3.76973E-14 1.22984E-13
 -1       250 2.36631E+01-7.14382E-02-2.51252E-04-2.02664E-01 8.71764E-14 5.55359E-14
 -1       251 2.37649E+01-1.14275E-01 1.61908E-03 7.35287E-02 5.92621E-14 5.32277E-14
 -1       252 2.35300E+01-1.43261E-01 3.88938E-03 4.52394E-01-2.02355E-13 2.93441E-14
 -1       253 2.29053E+01-1.28068E-01 4.68170E-03 8.48648E-01-1.48472E-13 3.22249E-13
 -1       254 2.19621E+01-4.31291E-02 1.72383E-03 1.09576E+00-3.05040E-14 3.88438E-13
 -1       255 2.09467E+01 9.87870E-02-4.74486E-03 1.00735E+00 1.27337E-13 6.07673E-13
 -1       256 2.02306E+01 2.28247E-01-1.01609E-02 5.18319E-01-1.32685E-13 4.00271E-13
 -1       257 2.01283E+01 2.59927E-01-9.95562E-03-2.03985E-01-6.19036E-15 3.62616E-13
 -1       258 2.06892E+01 1.71630E-01-3.65411E-03-8.31755E-01 1.25833E-13 4.04893E-13
 -1       259 2.16614E+01 2.60506E-02 3.53549E-03-1.10436E+00 4.16316E-14 3.37169E-13
 -1       260 2.26634E+01-9.11810E-02 6.45248E-03-9.88963E-01 2.17163E-13 2.09541E-13
 -1       261 2.33989E+01-1.39726E-01 4.89809E-03-6.36903E-01 1.75711E-13 1.27637E-14
 -1       262 2.37476E+01-1.30120E-01 1.62404E-03-2.35845E-01 2.24929E-14-1.09249E-14
 -1       263 2.37356E+01-9.25953E-02-9.64394E-04 9.09403E-02 3.09388E-15-1.49974E-13
 -1       264 2.34610E+01-5.17856E-02-2.08403E-03 3.00811E-01 7.51985E-14-9.13766E-14
 -1       265 2.30341E+01-1.96407E-02-2.03233E-03 4.03212E-01-5.32202E-14-3.73054E-13
 -1       266 2.25460E+01 1.24175E-03-1.42342E-03 4.27766E-01 2.57934E-13-1.61547E-13
 -1       267 2.20596E+01 1.26567E-02-7.15618E-04 4.04862E-01-1.34840E-13-6.05217E-14
 -1       268 2.16123E+01 1.75268E-02-1.34696E-04 3.57957E-01-3.33993E-13 1.96661E-13
 -1       269 2.12219E+01 1.84502E-02 2.58657E-04 3.02482E-01-7.78624E-14 1.57252E-13
 -1       270 2.08939E+01 1.73198E-02 4.84838E-04 2.47327E-01 6.31318E-14 4.63736E-13
 -1       271 2.06265E+01 1.53964E-02 5.85995E-04 1.96754E-01 2.54159E-13 3.78085E-13
 -1       272 2.04146E+01 1.35002E-02 5.90633E-04 1.51972E-01-1.23703E-14 1.40713E-14
 -1       273 2.02525E+01 1.21491E-02 4.86853E-04 1.12223E-01 2.46428E-13 1.19175E-13
 -1       274 2.01350E+01 1.16891E-02 2.55471E-04 7.56655E-02 2.08253E-13 4.70231E-15
 -1       275 2.00580E+01 1.23619E-02 2.74816E-04 4.01235E-02 1.09491E-13-1.80881E-14
 -1       276 2.00155E+01 9.64239E-03 8.53288E-04 7.42413E-03 6.44474E-14-3.93359E-13
 -1       277 2.00160E+01 3.35178E-02 4.38616E-04 2.54999E-02 2.59067E-14 6.16092E-13
 -1       278 2.00137E+01 8.73294E-02 1.37113E-04 6.01183E-02 6.91283E-15 6.54051E-13
 -1       279 2.00072E+01 1.62460E-01 5.16934E-05 8.52172E-02-7.28390E-14-7.27797E-14
 -1       280 2.00004E+01 2.49094E-01-3.96286E-05 9.43925E-02-6.64692E-14-3.91594E-13
 -1       281 1.99942E+01 3.33305E-01-2.18402E-04 8.77033E-02-4.49614E-13-3.22641E-13
 -1       282 1.99892E+01 4.05489E-01-3.85648E-04 6.70425E-02-2.37439E-13-1.60497E-14
 -1       283 1.99860E+01 4.53394E-01-5.06930E-04 3.61475E-02-1.19558E-13-4.04722E-13
 -1       284 1.99849E+01 4.70108E-01-5.49837E-04-1.33168E-04-6.78360E-14-9.37835E-18
 -1       285 1.99860E+01 4.53197E-01-5.07654E-04-3.64246E-02-1.31432E-13-5.86216E-14
 -1       286 1.99892E+01 4.05062E-01-3.87647E-04-6.73487E-02-5.36413E-13-3.00036E-13
 -1       287 1.99941E+01 3.34084E-01-2.10749E-04-8.77751E-02-2.57464E-13-3.34544E-13
 -1       288 2.00005E+01 2.48238E-01-4.37079E-05-9.45765E-02-3.16612E-13 6.93388E-13
 -1       289 2.00073E+01 1.61434E-01 5.43877E-05-8.50653E-02-2.36547E-13 1.24001E-13
 -1       290 2.00139E+01 8.75457E-02 3.93001E-04-5.97960E-02-2.52925E-13-2.52781E-13
 -1       291 2.00266E+01 4.92655E-02 4.17386E-04-4.59472E-02-1.25550E-13 1.38708E-13
 -1       292-7.88649E-01-1.01966E+01-9.09989E-01 1.20729E+00 5.25163E-13 1.55154E-13
 -1       293 2.60133E+00-8.43787E+00-8.03217E-01 3.29456E+00 2.83468E-13-4.25660E-13
 -1       294 1.01252E+01-4.99468E+00-4.26335E-01 5.88220E+00 1.78912E-13 3.57422E-14
 -1       295 1.86864E+01-8.43728E-01-1.07106E-01 7.14067E+00 2.19824E-14-1.63147E-13
 -1       296 2.89323E+01 2.58832E+00 3.36579E-01 7.59958E+00 2.91989E-14-3.22631E-13
 -1       297 3.83605E+01 4.90201E+00 7.13510E-01 6.30558E+00 1.14643E-13-4.50168E-13
 -1       298 4.26552E+01 6.56212E+00 7.07370E-01 2.34909E+00 2.16618E-13-3.80390E-13
 -1       299 4.59164E+01 6.83500E+00 9.57117E-01-5.64368E-01 3.78475E-13-5.27051E-13
 -1       300 4.28889E+01 6.06761E+00 8.36545E-01-3.80656E+00 6.12607E-13-8.19927E-13
 -1       301 3.59655E+01 4.13202E+00 5.50640E-01-6.22596E+00 6.29986E-13-1.15635E-12
 -1       302 2.65836E+01 5.83996E-01 1.46423E-01-6.73303E+00 6.10262E-13-9.50934E-13
 -1       303 1.58295E+01-2.36901E+00-2.18111E-01-6.78613E+00 4.78173E-13-9.11216E-13
 -1       304 7.06635E+00-5.93519E+00-6.08055E-01-4.89385E+00 3.31318E-13-7.21943E-13
 -1       305 1.43656E+00-9.19607E+00-8.77237E-01-2.73028E+00-1.02918E-13-6.08222E-13
 -1       306-1.09978E+00-1.03853E+01-9.21435E-01-6.60670E-01-3.10474E-13-4.07424E-13
 -1       307-4.03683E-01-1.04393E+01-9.62809E-01 1.49847E+00-5.62092E-13-5.60246E-13
 -1       308 3.89372E+00-7.67176E+00-7.06206E-01 3.97659E+00-6.38295E-13-4.85473E-13
 -1       309 1.07908E+01-4.09378E+00-4.46228E-01 5.83431E+00-8.92064E-13-7.18717E-13
 -1       310 2.11657E+01-9.00346E-01-3.17596E-02 7.03811E+00-9.03833E-13-6.01769E-13
 -1       311 3.06684E+01 2.98319E+00 3.89568E-01 7.47580E+00-6.48842E-13-7.41907E-13
 -1       312 3.89387E+01 4.98751E+00 6.35619E-01 4.96065E+00-5.95850E-13-2.05419E-13
 -1       313 4.54129E+01 6.33251E+00 9.85458E-01 2.87441E+00-8.16236E-13 1.13035E-13
 -1       314 4.51059E+01 7.01450E+00 8.84584E-01-7.08623E-01-6.20393E-13 3.17770E-13
 -1       315 4.32329E+01 5.92347E+00 8.96797E-01-4.35782E+00-2.29372E-13 4.41758E-13
 -1       316 3.55804E+01 3.87385E+00 5.06409E-01-5.80346E+00-6.55448E-14 4.68653E-13
 -1       317 2.64058E+01 1.73162E+00 2.13342E-01-7.57428E+00-1.06970E-13 4.88942E-13
 -1       318 1.72699E+01-2.31473E+00-1.71776E-01-6.81320E+00-1.08052E-13 1.69503E-13
 -1       319 8.26153E+00-5.57364E+00-5.17737E-01-5.34522E+00 2.16493E-13 2.29788E-13
 -1       320 1.99384E+00-8.82996E+00-8.45761E-01-3.00959E+00 3.04701E-13 3.57117E-13
 -1       321-9.11227E-01-1.07154E+01-9.79211E-01-9.54780E-01 3.62668E-13 3.78628E-13
 -1       322 2.01337E+01 3.00144E+00-2.19633E-02-2.09461E+00-2.78597E-13-3.08630E-13
 -1       323 2.07441E+01 2.20783E+00-1.76443E-02-2.36257E+00-3.29974E-13-1.20745E-13
 -1       324 1.95930E+01 3.69652E+00-1.55873E-02-1.31365E+00-1.24213E-13-4.50473E-13
 -1       325 1.94732E+01 3.85573E+00-1.36926E-02-9.20628E-01-6.20196E-14-4.66028E-13
 -1       326 1.94062E+01 3.94830E+00-1.26980E-02-5.41800E-01 8.99667E-15-4.55156E-13
 -1       327 1.93766E+01 3.99055E+00-1.22731E-02-1.72522E-01 8.22973E-14-4.31774E-13
 -1       328 1.93779E+01 3.98892E+00-1.22891E-02 1.93634E-01 1.40706E-13-3.97604E-13
 -1       329 1.94104E+01 3.94306E+00-1.27374E-02 5.63264E-01 2.00369E-13-3.75252E-13
 -1       330 1.94793E+01 3.84808E+00-1.37493E-02 9.36269E-01 2.67666E-13-3.31525E-13
 -1       331 1.96028E+01 3.68360E+00-1.56396E-02 1.32989E+00 3.26292E-13-2.56484E-13
 -1       332 1.98131E+01 3.41258E+00-1.88165E-02 1.73537E+00 3.76838E-13-1.56096E-13
 -1       333 2.01763E+01 2.95588E+00-2.29105E-02 2.12454E+00 4.02388E-13 1.09079E-14
 -1       334 2.07362E+01 2.12911E+00-3.04285E-02 2.32046E+00 3.72079E-13 3.03731E-13
 -1       335 2.10758E+01 1.18746E+00-2.48845E-02 1.92101E+00 3.19014E-13 5.74367E-13
 -1       336 2.03739E+01 4.89735E-01 8.36122E-03 9.26058E-01 2.67027E-13 4.42124E-13
 -1       337 2.04458E+01 6.76190E-01 1.26123E-02-1.02230E+00-2.69308E-13-6.63371E-14
 -1       338 2.00271E+01 3.39459E-01 7.22032E-03-4.53019E-01-1.99075E-13-6.46913E-14
 -1       339 1.97781E+01 1.80572E-01 4.15745E-03-1.40186E-01-1.27403E-13-7.61892E-14
 -1       340 1.96506E+01 9.68854E-02 1.95896E-03 3.72799E-02-1.00762E-13-1.23908E-13
 -1       341 1.96071E+01 5.07968E-02 8.99741E-04 1.37756E-01-8.16236E-14-1.27361E-13
 -1       342 1.96190E+01 2.58459E-02 4.34448E-04 1.94214E-01-1.14211E-13-1.56050E-13
 -1       343 1.96676E+01 1.40688E-02 2.40293E-04 2.26741E-01-7.97114E-14-1.32855E-13
 -1       344 1.97414E+01 1.12125E-02 1.83433E-04 2.48469E-01-1.00058E-13-1.29192E-13
 -1       345 1.98342E+01 1.48086E-02 2.10806E-04 2.68557E-01-1.19069E-13-1.69094E-13
 -1       346 1.99439E+01 2.32934E-02 2.97267E-04 2.93709E-01-2.09978E-14-1.57654E-13
 -1       347 2.00712E+01 3.55370E-02 4.25942E-04 3.28961E-01-1.41203E-14-1.74227E-13
 -1       348 2.02188E+01 5.05067E-02 5.80672E-04 3.78005E-01 6.63363E-14-2.18737E-13
 -1       349 2.03908E+01 6.69253E-02 7.40691E-04 4.43165E-01-2.08937E-15-9.31593E-14
 -1       350 2.05921E+01 8.28339E-02 8.74664E-04 5.24957E-01-1.12715E-13-1.79073E-13
 -1       351 2.08275E+01 9.49876E-02 9.33532E-04 6.21162E-01-1.25711E-13-2.55769E-13
 -1       352 2.11009E+01 9.80445E-02 8.43327E-04 7.25240E-01-1.22669E-13-2.69314E-13
 -1       353 2.14147E+01 8.36316E-02 5.01852E-04 8.23967E-01-1.05986E-13-2.15574E-13
 -1       354 2.17683E+01 3.97015E-02-2.09054E-04 8.94363E-01-1.20270E-13-2.26594E-13
 -1       355 2.21565E+01-4.86706E-02-1.38480E-03 9.00623E-01 1.81363E-14-2.37173E-13
 -1       356 2.25671E+01-1.94574E-01-2.98529E-03 7.93140E-01 9.75138E-14-3.25589E-13
 -1       357 2.29758E+01-3.96754E-01-4.70351E-03 5.14429E-01 2.30563E-13-2.30757E-13
 -1       358 2.33358E+01-6.16409E-01-5.81188E-03 2.09198E-02 1.54367E-13-1.43221E-13
 -1       359 2.35688E+01-7.53130E-01-5.77644E-03-6.70445E-01 1.43359E-13-9.32915E-14
 -1       360 2.35702E+01-6.45523E-01-3.40195E-03-1.41650E+00-2.58929E-14-7.58307E-14
 -1       361 2.32635E+01-1.61536E-01-1.26962E-03-1.90219E+00-1.94494E-13 2.92396E-14
 -1       362 2.27315E+01 6.06358E-01-6.52637E-04-1.74197E+00-8.53458E-14-2.00493E-14
 -1       363 2.22760E+01 1.25134E+00-1.70101E-03-7.95515E-01-2.15730E-14-2.69503E-13
 -1       364 2.22306E+01 1.31637E+00-1.43120E-03 5.63073E-01-1.93640E-13-4.31548E-13
 -1       365 2.26339E+01 7.45323E-01-3.53381E-04 1.62641E+00-2.10346E-13-4.00870E-13
 -1       366 2.31783E+01-3.84297E-02-1.26728E-03 1.92780E+00-3.95632E-14-4.60627E-13
 -1       367 2.35362E+01-5.87390E-01-3.34878E-03 1.53213E+00 7.97582E-14-4.34897E-13
 -1       368 2.35878E+01-7.56254E-01-5.52982E-03 8.06260E-01-2.96950E-14-3.70439E-13
 -1       369 2.33887E+01-6.50667E-01-6.18540E-03 8.99980E-02-1.67433E-13-2.64692E-13
 -1       370 2.30452E+01-4.35433E-01-5.08593E-03-4.41730E-01-8.35324E-14-6.10093E-13
 -1       371 2.26427E+01-2.25073E-01-3.29099E-03-7.54589E-01 8.93928E-14-5.21878E-13
 -1       372 2.22330E+01-6.75513E-02-1.59622E-03-8.85742E-01 2.93747E-13-2.39314E-13
 -1       373 2.18439E+01 3.13664E-02-3.25556E-04-8.92099E-01 1.43286E-13-2.50008E-13
 -1       374 2.14899E+01 8.35128E-02 4.79148E-04-8.25057E-01 7.77844E-14-1.14427E-13
 -1       375 2.11777E+01 1.04095E-01 8.99485E-04-7.22498E-01-3.07587E-13 1.46848E-13
 -1       376 2.09092E+01 1.05950E-01 1.05701E-03-6.08944E-01 7.78843E-14 1.33762E-13
 -1       377 2.06836E+01 9.82825E-02 1.06050E-03-4.98434E-01 1.84621E-13-2.51404E-13
 -1       378 2.04979E+01 8.71543E-02 9.87760E-04-3.97652E-01 3.78978E-13 1.56642E-13
 -1       379 2.03481E+01 7.63764E-02 8.88755E-04-3.08488E-01 3.33971E-13 3.30626E-13
 -1       380 2.02299E+01 6.82391E-02 7.93233E-04-2.29949E-01-9.78448E-14 3.28661E-13
 -1       381 2.01389E+01 6.37386E-02 8.28574E-04-1.59540E-01-1.48468E-13 3.16287E-13
 -1       382 2.00762E+01 5.75152E-02 5.51877E-04-9.94882E-02 2.68335E-13 3.06949E-13
 -1       383 1.98750E+01 2.29641E-01 1.08286E-02 3.95993E-01 1.99144E-13 3.33473E-13
 -1       384 1.95908E+01 1.17447E-01 6.22618E-03 1.14596E-01 1.78802E-13 2.57360E-13
 -1       385 1.94633E+01 6.10103E-02 2.88524E-03-3.86341E-02 1.25673E-13 2.18890E-13
 -1       386 1.94346E+01 3.08590E-02 1.29260E-03-1.22194E-01 6.46646E-14 1.22279E-13
 -1       387 1.94671E+01 1.47003E-02 6.16661E-04-1.67150E-01 4.78616E-14 4.45539E-14
 -1       388 1.95377E+01 6.97175E-03 3.33097E-04-1.91339E-01 7.57783E-14 9.85231E-14
 -1       389 1.96331E+01 4.84957E-03 2.30053E-04-2.06067E-01 1.01170E-13 7.72853E-14
 -1       390 1.97465E+01 6.73716E-03 2.30218E-04-2.19058E-01 1.20151E-14 8.48907E-14
 -1       391 1.98760E+01 1.16425E-02 2.99812E-04-2.35904E-01 6.62811E-14 1.08526E-13
 -1       392 2.00229E+01 1.88660E-02 4.17574E-04-2.60783E-01 7.75744E-14 9.48656E-14
 -1       393 2.01911E+01 2.77896E-02 5.63986E-04-2.96774E-01 1.06880E-13 5.70360E-14
 -1       394 2.03857E+01 3.76726E-02 7.15285E-04-3.45852E-01 5.10005E-14 6.74658E-14
 -1       395 2.06131E+01 4.73953E-02 8.37657E-04-4.08556E-01-9.18675E-14 1.31130E-14
 -1       396 2.08789E+01 5.51062E-02 8.80987E-04-4.83243E-01 2.59273E-14 7.28242E-14
 -1       397 2.11874E+01 5.77461E-02 7.73942E-04-5.64790E-01 8.33482E-14 1.50903E-13
 -1       398 2.15392E+01 5.04913E-02 4.25346E-04-6.42649E-01 9.10189E-14 1.71309E-13
 -1       399 2.19290E+01 2.63395E-02-2.59937E-04-6.98319E-01-6.96243E-14 4.23075E-14
 -1       400 2.23422E+01-2.35253E-02-1.33262E-03-7.02832E-01-1.04710E-13 4.77950E-14
 -1       401 2.27513E+01-1.07235E-01-2.72085E-03-6.16080E-01-5.61649E-15 1.20697E-13
 -1       402 2.31117E+01-2.25367E-01-4.10834E-03-3.91949E-01 1.39169E-13 3.06192E-14
 -1       403 2.33595E+01-3.58158E-01-4.95927E-03 4.09682E-03 3.20872E-14 5.37656E-14
 -1       404 2.34150E+01-4.50228E-01-4.50054E-03 5.58789E-01-2.75061E-13 1.28094E-13
 -1       405 2.32038E+01-4.10697E-01-2.33250E-03 1.16159E+00-2.16271E-13 1.30859E-13
 -1       406 2.27083E+01-1.58252E-01-9.15587E-05 1.57900E+00-1.05206E-13 1.91361E-13
 -1       407 2.20439E+01 2.80216E-01 5.92906E-04 1.52183E+00 4.73799E-14 4.14841E-13
 -1       408 2.14882E+01 7.00363E-01 2.01380E-03 8.52835E-01 1.19574E-13 3.70667E-13
 -1       409 2.13425E+01 8.26404E-01 2.46000E-03-2.13707E-01 8.34732E-14 1.99557E-13
 -1       410 2.16978E+01 5.66478E-01 3.40398E-03-1.17869E+00 8.23183E-14 2.08242E-13
 -1       411 2.23482E+01 1.05637E-01 3.30992E-03-1.61735E+00 2.92863E-14-4.32159E-14
 -1       412 2.29700E+01-2.78859E-01 3.47542E-04-1.46044E+00 2.36695E-13-1.25674E-13
 -1       413 2.33484E+01-4.47413E-01-3.38452E-03-9.35273E-01 1.99678E-13-5.24950E-14
 -1       414 2.34341E+01-4.25962E-01-5.56711E-03-3.28490E-01 1.43910E-13-1.46088E-14
 -1       415 2.32809E+01-3.09010E-01-5.59549E-03 1.71374E-01 8.98739E-14 8.25004E-14
 -1       416 2.29724E+01-1.76829E-01-4.26378E-03 4.97348E-01 5.38970E-14 1.53025E-13
 -1       417 2.25840E+01-7.01042E-02-2.50666E-03 6.60645E-01 8.55240E-14 1.34017E-13
 -1       418 2.21713E+01 8.88963E-04-9.79829E-04 7.03588E-01 6.96832E-14 5.44301E-14
 -1       419 2.17713E+01 4.08289E-02 9.33736E-05 6.71037E-01-2.73580E-13 2.40834E-13
 -1       420 2.14057E+01 5.87385E-02 7.26523E-04 5.98613E-01-2.68175E-13 3.34893E-13
 -1       421 2.10852E+01 6.30149E-02 1.02629E-03 5.10491E-01-2.76355E-13 3.34214E-13
 -1       422 2.08132E+01 5.99531E-02 1.11154E-03 4.21145E-01 1.26177E-14 1.75506E-13
 -1       423 2.05886E+01 5.38215E-02 1.07867E-03 3.37972E-01 3.23365E-13 2.87396E-13
 -1       424 2.04076E+01 4.73953E-02 9.92386E-04 2.63599E-01 1.46679E-13 2.93843E-13
 -1       425 2.02657E+01 4.23932E-02 8.80040E-04 1.97581E-01 1.43643E-13 6.78042E-14
 -1       426 2.01583E+01 3.95512E-02 7.13383E-04 1.37948E-01 2.22985E-13 1.30170E-13
 -1       427 2.00803E+01 3.82487E-02 5.49637E-04 8.28384E-02 9.19326E-14 4.14210E-13
 -1       428 2.00439E+01 3.86020E-02 3.60870E-04 5.32425E-02 1.47817E-13 4.36926E-13
 -1       429 2.00131E+01 2.18762E-01 1.47582E-04 1.63931E-01-3.81216E-13-2.82087E-13
 -1       430 2.00378E+01 1.41685E-01 4.11450E-04 1.39812E-01-2.46275E-13 4.67252E-13
 -1       431 2.00465E+01 8.52175E-02 5.21952E-04 9.87578E-02-1.18449E-13 2.56781E-13
 -1       432 1.99883E+01 2.94447E-01-9.50913E-05 1.62684E-01-4.35531E-13-7.80136E-13
 -1       433 1.99663E+01 3.62545E-01-2.98242E-04 1.36864E-01-3.38152E-13 1.97700E-13
 -1       434 1.99501E+01 4.13324E-01-4.54859E-04 9.08400E-02-1.62474E-13-7.57563E-14
 -1       435 1.99416E+01 4.40443E-01-5.39356E-04 3.16862E-02-1.74556E-13-8.32007E-14
 -1       436 1.99416E+01 4.40454E-01-5.40600E-04-3.20302E-02 8.97648E-15-2.57890E-13
 -1       437 1.99501E+01 4.13321E-01-4.56255E-04-9.12398E-02-4.17280E-15-4.21023E-13
 -1       438 1.99659E+01 3.63511E-01-2.98338E-04-1.36704E-01-7.54754E-14-2.65550E-13
 -1       439 1.99880E+01 2.95474E-01-1.03646E-04-1.62922E-01 6.47472E-14 3.75518E-13
 -1       440 2.00134E+01 2.18320E-01 1.22445E-04-1.64238E-01 7.11954E-14 1.73630E-13
 -1       441 2.00387E+01 1.40461E-01 3.92921E-04-1.40031E-01-2.09724E-13-2.44383E-13
 -1       442 1.02922E+01-5.31302E+00-2.09510E-02 6.85217E+00-2.78208E-13-4.19303E-13
 -1       443 1.08257E+00-4.41554E+00-6.98502E-02 1.36073E-02 2.03080E-13 3.84137E-13
 -1       444 4.28734E+00-4.65510E+00-3.15119E-02 4.72138E+00-1.17961E-14-5.71945E-13
 -1       445 2.00076E+01-5.33395E+00 1.84090E-02 6.42476E+00-2.74558E-13-7.11445E-13
 -1       446 2.59834E+01-3.56615E+00-2.44361E-02 4.51549E+00-3.34829E-13-5.39582E-13
 -1       447 1.97952E+01 3.43565E+00-1.86984E-02-1.71665E+00-1.99949E-13-4.09448E-13
 -1       448 3.45012E+01 4.71273E+00 1.83895E-02 1.06870E-01 1.17337E-13-1.06706E-13
 -1       449 3.58478E+01 7.84655E+00 4.86147E-02-2.17743E-02 3.77892E-13-2.54161E-13
 -1       450 3.41699E+01 7.26225E+00-4.08769E-02 5.60935E-01 4.26104E-13-1.36002E-13
 -1       451 3.38761E+01 3.89816E+00-3.85178E-03 2.17583E-02 3.70967E-13-2.64511E-14
 -1       452 3.14046E+01 1.78867E-02 4.27338E-02-1.87205E+00 1.50013E-13-8.45296E-14
 -1       453 2.43235E+01-4.46152E+00-2.56879E-02-5.06250E+00-1.62717E-13-3.06616E-13
 -1       454 1.61216E+01-5.53905E+00-2.74425E-02-6.97698E+00-2.36353E-13-5.83894E-13
 -1       455 8.35415E+00-5.28742E+00-3.73778E-02-6.41659E+00-2.74655E-13-6.24584E-13
 -1       456 3.02723E+00-4.24833E+00-1.84806E-02-3.64755E+00-1.62259E-13-5.36585E-13
 -1       457 1.22828E+00-4.45121E+00-7.46654E-02 1.13197E+00-1.21920E-13-6.27609E-13
 -1       458 4.50385E+00-4.96475E+00-7.11114E-02 4.89148E+00-9.46881E-14-4.30406E-13
 -1       459 1.25123E+01-5.47921E+00-2.33042E-03 7.05921E+00-1.08316E-13-4.60271E-13
 -1       460 1.97306E+01-5.35065E+00-3.90282E-02 6.40670E+00-2.55213E-13-7.76393E-14
 -1       461 2.81460E+01-2.20502E+00 3.22697E-02 3.88649E+00-3.75935E-13-9.25093E-14
 -1       462 3.26882E+01 1.37467E+00 4.46075E-02 1.66696E+00-5.15938E-13 1.72251E-13
 -1       463 3.53762E+01 5.84294E+00 8.51611E-02-7.26549E-02-6.12732E-13 5.71876E-13
 -1       464 3.60917E+01 7.82907E+00 8.77206E-02-1.27621E-01-6.87589E-13 2.91930E-13
 -1       465 3.49815E+01 7.01476E+00 1.32390E-02 4.14057E-01-3.78739E-13 2.32890E-13
 -1       466 3.41186E+01 4.09370E+00 3.17408E-02 5.17382E-02-5.82728E-14 2.49328E-13
 -1       467 3.06313E+01-6.65526E-01 7.43419E-03-2.47249E+00-1.40200E-13 2.45109E-13
 -1       468 2.55144E+01-3.64462E+00 1.40128E-02-4.83435E+00-5.81757E-14 4.32432E-13
 -1       469 1.70151E+01-5.50233E+00-3.63594E-02-6.85333E+00 2.17326E-14 3.45002E-13
 -1       470 8.86852E+00-5.41761E+00-5.75101E-02-6.49700E+00 1.14297E-13 3.42337E-13
 -1       471 3.51557E+00-4.41400E+00-2.58345E-02-4.06897E+00 1.53891E-13 3.10182E-13
 -1       472 3.19673E+01 6.63324E-01 2.18033E-02 1.50001E+00-5.67203E-14-3.17815E-13
 -1       473 3.17605E+01 6.20055E+00-1.01907E-01-1.29841E+00 2.60583E-13-6.09096E-14
 -1       474 2.03664E+01 8.34436E-01 4.03791E-03 9.67540E-01 2.86980E-13 1.26541E-13
 -1       475 1.97459E+01 3.11696E+00-5.39445E-03-6.29554E-01-1.46073E-14-4.16411E-13
 -1       476 1.98400E+01 2.94039E+00-6.04445E-03-9.45142E-01-9.17950E-14-4.01705E-13
 -1       477 1.96794E+01 3.24204E+00-5.01917E-03 8.76664E-03 8.86853E-14-3.67104E-13
 -1       478 1.96976E+01 3.20833E+00-5.09543E-03 3.27971E-01 1.53202E-13-3.41844E-13
 -1       479 1.97505E+01 3.10967E+00-5.40903E-03 6.41447E-01 2.21076E-13-3.09517E-13
 -1       480 1.98470E+01 2.92907E+00-5.94991E-03 9.55847E-01 2.93435E-13-2.46055E-13
 -1       481 1.99989E+01 2.64077E+00-6.52686E-03 1.25090E+00 3.35610E-13-1.84436E-13
 -1       482 2.02353E+01 2.19168E+00-5.69972E-03 1.49646E+00 3.62980E-13-7.84670E-14
 -1       483 2.01083E+01 4.58385E-01 5.10514E-03 4.56261E-01 2.27465E-13 6.75763E-14
 -1       484 2.03381E+01 9.77314E-01 2.75088E-03-9.31917E-01-2.17105E-13-1.88336E-13
 -1       485 2.99641E+01 4.57911E+00-1.63876E-01 1.86869E+00 2.43805E-13 1.22152E-13
 -1       486 2.01717E+01 5.54349E-01 2.36771E-03-4.57217E-01-1.48807E-13-2.03589E-13
 -1       487 2.00308E+01 3.15421E-01 1.03115E-03-1.48792E-01-1.40739E-13-2.01584E-13
 -1       488 1.99380E+01 1.79022E-01 4.78537E-04 4.34085E-02-1.21483E-13-1.85472E-13
 -1       489 1.98902E+01 1.00238E-01 2.12183E-04 1.61091E-01-1.06064E-13-1.91981E-13
 -1       490 1.98780E+01 5.72715E-02 1.02059E-04 2.33437E-01-9.85946E-14-1.79940E-13
 -1       491 1.98924E+01 3.81566E-02 6.40216E-05 2.80555E-01-9.23575E-14-2.04712E-13
 -1       492 1.99271E+01 3.58966E-02 6.58616E-05 3.16793E-01-9.38441E-14-1.34637E-13
 -1       493 1.99780E+01 4.60987E-02 9.56700E-05 3.52673E-01-4.80170E-14-2.89478E-14
 -1       494 2.00431E+01 6.57446E-02 1.46420E-04 3.96060E-01 1.54036E-14-1.49245E-14
 -1       495 2.01220E+01 9.24157E-02 2.12167E-04 4.52814E-01 2.50785E-14 1.19902E-14
 -1       496 2.02156E+01 1.23635E-01 2.86023E-04 5.27041E-01 5.12495E-14-6.14378E-14
 -1       497 2.03259E+01 1.56137E-01 3.57986E-04 6.20956E-01-1.07414E-13-1.07036E-13
 -1       498 2.04555E+01 1.84923E-01 4.12108E-04 7.34312E-01-1.72295E-13-4.56718E-14
 -1       499 2.06087E+01 2.02005E-01 4.22707E-04 8.63302E-01-1.44968E-13-4.42774E-14
 -1       500 2.07913E+01 1.94846E-01 3.50528E-04 9.98811E-01-9.56086E-14-7.14666E-14
 -1       501 2.10128E+01 1.44815E-01 1.38815E-04 1.12389E+00-1.10432E-13 3.37623E-14
 -1       502 2.12881E+01 2.67593E-02-2.75443E-04 1.21044E+00-2.13983E-14 7.36144E-14
 -1       503 2.16389E+01-1.87660E-01-9.50915E-04 1.21556E+00 4.74281E-14 1.86730E-13
 -1       504 2.20914E+01-5.17542E-01-1.78873E-03 1.07896E+00 2.07402E-13 9.31122E-14
 -1       505 2.26642E+01-9.43199E-01-2.53768E-03 7.25952E-01 2.47827E-13 3.85719E-14
 -1       506 2.33323E+01-1.35254E+00-2.64007E-03 9.24485E-02 1.69773E-13 6.63303E-14
 -1       507 2.39832E+01-1.50395E+00-4.66472E-03-8.10936E-01 7.09479E-14 1.24433E-14
 -1       508 2.43917E+01-1.03739E+00-6.41806E-03-1.77741E+00-1.09729E-13 2.88926E-14
 -1       509 2.43226E+01 2.50845E-01-1.61830E-02-2.28881E+00-1.78513E-13-3.47427E-15
 -1       510 2.38772E+01 1.89652E+00-2.58213E-02-1.75072E+00-1.82320E-13-2.11363E-13
 -1       511 2.35729E+01 2.78075E+00-3.19917E-02-1.68544E-01-1.81482E-13-4.64505E-13
 -1       512 2.38033E+01 2.13845E+00-2.48243E-02 1.53048E+00-2.84137E-13-4.65110E-13
 -1       513 2.42592E+01 5.41480E-01-1.84543E-02 2.27971E+00-1.41576E-13-3.45784E-13
 -1       514 2.44138E+01-8.59885E-01-7.95099E-03 1.91815E+00-6.19762E-14-3.21940E-13
 -1       515 2.40806E+01-1.47092E+00-3.89733E-03 9.89205E-01-5.32315E-14-4.60770E-13
 -1       516 2.34561E+01-1.40885E+00-3.87117E-03 5.13179E-02 7.15902E-14-4.69118E-13
 -1       517 2.27787E+01-1.02036E+00-3.16074E-03-6.34006E-01-9.90292E-14-7.74410E-14
 -1       518 2.21867E+01-5.84581E-01-2.03736E-03-1.03061E+00 7.88362E-14 3.07364E-13
 -1       519 2.17155E+01-2.32986E-01-1.05864E-03-1.19710E+00 1.44235E-13 2.77612E-14
 -1       520 2.13513E+01 3.16657E-03-3.48765E-04-1.20819E+00 1.64032E-13-4.48256E-13
 -1       521 2.10681E+01 1.38974E-01 1.13492E-04-1.12685E+00 1.77247E-13-3.10786E-13
 -1       522 2.08433E+01 2.02543E-01 3.61277E-04-9.98545E-01 3.21927E-14-3.29050E-13
 -1       523 2.06613E+01 2.20231E-01 4.64450E-04-8.53231E-01 1.31218E-14 9.05719E-14
 -1       524 2.05119E+01 2.12137E-01 4.81203E-04-7.08968E-01-5.67227E-14 1.16273E-13
 -1       525 2.03889E+01 1.92125E-01 4.56152E-04-5.75364E-01 3.68521E-13 1.90124E-13
 -1       526 2.02876E+01 1.69153E-01 4.11864E-04-4.56289E-01 4.52533E-13 1.48168E-13
 -1       527 2.02046E+01 1.48646E-01 3.63896E-04-3.52083E-01 1.77454E-13 1.53957E-13
 -1       528 2.01369E+01 1.33571E-01 3.64780E-04-2.60819E-01-2.54680E-13 6.88352E-14
 -1       529 1.00593E+01-3.06740E+00 1.43774E-01 5.99209E+00-3.59823E-13-7.89389E-13
 -1       530 1.98199E+01 1.40563E-01 1.04372E-03-4.18182E-02 1.42813E-13-2.12097E-15
 -1       531 1.97738E+01 7.64461E-02 4.46769E-04-1.52893E-01 1.09876E-13-2.04231E-14
 -1       532 1.97717E+01 4.15503E-02 2.03999E-04-2.18667E-01 3.80225E-14-5.78212E-14
 -1       533 1.98010E+01 2.55455E-02 1.11315E-04-2.59438E-01 6.42084E-14-2.53525E-14
 -1       534 1.98531E+01 2.26262E-02 9.52775E-05-2.89160E-01 5.17587E-14 5.88852E-14
 -1       535 1.99232E+01 2.92479E-02 1.27847E-04-3.17835E-01 3.17228E-14 2.89056E-14
 -1       536 2.00091E+01 4.30333E-02 1.94676E-04-3.52832E-01 9.42673E-14 5.05170E-14
 -1       537 2.01111E+01 6.21235E-02 2.84788E-04-3.99600E-01 7.27770E-14 2.20199E-14
 -1       538 2.02307E+01 8.46651E-02 3.86361E-04-4.61925E-01 6.07002E-14 8.49466E-14
 -1       539 2.03707E+01 1.08264E-01 4.83461E-04-5.41808E-01 4.41601E-14 1.09632E-13
 -1       540 2.05345E+01 1.29294E-01 5.52206E-04-6.38901E-01-2.46084E-14 4.44986E-15
 -1       541 2.07261E+01 1.41983E-01 5.56337E-04-7.49421E-01 2.61652E-14-4.96985E-14
 -1       542 2.09499E+01 1.37290E-01 4.43613E-04-8.64410E-01 1.28811E-13 5.80726E-14
 -1       543 2.12110E+01 1.01829E-01 1.45448E-04-9.67286E-01 5.61121E-15 6.25082E-14
 -1       544 2.15153E+01 1.76441E-02-4.17906E-04-1.03086E+00-1.38107E-13 1.02158E-13
 -1       545 2.18697E+01-1.35214E-01-1.29013E-03-1.01462E+00-1.97791E-14 1.05677E-13
 -1       546 2.22790E+01-3.69706E-01-2.42522E-03-8.64428E-01 4.71325E-14 3.87408E-14
 -1       547 2.27368E+01-6.70994E-01-3.50566E-03-5.19833E-01 3.14394E-14 1.62545E-13
 -1       548 2.32059E+01-9.62801E-01-4.24811E-03 6.10856E-02-1.15166E-13 1.56385E-13
 -1       549 2.35925E+01-1.07646E+00-3.65613E-03 8.45618E-01-2.26243E-13-6.28934E-14
 -1       550 2.37529E+01-7.84448E-01-1.48585E-03 1.64348E+00-1.71854E-13 1.10096E-13
 -1       551 2.35506E+01 5.93268E-02-5.08430E-03 2.07124E+00-1.90108E-14-5.47084E-14
 -1       552 2.30965E+01 1.18449E+00-8.62395E-03 1.69007E+00 9.02238E-14-1.42125E-13
 -1       553 2.27536E+01 1.92811E+00-8.75160E-03 4.53249E-01 5.39417E-14 6.15701E-14
 -1       554 2.28480E+01 1.72060E+00-1.22205E-02-1.03733E+00 1.47734E-13-9.43811E-14
 -1       555 2.32949E+01 7.23295E-01-7.04561E-03-1.96204E+00 2.43085E-13-1.18546E-13
 -1       556 2.36763E+01-3.47975E-01-2.74884E-03-1.97060E+00-1.01379E-14-1.49408E-13
 -1       557 2.37237E+01-9.66136E-01-2.27165E-03-1.33415E+00 5.81924E-14 1.68665E-13
 -1       558 2.34535E+01-1.06677E+00-3.61440E-03-5.04963E-01 2.20099E-13 2.63648E-13
 -1       559 2.30171E+01-8.52480E-01-4.02647E-03 2.06935E-01 1.85752E-13 1.99838E-13
 -1       560 2.25455E+01-5.40652E-01-3.33238E-03 6.86767E-01-1.59764E-14 1.75349E-13
 -1       561 2.21071E+01-2.60404E-01-2.04565E-03 9.41814E-01 3.01709E-14 1.20124E-13
 -1       562 2.17234E+01-5.80763E-02-8.95086E-04 1.02601E+00-1.06279E-14 3.36722E-13
 -1       563 2.13945E+01 6.63350E-02-8.01065E-05 9.98638E-01-1.11421E-13 4.18490E-13
 -1       564 2.11147E+01 1.30569E-01 4.09862E-04 9.08162E-01-3.32009E-13 3.09805E-14
 -1       565 2.08776E+01 1.54635E-01 6.52032E-04 7.88861E-01-2.32809E-13 2.55452E-13
 -1       566 2.06783E+01 1.54954E-01 7.31250E-04 6.62546E-01-6.36999E-15 2.41313E-14
 -1       567 2.05123E+01 1.43306E-01 7.16291E-04 5.41595E-01 8.99614E-14-2.65821E-14
 -1       568 2.03757E+01 1.27573E-01 6.56274E-04 4.31776E-01 1.32495E-13 3.73137E-13
 -1       569 2.02649E+01 1.12773E-01 6.17690E-04 3.34570E-01 1.81353E-13 6.28184E-13
 -1       570 2.01762E+01 1.01928E-01 6.83419E-04 2.49034E-01 1.78976E-13 6.36146E-13
 -1       571 2.01051E+01 9.46356E-02 6.05473E-04 1.72383E-01 1.12475E-13 4.13012E-13
 -1       572 1.99485E+01 3.44308E-01-1.00841E-04 2.11928E-01 5.02825E-15-2.40316E-13
 -1       573 1.99086E+01 4.03350E-01-1.73447E-04 1.59829E-01-1.52032E-13 3.51428E-13
 -1       574 2.00487E+01 1.91697E-01 2.71837E-05 2.24670E-01-1.79056E-13-2.24951E-13
 -1       575 1.99974E+01 2.71378E-01-2.61201E-05 2.34512E-01-4.73763E-13-5.13016E-13
 -1       576 1.98827E+01 4.41618E-01-2.29233E-04 8.57287E-02-1.33605E-13-7.51001E-14
 -1       577 1.98737E+01 4.54964E-01-2.48677E-04-9.49089E-05 1.67606E-14 1.27714E-14
 -1       578 1.98826E+01 4.41882E-01-2.28961E-04-8.59856E-02 1.29363E-13-7.53575E-14
 -1       579 1.99079E+01 4.04647E-01-1.71666E-04-1.59168E-01 2.24651E-13-5.49150E-13
 -1       580 1.99477E+01 3.45825E-01-1.15302E-04-2.11859E-01 2.25846E-13-2.21930E-13
 -1       581 1.99965E+01 2.72236E-01-6.94679E-05-2.35073E-01 1.12117E-13 2.64269E-13
 -1       582 2.00487E+01 1.92114E-01 1.74523E-04-2.24611E-01-1.32847E-13-7.64839E-14
 -1       583 4.83274E+00-1.55155E+00 1.64630E-01-2.03917E+00 2.16702E-14 3.98986E-13
 -1       584 1.99265E+01 2.53945E-01 2.47913E-03 1.45146E-01 1.82343E-13 3.87034E-14
 -1       585 1.73746E+01-5.12277E+00 7.97525E-02 6.61729E+00-3.18232E-13-4.34881E-13
 -1       586 2.48334E+01-5.23120E+00 1.32743E-02 3.95379E+00-2.27214E-13-2.70169E-13
 -1       587 2.03869E+01 1.75752E+00-5.21987E-03-1.51807E+00-2.74490E-13-2.32304E-13
 -1       588 9.39357E+00-3.03860E+00 1.53712E-01-5.85029E+00-5.14241E-14 4.84349E-13
 -1       589 3.09174E+01 2.41745E+00-1.37325E-01-1.55478E+00-4.98504E-13 4.20802E-13
 -1       590 1.10671E+01-3.51775E+00 1.33087E-01 6.34795E+00 1.13680E-13-1.89300E-13
 -1       591 1.96948E+01 3.21282E+00-5.11158E-03-3.10509E-01 4.68667E-14-3.91996E-13
 -1       592 3.02687E+01 7.29609E+00-1.71374E-01 7.93822E-02 3.87759E-13 9.72226E-15
 -1       593 2.18289E+01-5.58587E+00 2.73365E-02-5.41910E+00-4.88290E-13-2.08167E-14
 -1       594 3.05496E+01 1.66100E+00-1.26081E-01-1.45307E+00-1.24893E-13-2.68674E-13
 -1       595 3.05698E+01 1.39694E+00-1.07920E-01 1.37131E+00 1.03070E-13 2.27929E-13
 -1       596 2.96177E+01-1.90044E+00-6.93134E-02 5.12679E-01-2.74141E-13 4.49071E-13
 -1       597 2.81614E+01-3.64025E+00-3.63140E-02-1.37943E+00-3.02966E-13 1.55480E-13
 -1       598 1.49375E+01-4.68203E+00 1.05207E-01-6.81836E+00-4.42243E-13-4.76525E-13
 -1       599 8.61150E+00-2.86923E+00 1.52774E-01-5.58312E+00-1.87468E-13-5.08080E-13
 -1       600 5.08582E+00-1.02245E+00 1.84214E-01-1.13059E+00 1.10007E-14-4.32931E-13
 -1       601 5.25432E+00-2.16141E+00 1.47799E-01 3.38087E+00 1.08039E-14-5.44925E-13
 -1       602 1.90083E+01-5.30878E+00 8.11505E-02 6.25151E+00 2.01263E-13 1.02456E-13
 -1       603 1.55581E+01-4.86515E+00 9.43052E-02-6.80311E+00-5.93137E-14 6.23054E-13
 -1       604 2.55035E+01-5.00007E+00-1.36952E-03 3.68598E+00-8.60423E-15 1.19481E-13
 -1       605 3.10090E+01 6.32888E+00-1.42870E-01-1.26136E+00-6.13024E-13 3.03431E-13
 -1       606 2.98659E+01 7.10895E+00-1.65418E-01 3.48472E-01-5.52364E-13 1.15073E-13
 -1       607 3.04416E+01 4.67131E+00-1.59407E-01 1.78649E+00-2.83981E-13 5.60732E-14
 -1       608 3.01344E+01 2.19241E-01-1.09149E-01 1.14732E+00-7.10404E-14 5.13756E-13
 -1       609 2.80681E+01-3.64808E+00-4.51330E-02-1.56924E+00-2.02886E-13 3.63591E-13
 -1       610 2.33171E+01-5.48746E+00 3.05540E-02-4.81982E+00-1.06727E-13 5.40696E-13
 -1       611 5.02996E+00-1.71224E+00 1.65931E-01 2.60071E+00-3.54362E-13-3.58658E-13
 -1       612 2.05749E+01 1.30614E+00-9.89700E-04 1.54528E+00 3.50592E-13 1.98824E-13
 -1       613 2.88644E+01-2.71685E+00-6.17129E-02 7.83311E-01-2.69113E-13-2.72490E-13
 -1       614 1.99873E+01 2.65953E+00-6.43178E-03-1.23875E+00-1.58889E-13-3.78743E-13
 -1       615 2.77990E+01 5.55768E+00-1.57973E-01 1.36884E+00 2.66370E-13-1.54876E-13
 -1       616 2.00982E+01 1.25156E-01 3.96359E-04-2.03590E-01-8.25533E-14 1.78931E-13
 -1       617 2.01697E+01 2.28264E+00-5.84761E-03-1.43159E+00-2.14800E-13-3.45915E-13
 -1       618 1.99717E+01 2.47048E+00-1.58438E-03 3.88709E-01 1.53957E-13-2.76276E-13
 -1       619 1.99400E+01 2.54724E+00-1.51593E-03 1.33764E-01 1.09737E-13-3.14425E-13
 -1       620 2.01296E+01 2.05972E+00-1.58142E-03 8.41022E-01 2.88896E-13-1.66633E-13
 -1       621 2.02445E+01 1.68511E+00-2.23308E-03 9.83238E-01 3.17624E-13-1.20992E-13
 -1       622 2.03211E+01 1.04350E+00 2.88017E-03 8.22887E-01 2.74552E-13-2.91442E-14
 -1       623 2.20118E+01-4.93647E+00 4.16770E-02 4.55716E+00-1.24591E-13-2.90714E-13
 -1       624 2.02468E+01 6.91454E-01 3.13324E-04-3.76720E-01-1.53543E-13-2.36418E-13
 -1       625 2.01791E+01 4.16000E-01 2.07712E-04-1.11655E-01-1.39008E-13-2.28598E-13
 -1       626 2.01187E+01 2.47290E-01 8.50200E-05 6.45130E-02-1.07578E-13-2.13841E-13
 -1       627 2.00750E+01 1.47084E-01 2.74135E-05 1.79963E-01-9.61784E-14-1.92980E-13
 -1       628 2.00486E+01 9.32538E-02 1.45392E-05 2.56491E-01-8.42165E-14-1.28369E-13
 -1       629 2.00370E+01 7.22712E-02 1.30700E-05 3.11459E-01-4.04961E-14-6.33013E-14
 -1       630 2.00373E+01 7.54018E-02 2.01595E-05 3.58230E-01 2.08841E-14-2.98160E-14
 -1       631 2.00473E+01 9.66870E-02 3.42027E-05 4.07021E-01-4.75633E-14-4.39030E-16
 -1       632 2.00651E+01 1.31671E-01 5.39087E-05 4.65617E-01-1.67709E-15-3.14313E-14
 -1       633 2.00895E+01 1.76416E-01 7.78975E-05 5.39828E-01-4.79300E-14-1.35690E-13
 -1       634 2.01201E+01 2.26527E-01 1.04266E-04 6.33654E-01-4.09694E-14-1.11957E-13
 -1       635 2.01574E+01 2.76016E-01 1.30234E-04 7.49173E-01-3.92938E-14-8.97315E-14
 -1       636 2.02039E+01 3.15827E-01 1.50824E-04 8.86110E-01-2.11768E-13-2.03825E-14
 -1       637 2.02648E+01 3.31952E-01 1.57288E-04 1.04106E+00-1.22259E-13 6.61936E-14
 -1       638 2.03515E+01 3.03193E-01 1.34587E-04 1.20620E+00-2.04459E-14 1.07904E-13
 -1       639 2.04847E+01 1.99149E-01 5.09941E-05 1.36728E+00-3.27251E-14 1.45600E-13
 -1       640 2.07002E+01-1.98374E-02-1.10812E-04 1.50008E+00 5.08540E-14 1.43257E-13
 -1       641 2.10532E+01-3.96709E-01-3.96447E-04 1.56423E+00 8.38956E-14 1.60072E-13
 -1       642 2.16182E+01-9.57127E-01-4.74115E-04 1.49314E+00 1.86028E-13 1.12640E-13
 -1       643 2.24713E+01-1.66029E+00 1.97095E-05 1.17697E+00 2.92263E-13 2.05834E-13
 -1       644 2.36168E+01-2.28902E+00 1.90260E-03 4.89028E-01 1.24326E-13 2.65588E-13
 -1       645 2.48779E+01-2.33591E+00-7.98843E-03-6.84111E-01 3.15598E-14 3.16801E-13
 -1       646 2.57704E+01-1.19826E+00-4.24967E-02-1.97558E+00-3.46381E-13 1.52733E-13
 -1       647 2.59051E+01 1.41559E+00-6.22335E-02-2.50196E+00-3.01630E-13-5.06921E-14
 -1       648 2.53416E+01 4.08603E+00-1.14205E-01-1.38550E+00-2.96024E-13-2.12359E-13
 -1       649 2.54354E+01 4.24430E+00-9.36774E-02 9.39816E-01-2.96530E-13-3.42725E-13
 -1       650 2.57942E+01 1.94251E+00-7.23629E-02 2.42782E+00-9.00148E-14-1.96147E-13
 -1       651 2.58276E+01-8.18841E-01-3.28388E-02 2.16609E+00 1.66603E-14-2.75444E-13
 -1       652 2.50589E+01-2.26707E+00-6.36019E-03 8.81722E-01-9.03409E-14-3.14041E-14
 -1       653 2.38298E+01-2.36321E+00-2.44655E-03-3.17304E-01-9.53155E-14 4.01321E-14
 -1       654 2.26486E+01-1.77900E+00-9.74180E-04-1.08740E+00 1.57410E-13 1.34663E-13
 -1       655 2.17467E+01-1.06646E+00-8.41011E-05-1.45482E+00 1.70047E-13 1.87499E-13
 -1       656 2.11376E+01-4.73265E-01 1.52197E-04-1.55749E+00-1.60511E-13 1.71354E-13
 -1       657 2.07546E+01-6.25737E-02 1.91967E-04-1.50744E+00-9.78601E-14 1.78892E-13
 -1       658 2.05214E+01 1.84514E-01 2.60624E-04-1.37775E+00 3.33756E-14-2.49066E-13
 -1       659 2.03789E+01 3.10184E-01 2.70931E-04-1.21220E+00 1.31986E-13-5.06245E-13
 -1       660 2.02883E+01 3.55625E-01 2.53154E-04-1.03688E+00 1.08074E-13-3.26112E-13
 -1       661 2.02264E+01 3.53238E-01 2.25084E-04-8.66987E-01 1.30562E-13-2.75963E-13
 -1       662 2.01804E+01 3.26009E-01 1.91681E-04-7.10845E-01 2.87954E-13 8.54047E-14
 -1       663 2.01433E+01 2.89463E-01 1.65737E-04-5.72036E-01 3.77755E-13 1.32178E-14
 -1       664 2.01123E+01 2.52612E-01 1.12709E-04-4.51070E-01 7.02961E-14-7.69561E-14
 -1       665 2.00842E+01 2.22364E-01 1.13090E-04-3.46484E-01-8.18739E-14-2.98040E-13
 -1       666 9.86572E+00-1.38275E+00 1.39849E-01 4.44539E+00 2.16268E-13-1.75346E-13
 -1       667 2.33689E+01-5.03372E+00 1.33865E-02 3.81169E+00 1.84019E-13 1.57106E-13
 -1       668 2.00436E+01 2.15544E-01 1.85731E-04-5.73970E-02 1.09814E-13-2.64756E-15
 -1       669 1.99798E+01 5.52034E-02 3.57571E-05-3.00753E-01 5.90814E-16-5.69129E-14
 -1       670 1.99961E+01 5.53423E-02 4.04542E-05-3.43038E-01 4.78619E-14-1.82367E-14
 -1       671 2.00252E+01 7.08535E-02 5.84169E-05-3.86247E-01 6.87338E-14-1.15469E-15
 -1       672 2.00654E+01 9.78610E-02 8.67285E-05-4.38165E-01 6.51635E-14-4.60340E-15
 -1       673 2.01159E+01 1.33008E-01 1.22196E-04-5.04517E-01 5.61421E-14 4.81921E-14
 -1       674 2.01771E+01 1.72623E-01 1.60742E-04-5.89133E-01 3.13831E-14 6.55529E-14
 -1       675 2.02503E+01 2.11763E-01 1.96488E-04-6.93770E-01 6.75056E-14 5.08995E-14
 -1       676 2.03380E+01 2.42999E-01 2.20200E-04-8.17548E-01 3.60334E-14 1.12754E-14
 -1       677 2.04454E+01 2.54875E-01 2.17673E-04-9.55926E-01 3.81137E-14 4.84559E-14
 -1       678 2.05816E+01 2.30147E-01 1.67018E-04-1.09911E+00 6.24027E-14 1.33109E-13
 -1       679 2.07620E+01 1.44370E-01 3.30843E-05-1.22969E+00-6.87588E-14 7.40348E-14
 -1       680 2.10121E+01-3.36095E-02-2.56428E-04-1.31942E+00-1.01878E-13 4.37949E-15
 -1       681 2.13692E+01-3.35741E-01-7.17062E-04-1.32484E+00 2.74086E-14 1.60100E-14
 -1       682 2.18787E+01-7.77167E-01-1.35643E-03-1.18216E+00 6.19907E-14 3.39732E-14
 -1       683 2.25736E+01-1.31410E+00-1.87155E-03-8.07598E-01 1.24834E-15 1.18886E-13
 -1       684 2.34368E+01-1.78465E+00-2.65873E-03-1.15412E-01-1.58586E-13 1.53663E-13
 -1       685 2.43031E+01-1.83383E+00-2.09061E-03 9.07804E-01-2.70349E-13 9.74945E-14
 -1       686 2.47909E+01-9.65835E-01-2.80169E-02 1.96512E+00-7.18202E-14 5.13094E-14
 -1       687 2.47618E+01 8.53848E-01-3.14469E-02 2.35074E+00 2.88831E-14 7.54570E-14
 -1       688 2.43350E+01 2.85652E+00-4.95605E-02 1.48628E+00 4.33854E-14 1.36816E-13
 -1       689 2.41510E+01 3.43871E+00-5.06260E-02-4.32978E-01 1.87737E-13-1.18033E-13
 -1       690 2.45087E+01 2.11606E+00-3.50167E-02-2.00343E+00 2.21328E-13-8.44023E-14
 -1       691 2.48670E+01 1.49647E-03-2.43831E-02-2.29240E+00 1.02396E-13-4.83203E-14
 -1       692 2.46667E+01-1.46509E+00-6.70910E-03-1.51699E+00-9.50938E-14-2.07023E-13
 -1       693 2.39494E+01-1.88315E+00-9.55651E-04-4.36154E-01 9.72231E-14-3.14390E-13
 -1       694 2.30634E+01-1.61138E+00-1.04368E-03 4.45908E-01 1.57676E-13-1.76628E-13
 -1       695 2.22642E+01-1.08318E+00-1.55337E-03 9.94639E-01 1.09075E-13-6.66383E-14
 -1       696 2.16492E+01-5.73167E-01-9.52301E-04 1.25917E+00 6.20482E-14-3.01579E-13
 -1       697 2.12101E+01-1.86597E-01-4.29768E-04 1.32764E+00-1.22491E-13-2.81626E-13
 -1       698 2.09050E+01 6.35771E-02-1.00334E-04 1.27576E+00-1.57474E-13-1.97944E-13
 -1       699 2.06907E+01 2.02977E-01 8.58997E-05 1.15812E+00-1.34562E-13-1.83709E-13
 -1       700 2.05348E+01 2.64849E-01 1.80031E-04 1.01076E+00-3.64572E-13-1.10630E-13
 -1       701 2.04167E+01 2.78119E-01 2.16775E-04 8.56380E-01-1.13659E-13-8.05213E-14
 -1       702 2.03237E+01 2.64416E-01 2.18258E-04 7.08295E-01 6.72940E-14-1.05841E-13
 -1       703 2.02485E+01 2.38643E-01 1.94828E-04 5.73339E-01-1.53445E-13-1.59827E-13
 -1       704 2.01865E+01 2.10656E-01 1.86422E-04 4.53974E-01 7.39578E-14-1.32224E-13
 -1       705 2.01345E+01 1.86888E-01 2.83152E-04 3.50022E-01 6.33312E-14-1.45903E-13
 -1       706 2.00859E+01 1.88451E-01 2.16290E-04 2.85548E-01 1.42265E-13-3.25243E-13
 -1       707 1.97896E+01 4.89850E-01-9.06006E-05 5.58096E-02 2.26837E-13 5.05549E-14
 -1       708 2.00666E+01 2.05320E-01 1.15992E-04-2.83350E-01 3.57894E-14-2.16548E-13
 -1       709 1.98737E+01 4.08209E-01-4.38995E-05 2.43203E-01-1.10064E-13-2.19069E-13
 -1       710 1.97895E+01 4.90151E-01-8.11050E-05-5.56191E-02 3.44504E-14-1.26714E-13
 -1       711 1.98188E+01 4.61543E-01-7.80338E-05 1.59917E-01-1.55632E-13 1.39601E-13
 -1       712 2.74492E+01 5.54645E+00-1.37707E-01-1.33963E+00 2.07070E-13-2.62356E-13
 -1       713 1.98177E+01 4.63148E-01-6.41656E-05-1.58314E-01 9.64108E-14-1.39981E-13
 -1       714 1.98722E+01 4.10420E-01-6.88627E-05-2.42498E-01 3.75813E-13-3.35463E-13
 -1       715 1.99470E+01 3.37325E-01-7.40902E-05-2.94393E-01 3.87577E-13-1.86458E-13
 -1       716 2.01153E+01 3.70696E-01 5.45827E-04 1.25823E-01 1.99743E-13-4.47565E-14
 -1       717 9.69690E+00-5.50666E-01 1.45114E-01-3.47431E+00-2.46834E-14-3.09912E-13
 -1       718 2.02905E+01 1.43829E+00 1.21298E-03-9.86379E-01-2.08757E-13-2.58763E-13
 -1       719 7.85993E+00-1.90152E-03 1.48075E-01 1.10740E+00-5.74202E-14-4.39954E-13
 -1       720 1.99794E+01 7.57332E-02 4.87747E-05-2.49038E-01 4.36581E-14-7.42566E-14
 -1       721 1.99990E+01 1.24920E-01 9.13173E-05-1.74095E-01 1.12032E-13-1.06323E-14
 -1       722 2.02870E+01 9.91014E-01-1.13734E-03-6.50432E-01-1.70760E-13-2.51762E-13
 -1       723 9.69420E+00-8.58793E-01 1.31864E-01 3.84238E+00-5.59087E-13-5.27647E-13
 -1       724 1.64214E+01-3.30977E+00 9.77187E-02 5.70085E+00 2.72241E-13 2.64441E-14
 -1       725 1.54339E+01-3.31995E+00 9.70778E-02 5.93962E+00-2.32116E-13-3.76480E-13
 -1       726 2.02107E+01 6.26243E-01 1.08179E-03 4.05716E-01 2.32035E-13-5.18044E-14
 -1       727 1.46112E+01-2.97452E+00 1.04543E-01-5.80963E+00 3.74735E-14 4.26784E-13
 -1       728 2.00349E+01 2.31278E+00-1.64771E-03 6.29973E-01 2.22878E-13-2.14543E-13
 -1       729 2.78821E+01-1.39689E+00-7.49514E-02 1.29947E+00-5.13513E-14 1.15841E-13
 -1       730 2.81051E+01 1.69222E+00-1.14102E-01 2.40201E+00-1.91836E-13-1.21719E-13
 -1       731 2.78798E+01 1.12778E+00-1.12761E-01 2.25122E+00 4.37150E-14 1.36741E-13
 -1       732 1.37116E+01-2.77687E+00 1.13445E-01-5.76408E+00-3.22572E-13-3.21732E-13
 -1       733 2.00296E+01 2.32319E+00-1.61959E-03-6.22150E-01-3.12552E-14-3.42629E-13
 -1       734 2.78228E+01 2.61241E+00-1.51867E-01-2.31982E+00-1.89470E-13-2.45397E-13
 -1       735 2.51247E+01-4.68771E+00 1.84933E-03-2.55075E+00-3.00275E-13-1.59925E-13
 -1       736 7.57297E+00-1.56514E-02 1.59018E-01 5.14969E-01-6.14803E-13-3.39742E-13
 -1       737 1.94035E+01-4.49794E+00 5.93307E-02-5.45713E+00-4.05141E-13-1.08316E-13
 -1       738 2.57328E+01-4.67380E+00-2.33689E-04-2.11602E+00-4.16854E-14 1.25773E-13
 -1       739 2.73070E+01-3.82376E+00-3.63858E-02 8.93448E-01-4.03284E-14 3.87110E-13
 -1       740 2.86434E+01-5.36560E-01-9.15396E-02-1.61664E+00-3.44742E-13 5.34964E-13
 -1       741 9.77822E+00-7.03617E-01 1.44996E-01-3.65793E+00-1.34764E-13 2.87534E-13
 -1       742 2.76194E+01 4.93488E+00-1.56797E-01 1.73875E+00-2.51986E-13-6.78312E-14
 -1       743 2.78722E+01-2.28392E+00-6.82789E-02 9.10290E-01 5.07042E-14 2.13447E-13
 -1       744 2.05027E+01-4.86331E+00 5.11523E-02-5.23751E+00 1.51386E-13 5.39502E-13
 -1       745 2.65009E+01-4.04565E+00-1.89453E-02 9.30900E-01-2.27205E-14 1.16849E-13
 -1       746 2.82683E+01-1.01727E+00-7.57482E-02-1.50841E+00-3.81986E-14-1.01426E-13
 -1       747 2.01301E+01 2.06735E+00-8.24195E-04-8.34545E-01-1.27267E-13-3.16273E-13
 -1       748 1.99390E+01 2.54897E+00-1.51585E-03-1.24709E-01 6.13036E-14-3.60624E-13
 -1       749 2.65868E+01 2.73242E+00-9.55777E-02 2.37006E+00-2.36512E-14-6.55691E-14
 -1       750 1.99477E+01 3.35491E-01-1.05172E-04 2.94382E-01-1.43164E-13-1.04922E-13
 -1       751 2.06218E+01-4.03960E+00 2.84582E-02 4.40841E+00 2.61857E-13 1.00787E-15
 -1       752 2.00184E+01 2.63578E-01 9.80677E-07 3.04206E-01 1.78267E-14-8.73180E-13
 -1       753 2.63738E+01-3.31695E+00-6.25561E-03 1.27347E-01-9.72117E-14 6.12357E-14
 -1       754 2.00071E+01 2.83719E-01 7.05336E-06-3.30569E-01-5.35726E-14-1.09231E-13
 -1       755 1.99688E+01 2.47631E+00-1.56704E-03-3.79066E-01 1.95560E-14-3.48653E-13
 -1       756 2.79081E+01 2.35929E+00-1.29616E-01-2.42348E+00-4.36769E-13 3.84994E-13
 -1       757 2.02725E+01 1.32485E+00-5.03687E-04 6.17149E-01 2.47081E-13-1.18625E-13
 -1       758 2.02710E+01 4.74739E-01-7.75910E-05-5.75605E-02-8.13882E-14-1.67095E-13
 -1       759 2.02313E+01 2.93684E-01 8.88360E-06 9.03491E-02-9.54020E-14-1.10353E-13
 -1       760 2.01891E+01 1.85419E-01-2.83043E-06 1.91780E-01-8.02999E-14-1.16106E-13
 -1       761 2.01494E+01 1.30257E-01-1.88408E-06 2.63633E-01-1.14310E-14-1.28323E-13
 -1       762 2.01132E+01 1.14466E-01 2.41809E-07 3.19860E-01 3.97384E-15-1.01945E-13
 -1       763 2.00800E+01 1.28394E-01 3.69368E-06 3.71750E-01 1.61654E-14-6.28399E-14
 -1       764 2.00483E+01 1.64955E-01 8.34646E-06 4.28220E-01-7.95203E-14-4.69643E-14
 -1       765 2.00159E+01 2.18424E-01 1.44543E-05 4.96210E-01-2.78140E-14-5.25718E-14
 -1       766 1.99810E+01 2.83305E-01 2.19372E-05 5.81008E-01-6.29668E-14-1.27953E-13
 -1       767 1.99419E+01 3.53126E-01 3.15854E-05 6.86459E-01-7.51203E-14-1.25820E-13
 -1       768 1.98983E+01 4.18986E-01 4.36526E-05 8.15072E-01-9.71762E-14-9.80677E-14
 -1       769 1.98521E+01 4.67710E-01 5.85961E-05 9.68099E-01-1.28996E-13 6.57812E-14
 -1       770 1.98103E+01 4.79512E-01 7.47088E-05 1.14557E+00-5.76380E-14 9.06165E-14
 -1       771 1.97887E+01 4.25262E-01 8.62599E-05 1.34617E+00-6.33140E-16 9.68376E-14
 -1       772 1.98178E+01 2.63766E-01 5.42509E-05 1.56639E+00-4.78354E-14 8.81597E-14
 -1       773 1.99525E+01-5.91298E-02 5.40218E-05 1.79685E+00 9.91254E-14 1.31448E-13
 -1       774 2.02838E+01-6.05008E-01 1.35949E-04 2.01191E+00 1.89635E-13 1.75148E-13
 -1       775 2.09426E+01-1.41603E+00 1.31578E-03 2.14663E+00 2.49796E-13 1.85113E-13
 -1       776 2.21499E+01-2.46366E+00-6.90788E-04 2.00397E+00 2.76945E-13 1.27722E-13
 -1       777 2.38471E+01-3.39031E+00-1.89071E-02 1.41506E+00 2.03766E-13 1.83632E-13
 -1       778 2.72961E+01-5.74824E-01-6.23735E-02-1.99145E+00-3.97073E-13 4.28314E-13
 -1       779 2.62810E+01-2.92831E+00-4.29650E-02 4.28618E-01 1.21265E-13-5.35331E-14
 -1       780 2.43458E+01-3.45909E+00 7.25113E-03-1.09620E+00 3.88680E-14-6.87315E-14
 -1       781 2.24612E+01-2.61354E+00 2.90248E-03-1.89143E+00 1.22895E-13 8.76430E-14
 -1       782 2.12039E+01-1.58399E+00 1.82595E-03-2.09277E+00 1.63657E-13-6.62163E-14
 -1       783 2.04564E+01-7.31597E-01 1.30739E-04-2.00949E+00-4.99355E-14-1.08112E-13
 -1       784 2.00673E+01-1.40900E-01-4.39350E-04-1.81355E+00-1.46586E-13-1.10508E-13
 -1       785 1.98938E+01 2.20520E-01-3.88455E-04-1.58754E+00-2.28894E-13-9.21305E-14
 -1       786 1.98394E+01 4.12597E-01-2.72326E-04-1.36294E+00-1.14046E-13 2.66950E-13
 -1       787 1.98443E+01 4.90857E-01-1.93247E-04-1.15236E+00 8.75698E-14-7.43544E-14
 -1       788 1.98737E+01 4.98934E-01-1.32581E-04-9.60809E-01 2.15619E-13-2.91774E-13
 -1       789 1.99096E+01 4.67804E-01-1.02478E-04-7.90123E-01 2.04351E-13-2.96174E-13
 -1       790 1.99429E+01 4.19187E-01-6.96864E-05-6.40967E-01 2.30263E-13-3.81666E-13
 -1       791 1.99720E+01 3.66466E-01 1.14201E-04-5.12363E-01 1.57387E-13-4.67696E-13
 -1       792 1.99960E+01 3.20058E-01-7.38197E-05-4.15745E-01 1.65353E-13-2.90752E-13
 -1       793 2.00852E+01 9.37881E-02 7.32488E-06-3.19885E-01 3.53831E-14-9.71628E-14
 -1       794 2.00475E+01 1.74799E-01 2.74751E-05-4.87794E-01 1.01513E-14 2.16773E-14
 -1       795 2.00414E+01 2.28654E-01 3.96911E-05-5.68304E-01 4.94399E-14-2.18920E-14
 -1       796 2.00368E+01 2.86728E-01 5.36917E-05-6.68686E-01 5.15078E-14-4.93806E-14
 -1       797 2.00344E+01 3.41046E-01 6.83258E-05-7.90875E-01 6.78909E-14-5.43445E-14
 -1       798 2.00370E+01 3.79813E-01 8.31335E-05-9.34813E-01 9.34182E-15-1.63410E-15
 -1       799 2.00519E+01 3.85347E-01 9.64709E-05-1.09797E+00-5.94681E-14-2.20666E-15
 -1       800 2.00944E+01 3.31787E-01 1.03364E-04-1.27447E+00-6.29539E-14 1.27616E-13
 -1       801 2.01923E+01 1.83307E-01 7.78309E-05-1.45330E+00-8.05535E-14 1.18038E-13
 -1       802 2.03927E+01-1.05177E-01-1.26663E-04-1.61435E+00-7.69417E-15 3.31881E-14
 -1       803 2.07680E+01-5.80002E-01-2.84307E-04-1.72075E+00-2.35501E-14 5.04114E-14
 -1       804 2.14178E+01-1.26608E+00-3.85962E-04-1.69781E+00-6.26208E-14 1.39743E-13
 -1       805 2.24400E+01-2.08624E+00 3.00853E-03-1.41391E+00-1.14661E-13 2.70453E-13
 -1       806 2.38327E+01-2.75969E+00 1.49379E-03-6.90689E-01-1.24274E-13 9.04320E-14
 -1       807 2.58358E+01 4.81973E+00-1.25209E-01 7.49620E-01 2.89845E-13-1.87114E-13
 -1       808 2.62846E+01 1.08109E+00-1.03981E-01-2.53816E+00-7.91034E-15-5.21319E-14
 -1       809 2.60051E+01-1.73439E+00-3.66407E-02-1.57039E+00 8.24028E-14-1.44971E-14
 -1       810 2.47526E+01-2.76632E+00-7.66970E-03-1.22996E-01 1.03775E-13-8.25411E-14
 -1       811 2.32791E+01-2.50442E+00-5.34018E-03 9.45687E-01 1.69052E-13-2.12806E-13
 -1       812 2.20460E+01-1.71880E+00-3.73725E-03 1.49400E+00 1.65368E-13-3.20127E-13
 -1       813 2.11976E+01-9.52398E-01-1.35925E-03 1.67383E+00 1.45134E-13-2.13105E-13
 -1       814 2.06660E+01-3.57342E-01-4.40758E-04 1.64947E+00 1.40096E-13-5.45383E-13
 -1       815 2.03640E+01 3.54345E-02-9.61246E-06 1.52349E+00-1.38457E-13-5.92996E-13
 -1       816 2.02028E+01 2.63547E-01 1.35060E-04 1.35405E+00-9.48661E-14-6.08725E-13
 -1       817 2.01223E+01 3.73966E-01 1.81800E-04 1.17103E+00-4.43180E-13-5.91700E-13
 -1       818 2.00846E+01 4.07957E-01 1.92328E-04 9.90996E-01-2.29550E-13-5.91731E-13
 -1       819 2.00676E+01 3.96997E-01 1.84230E-04 8.23111E-01 8.46544E-14-5.77700E-13
 -1       820 2.00592E+01 3.63346E-01 1.56075E-04 6.71948E-01-1.16367E-13-5.20175E-13
 -1       821 2.00537E+01 3.21760E-01 1.36177E-04 5.39285E-01-1.17679E-14-5.36453E-13
 -1       822 2.00470E+01 2.82239E-01 4.95786E-05 4.24108E-01 6.81590E-14-6.58476E-13
 -1       823 2.00296E+01 2.71908E-01-1.39934E-04 3.61232E-01 1.20024E-13-7.19915E-13
 -1       824 1.05046E+01 5.90955E-01 8.56161E-02-9.20387E-01-1.52151E-13-4.78208E-13
 -1       825 2.01468E+01 1.92151E+00-3.28926E-04 1.93497E-01 1.05481E-13-2.55475E-13
 -1       826 1.96756E+01 5.53648E-01-3.74983E-05 5.02028E-04 1.29854E-13-2.25315E-13
 -1       827 1.98544E+01 4.19977E-01-4.61973E-05-3.40839E-01 2.61103E-13 3.30798E-14
 -1       828 1.96964E+01 5.38490E-01 1.52337E-05-1.33389E-01 2.24655E-13-1.50689E-13
 -1       829 2.02322E+01 4.47124E-01-9.30834E-06 7.76532E-02 1.29320E-13-2.95495E-14
 -1       830 1.06436E+01 3.69936E-01 8.05259E-02 1.80715E+00-5.16242E-13-3.00201E-13
 -1       831 2.02195E+01 1.78511E+00 1.10594E-03-9.46178E-01-1.79588E-13-3.31250E-13
 -1       832 1.09313E+01-2.79457E-02 9.26526E-02 2.77729E+00 6.31873E-14-1.80338E-13
 -1       833 2.64309E+01-6.12315E-01-5.63857E-02 2.12390E+00-2.72534E-14-3.92221E-15
 -1       834 1.97575E+01 4.92626E-01-8.86228E-05-2.53249E-01 8.88978E-14-3.21082E-13
 -1       835 2.00558E+01 1.30988E-01 1.77056E-05-4.23465E-01 2.29294E-14-2.37764E-15
 -1       836 2.00679E+01 1.02220E-01 1.09561E-05-3.69916E-01 3.22803E-14-1.08664E-13
 -1       837 2.03049E+01 7.53594E-01-6.07610E-04-2.74705E-01-1.13044E-13-2.13802E-13
 -1       838 2.01097E+01 1.12338E-01 6.41540E-06-2.63898E-01 2.63200E-14-5.37598E-14
 -1       839 1.38888E+01-1.16131E+00 6.16203E-02-4.29221E+00-4.68488E-14 3.47236E-13
 -1       840 1.39113E+01-1.38122E+00 7.95591E-02 4.48113E+00 2.09218E-13-3.48332E-14
 -1       841 2.01428E+01 1.67112E-01 8.32712E-06-1.89804E-01 9.35133E-14-2.80006E-14
 -1       842 1.39024E+01-1.09895E+00 6.22385E-02-4.22593E+00-1.05818E-13-1.41089E-13
 -1       843 2.39441E+01-4.01169E+00 2.05103E-02 2.16179E+00 3.51806E-14 3.14730E-13
 -1       844 1.76107E+01-2.73013E+00 4.28525E-02-4.79916E+00-1.63956E-13-3.46259E-13
 -1       845 2.01845E+01 2.71730E-01 2.45495E-05-8.22264E-02 1.27936E-13-4.84398E-14
 -1       846 2.02854E+01 9.59978E-01 4.17800E-04 5.40797E-01 2.41433E-13-9.37146E-14
 -1       847 2.54960E+01-4.18230E+00 4.80814E-04 1.33621E+00-1.13642E-14 1.45927E-13
 -1       848 1.87059E+01-3.30552E+00 4.87802E-02-4.81532E+00 5.34260E-14 4.07750E-13
 -1       849 2.30250E+01-4.18006E+00 2.13997E-02-3.04845E+00 1.08936E-13 1.73529E-13
 -1       850 1.41588E+01-1.26051E+00 6.44143E-02 4.45800E+00-2.44403E-13-3.96058E-13
 -1       851 1.94555E+01-3.35255E+00 3.55582E-02 4.51018E+00-1.39567E-13-1.13007E-13
 -1       852 2.25968E+01-4.21498E+00 9.56235E-03-3.29759E+00-1.73615E-13-2.87267E-13
 -1       853 1.05246E+01 5.03709E-01 8.98086E-02-1.22090E+00-5.32829E-13-3.29570E-13
 -1       854 2.01348E+01 1.96107E+00-3.15521E-04 3.15975E-03 8.03095E-14-2.94232E-13
 -1       855 2.02974E+01 1.05379E+00-9.99200E-04-4.76381E-01-1.18785E-13-2.71705E-13
 -1       856 1.98563E+01 4.16888E-01 6.47003E-05 3.41070E-01-1.58401E-13-1.19696E-13
 -1       857 1.30797E+01 2.60064E-01 3.21197E-02-2.48563E+00-2.09783E-13-2.47640E-13
 -1       858 2.02330E+01 1.61181E+00 8.08486E-04-5.20432E-01-6.56423E-14-2.48029E-13
 -1       859 2.01798E+01 1.80513E+00-2.65495E-04 3.70735E-01 1.45007E-13-2.01367E-13
 -1       860 1.97600E+01 4.89690E-01-4.65478E-05 2.54768E-01-1.76519E-14 2.53390E-13
 -1       861 1.96974E+01 5.36889E-01-6.78046E-05 1.36173E-01 4.57446E-14 3.27267E-13
 -1       862 1.75428E+01-2.40335E+00 5.44785E-02 4.50372E+00 3.12725E-13 4.35763E-15
 -1       863 2.02603E+01 6.57813E-01-1.99637E-04 2.73565E-01 1.88335E-13-8.46503E-14
 -1       864 1.31943E+01 2.13662E-01 4.35363E-02-2.56943E+00-2.23383E-13-2.15224E-13
 -1       865 2.02286E+01 1.60897E+00 1.76951E-04 5.21082E-01 1.94714E-13-1.24079E-13
 -1       866 2.70691E+01-2.23748E+00-1.54141E-03-1.07763E+00-3.55320E-13 4.01179E-13
 -1       867 1.99211E+01 3.73915E-01 5.86383E-04-3.85620E-01 3.04965E-13-5.44100E-13
 -1       868 2.01776E+01 1.81135E+00-2.00619E-04-3.65527E-01-1.37623E-14-3.09146E-13
 -1       869 2.02973E+01 3.17562E-01 1.66118E-06 1.09084E-01-6.41299E-14-1.32513E-13
 -1       870 2.02499E+01 2.13720E-01-7.84147E-06 1.90125E-01-5.63964E-14-9.23082E-14
 -1       871 2.01942E+01 1.66568E-01-5.44071E-06 2.51299E-01-2.59794E-14-1.40716E-13
 -1       872 2.01327E+01 1.62687E-01-3.17528E-06 3.03035E-01 1.79514E-14-1.72038E-13
 -1       873 2.00655E+01 1.92090E-01-2.49191E-06 3.54139E-01 1.23592E-14-2.00135E-13
 -1       874 1.99912E+01 2.46967E-01-2.38559E-06 4.11728E-01-7.27706E-14-8.28758E-14
 -1       875 1.99070E+01 3.20596E-01-2.70029E-06 4.81525E-01-9.55416E-14-1.73128E-13
 -1       876 1.98101E+01 4.06117E-01-1.01918E-06 5.68150E-01-5.44319E-14-1.23453E-13
 -1       877 1.96972E+01 4.95255E-01 2.04323E-06 6.75476E-01-4.24050E-15-5.77410E-14
 -1       878 1.95663E+01 5.76782E-01 7.79734E-06 8.07184E-01-7.19631E-14-3.69260E-14
 -1       879 1.94177E+01 6.34569E-01 1.71330E-05 9.67614E-01-2.34034E-14 5.70527E-14
 -1       880 1.92566E+01 6.45157E-01 2.29423E-05 1.16302E+00-5.56739E-14 1.71729E-13
 -1       881 1.90971E+01 5.74820E-01 9.15394E-06 1.40332E+00-1.09697E-14 1.88901E-13
 -1       882 1.89702E+01 3.75404E-01-1.35401E-04 1.70387E+00 7.47138E-15 3.46008E-13
 -1       883 1.89369E+01-1.92683E-02 5.41016E-05 2.08274E+00 9.82109E-14 9.12841E-14
 -1       884 1.91085E+01-6.96373E-01-2.95506E-04 2.55596E+00 1.47642E-13-3.39472E-14
 -1       885 1.97369E+01-1.73638E+00 1.07217E-02 3.09083E+00 3.27887E-13-4.83631E-14
 -1       886 1.21414E+01 8.68809E-01 3.13672E-02 2.69027E-01-3.85399E-13-2.03546E-13
 -1       887 2.14862E+01-2.60222E+00 1.56890E-02 2.64044E+00 2.89526E-13 3.92944E-13
 -1       888 2.09341E+01-2.86626E+00 1.08870E-02-3.24075E+00 1.57980E-13 1.13063E-13
 -1       889 1.97359E+01-1.50619E+00 1.96128E-03-2.87352E+00-1.78494E-14-1.57505E-14
 -1       890 1.92104E+01-5.37547E-01 6.71867E-04-2.40529E+00-4.51601E-14-3.02513E-13
 -1       891 1.90618E+01 7.42577E-02-6.18329E-04-1.97624E+00-1.00880E-13-2.56327E-13
 -1       892 1.90927E+01 4.28132E-01-1.12577E-04-1.62380E+00-1.89904E-13-1.82040E-13
 -1       893 1.92061E+01 6.03686E-01 9.18344E-05-1.33737E+00 9.51580E-14-2.58408E-13
 -1       894 1.93472E+01 6.63282E-01 1.28364E-04-1.10200E+00-3.82749E-14 3.17052E-14
 -1       895 1.94874E+01 6.52624E-01 1.28363E-04-9.05489E-01 6.53027E-14 1.07770E-13
 -1       896 1.96133E+01 6.03497E-01 1.09949E-04-7.39039E-01 1.82546E-13 4.21417E-15
 -1       897 1.97209E+01 5.36447E-01 3.01725E-05-5.98626E-01 1.02583E-13-1.18972E-13
 -1       898 1.98103E+01 4.66341E-01-1.19439E-04-4.78617E-01 1.81648E-14-2.77165E-13
 -1       899 1.98979E+01 3.43675E-01 1.30044E-05-5.82736E-01 5.11375E-14 3.06666E-14
 -1       900 1.67715E+01-1.21840E+00 3.01352E-02-3.80632E+00-2.76762E-14-4.31048E-13
 -1       901 1.99643E+01 2.69906E-01 7.32443E-06-4.95572E-01 5.62122E-14 3.53094E-14
 -1       902 1.97375E+01 4.89107E-01 2.82846E-05-8.22294E-01 6.88756E-17 8.06086E-14
 -1       903 1.96457E+01 5.34410E-01 4.53128E-05-9.80222E-01-2.21882E-14 1.06063E-13
 -1       904 1.95552E+01 5.33497E-01 7.74801E-05-1.16717E+00-6.28682E-14-4.01283E-14
 -1       905 1.94840E+01 4.53696E-01 1.32368E-04-1.38652E+00-6.22786E-14-9.07020E-14
 -1       906 1.94678E+01 2.49610E-01 1.84761E-04-1.64179E+00-1.92172E-14-3.97486E-14
 -1       907 1.95699E+01-1.37775E-01-2.02390E-04-1.93133E+00-1.79860E-14-5.05182E-14
 -1       908 1.98936E+01-7.77399E-01-7.42365E-04-2.24557E+00-6.72132E-14-1.39714E-14
 -1       909 2.06162E+01-1.72213E+00 6.10234E-04-2.49374E+00-1.24731E-13-6.08216E-15
 -1       910 2.19678E+01-2.91695E+00 5.71309E-03-2.52638E+00-6.73107E-14-1.35120E-13
 -1       911 1.37791E+01 2.08605E-01 3.25093E-02 2.68120E+00-3.12946E-13-2.47535E-13
 -1       912 2.03020E+01-1.43639E+00-3.31307E-03 2.48114E+00 3.71696E-13 7.04447E-14
 -1       913 1.97038E+01-5.53936E-01 1.21642E-03 2.18031E+00 1.33898E-13-2.61094E-14
 -1       914 1.94679E+01 1.28563E-02 5.72331E-04 1.85383E+00 4.97830E-14 3.11753E-13
 -1       915 1.94165E+01 3.49653E-01 1.00962E-04 1.56029E+00-2.49074E-14 2.44086E-13
 -1       916 1.94600E+01 5.22094E-01-4.01813E-05 1.30496E+00-1.84041E-13-8.02623E-14
 -1       917 1.95442E+01 5.85203E-01-3.08263E-05 1.08493E+00-1.88412E-13-2.21010E-13
 -1       918 1.96389E+01 5.81110E-01-2.49025E-05 8.95181E-01-2.03077E-13-4.45844E-13
 -1       919 1.97289E+01 5.39661E-01-1.59821E-05 7.31831E-01 2.90731E-14-3.14994E-13
 -1       920 1.98073E+01 4.81642E-01-2.94538E-06 5.92309E-01-8.54134E-14-4.20235E-13
 -1       921 1.98715E+01 4.21266E-01 4.88050E-05 4.72717E-01 3.92241E-14-6.13957E-13
 -1       922 2.03058E+01 4.84203E-01 3.18130E-05 2.27787E-02 1.25104E-13-8.64673E-14
 -1       923 2.02262E+01 1.99895E-01-8.68467E-06-1.94897E-01 7.04482E-14-3.67692E-14
 -1       924 1.99467E+01 3.45363E-01 1.45655E-04 3.64445E-01 1.18300E-13-7.09646E-13
 -1       925 2.00235E+01 2.06923E-01 3.40063E-06-4.25404E-01-2.27446E-14 3.35531E-14
 -1       926 1.95466E+01 6.26648E-01 1.01268E-05-8.23799E-02 1.54707E-13-3.23644E-13
 -1       927 1.38026E+01-1.47929E-01 4.29269E-02 3.10256E+00 4.34418E-15 4.52850E-14
 -1       928 1.25212E+01 8.00762E-01 4.16458E-02 1.04462E+00-1.60601E-14-1.96492E-13
 -1       929 1.98224E+01 4.20336E-01 1.88438E-05-6.90657E-01 8.54356E-14 9.04620E-16
 -1       930 2.03420E+01 7.72067E-01 3.60503E-04-1.62587E-01-4.58103E-14-1.59407E-13
 -1       931 2.01783E+01 1.49061E-01 1.04433E-06-2.61032E-01 2.39632E-14-1.60866E-14
 -1       932 2.01455E+01 1.92463E+00-3.08844E-04-1.87131E-01 3.16722E-14-3.19635E-13
 -1       933 1.76031E+01-1.53172E+00 2.27789E-02 3.82653E+00 2.28537E-14 2.63947E-14
 -1       934 1.74769E+01-1.52885E+00 1.93205E-02-3.82348E+00-5.39011E-14 2.93709E-13
 -1       935 2.02705E+01 3.05341E-01-1.82935E-05-1.04860E-01 1.00587E-13-3.34984E-14
 -1       936 2.03320E+01 4.92463E-01-3.76660E-04-4.35367E-03-5.81155E-14-1.63189E-13
 -1       937 1.95426E+01-2.34432E+00 2.11669E-02-3.58341E+00 1.92188E-14-3.19886E-13
 -1       938 1.60977E+01-2.83285E-01 1.40838E-02-3.01352E+00-5.38886E-14 4.44571E-13
 -1       939 2.03039E+01 1.24845E+00-4.27855E-04-2.83588E-01-1.25255E-14-2.27149E-13
 -1       940 1.35590E+01 8.72590E-01 1.46953E-02-1.15484E+00-2.75645E-13-5.18496E-13
 -1       941 1.95482E+01 6.24760E-01-8.72923E-05 8.71167E-02 5.86483E-14 1.46947E-13
 -1       942 2.01289E+01 1.39449E-01 1.97365E-06-3.15217E-01 2.92433E-14-1.76051E-14
 -1       943 2.03222E+01 7.61621E-01-3.25877E-06 2.02337E-01 1.34827E-13-1.24121E-13
 -1       944 1.63426E+01-1.05962E+00 2.01730E-02 3.70330E+00 1.74413E-13 2.02735E-13
 -1       945 1.96029E+01 5.90731E-01-7.50922E-05-2.40529E-01-7.86958E-14-2.44780E-13
 -1       946 1.34230E+01 9.66453E-01 1.46269E-02-6.31290E-01-8.86828E-14-2.55909E-13
 -1       947 2.00777E+01 1.61274E-01 1.76609E-06-3.67366E-01-3.30419E-14-1.25899E-14
 -1       948 2.02985E+01 1.09891E+00-6.16896E-05 4.37447E-01 1.97524E-13-1.08042E-13
 -1       949 1.97189E+01 5.15915E-01-9.47814E-06 3.73638E-01 2.03761E-13-1.23329E-13
 -1       950 2.02769E+01 1.45395E+00-5.89030E-05 6.54866E-02 7.77125E-14-2.48193E-13
 -1       951 2.02883E+01 1.38201E+00-1.26699E-04 1.84947E-01 1.22115E-13-1.98777E-13
 -1       952 2.03279E+01 3.21971E-01-4.02663E-05 1.10541E-01-6.41592E-14-1.48645E-13
 -1       953 2.02691E+01 2.33004E-01-9.90385E-06 1.68824E-01-2.56336E-14-1.28444E-13
 -1       954 2.01947E+01 2.01396E-01-6.25562E-06 2.15471E-01 8.39807E-15-1.19358E-13
 -1       955 2.01072E+01 2.14549E-01-5.17333E-06 2.57832E-01-1.45488E-14-1.33979E-13
 -1       956 2.00064E+01 2.62410E-01-1.20393E-05 3.02155E-01 5.95332E-15-1.36233E-13
 -1       957 1.98903E+01 3.36898E-01-2.26005E-05 3.53531E-01-1.21022E-13-1.52998E-13
 -1       958 1.97551E+01 4.30591E-01-3.02036E-05 4.16370E-01-5.88874E-14-9.50453E-14
 -1       959 1.95963E+01 5.35650E-01-3.89007E-05 4.94490E-01 5.87856E-15-4.19608E-15
 -1       960 1.94084E+01 6.42728E-01-5.08049E-05 5.91824E-01-1.59068E-14-9.42378E-14
 -1       961 1.91861E+01 7.39540E-01-6.68206E-05 7.13427E-01 2.24464E-14 9.59341E-14
 -1       962 1.89243E+01 8.09237E-01-9.40142E-05 8.67113E-01 2.30342E-14 6.35589E-14
 -1       963 1.86204E+01 8.28370E-01-1.61985E-04 1.06597E+00 9.14582E-14 1.80905E-13
 -1       964 1.82751E+01 7.64789E-01-2.85077E-04 1.33217E+00 9.94427E-14 2.45084E-13
 -1       965 1.78955E+01 5.71912E-01-1.29387E-03 1.70639E+00-6.09239E-14 2.65664E-13
 -1       966 1.75197E+01 1.64990E-01-9.70897E-04 2.25006E+00 1.15707E-13 2.87813E-13
 -1       967 1.98298E+01 3.76930E-01-9.71002E-07-4.55830E-01 6.28091E-14-6.49862E-14
 -1       968 1.83212E+01-5.17211E-01 3.70262E-03 2.68421E+00 6.59919E-14 7.43194E-13
 -1       969 2.02888E+01 1.38476E+00 1.45039E-04-1.82634E-01 4.31100E-15-2.86794E-13
 -1       970 2.03663E+01 8.83251E-01 1.43582E-04-1.16640E-01-3.65662E-15-2.07341E-13
 -1       971 1.77786E+01 2.53675E-01-8.58474E-04-2.11896E+00-1.48749E-13 1.21568E-13
 -1       972 1.81039E+01 6.12822E-01-1.01496E-06-1.62996E+00-5.60424E-14 6.82308E-14
 -1       973 1.84392E+01 7.88629E-01 3.17076E-04-1.28275E+00-6.13427E-14-1.05521E-13
 -1       974 1.87484E+01 8.44212E-01 1.79904E-04-1.02642E+00 4.12583E-14-2.37865E-13
 -1       975 1.90197E+01 8.25740E-01 6.52499E-05-8.29718E-01 8.04282E-14-1.91309E-13
 -1       976 1.92511E+01 7.64647E-01 1.22392E-04-6.72928E-01 1.79457E-13-1.11381E-13
 -1       977 1.94397E+01 6.84239E-01-2.29403E-05-5.43409E-01-6.18091E-14-4.06883E-14
 -1       978 1.95986E+01 5.96494E-01 4.46873E-04-4.37716E-01 6.00087E-14-2.81434E-14
 -1       979 1.57433E+01 1.85068E-01 1.43915E-02-2.55013E+00 6.03608E-15-3.37036E-13
 -1       980 2.03585E+01 7.50010E-01 3.68484E-04 1.05309E-01 1.17170E-13-1.40021E-13
 -1       981 1.91813E+01 7.02778E-01-1.60384E-06-9.39608E-01 8.65003E-15-8.70095E-14
 -1       982 1.93789E+01 6.48475E-01-1.06313E-05-7.76896E-01 4.51468E-14-1.89263E-14
 -1       983 1.87372E+01 6.14937E-01 2.03321E-04-1.40763E+00-4.60089E-14-9.61161E-14
 -1       984 1.85296E+01 3.88083E-01 3.69136E-05-1.75643E+00 1.08177E-14-1.59138E-14
 -1       985 1.84207E+01-5.12484E-02-2.74769E-03-2.22162E+00 3.55718E-14-9.42522E-14
 -1       986 1.84946E+01-7.85403E-01 7.23273E-03-2.83773E+00-9.90870E-14-2.66242E-13
 -1       987 1.83354E+01 1.25688E-01-7.91722E-04 2.08258E+00-8.93416E-14 8.00526E-13
 -1       988 1.85165E+01 5.01303E-01-6.55471E-04 1.63898E+00 1.01944E-13 8.33770E-13
 -1       989 1.87467E+01 6.91638E-01-1.89240E-04 1.30686E+00-2.14606E-15 7.78799E-13
 -1       990 1.89796E+01 7.58499E-01-4.73874E-05 1.05500E+00-7.52958E-14 6.24343E-13
 -1       991 1.91943E+01 7.50861E-01-1.91913E-05 8.55917E-01-5.55140E-14 4.43347E-13
 -1       992 1.93830E+01 6.98981E-01-3.69873E-05 6.94042E-01-8.59956E-14 2.98186E-13
 -1       993 1.95422E+01 6.25797E-01-6.33989E-05 5.61606E-01 7.37504E-15 4.02327E-14
 -1       994 1.96360E+01 5.70877E-01 5.06347E-06 4.60906E-01 4.67204E-14-1.28362E-14
 -1       995 2.03509E+01 4.87710E-01 6.70964E-05-2.22023E-02 8.10306E-14-1.73816E-13
 -1       996 2.02771E+01 1.45485E+00 6.07789E-05-6.17605E-02 3.67806E-14-2.84820E-13
 -1       997 1.96081E+01 5.86392E-01-7.72933E-05 2.45346E-01 2.70246E-14 2.74375E-13
 -1       998 1.99404E+01 2.93905E-01-3.03426E-06-3.87747E-01 3.14161E-14-1.11146E-13
 -1       999 1.97163E+01 5.19800E-01 2.56932E-04-3.70849E-01 2.97176E-14 1.49423E-14
 -1      1000 2.02630E+01 2.23840E-01 4.95155E-05-1.82931E-01 3.10760E-14-9.66370E-14
 -1      1001 1.41572E+01 9.46798E-01 1.99246E-02 1.13717E+00-3.82208E-13-1.81452E-13
 -1      1002 1.89633E+01 7.03230E-01 5.20891E-05-1.14440E+00-4.61144E-14-1.12862E-13
 -1      1003 2.03161E+01 3.19456E-01 1.09349E-04-1.14854E-01 6.17370E-14-1.40674E-13
 -1      1004 2.03666E+01 4.83442E-01 2.59136E-04 3.21754E-02-5.52746E-14-1.58680E-13
 -1      1005 2.03070E+01 1.24001E+00-9.56419E-05 2.85022E-01 1.70836E-13-1.29177E-13
 -1      1006 1.60338E+01 2.39297E-01 1.09639E-02 2.42782E+00-1.51795E-13 2.88936E-14
 -1      1007 1.79447E+01-4.94964E-01 1.19766E-02-2.80777E+00-1.09897E-13 2.39973E-13
 -1      1008 1.45502E+01 5.58315E-01 2.08201E-02 1.95270E+00 9.98320E-14 1.18239E-14
 -1      1009 1.56467E+01 5.05019E-01 4.46495E-03-2.07937E+00-4.07739E-13 2.92702E-14
 -1      1010 1.97015E+01 4.70500E-01-5.44097E-06-5.40566E-01 3.82179E-14-6.87922E-14
 -1      1011 1.72263E+01-5.14243E-01 1.02998E-02 3.00240E+00 1.68222E-13 2.96097E-13
 -1      1012 1.93751E+01 7.19447E-01-6.18751E-05 4.35557E-03 1.64181E-13 2.81814E-14
 -1      1013 2.01975E+01 1.84792E-01 2.50050E-06-2.36367E-01 3.22519E-14-5.96788E-14
 -1      1014 1.94868E+01 6.55234E-01-1.10971E-04 3.11044E-01 1.41508E-13 2.99323E-13
 -1      1015 2.03605E+01 1.06467E+00-2.54242E-04 1.20864E-03 4.17764E-14-2.29853E-13
 -1      1016 1.95521E+01 5.65203E-01-9.26348E-06-6.46043E-01 6.27514E-16-2.22877E-14
 -1      1017 1.57394E+01 1.25616E-02-5.61799E-03 2.67900E+00 1.06218E-13 2.23835E-13
 -1      1018 1.44345E+01 1.05514E+00 7.74349E-03 6.05937E-01-2.47925E-15 1.84694E-14
 -1      1019 1.94079E+01 7.02255E-01-1.05379E-04-1.98159E-01 1.99915E-13-5.15695E-13
 -1      1020 2.00369E+01 2.29169E-01-3.61124E-06-3.32027E-01-3.76356E-14-5.96374E-14
 -1      1021 2.03615E+01 1.03249E+00-2.14123E-04 6.71590E-02 9.78688E-14-1.49163E-13
 -1      1022 1.68003E+01 6.60043E-01 1.10718E-03 1.74080E+00-9.28615E-14 2.18548E-13
 -1      1023 2.02558E+01 2.44856E-01-6.24749E-05 1.23932E-01-2.86273E-14-9.78344E-14
 -1      1024 2.01619E+01 2.33802E-01-3.94221E-05 1.53671E-01 9.13073E-15-1.25378E-13
 -1      1025 2.00494E+01 2.67096E-01 1.86424E-06 1.82540E-01 1.11998E-14-1.34535E-13
 -1      1026 1.99179E+01 3.33896E-01-6.07220E-05 2.13963E-01-1.92199E-14-1.08652E-13
 -1      1027 1.97635E+01 4.27342E-01-9.10156E-05 2.51550E-01-3.86395E-14 3.06406E-14
 -1      1028 1.95817E+01 5.38872E-01-1.03002E-04 2.97807E-01-2.94008E-14-7.82235E-14
 -1      1029 1.93654E+01 6.60462E-01-1.30488E-04 3.55511E-01 1.63286E-14-9.16940E-14
 -1      1030 1.91059E+01 7.82495E-01-1.71270E-04 4.28144E-01 4.39348E-14 1.13243E-14
 -1      1031 1.87924E+01 8.93084E-01-2.32953E-04 5.20966E-01 2.28818E-14-4.63748E-14
 -1      1032 1.84107E+01 9.77259E-01-3.62482E-04 6.43242E-01 6.91053E-14-5.67095E-15
 -1      1033 1.79431E+01 1.01480E+00-5.56212E-04 8.11449E-01 1.96726E-13 4.36139E-14
 -1      1034 1.73638E+01 9.82363E-01-2.76245E-04 1.05140E+00 7.59395E-14 1.15815E-13
 -1      1035 1.66411E+01 8.48509E-01 5.49719E-03 1.40346E+00 1.28777E-13 2.02433E-13
 -1      1036 1.92506E+01 7.11098E-01-8.77801E-05-5.26458E-01 1.48006E-14-3.08599E-14
 -1      1037 2.03677E+01 9.88486E-01-8.61400E-05-6.47587E-02 9.05787E-15-2.63757E-13
 -1      1038 1.75820E+01 1.00011E+00 1.51047E-03-1.05148E+00-1.89501E-13-4.67318E-13
 -1      1039 1.81056E+01 1.02657E+00 5.18882E-05-8.07085E-01 1.02159E-13-3.96225E-13
 -1      1040 1.85291E+01 9.90717E-01-1.01265E-04-6.37371E-01-2.10301E-14-2.16109E-13
 -1      1041 1.88713E+01 9.16365E-01-2.65254E-04-5.12050E-01 1.12365E-13-3.13040E-13
 -1      1042 1.91483E+01 8.19948E-01-7.76108E-04-4.12975E-01 7.59729E-14-3.83508E-13
 -1      1043 2.01221E+01 1.90062E-01 1.32914E-06-2.83593E-01 3.05846E-15-4.50552E-14
 -1      1044 1.73758E+01 6.27495E-01-3.54019E-04-1.69189E+00 1.26106E-13-2.64154E-13
 -1      1045 1.78602E+01 8.24819E-01 3.49190E-04-1.27787E+00-4.64344E-14-1.08346E-13
 -1      1046 1.79301E+01 8.92595E-01-4.47856E-04 1.15841E+00-3.10633E-14 6.54831E-13
 -1      1047 1.83571E+01 9.43120E-01-3.90196E-04 9.01225E-01-1.63113E-14 6.34732E-13
 -1      1048 1.48521E+01 1.14842E+00 5.41995E-03-2.89857E-01-2.67378E-13-4.39678E-13
 -1      1049 1.87156E+01 9.20260E-01-1.01755E-04 7.14681E-01 2.08783E-14 5.62547E-13
 -1      1050 1.90125E+01 8.55202E-01-9.69765E-05 5.71026E-01 1.24698E-13 3.71474E-13
 -1      1051 1.92578E+01 7.66309E-01 1.29425E-04 4.58683E-01 8.98014E-14 3.06804E-13
 -1      1052 1.93784E+01 7.11172E-01 1.73945E-04 3.79126E-01 1.10395E-13 2.40859E-13
 -1      1053 1.82961E+01 8.93120E-01-3.05663E-04-9.93318E-01-1.22061E-13-6.87354E-14
 -1      1054 1.94081E+01 7.00294E-01-3.54819E-05 1.64521E-01 9.52254E-14 3.62536E-14
 -1      1055 1.54247E+01 9.76038E-01 8.07785E-03-1.12105E+00 4.61085E-14-3.60221E-13
 -1      1056 1.74295E+01 8.14906E-01 3.96665E-04 1.40081E+00-8.08481E-15 4.48614E-13
 -1      1057 1.89853E+01 8.09351E-01-1.18815E-04-6.41692E-01 7.71210E-14 2.70328E-14
 -1      1058 1.69337E+01 8.73997E-01 8.71047E-04-1.41206E+00-3.35043E-13-1.89724E-13
 -1      1059 2.03781E+01 4.50373E-01 1.89338E-05 4.32917E-02-6.00509E-14-2.12894E-13
 -1      1060 1.98225E+01 3.85508E-01-2.72524E-05-3.07393E-01 2.73783E-14-8.06476E-14
 -1      1061 1.86700E+01 8.77648E-01-1.61238E-04-7.91474E-01 1.46940E-14-1.82418E-14
 -1      1062 2.03680E+01 9.04705E-01-3.16184E-05 9.82151E-02 1.38462E-13-1.46482E-13
 -1      1063 2.03836E+01 6.01424E-01-3.97957E-05 2.54098E-03 1.18403E-13-1.09658E-13
 -1      1064 2.03959E+01 6.68771E-01-1.07091E-04-9.77770E-03-2.72423E-14-2.62116E-13
 -1      1065 2.03298E+01 3.11522E-01-9.41789E-05 8.88304E-02-3.92282E-14-1.46748E-13
 -1      1066 1.94740E+01 5.99642E-01-6.53306E-05-4.36026E-01 2.15017E-14 4.16873E-14
 -1      1067 2.03602E+01 3.99398E-01-6.60056E-05-6.96144E-02 4.51304E-14-1.12501E-13
 -1      1068 1.55495E+01 1.04856E+00 8.05945E-03 9.78273E-01-1.20474E-13-1.44889E-13
 -1      1069 2.03983E+01 7.54921E-01 5.95139E-04 1.10126E-02 7.54138E-14-1.50684E-13
 -1      1070 1.91899E+01 8.09051E-01 1.87800E-04 1.12113E-01 9.91600E-14 1.36599E-13
 -1      1071 2.04019E+01 7.29687E-01 2.36693E-04-3.87602E-03 4.09555E-14-2.12453E-13
 -1      1072 1.99593E+01 3.01143E-01-5.24762E-05-2.61330E-01-2.15768E-14-9.32586E-14
 -1      1073 1.96625E+01 4.87777E-01-4.83565E-05-3.64409E-01 3.17948E-14 1.27045E-14
 -1      1074 1.56681E+01 8.58454E-01 1.12940E-02 1.50639E+00 5.84414E-14 8.51551E-14
 -1      1075 2.02634E+01 2.39450E-01-6.15359E-07-1.48973E-01-1.80049E-15-1.06967E-13
 -1      1076 2.03192E+01 2.96976E-01-1.03478E-04-1.13471E-01 5.35959E-15-1.06127E-13
 -1      1077 1.91153E+01 8.44147E-01 6.10076E-04-1.39889E-01 7.49709E-15-4.68252E-13
 -1      1078 2.03963E+01 6.83525E-01 8.20385E-05 1.19411E-02 8.97372E-14-1.27655E-13
 -1      1079 2.01069E+01 2.64162E-01 1.03206E-04 6.60914E-02 2.08655E-15-9.36011E-14
 -1      1080 1.99742E+01 3.16400E-01 2.57863E-04 7.85908E-02-1.63124E-14-1.44457E-13
 -1      1081 1.98154E+01 4.02711E-01 1.46419E-04 9.23382E-02-8.73135E-15-1.85643E-13
 -1      1082 1.96295E+01 5.11443E-01 1.07333E-04 1.08311E-01-3.89471E-14-1.66131E-13
 -1      1083 1.94084E+01 6.36486E-01 1.27206E-04 1.28205E-01-4.47021E-15-7.00160E-14
 -1      1084 1.91429E+01 7.69282E-01 1.55219E-04 1.52988E-01 5.19691E-14-2.06171E-13
 -1      1085 1.88206E+01 9.00380E-01 1.96304E-04 1.84220E-01 7.17361E-14-2.36220E-13
 -1      1086 1.84244E+01 1.01899E+00 2.49987E-04 2.24404E-01 9.10058E-14-8.63888E-14
 -1      1087 1.79285E+01 1.11395E+00 4.36304E-04 2.77125E-01 1.86890E-13-1.90738E-14
 -1      1088 1.72991E+01 1.17018E+00 7.02532E-04 3.55848E-01 1.95747E-13-3.41353E-14
 -1      1089 1.64869E+01 1.16324E+00 3.37686E-03 4.70977E-01 1.23895E-13 1.45927E-14
 -1      1090 1.55946E+01 1.17689E+00 4.03827E-03-6.12769E-02 8.80778E-14-1.11006E-13
 -1      1091 2.03083E+01 2.94249E-01 2.10770E-04 4.27629E-02 1.65405E-15-1.00692E-13
 -1      1092 2.01783E+01 2.18669E-01-1.35091E-05-1.86650E-01-2.03509E-14-1.06332E-13
 -1      1093 1.80750E+01 1.12273E+00 7.96121E-04-3.08969E-01 1.41820E-13-4.80457E-13
 -1      1094 1.85137E+01 1.04347E+00-1.85971E-04-2.45648E-01 7.55705E-14-4.84766E-13
 -1      1095 1.88551E+01 9.42634E-01 1.10859E-03-1.86058E-01-4.52799E-15-4.46253E-13
 -1      1096 2.00769E+01 2.43019E-01-1.98033E-05-2.22446E-01-1.17450E-14-4.62885E-14
 -1      1097 1.92691E+01 7.67483E-01-1.14818E-04 2.54065E-01 1.50072E-13-3.56366E-14
 -1      1098 2.02187E+01 2.52882E-01 6.84274E-05 5.51275E-02-3.64176E-14-4.30507E-14
 -1      1099 1.77445E+01 1.11088E+00 5.55845E-04 5.79984E-01-5.69041E-14-8.40536E-14
 -1      1100 1.82330E+01 1.07999E+00 3.06328E-04 4.46330E-01-2.45668E-14 4.74824E-14
 -1      1101 1.75942E+01 1.08338E+00-2.12270E-03-6.54587E-01 7.39746E-15-3.08788E-13
 -1      1102 1.63582E+01 1.21515E+00-5.04456E-04-3.03236E-01-3.47149E-13-3.22992E-13
 -1      1103 1.81464E+01 1.04197E+00-3.87616E-04-5.07586E-01 1.06062E-13-1.10565E-13
 -1      1104 1.89860E+01 8.87240E-01 1.00783E-04 2.77680E-01 1.27700E-13 1.79599E-13
 -1      1105 1.96865E+01 4.75333E-01-7.71039E-05-1.83152E-01 4.29463E-15-1.16634E-13
 -1      1106 1.89438E+01 8.45871E-01-1.71115E-04-3.24488E-01 7.88605E-15-3.00281E-14
 -1      1107 2.03729E+01 4.00091E-01-5.05101E-06 2.67827E-02-2.33928E-15-1.05736E-13
 -1      1108 1.65994E+01 1.10245E+00-2.29781E-03-7.73875E-01 1.59663E-13-3.83151E-13
 -1      1109 1.86576E+01 9.92366E-01 1.68167E-03 3.48935E-01 1.30971E-13 2.50411E-14
 -1      1110 1.85864E+01 9.57500E-01-2.41723E-04-4.02480E-01 1.29846E-13-1.99728E-14
 -1      1111 1.75060E+01 1.16764E+00-1.70539E-03-3.92212E-01-1.79061E-14-3.42697E-13
 -1      1112 1.92378E+01 7.20793E-01-1.27501E-04-2.65128E-01 3.81668E-14-9.24049E-14
 -1      1113 1.65159E+01 1.09601E+00 4.58635E-03 8.11485E-01-1.33524E-14-1.30781E-13
 -1      1114 2.02361E+01 2.49652E-01-9.94989E-05-8.94941E-02 3.08035E-14-1.34697E-13
 -1      1115 1.94819E+01 5.93991E-01-9.69987E-05-2.19154E-01-2.76483E-14-1.19308E-13
 -1      1116 2.03973E+01 5.17577E-01 1.17595E-04-1.40278E-02 9.45120E-14-1.28911E-13
 -1      1117 2.03808E+01 4.62909E-01 2.14403E-04-3.85059E-02 8.34732E-14-1.23190E-13
 -1      1118 1.72052E+01 1.11115E+00-1.00063E-04 6.80379E-01-1.87253E-13-9.98140E-14
 -1      1119 2.03063E+01 2.87635E-01-3.14831E-05-7.11727E-02 5.67826E-15-1.27776E-13
 -1      1120 1.98599E+01 3.72308E-01-7.41949E-05-1.53410E-01 7.25131E-15-9.82806E-14
 -1      1121 1.88699E+01 9.36745E-01-1.36325E-03 5.46431E-02 1.99624E-14-1.08857E-13
 -1      1122 2.03964E+01 5.39757E-01 2.06779E-04 9.00333E-03 4.15808E-14-1.23858E-13
 -1      1123 2.00411E+01 2.85894E-01-5.38788E-04-4.45968E-02-3.39895E-14-9.20856E-14
 -1      1124 1.77540E+01 1.16675E+00-2.40330E-03 1.55841E-01-1.58101E-14-2.24375E-13
 -1      1125 2.01316E+01 2.51390E-01-5.42188E-06-1.10544E-01-6.73236E-14-1.30592E-13
 -1      1126 2.03506E+01 3.55251E-01-4.67476E-04-6.04304E-02 3.58161E-14-1.12226E-13
 -1      1127 2.00079E+01 2.95295E-01 3.57176E-04-1.31052E-01-9.50374E-15-1.37758E-13
 -1      1128 1.71336E+01 1.19608E+00-2.56334E-03 3.12247E-01-2.19483E-13 7.34192E-14
 -1      1129 2.79303E+01 9.07588E+00 2.32242E+00-6.69332E+00-4.49640E-14 1.11067E-12
 -1      1130 2.05295E+01 6.22163E+00 2.09248E-01-3.90350E+00-2.08999E-14 2.46331E-14
 -1      1131 1.94264E+01 5.85050E+00 7.52027E-02-2.88861E+00-1.33504E-14-4.07915E-13
 -1      1132 1.90264E+01 5.72610E+00 6.05658E-02-2.23583E+00-7.41074E-15-5.99288E-13
 -1      1133 1.88469E+01 5.67151E+00 5.80654E-02-1.70154E+00-4.56579E-15-6.85231E-13
 -1      1134 1.87575E+01 5.64399E+00 5.57858E-02-1.23392E+00-2.48673E-15-7.05854E-13
 -1      1135 1.87118E+01 5.62973E+00 5.39560E-02-8.04011E-01-2.38091E-16-7.02563E-13
 -1      1136 1.86897E+01 5.62270E+00 5.26770E-02-3.92611E-01 1.14210E-15-6.77431E-13
 -1      1137 1.86834E+01 5.62071E+00 5.22667E-02 8.47788E-03 2.82814E-15-6.45419E-13
 -1      1138 1.86907E+01 5.62305E+00 5.27913E-02 4.09974E-01 5.60316E-15-6.07646E-13
 -1      1139 1.87139E+01 5.63045E+00 5.42136E-02 8.22721E-01 6.03510E-15-5.58761E-13
 -1      1140 1.87614E+01 5.64536E+00 5.64616E-02 1.25528E+00 8.95117E-15-4.95529E-13
 -1      1141 1.88518E+01 5.67316E+00 5.86914E-02 1.72742E+00 1.11404E-14-3.88980E-13
 -1      1142 1.90318E+01 5.72772E+00 6.06100E-02 2.26887E+00 1.40929E-14-2.22786E-13
 -1      1143 1.94232E+01 5.84774E+00 6.92805E-02 2.92909E+00 1.69587E-14 8.92290E-14
 -1      1144 2.04358E+01 6.17663E+00 1.52942E-01 3.87817E+00 1.77081E-14 6.44266E-13
 -1      1145 2.51863E+01 7.98438E+00 1.42814E+00 5.84278E+00 3.00315E-14 1.72021E-12
 -1      1146 2.87738E+01 3.61224E+00 1.26957E+00-4.21361E+00-1.74555E-13 1.78935E-12
 -1      1147 2.01932E+01-1.77593E-01-6.15934E-01-1.10185E-01-5.72181E-14 1.37221E-12
 -1      1148 1.87983E+01-9.64371E-02-2.36311E-01 6.23010E-02-1.61000E-14 8.16715E-13
 -1      1149 1.84641E+01-4.82251E-02-5.96727E-02 4.02798E-02-1.74435E-14 4.34104E-13
 -1      1150 1.84098E+01-2.49201E-02-1.54309E-02 2.64973E-02 1.28326E-15 2.03903E-13
 -1      1151 1.84943E+01-1.35519E-02-5.44034E-03 1.87179E-02-5.07472E-15 7.82846E-14
 -1      1152 1.86474E+01-7.35892E-03-2.22886E-03 1.37468E-02-2.26924E-15-4.04017E-15
 -1      1153 1.88317E+01-3.91513E-03-5.65379E-04 1.03116E-02 9.53610E-16-1.81735E-13
 -1      1154 1.90275E+01-2.10865E-03 2.55643E-04 7.80662E-03-1.58838E-15-3.12032E-13
 -1      1155 1.92254E+01-1.35961E-03 3.48224E-04 5.94955E-03-6.17175E-15-5.07270E-13
 -1      1156 1.94234E+01-1.34417E-03-1.80847E-04 4.60932E-03 2.21905E-15-6.99747E-13
 -1      1157 1.96245E+01-1.86693E-03-1.22617E-03 3.73181E-03-1.25496E-14-6.44846E-13
 -1      1158 1.98355E+01-2.79708E-03-2.70219E-03 3.30970E-03-3.58017E-15-7.53112E-13
 -1      1159 2.00667E+01-4.02979E-03-4.53487E-03 3.37059E-03 9.93931E-15-5.77910E-13
 -1      1160 2.03307E+01-5.45412E-03-6.63514E-03 3.97189E-03-4.87240E-16-5.90424E-13
 -1      1161 2.06419E+01-6.91707E-03-8.85477E-03 5.19467E-03-2.54654E-14-5.30655E-13
 -1      1162 2.10155E+01-8.17642E-03-1.09164E-02 7.12808E-03 6.45209E-16-6.03815E-13
 -1      1163 2.14654E+01-8.83756E-03-1.23058E-02 9.83031E-03-9.62837E-15-6.71595E-13
 -1      1164 2.20005E+01-8.27728E-03-1.21192E-02 1.32428E-02 1.48536E-17-8.25777E-13
 -1      1165 2.26186E+01-5.57708E-03-8.89370E-03 1.70228E-02-1.13556E-14-1.09317E-12
 -1      1166 2.32965E+01 4.61788E-04-5.38690E-04 2.02561E-02-6.20883E-15-1.14455E-12
 -1      1167 2.39759E+01 1.10663E-02 1.53160E-02 2.10590E-02 1.04776E-14-9.52093E-13
 -1      1168 2.45482E+01 2.67177E-02 3.99815E-02 1.62471E-02-1.45088E-14-5.53699E-13
 -1      1169 2.48453E+01 4.56026E-02 7.07943E-02 1.65664E-03-4.29188E-14-5.99059E-13
 -1      1170 2.46573E+01 6.14559E-02 9.72784E-02-2.59268E-02-5.00381E-15-6.26405E-13
 -1      1171 2.38018E+01 6.28197E-02 9.95372E-02-6.43067E-02 3.08312E-14-5.44252E-13
 -1      1172 2.22609E+01 3.64851E-02 5.60851E-02-1.00534E-01 1.79023E-15-6.95846E-13
 -1      1173 2.03310E+01-1.94615E-02-3.46147E-02-1.11520E-01-1.45595E-14-1.00811E-12
 -1      1174 1.86384E+01-8.29848E-02-1.35659E-01-7.84225E-02 2.34092E-14-8.34145E-13
 -1      1175 1.78838E+01-1.14996E-01-1.85894E-01-7.21636E-03 4.44905E-14-6.25651E-13
 -1      1176 1.84167E+01-9.21776E-02-1.50093E-01 6.77977E-02-1.19123E-14-5.64285E-13
 -1      1177 1.99879E+01-3.11766E-02-5.34813E-02 1.09080E-01 4.47021E-14-5.61495E-13
 -1      1178 2.19270E+01 2.83513E-02 4.28091E-02 1.04972E-01-7.58616E-15-6.10983E-13
 -1      1179 2.35680E+01 6.03400E-02 9.54313E-02 7.14146E-02 5.56152E-15-9.59358E-13
 -1      1180 2.45507E+01 6.31381E-02 1.00076E-01 3.21237E-02 1.44251E-14-1.36107E-12
 -1      1181 2.48465E+01 4.88308E-02 7.62283E-02 2.17803E-03 5.30452E-14-1.25365E-12
 -1      1182 2.46199E+01 2.98107E-02 4.50535E-02-1.46000E-02-3.81179E-14-1.25485E-12
 -1      1183 2.40836E+01 1.32841E-02 1.88505E-02-2.08390E-02 4.14382E-15-9.96009E-13
 -1      1184 2.34162E+01 1.68836E-03 1.36142E-03-2.07625E-02 4.16121E-14-7.42153E-13
 -1      1185 2.27375E+01-5.19830E-03-8.29631E-03-1.77808E-02 2.36260E-14-4.62661E-13
 -1      1186 2.21145E+01-8.55404E-03-1.24519E-02-1.39842E-02-2.87469E-14-2.93827E-13
 -1      1187 2.15768E+01-9.62345E-03-1.33081E-02-1.04172E-02-3.52501E-14-7.26129E-13
 -1      1188 2.11314E+01-9.39512E-03-1.24706E-02-7.48176E-03-6.56010E-14-6.43571E-13
 -1      1189 2.07733E+01-8.56040E-03-1.09783E-02-5.23964E-03-6.00502E-14-1.61899E-13
 -1      1190 2.04927E+01-7.56888E-03-9.47928E-03-3.58656E-03 4.35692E-14-1.28939E-13
 -1      1191 2.02791E+01-6.69836E-03-8.39365E-03-2.32208E-03 4.74057E-14 6.11342E-13
 -1      1192 2.01248E+01-6.08748E-03-7.93111E-03-1.13976E-03-4.49258E-14 1.66503E-13
 -1      1193 2.00259E+01-5.59124E-03-7.69000E-03 4.59009E-04 3.75414E-14 2.39198E-13
 -1      1194 1.99847E+01-5.46347E-03-5.00825E-03 3.41589E-03-4.12975E-14 3.20174E-13
 -1      1195 1.99918E+01 2.91315E-03 6.53094E-03 2.78895E-03 8.30189E-14 3.66501E-13
 -1      1196 2.77547E+01 5.25186E-01 3.76537E-01 1.96515E+00-2.98650E-14 2.57783E-12
 -1      1197 2.00507E+01-6.62197E-02-5.73330E-01 1.29562E-01 7.51482E-15 2.16685E-12
 -1      1198 1.88730E+01-4.06594E-02-1.93179E-01 1.95766E-02 1.44199E-14 1.73958E-12
 -1      1199 1.84931E+01-2.15571E-02-5.06407E-02 1.70243E-03 6.88685E-16 1.49917E-12
 -1      1200 1.84225E+01-1.26564E-02-1.36204E-02-3.72793E-03 9.52645E-15 1.28979E-12
 -1      1201 1.85008E+01-7.80606E-03-5.05325E-03-5.05000E-03 1.33630E-14 1.05924E-12
 -1      1202 1.86509E+01-4.94306E-03-2.57882E-03-5.07442E-03-8.87284E-15 9.90763E-13
 -1      1203 1.88337E+01-3.25748E-03-1.34620E-03-4.59768E-03-1.11672E-14 9.10555E-13
 -1      1204 1.90285E+01-2.36231E-03-7.03652E-04-3.87246E-03-1.53674E-14 7.54249E-13
 -1      1205 1.92260E+01-2.04466E-03-6.23544E-04-3.01526E-03 4.61054E-15 7.26772E-13
 -1      1206 1.94237E+01-2.17671E-03-1.07564E-03-2.10231E-03 2.17223E-14 6.28131E-13
 -1      1207 1.96246E+01-2.67574E-03-2.00584E-03-1.19490E-03 8.18410E-16 4.49269E-13
 -1      1208 1.98353E+01-3.47989E-03-3.36192E-03-3.53119E-04 6.40820E-15 3.60840E-13
 -1      1209 2.00658E+01-4.52706E-03-5.09209E-03 3.50898E-04-1.98005E-14 4.33296E-13
 -1      1210 2.03285E+01-5.72979E-03-7.12144E-03 8.17570E-04 2.61923E-14 3.16061E-13
 -1      1211 2.06371E+01-6.94026E-03-9.30756E-03 9.01180E-04-8.62765E-15 2.69753E-13
 -1      1212 2.10062E+01-7.90002E-03-1.13677E-02 3.89252E-04-1.55041E-16 3.02137E-13
 -1      1213 2.14484E+01-8.17303E-03-1.27668E-02-1.01321E-03 1.74757E-14 1.46872E-13
 -1      1214 2.19709E+01-7.07266E-03-1.25633E-02-3.67539E-03 1.31776E-14-9.95731E-15
 -1      1215 2.25696E+01-3.62512E-03-9.24952E-03-7.96513E-03-1.99376E-14 1.85718E-13
 -1      1216 2.32190E+01 3.32185E-03-7.19964E-04-1.40269E-02 4.74924E-15 3.24293E-13
 -1      1217 2.38596E+01 1.46398E-02 1.53005E-02-2.13056E-02 2.39218E-14 4.09096E-13
 -1      1218 2.43839E+01 2.98465E-02 3.98171E-02-2.77755E-02 1.78239E-14 4.01710E-13
 -1      1219 2.46298E+01 4.54385E-02 6.96801E-02-2.91792E-02-2.85882E-15 2.69338E-13
 -1      1220 2.44010E+01 5.36671E-02 9.41160E-02-1.93372E-02 1.55709E-14 3.74270E-13
 -1      1221 2.35357E+01 4.42271E-02 9.43737E-02 6.69844E-03-1.89501E-14 7.35620E-13
 -1      1222 2.20341E+01 1.16764E-02 5.26811E-02 4.61967E-02 1.30031E-14 9.18737E-13
 -1      1223 2.01897E+01-3.45287E-02-2.92889E-02 8.32700E-02 2.91553E-14 7.95794E-13
 -1      1224 1.85912E+01-6.99387E-02-1.16865E-01 9.42607E-02-2.69420E-14 7.13020E-13
 -1      1225 1.78836E+01-7.31899E-02-1.59451E-01 6.53837E-02-8.03958E-15 8.46802E-13
 -1      1226 1.83833E+01-4.52792E-02-1.31281E-01 8.38179E-03 1.56125E-16 9.13131E-13
 -1      1227 1.98623E+01-7.26666E-03-5.40261E-02-4.68107E-02 2.23966E-14 7.02355E-13
 -1      1228 2.17062E+01 2.04907E-02 2.43742E-02-7.55760E-02-1.67089E-14 7.09960E-13
 -1      1229 2.32947E+01 3.14583E-02 6.96479E-02-7.39188E-02 3.80251E-15 2.70187E-13
 -1      1230 2.42786E+01 2.96709E-02 7.73531E-02-5.36464E-02 2.29539E-14 1.49082E-13
 -1      1231 2.46134E+01 2.19490E-02 6.16190E-02-2.90475E-02-2.41638E-14-8.95933E-14
 -1      1232 2.44411E+01 1.33128E-02 3.86304E-02-8.93789E-03 3.39856E-14-1.17777E-13
 -1      1233 2.39577E+01 6.20086E-03 1.83574E-02 3.99737E-03-2.38386E-14 9.33559E-14
 -1      1234 2.33335E+01 1.25605E-03 4.28151E-03 1.06042E-02 8.66124E-14-2.54022E-13
 -1      1235 2.26864E+01-1.74303E-03-3.88477E-03 1.28648E-02 4.25055E-14-8.16517E-13
 -1      1236 2.20848E+01-3.29788E-03-7.74435E-03 1.26245E-02-1.90146E-14-2.91043E-13
 -1      1237 2.15608E+01-3.90720E-03-8.93439E-03 1.11996E-02-6.46895E-15 3.61074E-13
 -1      1238 2.11236E+01-3.97447E-03-8.69726E-03 9.39874E-03 5.21298E-14 1.87001E-13
 -1      1239 2.07702E+01-3.80228E-03-7.87039E-03 7.66391E-03 1.09955E-13-1.72392E-13
 -1      1240 2.04921E+01-3.61249E-03-7.01021E-03 6.20055E-03-1.42714E-15-1.91783E-13
 -1      1241 2.02798E+01-3.55383E-03-6.50779E-03 5.05405E-03 2.50648E-14-3.57147E-13
 -1      1242 2.01258E+01-3.71298E-03-6.59531E-03 4.12042E-03 3.40651E-14-8.15425E-13
 -1      1243 2.00270E+01-3.83757E-03-6.81953E-03 2.92389E-03 1.45974E-14-1.19091E-12
 -1      1244 1.99850E+01-2.26193E-03-4.15350E-03 2.35900E-04 5.71229E-14-1.24172E-12
 -1      1245 1.99929E+01 2.48104E-03 6.60216E-03-2.52945E-03 4.64468E-14-8.89897E-13
 -1      1246 2.00021E+01-7.45616E-03 6.06786E-03-2.55459E-03-9.45705E-13-1.59841E-13
 -1      1247 1.99960E+01-1.33434E-02-4.94604E-03-2.82306E-03-9.82258E-13-1.25758E-13
 -1      1248 1.99958E+01 3.16221E-02-6.48142E-03 1.02219E-03 3.59056E-13 1.95562E-13
 -1      1249 1.99975E+01 1.23643E-01-3.93916E-03 3.09763E-03 1.14958E-12 7.81299E-14
 -1      1250 1.99998E+01 2.41174E-01-5.08650E-04 3.86977E-03 2.21718E-13-9.89775E-14
 -1      1251 2.00019E+01 3.60253E-01 2.60915E-03 3.67290E-03-4.89972E-13-9.52880E-14
 -1      1252 2.00036E+01 4.61536E-01 5.00586E-03 2.86199E-03-2.22532E-13-8.58490E-14
 -1      1253 2.00048E+01 5.29781E-01 6.55227E-03 1.54218E-03-4.57203E-13-2.22847E-13
 -1      1254 2.00052E+01 5.53591E-01 7.08236E-03-7.67159E-06-6.58702E-13-1.27339E-13
 -1      1255 2.00048E+01 5.29402E-01 6.55583E-03-1.55989E-03-8.52238E-13-3.50643E-14
 -1      1256 2.00036E+01 4.60756E-01 4.99976E-03-2.87905E-03-6.94118E-13-1.54668E-13
 -1      1257 2.00019E+01 3.59020E-01 2.58298E-03-3.74060E-03-2.00421E-12 7.96702E-15
 -1      1258 1.99997E+01 2.39668E-01-5.37438E-04-3.88365E-03-1.31108E-12 9.54423E-14
 -1      1259 1.99975E+01 1.22008E-01-4.01748E-03-3.13993E-03-7.06451E-13-7.02015E-15
 -1      1260 1.99959E+01 2.89229E-02-6.85540E-03-1.25218E-03-9.71806E-13-3.56417E-14
 -1      1261 1.99952E+01-1.11876E-02-4.20539E-03 4.98541E-03-6.81879E-13-1.03365E-13
 -1      1262 2.00024E+01-8.56274E-03 6.04959E-03 3.04144E-03-2.09056E-13 1.61782E-13
 -1      1263-1.08630E+00-2.35521E+01-3.65567E+00-2.20901E+00 1.78685E-12 2.19692E-13
 -1      1264-1.73885E+00-1.50664E+01-3.04528E+00-4.08263E+00 1.53066E-12 4.62075E-13
 -1      1265 3.76423E-01-2.32135E+00-1.83167E+00-2.70702E-02 6.85230E-13 3.46390E-13
 -1      1266 9.14066E+00 7.75316E+00-3.05950E-01 8.36924E+00 5.64215E-13 6.75460E-13
 -1      1267 2.54234E+01 1.10362E+01 1.37334E+00 1.60406E+01 4.11116E-13 5.01599E-13
 -1      1268 4.54809E+01 8.20767E+00 2.91864E+00 1.76463E+01 8.57092E-14 3.24185E-14
 -1      1269 6.13600E+01 3.65531E+00 3.89206E+00 1.06493E+01-1.34545E-13-7.54619E-13
 -1      1270 6.67891E+01 1.72175E+00 4.25099E+00-1.86431E+00 9.90111E-14-1.53147E-12
 -1      1271 5.81212E+01 4.65178E+00 3.71353E+00-1.33518E+01 5.54806E-13-2.25575E-12
 -1      1272 4.03357E+01 9.30233E+00 2.53436E+00-1.79884E+01 1.14497E-12-2.36611E-12
 -1      1273 2.02406E+01 1.06663E+01 9.16439E-01-1.40466E+01 1.87095E-12-2.34590E-12
 -1      1274 5.50471E+00 5.06011E+00-7.71392E-01-5.31908E+00 2.03260E-12-1.71019E-12
 -1      1275-8.89603E-01-5.97261E+00-2.22871E+00 1.93156E+00 1.33094E-12-7.25975E-13
 -1      1276-1.65144E+00-1.77033E+01-3.24596E+00 4.07722E+00 3.84581E-13-1.91264E-13
 -1      1277-9.77881E-01-2.44428E+01-3.72295E+00 1.23794E+00-5.50004E-13-7.87669E-14
 -1      1278-1.19003E+00-2.25232E+01-3.59138E+00-2.99646E+00-1.71307E-12-3.94448E-13
 -1      1279-1.76217E+00-1.26789E+01-2.84786E+00-3.77911E+00-2.34279E-12-9.56790E-13
 -1      1280 1.33038E+00-2.38504E-01-1.58790E+00 1.12580E+00-2.43694E-12-1.61871E-12
 -1      1281 1.16317E+01 8.78089E+00 8.48110E-03 9.86823E+00-1.90359E-12-1.85518E-12
 -1      1282 2.88493E+01 1.08552E+01 1.66905E+00 1.68741E+01-1.27276E-12-1.93046E-12
 -1      1283 4.83209E+01 7.51331E+00 3.07238E+00 1.70084E+01-7.79821E-13-1.68887E-12
 -1      1284 6.32862E+01 2.93115E+00 4.04603E+00 9.49696E+00-2.24570E-13-6.43041E-13
 -1      1285 6.64219E+01 1.88395E+00 4.20296E+00-2.86297E+00-2.55837E-13 1.01158E-12
 -1      1286 5.75774E+01 4.78217E+00 3.69087E+00-1.39080E+01-4.69097E-13 1.90381E-12
 -1      1287 3.96531E+01 9.48985E+00 2.48997E+00-1.79103E+01-5.59552E-13 1.29852E-12
 -1      1288 2.09225E+01 1.08595E+01 9.90613E-01-1.45285E+01-7.68718E-13 1.01785E-12
 -1      1289 6.55126E+00 5.88500E+00-6.70348E-01-6.29081E+00-7.53397E-13 6.65468E-13
 -1      1290-5.17899E-01-4.71274E+00-2.10021E+00 1.32991E+00-8.74412E-13 5.03597E-13
 -1      1291-1.74750E+00-1.64235E+01-3.14559E+00 4.17527E+00 2.16160E-13 6.33937E-14
 -1      1292-1.04524E+00-2.39733E+01-3.70380E+00 2.03278E+00 1.07575E-12-6.46913E-14
 -1      1293 2.22376E+01 1.83672E+00-7.25275E-01-2.78962E+00-6.57252E-14 8.53151E-13
 -1      1294 2.03440E+01 4.68720E+00-4.86169E-02-3.30643E+00-1.59261E-13-1.79926E-13
 -1      1295 2.08462E+01 4.80628E+00-1.13468E-01-4.15975E+00-2.13163E-13 4.80102E-14
 -1      1296 1.95256E+01 4.99256E+00-1.95919E-02-2.65438E+00-1.43864E-13-4.94656E-13
 -1      1297 1.98191E+01 5.08760E+00 2.23197E-05-3.04506E+00-1.69212E-13-3.64042E-13
 -1      1298 2.05127E+01 3.95076E+00-2.59882E-02-3.07334E+00-2.72893E-13-1.54529E-13
 -1      1299 1.91874E+01 5.08462E+00-3.29269E-03-2.07044E+00-1.00513E-13-6.40162E-13
 -1      1300 1.93318E+01 5.13869E+00 1.05828E-02-2.36388E+00-1.23235E-13-5.75994E-13
 -1      1301 1.97513E+01 4.36645E+00-2.38153E-02-2.48935E+00-2.21892E-13-4.17014E-13
 -1      1302 1.90175E+01 5.13324E+00 3.54645E-03-1.56386E+00-6.87853E-14-7.02596E-13
 -1      1303 1.90928E+01 5.16211E+00 1.29098E-02-1.81396E+00-7.97556E-14-6.78589E-13
 -1      1304 1.93969E+01 4.55624E+00-1.94160E-02-1.93004E+00-1.49628E-13-5.43565E-13
 -1      1305 1.89280E+01 5.16439E+00 6.61527E-03-1.11621E+00-2.94062E-14-7.10647E-13
 -1      1306 1.89685E+01 5.18019E+00 1.28717E-02-1.33766E+00-4.60266E-14-7.05207E-13
 -1      1307 1.92151E+01 4.66450E+00-1.59409E-02-1.44323E+00-9.89443E-14-5.90389E-13
 -1      1308 1.88794E+01 5.18529E+00 8.22302E-03-6.93101E-01-4.61545E-15-7.02997E-13
 -1      1309 1.89011E+01 5.19379E+00 1.20821E-02-9.03203E-01-8.72479E-15-7.12069E-13
 -1      1310 1.91161E+01 4.73150E+00-1.38882E-02-1.00288E+00-3.51720E-14-6.02504E-13
 -1      1311 1.88569E+01 5.19788E+00 9.31644E-03-2.88801E-01 2.72024E-14-6.71574E-13
 -1      1312 1.88662E+01 5.20154E+00 1.11248E-02-4.90699E-01 1.77050E-14-6.85087E-13
 -1      1313 1.90627E+01 4.77167E+00-1.28102E-02-5.87788E-01 7.00340E-15-5.81309E-13
 -1      1314 1.88535E+01 5.20300E+00 1.02596E-02 1.08086E-01 5.65054E-14-6.36245E-13
 -1      1315 1.88532E+01 5.20287E+00 1.01882E-02-9.13251E-02 4.46921E-14-6.55852E-13
 -1      1316 1.90397E+01 4.79033E+00-1.23562E-02-1.88737E-01 6.10844E-14-5.51843E-13
 -1      1317 1.88679E+01 5.20118E+00 1.12182E-02 5.08044E-01 8.71265E-14-5.97895E-13
 -1      1318 1.88579E+01 5.19724E+00 9.25313E-03 3.05726E-01 7.56811E-14-6.20641E-13
 -1      1319 1.90405E+01 4.78970E+00-1.23734E-02 2.05403E-01 1.06409E-13-5.23880E-13
 -1      1320 1.89044E+01 5.19263E+00 1.21748E-02 9.22033E-01 1.15505E-13-5.53297E-13
 -1      1321 1.88818E+01 5.18396E+00 8.16362E-03 7.10967E-01 1.04088E-13-5.82751E-13
 -1      1322 1.90654E+01 4.76960E+00-1.28641E-02 6.05139E-01 1.57997E-13-4.89733E-13
 -1      1323 1.89728E+01 5.17832E+00 1.29965E-02 1.35524E+00 1.41361E-13-4.82551E-13
 -1      1324 1.89315E+01 5.16214E+00 6.49264E-03 1.13233E+00 1.33105E-13-5.25361E-13
 -1      1325 1.91204E+01 4.72795E+00-1.38933E-02 1.01804E+00 2.06481E-13-4.37986E-13
 -1      1326 1.91004E+01 5.15811E+00 1.29249E-02 1.84014E+00 1.83537E-13-3.72057E-13
 -1      1327 1.90236E+01 5.12859E+00 3.21310E-03 1.58722E+00 1.64209E-13-4.37058E-13
 -1      1328 1.92221E+01 4.65792E+00-1.60504E-02 1.46105E+00 2.51491E-13-3.58744E-13
 -1      1329 1.93421E+01 5.13283E+00 1.02423E-02 2.39752E+00 2.09645E-13-1.81150E-13
 -1      1330 1.91957E+01 5.07681E+00-4.27792E-03 2.10016E+00 1.90493E-13-2.96280E-13
 -1      1331 1.94091E+01 4.54359E+00-1.99034E-02 1.95687E+00 3.00373E-13-2.43507E-13
 -1      1332 1.98448E+01 5.09667E+00 6.04904E-03 3.08360E+00 2.25278E-13 1.55452E-13
 -1      1333 1.95375E+01 4.98303E+00-2.04170E-02 2.69639E+00 2.00395E-13-4.44506E-14
 -1      1334 1.97709E+01 4.34575E+00-2.45029E-02 2.52694E+00 3.29958E-13-2.45984E-14
 -1      1335 2.10820E+01 4.90267E+00 8.18486E-03 4.05262E+00 1.81077E-13 7.41157E-13
 -1      1336 2.03185E+01 4.73089E+00-4.78535E-02 3.41587E+00 1.80411E-13 3.87926E-13
 -1      1337 2.05510E+01 3.91393E+00-2.23996E-02 3.17728E+00 3.26319E-13 3.35482E-13
 -1      1338 2.71679E+01 3.20190E+00 9.27715E-01 4.57914E+00 7.44960E-14 1.78280E-12
 -1      1339 2.19943E+01 3.51934E+00-1.81791E-01 3.88354E+00 8.39884E-14 1.06787E-12
 -1      1340 2.20883E+01 2.56004E+00-3.26663E-02 3.45533E+00 2.87229E-13 8.69138E-13
 -1      1341 2.13957E+01 3.59594E-01-7.63018E-01 1.18402E+00 1.44010E-13 1.74077E-12
 -1      1342 2.19704E+01 1.31384E-01-4.00653E-01-1.28557E+00-1.82132E-13 9.23067E-13
 -1      1343 2.06478E+01 3.06667E-01-1.64711E-01-8.05807E-01-1.60864E-13 7.13485E-13
 -1      1344 2.00506E+01 1.53537E-01-7.34535E-02-4.02129E-01-1.36665E-13 6.29334E-13
 -1      1345 1.95807E+01 9.13200E-02-1.48435E-02-3.29916E-01-1.28016E-13 4.29178E-13
 -1      1346 2.09471E+01 3.69274E-01-1.04139E-01-1.27377E+00-2.86264E-13 3.32876E-13
 -1      1347 1.92242E+01 6.46310E-02 3.11751E-03-1.35026E-01-9.88185E-14 3.60843E-13
 -1      1348 1.90701E+01 4.14824E-02 1.33142E-02-1.17152E-01-9.32761E-14 2.25459E-13
 -1      1349 1.98977E+01 1.34066E-01-3.51324E-02-5.03439E-01-2.23450E-13 1.98210E-13
 -1      1350 1.89112E+01 3.17838E-02 1.33274E-02-2.70785E-02-6.44602E-14 1.75443E-13
 -1      1351 1.88928E+01 1.97742E-02 1.11508E-02-1.75577E-02-5.95461E-14 7.68639E-14
 -1      1352 1.94227E+01 5.57448E-02-8.59130E-03-1.68484E-01-1.55924E-13 1.04670E-13
 -1      1353 1.88394E+01 1.64852E-02 8.86782E-03 2.70881E-02-2.82877E-14 3.79679E-14
 -1      1354 1.88842E+01 9.72513E-03 6.54647E-03 3.19859E-02-3.33711E-14-1.06304E-14
 -1      1355 1.92179E+01 2.50193E-02-3.65311E-03-7.76501E-03-9.58929E-14 8.78898E-15
 -1      1356 1.88887E+01 8.61868E-03 4.78165E-03 5.47755E-02-4.00491E-14-4.07348E-14
 -1      1357 1.89638E+01 4.48052E-03 3.78806E-03 5.70883E-02-3.43255E-14-1.05286E-13
 -1      1358 1.91682E+01 1.12474E-02-2.45079E-03 7.41053E-02-7.60451E-14-6.27211E-14
 -1      1359 1.90005E+01 4.32678E-03 2.57853E-03 6.83113E-02-2.53398E-14-1.12464E-13
 -1      1360 1.90894E+01 1.73773E-03 2.40550E-03 6.92029E-02-2.98791E-14-1.71336E-13
 -1      1361 1.92059E+01 4.38899E-03-1.66012E-03 1.15836E-01-6.46549E-14-1.13509E-13
 -1      1362 1.91441E+01 2.08354E-03 1.49576E-03 7.43695E-02-5.08213E-14-1.86976E-13
 -1      1363 1.92383E+01 5.06994E-04 1.68851E-03 7.45812E-02-4.84063E-14-2.85164E-13
 -1      1364 1.92932E+01 1.04809E-03-1.03304E-03 1.36237E-01-8.82053E-14-1.42954E-13
 -1      1365 1.93034E+01 1.15525E-03 9.35043E-04 7.70566E-02-4.01645E-14-3.14781E-13
 -1      1366 1.93996E+01 2.85679E-04 1.28110E-03 7.71032E-02-7.61881E-14-3.90626E-13
 -1      1367 1.94088E+01-1.74319E-04-6.52512E-04 1.45966E-01-9.03873E-14-2.05432E-13
 -1      1368 1.94717E+01 1.14615E-03 6.16276E-04 7.91511E-02-5.45307E-14-3.99929E-13
 -1      1369 1.95696E+01 7.89033E-04 1.03636E-03 7.94130E-02 3.04064E-16-4.32696E-13
 -1      1370 1.95419E+01 3.30722E-05-5.26262E-04 1.51811E-01-8.70538E-14-1.91866E-13
 -1      1371 1.96480E+01 1.82531E-03 4.17478E-04 8.26727E-02-3.92061E-15-4.58451E-13
 -1      1372 1.97499E+01 1.84079E-03 8.88766E-04 8.34465E-02-3.71159E-14-5.10681E-13
 -1      1373 1.96884E+01 1.29284E-03-6.16360E-04 1.58490E-01-2.89541E-14-2.84697E-13
 -1      1374 1.98360E+01 3.04626E-03 2.76483E-04 8.91694E-02-2.35791E-14-4.95281E-13
 -1      1375 1.99457E+01 3.31773E-03 7.99111E-04 9.06957E-02 1.03657E-14-4.77295E-13
 -1      1376 1.98489E+01 3.37792E-03-8.79683E-04 1.69503E-01-3.79209E-14-3.59568E-13
 -1      1377 2.00423E+01 4.70063E-03 1.51061E-04 9.98550E-02 4.80639E-14-4.64022E-13
 -1      1378 2.01654E+01 5.11180E-03 7.34262E-04 1.02329E-01 3.76298E-14-3.93133E-13
 -1      1379 2.00273E+01 6.12890E-03-1.27937E-03 1.87542E-01 4.40022E-14-3.16769E-13
 -1      1380 2.02764E+01 6.68043E-03 4.39203E-06 1.15639E-01-8.45851E-15-4.07207E-13
 -1      1381 2.04193E+01 7.09215E-03 6.58950E-04 1.19206E-01-1.59239E-14-4.20289E-13
 -1      1382 2.02302E+01 9.39263E-03-1.78190E-03 2.14650E-01 1.25888E-14-3.14210E-13
 -1      1383 2.05492E+01 8.83438E-03-1.99732E-04 1.37047E-01-1.16988E-14-4.23221E-13
 -1      1384 2.07189E+01 9.05601E-03 5.32269E-04 1.41775E-01-2.02781E-14-3.87007E-13
 -1      1385 2.04658E+01 1.29535E-02-2.34856E-03 2.52159E-01-2.05933E-14-2.84125E-13
 -1      1386 2.08723E+01 1.09067E-02-4.95475E-04 1.63992E-01-5.46481E-14-3.83243E-13
 -1      1387 2.10756E+01 1.06587E-02 3.09201E-04 1.69810E-01-5.58893E-14-4.45252E-13
 -1      1388 2.07430E+01 1.64363E-02-2.92277E-03 3.00373E-01-4.66265E-14-2.33816E-13
 -1      1389 2.12563E+01 1.24476E-02-9.04381E-04 1.95340E-01-2.71703E-14-4.78314E-13
 -1      1390 2.14983E+01 1.13159E-02-4.77433E-05 2.01921E-01-2.68912E-14-4.89669E-13
 -1      1391 2.10700E+01 1.91614E-02-3.41109E-03 3.57889E-01-6.27905E-14-2.79419E-13
 -1      1392 2.17079E+01 1.26899E-02-1.40830E-03 2.28177E-01-5.71661E-14-6.01487E-13
 -1      1393 2.19896E+01 1.00827E-02-5.37534E-04 2.34759E-01-5.23175E-14-7.03807E-13
 -1      1394 2.14524E+01 1.99402E-02-3.65498E-03 4.20442E-01-8.99348E-14-4.10280E-13
 -1      1395 2.22257E+01 1.04055E-02-1.89621E-03 2.56741E-01-6.12135E-14-7.68297E-13
 -1      1396 2.25400E+01 5.55106E-03-1.06127E-03 2.61844E-01-9.73925E-14-8.34329E-13
 -1      1397 2.18900E+01 1.68278E-02-3.39187E-03 4.79126E-01-1.51894E-13-4.90431E-13
 -1      1398 2.27932E+01 3.81511E-03-2.08431E-03 2.71081E-01-1.80801E-14-8.38312E-13
 -1      1399 2.31197E+01-4.10852E-03-1.33830E-03 2.72181E-01 6.85527E-15-8.54695E-13
 -1      1400 2.23721E+01 6.94694E-03-2.21327E-03 5.18089E-01-7.37768E-14-5.15605E-13
 -1      1401 2.33702E+01-9.24068E-03-1.44074E-03 2.55978E-01 1.27166E-13-8.74224E-13
 -1      1402 2.36681E+01-2.06676E-02-8.52396E-04 2.49264E-01 1.24925E-13-6.47251E-13
 -1      1403 2.28718E+01-1.32958E-02 4.44716E-04 5.12301E-01 9.53252E-14-5.40763E-13
 -1      1404 2.38827E+01-3.04456E-02 7.60396E-04 1.91493E-01 6.19583E-14-6.44674E-13
 -1      1405 2.40861E+01-4.44403E-02 1.03678E-03 1.72187E-01 5.38502E-15-6.36792E-13
 -1      1406 2.33389E+01-4.68959E-02 5.18912E-03 4.27371E-01 1.36308E-13-5.68095E-13
 -1      1407 2.42169E+01-5.88319E-02 5.04615E-03 5.79767E-02-2.37657E-15-4.88473E-13
 -1      1408 2.42379E+01-7.15782E-02 4.57263E-03 2.20712E-02 2.63201E-14-5.40807E-13
 -1      1409 2.36957E+01-9.28616E-02 1.22583E-02 2.25530E-01 8.94892E-14-5.29901E-13
 -1      1410 2.42285E+01-8.73400E-02 1.07877E-02-1.51030E-01 7.31698E-14-4.18483E-13
 -1      1411 2.39780E+01-9.08975E-02 8.75874E-03-2.02797E-01 4.84005E-14-3.50511E-13
 -1      1412 2.38399E+01-1.40613E-01 2.06087E-02-1.16095E-01 8.16864E-14-3.26659E-13
 -1      1413 2.37811E+01-9.96899E-02 1.52918E-02-4.07614E-01 2.07473E-15-3.08944E-13
 -1      1414 2.32165E+01-8.33977E-02 1.04671E-02-4.63794E-01-3.33318E-14-3.10807E-13
 -1      1415 2.36659E+01-1.65067E-01 2.67852E-02-5.71742E-01 4.10037E-14-1.56998E-13
 -1      1416 2.28271E+01-7.37659E-02 1.35410E-02-6.30115E-01-1.00835E-13-3.44079E-13
 -1      1417 2.20167E+01-3.16098E-02 5.49062E-03-6.65475E-01-8.10775E-14-4.96859E-13
 -1      1418 2.31134E+01-1.30392E-01 2.46978E-02-1.02810E+00-1.29416E-13-9.86815E-14
 -1      1419 2.15116E+01 1.29960E-03 2.36341E-03-6.94929E-01-4.73970E-14-5.99354E-13
 -1      1420 2.06701E+01 5.92295E-02-7.33017E-03-6.79839E-01-3.07506E-14-6.24473E-13
 -1      1421 2.22421E+01-1.68750E-02 8.03281E-03-1.27979E+00-1.28128E-13-2.10526E-13
 -1      1422 2.02179E+01 1.01184E-01-1.45219E-02-5.06805E-01 7.15539E-14-6.07660E-13
 -1      1423 1.96509E+01 1.46569E-01-2.17173E-02-4.31878E-01 7.09849E-14-5.22533E-13
 -1      1424 2.12908E+01 1.45483E-01-2.07255E-02-1.11710E+00 6.87176E-14-3.25082E-13
 -1      1425 1.94469E+01 1.68736E-01-2.60361E-02-9.56142E-02-3.02241E-14-4.70322E-13
 -1      1426 1.93956E+01 1.73094E-01-2.67195E-02 1.01407E-02 1.98314E-14-3.85799E-13
 -1      1427 2.06305E+01 2.73056E-01-4.58652E-02-4.96840E-01 2.69750E-14-3.07462E-13
 -1      1428 1.95397E+01 1.57229E-01-2.35834E-02 3.62212E-01-6.92293E-14-4.53908E-13
 -1      1429 2.00270E+01 1.17485E-01-1.73210E-02 4.45944E-01-7.75942E-14-4.65725E-13
 -1      1430 2.05699E+01 2.85118E-01-4.83940E-02 3.50707E-01-4.26742E-14-3.68756E-13
 -1      1431 2.04479E+01 7.67168E-02-1.00457E-02 6.54660E-01-1.39272E-14-5.10064E-13
 -1      1432 2.12629E+01 1.85596E-02-4.47572E-04 6.80658E-01-4.69355E-14-5.24365E-13
 -1      1433 2.11395E+01 1.73724E-01-2.59929E-02 1.03623E+00-1.42145E-13-5.36434E-13
 -1      1434 2.17724E+01-1.75750E-02 3.67064E-03 6.84601E-01-9.63379E-15-5.87974E-13
 -1      1435 2.26074E+01-6.38072E-02 1.21809E-02 6.56272E-01-5.16687E-15-6.23168E-13
 -1      1436 2.20666E+01 1.02431E-02 3.49254E-03 1.28447E+00-7.59288E-14-5.40318E-13
 -1      1437 2.30254E+01-7.76030E-02 1.00999E-02 5.07207E-01-9.27201E-14-5.52482E-13
 -1      1438 2.36423E+01-9.83671E-02 1.55057E-02 4.52612E-01-8.59070E-14-8.25222E-13
 -1      1439 2.29739E+01-1.15911E-01 2.27092E-02 1.09373E+00-6.16321E-14-4.86739E-13
 -1      1440 2.38750E+01-9.20767E-02 9.34024E-03 2.48462E-01-3.84293E-14-7.87249E-13
 -1      1441 2.41804E+01-9.12811E-02 1.18128E-02 1.94695E-01 1.18785E-14-8.70687E-13
 -1      1442 2.35919E+01-1.64004E-01 2.71726E-02 6.57424E-01-1.07249E-13-4.88068E-13
 -1      1443 2.42206E+01-7.60088E-02 5.33619E-03 1.29339E-02 2.10092E-14-9.26632E-13
 -1      1444 2.42419E+01-6.41550E-02 6.00476E-03-2.60595E-02 2.60625E-14-8.98285E-13
 -1      1445 2.38315E+01-1.47589E-01 2.19481E-02 1.90727E-01 5.35856E-15-5.33741E-13
 -1      1446 2.41323E+01-4.91045E-02 1.55896E-03-1.50921E-01 7.02459E-14-9.45122E-13
 -1      1447 2.39548E+01-3.48856E-02 1.38455E-03-1.72879E-01 6.42355E-14-8.05155E-13
 -1      1448 2.37372E+01-1.01616E-01 1.36274E-02-1.74706E-01 4.12352E-14-7.02568E-13
 -1      1449 2.37522E+01-2.41907E-02-6.07205E-04-2.39311E-01 5.36112E-14-8.41259E-13
 -1      1450 2.34666E+01-1.21185E-02-1.14361E-03-2.47784E-01 5.59583E-14-7.12347E-13
 -1      1451 2.34116E+01-5.40110E-02 6.20796E-03-3.99732E-01 7.82742E-14-5.31614E-13
 -1      1452 2.32213E+01-6.19460E-03-1.28422E-03-2.69471E-01 5.65887E-14-5.26315E-13
 -1      1453 2.28983E+01 2.41646E-03-1.99230E-03-2.69274E-01 1.22638E-13-4.61520E-13
 -1      1454 2.29603E+01-1.77916E-02 1.03209E-03-5.01428E-01 8.19793E-14-4.28173E-13
 -1      1455 2.26465E+01 4.71523E-03-1.09060E-03-2.62551E-01 1.27947E-13-4.77143E-13
 -1      1456 2.23315E+01 1.01512E-02-1.88979E-03-2.57695E-01 2.26959E-14-4.19744E-13
 -1      1457 2.24665E+01 4.86206E-03-1.99063E-03-5.16583E-01 2.12897E-13-3.34451E-13
 -1      1458 2.20957E+01 1.02015E-02-5.76655E-04-2.35900E-01-1.40036E-14-3.34772E-13
 -1      1459 2.18128E+01 1.32639E-02-1.40840E-03-2.29103E-01-1.09633E-13-4.22441E-13
 -1      1460 2.19857E+01 1.65902E-02-3.43586E-03-4.80688E-01 2.30273E-14-3.66159E-13
 -1      1461 2.16044E+01 1.21526E-02-6.32974E-05-2.01296E-01-1.08739E-13-5.74742E-13
 -1      1462 2.13635E+01 1.36431E-02-8.72659E-04-1.94165E-01-3.39811E-14-6.30652E-13
 -1      1463 2.15494E+01 2.10451E-02-3.88980E-03-4.20259E-01-1.40202E-13-4.30224E-13
 -1      1464 2.11867E+01 1.20857E-02 3.20752E-04-1.65709E-01 1.15182E-13-5.66242E-13
 -1      1465 2.09888E+01 1.26373E-02-4.21656E-04-1.59064E-01 1.24539E-13-3.74624E-13
 -1      1466 2.11720E+01 2.13058E-02-3.79343E-03-3.52283E-01 1.30266E-13-4.06566E-13
 -1      1467 2.08435E+01 1.10565E-02 5.52821E-04-1.32665E-01 6.78108E-14-9.88125E-14
 -1      1468 2.06856E+01 1.11195E-02-9.74251E-05-1.26826E-01 5.14779E-14-8.95117E-14
 -1      1469 2.08567E+01 1.95339E-02-3.43865E-03-2.86231E-01 2.63150E-13-1.71959E-13
 -1      1470 2.05694E+01 9.75074E-03 6.44310E-04-1.03443E-01 5.99143E-14-2.43334E-13
 -1      1471 2.04469E+01 9.62974E-03 8.64306E-05-9.84206E-02 2.38006E-13 5.86772E-14
 -1      1472 2.06007E+01 1.71183E-02-3.00972E-03-2.26388E-01 8.91169E-14-6.95823E-14
 -1      1473 2.03566E+01 8.60991E-03 5.90421E-04-7.79083E-02 2.58930E-13 6.53093E-14
 -1      1474 2.02651E+01 8.50142E-03 1.05708E-04-7.35162E-02 7.95631E-15 1.73410E-13
 -1      1475 2.03985E+01 1.49344E-02-2.62459E-03-1.73694E-01 2.88398E-13-1.33017E-14
 -1      1476 2.01978E+01 7.91697E-03 3.52003E-04-5.50476E-02-1.38885E-13 2.89032E-13
 -1      1477 2.01345E+01 7.89298E-03-5.36098E-05-5.09593E-02-4.67155E-14 1.21977E-13
 -1      1478 2.02439E+01 1.35566E-02-2.35628E-03-1.26996E-01 3.86071E-14 9.97522E-14
 -1      1479 2.00877E+01 7.71704E-03-6.62199E-05-3.35351E-02 1.12375E-13 1.53892E-13
 -1      1480 2.00512E+01 7.60469E-03-1.72690E-04-2.93502E-02 4.75569E-14 3.08160E-13
 -1      1481 2.01317E+01 1.32514E-02-2.15784E-03-8.40518E-02-9.04181E-15 2.18132E-13
 -1      1482 2.00219E+01 8.41619E-03-7.63853E-05-1.25139E-02-2.36134E-15 3.57861E-13
 -1      1483 2.00112E+01 6.32825E-03 8.48461E-04-8.13305E-03-3.81212E-14 2.96445E-13
 -1      1484 2.00567E+01 1.35735E-02-1.80335E-03-4.34563E-02 1.28089E-13 2.94461E-13
 -1      1485 1.99964E+01-7.03879E-04 2.29565E-03 4.00786E-03-2.73427E-13 3.21042E-13
 -1      1486 2.00107E+01 5.85411E-03-1.12062E-04-5.85028E-03-2.54670E-13 2.02657E-13
 -1      1487 2.02281E+01 7.54923E-02-1.52038E-01 4.83965E-01 1.33719E-13 1.43590E-12
 -1      1488 2.14983E+01 2.16001E-01-2.29230E-01 7.20878E-01 1.20015E-13 1.63627E-12
 -1      1489 2.17010E+01 8.81387E-01-8.53717E-02 2.06428E+00 2.33938E-13 1.12377E-12
 -1      1490 1.93001E+01 3.24398E-02-2.13277E-02 1.86042E-01 9.07070E-14 1.16875E-12
 -1      1491 1.97209E+01 1.13615E-01-6.26677E-02 2.38043E-01 9.16316E-14 1.31597E-12
 -1      1492 2.02767E+01 1.87706E-01-5.51501E-02 7.86091E-01 2.02227E-13 9.09415E-13
 -1      1493 1.89193E+01 1.52358E-02 5.65706E-03 5.31763E-02 6.90819E-14 9.97556E-13
 -1      1494 1.90577E+01 5.17362E-02 1.00232E-03 7.95273E-02 5.72303E-14 1.08552E-12
 -1      1495 1.95330E+01 7.19954E-02-1.21543E-02 2.98508E-01 1.43788E-13 7.33573E-13
 -1      1496 1.88114E+01 7.35160E-03 6.95069E-03-1.00600E-02 8.05168E-14 8.27172E-13
 -1      1497 1.88251E+01 2.61094E-02 1.11243E-02 4.45606E-03 6.28638E-14 9.31730E-13
 -1      1498 1.92002E+01 3.13687E-02-2.49032E-03 8.19387E-02 1.30078E-13 5.82754E-13
 -1      1499 1.88429E+01 3.57797E-03 4.73425E-03-4.15627E-02 3.49152E-14 6.90479E-13
 -1      1500 1.87968E+01 1.42505E-02 8.57211E-03-3.32113E-02 4.60628E-14 7.66857E-13
 -1      1501 1.90885E+01 1.38382E-02-1.68408E-03-2.49731E-02 1.05383E-13 4.88692E-13
 -1      1502 1.89469E+01 1.61047E-03 3.21037E-03-5.69441E-02 1.13395E-14 6.26277E-13
 -1      1503 1.88718E+01 7.99238E-03 5.43903E-03-5.20712E-02 1.82472E-14 6.56031E-13
 -1      1504 1.90982E+01 5.44346E-03-1.75825E-03-7.95500E-02 3.60653E-14 4.15329E-13
 -1      1505 1.90879E+01 6.13857E-04 2.38125E-03-6.37928E-02 3.48056E-14 5.56773E-13
 -1      1506 1.89997E+01 4.52910E-03 3.52663E-03-6.09417E-02 3.02710E-14 6.15551E-13
 -1      1507 1.91747E+01 1.23910E-03-1.58733E-03-1.06849E-01 4.26042E-14 3.33918E-13
 -1      1508 1.92469E+01 2.34042E-04 1.85385E-03-6.64372E-02 3.95522E-15 4.79149E-13
 -1      1509 1.91536E+01 2.69223E-03 2.45515E-03-6.46848E-02 2.35553E-14 5.21759E-13
 -1      1510 1.92881E+01-6.90979E-04-1.33065E-03-1.19784E-01 6.25983E-14 3.01067E-13
 -1      1511 1.94153E+01 2.89967E-04 1.42684E-03-6.76726E-02 4.05302E-14 4.30799E-13
 -1      1512 1.93202E+01 1.93334E-03 1.81410E-03-6.63696E-02-6.27126E-15 4.42800E-13
 -1      1513 1.94224E+01-1.20205E-03-1.15170E-03-1.25975E-01 3.15786E-14 2.11582E-13
 -1      1514 1.95910E+01 6.74994E-04 1.02917E-03-6.94645E-02 4.82682E-14 3.76478E-13
 -1      1515 1.94942E+01 1.95856E-03 1.39731E-03-6.81183E-02 5.00463E-14 4.45004E-13
 -1      1516 1.95703E+01-7.42333E-04-1.10733E-03-1.30429E-01 4.82480E-14 1.55321E-13
 -1      1517 1.97767E+01 1.31938E-03 6.37746E-04-7.32835E-02 4.79674E-14 3.06598E-13
 -1      1518 1.96761E+01 2.59434E-03 1.11416E-03-7.14940E-02 5.07836E-14 3.56870E-13
 -1      1519 1.97300E+01 4.25561E-04-1.20647E-03-1.36706E-01 7.76386E-14 2.59645E-13
 -1      1520 1.99788E+01 2.16977E-03 2.42824E-04-8.02715E-02 3.07615E-15 2.28221E-13
 -1      1521 1.98703E+01 3.72702E-03 9.19530E-04-7.76967E-02 7.26768E-15 2.19206E-13
 -1      1522 1.99043E+01 2.13123E-03-1.44652E-03-1.47478E-01 5.26643E-14 1.90512E-13
 -1      1523 2.02060E+01 3.17172E-03-1.61293E-04-9.13064E-02 2.70980E-14 2.02498E-13
 -1      1524 2.00845E+01 5.26526E-03 7.83586E-04-8.76484E-02 7.08949E-15 2.24441E-13
 -1      1525 2.00986E+01 4.24318E-03-1.82315E-03-1.64783E-01 2.16182E-14 1.01694E-13
 -1      1526 2.04693E+01 4.24876E-03-5.75463E-04-1.06976E-01-1.67704E-15 1.35072E-13
 -1      1527 2.03283E+01 7.10474E-03 6.80215E-04-1.01989E-01 2.65743E-14 1.80492E-13
 -1      1528 2.03208E+01 6.62415E-03-2.32773E-03-1.90091E-01 5.58045E-14 5.80289E-14
 -1      1529 2.07803E+01 5.27289E-03-9.88537E-04-1.27441E-01-7.08394E-14 1.92524E-13
 -1      1530 2.06131E+01 9.08305E-03 5.82651E-04-1.20968E-01-2.87529E-14 1.25684E-13
 -1      1531 2.05798E+01 9.07829E-03-2.93784E-03-2.24175E-01-3.12604E-14 7.13936E-14
 -1      1532 2.11498E+01 6.02186E-03-1.36164E-03-1.52149E-01 2.36105E-14 1.47887E-13
 -1      1533 2.09501E+01 1.09145E-02 4.63495E-04-1.44206E-01 2.19278E-14 2.28186E-13
 -1      1534 2.08846E+01 1.12770E-02-3.59970E-03-2.66735E-01-9.25648E-15 6.60180E-14
 -1      1535 2.15856E+01 6.12087E-03-1.59865E-03-1.79326E-01 5.20038E-14 8.61707E-14
 -1      1536 2.13487E+01 1.20962E-02 3.01375E-04-1.70256E-01 3.35519E-14 1.52582E-13
 -1      1537 2.12427E+01 1.26522E-02-4.19873E-03-3.15690E-01 4.48912E-14 7.18104E-14
 -1      1538 2.20876E+01 4.97600E-03-1.49782E-03-2.05202E-01-5.38834E-14 1.80793E-14
 -1      1539 2.18132E+01 1.17866E-02 9.98995E-05-1.95919E-01 2.27422E-14 3.83591E-14
 -1      1540 2.16571E+01 1.22537E-02-4.51443E-03-3.66040E-01 6.31131E-14 1.10272E-13
 -1      1541 2.26419E+01 1.73328E-03-6.89924E-04-2.22953E-01-2.95454E-14 1.21715E-13
 -1      1542 2.23378E+01 8.68645E-03-7.42030E-05-2.15313E-01-6.25017E-14 7.31602E-14
 -1      1543 2.21223E+01 8.59569E-03-4.16290E-03-4.08224E-01-7.64426E-14 5.96324E-14
 -1      1544 2.32119E+01-4.64420E-03 1.39635E-03-2.21632E-01-3.27275E-14 2.20888E-13
 -1      1545 2.28993E+01 1.02796E-03-3.53070E-05-2.18846E-01-5.28169E-14 1.58882E-13
 -1      1546 2.26188E+01-3.99703E-04-2.55179E-03-4.26217E-01-5.41808E-14 6.35065E-14
 -1      1547 2.37281E+01-1.49861E-02 5.41982E-03-1.85856E-01-7.57033E-15 2.93382E-13
 -1      1548 2.34477E+01-1.30763E-02 5.62479E-04-1.92744E-01-5.61877E-15 2.52583E-13
 -1      1549 2.31064E+01-1.71000E-02 1.06935E-03-3.96218E-01-4.69772E-14 1.16246E-13
 -1      1550 2.40814E+01-2.89332E-02 1.16445E-02-9.80780E-02 5.57215E-14 1.93943E-13
 -1      1551 2.38979E+01-3.44939E-02 2.14811E-03-1.20565E-01 1.76924E-14 2.55258E-13
 -1      1552 2.35175E+01-4.29580E-02 7.30934E-03-2.88166E-01 3.95821E-14 1.08778E-13
 -1      1553 2.41293E+01-4.32590E-02 1.89095E-02 5.37029E-02 3.47335E-14 1.62280E-13
 -1      1554 2.41277E+01-6.07461E-02 4.87865E-03 1.08232E-02 8.29840E-14 2.01451E-13
 -1      1555 2.37562E+01-7.58262E-02 1.58750E-02-7.41813E-02 7.16024E-14 9.83441E-14
 -1      1556 2.37301E+01-5.03348E-02 2.34056E-02 2.60645E-01-8.71386E-14 3.26697E-13
 -1      1557 2.39947E+01-8.30111E-02 7.92694E-03 1.98534E-01-8.23447E-14 1.53174E-13
 -1      1558 2.37111E+01-1.05804E-01 2.45049E-02 2.51418E-01-6.22870E-14-3.99463E-15
 -1      1559 2.28181E+01-3.93831E-02 1.87452E-02 4.74379E-01-8.76851E-14 5.56027E-13
 -1      1560 2.33859E+01-8.53812E-02 8.75062E-03 4.06341E-01-6.85155E-14 4.50612E-13
 -1      1561 2.32922E+01-1.12643E-01 2.83499E-02 6.41227E-01-1.95559E-13 1.69592E-13
 -1      1562 2.15040E+01-3.82069E-03-4.74985E-05 6.02238E-01 2.44785E-14 6.79443E-13
 -1      1563 2.23038E+01-5.15705E-02 3.73269E-03 5.55710E-01-5.65776E-14 6.02664E-13
 -1      1564 2.24964E+01-7.18030E-02 2.15512E-02 9.70649E-01-9.48148E-14 3.83249E-13
 -1      1565 2.01342E+01 4.69231E-02-2.92261E-02 5.43189E-01 7.41750E-14 5.80182E-13
 -1      1566 2.09541E+01 1.89017E-02-8.37472E-03 5.48710E-01 9.34730E-14 7.32643E-13
 -1      1567 2.14785E+01 2.55211E-02 2.71357E-03 1.06025E+00 5.96285E-14 5.16739E-13
 -1      1568 1.92087E+01 8.56214E-02-5.23572E-02 2.66124E-01-1.20102E-13 5.82041E-13
 -1      1569 1.97501E+01 9.74625E-02-2.24553E-02 3.34212E-01-8.21183E-14 4.73260E-13
 -1      1570 2.05605E+01 1.47577E-01-1.98108E-02 7.77441E-01-6.18602E-15 5.04539E-13
 -1      1571 1.91269E+01 8.58443E-02-5.23902E-02-1.31933E-01-5.83908E-15 6.73652E-13
 -1      1572 1.91587E+01 1.38778E-01-2.84859E-02-2.72959E-02-2.59515E-14 6.26568E-13
 -1      1573 2.01107E+01 2.24031E-01-3.33130E-02 1.68237E-01-6.81052E-14 4.03473E-13
 -1      1574 1.99288E+01 4.76382E-02-2.71180E-02-4.69722E-01 8.03992E-14 6.40508E-13
 -1      1575 1.94357E+01 1.17644E-01-2.04806E-02-3.76984E-01 4.69833E-14 6.66585E-13
 -1      1576 2.03301E+01 2.00180E-01-3.07432E-02-5.15753E-01 5.65572E-14 3.76503E-13
 -1      1577 2.12642E+01-2.82292E-03 6.81734E-03-6.08011E-01 4.71086E-15 4.50820E-13
 -1      1578 2.04583E+01 5.17387E-02-2.88072E-03-5.63725E-01 6.67782E-14 5.66380E-13
 -1      1579 2.11153E+01 8.92112E-02-1.70844E-02-9.72530E-01 1.27473E-13 3.80973E-13
 -1      1580 2.26256E+01-3.81330E-02 2.98598E-02-5.34951E-01 9.71896E-14 3.82888E-13
 -1      1581 2.18077E+01-1.69060E-02 1.30760E-02-5.42775E-01 4.33134E-14 5.15615E-13
 -1      1582 2.21335E+01-3.77473E-02-2.65699E-03-1.05180E+00 8.28951E-14 2.94060E-13
 -1      1583 2.36252E+01-4.90679E-02 3.51876E-02-3.37868E-01 1.28153E-13 4.74933E-14
 -1      1584 2.30236E+01-5.79319E-02 1.97318E-02-3.77192E-01 9.39969E-14 1.93665E-13
 -1      1585 2.30304E+01-1.16752E-01 6.18984E-03-8.15561E-01 2.21330E-13 1.01461E-13
 -1      1586 2.41134E+01-4.21437E-02 2.79042E-02-1.20004E-01-4.95940E-14-7.92942E-15
 -1      1587 2.38146E+01-6.68417E-02 1.74219E-02-1.66625E-01 5.94429E-14 1.45568E-13
 -1      1588 2.35901E+01-1.32713E-01 9.00151E-03-4.36726E-01 1.05173E-13-1.43835E-14
 -1      1589 2.41346E+01-2.80758E-02 1.64282E-02 5.35362E-02-2.40728E-14-9.21455E-14
 -1      1590 2.41101E+01-5.51405E-02 1.08088E-02 1.49127E-02 4.18155E-15-1.20074E-13
 -1      1591 2.37653E+01-1.06852E-01 8.10313E-03-7.19176E-02 1.78902E-14-1.81379E-14
 -1      1592 2.38251E+01-1.44209E-02 6.43802E-03 1.62306E-01 9.85080E-14-1.03834E-13
 -1      1593 2.39926E+01-3.62612E-02 4.23840E-03 1.36818E-01 3.92724E-14-7.08036E-14
 -1      1594 2.36209E+01-6.70453E-02 5.85068E-03 1.96343E-01 3.06343E-14-1.59490E-13
 -1      1595 2.33311E+01-4.32307E-03-7.06894E-05 2.13404E-01 6.14411E-14-1.20480E-13
 -1      1596 2.36038E+01-1.87142E-02-2.30622E-04 2.00004E-01-9.71558E-14-2.16537E-13
 -1      1597 2.32652E+01-3.12191E-02 3.62663E-03 3.52146E-01-3.45006E-14-1.74750E-13
 -1      1598 2.27688E+01 1.89660E-03-3.38842E-03 2.23759E-01 1.70471E-13-3.18672E-13
 -1      1599 2.30787E+01-5.81558E-03-2.42133E-03 2.19133E-01 1.94470E-13-8.71681E-14
 -1      1600 2.28017E+01-5.96789E-03 1.93980E-03 4.15381E-01 1.27084E-13-2.77912E-13
 -1      1601 2.22145E+01 5.08267E-03-4.54216E-03 2.09910E-01-8.22533E-14-3.51528E-13
 -1      1602 2.25181E+01 2.23688E-03-3.00530E-03 2.10710E-01 6.06102E-15-4.49588E-13
 -1      1603 2.23092E+01 8.86043E-03 8.23462E-04 4.16131E-01 1.25466E-13-1.18999E-13
 -1      1604 2.17111E+01 6.27113E-03-4.49631E-03 1.84256E-01-2.14694E-13 5.38571E-14
 -1      1605 2.19847E+01 6.49614E-03-2.72928E-03 1.87917E-01-1.35814E-13-2.13347E-13
 -1      1606 2.18384E+01 1.59114E-02 1.49915E-04 3.81267E-01-2.31957E-13 1.20631E-13
 -1      1607 2.12773E+01 6.30978E-03-3.91324E-03 1.54754E-01 4.15284E-14 2.71053E-13
 -1      1608 2.15111E+01 8.21683E-03-2.12513E-03 1.59590E-01-1.41537E-13 9.42336E-14
 -1      1609 2.14169E+01 1.80275E-02-2.25205E-04 3.30168E-01-2.69681E-13 1.05374E-13
 -1      1610 2.09170E+01 5.79017E-03-3.17735E-03 1.25869E-01 4.24164E-14 2.70641E-13
 -1      1611 2.11097E+01 8.44418E-03-1.48697E-03 1.30901E-01 9.42818E-14 3.33927E-13
 -1      1612 2.10561E+01 1.74220E-02-4.17613E-04 2.74953E-01 2.51574E-14 3.83022E-13
 -1      1613 2.06266E+01 5.09664E-03-2.49292E-03 9.96529E-02 1.61766E-13 5.75416E-14
 -1      1614 2.07807E+01 7.93901E-03-9.45246E-04 1.04404E-01 1.65224E-13 2.50701E-13
 -1      1615 2.07575E+01 1.55925E-02-5.14949E-04 2.22185E-01 1.88744E-13 4.13052E-13
 -1      1616 2.03989E+01 4.47580E-03-1.97719E-03 7.65830E-02 1.07878E-15-4.94971E-14
 -1      1617 2.05188E+01 7.23121E-03-5.48608E-04 8.09295E-02-3.57473E-14-1.48200E-13
 -1      1618 2.05173E+01 1.34894E-02-5.92463E-04 1.74607E-01 9.97648E-14 2.09904E-13
 -1      1619 2.02270E+01 4.07438E-03-1.71918E-03 5.61348E-02 1.36233E-13-2.47877E-13
 -1      1620 2.03167E+01 6.68486E-03-3.27873E-04 6.02047E-02 1.44588E-13 4.61805E-15
 -1      1621 2.03300E+01 1.17069E-02-7.28647E-04 1.32461E-01 1.42665E-13 1.88542E-14
 -1      1622 2.01057E+01 3.97493E-03-1.72056E-03 3.72088E-02 1.38758E-13-5.45341E-13
 -1      1623 2.01678E+01 6.53915E-03-3.11783E-04 4.13186E-02 1.29953E-13-3.41999E-13
 -1      1624 2.01898E+01 1.06057E-02-9.92786E-04 9.44565E-02 2.07101E-13 8.60161E-14
 -1      1625 2.00321E+01 4.13835E-03-1.47997E-03 1.84549E-02-3.58697E-15-6.13037E-13
 -1      1626 2.00674E+01 6.87166E-03-3.79747E-04 2.31791E-02 1.00332E-13-5.40411E-13
 -1      1627 2.00921E+01 1.04882E-02-1.25668E-03 5.86800E-02 1.68966E-13-3.62736E-15
 -1      1628 2.00033E+01 3.58731E-03 1.03397E-03 1.47586E-03 5.42023E-14-7.64762E-13
 -1      1629 2.00121E+01 6.27646E-03 8.04838E-05 6.01246E-03 4.47311E-14-7.51952E-13
 -1      1630 2.00319E+01 9.74881E-03-1.07382E-03 2.40423E-02 1.37301E-13-1.66308E-13
 -1      1631 1.99975E+01-6.99283E-04 2.31932E-03-3.14120E-03-4.50072E-13-5.24785E-13
 -1      1632 2.00068E+01 2.28092E-02-9.43374E-04 1.38227E-02-2.15601E-13 3.38745E-13
 -1      1633 2.00067E+01 1.14188E-02 7.50972E-04 9.45224E-03-6.33073E-13 2.68190E-13
 -1      1634 2.00053E+01 8.39842E-02-8.42691E-04 3.22035E-02 5.22880E-13 6.09685E-13
 -1      1635 2.00066E+01 4.98629E-02-6.63293E-04 2.87160E-02-1.39674E-13 3.51776E-13
 -1      1636 2.00134E+01 5.60838E-02-1.29829E-03 4.28113E-02 4.62190E-14 6.06831E-13
 -1      1637 2.00023E+01 1.72547E-01-4.30998E-04 4.46609E-02 2.94883E-13-1.23748E-13
 -1      1638 2.00041E+01 1.22205E-01-5.74430E-04 4.27488E-02 4.47515E-13 2.04736E-13
 -1      1639 2.00086E+01 1.21432E-01-1.33825E-03 7.33979E-02 1.50287E-14 3.86579E-13
 -1      1640 1.99991E+01 2.73826E-01-1.09316E-04 4.87140E-02-1.21168E-13-3.27307E-13
 -1      1641 2.00010E+01 2.17135E-01-2.77568E-04 4.86014E-02 2.38376E-13-1.12311E-13
 -1      1642 2.00033E+01 2.04571E-01-4.66574E-04 9.06480E-02-3.34102E-14-2.56889E-13
 -1      1643 1.99963E+01 3.69423E-01 4.15143E-05 4.45473E-02-4.57299E-13-3.19156E-14
 -1      1644 1.99979E+01 3.17271E-01-7.97202E-05 4.59771E-02-2.48877E-13-2.27894E-13
 -1      1645 1.99980E+01 2.92769E-01 4.75037E-04 9.17922E-02-3.21779E-13-5.48833E-13
 -1      1646 1.99942E+01 4.47466E-01 1.09560E-04 3.32657E-02-3.44821E-13-7.39239E-14
 -1      1647 1.99954E+01 4.06770E-01 3.59189E-05 3.59819E-02-2.02576E-13-8.09987E-14
 -1      1648 1.99935E+01 3.73488E-01 1.27179E-03 7.80079E-02-3.48907E-13-6.83264E-14
 -1      1649 1.99930E+01 4.94217E-01 1.25253E-04 1.69106E-02-4.15892E-13-3.48096E-13
 -1      1650 1.99936E+01 4.72246E-01 8.85096E-05 2.04279E-02-1.91217E-13-2.78212E-13
 -1      1651 1.99903E+01 4.35416E-01 1.85717E-03 5.19992E-02-2.45975E-13-2.06871E-13
 -1      1652 1.99928E+01 5.02772E-01 1.16017E-04-1.96742E-03-3.18027E-13-6.90420E-14
 -1      1653 1.99928E+01 5.02864E-01 1.16980E-04 1.82694E-03-3.85957E-13 7.30816E-14
 -1      1654 1.99886E+01 4.68739E-01 2.16349E-03 1.81467E-02-8.51571E-14-1.84998E-13
 -1      1655 1.99936E+01 4.71856E-01 8.50522E-05-2.05747E-02-5.04303E-13-7.21075E-14
 -1      1656 1.99929E+01 4.94023E-01 1.27550E-04-1.70561E-02-4.23545E-13-9.09275E-14
 -1      1657 1.99886E+01 4.68644E-01 2.16421E-03-1.84191E-02-6.56674E-14-1.77497E-13
 -1      1658 1.99954E+01 4.06065E-01 2.29271E-05-3.61340E-02-8.39069E-13-2.92797E-13
 -1      1659 1.99942E+01 4.46969E-01 1.19800E-04-3.34265E-02-5.43943E-13-2.28196E-13
 -1      1660 1.99903E+01 4.35123E-01 1.85482E-03-5.22936E-02-3.26509E-13-1.08293E-13
 -1      1661 1.99979E+01 3.17078E-01-7.47124E-05-4.60403E-02-1.06724E-12 4.97198E-14
 -1      1662 1.99963E+01 3.69366E-01 4.77214E-05-4.46149E-02-7.99353E-13-3.14197E-13
 -1      1663 1.99936E+01 3.73615E-01 1.28829E-03-7.81742E-02-5.03212E-13-4.22286E-13
 -1      1664 2.00010E+01 2.15949E-01-2.73466E-04-4.86760E-02-5.16836E-13 3.70482E-13
 -1      1665 1.99991E+01 2.72741E-01-1.14670E-04-4.88122E-02-1.13506E-12 5.78783E-13
 -1      1666 1.99980E+01 2.92735E-01 4.72489E-04-9.19644E-02-3.30911E-13 3.66467E-13
 -1      1667 2.00041E+01 1.20913E-01-6.38307E-04-4.27382E-02-4.84338E-13 3.47021E-14
 -1      1668 2.00024E+01 1.71326E-01-4.26756E-04-4.46172E-02-5.84839E-13 6.05068E-14
 -1      1669 2.00034E+01 2.03627E-01-4.72681E-04-9.06980E-02-3.34892E-13 3.43334E-13
 -1      1670 2.00074E+01 4.98382E-02-2.33176E-04-2.88170E-02-6.75327E-13-1.44267E-13
 -1      1671 2.00051E+01 8.32125E-02-8.81797E-04-3.24392E-02-4.78272E-13-1.60282E-13
 -1      1672 2.00084E+01 1.20853E-01-1.32662E-03-7.31380E-02-2.01741E-13-1.21748E-13
 -1      1673 2.00111E+01 1.96166E-02 1.00947E-03-1.65286E-02-3.38682E-13 1.13698E-13
 -1      1674 2.00108E+01 3.20914E-02-7.73103E-04-2.27518E-02-4.86661E-13 6.06609E-14
 -1      1675 2.00196E+01 6.64519E-02-5.53379E-04-5.29936E-02-2.28611E-13-8.97497E-15
 -1      1676 2.00309E+01 3.31992E-02 7.42855E-04-3.50411E-02-8.94184E-15 1.83814E-13
 -1      1677-5.70528E-01-1.43580E+01-1.66136E+00-9.32383E-01 1.12554E-12 2.40336E-13
 -1      1678-5.66265E-01-1.64304E+01-1.83784E+00 2.98850E-01 9.76441E-13 1.05582E-13
 -1      1679 1.11169E+00-8.13569E+00-1.24766E+00 2.39143E-01 6.09623E-13-1.32588E-13
 -1      1680 4.55977E-01-1.31863E+01-1.75955E+00-3.04808E-01 1.08746E-12 8.42729E-14
 -1      1681 7.38292E+00-5.64595E-01-5.08785E-01 4.75325E+00 3.81473E-13 2.49578E-13
 -1      1682 4.14070E+00-6.11330E+00-1.27209E+00 1.82301E+00 4.86500E-13 1.37335E-13
 -1      1683 1.71834E+01 5.03992E+00 2.38018E-01 9.58899E+00 2.58349E-13 2.55795E-13
 -1      1684 1.08881E+01 1.64655E+00-6.52509E-01 5.96935E+00 3.12195E-13 2.41362E-13
 -1      1685 3.11888E+01 6.48313E+00 9.79499E-01 1.25761E+01 1.38334E-13-3.15303E-14
 -1      1686 2.22464E+01 6.01605E+00 1.24401E-01 1.04627E+01 2.57128E-13 1.82521E-13
 -1      1687 4.47292E+01 5.08887E+00 1.49072E+00 1.07558E+01 1.13243E-14-3.75922E-13
 -1      1688 3.62443E+01 6.66506E+00 8.95578E-01 1.21141E+01 1.82576E-13-7.97140E-14
 -1      1689 5.24875E+01 3.81764E+00 1.67074E+00 3.91316E+00 3.76643E-14-6.94833E-13
 -1      1690 4.75302E+01 5.12139E+00 1.36489E+00 8.35472E+00 3.29181E-14-5.00822E-13
 -1      1691 5.35442E+01 3.87578E+00 1.73041E+00-3.93575E+00 3.77143E-13-1.15780E-12
 -1      1692 5.43742E+01 3.60946E+00 1.76033E+00 1.73941E+00 1.21236E-13-7.98236E-13
 -1      1693 4.55415E+01 5.45999E+00 1.31828E+00-1.00295E+01 6.15549E-13-1.56875E-12
 -1      1694 5.17497E+01 3.95090E+00 1.75695E+00-6.33523E+00 5.20806E-13-1.30596E-12
 -1      1695 3.24803E+01 6.63169E+00 6.54987E-01-1.17503E+01 1.04983E-12-1.71529E-12
 -1      1696 4.15364E+01 5.53610E+00 1.39457E+00-1.14170E+01 7.54147E-13-1.71929E-12
 -1      1697 1.89665E+01 4.23342E+00-1.55667E-01-8.69664E+00 1.17806E-12-1.47848E-12
 -1      1698 2.75274E+01 5.58002E+00 7.01643E-01-1.14396E+01 1.09757E-12-1.63758E-12
 -1      1699 8.16404E+00-8.86248E-01-9.06198E-01-4.33960E+00 1.07958E-12-1.09934E-12
 -1      1700 1.35128E+01 3.30180E+00-7.39885E-02-7.98569E+00 1.29230E-12-1.42175E-12
 -1      1701 2.44099E+00-8.06613E+00-1.47672E+00-7.46062E-01 6.72240E-13-4.98934E-13
 -1      1702 4.50882E+00-2.72139E+00-8.13120E-01-2.88789E+00 9.82769E-13-9.09994E-13
 -1      1703 8.73648E-02-1.44914E+01-1.81582E+00 3.42597E-01-1.15574E-13-3.19716E-13
 -1      1704 4.52931E-01-1.00339E+01-1.39948E+00 3.65685E-01 4.19220E-13-4.48960E-13
 -1      1705-6.67587E-01-1.64649E+01-1.82568E+00-5.22862E-01-6.73774E-13-2.66426E-13
 -1      1706-6.81649E-01-1.53216E+01-1.72793E+00 8.84824E-01-2.25597E-13-1.95455E-13
 -1      1707-4.84535E-01-1.36067E+01-1.64238E+00-1.05602E+00-1.32316E-12-5.22138E-13
 -1      1708-4.83283E-01-1.64452E+01-1.88877E+00 5.95474E-03-8.37108E-13-3.52995E-13
 -1      1709 2.05390E+00-6.67323E+00-1.10565E+00 1.02484E+00-1.52078E-12-8.45574E-13
 -1      1710 1.03139E+00-1.18542E+01-1.64447E+00 4.05231E-03-1.28630E-12-5.69336E-13
 -1      1711 8.16375E+00 7.96833E-01-4.61885E-01 5.34051E+00-1.59006E-12-1.15974E-12
 -1      1712 4.50748E+00-4.53754E+00-1.24916E+00 2.11335E+00-1.61693E-12-9.94760E-13
 -1      1713 2.00120E+01 4.86322E+00 3.19551E-01 1.00988E+01-1.19282E-12-1.17795E-12
 -1      1714 1.31620E+01 2.08067E+00-5.16231E-01 6.67530E+00-1.51235E-12-1.16995E-12
 -1      1715 3.34774E+01 6.30826E+00 1.04493E+00 1.25083E+01-8.33889E-13-1.27920E-12
 -1      1716 2.46337E+01 6.38312E+00 2.63119E-01 1.09952E+01-1.02252E-12-1.30429E-12
 -1      1717 4.63231E+01 4.77805E+00 1.54112E+00 9.52922E+00-5.47160E-13-7.29194E-13
 -1      1718 3.82434E+01 6.25066E+00 9.53436E-01 1.13087E+01-7.93671E-13-1.06848E-12
 -1      1719 5.43193E+01 3.51659E+00 1.87193E+00 3.52431E+00-5.01543E-13 8.47655E-14
 -1      1720 5.00566E+01 4.71758E+00 1.58721E+00 8.21878E+00-5.31575E-13-5.83422E-13
 -1      1721 5.29543E+01 4.03320E+00 1.69645E+00-4.31305E+00-4.60215E-13 9.06664E-13
 -1      1722 5.42572E+01 3.66858E+00 1.78147E+00 9.88525E-01-5.01432E-13 2.98019E-13
 -1      1723 4.52842E+01 5.61664E+00 1.35180E+00-1.05185E+01-2.98275E-13 1.05715E-12
 -1      1724 5.17420E+01 4.00205E+00 1.80315E+00-6.90551E+00-2.51826E-13 1.09723E-12
 -1      1725 3.23639E+01 6.37435E+00 6.47779E-01-1.14412E+01-3.00426E-13 7.75824E-13
 -1      1726 4.09608E+01 5.43039E+00 1.33606E+00-1.12257E+01-3.15359E-13 1.00486E-12
 -1      1727 1.92695E+01 5.29677E+00-6.30878E-02-9.51051E+00-4.12115E-13 5.73985E-13
 -1      1728 2.72638E+01 6.31724E+00 7.43300E-01-1.20169E+01-3.82139E-13 8.16014E-13
 -1      1729 9.50197E+00-3.45566E-01-7.75084E-01-4.89538E+00-3.99902E-13 2.85327E-13
 -1      1730 1.50787E+01 3.52293E+00 3.64085E-02-8.43661E+00-4.14557E-13 4.93716E-13
 -1      1731 3.11097E+00-7.29838E+00-1.38201E+00-1.20336E+00-5.37348E-14 1.97953E-13
 -1      1732 5.49893E+00-2.03878E+00-7.12884E-01-3.56332E+00-3.14637E-13 3.63432E-13
 -1      1733 2.65006E-01-1.38076E+01-1.78792E+00 3.76851E-01 4.40536E-13 1.59782E-13
 -1      1734 7.43287E-01-9.25143E+00-1.34487E+00 1.23015E-01 7.98250E-14 2.39517E-13
 -1      1735-6.10819E-01-1.67129E+01-1.87547E+00-2.57173E-01 8.73218E-13 1.46799E-13
 -1      1736-6.30087E-01-1.49995E+01-1.73025E+00 1.03016E+00 5.31630E-13 8.25451E-14
 -1      1737 2.40623E+01 1.11896E+00 2.55920E-01 7.51616E+00 3.25295E-14-2.66009E-13
 -1      1738 1.42418E+01-3.18804E+00-3.66298E-01 6.36250E+00 1.17573E-13-2.25930E-14
 -1      1739 2.00055E+01 1.52713E-03 3.98836E-04 4.95834E-04-5.63086E-13-3.37667E-13
 -1      1740 2.00150E+01 2.12141E-02 1.30303E-04 1.59277E-02-2.66042E-14 7.90668E-14
 -1      1741 4.34142E-01-1.01790E+01-1.20661E+00 2.13249E+00 4.30933E-13-7.98250E-14
 -1      1742 6.00775E+00-7.09092E+00-8.15442E-01 4.59589E+00 2.07834E-13-2.08472E-13
 -1      1743-1.31282E+00-1.13899E+01-1.31994E+00 1.18550E-01 5.24421E-13 2.76001E-13
 -1      1744 3.44022E+01 4.27025E+00 8.82835E-01 7.13366E+00 8.62088E-14-3.64375E-13
 -1      1745 4.19037E+01 6.29478E+00 1.22688E+00 4.55235E+00 1.96759E-13-4.98379E-13
 -1      1746 4.56554E+01 7.30401E+00 1.36328E+00 9.78408E-01 2.81331E-13-3.61045E-13
 -1      1747 4.57638E+01 7.21363E+00 1.48627E+00-2.26547E+00 5.25580E-13-7.05991E-13
 -1      1748 4.05563E+01 5.72692E+00 1.18246E+00-5.20774E+00 6.06404E-13-1.05693E-12
 -1      1749 3.17350E+01 2.75666E+00 6.04135E-01-6.50846E+00 6.50008E-13-1.12443E-12
 -1      1750 2.15427E+01-7.08577E-01 1.02200E-01-6.96268E+00 5.97855E-13-9.45022E-13
 -1      1751 1.12698E+01-4.29861E+00-4.95581E-01-5.84288E+00 3.84470E-13-8.70859E-13
 -1      1752 3.86775E+00-8.17041E+00-1.00633E+00-3.70239E+00 1.57097E-13-6.20531E-13
 -1      1753-3.12761E-01-1.06730E+01-1.26236E+00-1.62745E+00-2.40974E-13-5.43177E-13
 -1      1754-1.23385E+00-1.13374E+01-1.31623E+00 3.99131E-01-4.43479E-13-5.78593E-13
 -1      1755 1.30587E+00-9.74450E+00-1.13833E+00 2.66805E+00-6.25611E-13-4.96353E-13
 -1      1756 7.00283E+00-6.39892E+00-7.94128E-01 4.76701E+00-8.17679E-13-6.82912E-13
 -1      1757 1.60504E+01-2.42929E+00-2.10343E-01 6.60794E+00-9.37805E-13-6.83287E-13
 -1      1758 2.60999E+01 1.25383E+00 3.09311E-01 7.22747E+00-8.26950E-13-6.83231E-13
 -1      1759 3.57575E+01 4.45132E+00 8.92868E-01 6.46351E+00-6.00381E-13-5.11591E-13
 -1      1760 4.31737E+01 6.32932E+00 1.28472E+00 4.03907E+00-7.15983E-13-6.90559E-14
 -1      1761 4.66624E+01 7.33464E+00 1.50620E+00 1.08070E+00-7.70384E-13 2.82371E-13
 -1      1762 4.55849E+01 7.14958E+00 1.46715E+00-2.60477E+00-4.59299E-13 3.89300E-13
 -1      1763 4.02669E+01 5.51953E+00 1.12812E+00-5.19824E+00-1.06720E-13 4.90274E-13
 -1      1764 3.17622E+01 3.22399E+00 6.80211E-01-6.95964E+00-9.80327E-14 5.48450E-13
 -1      1765 2.18781E+01-2.16622E-01 7.52927E-02-7.12757E+00-7.21645E-14 3.49276E-13
 -1      1766 1.26456E+01-4.09511E+00-4.19914E-01-6.11252E+00-6.32827E-15 1.87017E-13
 -1      1767 4.76429E+00-7.68735E+00-9.11312E-01-4.10459E+00 2.63789E-13 2.82267E-13
 -1      1768 6.46789E-02-1.05879E+01-1.26403E+00-1.90360E+00 3.00482E-13 3.94185E-13
 -1      1769 2.28319E+01 1.98341E+00-2.36776E-02-2.72128E+00-2.19720E-13 6.82177E-13
 -1      1770 1.98210E+01 3.71885E+00-3.48830E-02-2.15313E+00-2.29463E-13-3.63196E-13
 -1      1771 2.00460E+01 3.56015E+00-4.28986E-02-2.43974E+00-2.79832E-13-2.80342E-13
 -1      1772 2.03549E+01 3.18141E+00-4.51448E-02-2.58360E+00-2.92987E-13-1.78649E-13
 -1      1773 2.05687E+01 2.80787E+00-1.42544E-01-2.85180E+00-3.18162E-13-3.35842E-14
 -1      1774 2.04225E+01 2.69133E+00-2.95365E-03-2.21930E+00-3.11754E-13-2.10346E-13
 -1      1775 1.93652E+01 4.19325E+00-2.02075E-02-1.26798E+00-9.91529E-14-4.79491E-13
 -1      1776 1.94364E+01 4.15268E+00-1.71385E-02-1.49231E+00-1.31160E-13-4.72043E-13
 -1      1777 1.92718E+01 4.30077E+00-1.68310E-02-8.57522E-01-3.52411E-14-4.90507E-13
 -1      1778 1.93131E+01 4.27615E+00-1.43306E-02-1.06805E+00-6.56146E-14-4.89941E-13
 -1      1779 1.95378E+01 3.78920E+00-9.22582E-03-1.11624E+00-9.32893E-14-4.58213E-13
 -1      1780 1.92222E+01 4.36252E+00-1.48275E-02-4.65423E-01 2.60880E-14-4.60913E-13
 -1      1781 1.92433E+01 4.34924E+00-1.33061E-02-6.65311E-01-6.73376E-15-4.80560E-13
 -1      1782 1.94435E+01 3.91154E+00-9.12934E-03-7.30597E-01-2.95776E-14-4.65565E-13
 -1      1783 1.92035E+01 4.38877E+00-1.36768E-02-8.33248E-02 8.92388E-14-4.38831E-13
 -1      1784 1.92097E+01 4.38470E+00-1.32121E-02-2.78262E-01 5.92628E-14-4.55268E-13
 -1      1785 1.93946E+01 3.97736E+00-9.05791E-03-3.56859E-01 4.56273E-14-4.40767E-13
 -1      1786 1.92113E+01 4.38332E+00-1.31621E-02 2.97298E-01 1.42670E-13-4.09540E-13
 -1      1787 1.92040E+01 4.38793E+00-1.37593E-02 1.02200E-01 1.16695E-13-4.23123E-13
 -1      1788 1.93803E+01 3.99723E+00-9.03419E-03 1.05436E-02 1.08547E-13-4.18535E-13
 -1      1789 1.92474E+01 4.34519E+00-1.33074E-02 6.85067E-01 1.97115E-13-3.81674E-13
 -1      1790 1.92249E+01 4.35932E+00-1.49344E-02 4.84678E-01 1.72056E-13-4.00149E-13
 -1      1791 1.93973E+01 3.97402E+00-9.08064E-03 3.78141E-01 1.66186E-13-3.88151E-13
 -1      1792 1.93185E+01 4.27024E+00-1.43784E-02 1.08211E+00 2.52825E-13-3.28236E-13
 -1      1793 1.92765E+01 4.29537E+00-1.69961E-02 8.74395E-01 2.30445E-13-3.66308E-13
 -1      1794 1.94487E+01 3.90518E+00-9.10015E-03 7.49136E-01 2.33494E-13-3.53526E-13
 -1      1795 1.94463E+01 4.14105E+00-1.73648E-02 1.51191E+00 3.17105E-13-2.48575E-13
 -1      1796 1.93719E+01 4.18446E+00-2.05194E-02 1.28246E+00 2.81423E-13-2.89924E-13
 -1      1797 1.95458E+01 3.77928E+00-9.16990E-03 1.13220E+00 2.87300E-13-2.92254E-13
 -1      1798 1.96697E+01 3.92243E+00-2.51537E-02 1.97718E+00 3.59878E-13-1.30333E-13
 -1      1799 1.95400E+01 4.00009E+00-2.68987E-02 1.71980E+00 3.35998E-13-2.01766E-13
 -1      1800 1.97149E+01 3.56987E+00-8.65729E-03 1.53178E+00 3.43457E-13-2.07646E-13
 -1      1801 2.00705E+01 3.52236E+00-4.51368E-02 2.47001E+00 3.85905E-13 8.04461E-14
 -1      1802 1.98347E+01 3.68362E+00-3.96740E-02 2.18084E+00 3.65426E-13-4.47004E-14
 -1      1803 2.00051E+01 3.22455E+00-5.26277E-03 1.93151E+00 3.86859E-13-6.79717E-14
 -1      1804 2.09057E+01 2.68064E+00-5.75866E-02 2.85614E+00 3.45165E-13 4.50001E-13
 -1      1805 2.04037E+01 3.09611E+00-5.03379E-02 2.61437E+00 3.59941E-13 2.22933E-13
 -1      1806 2.05099E+01 2.61003E+00 3.18364E-03 2.24229E+00 3.82006E-13 1.59341E-13
 -1      1807 2.17082E+01 1.21253E+00-1.21987E-01 2.32886E+00 2.81129E-13 8.88428E-13
 -1      1808 2.12560E+01 2.26190E+00 1.30335E-04 2.73912E+00 3.16695E-13 6.09110E-13
 -1      1809 2.09219E+01 1.68472E+00-2.29214E-02 2.13875E+00 3.45654E-13 4.44277E-13
 -1      1810 2.09300E+01 7.78504E-01-6.24091E-02 1.52354E+00 2.86840E-13 7.82067E-13
 -1      1811 2.17757E+01 2.45655E+00 9.08812E-02-3.04691E+00-2.90453E-13 2.35312E-13
 -1      1812 2.00807E+01 2.98282E-01-8.87336E-03 6.56130E-01 2.22752E-13 6.20058E-13
 -1      1813 2.06322E+01 4.40580E-01-1.24203E-02 1.03323E+00 2.42778E-13 7.07395E-13
 -1      1814 2.07267E+01 8.45178E-01 2.23885E-03 1.41395E+00 2.88224E-13 5.04187E-13
 -1      1815 2.14892E+01 1.74174E+00 7.94860E-02-2.33610E+00-3.00496E-13 1.25032E-13
 -1      1816 2.05031E+01 5.01276E-01 3.25316E-02-9.20060E-01-2.50147E-13 8.97777E-14
 -1      1817 2.00728E+01 3.52917E-01 7.82636E-03-6.27802E-01-2.18055E-13 2.82864E-14
 -1      1818 1.98797E+01 2.58563E-01 2.74698E-02-3.88483E-01-1.89854E-13 3.19840E-14
 -1      1819 1.96906E+01 1.79822E-01 1.06005E-02-2.49696E-01-1.53502E-13-6.09061E-15
 -1      1820 2.01883E+01 4.84995E-01-5.96533E-03-7.19129E-01-2.37347E-13-5.73734E-14
 -1      1821 1.95711E+01 1.34880E-01 1.67367E-02-1.14540E-01-1.25315E-13-8.72306E-15
 -1      1822 1.94960E+01 9.59584E-02 7.21130E-03-4.22176E-02-1.03685E-13-5.21016E-14
 -1      1823 1.98664E+01 2.46824E-01-5.92398E-03-2.89046E-01-1.65918E-13-6.78442E-14
 -1      1824 1.94349E+01 7.19673E-02 8.82599E-03 3.39861E-02-8.87391E-14-6.04269E-14
 -1      1825 1.94253E+01 5.11852E-02 4.46949E-03 7.25782E-02-8.09782E-14-8.97993E-14
 -1      1826 1.96900E+01 1.30053E-01-4.84550E-03-4.72480E-02-1.21545E-13-1.05027E-13
 -1      1827 1.94050E+01 3.77173E-02 4.44159E-03 1.15289E-01-7.51994E-14-9.55061E-14
 -1      1828 1.94325E+01 2.64758E-02 2.95127E-03 1.35622E-01-5.91698E-14-1.23364E-13
 -1      1829 1.96130E+01 6.82940E-02-3.72619E-03 8.99234E-02-9.17051E-14-1.34445E-13
 -1      1830 1.94391E+01 1.89913E-02 2.13616E-03 1.59272E-01-8.79588E-14-1.37910E-13
 -1      1831 1.94879E+01 1.33995E-02 2.17269E-03 1.69773E-01-9.78271E-14-1.52957E-13
 -1      1832 1.96027E+01 3.47287E-02-2.68957E-03 1.67343E-01-1.00814E-13-1.39809E-13
 -1      1833 1.95122E+01 9.69947E-03 9.25956E-04 1.83155E-01-1.00563E-13-1.36355E-13
 -1      1834 1.95737E+01 7.77122E-03 1.81761E-03 1.88982E-01-7.87993E-14-1.46022E-13
 -1      1835 1.96364E+01 1.75691E-02-1.90116E-03 2.11174E-01-9.89621E-14-1.53697E-13
 -1      1836 1.96102E+01 6.66812E-03 3.11110E-04 1.97840E-01-8.57145E-14-1.51148E-13
 -1      1837 1.96802E+01 7.30382E-03 1.74216E-03 2.02458E-01-6.01362E-14-1.37558E-13
 -1      1838 1.96996E+01 1.09285E-02-1.39184E-03 2.37849E-01-8.22659E-14-1.25598E-13
 -1      1839 1.97261E+01 8.09443E-03 4.68015E-05 2.10800E-01-7.55427E-14-1.75528E-13
 -1      1840 1.98035E+01 1.06390E-02 1.87800E-03 2.16701E-01-6.97536E-14-2.34296E-13
 -1      1841 1.97838E+01 1.15913E-02-1.12145E-03 2.58428E-01-1.24998E-13-1.65502E-13
 -1      1842 1.98575E+01 1.28658E-02 1.13769E-06 2.27470E-01-3.47666E-14-2.54211E-13
 -1      1843 1.99433E+01 1.68904E-02 2.18214E-03 2.36532E-01-8.39579E-15-2.34325E-13
 -1      1844 1.98852E+01 1.76432E-02-1.03538E-03 2.80801E-01-6.60495E-14-1.65204E-13
 -1      1845 2.00060E+01 2.02132E-02 9.16738E-05 2.51945E-01-1.45414E-14-2.38375E-13
 -1      1846 2.01028E+01 2.53824E-02 2.61497E-03 2.65601E-01 2.93646E-14-2.47340E-13
 -1      1847 2.00034E+01 2.78127E-02-1.08509E-03 3.10817E-01-1.52319E-14-1.72652E-13
 -1      1848 2.01754E+01 2.94839E-02 2.58883E-04 2.87296E-01 5.57039E-14-3.03837E-13
 -1      1849 2.02867E+01 3.54410E-02 3.12607E-03 3.06573E-01 2.72087E-14-2.46624E-13
 -1      1850 2.01401E+01 4.10802E-02-1.23035E-03 3.52834E-01 1.98262E-14-2.12327E-13
 -1      1851 2.03714E+01 3.99291E-02 4.53676E-04 3.35587E-01-5.82802E-15-1.97379E-13
 -1      1852 2.05014E+01 4.61621E-02 3.63872E-03 3.61005E-01-8.06603E-15-1.46812E-13
 -1      1853 2.02990E+01 5.63496E-02-1.43658E-03 4.09870E-01 3.98072E-14-1.64385E-13
 -1      1854 2.06006E+01 5.04425E-02 6.30659E-04 3.97582E-01-5.88940E-14-1.77090E-13
 -1      1855 2.07533E+01 5.61015E-02 4.02989E-03 4.28888E-01-6.43286E-14-1.91381E-13
 -1      1856 2.04847E+01 7.20680E-02-1.67248E-03 4.83374E-01-5.58495E-14-1.18817E-13
 -1      1857 2.08696E+01 5.92008E-02 7.45446E-04 4.72045E-01-8.50557E-14-2.19976E-13
 -1      1858 2.10482E+01 6.28430E-02 4.10608E-03 5.07721E-01-1.03376E-13-2.56959E-13
 -1      1859 2.07023E+01 8.57138E-02-1.90940E-03 5.72550E-01-1.20753E-13-2.23086E-13
 -1      1860 2.11838E+01 6.31683E-02 7.57178E-04 5.54516E-01-1.15521E-13-2.91583E-13
 -1      1861 2.13892E+01 6.24323E-02 3.58051E-03 5.90977E-01-1.23992E-13-3.70038E-13
 -1      1862 2.09564E+01 9.30968E-02-2.12268E-03 6.73106E-01-1.32952E-13-2.91042E-13
 -1      1863 2.15456E+01 5.74913E-02 6.38387E-04 6.35410E-01-9.48552E-14-3.36897E-13
 -1      1864 2.17742E+01 4.87717E-02 2.06858E-03 6.65874E-01-1.25780E-13-3.11438E-13
 -1      1865 2.12505E+01 8.74900E-02-2.29305E-03 7.75289E-01-1.05781E-13-2.47761E-13
 -1      1866 2.19517E+01 3.49749E-02 3.93391E-04 6.97436E-01-1.41197E-13-3.02063E-13
 -1      1867 2.21933E+01 1.33538E-02-8.62906E-04 7.10617E-01-8.64138E-14-3.38909E-13
 -1      1868 2.15857E+01 5.88359E-02-2.40135E-03 8.61154E-01-1.28280E-13-2.11282E-13
 -1      1869 2.23901E+01-1.37604E-02 7.07884E-05 7.12818E-01 1.45652E-15-3.43846E-13
 -1      1870 2.26245E+01-5.36950E-02-5.52660E-03 6.92039E-01 1.29534E-13-3.83110E-13
 -1      1871 2.19594E+01-6.18660E-03-2.39968E-03 9.01452E-01-5.66864E-14-2.63849E-13
 -1      1872 2.28355E+01-9.80522E-02-2.53114E-04 6.41916E-01 1.24080E-13-4.17701E-13
 -1      1873 2.30302E+01-1.59333E-01-1.17437E-02 5.66187E-01 7.51582E-14-4.22311E-13
 -1      1874 2.23634E+01-1.21439E-01-2.12693E-03 8.53465E-01 6.69317E-14-2.89847E-13
 -1      1875 2.32436E+01-2.20542E-01-6.16940E-04 4.37122E-01 1.57960E-13-4.14186E-13
 -1      1876 2.33545E+01-2.97424E-01-1.82066E-02 2.86971E-01 1.69621E-13-3.47881E-13
 -1      1877 2.27796E+01-2.92689E-01-1.14213E-03 6.63190E-01 1.56938E-13-2.52576E-13
 -1      1878 2.35459E+01-3.63632E-01-1.38870E-03 5.91498E-02 1.20660E-13-3.02786E-13
 -1      1879 2.35249E+01-4.32530E-01-2.20366E-02-1.69266E-01 1.25414E-13-2.54512E-13
 -1      1880 2.31729E+01-4.99635E-01 1.40548E-03 2.78565E-01 1.79671E-13-1.91464E-13
 -1      1881 2.36511E+01-4.72965E-01-3.61962E-03-4.86896E-01 1.49273E-13-1.90656E-13
 -1      1882 2.34645E+01-4.86663E-01-1.89388E-02-7.60158E-01 4.07799E-14-9.19560E-14
 -1      1883 2.34803E+01-6.72493E-01 6.11408E-03-3.16531E-01 1.69527E-13-1.28841E-13
 -1      1884 2.34661E+01-4.51354E-01-7.62112E-03-1.09925E+00-5.95253E-14-1.02161E-13
 -1      1885 2.31224E+01-3.53236E-01-5.89054E-03-1.32746E+00-9.16827E-14-3.02848E-14
 -1      1886 2.36072E+01-6.81774E-01 1.22012E-02-1.04600E+00 3.37768E-14-7.94705E-14
 -1      1887 2.29545E+01-2.01249E-01-1.25680E-02-1.54202E+00-2.05771E-13-1.06165E-15
 -1      1888 2.25312E+01 2.19795E-02 1.24326E-02-1.59290E+00-1.72104E-13-7.41143E-14
 -1      1889 2.34534E+01-3.83014E-01 1.50042E-02-1.68213E+00-1.05673E-13-6.75510E-14
 -1      1890 2.22373E+01 2.62321E-01-1.23309E-02-1.51126E+00-1.03395E-13-1.06731E-13
 -1      1891 2.18727E+01 5.21262E-01 2.35441E-02-1.28888E+00-2.38021E-14-2.21429E-13
 -1      1892 2.30093E+01 2.31125E-01 4.53803E-03-1.86352E+00-1.26640E-13 6.99536E-14
 -1      1893 2.16202E+01 7.22919E-01-1.70893E-03-8.54832E-01 3.98188E-14-3.27644E-13
 -1      1894 2.14597E+01 8.54891E-01 1.79370E-02-4.06211E-01-2.53964E-15-2.84021E-13
 -1      1895 2.24734E+01 9.12391E-01-1.66771E-02-1.30631E+00-7.31845E-14-2.31913E-13
 -1      1896 2.14346E+01 8.75115E-01 1.54512E-02 2.10020E-01-9.60863E-14-3.40346E-13
 -1      1897 2.15476E+01 7.80855E-01 1.33310E-03 6.81109E-01-1.69450E-13-4.44198E-13
 -1      1898 2.21981E+01 1.25000E+00-3.03264E-02-1.20299E-01-1.11924E-13-3.25842E-13
 -1      1899 2.17711E+01 6.02416E-01 2.41084E-02 1.16712E+00-1.77013E-13-4.68799E-13
 -1      1900 2.21087E+01 3.53259E-01-1.10635E-02 1.43839E+00-1.63612E-13-4.74820E-13
 -1      1901 2.23956E+01 1.01081E+00-1.95126E-02 1.12854E+00-1.87085E-13-4.80640E-13
 -1      1902 2.24097E+01 1.08125E-01 1.52961E-02 1.58390E+00-1.24750E-13-4.86083E-13
 -1      1903 2.28333E+01-1.30892E-01-1.32261E-02 1.57739E+00-2.80654E-14-4.28439E-13
 -1      1904 2.29110E+01 3.57904E-01 1.20289E-03 1.82015E+00-1.53825E-13-3.75080E-13
 -1      1905 2.30299E+01-3.03110E-01-2.94810E-03 1.40452E+00 1.10901E-14-4.27195E-13
 -1      1906 2.33951E+01-4.24728E-01-8.77481E-03 1.19818E+00 2.05044E-14-4.28447E-13
 -1      1907 2.33908E+01-2.93626E-01 1.36886E-02 1.75663E+00 3.75934E-14-4.82682E-13
 -1      1908 2.34223E+01-4.78955E-01-1.73631E-02 8.69275E-01-7.38350E-14-4.15302E-13
 -1      1909 2.36393E+01-4.81605E-01-4.23001E-03 5.96013E-01-5.79779E-14-4.25480E-13
 -1      1910 2.36005E+01-6.53019E-01 1.30355E-02 1.17483E+00 4.12821E-14-3.53050E-13
 -1      1911 2.35310E+01-4.50842E-01-2.22091E-02 2.67482E-01-9.39162E-14-3.61943E-13
 -1      1912 2.35801E+01-3.87603E-01-1.75223E-03 2.73123E-02-6.40581E-14-4.55704E-13
 -1      1913 2.35182E+01-6.90234E-01 7.00392E-03 4.41136E-01-1.09520E-13-2.88048E-13
 -1      1914 2.33968E+01-3.22802E-01-1.92745E-02-2.18063E-01 1.09808E-15-6.26912E-13
 -1      1915 2.33065E+01-2.44665E-01-6.99526E-04-3.82175E-01 3.23699E-15-6.36573E-13
 -1      1916 2.32357E+01-5.35350E-01 1.80777E-03-1.86770E-01-1.44433E-13-4.47077E-13
 -1      1917 2.30955E+01-1.81025E-01-1.29112E-02-5.27024E-01 2.18410E-14-5.74590E-13
 -1      1918 2.29134E+01-1.15909E-01-2.18301E-04-6.14085E-01 6.74131E-14-4.53694E-13
 -1      1919 2.28533E+01-3.26716E-01-9.50509E-04-6.08007E-01 4.05522E-14-6.68021E-13
 -1      1920 2.27022E+01-6.80740E-02-6.47012E-03-6.75169E-01 1.59382E-13-3.56622E-13
 -1      1921 2.24740E+01-2.40970E-02 1.62846E-04-7.03113E-01 1.98725E-13-2.29819E-13
 -1      1922 2.24402E+01-1.45802E-01-2.08795E-03-8.27298E-01 1.94301E-13-3.75431E-13
 -1      1923 2.22762E+01 6.16740E-03-1.47396E-03-7.06772E-01 1.52158E-13-2.39239E-13
 -1      1924 2.20371E+01 3.11033E-02 5.47364E-04-6.96837E-01 2.13725E-13-2.48723E-13
 -1      1925 2.20358E+01-1.96660E-02-2.45874E-03-8.93357E-01 2.04058E-13-1.80634E-13
 -1      1926 2.18590E+01 4.73475E-02 1.77223E-03-6.66881E-01 1.54471E-13-1.69103E-13
 -1      1927 2.16316E+01 5.85566E-02 8.85929E-04-6.36544E-01-2.13273E-14-7.09706E-14
 -1      1928 2.16610E+01 5.45637E-02-2.52243E-03-8.60936E-01 1.30844E-13-3.25096E-13
 -1      1929 2.14757E+01 6.53266E-02 3.53175E-03-5.90440E-01-2.25128E-13-9.81720E-14
 -1      1930 2.12724E+01 6.79595E-02 1.12685E-03-5.51734E-01-1.76712E-13-6.73388E-14
 -1      1931 2.13260E+01 9.02510E-02-2.46415E-03-7.74741E-01-1.30671E-13 8.68053E-14
 -1      1932 2.11391E+01 6.90798E-02 4.23219E-03-5.00714E-01 1.48763E-14-8.85400E-14
 -1      1933 2.09651E+01 6.70507E-02 1.26569E-03-4.60891E-01 1.88545E-13-2.19331E-14
 -1      1934 2.10349E+01 1.01256E-01-2.34164E-03-6.65850E-01-9.03258E-14 1.44231E-13
 -1      1935 2.08535E+01 6.52586E-02 4.27046E-03-4.11330E-01 2.94159E-13-2.45223E-13
 -1      1936 2.07094E+01 6.12159E-02 1.33053E-03-3.74141E-01 1.95091E-13-1.92997E-13
 -1      1937 2.07878E+01 9.84430E-02-2.17250E-03-5.53382E-01 1.27727E-13-1.04460E-13
 -1      1938 2.06176E+01 5.83161E-02 3.94306E-03-3.29039E-01 1.72605E-13-1.56910E-14
 -1      1939 2.05017E+01 5.39438E-02 1.35836E-03-2.95897E-01 2.49132E-13 2.03256E-13
 -1      1940 2.05826E+01 8.93117E-02-1.97086E-03-4.47566E-01 2.88032E-13-1.08131E-13
 -1      1941 2.04278E+01 5.10801E-02 3.44040E-03-2.56060E-01 2.59232E-13 3.11873E-13
 -1      1942 2.03374E+01 4.74165E-02 1.37310E-03-2.26898E-01 3.12664E-13 2.10722E-13
 -1      1943 2.04156E+01 7.87022E-02-1.75040E-03-3.52589E-01 3.38381E-13 3.77090E-13
 -1      1944 2.02789E+01 4.52943E-02 2.85632E-03-1.91807E-01 1.03664E-13 1.99620E-13
 -1      1945 2.02112E+01 4.29459E-02 1.37821E-03-1.65695E-01-6.31723E-14 2.48798E-13
 -1      1946 2.02824E+01 6.96174E-02-1.51398E-03-2.68820E-01 1.77958E-13 2.03013E-13
 -1      1947 2.01657E+01 4.17436E-02 2.18753E-03-1.34119E-01-1.09337E-13 1.36546E-13
 -1      1948 2.01183E+01 4.05891E-02 1.32029E-03-1.09876E-01-3.57870E-14 2.01644E-13
 -1      1949 2.01786E+01 6.37607E-02-1.20133E-03-1.94493E-01-1.42857E-13 3.21809E-13
 -1      1950 2.00869E+01 3.89997E-02 1.66543E-03-8.24394E-02 2.04106E-13 1.43162E-13
 -1      1951 2.00562E+01 3.74643E-02 1.33249E-03-6.04810E-02 2.15472E-13 2.62495E-13
 -1      1952 2.00497E+01 5.02423E-02-9.36040E-04-7.23819E-02 7.55736E-14 2.55107E-13
 -1      1953 2.01023E+01 5.83304E-02-1.44550E-03-1.28933E-01 6.31233E-14 3.21002E-13
 -1      1954 1.96005E+01 1.42863E-01 7.94523E-03 2.57388E-01 1.72820E-13 4.83042E-13
 -1      1955 1.98715E+01 2.04722E-01 1.64926E-02 4.30839E-01 1.86280E-13 5.60895E-13
 -1      1956 2.00866E+01 3.51310E-01-1.56218E-03 6.52876E-01 2.33214E-13 3.97922E-13
 -1      1957 1.93623E+01 7.33860E-02 7.04658E-03 5.22582E-02 1.58528E-13 3.93695E-13
 -1      1958 1.94753E+01 1.03011E-01 1.42907E-02 1.41687E-01 1.54453E-13 4.43108E-13
 -1      1959 1.96974E+01 1.66717E-01-2.01135E-03 2.52059E-01 1.85520E-13 3.02195E-13
 -1      1960 1.92789E+01 3.84907E-02 4.58386E-03-5.67278E-02 1.02459E-13 3.27533E-13
 -1      1961 1.93056E+01 5.39614E-02 8.48144E-03-7.99397E-03 1.23993E-13 3.62745E-13
 -1      1962 1.95028E+01 8.32677E-02-2.92270E-03 3.65040E-02 1.61230E-13 2.36513E-13
 -1      1963 1.92885E+01 1.97435E-02 3.09066E-03-1.14608E-01 3.12285E-14 2.42487E-13
 -1      1964 1.92675E+01 2.81509E-02 4.56243E-03-8.76066E-02 5.94698E-14 2.92271E-13
 -1      1965 1.94327E+01 4.14860E-02-2.98748E-03-8.09519E-02 8.82944E-14 1.81871E-13
 -1      1966 1.93531E+01 9.68388E-03 2.31884E-03-1.44572E-01 4.90183E-14 1.97288E-13
 -1      1967 1.93057E+01 1.41351E-02 2.44418E-03-1.29619E-01 3.51199E-14 1.99104E-13
 -1      1968 1.94399E+01 1.95703E-02-2.51588E-03-1.44743E-01 6.61272E-14 8.79934E-14
 -1      1969 1.94505E+01 4.93327E-03 1.91024E-03-1.59882E-01 3.86431E-14 1.87442E-13
 -1      1970 1.93883E+01 6.94494E-03 1.35478E-03-1.51355E-01 6.71125E-14 2.15420E-13
 -1      1971 1.94948E+01 8.48657E-03-1.97187E-03-1.79038E-01 5.99054E-14 6.85464E-14
 -1      1972 1.95686E+01 3.75851E-03 1.70006E-03-1.68973E-01 5.83092E-14 1.19286E-13
 -1      1973 1.94975E+01 4.17085E-03 8.16029E-04-1.63224E-01 5.00028E-14 1.66431E-13
 -1      1974 1.95798E+01 4.09252E-03-1.54913E-03-1.98304E-01 8.52804E-14 9.61827E-14
 -1      1975 1.97020E+01 5.16917E-03 1.62959E-03-1.77657E-01 3.70937E-14 1.33974E-13
 -1      1976 1.96244E+01 4.49250E-03 5.95152E-04-1.72112E-01 2.47683E-14 9.80406E-14
 -1      1977 1.96852E+01 4.23654E-03-1.28242E-03-2.12004E-01 6.09139E-14 8.01223E-14
 -1      1978 1.98500E+01 8.54238E-03 1.67466E-03-1.90181E-01 7.26301E-14 1.92860E-13
 -1      1979 1.97657E+01 7.11489E-03 5.77486E-04-1.82904E-01 7.27686E-14 1.59632E-13
 -1      1980 1.98070E+01 7.67449E-03-1.15601E-03-2.26773E-01 4.34540E-14 1.19277E-13
 -1      1981 2.00155E+01 1.34304E-02 1.81742E-03-2.09749E-01 5.77575E-14 1.31584E-13
 -1      1982 1.99224E+01 1.15050E-02 6.96325E-04-1.99226E-01 8.14572E-14 1.92244E-13
 -1      1983 1.99450E+01 1.36012E-02-1.14675E-03-2.47483E-01 6.68379E-14 8.63180E-14
 -1      1984 2.02037E+01 1.94246E-02 2.03422E-03-2.38745E-01 8.21503E-14 7.17498E-14
 -1      1985 2.00985E+01 1.72326E-02 9.02826E-04-2.23796E-01 6.13805E-14 1.03363E-13
 -1      1986 2.01019E+01 2.13926E-02-1.23447E-03-2.77761E-01 9.54485E-14 7.89680E-14
 -1      1987 2.04216E+01 2.60179E-02 2.28604E-03-2.78699E-01 3.25356E-14 6.42904E-14
 -1      1988 2.03001E+01 2.38327E-02 1.15131E-03-2.58504E-01 6.06952E-14 6.44473E-14
 -1      1989 2.02824E+01 3.04040E-02-1.40219E-03-3.20145E-01 7.97700E-14 6.95984E-14
 -1      1990 2.06766E+01 3.24289E-02 2.50655E-03-3.29989E-01-8.36382E-14 6.93998E-14
 -1      1991 2.05344E+01 3.06450E-02 1.38909E-03-3.04238E-01-5.99551E-14 3.45541E-14
 -1      1992 2.04924E+01 3.97478E-02-1.63387E-03-3.75919E-01-3.13551E-14 4.17810E-14
 -1      1993 2.09758E+01 3.73567E-02 2.58748E-03-3.91186E-01 7.98970E-15 6.78077E-14
 -1      1994 2.08089E+01 3.65960E-02 1.54732E-03-3.60406E-01-1.12334E-14 7.34533E-14
 -1      1995 2.07380E+01 4.79997E-02-1.91103E-03-4.44585E-01-1.66466E-14 3.71315E-14
 -1      1996 2.13238E+01 3.86548E-02 2.36509E-03-4.57926E-01 4.96565E-14 1.14965E-13
 -1      1997 2.11297E+01 3.99003E-02 1.53366E-03-4.24042E-01 2.85627E-14 1.07883E-13
 -1      1998 2.10245E+01 5.27983E-02-2.20725E-03-5.22849E-01 6.06368E-14 1.12181E-13
 -1      1999 2.17199E+01 3.29578E-02 1.61921E-03-5.21196E-01 5.57301E-14 1.44541E-13
 -1      2000 2.14998E+01 3.76896E-02 1.23090E-03-4.88413E-01 9.24386E-14 1.25066E-13
 -1      2001 2.13548E+01 5.03474E-02-2.47770E-03-6.03021E-01 7.91766E-14 1.59194E-13
 -1      2002 2.21548E+01 1.54357E-02 1.09029E-04-5.65115E-01-1.03524E-13 7.66271E-14
 -1      2003 2.19156E+01 2.56686E-02 5.09431E-04-5.41073E-01-4.75226E-14 5.05793E-14
 -1      2004 2.17270E+01 3.49502E-02-2.63926E-03-6.70772E-01 2.63364E-14 9.82517E-14
 -1      2005 2.26058E+01-1.98513E-02-2.31403E-03-5.64725E-01-9.94763E-14 3.85724E-14
 -1      2006 2.23631E+01-1.87592E-03-7.32127E-04-5.61701E-01-1.04749E-13 5.90617E-14
 -1      2007 2.21318E+01-1.00370E-03-2.53565E-03-7.02588E-01-9.73279E-14 5.99069E-14
 -1      2008 2.30317E+01-7.80196E-02-5.47714E-03-4.85501E-01-2.18636E-14 9.30957E-14
 -1      2009 2.28130E+01-5.09703E-02-2.49686E-03-5.20788E-01-2.89126E-14 1.12903E-13
 -1      2010 2.25488E+01-6.56151E-02-1.88842E-03-6.64062E-01-6.53420E-14 8.78815E-14
 -1      2011 2.33697E+01-1.58337E-01-8.56838E-03-2.88236E-01 1.48031E-13 3.25837E-14
 -1      2012 2.32154E+01-1.24383E-01-4.58856E-03-3.81794E-01 4.11225E-14 7.06948E-14
 -1      2013 2.29423E+01-1.62873E-01-2.64764E-04-5.11838E-01 6.50365E-14 8.46814E-14
 -1      2014 2.35375E+01-2.45347E-01-9.97929E-03 5.47728E-02 1.29037E-14 1.33239E-14
 -1      2015 2.34968E+01-2.14222E-01-6.58457E-03-1.11542E-01 9.15292E-14-2.07408E-15
 -1      2016 2.32576E+01-2.83002E-01 2.81235E-03-2.04491E-01 9.77395E-14 1.16020E-14
 -1      2017 2.34473E+01-2.99382E-01-7.77002E-03 5.27204E-01-2.38168E-13 4.63154E-14
 -1      2018 2.35658E+01-2.91447E-01-7.79891E-03 2.95730E-01-1.19814E-13 1.22354E-14
 -1      2019 2.34210E+01-3.88965E-01 7.43534E-03 2.71054E-01-1.22554E-13 8.70534E-14
 -1      2020 2.30393E+01-2.59641E-01-1.59004E-03 1.02711E+00-1.94893E-13 2.13989E-13
 -1      2021 2.33361E+01-3.01132E-01-7.44114E-03 7.81028E-01-2.61187E-13 8.17992E-14
 -1      2022 2.33506E+01-4.09943E-01 1.24054E-02 8.56129E-01-2.73652E-13 1.64947E-13
 -1      2023 2.23382E+01-7.83563E-02 4.64567E-03 1.35026E+00-4.12918E-14 2.75835E-13
 -1      2024 2.27773E+01-1.81379E-01-5.32899E-03 1.19039E+00-8.47950E-14 2.69725E-13
 -1      2025 2.29934E+01-2.63320E-01 1.42165E-02 1.38000E+00-1.22765E-13 1.20822E-13
 -1      2026 2.15126E+01 2.13195E-01 4.57214E-03 1.26053E+00 8.77015E-14 5.59438E-13
 -1      2027 2.19871E+01 7.97956E-02-1.22070E-03 1.29977E+00-7.67832E-15 4.07580E-13
 -1      2028 2.23924E+01 6.97937E-02 6.81836E-03 1.57509E+00-4.89066E-14 3.05934E-13
 -1      2029 2.08750E+01 4.72523E-01-2.59596E-03 6.65556E-01 2.33442E-14 4.23487E-13
 -1      2030 2.12236E+01 3.83317E-01 5.47659E-03 9.41831E-01 1.11888E-13 5.58229E-13
 -1      2031 2.17506E+01 4.77353E-01-6.61177E-03 1.21431E+00 8.24826E-14 4.16427E-13
 -1      2032 2.07370E+01 5.28592E-01-1.10618E-02-2.33796E-01 4.43187E-14 1.91052E-13
 -1      2033 2.08132E+01 5.48547E-01 1.15948E-02 1.77048E-01-8.30933E-15 3.39274E-13
 -1      2034 2.13768E+01 7.35148E-01-1.58412E-02 3.28932E-01 9.56995E-14 2.71419E-13
 -1      2035 2.11843E+01 3.42300E-01-1.09125E-02-1.02376E+00 1.12693E-13 2.61045E-13
 -1      2036 2.09480E+01 4.61271E-01 1.30844E-02-6.69183E-01 3.34299E-14 1.65262E-13
 -1      2037 2.14832E+01 6.72572E-01-1.32172E-02-7.11276E-01 5.33740E-14 1.34649E-13
 -1      2038 2.19990E+01 4.40531E-02-1.90705E-03-1.36913E+00 6.10421E-14 1.32602E-13
 -1      2039 2.15473E+01 1.84860E-01 8.22132E-03-1.21393E+00 1.10249E-13 1.80649E-13
 -1      2040 2.20058E+01 3.32576E-01-1.22028E-03-1.42386E+00 9.94881E-14 1.18927E-13
 -1      2041 2.28227E+01-1.93131E-01 7.31770E-03-1.22442E+00 2.56133E-13 1.05853E-14
 -1      2042 2.23308E+01-1.03156E-01-4.31163E-04-1.28050E+00 9.99608E-14 1.33267E-13
 -1      2043 2.26609E+01-7.58446E-02 6.31347E-03-1.55713E+00 9.34177E-14-1.04526E-13
 -1      2044 2.33888E+01-2.90163E-01 1.08766E-02-7.80608E-01 1.60788E-13-7.54691E-15
 -1      2045 2.30084E+01-2.70360E-01-7.99845E-03-9.63472E-01 2.60606E-13-5.52162E-15
 -1      2046 2.31703E+01-3.50088E-01 5.57313E-03-1.20252E+00 2.83806E-13-8.57101E-14
 -1      2047 2.36076E+01-2.69601E-01 9.04554E-03-2.74588E-01 7.42913E-14-1.92322E-14
 -1      2048 2.34113E+01-2.97862E-01-1.15019E-02-4.84688E-01 1.18535E-13 4.85120E-14
 -1      2049 2.34042E+01-4.27852E-01 1.33033E-03-6.27215E-01 1.12493E-13 1.20923E-14
 -1      2050 2.35209E+01-1.92430E-01 5.03916E-03 1.38522E-01 5.33792E-14-1.54998E-14
 -1      2051 2.35061E+01-2.37835E-01-1.10819E-02-3.44947E-02 4.72625E-14 2.25109E-14
 -1      2052 2.33694E+01-3.63153E-01-1.70475E-03-7.08345E-02 1.08928E-13 4.23164E-15
 -1      2053 2.32234E+01-1.08195E-01 1.42119E-03 4.04900E-01 3.33787E-14-7.56426E-15
 -1      2054 2.33460E+01-1.50036E-01-8.38782E-03 2.91616E-01 3.18148E-15-4.31517E-14
 -1      2055 2.31363E+01-2.41491E-01-2.55138E-03 3.41231E-01 7.86688E-14 1.16907E-13
 -1      2056 2.28107E+01-4.12089E-02-8.12166E-04 5.35756E-01-8.89523E-15-1.83464E-13
 -1      2057 2.30159E+01-7.13153E-02-5.04563E-03 4.78212E-01 7.19342E-14-2.83436E-14
 -1      2058 2.27850E+01-1.23517E-01-2.08007E-03 5.83697E-01 1.09109E-13 2.17742E-13
 -1      2059 2.23570E+01 2.89028E-03-1.77802E-03 5.67657E-01 1.57087E-13-6.50304E-14
 -1      2060 2.25979E+01-1.50955E-02-2.06708E-03 5.51257E-01 8.96310E-15-1.50205E-13
 -1      2061 2.23814E+01-3.54060E-02-1.30544E-03 6.84742E-01 1.56254E-14 7.02723E-14
 -1      2062 2.19122E+01 2.74372E-02-1.92417E-03 5.38503E-01-2.33379E-13 1.09323E-13
 -1      2063 2.21555E+01 1.88154E-02 1.25646E-04 5.47858E-01 2.94541E-14-3.49937E-15
 -1      2064 2.19722E+01 1.96602E-02-7.19248E-04 6.88430E-01-3.99718E-14 9.45728E-14
 -1      2065 2.15052E+01 3.82404E-02-1.66276E-03 4.77878E-01-3.03458E-13 3.22561E-13
 -1      2066 2.17309E+01 3.57604E-02 1.50372E-03 5.00836E-01-2.54297E-13 2.19285E-13
 -1      2067 2.15871E+01 4.83535E-02-4.12941E-04 6.35016E-01-3.50849E-13 3.12750E-13
 -1      2068 2.11500E+01 4.06025E-02-1.25947E-03 4.05517E-01-1.25874E-13 1.85517E-13
 -1      2069 2.13480E+01 4.16346E-02 2.21909E-03 4.33883E-01-2.90554E-13 2.26166E-13
 -1      2070 2.12425E+01 5.93281E-02-3.12375E-04 5.54254E-01-2.43432E-13 2.87087E-13
 -1      2071 2.08505E+01 3.84722E-02-8.47442E-04 3.32988E-01 1.15363E-14 3.29538E-13
 -1      2072 2.10175E+01 4.11728E-02 2.47156E-03 3.61899E-01-2.43232E-14 2.31225E-13
 -1      2073 2.09453E+01 5.99051E-02-3.19216E-04 4.65320E-01-1.47978E-13 2.35426E-13
 -1      2074 2.06052E+01 3.45257E-02-4.75843E-04 2.66013E-01 2.74087E-13 3.40667E-13
 -1      2075 2.07416E+01 3.77015E-02 2.44118E-03 2.93032E-01 1.93181E-13 3.86318E-13
 -1      2076 2.06966E+01 5.53412E-02-3.63133E-04 3.79041E-01 1.95860E-13 2.46813E-13
 -1      2077 2.04095E+01 3.05092E-02-1.56325E-04 2.06414E-01 1.14167E-13 1.61530E-13
 -1      2078 2.05176E+01 3.34205E-02 2.26190E-03 2.30763E-01 2.36849E-13 3.17307E-13
 -1      2079 2.04937E+01 4.91251E-02-4.09348E-04 3.00358E-01 2.73938E-13 2.90891E-13
 -1      2080 2.02582E+01 2.74998E-02 8.58990E-05 1.53511E-01 1.70815E-13 1.45705E-13
 -1      2081 2.03410E+01 2.97419E-02 2.01106E-03 1.75526E-01 3.02629E-14 7.09463E-14
 -1      2082 2.03325E+01 4.34836E-02-4.52167E-04 2.30325E-01 7.40878E-14 1.65737E-13
 -1      2083 2.01464E+01 2.59694E-02 2.01513E-04 1.05401E-01 1.98413E-13 1.20076E-13
 -1      2084 2.02065E+01 2.73876E-02 1.69340E-03 1.25984E-01 2.52415E-13 1.86393E-13
 -1      2085 2.02080E+01 3.95480E-02-5.35900E-04 1.67674E-01 2.06677E-13 1.08903E-13
 -1      2086 2.00699E+01 2.57325E-02 5.69379E-04 6.04373E-02 7.51853E-14 1.75072E-13
 -1      2087 2.01089E+01 2.62671E-02 1.24629E-03 8.02529E-02 1.43992E-13 2.11113E-13
 -1      2088 2.01156E+01 3.77388E-02-5.53526E-04 1.10393E-01 1.43637E-13 2.22734E-13
 -1      2089 2.00299E+01 2.42303E-02 9.61540E-04 2.93219E-02 1.24997E-13 1.29484E-13
 -1      2090 2.00526E+01 2.67073E-02 8.60185E-04 4.71257E-02 1.14195E-13 2.04892E-13
 -1      2091 2.00599E+01 3.78772E-02-4.61665E-04 6.79315E-02 1.07011E-13 3.97915E-13
 -1      2092 2.00298E+01 3.53802E-02 6.05807E-05 3.89972E-02 1.13020E-13 5.49818E-13
 -1      2093 2.00042E+01 2.33119E-01-5.57219E-04 1.28844E-01-1.48508E-13-3.17832E-13
 -1      2094 2.00129E+01 1.91862E-01 8.65855E-04 1.23916E-01-1.87184E-13-1.02405E-13
 -1      2095 2.00207E+01 1.52075E-01-1.12319E-04 1.12909E-01-1.69495E-13 1.09488E-13
 -1      2096 2.00280E+01 1.15766E-01 1.02654E-03 9.86365E-02-1.75395E-13 5.10029E-13
 -1      2097 2.00250E+01 1.79403E-01-1.15696E-04 1.53310E-01-2.97711E-13 1.42126E-13
 -1      2098 2.00295E+01 8.69273E-02 2.28139E-04 7.96248E-02-1.24844E-13 4.36586E-13
 -1      2099 2.00325E+01 5.90611E-02 8.60853E-04 6.05472E-02-1.41715E-14 4.77192E-13
 -1      2100 2.00463E+01 6.13413E-02 5.50365E-04 7.56524E-02 6.82183E-15 2.76259E-13
 -1      2101 2.00401E+01 1.12330E-01-4.87815E-04 1.19012E-01-1.15496E-13 3.91950E-13
 -1      2102 1.99885E+01 3.12106E-01-1.01537E-03 1.24282E-01-4.84089E-13-6.04492E-13
 -1      2103 1.99965E+01 2.71966E-01 2.87864E-04 1.28450E-01-2.64650E-13-5.19827E-13
 -1      2104 2.00010E+01 2.57468E-01 3.23373E-04 1.64510E-01-4.31764E-13-6.25998E-13
 -1      2105 1.99752E+01 3.81426E-01-1.39968E-03 1.00571E-01-2.89760E-13 1.19811E-13
 -1      2106 1.99817E+01 3.47037E-01-3.49850E-04 1.12867E-01-4.37925E-13-1.35755E-13
 -1      2107 1.99784E+01 3.31126E-01 8.09600E-04 1.50864E-01-3.59002E-13-3.32381E-13
 -1      2108 1.99660E+01 4.30306E-01-1.61150E-03 6.18307E-02-1.48681E-13-2.06626E-13
 -1      2109 1.99702E+01 4.07452E-01-9.40584E-04 8.00782E-02-1.91837E-13 3.66764E-15
 -1      2110 1.99601E+01 3.92099E-01 1.24033E-03 1.14649E-01-2.81793E-13 1.57881E-13
 -1      2111 1.99619E+01 4.52174E-01-1.61073E-03 1.40585E-02-1.34668E-13-6.31551E-14
 -1      2112 1.99633E+01 4.44200E-01-1.37747E-03 3.54517E-02-1.06897E-13-2.17804E-13
 -1      2113 1.99482E+01 4.32086E-01 1.52441E-03 6.16844E-02-1.15966E-13-1.95800E-13
 -1      2114 1.99633E+01 4.44102E-01-1.38578E-03-3.57652E-02-3.63430E-14-2.16020E-13
 -1      2115 1.99619E+01 4.52184E-01-1.60587E-03-1.43652E-02-3.65240E-14-1.88371E-13
 -1      2116 1.99441E+01 4.46018E-01 1.62423E-03-1.72177E-04-1.42087E-13-1.04232E-13
 -1      2117 1.99701E+01 4.07222E-01-9.62661E-04-8.04227E-02-2.33298E-13-3.85749E-13
 -1      2118 1.99660E+01 4.30225E-01-1.59909E-03-6.21734E-02-1.13083E-13-1.45099E-13
 -1      2119 1.99482E+01 4.32115E-01 1.52237E-03-6.20587E-02-2.36456E-14-2.98183E-13
 -1      2120 1.99815E+01 3.47854E-01-3.67281E-04-1.12804E-01-2.28642E-13-2.96847E-13
 -1      2121 1.99750E+01 3.81698E-01-1.39631E-03-1.00658E-01-3.89036E-13-1.52289E-13
 -1      2122 1.99600E+01 3.92565E-01 1.26461E-03-1.14747E-01-5.00570E-14-3.49990E-13
 -1      2123 1.99965E+01 2.72075E-01 2.93303E-04-1.28670E-01-5.41380E-14 5.41066E-13
 -1      2124 1.99884E+01 3.12971E-01-1.02969E-03-1.24412E-01-7.90879E-14 5.98160E-14
 -1      2125 1.99781E+01 3.32164E-01 8.15995E-04-1.50897E-01 2.86638E-14-4.10067E-14
 -1      2126 2.00131E+01 1.91053E-01 8.64265E-04-1.24010E-01-5.35780E-14 1.99800E-13
 -1      2127 2.00044E+01 2.32459E-01-5.78026E-04-1.29061E-01-4.55004E-14 3.67851E-13
 -1      2128 2.00010E+01 2.57747E-01 2.89571E-04-1.64789E-01 8.27156E-14 4.09765E-13
 -1      2129 2.00277E+01 1.12895E-01 2.93416E-04-9.86278E-02-2.05587E-13-2.60844E-13
 -1      2130 2.00208E+01 1.51171E-01-1.29850E-04-1.12758E-01-1.33162E-13 5.22325E-15
 -1      2131 2.00253E+01 1.79119E-01-5.21850E-05-1.53131E-01-8.99291E-14 1.19455E-15
 -1      2132 1.02946E+01-5.06623E+00-1.31043E-01 6.47805E+00-3.08642E-14-1.46758E-13
 -1      2133 6.46780E+00-6.65240E+00-4.01232E-01 5.08117E+00 4.27436E-15-3.28099E-13
 -1      2134 2.51262E-01-6.99830E+00-3.79685E-01 8.14631E-01 3.92034E-13 2.08389E-13
 -1      2135 2.06503E-01-7.26758E+00-4.21898E-01-6.90792E-01 2.39656E-13 4.49030E-13
 -1      2136 3.73221E+00-6.36728E+00-2.86034E-01 4.24745E+00 8.20455E-14-5.45008E-13
 -1      2137 1.72139E+00-7.06083E+00-4.00230E-01 2.85103E+00 2.02061E-13-2.15994E-13
 -1      2138 7.20643E+00-5.20586E+00-1.16751E-01 5.79950E+00-9.91429E-14-4.83419E-13
 -1      2139 1.95646E+01-3.21063E+00 3.36737E-02 6.77307E+00-1.20071E-13-5.00100E-13
 -1      2140 1.51216E+01-5.09190E+00-2.37054E-01 6.19191E+00-4.60743E-14-3.36231E-13
 -1      2141 2.71873E+01-5.46312E-01 1.36440E-01 5.95740E+00-1.38112E-13-4.46643E-13
 -1      2142 2.22844E+01-2.47041E+00-1.98194E-01 5.76485E+00-1.60649E-13-4.01568E-13
 -1      2143 2.31087E+01-4.47610E+00 3.80214E-02 5.40279E+00-3.19356E-13-7.01855E-13
 -1      2144 1.95286E+01 4.01813E+00-2.56584E-02-1.69839E+00-1.59655E-13-4.55736E-13
 -1      2145 1.96538E+01 3.94370E+00-2.43141E-02-1.95364E+00-1.99836E-13-4.14252E-13
 -1      2146 1.99741E+01 3.25467E+00-7.96957E-03-1.90624E+00-2.34571E-13-3.61050E-13
 -1      2147 1.97006E+01 3.58686E+00-9.22337E-03-1.51412E+00-1.56802E-13-4.34911E-13
 -1      2148 3.80356E+01 5.61484E+00 2.40491E-01 1.35029E+00 1.91180E-13-3.09863E-13
 -1      2149 3.64125E+01 4.54324E+00 2.61424E-01 2.82155E+00 1.36030E-13-3.12528E-13
 -1      2150 4.06043E+01 7.29711E+00 4.27179E-01 4.77857E-04 3.47000E-13-3.64436E-13
 -1      2151 3.90433E+01 7.07779E+00 2.84509E-01 9.41812E-01 2.70894E-13-2.69090E-13
 -1      2152 3.81089E+01 6.40053E+00 1.83832E-01-1.19023E+00 5.51226E-13-4.07063E-13
 -1      2153 3.94462E+01 6.95602E+00 2.86687E-01-2.97466E-01 4.16667E-13-3.22103E-13
 -1      2154 3.47223E+01 3.64052E+00 7.71040E-02-2.80259E+00 4.39482E-13-5.72986E-13
 -1      2155 3.77486E+01 4.96074E+00 2.76824E-01-1.96060E+00 5.35988E-13-4.60909E-13
 -1      2156 2.89045E+01 1.50090E-01-3.22115E-02-4.18407E+00 3.88162E-13-5.51670E-13
 -1      2157 3.34132E+01 2.05472E+00 2.64706E-01-4.06286E+00 3.69337E-13-6.34159E-13
 -1      2158 3.31050E+01 2.24191E+00 2.18813E-01-8.96666E-01 2.42598E-13-1.18794E-13
 -1      2159 2.01941E+01-3.61261E+00-2.02701E-01-5.88038E+00 1.37335E-13-5.89861E-13
 -1      2160 2.52185E+01-1.97396E+00 4.56770E-02-5.92925E+00 2.83884E-13-5.90861E-13
 -1      2161 1.15678E+01-5.68674E+00-3.65332E-01-5.95977E+00 2.10942E-15-6.64593E-13
 -1      2162 1.60228E+01-3.98432E+00-6.74199E-02-6.89149E+00 9.17044E-14-6.94889E-13
 -1      2163 4.88000E+00-6.92223E+00-4.17267E-01-4.56506E+00-1.81244E-13-6.02268E-13
 -1      2164 7.94937E+00-5.52008E+00-1.97345E-01-5.81245E+00 2.77556E-14-6.66175E-13
 -1      2165 1.00875E+00-6.92572E+00-3.77108E-01-2.00520E+00-1.95843E-13-4.00069E-13
 -1      2166 2.48172E+00-6.49582E+00-3.10824E-01-3.45826E+00-1.40554E-13-5.96578E-13
 -1      2167 5.79463E-01-7.20117E+00-4.09946E-01 1.55310E+00-3.25934E-13-6.08513E-13
 -1      2168 1.25074E-01-7.09057E+00-3.99100E-01 4.39282E-02-2.05270E-13-5.28466E-13
 -1      2169 4.34509E+00-6.13692E+00-2.76156E-01 4.60068E+00-3.90465E-13-3.73729E-13
 -1      2170 2.05987E+00-7.39558E+00-4.65027E-01 3.07693E+00-2.81608E-13-5.14477E-13
 -1      2171 1.19320E+01-4.84281E+00-1.20585E-01 6.56071E+00-4.77840E-13-5.98271E-13
 -1      2172 8.18663E+00-6.35368E+00-3.51131E-01 5.52950E+00-3.60212E-13-4.68389E-13
 -1      2173 2.03274E+01-3.09838E+00 1.07297E-04 6.73577E+00-5.97744E-13-3.59490E-13
 -1      2174 1.53534E+01-4.80807E+00-3.00218E-01 6.13412E+00-5.37570E-13-4.45727E-13
 -1      2175 1.62067E+01-5.53991E+00-2.61436E-02 6.71740E+00-1.96843E-13-3.30735E-13
 -1      2176 2.92797E+01 3.82843E-01 2.21717E-01 5.66658E+00-5.54445E-13-4.33653E-13
 -1      2177 2.45304E+01-1.64275E+00-1.10935E-01 5.38610E+00-6.62193E-13-3.47444E-13
 -1      2178 3.53702E+01 3.19220E+00 2.58690E-01 3.45056E+00-5.46729E-13-4.60743E-15
 -1      2179 3.16928E+01 1.81919E+00 8.76645E-02 4.37858E+00-5.64174E-13-3.31735E-13
 -1      2180 3.99250E+01 6.02945E+00 4.30263E-01 1.58005E+00-7.26530E-13 3.78975E-13
 -1      2181 3.69137E+01 5.14950E+00 1.88284E-01 2.17649E+00-5.42288E-13 2.53020E-13
 -1      2182 4.00773E+01 7.26024E+00 2.96628E-01-1.46999E-01-6.18283E-13 3.09395E-13
 -1      2183 4.04271E+01 6.84828E+00 3.89459E-01 1.03688E+00-8.18845E-13 2.89629E-13
 -1      2184 3.62520E+01 7.20029E+00 3.39370E-01-1.03049E-01-7.00218E-13 4.70290E-13
 -1      2185 3.87732E+01 6.14206E+00 2.69727E-01-1.56859E+00-3.83360E-13 3.19078E-13
 -1      2186 3.94767E+01 6.91532E+00 2.81038E-01-4.19190E-01-4.14835E-13 2.88908E-13
 -1      2187 3.46505E+01 3.70201E+00 8.72338E-02-2.60930E+00-6.66273E-14 2.72005E-13
 -1      2188 3.81504E+01 4.95091E+00 3.52278E-01-2.20249E+00-2.10665E-13 2.90823E-13
 -1      2189 3.50501E+01 5.90496E+00 2.73020E-01 2.46505E-01-2.78777E-13 2.64955E-13
 -1      2190 2.85340E+01 1.75261E-01-2.55068E-02-4.88387E+00-1.08080E-13 3.94462E-13
 -1      2191 3.26805E+01 1.62732E+00 1.88416E-01-4.20290E+00-1.22138E-13 3.04534E-13
 -1      2192 2.12942E+01-3.03940E+00-1.81924E-01-5.78933E+00-3.19744E-14 3.26739E-13
 -1      2193 2.59308E+01-9.91011E-01 1.46072E-01-6.16229E+00-7.04992E-14 4.58356E-13
 -1      2194 2.83636E+01-2.01614E+00 1.37242E-01-3.66267E+00-1.00281E-13 3.69593E-13
 -1      2195 1.26220E+01-5.51104E+00-3.28413E-01-6.07348E+00 1.35336E-13 3.54938E-13
 -1      2196 1.71548E+01-3.84090E+00-3.69395E-02-6.87946E+00-7.08322E-14 2.41585E-13
 -1      2197 5.40099E+00-6.89042E+00-4.37018E-01-4.71868E+00 2.16216E-13 2.83495E-13
 -1      2198 8.72199E+00-5.39606E+00-1.80845E-01-6.01693E+00 1.71974E-13 2.90150E-13
 -1      2199 1.34075E+00-7.16472E+00-4.13731E-01-2.41062E+00 2.48745E-13 3.61211E-13
 -1      2200 3.00225E+00-6.40562E+00-2.93345E-01-3.78571E+00 2.00451E-13 3.33233E-13
 -1      2201 3.46759E+01 2.72328E+00 2.73780E-01 3.87941E+00-1.00085E-14-3.83804E-13
 -1      2202 3.04368E+01 1.21106E+00 6.66174E-03 4.29258E+00-2.09277E-14-3.68150E-13
 -1      2203 2.94511E+01-1.32593E+00 1.50001E-01 3.09852E+00-1.72598E-13-5.03875E-13
 -1      2204 2.07181E+01 1.10881E+00-2.04850E-02-1.61491E+00-2.84116E-13 6.36106E-14
 -1      2205 3.47407E+01 5.94608E+00 2.42260E-01 2.76459E-01 4.86167E-13-5.86198E-14
 -1      2206 3.37281E+01 3.02426E+00 2.41849E-01 7.95402E-01 6.22558E-14-1.27898E-13
 -1      2207 2.06135E+01 1.32982E+00-1.88582E-02-1.67542E+00-3.05717E-13-7.97643E-14
 -1      2208 2.32631E+00-4.88627E+00-1.85318E-01 2.40071E+00 1.10800E-13-1.53710E-13
 -1      2209 1.51534E+01-5.52980E+00-2.97236E-02 6.77812E+00-3.19245E-13-5.13374E-13
 -1      2210 2.00355E+01 9.31277E-02 5.73763E-04-9.31294E-02-2.14087E-13-1.43559E-13
 -1      2211 2.08241E+00-4.74104E+00-1.82541E-01-2.06517E+00 1.99868E-13 4.10671E-13
 -1      2212 6.02976E+00-5.24107E+00-1.51653E-01-5.26919E+00 9.95870E-14 3.39839E-13
 -1      2213 2.14106E+01-4.68200E+00 1.33527E-02-5.89709E+00-5.01821E-14 3.09669E-13
 -1      2214 3.29937E+01 1.89054E+00 1.95876E-01-1.28039E+00-7.53564E-14 2.29816E-13
 -1      2215 3.62498E+01 7.79855E+00 2.98747E-01 1.34986E-01-5.09759E-13 1.94164E-13
 -1      2216 3.46383E+01 3.82985E+00 2.49575E-01 8.35421E-01-5.64854E-13 3.45279E-13
 -1      2217 2.40958E+01-3.86914E+00 3.61152E-02 5.20193E+00-3.52274E-13-5.50116E-14
 -1      2218 8.35762E+00-5.45367E+00-1.13509E-01 6.08362E+00-1.48381E-13-4.23939E-13
 -1      2219 2.64160E+00-5.03006E+00-1.99934E-01 3.02036E+00-6.99996E-14-5.28799E-13
 -1      2220 1.84285E+00-4.68755E+00-1.78562E-01-1.29210E+00-1.31589E-13-5.58886E-13
 -1      2221 5.51490E+00-5.11004E+00-1.47445E-01-5.02893E+00-2.66787E-13-6.33604E-13
 -1      2222 1.21716E+01-5.59531E+00-8.23137E-02-6.74242E+00-2.30926E-13-6.15938E-13
 -1      2223 2.82170E+01-2.27733E+00 9.17767E-02-3.47437E+00-8.82627E-15-2.16882E-13
 -1      2224 3.65788E+01 6.34788E+00 1.97887E-01 3.12331E-01 2.26430E-13-1.76248E-13
 -1      2225 3.32501E+01 5.60088E+00 2.68245E-02-6.33363E-01 1.55653E-13-1.45800E-13
 -1      2226 3.36560E+01 6.96795E+00-7.43415E-02-6.45424E-01 3.71592E-13-1.36335E-13
 -1      2227 3.56242E+01 7.94300E+00 2.47799E-01 2.10410E-01 3.61600E-13-1.96336E-13
 -1      2228 2.04357E+01-4.99912E+00 3.71047E-02-6.14015E+00-1.88072E-13-4.75425E-13
 -1      2229 3.07490E+01-2.39515E-01 1.79919E-01 2.77467E+00-4.38163E-13-3.25295E-14
 -1      2230 1.29111E+01-5.61060E+00-7.84102E-02-6.74914E+00 1.19127E-13 4.19699E-13
 -1      2231 2.01373E+01 5.08515E-01 3.86632E-03 6.74252E-01 2.37543E-13 2.34834E-13
 -1      2232 2.04037E+01 7.01370E-01 2.08184E-02 9.66715E-01 2.73269E-13 2.87860E-13
 -1      2233 1.95737E+01 3.52685E+00-1.11932E-02-5.88401E-01-5.37900E-15-4.39609E-13
 -1      2234 1.96084E+01 3.48022E+00-1.05003E-02-7.72163E-01-4.15886E-14-4.43735E-13
 -1      2235 1.96538E+01 3.39070E+00-1.28747E-02-9.36230E-01-7.42421E-14-4.34181E-13
 -1      2236 1.97130E+01 3.30902E+00-1.28979E-02-1.12511E+00-1.12548E-13-4.30899E-13
 -1      2237 1.97988E+01 3.04513E+00 2.78999E-04-7.87291E-01-5.22046E-14-4.09776E-13
 -1      2238 1.95275E+01 3.61106E+00-9.65001E-03 9.89780E-02 1.17148E-13-3.83564E-13
 -1      2239 1.95268E+01 3.61189E+00-9.66007E-03-7.96423E-02 8.48764E-14-4.02664E-13
 -1      2240 1.95531E+01 3.57085E+00-9.72916E-03 4.43243E-01 1.80817E-13-3.61208E-13
 -1      2241 1.95360E+01 3.59385E+00-1.01883E-02 2.63188E-01 1.45789E-13-3.75945E-13
 -1      2242 1.96929E+01 3.23671E+00-7.80734E-04 1.68346E-01 1.19162E-13-3.58633E-13
 -1      2243 1.96136E+01 3.47258E+00-1.05967E-02 7.85870E-01 2.51662E-13-3.20875E-13
 -1      2244 1.95781E+01 3.52035E+00-1.12706E-02 6.04992E-01 2.09381E-13-3.45098E-13
 -1      2245 1.97291E+01 3.17188E+00-3.93864E-04 4.84675E-01 1.84333E-13-3.20434E-13
 -1      2246 1.97217E+01 3.29640E+00-1.29169E-02 1.13849E+00 3.11803E-13-2.52151E-13
 -1      2247 1.96605E+01 3.38073E+00-1.29396E-02 9.49503E-01 2.77775E-13-2.87268E-13
 -1      2248 1.98047E+01 3.03587E+00 3.50032E-04 7.98843E-01 2.56508E-13-2.82030E-13
 -1      2249 1.98966E+01 3.00812E+00-1.81249E-02 1.48560E+00 3.60337E-13-1.71071E-13
 -1      2250 1.97994E+01 3.15044E+00-1.52344E-02 1.29514E+00 3.28252E-13-2.24165E-13
 -1      2251 1.99312E+01 2.80768E+00 2.00145E-03 1.10443E+00 3.07633E-13-2.16434E-13
 -1      2252 2.01685E+01 2.54608E+00-2.83778E-02 1.79069E+00 3.89698E-13-3.57110E-14
 -1      2253 2.00208E+01 2.78639E+00-1.71127E-02 1.61593E+00 3.67102E-13-1.17628E-13
 -1      2254 2.01213E+01 2.45389E+00 5.86209E-03 1.37057E+00 3.44969E-13-1.27722E-13
 -1      2255 1.98643E+01 2.71988E-01 4.92442E-03 2.78531E-01 2.02493E-13 1.53688E-13
 -1      2256 2.00226E+01 3.70824E-01 2.02125E-02 4.37288E-01 2.10375E-13 2.03225E-13
 -1      2257 2.02053E+01 6.38133E-01-2.32931E-03 6.98754E-01 2.59083E-13 1.10553E-13
 -1      2258 2.03929E+01 8.55728E-01 1.24833E-02-9.96526E-01-2.35574E-13-1.25458E-13
 -1      2259 2.01852E+01 6.31638E-01-3.68102E-03-6.86112E-01-2.06715E-13-1.23079E-13
 -1      2260 3.19133E+01 4.25859E+00-1.02330E-01 1.08049E+00 2.96818E-13 1.14186E-13
 -1      2261 3.18382E+01 5.83560E+00-1.69144E-01 1.13882E+00 3.70370E-13-5.17780E-14
 -1      2262 2.01189E+01 4.73767E-01 1.55770E-02-4.67117E-01-1.74845E-13-1.19519E-13
 -1      2263 1.99824E+01 3.50607E-01 3.24516E-04-2.93490E-01-1.32552E-13-1.36881E-13
 -1      2264 2.02428E+01 7.53111E-01-1.42446E-03-6.84188E-01-1.88680E-13-1.83759E-13
 -1      2265 1.99211E+01 2.66963E-01 1.07494E-02-1.53113E-01-1.28722E-13-1.35583E-13
 -1      2266 1.98468E+01 1.97587E-01 1.00957E-03-5.24017E-02-1.18640E-13-1.55290E-13
 -1      2267 2.00840E+01 4.24828E-01-3.99358E-03-2.96523E-01-1.50932E-13-2.21927E-13
 -1      2268 1.98060E+01 1.50052E-01 6.40729E-03 3.45656E-02-1.06304E-13-1.49834E-13
 -1      2269 1.97773E+01 1.10234E-01 1.15687E-03 9.29458E-02-1.01884E-13-1.53759E-13
 -1      2270 1.99692E+01 2.41383E-01-3.87633E-03-4.86711E-02-1.27179E-13-1.79510E-13
 -1      2271 1.97565E+01 8.29259E-02 3.60865E-03 1.45594E-01-9.74870E-14-1.68645E-13
 -1      2272 1.97583E+01 6.07343E-02 1.22929E-03 1.79365E-01-1.03480E-13-1.74010E-13
 -1      2273 1.99027E+01 1.35418E-01-3.19183E-03 1.04690E-01-1.22551E-13-2.01021E-13
 -1      2274 1.97536E+01 4.58646E-02 1.90038E-03 2.11297E-01-1.13225E-13-1.70038E-13
 -1      2275 1.97757E+01 3.49302E-02 1.31723E-03 2.31396E-01-7.78595E-14-1.80116E-13
 -1      2276 1.98757E+01 7.57293E-02-2.44926E-03 1.98694E-01-1.00821E-13-1.66012E-13
 -1      2277 1.97834E+01 2.83187E-02 8.49119E-04 2.51963E-01-7.30589E-14-1.79408E-13
 -1      2278 1.98195E+01 2.50837E-02 1.45650E-03 2.65612E-01-8.80222E-14-1.79767E-13
 -1      2279 1.98791E+01 4.55070E-02-1.84239E-03 2.57719E-01-9.33645E-14-1.86475E-13
 -1      2280 1.98365E+01 2.43137E-02 2.06185E-04 2.81467E-01-1.24835E-13-1.46330E-13
 -1      2281 1.98832E+01 2.66507E-02 1.66644E-03 2.93721E-01-1.24236E-13-1.46211E-13
 -1      2282 1.99051E+01 3.53348E-02-1.41696E-03 2.98885E-01-9.55643E-14-1.80303E-13
 -1      2283 1.99076E+01 3.02088E-02-1.72926E-04 3.09739E-01-7.92651E-14-1.07159E-13
 -1      2284 1.99636E+01 3.67446E-02 1.95298E-03 3.24293E-01-2.07335E-14-9.98777E-14
 -1      2285 1.99487E+01 3.95886E-02-1.15224E-03 3.34563E-01-7.35541E-14-7.84318E-14
 -1      2286 1.99947E+01 4.35863E-02-3.79030E-04 3.44130E-01-2.13404E-14-8.98416E-14
 -1      2287 2.00600E+01 5.33259E-02 2.30889E-03 3.63742E-01-8.50529E-16-1.03366E-13
 -1      2288 2.00071E+01 5.46217E-02-1.01275E-03 3.73911E-01-2.07154E-14-2.41542E-14
 -1      2289 2.00977E+01 6.26052E-02-4.71185E-04 3.90135E-01 1.13856E-14-9.47953E-14
 -1      2290 2.01736E+01 7.46581E-02 2.71267E-03 4.16808E-01 4.75261E-14-9.07160E-14
 -1      2291 2.00792E+01 7.77659E-02-9.64940E-04 4.23771E-01 3.30642E-14-8.00815E-15
 -1      2292 2.02183E+01 8.54953E-02-4.85372E-04 4.51688E-01 8.08370E-14-1.09773E-13
 -1      2293 2.03068E+01 9.88061E-02 3.12325E-03 4.86667E-01 3.53389E-14-7.00306E-14
 -1      2294 2.01653E+01 1.06616E-01-9.81903E-04 4.89125E-01 3.66259E-14-3.06415E-15
 -1      2295 2.03597E+01 1.10025E-01-4.36487E-04 5.31083E-01-7.60772E-14-9.20535E-14
 -1      2296 2.04628E+01 1.23041E-01 3.47057E-03 5.74637E-01-1.21001E-13-1.37652E-13
 -1      2297 2.02670E+01 1.38338E-01-1.04694E-03 5.73149E-01-3.76167E-14-1.03886E-13
 -1      2298 2.05254E+01 1.32822E-01-3.15092E-04 6.28469E-01-1.54565E-13-1.33273E-13
 -1      2299 2.06454E+01 1.43047E-01 3.64250E-03 6.79430E-01-1.41747E-13-1.46265E-13
 -1      2300 2.03866E+01 1.68825E-01-1.16015E-03 6.76862E-01-1.37136E-13-7.72754E-14
 -1      2301 2.07201E+01 1.48467E-01-7.91712E-05 7.40832E-01-1.33626E-13-1.57165E-13
 -1      2302 2.08585E+01 1.51876E-01 3.46946E-03 7.95815E-01-1.09832E-13-1.29816E-13
 -1      2303 2.05276E+01 1.91594E-01-1.35056E-03 7.98298E-01-1.73443E-13-4.13867E-14
 -1      2304 2.09488E+01 1.48322E-01 3.57922E-04 8.60314E-01-8.57172E-14-1.56279E-13
 -1      2305 2.11060E+01 1.38684E-01 2.71054E-03 9.12571E-01-1.07929E-13-1.33450E-13
 -1      2306 2.06950E+01 1.96359E-01-1.69376E-03 9.31090E-01-9.28146E-14-7.17856E-14
 -1      2307 2.12175E+01 1.19286E-01 1.13578E-03 9.71758E-01-1.35563E-13-1.07940E-13
 -1      2308 2.13923E+01 8.76780E-02 1.05245E-03 1.00971E+00-1.15314E-13-8.19340E-14
 -1      2309 2.08961E+01 1.67452E-01-2.33060E-03 1.06234E+00-1.13274E-13-3.93992E-14
 -1      2310 2.15337E+01 4.31845E-02 2.43719E-03 1.04951E+00-5.90890E-14-1.11437E-13
 -1      2311 2.17221E+01-2.15726E-02-1.85950E-03 1.05532E+00-1.50379E-14-1.09915E-13
 -1      2312 2.11427E+01 8.28024E-02-3.46378E-03 1.16968E+00-6.77865E-14 5.40857E-14
 -1      2313 2.19056E+01-1.01433E-01 4.39847E-03 1.05409E+00 1.55300E-14-5.57932E-14
 -1      2314 2.21001E+01-2.09755E-01-6.29445E-03 1.00323E+00 8.61368E-14-1.04627E-13
 -1      2315 2.14525E+01-8.45808E-02-5.27929E-03 1.21779E+00 1.65136E-14 9.93229E-14
 -1      2316 2.23402E+01-3.31363E-01 6.91932E-03 9.30617E-01 1.73951E-13-1.14100E-13
 -1      2317 2.25269E+01-4.84532E-01-1.21204E-02 7.94634E-01 2.32032E-13-1.02067E-13
 -1      2318 2.18495E+01-3.58669E-01-7.68306E-03 1.15519E+00 1.29677E-13 1.62930E-13
 -1      2319 2.28324E+01-6.39138E-01 9.08557E-03 6.13852E-01 2.40699E-13-9.52101E-14
 -1      2320 2.29885E+01-8.12110E-01-1.79062E-02 3.70046E-01 2.04970E-13-5.86853E-14
 -1      2321 2.23578E+01-7.39016E-01-9.73218E-03 9.14273E-01 2.28084E-13 5.68107E-14
 -1      2322 2.33431E+01-9.56572E-01 8.63347E-03 5.19964E-02 1.59469E-13 2.86294E-15
 -1      2323 2.34347E+01-1.07798E+00-2.06513E-02-2.93961E-01 1.41626E-13 5.63140E-15
 -1      2324 2.29792E+01-1.15782E+00-8.87456E-03 4.23467E-01 2.18552E-13 2.59948E-14
 -1      2325 2.37713E+01-1.12154E+00 7.51393E-04-7.36905E-01 1.05584E-13-3.44826E-14
 -1      2326 2.37619E+01-1.06683E+00-1.51370E-02-1.11984E+00 3.94671E-14 1.15239E-14
 -1      2327 2.36510E+01-1.43258E+00-2.97330E-03-3.46743E-01 1.12067E-13 2.37805E-14
 -1      2328 2.39548E+01-8.82096E-01-1.50613E-02-1.57824E+00-5.33063E-14-5.12606E-14
 -1      2329 2.38263E+01-5.30448E-01 2.27110E-03-1.84514E+00-1.03038E-13 2.51884E-14
 -1      2330 2.42062E+01-1.27023E+00 4.32544E-03-1.29683E+00-4.43581E-14 1.51658E-15
 -1      2331 2.37488E+01-5.47397E-02-3.67352E-02-2.06527E+00-1.39238E-13 7.72559E-15
 -1      2332 2.35506E+01 5.44423E-01 1.88086E-02-2.00874E+00-6.99059E-14 6.32133E-14
 -1      2333 2.44033E+01-3.67354E-01 1.10770E-02-2.07163E+00-1.23948E-13 6.80185E-15
 -1      2334 2.32692E+01 1.13749E+00-4.26371E-02-1.72721E+00-1.41250E-13-1.66742E-13
 -1      2335 2.31088E+01 1.65926E+00 1.39908E-02-1.25207E+00-1.23210E-13-2.63880E-13
 -1      2336 2.41426E+01 1.09741E+00-6.32478E-03-2.08791E+00-2.01091E-13-4.45147E-14
 -1      2337 2.29259E+01 1.97422E+00-2.11604E-02-4.90382E-01-8.28990E-14-3.46239E-13
 -1      2338 2.29084E+01 2.02801E+00-1.52856E-02 2.10460E-01-1.71665E-13-3.79428E-13
 -1      2339 2.37402E+01 2.33866E+00-3.39996E-02-1.00042E+00-1.63945E-13-3.78129E-13
 -1      2340 2.30455E+01 1.80113E+00 1.18726E-02 1.02634E+00-2.35145E-13-4.54156E-13
 -1      2341 2.31878E+01 1.33619E+00-3.91947E-02 1.56304E+00-2.36639E-13-4.79731E-13
 -1      2342 2.36968E+01 2.46609E+00-3.44426E-02 7.13199E-01-2.40277E-13-4.15358E-13
 -1      2343 2.34739E+01 7.60741E-01 2.00258E-02 1.94272E+00-2.19415E-13-4.23597E-13
 -1      2344 2.36743E+01 1.44271E-01-3.99169E-02 2.07278E+00-7.64744E-14-3.91593E-13
 -1      2345 2.40673E+01 1.35415E+00-1.27206E-02 1.97082E+00-2.14535E-13-4.97431E-13
 -1      2346 2.38000E+01-3.70004E-01 5.61699E-03 1.92571E+00-2.35038E-14-4.43914E-13
 -1      2347 2.39435E+01-7.76259E-01-1.98782E-02 1.70364E+00 2.12300E-14-4.43049E-13
 -1      2348 2.43853E+01-1.35229E-01 8.46545E-03 2.14481E+00-8.74674E-14-2.42605E-13
 -1      2349 2.37960E+01-1.01284E+00-1.24908E-02 1.26747E+00 2.17326E-14-4.54436E-13
 -1      2350 2.38264E+01-1.11478E+00-1.42702E-03 8.92389E-01 2.46053E-14-4.54915E-13
 -1      2351 2.42744E+01-1.15368E+00 9.66101E-03 1.46241E+00-9.50765E-14-3.93488E-13
 -1      2352 2.35061E+01-1.10373E+00-2.06885E-02 4.34449E-01 6.37463E-14-4.32886E-13
 -1      2353 2.34297E+01-1.00371E+00 7.31294E-03 7.45740E-02-8.01919E-15-3.53727E-13
 -1      2354 2.37669E+01-1.44375E+00-1.41168E-03 5.10393E-01 4.10776E-14-5.13781E-13
 -1      2355 2.30713E+01-8.67989E-01-1.92025E-02-2.68467E-01-1.87112E-13-2.54837E-13
 -1      2356 2.29244E+01-6.96512E-01 9.03964E-03-5.31426E-01-1.77905E-13-3.02458E-13
 -1      2357 2.30992E+01-1.22426E+00-9.11373E-03-3.06013E-01-4.25322E-14-2.70786E-13
 -1      2358 2.26085E+01-5.38731E-01-1.32990E-02-7.33914E-01-1.71963E-14-1.90093E-13
 -1      2359 2.24262E+01-3.78633E-01 7.39278E-03-8.86865E-01 8.85613E-14-1.30534E-13
 -1      2360 2.24621E+01-8.11294E-01-1.01667E-02-8.44602E-01 1.21342E-14 1.43203E-13
 -1      2361 2.21756E+01-2.49285E-01-7.22829E-03-9.74592E-01 1.04372E-13-1.88480E-13
 -1      2362 2.19829E+01-1.31942E-01 4.95384E-03-1.03710E+00 2.33463E-13-1.12670E-13
 -1      2363 2.19344E+01-4.15296E-01-8.19561E-03-1.12246E+00 8.14094E-14 1.95505E-13
 -1      2364 2.17916E+01-4.41865E-02-2.50764E-03-1.04665E+00 2.48617E-13-3.44436E-13
 -1      2365 2.16036E+01 2.85760E-02 2.91736E-03-1.04698E+00 1.50307E-13-3.11851E-13
 -1      2366 2.15214E+01-1.19416E-01-5.74224E-03-1.20800E+00 1.54388E-13-2.49043E-13
 -1      2367 2.14575E+01 7.95491E-02 6.54696E-04-1.01000E+00 1.67989E-13-3.47760E-13
 -1      2368 2.12833E+01 1.17397E-01 1.56194E-03-9.73532E-01 1.83713E-13-3.14142E-13
 -1      2369 2.12011E+01 6.78056E-02-3.82364E-03-1.17047E+00 1.22671E-13-3.68671E-13
 -1      2370 2.11695E+01 1.41720E-01 2.50412E-03-9.12982E-01 3.72806E-14-2.83741E-13
 -1      2371 2.10137E+01 1.56100E-01 7.74034E-04-8.58556E-01-1.75029E-13-1.51449E-13
 -1      2372 2.09491E+01 1.68137E-01-2.59879E-03-1.06402E+00 1.22108E-13-2.60160E-13
 -1      2373 2.09232E+01 1.63456E-01 3.38947E-03-7.89471E-01-1.46507E-13 6.41333E-14
 -1      2374 2.07878E+01 1.63877E-01 3.76066E-04-7.29406E-01 6.68022E-14 6.34577E-14
 -1      2375 2.07467E+01 2.09082E-01-1.90365E-03-9.26196E-01 8.37262E-15-1.15094E-13
 -1      2376 2.07146E+01 1.61681E-01 3.63234E-03-6.60767E-01 8.34749E-15 9.44035E-14
 -1      2377 2.06000E+01 1.54963E-01 2.20756E-04-6.02220E-01 5.24029E-14-2.65111E-14
 -1      2378 2.05815E+01 2.14057E-01-1.52584E-03-7.80829E-01-1.09408E-14 1.02580E-13
 -1      2379 2.05403E+01 1.48328E-01 3.48261E-03-5.38736E-01 1.97467E-13 7.68516E-15
 -1      2380 2.04454E+01 1.38988E-01 2.06215E-04-4.85182E-01 3.79650E-13 4.19258E-14
 -1      2381 2.04457E+01 2.00153E-01-1.30322E-03-6.41622E-01 1.34249E-13 1.60356E-13
 -1      2382 2.03965E+01 1.31217E-01 3.11301E-03-4.28711E-01 4.26613E-13 4.80063E-14
 -1      2383 2.03197E+01 1.22088E-01 2.67015E-04-3.81209E-01 3.77224E-13 2.17816E-13
 -1      2384 2.03339E+01 1.78801E-01-1.14610E-03-5.15204E-01 3.93458E-13 7.87151E-14
 -1      2385 2.02796E+01 1.15212E-01 2.63103E-03-3.31815E-01 3.09730E-13 1.93985E-13
 -1      2386 2.02189E+01 1.08002E-01 3.83250E-04-2.89985E-01 4.51822E-14 2.35565E-13
 -1      2387 2.02422E+01 1.57287E-01-9.79983E-04-4.03578E-01 3.52225E-13 2.04684E-13
 -1      2388 2.01857E+01 1.02918E-01 2.05400E-03-2.46626E-01-1.91520E-13 2.16397E-13
 -1      2389 2.01396E+01 9.85878E-02 7.53800E-04-2.09454E-01-1.90333E-13 2.62182E-13
 -1      2390 2.01671E+01 1.39846E-01-7.83257E-04-3.05914E-01-6.92995E-14 2.42349E-14
 -1      2391 1.00371E+01-4.20029E+00 2.12685E-02 6.48237E+00-3.13360E-13-6.68327E-13
 -1      2392 7.36703E+00-3.74771E+00 9.00144E-02 5.27573E+00-1.21098E-13-5.90750E-13
 -1      2393 1.96333E+01 8.15309E-02 2.46837E-03-8.58722E-02 9.94724E-14 5.73101E-14
 -1      2394 1.96547E+01 1.11575E-01 7.00248E-03-3.58821E-02 1.26603E-13 1.19289E-13
 -1      2395 1.96243E+01 4.36561E-02 1.90027E-03-1.62890E-01 6.66952E-14-8.79017E-15
 -1      2396 1.96124E+01 6.03674E-02 3.81791E-03-1.34825E-01 9.42553E-14 3.10060E-14
 -1      2397 1.97836E+01 1.03759E-01-3.44369E-03-9.97825E-02 1.33066E-13-1.78563E-14
 -1      2398 1.96573E+01 2.37521E-02 1.63725E-03-2.07234E-01 5.88255E-14-1.14503E-14
 -1      2399 1.96244E+01 3.21552E-02 2.00407E-03-1.91222E-01 4.17326E-14-9.28906E-15
 -1      2400 1.97635E+01 5.57160E-02-2.62739E-03-1.87181E-01 7.04434E-14-1.91389E-14
 -1      2401 1.97191E+01 1.56675E-02 1.56870E-03-2.34632E-01 9.48800E-14 1.79617E-14
 -1      2402 1.96725E+01 1.84898E-02 9.64017E-04-2.24349E-01 7.44723E-14 3.17368E-14
 -1      2403 1.97798E+01 3.12182E-02-1.95412E-03-2.39775E-01 4.55905E-14-6.51040E-14
 -1      2404 1.98017E+01 1.58984E-02 1.65200E-03-2.55870E-01 2.48140E-14 5.63614E-14
 -1      2405 1.97451E+01 1.47330E-02 3.79449E-04-2.46963E-01 9.15163E-14 4.47858E-14
 -1      2406 1.98221E+01 2.23282E-02-1.49304E-03-2.74541E-01 7.57909E-14 2.08220E-14
 -1      2407 1.99017E+01 2.22716E-02 1.86413E-03-2.78696E-01 4.88333E-14 5.99721E-14
 -1      2408 1.98364E+01 1.81273E-02 8.22502E-05-2.68010E-01 2.51110E-14 6.94603E-14
 -1      2409 1.98841E+01 2.44631E-02-1.22214E-03-3.03386E-01 3.01221E-14 6.47577E-14
 -1      2410 2.00185E+01 3.32856E-02 2.18250E-03-3.08848E-01 7.17889E-14 4.67305E-14
 -1      2411 1.99440E+01 2.68801E-02-2.69270E-05-2.94027E-01 8.31331E-14 7.44802E-14
 -1      2412 1.99624E+01 3.47351E-02-1.10077E-03-3.34958E-01 7.83286E-14 2.66311E-14
 -1      2413 2.01541E+01 4.76959E-02 2.57602E-03-3.50548E-01 9.66596E-14 6.79448E-15
 -1      2414 2.00687E+01 3.96561E-02-1.29638E-05-3.29867E-01 8.23719E-14 3.49027E-14
 -1      2415 2.00562E+01 5.10854E-02-1.09016E-03-3.75648E-01 8.18614E-14 3.25986E-14
 -1      2416 2.03117E+01 6.41546E-02 2.99633E-03-4.06632E-01 4.79279E-14 7.31149E-14
 -1      2417 2.02129E+01 5.52066E-02 7.89152E-05-3.78992E-01 8.42826E-14 6.65471E-14
 -1      2418 2.01666E+01 7.17090E-02-1.15802E-03-4.30072E-01 6.84220E-14 4.50999E-14
 -1      2419 2.04957E+01 8.07992E-02 3.36590E-03-4.78306E-01-1.91177E-14 3.27346E-14
 -1      2420 2.03807E+01 7.19956E-02 2.16713E-04-4.43412E-01 5.21338E-14 8.40412E-14
 -1      2421 2.02959E+01 9.45292E-02-1.27945E-03-5.01136E-01 5.62227E-14 1.20024E-13
 -1      2422 2.07106E+01 9.47124E-02 3.56240E-03-5.64478E-01-2.50342E-14 4.41670E-14
 -1      2423 2.05767E+01 8.77353E-02 3.79619E-04-5.23238E-01-6.18534E-14-1.54455E-16
 -1      2424 2.04473E+01 1.16581E-01-1.43925E-03-5.89704E-01 7.46121E-15 3.12446E-14
 -1      2425 2.09601E+01 1.01211E-01 3.40134E-03-6.60559E-01 7.69763E-14 7.25168E-14
 -1      2426 2.08057E+01 9.87668E-02 5.59540E-04-6.15757E-01 3.42858E-14 3.19064E-14
 -1      2427 2.06246E+01 1.33210E-01-1.63729E-03-6.93771E-01-3.45232E-15-1.80277E-14
 -1      2428 2.12467E+01 9.30026E-02 2.62368E-03-7.56605E-01 8.91529E-14 1.09205E-13
 -1      2429 2.10719E+01 9.92718E-02 7.66066E-04-7.13908E-01 1.15855E-13 1.19361E-13
 -1      2430 2.08321E+01 1.37046E-01-1.89673E-03-8.07057E-01 8.24524E-14 2.29750E-14
 -1      2431 2.15699E+01 5.94919E-02 9.02572E-04-8.34831E-01-3.67111E-16 5.88946E-14
 -1      2432 2.13781E+01 8.04418E-02 1.03229E-03-8.04073E-01 6.56124E-14 1.23852E-13
 -1      2433 2.10744E+01 1.16894E-01-2.27121E-03-9.16918E-01 6.28414E-14 3.37472E-14
 -1      2434 2.19253E+01-1.29826E-02-2.09683E-03-8.66894E-01-1.20981E-13 6.55956E-14
 -1      2435 2.17246E+01 3.00757E-02 1.40974E-03-8.63310E-01-1.03588E-13 7.80714E-14
 -1      2436 2.13572E+01 5.70719E-02-2.83861E-03-1.00161E+00-6.31161E-14 8.88233E-14
 -1      2437 2.23025E+01-1.38208E-01-6.55618E-03-8.12276E-01-4.99850E-14 1.03372E-13
 -1      2438 2.21073E+01-6.61866E-02 1.94061E-03-8.56761E-01-7.27843E-14 7.77763E-14
 -1      2439 2.16866E+01-6.14209E-02-3.64400E-03-1.02740E+00-9.04059E-14 9.12462E-14
 -1      2440 2.26821E+01-3.21340E-01-1.21313E-02-6.20827E-01 1.05236E-13 4.99394E-14
 -1      2441 2.25147E+01-2.19653E-01 2.53072E-03-7.37287E-01 4.19070E-14 4.11056E-14
 -1      2442 2.20687E+01-2.55054E-01-4.53097E-03-9.46913E-01 2.02025E-14 5.42810E-14
 -1      2443 2.30300E+01-5.40985E-01-1.74226E-02-2.45553E-01 3.49096E-14 1.51111E-13
 -1      2444 2.29209E+01-4.25619E-01 2.74703E-03-4.51991E-01 8.54078E-14 1.14382E-13
 -1      2445 2.25036E+01-5.22607E-01-4.79849E-03-7.02326E-01 3.93297E-14 1.05759E-13
 -1      2446 2.32905E+01-7.23943E-01-1.92774E-02 3.26633E-01-2.13272E-13 1.69724E-13
 -1      2447 2.32744E+01-6.41129E-01 1.37199E-03 3.60904E-02-5.29347E-14 1.65261E-13
 -1      2448 2.29721E+01-8.17674E-01-3.07661E-03-2.40907E-01-3.49616E-14 1.65716E-13
 -1      2449 2.33835E+01-7.33034E-01-1.33204E-02 1.02071E+00-2.00661E-13 7.82018E-14
 -1      2450 2.34879E+01-7.60635E-01-2.95613E-03 7.01717E-01-2.74387E-13 9.51746E-14
 -1      2451 2.34109E+01-1.01520E+00 2.41070E-03 4.45432E-01-1.98012E-13 3.27018E-14
 -1      2452 2.32331E+01-4.15083E-01 2.11298E-03 1.62191E+00-1.74954E-13 1.50255E-13
 -1      2453 2.34536E+01-6.27073E-01-1.06147E-02 1.39429E+00-1.42469E-13 1.00186E-13
 -1      2454 2.36977E+01-9.17552E-01 1.08279E-02 1.24953E+00-1.63032E-13 1.97364E-14
 -1      2455 2.28261E+01 2.57469E-01 1.66625E-02 1.78868E+00 9.91134E-15 1.33234E-13
 -1      2456 2.31070E+01-1.20290E-01-2.06038E-02 1.80892E+00-8.43591E-14 7.84772E-14
 -1      2457 2.36883E+01-3.42603E-01 1.40269E-02 1.88960E+00-9.70389E-14 7.75259E-14
 -1      2458 2.23362E+01 1.01360E+00 2.01661E-02 1.24612E+00 8.91995E-14 9.97470E-14
 -1      2459 2.25647E+01 6.50577E-01-2.12396E-02 1.59256E+00 4.55391E-14 1.30843E-13
 -1      2460 2.33452E+01 6.33441E-01 8.93477E-04 1.92882E+00 5.15907E-15-1.14770E-13
 -1      2461 2.20794E+01 1.37446E+00 4.89940E-03 9.53454E-02 5.29680E-14 1.91585E-13
 -1      2462 2.21447E+01 1.27369E+00-5.02377E-03 6.54952E-01 9.43134E-14 2.16241E-13
 -1      2463 2.29121E+01 1.54561E+00-2.07565E-02 1.10714E+00 1.00831E-13-6.99583E-14
 -1      2464 2.22733E+01 1.06740E+00-1.67162E-02-1.11084E+00 9.24139E-14 1.53605E-13
 -1      2465 2.21386E+01 1.30420E+00 1.31971E-02-6.12800E-01 8.50639E-14 1.34968E-13
 -1      2466 2.27782E+01 1.80789E+00-2.75448E-02-3.01883E-01 7.97869E-14 1.42484E-14
 -1      2467 2.27929E+01 3.23188E-01-2.26048E-02-1.77209E+00 1.42543E-13-9.43681E-14
 -1      2468 2.25293E+01 7.22383E-01 2.09367E-02-1.56013E+00 1.85945E-13 9.75383E-14
 -1      2469 2.30735E+01 1.21987E+00-1.37344E-02-1.54664E+00 1.95352E-13-1.29728E-13
 -1      2470 2.32861E+01-3.70175E-01-1.50730E-02-1.69705E+00 1.34298E-13-2.06846E-13
 -1      2471 2.30156E+01-5.38504E-02 1.07774E-02-1.79315E+00 2.31898E-14-1.40987E-13
 -1      2472 2.35169E+01 2.05406E-01 8.82865E-03-2.00927E+00 1.26091E-13-1.33184E-13
 -1      2473 2.35065E+01-7.18328E-01-4.84402E-03-1.12574E+00 1.45101E-13 9.40188E-14
 -1      2474 2.33248E+01-5.92548E-01-5.86548E-03-1.40217E+00 1.38247E-13-9.36837E-15
 -1      2475 2.37347E+01-6.38841E-01 1.47071E-02-1.67122E+00 6.92588E-15-3.05835E-14
 -1      2476 2.34264E+01-7.28973E-01 1.34541E-03-4.16094E-01 1.42207E-13 1.04783E-13
 -1      2477 2.33696E+01-7.59412E-01-1.65990E-02-7.26053E-01 1.84110E-13 1.28859E-13
 -1      2478 2.36084E+01-1.00797E+00 7.46891E-03-9.18169E-01 1.68397E-13 2.87188E-13
 -1      2479 2.31415E+01-5.53784E-01 3.38002E-03 1.86098E-01 1.04853E-13 1.34556E-13
 -1      2480 2.31977E+01-6.57218E-01-1.84096E-02-6.59298E-02 1.77138E-13 5.35520E-14
 -1      2481 2.32401E+01-9.58352E-01-6.97084E-04-1.38874E-01 1.90609E-13 1.89978E-13
 -1      2482 2.27580E+01-3.34124E-01 3.14303E-03 5.88636E-01 2.07269E-14 1.13935E-13
 -1      2483 2.28940E+01-4.45596E-01-1.46656E-02 4.25261E-01 5.02298E-14 2.09051E-13
 -1      2484 2.27780E+01-6.98535E-01-4.78536E-03 4.57974E-01 8.18156E-14 2.32295E-13
 -1      2485 2.23484E+01-1.47273E-01 2.33145E-03 7.98589E-01 6.84938E-14 2.07420E-13
 -1      2486 2.25294E+01-2.35794E-01-9.17763E-03 7.17232E-01 4.25814E-14 1.99391E-13
 -1      2487 2.23204E+01-4.03170E-01-5.28886E-03 8.23191E-01-6.02686E-15 1.20746E-13
 -1      2488 2.19522E+01-1.73232E-02 1.58761E-03 8.62953E-01-8.29588E-15 2.50130E-13
 -1      2489 2.21502E+01-7.58975E-02-4.20676E-03 8.42363E-01 2.49891E-14 2.74535E-13
 -1      2490 2.19090E+01-1.61970E-01-4.36983E-03 9.90011E-01 6.06576E-14 1.46200E-13
 -1      2491 2.15887E+01 5.96674E-02 1.10747E-03 8.33469E-01-2.20944E-13 3.37224E-13
 -1      2492 2.17843E+01 2.67524E-02-5.62847E-04 8.51269E-01-5.82415E-15 2.20294E-13
 -1      2493 2.15528E+01 1.43633E-03-3.29072E-03 1.01600E+00-5.54862E-14 3.98254E-13
 -1      2494 2.12662E+01 9.72803E-02 8.56144E-04 7.52230E-01-3.18331E-13 2.02733E-13
 -1      2495 2.14474E+01 8.25900E-02 1.73402E-03 7.90552E-01-3.61388E-13 2.35351E-13
 -1      2496 2.12485E+01 9.57464E-02-2.49371E-03 9.55303E-01-2.58748E-13 2.81433E-13
 -1      2497 2.09872E+01 1.09398E-01 7.46961E-04 6.48584E-01-3.22198E-13 3.43924E-13
 -1      2498 2.11475E+01 1.06085E-01 2.95712E-03 6.95164E-01-2.27544E-13 2.78188E-13
 -1      2499 2.09900E+01 1.39892E-01-1.99625E-03 8.49244E-01-2.76384E-13 3.78031E-14
 -1      2500 2.07511E+01 1.06972E-01 7.14533E-04 5.40762E-01 4.52598E-14 9.84718E-14
 -1      2501 2.08881E+01 1.09867E-01 3.42833E-03 5.88157E-01-1.56055E-13 2.67336E-13
 -1      2502 2.07718E+01 1.52139E-01-1.69790E-03 7.25735E-01-1.32746E-13 1.65508E-13
 -1      2503 2.05553E+01 9.76864E-02 7.25372E-04 4.38695E-01 1.74671E-13 1.55815E-13
 -1      2504 2.06690E+01 1.03239E-01 3.42377E-03 4.83030E-01 8.54187E-14 1.21391E-13
 -1      2505 2.05893E+01 1.46600E-01-1.50244E-03 6.01735E-01 5.08859E-14-1.86657E-14
 -1      2506 2.03959E+01 8.66198E-02 7.63893E-04 3.46591E-01 1.70258E-13 3.87145E-13
 -1      2507 2.04879E+01 9.25138E-02 3.14694E-03 3.86431E-01 2.09338E-13 3.35171E-13
 -1      2508 2.04384E+01 1.33100E-01-1.34430E-03 4.86211E-01 4.50112E-14 1.28483E-13
 -1      2509 2.02690E+01 7.70181E-02 8.49676E-04 2.64961E-01 2.24969E-13 2.48488E-13
 -1      2510 2.03413E+01 8.17997E-02 2.74142E-03 3.00438E-01 1.29102E-13 5.30325E-13
 -1      2511 2.03152E+01 1.18062E-01-1.18311E-03 3.82680E-01 2.00800E-13 6.16940E-13
 -1      2512 2.01699E+01 7.03250E-02 8.33832E-04 1.91976E-01 2.02314E-13 3.02562E-13
 -1      2513 2.02249E+01 7.35787E-02 2.27646E-03 2.24129E-01 2.39613E-13 2.80780E-13
 -1      2514 2.02156E+01 1.05382E-01-1.08058E-03 2.91396E-01 2.06372E-13 5.81600E-13
 -1      2515 2.00943E+01 6.63860E-02 8.25201E-04 1.26234E-01 7.13557E-15 4.01000E-13
 -1      2516 2.01348E+01 6.82104E-02 1.82140E-03 1.55687E-01 9.95938E-14 2.68292E-13
 -1      2517 2.01361E+01 9.58005E-02-1.26614E-03 2.09934E-01 1.37703E-13 5.63214E-13
 -1      2518 2.00655E+01 6.24319E-02 1.17040E-03 9.14452E-02-8.11672E-15 3.12082E-13
 -1      2519 1.99538E+01 3.50961E-01-1.62570E-03 1.73142E-01-1.23231E-13 1.22141E-14
 -1      2520 1.99712E+01 3.19460E-01 4.87197E-04 1.87312E-01-1.72684E-13-5.53784E-13
 -1      2521 1.99264E+01 4.05632E-01-1.67987E-03 1.23920E-01-1.80745E-13 2.02670E-13
 -1      2522 1.99393E+01 3.82179E-01-1.00522E-04 1.48822E-01-2.29723E-13 3.23737E-13
 -1      2523 1.99298E+01 3.76923E-01 1.09454E-03 1.87091E-01-3.64410E-14 7.75429E-14
 -1      2524 2.00268E+01 2.04144E-01-1.02918E-03 1.93376E-01-3.27639E-13-2.43969E-13
 -1      2525 2.00462E+01 1.68143E-01 1.35683E-03 1.82228E-01-2.07109E-13 2.60048E-13
 -1      2526 1.99889E+01 2.81036E-01-1.37415E-03 1.97614E-01-4.56359E-13-6.69873E-13
 -1      2527 2.00086E+01 2.45844E-01 1.00571E-03 1.98906E-01-5.58977E-13-4.56540E-13
 -1      2528 2.00238E+01 2.32832E-01 5.86703E-04 2.30762E-01-3.84744E-13-5.04074E-13
 -1      2529 1.99735E+01 3.09877E-01 6.78127E-04 2.24595E-01-1.93841E-13-4.21993E-13
 -1      2530 1.99102E+01 4.38400E-01-1.53427E-03 5.72982E-02-1.11665E-13-9.74506E-14
 -1      2531 1.99170E+01 4.25878E-01-6.94959E-04 8.91919E-02-1.59475E-13-9.81018E-14
 -1      2532 1.98974E+01 4.26493E-01 1.41577E-03 1.23564E-01-1.97839E-13 2.01524E-13
 -1      2533 1.99069E+01 4.45456E-01-1.20165E-03-1.72984E-02 4.71488E-15-5.27274E-14
 -1      2534 1.99069E+01 4.45463E-01-1.18955E-03 1.70282E-02-1.36205E-13 2.38206E-14
 -1      2535 1.98802E+01 4.52812E-01 1.58828E-03 4.30891E-02-2.69687E-14-1.51443E-13
 -1      2536 1.99169E+01 4.25977E-01-7.26313E-04-8.95162E-02 7.23862E-14-2.46303E-13
 -1      2537 1.99102E+01 4.38561E-01-1.51779E-03-5.76036E-02 1.07127E-13-1.33992E-13
 -1      2538 1.98801E+01 4.52967E-01 1.58604E-03-4.33132E-02 1.14585E-13-3.74232E-14
 -1      2539 1.99387E+01 3.83275E-01-1.25521E-04-1.48414E-01 5.42254E-14-4.17194E-13
 -1      2540 1.99261E+01 4.06269E-01-1.67038E-03-1.23799E-01 1.79193E-13-4.90085E-13
 -1      2541 1.98971E+01 4.27266E-01 1.44687E-03-1.23329E-01 2.09029E-13-3.55971E-13
 -1      2542 1.99707E+01 3.20732E-01 4.67747E-04-1.87380E-01 9.80286E-14 3.30929E-14
 -1      2543 1.99532E+01 3.52221E-01-1.62775E-03-1.73016E-01 1.19415E-13-2.71852E-13
 -1      2544 1.99291E+01 3.78404E-01 1.10730E-03-1.86745E-01 1.85670E-13-3.91930E-13
 -1      2545 2.00087E+01 2.45773E-01 8.95905E-04-1.99072E-01 2.66649E-14 2.81183E-13
 -1      2546 1.99890E+01 2.82032E-01-1.31348E-03-1.98045E-01-2.46386E-14 3.51309E-13
 -1      2547 1.99729E+01 3.11107E-01 6.09115E-04-2.24890E-01 1.47517E-13-2.28409E-14
 -1      2548 2.00466E+01 1.67063E-01 1.14221E-03-1.81318E-01-1.44984E-13-1.24547E-13
 -1      2549 2.00279E+01 2.04134E-01-7.91691E-04-1.94051E-01-5.78460E-14-3.18869E-14
 -1      2550 2.00217E+01 2.32501E-01-1.66167E-04-2.31087E-01-2.16821E-14 4.83577E-14
 -1      2551 2.00588E+01 9.94566E-02 1.06363E-03-1.21582E-01-1.25819E-14 6.11167E-14
 -1      2552 3.04474E+00-2.88085E+00 6.78881E-02-9.32173E-01 1.09877E-13 4.05120E-13
 -1      2553 4.11649E+00-2.96247E+00 5.47456E-02-3.10090E+00 1.03320E-13 3.61711E-13
 -1      2554 1.97044E+01 1.49277E-01 3.54552E-03 4.80077E-02 1.56227E-13 1.27541E-13
 -1      2555 1.97791E+01 2.02873E-01 1.24478E-02 1.36765E-01 1.79228E-13 1.44098E-13
 -1      2556 1.98548E+01 1.90321E-01-4.06417E-03 4.76608E-02 1.64737E-13 2.06757E-14
 -1      2557 1.83899E+01-5.35419E+00-3.51686E-02 6.59203E+00-3.04978E-13-5.04683E-13
 -1      2558 1.40232E+01-5.07927E+00 7.84371E-02 6.66804E+00-4.14779E-13-5.11771E-13
 -1      2559 2.52552E+01-4.52281E+00-5.63804E-02 4.33384E+00-2.97762E-13-3.56992E-13
 -1      2560 2.25560E+01-5.15229E+00 4.73209E-02 5.06274E+00-2.19713E-13-5.05179E-13
 -1      2561 2.05386E+01 1.95642E+00-1.38520E-02-1.89876E+00-2.98966E-13-1.75707E-13
 -1      2562 2.04044E+01 1.21907E+00-5.61111E-03-1.28361E+00-2.79209E-13-1.58435E-13
 -1      2563 2.03690E+01 1.37550E+00 2.92107E-03-1.22431E+00-2.43060E-13-2.14078E-13
 -1      2564 2.02836E+01 2.36773E+00-7.53917E-03-1.82393E+00-2.72107E-13-2.63223E-13
 -1      2565 6.54599E+00-3.61968E+00 8.73734E-02-4.90672E+00 4.04676E-14 3.89383E-13
 -1      2566 9.11249E+00-4.23451E+00 4.15269E-02-6.24991E+00-2.01228E-14 4.37289E-13
 -1      2567 3.28676E+01 4.01565E+00-1.09262E-01-6.95394E-01-6.00409E-13 4.76785E-13
 -1      2568 3.18661E+01 1.92930E+00-5.20050E-02-1.12221E-01-4.85750E-13 3.51941E-13
 -1      2569 1.15619E+01-4.56552E+00 8.85524E-03 6.74837E+00 7.41074E-15-2.83051E-13
 -1      2570 7.97008E+00-4.09234E+00 8.08447E-02 5.57457E+00-1.87905E-14-3.43531E-13
 -1      2571 1.95340E+01 3.59693E+00-1.01511E-02-2.43849E-01 6.41655E-14-4.15668E-13
 -1      2572 1.95497E+01 3.57583E+00-9.68796E-03-4.23783E-01 2.32455E-14-4.25556E-13
 -1      2573 1.97252E+01 3.17773E+00-4.91377E-04-4.70015E-01 1.51506E-14-3.94990E-13
 -1      2574 1.96915E+01 3.23887E+00-8.04331E-04-1.50855E-01 6.66106E-14-3.88923E-13
 -1      2575 3.21443E+01 7.23413E+00-1.30062E-01 3.47184E-01 3.44391E-13-1.19779E-13
 -1      2576 3.32106E+01 7.51339E+00-2.14016E-02-1.88438E-01 3.87801E-13-1.13118E-13
 -1      2577 1.91723E+01-5.45054E+00 4.14903E-02-6.09481E+00-3.47056E-13-3.13881E-13
 -1      2578 2.27339E+01-5.18881E+00-1.02975E-01-5.35232E+00-3.19855E-13-1.86573E-13
 -1      2579 3.24088E+01 3.09513E+00-8.37758E-02-4.70051E-01-2.41474E-14-1.31395E-13
 -1      2580 3.12603E+01 1.22355E+00-5.44528E-02-1.02558E-01-6.75709E-14-2.39420E-13
 -1      2581 3.10113E+01 8.40764E-01-2.82861E-02-5.65797E-02 1.29119E-13 9.69225E-14
 -1      2582 3.19691E+01 2.50636E+00-1.41655E-01 5.50023E-01 2.32508E-13 1.09135E-13
 -1      2583 3.05088E+01 3.17522E+00-4.31031E-02 1.60136E+00 1.97370E-13 2.36422E-13
 -1      2584 3.08463E+01-4.08319E-01-9.83626E-02 1.17131E+00-3.77608E-13 3.35398E-13
 -1      2585 2.89264E+01-2.00929E+00-2.31817E-02 2.04377E+00-2.35117E-13 1.42886E-13
 -1      2586 2.64467E+01-3.84892E+00 3.04938E-02-3.09859E+00-2.64358E-13-2.72282E-14
 -1      2587 2.94211E+01-2.05983E+00-1.17732E-01-1.74190E+00-7.46278E-14 1.39916E-13
 -1      2588 1.17625E+01-4.87795E+00 5.22814E-02-6.55489E+00-3.54661E-13-5.37320E-13
 -1      2589 1.53519E+01-5.17291E+00-2.45634E-03-6.95852E+00-3.31457E-13-5.48839E-13
 -1      2590 5.87361E+00-3.46626E+00 7.74097E-02-4.54605E+00-1.99396E-13-5.46896E-13
 -1      2591 8.46099E+00-4.09631E+00 4.68299E-02-6.06769E+00-2.34507E-13-5.36515E-13
 -1      2592 3.25703E+00-2.60422E+00 8.60795E-02 6.79941E-02-8.40543E-14-5.09981E-13
 -1      2593 3.99398E+00-2.54885E+00 8.33098E-02-2.42162E+00-5.98965E-14-4.65794E-13
 -1      2594 4.82493E+00-3.56204E+00 2.08143E-02 4.21094E+00-2.58960E-14-4.74565E-13
 -1      2595 3.26191E+00-3.21429E+00 4.48931E-02 2.18321E+00-2.71866E-14-5.54057E-13
 -1      2596 1.92344E+01-5.40516E+00-1.26381E-02 6.44624E+00-2.02616E-14 6.10276E-14
 -1      2597 1.59632E+01-5.25620E+00 8.18315E-02 6.56712E+00 5.71210E-14-1.68310E-13
 -1      2598 1.23425E+01-5.01674E+00 4.36377E-02-6.59286E+00 2.38143E-14 5.58414E-13
 -1      2599 1.60992E+01-5.26493E+00-1.97296E-02-6.91203E+00-3.15303E-14 5.32532E-13
 -1      2600 2.66013E+01-3.78080E+00-5.27828E-02 3.85624E+00-2.04003E-13 6.19782E-14
 -1      2601 2.27221E+01-5.03082E+00 4.52008E-04 5.00701E+00-1.44107E-13 1.19654E-13
 -1      2602 3.32751E+01 6.97523E+00-1.16907E-01-5.24665E-01-6.40155E-13 3.01731E-13
 -1      2603 3.30645E+01 6.06512E+00-7.82037E-02-7.92210E-01-6.43374E-13 4.13725E-13
 -1      2604 3.23351E+01 7.00741E+00-1.43466E-01 4.99640E-01-4.53027E-13 1.28828E-13
 -1      2605 3.28581E+01 7.38254E+00-9.62330E-02-9.30722E-02-5.73597E-13 1.36696E-13
 -1      2606 3.21586E+01 4.39332E+00-8.56317E-02 1.08269E+00-1.72834E-13 2.03421E-13
 -1      2607 3.24402E+01 5.71311E+00-1.48972E-01 9.75782E-01-3.31679E-13 1.34920E-13
 -1      2608 3.04850E+01-1.98256E-01-5.02817E-02-5.01955E-01-1.77455E-13 4.07896E-13
 -1      2609 3.17978E+01 1.98345E+00-1.39303E-01 5.16963E-01-5.20695E-14 3.97293E-13
 -1      2610 2.68553E+01-3.62083E+00-2.62521E-02-3.05578E+00-1.47576E-13 3.82389E-13
 -1      2611 2.90527E+01-2.31607E+00-9.99154E-02-2.08235E+00-1.99632E-13 3.37230E-13
 -1      2612 2.03603E+01-5.39187E+00 2.92008E-02-5.76693E+00-2.99760E-14 4.21191E-13
 -1      2613 2.41687E+01-4.73468E+00-5.01031E-02-4.87536E+00-1.20570E-13 5.40068E-13
 -1      2614 4.54952E+00-3.18249E+00 4.90819E-02 3.71726E+00-1.42053E-13-4.07452E-13
 -1      2615 3.07111E+00-2.98363E+00 6.03411E-02 1.24422E+00-9.27765E-14 2.42584E-14
 -1      2616 2.04765E+01 8.75741E-01-7.22062E-03 1.22477E+00 3.13888E-13 3.20950E-13
 -1      2617 2.08260E+01 1.25720E+00-6.01530E-03 1.72574E+00 3.29996E-13 3.77790E-13
 -1      2618 2.06352E+01 1.71589E+00-1.57951E-02 1.91947E+00 3.61487E-13 2.52621E-13
 -1      2619 2.04404E+01 1.05963E+00-9.44691E-03 1.23804E+00 3.25996E-13 1.67090E-13
 -1      2620 3.01499E+01-1.16931E+00-9.44940E-02 1.24858E+00-1.70430E-13-3.25795E-13
 -1      2621 2.75956E+01-3.06718E+00-3.52778E-02 2.56330E+00-2.64483E-13-3.99403E-13
 -1      2622 2.70480E+01-4.00338E+00 2.35782E-02 2.30781E+00-2.39975E-13-2.25264E-13
 -1      2623 3.13173E+01 6.87180E+00-7.35958E-02-5.06862E-01 3.67262E-13 2.72768E-14
 -1      2624 1.99211E+01 2.82278E+00 1.48864E-03-1.09385E+00-1.26315E-13-3.98187E-13
 -1      2625 1.97901E+01 3.16765E+00-1.46983E-02-1.28175E+00-1.34118E-13-4.22324E-13
 -1      2626 1.98842E+01 3.02964E+00-1.73462E-02-1.47124E+00-1.79919E-13-3.98024E-13
 -1      2627 1.99937E+01 3.46212E-01-3.70530E-03 2.93959E-01 2.06063E-13 4.51627E-14
 -1      2628 2.04159E+01 2.11662E+00-1.27320E-02 1.87191E+00 3.68339E-13 1.00479E-13
 -1      2629 2.99646E+01-4.97208E-01-2.56457E-02-3.51962E-01-2.45914E-13-3.04728E-13
 -1      2630 3.05447E+01 2.54376E+00-5.45589E-02 1.51283E+00-1.38001E-13 2.62984E-13
 -1      2631 3.04828E+01 6.07624E+00-8.27208E-02 1.11685E+00-4.08479E-13 4.94188E-14
 -1      2632 3.07175E+01 6.95766E+00-3.25180E-02-4.50042E-01-5.54667E-13 2.52236E-13
 -1      2633 7.03535E+00-2.36787E+00 1.56633E-01-4.02789E+00 2.68119E-14 4.84057E-13
 -1      2634 2.89276E+01 5.11916E+00-1.22944E-01 1.56432E+00 2.34424E-13-8.30586E-14
 -1      2635 3.07380E+01 6.24602E+00-1.26322E-01 1.00806E+00 2.92877E-13-1.59567E-13
 -1      2636 2.89729E+01 6.43305E+00-1.66459E-01 7.43985E-01 3.59796E-13-5.14866E-14
 -1      2637 2.77758E+01-3.47981E+00 1.86421E-02 2.10362E+00-1.34573E-13 2.57433E-13
 -1      2638 1.25172E+01-4.01729E+00 1.33831E-01-6.34528E+00-7.95752E-14 5.46702E-13
 -1      2639 1.37779E+01-4.14759E+00 1.44083E-01 6.38509E+00-3.83860E-13-6.55809E-13
 -1      2640 2.00737E+01 9.01531E-02 2.31552E-04 1.35003E-01-2.77017E-14 2.36832E-13
 -1      2641 2.00685E+01 1.18028E-01 1.71260E-05 1.56508E-01-1.16691E-14 4.16754E-13
 -1      2642 2.22835E+01-5.32033E+00 3.89028E-02 4.99962E+00 8.32112E-14 1.39160E-13
 -1      2643 2.00899E+01 9.18643E-02 1.25328E-03-1.50969E-01 1.04517E-13 2.39646E-13
 -1      2644 2.00642E+01 1.31887E-01-7.96903E-04-1.71382E-01-1.13083E-13-7.82571E-15
 -1      2645 2.00743E+01 1.59231E-01 6.79031E-04-2.15025E-01-1.04329E-13 1.57762E-13
 -1      2646 2.01219E+01 9.60782E-02 1.95842E-03-1.82249E-01-1.00880E-13 2.31997E-13
 -1      2647 8.11254E+00-2.87653E+00 1.38877E-01 4.98047E+00 2.13163E-14-4.13947E-13
 -1      2648 5.10985E+00-1.65427E+00 1.61356E-01 1.07222E+00 1.23165E-15-4.83724E-13
 -1      2649 4.83769E+00-1.68428E+00 1.61063E-01 2.57235E-01-1.95890E-13 2.05391E-14
 -1      2650 2.04325E+01 1.81035E+00 1.25365E-02 1.55849E+00 3.50800E-13 5.91202E-14
 -1      2651 2.12677E+01-5.29641E+00 7.41802E-02 5.40289E+00-2.17160E-13-3.51209E-13
 -1      2652 6.70073E+00-2.00942E+00 1.66751E-01-3.38622E+00-5.60663E-14-5.20028E-13
 -1      2653 1.99898E+01 2.84298E+00-1.50085E-02-1.58237E+00-2.06277E-13-3.78640E-13
 -1      2654 2.01318E+01 2.61449E+00-2.25004E-02-1.74873E+00-2.46596E-13-3.38275E-13
 -1      2655 2.02854E+01 2.05577E+00 4.25726E-03-1.48234E+00-2.47106E-13-2.90489E-13
 -1      2656 2.00908E+01 2.49995E+00 4.10846E-03-1.33753E+00-1.87994E-13-3.55354E-13
 -1      2657 7.48753E+00-2.43237E+00 1.52082E-01 4.40676E+00-3.04173E-13-5.33518E-13
 -1      2658 1.95713E+01-5.26607E+00 9.07656E-02-5.93663E+00-6.17562E-14 5.16346E-13
 -1      2659 2.59030E+01-4.59953E+00 4.58435E-02-3.20830E+00-1.80633E-13 4.32585E-13
 -1      2660 2.93953E+01-1.68648E+00 6.83168E-04-1.94326E-01-1.78023E-13 5.20750E-13
 -1      2661 3.12749E+01 4.53439E+00-4.46844E-02-1.37954E+00-6.05072E-13 3.36009E-13
 -1      2662 3.05685E+01 3.74886E-01-1.50199E-02-5.69512E-01-3.79960E-13 4.42757E-13
 -1      2663 1.17944E+01-3.84569E+00 1.32477E-01-6.26103E+00-3.26489E-13-5.01349E-13
 -1      2664 2.53142E+01-4.66213E+00 7.20936E-02-3.46732E+00-4.09867E-13 6.65579E-14
 -1      2665 2.95742E+01-1.13777E+00-4.06264E-02 8.08024E-02-1.19443E-13 1.75499E-13
 -1      2666 3.13514E+01 4.00639E+00-5.91086E-02-1.43366E+00 5.68989E-14-2.14218E-13
 -1      2667 1.51209E+01-4.48114E+00 1.30397E-01 6.44038E+00 1.71196E-13-5.54001E-14
 -1      2668 1.85075E+01-5.15121E+00 1.07069E-01-6.21072E+00-4.53748E-13-2.82975E-13
 -1      2669 2.00789E+01 1.43741E-01 8.25784E-04 2.00776E-01 5.15178E-14 1.78497E-13
 -1      2670 2.01144E+01 1.27177E-01-1.16150E-03-2.31491E-01-1.88788E-13 7.90262E-14
 -1      2671 1.98574E+01 2.78189E+00-6.29818E-03 5.11306E-01 1.87685E-13-2.91563E-13
 -1      2672 1.98328E+01 2.83248E+00-5.78661E-03 3.61550E-01 1.54747E-13-3.03251E-13
 -1      2673 1.98161E+01 2.87096E+00-5.64922E-03 2.27569E-01 1.31881E-13-3.30830E-13
 -1      2674 1.98076E+01 2.88818E+00-5.50343E-03 7.43189E-02 1.01832E-13-3.38662E-13
 -1      2675 1.99615E+01 2.52351E+00 3.78574E-03 2.61488E-01 1.32141E-13-2.98541E-13
 -1      2676 2.00523E+01 2.33427E+00-1.06439E-02 1.03851E+00 3.16083E-13-1.85112E-13
 -1      2677 1.99894E+01 2.48459E+00-6.43505E-03 9.03110E-01 2.89843E-13-2.12665E-13
 -1      2678 2.02207E+01 1.91501E+00-1.18974E-02 1.22059E+00 3.39431E-13-1.11113E-13
 -1      2679 2.01308E+01 2.15409E+00-4.93670E-03 1.12683E+00 3.25316E-13-1.55298E-13
 -1      2680 2.01970E+01 1.89812E+00 6.43710E-03 9.17517E-01 3.06669E-13-1.42353E-13
 -1      2681 2.02123E+01 7.33114E-01-3.27936E-03 6.34491E-01 2.46764E-13 3.07918E-14
 -1      2682 2.03524E+01 9.56269E-01 9.18473E-03 9.00080E-01 2.74785E-13 4.47758E-14
 -1      2683 2.30770E+01-5.27850E+00-9.66949E-02 4.33698E+00-1.83770E-13-2.66110E-13
 -1      2684 1.99626E+01-4.85747E+00 1.47994E-01 5.47353E+00-1.88016E-13-3.46433E-13
 -1      2685 2.02181E+01 6.38321E-01 6.93374E-03-4.23385E-01-1.49338E-13-2.29197E-13
 -1      2686 2.01403E+01 4.90952E-01-2.65411E-03-2.60638E-01-1.46892E-13-2.34558E-13
 -1      2687 2.01152E+01 3.80184E-01 6.42870E-03-1.36006E-01-1.38390E-13-2.09917E-13
 -1      2688 2.00606E+01 2.89450E-01-1.37264E-03-3.25746E-02-1.30554E-13-2.22169E-13
 -1      2689 2.02045E+01 5.47106E-01-2.31459E-03-2.39229E-01-1.43778E-13-2.29058E-13
 -1      2690 2.00366E+01 2.23230E-01 4.39521E-03 4.97132E-02-1.18620E-13-2.13145E-13
 -1      2691 2.00069E+01 1.68889E-01-3.56411E-04 1.14261E-01-1.09830E-13-2.08494E-13
 -1      2692 2.01401E+01 3.28129E-01-2.22740E-03-2.03968E-02-1.28485E-13-2.22167E-13
 -1      2693 1.99887E+01 1.30211E-01 2.72017E-03 1.67470E-01-1.04568E-13-1.80914E-13
 -1      2694 1.99789E+01 9.96409E-02 3.25703E-04 2.07937E-01-9.70991E-14-1.89139E-13
 -1      2695 2.00894E+01 1.94356E-01-2.06199E-03 1.24333E-01-1.00373E-13-1.96664E-13
 -1      2696 1.99675E+01 7.91484E-02 1.49532E-03 2.42826E-01-1.02919E-13-1.58630E-13
 -1      2697 1.99728E+01 6.48766E-02 8.03646E-04 2.69602E-01-9.57014E-14-1.66024E-13
 -1      2698 2.00559E+01 1.17952E-01-1.71252E-03 2.19475E-01-9.84781E-14-1.46276E-13
 -1      2699 1.99675E+01 5.71147E-02 6.10029E-04 2.94541E-01-6.99398E-14-1.51438E-13
 -1      2700 1.99843E+01 5.45382E-02 1.17461E-03 3.15118E-01-4.73019E-14-1.18371E-13
 -1      2701 2.00381E+01 8.10419E-02-1.36002E-03 2.84576E-01-6.15268E-14-1.04316E-13
 -1      2702 1.99840E+01 5.60762E-02-2.70766E-05 3.36518E-01-1.95274E-14-8.41366E-14
 -1      2703 2.00099E+01 6.21972E-02 1.49965E-03 3.56413E-01-1.30407E-14-3.29663E-14
 -1      2704 2.00335E+01 7.24947E-02-1.06478E-03 3.34954E-01-8.77399E-15-3.35749E-14
 -1      2705 2.00137E+01 7.07258E-02-4.89399E-04 3.79177E-01-5.50319E-14-8.32128E-15
 -1      2706 2.00475E+01 8.34432E-02 1.81038E-03 4.02510E-01-1.18799E-14-1.55307E-14
 -1      2707 2.00395E+01 8.49788E-02-8.34064E-04 3.82360E-01-7.13073E-15-1.56617E-14
 -1      2708 2.00546E+01 9.72396E-02-8.30273E-04 4.30382E-01 2.43432E-14 5.89630E-15
 -1      2709 2.00960E+01 1.14872E-01 2.11854E-03 4.60212E-01 1.27608E-14-5.29536E-15
 -1      2710 2.00539E+01 1.13312E-01-6.58470E-04 4.35770E-01-2.79383E-14-9.16621E-15
 -1      2711 2.01059E+01 1.32397E-01-1.08205E-03 4.95995E-01-2.29031E-14-5.27300E-14
 -1      2712 2.01551E+01 1.53270E-01 2.42027E-03 5.34455E-01-9.38475E-15-9.25257E-14
 -1      2713 2.00754E+01 1.53322E-01-5.27009E-04 5.01969E-01-2.68482E-14-8.71086E-14
 -1      2714 2.01678E+01 1.72770E-01-1.25385E-03 5.80088E-01-1.93160E-14-1.31024E-13
 -1      2715 2.02256E+01 1.94759E-01 2.69740E-03 6.28326E-01-7.16925E-14-1.47840E-13
 -1      2716 2.01033E+01 2.00860E-01-4.36382E-04 5.85860E-01-4.69233E-14-1.07810E-13
 -1      2717 2.02416E+01 2.13793E-01-1.32577E-03 6.84804E-01-7.39571E-14-1.07425E-13
 -1      2718 2.03092E+01 2.33757E-01 2.91737E-03 7.42726E-01-1.06230E-13-6.93576E-14
 -1      2719 2.01374E+01 2.50736E-01-4.01065E-04 6.90494E-01-4.37618E-14-9.72998E-14
 -1      2720 2.03298E+01 2.48577E-01-1.23810E-03 8.09852E-01-1.82712E-13-2.28603E-14
 -1      2721 2.04090E+01 2.61605E-01 3.03165E-03 8.75621E-01-1.79716E-13-6.68771E-15
 -1      2722 2.01793E+01 2.95402E-01-4.69646E-04 8.16797E-01-1.26753E-13-7.50666E-14
 -1      2723 2.04375E+01 2.66356E-01-8.74491E-04 9.51550E-01-1.24016E-13-1.15042E-14
 -1      2724 2.05310E+01 2.64837E-01 2.97208E-03 1.02079E+00-9.15293E-14 1.71756E-15
 -1      2725 2.02325E+01 3.23245E-01-7.48598E-04 9.62972E-01-1.56053E-13 2.43464E-14
 -1      2726 2.05737E+01 2.50632E-01-4.00528E-05 1.10128E+00-6.64293E-14 2.76518E-14
 -1      2727 2.06854E+01 2.23270E-01 2.63592E-03 1.16596E+00-4.86544E-14 5.65279E-14
 -1      2728 2.03049E+01 3.16492E-01-1.43464E-03 1.12347E+00-8.54688E-14 1.03601E-13
 -1      2729 2.07538E+01 1.77430E-01 1.55427E-03 1.24317E+00-5.71033E-14 8.84890E-14
 -1      2730 2.08905E+01 1.08746E-01 1.85250E-03 1.29015E+00-2.01680E-14 1.26246E-13
 -1      2731 2.04116E+01 2.49035E-01-2.85101E-03 1.28736E+00-1.77422E-14 1.09821E-13
 -1      2732 2.10040E+01 1.50790E-02 4.30138E-03 1.35066E+00 1.39386E-14 1.57145E-13
 -1      2733 2.11751E+01-1.13286E-01 3.04219E-04 1.36004E+00 6.31266E-14 1.79384E-13
 -1      2734 2.05796E+01 8.53270E-02-5.44454E-03 1.43559E+00 2.30122E-16 1.51140E-13
 -1      2735 2.13632E+01-2.71271E-01 8.56468E-03 1.38168E+00 5.46013E-14 2.32665E-13
 -1      2736 2.15796E+01-4.74516E-01-2.51245E-03 1.32552E+00 1.12138E-13 1.44601E-13
 -1      2737 2.08530E+01-2.16564E-01-9.65384E-03 1.53623E+00 8.03384E-14 1.26193E-13
 -1      2738 2.18813E+01-7.03678E-01 1.45320E-02 1.27260E+00 2.08247E-13 1.48407E-13
 -1      2739 2.21486E+01-9.78438E-01-7.40324E-03 1.11591E+00 2.21198E-13 8.10408E-14
 -1      2740 2.12960E+01-6.91692E-01-1.54711E-02 1.53635E+00 1.32011E-13 1.07475E-13
 -1      2741 2.26009E+01-1.25394E+00 2.08115E-02 9.33410E-01 2.46542E-13 1.15482E-13
 -1      2742 2.29042E+01-1.54205E+00-1.36148E-02 6.41989E-01 2.35276E-13 1.28089E-13
 -1      2743 2.19856E+01-1.33298E+00-2.16150E-02 1.35022E+00 2.32530E-13 9.24013E-14
 -1      2744 2.35022E+01-1.76872E+00 2.27312E-02 2.70779E-01 1.50220E-13 1.33758E-13
 -1      2745 2.37941E+01-1.92663E+00-1.93632E-02-1.56968E-01 8.41393E-14 9.42562E-14
 -1      2746 2.29722E+01-2.00732E+00-2.32659E-02 8.53873E-01 2.04783E-13 2.32292E-13
 -1      2747 2.44165E+01-1.90063E+00 6.14432E-03-7.34252E-01 4.97519E-14 1.02135E-13
 -1      2748 2.45972E+01-1.68476E+00-2.36164E-02-1.19764E+00-6.24232E-14 1.24481E-13
 -1      2749 2.41686E+01-2.35745E+00-2.38643E-02-7.70420E-02 7.59393E-14 2.58829E-13
 -1      2750 2.50665E+01-1.16969E+00-2.03555E-02-1.85299E+00-1.94222E-13 1.23984E-13
 -1      2751 2.50306E+01-3.53335E-01-9.51897E-03-2.13017E+00-2.64566E-13 4.74872E-14
 -1      2752 2.53250E+01-1.83894E+00-3.65454E-02-1.32384E+00-1.70121E-13 2.30537E-13
 -1      2753 2.50306E+01 6.72522E-01-8.36624E-02-2.35096E+00-2.70690E-13-4.54099E-14
 -1      2754 2.48819E+01 1.82876E+00-9.77315E-03-2.13149E+00-2.30080E-13-1.32973E-13
 -1      2755 2.58784E+01 9.87206E-02-2.71112E-02-2.26662E+00-3.09072E-13 7.23796E-14
 -1      2756 2.46081E+01 2.81282E+00-1.02451E-01-1.51099E+00-1.91604E-13-2.63133E-13
 -1      2757 2.44873E+01 3.45678E+00-6.04161E-02-7.57265E-01-2.52416E-13-3.51652E-13
 -1      2758 2.57738E+01 2.83694E+00-5.63165E-02-2.03488E+00-2.88117E-13-1.90001E-13
 -1      2759 2.44886E+01 3.57849E+00-5.04881E-02 4.09549E-01-2.29539E-13-4.15434E-13
 -1      2760 2.45796E+01 3.09704E+00-8.25814E-02 1.23258E+00-2.52687E-13-3.38929E-13
 -1      2761 2.55135E+01 4.29464E+00-6.37617E-02-1.86248E-01-2.96818E-13-2.45006E-13
 -1      2762 2.48059E+01 2.20945E+00-1.40869E-02 1.96799E+00-2.09534E-13-3.24329E-13
 -1      2763 2.49648E+01 1.08249E+00-8.78665E-02 2.31382E+00-8.97754E-14-2.57816E-13
 -1      2764 2.57043E+01 3.15390E+00-7.08485E-02 1.74293E+00-2.39225E-13-2.78652E-13
 -1      2765 2.50562E+01-4.73349E-03-5.27186E-03 2.20371E+00-1.00510E-13-2.09576E-13
 -1      2766 2.50716E+01-9.16979E-01-4.57068E-02 1.99153E+00-3.22251E-14-2.00568E-13
 -1      2767 2.59041E+01 4.96321E-01-3.06377E-02 2.33867E+00-3.38549E-14-2.25125E-13
 -1      2768 2.47293E+01-1.52839E+00-1.51936E-02 1.40723E+00-1.11323E-13-1.62688E-13
 -1      2769 2.45640E+01-1.85809E+00 3.15410E-04 9.36448E-01-1.14105E-13-1.86423E-13
 -1      2770 2.54560E+01-1.56430E+00-1.59401E-02 1.54116E+00-1.60288E-15-1.54959E-13
 -1      2771 2.39528E+01-1.94170E+00-2.01539E-02 3.36059E-01-7.66455E-14-1.96713E-13
 -1      2772 2.36714E+01-1.83968E+00 1.82917E-02-1.15127E-01-9.99179E-15-2.86571E-13
 -1      2773 2.44080E+01-2.33536E+00-1.08300E-02 2.62248E-01-1.12098E-13 7.36162E-14
 -1      2774 2.30579E+01-1.63314E+00-1.59211E-02-5.24576E-01 8.41788E-14-1.98873E-13
 -1      2775 2.27491E+01-1.35332E+00 2.00563E-02-8.41270E-01 7.59792E-14-1.14323E-14
 -1      2776 2.31788E+01-2.10055E+00-2.12421E-02-7.25903E-01 3.79548E-14 4.75113E-14
 -1      2777 2.22721E+01-1.07468E+00-8.40510E-03-1.05074E+00 1.02271E-13 1.01890E-13
 -1      2778 2.19958E+01-7.91454E-01 1.53181E-02-1.22825E+00 1.27987E-13 2.83868E-13
 -1      2779 2.21431E+01-1.44418E+00-1.94051E-02-1.28580E+00 1.65650E-13 1.56656E-13
 -1      2780 2.16708E+01-5.49399E-01-3.09904E-03-1.29853E+00-4.00222E-14 1.93528E-13
 -1      2781 2.14462E+01-3.31465E-01 9.62650E-03-1.36819E+00 4.59273E-15 7.35460E-14
 -1      2782 2.14038E+01-7.83460E-01-1.40002E-02-1.51441E+00 1.13361E-14 1.28857E-13
 -1      2783 2.12414E+01-1.59574E-01-5.27192E-05-1.35505E+00-7.90497E-15 3.23430E-14
 -1      2784 2.10647E+01-1.73555E-02 5.14595E-03-1.35269E+00-2.82923E-16-1.81519E-13
 -1      2785 2.09228E+01-2.75572E-01-8.83473E-03-1.53673E+00-1.20079E-13 2.24920E-13
 -1      2786 2.09408E+01 8.79950E-02 1.57414E-03-1.29475E+00 1.42432E-13-3.70856E-13
 -1      2787 2.08011E+01 1.67875E-01 2.22756E-03-1.24961E+00 1.48017E-13-3.35070E-13
 -1      2788 2.06252E+01 5.70263E-02-5.00694E-03-1.44464E+00-5.24906E-14-3.43025E-14
 -1      2789 2.07268E+01 2.22632E-01 2.40143E-03-1.17085E+00 1.31742E-13-3.95618E-13
 -1      2790 2.06144E+01 2.58617E-01 5.06166E-04-1.10403E+00 9.17559E-14-3.96740E-13
 -1      2791 2.04436E+01 2.45409E-01-2.60477E-03-1.29573E+00 9.38476E-14-4.10239E-13
 -1      2792 2.05686E+01 2.79576E-01 2.75329E-03-1.01891E+00 1.20621E-13-2.93387E-13
 -1      2793 2.04764E+01 2.87927E-01-3.93616E-04-9.44388E-01 1.01186E-13-1.76918E-13
 -1      2794 2.03303E+01 3.31934E-01-1.27911E-03-1.12454E+00 9.84998E-14-3.84386E-13
 -1      2795 2.04464E+01 2.88632E-01 2.81148E-03-8.61312E-01 4.26838E-14-6.07461E-14
 -1      2796 2.03700E+01 2.81507E-01-7.79895E-04-7.87611E-01 5.90130E-15-5.23600E-14
 -1      2797 2.02555E+01 3.53843E-01-6.31792E-04-9.51505E-01 1.58787E-13-3.53724E-13
 -1      2798 2.03486E+01 2.71646E-01 2.67541E-03-7.11113E-01 6.75970E-14 6.74748E-14
 -1      2799 2.02851E+01 2.57418E-01-8.59185E-04-6.42849E-01 3.61130E-13 2.02811E-13
 -1      2800 2.02021E+01 3.39145E-01-3.52234E-04-7.88269E-01 1.86340E-13-1.46030E-13
 -1      2801 2.02684E+01 2.43537E-01 2.42559E-03-5.74856E-01 4.36357E-13 1.84929E-13
 -1      2802 2.02158E+01 2.27581E-01-8.01558E-04-5.13889E-01 3.85257E-13 1.71517E-13
 -1      2803 2.01608E+01 3.07233E-01-2.56551E-04-6.40738E-01 3.59896E-13 1.05251E-13
 -1      2804 2.02019E+01 2.13698E-01 2.12833E-03-4.54706E-01 2.83789E-13 1.51845E-13
 -1      2805 2.01586E+01 1.99280E-01-6.24550E-04-4.01283E-01 1.33057E-13 7.89398E-14
 -1      2806 2.01265E+01 2.70414E-01-3.15768E-04-5.10722E-01 2.02568E-13-5.51690E-14
 -1      2807 2.01457E+01 1.87829E-01 1.67309E-03-3.50304E-01-5.16018E-14-3.29493E-14
 -1      2808 2.01110E+01 1.77475E-01-1.17647E-04-3.03570E-01-2.12828E-13-1.28966E-13
 -1      2809 2.00964E+01 2.36640E-01-5.31691E-04-3.98005E-01-2.17170E-14-1.64996E-13
 -1      2810 1.01738E+01-2.53177E+00 3.99915E-02 5.41122E+00 1.51892E-13-1.63480E-13
 -1      2811 7.71989E+00-1.71926E+00 1.75135E-01 3.86583E+00 9.39110E-14-3.94296E-13
 -1      2812 2.42747E+01-5.15915E+00-4.99963E-02 3.85394E+00 8.89289E-14 1.22499E-13
 -1      2813 2.12731E+01-5.08433E+00 6.08428E-02 5.02777E+00 1.64813E-13 1.35315E-13
 -1      2814 1.99120E+01 1.41186E-01 2.04274E-04-1.06931E-01 1.14891E-13 4.06518E-15
 -1      2815 1.99413E+01 1.88916E-01 5.13299E-03-4.47002E-02 1.29228E-13-2.52112E-15
 -1      2816 1.99189E+01 3.93748E-02 1.29277E-03-2.96003E-01 2.68037E-14 3.02690E-15
 -1      2817 1.98934E+01 4.24750E-02 7.31156E-04-2.78520E-01 4.21113E-14-3.73915E-14
 -1      2818 1.99620E+01 4.37080E-02 1.57342E-03-3.31448E-01 5.19871E-14 1.95756E-14
 -1      2819 1.99266E+01 3.96238E-02 9.64948E-05-3.15017E-01 5.05663E-14 4.50640E-14
 -1      2820 1.99838E+01 5.37555E-02-1.23905E-03-3.22052E-01 6.57756E-15-3.65421E-14
 -1      2821 2.00196E+01 5.91152E-02 1.87218E-03-3.70583E-01 5.91393E-14 1.98839E-14
 -1      2822 1.99755E+01 4.96372E-02-3.27166E-04-3.51264E-01 4.43132E-14 1.02818E-14
 -1      2823 2.00072E+01 6.18524E-02-1.00229E-03-3.64422E-01 7.58979E-14-1.43824E-14
 -1      2824 2.00909E+01 8.27608E-02 2.19181E-03-4.19998E-01 5.32711E-14 4.26608E-14
 -1      2825 2.00381E+01 6.92901E-02-6.06481E-04-3.94892E-01 7.20817E-14 4.85673E-14
 -1      2826 2.00424E+01 8.32646E-02-8.53036E-04-4.11704E-01 6.77850E-14 2.15016E-15
 -1      2827 2.01761E+01 1.12027E-01 2.51813E-03-4.84419E-01 5.46164E-14 4.87226E-14
 -1      2828 2.01141E+01 9.59269E-02-7.83390E-04-4.51522E-01 7.04168E-14 4.94857E-14
 -1      2829 2.00880E+01 1.14411E-01-7.70697E-04-4.70638E-01 7.44759E-14 1.33226E-14
 -1      2830 2.02769E+01 1.43823E-01 2.81858E-03-5.66731E-01 4.43826E-14 8.90313E-14
 -1      2831 2.02045E+01 1.26789E-01-8.76629E-04-5.24987E-01 4.04999E-14 8.51660E-14
 -1      2832 2.01440E+01 1.51804E-01-7.42215E-04-5.46003E-01 2.13078E-14 6.58074E-14
 -1      2833 2.03955E+01 1.73753E-01 3.03780E-03-6.67608E-01 3.93318E-14 1.04958E-14
 -1      2834 2.03111E+01 1.58268E-01-8.78549E-04-6.17177E-01 6.66719E-14 1.05282E-13
 -1      2835 2.02112E+01 1.91155E-01-7.69150E-04-6.40608E-01 6.81148E-14 5.15446E-14
 -1      2836 2.05352E+01 1.95042E-01 3.09114E-03-7.84696E-01 3.65657E-14-4.84562E-14
 -1      2837 2.04372E+01 1.84971E-01-7.47377E-04-7.27466E-01 3.79895E-14 1.39439E-14
 -1      2838 2.02914E+01 2.26273E-01-8.79097E-04-7.54924E-01 4.22431E-14 3.30796E-14
 -1      2839 2.07007E+01 1.97195E-01 2.85680E-03-9.11240E-01 9.73231E-14 5.70689E-14
 -1      2840 2.05873E+01 1.98507E-01-3.94741E-04-8.51650E-01 3.55327E-14 5.81294E-15
 -1      2841 2.03886E+01 2.47672E-01-1.14261E-03-8.86298E-01 2.89045E-14 2.41978E-14
 -1      2842 2.08990E+01 1.64574E-01 2.16579E-03-1.03408E+00 9.49135E-15 1.07105E-13
 -1      2843 2.07684E+01 1.86071E-01 3.28357E-04-9.80254E-01 1.17372E-13 9.91455E-14
 -1      2844 2.05092E+01 2.40896E-01-1.69541E-03-1.02764E+00 7.38475E-14 8.53720E-14
 -1      2845 2.11411E+01 7.56011E-02 7.83404E-04-1.13101E+00-8.93763E-14 8.78467E-14
 -1      2846 2.09911E+01 1.29192E-01 1.63560E-03-1.09613E+00-5.66415E-14 7.67383E-14
 -1      2847 2.06653E+01 1.84898E-01-2.75779E-03-1.16548E+00-3.69615E-14 9.99199E-14
 -1      2848 2.14429E+01-9.56261E-02-1.59572E-03-1.16778E+00-3.87741E-14 4.46413E-14
 -1      2849 2.12716E+01 3.79874E-03 3.76247E-03-1.17130E+00-1.09657E-13 1.80890E-14
 -1      2850 2.08764E+01 5.15629E-02-4.62989E-03-1.27714E+00-6.53761E-14 2.34512E-14
 -1      2851 2.18252E+01-3.71678E-01-5.33594E-03-1.09574E+00 4.13578E-14 7.99512E-14
 -1      2852 2.16320E+01-2.15774E-01 6.88615E-03-1.16359E+00 4.51443E-14 5.90096E-14
 -1      2853 2.11732E+01-1.91087E-01-7.56777E-03-1.32699E+00-6.57574E-14 8.64499E-15
 -1      2854 2.23069E+01-7.51446E-01-1.04633E-02-8.52455E-01 2.95111E-14 1.02237E-13
 -1      2855 2.20968E+01-5.44243E-01 1.07241E-02-1.01419E+00 3.32676E-14 9.18116E-14
 -1      2856 2.15970E+01-5.66958E-01-1.14177E-02-1.26180E+00 7.31645E-14 2.36765E-14
 -1      2857 2.28841E+01-1.17118E+00-1.65028E-02-3.74668E-01-4.16056E-14 8.30679E-14
 -1      2858 2.26766E+01-9.55721E-01 1.39797E-02-6.52179E-01 2.05808E-14 9.95694E-14
 -1      2859 2.21903E+01-1.06103E+00-1.47250E-02-1.00741E+00 3.59165E-14 9.20697E-14
 -1      2860 2.35013E+01-1.45018E+00-1.89809E-02 3.65279E-01-1.84745E-13-1.61323E-14
 -1      2861 2.33347E+01-1.33741E+00 1.26084E-02-1.82055E-02-1.17736E-13 1.09853E-13
 -1      2862 2.29651E+01-1.56750E+00-1.49831E-02-4.79954E-01-8.99625E-14 1.54967E-13
 -1      2863 2.40136E+01-1.27630E+00-7.53014E-03 1.25914E+00-2.25230E-13 8.88322E-14
 -1      2864 2.39306E+01-1.43611E+00 1.53140E-03 8.61253E-01-2.26205E-13 5.09662E-15
 -1      2865 2.38263E+01-1.82270E+00-1.52285E-02 3.84362E-01-2.06843E-13 1.23982E-13
 -1      2866 2.42027E+01-3.72114E-01 6.15003E-03 1.99993E+00-3.89411E-14 1.86071E-14
 -1      2867 2.42519E+01-9.48324E-01-2.62188E-02 1.75988E+00-1.27787E-13 6.66642E-14
 -1      2868 2.45807E+01-1.38540E+00 4.01261E-03 1.46467E+00-1.89192E-13 5.85573E-14
 -1      2869 2.39541E+01 1.15278E+00 1.15888E-02 2.01100E+00 8.93730E-14-4.74023E-14
 -1      2870 2.41022E+01 3.33760E-01-5.56308E-02 2.17482E+00 4.11711E-14 8.23256E-15
 -1      2871 2.48787E+01-4.46616E-02 9.33477E-03 2.20382E+00 1.81556E-14 9.18389E-14
 -1      2872 2.35592E+01 2.46296E+00-3.59253E-03 9.49995E-01 5.93380E-14 4.86070E-14
 -1      2873 2.36723E+01 1.90080E+00-5.78796E-02 1.56600E+00 1.16802E-13 2.38302E-14
 -1      2874 2.45986E+01 1.86735E+00-2.88658E-02 1.98953E+00 1.06200E-14 6.62560E-14
 -1      2875 2.34851E+01 2.52178E+00-4.51176E-02-7.19947E-01 2.02335E-13-1.59534E-13
 -1      2876 2.34579E+01 2.67947E+00-2.60550E-02 2.92989E-02 1.27551E-13-1.57704E-14
 -1      2877 2.42787E+01 3.18884E+00-5.14600E-02 5.51667E-01 9.62286E-14 7.88883E-14
 -1      2878 2.38536E+01 1.28496E+00-6.34353E-02-1.95657E+00 2.41205E-13-7.64363E-14
 -1      2879 2.36997E+01 2.03011E+00 3.36391E-04-1.50836E+00 2.14558E-13-9.17296E-14
 -1      2880 2.43596E+01 2.77270E+00-4.30621E-02-1.26157E+00 2.04906E-13-8.11747E-14
 -1      2881 2.42200E+01-2.73515E-01-4.35217E-02-2.09842E+00 3.43475E-16-1.09878E-13
 -1      2882 2.40992E+01 4.83809E-01 1.07668E-02-2.12805E+00 2.01394E-13-7.01537E-14
 -1      2883 2.47634E+01 1.08765E+00-1.07638E-02-2.22556E+00 2.30718E-13-7.66782E-14
 -1      2884 2.41724E+01-1.24149E+00-1.16135E-02-1.41221E+00-1.72124E-14-5.61495E-14
 -1      2885 2.41691E+01-8.45238E-01-2.01054E-03-1.75314E+00-8.35592E-14-1.10977E-13
 -1      2886 2.48186E+01-7.09267E-01 1.00872E-02-1.93993E+00-7.27196E-15-1.81374E-13
 -1      2887 2.37077E+01-1.45445E+00 8.09263E-03-4.75790E-01 1.98042E-13-2.33685E-14
 -1      2888 2.38274E+01-1.42656E+00-1.44165E-02-8.91067E-01 1.11944E-13-3.75945E-14
 -1      2889 2.43159E+01-1.67507E+00 4.58472E-03-9.71583E-01-1.45473E-14-2.23232E-13
 -1      2890 2.30602E+01-1.19557E+00 1.40816E-02 3.14342E-01 2.19362E-13-3.38941E-14
 -1      2891 2.32524E+01-1.36778E+00-1.71234E-02-3.14885E-02 2.34741E-13 5.07759E-15
 -1      2892 2.34828E+01-1.75930E+00-6.12012E-03 2.07772E-02 1.28865E-13-2.61306E-13
 -1      2893 2.24258E+01-7.78330E-01 1.25605E-02 8.29602E-01 3.83173E-15 9.10513E-16
 -1      2894 2.26392E+01-9.98930E-01-1.34706E-02 6.01264E-01 1.67146E-13 6.32271E-14
 -1      2895 2.26294E+01-1.36291E+00-1.30588E-02 7.35329E-01 1.54670E-13-1.04712E-13
 -1      2896 2.18945E+01-3.91946E-01 9.07027E-03 1.09249E+00 5.23398E-14-1.54096E-13
 -1      2897 2.20984E+01-5.80928E-01-8.09259E-03 9.73862E-01 2.37115E-14-7.08543E-14
 -1      2898 2.19267E+01-8.39801E-01-1.22447E-02 1.13736E+00 6.83685E-14-1.22184E-13
 -1      2899 2.14778E+01-1.06315E-01 5.60461E-03 1.17172E+00-3.13532E-14 8.58731E-15
 -1      2900 2.16606E+01-2.39345E-01-3.62207E-03 1.13563E+00 1.77335E-14-6.97296E-14
 -1      2901 2.14083E+01-3.87773E-01-9.05697E-03 1.30008E+00 3.05886E-15-3.45684E-13
 -1      2902 2.11567E+01 7.41579E-02 2.99246E-03 1.13411E+00-8.06340E-14 1.65021E-13
 -1      2903 2.13164E+01-6.22247E-03-5.53197E-04 1.15181E+00-7.13225E-14 1.89722E-13
 -1      2904 2.10438E+01-6.63736E-02-5.91145E-03 1.30551E+00-2.04778E-13-2.29698E-13
 -1      2905 2.09069E+01 1.71313E-01 1.30873E-03 1.03126E+00-1.74232E-13-7.93581E-14
 -1      2906 2.10451E+01 1.30629E-01 1.32752E-03 1.07947E+00-6.27398E-14 1.69434E-13
 -1      2907 2.07893E+01 1.30209E-01-3.68904E-03 1.21889E+00-1.04509E-13-2.06892E-13
 -1      2908 2.07090E+01 2.11356E-01 3.46665E-04 8.98593E-01-2.67283E-13 9.04814E-14
 -1      2909 2.08275E+01 1.96964E-01 2.36785E-03 9.60778E-01-2.95081E-13-9.75137E-14
 -1      2910 2.06072E+01 2.31818E-01-2.32167E-03 1.08518E+00-2.62046E-13-1.39009E-13
 -1      2911 2.05494E+01 2.16481E-01-1.29173E-04 7.58589E-01-9.26724E-14 8.29621E-15
 -1      2912 2.06502E+01 2.17620E-01 2.82877E-03 8.24109E-01-1.48891E-13 1.06569E-13
 -1      2913 2.04718E+01 2.69872E-01-1.55224E-03 9.33579E-01-2.73629E-13-1.54761E-13
 -1      2914 2.04195E+01 2.02984E-01-3.07767E-04 6.24241E-01 6.97549E-14-1.00913E-13
 -1      2915 2.05041E+01 2.11971E-01 2.90221E-03 6.86987E-01 8.03475E-15-5.59909E-14
 -1      2916 2.03670E+01 2.69891E-01-1.14074E-03 7.81939E-01 2.95616E-14 2.01317E-14
 -1      2917 2.03134E+01 1.81964E-01-3.16702E-04 5.01952E-01-2.35795E-14-3.49018E-14
 -1      2918 2.03834E+01 1.93642E-01 2.72544E-03 5.59009E-01 8.48865E-15-1.16264E-13
 -1      2919 2.02832E+01 2.50277E-01-9.21213E-04 6.40230E-01-7.01504E-14-1.11445E-13
 -1      2920 2.02269E+01 1.60715E-01-1.46594E-04 3.93734E-01 1.32325E-13 1.85980E-13
 -1      2921 2.02838E+01 1.71721E-01 2.40106E-03 4.44289E-01 1.18923E-13 8.79504E-14
 -1      2922 2.02149E+01 2.23527E-01-7.68167E-04 5.13013E-01-7.11275E-14-1.85250E-13
 -1      2923 2.01575E+01 1.43812E-01 5.53355E-04 2.98878E-01 1.09376E-13 2.90624E-13
 -1      2924 2.02021E+01 1.51832E-01 2.05802E-03 3.43062E-01 1.05144E-13 2.21336E-13
 -1      2925 2.01577E+01 1.97741E-01-6.86270E-04 4.01342E-01 1.05425E-13-1.55485E-13
 -1      2926 2.00993E+01 1.41334E-01 8.49499E-04 2.28660E-01 1.76050E-13 1.52548E-13
 -1      2927 2.01338E+01 1.47071E-01 1.83300E-03 2.69054E-01 1.11643E-13 2.49892E-13
 -1      2928 2.01051E+01 1.85256E-01-1.69340E-03 3.16956E-01 1.20822E-13-2.69312E-13
 -1      2929 2.00635E+01 1.87249E-01-1.70641E-03 2.54486E-01-3.50002E-14-3.08284E-13
 -1      2930 1.98303E+01 4.70163E-01-1.16437E-03 2.66741E-02 1.18787E-13-2.36549E-15
 -1      2931 1.98365E+01 4.64169E-01-5.85642E-04 7.16357E-02 8.75037E-14-3.45762E-14
 -1      2932 2.01042E+01 1.71420E-01 1.45338E-03-2.72969E-01-1.06772E-13 9.64128E-15
 -1      2933 2.00838E+01 1.65205E-01 2.38946E-04-2.43812E-01-4.06593E-14 6.34564E-14
 -1      2934 2.00738E+01 2.12676E-01-7.12579E-04-3.14296E-01-3.79914E-14-3.77674E-13
 -1      2935 1.98872E+01 4.02956E-01-1.83073E-03 2.00122E-01-1.65678E-13 3.81564E-14
 -1      2936 1.99142E+01 3.76294E-01 6.14166E-04 2.27585E-01-2.16873E-14-1.73780E-13
 -1      2937 1.98363E+01 4.64407E-01-6.20218E-04-7.16649E-02 6.70090E-14-1.22086E-13
 -1      2938 1.98303E+01 4.70344E-01-1.13587E-03-2.66789E-02 5.48370E-14-4.14717E-15
 -1      2939 1.97914E+01 4.94184E-01 1.70332E-03 9.50438E-05 1.19264E-13-9.13160E-15
 -1      2940 1.98479E+01 4.48910E-01-1.59341E-03 1.21461E-01-1.91661E-13 7.95170E-14
 -1      2941 1.98656E+01 4.31694E-01 4.26847E-05 1.60348E-01-1.77917E-13 2.23713E-13
 -1      2942 1.98477E+01 4.38210E-01 1.36358E-03 2.02788E-01-1.52311E-13-1.39593E-14
 -1      2943 1.98059E+01 4.79641E-01 1.60863E-03 1.08506E-01 2.12523E-14 1.43496E-13
 -1      2944 2.87542E+01 6.39103E+00-2.13177E-01-5.31576E-01 2.93793E-13 1.25594E-15
 -1      2945 2.95056E+01 5.80058E+00-1.56131E-01-1.38284E+00 2.12219E-13-4.25354E-14
 -1      2946 1.98646E+01 4.33100E-01 1.27723E-05-1.59234E-01 1.69831E-13-4.01131E-13
 -1      2947 1.98474E+01 4.49829E-01-1.56866E-03-1.20814E-01 7.21387E-14-1.00428E-13
 -1      2948 1.98055E+01 4.80562E-01 1.64253E-03-1.07571E-01 6.99044E-14-1.12594E-13
 -1      2949 1.99131E+01 3.78149E-01 5.72462E-04-2.27244E-01 3.63043E-13-2.86065E-13
 -1      2950 1.98861E+01 4.04757E-01-1.82965E-03-1.99439E-01 2.89904E-13-4.20947E-13
 -1      2951 1.98464E+01 4.40241E-01 1.39361E-03-2.01652E-01 2.05793E-13-2.47502E-13
 -1      2952 1.99745E+01 3.04644E-01 3.76506E-04-2.63949E-01 2.97215E-13 1.13305E-14
 -1      2953 1.99431E+01 3.39233E-01-1.68902E-03-2.52332E-01 3.53913E-13-2.03028E-13
 -1      2954 1.99100E+01 3.76837E-01 9.29787E-04-2.70472E-01 4.45131E-13-2.09806E-13
 -1      2955 1.99719E+01 2.46513E-01-4.95882E-04 3.96163E-02 1.69520E-13-2.80150E-14
 -1      2956 2.00331E+01 3.27431E-01 7.78325E-03 1.41958E-01 1.93089E-13 1.25266E-15
 -1      2957 2.00690E+01 2.87817E-01-2.91026E-03 3.08053E-02 1.51695E-13-2.38799E-14
 -1      2958 7.38463E+00-7.51600E-01 1.60016E-01-2.33903E+00 2.38143E-14-4.25132E-13
 -1      2959 9.06110E+00-1.70081E+00 1.22819E-01-4.54678E+00-9.86711E-14-3.66068E-13
 -1      2960 2.03204E+01 1.58503E+00-8.83195E-03-1.23619E+00-2.38122E-13-2.50701E-13
 -1      2961 2.03022E+01 1.22019E+00 1.24117E-04-9.61145E-01-2.18946E-13-2.31092E-13
 -1      2962 2.02424E+01 1.85001E+00-5.21448E-04-1.21404E+00-2.04737E-13-2.96360E-13
 -1      2963 2.03356E+01 1.50365E+00-1.81639E-03 1.26218E+00 3.25483E-13 2.11159E-14
 -1      2964 6.56766E+00-1.03955E+00 1.38201E-01 2.24751E+00-3.31679E-14-5.18835E-13
 -1      2965 6.42386E+00-5.46210E-01 1.21708E-01-3.13461E-03-2.47909E-14-4.50306E-13
 -1      2966 8.89718E+00-6.74102E-01 1.80780E-01 2.75007E+00 6.80428E-14-3.36314E-13
 -1      2967 1.98928E+01 4.98680E-02 1.00823E-03-2.55413E-01 3.81839E-14-5.69911E-14
 -1      2968 1.98802E+01 6.27707E-02 1.67634E-03-2.31532E-01 3.31842E-14-5.75088E-14
 -1      2969 1.99743E+01 6.35218E-02-1.58325E-03-2.75553E-01 2.85257E-14-6.53237E-14
 -1      2970 1.98883E+01 8.07939E-02 6.72325E-04-1.97802E-01 6.70501E-14-1.20131E-14
 -1      2971 1.98932E+01 1.07641E-01 3.08155E-03-1.60091E-01 1.09176E-13 1.82117E-14
 -1      2972 1.99822E+01 9.77585E-02-2.03824E-03-2.12897E-01 8.12445E-14-5.60523E-14
 -1      2973 2.03111E+01 9.93224E-01 3.36564E-03-7.89246E-01-1.93196E-13-2.18822E-13
 -1      2974 2.02225E+01 7.70291E-01-3.54930E-03-5.53246E-01-1.57498E-13-2.34380E-13
 -1      2975 2.02594E+01 8.50480E-01 7.25519E-04-5.10821E-01-1.68849E-13-2.38259E-13
 -1      2976 2.02865E+01 1.21015E+00-1.71377E-03-8.15849E-01-1.90657E-13-2.50154E-13
 -1      2977 9.60979E+00-2.02401E+00 5.09263E-02 4.92310E+00-4.69527E-13-6.96054E-13
 -1      2978 7.52794E+00-1.21329E+00 1.74220E-01 3.18542E+00-4.58508E-13-4.38177E-13
 -1      2979 1.74051E+01-4.34863E+00 1.42871E-02 5.96755E+00 2.30677E-13 1.47105E-14
 -1      2980 1.40597E+01-3.33963E+00 1.86640E-01 5.96527E+00 2.57794E-13-5.50393E-14
 -1      2981 1.60850E+01-4.35322E+00-3.01184E-02 6.32969E+00-2.69854E-13-3.83138E-13
 -1      2982 1.29354E+01-3.10257E+00 1.75838E-01 5.90228E+00-2.94723E-13-6.02615E-13
 -1      2983 2.00739E+01 4.25739E-01-1.35636E-03 2.73538E-01 2.02828E-13-1.38190E-15
 -1      2984 2.01721E+01 5.62015E-01 1.04450E-02 4.39516E-01 2.18064E-13 1.15730E-14
 -1      2985 2.02568E+01 8.30801E-01 5.54534E-04 6.05909E-01 2.54340E-13-3.93983E-14
 -1      2986 2.01532E+01 4.92146E-01-2.13840E-03 2.61442E-01 2.16992E-13-4.87000E-14
 -1      2987 1.21303E+01-2.94392E+00 1.45803E-01-5.76123E+00-2.38420E-14 4.83169E-13
 -1      2988 1.48703E+01-3.98300E+00 2.37017E-02-6.34330E+00-2.39808E-14 4.76119E-13
 -1      2989 1.99346E+01 2.60990E+00-7.85013E-03 7.87734E-01 2.70228E-13-2.28169E-13
 -1      2990 1.98915E+01 2.70324E+00-6.22797E-03 6.39464E-01 2.24004E-13-2.62663E-13
 -1      2991 2.00098E+01 2.40832E+00 4.45186E-03 5.10072E-01 1.80069E-13-2.55468E-13
 -1      2992 2.00901E+01 2.20679E+00 5.71778E-03 7.37061E-01 2.55354E-13-1.86597E-13
 -1      2993 2.81130E+01-2.35157E+00-2.69578E-02 3.65586E-02-1.64008E-13 4.20775E-14
 -1      2994 2.90813E+01-1.67463E-01-1.35076E-01 1.27337E+00 2.53964E-15 1.48700E-13
 -1      2995 2.91951E+01 1.15421E+00-5.68053E-02 1.86470E+00-5.29576E-14 1.53821E-13
 -1      2996 2.91321E+01 3.04133E+00-1.93174E-01 2.01738E+00-2.42140E-13-5.97022E-14
 -1      2997 2.91781E+01 1.30691E+00-9.25412E-02 1.89009E+00 4.32154E-14 1.97370E-13
 -1      2998 2.87897E+01 2.80444E+00-1.63949E-01 2.07171E+00 1.23429E-13 1.30229E-13
 -1      2999 2.80465E+01-1.92759E-01-6.91883E-02 1.77300E+00-1.37043E-14 1.71876E-13
 -1      3000 1.12451E+01-2.77443E+00 1.37761E-01-5.61361E+00-2.48176E-13-3.70398E-13
 -1      3001 1.41080E+01-3.80337E+00 3.83567E-02-6.31930E+00-3.79613E-13-3.51774E-13
 -1      3002 1.98865E+01 2.71215E+00-6.21405E-03-6.29377E-01-1.76574E-14-3.86037E-13
 -1      3003 1.99284E+01 2.62069E+00-7.96224E-03-7.78130E-01-6.23500E-14-3.69058E-13
 -1      3004 2.95469E+01 4.32501E+00-1.58517E-01-1.71452E+00 1.09357E-14-1.54432E-13
 -1      3005 2.91295E+01 2.28745E+00-1.19422E-01-2.00044E+00-1.22610E-13-2.57683E-13
 -1      3006 2.77913E+01 4.27281E+00-4.91939E-02-1.83848E+00-3.54855E-14-2.80491E-13
 -1      3007 2.37753E+01-5.00662E+00 9.48938E-02-3.84674E+00-4.18304E-13-3.06422E-14
 -1      3008 2.63265E+01-4.28889E+00-9.60364E-02-1.99712E+00-2.61006E-13-1.84297E-14
 -1      3009 6.30435E+00-8.60341E-01 1.42222E-01 1.57091E+00-4.67293E-13-4.21968E-13
 -1      3010 6.10081E+00-7.84346E-01 1.20643E-01-7.58418E-01-3.15255E-13-4.21885E-15
 -1      3011 8.71954E+00-4.16520E-01 1.88296E-01 2.21487E+00-5.26620E-13-3.98348E-13
 -1      3012 1.73753E+01-4.46268E+00 1.41476E-01-6.02939E+00-4.29101E-13-2.72136E-13
 -1      3013 2.02490E+01-5.20234E+00-8.37111E-02-5.52677E+00-4.40814E-13-3.12909E-14
 -1      3014 2.47089E+01-4.90983E+00 8.20436E-02-3.33987E+00-1.12771E-13 3.11640E-13
 -1      3015 2.65949E+01-4.30848E+00-1.18689E-01-1.95329E+00-1.20189E-13 2.56919E-13
 -1      3016 2.82247E+01-3.03739E+00-1.36971E-01 7.91678E-01-1.85334E-13 4.51764E-13
 -1      3017 2.65403E+01-4.23711E+00 3.26749E-02 2.17651E+00-9.33975E-15 2.58932E-13
 -1      3018 2.00573E+01 1.98788E-01 1.18814E-04-2.53838E-01-2.18613E-14-1.45088E-13
 -1      3019 2.95591E+01 8.40895E-01-1.72701E-01-1.52427E+00-4.15487E-13 4.23578E-13
 -1      3020 2.92107E+01-1.06773E+00-4.11790E-02-6.87531E-01-3.53204E-13 4.73233E-13
 -1      3021 7.40419E+00-1.05051E+00 1.76867E-01-2.84828E+00-6.28109E-14 3.40006E-13
 -1      3022 9.38479E+00-1.89160E+00 9.30546E-02-4.77055E+00-6.38239E-14 4.43257E-13
 -1      3023 2.72365E+01 5.58346E+00-1.83491E-01-5.07532E-01-4.44422E-13 2.04142E-14
 -1      3024 2.78555E+01 5.05537E+00-1.87144E-01-1.45041E+00-4.38927E-13 7.33164E-14
 -1      3025 2.90683E+01 4.90129E+00-1.28181E-01 1.81275E+00-3.01814E-13-3.10862E-15
 -1      3026 2.87586E+01 5.96966E+00-1.69374E-01 1.06826E+00-4.26825E-13-1.21153E-14
 -1      3027 2.79620E+01 3.33241E+00-1.29572E-01 2.08959E+00-2.31093E-13-8.05606E-14
 -1      3028 2.80734E+01-2.79536E+00-3.04589E-04-2.31792E-01-7.61960E-14 2.86882E-13
 -1      3029 2.87339E+01-1.25451E+00-1.88739E-01 8.93119E-01 1.37598E-14 3.95295E-13
 -1      3030 1.82194E+01-4.74155E+00 1.29068E-01-5.93952E+00 5.44426E-14 5.52211E-13
 -1      3031 2.15845E+01-5.33047E+00-6.96210E-02-5.10962E+00 9.67282E-15 5.05698E-13
 -1      3032 2.74041E+01-3.58364E+00-1.30097E-01 9.87794E-01-1.52028E-13-8.46545E-14
 -1      3033 2.58575E+01-4.44722E+00 6.69813E-02 2.30185E+00-1.52101E-13-9.31338E-14
 -1      3034 2.91888E+01 1.48614E-01-1.80884E-01-1.38600E+00-1.10995E-13-1.29841E-13
 -1      3035 2.85849E+01-1.72377E+00-3.96844E-02-4.38254E-01-1.87662E-13-1.34281E-13
 -1      3036 1.99822E+01 2.49912E+00-6.21686E-03-8.93846E-01-1.07031E-13-3.58237E-13
 -1      3037 2.00446E+01 2.34714E+00-1.12418E-02-1.02668E+00-1.51508E-13-3.51824E-13
 -1      3038 2.00844E+01 2.22364E+00 7.05903E-03-7.31318E-01-7.89204E-14-3.29791E-13
 -1      3039 1.99449E+01 2.56202E+00 3.58005E-03 4.53190E-03 8.85777E-14-3.29011E-13
 -1      3040 1.98070E+01 2.88904E+00-5.55854E-03-6.10943E-02 7.91383E-14-3.64131E-13
 -1      3041 1.98144E+01 2.87413E+00-5.58796E-03-2.14426E-01 5.38796E-14-3.84347E-13
 -1      3042 1.21377E+01-1.84864E+00 1.43637E-01-4.82414E+00-1.64591E-14 4.78270E-13
 -1      3043 1.88748E+01-4.16978E+00 1.12716E-01 5.34381E+00-2.03143E-13-2.83204E-13
 -1      3044 2.82175E+01 3.47283E+00-1.50255E-01 2.09920E+00 7.76323E-14-3.44724E-14
 -1      3045 2.71127E+01 4.11762E+00-1.45787E-01 1.89821E+00 5.78149E-14-1.71779E-13
 -1      3046 2.73208E+01 2.05702E+00-5.06023E-02 2.29768E+00 4.21191E-14 4.18832E-14
 -1      3047 1.66518E+01-3.62639E+00 1.25022E-01-5.69641E+00-3.71050E-13-2.95333E-13
 -1      3048 1.99112E+01 3.74507E-01 9.00058E-04 2.70551E-01-7.57443E-14-1.14115E-13
 -1      3049 1.99435E+01 3.37489E-01-1.78866E-03 2.51969E-01-8.63923E-14-2.39453E-13
 -1      3050 1.99760E+01 3.03821E-01 8.04657E-04 2.63893E-01-2.54016E-13-2.95142E-13
 -1      3051 1.31753E+01-2.38290E+00 1.32611E-01 5.23785E+00 2.61346E-13-4.59077E-14
 -1      3052 2.17315E+01-4.66913E+00-6.77176E-02 4.17462E+00 2.43458E-13 1.16109E-13
 -1      3053 1.99104E+01-4.59629E+00 8.01732E-02 5.21896E+00 2.46400E-13 6.39870E-14
 -1      3054 1.85018E+01-3.63750E+00 6.07371E-02 5.10007E+00 2.31183E-13 1.17337E-14
 -1      3055 1.16679E+01-1.67679E+00 1.51196E-01-4.65283E+00-1.63425E-13-2.48981E-13
 -1      3056 2.00122E+01 1.66852E-01-2.55635E-03-1.17992E-01 1.11652E-13-1.82292E-15
 -1      3057 2.82540E+01 8.69875E-01-7.16079E-02-2.00805E+00-1.11980E-13-1.77358E-13
 -1      3058 2.81401E+01-2.17372E+00-3.17793E-02-4.23914E-01-1.84470E-13 4.54095E-13
 -1      3059 2.77834E+01 5.77102E+00-1.43576E-01 3.78238E-02 3.18162E-13-1.50817E-13
 -1      3060 2.00037E+01 2.65236E-01-1.60640E-03 2.68332E-01-2.02505E-13-6.32620E-13
 -1      3061 2.00370E+01 2.27954E-01 8.50299E-04 2.63667E-01-1.38369E-13-5.77226E-13
 -1      3062 2.00548E+01 2.28400E-01 1.58949E-03 2.95991E-01 4.90601E-15-6.36884E-13
 -1      3063 1.99844E+01 3.01673E-01 9.77890E-04 3.00562E-01-2.62913E-14-5.05226E-13
 -1      3064 2.74962E+01-2.58526E+00-1.33518E-02-3.49966E-01-5.13652E-15 8.74301E-15
 -1      3065 2.72080E+01-3.54352E+00-3.53472E-02-5.75007E-01-1.83319E-13 1.79162E-14
 -1      3066 2.69390E+01-2.45693E+00-1.08514E-01 7.26681E-01-7.14949E-14 7.16649E-14
 -1      3067 2.59462E+01-3.87840E+00 7.66183E-02-1.19295E+00-1.82057E-13-1.07192E-13
 -1      3068 1.76514E+01-3.92281E+00 1.26550E-01-5.57642E+00 9.11077E-14 4.50362E-13
 -1      3069 2.00295E+01 2.39339E-01 2.36426E-04-2.59828E-01 1.17652E-13-3.31081E-14
 -1      3070 2.00361E+01 2.44009E-01-4.10479E-04-3.06507E-01-3.91629E-14-2.24029E-13
 -1      3071 1.99996E+01 2.77278E-01-4.86962E-04-2.81881E-01 1.40710E-13 9.72395E-14
 -1      3072 1.99787E+01 3.11921E-01 1.00630E-03-3.12943E-01 1.45275E-13-7.41936E-14
 -1      3073 2.00476E+01 2.55346E-01 1.40927E-03-3.38968E-01-3.26389E-14-2.91387E-13
 -1      3074 8.61921E+00-2.08556E-01 1.73971E-01-1.23185E+00-2.40190E-14-4.70235E-13
 -1      3075 8.54269E+00-3.07347E-01 1.74008E-01-1.62949E+00-4.06949E-13-8.82627E-15
 -1      3076 2.33041E+01-4.83347E+00 5.72193E-02-3.75291E+00 2.20796E-14 3.39506E-13
 -1      3077 2.25187E+01-4.72530E+00 7.20931E-02-4.06822E+00-3.88189E-13-8.23508E-14
 -1      3078 2.55496E+01-4.51502E+00 3.75393E-02 2.33697E+00 7.72854E-14 2.56857E-13
 -1      3079 1.25325E+01-2.04109E+00 1.62236E-01 5.00714E+00-3.56506E-13-5.62356E-13
 -1      3080 2.44867E+01-4.57901E+00 3.88232E-02 2.79216E+00-9.13922E-14-1.73056E-14
 -1      3081 1.98298E+01 2.83771E+00-5.80208E-03-3.48044E-01 3.70698E-14-3.60816E-13
 -1      3082 1.98537E+01 2.78863E+00-6.20005E-03-5.00532E-01 1.63521E-15-3.78854E-13
 -1      3083 2.00058E+01 2.41626E+00 4.48106E-03-5.01195E-01-8.09734E-15-3.52371E-13
 -1      3084 1.99595E+01 2.52713E+00 3.77699E-03-2.52139E-01 3.71883E-14-3.60016E-13
 -1      3085 2.02918E+01 1.59297E+00-1.31160E-03 1.15915E+00 3.23048E-13-4.87579E-14
 -1      3086 2.02833E+01 1.37455E+00 2.06939E-03 9.10733E-01 2.98286E-13-7.85555E-14
 -1      3087 2.81625E+01-3.14541E-01-5.94475E-02 1.72060E+00-5.90569E-14 1.14395E-13
 -1      3088 2.69916E+01-3.49411E+00 7.23696E-03-6.05612E-01 1.59629E-14 1.62953E-13
 -1      3089 2.93218E+01 2.35426E+00-1.50196E-01-2.08170E+00-4.46837E-13 3.89522E-13
 -1      3090 2.84066E+01 9.69495E-01-7.25355E-02-1.98968E+00-3.64694E-13 4.20761E-13
 -1      3091 2.92526E+01 4.32388E+00-1.64956E-01-1.91105E+00-5.33268E-13 3.57436E-13
 -1      3092 2.02480E+01 1.49472E+00-5.83170E-03 7.90977E-01 2.82355E-13-1.21144E-13
 -1      3093 2.02091E+01 1.68430E+00-7.86477E-04 7.34801E-01 2.66642E-13-1.40045E-13
 -1      3094 2.02320E+01 4.55127E-01 3.94187E-03-8.80562E-02-1.13770E-13-1.96821E-13
 -1      3095 2.01953E+01 3.54325E-01-1.93003E-03 4.23184E-03-1.00680E-13-2.01580E-13
 -1      3096 2.01805E+01 2.78108E-01 2.94096E-03 7.45587E-02-1.05401E-13-1.66731E-13
 -1      3097 2.01541E+01 2.16148E-01-8.59932E-04 1.35913E-01-9.65422E-14-1.74645E-13
 -1      3098 2.02467E+01 3.82523E-01-8.85373E-04 1.90067E-02-9.07894E-14-1.30556E-13
 -1      3099 2.01363E+01 1.71316E-01 1.86784E-03 1.83686E-01-8.59910E-14-1.48152E-13
 -1      3100 2.01202E+01 1.37104E-01-6.53662E-05 2.24938E-01-7.22518E-14-1.17209E-13
 -1      3101 2.02058E+01 2.37907E-01-9.97537E-04 1.42656E-01-9.04200E-14-1.07683E-13
 -1      3102 2.01019E+01 1.14699E-01 9.71700E-04 2.58487E-01-4.69931E-14-1.29516E-13
 -1      3103 2.00947E+01 1.00607E-01 5.08787E-04 2.88334E-01-3.55758E-14-8.12219E-14
 -1      3104 2.01654E+01 1.56421E-01-9.28534E-04 2.28650E-01-5.23008E-14-1.37855E-13
 -1      3105 2.00770E+01 9.46060E-02 2.38204E-04 3.14598E-01-2.68000E-14-5.30618E-14
 -1      3106 2.00769E+01 9.54858E-02 9.35670E-04 3.39801E-01 5.32341E-15-7.75882E-14
 -1      3107 2.01283E+01 1.21243E-01-7.57227E-04 2.92151E-01-8.79526E-15-9.80904E-14
 -1      3108 2.00597E+01 1.01787E-01-3.57475E-04 3.64349E-01-1.43320E-15-5.02717E-14
 -1      3109 2.00654E+01 1.14017E-01 1.26973E-03 3.90097E-01-2.04790E-14-3.67396E-14
 -1      3110 2.00944E+01 1.20614E-01-5.45713E-04 3.45785E-01 1.49459E-14-8.60852E-14
 -1      3111 2.00480E+01 1.29652E-01-8.48812E-04 4.17323E-01-6.33742E-14-2.23957E-14
 -1      3112 2.00583E+01 1.50490E-01 1.54683E-03 4.47572E-01-3.57538E-14-5.73565E-14
 -1      3113 2.00627E+01 1.46157E-01-3.18991E-04 3.99635E-01-3.62833E-14-6.14057E-14
 -1      3114 2.00401E+01 1.73056E-01-1.26304E-03 4.80902E-01-1.84969E-14-6.34874E-14
 -1      3115 2.00543E+01 2.00105E-01 1.78984E-03 5.18594E-01-2.92329E-14-9.61038E-14
 -1      3116 2.00314E+01 1.91468E-01-8.63965E-05 4.61612E-01-5.08972E-14-6.58322E-14
 -1      3117 2.00343E+01 2.27259E-01-1.61359E-03 5.60647E-01-6.46889E-14-1.25437E-13
 -1      3118 2.00521E+01 2.57929E-01 2.01420E-03 6.07806E-01-5.23105E-14-1.01325E-13
 -1      3119 1.99986E+01 2.50940E-01 1.42445E-04 5.37818E-01-4.20148E-14-6.57026E-14
 -1      3120 2.00296E+01 2.86834E-01-1.89410E-03 6.60477E-01-2.39955E-14-1.08750E-13
 -1      3121 2.00512E+01 3.17729E-01 2.23636E-03 7.18173E-01-4.11932E-14-9.50211E-14
 -1      3122 1.99623E+01 3.18584E-01 3.49566E-04 6.32815E-01-6.56768E-14-1.83544E-13
 -1      3123 2.00263E+01 3.44383E-01-2.07068E-03 7.82661E-01-8.03160E-14-1.14178E-13
 -1      3124 2.00526E+01 3.70520E-01 2.48224E-03 8.50843E-01-1.61225E-13-1.13787E-13
 -1      3125 1.99216E+01 3.86685E-01 4.91192E-04 7.49776E-01-1.05298E-13-1.04564E-13
 -1      3126 2.00266E+01 3.88892E-01-2.06807E-03 9.27624E-01-1.71919E-13-2.03265E-14
 -1      3127 2.00603E+01 4.02705E-01 2.79758E-03 1.00481E+00-1.27123E-13 4.83605E-14
 -1      3128 1.98769E+01 4.44134E-01 4.76148E-04 8.90579E-01-8.48846E-14-5.77591E-14
 -1      3129 2.00370E+01 4.03649E-01-1.74766E-03 1.09354E+00-1.04123E-13 6.44283E-14
 -1      3130 2.00837E+01 3.93780E-01 3.25373E-03 1.17634E+00-4.44155E-14 9.07074E-14
 -1      3131 1.98324E+01 4.74299E-01 1.33290E-04 1.05586E+00-1.03930E-13 8.93934E-14
 -1      3132 2.00716E+01 3.63839E-01-8.67759E-04 1.27558E+00-2.18124E-14 1.29157E-13
 -1      3133 2.01415E+01 3.13887E-01 3.91918E-03 1.35791E+00-3.09240E-14 1.08302E-13
 -1      3134 1.97985E+01 4.52447E-01-8.37684E-04 1.24498E+00-2.37326E-14 1.22132E-13
 -1      3135 2.01570E+01 2.34343E-01 9.69596E-04 1.46441E+00-3.48326E-14 1.61436E-13
 -1      3136 2.02676E+01 1.22204E-01 4.78204E-03 1.53605E+00-1.44210E-15 1.53152E-13
 -1      3137 1.97970E+01 3.42944E-01-2.94388E-03 1.45557E+00-2.25158E-14 6.88578E-14
 -1      3138 2.03399E+01-3.04304E-02 4.49423E-03 1.64246E+00 4.66989E-14 1.26224E-13
 -1      3139 2.05176E+01-2.30958E-01 5.51466E-03 1.68641E+00 1.07399E-13 1.58005E-13
 -1      3140 1.98684E+01 9.72166E-02-6.93440E-03 1.68139E+00 1.10842E-14 6.44596E-14
 -1      3141 2.06946E+01-4.80399E-01 1.06987E-02 1.77570E+00 1.33149E-13 1.48049E-13
 -1      3142 2.09738E+01-7.91635E-01 5.33621E-03 1.76323E+00 1.72938E-13 1.58994E-13
 -1      3143 2.00824E+01-3.43478E-01-1.36344E-02 1.90562E+00 1.33907E-13 1.55178E-13
 -1      3144 2.13266E+01-1.14662E+00 2.16484E-02 1.79677E+00 1.83550E-13 2.06963E-13
 -1      3145 2.17376E+01-1.56872E+00 1.39540E-03 1.68182E+00 2.80705E-13 2.02771E-13
 -1      3146 2.05481E+01-1.03507E+00-2.38429E-02 2.08295E+00 2.20821E-13 2.14621E-13
 -1      3147 2.23557E+01-1.97902E+00 3.88415E-02 1.57137E+00 2.84323E-13 2.11248E-13
 -1      3148 2.29131E+01-2.40328E+00 5.43789E-03 1.29417E+00 2.07932E-13 2.74518E-13
 -1      3149 2.14026E+01-1.99432E+00-4.50943E-02 2.10049E+00 2.66073E-13 1.12965E-13
 -1      3150 2.38404E+01-2.78191E+00 4.16554E-02 9.17584E-01 1.40452E-13 3.07928E-13
 -1      3151 2.45032E+01-2.90263E+00 4.62454E-03 3.37696E-01 9.54783E-14 3.43477E-13
 -1      3152 2.28877E+01-2.94003E+00-3.94815E-02 1.72240E+00 2.51100E-13 1.64833E-13
 -1      3153 2.64012E+01-1.00067E+00-1.00943E-01-1.92062E+00-3.80401E-13 2.75609E-13
 -1      3154 2.66131E+01 5.24658E-01-4.79369E-02-2.24270E+00-3.58810E-13 2.28144E-13
 -1      3155 2.68749E+01 1.74709E+00-1.37802E-01-2.41569E+00-3.69801E-13 1.52038E-13
 -1      3156 2.67392E+01 3.45376E+00-6.61465E-02-1.89813E+00-3.95350E-13 9.59198E-14
 -1      3157 2.64476E+01 4.64468E+00-1.14218E-01 1.31150E+00-2.88103E-13-2.31655E-13
 -1      3158 2.66061E+01 3.32754E+00-1.51064E-01 2.03592E+00-1.51296E-13-1.14922E-13
 -1      3159 2.69191E+01 1.92251E+00-6.20463E-02 2.43334E+00-1.47105E-13-1.80571E-13
 -1      3160 2.67675E+01 2.19524E-01-1.26980E-01 2.21892E+00-9.13158E-14-2.18534E-13
 -1      3161 2.62031E+01-1.83258E+00-2.13634E-02 1.33078E+00 1.13635E-13-2.12906E-13
 -1      3162 2.57355E+01-2.61085E+00 4.87324E-04 6.65129E-01 8.08971E-14-1.36374E-13
 -1      3163 2.47139E+01-2.86656E+00-1.17397E-02-1.14273E-01-4.27427E-14-7.49505E-14
 -1      3164 2.41240E+01-2.80333E+00 3.69780E-02-6.56938E-01-5.26046E-14-4.69937E-15
 -1      3165 2.52490E+01-3.22865E+00-1.96162E-02-3.10514E-01 6.46219E-14-6.29531E-14
 -1      3166 2.31697E+01-2.54210E+00-1.40148E-02-1.12244E+00 6.02947E-15 8.02760E-14
 -1      3167 2.26137E+01-2.12300E+00 3.22144E-02-1.44721E+00 9.74329E-14 1.48506E-13
 -1      3168 2.32599E+01-3.10089E+00-4.27455E-02-1.54455E+00 1.12568E-13-4.10262E-16
 -1      3169 2.19581E+01-1.71369E+00-1.39680E-03-1.59910E+00 1.51506E-13 1.02016E-13
 -1      3170 2.15179E+01-1.28464E+00 1.94714E-02-1.74758E+00 1.40256E-13 4.41349E-14
 -1      3171 2.17481E+01-2.12682E+00-2.50629E-02-2.00683E+00 1.34941E-13-1.75658E-14
 -1      3172 2.11292E+01-9.14888E-01 3.76114E-03-1.73537E+00 7.70621E-14 4.02779E-14
 -1      3173 2.08239E+01-5.83734E-01 9.33851E-03-1.76952E+00-1.06965E-13 1.04382E-13
 -1      3174 2.07853E+01-1.16125E+00-1.17200E-02-2.05443E+00 5.42689E-14-9.83493E-14
 -1      3175 2.06220E+01-3.13477E-01 4.78197E-03-1.68559E+00-1.99043E-13 1.17564E-13
 -1      3176 2.04256E+01-9.47278E-02 3.21345E-03-1.65410E+00-8.37205E-14 1.00297E-13
 -1      3177 2.02429E+01-4.30601E-01-4.52614E-03-1.90976E+00-1.19328E-13-8.17057E-14
 -1      3178 2.03370E+01 7.67779E-02 4.28455E-03-1.54622E+00-1.47945E-13 1.38275E-14
 -1      3179 2.02148E+01 2.03834E-01 1.08170E-04-1.48030E+00-1.34732E-13-1.09695E-13
 -1      3180 1.99759E+01 4.75046E-02-5.38302E-04-1.69780E+00-2.09952E-13-1.60548E-13
 -1      3181 2.01886E+01 2.98379E-01 3.56596E-03-1.36870E+00-7.98191E-14 1.15819E-14
 -1      3182 2.01121E+01 3.59969E-01-1.40206E-03-1.28727E+00 5.16209E-16-8.02325E-14
 -1      3183 1.98691E+01 3.23999E-01 1.49205E-03-1.47243E+00-9.33864E-14 7.82013E-14
 -1      3184 2.01169E+01 4.01432E-01 2.92643E-03-1.18076E+00 1.20464E-13-3.18610E-13
 -1      3185 2.00670E+01 4.20585E-01-2.02323E-03-1.09522E+00 1.17838E-13-2.54870E-13
 -1      3186 1.98473E+01 4.58119E-01 2.27494E-03-1.25512E+00-7.59677E-14 1.67291E-13
 -1      3187 2.00847E+01 4.28809E-01 2.44749E-03-9.97674E-01 1.55790E-13-2.20346E-13
 -1      3188 2.00498E+01 4.22954E-01-2.16095E-03-9.14784E-01 2.07512E-13-2.21711E-13
 -1      3189 1.98651E+01 5.00040E-01 2.38740E-03-1.05442E+00 1.77417E-13-2.53415E-13
 -1      3190 2.00708E+01 4.12444E-01 2.08817E-03-8.27776E-01 1.74453E-13-2.86855E-13
 -1      3191 2.00444E+01 3.93744E-01-2.04542E-03-7.51375E-01 2.92755E-13-1.82876E-13
 -1      3192 1.98973E+01 4.87409E-01 2.17738E-03-8.73642E-01 1.77903E-13-2.78866E-13
 -1      3193 2.00639E+01 3.74616E-01 1.78806E-03-6.75443E-01 2.79179E-13-1.85883E-13
 -1      3194 2.00425E+01 3.51296E-01-1.83542E-03-6.07217E-01 3.17908E-13-2.61984E-13
 -1      3195 1.99310E+01 4.46391E-01 1.80623E-03-7.14046E-01 2.57850E-13-2.93650E-13
 -1      3196 2.00585E+01 3.30948E-01 1.78733E-03-5.41835E-01 2.26665E-13-3.07576E-13
 -1      3197 2.00406E+01 3.07121E-01-1.50923E-03-4.81316E-01 8.27341E-14-2.42587E-13
 -1      3198 1.99599E+01 3.94744E-01 1.24795E-03-5.75786E-01 1.99529E-13-4.64027E-13
 -1      3199 2.00556E+01 2.89277E-01 1.75497E-03-4.34019E-01 5.62769E-14-1.78420E-13
 -1      3200 2.00395E+01 2.70324E-01-6.66372E-04-3.80622E-01 4.51279E-14-1.63809E-13
 -1      3201 1.99999E+01 3.00700E-01-7.84710E-04-3.72206E-01 4.40022E-14-1.98386E-13
 -1      3202 1.99831E+01 3.41078E-01-1.02284E-03-4.63825E-01 1.53523E-13-3.71690E-13
 -1      3203 2.00426E+01 7.50834E-02 1.04869E-03-3.32332E-01 2.90146E-14-5.42107E-14
 -1      3204 2.00348E+01 7.60293E-02 4.09776E-04-3.09073E-01 1.35694E-14-5.84456E-14
 -1      3205 2.00837E+01 1.56645E-01 1.93955E-03-4.96942E-01 2.77944E-14 3.34076E-14
 -1      3206 2.00565E+01 1.34611E-01-1.04993E-03-4.62744E-01 5.00488E-14-2.19892E-14
 -1      3207 2.01113E+01 2.03717E-01 2.18547E-03-5.79463E-01 2.92859E-14 3.11106E-14
 -1      3208 2.00783E+01 1.78564E-01-1.34240E-03-5.36355E-01 3.84318E-14 2.61887E-14
 -1      3209 2.00435E+01 2.01393E-01-2.16839E-04-5.27283E-01 2.55430E-14-6.39346E-15
 -1      3210 2.01456E+01 2.52433E-01 2.40951E-03-6.81913E-01 5.51789E-14-1.72275E-14
 -1      3211 2.01064E+01 2.27121E-01-1.54860E-03-6.28971E-01 5.28642E-14 9.01871E-15
 -1      3212 2.00387E+01 2.57545E-01-8.98066E-05-6.17613E-01 3.37314E-14-4.15848E-14
 -1      3213 2.01883E+01 2.95037E-01 2.60690E-03-8.04830E-01 3.31348E-14-1.41412E-14
 -1      3214 2.01416E+01 2.73889E-01-1.63374E-03-7.42420E-01 5.59710E-14-1.60251E-14
 -1      3215 2.00355E+01 3.13882E-01-3.78064E-05-7.28862E-01 6.73158E-14-5.78593E-14
 -1      3216 2.02435E+01 3.19823E-01 2.77440E-03-9.45962E-01 4.91453E-15 2.63856E-14
 -1      3217 2.01871E+01 3.09390E-01-1.51911E-03-8.76177E-01 6.35483E-15 1.36638E-14
 -1      3218 2.00356E+01 3.60460E-01-1.38676E-04-8.61983E-01 3.27692E-14-4.09141E-14
 -1      3219 2.03196E+01 3.09207E-01 2.90772E-03-1.09925E+00 1.48535E-14 5.64729E-14
 -1      3220 2.02492E+01 3.19285E-01-1.06241E-03-1.02659E+00 1.42202E-14 1.54952E-14
 -1      3221 2.00436E+01 3.82410E-01-5.40049E-04-1.01571E+00-1.61509E-14 3.08468E-15
 -1      3222 2.04323E+01 2.37833E-01 2.97809E-03-1.25323E+00-6.42825E-14 9.94565E-14
 -1      3223 2.03405E+01 2.82399E-01-3.14028E-05-1.18561E+00 1.32759E-15 1.29081E-13
 -1      3224 2.00701E+01 3.57719E-01-1.49575E-03-1.18587E+00-6.95903E-14 6.20711E-14
 -1      3225 2.06086E+01 7.18134E-02 2.83542E-03-1.38856E+00-1.02554E-13 7.84405E-14
 -1      3226 2.04835E+01 1.69213E-01 1.91913E-03-1.33865E+00-6.99612E-14 1.07087E-13
 -1      3227 2.01356E+01 2.55127E-01-3.40951E-03-1.36413E+00-7.15656E-14 1.33309E-13
 -1      3228 2.08908E+01-2.28118E-01 2.11166E-03-1.47375E+00-6.21307E-15-4.34836E-15
 -1      3229 2.07151E+01-5.74488E-02 5.20774E-03-1.46106E+00-6.15664E-14 6.76478E-14
 -1      3230 2.02758E+01 3.35793E-02-6.87875E-03-1.53514E+00-4.84035E-14 9.47587E-14
 -1      3231 2.13371E+01-6.94625E-01-1.66991E-04-1.45883E+00 2.58171E-14-7.66666E-15
 -1      3232 2.10911E+01-4.35336E-01 1.05078E-02-1.51186E+00 1.21689E-14 2.24594E-14
 -1      3233 2.05487E+01-3.53523E-01-1.24876E-02-1.67076E+00-5.33682E-15 8.94879E-15
 -1      3234 2.20113E+01-1.31836E+00-4.95519E-03-1.26321E+00-2.25174E-14 1.78112E-13
 -1      3235 2.16832E+01-9.83459E-01 1.79432E-02-1.42199E+00 1.06996E-14 1.14995E-13
 -1      3236 2.10394E+01-9.43262E-01-2.02787E-02-1.71717E+00-5.44879E-14 1.02417E-13
 -1      3237 2.29561E+01-1.97242E+00-8.47170E-03-7.77815E-01-1.50401E-13 2.64831E-13
 -1      3238 2.25503E+01-1.64454E+00 2.67949E-02-1.08575E+00-7.09977E-14 2.52187E-13
 -1      3239 2.18497E+01-1.71092E+00-2.76312E-02-1.57267E+00-7.40189E-14 1.96885E-13
 -1      3240 2.41234E+01-2.35123E+00-1.02103E-05 7.65298E-02-2.02321E-13 1.30661E-13
 -1      3241 2.36822E+01-2.22224E+00 2.65001E-02-3.95143E-01-1.74117E-13 1.52304E-13
 -1      3242 2.30117E+01-2.46573E+00-3.74682E-02-1.07418E+00-1.22238E-13 1.71601E-13
 -1      3243 2.55985E+01-1.93536E+00-1.30580E-02 1.15510E+00-9.19403E-14 9.57324E-14
 -1      3244 2.51959E+01-2.50191E+00-1.39992E-02 5.79998E-01-1.55384E-13 8.39918E-14
 -1      3245 2.54414E+01 2.96399E+00-4.38561E-02 1.91726E+00-8.78464E-15 5.55805E-15
 -1      3246 2.55765E+01 1.61559E+00-1.11006E-01 2.30751E+00 1.23825E-14 3.58914E-14
 -1      3247 2.49247E+01 4.20509E+00-7.18543E-02 1.47200E-01 2.33008E-13-1.39673E-13
 -1      3248 2.50278E+01 3.76939E+00-1.06696E-01 1.08104E+00 1.59928E-13-9.96078E-15
 -1      3249 2.58002E+01 3.56509E+00-1.25382E-01-1.67138E+00 1.55445E-13-2.86556E-13
 -1      3250 2.56802E+01 4.45042E+00-8.77916E-02-8.69903E-01 2.29303E-13-3.01748E-13
 -1      3251 2.55313E+01 3.49744E-01-1.10037E-01-2.33767E+00 6.31162E-14 3.57422E-14
 -1      3252 2.54094E+01 1.76821E+00-2.40462E-02-2.26053E+00 1.24706E-13-1.33437E-13
 -1      3253 2.53125E+01-1.65517E+00-3.27067E-02-1.51604E+00 5.25795E-15-1.09046E-13
 -1      3254 2.54651E+01-7.56507E-01-1.06120E-02-1.93906E+00 4.57932E-14 7.48490E-14
 -1      3255 2.43659E+01-2.28361E+00 1.41950E-02-2.80079E-01 9.99652E-14-1.88271E-13
 -1      3256 2.47056E+01-2.11596E+00-1.91344E-02-8.05222E-01 1.68951E-15-9.62208E-14
 -1      3257 2.53808E+01-2.26646E+00-1.16490E-02-8.58790E-01 9.05751E-14-8.18130E-14
 -1      3258 2.32070E+01-1.99090E+00 2.68083E-02 6.81671E-01 1.48972E-13-1.63460E-13
 -1      3259 2.36080E+01-2.22430E+00-1.78389E-02 2.72339E-01 1.19684E-13-2.65496E-13
 -1      3260 2.39431E+01-2.64159E+00-2.20750E-02 4.13403E-01 1.29555E-13-1.19384E-13
 -1      3261 2.21893E+01-1.35103E+00 2.18263E-02 1.22834E+00 1.65675E-13-1.92231E-13
 -1      3262 2.25526E+01-1.70017E+00-1.27804E-02 9.86968E-01 1.64545E-13-2.18556E-13
 -1      3263 2.25666E+01-2.14434E+00-3.63306E-02 1.24225E+00 2.08128E-13-2.82774E-13
 -1      3264 2.14463E+01-7.28357E-01 1.46359E-02 1.45462E+00 1.13138E-13-2.01880E-13
 -1      3265 2.17335E+01-1.03860E+00-5.17249E-03 1.34589E+00 1.38751E-13-9.55013E-14
 -1      3266 2.15486E+01-1.36299E+00-2.84263E-02 1.59427E+00 1.12111E-13-2.43478E-13
 -1      3267 2.09521E+01-2.52014E-01 8.34465E-03 1.48067E+00-1.73991E-14-3.89669E-13
 -1      3268 2.11620E+01-4.77181E-01-7.42361E-04 1.46107E+00 8.28890E-14-4.07450E-13
 -1      3269 2.08819E+01-6.72759E-01-1.93315E-02 1.66794E+00 1.93142E-13-3.73997E-13
 -1      3270 2.06416E+01 6.01686E-02 3.96372E-03 1.39468E+00-1.83916E-13-4.13120E-13
 -1      3271 2.07910E+01-8.11159E-02 1.49111E-03 1.42864E+00-1.75999E-13-3.87117E-13
 -1      3272 2.04862E+01-1.71507E-01-1.15097E-02 1.58933E+00-3.93303E-14-5.73395E-13
 -1      3273 2.04495E+01 2.38178E-01 1.25494E-03 1.25290E+00-1.75994E-13-4.44081E-13
 -1      3274 2.05570E+01 1.61651E-01 2.34088E-03 1.31596E+00-1.16200E-13-4.94044E-13
 -1      3275 2.02678E+01 1.43535E-01-6.44768E-03 1.44013E+00-1.06893E-13-6.05609E-13
 -1      3276 2.03288E+01 3.20900E-01-2.70009E-04 1.08872E+00-4.24835E-13-3.35640E-13
 -1      3277 2.04090E+01 2.88776E-01 2.65198E-03 1.16469E+00-3.32507E-13-4.03586E-13
 -1      3278 2.01545E+01 3.15492E-01-3.41905E-03 1.26295E+00-2.58722E-13-5.42685E-13
 -1      3279 2.02497E+01 3.42610E-01-1.02653E-03 9.22077E-01-1.72304E-13-4.61807E-13
 -1      3280 2.03119E+01 3.38074E-01 2.71174E-03 1.00068E+00-2.51248E-13-3.87739E-13
 -1      3281 2.00994E+01 3.89132E-01-1.73630E-03 1.08083E+00-3.21893E-13-5.54747E-13
 -1      3282 2.01942E+01 3.29327E-01-1.31261E-03 7.64418E-01 1.11589E-13-3.82728E-13
 -1      3283 2.02442E+01 3.40008E-01 2.62593E-03 8.39555E-01 1.90337E-14-3.71137E-13
 -1      3284 2.00739E+01 4.01306E-01-8.90260E-04 9.06492E-01-7.98017E-14-5.67768E-13
 -1      3285 2.01523E+01 2.99224E-01-1.35185E-03 6.21545E-01-1.27037E-13-2.56936E-13
 -1      3286 2.01935E+01 3.16669E-01 2.43659E-03 6.90054E-01 7.63010E-15-3.04242E-13
 -1      3287 2.00620E+01 3.79281E-01-5.03519E-04 7.46774E-01-5.66882E-15-5.92774E-13
 -1      3288 2.01186E+01 2.64625E-01-1.16545E-03 4.95703E-01 5.56259E-14-3.27510E-13
 -1      3289 2.01529E+01 2.83025E-01 2.16372E-03 5.56335E-01-1.36215E-15-2.86167E-13
 -1      3290 2.00553E+01 3.41666E-01-3.84667E-04 6.04669E-01-6.39143E-14-4.59828E-13
 -1      3291 2.00914E+01 2.33969E-01-1.89113E-04 3.86941E-01 9.71726E-14-3.62895E-13
 -1      3292 2.01185E+01 2.48511E-01 1.69707E-03 4.38988E-01 8.71703E-14-2.93774E-13
 -1      3293 2.00492E+01 3.01596E-01-2.81509E-04 4.80727E-01-2.23695E-14-6.08903E-13
 -1      3294 2.00604E+01 2.30140E-01 4.78044E-04 3.23097E-01 1.72935E-13-5.37679E-13
 -1      3295 2.00846E+01 2.31396E-01 1.39493E-03 3.57082E-01 1.12568E-13-3.88428E-13
 -1      3296 2.00364E+01 2.77103E-01-3.81150E-04 3.92221E-01 1.13758E-13-6.54061E-13
 -1      3297 2.00209E+01 2.65445E-01-1.60011E-03 3.31926E-01 4.95507E-14-8.97903E-13
 -1      3298 9.20621E+00 3.24759E-01 1.33177E-01 3.65962E-02-1.09520E-13-4.78062E-13
 -1      3299 9.96528E+00-1.91380E-03 7.39001E-02-2.12828E+00-9.85254E-14-4.56746E-13
 -1      3300 2.00547E+01 2.18740E+00-4.32966E-03 2.87021E-01 1.32506E-13-2.67453E-13
 -1      3301 2.00414E+01 2.22708E+00-3.42323E-03 1.67203E-01 1.04799E-13-2.91803E-13
 -1      3302 1.97321E+01 5.20084E-01-7.86777E-04-2.85334E-02 6.86609E-14-2.44336E-13
 -1      3303 1.97323E+01 5.19972E-01-7.52964E-04 2.91040E-02 2.08853E-13-1.00329E-13
 -1      3304 1.99035E+01 3.78259E-01 2.88300E-04-3.17463E-01 3.55360E-13-1.21851E-13
 -1      3305 1.98588E+01 4.12307E-01-1.93751E-03-2.90869E-01 3.07371E-13-1.42564E-13
 -1      3306 1.97585E+01 4.99844E-01-5.27409E-05-1.46380E-01 1.64026E-13-5.87258E-14
 -1      3307 1.97408E+01 5.11768E-01-1.37420E-03-9.32811E-02 1.52118E-13-1.29533E-13
 -1      3308 1.96880E+01 5.49973E-01 1.85225E-03-6.68298E-02 1.55780E-13-2.32660E-13
 -1      3309 2.01386E+01 3.24327E-01-1.67120E-03 8.98934E-03 1.17875E-13-1.73723E-14
 -1      3310 2.01808E+01 4.20298E-01 4.47950E-03 1.06308E-01 1.65612E-13-3.30919E-14
 -1      3311 2.73660E+01 5.53353E+00-1.68155E-01 5.99083E-01-4.56468E-13-9.29213E-14
 -1      3312 1.00245E+01-3.20953E-01 3.42029E-02 2.80654E+00-5.38951E-13-3.98889E-13
 -1      3313 9.16644E+00 1.61452E-01 1.08642E-01 1.14898E+00-5.59445E-13-3.77476E-13
 -1      3314 2.01064E+01 2.20981E+00-4.99284E-03-1.09769E+00-1.67368E-13-3.41214E-13
 -1      3315 2.01783E+01 2.01743E+00-1.02702E-02-1.17829E+00-1.96041E-13-3.29474E-13
 -1      3316 2.02656E+01 1.63526E+00 9.25400E-03-9.71068E-01-1.95162E-13-2.94836E-13
 -1      3317 2.01923E+01 1.94356E+00 9.71958E-03-8.94335E-01-1.54768E-13-3.22765E-13
 -1      3318 1.03431E+01-7.45114E-01 7.78297E-02 3.59436E+00 1.36183E-13-1.50074E-13
 -1      3319 9.32934E+00-7.11992E-02 7.55779E-02 1.95591E+00-8.93730E-15-2.54158E-13
 -1      3320 2.72955E+01-9.26405E-01-8.54150E-03 1.77946E+00-5.39985E-14 7.10265E-14
 -1      3321 2.70548E+01 7.51045E-02-1.50165E-01 2.13398E+00 1.08802E-14 2.84772E-14
 -1      3322 1.98181E+01 4.51486E-01 5.94887E-04-2.48049E-01 1.78606E-13-3.55786E-13
 -1      3323 1.97838E+01 4.74956E-01-1.88318E-03-2.04305E-01 1.32306E-13-1.92879E-13
 -1      3324 1.97286E+01 5.19111E-01 1.59587E-03-1.94391E-01 1.84401E-13-2.05575E-13
 -1      3325 1.98065E+01 4.59483E-01 1.11607E-03-2.99378E-01 1.05863E-13-1.54630E-13
 -1      3326 2.00626E+01 1.16631E-01 1.67361E-03-4.31629E-01 5.01343E-14-1.24065E-14
 -1      3327 2.00411E+01 9.99938E-02-6.75413E-04-4.04375E-01 6.23068E-14 1.67540E-14
 -1      3328 2.00502E+01 1.52347E-01-3.82561E-04-4.55051E-01 2.86108E-14 1.89866E-14
 -1      3329 2.00485E+01 8.80121E-02 1.38232E-03-3.78920E-01 7.02883E-14-6.92358E-14
 -1      3330 2.00333E+01 7.89181E-02-2.00418E-04-3.55668E-01 4.48538E-14-7.73357E-14
 -1      3331 2.00737E+01 9.69396E-02-7.90124E-04-3.44935E-01 4.25290E-14-1.00078E-13
 -1      3332 2.00597E+01 1.15817E-01-5.74475E-04-3.96376E-01 2.00150E-14-6.21350E-14
 -1      3333 2.69249E+01 1.63829E+00-2.26924E-01-2.44539E+00-1.22395E-13-1.86240E-13
 -1      3334 2.73300E+01 2.79879E-01-3.90611E-02-2.04147E+00-1.33921E-14-1.34531E-13
 -1      3335 2.02804E+01 7.36271E-01 4.94477E-03-3.28409E-01-1.39927E-13-2.38173E-13
 -1      3336 2.02380E+01 5.82149E-01-1.87846E-03-1.89159E-01-1.30626E-13-2.35906E-13
 -1      3337 2.02800E+01 6.14186E-01-7.59189E-04-1.58399E-01-9.65304E-14-1.87306E-13
 -1      3338 2.00467E+01 8.30432E-02 6.38867E-04-2.83246E-01 5.75492E-15-5.60399E-14
 -1      3339 2.00480E+01 9.73866E-02 1.20058E-03-2.54648E-01 4.25007E-14-5.91842E-14
 -1      3340 2.00937E+01 1.01672E-01-1.02750E-03-2.92379E-01 2.07604E-14-7.30538E-14
 -1      3341 1.18864E+01-9.31617E-01 1.01722E-01-3.98643E+00-9.71098E-14 4.09811E-13
 -1      3342 1.40559E+01-2.11127E+00 3.03635E-02-5.07295E+00 2.96568E-14 4.22273E-13
 -1      3343 2.60826E+01-3.69405E+00-1.49236E-03-7.65917E-01 3.04036E-14 5.14554E-14
 -1      3344 2.69523E+01-2.66347E+00-9.90511E-02 6.07410E-01 7.74467E-14 8.01859E-14
 -1      3345 1.49265E+01-2.42845E+00 2.11940E-02 5.10236E+00 2.34771E-13 2.71172E-14
 -1      3346 1.20691E+01-1.31407E+00 1.57128E-01 4.48768E+00 2.32515E-13-9.17461E-14
 -1      3347 2.00629E+01 1.19060E-01 9.44482E-05-2.20407E-01 6.48157E-14-5.40932E-14
 -1      3348 2.00759E+01 1.51705E-01 2.22024E-03-1.79402E-01 1.02649E-13-3.02549E-14
 -1      3349 2.01215E+01 1.37959E-01-1.26786E-03-2.27920E-01 5.48158E-14-4.42360E-14
 -1      3350 1.18257E+01-8.45560E-01 8.23612E-02-3.89106E+00-5.87447E-14-1.81827E-13
 -1      3351 1.37067E+01-1.95057E+00 5.50406E-02-4.98707E+00-2.13135E-13-2.29552E-13
 -1      3352 2.49994E+01-4.14267E+00-6.61667E-02 1.59269E+00-1.30616E-14 2.51268E-13
 -1      3353 2.32386E+01-4.33500E+00 1.15393E-01 3.24383E+00-5.40679E-14 1.01343E-14
 -1      3354 1.58387E+01-2.67365E+00 1.16888E-01-5.21038E+00-2.68202E-13-3.56049E-13
 -1      3355 1.82320E+01-3.73061E+00-5.18548E-02-5.17567E+00-2.74683E-13-2.09451E-13
 -1      3356 1.58617E+01-1.89942E+00 9.64306E-02-4.53615E+00-1.51160E-13-3.11737E-13
 -1      3357 2.00934E+01 1.93806E-01-6.69292E-04-1.29224E-01 1.25324E-13-3.06059E-14
 -1      3358 2.01207E+01 2.52204E-01 3.48312E-03-6.63793E-02 1.17183E-13-1.43727E-14
 -1      3359 2.01580E+01 2.17259E-01-1.44912E-03-1.37843E-01 1.21221E-13-4.29604E-14
 -1      3360 2.02959E+01 1.00064E+00-1.66958E-04 6.79080E-01 2.56329E-13-7.17502E-14
 -1      3361 2.02733E+01 1.31784E+00 2.52254E-03 7.60536E-01 2.76509E-13-9.93979E-14
 -1      3362 2.02820E+01 1.14547E+00 1.12716E-03 5.82839E-01 2.42892E-13-1.02273E-13
 -1      3363 2.02374E+01 7.90279E-01-3.72709E-03 4.69342E-01 2.44548E-13-7.89892E-14
 -1      3364 2.61348E+01-4.18601E+00-1.08056E-01 1.25253E+00-3.39520E-14 2.71123E-13
 -1      3365 2.46196E+01-4.48472E+00 9.19250E-02 2.52526E+00 1.23096E-13 1.48416E-13
 -1      3366 1.67936E+01-3.07567E+00 1.13265E-01-5.25763E+00 5.87586E-14 3.55486E-13
 -1      3367 1.93478E+01-4.19279E+00-4.33370E-02-5.06708E+00 1.43573E-13 4.61714E-13
 -1      3368 2.19900E+01-4.42437E+00 9.59360E-02-4.04880E+00 1.38924E-13 3.62844E-13
 -1      3369 2.41755E+01-4.49951E+00-3.87050E-02-2.59654E+00 2.85535E-15 1.31594E-13
 -1      3370 2.70237E+01-1.56510E+00-1.10717E-01-1.47126E+00 4.09672E-14-9.65478E-14
 -1      3371 2.62964E+01-2.74184E+00-1.75683E-02-3.93359E-01 5.79051E-14 4.18415E-15
 -1      3372 1.45059E+01-2.38862E+00-2.49423E-02 5.20816E+00-2.15078E-13-4.63268E-13
 -1      3373 1.20694E+01-1.00475E+00 1.36441E-01 4.14532E+00-3.93442E-13-4.73954E-13
 -1      3374 2.03607E+01-4.30108E+00-9.18155E-02 4.60114E+00-1.20279E-13-2.77812E-13
 -1      3375 1.77068E+01-3.21022E+00 1.44374E-01 5.13494E+00-2.23904E-13-2.33358E-13
 -1      3376 2.76571E+01 8.93621E-01-7.20712E-02-2.22945E+00-4.04524E-13 3.93387E-13
 -1      3377 2.79704E+01-5.54411E-01-6.63849E-02-1.80280E+00-3.50761E-13 4.81212E-13
 -1      3378 2.12383E+01-4.17390E+00 1.28320E-01-4.29156E+00-2.94161E-13-1.18995E-13
 -1      3379 2.35964E+01-4.68015E+00-1.14178E-01-3.02225E+00-2.48884E-13-2.62583E-13
 -1      3380 9.04791E+00 2.63170E-01 1.25455E-01-3.96226E-01-6.51677E-13-3.01828E-13
 -1      3381 1.00144E+01-1.17806E-01 7.97681E-02-2.36958E+00-3.00593E-13-1.36086E-13
 -1      3382 2.00342E+01 2.24653E+00-3.74896E-03 6.48359E-02 9.75107E-14-3.00504E-13
 -1      3383 2.00338E+01 2.24745E+00-3.70653E-03-5.71074E-02 6.83930E-14-3.20027E-13
 -1      3384 2.01466E+01 1.95641E+00 5.16150E-03 9.85788E-02 9.28268E-14-2.76639E-13
 -1      3385 2.02019E+01 3.56712E-01-1.50184E-03-5.29588E-03 1.22823E-13-3.21306E-14
 -1      3386 2.65747E+01 1.03868E+00-5.79493E-02 2.30667E+00 3.72341E-14 7.59809E-15
 -1      3387 2.02982E+01 1.03934E+00 4.98276E-03-5.63606E-01-1.44496E-13-2.62766E-13
 -1      3388 2.02665E+01 8.72082E-01-3.95773E-03-4.23902E-01-1.35858E-13-2.58280E-13
 -1      3389 2.02892E+01 8.89981E-01-8.11505E-03-3.71731E-01-1.19659E-13-2.50482E-13
 -1      3390 1.98603E+01 4.09563E-01-1.97375E-03 2.90961E-01-2.01410E-13-2.58909E-13
 -1      3391 1.99056E+01 3.76522E-01 7.63767E-04 3.17404E-01-1.52259E-13-2.88823E-14
 -1      3392 1.17863E+01 4.22447E-01 4.25613E-02-1.76632E+00-1.74191E-13-3.69101E-13
 -1      3393 1.16639E+01-1.35587E-01 1.15401E-01-2.90318E+00-1.18683E-13-2.54678E-13
 -1      3394 1.33356E+01-4.60247E-01-3.39222E-03-3.32643E+00-1.47795E-13-1.77094E-13
 -1      3395 1.69030E+01-2.29459E+00 9.55957E-02 4.57840E+00-1.90063E-13-2.33744E-13
 -1      3396 2.44999E+01-3.82139E+00-4.78532E-02 1.42917E+00 1.51320E-13 1.20890E-13
 -1      3397 2.52406E+01-3.11722E+00 1.56125E-02 1.80090E-01 1.39489E-14 3.08312E-13
 -1      3398 2.58791E+01-2.64157E+00-1.43920E-02-4.79381E-01-2.80392E-13 2.06102E-13
 -1      3399 1.05898E+01 4.92842E-01 1.29075E-01 2.75643E-01-5.82206E-13-2.54075E-13
 -1      3400 2.68517E+01-1.37318E+00-1.58898E-02 1.63313E+00 6.14994E-14-1.32720E-13
 -1      3401 1.62938E+01-2.21899E+00 9.10868E-02-4.66782E+00-1.60705E-14 3.70190E-13
 -1      3402 2.32248E+01-4.20872E+00 6.80323E-02 3.00861E+00 1.91416E-13 2.37831E-14
 -1      3403 2.01280E+01 1.96008E+00-3.24495E-03-5.74340E-01-4.66087E-14-2.87197E-13
 -1      3404 2.01655E+01 1.81836E+00-9.91009E-03-6.69926E-01-9.57619E-14-2.80748E-13
 -1      3405 2.62990E+01-3.25890E-01-1.51446E-02-2.08892E+00 2.69368E-14 5.59275E-14
 -1      3406 2.10430E+01-3.82054E+00 6.40656E-02-3.98074E+00 1.20647E-13 3.02884E-13
 -1      3407 2.48553E+01-3.15902E+00-5.13315E-02-3.70182E-01-8.84926E-14 8.99576E-14
 -1      3408 2.55581E+01 2.81156E-01-2.26365E-02 2.23474E+00 2.43798E-14 1.20825E-13
 -1      3409 2.54857E+01-9.03091E-01-1.03474E-01 1.99719E+00-2.42029E-14 3.89593E-14
 -1      3410 2.66657E+01 5.30981E+00-1.28489E-01-2.29100E-01 3.41227E-13-2.55448E-13
 -1      3411 1.05980E+01 3.66915E-01 1.22030E-01 9.11533E-01-4.66398E-14-3.23602E-13
 -1      3412 2.00752E+01 2.13012E+00-3.18329E-03 3.83435E-01 1.49087E-13-2.36717E-13
 -1      3413 2.01695E+01 1.87915E+00 5.42545E-03 2.83034E-01 1.23909E-13-2.27081E-13
 -1      3414 2.01007E+01 2.04853E+00-5.27209E-03 4.95317E-01 1.83870E-13-2.08983E-13
 -1      3415 1.97855E+01 4.72699E-01-1.89621E-03 2.05934E-01-1.94000E-14 2.17350E-13
 -1      3416 1.98201E+01 4.49004E-01 6.63155E-04 2.49137E-01-8.10552E-14-5.61040E-15
 -1      3417 1.98094E+01 4.55933E-01 1.21469E-03 3.00061E-01-1.86560E-13 1.45680E-14
 -1      3418 2.56103E+01-3.37237E+00 1.69521E-04 3.39630E-01 2.95376E-14 2.98095E-14
 -1      3419 2.43671E+01-3.38186E+00-1.04542E-02 1.01022E+00 6.46239E-14 5.33818E-14
 -1      3420 1.97413E+01 5.10870E-01-1.42815E-03 9.47351E-02 8.27606E-14 2.41592E-13
 -1      3421 1.97597E+01 4.98293E-01-5.67143E-05 1.48589E-01-2.27035E-14 2.22528E-13
 -1      3422 1.97302E+01 5.16810E-01 1.53563E-03 1.96553E-01 9.27118E-14 2.80818E-13
 -1      3423 1.96882E+01 5.49222E-01 1.74896E-03 6.87268E-02 6.88466E-14 1.46126E-13
 -1      3424 2.46824E+01-3.97754E+00 1.01638E-02-1.67394E+00-1.68879E-13-1.70464E-13
 -1      3425 1.71142E+01-2.81051E+00 1.19275E-01 5.06483E+00 2.66384E-13 3.19605E-14
 -1      3426 1.56744E+01-1.91456E+00 4.82471E-02 4.58658E+00 2.37164E-13 2.56392E-14
 -1      3427 1.89709E+01-3.21041E+00 3.69588E-02 4.46484E+00 2.69298E-13-2.57259E-15
 -1      3428 2.69086E+01 3.25879E+00-1.03183E-01-2.05575E+00 3.83166E-14-2.84939E-13
 -1      3429 1.23944E+01-3.65929E-01 1.20193E-01 3.21093E+00-3.69524E-13-3.28501E-13
 -1      3430 2.68762E+01 5.18752E+00-1.39765E-01 1.07529E+00 2.59542E-13-2.05808E-13
 -1      3431 2.02558E+01 1.37492E+00-3.76795E-03-8.00987E-01-1.76134E-13-2.95269E-13
 -1      3432 2.65899E+01-1.87901E+00 1.31611E-02 1.19571E+00-7.69350E-14 5.39638E-14
 -1      3433 2.62756E+01 3.87290E+00-1.04035E-01 1.57486E+00 6.78485E-14-1.35940E-13
 -1      3434 2.01855E+01 5.07585E-01-2.70014E-03 1.98022E-01 2.00895E-13-7.51644E-14
 -1      3435 2.02399E+01 6.52065E-01 4.14608E-03 3.42640E-01 2.19298E-13-7.30680E-14
 -1      3436 2.02669E+01 8.08837E-01-7.75977E-04 4.02751E-01 2.20602E-13-9.06220E-14
 -1      3437 2.02393E+01 5.52014E-01-1.51424E-03 1.71850E-01 1.58528E-13-4.66857E-14
 -1      3438 1.25328E+01-7.06115E-01 1.26609E-01 3.68328E+00 1.54980E-13-9.68392E-14
 -1      3439 2.49949E+01-4.07732E+00-2.36053E-03-1.54644E+00 5.13825E-15 3.78204E-14
 -1      3440 1.16929E+01-2.27990E-01 1.11483E-01-3.06215E+00-2.23814E-13-1.82909E-14
 -1      3441 1.34681E+01-4.34619E-01 4.88995E-02-3.33787E+00-1.08523E-13 1.14443E-13
 -1      3442 1.18463E+01 3.45010E-01 5.38422E-02-1.98228E+00-3.69961E-13-3.54286E-13
 -1      3443 2.37624E+01-3.75444E+00 4.30300E-02-2.04614E+00 6.49748E-14 6.90732E-14
 -1      3444 2.18691E+01-3.80124E+00 4.65046E-02 3.40618E+00-3.39763E-14 8.25533E-14
 -1      3445 2.01817E+01-3.48843E+00 6.17889E-02-4.17449E+00-1.80023E-13-2.27950E-13
 -1      3446 2.01679E+01 1.82118E+00-6.61829E-03 6.74171E-01 2.40632E-13-1.40601E-13
 -1      3447 2.01326E+01 1.95119E+00-2.95466E-03 5.79807E-01 2.02681E-13-1.72179E-13
 -1      3448 2.02116E+01 1.72246E+00 5.91249E-03 4.47217E-01 1.68414E-13-1.62550E-13
 -1      3449 2.02597E+01 1.48308E+00 5.83629E-03 5.73745E-01 2.21558E-13-1.17980E-13
 -1      3450 2.77304E+01-1.52815E+00-9.26272E-02-1.29248E+00-3.73097E-13 5.36848E-13
 -1      3451 2.72032E+01-2.87870E+00 1.01816E-02-1.65230E-01-1.89900E-13 3.92103E-13
 -1      3452 1.99641E+01 3.27107E-01-5.53272E-04-3.57637E-01 1.31744E-13-3.19652E-13
 -1      3453 1.99317E+01 3.53475E-01-9.23849E-04-3.39102E-01 3.14258E-13-3.53120E-13
 -1      3454 1.98889E+01 3.98296E-01 1.16818E-03-3.63927E-01 2.87126E-13-2.48594E-13
 -1      3455 1.99601E+01 3.48876E-01 1.27526E-03-4.00871E-01 3.08777E-13-4.72935E-13
 -1      3456 2.00723E+01 2.13611E+00-3.23273E-03-3.76050E-01 9.19227E-15-3.26237E-13
 -1      3457 2.00973E+01 2.05668E+00-5.17538E-03-4.88947E-01-2.77321E-14-3.23296E-13
 -1      3458 2.02098E+01 1.73181E+00 6.76014E-03-4.44014E-01-5.02762E-14-2.79230E-13
 -1      3459 2.72359E+01-1.48641E+00-3.02497E-02-1.49375E+00-3.71685E-13 4.31738E-13
 -1      3460 2.36607E+01-3.17425E+00 3.94810E-02 1.47700E+00 1.15348E-13 3.80416E-14
 -1      3461 2.24974E+01-3.72409E+00 3.69136E-02 2.88731E+00 2.70541E-13 7.16441E-15
 -1      3462 2.02677E+01 3.10908E-01 1.79832E-03 9.79558E-02-7.80110E-14-1.19860E-13
 -1      3463 2.02433E+01 2.48166E-01-9.30545E-04 1.50751E-01-6.87187E-14-1.12777E-13
 -1      3464 2.02220E+01 2.03022E-01 1.06782E-03 1.89543E-01-7.02028E-14-1.14722E-13
 -1      3465 2.02003E+01 1.70308E-01-2.11432E-04 2.27333E-01-2.22978E-14-1.11786E-13
 -1      3466 2.02715E+01 2.64789E-01-2.07510E-04 1.50697E-01-6.07480E-14-9.34237E-14
 -1      3467 2.01735E+01 1.50264E-01 4.21836E-04 2.56466E-01-1.85683E-14-1.30167E-13
 -1      3468 2.01546E+01 1.40128E-01 3.14319E-04 2.86063E-01-1.30587E-14-1.20745E-13
 -1      3469 2.02201E+01 1.89431E-01-2.63039E-04 2.21330E-01-4.02066E-14-1.08869E-13
 -1      3470 2.01238E+01 1.39050E-01-1.70593E-04 3.10853E-01 1.60124E-14-1.59086E-13
 -1      3471 2.01074E+01 1.46150E-01 6.94890E-04 3.37839E-01 3.11906E-14-1.40507E-13
 -1      3472 2.01620E+01 1.64120E-01-1.69376E-04 2.77371E-01-5.27424E-15-1.58260E-13
 -1      3473 2.00728E+01 1.59562E-01-7.03455E-04 3.62735E-01 1.45062E-14-1.29844E-13
 -1      3474 2.00578E+01 1.79883E-01 9.70813E-04 3.91531E-01-3.84466E-14-1.07017E-13
 -1      3475 2.00985E+01 1.77170E-01 2.24174E-05 3.28455E-01 1.76789E-14-1.87932E-13
 -1      3476 2.00190E+01 2.04319E-01-1.18944E-03 4.20134E-01-8.21477E-14-3.64879E-14
 -1      3477 2.00043E+01 2.34608E-01 1.17825E-03 4.54178E-01-5.91032E-14-5.37549E-14
 -1      3478 2.00286E+01 2.19667E-01 2.86386E-04 3.82537E-01-2.47208E-14-1.45884E-13
 -1      3479 1.99600E+01 2.67059E-01-1.64250E-03 4.89384E-01-7.61343E-14-1.07787E-13
 -1      3480 1.99445E+01 3.04256E-01 1.34775E-03 5.31291E-01-6.80292E-14-1.24963E-13
 -1      3481 1.99504E+01 2.84327E-01 6.00292E-04 4.46017E-01-8.86799E-14-1.32475E-13
 -1      3482 1.98933E+01 3.41578E-01-2.06946E-03 5.75442E-01-4.97674E-14-1.24995E-13
 -1      3483 1.98762E+01 3.82208E-01 1.51674E-03 6.27112E-01-7.21675E-14-1.12261E-13
 -1      3484 1.98610E+01 3.64358E-01 9.48804E-04 5.24059E-01-6.75851E-14-1.56454E-13
 -1      3485 1.98167E+01 4.20478E-01-2.46981E-03 6.82159E-01-7.08120E-14-5.57996E-14
 -1      3486 1.97978E+01 4.59945E-01 1.73984E-03 7.44861E-01-7.62827E-14-2.96149E-14
 -1      3487 1.97574E+01 4.52176E-01 1.30494E-03 6.20889E-01-8.70924E-15-1.09096E-13
 -1      3488 1.97290E+01 4.93672E-01-2.82852E-03 8.12599E-01-6.97320E-14-3.63960E-14
 -1      3489 1.97093E+01 5.25381E-01 2.10832E-03 8.87072E-01-8.43823E-14 4.02269E-15
 -1      3490 1.96366E+01 5.37992E-01 1.61520E-03 7.40257E-01-6.57541E-14-4.44551E-14
 -1      3491 1.96314E+01 5.46496E-01-3.10552E-03 9.69487E-01-1.02099E-13 9.14323E-14
 -1      3492 1.96146E+01 5.60736E-01 2.76985E-03 1.05605E+00-6.73599E-14 1.22183E-13
 -1      3493 1.94978E+01 6.08048E-01 1.78253E-03 8.86127E-01-3.75866E-14-3.53386E-14
 -1      3494 1.95305E+01 5.57358E-01-3.21660E-03 1.15582E+00-6.42520E-14 1.46601E-13
 -1      3495 1.95249E+01 5.39964E-01 3.95382E-03 1.25450E+00-1.84599E-14 1.30306E-13
 -1      3496 1.93430E+01 6.42397E-01 1.62511E-03 1.06373E+00-3.78202E-14 1.27586E-13
 -1      3497 1.94418E+01 4.95006E-01-2.96719E-03 1.37560E+00 2.09412E-15 8.69906E-14
 -1      3498 1.94633E+01 4.25794E-01 5.93883E-03 1.48600E+00-2.66564E-14 9.46652E-14
 -1      3499 1.91811E+01 6.12167E-01 8.16315E-04 1.28103E+00-3.92701E-14 1.58898E-13
 -1      3500 1.93974E+01 3.15494E-01-1.94079E-03 1.63413E+00-2.50084E-14 1.73113E-13
 -1      3501 1.94740E+01 1.66683E-01 8.98526E-03 1.75419E+00 7.03531E-14 2.00257E-13
 -1      3502 1.90328E+01 4.76045E-01-1.27131E-03 1.55058E+00 1.19212E-14 2.85602E-13
 -1      3503 1.94581E+01-3.97906E-02 1.16134E-03 1.93454E+00 1.01235E-13 1.36732E-13
 -1      3504 1.96355E+01-3.02555E-01 1.34937E-02 2.05586E+00 1.51252E-13 1.42657E-13
 -1      3505 1.89414E+01 1.74897E-01-5.67778E-03 1.88931E+00 4.40178E-14 2.36961E-13
 -1      3506 1.97297E+01-6.40838E-01 8.25140E-03 2.26890E+00 1.80421E-13 1.05155E-13
 -1      3507 2.00713E+01-1.05532E+00 1.75064E-02 2.36546E+00 2.05464E-13 4.42417E-14
 -1      3508 1.89871E+01-3.63501E-01-1.25853E-02 2.31346E+00 1.31905E-13 2.58791E-14
 -1      3509 2.04037E+01-1.53461E+00 3.37771E-02 2.57738E+00 3.17928E-13 2.27277E-14
 -1      3510 2.10295E+01-2.13151E+00 2.39951E-02 2.56289E+00 3.10097E-13 1.91227E-14
 -1      3511 1.93418E+01-1.24323E+00-1.92423E-02 2.82043E+00 2.47653E-13-6.20456E-14
 -1      3512 2.15468E+01-3.17093E+00 2.96523E-02 3.06609E+00 2.50827E-13-2.57129E-15
 -1      3513 2.64598E+01-1.63908E+00-7.36722E-03-1.54124E+00-3.56368E-13 2.74974E-13
 -1      3514 1.13274E+01 5.70936E-01 1.74342E-02 1.00675E+00-4.53025E-13-1.50754E-13
 -1      3515 1.13217E+01 6.76175E-01 4.96560E-02-4.47265E-01-4.91859E-13-2.08528E-13
 -1      3516 2.24083E+01-2.60279E+00-3.68859E-03 1.81757E+00 1.95783E-13-4.80128E-15
 -1      3517 2.24504E+01-3.39573E+00-5.14710E-02 2.45734E+00 1.72288E-13 3.58082E-13
 -1      3518 2.06988E+01-2.86279E+00 1.00359E-01 3.48823E+00 1.37077E-13 2.00309E-13
 -1      3519 2.18466E+01-2.08265E+00 4.16906E-02 2.00172E+00 1.77065E-13-1.47612E-14
 -1      3520 2.26947E+01-3.23053E+00 1.73133E-02-2.24239E+00 1.16957E-13 4.88446E-14
 -1      3521 2.17872E+01-2.69062E+00 4.04906E-02-2.52802E+00 1.46806E-13 4.82607E-14
 -1      3522 2.17811E+01-3.63799E+00-5.85569E-02-3.20251E+00 1.37080E-13 2.30645E-13
 -1      3523 2.11436E+01-2.05884E+00 2.84165E-02-2.43481E+00 7.68509E-14 9.87899E-14
 -1      3524 2.05077E+01-1.54207E+00 1.26018E-02-2.47888E+00 6.32505E-14-5.68887E-14
 -1      3525 2.01923E+01-2.23928E+00-4.81507E-02-3.07562E+00 8.49069E-14 3.51498E-14
 -1      3526 2.02164E+01-1.04386E+00 1.74911E-02-2.28204E+00 5.26131E-14-1.73434E-13
 -1      3527 1.98381E+01-6.48231E-01-2.63319E-03-2.20783E+00-8.22163E-14-2.38423E-13
 -1      3528 1.94135E+01-1.03013E+00-1.84802E-02-2.63796E+00-3.82795E-14-2.24540E-13
 -1      3529 1.97532E+01-3.10919E-01 9.52385E-03-2.01315E+00-8.99207E-14-1.94541E-13
 -1      3530 1.95531E+01-4.83763E-02-7.54512E-03-1.89938E+00-7.61907E-14-2.66675E-13
 -1      3531 1.91228E+01-2.34919E-01-7.17990E-03-2.18240E+00-8.23792E-14-2.08766E-13
 -1      3532 1.95689E+01 1.55953E-01 4.69020E-03-1.72998E+00-1.70276E-13-1.34829E-13
 -1      3533 1.94784E+01 3.11210E-01-7.63339E-03-1.61064E+00-2.68750E-13-1.40169E-13
 -1      3534 1.90802E+01 2.57826E-01 6.44156E-04-1.79233E+00-1.46595E-13-2.55874E-13
 -1      3535 1.95376E+01 4.19863E-01 2.05008E-03-1.46818E+00-4.96648E-14-1.43987E-13
 -1      3536 1.95082E+01 4.98046E-01-6.57065E-03-1.35483E+00 8.45613E-15-7.18513E-14
 -1      3537 1.91601E+01 5.23641E-01 3.82322E-03-1.47437E+00-2.74144E-14-2.03196E-13
 -1      3538 1.95817E+01 5.42456E-01 6.04496E-04-1.23488E+00-1.21586E-13 1.48190E-13
 -1      3539 1.95827E+01 5.69721E-01-5.38920E-03-1.13122E+00-2.94659E-14 5.61889E-14
 -1      3540 1.92893E+01 6.40735E-01 4.67898E-03-1.21496E+00-4.48963E-15-1.56512E-13
 -1      3541 1.96557E+01 5.74173E-01-1.12929E-04-1.02948E+00 6.83822E-14-3.76311E-14
 -1      3542 1.96695E+01 5.70556E-01-4.32738E-03-9.36482E-01 1.84772E-13-1.76154E-13
 -1      3543 1.94294E+01 6.64205E-01 4.55845E-03-1.00023E+00-7.78343E-15 1.33044E-14
 -1      3544 1.97351E+01 5.52348E-01-4.08085E-04-8.49649E-01 1.85862E-13-2.21023E-13
 -1      3545 1.97523E+01 5.31823E-01-3.47165E-03-7.67248E-01 1.50984E-13-2.25467E-13
 -1      3546 1.95611E+01 6.33220E-01 4.08402E-03-8.19756E-01 1.44443E-13 1.21337E-13
 -1      3547 1.98083E+01 5.02640E-01-5.20296E-04-6.93529E-01 1.48040E-13-1.39659E-13
 -1      3548 1.98244E+01 4.75362E-01-2.74201E-03-6.21814E-01 1.25603E-13-2.38943E-13
 -1      3549 1.96761E+01 5.74080E-01 3.45951E-03-6.66641E-01 1.43562E-13 1.76780E-14
 -1      3550 1.98704E+01 4.43668E-01-3.16041E-04-5.58452E-01 1.49522E-13-3.47791E-13
 -1      3551 1.98898E+01 4.17013E-01-1.34580E-04-4.97634E-01 1.20593E-13-4.00743E-13
 -1      3552 1.97711E+01 5.05383E-01 2.64067E-03-5.37141E-01 7.66949E-14-2.56734E-13
 -1      3553 1.99683E+01 3.17995E-01 1.77791E-03-6.25873E-01 2.03598E-14-6.22680E-15
 -1      3554 1.99681E+01 2.83331E-01-1.81851E-03-5.76049E-01 5.54068E-14 1.35144E-14
 -1      3555 1.55108E+01-1.09296E+00 1.05918E-01-4.01594E+00-7.60711E-14-2.82767E-13
 -1      3556 1.69954E+01-2.02288E+00-3.32220E-02-4.28790E+00-8.33448E-14-4.44367E-13
 -1      3557 2.00039E+01 2.51783E-01 1.57799E-03-5.32247E-01 5.09219E-14 2.72802E-14
 -1      3558 2.00049E+01 2.20131E-01-1.44959E-03-4.91934E-01 1.56001E-14 3.52500E-14
 -1      3559 1.99323E+01 3.07306E-01 5.14924E-04-5.38364E-01 6.26464E-14 4.22285E-14
 -1      3560 1.98882E+01 4.37535E-01 2.32398E-03-8.78483E-01 7.17335E-17 3.13646E-14
 -1      3561 1.98837E+01 4.11582E-01-2.33614E-03-8.07499E-01 2.87765E-14 1.16649E-14
 -1      3562 1.98504E+01 4.63070E-01 2.83136E-03-1.03911E+00-4.85084E-14 6.11045E-14
 -1      3563 1.98393E+01 4.53660E-01-2.37691E-03-9.58423E-01 1.11237E-14 7.90201E-14
 -1      3564 1.96947E+01 5.13122E-01 8.95083E-04-9.00136E-01-2.52261E-14 1.12837E-13
 -1      3565 1.98278E+01 4.36034E-01 3.67110E-03-1.22128E+00-8.84531E-14-4.85630E-15
 -1      3566 1.98025E+01 4.56431E-01-2.10793E-03-1.13314E+00-8.91722E-14-1.99512E-14
 -1      3567 1.96029E+01 5.35185E-01 4.91118E-04-1.07245E+00-4.07749E-14 5.23888E-14
 -1      3568 1.98443E+01 3.22129E-01 4.99280E-03-1.42151E+00-6.45848E-14 8.14756E-15
 -1      3569 1.97906E+01 3.90964E-01-1.27068E-03-1.33011E+00-5.57924E-14 8.90859E-15
 -1      3570 1.95194E+01 4.94071E-01-6.20582E-04-1.27542E+00-4.17822E-14-9.24654E-14
 -1      3571 1.99417E+01 7.56026E-02 6.70156E-03-1.63206E+00-2.08406E-14 1.90692E-15
 -1      3572 1.98363E+01 2.17489E-01 5.95250E-04-1.54499E+00-3.92394E-14 2.10375E-14
 -1      3573 1.94695E+01 3.50222E-01-3.01157E-03-1.51252E+00-6.13902E-14-3.84283E-14
 -1      3574 2.01891E+01-3.56784E-01 8.72089E-03-1.83433E+00-4.28250E-14 1.43530E-14
 -1      3575 1.99966E+01-1.14268E-01 4.15986E-03-1.76649E+00-3.68249E-14-3.83845E-14
 -1      3576 1.94997E+01 5.03651E-02-7.79743E-03-1.78530E+00-1.65393E-14-6.25015E-14
 -1      3577 2.06874E+01-1.03133E+00 8.16985E-03-1.98710E+00-6.14365E-14 1.96723E-14
 -1      3578 2.03639E+01-6.58496E-01 1.15700E-02-1.96835E+00-2.61718E-14 2.86829E-14
 -1      3579 1.96895E+01-4.71077E-01-1.67703E-02-2.08682E+00-5.07323E-14 8.26336E-15
 -1      3580 2.15712E+01-1.92872E+00 7.81790E-03-1.97886E+00-1.24074E-13 8.94009E-14
 -1      3581 2.10779E+01-1.44799E+00 2.61322E-02-2.06888E+00-1.06558E-13 4.16576E-14
 -1      3582 2.01774E+01-1.28705E+00-3.04282E-02-2.37908E+00-8.33941E-14 1.80390E-15
 -1      3583 2.30500E+01-2.83894E+00 2.88662E-02-1.56856E+00-7.12069E-14-5.22525E-14
 -1      3584 2.23080E+01-2.44161E+00 4.41596E-02-1.92539E+00-7.89199E-14 7.03105E-14
 -1      3585 2.11606E+01-2.34982E+00-3.74200E-02-2.53078E+00-1.06938E-13-6.08498E-14
 -1      3586 2.02490E+01 1.39835E+00-5.71610E-03-7.02446E-01-1.47703E-13-3.02313E-13
 -1      3587 2.63103E+01-3.28585E+00-2.11886E-02 1.12565E-01-2.16138E-13 2.53249E-13
 -1      3588 1.37475E+01-6.17754E-01-4.00834E-02 3.56181E+00-3.08142E-13-3.41685E-13
 -1      3589 1.23364E+01 3.22281E-01 8.77387E-02 2.25289E+00-3.58786E-13-2.46185E-13
 -1      3590 2.08064E+01-1.15242E+00 2.20824E-02 2.05133E+00 2.12146E-13-2.14218E-13
 -1      3591 2.12345E+01-1.59899E+00 9.07983E-03 2.01491E+00 2.12979E-13-1.88970E-13
 -1      3592 2.07529E+01-2.09655E+00-5.29995E-02 2.57127E+00 3.21102E-13 3.24763E-13
 -1      3593 2.02252E+01-4.38158E-01 1.20884E-02 1.89891E+00 1.76960E-13-2.84725E-13
 -1      3594 2.04962E+01-7.66509E-01 9.93075E-03 1.93979E+00 1.70477E-13-2.52025E-13
 -1      3595 1.99154E+01-1.01450E+00-2.63355E-02 2.33242E+00 2.61749E-13-1.11542E-13
 -1      3596 1.99383E+01 3.24268E-02 5.66913E-03 1.68195E+00-5.42498E-14-1.82215E-13
 -1      3597 2.00944E+01-1.76367E-01 8.38771E-03 1.75864E+00 5.23974E-14-1.62243E-13
 -1      3598 1.95487E+01-2.80380E-01-1.26747E-02 2.01393E+00 4.96536E-14 1.87660E-13
 -1      3599 1.98218E+01 3.09594E-01 1.93112E-03 1.45529E+00-1.01139E-13-2.20511E-13
 -1      3600 1.99062E+01 1.91643E-01 6.16824E-03 1.54625E+00-1.03975E-13-2.63769E-13
 -1      3601 1.94241E+01 1.77103E-01-6.71824E-03 1.70503E+00 2.52913E-14 2.59710E-13
 -1      3602 1.97975E+01 4.47993E-01-9.00113E-05 1.23857E+00-3.33176E-13-3.84100E-13
 -1      3603 1.98405E+01 3.93504E-01 4.51261E-03 1.33233E+00-1.30044E-13-3.55138E-13
 -1      3604 1.94312E+01 4.34618E-01-3.13931E-03 1.43099E+00-8.30509E-14 7.44576E-14
 -1      3605 1.98176E+01 4.94932E-01-1.05589E-03 1.03961E+00-2.59874E-13-4.68055E-13
 -1      3606 1.98385E+01 4.81187E-01 3.43069E-03 1.12994E+00-2.59504E-13-5.23602E-13
 -1      3607 1.95008E+01 5.53913E-01-1.00290E-03 1.19354E+00-1.66224E-13-1.13044E-13
 -1      3608 1.98549E+01 4.86589E-01-1.44386E-03 8.61156E-01-4.81909E-14-4.40198E-13
 -1      3609 1.98651E+01 4.96711E-01 2.74785E-03 9.44635E-01-2.17358E-13-5.43716E-13
 -1      3610 1.95928E+01 5.83876E-01 1.69147E-05 9.88822E-01-1.95979E-13-3.53777E-13
 -1      3611 1.98950E+01 4.48697E-01-1.53908E-03 7.03887E-01-7.01762E-14-4.48544E-13
 -1      3612 1.99006E+01 4.70877E-01 2.31762E-03 7.78807E-01 4.61580E-14-4.80699E-13
 -1      3613 1.96859E+01 5.61141E-01 4.25444E-04 8.12352E-01-8.49662E-14-4.55616E-13
 -1      3614 1.99308E+01 3.98952E-01-1.50947E-03 5.67134E-01-9.71703E-14-5.18605E-13
 -1      3615 1.99352E+01 4.25561E-01 2.10540E-03 6.33177E-01-1.67210E-13-5.41072E-13
 -1      3616 1.97699E+01 5.11050E-01 4.39790E-04 6.60903E-01-6.14041E-14-3.27604E-13
 -1      3617 1.99608E+01 3.49789E-01-8.04863E-04 4.50050E-01 2.05392E-14-7.61866E-13
 -1      3618 1.99643E+01 3.74053E-01 1.73169E-03 5.07317E-01-7.45190E-14-6.88409E-13
 -1      3619 1.98399E+01 4.50812E-01-1.79427E-04 5.31847E-01 2.76584E-14-4.99454E-13
 -1      3620 2.02449E+01 3.72265E-01-1.80757E-03-2.99917E-02 1.20596E-13-6.08955E-14
 -1      3621 2.02741E+01 4.73398E-01 3.01630E-03 5.23466E-02 1.22326E-13-6.87300E-14
 -1      3622 2.33834E+01-3.40441E+00 3.49791E-02-1.86418E+00-1.35876E-13-1.06838E-13
 -1      3623 2.01689E+01 1.54233E-01-1.30483E-04-2.29992E-01 5.75844E-14-5.70297E-14
 -1      3624 2.01877E+01 1.87623E-01 1.39270E-03-1.90605E-01 9.34301E-14-4.63761E-14
 -1      3625 1.99439E+01 3.37673E-01-1.69044E-03 3.28496E-01-4.09767E-14-4.02295E-13
 -1      3626 1.99849E+01 3.03938E-01 2.54901E-04 3.33766E-01 8.51641E-14-8.00084E-13
 -1      3627 1.99881E+01 3.09558E-01 3.12292E-04 3.63049E-01 8.46283E-14-7.16023E-13
 -1      3628 1.99016E+01 3.82780E-01 5.75739E-04 3.54212E-01 4.30273E-14-3.25122E-13
 -1      3629 1.99726E+01-2.98962E+00 7.50681E-02-3.93684E+00 1.04674E-13 3.14474E-13
 -1      3630 2.00367E+01 1.92924E-01 1.36969E-03-4.57033E-01-1.01928E-15 3.84718E-14
 -1      3631 2.00394E+01 1.67527E-01-1.02793E-03-4.24374E-01 1.04149E-14 1.21022E-14
 -1      3632 1.99942E+01 2.38573E-01 2.47813E-04-4.59873E-01 2.07564E-14 1.64604E-14
 -1      3633 1.96227E+01 5.81384E-01-1.94315E-04-1.08617E-01 1.35184E-13-2.95328E-13
 -1      3634 1.96097E+01 5.87824E-01-1.16589E-03-3.98155E-02 8.15086E-14-2.30790E-13
 -1      3635 1.37536E+01-8.12245E-01 1.94926E-02 3.78120E+00 8.73485E-14-3.74076E-14
 -1      3636 1.24131E+01-1.06223E-01 6.05470E-02 2.93852E+00 3.23942E-14-1.08774E-13
 -1      3637 1.17099E+01 4.28925E-01 7.06651E-02 1.87043E+00 3.51802E-14-2.26506E-13
 -1      3638 1.14337E+01 6.63121E-01 3.14988E-02 1.31646E-01-7.29399E-14-2.78909E-13
 -1      3639 1.99481E+01-2.79368E+00-1.41525E-02 3.70284E+00 2.63985E-13 1.53766E-14
 -1      3640 2.22154E+01-3.53169E+00-4.79212E-03-2.86815E+00-1.10408E-13-2.21139E-13
 -1      3641 1.99293E+01 3.83659E-01 2.00583E-03-7.40783E-01 9.04772E-14-1.60120E-14
 -1      3642 1.99276E+01 3.50265E-01-2.12552E-03-6.80434E-01 8.04617E-14-1.49136E-14
 -1      3643 1.98623E+01 3.82877E-01 7.58105E-04-6.35775E-01 5.60692E-14 5.90974E-15
 -1      3644 1.97828E+01 4.55907E-01 9.20327E-04-7.55451E-01 6.53343E-14 3.17705E-14
 -1      3645 2.03187E+01 7.63402E-01-2.18327E-03-2.16917E-01-7.58974E-14-1.80288E-13
 -1      3646 2.03013E+01 6.17108E-01-3.16798E-03-1.07321E-01-6.02027E-14-1.61820E-13
 -1      3647 2.01330E+01 1.20940E-01 4.14680E-04-2.91076E-01 1.74246E-14-6.33241E-14
 -1      3648 2.01463E+01 1.33006E-01 6.55990E-04-2.61210E-01 3.00419E-14-3.08492E-14
 -1      3649 2.01995E+01 1.73397E-01-5.72472E-04-2.28694E-01 4.47494E-14-3.40065E-14
 -1      3650 2.00401E+01 2.22943E+00-3.46690E-03-1.59411E-01 5.06553E-14-3.39651E-13
 -1      3651 2.00526E+01 2.19195E+00-4.26752E-03-2.79052E-01 2.15281E-14-3.34001E-13
 -1      3652 2.01679E+01 1.88388E+00 5.53238E-03-2.77204E-01 9.94475E-15-3.16921E-13
 -1      3653 1.82520E+01-2.53437E+00-6.53587E-02 4.19234E+00-7.95215E-14-3.70884E-14
 -1      3654 1.60894E+01-1.32203E+00 1.07519E-01 4.10215E+00-1.57162E-13-2.24584E-13
 -1      3655 1.57710E+01-1.35141E+00 4.70656E-02-4.07849E+00-1.02370E-13 2.44530E-13
 -1      3656 1.78996E+01-2.44983E+00-1.95070E-02-4.33993E+00-3.77753E-14 3.88148E-13
 -1      3657 1.92871E+01-2.19168E+00 4.72953E-02-3.58551E+00 7.59514E-14 2.05252E-13
 -1      3658 2.02072E+01 2.32597E-01-8.74133E-04-1.47830E-01 9.60704E-14-2.45412E-14
 -1      3659 2.02316E+01 2.94728E-01 2.20325E-03-9.13556E-02 1.06328E-13-5.42872E-14
 -1      3660 2.02452E+01 2.51349E-01-5.98203E-04-1.51126E-01 9.37939E-14-2.49448E-14
 -1      3661 2.03054E+01 4.91954E-01 2.55763E-03-3.31207E-02-5.99120E-14-1.66301E-13
 -1      3662 2.02798E+01 3.89659E-01-1.90249E-03 4.30532E-02-6.99047E-14-1.27379E-13
 -1      3663 2.03115E+01 4.06469E-01 7.84664E-05 5.43131E-02-6.51963E-14-1.54427E-13
 -1      3664 1.87235E+01-2.45746E+00 8.66087E-02-4.15559E+00-5.59943E-14-3.18119E-13
 -1      3665 2.08618E+01-3.31750E+00-1.66814E-02-3.50709E+00-5.74948E-14-3.11886E-13
 -1      3666 2.07037E+01-2.67121E+00-5.77013E-03-3.10248E+00-5.19845E-14-2.44763E-13
 -1      3667 1.82251E+01-1.83857E+00 2.64878E-02-3.71555E+00 9.48894E-16-3.48456E-13
 -1      3668 1.48985E+01-4.85043E-01 4.46175E-02-3.25311E+00-1.22510E-13-2.78944E-13
 -1      3669 1.51259E+01-6.93494E-01 5.35568E-02-3.62012E+00-8.03142E-14 3.16965E-13
 -1      3670 1.67841E+01-8.63696E-01 3.41808E-02-3.35696E+00-7.33233E-14 3.23025E-13
 -1      3671 1.46361E+01-7.19746E-02 1.25569E-02-2.85498E+00-1.13980E-13 1.86382E-13
 -1      3672 1.29917E+01 6.07862E-01 7.75690E-02 1.50814E+00-2.99453E-13-1.98286E-13
 -1      3673 1.96886E+01-2.13965E+00 3.39457E-02 3.30212E+00 2.45446E-13 2.83585E-13
 -1      3674 2.02429E+01 1.52163E+00-1.33459E-03-3.27461E-01-1.50530E-14-2.60975E-13
 -1      3675 2.02583E+01 1.41702E+00-6.09741E-03-3.96798E-01-4.48121E-14-2.35854E-13
 -1      3676 2.03170E+01 1.01616E+00 4.09162E-03-2.89260E-01-5.83473E-14-2.06444E-13
 -1      3677 2.03278E+01 1.01177E+00 1.47986E-03-2.30024E-01-2.19844E-14-1.94698E-13
 -1      3678 1.99080E+01 3.91985E-01-2.20189E-04-4.48759E-01 8.59640E-14-3.56295E-13
 -1      3679 1.28005E+01 8.32620E-01-5.37602E-03-4.95908E-01-3.39265E-13-4.30045E-13
 -1      3680 1.22376E+01 6.83777E-01 7.17737E-02-1.18562E+00-3.66108E-13-4.50674E-13
 -1      3681 1.33194E+01 5.27959E-01 1.08084E-02-1.82232E+00-2.79043E-13-3.97685E-13
 -1      3682 1.96104E+01 5.87253E-01-1.12448E-03 4.26338E-02 7.03594E-14 2.00971E-14
 -1      3683 1.96236E+01 5.79410E-01-4.43318E-04 1.12018E-01 6.88841E-14 2.21294E-13
 -1      3684 1.95487E+01 6.29784E-01 1.85168E-03 2.55873E-03 1.38122E-13-3.94398E-14
 -1      3685 2.00997E+01 1.21447E-01 8.18844E-04-3.43160E-01 2.96995E-14-4.65919E-14
 -1      3686 2.01084E+01 1.17416E-01 9.60514E-06-3.16749E-01 3.92652E-14-5.71390E-14
 -1      3687 2.01515E+01 1.43464E-01-4.31472E-04-2.88409E-01 1.53662E-14-2.53502E-14
 -1      3688 2.03106E+01 6.22257E-01 8.01966E-05 1.10201E-01 1.28786E-13-1.14288E-13
 -1      3689 2.02768E+01 5.98013E-01-2.30352E-03 1.41398E-01 1.31141E-13-8.00281E-14
 -1      3690 2.02852E+01 3.93485E-01-3.73841E-04-4.29173E-02 1.15171E-13-6.00038E-14
 -1      3691 1.99956E+01 3.14941E-01 4.67980E-04 3.94503E-01 8.09798E-14-8.09077E-13
 -1      3692 1.52721E+01-1.16731E+00 8.79885E-02 4.05053E+00 1.88741E-13 6.36158E-14
 -1      3693 1.50976E+01-6.24954E-01 3.57836E-02 3.45388E+00 7.43555E-14 1.18416E-13
 -1      3694 1.68250E+01-1.75847E+00-1.64282E-03 4.11982E+00 2.69322E-13 8.98621E-14
 -1      3695 1.56643E+01-6.60940E-01 4.14121E-02 3.35187E+00-2.28912E-13-1.99091E-13
 -1      3696 1.31488E+01 3.60866E-01 6.81936E-02 2.07993E+00 2.11610E-14-8.29961E-14
 -1      3697 1.96474E+01 5.61064E-01-1.80644E-03-1.85638E-01 8.24875E-14-2.90054E-13
 -1      3698 1.95785E+01 6.11648E-01 2.00962E-03-1.62946E-01 4.38101E-14-3.58362E-13
 -1      3699 1.96842E+01 5.41969E-01 7.83120E-04-2.46762E-01 7.40352E-15-2.96376E-13
 -1      3700 1.29648E+01 8.95452E-01 2.86263E-02 1.64615E-01-7.13830E-14-2.06835E-13
 -1      3701 1.22033E+01 7.95491E-01 8.81701E-02-7.41630E-01-1.05920E-13-3.47465E-13
 -1      3702 1.30767E+01 5.72932E-01-3.24368E-02-1.50729E+00-1.37097E-13-3.18218E-13
 -1      3703 2.02980E+01 7.21882E-01 4.24579E-03 2.41351E-01 1.50750E-13-8.78895E-14
 -1      3704 2.00681E+01 1.47576E-01 1.12584E-03-3.95946E-01-2.26454E-14-1.87042E-14
 -1      3705 2.00732E+01 1.31311E-01-5.47010E-04-3.68233E-01-7.32583E-15-3.90829E-14
 -1      3706 2.00501E+01 1.83917E-01-1.08602E-05-3.95999E-01-4.28064E-14 1.45381E-15
 -1      3707 1.99117E+01 3.82583E-01 4.80745E-04 4.16873E-01 9.63309E-14-7.72659E-13
 -1      3708 2.01461E+01 1.95794E+00 5.19393E-03-9.21859E-02 5.91668E-14-3.05267E-13
 -1      3709 2.02835E+01 1.17669E+00 2.44584E-03-4.07657E-01-7.74372E-14-2.26864E-13
 -1      3710 2.02276E+01 1.54621E+00 7.31108E-04-6.64319E-01-1.18413E-13-2.81241E-13
 -1      3711 2.02954E+01 1.03908E+00 2.70219E-03 4.92678E-01 2.20315E-13-1.02034E-13
 -1      3712 2.02781E+01 1.21276E+00-2.25225E-03 5.24288E-01 2.25662E-13-1.09096E-13
 -1      3713 2.02658E+01 1.35090E+00-9.45644E-04 4.84016E-01 1.96609E-13-1.18636E-13
 -1      3714 2.02801E+01 8.68941E-01-2.60671E-03 3.56595E-01 1.93063E-13-9.51585E-14
 -1      3715 2.02837E+01 1.35357E+00 9.64812E-03-5.08990E-01-9.70271E-14-2.58016E-13
 -1      3716 1.97341E+01 5.00397E-01-2.02644E-03 3.12338E-01 2.33451E-14 5.38453E-14
 -1      3717 1.97911E+01 4.66331E-01 7.71597E-04 3.56969E-01 7.35230E-14-1.22873E-13
 -1      3718 2.03335E+01 6.27719E-01-1.27614E-03-7.81169E-02-5.40064E-14-1.70738E-13
 -1      3719 2.02076E+01 1.67957E+00-3.46189E-03 1.25532E-01 9.52838E-14-2.46627E-13
 -1      3720 2.02034E+01 1.70012E+00-2.77259E-03 3.80207E-02 7.96352E-14-2.85444E-13
 -1      3721 1.98587E+01 4.17813E-01-1.17421E-03 4.03893E-01-1.65991E-14-3.65006E-13
 -1      3722 1.97956E+01 4.71825E-01 1.49540E-03 4.24820E-01 1.30066E-13-1.92620E-13
 -1      3723 2.02171E+01 1.64533E+00-2.04698E-03 1.92631E-01 1.14518E-13-2.24485E-13
 -1      3724 2.02882E+01 1.43342E+00 5.25776E-03 1.25943E-01 1.00992E-13-2.13658E-13
 -1      3725 2.02282E+01 1.58445E+00-4.17194E-03 2.73486E-01 1.29510E-13-2.03082E-13
 -1      3726 2.03142E+01 3.22898E-01 7.78120E-04 1.08797E-01-6.17995E-14-1.38409E-13
 -1      3727 2.02886E+01 2.65552E-01-8.24573E-04 1.50380E-01-6.41885E-14-1.33335E-13
 -1      3728 2.02608E+01 2.25383E-01 4.05437E-04 1.78698E-01-4.62235E-14-1.12229E-13
 -1      3729 2.02318E+01 1.98664E-01-2.61547E-04 2.10244E-01-2.21542E-14-1.26742E-13
 -1      3730 2.02979E+01 2.77339E-01 3.37129E-04 1.40361E-01-5.00381E-14-1.47544E-13
 -1      3731 2.01951E+01 1.84834E-01-6.20512E-05 2.32900E-01-1.87267E-15-1.06442E-13
 -1      3732 2.01640E+01 1.81874E-01 1.43982E-04 2.59441E-01 1.21350E-14-1.25794E-13
 -1      3733 2.02314E+01 2.17044E-01 2.56970E-04 1.92481E-01-1.34481E-14-9.91238E-14
 -1      3734 2.01199E+01 1.88409E-01-5.30034E-04 2.80294E-01 5.17289E-15-1.36100E-13
 -1      3735 2.00866E+01 2.03866E-01 4.15417E-04 3.06087E-01-7.79108E-16-1.69682E-13
 -1      3736 2.01510E+01 2.08031E-01 3.53725E-04 2.36693E-01 3.67660E-15-1.52757E-13
 -1      3737 2.00351E+01 2.26109E-01-9.96586E-04 3.28380E-01 1.81075E-14-1.57771E-13
 -1      3738 1.99988E+01 2.55756E-01 5.85636E-04 3.56863E-01-1.55100E-14-1.27052E-13
 -1      3739 2.00577E+01 2.38854E-01 5.69758E-04 2.79805E-01-1.06517E-14-1.26186E-13
 -1      3740 1.99391E+01 2.89940E-01-1.46997E-03 3.83272E-01-8.60444E-14-1.28875E-13
 -1      3741 1.98983E+01 3.30181E-01 6.88204E-04 4.17212E-01-1.10481E-13-1.64488E-13
 -1      3742 1.99504E+01 3.00487E-01 9.02171E-04 3.27454E-01-4.40074E-14-1.45387E-13
 -1      3743 1.98285E+01 3.72810E-01-1.95506E-03 4.50024E-01-8.29625E-14-1.48431E-13
 -1      3744 1.97818E+01 4.20051E-01 7.61530E-04 4.91637E-01-6.91694E-14-1.21402E-13
 -1      3745 1.98261E+01 3.85106E-01 1.31462E-03 3.84395E-01-1.10437E-13-1.27347E-13
 -1      3746 1.96997E+01 4.67316E-01-2.47082E-03 5.32870E-01-3.63781E-14-7.34999E-14
 -1      3747 1.96454E+01 5.17400E-01 8.55731E-04 5.84009E-01 2.83413E-14-5.84132E-14
 -1      3748 1.96808E+01 4.85125E-01 1.81435E-03 4.54728E-01-1.36842E-14-5.38545E-14
 -1      3749 1.95483E+01 5.64556E-01-3.04770E-03 6.35711E-01 2.24483E-15-9.06129E-14
 -1      3750 1.94855E+01 6.12085E-01 1.05260E-03 6.98168E-01-6.38045E-14-5.58513E-14
 -1      3751 1.95093E+01 5.91921E-01 2.37307E-03 5.42286E-01-2.03204E-15-6.21795E-14
 -1      3752 1.93706E+01 6.52642E-01-3.72354E-03 7.62913E-01-3.63136E-14 4.06506E-14
 -1      3753 1.92998E+01 6.90132E-01 1.48921E-03 8.38876E-01 3.07740E-15 7.06850E-14
 -1      3754 1.93063E+01 6.94679E-01 2.97097E-03 6.51514E-01-5.56399E-15-9.13744E-15
 -1      3755 1.91644E+01 7.14893E-01-4.55424E-03 9.20523E-01 2.24585E-14 7.92877E-14
 -1      3756 1.90886E+01 7.31746E-01 2.37760E-03 1.01330E+00 3.58844E-15 1.22813E-13
 -1      3757 1.90664E+01 7.78815E-01 3.56729E-03 7.88754E-01 1.69276E-14 1.05403E-13
 -1      3758 1.89310E+01 7.27604E-01-5.61608E-03 1.11815E+00-1.79625E-16 1.86535E-13
 -1      3759 1.88583E+01 7.08918E-01 4.07169E-03 1.23312E+00 5.95005E-15 2.24275E-13
 -1      3760 1.87857E+01 8.24106E-01 4.05928E-03 9.64338E-01 6.65252E-14 8.63251E-14
 -1      3761 1.86786E+01 6.57514E-01-6.92703E-03 1.37175E+00 4.47163E-14 2.73955E-13
 -1      3762 1.86259E+01 5.82457E-01 7.18777E-03 1.51753E+00 6.42160E-14 3.10367E-13
 -1      3763 1.84629E+01 8.02568E-01 4.28555E-03 1.19568E+00 7.79180E-14 2.28529E-13
 -1      3764 1.84286E+01 4.57166E-01-8.42885E-03 1.70849E+00-4.89125E-14 3.25123E-13
 -1      3765 1.84270E+01 2.94107E-01 1.16929E-02 1.89679E+00-6.45331E-15 2.03659E-13
 -1      3766 1.81011E+01 6.75514E-01 3.77206E-03 1.51313E+00 3.58651E-14 2.24974E-13
 -1      3767 1.82369E+01 5.46935E-02-8.16912E-03 2.16033E+00 7.93139E-14 1.58424E-13
 -1      3768 1.83461E+01-2.30438E-01 2.23331E-02 2.39727E+00 1.11851E-13 8.67214E-14
 -1      3769 1.77286E+01 3.76429E-01 3.48137E-03 1.97084E+00 1.40242E-14 3.13596E-13
 -1      3770 1.98637E+01 3.62370E-01 1.10580E-03-5.19009E-01 6.20058E-14-3.07988E-14
 -1      3771 1.98950E+01 3.20767E-01-1.79508E-03-4.76496E-01 7.58589E-14-1.97198E-14
 -1      3772 1.90345E+01-5.49762E-01-1.81541E-04 2.41658E+00 9.69372E-14 4.29232E-13
 -1      3773 1.93856E+01-9.65410E-01 2.51111E-02 2.57063E+00 2.76804E-13 4.07118E-13
 -1      3774 2.02263E+01 1.58923E+00-4.22318E-03-2.69280E-01-8.29469E-16-3.12386E-13
 -1      3775 2.03036E+01 1.33063E+00 5.76071E-03-2.33056E-01 6.38663E-16-2.64807E-13
 -1      3776 2.02155E+01 1.64811E+00-2.31169E-03-1.88254E-01 1.60342E-14-3.07450E-13
 -1      3777 2.03252E+01 1.05731E+00-4.49563E-03-1.94248E-01-7.22366E-15-2.39838E-13
 -1      3778 2.03611E+01 8.41523E-01 5.33863E-03-1.44214E-01-2.53640E-14-1.72027E-13
 -1      3779 1.86939E+01-1.50573E+00 2.27859E-02-3.32781E+00-1.46324E-14 1.12670E-13
 -1      3780 1.85171E+01-1.23906E-01 1.66605E-02-2.26733E+00-2.45722E-14-3.71242E-14
 -1      3781 1.84226E+01 1.48665E-01-7.64296E-03-2.04929E+00-1.03138E-13-3.00620E-14
 -1      3782 1.86005E+01 3.56500E-01 1.09671E-02-1.79901E+00-1.49824E-13-1.10021E-13
 -1      3783 1.85951E+01 5.02817E-01-8.58829E-03-1.63106E+00-8.98379E-14-6.39709E-14
 -1      3784 1.79466E+01 4.38625E-01 1.25175E-03-1.86491E+00-1.22092E-13 1.79071E-14
 -1      3785 1.87737E+01 6.15405E-01 6.26337E-03-1.44911E+00-9.21395E-14-1.01182E-13
 -1      3786 1.88172E+01 6.82509E-01-6.97405E-03-1.31506E+00 6.74024E-15-1.11015E-13
 -1      3787 1.82867E+01 7.07255E-01 4.54774E-03-1.45139E+00-2.70221E-14 5.51043E-14
 -1      3788 1.89801E+01 7.27779E-01 3.46480E-03-1.17845E+00 3.82004E-14-2.33311E-13
 -1      3789 1.90422E+01 7.43642E-01-5.60725E-03-1.06906E+00 3.68574E-14-9.56548E-14
 -1      3790 1.86084E+01 8.22118E-01 4.66722E-03-1.15142E+00-3.11687E-14-1.71872E-13
 -1      3791 1.91841E+01 7.46491E-01 1.88475E-03-9.63108E-01 4.99079E-14-1.04794E-13
 -1      3792 1.92486E+01 7.31525E-01-4.49865E-03-8.71859E-01 6.40713E-14 1.31317E-14
 -1      3793 1.88969E+01 8.40012E-01 4.20328E-03-9.26140E-01 5.03696E-14-2.31416E-13
 -1      3794 1.93688E+01 7.09821E-01 1.08909E-03-7.87058E-01 6.42890E-14 1.33636E-13
 -1      3795 1.94278E+01 6.78250E-01-3.63208E-03-7.09703E-01 1.87041E-13 7.41352E-14
 -1      3796 1.91462E+01 7.99504E-01 3.66936E-03-7.49918E-01 1.36652E-13-9.47251E-14
 -1      3797 1.95277E+01 6.43126E-01 5.20674E-04-6.40324E-01 4.48377E-14 3.40947E-14
 -1      3798 1.95766E+01 6.03742E-01-3.84910E-03-5.75719E-01 4.69817E-14-1.16571E-14
 -1      3799 1.93576E+01 7.27559E-01 3.75950E-03-6.07029E-01 5.26292E-14-1.00928E-13
 -1      3800 1.96596E+01 5.67428E-01 5.50211E-04-5.15862E-01 1.25437E-13-1.04769E-13
 -1      3801 1.97030E+01 5.28840E-01-1.60082E-03-4.60423E-01 5.54268E-14-6.07445E-15
 -1      3802 1.95261E+01 6.46517E-01 3.67586E-03-4.89632E-01 1.52604E-14-5.18841E-14
 -1      3803 1.45588E+01 3.10254E-01 8.95152E-02-2.53064E+00-1.26848E-13-3.05499E-13
 -1      3804 1.60460E+01-5.57819E-01-3.83384E-02-3.17050E+00 6.25411E-15-3.74074E-13
 -1      3805 2.03309E+01 6.12339E-01-1.93492E-03 6.42743E-02 1.19985E-13-1.26466E-13
 -1      3806 2.03412E+01 7.60301E-01 1.19675E-03 1.55870E-01 1.25228E-13-1.38696E-13
 -1      3807 1.93683E+01 6.22565E-01 2.89608E-03-1.05255E+00-4.05817E-14-2.91244E-14
 -1      3808 1.94089E+01 6.12901E-01-3.62838E-03-9.62091E-01-2.26693E-14-2.94496E-15
 -1      3809 1.95117E+01 5.94761E-01 1.99526E-03-8.77636E-01-1.06185E-14 1.12503E-14
 -1      3810 1.95540E+01 5.63976E-01-3.17190E-03-8.01518E-01 7.80490E-16 3.08047E-14
 -1      3811 1.92877E+01 6.78735E-01 2.38055E-03-8.56786E-01 2.55389E-14-5.31171E-14
 -1      3812 1.91091E+01 4.41790E-01 7.42590E-03-1.52579E+00-4.89185E-14-6.47086E-14
 -1      3813 1.91080E+01 5.26321E-01-4.12265E-03-1.39872E+00-9.15893E-14-6.06393E-14
 -1      3814 1.90659E+01 1.37190E-01 1.13083E-02-1.84830E+00 2.93331E-16-8.33239E-14
 -1      3815 1.90015E+01 3.10067E-01-3.51820E-03-1.69850E+00 6.16499E-15-6.02784E-14
 -1      3816 1.86370E+01 5.04014E-01 2.91087E-04-1.57702E+00-1.06175E-14-7.25370E-14
 -1      3817 1.91837E+01-3.94785E-01 1.87042E-02-2.24761E+00-4.37919E-14-7.17064E-14
 -1      3818 1.90019E+01-9.43063E-02 6.07632E-04-2.07067E+00 1.79561E-14-6.56786E-14
 -1      3819 1.84586E+01 1.69626E-01-3.93300E-03-1.98189E+00 1.08046E-14-2.74320E-14
 -1      3820 1.95591E+01-1.26400E+00 1.04861E-02-2.69393E+00-1.10903E-13-1.49511E-13
 -1      3821 1.92249E+01-7.69049E-01 1.20345E-02-2.51427E+00-8.73780E-14-1.30637E-13
 -1      3822 1.84102E+01-4.74254E-01-3.02858E-02-2.52971E+00-1.16450E-14-1.79867E-13
 -1      3823 2.01499E+01-1.95968E+00 3.82833E-02-2.98112E+00-5.37547E-14-1.92063E-13
 -1      3824 1.89125E+01 5.72551E-02-4.08920E-03 1.96335E+00 2.00881E-15 5.99489E-13
 -1      3825 1.90506E+01-1.95248E-01 1.74992E-02 2.12824E+00 4.37617E-15 5.17537E-13
 -1      3826 1.83339E+01-1.67825E-01 1.08959E-02 2.36691E+00-3.89389E-14 8.32744E-13
 -1      3827 1.91245E+01-1.47984E+00 2.93341E-02 3.12570E+00 3.00971E-13 2.75321E-13
 -1      3828 1.89668E+01 4.16315E-01-4.49334E-03 1.59875E+00 5.15798E-14 6.05946E-13
 -1      3829 1.90047E+01 2.71447E-01 1.08634E-02 1.74637E+00 1.04953E-13 5.91278E-13
 -1      3830 1.84361E+01 3.25616E-01 3.44678E-03 1.85352E+00 9.75348E-16 7.70075E-13
 -1      3831 1.90987E+01 5.99368E-01-4.42250E-03 1.30725E+00-5.49737E-14 3.89129E-13
 -1      3832 1.90850E+01 5.30021E-01 6.38566E-03 1.43386E+00 5.33183E-14 5.63218E-13
 -1      3833 1.86397E+01 6.01058E-01 1.40894E-03 1.46908E+00 7.54209E-14 7.94009E-13
 -1      3834 1.92562E+01 6.65799E-01-4.03830E-03 1.07153E+00-2.09513E-13 2.52963E-13
 -1      3835 1.92200E+01 6.46632E-01 3.92679E-03 1.17901E+00-1.01937E-13 3.59650E-13
 -1      3836 1.88717E+01 7.28684E-01 2.18923E-03 1.17823E+00-4.67578E-14 7.16697E-13
 -1      3837 1.94110E+01 6.60890E-01-3.57791E-03 8.77004E-01-1.18822E-13 1.23343E-14
 -1      3838 1.93682E+01 6.72353E-01 2.53234E-03 9.69063E-01-8.10856E-14 1.81503E-13
 -1      3839 1.90956E+01 7.58262E-01 2.59841E-03 9.53732E-01-6.88174E-14 4.75038E-13
 -1      3840 1.95509E+01 6.14966E-01-3.12656E-03 7.14181E-01-2.18002E-14-1.47433E-14
 -1      3841 1.95096E+01 6.43366E-01 1.76868E-03 7.93247E-01-1.39252E-13-2.20993E-14
 -1      3842 1.92966E+01 7.28175E-01 2.55052E-03 7.73663E-01-9.63909E-14 3.77454E-13
 -1      3843 1.96706E+01 5.50225E-01-2.54894E-03 5.77084E-01-6.25408E-14-1.47299E-13
 -1      3844 1.96346E+01 5.85977E-01 1.52134E-03 6.45046E-01-2.32755E-14-2.30644E-14
 -1      3845 1.94693E+01 6.64818E-01 2.10665E-03 6.26617E-01-6.04381E-14 1.24269E-13
 -1      3846 1.97528E+01 4.94255E-01-1.38127E-03 4.68100E-01 2.40586E-14-1.20719E-13
 -1      3847 1.97221E+01 5.29522E-01 1.76797E-03 5.26355E-01-1.35271E-14-1.57922E-13
 -1      3848 1.95909E+01 5.98695E-01 5.27650E-04 5.10196E-01 5.93459E-14-5.57103E-14
 -1      3849 1.96773E+01 5.40675E-01-9.96246E-04 4.16595E-01 1.22531E-13-5.22947E-14
 -1      3850 2.03109E+01 3.92641E-01-1.19298E-03-6.32876E-02 8.79447E-14-1.03640E-13
 -1      3851 2.03298E+01 4.90713E-01 1.19154E-03 2.38655E-03 9.73662E-14-1.22698E-13
 -1      3852 2.03545E+01 6.17813E-01 6.63368E-04 4.04067E-02 1.00380E-13-1.62288E-13
 -1      3853 2.02029E+01 1.70082E+00-2.82563E-03-3.26367E-02 6.40397E-14-2.98987E-13
 -1      3854 2.02068E+01 1.68159E+00-3.47455E-03-1.19837E-01 3.73262E-14-3.01394E-13
 -1      3855 2.02897E+01 1.43559E+00 5.95930E-03-1.23004E-01 1.55577E-14-2.64810E-13
 -1      3856 2.02827E+01 1.46970E+00 5.44729E-03 1.80515E-03 5.98734E-14-2.79697E-13
 -1      3857 1.98684E+01 4.17904E-01-2.12068E-04-4.30496E-01 1.03658E-13-4.60085E-13
 -1      3858 1.98305E+01 4.42077E-01-6.91217E-04-4.06819E-01 1.33381E-13-1.64310E-13
 -1      3859 1.96492E+01 5.59422E-01-1.65744E-03 1.89130E-01 8.83366E-14 2.30393E-13
 -1      3860 1.96867E+01 5.37277E-01 2.51908E-04 2.49749E-01 7.09728E-15 1.89946E-13
 -1      3861 1.96644E+01 5.54722E-01 1.52686E-03 3.10669E-01 6.94542E-14 8.28142E-14
 -1      3862 1.95786E+01 6.09674E-01 1.59851E-03 1.66950E-01 4.02999E-14 2.57119E-13
 -1      3863 1.99526E+01 2.83627E-01 9.64279E-04-4.41617E-01 5.65940E-14-5.32203E-14
 -1      3864 1.99808E+01 2.48548E-01-1.34030E-03-4.06990E-01 3.16956E-15-4.28294E-14
 -1      3865 1.98875E+01 3.36368E-01 9.56175E-04-4.21187E-01 5.40062E-14-7.40045E-14
 -1      3866 1.87136E+01-2.03443E+00 4.11685E-02 3.71385E+00 3.21812E-13-1.36835E-14
 -1      3867 1.97878E+01 4.68943E-01 1.36122E-04-3.55129E-01 1.42682E-13 2.15269E-14
 -1      3868 1.97315E+01 5.02831E-01-2.30345E-03-3.11718E-01 4.80614E-14-2.16452E-13
 -1      3869 2.02212E+01 1.85032E-01-1.39698E-04-2.22334E-01 2.81976E-14-4.05363E-14
 -1      3870 2.02461E+01 2.14124E-01 5.61437E-04-1.87754E-01 3.57518E-14-4.79352E-14
 -1      3871 1.38259E+01 5.26250E-01-3.32013E-02 1.87273E+00-3.28798E-13-1.27603E-13
 -1      3872 1.32585E+01 9.58570E-01 6.68881E-02 7.31741E-01-3.70018E-13-2.49911E-13
 -1      3873 1.92258E+01 5.84860E-01 4.53457E-03-1.26518E+00-5.57343E-14-9.07300E-14
 -1      3874 1.92549E+01 6.11623E-01-4.00974E-03-1.15797E+00-1.27739E-14-3.39025E-14
 -1      3875 1.88575E+01 6.62229E-01 1.82808E-03-1.27308E+00-6.01058E-14-1.17835E-13
 -1      3876 1.80067E+01-9.98309E-01 1.74396E-02 3.18336E+00 1.13420E-13 4.04401E-13
 -1      3877 2.02716E+01 2.56987E-01-5.79892E-04-1.55025E-01 6.46435E-14-6.54535E-14
 -1      3878 2.02950E+01 3.15819E-01 9.23603E-04-1.08120E-01 9.11525E-14-7.42902E-14
 -1      3879 2.03327E+01 4.01662E-01 8.40158E-05-6.91173E-02 6.73323E-14-1.61402E-13
 -1      3880 2.02885E+01 2.70055E-01-3.87074E-05-1.49514E-01 4.47251E-14-1.11958E-13
 -1      3881 2.03516E+01 6.79865E-01-1.71173E-03-6.46432E-02-3.66472E-14-1.67155E-13
 -1      3882 2.03061E+01 9.26820E-01-1.18152E-03 3.13887E-01 1.72067E-13-1.09469E-13
 -1      3883 2.03517E+01 4.92649E-01 1.57555E-03 1.31302E-02-5.62672E-14-1.48150E-13
 -1      3884 2.03305E+01 3.96822E-01-1.64090E-03 7.09333E-02-5.60682E-14-1.52212E-13
 -1      3885 2.03468E+01 4.02756E-01 5.88055E-04 7.24489E-02-5.57121E-14-1.37459E-13
 -1      3886 2.02589E+01 1.41998E+00-3.48639E-03 3.97371E-01 1.86503E-13-1.20478E-13
 -1      3887 2.02430E+01 1.51712E+00-1.48862E-03 3.31528E-01 1.47010E-13-1.71896E-13
 -1      3888 2.03026E+01 1.32571E+00 4.96010E-03 2.35334E-01 1.34750E-13-1.61894E-13
 -1      3889 1.66168E+01-6.30528E-01-1.58887E-02 3.11479E+00-9.05699E-14-5.30184E-14
 -1      3890 1.50802E+01 2.86111E-01 7.45530E-02 2.54298E+00-2.02236E-13-1.31871E-13
 -1      3891 1.50963E+01 5.43891E-01 2.49899E-03 1.83928E+00-2.10149E-13-1.19592E-14
 -1      3892 1.70825E+01-1.90302E-01-3.27636E-02 2.60182E+00-7.08374E-14 3.51576E-13
 -1      3893 1.80980E+01-1.46286E+00 3.94266E-03 3.45782E+00 2.44870E-13 5.31814E-14
 -1      3894 1.77027E+01-1.00783E+00 5.18322E-03-3.29164E+00-9.86338E-14 2.57944E-13
 -1      3895 1.88810E+01-9.69732E-01 2.89554E-02-2.81387E+00-1.20084E-13 3.58938E-14
 -1      3896 1.85841E+01-5.25161E-01 1.11866E-03-2.57451E+00-1.00384E-13-9.30082E-14
 -1      3897 1.70271E+01-3.94384E-01 1.67264E-02-2.91288E+00-4.51627E-14 3.40999E-13
 -1      3898 1.96552E+01 5.57513E-01-1.66575E-04-3.08210E-01-3.68338E-14-1.67868E-13
 -1      3899 1.97627E+01 4.94352E-01 5.45461E-04-4.24776E-01 2.33293E-14-2.55858E-14
 -1      3900 1.41624E+01 2.09397E-01 2.72916E-02 2.50527E+00 7.77945E-14 4.84196E-14
 -1      3901 1.35063E+01 6.38872E-01 9.20339E-03 1.53906E+00 5.87013E-14-8.17471E-14
 -1      3902 1.96641E+01 5.59596E-01 2.37540E-03-4.03763E-01 3.60693E-14 2.80798E-14
 -1      3903 1.45653E+01 3.61042E-01 4.75487E-02-2.29764E+00-2.98543E-13-1.51676E-13
 -1      3904 1.57960E+01 8.34412E-02-1.30786E-02-2.54382E+00-2.00152E-13 2.38099E-13
 -1      3905 1.45312E+01 6.49741E-01-2.35017E-02-1.64967E+00-3.77500E-13-2.96146E-13
 -1      3906 1.97969E+01 4.03719E-01-2.24826E-03-5.62836E-01 6.73950E-14-3.08578E-14
 -1      3907 1.97693E+01 4.25184E-01 1.34925E-03-4.97430E-01 5.51620E-14-6.29545E-14
 -1      3908 1.97615E+01 4.47780E-01 1.26433E-03-6.15083E-01 3.94396E-14-6.14633E-14
 -1      3909 1.81709E+01-6.37933E-01-1.30734E-02 2.77730E+00 1.84059E-13 1.11101E-13
 -1      3910 1.84891E+01-1.15143E+00 1.48827E-02 3.08823E+00 2.59228E-13 4.53700E-14
 -1      3911 2.03259E+01 1.12725E+00-1.93803E-03-1.53438E-01 4.47166E-15-2.63520E-13
 -1      3912 1.78123E+01-1.47593E-01-1.54826E-02-2.46246E+00-9.78744E-14 2.15883E-13
 -1      3913 1.45155E+01 5.91755E-01 2.20936E-02-1.66604E+00-7.53893E-14-3.24810E-13
 -1      3914 1.38011E+01 9.47295E-01 3.42868E-02 2.08736E-02-3.62171E-13-3.36340E-13
 -1      3915 2.03347E+01 9.88010E-01 2.61719E-04 1.94792E-01 1.50773E-13-1.32188E-13
 -1      3916 2.03173E+01 9.95387E-01-1.80780E-03 2.48503E-01 1.63451E-13-1.38069E-13
 -1      3917 1.94605E+01 6.71589E-01-6.57015E-04-4.01224E-02 2.37055E-13-1.42018E-13
 -1      3918 1.94609E+01 6.70322E-01-9.83966E-04 4.63154E-02 1.26067E-13 8.62269E-14
 -1      3919 2.01019E+01 1.49865E-01-2.42091E-04-3.41199E-01 1.74842E-14-1.55390E-14
 -1      3920 2.01638E+01 1.61897E-01 2.49345E-04-2.76119E-01 1.36529E-14-3.29025E-14
 -1      3921 2.01890E+01 1.68141E-01 1.27813E-04-2.47978E-01 2.89260E-14-2.56485E-14
 -1      3922 2.02292E+01 2.03436E-01-2.39349E-05-2.10127E-01 3.96143E-14-7.97065E-14
 -1      3923 1.68557E+01-7.59063E-01 3.74761E-02 3.32291E+00 1.63610E-13 2.72764E-13
 -1      3924 1.88704E+01-1.56414E+00-2.61702E-02-3.19817E+00-6.31034E-14-2.93796E-13
 -1      3925 2.03071E+01 1.18579E+00 4.00842E-03 3.65737E-01 1.81096E-13-1.12702E-13
 -1      3926 1.96026E+01 5.84621E-01-8.82252E-04 3.44221E-01 1.46487E-13 8.03486E-14
 -1      3927 1.95620E+01 6.16641E-01 1.62419E-03 3.87160E-01 5.83621E-14 6.54452E-14
 -1      3928 1.95474E+01 6.18135E-01-1.05908E-03 2.77838E-01 9.15701E-14 3.96090E-13
 -1      3929 2.03159E+01 1.25191E+00-2.79191E-03 3.00084E-02 6.31352E-14-2.40545E-13
 -1      3930 2.03157E+01 1.25130E+00-3.17457E-03-2.70697E-02 3.35928E-14-2.65805E-13
 -1      3931 1.96441E+01 5.29874E-01 1.51903E-03-7.33397E-01 3.14265E-14 5.22454E-14
 -1      3932 1.96837E+01 4.88702E-01-2.70698E-03-6.69920E-01 5.06379E-14-1.05462E-14
 -1      3933 1.96319E+01 5.19883E-01 1.75496E-03-5.92371E-01 1.46479E-14-6.79137E-14
 -1      3934 1.59548E+01-5.15595E-01-9.16106E-03 3.15565E+00 1.25482E-13 2.23866E-13
 -1      3935 1.48725E+01-3.34055E-02 4.21507E-02 2.86769E+00 5.93961E-14 1.50088E-13
 -1      3936 1.51823E+01 2.55648E-01 9.64904E-03 2.34292E+00 9.59354E-14 1.09905E-13
 -1      3937 1.64109E+01-2.70969E-01-1.84818E-02 2.85721E+00 1.37983E-13 3.15370E-13
 -1      3938 1.36184E+01 9.40773E-01 5.24927E-02 8.21584E-01-2.47094E-14-1.17408E-13
 -1      3939 1.38166E+01 9.52112E-01-3.78249E-02 2.78549E-02-4.37781E-14-1.18834E-13
 -1      3940 1.44813E+01 8.27206E-01 2.08050E-02 1.25484E+00 2.40183E-14 1.92762E-14
 -1      3941 1.95126E+01 6.48220E-01 2.12384E-03-2.20624E-01 6.46429E-14-3.63206E-13
 -1      3942 1.94763E+01 6.59983E-01-1.91985E-03-1.39647E-01 2.09278E-13-4.88832E-13
 -1      3943 1.93958E+01 7.12696E-01 1.84341E-03-9.81460E-02 1.94852E-13-2.80922E-13
 -1      3944 1.95910E+01 5.90607E-01-2.72986E-03-3.38840E-01-3.97539E-14-1.06690E-13
 -1      3945 2.03682E+01 6.74670E-01 1.64646E-04-4.02662E-02-3.12972E-14-1.71510E-13
 -1      3946 1.90804E+01 7.06437E-01 2.36885E-03-1.04000E+00-7.36787E-15-8.60580E-14
 -1      3947 2.00307E+01 2.19303E-01 7.96769E-04-3.78853E-01-4.65748E-14-1.55362E-14
 -1      3948 2.00569E+01 1.94249E-01-8.71724E-04-3.49726E-01-3.05172E-14-3.01148E-14
 -1      3949 1.99898E+01 2.62039E-01 6.08219E-04-3.59476E-01-1.23647E-14-1.05081E-13
 -1      3950 1.77804E+01-9.35601E-01 6.57325E-02-3.25955E+00-7.24659E-14-3.78613E-13
 -1      3951 2.03201E+01 1.19818E+00-3.85769E-03 1.23212E-01 1.20437E-13-1.81264E-13
 -1      3952 2.03186E+01 1.23711E+00-1.88027E-03 6.98126E-02 8.57235E-14-1.94405E-13
 -1      3953 2.03659E+01 1.06260E+00 4.44324E-03 3.46108E-02 6.97602E-14-1.90312E-13
 -1      3954 1.71566E+01-3.37987E-01 1.39900E-02-2.74876E+00 8.16101E-15-2.85281E-13
 -1      3955 1.73824E+01-1.44596E-01 1.29680E-02 2.60783E+00 1.36258E-13 2.35703E-13
 -1      3956 1.94720E+01 6.09437E-01 2.12614E-03-7.10327E-01 1.50702E-14-1.64360E-15
 -1      3957 1.67673E+01 1.29519E-02 1.68384E-02-2.49766E+00-1.83268E-13 1.97794E-13
 -1      3958 1.75142E+01 3.51777E-01-2.47408E-02 1.93477E+00-1.48274E-13 4.96138E-13
 -1      3959 1.74856E+01 9.67354E-02 2.21217E-03 2.23751E+00-6.78294E-14 4.24487E-13
 -1      3960 1.65121E+01 5.08146E-01 4.43319E-02 2.04837E+00-1.49086E-13 8.80363E-14
 -1      3961 2.02627E+01 2.39867E-01-1.24892E-04 1.46064E-01-2.30206E-14-1.27211E-13
 -1      3962 2.02250E+01 2.22545E-01-2.94106E-04 1.69643E-01-1.13109E-14-1.17210E-13
 -1      3963 2.01781E+01 2.17753E-01-4.29004E-04 1.84508E-01 7.53680E-15-1.57217E-13
 -1      3964 2.01343E+01 2.24177E-01-4.30526E-05 2.05625E-01-3.36753E-15-1.46767E-13
 -1      3965 2.02093E+01 2.39530E-01 5.19520E-04 1.38899E-01-5.26016E-15-9.31612E-14
 -1      3966 2.00775E+01 2.40094E-01-7.79984E-04 2.20400E-01-1.07223E-14-1.35262E-13
 -1      3967 2.00274E+01 2.64997E-01 7.01836E-05 2.42062E-01-5.47183E-15-1.54128E-13
 -1      3968 2.01069E+01 2.50872E-01 7.26473E-04 1.67935E-01 2.85459E-15-1.34231E-13
 -1      3969 1.99605E+01 2.96790E-01-1.19978E-03 2.58726E-01-2.46184E-14-1.30547E-13
 -1      3970 1.99031E+01 3.36017E-01 8.85605E-05 2.83216E-01-7.93700E-14-1.34654E-13
 -1      3971 1.99861E+01 3.01487E-01 1.08405E-03 1.98153E-01 6.25503E-16-1.29139E-13
 -1      3972 1.98244E+01 3.79958E-01-1.67468E-03 3.03613E-01-8.04909E-14-7.28722E-14
 -1      3973 1.97578E+01 4.29660E-01 4.85652E-05 3.33049E-01-4.61475E-14-1.91125E-14
 -1      3974 1.98444E+01 3.82124E-01 1.42364E-03 2.32375E-01-2.60075E-14-4.86558E-14
 -1      3975 1.96648E+01 4.81789E-01-2.19044E-03 3.58690E-01-3.07587E-14-5.43619E-14
 -1      3976 1.95867E+01 5.38015E-01-2.46060E-05 3.94792E-01-4.39343E-15-2.94535E-14
 -1      3977 1.96783E+01 4.85321E-01 2.01127E-03 2.74221E-01-3.94071E-14 5.31579E-15
 -1      3978 1.94760E+01 5.94183E-01-2.81901E-03 4.27213E-01-1.79656E-14-2.33652E-14
 -1      3979 1.93837E+01 6.52457E-01-8.92984E-05 4.71786E-01-2.44231E-14-5.69415E-14
 -1      3980 1.94815E+01 6.02754E-01 2.72115E-03 3.26072E-01-5.20806E-15-1.32532E-13
 -1      3981 1.92507E+01 7.07528E-01-3.62207E-03 5.12932E-01 2.32485E-14-4.54487E-14
 -1      3982 1.91417E+01 7.62204E-01-7.30428E-05 5.68301E-01 4.45515E-14 2.16254E-14
 -1      3983 1.92463E+01 7.25635E-01 3.58826E-03 3.91070E-01 4.55238E-14-3.62070E-14
 -1      3984 1.89809E+01 8.09470E-01-4.72465E-03 6.21066E-01 3.25000E-14 3.53028E-15
 -1      3985 1.88530E+01 8.53193E-01 1.54313E-04 6.90880E-01 1.18181E-14 1.46567E-14
 -1      3986 1.89635E+01 8.43271E-01 4.67111E-03 4.73518E-01 2.01579E-14-3.45020E-14
 -1      3987 1.86567E+01 8.83680E-01-6.33310E-03 7.60237E-01 4.06954E-14 2.16763E-14
 -1      3988 1.85092E+01 9.06597E-01 7.52471E-04 8.50777E-01 1.15231E-13 7.46697E-14
 -1      3989 1.86206E+01 9.42378E-01 6.06334E-03 5.80523E-01 4.23855E-14-2.97338E-14
 -1      3990 1.82674E+01 9.08037E-01-8.76471E-03 9.45287E-01 1.46882E-13 8.09450E-14
 -1      3991 1.81017E+01 8.97052E-01 2.02457E-03 1.06733E+00 1.26770E-13 1.39354E-13
 -1      3992 1.82018E+01 1.00569E+00 7.82616E-03 7.24977E-01 1.43852E-13-2.59068E-14
 -1      3993 1.77998E+01 8.53870E-01-1.22019E-02 1.20065E+00 8.69051E-14 1.64973E-13
 -1      3994 1.76187E+01 7.90617E-01 3.47700E-03 1.37429E+00 3.62551E-14 1.83866E-13
 -1      3995 1.76863E+01 1.01068E+00 1.02559E-02 9.27286E-01 1.32766E-13 7.75688E-14
 -1      3996 1.72311E+01 6.87865E-01-1.67387E-02 1.56967E+00 3.35892E-14 2.45692E-13
 -1      3997 1.70265E+01 5.15966E-01-3.41434E-03 1.84483E+00 1.38951E-13 2.83653E-13
 -1      3998 1.70420E+01 9.25459E-01 1.26721E-02 1.22180E+00 1.02211E-13 1.72033E-13
 -1      3999 1.93121E+01 6.81849E-01 7.25192E-04-6.49910E-01 4.62659E-14-2.42751E-14
 -1      4000 1.93960E+01 6.33180E-01-3.34306E-03-5.88688E-01-1.07022E-14-2.47827E-14
 -1      4001 2.03243E+01 1.17600E+00-3.53625E-03-1.20064E-01 4.42593E-15-2.63663E-13
 -1      4002 2.03705E+01 9.50786E-01 4.30004E-03-9.04366E-02 4.61338E-15-2.49629E-13
 -1      4003 1.67269E+01 3.64830E-01-6.67138E-03-2.11711E+00-3.23108E-13 1.34652E-13
 -1      4004 1.78378E+01 8.13864E-01 4.50974E-03-1.32821E+00-1.07352E-13-1.75449E-13
 -1      4005 1.79966E+01 8.71650E-01-1.04395E-02-1.16972E+00-1.05794E-13-3.52826E-13
 -1      4006 1.82666E+01 9.13817E-01 2.54084E-03-1.04037E+00-4.60001E-14-2.84928E-13
 -1      4007 1.84146E+01 9.22636E-01-7.52096E-03-9.22683E-01 3.93851E-14-3.09814E-13
 -1      4008 1.78804E+01 1.02451E+00 1.25050E-02-9.25028E-01-4.42877E-14-4.15207E-13
 -1      4009 1.86330E+01 9.21159E-01 1.02166E-03-8.28602E-01 1.86791E-14-2.51671E-13
 -1      4010 1.87643E+01 8.99605E-01-5.70243E-03-7.38283E-01 2.40953E-14-2.65080E-13
 -1      4011 1.83394E+01 1.01750E+00 7.32723E-03-7.19699E-01 5.09846E-14-2.70998E-13
 -1      4012 1.89411E+01 8.72808E-01 2.92038E-04-6.67999E-01 9.74588E-14-2.49627E-13
 -1      4013 1.90537E+01 8.34296E-01-4.28605E-03-5.95640E-01 2.00412E-13-2.65590E-13
 -1      4014 1.87176E+01 9.59955E-01 5.59531E-03-5.73691E-01 1.58534E-14-2.93783E-13
 -1      4015 1.91964E+01 7.94450E-01 2.10015E-04-5.39850E-01 1.46372E-13-3.37609E-13
 -1      4016 1.92861E+01 7.48121E-01-3.87930E-03-4.78098E-01 2.99000E-14-2.64662E-13
 -1      4017 1.90228E+01 8.73022E-01 3.77976E-03-4.62108E-01 1.10586E-13-3.30945E-13
 -1      4018 2.01005E+01 1.76295E-01 5.69884E-04-3.25747E-01-1.98754E-14-4.49536E-14
 -1      4019 2.01258E+01 1.64817E-01-3.76996E-04-2.99067E-01 1.41705E-14-4.13512E-14
 -1      4020 2.00796E+01 2.09707E-01 3.13531E-04-3.07624E-01-1.98636E-14-4.23909E-14
 -1      4021 1.79109E+01 3.09774E-01 1.11908E-02-1.94141E+00 8.89705E-14-1.40454E-13
 -1      4022 1.79252E+01 4.83033E-01-1.31792E-02-1.72029E+00 8.70606E-14-9.22331E-14
 -1      4023 1.81942E+01 6.19114E-01 7.02131E-03-1.51142E+00-3.27558E-14-3.48625E-14
 -1      4024 1.82875E+01 7.02006E-01-8.94728E-03-1.34570E+00-3.79308E-14-9.49011E-14
 -1      4025 1.76366E+01 7.38282E-01 1.05126E-02-1.47855E+00 3.79704E-14-1.94600E-13
 -1      4026 1.83264E+01 7.78675E-01-8.88634E-03 1.23651E+00-1.69086E-14 7.03942E-13
 -1      4027 1.82126E+01 7.07540E-01 2.29143E-03 1.39762E+00 8.76091E-14 6.57840E-13
 -1      4028 1.86586E+01 8.39954E-01-6.66514E-03 9.82860E-01-7.22541E-14 6.68596E-13
 -1      4029 1.85482E+01 8.24177E-01 2.67908E-03 1.10163E+00-8.94320E-14 7.19390E-13
 -1      4030 1.81677E+01 9.25810E-01 6.55291E-03 1.02624E+00-6.27802E-14 6.71846E-13
 -1      4031 1.44006E+01 9.99996E-01-2.79345E-02 4.03941E-01-3.48753E-13-3.65093E-13
 -1      4032 1.42589E+01 1.07183E+00 4.63129E-02-6.93580E-01-2.84432E-13-4.49717E-13
 -1      4033 1.89464E+01 8.28129E-01-5.05821E-03 7.89103E-01-5.09383E-14 4.92767E-13
 -1      4034 1.88437E+01 8.43624E-01 1.58392E-03 8.82282E-01 3.09471E-14 5.55629E-13
 -1      4035 1.85539E+01 9.38217E-01 5.43681E-03 8.05343E-01 4.69274E-14 5.57987E-13
 -1      4036 1.91912E+01 7.71239E-01-3.92526E-03 6.35725E-01-4.57905E-14 3.39891E-13
 -1      4037 1.90999E+01 8.05529E-01 8.01409E-04 7.11094E-01-1.62279E-14 4.38398E-13
 -1      4038 1.88779E+01 8.93613E-01 4.62653E-03 6.41566E-01 5.85215E-14 4.70357E-13
 -1      4039 1.93956E+01 6.92092E-01-2.62926E-03 5.12579E-01 9.82198E-14 1.26779E-13
 -1      4040 1.93172E+01 7.34416E-01 4.31733E-04 5.73918E-01 1.77102E-14 1.81489E-13
 -1      4041 1.91460E+01 8.14825E-01 3.59112E-03 5.13656E-01 9.29491E-14 2.44012E-13
 -1      4042 1.95052E+01 6.39040E-01-1.44250E-03 4.21588E-01 7.17874E-14 3.11701E-14
 -1      4043 1.94590E+01 6.71061E-01 1.03743E-03 4.70686E-01 8.67083E-14 8.21346E-14
 -1      4044 1.93221E+01 7.40593E-01 1.86060E-03 4.17761E-01 1.18331E-13 3.14011E-13
 -1      4045 1.94325E+01 6.81383E-01-7.34456E-04 3.44712E-01 8.92452E-14 2.66899E-13
 -1      4046 1.71851E+01 4.86284E-02 6.63075E-03-2.38804E+00 6.32610E-14-2.05913E-13
 -1      4047 1.85148E+01 7.62163E-01 4.09501E-03-1.19806E+00-7.15098E-14-9.26227E-14
 -1      4048 1.86200E+01 7.86132E-01-6.99678E-03-1.07349E+00-7.92564E-14-1.18016E-13
 -1      4049 1.81024E+01 8.67551E-01 7.82031E-03-1.13128E+00-9.75067E-14-8.89207E-14
 -1      4050 1.94773E+01 6.60076E-01-1.11933E-03 1.25369E-01 5.19068E-14 2.40683E-14
 -1      4051 1.95074E+01 6.42194E-01-8.82061E-04 2.06233E-01 3.83043E-14 9.80914E-14
 -1      4052 1.94489E+01 6.81016E-01 1.64298E-03 2.37872E-01 1.68067E-13 1.47460E-13
 -1      4053 1.93943E+01 7.13275E-01 2.10020E-03 8.48855E-02 1.04393E-13 1.03065E-13
 -1      4054 1.45387E+01 1.04534E+00 6.18352E-02-9.02276E-01-2.51654E-14-2.81256E-13
 -1      4055 1.54496E+01 5.73315E-01-2.02876E-02-1.79153E+00-1.24544E-14-3.59101E-13
 -1      4056 2.03692E+01 1.04056E+00 4.44849E-03-3.25898E-02 1.66639E-14-2.42553E-13
 -1      4057 2.03219E+01 1.21376E+00-2.01126E-03-6.76507E-02 1.75248E-14-2.59172E-13
 -1      4058 1.79474E+01 6.34680E-01-1.42767E-02 1.53002E+00 3.08734E-14 5.68684E-13
 -1      4059 1.78477E+01 4.85138E-01 1.13632E-04 1.75019E+00-4.78501E-14 5.46319E-13
 -1      4060 1.71858E+01 7.69225E-01 2.64677E-02 1.55543E+00-2.19358E-14 3.86685E-13
 -1      4061 1.77220E+01 8.68673E-01 1.39989E-02 1.27167E+00-2.88642E-14 4.82587E-13
 -1      4062 1.90802E+01 7.59097E-01 1.20269E-03-7.88497E-01 6.81079E-14-4.63699E-14
 -1      4063 1.91753E+01 7.22445E-01-4.21957E-03-7.12399E-01 9.68247E-14 2.48962E-14
 -1      4064 1.91293E+01 7.64682E-01 3.75246E-03-5.82847E-01 4.71008E-14-1.44645E-14
 -1      4065 1.73731E+01 5.83468E-01 1.33989E-02-1.74119E+00-2.72496E-13-2.38478E-14
 -1      4066 1.74933E+01 7.11371E-01-1.61360E-02-1.51849E+00-1.47532E-13-5.60781E-14
 -1      4067 1.72992E+01 9.57859E-01 1.87837E-02-1.22746E+00-2.63356E-13-3.56611E-13
 -1      4068 2.03715E+01 4.67979E-01-4.65346E-04 3.65927E-02-5.99744E-14-1.99513E-13
 -1      4069 2.03519E+01 3.83910E-01-1.07315E-03 7.69032E-02-6.14657E-14-1.75670E-13
 -1      4070 1.94921E+01 6.50073E-01-1.63403E-03-3.22791E-01 8.91668E-14-3.15471E-13
 -1      4071 1.98252E+01 3.82391E-01 4.33691E-04-3.81001E-01 5.50535E-14-7.57523E-14
 -1      4072 1.98793E+01 3.37567E-01-1.58015E-03-3.48431E-01 3.85001E-14-7.67727E-14
 -1      4073 1.88138E+01 7.95434E-01 2.26728E-03-9.65533E-01-2.82832E-14-1.01101E-13
 -1      4074 1.89174E+01 7.81519E-01-5.39589E-03-8.69424E-01 3.96917E-14-8.00255E-14
 -1      4075 1.88422E+01 8.49161E-01 4.67300E-03-7.14817E-01 4.76017E-14-2.27845E-15
 -1      4076 2.03334E+01 1.06338E+00-2.98805E-03 1.85345E-01 1.54719E-13-1.34990E-13
 -1      4077 2.03300E+01 1.13734E+00-5.68395E-04 1.44692E-01 1.28218E-13-1.79856E-13
 -1      4078 2.03698E+01 9.79378E-01 3.88436E-03 8.37648E-02 1.21138E-13-1.64419E-13
 -1      4079 2.03632E+01 8.34249E-01 1.65305E-03 1.02217E-01 1.28549E-13-1.23888E-13
 -1      4080 1.66673E+01 4.10907E-01 1.65720E-02-2.08006E+00 6.30763E-14-3.04230E-13
 -1      4081 2.03667E+01 5.47997E-01 2.42454E-04-1.03169E-02 1.09906E-13-1.43860E-13
 -1      4082 2.03696E+01 6.73115E-01-1.38441E-03 5.14963E-02 1.16005E-13-1.26640E-13
 -1      4083 2.03763E+01 7.52824E-01 6.53803E-04 5.12777E-02 1.21755E-13-1.25917E-13
 -1      4084 2.03792E+01 7.72689E-01-1.50910E-03-5.85586E-02-7.21710E-15-2.40958E-13
 -1      4085 2.03811E+01 5.77209E-01-4.92897E-05 1.04557E-02-4.36763E-14-2.27794E-13
 -1      4086 2.03873E+01 5.60743E-01 9.60521E-04 1.59634E-02-4.59986E-14-2.37122E-13
 -1      4087 2.03819E+01 8.25882E-01-2.40913E-04-3.97815E-02 1.15122E-16-2.63717E-13
 -1      4088 2.03293E+01 3.18471E-01 9.35812E-05 9.92911E-02-5.47266E-14-1.66227E-13
 -1      4089 2.02990E+01 2.70987E-01-6.67239E-04 1.28723E-01-3.07714E-14-1.53786E-13
 -1      4090 2.03546E+01 3.80543E-01 7.11445E-04 6.70274E-02-4.96643E-14-1.75318E-13
 -1      4091 2.02930E+01 2.78246E-01 4.92063E-04 1.06630E-01-3.38027E-14-1.20619E-13
 -1      4092 1.93710E+01 6.58805E-01 2.96112E-03-4.80329E-01 2.02836E-14 3.15388E-14
 -1      4093 1.95110E+01 5.84024E-01 5.30261E-04-5.39683E-01-8.64407E-15-1.15248E-14
 -1      4094 1.95836E+01 5.31198E-01-2.65579E-03-4.90150E-01 1.74082E-14-1.57942E-14
 -1      4095 1.63408E+01 7.18994E-01 1.61851E-02-1.73032E+00-3.65646E-13-1.88135E-14
 -1      4096 2.03380E+01 3.61530E-01 1.29301E-04-9.28885E-02 4.50279E-14-1.57191E-13
 -1      4097 2.03556E+01 4.41653E-01-8.31748E-04-4.73702E-02 6.61179E-14-1.58360E-13
 -1      4098 2.03724E+01 4.98408E-01 2.41882E-04-3.31324E-02 8.80738E-14-9.89675E-14
 -1      4099 1.57219E+01 6.29274E-01-7.32633E-03 1.67815E+00-1.58987E-13 3.54560E-14
 -1      4100 1.49894E+01 1.05426E+00 6.16335E-02 1.04350E+00-2.40585E-13-1.97411E-13
 -1      4101 1.51540E+01 1.07009E+00-1.29362E-02 3.96613E-01-1.68915E-13-2.98667E-13
 -1      4102 1.61159E+01 8.01859E-01-2.77424E-02 1.39164E+00-1.14439E-13 5.46681E-14
 -1      4103 2.01592E+01 1.87233E-01 1.26720E-04-2.60096E-01 1.90184E-14-4.96061E-14
 -1      4104 1.94118E+01 6.97018E-01-5.35318E-04-3.67661E-01 4.64702E-14-2.86877E-13
 -1      4105 1.63637E+01 7.72741E-01-2.12851E-02-1.43570E+00 8.74491E-14-3.32386E-13
 -1      4106 1.92845E+01 7.63869E-01 1.55618E-03-3.01142E-01 1.51159E-13-3.88822E-13
 -1      4107 1.51773E+01 8.73975E-01 1.51765E-02-1.17270E+00-3.59917E-13-2.27993E-13
 -1      4108 1.49143E+01 1.03890E+00 2.10117E-02-3.03089E-01 3.74110E-14-1.64973E-13
 -1      4109 2.03773E+01 8.86201E-01-2.48309E-03 3.59523E-02 8.48122E-14-1.46475E-13
 -1      4110 2.03780E+01 9.02313E-01-2.09523E-03 8.51676E-03 5.82091E-14-1.91022E-13
 -1      4111 1.92798E+01 7.60524E-01-1.86264E-03 5.79853E-02 9.18030E-14 4.19263E-14
 -1      4112 1.93006E+01 7.53071E-01-2.27250E-04 1.37685E-01 1.15505E-13 1.17288E-13
 -1      4113 2.03804E+01 8.91940E-01-1.12673E-03-5.32715E-03 3.69557E-14-2.04140E-13
 -1      4114 2.03807E+01 8.52802E-01-2.80618E-03-3.17956E-02 1.60936E-14-2.46488E-13
 -1      4115 2.04011E+01 7.07403E-01 2.64712E-03-6.34269E-03-5.03624E-15-2.37114E-13
 -1      4116 2.04028E+01 7.49685E-01 2.83825E-03 3.94439E-03 5.48805E-14-1.76773E-13
 -1      4117 1.98937E+01 3.44517E-01 1.17129E-03-2.83959E-01 1.40611E-15-7.07049E-14
 -1      4118 1.99494E+01 2.98459E-01 3.66898E-04-3.24204E-01-9.57840E-15-8.55359E-14
 -1      4119 1.99968E+01 2.63860E-01-1.11999E-03-2.97152E-01-3.57250E-14-7.45120E-14
 -1      4120 1.96805E+01 4.80495E-01 4.61536E-04-4.51533E-01 2.61250E-14-1.11710E-14
 -1      4121 1.97430E+01 4.29377E-01-2.08241E-03-4.11453E-01 3.89817E-14-3.54627E-14
 -1      4122 1.95747E+01 5.46269E-01 2.27446E-03-3.99512E-01 3.50531E-14 2.49406E-14
 -1      4123 1.52127E+01 7.39059E-01 4.59699E-02 1.70271E+00 5.15055E-14-2.57173E-15
 -1      4124 1.49894E+01 8.82952E-01-3.16462E-02 1.09813E+00 7.44457E-15 7.95596E-14
 -1      4125 2.02305E+01 2.11343E-01-1.31536E-04-1.92704E-01 2.13172E-14-1.07512E-13
 -1      4126 2.02636E+01 2.32493E-01-8.73657E-05-1.65423E-01 1.81447E-14-1.09367E-13
 -1      4127 1.85014E+01 8.92753E-01 5.74716E-03-8.89554E-01-3.81922E-14-5.55264E-14
 -1      4128 1.97470E+01 4.38449E-01 1.68129E-03-3.35346E-01 1.78860E-14-5.56875E-14
 -1      4129 1.65356E+01 4.61194E-01-2.05584E-02 1.93180E+00 1.36200E-13 2.11716E-13
 -1      4130 1.63275E+01 1.99600E-01 6.27211E-03 2.29338E+00 1.13159E-13 2.29385E-13
 -1      4131 2.02914E+01 2.60403E-01-1.21160E-04-1.48513E-01 1.67861E-14-1.24207E-13
 -1      4132 2.03184E+01 3.07927E-01-3.12432E-04-1.14399E-01 3.44943E-14-1.30430E-13
 -1      4133 2.03390E+01 3.48479E-01 1.72119E-04-9.08310E-02 2.10890E-14-9.89115E-14
 -1      4134 2.02906E+01 2.68698E-01 2.24116E-04-1.31231E-01-3.08750E-15-1.02128E-13
 -1      4135 1.62023E+01 8.49961E-01 1.49379E-02 1.43932E+00 1.14734E-13 1.23594E-13
 -1      4136 1.92643E+01 7.69094E-01-1.51319E-03-1.68327E-01 1.10057E-13-4.22190E-13
 -1      4137 1.92448E+01 7.80828E-01-6.58978E-04-6.59000E-02 9.36300E-14-2.58874E-13
 -1      4138 1.91510E+01 8.30517E-01 1.96720E-03-1.18995E-02 2.63590E-14-1.98347E-13
 -1      4139 1.91324E+01 8.32731E-01 1.05400E-03-2.75343E-01 1.59905E-14-4.26340E-13
 -1      4140 2.03783E+01 7.89134E-01-2.67038E-03 5.27079E-02 1.08570E-13-1.46828E-13
 -1      4141 2.03793E+01 8.54524E-01-2.68394E-04 4.11292E-02 8.85292E-14-1.30082E-13
 -1      4142 2.03998E+01 7.26112E-01 2.80652E-03 1.14355E-02 9.05357E-14-1.33517E-13
 -1      4143 2.03915E+01 6.48553E-01 1.90770E-03 7.41233E-03 1.02492E-13-1.21872E-13
 -1      4144 2.01332E+01 2.47964E-01-7.77333E-04 1.09829E-01-3.50703E-15-1.14951E-13
 -1      4145 2.00776E+01 2.65321E-01-8.53632E-05 1.24036E-01 1.06837E-14-1.21719E-13
 -1      4146 2.00107E+01 2.90305E-01-8.50501E-04 1.30496E-01 8.76048E-15-1.03875E-13
 -1      4147 1.99448E+01 3.24431E-01-4.51171E-04 1.44789E-01-1.27292E-14-9.88760E-14
 -1      4148 2.00442E+01 2.90395E-01 1.54886E-03 7.22634E-02 9.29947E-15-1.24101E-13
 -1      4149 1.98651E+01 3.65835E-01-1.41151E-03 1.53331E-01 3.03460E-15-1.30229E-13
 -1      4150 1.97888E+01 4.14080E-01-3.91504E-04 1.70136E-01-2.21173E-14-8.89603E-14
 -1      4151 1.98996E+01 3.62387E-01 2.40816E-03 8.52015E-02-2.18565E-14-1.72221E-13
 -1      4152 1.96946E+01 4.65815E-01-1.98213E-03 1.80708E-01-7.30357E-14-7.59891E-14
 -1      4153 1.96048E+01 5.23719E-01-6.74878E-04 2.00518E-01-6.60968E-14-1.28156E-13
 -1      4154 1.97323E+01 4.60783E-01 3.85610E-03 1.00369E-01-2.76780E-14-1.91541E-13
 -1      4155 1.94926E+01 5.82915E-01-2.58913E-03 2.14349E-01-4.22330E-14-9.52441E-14
 -1      4156 1.93856E+01 6.46392E-01-1.02908E-03 2.38298E-01 8.09590E-15-8.89199E-14
 -1      4157 1.95332E+01 5.79679E-01 5.45098E-03 1.18620E-01-9.72269E-15-1.21792E-13
 -1      4158 1.92511E+01 7.08566E-01-3.39246E-03 2.56272E-01 7.24189E-14-1.30299E-13
 -1      4159 1.91226E+01 7.73038E-01-1.46159E-03 2.85707E-01 6.24024E-14-8.92314E-14
 -1      4160 1.92955E+01 7.10983E-01 7.46722E-03 1.41303E-01 1.47202E-14-1.28920E-13
 -1      4161 1.89593E+01 8.32984E-01-4.50284E-03 3.09051E-01 3.27401E-14-8.48259E-14
 -1      4162 1.88041E+01 8.93014E-01-1.98182E-03 3.46037E-01 3.85055E-14-8.96572E-14
 -1      4163 1.90090E+01 8.46006E-01 1.01096E-02 1.69740E-01 7.05349E-14-2.65597E-13
 -1      4164 1.86031E+01 9.44443E-01-6.13788E-03 3.76715E-01 4.69460E-14-2.56846E-14
 -1      4165 1.84142E+01 9.93545E-01-2.63715E-03 4.24982E-01 6.42488E-14-1.76559E-14
 -1      4166 1.86598E+01 9.74966E-01 1.37000E-02 2.05989E-01 7.29941E-14-1.43616E-13
 -1      4167 1.81618E+01 1.02937E+00-8.62981E-03 4.66520E-01 1.17617E-13 1.86951E-14
 -1      4168 1.79312E+01 1.06006E+00-2.94532E-03 5.33068E-01 2.09387E-13 2.14020E-14
 -1      4169 1.82278E+01 1.08694E+00 1.86151E-02 2.53282E-01 1.39863E-13-4.59214E-14
 -1      4170 1.76044E+01 1.06874E+00-1.30918E-02 5.95280E-01 2.08761E-13 5.49519E-14
 -1      4171 1.73247E+01 1.07104E+00-2.33237E-03 6.91568E-01 1.40178E-13 5.49430E-14
 -1      4172 1.76754E+01 1.17070E+00 2.38258E-02 3.17509E-01 2.02025E-13-4.83609E-14
 -1      4173 1.68964E+01 1.05708E+00-1.21162E-02 7.84389E-01 8.31388E-14 7.70975E-14
 -1      4174 1.65570E+01 1.01402E+00 6.96235E-03 9.34859E-01 1.37195E-13 1.18138E-13
 -1      4175 1.69537E+01 1.18298E+00 2.03989E-02 4.16470E-01 1.50328E-13-4.52426E-14
 -1      4176 1.56211E+01 1.02870E+00 1.45919E-02 6.98581E-01 6.10675E-14 1.77081E-14
 -1      4177 1.50782E+01 1.16444E+00 3.69154E-02 2.48648E-01 5.63748E-14-3.41944E-14
 -1      4178 1.54424E+01 1.03671E+00-2.17754E-02-5.57298E-01 7.54865E-14-2.64100E-13
 -1      4179 2.03177E+01 3.02414E-01-5.13119E-04 6.44097E-02-1.24785E-14-1.04054E-13
 -1      4180 2.02817E+01 2.68666E-01-1.15537E-04 8.30473E-02-1.50951E-14-9.53796E-14
 -1      4181 2.01502E+01 2.04380E-01 7.24765E-05-2.35137E-01-3.46301E-15-6.72431E-14
 -1      4182 2.01880E+01 2.02150E-01-2.77596E-04-2.11268E-01 2.83379E-15-9.51523E-14
 -1      4183 2.02209E+01 2.28533E-01 3.28672E-04-1.68106E-01-7.10782E-15-1.10957E-13
 -1      4184 1.80815E+01 1.07566E+00-9.97182E-04-5.55137E-01 1.34147E-13-5.28265E-13
 -1      4185 1.82861E+01 1.04783E+00-7.49497E-03-4.82672E-01 4.08816E-14-4.04754E-13
 -1      4186 1.85168E+01 1.01280E+00-2.59227E-03-4.34924E-01 2.03593E-14-3.37110E-13
 -1      4187 1.86878E+01 9.68330E-01-5.72476E-03-3.83136E-01 4.95824E-14-3.45496E-13
 -1      4188 1.83202E+01 1.09767E+00 1.05080E-02-2.78637E-01 1.36211E-13-5.62507E-13
 -1      4189 1.88534E+01 9.31190E-01-8.63108E-04-3.46327E-01 5.06703E-14-3.79005E-13
 -1      4190 1.89925E+01 8.76986E-01-3.70666E-03-3.05075E-01 1.94066E-14-4.40881E-13
 -1      4191 1.89924E+01 8.93613E-01 2.54897E-03-1.64662E-01 5.90690E-15-4.08834E-13
 -1      4192 1.87054E+01 9.91767E-01 4.05845E-03-2.11506E-01 3.28099E-14-4.00886E-13
 -1      4193 2.00568E+01 2.36598E-01 2.55846E-04-2.77159E-01-2.91152E-14-5.84893E-14
 -1      4194 2.00990E+01 2.16026E-01-6.87684E-04-2.53111E-01 6.62176E-16-4.01204E-14
 -1      4195 2.00197E+01 2.72671E-01 7.59193E-04-2.41722E-01-1.69271E-14-7.12184E-14
 -1      4196 1.58531E+01 9.85049E-01-1.99422E-02-9.23979E-01-3.28541E-13-3.39800E-13
 -1      4197 1.93373E+01 7.31266E-01-1.35927E-03 2.08882E-01 7.06260E-14 6.02596E-14
 -1      4198 1.93784E+01 7.10262E-01-6.23480E-04 2.82201E-01 1.89502E-13-2.32117E-14
 -1      4199 1.93214E+01 7.39668E-01-2.53657E-04 3.16464E-01 2.06428E-13 3.26615E-15
 -1      4200 1.92312E+01 7.89430E-01 1.08492E-03 1.84693E-01 1.16218E-13 1.22074E-13
 -1      4201 2.02362E+01 2.48304E-01-5.62234E-04 8.88277E-02-3.65100E-14-5.77540E-14
 -1      4202 2.01901E+01 2.42830E-01-5.49172E-05 1.04218E-01-1.12563E-14-6.97890E-14
 -1      4203 2.02639E+01 2.72599E-01 6.00002E-04 4.82931E-02-1.37237E-14-6.80272E-14
 -1      4204 1.57109E+01 4.81685E-01 2.45934E-02 2.06727E+00 7.23816E-14 1.46144E-13
 -1      4205 1.80300E+01 1.01781E+00-8.17868E-03 7.48044E-01 9.47379E-15 3.12278E-13
 -1      4206 1.78141E+01 1.00411E+00-2.94178E-03 8.67043E-01-3.70310E-14 4.31923E-13
 -1      4207 1.84660E+01 9.84703E-01-7.85967E-03 5.88359E-01-1.77636E-14 3.43139E-13
 -1      4208 1.82927E+01 1.00752E+00-1.33452E-03 6.69721E-01 5.27522E-14 2.72890E-13
 -1      4209 1.80220E+01 1.09792E+00 7.52785E-03 5.13183E-01 6.66890E-15-7.03361E-14
 -1      4210 1.77186E+01 9.55214E-01-2.92920E-03-9.61251E-01-2.60402E-14-2.23367E-13
 -1      4211 1.79328E+01 9.67784E-01-1.23689E-02-8.35014E-01-6.69256E-14-1.77707E-13
 -1      4212 1.57237E+01 1.20557E+00 3.19267E-02-3.15442E-01-2.88444E-13-3.63109E-13
 -1      4213 1.65942E+01 1.04635E+00-5.82180E-03-8.50279E-01-3.65454E-13-3.33316E-13
 -1      4214 1.82195E+01 9.67303E-01-8.98202E-04-7.43894E-01-2.78816E-14-6.11437E-14
 -1      4215 1.84016E+01 9.44511E-01-8.31939E-03-6.57326E-01 5.15293E-14-2.81339E-14
 -1      4216 1.79279E+01 1.08623E+00 1.95289E-02-5.75065E-01 5.71484E-14-2.04079E-13
 -1      4217 1.91161E+01 8.23945E-01-2.32710E-03 3.71808E-01 8.29896E-14 2.92419E-13
 -1      4218 1.89915E+01 8.71818E-01-1.08431E-03 4.21618E-01 1.87521E-13 2.91137E-13
 -1      4219 1.96736E+01 4.81045E-01-3.58020E-04-2.72504E-01 1.35627E-14-6.75201E-14
 -1      4220 1.97529E+01 4.27274E-01-1.77380E-03-2.46765E-01-8.72987E-15-1.09158E-13
 -1      4221 1.89633E+01 8.26331E-01-8.47180E-04-4.79365E-01 1.74806E-14 1.87866E-14
 -1      4222 1.90936E+01 7.70570E-01-4.36794E-03-4.29813E-01 1.10534E-14-1.22434E-14
 -1      4223 2.03745E+01 4.25195E-01-2.55926E-04 3.48313E-02-2.93579E-14-1.55789E-13
 -1      4224 2.03507E+01 3.54540E-01-2.88802E-04 5.76157E-02-2.24232E-14-1.24150E-13
 -1      4225 2.03400E+01 3.44544E-01 1.64004E-04 3.37763E-02-2.84415E-15-1.13574E-13
 -1      4226 1.61081E+01 1.03521E+00 2.00285E-02-9.44445E-01 1.16432E-13-3.75420E-13
 -1      4227 1.69713E+01 8.66643E-01 2.03341E-03-1.24352E+00 1.39438E-13-3.44860E-13
 -1      4228 1.88271E+01 9.16696E-01-4.04103E-03 4.62771E-01 1.57011E-13 2.16569E-13
 -1      4229 1.86777E+01 9.57693E-01-8.01726E-04 5.25773E-01 5.96863E-14 3.10621E-13
 -1      4230 1.88388E+01 9.41982E-01 5.03516E-03 3.10897E-01 1.66349E-13 4.73594E-14
 -1      4231 1.86269E+01 9.16415E-01-8.96992E-04-5.91961E-01 6.55161E-14 2.62103E-14
 -1      4232 1.87811E+01 8.72562E-01-5.93017E-03-5.27856E-01 8.83534E-14 2.54791E-14
 -1      4233 1.84090E+01 1.01711E+00 1.47211E-02-4.51600E-01 1.22271E-13-6.86081E-14
 -1      4234 1.72231E+01 9.31367E-01-1.44857E-02-1.05613E+00 7.45272E-14-2.89126E-13
 -1      4235 1.75120E+01 1.08691E+00-6.45733E-03-7.16324E-01-1.52038E-13-4.21835E-13
 -1      4236 1.77795E+01 1.08438E+00-1.11355E-02-6.07869E-01 9.10986E-14-4.35725E-13
 -1      4237 1.78327E+01 1.15519E+00 1.24968E-02-3.48159E-01 7.59039E-14-3.67894E-13
 -1      4238 1.69420E+01 1.08417E+00-1.38571E-02-7.00111E-01-2.74738E-13-4.00075E-13
 -1      4239 1.92430E+01 7.14847E-01-7.10047E-04-3.93081E-01 5.51231E-14-1.29264E-14
 -1      4240 1.93531E+01 6.54344E-01-3.27136E-03-3.53799E-01 6.26684E-14 9.45998E-15
 -1      4241 1.91138E+01 7.92785E-01 8.11004E-03-2.93296E-01 3.00672E-14-2.83936E-14
 -1      4242 1.60726E+01 1.13408E+00-1.02017E-02-4.18674E-01 1.26980E-13-2.16145E-13
 -1      4243 1.60828E+01 1.02934E+00 7.72202E-03 9.48928E-01 9.38413E-14 6.38467E-14
 -1      4244 1.60329E+01 1.14435E+00-7.03113E-03 1.99992E-01 1.03001E-13-3.67133E-14
 -1      4245 1.66167E+01 8.78261E-01-6.62419E-03 1.26644E+00-5.21111E-15 1.12658E-13
 -1      4246 1.61066E+01 1.09548E+00 3.04334E-02 8.83039E-01-9.86238E-14-1.90403E-13
 -1      4247 1.69278E+01 9.30945E-01-1.68027E-02 1.12461E+00 2.13743E-14 2.65055E-13
 -1      4248 2.02062E+01 2.33513E-01-2.68739E-04-1.38514E-01-3.49533E-16-1.27786E-13
 -1      4249 2.02500E+01 2.44545E-01-4.45681E-05-1.19189E-01 7.19100E-15-1.31858E-13
 -1      4250 1.70072E+01 1.19644E+00 1.35158E-02-3.43582E-01-2.08536E-13-3.61562E-13
 -1      4251 2.01283E+01 2.31187E-01 5.58174E-04-2.04494E-01-1.28096E-14-7.11778E-14
 -1      4252 1.95701E+01 5.36522E-01-2.44797E-03-2.94085E-01 8.73304E-15-4.16333E-14
 -1      4253 1.95960E+01 5.39391E-01 4.28368E-03-2.00637E-01-4.18239E-15-1.40151E-13
 -1      4254 1.94769E+01 5.96010E-01-5.33895E-04-3.25682E-01-5.82008E-15-3.34878E-14
 -1      4255 2.03940E+01 5.95519E-01-1.84093E-03-3.15391E-03 9.05011E-14-1.34511E-13
 -1      4256 2.03961E+01 6.33500E-01-3.27017E-04-1.34626E-03 8.94422E-14-1.30205E-13
 -1      4257 2.03988E+01 6.22049E-01-8.79278E-04-4.24638E-03 8.56519E-14-1.60649E-13
 -1      4258 1.90843E+01 8.45596E-01-2.02099E-03 1.92185E-01 1.16012E-13 1.75382E-13
 -1      4259 1.91351E+01 8.28741E-01 1.75239E-03 2.65214E-01 1.29839E-13 1.97718E-13
 -1      4260 1.59033E+01 1.12697E+00-1.10801E-02 2.97816E-01-1.89115E-13-2.68082E-13
 -1      4261 2.03802E+01 5.27609E-01-1.74316E-03-1.86227E-02 1.02312E-13-1.06558E-13
 -1      4262 2.03892E+01 5.71193E-01 2.77072E-04-1.18144E-02 8.91541E-14-1.27085E-13
 -1      4263 2.03909E+01 4.95436E-01 2.39073E-03-2.59421E-02 8.61681E-14-1.41399E-13
 -1      4264 2.03708E+01 4.33399E-01 6.40199E-04-5.45875E-02 6.67724E-14-1.01709E-13
 -1      4265 1.84678E+01 1.04706E+00 9.17119E-03 3.94651E-01 3.09876E-14 9.07885E-14
 -1      4266 1.87963E+01 9.14547E-01 1.09209E-02-3.61190E-01 6.86137E-14-1.73648E-14
 -1      4267 2.01639E+01 2.58326E-01 7.65465E-04 6.02434E-02-2.39938E-14-7.04715E-14
 -1      4268 1.71788E+01 1.11239E+00 1.98641E-02-7.04409E-01 6.64292E-14-3.99436E-13
 -1      4269 1.92591E+01 7.66871E-01-7.29818E-04 3.54499E-01 1.24973E-13 2.29725E-13
 -1      4270 1.75344E+01 9.89437E-01-1.18345E-02 9.32313E-01-1.63874E-13 3.60326E-13
 -1      4271 1.72846E+01 9.63921E-01-6.32076E-03 1.03681E+00-1.12628E-13 3.16426E-13
 -1      4272 1.68987E+01 1.11082E+00 1.13512E-02 7.34306E-01-3.99000E-14-9.27934E-14
 -1      4273 1.74988E+01 1.12017E+00 8.16900E-03 6.29696E-01-1.40571E-13-1.20577E-13
 -1      4274 2.02700E+01 2.68321E-01-4.99217E-05-8.21285E-02 2.29681E-14-1.39737E-13
 -1      4275 2.02837E+01 2.64069E-01-7.32741E-05-1.11368E-01 1.87044E-15-1.24617E-13
 -1      4276 2.03131E+01 2.92925E-01 2.10612E-04-9.25431E-02 5.08956E-15-1.27945E-13
 -1      4277 1.97804E+01 4.27244E-01 2.81951E-03-1.68766E-01 1.85420E-15-1.02167E-13
 -1      4278 1.98401E+01 3.79219E-01-1.78523E-04-2.30097E-01 1.34030E-14-1.18132E-13
 -1      4279 1.99086E+01 3.35114E-01-1.12403E-03-2.08434E-01 6.88447E-15-1.35341E-13
 -1      4280 1.89898E+01 8.88211E-01-1.97925E-03-4.75650E-02-1.09732E-14-2.86503E-13
 -1      4281 1.90382E+01 8.74945E-01 1.58167E-03 8.37348E-02 4.05584E-14 4.94338E-14
 -1      4282 1.89278E+01 9.11261E-01-4.79598E-04 1.70867E-01 6.89345E-14-1.79370E-15
 -1      4283 1.88641E+01 9.38422E-01 1.83934E-04-6.63870E-02-1.15687E-14-2.49662E-13
 -1      4284 2.03941E+01 6.00769E-01-1.69200E-03 1.07384E-03-1.55644E-15-1.99952E-13
 -1      4285 2.03873E+01 4.96802E-01 2.18607E-04 2.65685E-02-1.19320E-14-1.72715E-13
 -1      4286 2.03836E+01 4.70380E-01 5.13354E-04 1.70551E-02 2.11303E-14-1.02117E-13
 -1      4287 2.03986E+01 6.32939E-01-1.13313E-04 1.02516E-03 5.20254E-14-1.71756E-13
 -1      4288 2.00721E+01 2.74521E-01-1.18256E-03 1.10161E-02-8.67453E-15-9.30241E-14
 -1      4289 2.00050E+01 3.00756E-01-9.81835E-04 1.73114E-02-1.79956E-14-1.39028E-13
 -1      4290 1.99119E+01 3.45129E-01-1.03106E-03-3.55191E-02-9.51168E-15-1.31784E-13
 -1      4291 1.98306E+01 3.88637E-01-1.51880E-03-3.18414E-02-1.71748E-15-1.09653E-13
 -1      4292 1.97420E+01 4.37459E-01-2.52538E-03-4.29383E-02-9.88901E-16-1.21878E-13
 -1      4293 1.96468E+01 4.93412E-01-2.51619E-03-3.88035E-02 1.23797E-14-8.38839E-14
 -1      4294 1.95419E+01 5.50708E-01-3.62927E-03-5.24255E-02 7.60066E-15-1.05034E-13
 -1      4295 1.94287E+01 6.14427E-01-3.66877E-03-4.76448E-02 2.08963E-14-6.03972E-14
 -1      4296 1.93034E+01 6.76014E-01-4.95779E-03-6.47965E-02-1.31758E-16-1.31535E-13
 -1      4297 1.91672E+01 7.43207E-01-5.13917E-03-5.92570E-02 1.21212E-14-1.58693E-13
 -1      4298 1.90159E+01 8.04161E-01-6.69279E-03-8.12275E-02 1.70162E-14-1.74986E-13
 -1      4299 1.88502E+01 8.69991E-01-7.10636E-03-7.46652E-02 6.11695E-14-1.91286E-13
 -1      4300 1.86657E+01 9.24486E-01-9.03906E-03-1.03455E-01 1.03617E-13-1.66024E-13
 -1      4301 1.84614E+01 9.83397E-01-9.80811E-03-9.54530E-02 1.18854E-13-1.02429E-13
 -1      4302 1.82336E+01 1.02469E+00-1.21938E-02-1.34148E-01 1.18592E-13-1.43435E-13
 -1      4303 1.79781E+01 1.07070E+00-1.32507E-02-1.24519E-01 1.67128E-13-9.39997E-14
 -1      4304 1.76940E+01 1.09066E+00-1.59129E-02-1.77281E-01 1.09757E-13-1.46131E-13
 -1      4305 1.73814E+01 1.12488E+00-1.27506E-02-1.66354E-01 1.10751E-13-1.54929E-13
 -1      4306 1.76069E+01 1.16178E+00-8.04193E-03-1.07405E-01 3.30996E-15-2.16078E-13
 -1      4307 1.78870E+01 1.13626E+00-9.51133E-03-7.54015E-02 7.09758E-14-2.36756E-13
 -1      4308 1.81119E+01 1.10450E+00-4.93098E-03 7.51975E-02 3.04526E-14-1.93270E-13
 -1      4309 1.83371E+01 1.06418E+00-5.44942E-03 8.17388E-02 7.20832E-15-2.15198E-13
 -1      4310 2.01547E+01 2.34407E-01-4.18530E-04-1.48553E-01-3.91393E-14-1.33153E-13
 -1      4311 2.01843E+01 2.50400E-01 5.15230E-04-1.00808E-01-1.24470E-14-1.30562E-13
 -1      4312 2.01037E+01 2.46752E-01-1.12278E-04-1.66373E-01-3.90762E-14-1.03358E-13
 -1      4313 1.87540E+01 9.60180E-01-3.30664E-03 2.02445E-01 1.12248E-13-3.26134E-14
 -1      4314 2.03979E+01 5.34960E-01 1.30408E-03-2.27553E-03 7.66895E-14-1.21472E-13
 -1      4315 1.63802E+01 1.15282E+00-7.25170E-03 2.66860E-01-2.17349E-13-2.07653E-13
 -1      4316 1.68828E+01 1.14165E+00-1.36879E-02-1.70540E-01 1.58984E-13-1.95963E-13
 -1      4317 2.02735E+01 2.71357E-01-5.60159E-04-2.04846E-02 2.23274E-14-1.06194E-13
 -1      4318 2.02280E+01 2.54238E-01 8.43390E-05-1.65507E-02 7.42139E-15-7.03930E-14
 -1      4319 1.85521E+01 1.02032E+00-4.02869E-03 5.69727E-02 7.61045E-14-2.26809E-13
 -1      4320 1.64790E+01 1.14304E+00-4.80323E-03-1.60064E-01 1.49687E-13-1.52459E-13
 -1      4321 2.03411E+01 3.43242E-01-4.09864E-04-1.65006E-02-5.63225E-15-1.02858E-13
 -1      4322 2.03085E+01 2.95719E-01 6.66195E-04-1.23471E-02 6.33953E-16-1.12162E-13
 -1      4323 2.03348E+01 3.26613E-01-1.58774E-04-8.81753E-02 2.21427E-14-1.05212E-13
 -1      4324 2.03550E+01 3.76688E-01-6.71353E-04-6.50392E-02 4.61172E-14-1.12690E-13
 -1      4325 2.03636E+01 4.05229E-01-1.45916E-03-4.92777E-02 6.16519E-14-1.28074E-13
 -1      4326 2.03288E+01 3.19824E-01-4.28860E-04-6.73651E-02 1.47906E-14-1.09557E-13
 -1      4327 2.01750E+01 2.51697E-01-7.13903E-04-2.52141E-02-4.89906E-14-6.53436E-14
 -1      4328 2.01185E+01 2.61039E-01 5.51250E-05-2.20825E-02-3.49732E-14-8.27776E-14
 -1      4329 1.99821E+01 2.98186E-01-2.13718E-04-1.96197E-01-1.20811E-14-1.24271E-13
 -1      4330 2.00409E+01 2.68428E-01-7.63192E-04-1.77193E-01-7.01249E-15-9.16782E-14
 -1      4331 2.00709E+01 2.72792E-01 7.53508E-04-1.20917E-01-3.88581E-14-1.42814E-13
 -1      4332 1.99362E+01 3.31196E-01 4.17335E-05-1.41704E-01-3.26964E-15-1.17305E-13
 -1      4333 1.67387E+01 1.20804E+00-3.51330E-03 2.39906E-02-2.36366E-13-1.30973E-13
 -1      4334 1.73106E+01 1.18379E+00-2.20787E-03-5.90141E-02-2.30128E-14-1.20848E-13
 -1      4335 1.93766E+01 6.64218E-01 5.97216E-03-2.41192E-01-5.23957E-15-1.42258E-13
 -1      4336 1.80066E+01 1.12783E+00 3.46071E-03 3.07553E-01-3.11643E-14-1.42792E-13
 -1      4337 1.77626E+01 1.13416E+00 1.39774E-03 3.57544E-01-5.71052E-14-2.62186E-13
 -1      4338 1.74389E+01 1.14411E+00-5.27349E-03 4.54770E-01-2.61138E-13-4.45465E-14
 -1      4339 1.71794E+01 1.14090E+00-2.69985E-03 4.98996E-01-2.45539E-13-7.33074E-14
 -1      4340 1.87001E+01 9.97002E-01 3.06146E-03-8.93358E-02 6.13993E-14-2.94202E-13
 -1      4341 1.74740E+01 1.19535E+00 8.24893E-03 2.29680E-01-1.13160E-13-8.06590E-14
 -1      4342 2.03843E+01 4.58932E-01-9.57214E-04 1.37407E-03 5.15908E-14-1.19532E-13
 -1      4343 2.03744E+01 4.36499E-01 4.25335E-04-3.47740E-02 5.77156E-14-1.24272E-13
 -1      4344 2.03644E+01 3.86199E-01 1.14406E-03-1.51754E-02 1.23748E-14-9.75122E-14
 -1      4345 2.00869E+01 2.68718E-01-1.64708E-04-7.95807E-02-5.21593E-14-1.16341E-13
 -1      4346 1.68311E+01 1.13954E+00-9.63326E-04 5.58961E-01-8.99800E-14-9.13537E-14
 -1      4347 1.99534E+01 3.29134E-01 9.00036E-04-9.65206E-02-2.47662E-14-7.16322E-14
 -1      4348 2.00266E+01 2.91142E-01 7.60657E-04-8.72366E-02-2.29685E-14-1.06725E-13
 -3
    1PSTEP                         3           1           1          
  100CL  101 1.000000000        4348                     0    1           1
 -4  TOSTRAIN    6    1
 -5  EXX         1    4    1    1
 -5  EYY         1    4    2    2
 -5  EZZ         1    4    3    3
 -5  EXY         1    4    1    2
 -5  EYZ         1    4    2    3
 -5  EZX         1    4    3    1
 -1         1 7.38562E-05 2.35232E-05-3.94707E-05 8.76484E-05-9.10984E-18-1.15239E-17
 -1         2 3.61363E-05-1.09760E-04 1.97217E-05-5.91604E-07 8.85097E-18 2.65518E-19
 -1         3 9.52145E-05-2.85949E-05-2.85121E-05-1.47031E-08-2.91511E-18-3.39782E-18
 -1         4 9.52141E-05-2.85948E-05-2.85113E-05 1.43782E-08 1.15763E-18 9.81305E-19
 -1         5 1.43163E-04-2.14520E-05-4.24732E-05 3.84979E-05-2.30869E-19 1.57002E-17
 -1         6 1.45228E-04 2.57180E-10-4.41312E-05-5.34775E-05-9.49842E-19 1.26407E-17
 -1         7 9.05081E-05-5.09257E-07-3.90268E-05-2.92416E-05-1.29384E-19 1.39424E-18
 -1         8 8.50700E-05 8.63831E-08-3.63159E-05-2.02731E-05-1.41137E-19-1.79905E-18
 -1         9 8.27982E-05 7.62249E-08-3.53437E-05-1.56454E-05-1.06898E-19-3.42799E-18
 -1        10 8.17926E-05 3.78561E-08-3.48882E-05-1.20805E-05-5.36476E-20-4.17526E-18
 -1        11 8.12946E-05 1.86276E-08-3.46696E-05-9.01230E-06-4.31524E-20-4.43454E-18
 -1        12 8.10420E-05 8.37251E-09-3.45628E-05-6.28173E-06 3.36332E-21-4.46374E-18
 -1        13 8.09116E-05 3.78516E-09-3.45099E-05-3.68317E-06 1.04035E-20-4.36593E-18
 -1        14 8.08578E-05 1.94926E-09-3.44887E-05-1.18271E-06 2.47666E-20-4.18023E-18
 -1        15 8.08598E-05 1.93957E-09-3.44895E-05 1.28792E-06 6.57100E-20-3.95339E-18
 -1        16 8.09180E-05 3.70663E-09-3.45122E-05 3.79351E-06 8.27553E-20-3.70100E-18
 -1        17 8.10537E-05 7.55432E-09-3.45665E-05 6.40432E-06 9.66412E-20-3.36992E-18
 -1        18 8.13115E-05 1.73061E-08-3.46748E-05 9.15479E-06 1.07997E-19-2.88815E-18
 -1        19 8.18138E-05 3.73723E-08-3.48961E-05 1.22595E-05 1.71835E-19-2.12334E-18
 -1        20 8.28206E-05 8.08654E-08-3.53560E-05 1.58742E-05 1.90027E-19-7.72746E-19
 -1        21 8.50355E-05 1.69269E-07-3.63538E-05 2.04844E-05 2.17264E-19 1.70314E-18
 -1        22 9.15446E-05-9.80793E-08-3.86985E-05 2.79899E-05 3.07049E-20 6.22755E-18
 -1        23 1.12802E-04-3.80684E-05-3.53452E-05-4.40241E-06-6.46736E-19 9.34701E-18
 -1        24 9.26411E-05-2.76482E-05-2.89496E-05 3.89727E-07-1.49372E-19 6.48298E-18
 -1        25 8.89557E-05-2.68033E-05-2.68799E-05 3.74614E-07-4.52567E-20 3.72239E-18
 -1        26 8.78554E-05-2.64409E-05-2.63435E-05 2.02476E-07-2.65889E-20 1.85590E-18
 -1        27 8.78916E-05-2.64223E-05-2.63388E-05 1.37835E-07 1.60494E-20 7.24279E-19
 -1        28 8.84479E-05-2.65658E-05-2.65155E-05 9.85700E-08-2.23653E-20 2.38751E-19
 -1        29 8.92473E-05-2.67923E-05-2.67619E-05 7.27314E-08 2.89849E-20-5.90892E-19
 -1        30 9.01495E-05-2.70558E-05-2.70358E-05 5.44131E-08 3.56827E-20-1.40999E-18
 -1        31 9.10847E-05-2.73326E-05-2.73184E-05 4.09228E-08 6.20360E-20-2.58232E-18
 -1        32 9.20257E-05-2.76130E-05-2.76028E-05 3.09984E-08-2.36517E-19-3.77988E-18
 -1        33 9.29743E-05-2.78970E-05-2.78899E-05 2.40593E-08 1.86695E-19-3.94854E-18
 -1        34 9.39542E-05-2.81911E-05-2.81867E-05 1.99020E-08-1.81249E-19-4.35784E-18
 -1        35 9.50059E-05-2.85073E-05-2.85056E-05 1.85787E-08 1.16160E-19-4.17472E-18
 -1        36 9.61832E-05-2.88615E-05-2.88627E-05 2.03527E-08 3.73809E-20-3.21416E-18
 -1        37 9.75509E-05-2.92727E-05-2.92774E-05 2.56755E-08-6.61087E-20-3.53088E-18
 -1        38 9.91793E-05-2.97619E-05-2.97706E-05 3.51419E-08-1.27624E-19-3.21722E-18
 -1        39 1.01138E-04-3.03492E-05-3.03627E-05 4.93575E-08-7.46063E-20-4.03285E-18
 -1        40 1.03481E-04-3.10505E-05-3.10687E-05 6.86088E-08-4.14637E-20-4.24998E-18
 -1        41 1.06224E-04-3.18701E-05-3.18915E-05 9.21449E-08 1.43922E-19-5.96386E-18
 -1        42 1.09310E-04-3.27898E-05-3.28093E-05 1.16798E-07-2.71071E-19-7.02705E-18
 -1        43 1.12547E-04-3.37528E-05-3.37592E-05 1.34704E-07 7.60305E-20-7.25618E-18
 -1        44 1.15542E-04-3.46426E-05-3.46168E-05 1.30391E-07 1.08862E-19-4.12335E-18
 -1        45 1.17642E-04-3.52663E-05-3.51834E-05 7.92733E-08-4.07282E-19-3.37077E-18
 -1        46 1.17945E-04-3.53578E-05-3.52001E-05-4.71111E-08 3.64373E-20-4.17283E-18
 -1        47 1.15502E-04-3.46347E-05-3.44166E-05-2.61675E-07 1.10180E-21-3.46413E-18
 -1        48 1.09799E-04-3.29390E-05-3.27367E-05-5.24369E-07-1.77215E-20-3.33519E-18
 -1        49 1.01457E-04-3.04479E-05-3.03902E-05-7.12399E-07-1.03522E-19-5.41156E-18
 -1        50 9.26808E-05-2.78153E-05-2.80044E-05-6.61356E-07-8.28818E-20-6.07518E-18
 -1        51 8.67176E-05-2.60205E-05-2.64199E-05-3.04224E-07 6.27962E-20-4.48149E-18
 -1        52 8.61757E-05-2.58570E-05-2.62774E-05 2.15522E-07 1.20338E-19-3.18094E-18
 -1        53 9.13069E-05-2.74022E-05-2.76366E-05 6.19054E-07 1.68085E-19-3.48591E-18
 -1        54 9.98222E-05-2.99584E-05-2.99397E-05 7.24560E-07 3.80899E-21-3.47051E-18
 -1        55 1.08440E-04-3.25339E-05-3.23476E-05 5.67481E-07-8.21887E-20-4.32508E-18
 -1        56 1.14696E-04-3.43955E-05-3.41730E-05 3.07034E-07-7.05866E-20-7.49739E-18
 -1        57 1.17702E-04-3.52864E-05-3.51151E-05 7.86800E-08 2.73183E-19-8.35234E-18
 -1        58 1.17822E-04-3.53202E-05-3.52246E-05-6.37020E-08 7.61370E-20-7.74764E-18
 -1        59 1.15974E-04-3.47709E-05-3.47366E-05-1.26276E-07-2.26095E-19-6.97505E-18
 -1        60 1.13090E-04-3.39147E-05-3.39168E-05-1.36887E-07 3.80819E-20-5.35216E-18
 -1        61 1.09879E-04-3.29597E-05-3.29777E-05-1.21541E-07 6.01276E-19-3.75050E-18
 -1        62 1.06779E-04-3.20362E-05-3.20576E-05-9.72685E-08-9.93810E-20-2.02793E-18
 -1        63 1.04017E-04-3.12118E-05-3.12307E-05-7.30194E-08-5.62676E-19-3.25146E-18
 -1        64 1.01678E-04-3.05125E-05-3.05269E-05-5.25271E-08-4.92058E-19-4.81715E-18
 -1        65 9.97675E-05-2.99400E-05-2.99500E-05-3.67114E-08-2.99627E-19-1.88271E-18
 -1        66 9.82486E-05-2.94842E-05-2.94907E-05-2.51531E-08-3.60640E-19-2.02397E-18
 -1        67 9.70732E-05-2.91309E-05-2.91355E-05-1.68023E-08 1.45717E-18 1.64745E-18
 -1        68 9.61976E-05-2.88671E-05-2.88719E-05-1.01010E-08-8.86425E-19 3.10234E-18
 -1        69 9.55930E-05-2.86841E-05-2.86916E-05-2.63506E-09 5.19055E-19 2.42569E-19
 -1        70 9.52511E-05-2.85789E-05-2.85889E-05 1.08119E-08-2.28749E-19 2.33109E-18
 -1        71 9.51700E-05-2.85503E-05-2.85488E-05 2.76356E-08-2.44965E-19 2.47396E-18
 -1        72 1.02016E-04-3.05377E-05-3.40991E-05-1.92415E-06 1.72768E-19 1.47056E-17
 -1        73 9.23975E-05-2.74643E-05-2.88579E-05-3.31959E-07 7.81256E-20 1.17835E-17
 -1        74 8.89428E-05-2.66526E-05-2.69232E-05-1.24525E-07 3.07554E-20 9.70450E-18
 -1        75 8.78842E-05-2.63912E-05-2.63873E-05-9.36782E-08 1.22890E-20 8.59003E-18
 -1        76 8.79248E-05-2.64017E-05-2.63652E-05-7.40381E-08 1.43870E-19 7.10490E-18
 -1        77 8.84804E-05-2.65595E-05-2.65324E-05-5.92081E-08 3.13307E-20 6.08491E-18
 -1        78 8.92768E-05-2.67925E-05-2.67740E-05-4.75588E-08-1.23223E-19 5.87213E-18
 -1        79 9.01752E-05-2.70590E-05-2.70450E-05-3.77367E-08-3.61347E-20 4.98056E-18
 -1        80 9.11062E-05-2.73367E-05-2.73256E-05-2.91245E-08-2.63138E-19 4.48223E-18
 -1        81 9.20430E-05-2.76170E-05-2.76084E-05-2.15446E-08 2.73296E-19 4.39563E-18
 -1        82 9.29875E-05-2.79000E-05-2.78941E-05-1.50232E-08 6.20084E-20 3.11351E-18
 -1        83 9.39631E-05-2.81926E-05-2.81899E-05-9.71170E-09 4.12629E-21 2.36315E-18
 -1        84 9.50099E-05-2.85067E-05-2.85076E-05-5.88839E-09-3.32773E-20 2.45877E-18
 -1        85 9.61809E-05-2.88580E-05-2.88633E-05-3.99923E-09 7.90161E-20 2.26031E-18
 -1        86 9.75392E-05-2.92651E-05-2.92756E-05-4.72170E-09 6.95804E-20 1.43170E-18
 -1        87 9.91526E-05-2.97483E-05-2.97648E-05-9.03475E-09-2.21020E-19 2.19881E-18
 -1        88 1.01086E-04-3.03268E-05-3.03497E-05-1.82566E-08-1.60080E-21 1.40676E-18
 -1        89 1.03389E-04-3.10146E-05-3.10435E-05-3.39596E-08 2.91497E-19 2.04972E-19
 -1        90 1.06069E-04-3.18141E-05-3.18462E-05-5.75664E-08-3.35719E-19 2.21886E-19
 -1        91 1.09056E-04-3.27047E-05-3.27327E-05-8.92690E-08-1.25763E-19 1.44501E-18
 -1        92 1.12149E-04-3.36274E-05-3.36366E-05-1.25748E-07 2.01501E-19 2.23914E-18
 -1        93 1.14950E-04-3.44658E-05-3.44319E-05-1.56326E-07-1.41849E-20 2.79350E-18
 -1        94 1.16812E-04-3.50311E-05-3.49232E-05-1.58539E-07 3.47828E-19 1.94886E-18
 -1        95 1.16869E-04-3.50680E-05-3.48631E-05-9.77692E-08-4.17064E-21 1.58494E-18
 -1        96 1.14241E-04-3.43109E-05-3.40248E-05 5.90516E-08 7.75631E-20 3.72160E-18
 -1        97 1.08505E-04-3.26183E-05-3.23399E-05 3.07530E-07-2.13212E-19 5.04183E-18
 -1        98 1.00342E-04-3.01679E-05-3.00544E-05 5.61822E-07 3.29343E-19 6.01325E-18
 -1        99 9.19114E-05-2.75909E-05-2.77808E-05 6.61929E-07 1.59786E-19 3.73192E-18
 -1       100 8.62985E-05-2.58359E-05-2.63081E-05 4.81907E-07-3.27274E-19 4.97302E-18
 -1       101 8.59256E-05-2.56793E-05-2.62231E-05 7.15062E-08 3.80172E-20 5.59721E-18
 -1       102 9.09685E-05-2.72048E-05-2.75590E-05-3.50043E-07 2.46629E-19 5.20854E-18
 -1       103 9.92292E-05-2.97340E-05-2.97793E-05-5.72892E-07-2.49218E-19 4.24017E-18
 -1       104 1.07592E-04-3.22907E-05-3.20963E-05-5.51898E-07 7.35488E-20 3.11028E-18
 -1       105 1.13714E-04-3.41495E-05-3.38668E-05-3.83859E-07 4.45603E-19 1.35871E-18
 -1       106 1.16734E-04-3.50544E-05-3.48044E-05-1.89269E-07-2.54653E-19-6.06899E-19
 -1       107 1.16973E-04-3.51150E-05-3.49491E-05-3.88164E-08-3.75667E-19-1.00043E-19
 -1       108 1.15291E-04-3.45990E-05-3.45161E-05 5.05558E-08-3.13092E-20-7.06042E-19
 -1       109 1.12576E-04-3.37769E-05-3.37532E-05 9.02868E-08 7.13439E-19 5.61265E-19
 -1       110 1.09510E-04-3.28532E-05-3.28633E-05 9.86480E-08 4.51318E-19-4.33213E-18
 -1       111 1.06523E-04-3.19559E-05-3.19811E-05 9.07878E-08 7.39602E-20-3.71680E-18
 -1       112 1.03843E-04-3.11523E-05-3.11814E-05 7.65359E-08-6.48891E-19 2.29857E-19
 -1       113 1.01563E-04-3.04688E-05-3.04960E-05 6.13416E-08 7.60652E-19 2.13653E-18
 -1       114 9.96914E-05-2.99081E-05-2.99311E-05 4.78102E-08 2.09957E-19 5.54257E-19
 -1       115 9.81983E-05-2.94607E-05-2.94794E-05 3.69038E-08 2.99954E-19-1.91524E-18
 -1       116 9.70398E-05-2.91135E-05-2.91289E-05 2.86153E-08 2.07905E-19-4.10071E-19
 -1       117 9.61754E-05-2.88540E-05-2.88684E-05 2.22167E-08 2.61823E-19-3.96493E-18
 -1       118 9.55791E-05-2.86742E-05-2.86904E-05 1.59986E-08 4.11093E-19-6.59579E-18
 -1       119 9.52454E-05-2.85724E-05-2.85895E-05 4.10496E-09-4.24140E-19-7.61372E-18
 -1       120 9.51718E-05-2.85456E-05-2.85503E-05-2.13730E-08 1.59974E-18-7.05575E-18
 -1       121 9.52535E-05-2.86262E-05-2.85528E-05-3.04896E-08-7.71248E-18-2.39541E-19
 -1       122 9.52273E-05-2.85415E-05-2.85955E-05-2.92181E-09-2.96324E-18-2.43515E-19
 -1       123 9.51273E-05-2.82069E-05-2.86931E-05 1.50290E-08 6.77331E-18 2.76547E-18
 -1       124 9.49770E-05-2.77041E-05-2.88367E-05 2.35514E-08 4.31568E-18 1.41780E-19
 -1       125 9.48082E-05-2.71369E-05-2.89999E-05 2.48422E-08-8.57080E-19-1.38870E-18
 -1       126 9.46535E-05-2.66153E-05-2.91511E-05 2.14251E-08-2.34954E-18-4.29492E-19
 -1       127 9.45326E-05-2.62085E-05-2.92695E-05 1.42840E-08-1.74939E-18-7.04788E-19
 -1       128 9.44675E-05-2.59890E-05-2.93334E-05 4.97360E-09-4.71591E-18-6.25488E-19
 -1       129 9.44677E-05-2.59898E-05-2.93332E-05-5.06603E-09-4.32294E-18-7.09539E-19
 -1       130 9.45335E-05-2.62113E-05-2.92686E-05-1.43768E-08-4.25807E-18-5.84494E-19
 -1       131 9.46547E-05-2.66199E-05-2.91498E-05-2.17243E-08-8.16649E-18-1.25890E-18
 -1       132 9.48102E-05-2.71433E-05-2.89981E-05-2.49888E-08-1.26450E-17 1.81333E-18
 -1       133 9.49793E-05-2.77115E-05-2.88345E-05-2.34811E-08-4.47603E-18 3.07729E-19
 -1       134 9.51289E-05-2.82150E-05-2.86911E-05-1.67808E-08-4.43103E-18 2.05429E-20
 -1       135 9.52287E-05-2.85424E-05-2.85940E-05 4.07983E-09-6.17902E-18-4.50674E-19
 -1       136 9.52439E-05-2.86210E-05-2.85505E-05 4.97724E-08-3.47473E-18 4.49291E-19
 -1       137 2.57204E-05-8.66380E-05 1.52780E-05-2.33833E-05 1.17041E-17 2.78751E-18
 -1       138 7.56747E-06-3.40041E-05 3.32588E-06-1.84756E-05 5.64886E-18 1.52021E-18
 -1       139 1.24586E-05 1.53857E-05-1.55305E-05 2.49271E-05 3.65114E-18 3.23016E-18
 -1       140 5.93607E-05 2.70630E-05-3.56393E-05 7.91588E-05 3.16324E-18 4.30377E-18
 -1       141 1.48348E-04-4.44539E-06-5.52783E-05 1.12389E-04 1.59517E-18 1.75929E-18
 -1       142 2.43078E-04-5.57636E-05-7.00354E-05 9.47837E-05-7.46236E-19-2.45851E-18
 -1       143 3.02547E-04-9.15347E-05-7.80369E-05 3.02193E-05-8.89120E-19-6.77362E-18
 -1       144 2.92734E-04-8.56898E-05-7.66291E-05-5.18572E-05 2.45876E-18-1.16687E-17
 -1       145 2.20955E-04-4.28349E-05-6.68912E-05-1.04714E-04 4.71639E-18-1.45906E-17
 -1       146 1.22828E-04 6.62936E-06-5.04026E-05-1.06809E-04 9.72097E-18-1.45825E-17
 -1       147 4.02637E-05 2.69241E-05-2.90315E-05-6.18189E-05 1.24539E-17-1.25573E-17
 -1       148 6.02239E-06 2.27915E-06-8.73852E-06-6.92537E-06 1.06476E-17-7.32747E-18
 -1       149 1.15836E-05-4.82406E-05 6.84156E-06 2.33810E-05 6.00758E-18-1.97189E-18
 -1       150 2.97815E-05-9.59931E-05 1.71166E-05 1.95892E-05-7.21249E-19-1.65516E-19
 -1       151 3.56659E-05-1.08762E-04 1.95334E-05-6.15558E-06-6.80649E-18-7.83320E-19
 -1       152 2.17949E-05-7.75501E-05 1.35114E-05-2.58062E-05-1.29372E-17-3.91938E-18
 -1       153 5.85941E-06-2.36093E-05 2.42161E-07-1.31216E-05-1.52030E-17-7.85856E-18
 -1       154 1.70802E-05 2.01653E-05-1.87565E-05 3.34532E-05-1.39511E-17-1.09924E-17
 -1       155 1.64256E-04-1.26378E-05-5.78834E-05 1.12370E-04-6.62380E-18-1.17987E-17
 -1       156 2.56395E-04-6.32857E-05-7.19435E-05 8.88339E-05-2.38164E-18-8.05126E-18
 -1       157 3.05766E-04-9.37438E-05-7.82605E-05 2.19967E-05-1.50645E-18 1.07536E-18
 -1       158 2.90302E-04-8.41242E-05-7.62779E-05-5.57657E-05-1.84007E-18 1.06908E-17
 -1       159 2.16771E-04-4.03233E-05-6.63028E-05-1.06528E-04-3.41090E-18 1.01822E-17
 -1       160 1.22011E-04 6.72550E-06-5.00859E-05-1.06461E-04-3.88852E-18 6.98972E-18
 -1       161 4.57304E-05 2.74930E-05-3.11742E-05-6.73967E-05-4.80776E-18 4.82512E-18
 -1       162 7.91682E-06 6.39877E-06-1.08281E-05-1.26030E-05-5.26050E-18 3.29496E-18
 -1       163 9.89183E-06-4.25466E-05 5.45479E-06 2.16894E-05-2.12182E-18 1.40089E-18
 -1       164 2.75308E-05-9.07478E-05 1.60985E-05 2.25807E-05 4.08905E-18-5.86782E-19
 -1       165 9.47854E-05-1.23335E-05-3.55394E-05-2.23394E-05-1.97451E-18-1.31317E-19
 -1       166 8.92090E-05-8.44764E-06-3.47743E-05-1.73785E-05-1.66290E-18-2.10259E-18
 -1       167 8.65589E-05-6.51087E-06-3.44170E-05-1.35858E-05-1.19927E-18-3.14739E-18
 -1       168 8.52224E-05-5.51529E-06-3.42431E-05-1.03575E-05-7.99616E-19-3.64634E-18
 -1       169 8.44969E-05-4.94317E-06-3.41634E-05-7.53707E-06-4.28351E-19-3.73335E-18
 -1       170 8.40821E-05-4.59535E-06-3.41272E-05-4.89539E-06-9.18882E-20-3.75126E-18
 -1       171 8.38705E-05-4.40886E-06-3.41129E-05-2.39049E-06 2.42543E-19-3.53379E-18
 -1       172 8.38081E-05-4.35228E-06-3.41094E-05 5.11775E-08 5.49377E-19-3.35039E-18
 -1       173 8.38804E-05-4.41730E-06-3.41136E-05 2.49492E-06 8.62766E-19-3.16370E-18
 -1       174 8.41040E-05-4.61465E-06-3.41287E-05 5.00634E-06 1.17777E-18-2.96167E-18
 -1       175 8.45250E-05-4.97042E-06-3.41643E-05 7.61388E-06 1.46622E-18-2.53696E-18
 -1       176 8.52818E-05-5.57492E-06-3.42448E-05 1.05031E-05 1.85229E-18-1.99622E-18
 -1       177 8.66499E-05-6.60889E-06-3.44193E-05 1.37753E-05 2.08288E-18-1.05700E-18
 -1       178 8.93567E-05-8.59606E-06-3.47785E-05 1.76158E-05 2.22165E-18 6.00811E-19
 -1       179 9.56945E-05-1.35977E-05-3.53956E-05 2.18853E-05 1.98726E-18 3.47490E-18
 -1       180 1.05474E-04-2.60644E-05-3.52218E-05 1.86563E-05 1.36746E-18 7.08781E-18
 -1       181 1.03278E-04-2.72673E-05-3.25737E-05-1.21246E-05-1.77702E-18 2.38842E-18
 -1       182 9.69942E-05-2.82545E-05-2.94948E-05-4.72863E-06-1.56694E-18 1.57982E-18
 -1       183 9.34031E-05-2.76044E-05-2.81512E-05-1.76258E-06-1.13691E-18 8.59520E-19
 -1       184 9.18831E-05-2.73765E-05-2.76101E-05-4.06304E-07-7.53216E-19 3.22786E-19
 -1       185 9.13337E-05-2.73073E-05-2.74213E-05 2.73028E-07-4.30585E-19-1.88821E-19
 -1       186 9.13362E-05-2.73568E-05-2.74106E-05 6.23352E-07-4.67464E-19-6.01698E-19
 -1       187 9.16501E-05-2.74772E-05-2.74980E-05 7.98465E-07-3.81658E-19-7.35838E-19
 -1       188 9.21409E-05-2.76370E-05-2.76419E-05 8.81299E-07-6.42223E-19-1.05009E-18
 -1       189 9.27359E-05-2.78188E-05-2.78198E-05 9.22537E-07-5.89935E-19-1.27077E-18
 -1       190 9.34008E-05-2.80150E-05-2.80210E-05 9.56280E-07-2.75526E-19-1.17161E-18
 -1       191 9.41283E-05-2.82248E-05-2.82428E-05 1.00721E-06-2.53918E-19-2.15613E-18
 -1       192 9.49297E-05-2.84526E-05-2.84883E-05 1.09413E-06-5.17699E-20-1.88523E-18
 -1       193 9.58305E-05-2.87071E-05-2.87649E-05 1.23163E-06 4.05023E-19-1.98425E-18
 -1       194 9.68662E-05-2.89996E-05-2.90829E-05 1.43038E-06-1.18699E-19-1.73072E-18
 -1       195 9.80784E-05-2.93442E-05-2.94543E-05 1.69603E-06-1.16678E-19-1.58896E-18
 -1       196 9.95091E-05-2.97560E-05-2.98909E-05 2.02631E-06-4.32072E-19-1.47315E-18
 -1       197 1.01193E-04-3.02499E-05-3.04014E-05 2.40552E-06-3.90795E-19-1.87088E-18
 -1       198 1.03148E-04-3.08386E-05-3.09878E-05 2.79553E-06-7.29381E-19-2.94937E-18
 -1       199 1.05351E-04-3.15279E-05-3.16391E-05 3.12290E-06-9.66654E-19-3.01603E-18
 -1       200 1.07721E-04-3.23102E-05-3.23232E-05 3.26337E-06-9.95453E-20-3.21628E-18
 -1       201 1.10082E-04-3.31528E-05-3.29787E-05 3.03076E-06 1.28198E-18-3.46883E-18
 -1       202 1.12137E-04-3.39782E-05-3.35097E-05 2.18821E-06 5.51648E-19-3.87896E-18
 -1       203 1.13448E-04-3.46368E-05-3.37911E-05 5.15415E-07 5.13282E-19-2.62647E-18
 -1       204 1.13487E-04-3.48869E-05-3.36981E-05-2.02888E-06 6.57251E-19-1.45164E-18
 -1       205 1.11786E-04-3.44182E-05-3.31623E-05-5.05489E-06-3.37966E-19-6.64659E-19
 -1       206 1.08246E-04-3.29983E-05-3.22453E-05-7.53608E-06-1.02577E-18-4.68598E-19
 -1       207 1.03544E-04-3.07873E-05-3.11742E-05-8.01024E-06-3.91959E-19-1.66167E-18
 -1       208 9.92725E-05-2.85836E-05-3.02911E-05-5.47674E-06 8.15878E-19-2.09546E-18
 -1       209 9.73305E-05-2.75329E-05-2.99120E-05-4.99305E-07-6.71009E-20-1.54014E-18
 -1       210 9.87032E-05-2.82787E-05-3.01784E-05 4.71631E-06-8.90026E-19-2.79850E-18
 -1       211 1.02688E-04-3.03607E-05-3.09899E-05 7.78228E-06-7.52719E-19-3.32030E-18
 -1       212 1.07446E-04-3.26440E-05-3.20534E-05 7.80176E-06-1.18925E-19-3.29015E-18
 -1       213 1.11266E-04-3.42312E-05-3.30183E-05 5.57176E-06-7.45144E-19-2.90298E-18
 -1       214 1.13304E-04-3.48597E-05-3.36306E-05 2.55187E-06-1.56019E-19-2.72655E-18
 -1       215 1.13548E-04-3.47146E-05-3.38008E-05-1.21841E-07 1.25215E-19-3.78138E-18
 -1       216 1.12427E-04-3.41085E-05-3.35790E-05-1.95151E-06 3.67496E-19-3.77795E-18
 -1       217 1.10479E-04-3.33015E-05-3.30858E-05-2.92112E-06 4.97506E-19-3.33789E-18
 -1       218 1.08163E-04-3.24587E-05-3.24496E-05-3.23393E-06 8.10097E-19-1.80151E-18
 -1       219 1.05805E-04-3.16690E-05-3.17736E-05-3.13003E-06 1.15479E-18-2.09186E-18
 -1       220 1.03605E-04-3.09726E-05-3.11263E-05-2.80502E-06-6.35745E-19-2.11230E-18
 -1       221 1.01663E-04-3.03818E-05-3.05459E-05-2.39174E-06-4.43280E-19-2.75261E-18
 -1       222 1.00016E-04-2.98942E-05-3.00484E-05-1.96900E-06 1.90122E-18-1.95086E-18
 -1       223 9.86617E-05-2.95003E-05-2.96366E-05-1.57665E-06 7.84644E-19-3.84664E-19
 -1       224 9.75766E-05-2.91878E-05-2.93056E-05-1.22892E-06 1.19253E-18-7.50960E-20
 -1       225 9.67320E-05-2.89447E-05-2.90482E-05-9.23846E-07 1.45554E-18-2.53593E-19
 -1       226 9.60998E-05-2.87602E-05-2.88570E-05-6.49526E-07-5.88691E-19 1.28611E-18
 -1       227 9.56559E-05-2.86268E-05-2.87245E-05-3.90916E-07 7.47161E-19 1.12353E-18
 -1       228 9.53697E-05-2.85411E-05-2.86391E-05-1.43866E-07 3.64524E-19 1.74232E-18
 -1       229 9.93760E-05-2.85172E-05-3.05495E-05 7.20998E-06 1.47936E-18 6.12842E-18
 -1       230 9.42979E-05-2.77548E-05-2.84890E-05 2.74189E-06 1.05843E-18 4.92544E-18
 -1       231 9.19878E-05-2.73672E-05-2.76494E-05 9.23312E-07 7.96615E-19 3.90999E-18
 -1       232 9.10573E-05-2.72090E-05-2.73364E-05 5.20298E-08 8.04920E-19 3.22787E-18
 -1       233 9.08775E-05-2.72100E-05-2.72723E-05-3.91196E-07 4.36114E-19 2.70933E-18
 -1       234 9.11141E-05-2.73097E-05-2.73376E-05-6.15660E-07 1.22242E-19 2.11618E-18
 -1       235 9.15812E-05-2.74651E-05-2.74743E-05-7.23534E-07 4.23120E-19 1.96498E-18
 -1       236 9.21766E-05-2.76505E-05-2.76515E-05-7.72253E-07 2.29303E-19 1.63115E-18
 -1       237 9.28484E-05-2.78528E-05-2.78534E-05-7.98259E-07 2.02523E-19 9.49929E-19
 -1       238 9.35771E-05-2.80678E-05-2.80740E-05-8.26795E-07 4.32792E-19 1.26655E-18
 -1       239 9.43663E-05-2.82975E-05-2.83139E-05-8.76492E-07 5.08987E-19 1.57751E-18
 -1       240 9.52365E-05-2.85488E-05-2.85792E-05-9.61626E-07 9.22875E-20 7.22757E-19
 -1       241 9.62201E-05-2.88320E-05-2.88793E-05-1.09303E-06 3.19473E-19 3.22989E-19
 -1       242 9.73581E-05-2.91602E-05-2.92264E-05-1.27788E-06 7.99131E-20 2.63927E-19
 -1       243 9.86948E-05-2.95479E-05-2.96333E-05-1.51820E-06-4.31681E-19 4.33256E-19
 -1       244 1.00271E-04-3.00097E-05-3.01113E-05-1.80760E-06 2.13659E-19 4.88400E-19
 -1       245 1.02115E-04-3.05579E-05-3.06673E-05-2.12561E-06 4.73108E-19 6.18945E-19
 -1       246 1.04223E-04-3.11984E-05-3.12979E-05-2.42891E-06-7.96343E-20 3.96081E-19
 -1       247 1.06543E-04-3.19248E-05-3.19823E-05-2.63975E-06-5.04169E-19 3.67563E-19
 -1       248 1.08936E-04-3.27089E-05-3.26730E-05-2.63408E-06-4.06809E-19 5.52079E-19
 -1       249 1.11148E-04-3.34874E-05-3.32871E-05-2.23835E-06-2.33363E-19 7.61335E-19
 -1       250 1.12784E-04-3.41443E-05-3.37036E-05-1.25459E-06 5.39668E-19 3.43794E-19
 -1       251 1.13327E-04-3.44963E-05-3.37789E-05 4.55177E-07 3.66861E-19 3.29503E-19
 -1       252 1.12247E-04-3.43021E-05-3.33911E-05 2.80053E-06-1.25269E-18 1.81652E-19
 -1       253 1.09249E-04-3.33383E-05-3.25166E-05 5.25353E-06-9.19113E-19 1.99486E-18
 -1       254 1.04641E-04-3.15823E-05-3.13046E-05 6.78329E-06-1.88834E-19 2.40461E-18
 -1       255 9.96116E-05-2.94466E-05-3.00875E-05 6.23599E-06 7.88287E-19 3.76179E-18
 -1       256 9.60245E-05-2.77994E-05-2.92753E-05 3.20864E-06-8.21384E-19 2.47786E-18
 -1       257 9.54917E-05-2.75027E-05-2.91734E-05-1.26276E-06-3.83216E-20 2.24477E-18
 -1       258 9.82802E-05-2.87335E-05-2.98186E-05-5.14896E-06 7.78959E-19 2.50648E-18
 -1       259 1.03107E-04-3.08259E-05-3.09653E-05-6.83651E-06 2.57721E-19 2.08721E-18
 -1       260 1.08042E-04-3.28198E-05-3.22154E-05-6.12215E-06 1.34434E-18 1.29716E-18
 -1       261 1.11616E-04-3.40993E-05-3.32040E-05-3.94273E-06 1.08773E-18 7.90024E-20
 -1       262 1.13267E-04-3.45471E-05-3.37315E-05-1.46000E-06 1.39244E-19-6.76245E-20
 -1       263 1.13160E-04-3.43476E-05-3.37803E-05 5.62964E-07 1.91558E-20-9.28411E-19
 -1       264 1.11796E-04-3.37594E-05-3.34517E-05 1.86216E-06 4.65507E-19-5.65667E-19
 -1       265 1.09717E-04-3.29964E-05-3.28874E-05 2.49607E-06-3.29459E-19-2.30939E-18
 -1       266 1.07362E-04-3.22006E-05-3.22171E-05 2.64807E-06 1.59673E-18-1.00005E-18
 -1       267 1.05029E-04-3.14525E-05-3.15353E-05 2.50629E-06-8.34725E-19-3.74661E-19
 -1       268 1.02891E-04-3.07911E-05-3.09004E-05 2.21592E-06-2.06758E-18 1.21742E-18
 -1       269 1.01030E-04-3.02296E-05-3.03422E-05 1.87251E-06-4.82006E-19 9.73463E-19
 -1       270 9.94694E-05-2.97667E-05-2.98709E-05 1.53107E-06 3.90817E-19 2.87075E-18
 -1       271 9.81986E-05-2.93939E-05-2.94856E-05 1.21800E-06 1.57336E-18 2.34053E-18
 -1       272 9.71924E-05-2.91003E-05-2.91802E-05 9.40779E-07-7.65783E-20 8.71075E-20
 -1       273 9.64224E-05-2.88750E-05-2.89472E-05 6.94717E-07 1.52551E-18 7.37749E-19
 -1       274 9.58639E-05-2.87090E-05-2.87798E-05 4.68406E-07 1.28918E-18 2.91097E-20
 -1       275 9.54963E-05-2.85958E-05-2.86706E-05 2.48384E-07 6.77804E-19-1.11975E-19
 -1       276 9.52971E-05-2.85489E-05-2.86033E-05 4.59589E-08 3.98960E-19-2.43508E-18
 -1       277 9.52656E-05-2.84352E-05-2.86400E-05 1.57856E-07 1.60376E-19 3.81390E-18
 -1       278 9.51784E-05-2.81753E-05-2.87151E-05 3.72161E-07 4.27939E-20 4.04888E-18
 -1       279 9.50404E-05-2.78082E-05-2.88136E-05 5.27535E-07-4.50908E-19-4.50540E-19
 -1       280 9.48840E-05-2.73857E-05-2.89280E-05 5.84335E-07-4.11477E-19-2.42415E-18
 -1       281 9.47346E-05-2.69757E-05-2.90403E-05 5.42925E-07-2.78332E-18-1.99730E-18
 -1       282 9.46080E-05-2.66246E-05-2.91371E-05 4.15025E-07-1.46986E-18-9.93549E-20
 -1       283 9.45246E-05-2.63917E-05-2.92016E-05 2.23770E-07-7.40120E-19-2.50542E-18
 -1       284 9.44956E-05-2.63105E-05-2.92241E-05-8.24371E-10-4.19937E-19-5.68687E-23
 -1       285 9.45249E-05-2.63927E-05-2.92013E-05-2.25486E-07-8.13625E-19-3.62896E-19
 -1       286 9.46087E-05-2.66266E-05-2.91365E-05-4.16920E-07-3.32065E-18-1.85736E-18
 -1       287 9.47332E-05-2.69719E-05-2.90413E-05-5.43370E-07-1.59382E-18-2.07099E-18
 -1       288 9.48857E-05-2.73899E-05-2.89269E-05-5.85473E-07-1.95998E-18 4.29240E-18
 -1       289 9.50423E-05-2.78132E-05-2.88122E-05-5.26595E-07-1.46434E-18 7.67624E-19
 -1       290 9.51788E-05-2.81750E-05-2.87145E-05-3.70165E-07-1.56573E-18-1.56483E-18
 -1       291 9.52939E-05-2.83755E-05-2.86778E-05-2.84435E-07-7.77212E-19 8.58670E-19
 -1       292 1.21111E-05-4.61286E-05 1.13599E-05 7.47372E-06 3.25097E-18 9.60535E-19
 -1       293 2.55888E-05-4.27491E-05 4.51307E-06 2.03949E-05 1.75526E-18-2.63512E-18
 -1       294 5.59595E-05-3.76397E-05-9.35947E-06 3.64136E-05 1.10792E-18 2.21605E-19
 -1       295 9.03411E-05-3.05596E-05-2.59995E-05 4.42041E-05 1.35525E-19-1.00966E-18
 -1       296 1.33594E-04-2.94873E-05-4.34266E-05 4.70450E-05 1.80312E-19-1.99794E-18
 -1       297 1.74647E-04-3.24770E-05-5.84059E-05 3.90346E-05 7.09777E-19-2.78695E-18
 -1       298 1.92735E-04-3.06984E-05-6.69420E-05 1.45420E-05 1.34085E-18-2.35496E-18
 -1       299 2.07518E-04-3.44145E-05-7.08014E-05-3.49370E-06 2.34300E-18-3.26268E-18
 -1       300 1.94370E-04-3.35715E-05-6.59543E-05-2.35644E-05 3.79227E-18-5.07563E-18
 -1       301 1.64575E-04-3.24896E-05-5.46600E-05-3.85416E-05 3.89990E-18-7.15849E-18
 -1       302 1.25545E-04-3.54048E-05-3.81135E-05-4.16806E-05 3.77766E-18-5.88730E-18
 -1       303 7.90746E-05-3.35830E-05-2.02679E-05-4.20093E-05 2.96059E-18-5.64113E-18
 -1       304 4.29968E-05-3.74890E-05-4.51143E-06-3.02953E-05 2.05109E-18-4.46889E-18
 -1       305 2.12312E-05-4.45898E-05 6.90770E-06-1.69017E-05-6.36969E-19-3.76527E-18
 -1       306 1.09155E-05-4.65665E-05 1.20195E-05-4.08986E-06-1.92197E-18-2.52225E-18
 -1       307 1.43665E-05-4.77590E-05 1.09052E-05 9.27621E-06-3.47940E-18-3.46828E-18
 -1       308 3.05100E-05-4.10858E-05 2.03432E-06 2.46170E-05-3.95120E-18-3.00535E-18
 -1       309 5.78704E-05-3.42721E-05-1.16920E-05 3.61172E-05-5.52350E-18-4.44915E-18
 -1       310 1.02121E-04-3.44787E-05-2.91017E-05 4.35692E-05-5.59550E-18-3.72546E-18
 -1       311 1.41222E-04-3.01628E-05-4.62186E-05 4.62787E-05-4.01652E-18-4.59282E-18
 -1       312 1.77389E-04-3.27847E-05-5.97250E-05 3.07088E-05-3.68854E-18-1.27161E-18
 -1       313 2.05798E-04-3.61286E-05-6.92293E-05 1.77939E-05-5.05276E-18 6.99649E-19
 -1       314 2.03505E-04-3.22983E-05-7.02454E-05-4.38671E-06-3.84034E-18 1.96718E-18
 -1       315 1.96128E-04-3.48354E-05-6.59529E-05-2.69770E-05-1.41973E-18 2.73507E-18
 -1       316 1.63173E-04-3.31057E-05-5.39518E-05-3.59262E-05-4.05729E-19 2.90109E-18
 -1       317 1.22964E-04-2.97816E-05-3.91805E-05-4.68884E-05-6.62592E-19 3.02666E-18
 -1       318 8.57900E-05-3.54485E-05-2.21826E-05-4.21770E-05-6.69580E-19 1.04969E-18
 -1       319 4.80426E-05-3.76037E-05-6.30526E-06-3.30894E-05 1.34149E-18 1.42238E-18
 -1       320 2.33170E-05-4.36876E-05 5.73845E-06-1.86308E-05 1.88719E-18 2.21081E-18
 -1       321 1.23674E-05-4.83252E-05 1.19466E-05-5.91054E-06 2.24511E-18 2.34374E-18
 -1       322 9.16185E-05-1.44385E-05-3.31548E-05-1.29666E-05-1.72465E-18-1.91059E-18
 -1       323 9.56525E-05-1.90957E-05-3.28725E-05-1.46255E-05-2.04269E-18-7.47473E-19
 -1       324 8.80416E-05-1.03653E-05-3.33450E-05-8.13210E-06-7.68938E-19-2.78864E-18
 -1       325 8.72410E-05-9.43871E-06-3.33923E-05-5.69913E-06-3.83930E-19-2.88493E-18
 -1       326 8.67884E-05-8.90366E-06-3.34241E-05-3.35400E-06 5.56933E-20-2.81764E-18
 -1       327 8.65862E-05-8.66069E-06-3.34401E-05-1.06799E-06 5.09460E-19-2.67289E-18
 -1       328 8.65948E-05-8.67030E-06-3.34397E-05 1.19868E-06 8.71037E-19-2.46136E-18
 -1       329 8.68157E-05-8.93444E-06-3.34227E-05 3.48687E-06 1.24038E-18-2.32299E-18
 -1       330 8.72808E-05-9.48367E-06-3.33902E-05 5.79595E-06 1.65698E-18-2.05229E-18
 -1       331 8.81067E-05-1.04407E-05-3.33407E-05 8.23268E-06 2.01990E-18-1.58776E-18
 -1       332 8.94999E-05-1.20272E-05-3.32691E-05 1.07428E-05 2.33280E-18-9.66302E-19
 -1       333 9.18874E-05-1.47149E-05-3.31550E-05 1.31519E-05 2.49098E-18 6.75178E-20
 -1       334 9.57455E-05-1.94410E-05-3.28096E-05 1.43647E-05 2.30334E-18 1.88023E-18
 -1       335 9.87002E-05-2.44182E-05-3.19232E-05 1.18920E-05 1.97488E-18 3.55559E-18
 -1       336 9.63068E-05-2.67854E-05-2.97653E-05 5.73274E-06 1.65301E-18 2.73696E-18
 -1       337 9.63771E-05-2.60064E-05-3.01142E-05-6.32850E-06-1.66713E-18-4.10660E-19
 -1       338 9.48718E-05-2.70039E-05-2.90607E-05-2.80440E-06-1.23237E-18-4.00468E-19
 -1       339 9.39177E-05-2.74005E-05-2.84926E-05-8.67821E-07-7.88681E-19-4.71651E-19
 -1       340 9.34333E-05-2.76138E-05-2.82014E-05 2.30780E-07-6.23764E-19-7.67049E-19
 -1       341 9.32932E-05-2.77695E-05-2.80784E-05 8.52777E-07-5.05289E-19-7.88425E-19
 -1       342 9.33864E-05-2.79047E-05-2.80620E-05 1.20228E-06-7.07022E-19-9.66026E-19
 -1       343 9.36350E-05-2.80300E-05-2.81156E-05 1.40364E-06-4.93451E-19-8.22439E-19
 -1       344 9.39904E-05-2.81489E-05-2.82171E-05 1.53814E-06-6.19408E-19-7.99762E-19
 -1       345 9.44272E-05-2.82644E-05-2.83548E-05 1.66249E-06-7.37097E-19-1.04677E-18
 -1       346 9.49374E-05-2.83808E-05-2.85232E-05 1.81820E-06-1.29987E-19-9.75952E-19
 -1       347 9.55258E-05-2.85045E-05-2.87219E-05 2.03642E-06-8.74117E-20-1.07855E-18
 -1       348 9.62070E-05-2.86443E-05-2.89534E-05 2.34003E-06 4.10653E-19-1.35409E-18
 -1       349 9.70025E-05-2.88121E-05-2.92218E-05 2.74340E-06-1.29344E-20-5.76701E-19
 -1       350 9.79380E-05-2.90241E-05-2.95315E-05 3.24973E-06-6.97760E-19-1.10855E-18
 -1       351 9.90414E-05-2.93025E-05-2.98848E-05 3.84529E-06-7.78213E-19-1.58333E-18
 -1       352 1.00339E-04-2.96785E-05-3.02802E-05 4.48958E-06-7.59378E-19-1.66718E-18
 -1       353 1.01855E-04-3.01950E-05-3.07096E-05 5.10075E-06-6.56104E-19-1.33450E-18
 -1       354 1.03602E-04-3.09082E-05-3.11553E-05 5.53653E-06-7.44526E-19-1.40272E-18
 -1       355 1.05578E-04-3.18819E-05-3.15892E-05 5.57529E-06 1.12273E-19-1.46822E-18
 -1       356 1.07745E-04-3.31611E-05-3.19750E-05 4.90991E-06 6.03659E-19-2.01555E-18
 -1       357 1.09982E-04-3.47052E-05-3.22782E-05 3.18456E-06 1.42730E-18-1.42849E-18
 -1       358 1.12012E-04-3.62638E-05-3.24839E-05 1.29503E-07 9.55609E-19-8.86606E-19
 -1       359 1.13316E-04-3.72477E-05-3.26213E-05-4.15037E-06 8.87459E-19-5.77518E-19
 -1       360 1.13166E-04-3.67408E-05-3.27658E-05-8.76883E-06-1.60283E-19-4.69430E-19
 -1       361 1.11011E-04-3.40009E-05-3.30088E-05-1.17755E-05-1.20401E-18 1.81009E-19
 -1       362 1.07380E-04-2.95852E-05-3.33429E-05-1.07836E-05-5.28324E-19-1.24120E-19
 -1       363 1.04291E-04-2.58617E-05-3.36185E-05-4.92462E-06-1.33557E-19-1.66835E-18
 -1       364 1.03981E-04-2.54875E-05-3.36453E-05 3.48569E-06-1.19872E-18-2.67149E-18
 -1       365 1.06716E-04-2.87845E-05-3.34005E-05 1.00682E-05-1.30214E-18-2.48157E-18
 -1       366 1.10429E-04-3.32930E-05-3.30630E-05 1.19340E-05-2.44913E-19-2.85149E-18
 -1       367 1.12921E-04-3.64155E-05-3.28000E-05 9.48461E-06 4.93741E-19-2.69222E-18
 -1       368 1.13411E-04-3.72901E-05-3.26428E-05 4.99113E-06-1.83821E-19-2.29319E-18
 -1       369 1.12313E-04-3.65020E-05-3.25124E-05 5.57130E-07-1.03649E-18-1.63857E-18
 -1       370 1.10368E-04-3.49879E-05-3.23239E-05-2.73452E-06-5.17105E-19-3.77677E-18
 -1       371 1.08149E-04-3.34138E-05-3.20409E-05-4.67127E-06 5.53382E-19-3.23067E-18
 -1       372 1.05970E-04-3.20807E-05-3.16725E-05-5.48316E-06 1.81843E-18-1.48147E-18
 -1       373 1.03974E-04-3.10557E-05-3.12519E-05-5.52252E-06 8.87008E-19-1.54767E-18
 -1       374 1.02213E-04-3.03028E-05-3.08168E-05-5.10749E-06 4.81521E-19-7.08356E-19
 -1       375 1.00696E-04-2.97594E-05-3.03982E-05-4.47261E-06-1.90411E-18 9.09061E-19
 -1       376 9.94149E-05-2.93673E-05-3.00167E-05-3.76966E-06 4.82142E-19 8.28053E-19
 -1       377 9.83514E-05-2.90815E-05-2.96834E-05-3.08554E-06 1.14289E-18-1.55631E-18
 -1       378 9.74830E-05-2.88691E-05-2.94025E-05-2.46165E-06 2.34605E-18 9.69685E-19
 -1       379 9.67853E-05-2.87063E-05-2.91736E-05-1.90969E-06 2.06744E-18 2.04673E-18
 -1       380 9.62340E-05-2.85760E-05-2.89935E-05-1.42349E-06-6.05706E-19 2.03457E-18
 -1       381 9.58072E-05-2.84675E-05-2.88569E-05-9.87631E-07-9.19088E-19 1.95797E-18
 -1       382 9.55178E-05-2.84071E-05-2.87598E-05-6.15879E-07 1.66112E-18 1.90016E-18
 -1       383 9.42992E-05-2.73148E-05-2.86693E-05 2.45139E-06 1.23280E-18 2.06436E-18
 -1       384 9.31128E-05-2.74365E-05-2.81250E-05 7.09402E-07 1.10686E-18 1.59318E-18
 -1       385 9.25912E-05-2.75183E-05-2.78782E-05-2.39164E-07 7.77973E-19 1.35503E-18
 -1       386 9.24999E-05-2.76186E-05-2.78017E-05-7.56441E-07 4.00304E-19 7.56965E-19
 -1       387 9.26787E-05-2.77411E-05-2.78283E-05-1.03474E-06 2.96285E-19 2.75810E-19
 -1       388 9.30264E-05-2.78783E-05-2.79194E-05-1.18448E-06 4.69104E-19 6.09905E-19
 -1       389 9.34837E-05-2.80245E-05-2.80531E-05-1.27565E-06 6.26293E-19 4.78433E-19
 -1       390 9.40211E-05-2.81776E-05-2.82178E-05-1.35607E-06 7.43790E-20 5.25514E-19
 -1       391 9.46306E-05-2.83393E-05-2.84095E-05-1.46036E-06 4.10312E-19 6.71826E-19
 -1       392 9.53197E-05-2.85149E-05-2.86291E-05-1.61437E-06 4.80222E-19 5.87263E-19
 -1       393 9.61074E-05-2.87128E-05-2.88814E-05-1.83717E-06 6.61640E-19 3.53080E-19
 -1       394 9.70201E-05-2.89441E-05-2.91729E-05-2.14099E-06 3.15717E-19 4.17646E-19
 -1       395 9.80886E-05-2.92228E-05-2.95110E-05-2.52916E-06-5.68704E-19 8.11758E-20
 -1       396 9.93433E-05-2.95658E-05-2.99015E-05-2.99151E-06 1.60503E-19 4.50816E-19
 -1       397 1.00809E-04-2.99938E-05-3.03465E-05-3.49632E-06 5.15965E-19 9.34164E-19
 -1       398 1.02495E-04-3.05304E-05-3.08404E-05-3.97830E-06 5.63451E-19 1.06048E-18
 -1       399 1.04386E-04-3.12013E-05-3.13660E-05-4.32293E-06-4.31007E-19 2.61903E-19
 -1       400 1.06427E-04-3.20275E-05-3.18902E-05-4.35086E-06-6.48206E-19 2.95876E-19
 -1       401 1.08496E-04-3.30086E-05-3.23616E-05-3.81383E-06-3.47664E-20 7.47177E-19
 -1       402 1.10384E-04-3.40840E-05-3.27143E-05-2.42635E-06 8.61517E-19 1.89548E-19
 -1       403 1.11754E-04-3.50691E-05-3.28827E-05 2.53613E-08 1.98637E-19 3.32833E-19
 -1       404 1.12150E-04-3.55875E-05-3.28282E-05 3.45917E-06-1.70277E-18 7.92960E-19
 -1       405 1.11084E-04-3.51007E-05-3.25727E-05 7.19077E-06-1.33882E-18 8.10089E-19
 -1       406 1.08361E-04-3.31938E-05-3.22147E-05 9.77476E-06-6.51276E-19 1.18461E-18
 -1       407 1.04570E-04-3.01577E-05-3.18887E-05 9.42086E-06 2.93303E-19 2.56806E-18
 -1       408 1.01321E-04-2.73652E-05-3.16883E-05 5.27945E-06 7.40221E-19 2.29459E-18
 -1       409 1.00447E-04-2.65575E-05-3.16581E-05-1.32295E-06 5.16756E-19 1.23535E-18
 -1       410 1.02509E-04-2.83043E-05-3.17900E-05-7.29664E-06 5.09590E-19 1.28910E-18
 -1       411 1.06264E-04-3.14276E-05-3.20611E-05-1.00122E-05 1.81293E-19-2.67527E-19
 -1       412 1.09779E-04-3.41426E-05-3.24142E-05-9.04082E-06 1.46525E-18-7.77977E-19
 -1       413 1.11827E-04-3.54805E-05-3.27318E-05-5.78979E-06 1.23610E-18-3.24970E-19
 -1       414 1.12208E-04-3.54978E-05-3.28953E-05-2.03351E-06 8.90887E-19-9.04377E-20
 -1       415 1.11311E-04-3.47219E-05-3.28437E-05 1.06089E-06 5.56363E-19 5.10715E-19
 -1       416 1.09651E-04-3.36537E-05-3.25854E-05 3.07882E-06 3.33649E-19 9.47295E-19
 -1       417 1.07646E-04-3.25931E-05-3.21746E-05 4.08971E-06 5.29436E-19 8.29632E-19
 -1       418 1.05578E-04-3.16677E-05-3.16792E-05 4.35555E-06 4.31372E-19 3.36949E-19
 -1       419 1.03614E-04-3.09076E-05-3.11597E-05 4.15404E-06-1.69359E-18 1.49088E-18
 -1       420 1.01847E-04-3.03009E-05-3.06600E-05 3.70570E-06-1.66013E-18 2.07315E-18
 -1       421 1.00314E-04-2.98231E-05-3.02068E-05 3.16018E-06-1.71077E-18 2.06894E-18
 -1       422 9.90233E-05-2.94493E-05-2.98135E-05 2.60709E-06 7.81103E-20 1.08647E-18
 -1       423 9.79624E-05-2.91575E-05-2.94840E-05 2.09221E-06 2.00179E-18 1.77912E-18
 -1       424 9.71099E-05-2.89294E-05-2.92167E-05 1.63180E-06 9.08012E-19 1.81903E-18
 -1       425 9.64417E-05-2.87504E-05-2.90074E-05 1.22312E-06 8.89220E-19 4.19740E-19
 -1       426 9.59342E-05-2.86102E-05-2.88506E-05 8.53967E-07 1.38039E-18 8.05814E-19
 -1       427 9.55650E-05-2.85048E-05-2.87382E-05 5.12809E-07 5.69106E-19 2.56416E-18
 -1       428 9.53917E-05-2.84509E-05-2.86876E-05 3.29597E-07 9.15060E-19 2.70478E-18
 -1       429 9.49880E-05-2.75487E-05-2.89020E-05 1.01481E-06-2.35991E-18-1.74625E-18
 -1       430 9.52151E-05-2.79513E-05-2.88259E-05 8.65504E-07-1.52456E-18 2.89251E-18
 -1       431 9.53372E-05-2.82329E-05-2.87572E-05 6.11358E-07-7.33255E-19 1.58960E-18
 -1       432 9.47618E-05-2.71524E-05-2.89758E-05 1.00709E-06-2.69615E-18-4.82941E-18
 -1       433 9.45600E-05-2.67964E-05-2.90426E-05 8.47254E-07-2.09332E-18 1.22386E-18
 -1       434 9.44109E-05-2.65313E-05-2.90928E-05 5.62343E-07-1.00579E-18-4.68968E-19
 -1       435 9.43317E-05-2.63899E-05-2.91198E-05 1.96153E-07-1.08058E-18-5.15052E-19
 -1       436 9.43316E-05-2.63898E-05-2.91198E-05-1.98282E-07 5.55688E-20-1.59646E-18
 -1       437 9.44107E-05-2.65313E-05-2.90928E-05-5.64818E-07-2.58316E-20-2.60634E-18
 -1       438 9.45571E-05-2.67914E-05-2.90435E-05-8.46264E-07-4.67229E-19-1.64388E-18
 -1       439 9.47591E-05-2.71472E-05-2.89769E-05-1.00856E-06 4.00816E-19 2.32463E-18
 -1       440 9.49899E-05-2.75511E-05-2.89019E-05-1.01671E-06 4.40734E-19 1.07485E-18
 -1       441 9.52210E-05-2.79584E-05-2.88255E-05-8.66856E-07-1.29829E-18-1.51285E-18
 -1       442 5.66304E-05-3.99733E-05-7.21287E-06 4.24182E-05-1.72212E-18-2.59563E-18
 -1       443 1.15628E-05-2.24731E-05 4.42876E-06 8.42355E-08 1.25718E-18 2.37826E-18
 -1       444 2.71110E-05-2.82469E-05 3.75320E-07 2.92276E-05-7.28448E-20-3.54081E-18
 -1       445 1.02868E-04-5.40084E-05-2.08747E-05 3.97723E-05-1.69989E-18-4.40415E-18
 -1       446 1.28860E-04-5.40660E-05-3.21410E-05 2.79531E-05-2.07258E-18-3.34080E-18
 -1       447 8.93815E-05-1.18919E-05-3.32760E-05-1.06269E-05-1.23778E-18-2.53467E-18
 -1       448 1.57533E-04-2.68722E-05-5.59324E-05 6.61578E-07 7.26331E-19-6.60580E-19
 -1       449 1.59425E-04-1.39161E-05-6.21890E-05-1.34793E-07 2.33887E-18-1.57339E-18
 -1       450 1.52398E-04-1.41736E-05-5.93835E-05 3.47246E-06 2.63808E-18-8.41951E-19
 -1       451 1.55751E-04-2.98262E-05-5.39815E-05 1.34694E-07 2.29668E-18-1.63477E-19
 -1       452 1.49459E-04-4.48396E-05-4.46858E-05-1.15889E-05 9.28600E-19-5.23466E-19
 -1       453 1.22237E-04-5.59565E-05-2.84966E-05-3.13393E-05-1.00755E-18-1.89794E-18
 -1       454 8.47215E-05-4.93680E-05-1.52485E-05-4.31908E-05-1.46346E-18-3.61461E-18
 -1       455 4.73885E-05-3.70593E-05-4.55903E-06-3.97218E-05-1.70052E-18-3.86671E-18
 -1       456 2.05108E-05-2.45284E-05 1.65643E-06-2.25800E-05-1.00458E-18-3.32143E-18
 -1       457 1.23145E-05-2.28443E-05 4.24863E-06 7.00741E-06-7.54680E-19-3.88513E-18
 -1       458 2.86410E-05-2.99741E-05 3.19792E-07 3.02806E-05-5.85935E-19-2.66466E-18
 -1       459 6.74130E-05-4.39628E-05-1.00583E-05 4.36999E-05-6.70321E-19-2.84939E-18
 -1       460 1.01655E-04-5.36100E-05-2.07286E-05 3.96605E-05-1.58035E-18-4.80532E-19
 -1       461 1.37133E-04-5.07548E-05-3.69049E-05 2.40592E-05-2.32728E-18-5.72700E-19
 -1       462 1.53631E-04-4.02152E-05-4.84489E-05 1.03193E-05-3.19390E-18 1.06610E-18
 -1       463 1.59990E-04-2.28357E-05-5.84790E-05-4.49769E-07-3.79291E-18 3.54028E-18
 -1       464 1.60556E-04-1.44037E-05-6.23263E-05-7.90036E-07-4.25666E-18 1.80709E-18
 -1       465 1.56539E-04-1.65889E-05-5.99317E-05 2.56321E-06-2.34480E-18 1.44170E-18
 -1       466 1.56576E-04-2.92924E-05-5.44378E-05 3.20284E-07-3.60677E-19 1.54351E-18
 -1       467 1.46803E-04-4.69388E-05-4.27728E-05-1.53059E-05-8.67997E-19 1.51735E-18
 -1       468 1.26684E-04-5.38244E-05-3.11758E-05-2.99269E-05-3.59777E-19 2.67705E-18
 -1       469 8.89366E-05-5.04569E-05-1.66199E-05-4.24254E-05 1.34890E-19 2.13571E-18
 -1       470 5.00526E-05-3.83853E-05-5.20373E-06-4.02195E-05 7.07696E-19 2.11928E-18
 -1       471 2.30834E-05-2.60044E-05 1.16044E-06-2.51889E-05 9.52594E-19 1.91969E-18
 -1       472 1.51247E-04-4.25400E-05-4.65114E-05 9.28575E-06-3.51122E-19-1.96692E-18
 -1       473 1.42528E-04-1.57001E-05-5.47153E-05-8.03776E-06 1.61328E-18-3.77141E-19
 -1       474 9.57852E-05-2.51272E-05-3.02677E-05 5.98953E-06 1.77655E-18 7.83347E-19
 -1       475 8.95828E-05-1.33580E-05-3.26869E-05-3.89724E-06-9.04257E-20-2.57779E-18
 -1       476 9.02843E-05-1.43324E-05-3.25722E-05-5.85088E-06-5.68255E-19-2.48674E-18
 -1       477 8.90872E-05-1.26680E-05-3.27689E-05 5.42697E-08 5.49004E-19-2.27255E-18
 -1       478 8.92223E-05-1.28545E-05-3.27471E-05 2.03030E-06 9.48391E-19-2.11618E-18
 -1       479 8.96151E-05-1.33993E-05-3.26831E-05 3.97086E-06 1.36856E-18-1.91606E-18
 -1       480 9.03336E-05-1.43964E-05-3.25656E-05 5.91715E-06 1.81650E-18-1.52320E-18
 -1       481 9.14695E-05-1.59854E-05-3.23734E-05 7.74368E-06 2.07759E-18-1.14175E-18
 -1       482 9.32356E-05-1.84628E-05-3.20656E-05 9.26378E-06 2.24702E-18-4.85749E-19
 -1       483 9.50916E-05-2.65506E-05-2.93566E-05 2.82447E-06 1.40812E-18 4.18329E-19
 -1       484 9.54481E-05-2.44045E-05-3.04375E-05-5.76901E-06-1.34398E-18-1.16589E-18
 -1       485 1.36379E-04-2.07665E-05-5.01278E-05 1.15681E-05 1.50931E-18 7.56109E-19
 -1       486 9.52606E-05-2.61804E-05-2.95974E-05-2.83039E-06-9.21188E-19-1.26031E-18
 -1       487 9.49326E-05-2.71149E-05-2.90611E-05-9.21093E-07-8.71243E-19-1.24790E-18
 -1       488 9.46864E-05-2.76310E-05-2.87363E-05 2.68719E-07-7.52037E-19-1.14816E-18
 -1       489 9.45717E-05-2.79375E-05-2.85567E-05 9.97232E-07-6.56587E-19-1.18845E-18
 -1       490 9.45749E-05-2.81245E-05-2.84784E-05 1.44509E-06-6.10348E-19-1.11392E-18
 -1       491 9.46713E-05-2.82362E-05-2.84720E-05 1.73677E-06-5.71737E-19-1.26727E-18
 -1       492 9.48398E-05-2.82965E-05-2.85183E-05 1.96110E-06-5.80940E-19-8.33470E-19
 -1       493 9.50674E-05-2.83206E-05-2.86054E-05 2.18322E-06-2.97248E-19-1.79201E-19
 -1       494 9.53492E-05-2.83201E-05-2.87262E-05 2.45180E-06 9.53559E-20-9.23896E-20
 -1       495 9.56868E-05-2.83060E-05-2.88767E-05 2.80313E-06 1.55248E-19 7.42251E-20
 -1       496 9.60879E-05-2.82912E-05-2.90547E-05 3.26264E-06 3.17259E-19-3.80330E-19
 -1       497 9.65663E-05-2.82940E-05-2.92583E-05 3.84401E-06-6.64943E-19-6.62601E-19
 -1       498 9.71425E-05-2.83422E-05-2.94844E-05 4.54574E-06-1.06659E-18-2.82730E-19
 -1       499 9.78473E-05-2.84796E-05-2.97275E-05 5.34425E-06-8.97419E-19-2.74098E-19
 -1       500 9.87273E-05-2.87745E-05-2.99785E-05 6.18311E-06-5.91863E-19-4.42413E-19
 -1       501 9.98541E-05-2.93290E-05-3.02246E-05 6.95740E-06-6.83625E-19 2.09005E-19
 -1       502 1.01334E-04-3.02838E-05-3.04512E-05 7.49321E-06-1.32466E-19 4.55708E-19
 -1       503 1.03312E-04-3.18049E-05-3.06491E-05 7.52489E-06 2.93603E-19 1.15595E-18
 -1       504 1.05939E-04-3.40211E-05-3.08284E-05 6.67925E-06 1.28391E-18 5.76409E-19
 -1       505 1.09276E-04-3.68653E-05-3.10421E-05 4.49399E-06 1.53417E-18 2.38779E-19
 -1       506 1.13042E-04-3.97687E-05-3.14122E-05 5.72300E-07 1.05097E-18 4.10614E-19
 -1       507 1.16361E-04-4.14167E-05-3.21354E-05-5.02008E-06 4.39201E-19 7.70295E-20
 -1       508 1.17642E-04-3.97761E-05-3.33938E-05-1.10030E-05-6.79274E-19 1.78858E-19
 -1       509 1.15487E-04-3.35290E-05-3.51820E-05-1.41688E-05-1.10508E-18-2.15018E-20
 -1       510 1.11029E-04-2.50424E-05-3.69426E-05-1.08378E-05-1.12864E-18-1.30843E-18
 -1       511 1.08325E-04-2.03882E-05-3.78004E-05-1.04337E-06-1.12350E-18-2.87551E-18
 -1       512 1.10329E-04-2.37861E-05-3.71778E-05 9.47437E-06-1.75894E-18-2.87924E-18
 -1       513 1.14773E-04-3.20511E-05-3.55174E-05 1.41125E-05-8.76431E-19-2.14056E-18
 -1       514 1.17496E-04-3.89603E-05-3.36864E-05 1.18743E-05-3.83663E-19-1.99296E-18
 -1       515 1.16776E-04-4.13997E-05-3.23181E-05 6.12365E-06-3.29530E-19-2.85239E-18
 -1       516 1.13714E-04-4.02120E-05-3.15145E-05 3.17682E-07 4.43179E-19-2.90407E-18
 -1       517 1.09932E-04-3.73953E-05-3.10984E-05-3.92480E-06-6.13039E-19-4.79397E-19
 -1       518 1.06489E-04-3.44761E-05-3.08699E-05-6.37997E-06 4.88032E-19 1.90273E-18
 -1       519 1.03741E-04-3.21300E-05-3.06943E-05-7.41062E-06 8.92881E-19 1.71854E-19
 -1       520 1.01669E-04-3.04862E-05-3.05080E-05-7.47930E-06 1.01544E-18-2.77492E-18
 -1       521 1.00125E-04-2.94356E-05-3.02952E-05-6.97573E-06 1.09724E-18-1.92392E-18
 -1       522 9.89639E-05-2.88122E-05-3.00638E-05-6.18147E-06 1.99288E-19-2.03698E-18
 -1       523 9.80716E-05-2.84680E-05-2.98285E-05-5.28190E-06 8.12299E-20 5.60683E-19
 -1       524 9.73721E-05-2.82932E-05-2.96035E-05-4.38885E-06-3.51141E-19 7.19785E-19
 -1       525 9.68147E-05-2.82127E-05-2.93992E-05-3.56178E-06 2.28132E-18 1.17696E-18
 -1       526 9.63655E-05-2.81774E-05-2.92220E-05-2.82465E-06 2.80140E-18 9.17229E-19
 -1       527 9.59995E-05-2.81564E-05-2.90743E-05-2.17956E-06 1.09852E-18 9.53070E-19
 -1       528 9.56984E-05-2.81314E-05-2.89560E-05-1.61460E-06-1.57659E-18 4.26123E-19
 -1       529 5.20782E-05-2.91825E-05-9.30384E-06 3.70939E-05-2.22743E-18-4.88664E-18
 -1       530 9.41780E-05-2.76462E-05-2.85099E-05-2.58875E-07 8.84083E-19-1.31299E-20
 -1       531 9.40510E-05-2.78849E-05-2.83553E-05-9.46483E-07 6.80186E-19-1.26429E-19
 -1       532 9.40915E-05-2.80478E-05-2.83037E-05-1.35365E-06 2.35377E-19-3.57941E-19
 -1       533 9.42540E-05-2.81657E-05-2.83232E-05-1.60604E-06 3.97481E-19-1.56944E-19
 -1       534 9.45063E-05-2.82540E-05-2.83935E-05-1.79004E-06 3.20411E-19 3.64527E-19
 -1       535 9.48304E-05-2.83226E-05-2.85029E-05-1.96755E-06 1.96379E-19 1.78940E-19
 -1       536 9.52199E-05-2.83798E-05-2.86450E-05-2.18420E-06 5.83560E-19 3.12724E-19
 -1       537 9.56779E-05-2.84347E-05-2.88175E-05-2.47371E-06 4.50524E-19 1.36314E-19
 -1       538 9.62150E-05-2.84983E-05-2.90201E-05-2.85954E-06 3.75764E-19 5.25860E-19
 -1       539 9.68478E-05-2.85861E-05-2.92533E-05-3.35405E-06 2.73372E-19 6.78671E-19
 -1       540 9.75978E-05-2.87201E-05-2.95171E-05-3.95510E-06-1.52337E-19 2.75468E-20
 -1       541 9.84922E-05-2.89334E-05-2.98089E-05-4.63927E-06 1.61974E-19-3.07657E-19
 -1       542 9.95649E-05-2.92754E-05-3.01225E-05-5.35111E-06 7.97402E-19 3.59497E-19
 -1       543 1.00859E-04-2.98168E-05-3.04462E-05-5.98796E-06 3.47359E-20 3.86955E-19
 -1       544 1.02429E-04-3.06516E-05-3.07634E-05-6.38152E-06-8.54947E-19 6.32404E-19
 -1       545 1.04337E-04-3.18845E-05-3.10554E-05-6.28097E-06-1.22442E-19 6.54192E-19
 -1       546 1.06622E-04-3.35841E-05-3.13105E-05-5.35122E-06 2.91773E-19 2.39824E-19
 -1       547 1.09234E-04-3.56713E-05-3.15393E-05-3.21801E-06 1.94628E-19 1.00623E-18
 -1       548 1.11886E-04-3.77300E-05-3.17961E-05 3.78149E-07-7.12937E-19 9.68093E-19
 -1       549 1.13888E-04-3.88244E-05-3.21832E-05 5.23478E-06-1.40055E-18-3.89340E-19
 -1       550 1.14232E-04-3.76660E-05-3.28191E-05 1.01739E-05-1.06386E-18 6.81548E-19
 -1       551 1.12068E-04-3.33540E-05-3.37527E-05 1.28219E-05-1.17690E-19-3.38666E-19
 -1       552 1.08303E-04-2.73422E-05-3.47282E-05 1.04624E-05 5.58529E-19-8.79833E-19
 -1       553 1.05608E-04-2.33111E-05-3.53012E-05 2.80583E-06 3.33906E-19 3.81152E-19
 -1       554 1.06359E-04-2.44292E-05-3.51562E-05-6.42160E-06 9.14544E-19-5.84259E-19
 -1       555 1.09905E-04-2.98241E-05-3.43453E-05-1.21460E-05 1.50481E-18-7.33858E-19
 -1       556 1.13245E-04-3.54764E-05-3.33392E-05-1.21990E-05-6.27553E-20-9.24907E-19
 -1       557 1.14353E-04-3.84884E-05-3.25216E-05-8.25901E-06 3.60236E-19 1.04412E-18
 -1       558 1.13213E-04-3.85797E-05-3.19983E-05-3.12596E-06 1.36251E-18 1.63211E-18
 -1       559 1.10829E-04-3.69352E-05-3.16829E-05 1.28102E-06 1.14989E-18 1.23710E-18
 -1       560 1.08137E-04-3.47777E-05-3.14514E-05 4.25142E-06-9.89010E-20 1.08549E-18
 -1       561 1.05647E-04-3.28187E-05-3.12194E-05 5.83028E-06 1.86772E-19 7.43623E-19
 -1       562 1.03529E-04-3.13087E-05-3.09547E-05 6.35152E-06-6.57916E-20 2.08447E-18
 -1       563 1.01784E-04-3.02476E-05-3.06588E-05 6.18204E-06-6.89751E-19 2.59065E-18
 -1       564 1.00359E-04-2.95427E-05-3.03484E-05 5.62196E-06-2.05529E-18 1.91785E-19
 -1       565 9.91955E-05-2.90898E-05-3.00430E-05 4.88342E-06-1.44120E-18 1.58137E-18
 -1       566 9.82455E-05-2.88035E-05-2.97583E-05 4.10148E-06-3.94335E-20 1.49384E-19
 -1       567 9.74717E-05-2.86218E-05-2.95045E-05 3.35273E-06 5.56904E-19-1.64556E-19
 -1       568 9.68440E-05-2.85016E-05-2.92873E-05 2.67290E-06 8.20206E-19 2.30989E-18
 -1       569 9.63376E-05-2.84137E-05-2.91080E-05 2.07115E-06 1.12266E-18 3.88876E-18
 -1       570 9.59307E-05-2.83388E-05-2.89655E-05 1.54164E-06 1.10795E-18 3.93804E-18
 -1       571 9.56024E-05-2.82717E-05-2.88538E-05 1.06713E-06 6.96277E-19 2.55674E-18
 -1       572 9.45009E-05-2.68581E-05-2.89901E-05 1.31193E-06 3.11272E-20-1.48767E-18
 -1       573 9.42267E-05-2.65198E-05-2.90178E-05 9.89419E-07-9.41148E-19 2.17551E-18
 -1       574 9.51960E-05-2.77281E-05-2.89147E-05 1.39081E-06-1.10844E-18-1.39256E-18
 -1       575 9.48381E-05-2.72754E-05-2.89555E-05 1.45174E-06-2.93282E-18-3.17581E-18
 -1       576 9.40488E-05-2.63005E-05-2.90358E-05 5.30701E-07-8.27081E-19-4.64905E-19
 -1       577 9.39869E-05-2.62241E-05-2.90421E-05-5.87531E-10 1.03756E-19 7.90613E-20
 -1       578 9.40480E-05-2.62991E-05-2.90360E-05-5.32292E-07 8.00816E-19-4.66499E-19
 -1       579 9.42215E-05-2.65126E-05-2.90187E-05-9.85324E-07 1.39070E-18-3.39950E-18
 -1       580 9.44954E-05-2.68498E-05-2.89914E-05-1.31151E-06 1.39809E-18-1.37385E-18
 -1       581 9.48328E-05-2.72700E-05-2.89557E-05-1.45522E-06 6.94059E-19 1.63595E-18
 -1       582 9.51953E-05-2.77264E-05-2.89146E-05-1.39045E-06-8.22384E-19-4.73472E-19
 -1       583 2.49944E-05-1.45274E-05-3.90347E-06-1.26234E-05 1.34189E-19 2.47005E-18
 -1       584 9.45220E-05-2.72608E-05-2.88175E-05 8.98524E-07 1.12879E-18 2.39593E-19
 -1       585 8.99406E-05-4.93289E-05-1.71229E-05 4.09642E-05-1.96983E-18-2.69218E-18
 -1       586 1.25709E-04-6.04058E-05-2.79399E-05 2.44759E-05-1.40679E-18-1.67249E-18
 -1       587 9.45774E-05-2.07476E-05-3.16598E-05-9.39758E-06-1.69922E-18-1.43808E-18
 -1       588 4.88525E-05-2.81085E-05-8.34656E-06-3.62161E-05-3.18326E-19 2.99844E-18
 -1       589 1.43968E-04-3.24599E-05-4.82751E-05-9.62484E-06-3.08606E-18 2.60484E-18
 -1       590 5.75356E-05-3.27514E-05-1.01510E-05 3.92968E-05 7.03673E-19-1.17176E-18
 -1       591 8.92022E-05-1.28289E-05-3.27495E-05-1.92220E-06 2.90127E-19-2.42664E-18
 -1       592 1.33958E-04-8.25286E-06-5.44800E-05 4.91414E-07 2.40017E-18 6.01658E-20
 -1       593 1.11888E-04-5.78226E-05-2.30742E-05-3.35468E-05-3.02280E-18-1.28842E-19
 -1       594 1.43281E-04-3.55526E-05-4.66155E-05-8.99523E-06-7.72971E-19-1.66326E-18
 -1       595 1.43729E-04-3.68649E-05-4.61807E-05 8.48909E-06 6.38081E-19 1.41095E-18
 -1       596 1.43851E-04-5.12617E-05-3.99262E-05 3.17373E-06-1.69707E-18 2.77986E-18
 -1       597 1.39354E-04-5.75132E-05-3.52031E-05-8.53933E-06-1.87553E-18 9.62600E-19
 -1       598 7.76691E-05-4.37849E-05-1.41496E-05-4.22089E-05-2.73772E-18-2.94985E-18
 -1       599 4.48878E-05-2.61834E-05-7.47574E-06-3.45622E-05-1.16054E-18-3.14503E-18
 -1       600 2.54157E-05-1.23974E-05-4.92760E-06-6.99890E-06 6.81266E-20-2.68001E-18
 -1       601 2.78972E-05-1.80098E-05-3.71464E-06 2.09292E-05 6.68362E-20-3.37320E-18
 -1       602 9.79838E-05-5.25506E-05-1.91843E-05 3.86999E-05 1.24604E-18 6.34262E-19
 -1       603 8.09016E-05-4.55279E-05-1.48266E-05-4.21145E-05-3.67189E-19 3.85689E-18
 -1       604 1.28590E-04-6.02415E-05-2.92972E-05 2.28180E-05-5.34160E-20 7.39592E-19
 -1       605 1.38825E-04-1.39569E-05-5.40201E-05-7.80840E-06-3.79492E-18 1.87835E-18
 -1       606 1.32299E-04-8.57711E-06-5.36089E-05 2.15721E-06-3.41915E-18 7.12328E-19
 -1       607 1.38515E-04-2.10160E-05-5.09204E-05 1.10592E-05-1.75828E-18 3.47019E-19
 -1       608 1.43340E-04-4.18492E-05-4.38821E-05 7.10244E-06-4.39848E-19 3.18019E-18
 -1       609 1.38934E-04-5.74047E-05-3.51007E-05-9.71432E-06-1.25596E-18 2.25073E-18
 -1       610 1.18829E-04-5.94845E-05-2.53253E-05-2.98370E-05-6.60633E-19 3.34716E-18
 -1       611 2.61612E-05-1.55762E-05-3.94945E-06 1.60996E-05-2.19374E-18-2.22029E-18
 -1       612 9.61114E-05-2.31716E-05-3.12634E-05 9.56604E-06 2.17034E-18 1.23082E-18
 -1       613 1.41419E-04-5.40841E-05-3.76475E-05 4.84907E-06-1.66593E-18-1.68687E-18
 -1       614 9.13875E-05-1.58797E-05-3.23832E-05-7.66843E-06-9.83597E-19-2.34461E-18
 -1       615 1.24662E-04-1.30221E-05-4.84047E-05 8.47375E-06 1.64886E-18-9.58735E-19
 -1       616 9.55262E-05-2.81162E-05-2.88886E-05-1.26032E-06-5.11044E-19 1.10767E-18
 -1       617 9.27935E-05-1.79357E-05-3.21026E-05-8.86222E-06-1.32971E-18-2.14138E-18
 -1       618 9.15765E-05-1.67646E-05-3.20679E-05 2.40629E-06 9.53065E-19-1.71028E-18
 -1       619 9.13156E-05-1.63538E-05-3.21318E-05 8.28065E-07 6.79326E-19-1.94644E-18
 -1       620 9.29150E-05-1.89461E-05-3.17066E-05 5.20633E-06 1.78840E-18-1.03154E-18
 -1       621 9.39985E-05-2.08933E-05-3.13387E-05 6.08671E-06 1.96625E-18-7.48998E-19
 -1       622 9.52723E-05-2.40652E-05-3.05071E-05 5.09406E-06 1.69961E-18-1.80417E-19
 -1       623 1.11810E-04-5.50119E-05-2.41948E-05 2.82110E-05-7.71250E-19-1.79970E-18
 -1       624 9.54251E-05-2.56318E-05-2.99103E-05-2.33208E-06-9.50505E-19-1.46354E-18
 -1       625 9.54962E-05-2.68466E-05-2.94205E-05-6.91200E-07-8.60527E-19-1.41513E-18
 -1       626 9.54499E-05-2.75635E-05-2.90939E-05 3.99366E-07-6.65962E-19-1.32378E-18
 -1       627 9.53853E-05-2.79783E-05-2.88886E-05 1.11406E-06-5.95390E-19-1.19464E-18
 -1       628 9.53364E-05-2.81968E-05-2.87740E-05 1.58780E-06-5.21340E-19-7.94664E-19
 -1       629 9.53109E-05-2.82801E-05-2.87274E-05 1.92808E-06-2.50690E-19-3.91865E-19
 -1       630 9.53082E-05-2.82658E-05-2.87324E-05 2.21762E-06 1.29283E-19-1.84576E-19
 -1       631 9.53252E-05-2.81787E-05-2.87770E-05 2.51965E-06-2.94439E-19-2.71776E-21
 -1       632 9.53599E-05-2.80375E-05-2.88523E-05 2.88239E-06-1.03820E-20-1.94575E-19
 -1       633 9.54122E-05-2.78593E-05-2.89509E-05 3.34179E-06-2.96709E-19-8.39984E-19
 -1       634 9.54862E-05-2.76644E-05-2.90661E-05 3.92262E-06-2.53620E-19-6.93067E-19
 -1       635 9.55934E-05-2.74822E-05-2.91900E-05 4.63774E-06-2.43247E-19-5.55481E-19
 -1       636 9.57575E-05-2.73589E-05-2.93131E-05 5.48544E-06-1.31095E-18-1.26177E-19
 -1       637 9.60247E-05-2.73692E-05-2.94232E-05 6.44464E-06-7.56840E-19 4.09770E-19
 -1       638 9.64785E-05-2.76300E-05-2.95060E-05 7.46696E-06-1.26570E-19 6.67979E-19
 -1       639 9.72616E-05-2.83156E-05-2.95481E-05 8.46413E-06-2.02584E-19 9.01333E-19
 -1       640 9.86007E-05-2.96660E-05-2.95438E-05 9.28621E-06 3.14811E-19 8.86828E-19
 -1       641 1.00821E-04-3.19646E-05-2.95112E-05 9.68332E-06 5.19355E-19 9.90920E-19
 -1       642 1.04312E-04-3.54402E-05-2.95181E-05 9.24327E-06 1.15160E-18 6.97296E-19
 -1       643 1.09378E-04-4.00080E-05-2.97299E-05 7.28602E-06 1.80925E-18 1.27421E-18
 -1       644 1.15728E-04-4.46411E-05-3.04592E-05 3.02732E-06 7.69639E-19 1.64411E-18
 -1       645 1.21814E-04-4.66518E-05-3.22408E-05-4.23498E-06 1.95367E-19 1.96115E-18
 -1       646 1.24488E-04-4.24601E-05-3.53054E-05-1.22298E-05-2.14427E-18 9.45494E-19
 -1       647 1.21424E-04-3.01775E-05-3.93260E-05-1.54883E-05-1.86719E-18-3.13832E-19
 -1       648 1.15000E-04-1.65819E-05-4.25833E-05-8.57693E-06-1.83253E-18-1.31461E-18
 -1       649 1.15192E-04-1.59916E-05-4.28457E-05 5.81791E-06-1.83572E-18-2.12161E-18
 -1       650 1.20158E-04-2.74954E-05-3.99685E-05 1.50294E-05-5.57149E-19-1.21422E-18
 -1       651 1.24205E-04-4.07489E-05-3.58832E-05 1.34092E-05 1.03166E-19-1.70513E-18
 -1       652 1.22576E-04-4.65849E-05-3.25901E-05 5.45828E-06-5.59255E-19-1.94414E-19
 -1       653 1.16855E-04-4.52924E-05-3.06781E-05-1.96426E-06-5.90049E-19 2.48445E-19
 -1       654 1.10393E-04-4.08252E-05-2.98184E-05-6.73151E-06 9.74440E-19 8.33631E-19
 -1       655 1.05079E-04-3.61450E-05-2.95436E-05-9.00604E-06 1.05267E-18 1.16071E-18
 -1       656 1.01331E-04-3.24505E-05-2.95198E-05-9.64162E-06-9.93640E-19 1.06076E-18
 -1       657 9.89206E-05-2.99477E-05-2.95591E-05-9.33176E-06-6.05800E-19 1.10743E-18
 -1       658 9.74570E-05-2.84380E-05-2.95786E-05-8.52891E-06 2.06610E-19-1.54184E-18
 -1       659 9.65989E-05-2.76360E-05-2.95546E-05-7.50407E-06 8.17059E-19-3.13390E-18
 -1       660 9.61024E-05-2.72902E-05-2.94901E-05-6.41875E-06 6.69032E-19-2.01879E-18
 -1       661 9.58111E-05-2.72130E-05-2.93984E-05-5.36706E-06 8.08241E-19-1.70834E-18
 -1       662 9.56310E-05-2.72769E-05-2.92939E-05-4.40047E-06 1.78257E-18 5.28696E-19
 -1       663 9.55068E-05-2.73980E-05-2.91889E-05-3.54117E-06 2.33848E-18 8.18244E-20
 -1       664 9.54118E-05-2.75291E-05-2.90922E-05-2.79234E-06 4.35166E-19-4.76395E-19
 -1       665 9.53210E-05-2.76329E-05-2.90088E-05-2.14490E-06-5.06838E-19-1.84501E-18
 -1       666 4.87552E-05-2.08782E-05-1.14526E-05 2.75191E-05 1.33888E-18-1.08563E-18
 -1       667 1.18452E-04-5.73734E-05-2.61294E-05 2.35962E-05 1.13919E-18 9.72563E-19
 -1       668 9.51373E-05-2.76075E-05-2.89407E-05-3.55315E-07 6.79804E-19-1.63894E-20
 -1       669 9.50630E-05-2.82797E-05-2.86213E-05-1.86180E-06 3.65737E-21-3.52318E-19
 -1       670 9.51402E-05-2.83023E-05-2.86447E-05-2.12357E-06 2.96288E-19-1.12894E-19
 -1       671 9.52566E-05-2.82701E-05-2.87083E-05-2.39105E-06 4.25495E-19-7.14823E-21
 -1       672 9.54094E-05-2.81989E-05-2.88042E-05-2.71245E-06 4.03393E-19-2.84972E-20
 -1       673 9.56000E-05-2.81039E-05-2.89265E-05-3.12320E-06 3.47546E-19 2.98332E-19
 -1       674 9.58348E-05-2.80027E-05-2.90703E-05-3.64702E-06 1.94277E-19 4.05804E-19
 -1       675 9.61271E-05-2.79208E-05-2.92305E-05-4.29477E-06 4.17892E-19 3.15092E-19
 -1       676 9.65003E-05-2.78975E-05-2.94004E-05-5.06101E-06 2.23064E-19 6.98001E-20
 -1       677 9.69948E-05-2.79944E-05-2.95708E-05-5.91764E-06 2.35942E-19 2.99965E-19
 -1       678 9.76784E-05-2.83065E-05-2.97302E-05-6.80399E-06 3.86302E-19 8.24010E-19
 -1       679 9.86604E-05-2.89726E-05-2.98661E-05-7.61238E-06-4.25650E-19 4.58311E-19
 -1       680 1.00106E-04-3.01770E-05-2.99706E-05-8.16782E-06-6.30675E-19 2.71116E-20
 -1       681 1.02239E-04-3.21252E-05-3.00512E-05-8.20137E-06 1.69671E-19 9.91091E-20
 -1       682 1.05297E-04-3.49542E-05-3.01516E-05-7.31816E-06 3.83752E-19 2.10311E-19
 -1       683 1.09373E-04-3.85030E-05-3.03797E-05-4.99942E-06 7.72706E-21 7.35963E-19
 -1       684 1.14157E-04-4.19756E-05-3.09443E-05-7.14453E-07-9.81725E-19 9.51248E-19
 -1       685 1.18352E-04-4.34483E-05-3.21090E-05 5.61974E-06-1.67359E-18 6.03541E-19
 -1       686 1.19472E-04-3.99748E-05-3.41693E-05 1.21650E-05-4.44600E-19 3.17639E-19
 -1       687 1.16739E-04-3.12632E-05-3.67436E-05 1.45522E-05 1.78817E-19 4.67108E-19
 -1       688 1.11871E-04-2.10909E-05-3.90810E-05 9.20080E-06 2.68562E-19 8.46967E-19
 -1       689 1.10165E-04-1.80543E-05-3.96549E-05-2.68034E-06 1.16220E-18-7.30668E-19
 -1       690 1.13735E-04-2.48860E-05-3.82022E-05-1.24022E-05 1.37013E-18-5.22502E-19
 -1       691 1.18447E-04-3.54823E-05-3.56425E-05-1.41911E-05 6.33882E-19-2.99122E-19
 -1       692 1.19563E-04-4.22052E-05-3.31771E-05-9.39089E-06-5.88673E-19-1.28157E-18
 -1       693 1.16736E-04-4.31795E-05-3.15278E-05-2.70000E-06 6.01858E-19-1.94622E-18
 -1       694 1.12129E-04-4.06195E-05-3.06508E-05 2.76038E-06 9.76093E-19-1.09341E-18
 -1       695 1.07570E-04-3.69618E-05-3.02660E-05 6.15729E-06 6.75227E-19-4.12524E-19
 -1       696 1.03912E-04-3.36555E-05-3.01132E-05 7.79486E-06 3.84107E-19-1.86692E-18
 -1       697 1.01268E-04-3.11881E-05-3.00356E-05 8.21872E-06-7.58276E-19-1.74340E-18
 -1       698 9.94569E-05-2.95614E-05-2.99556E-05 7.89754E-06-9.74840E-19-1.22537E-18
 -1       699 9.82368E-05-2.85916E-05-2.98476E-05 7.16931E-06-8.33003E-19-1.13724E-18
 -1       700 9.74064E-05-2.80746E-05-2.97130E-05 6.25708E-06-2.25688E-18-6.84850E-19
 -1       701 9.68249E-05-2.78427E-05-2.95630E-05 5.30140E-06-7.03604E-19-4.98465E-19
 -1       702 9.64017E-05-2.77751E-05-2.94106E-05 4.38468E-06 4.16582E-19-6.55204E-19
 -1       703 9.60803E-05-2.77903E-05-2.92664E-05 3.54924E-06-9.49899E-19-9.89408E-19
 -1       704 9.58250E-05-2.78350E-05-2.91379E-05 2.81032E-06 4.57834E-19-8.18532E-19
 -1       705 9.56110E-05-2.78740E-05-2.90291E-05 2.16680E-06 3.92050E-19-9.03211E-19
 -1       706 9.53776E-05-2.77971E-05-2.89623E-05 1.76768E-06 8.80687E-19-2.01341E-18
 -1       707 9.35365E-05-2.59381E-05-2.89711E-05 3.45488E-07 1.40423E-18 3.12959E-19
 -1       708 9.52620E-05-2.76891E-05-2.89594E-05-1.75407E-06 2.21554E-19-1.34053E-18
 -1       709 9.40534E-05-2.64470E-05-2.89743E-05 1.50554E-06-6.81347E-19-1.35614E-18
 -1       710 9.35356E-05-2.59366E-05-2.89713E-05-3.44309E-07 2.13264E-19-7.84421E-19
 -1       711 9.37159E-05-2.61146E-05-2.89723E-05 9.89965E-07-9.63439E-19 8.64200E-19
 -1       712 1.22984E-04-1.26048E-05-4.77924E-05-8.29294E-06 1.28214E-18-1.62411E-18
 -1       713 9.37084E-05-2.61054E-05-2.89729E-05-9.80038E-07 5.96829E-19-8.66549E-19
 -1       714 9.40433E-05-2.64344E-05-2.89755E-05-1.50118E-06 2.32646E-18-2.07668E-18
 -1       715 9.45040E-05-2.68893E-05-2.89780E-05-1.82243E-06 2.39929E-18-1.15426E-18
 -1       716 9.52569E-05-2.69717E-05-2.92631E-05 7.78905E-07 1.23651E-18-2.77064E-19
 -1       717 4.67551E-05-1.66822E-05-1.23750E-05-2.15076E-05-1.52797E-19-1.91840E-18
 -1       718 9.45648E-05-2.21391E-05-3.10353E-05-6.10616E-06-1.29230E-18-1.60187E-18
 -1       719 3.72194E-05-1.14491E-05-1.05206E-05 6.85532E-06-3.55456E-19-2.72337E-18
 -1       720 9.50317E-05-2.81814E-05-2.86499E-05-1.54166E-06 2.70264E-19-4.59684E-19
 -1       721 9.50549E-05-2.79753E-05-2.87481E-05-1.07773E-06 6.93534E-19-6.58190E-20
 -1       722 9.51905E-05-2.42607E-05-3.04025E-05-4.02649E-06-1.05709E-18-1.55853E-18
 -1       723 4.72013E-05-1.81267E-05-1.19941E-05 2.37862E-05-3.46102E-18-3.26648E-18
 -1       724 8.27856E-05-3.93595E-05-1.82655E-05 3.52910E-05 1.68520E-18 1.63769E-19
 -1       725 7.80988E-05-3.79964E-05-1.68434E-05 3.67691E-05-1.43683E-18-2.33051E-18
 -1       726 9.53453E-05-2.58919E-05-2.97619E-05 2.51157E-06 1.43641E-18-3.20695E-19
 -1       727 7.36770E-05-3.51868E-05-1.61260E-05-3.59644E-05 2.32034E-19 2.64205E-18
 -1       728 9.21025E-05-1.76056E-05-3.19331E-05 3.89983E-06 1.37972E-18-1.32812E-18
 -1       729 1.34875E-04-4.63764E-05-3.81930E-05 8.04435E-06-3.17876E-19 7.17053E-19
 -1       730 1.31579E-04-3.19289E-05-4.31109E-05 1.48696E-05-1.18751E-18-7.53542E-19
 -1       731 1.31311E-04-3.42967E-05-4.19763E-05 1.39361E-05 2.70706E-19 8.46504E-19
 -1       732 6.90982E-05-3.29732E-05-1.50808E-05-3.56824E-05-1.99688E-18-1.99169E-18
 -1       733 9.20627E-05-1.75487E-05-3.19403E-05-3.85141E-06-1.93484E-19-2.12104E-18
 -1       734 1.28974E-04-2.70898E-05-4.42020E-05-1.43608E-05-1.17296E-18-1.51907E-18
 -1       735 1.26335E-04-5.82174E-05-2.91868E-05-1.57903E-05-1.85880E-18-9.90013E-19
 -1       736 3.58570E-05-1.11202E-05-1.00389E-05 3.18791E-06-3.80591E-18-2.10339E-18
 -1       737 9.87384E-05-4.92228E-05-2.10111E-05-3.37822E-05-2.50806E-18-6.70493E-19
 -1       738 1.29214E-04-5.90170E-05-3.00854E-05-1.30992E-05-2.58054E-19 7.78609E-19
 -1       739 1.35548E-04-5.71664E-05-3.37207E-05 5.53087E-06-2.49644E-19 2.39642E-18
 -1       740 1.37295E-04-4.33435E-05-4.05886E-05-1.00077E-05-2.13413E-18 3.31169E-18
 -1       741 4.73610E-05-1.75266E-05-1.22733E-05-2.26443E-05-8.34275E-19 1.78001E-18
 -1       742 1.24695E-04-1.57328E-05-4.72527E-05 1.07637E-05-1.56008E-18-4.19970E-19
 -1       743 1.36085E-04-5.05956E-05-3.68798E-05 5.63513E-06 3.13846E-19 1.32137E-18
 -1       744 1.04506E-04-5.25213E-05-2.20984E-05-3.24227E-05 9.37189E-19 3.33978E-18
 -1       745 1.32001E-04-5.70963E-05-3.21691E-05 5.76272E-06-1.40654E-19 7.23366E-19
 -1       746 1.36173E-04-4.51192E-05-3.92908E-05-9.33777E-06-2.36494E-19-6.27969E-19
 -1       747 9.29055E-05-1.89116E-05-3.17146E-05-5.16623E-06-7.87846E-19-1.95788E-18
 -1       748 9.13085E-05-1.63442E-05-3.21329E-05-7.72008E-07 3.79498E-19-2.23243E-18
 -1       749 1.22837E-04-2.48330E-05-4.23397E-05 1.46718E-05-1.46457E-19-4.05888E-19
 -1       750 9.45101E-05-2.68990E-05-2.89765E-05 1.82237E-06-8.86253E-19-6.49515E-19
 -1       751 1.03929E-04-4.87366E-05-2.35534E-05 2.72902E-05 1.62100E-18 6.23860E-21
 -1       752 9.49490E-05-2.73425E-05-2.89742E-05 1.88318E-06 1.10356E-19-5.40540E-18
 -1       753 1.30337E-04-5.34630E-05-3.29682E-05 7.88339E-07-6.01806E-19 3.79074E-19
 -1       754 9.48665E-05-2.72305E-05-2.89868E-05-2.04638E-06-3.31640E-19-6.76192E-19
 -1       755 9.15539E-05-1.67326E-05-3.20718E-05-2.34660E-06 1.21061E-19-2.15833E-18
 -1       756 1.29710E-04-2.84488E-05-4.38564E-05-1.50025E-05-2.70386E-18 2.38321E-18
 -1       757 9.46439E-05-2.26512E-05-3.08558E-05 3.82044E-06 1.52955E-18-7.34346E-19
 -1       758 9.58505E-05-2.66978E-05-2.96371E-05-3.56327E-07-5.03832E-19-1.03440E-18
 -1       759 9.59201E-05-2.75034E-05-2.93214E-05 5.59304E-07-5.90584E-19-6.83138E-19
 -1       760 9.58736E-05-2.79586E-05-2.91064E-05 1.18721E-06-4.97094E-19-7.18752E-19
 -1       761 9.57633E-05-2.81645E-05-2.89709E-05 1.63202E-06-7.07632E-20-7.94383E-19
 -1       762 9.56138E-05-2.81881E-05-2.88967E-05 1.98008E-06 2.46000E-20-6.31090E-19
 -1       763 9.54358E-05-2.80744E-05-2.88692E-05 2.30131E-06 1.00072E-19-3.89009E-19
 -1       764 9.52322E-05-2.78549E-05-2.88760E-05 2.65089E-06-4.92269E-19-2.90731E-19
 -1       765 9.50017E-05-2.75540E-05-2.89061E-05 3.07177E-06-1.72182E-19-3.25444E-19
 -1       766 9.47427E-05-2.71952E-05-2.89489E-05 3.59672E-06-3.89794E-19-7.92093E-19
 -1       767 9.44569E-05-2.68069E-05-2.89927E-05 4.24951E-06-4.65031E-19-7.78888E-19
 -1       768 9.41550E-05-2.64310E-05-2.90244E-05 5.04568E-06-6.01567E-19-6.07086E-19
 -1       769 9.38655E-05-2.61330E-05-2.90280E-05 5.99299E-06-7.98544E-19 4.07217E-19
 -1       770 9.36498E-05-2.60172E-05-2.89851E-05 7.09162E-06-3.56806E-19 5.60959E-19
 -1       771 9.36241E-05-2.62446E-05-2.88766E-05 8.33345E-06-3.91921E-21 5.99471E-19
 -1       772 9.39934E-05-2.70551E-05-2.86876E-05 9.69670E-06-2.96124E-19 5.45751E-19
 -1       773 9.50965E-05-2.87853E-05-2.84189E-05 1.11233E-05 6.13634E-19 8.13724E-19
 -1       774 9.74536E-05-3.18580E-05-2.81119E-05 1.24547E-05 1.17393E-18 1.08425E-18
 -1       775 1.01748E-04-3.66628E-05-2.78888E-05 1.32887E-05 1.54636E-18 1.14593E-18
 -1       776 1.08996E-04-4.33734E-05-2.81264E-05 1.24056E-05 1.71441E-18 7.90652E-19
 -1       777 1.18428E-04-5.01846E-05-2.93140E-05 8.75992E-06 1.26142E-18 1.13676E-18
 -1       778 1.30892E-04-4.16426E-05-3.84702E-05-1.23280E-05-2.45816E-18 2.65144E-18
 -1       779 1.29392E-04-5.14273E-05-3.35656E-05 2.65335E-06 7.50670E-19-3.31415E-19
 -1       780 1.20864E-04-5.12620E-05-2.98037E-05-6.78600E-06 2.40607E-19-4.25488E-19
 -1       781 1.10688E-04-4.45370E-05-2.83400E-05-1.17089E-05 7.60782E-19 5.42553E-19
 -1       782 1.03231E-04-3.78366E-05-2.80197E-05-1.29553E-05 1.01312E-18-4.09911E-19
 -1       783 9.84566E-05-3.27075E-05-2.81777E-05-1.24397E-05-3.09125E-19-6.69263E-19
 -1       784 9.57603E-05-2.93378E-05-2.84683E-05-1.12267E-05-9.07441E-19-6.84100E-19
 -1       785 9.44178E-05-2.73690E-05-2.87366E-05-9.82766E-06-1.41697E-18-5.70331E-19
 -1       786 9.38845E-05-2.63769E-05-2.89328E-05-8.43724E-06-7.05997E-19 1.65255E-18
 -1       787 9.37956E-05-2.60113E-05-2.90511E-05-7.13363E-06 5.42099E-19-4.60289E-19
 -1       788 9.39242E-05-2.60150E-05-2.91044E-05-5.94787E-06 1.33479E-18-1.80622E-18
 -1       789 9.41395E-05-2.62145E-05-2.91111E-05-4.89124E-06 1.26503E-18-1.83346E-18
 -1       790 9.43674E-05-2.64936E-05-2.90890E-05-3.96789E-06 1.42544E-18-2.36270E-18
 -1       791 9.45811E-05-2.67865E-05-2.90544E-05-3.17177E-06 9.74301E-19-2.89526E-18
 -1       792 9.47619E-05-2.70415E-05-2.90233E-05-2.57366E-06 1.02361E-18-1.79989E-18
 -1       793 9.55100E-05-2.82466E-05-2.88272E-05-1.98024E-06 2.19038E-19-6.01484E-19
 -1       794 9.52144E-05-2.78069E-05-2.88888E-05-3.01968E-06 6.28415E-20 1.34193E-19
 -1       795 9.51084E-05-2.75418E-05-2.89570E-05-3.51807E-06 3.06056E-19-1.35522E-19
 -1       796 9.50038E-05-2.72588E-05-2.90334E-05-4.13948E-06 3.18858E-19-3.05689E-19
 -1       797 9.49145E-05-2.69966E-05-2.91074E-05-4.89589E-06 4.20277E-19-3.36418E-19
 -1       798 9.48713E-05-2.68157E-05-2.91664E-05-5.78694E-06 5.78304E-20-1.01159E-20
 -1       799 9.49347E-05-2.68108E-05-2.91956E-05-6.79697E-06-3.68136E-19-1.36603E-20
 -1       800 9.52136E-05-2.71265E-05-2.91798E-05-7.88960E-06-3.89715E-19 7.90006E-19
 -1       801 9.58921E-05-2.79734E-05-2.91077E-05-8.99660E-06-4.98665E-19 7.30711E-19
 -1       802 9.72584E-05-2.96331E-05-2.89827E-05-9.99359E-06-4.76316E-20 2.05450E-19
 -1       803 9.97244E-05-3.24301E-05-2.88414E-05-1.06522E-05-1.45786E-19 3.12071E-19
 -1       804 1.03799E-04-3.66253E-05-2.87901E-05-1.05103E-05-3.87649E-19 8.65078E-19
 -1       805 1.09833E-04-4.19959E-05-2.90624E-05-8.75276E-06-7.09807E-19 1.67424E-18
 -1       806 1.17429E-04-4.71902E-05-3.00972E-05-4.27570E-06-7.69311E-19 5.59826E-19
 -1       807 1.16321E-04-1.37784E-05-4.43899E-05 4.64050E-06 1.79420E-18-1.15834E-18
 -1       808 1.23769E-04-3.22529E-05-3.95890E-05-1.57124E-05-4.89691E-20-3.22680E-19
 -1       809 1.26364E-04-4.53568E-05-3.48469E-05-9.72149E-06 5.10099E-19-8.97524E-20
 -1       810 1.21833E-04-4.85229E-05-3.14456E-05-7.61404E-07 6.42425E-19-5.10964E-19
 -1       811 1.14438E-04-4.51741E-05-2.97036E-05 5.85425E-06 1.04651E-18-1.31737E-18
 -1       812 1.07442E-04-3.96737E-05-2.90567E-05 9.24859E-06 1.02370E-18-1.98174E-18
 -1       813 1.02304E-04-3.48156E-05-2.89283E-05 1.03618E-05 8.98450E-19-1.31922E-18
 -1       814 9.89204E-05-3.12238E-05-2.90144E-05 1.02110E-05 8.67260E-19-3.37618E-18
 -1       815 9.69206E-05-2.89226E-05-2.91420E-05 9.43114E-06-8.57117E-19-3.67093E-18
 -1       816 9.58272E-05-2.76064E-05-2.92370E-05 8.38224E-06-5.87266E-19-3.76829E-18
 -1       817 9.52860E-05-2.69656E-05-2.92795E-05 7.24923E-06-2.74349E-18-3.66290E-18
 -1       818 9.50577E-05-2.67499E-05-2.92741E-05 6.13474E-06-1.42102E-18-3.66310E-18
 -1       819 9.49924E-05-2.67777E-05-2.92342E-05 5.09545E-06 5.24051E-19-3.57624E-18
 -1       820 9.50008E-05-2.69260E-05-2.91743E-05 4.15968E-06-7.20365E-19-3.22013E-18
 -1       821 9.50339E-05-2.71161E-05-2.91071E-05 3.33843E-06-7.28488E-20-3.32090E-18
 -1       822 9.50587E-05-2.72947E-05-2.90416E-05 2.62543E-06 4.21936E-19-4.07628E-18
 -1       823 9.49909E-05-2.73188E-05-2.90029E-05 2.23620E-06 7.43007E-19-4.45662E-18
 -1       824 4.90556E-05-1.23149E-05-1.54432E-05-5.69763E-06-9.41883E-19-2.96030E-18
 -1       825 9.31925E-05-1.96306E-05-3.15277E-05 1.19784E-06 6.52980E-19-1.58151E-18
 -1       826 9.29023E-05-2.54715E-05-2.88991E-05 3.10779E-09 8.03861E-19-1.39481E-18
 -1       827 9.39451E-05-2.63635E-05-2.89637E-05-2.10996E-06 1.61635E-18 2.04780E-19
 -1       828 9.30232E-05-2.55735E-05-2.89069E-05-8.25742E-07 1.39072E-18-9.32839E-19
 -1       829 9.57050E-05-2.67739E-05-2.95419E-05 4.80711E-07 8.00550E-19-1.82925E-19
 -1       830 5.00405E-05-1.35586E-05-1.53502E-05 1.11871E-05-3.19580E-18-1.85839E-18
 -1       831 9.37317E-05-2.03861E-05-3.14299E-05-5.85729E-06-1.11173E-18-2.05060E-18
 -1       832 5.19615E-05-1.58816E-05-1.51350E-05 1.71928E-05 3.91157E-19-1.11626E-18
 -1       833 1.26817E-04-4.05936E-05-3.71521E-05 1.31479E-05-1.68718E-19-2.42728E-20
 -1       834 9.33799E-05-2.58791E-05-2.89292E-05-1.56773E-06 5.50320E-19-1.98765E-18
 -1       835 9.53168E-05-2.80275E-05-2.88382E-05-2.62145E-06 1.41944E-19-1.47188E-20
 -1       836 9.54152E-05-2.81816E-05-2.88144E-05-2.28996E-06 1.99830E-19-6.72679E-19
 -1       837 9.56142E-05-2.54176E-05-3.00864E-05-1.70055E-06-6.99793E-19-1.32354E-18
 -1       838 9.56002E-05-2.81933E-05-2.88887E-05-1.63365E-06 1.62933E-19-3.32799E-19
 -1       839 6.77083E-05-2.54593E-05-1.78888E-05-2.65708E-05-2.90016E-19 2.14952E-18
 -1       840 6.81036E-05-2.65641E-05-1.75212E-05 2.77404E-05 1.29515E-18-2.15702E-19
 -1       841 9.56793E-05-2.79796E-05-2.90141E-05-1.17498E-06 5.78892E-19-1.73337E-19
 -1       842 6.76830E-05-2.51826E-05-1.79943E-05-2.61605E-05-6.55067E-19-8.73463E-19
 -1       843 1.19721E-04-5.33385E-05-2.83772E-05 1.33825E-05 2.17797E-19 1.94835E-18
 -1       844 8.76996E-05-3.82200E-05-2.10539E-05-2.97091E-05-1.01498E-18-2.14351E-18
 -1       845 9.57286E-05-2.75411E-05-2.92231E-05-5.09020E-07 7.91984E-19-2.99866E-19
 -1       846 9.52252E-05-2.44084E-05-3.03486E-05 3.34779E-06 1.49459E-18-5.80138E-19
 -1       847 1.27383E-04-5.63392E-05-3.04458E-05 8.27177E-06-7.03368E-20 9.03354E-19
 -1       848 9.37283E-05-4.25330E-05-2.17683E-05-2.98091E-05 3.30694E-19 2.52418E-18
 -1       849 1.15584E-04-5.28286E-05-2.68195E-05-1.88714E-05 6.74361E-19 1.07421E-18
 -1       850 6.91317E-05-2.63214E-05-1.81194E-05 2.75972E-05-1.51297E-18-2.45178E-18
 -1       851 9.73837E-05-4.38089E-05-2.28349E-05 2.79202E-05-8.64013E-19-6.99580E-19
 -1       852 1.13612E-04-5.23662E-05-2.62142E-05-2.04137E-05-1.07476E-18-1.77833E-18
 -1       853 4.92691E-05-1.27648E-05-1.53270E-05-7.55798E-06-3.29848E-18-2.04018E-18
 -1       854 9.30788E-05-1.94251E-05-3.15670E-05 1.95604E-08 4.97154E-19-1.82143E-18
 -1       855 9.51501E-05-2.39768E-05-3.05064E-05-2.94903E-06-7.35334E-19-1.68198E-18
 -1       856 9.39584E-05-2.63811E-05-2.89615E-05 2.11138E-06-9.80576E-19-7.40974E-19
 -1       857 6.18669E-05-1.74928E-05-1.89039E-05-1.53872E-05-1.29865E-18-1.53300E-18
 -1       858 9.40439E-05-2.12302E-05-3.12030E-05-3.22172E-06-4.06358E-19-1.53542E-18
 -1       859 9.35157E-05-2.02320E-05-3.14082E-05 2.29502E-06 8.97661E-19-1.24656E-18
 -1       860 9.33958E-05-2.58967E-05-2.89284E-05 1.57713E-06-1.09274E-19 1.56860E-18
 -1       861 9.30305E-05-2.55825E-05-2.89065E-05 8.42976E-07 2.83181E-19 2.02594E-18
 -1       862 8.68925E-05-3.65834E-05-2.13683E-05 2.78802E-05 1.93592E-18 2.69661E-20
 -1       863 9.55379E-05-2.58105E-05-2.98839E-05 1.69350E-06 1.16588E-18-5.24026E-19
 -1       864 6.24624E-05-1.78937E-05-1.89469E-05-1.59060E-05-1.38283E-18-1.33234E-18
 -1       865 9.40281E-05-2.12366E-05-3.11957E-05 3.22575E-06 1.20537E-18-7.68106E-19
 -1       866 1.32099E-04-4.93226E-05-3.54811E-05-6.67105E-06-2.19956E-18 2.48358E-18
 -1       867 9.43272E-05-2.66790E-05-2.89900E-05-2.38717E-06 1.88788E-18-3.36824E-18
 -1       868 9.34964E-05-2.01994E-05-3.14137E-05-2.26278E-06-8.51952E-20-1.91376E-18
 -1       869 9.62001E-05-2.74839E-05-2.94498E-05 6.75279E-07-3.96995E-19-8.20318E-19
 -1       870 9.61228E-05-2.79107E-05-2.92338E-05 1.17697E-06-3.49120E-19-5.71432E-19
 -1       871 9.59249E-05-2.80557E-05-2.90868E-05 1.55566E-06-1.60825E-19-8.71097E-19
 -1       872 9.56376E-05-2.79863E-05-2.89934E-05 1.87593E-06 1.11128E-19-1.06500E-18
 -1       873 9.52757E-05-2.77503E-05-2.89395E-05 2.19229E-06 7.65090E-20-1.23893E-18
 -1       874 9.48432E-05-2.73828E-05-2.89116E-05 2.54879E-06-4.50485E-19-5.13041E-19
 -1       875 9.43375E-05-2.69120E-05-2.88966E-05 2.98087E-06-5.91448E-19-1.07174E-18
 -1       876 9.37535E-05-2.63662E-05-2.88803E-05 3.51712E-06-3.36959E-19-7.64235E-19
 -1       877 9.30887E-05-2.57805E-05-2.88464E-05 4.18152E-06-2.62508E-20-3.57444E-19
 -1       878 9.23489E-05-2.52053E-05-2.87758E-05 4.99685E-06-4.45486E-19-2.28590E-19
 -1       879 9.15588E-05-2.47179E-05-2.86460E-05 5.98999E-06-1.44878E-19 3.53183E-19
 -1       880 9.07763E-05-2.44372E-05-2.84309E-05 7.19963E-06-3.44648E-19 1.06309E-18
 -1       881 9.01174E-05-2.45444E-05-2.81027E-05 8.68720E-06-6.79068E-20 1.16939E-18
 -1       882 8.97982E-05-2.53124E-05-2.76372E-05 1.05478E-05 4.62515E-20 2.14196E-18
 -1       883 9.02032E-05-2.71446E-05-2.70249E-05 1.28932E-05 6.07972E-19 5.65091E-19
 -1       884 9.19879E-05-3.06134E-05-2.63044E-05 1.58226E-05 9.13976E-19-2.10149E-19
 -1       885 9.64507E-05-3.64795E-05-2.56640E-05 1.91337E-05 2.02976E-18-2.99384E-19
 -1       886 5.65303E-05-1.32525E-05-1.84367E-05 1.66541E-06-2.38581E-18-1.26001E-18
 -1       887 1.06010E-04-4.31085E-05-2.69024E-05 1.63456E-05 1.79230E-18 2.43252E-18
 -1       888 1.03765E-04-4.35702E-05-2.57593E-05-2.00618E-05 9.77966E-19 6.99904E-19
 -1       889 9.61293E-05-3.53693E-05-2.60331E-05-1.77884E-05-1.10499E-19-9.74990E-20
 -1       890 9.22450E-05-3.00041E-05-2.66723E-05-1.48899E-05-2.79562E-19-1.87270E-18
 -1       891 9.06653E-05-2.68767E-05-2.73402E-05-1.22339E-05-6.24497E-19-1.58679E-18
 -1       892 9.03061E-05-2.52364E-05-2.78874E-05-1.00521E-05-1.17560E-18-1.12691E-18
 -1       893 9.05953E-05-2.45628E-05-2.82993E-05-8.27895E-06 5.89073E-19-1.59967E-18
 -1       894 9.11817E-05-2.44805E-05-2.85858E-05-6.82190E-06-2.36940E-19 1.96270E-19
 -1       895 9.18649E-05-2.47317E-05-2.87709E-05-5.60541E-06 4.04255E-19 6.67146E-19
 -1       896 9.25346E-05-2.51454E-05-2.88807E-05-4.57501E-06 1.13005E-18 2.60879E-20
 -1       897 9.31425E-05-2.56182E-05-2.89389E-05-3.70578E-06 6.35039E-19-7.36496E-19
 -1       898 9.36689E-05-2.60796E-05-2.89673E-05-2.96287E-06 1.12449E-19-1.71578E-18
 -1       899 9.42608E-05-2.67890E-05-2.89164E-05-3.60741E-06 3.16565E-19 1.89840E-19
 -1       900 8.15618E-05-2.98043E-05-2.20752E-05-2.35629E-05-1.71342E-19-2.66840E-18
 -1       901 9.46825E-05-2.72352E-05-2.89060E-05-3.06782E-06 3.47980E-19 2.18582E-19
 -1       902 9.32893E-05-2.58674E-05-2.88950E-05-5.09039E-06 4.26334E-22 4.99005E-19
 -1       903 9.27874E-05-2.55205E-05-2.88285E-05-6.06804E-06-1.37356E-19 6.56583E-19
 -1       904 9.23575E-05-2.53956E-05-2.86977E-05-7.22536E-06-3.89184E-19-2.48414E-19
 -1       905 9.21328E-05-2.56741E-05-2.84818E-05-8.58322E-06-3.85534E-19-5.61488E-19
 -1       906 9.23468E-05-2.66227E-05-2.81668E-05-1.01635E-05-1.18963E-19-2.46064E-19
 -1       907 9.33871E-05-2.86128E-05-2.77611E-05-1.19559E-05-1.11342E-19-3.12732E-19
 -1       908 9.58430E-05-3.21203E-05-2.73124E-05-1.39012E-05-4.16080E-19-8.64900E-20
 -1       909 1.00632E-04-3.76533E-05-2.69887E-05-1.54375E-05-7.72149E-19-3.76557E-20
 -1       910 1.08767E-04-4.52809E-05-2.71882E-05-1.56395E-05-4.16701E-19-8.36457E-19
 -1       911 6.52703E-05-1.87375E-05-1.98276E-05 1.65979E-05-1.93730E-18-1.53236E-18
 -1       912 9.87330E-05-3.58381E-05-2.69667E-05 1.53595E-05 2.30097E-18 4.36090E-19
 -1       913 9.46171E-05-3.07878E-05-2.73511E-05 1.34972E-05 8.28894E-19-1.61630E-19
 -1       914 9.26850E-05-2.77508E-05-2.78269E-05 1.14761E-05 3.08181E-19 1.92990E-18
 -1       915 9.19598E-05-2.60730E-05-2.82369E-05 9.65893E-06-1.54188E-19 1.51101E-18
 -1       916 9.19207E-05-2.53137E-05-2.85460E-05 8.07830E-06-1.13930E-18-4.96862E-19
 -1       917 9.22316E-05-2.51335E-05-2.87564E-05 6.71626E-06-1.16636E-18-1.36816E-18
 -1       918 9.26884E-05-2.52883E-05-2.88858E-05 5.54159E-06-1.25714E-18-2.75999E-18
 -1       919 9.31762E-05-2.56143E-05-2.89551E-05 4.53039E-06 1.79976E-19-1.94996E-18
 -1       920 9.36325E-05-2.60026E-05-2.89843E-05 3.66667E-06-5.28750E-19-2.60146E-18
 -1       921 9.40242E-05-2.63819E-05-2.89894E-05 2.92634E-06 2.42816E-19-3.80069E-18
 -1       922 9.60026E-05-2.67026E-05-2.96999E-05 1.41011E-07 7.74456E-19-5.35274E-19
 -1       923 9.60295E-05-2.79426E-05-2.91801E-05-1.20651E-06 4.36108E-19-2.27619E-19
 -1       924 9.44905E-05-2.68508E-05-2.89879E-05 2.25609E-06 7.32333E-19-4.39304E-18
 -1       925 9.50545E-05-2.76197E-05-2.89006E-05-2.63345E-06-1.40800E-19 2.07710E-19
 -1       926 9.21839E-05-2.49397E-05-2.88189E-05-5.09971E-07 9.57710E-19-2.00351E-18
 -1       927 6.58769E-05-2.04838E-05-1.93023E-05 1.92063E-05 2.68916E-20 2.80335E-19
 -1       928 5.84213E-05-1.41338E-05-1.88331E-05 6.46667E-06-9.94205E-20-1.21641E-18
 -1       929 9.37919E-05-2.63161E-05-2.89181E-05-4.27550E-06 5.28887E-19 5.60002E-21
 -1       930 9.57630E-05-2.53839E-05-3.01612E-05-1.00649E-06-2.83587E-19-9.86805E-19
 -1       931 9.58743E-05-2.81163E-05-2.90391E-05-1.61592E-06 1.48344E-19-9.95834E-20
 -1       932 9.31819E-05-1.96139E-05-3.15302E-05-1.15843E-06 1.96066E-19-1.97869E-18
 -1       933 8.59799E-05-3.24737E-05-2.28506E-05 2.36880E-05 1.41473E-19 1.63391E-19
 -1       934 8.53798E-05-3.22749E-05-2.26909E-05-2.36691E-05-3.33670E-19 1.81819E-18
 -1       935 9.60901E-05-2.75038E-05-2.93942E-05-6.49135E-07 6.22680E-19-2.07371E-19
 -1       936 9.61160E-05-2.67001E-05-2.97510E-05-2.69513E-08-3.59763E-19-1.01021E-18
 -1       937 9.63788E-05-3.91117E-05-2.44682E-05-2.21830E-05 1.18969E-19-1.98026E-18
 -1       938 7.70402E-05-2.43658E-05-2.25249E-05-1.86551E-05-3.33590E-19 2.75211E-18
 -1       939 9.49023E-05-2.30599E-05-3.07911E-05-1.75554E-06-7.75388E-20-1.40616E-18
 -1       940 6.32992E-05-1.52358E-05-2.05466E-05-7.14903E-06-1.70637E-18-3.20975E-18
 -1       941 9.21942E-05-2.49508E-05-2.88189E-05 5.39294E-07 3.63061E-19 9.09670E-19
 -1       942 9.56525E-05-2.80915E-05-2.89547E-05-1.95134E-06 1.81030E-19-1.08984E-19
 -1       943 9.56844E-05-2.54050E-05-3.01198E-05 1.25256E-06 8.34641E-19-7.68367E-19
 -1       944 7.93066E-05-2.84211E-05-2.17367E-05 2.29252E-05 1.07971E-18 1.25504E-18
 -1       945 9.25034E-05-2.51910E-05-2.88484E-05-1.48899E-06-4.87164E-19-1.51530E-18
 -1       946 6.25175E-05-1.45945E-05-2.04867E-05-3.90799E-06-5.48983E-19-1.58419E-18
 -1       947 9.53777E-05-2.79145E-05-2.89128E-05-2.27417E-06-2.04545E-19-7.79374E-20
 -1       948 9.50899E-05-2.37649E-05-3.05681E-05 2.70801E-06 1.22277E-18-6.68832E-19
 -1       949 9.31625E-05-2.57131E-05-2.89069E-05 2.31300E-06 1.26137E-18-7.63467E-19
 -1       950 9.44797E-05-2.20433E-05-3.10444E-05 4.05393E-07 4.81077E-19-1.53643E-18
 -1       951 9.46368E-05-2.24021E-05-3.09582E-05 1.14491E-06 7.55948E-19-1.23053E-18
 -1       952 9.63395E-05-2.75066E-05-2.95000E-05 6.84304E-07-3.97176E-19-9.20185E-19
 -1       953 9.61869E-05-2.78464E-05-2.92888E-05 1.04510E-06-1.58684E-19-7.95126E-19
 -1       954 9.58776E-05-2.78906E-05-2.91373E-05 1.33387E-06 5.19881E-20-7.38882E-19
 -1       955 9.54419E-05-2.77028E-05-2.90310E-05 1.59611E-06-9.00641E-20-8.29391E-19
 -1       956 9.48938E-05-2.73310E-05-2.89555E-05 1.87049E-06 3.68538E-20-8.43348E-19
 -1       957 9.42344E-05-2.68104E-05-2.88961E-05 2.18853E-06-7.49182E-19-9.47132E-19
 -1       958 9.34570E-05-2.61712E-05-2.88369E-05 2.57753E-06-3.64541E-19-5.88375E-19
 -1       959 9.25507E-05-2.54440E-05-2.87601E-05 3.06113E-06 3.63908E-20-2.59756E-20
 -1       960 9.15031E-05-2.46657E-05-2.86448E-05 3.66367E-06-9.84702E-20-5.83377E-19
 -1       961 9.03058E-05-2.38869E-05-2.84655E-05 4.41645E-06 1.38954E-19 5.93878E-19
 -1       962 8.89599E-05-2.31811E-05-2.81912E-05 5.36784E-06 1.42593E-19 3.93460E-19
 -1       963 8.74852E-05-2.26557E-05-2.77847E-05 6.59886E-06 5.66170E-19 1.11989E-18
 -1       964 8.59319E-05-2.24650E-05-2.72011E-05 8.24679E-06 6.15597E-19 1.51719E-18
 -1       965 8.44013E-05-2.28397E-05-2.63881E-05 1.05634E-05-3.77149E-19 1.64458E-18
 -1       966 8.31928E-05-2.42411E-05-2.52685E-05 1.39289E-05 7.16285E-19 1.78170E-18
 -1       967 9.38890E-05-2.65333E-05-2.88667E-05-2.82180E-06 3.88818E-19-4.02295E-19
 -1       968 8.79776E-05-2.86414E-05-2.54167E-05 1.66166E-05 4.08520E-19 4.60073E-18
 -1       969 9.46350E-05-2.23902E-05-3.09616E-05-1.13059E-06 2.66871E-20-1.77539E-18
 -1       970 9.57204E-05-2.48890E-05-3.03558E-05-7.22054E-07-2.26361E-20-1.28354E-18
 -1       971 8.42987E-05-2.41887E-05-2.57644E-05-1.31174E-05-9.20825E-19 7.52564E-19
 -1       972 8.53337E-05-2.29445E-05-2.67382E-05-1.00902E-05-3.46929E-19 4.22382E-19
 -1       973 8.66786E-05-2.25868E-05-2.74668E-05-7.94084E-06-3.79741E-19-6.53228E-19
 -1       974 8.80720E-05-2.27637E-05-2.79886E-05-6.35403E-06 2.55408E-19-1.47250E-18
 -1       975 8.93905E-05-2.32391E-05-2.83504E-05-5.13635E-06 4.97889E-19-1.18429E-18
 -1       976 9.05795E-05-2.38606E-05-2.85934E-05-4.16575E-06 1.11092E-18-6.89504E-19
 -1       977 9.15926E-05-2.45127E-05-2.87486E-05-3.36396E-06-3.82628E-19-2.51880E-19
 -1       978 9.24738E-05-2.51582E-05-2.88480E-05-2.70967E-06 3.71483E-19-1.74221E-19
 -1       979 7.46831E-05-2.16297E-05-2.26863E-05-1.57865E-05 3.73584E-20-2.08641E-18
 -1       980 9.58733E-05-2.55126E-05-3.01533E-05 6.51910E-07 7.25336E-19-8.66796E-19
 -1       981 9.03354E-05-2.40552E-05-2.84058E-05-5.81662E-06 5.35476E-20-5.38630E-19
 -1       982 9.13539E-05-2.45961E-05-2.86105E-05-4.80936E-06 2.79480E-19-1.17163E-19
 -1       983 8.83461E-05-2.38395E-05-2.76450E-05-8.71387E-06-2.84817E-19-5.95004E-19
 -1       984 8.76817E-05-2.46229E-05-2.70251E-05-1.08732E-05 6.69663E-20-9.85139E-20
 -1       985 8.77949E-05-2.65555E-05-2.62552E-05-1.37529E-05 2.20206E-19-5.83467E-19
 -1       986 8.91813E-05-3.01712E-05-2.52645E-05-1.75669E-05-6.13384E-19-1.64816E-18
 -1       987 8.71330E-05-2.55938E-05-2.63767E-05 1.28922E-05-5.53068E-19 4.95564E-18
 -1       988 8.74587E-05-2.40641E-05-2.71714E-05 1.01461E-05 6.31079E-19 5.16143E-18
 -1       989 8.82821E-05-2.34872E-05-2.77699E-05 8.09006E-06-1.32846E-20 4.82114E-18
 -1       990 8.92954E-05-2.35017E-05-2.81975E-05 6.53097E-06-4.66117E-19 3.86498E-18
 -1       991 9.03286E-05-2.38448E-05-2.84931E-05 5.29853E-06-3.43658E-19 2.74453E-18
 -1       992 9.13013E-05-2.43614E-05-2.86887E-05 4.29645E-06-5.32353E-19 1.84591E-18
 -1       993 9.21644E-05-2.49374E-05-2.88118E-05 3.47661E-06 4.56550E-20 2.49060E-19
 -1       994 9.26891E-05-2.53329E-05-2.88669E-05 2.85323E-06 2.89221E-19-7.94622E-20
 -1       995 9.62123E-05-2.67504E-05-2.97691E-05-1.37443E-07 5.01618E-19-1.07600E-18
 -1       996 9.44794E-05-2.20396E-05-3.10454E-05-3.82327E-07 2.27689E-19-1.76317E-18
 -1       997 9.25344E-05-2.52191E-05-2.88497E-05 1.51881E-06 1.67295E-19 1.69851E-18
 -1       998 9.45345E-05-2.70868E-05-2.89062E-05-2.40034E-06 1.94481E-19-6.88044E-19
 -1       999 9.31443E-05-2.56913E-05-2.89075E-05-2.29573E-06 1.83966E-19 9.24998E-20
 -1      1000 9.61707E-05-2.78813E-05-2.92667E-05-1.13243E-06 1.92375E-19-5.98229E-19
 -1      1001 6.60343E-05-1.57445E-05-2.14823E-05 7.03961E-06-2.36605E-18-1.12326E-18
 -1      1002 8.92968E-05-2.37418E-05-2.80948E-05-7.08438E-06-2.85470E-19-6.98668E-19
 -1      1003 9.62870E-05-2.75020E-05-2.94789E-05-7.11003E-07 3.82181E-19-8.70836E-19
 -1      1004 9.62927E-05-2.67934E-05-2.97845E-05 1.99181E-07-3.42176E-19-9.82302E-19
 -1      1005 9.49288E-05-2.31051E-05-3.07819E-05 1.76442E-06 1.05755E-18-7.99666E-19
 -1      1006 7.59939E-05-2.17816E-05-2.31951E-05 1.50294E-05-9.39685E-19 1.78853E-19
 -1      1007 8.61408E-05-2.80093E-05-2.48711E-05-1.73814E-05-6.80308E-19 1.48555E-18
 -1      1008 6.84593E-05-1.81571E-05-2.14844E-05 1.20882E-05 6.18013E-19 7.31889E-20
 -1      1009 7.37801E-05-1.99539E-05-2.30526E-05-1.28723E-05-2.52410E-18 1.81196E-19
 -1      1010 9.31445E-05-2.59045E-05-2.88172E-05-3.34636E-06 2.36587E-19-4.25856E-19
 -1      1011 8.27499E-05-2.70725E-05-2.38253E-05 1.85863E-05 1.04138E-18 1.83298E-18
 -1      1012 9.12346E-05-2.42527E-05-2.87068E-05 2.69631E-08 1.01636E-18 1.74456E-19
 -1      1013 9.59145E-05-2.79736E-05-2.91175E-05-1.46323E-06 1.99654E-19-3.69440E-19
 -1      1014 9.18586E-05-2.47180E-05-2.87749E-05 1.92551E-06 8.76003E-19 1.85295E-18
 -1      1015 9.54341E-05-2.40162E-05-3.06086E-05 7.48206E-09 2.58616E-19-1.42290E-18
 -1      1016 9.22978E-05-2.52401E-05-2.87390E-05-3.99931E-06 3.88461E-21-1.37971E-19
 -1      1017 7.49398E-05-2.24171E-05-2.25296E-05 1.65843E-05 6.57534E-19 1.38565E-18
 -1      1018 6.72171E-05-1.56072E-05-2.20911E-05 3.75104E-06-1.53479E-20 1.14328E-19
 -1      1019 9.14156E-05-2.43814E-05-2.87293E-05-1.22670E-06 1.23757E-18-3.19240E-18
 -1      1020 9.50864E-05-2.75328E-05-2.89515E-05-2.05541E-06-2.32983E-19-3.69184E-19
 -1      1021 9.54849E-05-2.41709E-05-3.05639E-05 4.15746E-07 6.05855E-19-9.23390E-19
 -1      1022 7.90568E-05-2.08589E-05-2.49380E-05 1.07764E-05-5.74860E-19 1.35292E-18
 -1      1023 9.61066E-05-2.77708E-05-2.92870E-05 7.67195E-07-1.77217E-19-6.05641E-19
 -1      1024 9.56752E-05-2.76894E-05-2.91369E-05 9.51299E-07 5.65234E-20-7.76147E-19
 -1      1025 9.50918E-05-2.73701E-05-2.90236E-05 1.13001E-06 6.93321E-20-8.32836E-19
 -1      1026 9.43704E-05-2.68641E-05-2.89315E-05 1.32453E-06-1.18980E-19-6.72605E-19
 -1      1027 9.35017E-05-2.61985E-05-2.88445E-05 1.55721E-06-2.39197E-19 1.89680E-19
 -1      1028 9.24767E-05-2.54077E-05-2.87442E-05 1.84356E-06-1.82005E-19-4.84241E-19
 -1      1029 9.12727E-05-2.45196E-05-2.86089E-05 2.20078E-06 1.01082E-19-5.67630E-19
 -1      1030 8.98627E-05-2.35677E-05-2.84128E-05 2.65042E-06 2.71978E-19 7.01027E-20
 -1      1031 8.82121E-05-2.25932E-05-2.81232E-05 3.22503E-06 1.41649E-19-2.87082E-19
 -1      1032 8.62746E-05-2.16469E-05-2.76989E-05 3.98198E-06 4.27795E-19-3.51054E-20
 -1      1033 8.39944E-05-2.07998E-05-2.70854E-05 5.02326E-06 1.21783E-18 2.69990E-19
 -1      1034 8.12816E-05-2.01271E-05-2.62101E-05 6.50867E-06 4.70101E-19 7.16950E-19
 -1      1035 7.80233E-05-1.97403E-05-2.49590E-05 8.68809E-06 7.97189E-19 1.25316E-18
 -1      1036 9.06539E-05-2.41146E-05-2.85172E-05-3.25902E-06 9.16228E-20-1.91038E-19
 -1      1037 9.55771E-05-2.43895E-05-3.05092E-05-4.00887E-07 5.60728E-20-1.63278E-18
 -1      1038 8.22930E-05-2.03569E-05-2.65387E-05-6.50916E-06-1.17310E-18-2.89292E-18
 -1      1039 8.47504E-05-2.09767E-05-2.73314E-05-4.99624E-06 6.32416E-19-2.45282E-18
 -1      1040 8.68186E-05-2.17523E-05-2.78859E-05-3.94563E-06-1.30186E-19-1.33782E-18
 -1      1041 8.85545E-05-2.25949E-05-2.82693E-05-3.16983E-06 6.95593E-19-1.93787E-18
 -1      1042 9.00121E-05-2.34491E-05-2.85298E-05-2.55651E-06 4.70309E-19-2.37410E-18
 -1      1043 9.55478E-05-2.78407E-05-2.90173E-05-1.75557E-06 1.89332E-20-2.78913E-19
 -1      1044 8.18459E-05-2.18340E-05-2.57206E-05-1.04736E-05 7.80651E-19-1.63524E-18
 -1      1045 8.38700E-05-2.15874E-05-2.66913E-05-7.91060E-06-2.87451E-19-6.70711E-19
 -1      1046 8.41070E-05-2.13634E-05-2.68917E-05 7.17113E-06-1.92297E-19 4.05371E-18
 -1      1047 8.60680E-05-2.17328E-05-2.75736E-05 5.57901E-06-1.00975E-19 3.92929E-18
 -1      1048 6.90759E-05-1.57564E-05-2.28320E-05-1.79435E-06-1.65520E-18-2.72181E-18
 -1      1049 8.78072E-05-2.23542E-05-2.80517E-05 4.42422E-06 1.29247E-19 3.48244E-18
 -1      1050 8.93141E-05-2.30882E-05-2.83829E-05 3.53492E-06 7.71942E-19 2.29960E-18
 -1      1051 9.06087E-05-2.38622E-05-2.86052E-05 2.83947E-06 5.55913E-19 1.89926E-18
 -1      1052 9.12619E-05-2.42971E-05-2.86986E-05 2.34697E-06 6.83399E-19 1.49103E-18
 -1      1053 8.58487E-05-2.18839E-05-2.74146E-05-6.14911E-06-7.55613E-19-4.25504E-19
 -1      1054 9.14193E-05-2.43911E-05-2.87265E-05 1.01846E-06 5.89490E-19 2.24427E-19
 -1      1055 7.20450E-05-1.73990E-05-2.33911E-05-6.93984E-06 2.85435E-19-2.22994E-18
 -1      1056 8.18330E-05-2.10194E-05-2.60616E-05 8.67169E-06-5.00494E-20 2.77713E-18
 -1      1057 8.92500E-05-2.32676E-05-2.82786E-05-3.97238E-06 4.77416E-19 1.67346E-19
 -1      1058 7.93871E-05-2.00304E-05-2.54355E-05-8.74134E-06-2.07407E-18-1.17448E-18
 -1      1059 9.63953E-05-2.69670E-05-2.97549E-05 2.67996E-07-3.71744E-19-1.31791E-18
 -1      1060 9.38419E-05-2.64820E-05-2.88686E-05-1.90291E-06 1.69484E-19-4.99247E-19
 -1      1061 8.76511E-05-2.24919E-05-2.79259E-05-4.89960E-06 9.09627E-20-1.12926E-19
 -1      1062 9.56980E-05-2.47890E-05-3.03897E-05 6.07998E-07 8.57146E-19-9.06794E-19
 -1      1063 9.62056E-05-2.62554E-05-2.99788E-05 1.57299E-08 7.32974E-19-6.78835E-19
 -1      1064 9.61680E-05-2.59522E-05-3.00929E-05-6.05286E-08-1.68643E-19-1.62262E-18
 -1      1065 9.63638E-05-2.75590E-05-2.94881E-05 5.49902E-07-2.42841E-19-9.08437E-19
 -1      1066 9.18768E-05-2.49645E-05-2.86769E-05-2.69921E-06 1.33106E-19 2.58064E-19
 -1      1067 9.63826E-05-2.71839E-05-2.96568E-05-4.30946E-07 2.79378E-19-6.96437E-19
 -1      1068 7.25359E-05-1.72320E-05-2.36732E-05 6.05597E-06-7.45787E-19-8.96923E-19
 -1      1069 9.60556E-05-2.55465E-05-3.02161E-05 6.81735E-08 4.66847E-19-9.32804E-19
 -1      1070 9.02242E-05-2.35617E-05-2.85690E-05 6.94030E-07 6.13847E-19 8.45612E-19
 -1      1071 9.61090E-05-2.56712E-05-3.01868E-05-2.39944E-08 2.53534E-19-1.31519E-18
 -1      1072 9.46141E-05-2.70792E-05-2.89437E-05-1.61776E-06-1.33571E-19-5.77315E-19
 -1      1073 9.29341E-05-2.57664E-05-2.87863E-05-2.25587E-06 1.96825E-19 7.86466E-20
 -1      1074 7.33673E-05-1.83112E-05-2.35555E-05 9.32526E-06 3.61781E-19 5.27146E-19
 -1      1075 9.61502E-05-2.78075E-05-2.92898E-05-9.22212E-07-1.11459E-20-6.62180E-19
 -1      1076 9.63338E-05-2.76131E-05-2.94521E-05-7.02440E-07 3.31784E-20-6.56979E-19
 -1      1077 8.98186E-05-2.32887E-05-2.85106E-05-8.65980E-07 4.64107E-20-2.89870E-18
 -1      1078 9.61485E-05-2.58828E-05-3.01136E-05 7.39210E-08 5.55516E-19-7.90248E-19
 -1      1079 9.53698E-05-2.74664E-05-2.91011E-05 4.09137E-07 1.29167E-20-5.79435E-19
 -1      1080 9.46629E-05-2.70283E-05-2.89853E-05 4.86514E-07-1.00981E-19-8.94257E-19
 -1      1081 9.37836E-05-2.63903E-05-2.88824E-05 5.71617E-07-5.40512E-20-1.14922E-18
 -1      1082 9.27431E-05-2.56069E-05-2.87723E-05 6.70498E-07-2.41101E-19-1.02843E-18
 -1      1083 9.15115E-05-2.46956E-05-2.86349E-05 7.93650E-07-2.76730E-20-4.33433E-19
 -1      1084 9.00573E-05-2.36839E-05-2.84452E-05 9.47067E-07 3.21713E-19-1.27630E-18
 -1      1085 8.83353E-05-2.25993E-05-2.81719E-05 1.14041E-06 4.44081E-19-1.46231E-18
 -1      1086 8.62790E-05-2.14685E-05-2.77750E-05 1.38917E-06 5.63369E-19-5.34789E-19
 -1      1087 8.37817E-05-2.03082E-05-2.72014E-05 1.71554E-06 1.15694E-18-1.18077E-19
 -1      1088 8.07041E-05-1.91418E-05-2.63814E-05 2.20287E-06 1.21177E-18-2.11312E-19
 -1      1089 7.68424E-05-1.80183E-05-2.51984E-05 2.91557E-06 7.66970E-19 9.03364E-20
 -1      1090 7.25730E-05-1.66796E-05-2.39401E-05-3.79333E-07 5.45243E-19-6.87181E-19
 -1      1091 9.62853E-05-2.76109E-05-2.94311E-05 2.64722E-07 1.02393E-20-6.23333E-19
 -1      1092 9.57749E-05-2.77849E-05-2.91386E-05-1.15545E-06-1.25982E-19-6.58248E-19
 -1      1093 8.44662E-05-2.04762E-05-2.74215E-05-1.91267E-06 8.77932E-19-2.97426E-18
 -1      1094 8.66701E-05-2.14790E-05-2.79397E-05-1.52068E-06 4.67817E-19-3.00093E-18
 -1      1095 8.84381E-05-2.24487E-05-2.82772E-05-1.15179E-06-2.80304E-20-2.76252E-18
 -1      1096 9.52572E-05-2.75240E-05-2.90286E-05-1.37705E-06-7.27071E-20-2.86548E-19
 -1      1097 9.06613E-05-2.38724E-05-2.86242E-05 1.57278E-06 9.29016E-19-2.20607E-19
 -1      1098 9.59181E-05-2.76797E-05-2.92448E-05 3.41266E-07-2.25442E-19-2.66504E-19
 -1      1099 8.29098E-05-2.00602E-05-2.69336E-05 3.59038E-06-3.52262E-19-5.20332E-19
 -1      1100 8.52804E-05-2.09047E-05-2.75885E-05 2.76300E-06-1.52080E-19 2.93938E-19
 -1      1101 8.22372E-05-1.99726E-05-2.66924E-05-4.05221E-06 4.57947E-20-1.91155E-18
 -1      1102 7.61611E-05-1.75817E-05-2.51072E-05-1.87718E-06-2.14902E-18-1.99947E-18
 -1      1103 8.49236E-05-2.09612E-05-2.74138E-05-3.14220E-06 6.56573E-19-6.84452E-19
 -1      1104 8.91419E-05-2.28980E-05-2.83899E-05 1.71897E-06 7.90523E-19 1.11180E-18
 -1      1105 9.30661E-05-2.58599E-05-2.88029E-05-1.13380E-06 2.65857E-20-7.22021E-19
 -1      1106 8.90003E-05-2.30343E-05-2.82717E-05-2.00874E-06 4.88179E-20-1.85888E-19
 -1      1107 9.64421E-05-2.71989E-05-2.96757E-05 1.65798E-07-1.44813E-20-6.54558E-19
 -1      1108 7.74732E-05-1.84604E-05-2.52993E-05-4.79065E-06 9.88390E-19-2.37189E-18
 -1      1109 8.74254E-05-2.19305E-05-2.80633E-05 2.16008E-06 8.10774E-19 1.55017E-19
 -1      1110 8.71392E-05-2.19921E-05-2.79210E-05-2.49154E-06 8.03807E-19-1.23642E-19
 -1      1111 8.16962E-05-1.94459E-05-2.66847E-05-2.42798E-06-1.10847E-19-2.12146E-18
 -1      1112 9.05789E-05-2.40500E-05-2.85128E-05-1.64127E-06 2.36270E-19-5.72030E-19
 -1      1113 7.70749E-05-1.83816E-05-2.51380E-05 5.02348E-06-8.26566E-20-8.09596E-19
 -1      1114 9.60060E-05-2.77198E-05-2.92659E-05-5.54011E-07 1.90688E-19-8.33836E-19
 -1      1115 9.19227E-05-2.50027E-05-2.86803E-05-1.35667E-06-1.71156E-19-7.38571E-19
 -1      1116 9.63902E-05-2.66745E-05-2.98778E-05-8.68385E-08 5.85074E-19-7.98022E-19
 -1      1117 9.63900E-05-2.69115E-05-2.97758E-05-2.38370E-07 5.16739E-19-7.62602E-19
 -1      1118 8.03425E-05-1.92876E-05-2.61668E-05 4.21187E-06-1.15918E-18-6.17895E-19
 -1      1119 9.62857E-05-2.76392E-05-2.94200E-05-4.40593E-07 3.51512E-20-7.90995E-19
 -1      1120 9.40392E-05-2.65983E-05-2.89035E-05-9.49683E-07 4.48888E-20-6.08404E-19
 -1      1121 8.85203E-05-2.24943E-05-2.83017E-05 3.38267E-07 1.23576E-19-6.73874E-19
 -1      1122 9.63542E-05-2.65677E-05-2.99078E-05 5.57349E-08 2.57405E-19-7.66741E-19
 -1      1123 9.50260E-05-2.72679E-05-2.90411E-05-2.76075E-07-2.10411E-19-5.70053E-19
 -1      1124 8.28793E-05-1.98034E-05-2.70410E-05 9.64731E-07-9.78720E-20-1.38899E-18
 -1      1125 9.55055E-05-2.75623E-05-2.91185E-05-6.84318E-07-4.16765E-19-8.08427E-19
 -1      1126 9.64010E-05-2.73800E-05-2.95821E-05-3.74093E-07 2.21719E-19-6.94733E-19
 -1      1127 9.48534E-05-2.71771E-05-2.90029E-05-8.11274E-07-5.88327E-20-8.52786E-19
 -1      1128 7.98834E-05-1.87773E-05-2.61974E-05 1.93296E-06-1.35870E-18 4.54499E-19
 -1      1129 1.16718E-04 2.57180E-10-4.18069E-05-4.14348E-05-2.78250E-19 6.87621E-18
 -1      1130 8.85725E-05 7.18315E-11-3.72195E-05-2.41645E-05-1.29278E-19 1.52413E-19
 -1      1131 8.40415E-05 4.14186E-11-3.57518E-05-1.78819E-05-8.25328E-20-2.52520E-18
 -1      1132 8.23352E-05 3.20440E-11-3.50723E-05-1.38409E-05-4.59251E-20-3.70984E-18
 -1      1133 8.15623E-05 2.73482E-11-3.47499E-05-1.05334E-05-2.82565E-20-4.24191E-18
 -1      1134 8.11789E-05 2.46056E-11-3.45936E-05-7.63854E-06-1.54054E-20-4.36955E-18
 -1      1135 8.09842E-05 2.29377E-11-3.45166E-05-4.97721E-06-1.46246E-21-4.34919E-18
 -1      1136 8.08907E-05 2.20329E-11-3.44811E-05-2.43045E-06 7.06909E-21-4.19362E-18
 -1      1137 8.08644E-05 2.17584E-11-3.44713E-05 5.24821E-08 1.75056E-20-3.99545E-18
 -1      1138 8.08950E-05 2.20770E-11-3.44825E-05 2.53793E-06 3.46886E-20-3.76162E-18
 -1      1139 8.09931E-05 2.30382E-11-3.45196E-05 5.09303E-06 3.73621E-20-3.45900E-18
 -1      1140 8.11945E-05 2.47680E-11-3.45979E-05 7.77075E-06 5.54012E-20-3.06756E-18
 -1      1141 8.15822E-05 2.76509E-11-3.47562E-05 1.06935E-05 6.89538E-20-2.40798E-18
 -1      1142 8.23584E-05 3.25073E-11-3.50821E-05 1.40454E-05 8.72179E-20-1.37914E-18
 -1      1143 8.40384E-05 4.19064E-11-3.57714E-05 1.81325E-05 1.05085E-19 5.52358E-19
 -1      1144 8.82709E-05 6.66548E-11-3.72894E-05 2.40077E-05 1.09903E-19 3.98828E-18
 -1      1145 1.06489E-04 1.63668E-10-4.05861E-05 3.61696E-05 1.85924E-19 1.06487E-17
 -1      1146 1.30044E-04-2.57179E-05-4.02201E-05-2.60843E-05-1.08039E-18 1.10775E-17
 -1      1147 9.72918E-05-2.88132E-05-3.15268E-05-6.82098E-07-3.54166E-19 8.49489E-18
 -1      1148 8.99909E-05-2.69763E-05-2.78422E-05 3.85673E-07-9.96720E-20 5.05585E-18
 -1      1149 8.80785E-05-2.65217E-05-2.65926E-05 2.49351E-07-1.07980E-19 2.68734E-18
 -1      1150 8.77234E-05-2.63963E-05-2.63376E-05 1.64031E-07 7.94590E-21 1.26229E-18
 -1      1151 8.80951E-05-2.64772E-05-2.64269E-05 1.15872E-07-3.14114E-20 4.84609E-19
 -1      1152 8.88108E-05-2.66710E-05-2.66392E-05 8.50990E-08-1.40464E-20-2.50272E-20
 -1      1153 8.96814E-05-2.69203E-05-2.68996E-05 6.38337E-08 5.90317E-21-1.12498E-18
 -1      1154 9.06098E-05-2.71926E-05-2.71779E-05 4.83267E-08-9.83332E-21-1.93161E-18
 -1      1155 9.15511E-05-2.74719E-05-2.74613E-05 3.68306E-08-3.82060E-20-3.14024E-18
 -1      1156 9.24946E-05-2.77539E-05-2.77467E-05 2.85339E-08 1.37370E-20-4.33177E-18
 -1      1157 9.34543E-05-2.80421E-05-2.80381E-05 2.31017E-08-7.76879E-20-3.99190E-18
 -1      1158 9.44628E-05-2.83459E-05-2.83454E-05 2.04886E-08-2.21629E-20-4.66212E-18
 -1      1159 9.55680E-05-2.86795E-05-2.86826E-05 2.08656E-08 6.15298E-20-3.57754E-18
 -1      1160 9.68300E-05-2.90603E-05-2.90676E-05 2.45879E-08-3.01797E-21-3.65501E-18
 -1      1161 9.83171E-05-2.95087E-05-2.95207E-05 3.21575E-08-1.57644E-19-3.28501E-18
 -1      1162 1.00101E-04-3.00455E-05-3.00624E-05 4.41262E-08 3.99363E-21-3.73789E-18
 -1      1163 1.02246E-04-3.06894E-05-3.07108E-05 6.08543E-08-5.96033E-20-4.15747E-18
 -1      1164 1.04794E-04-3.14514E-05-3.14752E-05 8.19795E-08 9.09899E-23-5.11194E-18
 -1      1165 1.07728E-04-3.23262E-05-3.23467E-05 1.05379E-07-7.02967E-20-6.76726E-18
 -1      1166 1.10936E-04-3.32777E-05-3.32839E-05 1.25395E-07-3.84356E-20-7.08526E-18
 -1      1167 1.14133E-04-3.42204E-05-3.41941E-05 1.30365E-07 6.48601E-20-5.89391E-18
 -1      1168 1.16801E-04-3.49987E-05-3.49166E-05 1.00577E-07-8.98169E-20-3.42766E-18
 -1      1169 1.18145E-04-3.53773E-05-3.52214E-05 1.02554E-08-2.65690E-19-3.70845E-18
 -1      1170 1.17189E-04-3.50710E-05-3.48493E-05-1.60499E-07-3.09696E-20-3.87774E-18
 -1      1171 1.13110E-04-3.38457E-05-3.36184E-05-3.98089E-07 1.90850E-19-3.36923E-18
 -1      1172 1.05872E-04-3.17077E-05-3.15864E-05-6.22356E-07 1.10842E-20-4.30769E-18
 -1      1173 9.68917E-05-2.90876E-05-2.91814E-05-6.90360E-07-9.01313E-20-6.24052E-18
 -1      1174 8.90666E-05-2.68276E-05-2.71537E-05-4.85473E-07 1.44915E-19-5.16388E-18
 -1      1175 8.55906E-05-2.58303E-05-2.62692E-05-4.46727E-08 2.75458E-19-3.87308E-18
 -1      1176 8.80445E-05-2.65340E-05-2.68926E-05 4.19700E-07-7.37316E-20-3.49316E-18
 -1      1177 9.53013E-05-2.86262E-05-2.87642E-05 6.75255E-07 2.76732E-19-3.47601E-18
 -1      1178 1.04312E-04-3.12504E-05-3.11609E-05 6.49829E-07-4.69624E-20-3.78211E-18
 -1      1179 1.12006E-04-3.35175E-05-3.33003E-05 4.42091E-07 3.44239E-20-5.93887E-18
 -1      1180 1.16675E-04-3.49148E-05-3.46861E-05 1.98861E-07 8.92958E-20-8.42567E-18
 -1      1181 1.18138E-04-3.53714E-05-3.52018E-05 1.34831E-08 3.28391E-19-7.76067E-18
 -1      1182 1.17131E-04-3.50937E-05-3.49993E-05-9.03809E-08-2.35963E-19-7.76810E-18
 -1      1183 1.14638E-04-3.43688E-05-3.43343E-05-1.29003E-07 2.56542E-20-6.16576E-18
 -1      1184 1.11501E-04-3.34456E-05-3.34477E-05-1.28530E-07 2.57598E-19-4.59425E-18
 -1      1185 1.08293E-04-3.24951E-05-3.25142E-05-1.10072E-07 1.46256E-19-2.86411E-18
 -1      1186 1.05337E-04-3.16151E-05-3.16392E-05-8.65687E-08-1.77956E-19-1.81892E-18
 -1      1187 1.02779E-04-3.08508E-05-3.08736E-05-6.44874E-08-2.18217E-19-4.49507E-18
 -1      1188 1.00657E-04-3.02146E-05-3.02337E-05-4.63157E-08-4.06102E-19-3.98401E-18
 -1      1189 9.89484E-05-2.97012E-05-2.97162E-05-3.24359E-08-3.71739E-19-1.00223E-18
 -1      1190 9.76085E-05-2.92977E-05-2.93096E-05-2.22025E-08 2.69715E-19-7.98196E-19
 -1      1191 9.65889E-05-2.89901E-05-2.90006E-05-1.43748E-08 2.93465E-19 3.78450E-18
 -1      1192 9.58523E-05-2.87674E-05-2.87788E-05-7.05564E-09-2.78111E-19 1.03073E-18
 -1      1193 9.53805E-05-2.86241E-05-2.86371E-05 2.84149E-09 2.32398E-19 1.48075E-18
 -1      1194 9.51804E-05-2.85685E-05-2.85657E-05 2.11460E-08-2.55651E-19 1.98203E-18
 -1      1195 9.51856E-05-2.85552E-05-2.85328E-05 1.72649E-08 5.13927E-19 2.26882E-18
 -1      1196 1.30877E-04-3.76867E-05-3.86069E-05 1.21652E-05-1.84865E-19 1.59577E-17
 -1      1197 9.63932E-05-2.81402E-05-3.12794E-05 8.02052E-07 4.65074E-20 1.34138E-17
 -1      1198 9.02055E-05-2.68791E-05-2.78232E-05 1.21189E-07 8.92495E-20 1.07688E-17
 -1      1199 8.81654E-05-2.64490E-05-2.66290E-05 1.05389E-08 4.26163E-21 9.28057E-18
 -1      1200 8.77638E-05-2.63587E-05-2.63647E-05-2.30776E-08 5.89747E-20 7.98445E-18
 -1      1201 8.81174E-05-2.64597E-05-2.64426E-05-3.12619E-08 8.27230E-20 6.55720E-18
 -1      1202 8.88247E-05-2.66640E-05-2.66494E-05-3.14131E-08-5.49269E-20 6.13331E-18
 -1      1203 8.96907E-05-2.69188E-05-2.69070E-05-2.84618E-08-6.91300E-20 5.63677E-18
 -1      1204 9.06164E-05-2.71939E-05-2.71836E-05-2.39724E-08-9.51316E-20 4.66918E-18
 -1      1205 9.15561E-05-2.74745E-05-2.74657E-05-1.86659E-08 2.85414E-20 4.49906E-18
 -1      1206 9.24985E-05-2.77570E-05-2.77502E-05-1.30143E-08 1.34471E-19 3.88843E-18
 -1      1207 9.34570E-05-2.80450E-05-2.80408E-05-7.39697E-09 5.06689E-21 2.78119E-18
 -1      1208 9.44636E-05-2.83479E-05-2.83472E-05-2.18597E-09 3.96697E-20 2.23377E-18
 -1      1209 9.55654E-05-2.86798E-05-2.86833E-05 2.17223E-09-1.22575E-19 2.68230E-18
 -1      1210 9.68205E-05-2.90578E-05-2.90664E-05 5.06115E-09 1.62143E-19 1.95657E-18
 -1      1211 9.82952E-05-2.95013E-05-2.95160E-05 5.57874E-09-5.34077E-20 1.66991E-18
 -1      1212 1.00057E-04-3.00302E-05-3.00517E-05 2.40965E-09-9.59530E-22 1.87038E-18
 -1      1213 1.02165E-04-3.06612E-05-3.06896E-05-6.27226E-09 1.08184E-19 9.09217E-19
 -1      1214 1.04651E-04-3.14028E-05-3.14368E-05-2.27524E-08 8.15749E-20-6.16349E-20
 -1      1215 1.07493E-04-3.22464E-05-3.22812E-05-4.93080E-08-1.23423E-19 1.14969E-18
 -1      1216 1.10563E-04-3.31532E-05-3.31782E-05-8.68333E-08 2.94000E-20 2.00748E-18
 -1      1217 1.13575E-04-3.40373E-05-3.40333E-05-1.31892E-07 1.48088E-19 2.53250E-18
 -1      1218 1.16014E-04-3.47489E-05-3.46871E-05-1.71944E-07 1.10336E-19 2.48677E-18
 -1      1219 1.17121E-04-3.50687E-05-3.49186E-05-1.80633E-07-1.76950E-20 1.66733E-18
 -1      1220 1.15984E-04-3.47375E-05-3.44871E-05-1.19707E-07 9.63930E-20 2.31687E-18
 -1      1221 1.11877E-04-3.35466E-05-3.32362E-05 4.14665E-08-1.17314E-19 4.55376E-18
 -1      1222 1.04832E-04-3.14970E-05-3.12431E-05 2.85980E-07 8.04963E-20 5.68751E-18
 -1      1223 9.62326E-05-2.89650E-05-2.89326E-05 5.15481E-07 1.80485E-19 4.92656E-18
 -1      1224 8.87965E-05-2.67250E-05-2.70155E-05 5.83519E-07-1.66793E-19 4.41389E-18
 -1      1225 8.54922E-05-2.56687E-05-2.62027E-05 4.04756E-07-4.97897E-20 5.24213E-18
 -1      1226 8.77918E-05-2.62899E-05-2.68223E-05 5.18873E-08 9.59530E-22 5.65273E-18
 -1      1227 9.46699E-05-2.83321E-05-2.86216E-05-2.89781E-07 1.38640E-19 4.34793E-18
 -1      1228 1.03299E-04-3.09461E-05-3.09221E-05-4.67852E-07-1.03437E-19 4.39504E-18
 -1      1229 1.10783E-04-3.32278E-05-3.29914E-05-4.57592E-07 2.35383E-20 1.67257E-18
 -1      1230 1.15459E-04-3.46529E-05-3.43577E-05-3.32097E-07 1.42086E-19 9.22948E-19
 -1      1231 1.17087E-04-3.51455E-05-3.48999E-05-1.79818E-07-1.49584E-19-5.54621E-19
 -1      1232 1.16312E-04-3.49077E-05-3.47510E-05-5.53298E-08 2.10385E-19-7.29110E-19
 -1      1233 1.14049E-04-3.42220E-05-3.41468E-05 2.47456E-08-1.47572E-19 5.77928E-19
 -1      1234 1.11104E-04-3.33338E-05-3.33150E-05 6.56448E-08 5.36172E-19-1.57253E-18
 -1      1235 1.08039E-04-3.24120E-05-3.24252E-05 7.96391E-08 2.63129E-19-5.05466E-18
 -1      1236 1.05182E-04-3.15544E-05-3.15819E-05 7.81514E-08-1.17710E-19-1.80171E-18
 -1      1237 1.02689E-04-3.08070E-05-3.08381E-05 6.93311E-08-4.00459E-20 2.23521E-18
 -1      1238 1.00607E-04-3.01831E-05-3.02124E-05 5.81827E-08 3.22708E-19 1.15762E-18
 -1      1239 9.89226E-05-2.96786E-05-2.97038E-05 4.74433E-08 6.80673E-19-1.06718E-18
 -1      1240 9.75966E-05-2.92816E-05-2.93026E-05 3.83844E-08-8.83470E-21-1.18722E-18
 -1      1241 9.65847E-05-2.89787E-05-2.89970E-05 3.12870E-08 1.55162E-19-2.21091E-18
 -1      1242 9.58520E-05-2.87594E-05-2.87773E-05 2.55074E-08 2.10879E-19-5.04787E-18
 -1      1243 9.53818E-05-2.86185E-05-2.86370E-05 1.81003E-08 9.03641E-20-7.37228E-18
 -1      1244 9.51758E-05-2.85548E-05-2.85665E-05 1.46033E-09 3.53617E-19-7.68682E-18
 -1      1245 9.51913E-05-2.85589E-05-2.85334E-05-1.56585E-08 2.87528E-19-5.50889E-18
 -1      1246 9.52502E-05-2.86186E-05-2.85349E-05-1.58141E-08-5.85436E-18-9.89494E-19
 -1      1247 9.52454E-05-2.86222E-05-2.85703E-05-1.74761E-08-6.08065E-18-7.78499E-19
 -1      1248 9.51822E-05-2.84056E-05-2.86415E-05 6.32782E-09 2.22273E-18 1.21062E-18
 -1      1249 9.50552E-05-2.79735E-05-2.87633E-05 1.91758E-08 7.11646E-18 4.83661E-19
 -1      1250 9.48932E-05-2.74219E-05-2.89181E-05 2.39557E-08 1.37253E-18-6.12718E-19
 -1      1251 9.47288E-05-2.68624E-05-2.90764E-05 2.27370E-08-3.03316E-18-5.89878E-19
 -1      1252 9.45890E-05-2.63860E-05-2.92121E-05 1.77171E-08-1.37758E-18-5.31446E-19
 -1      1253 9.44947E-05-2.60649E-05-2.93039E-05 9.54685E-09-2.83030E-18-1.37953E-18
 -1      1254 9.44618E-05-2.59528E-05-2.93359E-05-4.74908E-11-4.07768E-18-7.88293E-19
 -1      1255 9.44952E-05-2.60667E-05-2.93033E-05-9.65647E-09-5.27576E-18-2.17065E-19
 -1      1256 9.45900E-05-2.63897E-05-2.92110E-05-1.78227E-08-4.29692E-18-9.57467E-19
 -1      1257 9.47308E-05-2.68683E-05-2.90748E-05-2.31561E-08-1.24070E-17 4.93196E-20
 -1      1258 9.48953E-05-2.74290E-05-2.89160E-05-2.40416E-08-8.11621E-18 5.90833E-19
 -1      1259 9.50575E-05-2.79811E-05-2.87612E-05-1.94376E-08-4.37326E-18-4.34576E-20
 -1      1260 9.51873E-05-2.84181E-05-2.86396E-05-7.75156E-09-6.01594E-18-2.20640E-19
 -1      1261 9.52370E-05-2.86118E-05-2.85685E-05 3.08621E-08-4.22115E-18-6.39876E-19
 -1      1262 9.52531E-05-2.86243E-05-2.85338E-05 1.88280E-08-1.29416E-18 1.00151E-18
 -1      1263 3.36953E-05-1.05379E-04 1.77898E-05-1.36748E-05 1.10610E-17 1.36012E-18
 -1      1264 1.75935E-05-6.49102E-05 9.50615E-06-2.52734E-05 9.47660E-18 2.86001E-18
 -1      1265 7.72537E-06-8.97511E-06-5.94376E-06-1.67577E-07 4.23855E-18 2.14553E-18
 -1      1266 3.28881E-05 2.42988E-05-2.55909E-05 5.18096E-05 3.49316E-18 4.18434E-18
 -1      1267 1.03336E-04 1.42724E-05-4.55455E-05 9.92991E-05 2.54449E-18 3.10353E-18
 -1      1268 2.00681E-04-3.00581E-05-6.27997E-05 1.09239E-04 5.30666E-19 2.01594E-19
 -1      1269 2.81409E-04-7.58110E-05-7.43455E-05 6.59243E-05-8.32951E-19-4.67223E-18
 -1      1270 3.09511E-04-9.32870E-05-7.76298E-05-1.15410E-05 6.12987E-19-9.48010E-18
 -1      1271 2.64817E-04-6.61840E-05-7.19922E-05-8.26539E-05 3.43430E-18-1.39616E-17
 -1      1272 1.75165E-04-1.69462E-05-5.88431E-05-1.11357E-04 7.08755E-18-1.46486E-17
 -1      1273 7.98372E-05 2.05676E-05-3.97888E-05-8.69554E-05 1.15823E-17-1.45232E-17
 -1      1274 2.00862E-05 1.73339E-05-1.87659E-05-3.29276E-05 1.25835E-17-1.05845E-17
 -1      1275 7.47997E-06-2.39863E-05-8.09748E-07 1.19573E-05 8.23655E-18-4.49436E-18
 -1      1276 2.20635E-05-7.73050E-05 1.21926E-05 2.52399E-05 2.38101E-18-1.18415E-18
 -1      1277 3.55803E-05-1.09679E-04 1.85870E-05 7.66344E-06-3.40423E-18-4.87467E-19
 -1      1278 3.16397E-05-1.00423E-04 1.67742E-05-1.85495E-05-1.06053E-17-2.44178E-18
 -1      1279 1.37899E-05-5.37901E-05 7.06892E-06-2.33945E-05-1.45046E-17-5.92288E-18
 -1      1280 8.94431E-06-7.67860E-07-9.12124E-06 6.96925E-06-1.50840E-17-1.00204E-17
 -1      1281 4.28328E-05 2.51849E-05-2.91205E-05 6.10891E-05-1.17856E-17-1.14841E-17
 -1      1282 1.19486E-04 8.09364E-06-4.87729E-05 1.04459E-04-7.87910E-18-1.19499E-17
 -1      1283 2.14977E-04-3.76413E-05-6.51327E-05 1.05290E-04-4.82724E-18-1.04549E-17
 -1      1284 2.91395E-04-8.22310E-05-7.53294E-05 5.87907E-05-1.39040E-18-3.98105E-18
 -1      1285 3.07599E-04-9.19215E-05-7.75657E-05-1.77232E-05-1.58379E-18 6.26254E-18
 -1      1286 2.62074E-04-6.47539E-05-7.15095E-05-8.60969E-05-2.90426E-18 1.17873E-17
 -1      1287 1.71710E-04-1.50147E-05-5.83472E-05-1.10873E-04-3.46436E-18 8.03834E-18
 -1      1288 8.27022E-05 2.04076E-05-4.06857E-05-8.99385E-05-4.76033E-18 6.30023E-18
 -1      1289 2.37470E-05 1.96225E-05-2.09582E-05-3.89431E-05-4.66546E-18 4.11912E-18
 -1      1290 7.26660E-06-1.87015E-05-2.52863E-06 8.23275E-06-5.41085E-18 3.11708E-18
 -1      1291 1.96345E-05-7.12172E-05 1.09796E-05 2.58469E-05 1.33831E-18 3.92600E-19
 -1      1292 3.45614E-05-1.07374E-04 1.81036E-05 1.25839E-05 6.66022E-18-4.00514E-19
 -1      1293 1.04305E-04-2.19856E-05-3.78456E-05-1.72691E-05-4.06576E-19 5.28125E-18
 -1      1294 9.02498E-05-6.67345E-06-3.59904E-05-2.04684E-05-9.85840E-19-1.11380E-18
 -1      1295 9.25634E-05-6.73110E-06-3.71867E-05-2.57508E-05-1.31968E-18 2.97203E-19
 -1      1296 8.58747E-05-4.09161E-06-3.51192E-05-1.64319E-05-8.90576E-19-3.06210E-18
 -1      1297 8.71086E-05-4.08636E-06-3.55809E-05-1.88504E-05-1.04757E-18-2.25353E-18
 -1      1298 9.20729E-05-1.04536E-05-3.50716E-05-1.90254E-05-1.68930E-18-9.56671E-19
 -1      1299 8.41094E-05-3.19336E-06-3.46900E-05-1.28170E-05-6.22252E-19-3.96287E-18
 -1      1300 8.47001E-05-3.16201E-06-3.49075E-05-1.46335E-05-7.62965E-19-3.56566E-18
 -1      1301 8.78503E-05-7.38959E-06-3.45674E-05-1.54103E-05-1.37362E-18-2.58147E-18
 -1      1302 8.32212E-05-2.72893E-06-3.44841E-05-9.68106E-06-4.25806E-19-4.34938E-18
 -1      1303 8.35253E-05-2.71241E-06-3.45884E-05-1.12293E-05-4.93714E-19-4.20079E-18
 -1      1304 8.58852E-05-5.98582E-06-3.43113E-05-1.19479E-05-9.26264E-19-3.36492E-18
 -1      1305 8.27461E-05-2.45708E-06-3.43862E-05-6.90987E-06-1.82036E-19-4.39924E-18
 -1      1306 8.29073E-05-2.44859E-06-3.44368E-05-8.28077E-06-2.84934E-19-4.36555E-18
 -1      1307 8.48597E-05-5.21550E-06-3.41896E-05-8.93426E-06-6.12511E-19-3.65479E-18
 -1      1308 8.24825E-05-2.29042E-06-3.43389E-05-4.29063E-06-2.85708E-20-4.35187E-18
 -1      1309 8.25683E-05-2.28648E-06-3.43637E-05-5.59126E-06-5.40050E-20-4.40807E-18
 -1      1310 8.42894E-05-4.75787E-06-3.41341E-05-6.20831E-06-2.17732E-19-3.72980E-18
 -1      1311 8.23560E-05-2.19997E-06-3.43196E-05-1.78782E-06 1.68396E-19-4.15734E-18
 -1      1312 8.23925E-05-2.19841E-06-3.43295E-05-3.03766E-06 1.09605E-19-4.24103E-18
 -1      1313 8.39765E-05-4.49192E-06-3.41101E-05-3.63869E-06 4.33542E-20-3.59858E-18
 -1      1314 8.23311E-05-2.17204E-06-3.43176E-05 6.69102E-07 3.49795E-19-3.93865E-18
 -1      1315 8.23297E-05-2.17209E-06-3.43172E-05-5.65346E-07 2.76665E-19-4.06004E-18
 -1      1316 8.38395E-05-4.37079E-06-3.41017E-05-1.16837E-06 3.78142E-19-3.41615E-18
 -1      1317 8.24011E-05-2.20273E-06-3.43310E-05 3.14504E-06 5.39358E-19-3.70124E-18
 -1      1318 8.23617E-05-2.20434E-06-3.43204E-05 1.89259E-06 4.68501E-19-3.84206E-18
 -1      1319 8.38444E-05-4.37500E-06-3.41021E-05 1.27155E-06 6.58725E-19-3.24308E-18
 -1      1320 8.25855E-05-2.29689E-06-3.43663E-05 5.70782E-06 7.15031E-19-3.42516E-18
 -1      1321 8.24962E-05-2.30022E-06-3.43408E-05 4.40122E-06 6.44357E-19-3.60749E-18
 -1      1322 8.39920E-05-4.50545E-06-3.41112E-05 3.74610E-06 9.78077E-19-3.03166E-18
 -1      1323 8.29306E-05-2.46395E-06-3.44397E-05 8.38961E-06 8.75078E-19-2.98722E-18
 -1      1324 8.27661E-05-2.47262E-06-3.43885E-05 7.00969E-06 8.23981E-19-3.25224E-18
 -1      1325 8.43153E-05-4.78101E-06-3.41353E-05 6.30215E-06 1.27822E-18-2.71135E-18
 -1      1326 8.35669E-05-2.74224E-06-3.45934E-05 1.13913E-05 1.13618E-18-2.30320E-18
 -1      1327 8.32576E-05-2.75937E-06-3.44879E-05 9.82567E-06 1.01653E-18-2.70560E-18
 -1      1328 8.49025E-05-5.25662E-06-3.41907E-05 9.04456E-06 1.55685E-18-2.22081E-18
 -1      1329 8.47579E-05-3.20414E-06-3.49154E-05 1.48418E-05 1.29779E-18-1.12139E-18
 -1      1330 8.41616E-05-3.24102E-06-3.46954E-05 1.30010E-05 1.17922E-18-1.83412E-18
 -1      1331 8.59621E-05-6.06275E-06-3.43130E-05 1.21140E-05 1.85946E-18-1.50740E-18
 -1      1332 8.72096E-05-4.08854E-06-3.56019E-05 1.90889E-05 1.39453E-18 9.62282E-19
 -1      1333 8.59463E-05-4.15283E-06-3.51266E-05 1.66919E-05 1.24053E-18-2.75153E-19
 -1      1334 8.79739E-05-7.51509E-06-3.45690E-05 1.56430E-05 2.04259E-18-1.52281E-19
 -1      1335 9.33751E-05-6.78282E-06-3.70820E-05 2.50877E-05 1.12115E-18 4.58801E-18
 -1      1336 9.00649E-05-6.43005E-06-3.60128E-05 2.11459E-05 1.11681E-18 2.40134E-18
 -1      1337 9.23024E-05-1.06888E-05-3.50565E-05 1.96689E-05 2.02007E-18 2.07671E-18
 -1      1338 1.23471E-04-2.48894E-05-3.89677E-05 2.83471E-05 4.61104E-19 1.10364E-17
 -1      1339 9.99668E-05-1.44019E-05-3.73137E-05 2.40409E-05 5.20078E-19 6.61046E-18
 -1      1340 1.01572E-04-1.93174E-05-3.53675E-05 2.13901E-05 1.77803E-18 5.38035E-18
 -1      1341 1.02461E-04-2.77630E-05-3.47125E-05 7.32966E-06 8.91449E-19 1.07764E-17
 -1      1342 1.05005E-04-3.01882E-05-3.34818E-05-7.95830E-06-1.12751E-18 5.71430E-18
 -1      1343 9.81199E-05-2.78012E-05-3.07193E-05-4.98833E-06-9.95793E-19 4.41680E-18
 -1      1344 9.53646E-05-2.78076E-05-2.92128E-05-2.48937E-06-8.46001E-19 3.89584E-18
 -1      1345 9.31324E-05-2.75164E-05-2.81736E-05-2.04233E-06-7.92505E-19 2.65682E-18
 -1      1346 9.93693E-05-2.80172E-05-3.09479E-05-7.88527E-06-1.77210E-18 2.06059E-18
 -1      1347 9.14469E-05-2.71598E-05-2.75406E-05-8.35875E-07-6.11723E-19 2.23378E-18
 -1      1348 9.07319E-05-2.70645E-05-2.72389E-05-7.25225E-07-5.77425E-19 1.39565E-18
 -1      1349 9.46096E-05-2.77367E-05-2.87841E-05-3.11652E-06-1.38323E-18 1.22701E-18
 -1      1350 8.99890E-05-2.68837E-05-2.69980E-05-1.67629E-07-3.99035E-19 1.08603E-18
 -1      1351 8.99217E-05-2.69115E-05-2.69649E-05-1.08691E-07-3.68618E-19 4.75847E-19
 -1      1352 9.24218E-05-2.74690E-05-2.78673E-05-1.04300E-06-9.65247E-19 6.47954E-19
 -1      1353 8.96751E-05-2.68476E-05-2.68947E-05 1.67688E-07-1.75111E-19 2.35038E-19
 -1      1354 8.99014E-05-2.69404E-05-2.69601E-05 1.98008E-07-2.06582E-19-6.57774E-20
 -1      1355 9.14833E-05-2.73298E-05-2.75073E-05-4.80691E-08-5.93621E-19 5.44086E-20
 -1      1356 8.99270E-05-2.69496E-05-2.69734E-05 3.39087E-07-2.47921E-19-2.52184E-19
 -1      1357 9.02920E-05-2.70752E-05-2.70795E-05 3.53404E-07-2.12490E-19-6.51765E-19
 -1      1358 9.12644E-05-2.73260E-05-2.74108E-05 4.58747E-07-4.70750E-19-3.88272E-19
 -1      1359 9.04688E-05-2.71267E-05-2.71375E-05 4.22880E-07-1.56865E-19-6.96195E-19
 -1      1360 9.08958E-05-2.72657E-05-2.72615E-05 4.28399E-07-1.84967E-19-1.06065E-18
 -1      1361 9.14529E-05-2.74138E-05-2.74512E-05 7.17082E-07-4.00244E-19-7.02675E-19
 -1      1362 9.11572E-05-2.73409E-05-2.73446E-05 4.60383E-07-3.14608E-19-1.15747E-18
 -1      1363 9.16077E-05-2.74833E-05-2.74759E-05 4.61693E-07-2.99658E-19-1.76529E-18
 -1      1364 9.18722E-05-2.75552E-05-2.75681E-05 8.43375E-07-5.46031E-19-8.84958E-19
 -1      1365 9.19182E-05-2.75722E-05-2.75736E-05 4.77017E-07-2.48637E-19-1.94865E-18
 -1      1366 9.23767E-05-2.77142E-05-2.77080E-05 4.77306E-07-4.71641E-19-2.41816E-18
 -1      1367 9.24238E-05-2.77267E-05-2.77296E-05 9.03600E-07-5.59540E-19-1.27172E-18
 -1      1368 9.27199E-05-2.78122E-05-2.78154E-05 4.89983E-07-3.37571E-19-2.47576E-18
 -1      1369 9.31860E-05-2.79543E-05-2.79528E-05 4.91604E-07 1.88225E-21-2.67860E-18
 -1      1370 9.30572E-05-2.79161E-05-2.79195E-05 9.39780E-07-5.38905E-19-1.18774E-18
 -1      1371 9.35589E-05-2.80605E-05-2.80692E-05 5.11783E-07-2.42707E-20-2.83803E-18
 -1      1372 9.40431E-05-2.82066E-05-2.82125E-05 5.16574E-07-2.29765E-19-3.16136E-18
 -1      1373 9.37533E-05-2.81192E-05-2.81311E-05 9.81130E-07-1.79240E-19-1.76241E-18
 -1      1374 9.44522E-05-2.83230E-05-2.83401E-05 5.52001E-07-1.45966E-19-3.06602E-18
 -1      1375 9.49737E-05-2.84792E-05-2.84948E-05 5.61449E-07 6.41685E-20-2.95469E-18
 -1      1376 9.45149E-05-2.83382E-05-2.83645E-05 1.04931E-06-2.34748E-19-2.22590E-18
 -1      1377 9.54326E-05-2.86097E-05-2.86379E-05 6.18150E-07 2.97539E-19-2.87251E-18
 -1      1378 9.60173E-05-2.87844E-05-2.88115E-05 6.33466E-07 2.32947E-19-2.43368E-18
 -1      1379 9.53612E-05-2.85794E-05-2.86253E-05 1.16097E-06 2.72394E-19-1.96095E-18
 -1      1380 9.65446E-05-2.89344E-05-2.89758E-05 7.15860E-07-5.23638E-20-2.52081E-18
 -1      1381 9.72235E-05-2.91375E-05-2.91774E-05 7.37945E-07-9.85768E-20-2.60178E-18
 -1      1382 9.63235E-05-2.88531E-05-2.89222E-05 1.32878E-06 7.79312E-20-1.94511E-18
 -1      1383 9.78408E-05-2.93136E-05-2.93695E-05 8.48385E-07-7.24230E-20-2.61994E-18
 -1      1384 9.86476E-05-2.95560E-05-2.96088E-05 8.77656E-07-1.25533E-19-2.39575E-18
 -1      1385 9.74411E-05-2.91718E-05-2.92665E-05 1.56099E-06-1.27484E-19-1.75887E-18
 -1      1386 9.93769E-05-2.97649E-05-2.98355E-05 1.01519E-06-3.38298E-19-2.37245E-18
 -1      1387 1.00344E-04-3.00577E-05-3.01217E-05 1.05120E-06-3.45981E-19-2.75632E-18
 -1      1388 9.87567E-05-2.95503E-05-2.96702E-05 1.85945E-06-2.88640E-19-1.44743E-18
 -1      1389 1.01204E-04-3.03055E-05-3.03882E-05 1.20925E-06-1.68196E-19-2.96098E-18
 -1      1390 1.02357E-04-3.06579E-05-3.07282E-05 1.24999E-06-1.66473E-19-3.03130E-18
 -1      1391 1.00311E-04-3.00038E-05-3.01435E-05 2.21551E-06-3.88702E-19-1.72974E-18
 -1      1392 1.03355E-04-3.09489E-05-3.10361E-05 1.41253E-06-3.53884E-19-3.72350E-18
 -1      1393 1.04699E-04-3.13649E-05-3.14306E-05 1.45327E-06-3.23871E-19-4.35689E-18
 -1      1394 1.02131E-04-3.05461E-05-3.06921E-05 2.60273E-06-5.56739E-19-2.53983E-18
 -1      1395 1.05825E-04-3.16987E-05-3.17749E-05 1.58935E-06-3.78942E-19-4.75613E-18
 -1      1396 1.07327E-04-3.21721E-05-3.22130E-05 1.62094E-06-6.02905E-19-5.16489E-18
 -1      1397 1.04219E-04-3.11864E-05-3.13116E-05 2.96602E-06-9.40298E-19-3.03600E-18
 -1      1398 1.08537E-04-3.25406E-05-3.25771E-05 1.67812E-06-1.11924E-19-5.18955E-18
 -1      1399 1.10101E-04-3.30457E-05-3.30286E-05 1.68493E-06 4.24371E-20-5.29096E-18
 -1      1400 1.06527E-04-3.19240E-05-3.19807E-05 3.20722E-06-4.56713E-19-3.19184E-18
 -1      1401 1.11302E-04-3.34280E-05-3.33797E-05 1.58462E-06 7.87218E-19-5.41187E-18
 -1      1402 1.12736E-04-3.39088E-05-3.37861E-05 1.54306E-06 7.73344E-19-4.00680E-18
 -1      1403 1.08932E-04-3.27380E-05-3.26529E-05 3.17139E-06 5.90111E-19-3.34757E-18
 -1      1404 1.13770E-04-3.42642E-05-3.40710E-05 1.18543E-06 3.83547E-19-3.99081E-18
 -1      1405 1.14758E-04-3.46219E-05-3.43403E-05 1.06592E-06 3.33387E-20-3.94206E-18
 -1      1406 1.11197E-04-3.35721E-05-3.32496E-05 2.64563E-06 8.43820E-19-3.51677E-18
 -1      1407 1.15396E-04-3.48830E-05-3.44876E-05 3.58904E-07-1.47172E-20-3.02388E-18
 -1      1408 1.15514E-04-3.49729E-05-3.45015E-05 1.36631E-07 1.62935E-19-3.34785E-18
 -1      1409 1.12952E-04-3.43108E-05-3.36600E-05 1.39614E-06 5.53986E-19-3.28033E-18
 -1      1410 1.15483E-04-3.50434E-05-3.44360E-05-9.34949E-07 4.52964E-19-2.59062E-18
 -1      1411 1.14298E-04-3.46996E-05-3.40827E-05-1.25541E-06 2.99618E-19-2.16983E-18
 -1      1412 1.13695E-04-3.47561E-05-3.37580E-05-7.18681E-07 5.05679E-19-2.02218E-18
 -1      1413 1.13364E-04-3.44695E-05-3.37577E-05-2.52333E-06 1.28511E-20-1.91255E-18
 -1      1414 1.10659E-04-3.35785E-05-3.29975E-05-2.87111E-06-2.06345E-19-1.92409E-18
 -1      1415 1.12892E-04-3.46328E-05-3.34451E-05-3.53935E-06 2.53832E-19-9.71881E-19
 -1      1416 1.08787E-04-3.29808E-05-3.24403E-05-3.90071E-06-6.24224E-19-2.13008E-18
 -1      1417 1.04879E-04-3.16108E-05-3.13811E-05-4.11961E-06-5.01910E-19-3.07579E-18
 -1      1418 1.10215E-04-3.36753E-05-3.27152E-05-6.36445E-06-8.01141E-19-6.10883E-19
 -1      1419 1.02431E-04-3.07281E-05-3.07215E-05-4.30194E-06-2.93409E-19-3.71022E-18
 -1      1420 9.83549E-05-2.92362E-05-2.96482E-05-4.20852E-06-1.90367E-19-3.86581E-18
 -1      1421 1.05927E-04-3.18662E-05-3.17120E-05-7.92249E-06-7.93172E-19-1.30327E-18
 -1      1422 9.61520E-05-2.83802E-05-2.90964E-05-3.13736E-06 4.42952E-19-3.76178E-18
 -1      1423 9.33975E-05-2.73438E-05-2.83856E-05-2.67353E-06 4.39425E-19-3.23477E-18
 -1      1424 1.01206E-04-2.96930E-05-3.07219E-05-6.91539E-06 4.25389E-19-2.01239E-18
 -1      1425 9.24006E-05-2.69406E-05-2.81464E-05-5.91897E-07-1.87088E-19-2.91152E-18
 -1      1426 9.21507E-05-2.68455E-05-2.80825E-05 6.27758E-08 1.22780E-19-2.38829E-18
 -1      1427 9.79157E-05-2.81063E-05-3.00806E-05-3.07568E-06 1.66998E-19-1.90334E-18
 -1      1428 9.28553E-05-2.71315E-05-2.82508E-05 2.24226E-06-4.28572E-19-2.80987E-18
 -1      1429 9.52238E-05-2.80259E-05-2.88604E-05 2.76061E-06-4.80347E-19-2.88304E-18
 -1      1430 9.76136E-05-2.79587E-05-3.00233E-05 2.17105E-06-2.64142E-19-2.28279E-18
 -1      1431 9.72759E-05-2.88317E-05-2.93688E-05 4.05265E-06-8.62154E-20-3.15758E-18
 -1      1432 1.01226E-04-3.02865E-05-3.04042E-05 4.21360E-06-2.90559E-19-3.24599E-18
 -1      1433 1.00453E-04-2.93348E-05-3.05712E-05 6.41477E-06-8.79955E-19-3.32078E-18
 -1      1434 1.03698E-04-3.11924E-05-3.10608E-05 4.23800E-06-5.96364E-20-3.63981E-18
 -1      1435 1.07728E-04-3.26175E-05-3.21471E-05 4.06264E-06-3.19821E-20-3.85771E-18
 -1      1436 1.05059E-04-3.14799E-05-3.15217E-05 7.95145E-06-4.70041E-19-3.34484E-18
 -1      1437 1.09741E-04-3.32774E-05-3.27345E-05 3.13985E-06-5.73984E-19-3.42011E-18
 -1      1438 1.12701E-04-3.42653E-05-3.35604E-05 2.80188E-06-5.31804E-19-5.10848E-18
 -1      1439 1.09533E-04-3.34043E-05-3.25461E-05 6.77074E-06-3.81522E-19-3.01315E-18
 -1      1440 1.13809E-04-3.45589E-05-3.39311E-05 1.53810E-06-2.37904E-19-4.87338E-18
 -1      1441 1.15258E-04-3.49950E-05-3.43568E-05 1.20526E-06 7.35198E-20-5.38998E-18
 -1      1442 1.12538E-04-3.45226E-05-3.33391E-05 4.06977E-06-6.63928E-19-3.02136E-18
 -1      1443 1.15437E-04-3.49704E-05-3.44668E-05 8.00669E-08 1.30059E-19-5.73630E-18
 -1      1444 1.15521E-04-3.49454E-05-3.45111E-05-1.61321E-07 1.61340E-19-5.56082E-18
 -1      1445 1.13663E-04-3.47791E-05-3.37296E-05 1.18069E-06 3.31733E-20-3.30411E-18
 -1      1446 1.14984E-04-3.47108E-05-3.43972E-05-9.34274E-07 4.34855E-19-5.85075E-18
 -1      1447 1.14118E-04-3.43893E-05-3.41648E-05-1.07020E-06 3.97649E-19-4.98429E-18
 -1      1448 1.13160E-04-3.44137E-05-3.37002E-05-1.08151E-06 2.55281E-19-4.34924E-18
 -1      1449 1.13141E-04-3.40461E-05-3.39001E-05-1.48145E-06 3.31878E-19-5.20780E-18
 -1      1450 1.11765E-04-3.35798E-05-3.35118E-05-1.53390E-06 3.46410E-19-4.40976E-18
 -1      1451 1.11552E-04-3.37113E-05-3.33385E-05-2.47453E-06 4.84549E-19-3.29093E-18
 -1      1452 1.10588E-04-3.32009E-05-3.31705E-05-1.66816E-06 3.50311E-19-3.25813E-18
 -1      1453 1.09039E-04-3.26975E-05-3.27247E-05-1.66694E-06 7.59190E-19-2.85700E-18
 -1      1454 1.09359E-04-3.28866E-05-3.27701E-05-3.10408E-06 5.07492E-19-2.65059E-18
 -1      1455 1.07835E-04-3.23282E-05-3.23641E-05-1.62532E-06 7.92054E-19-2.95374E-18
 -1      1456 1.06329E-04-3.18511E-05-3.19256E-05-1.59525E-06 1.40498E-19-2.59841E-18
 -1      1457 1.06979E-04-3.20690E-05-3.21114E-05-3.19789E-06 1.31793E-18-2.07041E-18
 -1      1458 1.05204E-04-3.15158E-05-3.15826E-05-1.46033E-06-8.66885E-20-2.07241E-18
 -1      1459 1.03853E-04-3.10959E-05-3.11868E-05-1.41826E-06-6.78678E-19-2.61511E-18
 -1      1460 1.04675E-04-3.13242E-05-3.14481E-05-2.97569E-06 1.42548E-19-2.26670E-18
 -1      1461 1.02861E-04-3.08055E-05-3.08811E-05-1.24612E-06-6.73147E-19-3.55792E-18
 -1      1462 1.01712E-04-3.04530E-05-3.05429E-05-1.20197E-06-2.10358E-19-3.90403E-18
 -1      1463 1.02592E-04-3.06791E-05-3.08335E-05-2.60161E-06-8.67918E-19-2.66329E-18
 -1      1464 1.00871E-04-3.02097E-05-3.02825E-05-1.02582E-06 7.13034E-19-3.50531E-18
 -1      1465 9.99294E-05-2.99233E-05-3.00041E-05-9.84680E-07 7.70955E-19-2.31910E-18
 -1      1466 1.00794E-04-3.01389E-05-3.02942E-05-2.18080E-06 8.06408E-19-2.51684E-18
 -1      1467 9.92384E-05-2.97246E-05-2.97897E-05-8.21262E-07 4.19783E-19-6.11693E-19
 -1      1468 9.84873E-05-2.94978E-05-2.95673E-05-7.85113E-07 3.18674E-19-5.54123E-19
 -1      1469 9.92948E-05-2.96974E-05-2.98396E-05-1.77190E-06 1.62902E-18-1.06451E-18
 -1      1470 9.79347E-05-2.93393E-05-2.93957E-05-6.40362E-07 3.70900E-19-1.50635E-18
 -1      1471 9.73522E-05-2.91641E-05-2.92232E-05-6.09270E-07 1.47337E-18 3.63237E-19
 -1      1472 9.80786E-05-2.93438E-05-2.94684E-05-1.40145E-06 5.51675E-19-4.30749E-19
 -1      1473 9.69230E-05-2.90407E-05-2.90903E-05-4.82289E-07 1.60290E-18 4.04293E-19
 -1      1474 9.64883E-05-2.89098E-05-2.89618E-05-4.55100E-07 4.92536E-20 1.07349E-18
 -1      1475 9.71181E-05-2.90658E-05-2.91745E-05-1.07525E-06 1.78533E-18-8.23435E-20
 -1      1476 9.61684E-05-2.88169E-05-2.88637E-05-3.40771E-07-8.59762E-19 1.78925E-18
 -1      1477 9.58673E-05-2.87259E-05-2.87751E-05-3.15462E-07-2.89191E-19 7.55094E-19
 -1      1478 9.63837E-05-2.88520E-05-2.89505E-05-7.86166E-07 2.38996E-19 6.17514E-19
 -1      1479 9.56447E-05-2.86598E-05-2.87080E-05-2.07598E-07 6.95657E-19 9.52666E-19
 -1      1480 9.54712E-05-2.86081E-05-2.86562E-05-1.81692E-07 2.94399E-19 1.90766E-18
 -1      1481 9.58496E-05-2.86934E-05-2.87888E-05-5.20321E-07-5.59720E-20 1.35034E-18
 -1      1482 9.53303E-05-2.85625E-05-2.86150E-05-7.74670E-08-1.46183E-20 2.21533E-18
 -1      1483 9.52810E-05-2.85584E-05-2.85924E-05-5.03474E-08-2.35989E-19 1.83514E-18
 -1      1484 9.54911E-05-2.85852E-05-2.86803E-05-2.69015E-07 7.92934E-19 1.82285E-18
 -1      1485 9.52187E-05-2.85729E-05-2.85543E-05 2.48106E-08-1.69264E-18 1.98740E-18
 -1      1486 9.52809E-05-2.85587E-05-2.85956E-05-3.62160E-08-1.57653E-18 1.25454E-18
 -1      1487 9.64335E-05-2.83206E-05-2.97291E-05 2.99597E-06 8.27842E-19 8.88898E-18
 -1      1488 1.02392E-04-2.93558E-05-3.21120E-05 4.46258E-06 7.42848E-19 1.01292E-17
 -1      1489 1.02201E-04-2.66824E-05-3.26671E-05 1.27789E-05 1.44821E-18 6.95658E-18
 -1      1490 9.18893E-05-2.73866E-05-2.77195E-05 1.15169E-06 5.61543E-19 7.23512E-18
 -1      1491 9.38364E-05-2.75422E-05-2.86335E-05 1.47360E-06 5.67247E-19 8.14645E-18
 -1      1492 9.63664E-05-2.79941E-05-2.94975E-05 4.86628E-06 1.25181E-18 5.62971E-18
 -1      1493 9.00620E-05-2.69631E-05-2.70224E-05 3.29187E-07 4.27652E-19 6.17535E-18
 -1      1494 9.06758E-05-2.69804E-05-2.72945E-05 4.92312E-07 3.54278E-19 6.71991E-18
 -1      1495 9.29288E-05-2.75441E-05-2.80650E-05 1.84790E-06 8.90126E-19 4.54116E-18
 -1      1496 8.95577E-05-2.68484E-05-2.68508E-05-6.22764E-08 4.98433E-19 5.12058E-18
 -1      1497 8.95901E-05-2.67845E-05-2.68773E-05 2.75851E-08 3.89155E-19 5.76787E-18
 -1      1498 9.13885E-05-2.72760E-05-2.74856E-05 5.07240E-07 8.05244E-19 3.60755E-18
 -1      1499 8.97162E-05-2.69081E-05-2.69010E-05-2.57293E-07 2.16144E-19 4.27438E-18
 -1      1500 8.94758E-05-2.67969E-05-2.68320E-05-2.05594E-07 2.85151E-19 4.74720E-18
 -1      1501 9.08803E-05-2.72010E-05-2.72971E-05-1.54595E-07 6.52374E-19 3.02524E-18
 -1      1502 9.02166E-05-2.70640E-05-2.70541E-05-3.52511E-07 7.01962E-20 3.87696E-18
 -1      1503 8.98467E-05-2.69295E-05-2.69453E-05-3.22346E-07 1.12957E-19 4.06113E-18
 -1      1504 9.09383E-05-2.72546E-05-2.72992E-05-4.92452E-07 2.23259E-19 2.57109E-18
 -1      1505 9.08904E-05-2.72689E-05-2.72579E-05-3.94908E-07 2.15463E-19 3.44668E-18
 -1      1506 9.04632E-05-2.71259E-05-2.71321E-05-3.77258E-07 1.87392E-19 3.81055E-18
 -1      1507 9.13085E-05-2.73842E-05-2.74017E-05-6.61448E-07 2.63740E-19 2.06711E-18
 -1      1508 9.16490E-05-2.74971E-05-2.74871E-05-4.11278E-07 2.44845E-20 2.96617E-18
 -1      1509 9.12003E-05-2.73530E-05-2.73545E-05-4.00430E-07 1.45819E-19 3.22994E-18
 -1      1510 9.18511E-05-2.75558E-05-2.75598E-05-7.41523E-07 3.87513E-19 1.86375E-18
 -1      1511 9.24513E-05-2.77368E-05-2.77298E-05-4.18925E-07 2.50902E-19 2.66685E-18
 -1      1512 9.19955E-05-2.75936E-05-2.75944E-05-4.10860E-07-3.88222E-20 2.74115E-18
 -1      1513 9.24912E-05-2.77504E-05-2.77501E-05-7.79844E-07 1.95486E-19 1.30979E-18
 -1      1514 9.32880E-05-2.79854E-05-2.79832E-05-4.30018E-07 2.98803E-19 2.33058E-18
 -1      1515 9.28248E-05-2.78415E-05-2.78450E-05-4.21684E-07 3.09811E-19 2.75479E-18
 -1      1516 9.31945E-05-2.79595E-05-2.79618E-05-8.07415E-07 2.98678E-19 9.61511E-19
 -1      1517 9.41722E-05-2.82471E-05-2.82513E-05-4.53660E-07 2.96942E-19 1.89799E-18
 -1      1518 9.36904E-05-2.80979E-05-2.81071E-05-4.42582E-07 3.14375E-19 2.20920E-18
 -1      1519 9.39537E-05-2.81820E-05-2.81921E-05-8.46278E-07 4.80620E-19 1.60733E-18
 -1      1520 9.51335E-05-2.85311E-05-2.85430E-05-4.96919E-07 1.90421E-20 1.41279E-18
 -1      1521 9.46139E-05-2.83697E-05-2.83871E-05-4.80979E-07 4.49899E-20 1.35699E-18
 -1      1522 9.47814E-05-2.84225E-05-2.84447E-05-9.12959E-07 3.26018E-19 1.17936E-18
 -1      1523 9.62148E-05-2.88504E-05-2.88710E-05-5.65230E-07 1.67749E-19 1.25356E-18
 -1      1524 9.56317E-05-2.86681E-05-2.86959E-05-5.42585E-07 4.38873E-20 1.38939E-18
 -1      1525 9.57044E-05-2.86895E-05-2.87271E-05-1.02008E-06 1.33827E-19 6.29536E-19
 -1      1526 9.74676E-05-2.92208E-05-2.92507E-05-6.62231E-07-1.03811E-20 8.36164E-19
 -1      1527 9.67905E-05-2.90076E-05-2.90474E-05-6.31358E-07 1.64506E-19 1.11733E-18
 -1      1528 9.67596E-05-2.89949E-05-2.90503E-05-1.17675E-06 3.45457E-19 3.59226E-19
 -1      1529 9.89475E-05-2.96596E-05-2.96983E-05-7.88920E-07-4.38530E-19 1.19182E-18
 -1      1530 9.81439E-05-2.94049E-05-2.94575E-05-7.48851E-07-1.77994E-19 7.78039E-19
 -1      1531 9.79902E-05-2.93523E-05-2.94267E-05-1.38775E-06-1.93517E-19 4.41961E-19
 -1      1532 1.00707E-04-3.01834E-05-3.02291E-05-9.41872E-07 1.46161E-19 9.15497E-19
 -1      1533 9.97461E-05-2.98774E-05-2.99421E-05-8.92706E-07 1.35743E-19 1.41258E-18
 -1      1534 9.94397E-05-2.97764E-05-2.98684E-05-1.65121E-06-5.73005E-20 4.08683E-19
 -1      1535 1.02782E-04-3.08051E-05-3.08529E-05-1.11011E-06 3.21927E-19 5.33432E-19
 -1      1536 1.01643E-04-3.04410E-05-3.05140E-05-1.05396E-06 2.07703E-19 9.44561E-19
 -1      1537 1.01144E-04-3.02805E-05-3.03848E-05-1.95427E-06 2.77900E-19 4.44542E-19
 -1      1538 1.05174E-04-3.15278E-05-3.15679E-05-1.27030E-06-3.33564E-19 1.11927E-19
 -1      1539 1.03856E-04-3.11058E-05-3.11781E-05-1.21283E-06 1.40783E-19 2.37467E-19
 -1      1540 1.03118E-04-3.08739E-05-3.09777E-05-2.26596E-06 3.90701E-19 6.82637E-19
 -1      1541 1.07817E-04-3.23363E-05-3.23513E-05-1.38018E-06-1.82900E-19 7.53489E-19
 -1      1542 1.06358E-04-3.18697E-05-3.19240E-05-1.33289E-06-3.86915E-19 4.52898E-19
 -1      1543 1.05338E-04-3.15564E-05-3.16354E-05-2.52710E-06-4.73217E-19 3.69151E-19
 -1      1544 1.10538E-04-3.31840E-05-3.31466E-05-1.37201E-06-2.02600E-19 1.36738E-18
 -1      1545 1.09043E-04-3.27083E-05-3.27149E-05-1.35476E-06-3.26963E-19 9.83551E-19
 -1      1546 1.07713E-04-3.23109E-05-3.23242E-05-2.63849E-06-3.35406E-19 3.93142E-19
 -1      1547 1.13005E-04-3.39764E-05-3.38501E-05-1.15054E-06-4.68631E-20 1.81617E-18
 -1      1548 1.11673E-04-3.35597E-05-3.34753E-05-1.19318E-06-3.47863E-20 1.56362E-18
 -1      1549 1.10054E-04-3.30921E-05-3.29797E-05-2.45278E-06-2.90814E-19 7.19621E-19
 -1      1550 1.14698E-04-3.45565E-05-3.43053E-05-6.07149E-07 3.44941E-19 1.20059E-18
 -1      1551 1.13846E-04-3.43072E-05-3.40804E-05-7.46354E-07 1.09522E-19 1.58017E-18
 -1      1552 1.12039E-04-3.38115E-05-3.35003E-05-1.78388E-06 2.45031E-19 6.73385E-19
 -1      1553 1.14936E-04-3.47034E-05-3.43185E-05 3.32447E-07 2.15027E-19 1.00458E-18
 -1      1554 1.14974E-04-3.47644E-05-3.43582E-05 6.70005E-08 5.13725E-19 1.24707E-18
 -1      1555 1.13211E-04-3.43212E-05-3.37536E-05-4.59217E-07 4.43263E-19 6.08795E-19
 -1      1556 1.13039E-04-3.41733E-05-3.37168E-05 1.61352E-06-5.39421E-19 2.02245E-18
 -1      1557 1.14368E-04-3.46847E-05-3.41218E-05 1.22902E-06-5.09748E-19 9.48214E-19
 -1      1558 1.13026E-04-3.44118E-05-3.36052E-05 1.55639E-06-3.85599E-19-2.47261E-20
 -1      1559 1.08687E-04-3.28117E-05-3.24518E-05 2.93663E-06-5.42812E-19 3.44202E-18
 -1      1560 1.11471E-04-3.38275E-05-3.32448E-05 2.51544E-06-4.24152E-19 2.78952E-18
 -1      1561 1.11035E-04-3.38514E-05-3.29786E-05 3.96950E-06-1.21062E-18 1.04983E-18
 -1      1562 1.02405E-04-3.07381E-05-3.07147E-05 3.72814E-06 1.51535E-19 4.20610E-18
 -1      1563 1.06277E-04-3.21135E-05-3.17712E-05 3.44011E-06-3.50238E-19 3.73081E-18
 -1      1564 1.07198E-04-3.25104E-05-3.19325E-05 6.00878E-06-5.86951E-19 2.37247E-18
 -1      1565 9.58520E-05-2.84980E-05-2.89694E-05 3.36260E-06 4.59191E-19 3.59168E-18
 -1      1566 9.97663E-05-2.98324E-05-3.00013E-05 3.39678E-06 5.78649E-19 4.53544E-18
 -1      1567 1.02238E-04-3.05659E-05-3.07071E-05 6.56346E-06 3.69131E-19 3.19890E-18
 -1      1568 9.14223E-05-2.69584E-05-2.78126E-05 1.64743E-06-7.43483E-19 3.60309E-18
 -1      1569 9.39410E-05-2.77182E-05-2.84606E-05 2.06893E-06-5.08339E-19 2.92973E-18
 -1      1570 9.77244E-05-2.86410E-05-2.96772E-05 4.81273E-06-3.82753E-20 3.12334E-18
 -1      1571 9.10328E-05-2.68406E-05-2.76963E-05-8.16730E-07-3.61577E-20 4.17022E-18
 -1      1572 9.10742E-05-2.66680E-05-2.77034E-05-1.68975E-07-1.60672E-19 3.87875E-18
 -1      1573 9.54927E-05-2.76152E-05-2.92082E-05 1.04146E-06-4.21597E-19 2.49769E-18
 -1      1574 9.48697E-05-2.82041E-05-2.86669E-05-2.90780E-06 4.97711E-19 3.96507E-18
 -1      1575 9.24119E-05-2.71758E-05-2.80308E-05-2.33371E-06 2.90837E-19 4.12645E-18
 -1      1576 9.65677E-05-2.80458E-05-2.94753E-05-3.19276E-06 3.50089E-19 2.33074E-18
 -1      1577 1.01252E-04-3.04006E-05-3.03409E-05-3.76388E-06 2.91606E-20 2.79071E-18
 -1      1578 9.73506E-05-2.89756E-05-2.93138E-05-3.48973E-06 4.13385E-19 3.50619E-18
 -1      1579 1.00446E-04-2.97155E-05-3.03735E-05-6.02042E-06 7.89130E-19 2.35840E-18
 -1      1580 1.07753E-04-3.25465E-05-3.21256E-05-3.31160E-06 6.01648E-19 2.37021E-18
 -1      1581 1.03852E-04-3.12531E-05-3.10675E-05-3.36004E-06 2.68122E-19 3.19183E-18
 -1      1582 1.05455E-04-3.17953E-05-3.15780E-05-6.51112E-06 5.13156E-19 1.82038E-18
 -1      1583 1.12521E-04-3.40343E-05-3.35127E-05-2.09157E-06 7.93326E-19 2.94000E-19
 -1      1584 1.09691E-04-3.31948E-05-3.27141E-05-2.33500E-06 5.81879E-19 1.19887E-18
 -1      1585 1.09826E-04-3.34653E-05-3.27043E-05-5.04871E-06 1.37013E-18 6.28088E-19
 -1      1586 1.14846E-04-3.46883E-05-3.42547E-05-7.42883E-07-3.07010E-19-4.90750E-20
 -1      1587 1.13473E-04-3.43640E-05-3.38424E-05-1.03149E-06 3.67983E-19 9.01190E-19
 -1      1588 1.12511E-04-3.43450E-05-3.34677E-05-2.70354E-06 6.51077E-19-8.90311E-20
 -1      1589 1.14943E-04-3.46352E-05-3.43597E-05 3.31415E-07-1.49018E-19-5.70430E-19
 -1      1590 1.14873E-04-3.47211E-05-3.43128E-05 9.23167E-08 2.58874E-20-7.43311E-19
 -1      1591 1.13309E-04-3.44708E-05-3.37592E-05-4.45204E-07 1.10750E-19-1.12283E-19
 -1      1592 1.13464E-04-3.41137E-05-3.39846E-05 1.00475E-06 6.09807E-19-6.42779E-19
 -1      1593 1.14296E-04-3.44539E-05-3.42032E-05 8.46970E-07 2.43115E-19-4.38313E-19
 -1      1594 1.12568E-04-3.40718E-05-3.36206E-05 1.21546E-06 1.89643E-19-9.87316E-19
 -1      1595 1.11107E-04-3.33507E-05-3.33244E-05 1.32107E-06 3.80350E-19-7.45813E-19
 -1      1596 1.12426E-04-3.38084E-05-3.36940E-05 1.23812E-06-6.01441E-19-1.34046E-18
 -1      1597 1.10826E-04-3.33899E-05-3.31741E-05 2.17995E-06-2.13571E-19-1.08179E-18
 -1      1598 1.08425E-04-3.25130E-05-3.25457E-05 1.38517E-06 1.05530E-18-1.97274E-18
 -1      1599 1.09910E-04-3.29938E-05-3.29728E-05 1.35654E-06 1.20386E-18-5.39586E-19
 -1      1600 1.08585E-04-3.26051E-05-3.25561E-05 2.57141E-06 7.86712E-19-1.72040E-18
 -1      1601 1.05783E-04-3.17044E-05-3.17639E-05 1.29944E-06-5.09187E-19-2.17614E-18
 -1      1602 1.07230E-04-3.21538E-05-3.21862E-05 1.30439E-06 3.75209E-20-2.78318E-18
 -1      1603 1.06221E-04-3.18293E-05-3.18791E-05 2.57605E-06 7.76696E-19-7.36661E-19
 -1      1604 1.03384E-04-3.09796E-05-3.10462E-05 1.14063E-06-1.32906E-18 3.33400E-19
 -1      1605 1.04684E-04-3.13719E-05-3.14290E-05 1.16329E-06-8.40751E-19-1.32073E-18
 -1      1606 1.03969E-04-3.11222E-05-3.12197E-05 2.36022E-06-1.43593E-18 7.46762E-19
 -1      1607 1.01317E-04-3.03605E-05-3.04237E-05 9.58004E-07 2.57079E-19 1.67795E-18
 -1      1608 1.02425E-04-3.06880E-05-3.07521E-05 9.87941E-07-8.76183E-19 5.83354E-19
 -1      1609 1.01960E-04-3.05094E-05-3.06224E-05 2.04390E-06-1.66946E-18 6.52315E-19
 -1      1610 9.96012E-05-2.98494E-05-2.99049E-05 7.79192E-07 2.62577E-19 1.67539E-18
 -1      1611 1.00512E-04-3.01144E-05-3.01758E-05 8.10339E-07 5.83652E-19 2.06717E-18
 -1      1612 1.00243E-04-2.99965E-05-3.01070E-05 1.70209E-06 1.55737E-19 2.37109E-18
 -1      1613 9.82180E-05-2.94387E-05-2.94857E-05 6.16899E-07 1.00141E-18 3.56214E-19
 -1      1614 9.89459E-05-2.96476E-05-2.97026E-05 6.46309E-07 1.02281E-18 1.55195E-18
 -1      1615 9.88235E-05-2.95785E-05-2.96782E-05 1.37543E-06 1.16842E-18 2.55699E-18
 -1      1616 9.71341E-05-2.91172E-05-2.91571E-05 4.74085E-07 6.67783E-21-3.06411E-19
 -1      1617 9.76991E-05-2.92774E-05-2.93255E-05 5.00992E-07-2.21293E-19-9.17424E-19
 -1      1618 9.76832E-05-2.92454E-05-2.93326E-05 1.08090E-06 6.17591E-19 1.29941E-18
 -1      1619 9.63159E-05-2.88739E-05-2.89098E-05 3.47501E-07 8.43347E-19-1.53448E-18
 -1      1620 9.67371E-05-2.89915E-05-2.90350E-05 3.72696E-07 8.95066E-19 2.85874E-20
 -1      1621 9.67939E-05-2.89861E-05-2.90631E-05 8.19996E-07 8.83166E-19 1.16716E-19
 -1      1622 9.57384E-05-2.87011E-05-2.87364E-05 2.30340E-07 8.58982E-19-3.37592E-18
 -1      1623 9.60282E-05-2.87795E-05-2.88219E-05 2.55782E-07 8.04471E-19-2.11714E-18
 -1      1624 9.61284E-05-2.87907E-05-2.88625E-05 5.84731E-07 1.28205E-18 5.32481E-19
 -1      1625 9.53871E-05-2.85954E-05-2.86302E-05 1.14245E-07-2.22048E-20-3.79499E-18
 -1      1626 9.55496E-05-2.86344E-05-2.86793E-05 1.43490E-07 6.21104E-19-3.34540E-18
 -1      1627 9.56633E-05-2.86512E-05-2.87239E-05 3.63257E-07 1.04598E-18-2.24559E-20
 -1      1628 9.52473E-05-2.85606E-05-2.85764E-05 9.13627E-09 3.35538E-19-4.73424E-18
 -1      1629 9.52865E-05-2.85589E-05-2.85973E-05 3.72200E-08 2.76907E-19-4.65494E-18
 -1      1630 9.53778E-05-2.85691E-05-2.86361E-05 1.48833E-07 8.49959E-19-1.02953E-18
 -1      1631 9.52238E-05-2.85745E-05-2.85558E-05-1.94455E-08-2.78616E-18-3.24867E-18
 -1      1632 9.52394E-05-2.84712E-05-2.86183E-05 8.55692E-08-1.33467E-18 2.09699E-18
 -1      1633 9.52526E-05-2.85277E-05-2.85937E-05 5.85139E-08-3.91903E-18 1.66022E-18
 -1      1634 9.51448E-05-2.81779E-05-2.87031E-05 1.99355E-07 3.23687E-18 3.77424E-18
 -1      1635 9.51991E-05-2.83424E-05-2.86552E-05 1.77766E-07-8.64651E-19 2.17766E-18
 -1      1636 9.52235E-05-2.83216E-05-2.86768E-05 2.65022E-07 2.86118E-19 3.75657E-18
 -1      1637 9.50033E-05-2.77525E-05-2.88233E-05 2.76472E-07 1.82547E-18-7.66056E-19
 -1      1638 9.50840E-05-2.79946E-05-2.87546E-05 2.64636E-07 2.77033E-18 1.26741E-18
 -1      1639 9.51076E-05-2.80036E-05-2.87636E-05 4.54368E-07 9.30347E-20 2.39311E-18
 -1      1640 9.48428E-05-2.72661E-05-2.89618E-05 3.01563E-07-7.50089E-19-2.02618E-18
 -1      1641 9.49329E-05-2.75384E-05-2.88843E-05 3.00866E-07 1.47566E-18-6.95260E-19
 -1      1642 9.49621E-05-2.76013E-05-2.88706E-05 5.61154E-07-2.06826E-19-1.59026E-18
 -1      1643 9.46928E-05-2.68071E-05-2.90937E-05 2.75769E-07-2.83090E-18-1.97573E-19
 -1      1644 9.47750E-05-2.70575E-05-2.90221E-05 2.84620E-07-1.54067E-18-1.41077E-18
 -1      1645 9.48095E-05-2.71751E-05-2.89845E-05 5.68237E-07-1.99196E-18-3.39754E-18
 -1      1646 9.45709E-05-2.64325E-05-2.92018E-05 2.05931E-07-2.13460E-18-4.57624E-19
 -1      1647 9.46350E-05-2.66279E-05-2.91458E-05 2.22745E-07-1.25404E-18-5.01420E-19
 -1      1648 9.46719E-05-2.67855E-05-2.90897E-05 4.82906E-07-2.15990E-18-4.22972E-19
 -1      1649 9.44983E-05-2.62081E-05-2.92668E-05 1.04685E-07-2.57457E-18-2.15488E-18
 -1      1650 9.45329E-05-2.63136E-05-2.92365E-05 1.26459E-07-1.18372E-18-1.72226E-18
 -1      1651 9.45671E-05-2.64868E-05-2.91707E-05 3.21900E-07-1.52270E-18-1.28063E-18
 -1      1652 9.44852E-05-2.61671E-05-2.92788E-05-1.21793E-08-1.96874E-18-4.27403E-19
 -1      1653 9.44851E-05-2.61667E-05-2.92789E-05 1.13096E-08-2.38926E-18 4.52410E-19
 -1      1654 9.45110E-05-2.63261E-05-2.92144E-05 1.12336E-07-5.27163E-19-1.14522E-18
 -1      1655 9.45334E-05-2.63155E-05-2.92359E-05-1.27367E-07-3.12187E-18-4.46379E-19
 -1      1656 9.44986E-05-2.62090E-05-2.92665E-05-1.05585E-07-2.62195E-18-5.62884E-19
 -1      1657 9.45111E-05-2.63266E-05-2.92143E-05-1.14023E-07-4.06513E-19-1.09879E-18
 -1      1658 9.46359E-05-2.66312E-05-2.91448E-05-2.23687E-07-5.19424E-18-1.81255E-18
 -1      1659 9.45717E-05-2.64349E-05-2.92011E-05-2.06926E-07-3.36726E-18-1.41264E-18
 -1      1660 9.45674E-05-2.64881E-05-2.91703E-05-3.23722E-07-2.02124E-18-6.70384E-19
 -1      1661 9.47753E-05-2.70584E-05-2.90218E-05-2.85011E-07-6.60672E-18 3.07789E-19
 -1      1662 9.46927E-05-2.68073E-05-2.90936E-05-2.76188E-07-4.94838E-18-1.94503E-18
 -1      1663 9.46718E-05-2.67849E-05-2.90898E-05-4.83936E-07-3.11512E-18-2.61415E-18
 -1      1664 9.49348E-05-2.75442E-05-2.88827E-05-3.01328E-07-3.19946E-18 2.29346E-18
 -1      1665 9.48445E-05-2.72713E-05-2.89604E-05-3.02171E-07-7.02656E-18 3.58294E-18
 -1      1666 9.48096E-05-2.71753E-05-2.89845E-05-5.69303E-07-2.04850E-18 2.26861E-18
 -1      1667 9.50856E-05-2.80005E-05-2.87530E-05-2.64570E-07-2.99829E-18 2.14823E-19
 -1      1668 9.50052E-05-2.77584E-05-2.88216E-05-2.76202E-07-3.62043E-18 3.74566E-19
 -1      1669 9.49639E-05-2.76059E-05-2.88694E-05-5.61464E-07-2.07314E-18 2.12540E-18
 -1      1670 9.52025E-05-2.83443E-05-2.86543E-05-1.78391E-07-4.18060E-18-8.93079E-19
 -1      1671 9.51446E-05-2.81811E-05-2.87017E-05-2.00814E-07-2.96073E-18-9.92221E-19
 -1      1672 9.51074E-05-2.80061E-05-2.87624E-05-4.52759E-07-1.24887E-18-7.53679E-19
 -1      1673 9.52617E-05-2.84954E-05-2.86106E-05-1.02320E-07-2.09660E-18 7.03843E-19
 -1      1674 9.52450E-05-2.84330E-05-2.86364E-05-1.40844E-07-3.01266E-18 3.75520E-19
 -1      1675 9.52371E-05-2.82822E-05-2.86969E-05-3.28055E-07-1.41521E-18-5.55592E-20
 -1      1676 9.53367E-05-2.84585E-05-2.86594E-05-2.16921E-07-5.53543E-20 1.13790E-18
 -1      1677 2.01680E-05-6.51829E-05 1.34152E-05-5.77189E-06 6.96727E-18 1.48739E-18
 -1      1678 2.34010E-05-7.48055E-05 1.55293E-05 1.85002E-06 6.04453E-18 6.53698E-19
 -1      1679 1.86986E-05-3.85471E-05 4.09305E-06 1.48041E-06 3.77353E-18-8.21198E-19
 -1      1680 2.35225E-05-6.09296E-05 9.80736E-06-1.88691E-06 6.73222E-18 5.21613E-19
 -1      1681 3.66902E-05-1.25087E-05-1.21633E-05 2.94249E-05 2.36237E-18 1.54584E-18
 -1      1682 3.02682E-05-3.32090E-05-3.23958E-06 1.12853E-05 3.01120E-18 8.49998E-19
 -1      1683 7.42860E-05-8.88178E-07-3.06143E-05 5.93604E-05 1.59920E-18 1.58226E-18
 -1      1684 5.04281E-05-6.78159E-06-2.10138E-05 3.69531E-05 1.93462E-18 1.49586E-18
 -1      1685 1.37857E-04-1.50827E-05-4.91528E-05 7.78520E-05 8.56350E-19-1.95665E-19
 -1      1686 9.71633E-05-3.31050E-06-3.97826E-05 6.47689E-05 1.59073E-18 1.12909E-18
 -1      1687 2.03597E-04-4.17958E-05-6.40701E-05 6.65837E-05 7.03037E-20-2.32595E-18
 -1      1688 1.61791E-04-2.13186E-05-5.70344E-05 7.49919E-05 1.13037E-18-4.92973E-19
 -1      1689 2.42100E-04-5.91896E-05-7.24800E-05 2.42243E-05 2.33358E-19-4.30166E-18
 -1      1690 2.17068E-04-4.54625E-05-6.87170E-05 5.17197E-05 2.04135E-19-3.10099E-18
 -1      1691 2.46963E-04-6.05075E-05-7.37884E-05-2.43641E-05 2.33442E-18-7.16696E-18
 -1      1692 2.51254E-04-6.30043E-05-7.44513E-05 1.07678E-05 7.50471E-19-4.94159E-18
 -1      1693 2.07181E-04-4.09425E-05-6.65817E-05-6.20877E-05 3.81043E-18-9.71039E-18
 -1      1694 2.38273E-04-5.76242E-05-7.12058E-05-3.92181E-05 3.22381E-18-8.08493E-18
 -1      1695 1.44258E-04-1.57566E-05-5.27552E-05-7.27399E-05 6.49844E-18-1.06176E-17
 -1      1696 1.87891E-04-3.49675E-05-6.06056E-05-7.06764E-05 4.66842E-18-1.06430E-17
 -1      1697 8.44915E-05-6.71354E-06-3.38841E-05-5.38363E-05 7.29295E-18-9.15304E-18
 -1      1698 1.22109E-04-1.37557E-05-4.39552E-05-7.08167E-05 6.79405E-18-1.01356E-17
 -1      1699 4.14370E-05-1.45886E-05-1.47121E-05-2.68642E-05 6.68140E-18-6.80591E-18
 -1      1700 5.97356E-05-3.47548E-06-2.43732E-05-4.94352E-05 8.00107E-18-8.80237E-18
 -1      1701 2.52564E-05-3.97877E-05 1.00391E-06-4.61848E-06 4.16063E-18-3.08807E-18
 -1      1702 2.65199E-05-1.82386E-05-6.42548E-06-1.78774E-05 6.08339E-18-5.63362E-18
 -1      1703 2.37121E-05-6.65375E-05 1.19305E-05 2.12084E-06-7.15743E-19-1.97909E-18
 -1      1704 1.84902E-05-4.64281E-05 7.02283E-06 2.26377E-06 2.59531E-18-2.77943E-18
 -1      1705 2.29505E-05-7.48426E-05 1.57813E-05-3.23677E-06-4.17100E-18-1.64960E-18
 -1      1706 2.11105E-05-6.95176E-05 1.46335E-05 5.47748E-06-1.39633E-18-1.21062E-18
 -1      1707 1.94771E-05-6.17552E-05 1.23094E-05-6.53724E-06-8.19166E-18-3.23238E-18
 -1      1708 2.38900E-05-7.49216E-05 1.51893E-05 3.68627E-08-5.18194E-18-2.18513E-18
 -1      1709 2.08932E-05-3.31319E-05 1.33402E-06 6.34427E-06-9.41308E-18-5.23509E-18
 -1      1710 2.41952E-05-5.55728E-05 7.63037E-06 2.50857E-08-7.96380E-18-3.52456E-18
 -1      1711 3.83965E-05-7.20822E-06-1.50003E-05 3.30603E-05-9.84591E-18-7.17945E-18
 -1      1712 2.97309E-05-2.62621E-05-5.90545E-06 1.30826E-05-1.00094E-17-6.15835E-18
 -1      1713 8.78914E-05-5.88693E-06-3.40144E-05 6.25164E-05-7.38443E-18-7.29295E-18
 -1      1714 6.04415E-05-8.15752E-06-2.42335E-05 4.13233E-05-9.36310E-18-7.24298E-18
 -1      1715 1.48912E-04-1.92783E-05-5.18608E-05 7.74326E-05-5.16182E-18-7.91806E-18
 -1      1716 1.07809E-04-5.17103E-06-4.30568E-05 6.80655E-05-6.32988E-18-8.07392E-18
 -1      1717 2.11559E-04-4.56249E-05-6.56630E-05 5.89904E-05-3.38707E-18-4.51384E-18
 -1      1718 1.71820E-04-2.62304E-05-5.90228E-05 7.00065E-05-4.91343E-18-6.61363E-18
 -1      1719 2.50966E-04-6.35276E-05-7.37088E-05 2.18172E-05-3.10459E-18 5.24102E-19
 -1      1720 2.29358E-04-5.13123E-05-7.06907E-05 5.08782E-05-3.29083E-18-3.61175E-18
 -1      1721 2.43978E-04-5.88668E-05-7.33323E-05-2.66999E-05-2.84878E-18 5.61286E-18
 -1      1722 2.50582E-04-6.25858E-05-7.42679E-05 6.11944E-06-3.10395E-18 1.84473E-18
 -1      1723 2.05684E-04-3.98770E-05-6.62784E-05-6.51147E-05-1.84658E-18 6.54502E-18
 -1      1724 2.38097E-04-5.74357E-05-7.10479E-05-4.27484E-05-1.55875E-18 6.79278E-18
 -1      1725 1.44082E-04-1.68056E-05-5.22558E-05-7.08267E-05-1.85966E-18 4.80098E-18
 -1      1726 1.85385E-04-3.45650E-05-5.99109E-05-6.94924E-05-1.95199E-18 6.21892E-18
 -1      1727 8.42826E-05-2.21495E-06-3.53950E-05-5.88746E-05-2.55296E-18 3.55415E-18
 -1      1728 1.19741E-04-9.92810E-06-4.44334E-05-7.43900E-05-2.36661E-18 5.04832E-18
 -1      1729 4.68484E-05-1.41125E-05-1.67715E-05-3.03048E-05-2.47757E-18 1.76522E-18
 -1      1730 6.67186E-05-4.81717E-06-2.64004E-05-5.22266E-05-2.56482E-18 3.05609E-18
 -1      1731 2.72147E-05-3.72241E-05-5.98994E-07-7.44935E-06-3.32037E-19 1.22566E-18
 -1      1732 3.01163E-05-1.65457E-05-8.33775E-06-2.20586E-05-1.94648E-18 2.24972E-18
 -1      1733 2.35413E-05-6.35750E-05 1.08327E-05 2.33289E-06 2.72702E-18 9.89123E-19
 -1      1734 1.86770E-05-4.31951E-05 5.75037E-06 7.61523E-07 4.93820E-19 1.48294E-18
 -1      1735 2.36462E-05-7.60336E-05 1.58174E-05-1.59202E-06 5.40545E-18 9.08866E-19
 -1      1736 2.08993E-05-6.80545E-05 1.40888E-05 6.37718E-06 3.29157E-18 5.11184E-19
 -1      1737 1.12618E-04-2.94119E-05-3.47546E-05 4.65286E-05 1.99900E-19-1.64663E-18
 -1      1738 7.28956E-05-3.50032E-05-1.75353E-05 3.93869E-05 7.27601E-19-1.38913E-19
 -1      1739 9.52617E-05-2.85726E-05-2.85796E-05 3.06945E-09-3.48577E-18-2.09032E-18
 -1      1740 9.52789E-05-2.84920E-05-2.86225E-05 9.86001E-08-1.64692E-19 4.89461E-19
 -1      1741 1.83325E-05-4.73680E-05 8.17550E-06 1.32011E-05 2.66815E-18-4.94667E-19
 -1      1742 3.99031E-05-4.11838E-05-2.33567E-06 2.84508E-05 1.28749E-18-1.29051E-18
 -1      1743 1.19054E-05-5.04767E-05 1.18613E-05 7.33879E-07 3.24647E-18 1.70847E-18
 -1      1744 1.56458E-04-3.00726E-05-5.10424E-05 4.41608E-05 5.33419E-19-2.25650E-18
 -1      1745 1.88796E-04-3.16400E-05-6.30127E-05 2.81812E-05 1.21825E-18-3.08616E-18
 -1      1746 2.05025E-04-3.23886E-05-6.91645E-05 6.05681E-06 1.74192E-18-2.23511E-18
 -1      1747 2.05495E-04-3.31495E-05-6.86046E-05-1.40244E-05 3.25388E-18-4.37027E-18
 -1      1748 1.83255E-04-3.23558E-05-6.04881E-05-3.22384E-05 3.75384E-18-6.54333E-18
 -1      1749 1.46318E-04-3.30718E-05-4.63970E-05-4.02904E-05 4.02404E-18-6.96092E-18
 -1      1750 1.03451E-04-3.42955E-05-2.92764E-05-4.31023E-05 3.70069E-18-5.84961E-18
 -1      1751 6.05143E-05-3.58612E-05-1.23187E-05-3.61702E-05 2.38016E-18-5.39073E-18
 -1      1752 3.15275E-05-4.29945E-05 1.35460E-06-2.29195E-05 9.72394E-19-3.84140E-18
 -1      1753 1.55611E-05-4.85734E-05 9.68265E-06-1.00747E-05-1.49163E-18-3.36272E-18
 -1      1754 1.22012E-05-5.03448E-05 1.16912E-05 2.47081E-06-2.74534E-18-3.58168E-18
 -1      1755 2.17654E-05-4.66417E-05 6.63455E-06 1.65165E-05-3.87179E-18-3.07261E-18
 -1      1756 4.36226E-05-3.93406E-05-4.64429E-06 2.95101E-05-5.06272E-18-4.22754E-18
 -1      1757 8.02016E-05-3.41968E-05-2.04604E-05 4.09063E-05-5.80556E-18-4.23008E-18
 -1      1758 1.22052E-04-3.17568E-05-3.76039E-05 4.47415E-05-5.11862E-18-4.23008E-18
 -1      1759 1.62639E-04-3.11609E-05-5.31894E-05 4.00122E-05-3.71699E-18-3.16706E-18
 -1      1760 1.94712E-04-3.33724E-05-6.46009E-05 2.50038E-05-4.43210E-18-4.27752E-19
 -1      1761 2.09572E-04-3.38855E-05-6.99663E-05 6.69004E-06-4.76837E-18 1.74806E-18
 -1      1762 2.04761E-04-3.31716E-05-6.83485E-05-1.61248E-05-2.84264E-18 2.41023E-18
 -1      1763 1.82250E-04-3.28522E-05-6.00371E-05-3.21796E-05-6.60739E-19 3.03577E-18
 -1      1764 1.45671E-04-3.09940E-05-4.67412E-05-4.30835E-05-6.07111E-19 3.39406E-18
 -1      1765 1.04383E-04-3.23935E-05-3.05864E-05-4.41230E-05-4.47233E-19 2.16205E-18
 -1      1766 6.66670E-05-3.69657E-05-1.42145E-05-3.78394E-05-3.81165E-20 1.15768E-18
 -1      1767 3.49709E-05-4.21107E-05-1.63775E-07-2.54093E-05 1.63393E-18 1.74730E-18
 -1      1768 1.72393E-05-4.87050E-05 9.01392E-06-1.17842E-05 1.86051E-18 2.43967E-18
 -1      1769 1.05924E-04-2.31384E-05-3.55632E-05-1.68460E-05-1.36026E-18 4.22288E-18
 -1      1770 8.91230E-05-1.05571E-05-3.37945E-05-1.33289E-05-1.42049E-18-2.24834E-18
 -1      1771 9.04324E-05-1.16227E-05-3.39273E-05-1.51032E-05-1.73229E-18-1.73546E-18
 -1      1772 9.24476E-05-1.38643E-05-3.38383E-05-1.59937E-05-1.81373E-18-1.10596E-18
 -1      1773 9.41384E-05-1.58094E-05-3.40738E-05-1.76540E-05-1.96955E-18-2.07841E-19
 -1      1774 9.34094E-05-1.63549E-05-3.30338E-05-1.37385E-05-1.92991E-18-1.30210E-18
 -1      1775 8.62539E-05-7.66790E-06-3.37512E-05-7.84940E-06-6.13803E-19-2.96827E-18
 -1      1776 8.66465E-05-7.96717E-06-3.37803E-05-9.23810E-06-8.11944E-19-2.92218E-18
 -1      1777 8.56507E-05-7.02727E-06-3.37553E-05-5.30847E-06-2.18160E-19-3.03648E-18
 -1      1778 8.58788E-05-7.20704E-06-3.37672E-05-6.61171E-06-4.06185E-19-3.03299E-18
 -1      1779 8.76373E-05-9.85417E-06-3.33683E-05-6.91009E-06-5.77504E-19-2.83655E-18
 -1      1780 8.53231E-05-6.66513E-06-3.37630E-05-2.88119E-06 1.61495E-19-2.85326E-18
 -1      1781 8.54407E-05-6.76079E-06-3.37670E-05-4.11859E-06-4.16849E-20-2.97490E-18
 -1      1782 8.70132E-05-9.13701E-06-3.34078E-05-4.52274E-06-1.83099E-19-2.88207E-18
 -1      1783 8.51950E-05-6.51509E-06-3.37683E-05-5.15820E-07 5.52431E-19-2.71658E-18
 -1      1784 8.52296E-05-6.54400E-06-3.37692E-05-1.72257E-06 3.66865E-19-2.81833E-18
 -1      1785 8.66865E-05-8.75388E-06-3.34317E-05-2.20912E-06 2.82454E-19-2.72857E-18
 -1      1786 8.52394E-05-6.55300E-06-3.37693E-05 1.84042E-06 8.83197E-19-2.53526E-18
 -1      1787 8.51986E-05-6.51968E-06-3.37682E-05 6.32668E-07 7.22400E-19-2.61934E-18
 -1      1788 8.65898E-05-8.63882E-06-3.34395E-05 6.52696E-08 6.71960E-19-2.59093E-18
 -1      1789 8.54657E-05-6.78585E-06-3.37670E-05 4.24089E-06 1.22024E-18-2.36275E-18
 -1      1790 8.53408E-05-6.68413E-06-3.37629E-05 3.00039E-06 1.06511E-18-2.47711E-18
 -1      1791 8.67040E-05-8.77356E-06-3.34309E-05 2.34087E-06 1.02877E-18-2.40285E-18
 -1      1792 8.59132E-05-7.24290E-06-3.37667E-05 6.69876E-06 1.56510E-18-2.03194E-18
 -1      1793 8.56808E-05-7.05944E-06-3.37550E-05 5.41292E-06 1.42656E-18-2.26761E-18
 -1      1794 8.70472E-05-9.17482E-06-3.34061E-05 4.63751E-06 1.44544E-18-2.18849E-18
 -1      1795 8.67102E-05-8.03629E-06-3.37788E-05 9.35946E-06 1.96303E-18-1.53881E-18
 -1      1796 8.62987E-05-7.71884E-06-3.37497E-05 7.93907E-06 1.74214E-18-1.79478E-18
 -1      1797 8.76893E-05-9.91291E-06-3.33652E-05 7.00883E-06 1.77853E-18-1.80918E-18
 -1      1798 8.80977E-05-9.38541E-06-3.38228E-05 1.22397E-05 2.22782E-18-8.06825E-19
 -1      1799 8.73716E-05-8.82780E-06-3.37568E-05 1.06464E-05 2.07999E-18-1.24902E-18
 -1      1800 8.87932E-05-1.11525E-05-3.33052E-05 9.48246E-06 2.12617E-18-1.28547E-18
 -1      1801 9.06064E-05-1.18345E-05-3.39190E-05 1.52906E-05 2.38894E-18 4.98029E-19
 -1      1802 8.92451E-05-1.07375E-05-3.37865E-05 1.35005E-05 2.26215E-18-2.76715E-19
 -1      1803 9.06636E-05-1.32163E-05-3.32103E-05 1.19570E-05 2.39484E-18-4.20764E-19
 -1      1804 9.58039E-05-1.70181E-05-3.39690E-05 1.76809E-05 2.13673E-18 2.78589E-18
 -1      1805 9.28092E-05-1.43328E-05-3.38108E-05 1.61842E-05 2.22821E-18 1.38011E-18
 -1      1806 9.39329E-05-1.68757E-05-3.30133E-05 1.38808E-05 2.36480E-18 9.86370E-19
 -1      1807 1.01815E-04-2.50635E-05-3.33248E-05 1.44167E-05 1.74028E-18 5.50000E-18
 -1      1808 9.79876E-05-1.95949E-05-3.35964E-05 1.69565E-05 1.96052E-18 3.77083E-18
 -1      1809 9.72539E-05-2.18331E-05-3.24043E-05 1.32399E-05 2.13979E-18 2.75029E-18
 -1      1810 9.86439E-05-2.61037E-05-3.13094E-05 9.43142E-06 1.77573E-18 4.84135E-18
 -1      1811 1.00054E-04-1.95400E-05-3.41847E-05-1.88618E-05-1.79800E-18 1.45679E-18
 -1      1812 9.52092E-05-2.72537E-05-2.91552E-05 4.06176E-06 1.37894E-18 3.83846E-18
 -1      1813 9.76367E-05-2.73588E-05-3.01631E-05 6.39621E-06 1.50290E-18 4.37912E-18
 -1      1814 9.74881E-05-2.55882E-05-3.08064E-05 8.75300E-06 1.78427E-18 3.12115E-18
 -1      1815 9.97275E-05-2.25183E-05-3.28085E-05-1.44616E-05-1.86024E-18 7.74029E-19
 -1      1816 9.68714E-05-2.69497E-05-2.98514E-05-5.69561E-06-1.54848E-18 5.55759E-19
 -1      1817 9.50696E-05-2.70061E-05-2.91424E-05-3.88639E-06-1.34987E-18 1.75111E-19
 -1      1818 9.42564E-05-2.72075E-05-2.86381E-05-2.40489E-06-1.17528E-18 1.98001E-19
 -1      1819 9.34927E-05-2.72883E-05-2.83358E-05-1.54573E-06-9.50258E-19-3.76996E-20
 -1      1820 9.54503E-05-2.65224E-05-2.95616E-05-4.45175E-06-1.46928E-18-3.55165E-19
 -1      1821 9.29789E-05-2.73403E-05-2.80716E-05-7.09058E-07-7.75756E-19-5.40083E-20
 -1      1822 9.26906E-05-2.74048E-05-2.79541E-05-2.61347E-07-6.41856E-19-3.22531E-19
 -1      1823 9.42576E-05-2.71967E-05-2.87613E-05-1.78933E-06-1.02711E-18-4.19989E-19
 -1      1824 9.24318E-05-2.74341E-05-2.78249E-05 2.10390E-07-5.49336E-19-3.74071E-19
 -1      1825 9.24221E-05-2.75131E-05-2.78023E-05 4.49294E-07-5.01293E-19-5.55900E-19
 -1      1826 9.35831E-05-2.75024E-05-2.83375E-05-2.92487E-07-7.52417E-19-6.50164E-19
 -1      1827 9.23444E-05-2.75481E-05-2.77541E-05 7.13691E-07-4.65519E-19-5.91227E-19
 -1      1828 9.24937E-05-2.76389E-05-2.77845E-05 8.39562E-07-3.66289E-19-7.63684E-19
 -1      1829 9.33028E-05-2.76880E-05-2.81338E-05 5.56668E-07-5.67697E-19-8.32281E-19
 -1      1830 9.25369E-05-2.76827E-05-2.77871E-05 9.85971E-07-5.44507E-19-8.53726E-19
 -1      1831 9.27771E-05-2.77791E-05-2.78486E-05 1.05098E-06-6.05596E-19-9.46877E-19
 -1      1832 9.33004E-05-2.78346E-05-2.80663E-05 1.03593E-06-6.24084E-19-8.65487E-19
 -1      1833 9.29002E-05-2.78298E-05-2.78841E-05 1.13381E-06-6.22536E-19-8.44101E-19
 -1      1834 9.31943E-05-2.79280E-05-2.79648E-05 1.16989E-06-4.87805E-19-9.03945E-19
 -1      1835 9.34843E-05-2.79656E-05-2.80862E-05 1.30727E-06-6.12622E-19-9.51456E-19
 -1      1836 9.33722E-05-2.79833E-05-2.80227E-05 1.22472E-06-5.30613E-19-9.35678E-19
 -1      1837 9.37024E-05-2.80823E-05-2.81167E-05 1.25331E-06-3.72272E-19-8.51548E-19
 -1      1838 9.37939E-05-2.80882E-05-2.81645E-05 1.47240E-06-5.09265E-19-7.77511E-19
 -1      1839 9.39220E-05-2.81416E-05-2.81914E-05 1.30495E-06-4.67645E-19-1.08660E-18
 -1      1840 9.42843E-05-2.82427E-05-2.82969E-05 1.34148E-06-4.31808E-19-1.45040E-18
 -1      1841 9.41936E-05-2.82058E-05-2.82845E-05 1.59979E-06-7.73798E-19-1.02454E-18
 -1      1842 9.45412E-05-2.83066E-05-2.83862E-05 1.40815E-06-2.15221E-19-1.57369E-18
 -1      1843 9.49411E-05-2.84132E-05-2.85042E-05 1.46425E-06-5.19738E-20-1.45058E-18
 -1      1844 9.46679E-05-2.83220E-05-2.84376E-05 1.73829E-06-4.08878E-19-1.02269E-18
 -1      1845 9.52376E-05-2.84839E-05-2.86084E-05 1.55966E-06-9.00183E-20-1.47566E-18
 -1      1846 9.56875E-05-2.86011E-05-2.87420E-05 1.64420E-06 1.81781E-19-1.53115E-18
 -1      1847 9.52160E-05-2.84423E-05-2.86212E-05 1.92410E-06-9.42928E-20-1.06880E-18
 -1      1848 9.60308E-05-2.86820E-05-2.88629E-05 1.77850E-06 3.44834E-19-1.88090E-18
 -1      1849 9.65482E-05-2.88167E-05-2.90167E-05 1.89783E-06 1.68435E-19-1.52672E-18
 -1      1850 9.58483E-05-2.85742E-05-2.88361E-05 2.18421E-06 1.22734E-19-1.31441E-18
 -1      1851 9.69490E-05-2.89125E-05-2.91569E-05 2.07744E-06-3.60767E-20-1.22187E-18
 -1      1852 9.75544E-05-2.90730E-05-2.93363E-05 2.23479E-06-4.99336E-20-9.08838E-19
 -1      1853 9.65835E-05-2.87282E-05-2.90859E-05 2.53729E-06 2.46425E-19-1.01762E-18
 -1      1854 9.80251E-05-2.91901E-05-2.94985E-05 2.46122E-06-3.64583E-19-1.09627E-18
 -1      1855 9.87394E-05-2.93862E-05-2.97086E-05 2.65502E-06-3.98225E-19-1.18474E-18
 -1      1856 9.74458E-05-2.89183E-05-2.93748E-05 2.99232E-06-3.45735E-19-7.35534E-19
 -1      1857 9.92935E-05-2.95329E-05-2.98948E-05 2.92218E-06-5.26534E-19-1.36175E-18
 -1      1858 1.00134E-04-2.97755E-05-3.01391E-05 3.14303E-06-6.39947E-19-1.59070E-18
 -1      1859 9.84628E-05-2.91639E-05-2.97063E-05 3.54436E-06-7.47520E-19-1.38101E-18
 -1      1860 1.00784E-04-2.99629E-05-3.03492E-05 3.43272E-06-7.15130E-19-1.80504E-18
 -1      1861 1.01759E-04-3.02638E-05-3.06281E-05 3.65843E-06-7.67566E-19-2.29071E-18
 -1      1862 9.96626E-05-2.94914E-05-3.00809E-05 4.16685E-06-8.23034E-19-1.80169E-18
 -1      1863 1.02515E-04-3.05065E-05-3.08585E-05 3.93349E-06-5.87200E-19-2.08555E-18
 -1      1864 1.03614E-04-3.08767E-05-3.11658E-05 4.12208E-06-7.78638E-19-1.92795E-18
 -1      1865 1.01071E-04-2.99380E-05-3.04938E-05 4.79941E-06-6.54837E-19-1.53376E-18
 -1      1866 1.04481E-04-3.11936E-05-3.14076E-05 4.31746E-06-8.74073E-19-1.86992E-18
 -1      1867 1.05665E-04-3.16399E-05-3.17279E-05 4.39906E-06-5.34942E-19-2.09801E-18
 -1      1868 1.02708E-04-3.05531E-05-3.09322E-05 5.33096E-06-7.94115E-19-1.30793E-18
 -1      1869 1.06639E-04-3.20515E-05-3.19659E-05 4.41268E-06 9.01627E-21-2.12857E-18
 -1      1870 1.07820E-04-3.25685E-05-3.22703E-05 4.28405E-06 8.01876E-19-2.37164E-18
 -1      1871 1.04581E-04-3.13967E-05-3.13732E-05 5.58042E-06-3.50916E-19-1.63335E-18
 -1      1872 1.08881E-04-3.30887E-05-3.24833E-05 3.97376E-06 7.68118E-19-2.58578E-18
 -1      1873 1.09912E-04-3.36422E-05-3.27285E-05 3.50497E-06 4.65273E-19-2.61431E-18
 -1      1874 1.06669E-04-3.25230E-05-3.17844E-05 5.28335E-06 4.14340E-19-1.79429E-18
 -1      1875 1.11000E-04-3.42545E-05-3.28930E-05 2.70599E-06 9.77853E-19-2.56400E-18
 -1      1876 1.11663E-04-3.47538E-05-3.30253E-05 1.77648E-06 1.05004E-18-2.15355E-18
 -1      1877 1.08894E-04-3.39345E-05-3.21296E-05 4.10546E-06 9.71524E-19-1.56357E-18
 -1      1878 1.12645E-04-3.53666E-05-3.31242E-05 3.66165E-07 7.46944E-19-1.87439E-18
 -1      1879 1.12672E-04-3.56351E-05-3.30940E-05-1.04784E-06 7.76365E-19-1.57555E-18
 -1      1880 1.11059E-04-3.54854E-05-3.23837E-05 1.72445E-06 1.11225E-18-1.18525E-18
 -1      1881 1.13305E-04-3.60344E-05-3.31289E-05-3.01412E-06 9.24067E-19-1.18025E-18
 -1      1882 1.12458E-04-3.58111E-05-3.29156E-05-4.70574E-06 2.52442E-19-5.69246E-19
 -1      1883 1.12763E-04-3.67544E-05-3.25534E-05-1.95948E-06 1.04945E-18-7.97592E-19
 -1      1884 1.12399E-04-3.56614E-05-3.29145E-05-6.80486E-06-3.68486E-19-6.32433E-19
 -1      1885 1.10620E-04-3.47057E-05-3.25555E-05-8.21758E-06-5.67552E-19-1.87459E-19
 -1      1886 1.13372E-04-3.69885E-05-3.26925E-05-6.47522E-06 2.09091E-19-4.91962E-19
 -1      1887 1.09613E-04-3.37325E-05-3.25645E-05-9.54582E-06-1.27382E-18-6.59098E-21
 -1      1888 1.07242E-04-3.21005E-05-3.21596E-05-9.86079E-06-1.06540E-18-4.58801E-19
 -1      1889 1.12209E-04-3.53502E-05-3.28862E-05-1.04132E-05-6.54168E-19-4.18170E-19
 -1      1890 1.05535E-04-3.05008E-05-3.22010E-05-9.35544E-06-6.40079E-19-6.60725E-19
 -1      1891 1.03377E-04-2.87981E-05-3.18792E-05-7.97880E-06-1.47351E-19-1.37076E-18
 -1      1892 1.09231E-04-3.17763E-05-3.31789E-05-1.15361E-05-7.83952E-19 4.33051E-19
 -1      1893 1.01923E-04-2.74412E-05-3.19269E-05-5.29182E-06 2.46513E-19-2.02827E-18
 -1      1894 1.00942E-04-2.66114E-05-3.17925E-05-2.51464E-06-1.57098E-20-1.75823E-18
 -1      1895 1.05737E-04-2.77364E-05-3.34877E-05-8.08671E-06-4.53070E-19-1.43565E-18
 -1      1896 1.00797E-04-2.64757E-05-3.17974E-05 1.30012E-06-5.94842E-19-2.10690E-18
 -1      1897 1.01490E-04-2.70659E-05-3.18915E-05 4.21639E-06-1.04898E-18-2.74979E-18
 -1      1898 1.03963E-04-2.57158E-05-3.36416E-05-7.44711E-07-6.92886E-19-2.01711E-18
 -1      1899 1.02777E-04-2.82674E-05-3.18474E-05 7.22504E-06-1.09578E-18-2.90208E-18
 -1      1900 1.04791E-04-2.98858E-05-3.21412E-05 8.90431E-06-1.01284E-18-2.93935E-18
 -1      1901 1.05230E-04-2.71525E-05-3.35306E-05 6.98619E-06-1.15813E-18-2.97539E-18
 -1      1902 1.06537E-04-3.15208E-05-3.20955E-05 9.80508E-06-7.72262E-19-3.00908E-18
 -1      1903 1.08936E-04-3.32233E-05-3.24949E-05 9.76482E-06-1.73739E-19-2.65225E-18
 -1      1904 1.08587E-04-3.10275E-05-3.32356E-05 1.12676E-05-9.52250E-19-2.32192E-18
 -1      1905 1.10103E-04-3.43390E-05-3.24809E-05 8.69464E-06 6.86461E-20-2.64454E-18
 -1      1906 1.12024E-04-3.54315E-05-3.28565E-05 7.41731E-06 1.26936E-19-2.65230E-18
 -1      1907 1.11785E-04-3.48332E-05-3.29308E-05 1.08744E-05 2.32721E-19-2.98803E-18
 -1      1908 1.12244E-04-3.57164E-05-3.28590E-05 5.38122E-06-4.57074E-19-2.57092E-18
 -1      1909 1.13262E-04-3.60578E-05-3.31026E-05 3.68961E-06-3.58917E-19-2.63393E-18
 -1      1910 1.13298E-04-3.68432E-05-3.27200E-05 7.27273E-06 2.55559E-19-2.18555E-18
 -1      1911 1.12728E-04-3.57309E-05-3.30775E-05 1.65584E-06-5.81395E-19-2.24060E-18
 -1      1912 1.12842E-04-3.55291E-05-3.31405E-05 1.69076E-07-3.96550E-19-2.82102E-18
 -1      1913 1.12968E-04-3.68943E-05-3.25781E-05 2.73084E-06-6.77980E-19-1.78315E-18
 -1      1914 1.11902E-04-3.49336E-05-3.30546E-05-1.34991E-06 6.80273E-21-3.88088E-18
 -1      1915 1.11334E-04-3.44591E-05-3.29488E-05-2.36584E-06 2.00376E-20-3.94069E-18
 -1      1916 1.11409E-04-3.57458E-05-3.24205E-05-1.15620E-06-8.94113E-19-2.76762E-18
 -1      1917 1.10256E-04-3.38372E-05-3.27965E-05-3.26253E-06 1.35208E-19-3.55698E-18
 -1      1918 1.09277E-04-3.32851E-05-3.25689E-05-3.80148E-06 4.17316E-19-2.80858E-18
 -1      1919 1.09293E-04-3.42020E-05-3.21854E-05-3.76385E-06 2.51036E-19-4.13537E-18
 -1      1920 1.08212E-04-3.27466E-05-3.23653E-05-4.17962E-06 9.86654E-19-2.20766E-18
 -1      1921 1.07053E-04-3.22207E-05-3.20706E-05-4.35261E-06 1.23020E-18-1.42268E-18
 -1      1922 1.07069E-04-3.27487E-05-3.18590E-05-5.12137E-06 1.20281E-18-2.32410E-18
 -1      1923 1.06071E-04-3.17917E-05-3.18390E-05-4.37526E-06 9.41932E-19-1.48100E-18
 -1      1924 1.04893E-04-3.13342E-05-3.15234E-05-4.31376E-06 1.32306E-18-1.53971E-18
 -1      1925 1.04964E-04-3.15698E-05-3.14633E-05-5.53030E-06 1.26321E-18-1.11821E-18
 -1      1926 1.04020E-04-3.10042E-05-3.12864E-05-4.12831E-06 9.56252E-19-1.04683E-18
 -1      1927 1.02923E-04-3.06247E-05-3.09817E-05-3.94051E-06-1.32028E-19-4.39340E-19
 -1      1928 1.03073E-04-3.06808E-05-3.10342E-05-5.32960E-06 8.09984E-19-2.01250E-18
 -1      1929 1.02167E-04-3.03736E-05-3.07561E-05-3.65510E-06-1.39365E-18-6.07732E-19
 -1      1930 1.01199E-04-3.00672E-05-3.04809E-05-3.41550E-06-1.09393E-18-4.16860E-19
 -1      1931 1.01427E-04-3.00324E-05-3.06063E-05-4.79602E-06-8.08918E-19 5.37367E-19
 -1      1932 1.00558E-04-2.98759E-05-3.02773E-05-3.09966E-06 9.20900E-20-5.48104E-19
 -1      1933 9.97363E-05-2.96327E-05-3.00399E-05-2.85313E-06 1.16718E-18-1.35776E-19
 -1      1934 1.00025E-04-2.95643E-05-3.02056E-05-4.12193E-06-5.59159E-19 8.92861E-19
 -1      1935 9.92029E-05-2.94860E-05-2.98635E-05-2.54633E-06 1.82098E-18-1.51805E-18
 -1      1936 9.85266E-05-2.92952E-05-2.96659E-05-2.31611E-06 1.20771E-18-1.19474E-18
 -1      1937 9.88521E-05-2.92250E-05-2.98479E-05-3.42570E-06 7.90690E-19-6.46658E-19
 -1      1938 9.80903E-05-2.91817E-05-2.95183E-05-2.03691E-06 1.06851E-18-9.71348E-20
 -1      1939 9.75482E-05-2.90332E-05-2.93588E-05-1.83174E-06 1.54224E-18 1.25825E-18
 -1      1940 9.78876E-05-2.89756E-05-2.95407E-05-2.77065E-06 1.78305E-18-6.69381E-19
 -1      1941 9.71974E-05-2.89443E-05-2.92392E-05-1.58513E-06 1.60477E-18 1.93064E-18
 -1      1942 9.67750E-05-2.88296E-05-2.91146E-05-1.40461E-06 1.93554E-18 1.30447E-18
 -1      1943 9.71071E-05-2.87878E-05-2.92859E-05-2.18270E-06 2.09474E-18 2.33437E-18
 -1      1944 9.64976E-05-2.87583E-05-2.90210E-05-1.18738E-06 6.41730E-19 1.23574E-18
 -1      1945 9.61806E-05-2.86706E-05-2.89280E-05-1.02573E-06-3.91066E-19 1.54018E-18
 -1      1946 9.64858E-05-2.86412E-05-2.90816E-05-1.66412E-06 1.10164E-18 1.25674E-18
 -1      1947 9.59645E-05-2.86125E-05-2.88574E-05-8.30260E-07-6.76845E-19 8.45283E-19
 -1      1948 9.57413E-05-2.85490E-05-2.87921E-05-6.80186E-07-2.21538E-19 1.24827E-18
 -1      1949 9.59992E-05-2.85212E-05-2.89234E-05-1.20401E-06-8.84355E-19 1.99215E-18
 -1      1950 9.55937E-05-2.85122E-05-2.87433E-05-5.10339E-07 1.26351E-18 8.86241E-19
 -1      1951 9.54501E-05-2.84752E-05-2.86988E-05-3.74406E-07 1.33387E-18 1.62497E-18
 -1      1952 9.54041E-05-2.84018E-05-2.87186E-05-4.48078E-07 4.67836E-19 1.57923E-18
 -1      1953 9.56438E-05-2.84377E-05-2.88077E-05-7.98154E-07 3.90764E-19 1.98716E-18
 -1      1954 9.31202E-05-2.73317E-05-2.81669E-05 1.59335E-06 1.06985E-18 2.99025E-18
 -1      1955 9.43100E-05-2.74365E-05-2.86017E-05 2.66710E-06 1.15316E-18 3.47220E-18
 -1      1956 9.51509E-05-2.70200E-05-2.92045E-05 4.04161E-06 1.44371E-18 2.46332E-18
 -1      1957 9.20867E-05-2.73211E-05-2.77318E-05 3.23503E-07 9.81364E-19 2.43715E-18
 -1      1958 9.25721E-05-2.73518E-05-2.79010E-05 8.77112E-07 9.56131E-19 2.74306E-18
 -1      1959 9.35617E-05-2.73423E-05-2.83869E-05 1.56037E-06 1.14847E-18 1.87073E-18
 -1      1960 9.17428E-05-2.73646E-05-2.75744E-05-3.51172E-07 6.34269E-19 2.02759E-18
 -1      1961 9.18421E-05-2.73345E-05-2.76161E-05-4.94865E-08 7.67577E-19 2.24556E-18
 -1      1962 9.27557E-05-2.74605E-05-2.79940E-05 2.25977E-07 9.98096E-19 1.46413E-18
 -1      1963 9.18172E-05-2.74654E-05-2.75684E-05-7.09480E-07 1.93317E-19 1.50111E-18
 -1      1964 9.17032E-05-2.73975E-05-2.75435E-05-5.42326E-07 3.68145E-19 1.80929E-18
 -1      1965 9.24817E-05-2.75592E-05-2.78345E-05-5.01131E-07 5.46584E-19 1.12587E-18
 -1      1966 9.21404E-05-2.76045E-05-2.76501E-05-8.94972E-07 3.03447E-19 1.22131E-18
 -1      1967 9.19082E-05-2.75157E-05-2.75881E-05-8.02406E-07 2.17410E-19 1.23255E-18
 -1      1968 9.25465E-05-2.76745E-05-2.78112E-05-8.96026E-07 4.09359E-19 5.44721E-19
 -1      1969 9.26118E-05-2.77657E-05-2.77844E-05-9.89744E-07 2.39219E-19 1.16036E-18
 -1      1970 9.23134E-05-2.76664E-05-2.77011E-05-9.36957E-07 4.15458E-19 1.33355E-18
 -1      1971 9.28230E-05-2.78065E-05-2.78712E-05-1.10833E-06 3.70843E-19 4.24335E-19
 -1      1972 9.31761E-05-2.79397E-05-2.79524E-05-1.04602E-06 3.60962E-19 7.38435E-19
 -1      1973 9.28383E-05-2.78349E-05-2.78557E-05-1.01044E-06 3.09541E-19 1.03029E-18
 -1      1974 9.32333E-05-2.79494E-05-2.79843E-05-1.22759E-06 5.27927E-19 5.95416E-19
 -1      1975 9.38093E-05-2.81234E-05-2.81453E-05-1.09978E-06 2.29628E-19 8.29361E-19
 -1      1976 9.34422E-05-2.80143E-05-2.80384E-05-1.06546E-06 1.53328E-19 6.06918E-19
 -1      1977 9.37348E-05-2.80997E-05-2.81338E-05-1.31241E-06 3.77086E-19 4.95995E-19
 -1      1978 9.45093E-05-2.83189E-05-2.83614E-05-1.17731E-06 4.49615E-19 1.19390E-18
 -1      1979 9.41112E-05-2.82036E-05-2.82441E-05-1.13226E-06 4.50472E-19 9.88197E-19
 -1      1980 9.43096E-05-2.82575E-05-2.83121E-05-1.40383E-06 2.69001E-19 7.38383E-19
 -1      1981 9.52901E-05-2.85322E-05-2.86041E-05-1.29845E-06 3.57547E-19 8.14567E-19
 -1      1982 9.48510E-05-2.84067E-05-2.84737E-05-1.23330E-06 5.04260E-19 1.19008E-18
 -1      1983 9.49582E-05-2.84264E-05-2.85177E-05-1.53204E-06 4.13759E-19 5.34350E-19
 -1      1984 9.61775E-05-2.87729E-05-2.88805E-05-1.47795E-06 5.08550E-19 4.44165E-19
 -1      1985 9.56812E-05-2.86314E-05-2.87325E-05-1.38540E-06 3.79974E-19 6.39866E-19
 -1      1986 9.56944E-05-2.86133E-05-2.87534E-05-1.71948E-06 5.90871E-19 4.88850E-19
 -1      1987 9.72052E-05-2.90531E-05-2.92000E-05-1.72528E-06 2.01410E-19 3.97988E-19
 -1      1988 9.66314E-05-2.88883E-05-2.90287E-05-1.60026E-06 3.75732E-19 3.98960E-19
 -1      1989 9.65414E-05-2.88281E-05-2.90249E-05-1.98185E-06 4.93815E-19 4.30847E-19
 -1      1990 9.84102E-05-2.93872E-05-2.95724E-05-2.04279E-06-5.17760E-19 4.29619E-19
 -1      1991 9.77371E-05-2.91909E-05-2.93720E-05-1.88338E-06-3.71151E-19 2.13906E-19
 -1      1992 9.75283E-05-2.90832E-05-2.93394E-05-2.32712E-06-1.94103E-19 2.58644E-19
 -1      1993 9.98279E-05-2.97913E-05-3.00065E-05-2.42163E-06 4.94604E-20 4.19763E-19
 -1      1994 9.90355E-05-2.95549E-05-2.97719E-05-2.23108E-06-6.95378E-20 4.54711E-19
 -1      1995 9.86865E-05-2.93944E-05-2.97034E-05-2.75219E-06-1.03051E-19 2.29862E-19
 -1      1996 1.01483E-04-3.02818E-05-3.05065E-05-2.83478E-06 3.07395E-19 7.11688E-19
 -1      1997 1.00559E-04-2.99975E-05-3.02350E-05-2.62502E-06 1.76816E-19 6.67850E-19
 -1      1998 1.00045E-04-2.97805E-05-3.01210E-05-3.23669E-06 3.75372E-19 6.94457E-19
 -1      1999 1.03378E-04-3.08737E-05-3.10677E-05-3.22645E-06 3.44996E-19 8.94778E-19
 -1      2000 1.02324E-04-3.05363E-05-3.07620E-05-3.02351E-06 5.72240E-19 7.74220E-19
 -1      2001 1.01621E-04-3.02636E-05-3.05906E-05-3.73299E-06 4.90141E-19 9.85485E-19
 -1      2002 1.05477E-04-3.15763E-05-3.16712E-05-3.49833E-06-6.40865E-19 4.74362E-19
 -1      2003 1.04322E-04-3.11864E-05-3.13422E-05-3.34950E-06-2.94188E-19 3.13109E-19
 -1      2004 1.03416E-04-3.08684E-05-3.11010E-05-4.15240E-06 1.63035E-19 6.08225E-19
 -1      2005 1.07678E-04-3.23852E-05-3.22766E-05-3.49592E-06-6.15806E-19 2.38781E-19
 -1      2006 1.06495E-04-3.19552E-05-3.19481E-05-3.47720E-06-6.48443E-19 3.65624E-19
 -1      2007 1.05395E-04-3.16180E-05-3.16275E-05-4.34935E-06-6.02505E-19 3.70853E-19
 -1      2008 1.09794E-04-3.32661E-05-3.28170E-05-3.00548E-06-1.35348E-19 5.76307E-19
 -1      2009 1.08710E-04-3.28292E-05-3.25291E-05-3.22392E-06-1.78980E-19 6.98918E-19
 -1      2010 1.07471E-04-3.25223E-05-3.21278E-05-4.11086E-06-4.04496E-19 5.44028E-19
 -1      2011 1.11523E-04-3.41270E-05-3.31999E-05-1.78432E-06 9.16377E-19 2.01711E-19
 -1      2012 1.10734E-04-3.37506E-05-3.30090E-05-2.36349E-06 2.54566E-19 4.37631E-19
 -1      2013 1.09482E-04-3.35499E-05-3.25432E-05-3.16852E-06 4.02612E-19 5.24217E-19
 -1      2014 1.12448E-04-3.47791E-05-3.33220E-05 3.39069E-07 7.98726E-20 8.24790E-20
 -1      2015 1.12205E-04-3.45776E-05-3.32922E-05-6.90498E-07 5.66619E-19-1.28412E-20
 -1      2016 1.11151E-04-3.45768E-05-3.28075E-05-1.26590E-06 6.05059E-19 7.18224E-20
 -1      2017 1.12092E-04-3.49106E-05-3.31054E-05 3.26364E-06-1.47439E-18 2.86721E-19
 -1      2018 1.12645E-04-3.50421E-05-3.32862E-05 1.83071E-06-7.41716E-19 7.57433E-20
 -1      2019 1.12073E-04-3.53214E-05-3.28674E-05 1.67795E-06-7.58670E-19 5.38900E-19
 -1      2020 1.10084E-04-3.41474E-05-3.25499E-05 6.35830E-06-1.20648E-18 1.32471E-18
 -1      2021 1.11565E-04-3.47606E-05-3.29425E-05 4.83494E-06-1.61687E-18 5.06374E-19
 -1      2022 1.11761E-04-3.53278E-05-3.27133E-05 5.29984E-06-1.69402E-18 1.02110E-18
 -1      2023 1.06478E-04-3.22914E-05-3.17776E-05 8.35877E-06-2.55615E-19 1.70753E-18
 -1      2024 1.08730E-04-3.33952E-05-3.23053E-05 7.36906E-06-5.24916E-19 1.66971E-18
 -1      2025 1.09848E-04-3.41219E-05-3.24038E-05 8.54284E-06-7.59974E-19 7.47950E-19
 -1      2026 1.02130E-04-2.97236E-05-3.10151E-05 7.80326E-06 5.42915E-19 3.46320E-18
 -1      2027 1.04588E-04-3.10284E-05-3.15299E-05 8.04621E-06-4.75298E-20 2.52310E-18
 -1      2028 1.06521E-04-3.16665E-05-3.20564E-05 9.75056E-06-3.02750E-19 1.89387E-18
 -1      2029 9.87335E-05-2.75676E-05-3.05088E-05 4.12011E-06 1.44525E-19 2.62158E-18
 -1      2030 1.00509E-04-2.85019E-05-3.08409E-05 5.83038E-06 6.92648E-19 3.45570E-18
 -1      2031 1.02902E-04-2.87897E-05-3.17857E-05 7.51713E-06 5.10615E-19 2.57788E-18
 -1      2032 9.80081E-05-2.70913E-05-3.04320E-05-1.44731E-06 2.74373E-19 1.18270E-18
 -1      2033 9.83101E-05-2.71375E-05-3.04615E-05 1.09601E-06-5.14175E-20 2.10027E-18
 -1      2034 1.00767E-04-2.70149E-05-3.16639E-05 2.03624E-06 5.92433E-19 1.68021E-18
 -1      2035 1.00404E-04-2.86177E-05-3.08042E-05-6.33759E-06 6.97631E-19 1.61598E-18
 -1      2036 9.90750E-05-2.77479E-05-3.05224E-05-4.14256E-06 2.06954E-19 1.02304E-18
 -1      2037 1.01359E-04-2.74687E-05-3.17141E-05-4.40314E-06 3.30449E-19 8.33537E-19
 -1      2038 1.04697E-04-3.12146E-05-3.14991E-05-8.47554E-06 3.77881E-19 8.20841E-19
 -1      2039 1.02331E-04-2.99134E-05-3.10069E-05-7.51479E-06 6.82490E-19 1.11830E-18
 -1      2040 1.04316E-04-2.98515E-05-3.19178E-05-8.81436E-06 6.15859E-19 7.36211E-19
 -1      2041 1.08945E-04-3.35340E-05-3.22931E-05-7.57973E-06 1.58559E-18 6.55392E-20
 -1      2042 1.06485E-04-3.23917E-05-3.17558E-05-7.92690E-06 6.18807E-19 8.24970E-19
 -1      2043 1.08009E-04-3.27430E-05-3.22344E-05-9.63936E-06 5.78301E-19-6.47054E-19
 -1      2044 1.11774E-04-3.48098E-05-3.29462E-05-4.83233E-06 9.95350E-19-4.67192E-20
 -1      2045 1.09961E-04-3.41451E-05-3.25209E-05-5.96435E-06 1.61327E-18-3.41990E-20
 -1      2046 1.10827E-04-3.47754E-05-3.25737E-05-7.44414E-06 1.75689E-18-5.30587E-19
 -1      2047 1.12789E-04-3.50218E-05-3.32969E-05-1.69983E-06 4.59899E-19-1.19057E-19
 -1      2048 1.11924E-04-3.48467E-05-3.30740E-05-3.00045E-06 7.33795E-19 3.00313E-19
 -1      2049 1.12058E-04-3.54739E-05-3.28171E-05-3.88276E-06 6.96387E-19 7.48565E-20
 -1      2050 1.12272E-04-3.45248E-05-3.33023E-05 8.57516E-07 3.30442E-19-9.59530E-20
 -1      2051 1.12290E-04-3.46969E-05-3.32932E-05-2.13538E-07 2.92577E-19 1.39355E-19
 -1      2052 1.11804E-04-3.51117E-05-3.28741E-05-4.38499E-07 6.74318E-19 2.61952E-20
 -1      2053 1.10740E-04-3.36936E-05-3.30150E-05 2.50653E-06 2.06633E-19-4.68217E-20
 -1      2054 1.11398E-04-3.40539E-05-3.31770E-05 1.80524E-06 1.96935E-20-2.67126E-19
 -1      2055 1.10521E-04-3.41981E-05-3.27190E-05 2.11238E-06 4.86998E-19 7.23710E-19
 -1      2056 1.08682E-04-3.27818E-05-3.25317E-05 3.31658E-06-5.50654E-20-1.13573E-18
 -1      2057 1.09709E-04-3.32122E-05-3.28020E-05 2.96036E-06 4.45304E-19-1.75462E-19
 -1      2058 1.08679E-04-3.31352E-05-3.23834E-05 3.61336E-06 6.75443E-19 1.34793E-18
 -1      2059 1.06460E-04-3.19223E-05-3.19512E-05 3.51407E-06 9.72445E-19-4.02572E-19
 -1      2060 1.07634E-04-3.23517E-05-3.22710E-05 3.41254E-06 5.54856E-20-9.29844E-19
 -1      2061 1.06630E-04-3.21401E-05-3.19290E-05 4.23888E-06 9.67305E-20 4.35021E-19
 -1      2062 1.04307E-04-3.11698E-05-3.13515E-05 3.33359E-06-1.44473E-18 6.76764E-19
 -1      2063 1.05476E-04-3.15614E-05-3.16771E-05 3.39150E-06 1.82335E-19-2.16622E-20
 -1      2064 1.04602E-04-3.12942E-05-3.14203E-05 4.26171E-06-2.47444E-19 5.85450E-19
 -1      2065 1.02354E-04-3.05373E-05-3.07843E-05 2.95829E-06-1.87855E-18 1.99681E-18
 -1      2066 1.03427E-04-3.08760E-05-3.10881E-05 3.10042E-06-1.57422E-18 1.35748E-18
 -1      2067 1.02727E-04-3.06079E-05-3.09098E-05 3.93105E-06-2.17192E-18 1.93607E-18
 -1      2068 1.00658E-04-3.00191E-05-3.02783E-05 2.51034E-06-7.79217E-19 1.14844E-18
 -1      2069 1.01594E-04-3.03020E-05-3.05460E-05 2.68594E-06-1.79867E-18 1.40007E-18
 -1      2070 1.01070E-04-3.00634E-05-3.04326E-05 3.43109E-06-1.50696E-18 1.77720E-18
 -1      2071 9.92345E-05-2.96021E-05-2.98455E-05 2.06135E-06 7.14146E-20 2.04000E-18
 -1      2072 1.00021E-04-2.98324E-05-3.00720E-05 2.24032E-06-1.50572E-19 1.43139E-18
 -1      2073 9.96546E-05-2.96362E-05-3.00090E-05 2.88055E-06-9.16053E-19 1.45740E-18
 -1      2074 9.80711E-05-2.92708E-05-2.94875E-05 1.64675E-06 1.69673E-18 2.10889E-18
 -1      2075 9.87119E-05-2.94547E-05-2.96730E-05 1.81401E-06 1.19588E-18 2.39150E-18
 -1      2076 9.84768E-05-2.93026E-05-2.96474E-05 2.34644E-06 1.21247E-18 1.52789E-18
 -1      2077 9.71445E-05-2.90109E-05-2.92007E-05 1.27780E-06 7.06750E-19 9.99947E-19
 -1      2078 9.76521E-05-2.91550E-05-2.93479E-05 1.42854E-06 1.46620E-18 1.96428E-18
 -1      2079 9.75197E-05-2.90423E-05-2.93489E-05 1.85936E-06 1.69580E-18 1.80075E-18
 -1      2080 9.64282E-05-2.88094E-05-2.89791E-05 9.50306E-07 1.05743E-18 9.01985E-19
 -1      2081 9.68166E-05-2.89198E-05-2.90915E-05 1.08659E-06 1.87342E-19 4.39191E-19
 -1      2082 9.67597E-05-2.88386E-05-2.91106E-05 1.42582E-06 4.58639E-19 1.02599E-18
 -1      2083 9.58977E-05-2.86571E-05-2.88167E-05 6.52483E-07 1.22827E-18 7.43329E-19
 -1      2084 9.61797E-05-2.87384E-05-2.88974E-05 7.79902E-07 1.56257E-18 1.15386E-18
 -1      2085 9.61728E-05-2.86795E-05-2.89276E-05 1.03798E-06 1.27943E-18 6.74164E-19
 -1      2086 9.55336E-05-2.85496E-05-2.87054E-05 3.74136E-07 4.65434E-19 1.08378E-18
 -1      2087 9.57173E-05-2.86037E-05-2.87586E-05 4.96804E-07 8.91380E-19 1.30689E-18
 -1      2088 9.57356E-05-2.85561E-05-2.87932E-05 6.83385E-07 8.89184E-19 1.37883E-18
 -1      2089 9.53446E-05-2.85002E-05-2.86442E-05 1.81516E-07 7.73792E-19 8.01569E-19
 -1      2090 9.54490E-05-2.85206E-05-2.86806E-05 2.91731E-07 7.06922E-19 1.26838E-18
 -1      2091 9.54698E-05-2.84760E-05-2.87133E-05 4.20528E-07 6.62446E-19 2.46328E-18
 -1      2092 9.53292E-05-2.84456E-05-2.86642E-05 2.41411E-07 6.99647E-19 3.40363E-18
 -1      2093 9.49261E-05-2.74666E-05-2.89132E-05 7.97608E-07-9.19334E-19-1.96753E-18
 -1      2094 9.50240E-05-2.76774E-05-2.88598E-05 7.67101E-07-1.15876E-18-6.33937E-19
 -1      2095 9.51198E-05-2.78767E-05-2.88188E-05 6.98961E-07-1.04925E-18 6.77784E-19
 -1      2096 9.52045E-05-2.80616E-05-2.87719E-05 6.10607E-07-1.08578E-18 3.15732E-18
 -1      2097 9.51013E-05-2.77527E-05-2.88641E-05 9.49063E-07-1.84297E-18 8.79829E-19
 -1      2098 9.52539E-05-2.81999E-05-2.87366E-05 4.92915E-07-7.72844E-19 2.70267E-18
 -1      2099 9.53074E-05-2.83379E-05-2.86982E-05 3.74816E-07-8.77284E-20 2.95404E-18
 -1      2100 9.53702E-05-2.83463E-05-2.87226E-05 4.68324E-07 4.22303E-20 1.71018E-18
 -1      2101 9.52694E-05-2.80932E-05-2.87915E-05 7.36743E-07-7.14975E-19 2.42636E-18
 -1      2102 9.47391E-05-2.70674E-05-2.90058E-05 7.69365E-07-2.99674E-18-3.74209E-18
 -1      2103 9.48326E-05-2.72718E-05-2.89536E-05 7.95164E-07-1.63831E-18-3.21798E-18
 -1      2104 9.48746E-05-2.73473E-05-2.89391E-05 1.01839E-06-2.67282E-18-3.87523E-18
 -1      2105 9.45769E-05-2.67176E-05-2.90875E-05 6.22583E-07-1.79375E-18 7.41684E-19
 -1      2106 9.46557E-05-2.68922E-05-2.90427E-05 6.98703E-07-2.71096E-18-8.40389E-19
 -1      2107 9.46611E-05-2.69649E-05-2.90098E-05 9.33921E-07-2.22239E-18-2.05760E-18
 -1      2108 9.44636E-05-2.64714E-05-2.91452E-05 3.82761E-07-9.20407E-19-1.27912E-18
 -1      2109 9.45154E-05-2.65872E-05-2.91154E-05 4.95722E-07-1.18756E-18 2.27040E-20
 -1      2110 9.44860E-05-2.66490E-05-2.90686E-05 7.09730E-07-1.74443E-18 9.77359E-19
 -1      2111 9.44129E-05-2.63615E-05-2.91706E-05 8.70286E-08-8.33657E-19-3.90959E-19
 -1      2112 9.44310E-05-2.64019E-05-2.91602E-05 2.19463E-07-6.61745E-19-1.34831E-18
 -1      2113 9.43720E-05-2.64421E-05-2.91075E-05 3.81856E-07-7.17883E-19-1.21209E-18
 -1      2114 9.44310E-05-2.64023E-05-2.91601E-05-2.21403E-07-2.24981E-19-1.33727E-18
 -1      2115 9.44129E-05-2.63614E-05-2.91706E-05-8.89272E-08-2.26101E-19-1.16610E-18
 -1      2116 9.43325E-05-2.63700E-05-2.91210E-05-1.06586E-09-8.79585E-19-6.45248E-19
 -1      2117 9.45155E-05-2.65882E-05-2.91151E-05-4.97855E-07-1.44423E-18-2.38797E-18
 -1      2118 9.44637E-05-2.64718E-05-2.91450E-05-3.84883E-07-7.00039E-19-8.98234E-19
 -1      2119 9.43717E-05-2.64419E-05-2.91074E-05-3.84173E-07-1.46377E-19-1.84590E-18
 -1      2120 9.46535E-05-2.68880E-05-2.90436E-05-6.98311E-07-1.41540E-18-1.83763E-18
 -1      2121 9.45760E-05-2.67162E-05-2.90877E-05-6.23118E-07-2.40832E-18-9.42744E-19
 -1      2122 9.44848E-05-2.66467E-05-2.90690E-05-7.10339E-07-3.09877E-19-2.16660E-18
 -1      2123 9.48324E-05-2.72713E-05-2.89537E-05-7.96530E-07-3.35140E-19 3.34946E-18
 -1      2124 9.47370E-05-2.70630E-05-2.90068E-05-7.70168E-07-4.89592E-19 3.70290E-19
 -1      2125 9.46582E-05-2.69596E-05-2.90108E-05-9.34125E-07 1.77442E-19-2.53851E-19
 -1      2126 9.50264E-05-2.76816E-05-2.88590E-05-7.67683E-07-3.31674E-19 1.23686E-18
 -1      2127 9.49278E-05-2.74699E-05-2.89125E-05-7.98952E-07-2.81669E-19 2.27717E-18
 -1      2128 9.48741E-05-2.73459E-05-2.89396E-05-1.02012E-06 5.12049E-19 2.53664E-18
 -1      2129 9.52085E-05-2.80739E-05-2.87709E-05-6.10553E-07-1.27268E-18-1.61475E-18
 -1      2130 9.51216E-05-2.78812E-05-2.88178E-05-6.98028E-07-8.24338E-19 3.23343E-20
 -1      2131 9.51028E-05-2.77546E-05-2.88637E-05-9.47952E-07-5.56703E-19 7.39458E-21
 -1      2132 5.64467E-05-3.86443E-05-8.09315E-06 4.01022E-05-1.90582E-19-9.08628E-19
 -1      2133 4.08756E-05-4.03446E-05-1.64691E-06 3.14549E-05 2.58345E-20-2.03119E-18
 -1      2134 1.17365E-05-3.31418E-05 7.83060E-06 5.04296E-06 2.42707E-18 1.29088E-18
 -1      2135 1.19683E-05-3.42998E-05 8.07822E-06-4.27633E-06 1.48358E-18 2.77996E-18
 -1      2136 2.72772E-05-3.52435E-05 2.40232E-06 2.62937E-05 5.07373E-19-3.37416E-18
 -1      2137 1.88557E-05-3.55104E-05 5.72192E-06 1.76493E-05 1.25107E-18-1.33747E-18
 -1      2138 4.19201E-05-3.49179E-05-3.41392E-06 3.59017E-05-6.13675E-19-2.99257E-18
 -1      2139 9.77033E-05-4.32862E-05-2.32025E-05 4.19286E-05-7.42424E-19-3.09527E-18
 -1      2140 7.96206E-05-4.55109E-05-1.54570E-05 3.83309E-05-2.86297E-19-2.08116E-18
 -1      2141 1.30049E-04-4.16354E-05-3.74089E-05 3.68791E-05-8.55927E-19-2.76472E-18
 -1      2142 1.09928E-04-4.33155E-05-2.92495E-05 3.56872E-05-9.94417E-19-2.48519E-18
 -1      2143 1.16381E-04-5.43815E-05-2.64369E-05 3.34458E-05-1.97655E-18-4.34528E-18
 -1      2144 8.72897E-05-8.72739E-06-3.37603E-05-1.05138E-05-9.88342E-19-2.82122E-18
 -1      2145 8.79902E-05-9.26256E-06-3.38264E-05-1.20940E-05-1.23707E-18-2.56442E-18
 -1      2146 9.04767E-05-1.30246E-05-3.32219E-05-1.18005E-05-1.45211E-18-2.23508E-18
 -1      2147 8.87017E-05-1.10503E-05-3.33118E-05-9.37310E-06-9.70673E-19-2.69231E-18
 -1      2148 1.72757E-04-2.79428E-05-6.12125E-05 8.35893E-06 1.18352E-18-1.91853E-18
 -1      2149 1.66529E-04-3.07568E-05-5.72633E-05 1.74667E-05 8.42163E-19-1.93505E-18
 -1      2150 1.82319E-04-2.38683E-05-6.63965E-05 2.95816E-09 2.14808E-18-2.25607E-18
 -1      2151 1.75403E-04-2.24788E-05-6.45325E-05 5.83026E-06 1.67713E-18-1.66590E-18
 -1      2152 1.72065E-04-2.42253E-05-6.27096E-05-7.36808E-06 3.41227E-18-2.51971E-18
 -1      2153 1.77492E-04-2.36374E-05-6.49238E-05-1.84146E-06 2.58006E-18-1.99370E-18
 -1      2154 1.60033E-04-3.23776E-05-5.44368E-05-1.73493E-05 2.72067E-18-3.54737E-18
 -1      2155 1.72273E-04-3.06995E-05-5.96951E-05-1.21371E-05 3.31804E-18-2.85323E-18
 -1      2156 1.37472E-04-4.05314E-05-4.16599E-05-2.59014E-05 2.40261E-18-3.41524E-18
 -1      2157 1.55797E-04-3.83269E-05-4.94080E-05-2.51511E-05 2.28635E-18-3.92684E-18
 -1      2158 1.54127E-04-3.69296E-05-4.94536E-05-5.55079E-06 1.50200E-18-7.35225E-19
 -1      2159 1.01613E-04-4.57621E-05-2.46531E-05-3.64024E-05 8.49998E-19-3.65114E-18
 -1      2160 1.22843E-04-4.54915E-05-3.29890E-05-3.67049E-05 1.75632E-18-3.65749E-18
 -1      2161 6.37304E-05-4.30832E-05-1.01411E-05-3.68938E-05 1.22820E-20-4.11425E-18
 -1      2162 8.20875E-05-4.17664E-05-1.75189E-05-4.26616E-05 5.67936E-19-4.30123E-18
 -1      2163 3.37231E-05-3.93383E-05 9.30479E-07-2.82599E-05-1.12232E-18-3.72843E-18
 -1      2164 4.60219E-05-3.73604E-05-4.41015E-06-3.59818E-05 1.71948E-19-4.12410E-18
 -1      2165 1.52362E-05-3.38820E-05 6.65707E-06-1.24131E-05-1.21253E-18-2.47715E-18
 -1      2166 2.15415E-05-3.40337E-05 4.25431E-06-2.14082E-05-8.69903E-19-3.69328E-18
 -1      2167 1.36324E-05-3.45334E-05 7.50746E-06 9.61442E-06-2.01763E-18-3.76760E-18
 -1      2168 1.12951E-05-3.33731E-05 8.05023E-06 2.71936E-07-1.27073E-18-3.27209E-18
 -1      2169 2.98524E-05-3.50362E-05 1.24472E-06 2.84804E-05-2.41701E-18-2.31388E-18
 -1      2170 2.10384E-05-3.74954E-05 5.40802E-06 1.90477E-05-1.74341E-18-3.18527E-18
 -1      2171 6.39098E-05-3.99345E-05-1.07017E-05 4.06139E-05-2.95869E-18-3.70365E-18
 -1      2172 4.85622E-05-4.14492E-05-4.29055E-06 3.42302E-05-2.23024E-18-2.89961E-18
 -1      2173 1.01223E-04-4.37935E-05-2.46124E-05 4.16976E-05-3.70026E-18-2.22516E-18
 -1      2174 8.04091E-05-4.44002E-05-1.64944E-05 3.79732E-05-3.32842E-18-2.75900E-18
 -1      2175 8.51263E-05-4.94956E-05-1.53628E-05 4.15839E-05-1.21930E-18-2.04741E-18
 -1      2176 1.38564E-04-4.03219E-05-4.13193E-05 3.50789E-05-3.43260E-18-2.68509E-18
 -1      2177 1.19317E-04-4.27077E-05-3.32250E-05 3.33425E-05-4.09879E-18-2.15104E-18
 -1      2178 1.63500E-04-3.56974E-05-5.38573E-05 2.13606E-05-3.38453E-18-2.87991E-20
 -1      2179 1.48194E-04-3.67379E-05-4.74568E-05 2.71055E-05-3.49274E-18-2.05448E-18
 -1      2180 1.80891E-04-2.89387E-05-6.36004E-05 9.78124E-06-4.49774E-18 2.34607E-18
 -1      2181 1.68154E-04-2.84815E-05-5.91938E-05 1.34735E-05-3.35679E-18 1.56701E-18
 -1      2182 1.80049E-04-2.31045E-05-6.62125E-05-9.09996E-07-3.82774E-18 1.91517E-18
 -1      2183 1.82170E-04-2.56985E-05-6.56817E-05 6.41879E-06-5.06907E-18 1.79296E-18
 -1      2184 1.61858E-04-1.79863E-05-6.04586E-05-6.37922E-07-4.33469E-18 2.91104E-18
 -1      2185 1.75475E-04-2.65278E-05-6.28803E-05-9.71030E-06-2.37275E-18 1.97528E-18
 -1      2186 1.77704E-04-2.38667E-05-6.49361E-05-2.59498E-06-2.56820E-18 1.78830E-18
 -1      2187 1.59589E-04-3.19967E-05-5.43739E-05-1.61528E-05-4.12293E-19 1.68475E-18
 -1      2188 1.74093E-04-3.14281E-05-5.98958E-05-1.36344E-05-1.30443E-18 1.80079E-18
 -1      2189 1.58079E-04-2.23427E-05-5.72071E-05 1.52598E-06-1.72583E-18 1.64028E-18
 -1      2190 1.35662E-04-3.98919E-05-4.11348E-05-3.02335E-05-6.69156E-19 2.44242E-18
 -1      2191 1.53028E-04-3.92065E-05-4.81140E-05-2.60180E-05-7.56189E-19 1.88507E-18
 -1      2192 1.06003E-04-4.46337E-05-2.69446E-05-3.58387E-05-1.98206E-19 2.02271E-18
 -1      2193 1.24687E-04-4.19718E-05-3.49327E-05-3.81475E-05-4.36222E-19 2.83714E-18
 -1      2194 1.37749E-04-5.03162E-05-3.69857E-05-2.26737E-05-6.20875E-19 2.28826E-18
 -1      2195 6.84466E-05-4.38053E-05-1.17223E-05-3.75978E-05 8.37716E-19 2.19720E-18
 -1      2196 8.72292E-05-4.27441E-05-1.91957E-05-4.25871E-05-4.37916E-19 1.49544E-18
 -1      2197 3.61868E-05-3.99029E-05 4.67100E-08-2.92109E-05 1.33958E-18 1.75505E-18
 -1      2198 4.95003E-05-3.78972E-05-5.61249E-06-3.72476E-05 1.06387E-18 1.79624E-18
 -1      2199 1.72109E-05-3.54420E-05 6.34981E-06-1.49229E-05 1.53991E-18 2.23574E-18
 -1      2200 2.38664E-05-3.43728E-05 3.46508E-06-2.34353E-05 1.24090E-18 2.06295E-18
 -1      2201 1.60842E-04-3.69601E-05-5.21237E-05 2.40154E-05-6.19459E-20-2.37593E-18
 -1      2202 1.43198E-04-3.77238E-05-4.51795E-05 2.65731E-05-1.29596E-19-2.27810E-18
 -1      2203 1.41923E-04-4.86012E-05-3.94645E-05 1.91813E-05-1.06853E-18-3.11878E-18
 -1      2204 9.71028E-05-2.42880E-05-3.12788E-05-9.99704E-06-1.75881E-18 3.93791E-19
 -1      2205 1.56591E-04-2.16610E-05-5.69703E-05 1.71142E-06 3.00993E-18-3.63377E-19
 -1      2206 1.55944E-04-3.41272E-05-5.13517E-05 4.92392E-06 3.85188E-19-7.91129E-19
 -1      2207 9.62868E-05-2.30885E-05-3.14374E-05-1.03717E-05-1.89252E-18-4.93794E-19
 -1      2208 1.83228E-05-2.63265E-05 2.77462E-06 1.48615E-05 6.86308E-19-9.51642E-19
 -1      2209 8.01015E-05-4.79377E-05-1.38896E-05 4.19598E-05-1.97697E-18-3.17811E-18
 -1      2210 9.52732E-05-2.81795E-05-2.87524E-05-5.76516E-07-1.32530E-18-8.88699E-19
 -1      2211 1.69499E-05-2.52905E-05 2.92879E-06-1.27844E-05 1.23730E-18 2.54279E-18
 -1      2212 3.64170E-05-3.33547E-05-1.84886E-06-3.26188E-05 6.16640E-19 2.10339E-18
 -1      2213 1.08625E-04-5.29009E-05-2.38345E-05-3.65058E-05-3.10014E-19 1.91726E-18
 -1      2214 1.54132E-04-3.84111E-05-4.89019E-05-7.92621E-06-4.66186E-19 1.42217E-18
 -1      2215 1.61050E-04-1.50762E-05-6.15036E-05 8.35626E-07-3.15562E-18 1.20205E-18
 -1      2216 1.59117E-04-3.16025E-05-5.37661E-05 5.17165E-06-3.49676E-18 2.13706E-18
 -1      2217 1.20218E-04-5.28986E-05-2.87232E-05 3.22024E-05-2.18132E-18-3.40295E-19
 -1      2218 4.77513E-05-3.77472E-05-4.68902E-06 3.76605E-05-9.18184E-19-2.62432E-18
 -1      2219 2.00505E-05-2.74407E-05 2.46001E-06 1.86974E-05-4.33469E-19-3.27251E-18
 -1      2220 1.57271E-05-2.46992E-05 3.21357E-06-7.99870E-06-8.14634E-19-3.45971E-18
 -1      2221 3.37721E-05-3.20013E-05-1.28050E-06-3.11315E-05-1.65150E-18-3.92219E-18
 -1      2222 6.60707E-05-4.39147E-05-9.78662E-06-4.17388E-05-1.42979E-18-3.81308E-18
 -1      2223 1.37489E-04-5.12856E-05-3.66197E-05-2.15080E-05-5.46336E-20-1.34297E-18
 -1      2224 1.64834E-04-2.23101E-05-6.03815E-05 1.93348E-06 1.40163E-18-1.09077E-18
 -1      2225 1.50294E-04-2.08676E-05-5.53737E-05-3.92082E-06 9.63712E-19-9.02514E-19
 -1      2226 1.50419E-04-1.47931E-05-5.83883E-05-3.99548E-06 2.30054E-18-8.43962E-19
 -1      2227 1.57938E-04-1.34219E-05-6.10589E-05 1.30254E-06 2.23828E-18-1.21539E-18
 -1      2228 1.04402E-04-5.30522E-05-2.18756E-05-3.80105E-05-1.16467E-18-2.94312E-18
 -1      2229 1.46509E-04-4.53247E-05-4.27282E-05 1.71765E-05-2.71262E-18-2.02017E-19
 -1      2230 6.96085E-05-4.50495E-05-1.08027E-05-4.17804E-05 7.37342E-19 2.59827E-18
 -1      2231 9.51598E-05-2.63516E-05-2.94756E-05 4.17394E-06 1.47049E-18 1.45373E-18
 -1      2232 9.61285E-05-2.58380E-05-3.00509E-05 5.98443E-06 1.69167E-18 1.78199E-18
 -1      2233 8.81858E-05-1.11519E-05-3.30541E-05-3.64248E-06-3.32982E-20-2.72138E-18
 -1      2234 8.84166E-05-1.14245E-05-3.30337E-05-4.78006E-06-2.57453E-19-2.74693E-18
 -1      2235 8.87640E-05-1.19123E-05-3.29820E-05-5.79571E-06-4.59594E-19-2.68779E-18
 -1      2236 8.91629E-05-1.23858E-05-3.29501E-05-6.96496E-06-6.96726E-19-2.66747E-18
 -1      2237 8.99296E-05-1.37838E-05-3.26329E-05-4.87371E-06-3.23170E-19-2.53670E-18
 -1      2238 8.78433E-05-1.06872E-05-3.31011E-05 6.12721E-07 7.25204E-19-2.37445E-18
 -1      2239 8.78389E-05-1.06822E-05-3.31013E-05-4.93024E-07 5.25425E-19-2.49268E-18
 -1      2240 8.80227E-05-1.09151E-05-3.30805E-05 2.74389E-06 1.11934E-18-2.23605E-18
 -1      2241 8.79091E-05-1.07805E-05-3.30912E-05 1.62926E-06 9.02503E-19-2.32728E-18
 -1      2242 8.91531E-05-1.27187E-05-3.27603E-05 1.04214E-06 7.37672E-19-2.22011E-18
 -1      2243 8.84524E-05-1.14682E-05-3.30307E-05 4.86491E-06 1.55790E-18-1.98637E-18
 -1      2244 8.82160E-05-1.11890E-05-3.30514E-05 3.74519E-06 1.29617E-18-2.13632E-18
 -1      2245 8.94176E-05-1.30797E-05-3.27176E-05 3.00037E-06 1.14111E-18-1.98363E-18
 -1      2246 8.92220E-05-1.24582E-05-3.29445E-05 7.04782E-06 1.93021E-18-1.56094E-18
 -1      2247 8.88101E-05-1.19692E-05-3.29776E-05 5.87787E-06 1.71956E-18-1.77833E-18
 -1      2248 8.99707E-05-1.38364E-05-3.26277E-05 4.94522E-06 1.58791E-18-1.74590E-18
 -1      2249 9.04742E-05-1.40734E-05-3.28073E-05 9.19657E-06 2.23066E-18-1.05901E-18
 -1      2250 8.98041E-05-1.32610E-05-3.28580E-05 8.01755E-06 2.03204E-18-1.38770E-18
 -1      2251 9.08965E-05-1.51060E-05-3.24746E-05 6.83698E-06 1.90440E-18-1.33982E-18
 -1      2252 9.24437E-05-1.66474E-05-3.25845E-05 1.10852E-05 2.41241E-18-2.21062E-19
 -1      2253 9.13811E-05-1.53082E-05-3.26632E-05 1.00034E-05 2.27253E-18-7.28164E-19
 -1      2254 9.23018E-05-1.70679E-05-3.22224E-05 8.48448E-06 2.13552E-18-7.90666E-19
 -1      2255 9.41965E-05-2.70895E-05-2.87427E-05 1.72424E-06 1.25352E-18 9.51403E-19
 -1      2256 9.47872E-05-2.68668E-05-2.90372E-05 2.70702E-06 1.30232E-18 1.25807E-18
 -1      2257 9.53072E-05-2.58226E-05-2.97874E-05 4.32562E-06 1.60385E-18 6.84379E-19
 -1      2258 9.58688E-05-2.50757E-05-3.02957E-05-6.16897E-06-1.45832E-18-7.76643E-19
 -1      2259 9.52229E-05-2.58229E-05-2.97559E-05-4.24736E-06-1.27966E-18-7.61919E-19
 -1      2260 1.46030E-04-2.51652E-05-5.21614E-05 6.68877E-06 1.83721E-18 7.06849E-19
 -1      2261 1.43516E-04-1.74529E-05-5.46251E-05 7.04981E-06 2.29292E-18-3.20602E-19
 -1      2262 9.51051E-05-2.65075E-05-2.93439E-05-2.89168E-06-1.08237E-18-7.39882E-19
 -1      2263 9.46531E-05-2.68772E-05-2.90456E-05-1.81684E-06-8.20558E-19-8.47361E-19
 -1      2264 9.53203E-05-2.53300E-05-3.00009E-05-4.23545E-06-1.16802E-18-1.13755E-18
 -1      2265 9.44655E-05-2.72028E-05-2.87889E-05-9.47843E-07-7.96848E-19-8.39327E-19
 -1      2266 9.42249E-05-2.74131E-05-2.86300E-05-3.24391E-07-7.34441E-19-9.61321E-19
 -1      2267 9.50370E-05-2.66628E-05-2.93174E-05-1.83562E-06-9.34339E-19-1.37383E-18
 -1      2268 9.40910E-05-2.75890E-05-2.84782E-05 2.13978E-07-6.58070E-19-9.27543E-19
 -1      2269 9.40184E-05-2.77300E-05-2.84052E-05 5.75379E-07-6.30709E-19-9.51843E-19
 -1      2270 9.47524E-05-2.73725E-05-2.88908E-05-3.01297E-07-7.87301E-19-1.11125E-18
 -1      2271 9.39549E-05-2.78338E-05-2.83248E-05 9.01298E-07-6.03491E-19-1.04399E-18
 -1      2272 9.39986E-05-2.79387E-05-2.83070E-05 1.11036E-06-6.40591E-19-1.07720E-18
 -1      2273 9.45857E-05-2.77830E-05-2.86410E-05 6.48079E-07-7.58648E-19-1.24441E-18
 -1      2274 9.39967E-05-2.80038E-05-2.82759E-05 1.30803E-06-7.00916E-19-1.05262E-18
 -1      2275 9.41185E-05-2.80866E-05-2.82947E-05 1.43245E-06-4.81987E-19-1.11500E-18
 -1      2276 9.45416E-05-2.80298E-05-2.85137E-05 1.23001E-06-6.24132E-19-1.02769E-18
 -1      2277 9.41648E-05-2.81283E-05-2.82984E-05 1.55977E-06-4.52270E-19-1.11062E-18
 -1      2278 9.43406E-05-2.81962E-05-2.83425E-05 1.64427E-06-5.44899E-19-1.11285E-18
 -1      2279 9.45998E-05-2.81793E-05-2.84724E-05 1.59540E-06-5.77971E-19-1.15437E-18
 -1      2280 9.44243E-05-2.82223E-05-2.83715E-05 1.74241E-06-7.72786E-19-9.05852E-19
 -1      2281 9.46413E-05-2.82800E-05-2.84347E-05 1.81827E-06-7.69083E-19-9.05118E-19
 -1      2282 9.47377E-05-2.82656E-05-2.84931E-05 1.85024E-06-5.91588E-19-1.11616E-18
 -1      2283 9.47554E-05-2.82954E-05-2.84835E-05 1.91743E-06-4.90689E-19-6.63365E-19
 -1      2284 9.50094E-05-2.83472E-05-2.85626E-05 2.00753E-06-1.28350E-19-6.18291E-19
 -1      2285 9.49390E-05-2.83080E-05-2.85602E-05 2.07111E-06-4.55335E-19-4.85530E-19
 -1      2286 9.51511E-05-2.83557E-05-2.86279E-05 2.13033E-06-1.32107E-19-5.56162E-19
 -1      2287 9.54444E-05-2.84065E-05-2.87224E-05 2.25173E-06-5.26542E-21-6.39887E-19
 -1      2288 9.51953E-05-2.83200E-05-2.86644E-05 2.31468E-06-1.28238E-19-1.49526E-19
 -1      2289 9.56145E-05-2.84122E-05-2.88026E-05 2.41512E-06 7.04828E-20-5.86828E-19
 -1      2290 9.59543E-05-2.84678E-05-2.89132E-05 2.58024E-06 2.94209E-19-5.61575E-19
 -1      2291 9.55053E-05-2.83128E-05-2.88002E-05 2.62334E-06 2.04683E-19-4.95743E-20
 -1      2292 9.61564E-05-2.84755E-05-2.90078E-05 2.79616E-06 5.00419E-19-6.79546E-19
 -1      2293 9.65534E-05-2.85437E-05-2.91360E-05 3.01270E-06 2.18764E-19-4.33523E-19
 -1      2294 9.58743E-05-2.82985E-05-2.89645E-05 3.02792E-06 2.26732E-19-1.89687E-20
 -1      2295 9.67942E-05-2.85607E-05-2.92445E-05 3.28766E-06-4.70955E-19-5.69855E-19
 -1      2296 9.72613E-05-2.86517E-05-2.93919E-05 3.55728E-06-7.49054E-19-8.52131E-19
 -1      2297 9.63133E-05-2.82926E-05-2.91554E-05 3.54807E-06-2.32866E-19-6.43105E-19
 -1      2298 9.75507E-05-2.86891E-05-2.95133E-05 3.89052E-06-9.56833E-19-8.25025E-19
 -1      2299 9.81019E-05-2.88175E-05-2.96805E-05 4.20599E-06-8.77485E-19-9.05447E-19
 -1      2300 9.68396E-05-2.83181E-05-2.93704E-05 4.19010E-06-8.48941E-19-4.78371E-19
 -1      2301 9.84550E-05-2.88930E-05-2.98126E-05 4.58610E-06-8.27206E-19-9.72927E-19
 -1      2302 9.91041E-05-2.90795E-05-2.99983E-05 4.92647E-06-6.79913E-19-8.03624E-19
 -1      2303 9.74789E-05-2.84109E-05-2.96053E-05 4.94185E-06-1.07370E-18-2.56204E-19
 -1      2304 9.95436E-05-2.92210E-05-3.01370E-05 5.32576E-06-5.30631E-19-9.67439E-19
 -1      2305 1.00303E-04-2.94949E-05-3.03366E-05 5.64925E-06-6.68131E-19-8.26122E-19
 -1      2306 9.82695E-05-2.86268E-05-2.98528E-05 5.76389E-06-5.74567E-19-4.44387E-19
 -1      2307 1.00864E-04-2.97443E-05-3.04757E-05 6.01565E-06-8.39197E-19-6.68199E-19
 -1      2308 1.01741E-04-3.01444E-05-3.06807E-05 6.25059E-06-7.13846E-19-5.07210E-19
 -1      2309 9.92695E-05-2.90509E-05-3.01019E-05 6.57636E-06-7.01217E-19-2.43899E-19
 -1      2310 1.02476E-04-3.05602E-05-3.08124E-05 6.49697E-06-3.65789E-19-6.89849E-19
 -1      2311 1.03472E-04-3.11317E-05-3.10096E-05 6.53295E-06-9.30913E-20-6.80427E-19
 -1      2312 1.00566E-04-2.98047E-05-3.03387E-05 7.24086E-06-4.19631E-19 3.34816E-19
 -1      2313 1.04451E-04-3.17831E-05-3.11279E-05 6.52532E-06 9.61382E-20-3.45386E-19
 -1      2314 1.05547E-04-3.25614E-05-3.13019E-05 6.21050E-06 5.33230E-19-6.47692E-19
 -1      2315 1.02283E-04-3.10417E-05-3.05508E-05 7.53872E-06 1.02227E-19 6.14856E-19
 -1      2316 1.06845E-04-3.35024E-05-3.14083E-05 5.76096E-06 1.07684E-18-7.06334E-19
 -1      2317 1.07980E-04-3.44712E-05-3.15468E-05 4.91916E-06 1.43639E-18-6.31843E-19
 -1      2318 1.04569E-04-3.29106E-05-3.07378E-05 7.15119E-06 8.02763E-19 1.00862E-18
 -1      2319 1.09626E-04-3.56743E-05-3.16615E-05 3.80004E-06 1.49004E-18-5.89394E-19
 -1      2320 1.10655E-04-3.66823E-05-3.17658E-05 2.29076E-06 1.26886E-18-3.63291E-19
 -1      2321 1.07535E-04-3.54449E-05-3.09303E-05 5.65979E-06 1.41195E-18 3.51685E-19
 -1      2322 1.12512E-04-3.79147E-05-3.19396E-05 3.21883E-07 9.87194E-19 1.77215E-20
 -1      2323 1.13163E-04-3.85818E-05-3.20365E-05-1.81976E-06 8.76729E-19 3.48615E-20
 -1      2324 1.11091E-04-3.83282E-05-3.12157E-05 2.62146E-06 1.35294E-18 1.60921E-19
 -1      2325 1.14798E-04-3.93008E-05-3.23533E-05-4.56179E-06 6.53618E-19-2.13462E-19
 -1      2326 1.14698E-04-3.90042E-05-3.24937E-05-6.93234E-06 2.44319E-19 7.13385E-20
 -1      2327 1.14675E-04-4.06047E-05-3.17548E-05-2.14651E-06 6.93749E-19 1.47212E-19
 -1      2328 1.15352E-04-3.84000E-05-3.30327E-05-9.77004E-06-3.29995E-19-3.17329E-19
 -1      2329 1.14213E-04-3.65668E-05-3.32690E-05-1.14223E-05-6.37854E-19 1.55924E-19
 -1      2330 1.17076E-04-4.06351E-05-3.27450E-05-8.02798E-06-2.74598E-19 9.38933E-21
 -1      2331 1.13220E-04-3.41350E-05-3.40236E-05-1.27850E-05-8.61950E-19 4.78259E-20
 -1      2332 1.11341E-04-3.10781E-05-3.43319E-05-1.24350E-05-4.32728E-19 3.91316E-19
 -1      2333 1.16715E-04-3.66269E-05-3.42843E-05-1.28244E-05-7.67293E-19 4.21002E-20
 -1      2334 1.09242E-04-2.77643E-05-3.50698E-05-1.06922E-05-8.74396E-19-1.03222E-18
 -1      2335 1.07651E-04-2.51313E-05-3.53163E-05-7.75092E-06-7.62753E-19-1.63354E-18
 -1      2336 1.13406E-04-2.92547E-05-3.60873E-05-1.29252E-05-1.24485E-18-2.75570E-19
 -1      2337 1.06381E-04-2.33201E-05-3.56724E-05-3.03570E-06-5.13183E-19-2.14338E-18
 -1      2338 1.06212E-04-2.30473E-05-3.56963E-05 1.30285E-06-1.06268E-18-2.34883E-18
 -1      2339 1.09756E-04-2.27296E-05-3.74175E-05-6.19310E-06-1.01490E-18-2.34080E-18
 -1      2340 1.07150E-04-2.43623E-05-3.54386E-05 6.35351E-06-1.45565E-18-2.81145E-18
 -1      2341 1.08565E-04-2.67065E-05-3.52208E-05 9.67596E-06-1.46490E-18-2.96976E-18
 -1      2342 1.09368E-04-2.20602E-05-3.75396E-05 4.41504E-06-1.48743E-18-2.57126E-18
 -1      2343 1.10665E-04-2.99402E-05-3.45256E-05 1.20264E-05-1.35828E-18-2.62227E-18
 -1      2344 1.12586E-04-3.30764E-05-3.42166E-05 1.28315E-05-4.73412E-19-2.42414E-18
 -1      2345 1.12690E-04-2.79154E-05-3.63770E-05 1.22003E-05-1.32807E-18-3.07934E-18
 -1      2346 1.13854E-04-3.57699E-05-3.34447E-05 1.19211E-05-1.45498E-19-2.74803E-18
 -1      2347 1.15154E-04-3.78731E-05-3.31907E-05 1.05463E-05 1.31421E-19-2.74268E-18
 -1      2348 1.16302E-04-3.54922E-05-3.46027E-05 1.32774E-05-5.41466E-19-1.50185E-18
 -1      2349 1.14779E-04-3.87995E-05-3.26068E-05 7.84627E-06 1.34529E-19-2.81318E-18
 -1      2350 1.15054E-04-3.93442E-05-3.24520E-05 5.52431E-06 1.52324E-19-2.81614E-18
 -1      2351 1.17227E-04-4.01853E-05-3.29836E-05 9.05303E-06-5.88567E-19-2.43588E-18
 -1      2352 1.13540E-04-3.88064E-05-3.21018E-05 2.68945E-06 3.94631E-19-2.67977E-18
 -1      2353 1.12993E-04-3.82610E-05-3.20023E-05 4.61649E-07-4.96408E-20-2.18973E-18
 -1      2354 1.15240E-04-4.08257E-05-3.18969E-05 3.15958E-06 2.54289E-19-3.18055E-18
 -1      2355 1.11131E-04-3.70649E-05-3.18105E-05-1.66194E-06-1.15831E-18-1.57756E-18
 -1      2356 1.10146E-04-3.60787E-05-3.17110E-05-3.28978E-06-1.10132E-18-1.87236E-18
 -1      2357 1.11758E-04-3.88156E-05-3.12933E-05-1.89437E-06-2.63295E-19-1.67629E-18
 -1      2358 1.08448E-04-3.48443E-05-3.15916E-05-4.54328E-06-1.06453E-19-1.17676E-18
 -1      2359 1.07322E-04-3.38510E-05-3.14613E-05-5.49012E-06 5.48234E-19-8.08069E-19
 -1      2360 1.08136E-04-3.59374E-05-3.09781E-05-5.22849E-06 7.51138E-20 8.86496E-19
 -1      2361 1.05965E-04-3.28562E-05-3.13578E-05-6.03319E-06 6.46109E-19-1.16679E-18
 -1      2362 1.04862E-04-3.20395E-05-3.11920E-05-6.42011E-06 1.44525E-18-6.97481E-19
 -1      2363 1.05054E-04-3.33007E-05-3.07806E-05-6.94859E-06 5.03961E-19 1.21027E-18
 -1      2364 1.03836E-04-3.13376E-05-3.10796E-05-6.47925E-06 1.53906E-18-2.13223E-18
 -1      2365 1.02830E-04-3.07304E-05-3.08893E-05-6.48128E-06 9.30470E-19-1.93051E-18
 -1      2366 1.02661E-04-3.13053E-05-3.06016E-05-7.47810E-06 9.55735E-19-1.54169E-18
 -1      2367 1.02064E-04-3.02757E-05-3.07641E-05-6.25237E-06 1.03993E-18-2.15280E-18
 -1      2368 1.01179E-04-2.98479E-05-3.05649E-05-6.02663E-06 1.13727E-18-1.94469E-18
 -1      2369 1.00866E-04-2.99589E-05-3.04023E-05-7.24578E-06 7.59391E-19-2.28225E-18
 -1      2370 1.00601E-04-2.95709E-05-3.04327E-05-5.65179E-06 2.30784E-19-1.75649E-18
 -1      2371 9.98411E-05-2.92773E-05-3.02389E-05-5.31487E-06-1.08351E-18-9.37540E-19
 -1      2372 9.95210E-05-2.91229E-05-3.01798E-05-6.58680E-06 7.55906E-19-1.61051E-18
 -1      2373 9.93959E-05-2.91167E-05-3.01076E-05-4.88720E-06-9.06949E-19 3.97015E-19
 -1      2374 9.87551E-05-2.89171E-05-2.99292E-05-4.51537E-06 4.13537E-19 3.92834E-19
 -1      2375 9.84977E-05-2.86398E-05-2.99459E-05-5.73359E-06 5.18307E-20-7.12490E-19
 -1      2376 9.84050E-05-2.88276E-05-2.98060E-05-4.09047E-06 5.16756E-20 5.84402E-19
 -1      2377 9.78736E-05-2.86910E-05-2.96489E-05-3.72803E-06 3.24399E-19-1.64116E-19
 -1      2378 9.77036E-05-2.83807E-05-2.97152E-05-4.83370E-06-6.77287E-20 6.35017E-19
 -1      2379 9.75940E-05-2.86419E-05-2.95386E-05-3.33503E-06 1.22242E-18 4.75748E-20
 -1      2380 9.71601E-05-2.85461E-05-2.94053E-05-3.00351E-06 2.35021E-18 2.59541E-19
 -1      2381 9.70763E-05-2.82532E-05-2.95003E-05-3.97194E-06 8.31063E-19 9.92682E-19
 -1      2382 9.69343E-05-2.85175E-05-2.93105E-05-2.65392E-06 2.64094E-18 2.97182E-19
 -1      2383 9.65857E-05-2.84471E-05-2.92013E-05-2.35987E-06 2.33519E-18 1.34838E-18
 -1      2384 9.65744E-05-2.81954E-05-2.93093E-05-3.18936E-06 2.43569E-18 4.87284E-19
 -1      2385 9.64013E-05-2.84260E-05-2.91230E-05-2.05409E-06 1.91738E-18 1.20086E-18
 -1      2386 9.61255E-05-2.83703E-05-2.90366E-05-1.79514E-06 2.79699E-19 1.45826E-18
 -1      2387 9.61684E-05-2.81671E-05-2.91469E-05-2.49834E-06 2.18044E-18 1.26709E-18
 -1      2388 9.59723E-05-2.83495E-05-2.89739E-05-1.52673E-06-1.18560E-18 1.33960E-18
 -1      2389 9.57608E-05-2.83024E-05-2.89081E-05-1.29662E-06-1.17825E-18 1.62303E-18
 -1      2390 9.58351E-05-2.81431E-05-2.90136E-05-1.89375E-06-4.28997E-19 1.50026E-19
 -1      2391 5.37656E-05-3.43704E-05-8.23698E-06 4.01289E-05-1.93928E-18-4.13733E-18
 -1      2392 4.03064E-05-2.84992E-05-4.74182E-06 3.26593E-05-7.49624E-19-3.65706E-18
 -1      2393 9.33717E-05-2.76628E-05-2.81522E-05-5.31590E-07 6.15781E-19 3.54779E-19
 -1      2394 9.34246E-05-2.75569E-05-2.82042E-05-2.22128E-07 7.83735E-19 7.38456E-19
 -1      2395 9.33839E-05-2.78295E-05-2.80880E-05-1.00837E-06 4.12875E-19-5.44154E-20
 -1      2396 9.33005E-05-2.77357E-05-2.80857E-05-8.34629E-07 5.83484E-19 1.91942E-19
 -1      2397 9.40644E-05-2.77633E-05-2.84269E-05-6.17701E-07 8.23743E-19-1.10538E-19
 -1      2398 9.35701E-05-2.79712E-05-2.81081E-05-1.28288E-06 3.64158E-19-7.08829E-20
 -1      2399 9.34009E-05-2.78847E-05-2.80713E-05-1.18376E-06 2.58345E-19-5.75033E-20
 -1      2400 9.40360E-05-2.79645E-05-2.83257E-05-1.15874E-06 4.36078E-19-1.18479E-19
 -1      2401 9.38758E-05-2.80978E-05-2.81850E-05-1.45249E-06 5.87353E-19 1.11191E-19
 -1      2402 9.36506E-05-2.80169E-05-2.81253E-05-1.38883E-06 4.61019E-19 1.96466E-19
 -1      2403 9.41476E-05-2.81054E-05-2.83107E-05-1.48432E-06 2.82227E-19-4.03024E-19
 -1      2404 9.42688E-05-2.82148E-05-2.83030E-05-1.58395E-06 1.53610E-19 3.48904E-19
 -1      2405 9.40028E-05-2.81377E-05-2.82266E-05-1.52882E-06 5.66530E-19 2.77245E-19
 -1      2406 9.43613E-05-2.82089E-05-2.83563E-05-1.69954E-06 4.69182E-19 1.28898E-19
 -1      2407 9.47354E-05-2.83276E-05-2.84539E-05-1.72526E-06 3.02301E-19 3.71256E-19
 -1      2408 9.44330E-05-2.82515E-05-2.83632E-05-1.65911E-06 1.55449E-19 4.29992E-19
 -1      2409 9.46529E-05-2.82876E-05-2.84466E-05-1.87810E-06 1.86470E-19 4.00881E-19
 -1      2410 9.52756E-05-2.84425E-05-2.86350E-05-1.91191E-06 4.44408E-19 2.89284E-19
 -1      2411 9.49332E-05-2.83634E-05-2.85300E-05-1.82016E-06 5.14634E-19 4.61068E-19
 -1      2412 9.50109E-05-2.83507E-05-2.85726E-05-2.07355E-06 4.84892E-19 1.64859E-19
 -1      2413 9.58999E-05-2.85681E-05-2.88474E-05-2.17006E-06 5.98369E-19 4.20612E-20
 -1      2414 9.55085E-05-2.84807E-05-2.87263E-05-2.04203E-06 5.09922E-19 2.16064E-19
 -1      2415 9.54344E-05-2.84069E-05-2.87299E-05-2.32544E-06 5.06761E-19 2.01801E-19
 -1      2416 9.66264E-05-2.87155E-05-2.90941E-05-2.51725E-06 2.96697E-19 4.52616E-19
 -1      2417 9.61730E-05-2.86128E-05-2.89541E-05-2.34614E-06 5.21750E-19 4.11958E-19
 -1      2418 9.59308E-05-2.84664E-05-2.89174E-05-2.66235E-06 4.23565E-19 2.79190E-19
 -1      2419 9.74783E-05-2.88996E-05-2.93790E-05-2.96094E-06-1.18348E-19 2.02643E-19
 -1      2420 9.69477E-05-2.87727E-05-2.92171E-05-2.74493E-06 3.22733E-19 5.20255E-19
 -1      2421 9.65140E-05-2.85422E-05-2.91353E-05-3.10227E-06 3.48045E-19 7.43004E-19
 -1      2422 9.84813E-05-2.91406E-05-2.97049E-05-3.49439E-06-1.54974E-19 2.73415E-19
 -1      2423 9.78583E-05-2.89780E-05-2.95188E-05-3.23909E-06-3.82902E-19-9.56117E-22
 -1      2424 9.72037E-05-2.86532E-05-2.93838E-05-3.65055E-06 4.61889E-20 1.93419E-19
 -1      2425 9.96607E-05-2.94659E-05-3.00714E-05-4.08918E-06 4.76521E-19 4.48913E-19
 -1      2426 9.89329E-05-2.92529E-05-2.98609E-05-3.81183E-06 2.12246E-19 1.97516E-19
 -1      2427 9.80245E-05-2.88271E-05-2.96618E-05-4.29477E-06-2.13723E-20-1.11600E-19
 -1      2428 1.01038E-04-2.99133E-05-3.04728E-05-4.68374E-06 5.51898E-19 6.76029E-19
 -1      2429 1.00200E-04-2.96311E-05-3.02409E-05-4.41943E-06 7.17197E-19 7.38903E-19
 -1      2430 9.90073E-05-2.91048E-05-2.99649E-05-4.99607E-06 5.10420E-19 1.42226E-19
 -1      2431 1.02628E-04-3.05322E-05-3.08949E-05-5.16800E-06-2.27309E-21 3.64585E-19
 -1      2432 1.01684E-04-3.01586E-05-3.06502E-05-4.97760E-06 4.06172E-19 7.66702E-19
 -1      2433 1.00191E-04-2.95465E-05-3.02842E-05-5.67616E-06 3.89018E-19 2.08911E-19
 -1      2434 1.04428E-04-3.13807E-05-3.13133E-05-5.36649E-06-7.48928E-19 4.06070E-19
 -1      2435 1.03405E-04-3.08939E-05-3.10713E-05-5.34430E-06-6.41259E-19 4.83300E-19
 -1      2436 1.01623E-04-3.02344E-05-3.06053E-05-6.20046E-06-3.90719E-19 5.49858E-19
 -1      2437 1.06409E-04-3.25095E-05-3.16945E-05-5.02837E-06-3.09433E-19 6.39922E-19
 -1      2438 1.05365E-04-3.18998E-05-3.14780E-05-5.30376E-06-4.50570E-19 4.81472E-19
 -1      2439 1.03362E-04-3.12681E-05-3.09105E-05-6.36008E-06-5.59656E-19 5.64857E-19
 -1      2440 1.08487E-04-3.39159E-05-3.20018E-05-3.84321E-06 6.51458E-19 3.09149E-19
 -1      2441 1.07523E-04-3.32134E-05-3.18380E-05-4.56415E-06 2.59424E-19 2.54464E-19
 -1      2442 1.05460E-04-3.27347E-05-3.11839E-05-5.86184E-06 1.25063E-19 3.36026E-19
 -1      2443 1.10464E-04-3.54513E-05-3.22102E-05-1.52009E-06 2.16113E-19 9.35447E-19
 -1      2444 1.09751E-04-3.47748E-05-3.21230E-05-2.79804E-06 5.28714E-19 7.08085E-19
 -1      2445 1.07914E-04-3.46298E-05-3.14243E-05-4.34773E-06 2.43474E-19 6.54696E-19
 -1      2446 1.11969E-04-3.66919E-05-3.23297E-05 2.02201E-06-1.32027E-18 1.05067E-18
 -1      2447 1.11745E-04-3.63041E-05-3.23267E-05 2.23417E-07-3.27689E-19 1.02305E-18
 -1      2448 1.10563E-04-3.67065E-05-3.16638E-05-1.49133E-06-2.16430E-19 1.02586E-18
 -1      2449 1.12416E-04-3.68766E-05-3.24212E-05 6.31870E-06-1.24219E-18 4.84102E-19
 -1      2450 1.12938E-04-3.71720E-05-3.24817E-05 4.34397E-06-1.69859E-18 5.89175E-19
 -1      2451 1.12927E-04-3.82819E-05-3.19824E-05 2.75744E-06-1.22579E-18 2.02439E-19
 -1      2452 1.11224E-04-3.51698E-05-3.25871E-05 1.00404E-05-1.08305E-18 9.30148E-19
 -1      2453 1.12595E-04-3.64760E-05-3.26599E-05 8.63130E-06-8.81947E-19 6.20199E-19
 -1      2454 1.14142E-04-3.82387E-05-3.24915E-05 7.73520E-06-1.00925E-18 1.22177E-19
 -1      2455 1.08304E-04-3.14065E-05-3.28972E-05 1.10728E-05 6.13569E-20 8.24772E-19
 -1      2456 1.10235E-04-3.35534E-05-3.29363E-05 1.11981E-05-5.22223E-19 4.85813E-19
 -1      2457 1.13271E-04-3.54920E-05-3.32842E-05 1.16975E-05-6.00717E-19 4.79924E-19
 -1      2458 1.04886E-04-2.71110E-05-3.32608E-05 7.71406E-06 5.52186E-19 6.17474E-19
 -1      2459 1.06552E-04-2.91069E-05-3.32658E-05 9.85872E-06 2.81903E-19 8.09975E-19
 -1      2460 1.10261E-04-3.03351E-05-3.42509E-05 1.19403E-05 3.19292E-20-7.10479E-19
 -1      2461 1.03169E-04-2.50039E-05-3.34822E-05 5.90234E-07 3.27894E-19 1.18600E-18
 -1      2462 1.03638E-04-2.55629E-05-3.34787E-05 4.05447E-06 5.83844E-19 1.33863E-18
 -1      2463 1.06927E-04-2.53418E-05-3.50384E-05 6.85374E-06 6.24197E-19-4.33075E-19
 -1      2464 1.04562E-04-2.67123E-05-3.34235E-05-6.87661E-06 5.72065E-19 9.50881E-19
 -1      2465 1.03540E-04-2.54350E-05-3.34269E-05-3.79352E-06 5.26590E-19 8.35512E-19
 -1      2466 1.05924E-04-2.38919E-05-3.52541E-05-1.86880E-06 4.93913E-19 8.82064E-20
 -1      2467 1.08108E-04-3.09900E-05-3.31306E-05-1.09701E-05 8.82410E-19-5.84181E-19
 -1      2468 1.06221E-04-2.87747E-05-3.31170E-05-9.65792E-06 1.15108E-18 6.03802E-19
 -1      2469 1.08151E-04-2.71336E-05-3.47702E-05-9.57443E-06 1.20932E-18-8.03075E-19
 -1      2470 1.11437E-04-3.50071E-05-3.28088E-05-1.05056E-05 8.31363E-19-1.28047E-18
 -1      2471 1.09660E-04-3.31513E-05-3.27512E-05-1.11005E-05 1.43554E-19-8.72775E-19
 -1      2472 1.11679E-04-3.26300E-05-3.38469E-05-1.24383E-05 7.80571E-19-8.24474E-19
 -1      2473 1.12969E-04-3.69943E-05-3.25775E-05-6.96887E-06 8.98245E-19 5.82022E-19
 -1      2474 1.11925E-04-3.61344E-05-3.25026E-05-8.68007E-06 8.55814E-19-5.79887E-20
 -1      2475 1.13914E-04-3.69699E-05-3.29241E-05-1.03457E-05 4.28711E-20-1.89327E-19
 -1      2476 1.12594E-04-3.69395E-05-3.24184E-05-2.57582E-06 8.80322E-19 6.48652E-19
 -1      2477 1.12392E-04-3.69777E-05-3.23793E-05-4.49461E-06 1.13972E-18 7.97697E-19
 -1      2478 1.13850E-04-3.85368E-05-3.22507E-05-5.68391E-06 1.04246E-18 1.77783E-18
 -1      2479 1.10984E-04-3.57012E-05-3.22521E-05 1.15203E-06 6.49085E-19 8.32964E-19
 -1      2480 1.11430E-04-3.62429E-05-3.22883E-05-4.08137E-07 1.09657E-18 3.31510E-19
 -1      2481 1.12037E-04-3.77627E-05-3.18344E-05-8.59695E-07 1.17996E-18 1.17605E-18
 -1      2482 1.08844E-04-3.41070E-05-3.20192E-05 3.64394E-06 1.28309E-19 7.05309E-19
 -1      2483 1.09677E-04-3.48066E-05-3.21390E-05 2.63257E-06 3.10941E-19 1.29413E-18
 -1      2484 1.09471E-04-3.58595E-05-3.15649E-05 2.83508E-06 5.06479E-19 1.43802E-18
 -1      2485 1.06628E-04-3.26309E-05-3.17048E-05 4.94365E-06 4.24011E-19 1.28403E-18
 -1      2486 1.07633E-04-3.32945E-05-3.18917E-05 4.44001E-06 2.63599E-19 1.23433E-18
 -1      2487 1.06871E-04-3.37986E-05-3.13356E-05 5.09595E-06-3.73075E-20 7.47475E-19
 -1      2488 1.04557E-04-3.14450E-05-3.13279E-05 5.34209E-06-5.13547E-20 1.54843E-18
 -1      2489 1.05592E-04-3.19986E-05-3.15548E-05 5.21463E-06 1.54695E-19 1.69951E-18
 -1      2490 1.04566E-04-3.20636E-05-3.10880E-05 6.12864E-06 3.75499E-19 9.05045E-19
 -1      2491 1.02716E-04-3.05584E-05-3.09209E-05 5.15957E-06-1.36775E-18 2.08758E-18
 -1      2492 1.03698E-04-3.09923E-05-3.11614E-05 5.26976E-06-3.60544E-20 1.36372E-18
 -1      2493 1.02635E-04-3.07782E-05-3.08074E-05 6.28952E-06-3.43486E-19 2.46538E-18
 -1      2494 1.01127E-04-2.99182E-05-3.05151E-05 4.65666E-06-1.97062E-18 1.25501E-18
 -1      2495 1.02010E-04-3.02483E-05-3.07488E-05 4.89389E-06-2.23717E-18 1.45694E-18
 -1      2496 1.01050E-04-2.98955E-05-3.05036E-05 5.91378E-06-1.60178E-18 1.74221E-18
 -1      2497 9.97818E-05-2.94619E-05-3.01345E-05 4.01504E-06-1.99456E-18 2.12905E-18
 -1      2498 1.00547E-04-2.97098E-05-3.03482E-05 4.30339E-06-1.40860E-18 1.72211E-18
 -1      2499 9.97553E-05-2.93167E-05-3.01950E-05 5.25723E-06-1.71095E-18 2.34020E-19
 -1      2500 9.86611E-05-2.91361E-05-2.97939E-05 3.34757E-06 2.80180E-19 6.09588E-19
 -1      2501 9.93053E-05-2.93219E-05-2.99808E-05 3.64097E-06-9.66057E-19 1.65494E-18
 -1      2502 9.86984E-05-2.89471E-05-2.98994E-05 4.49265E-06-8.21759E-19 1.02457E-18
 -1      2503 9.77416E-05-2.89005E-05-2.95008E-05 2.71573E-06 1.08130E-18 9.64569E-19
 -1      2504 9.82714E-05-2.90404E-05-2.96583E-05 2.99018E-06 5.28780E-19 7.51469E-19
 -1      2505 9.78370E-05-2.87130E-05-2.96299E-05 3.72503E-06 3.15008E-19-1.15550E-19
 -1      2506 9.69987E-05-2.87257E-05-2.92572E-05 2.14556E-06 1.05398E-18 2.39661E-18
 -1      2507 9.74248E-05-2.88324E-05-2.93856E-05 2.39219E-06 1.29590E-18 2.07487E-18
 -1      2508 9.71374E-05-2.85620E-05-2.93942E-05 3.00988E-06 2.78642E-19 7.95373E-19
 -1      2509 9.64078E-05-2.85902E-05-2.90617E-05 1.64023E-06 1.39267E-18 1.53826E-18
 -1      2510 9.67425E-05-2.86734E-05-2.91628E-05 1.85985E-06 7.99205E-19 3.28296E-18
 -1      2511 9.65721E-05-2.84578E-05-2.91960E-05 2.36897E-06 1.24305E-18 3.81915E-18
 -1      2512 9.59453E-05-2.84804E-05-2.89106E-05 1.18842E-06 1.25242E-18 1.87300E-18
 -1      2513 9.62005E-05-2.85455E-05-2.89869E-05 1.38746E-06 1.48332E-18 1.73816E-18
 -1      2514 9.61156E-05-2.83760E-05-2.90351E-05 1.80388E-06 1.27754E-18 3.60038E-18
 -1      2515 9.55909E-05-2.83911E-05-2.87970E-05 7.81450E-07 4.41706E-20 2.48238E-18
 -1      2516 9.57802E-05-2.84419E-05-2.88528E-05 9.63774E-07 6.16533E-19 1.66086E-18
 -1      2517 9.57512E-05-2.83079E-05-2.89088E-05 1.29959E-06 8.52445E-19 3.48657E-18
 -1      2518 9.54591E-05-2.83694E-05-2.87486E-05 5.66089E-07-5.02469E-20 1.93194E-18
 -1      2519 9.45189E-05-2.68318E-05-2.90145E-05 1.07183E-06-7.62856E-19 7.56114E-20
 -1      2520 9.46440E-05-2.70098E-05-2.89844E-05 1.15955E-06-1.06900E-18-3.42818E-18
 -1      2521 9.43105E-05-2.65323E-05-2.90537E-05 7.67124E-07-1.11890E-18 1.25463E-18
 -1      2522 9.44032E-05-2.66647E-05-2.90312E-05 9.21277E-07-1.42210E-18 2.00409E-18
 -1      2523 9.43639E-05-2.66779E-05-2.90044E-05 1.15818E-06-2.25587E-19 4.80027E-19
 -1      2524 9.50758E-05-2.76362E-05-2.89063E-05 1.19709E-06-2.02824E-18-1.51029E-18
 -1      2525 9.52161E-05-2.78387E-05-2.88712E-05 1.12808E-06-1.28210E-18 1.60982E-18
 -1      2526 9.47860E-05-2.72154E-05-2.89637E-05 1.22332E-06-2.82508E-18-4.14684E-18
 -1      2527 9.49265E-05-2.74145E-05-2.89302E-05 1.23132E-06-3.46033E-18-2.82620E-18
 -1      2528 9.50180E-05-2.74976E-05-2.89353E-05 1.42853E-06-2.38175E-18-3.12046E-18
 -1      2529 9.46683E-05-2.70590E-05-2.89730E-05 1.39035E-06-1.19997E-18-2.61234E-18
 -1      2530 9.41864E-05-2.63533E-05-2.90767E-05 3.54703E-07-6.91260E-19-6.03266E-19
 -1      2531 9.42356E-05-2.64239E-05-2.90646E-05 5.52140E-07-9.87225E-19-6.07297E-19
 -1      2532 9.41382E-05-2.63959E-05-2.90274E-05 7.64921E-07-1.22472E-18 1.24753E-18
 -1      2533 9.41602E-05-2.63155E-05-2.90805E-05-1.07086E-07 2.91875E-20-3.26407E-19
 -1      2534 9.41603E-05-2.63155E-05-2.90805E-05 1.05413E-07-8.43175E-19 1.47461E-19
 -1      2535 9.40184E-05-2.62463E-05-2.90396E-05 2.66742E-07-1.66949E-19-9.37503E-19
 -1      2536 9.42349E-05-2.64232E-05-2.90647E-05-5.54148E-07 4.48105E-19-1.52473E-18
 -1      2537 9.41859E-05-2.63525E-05-2.90768E-05-3.56594E-07 6.63167E-19-8.29475E-19
 -1      2538 9.40178E-05-2.62454E-05-2.90397E-05-2.68129E-07 7.09338E-19-2.31667E-19
 -1      2539 9.43990E-05-2.66586E-05-2.90320E-05-9.18754E-07 3.35681E-19-2.58263E-18
 -1      2540 9.43081E-05-2.65288E-05-2.90542E-05-7.66374E-07 1.10929E-18-3.03386E-18
 -1      2541 9.41356E-05-2.63919E-05-2.90279E-05-7.63467E-07 1.29399E-18-2.20363E-18
 -1      2542 9.46398E-05-2.70030E-05-2.89856E-05-1.15997E-06 6.06844E-19 2.04861E-19
 -1      2543 9.45146E-05-2.68251E-05-2.90156E-05-1.07105E-06 7.39234E-19-1.68289E-18
 -1      2544 9.43584E-05-2.66698E-05-2.90055E-05-1.15604E-06 1.14938E-18-2.42623E-18
 -1      2545 9.49272E-05-2.74148E-05-2.89307E-05-1.23235E-06 1.65068E-19 1.74066E-18
 -1      2546 9.47845E-05-2.72108E-05-2.89648E-05-1.22599E-06-1.52525E-19 2.17477E-18
 -1      2547 9.46637E-05-2.70521E-05-2.89742E-05-1.39218E-06 9.13198E-19-1.41396E-19
 -1      2548 9.52195E-05-2.78440E-05-2.88712E-05-1.12245E-06-8.97518E-19-7.71003E-19
 -1      2549 9.50806E-05-2.76381E-05-2.89067E-05-1.20127E-06-3.58094E-19-1.97395E-19
 -1      2550 9.50094E-05-2.74950E-05-2.89353E-05-1.43054E-06-1.34222E-19 2.99357E-19
 -1      2551 9.53747E-05-2.81834E-05-2.87925E-05-7.52647E-07-7.78882E-20 3.78341E-19
 -1      2552 1.85173E-05-1.81649E-05 8.91463E-08-5.77059E-06 6.80194E-19 2.50764E-18
 -1      2553 2.37562E-05-2.00659E-05-1.38789E-06-1.91960E-05 6.39616E-19 2.23956E-18
 -1      2554 9.36123E-05-2.74434E-05-2.83456E-05 2.97190E-07 9.67116E-19 7.89536E-19
 -1      2555 9.38787E-05-2.73076E-05-2.84864E-05 8.46639E-07 1.10950E-18 8.92033E-19
 -1      2556 9.42805E-05-2.74519E-05-2.86552E-05 2.95043E-07 1.01980E-18 1.27994E-19
 -1      2557 9.52700E-05-5.17172E-05-1.87899E-05 4.08078E-05-1.88804E-18-3.12429E-18
 -1      2558 7.39212E-05-4.43322E-05-1.24035E-05 4.12783E-05-2.56736E-18-3.16811E-18
 -1      2559 1.26805E-04-5.75355E-05-2.98862E-05 2.68286E-05-1.84357E-18-2.21012E-18
 -1      2560 1.14702E-04-5.68252E-05-2.46371E-05 3.13408E-05-1.35991E-18-3.12735E-18
 -1      2561 9.50277E-05-2.00048E-05-3.22017E-05-1.17542E-05-1.85075E-18-1.08772E-18
 -1      2562 9.54303E-05-2.33360E-05-3.09174E-05-7.94617E-06-1.72843E-18-9.80788E-19
 -1      2563 9.50259E-05-2.25527E-05-3.10496E-05-7.57908E-06-1.50466E-18-1.32524E-18
 -1      2564 9.32169E-05-1.76909E-05-3.23949E-05-1.12910E-05-1.68448E-18-1.62949E-18
 -1      2565 3.62175E-05-2.67128E-05-3.76438E-06-3.03749E-05 2.50510E-19 2.40981E-18
 -1      2566 4.93828E-05-3.32415E-05-6.77079E-06-3.86899E-05-1.24726E-19 2.70712E-18
 -1      2567 1.50932E-04-2.76755E-05-5.32107E-05-4.30482E-06-3.71720E-18 2.95149E-18
 -1      2568 1.49062E-04-3.62616E-05-4.85268E-05-6.94703E-07-3.00718E-18 2.17815E-18
 -1      2569 6.15661E-05-3.82702E-05-9.95262E-06 4.17756E-05 4.61633E-20-1.75230E-18
 -1      2570 4.36835E-05-3.09886E-05-5.15465E-06 3.45093E-05-1.16255E-19-2.12669E-18
 -1      2571 8.78950E-05-1.07629E-05-3.30925E-05-1.50954E-06 3.97215E-19-2.57318E-18
 -1      2572 8.79991E-05-1.08865E-05-3.30825E-05-2.62342E-06 1.43901E-19-2.63438E-18
 -1      2573 8.93904E-05-1.30461E-05-3.27208E-05-2.90962E-06 9.37903E-20-2.44517E-18
 -1      2574 8.91433E-05-1.27064E-05-3.27615E-05-9.33862E-07 4.12351E-19-2.40761E-18
 -1      2575 1.42920E-04-1.12864E-05-5.68743E-05 2.14924E-06 2.13198E-18-7.41524E-19
 -1      2576 1.47443E-04-1.16351E-05-5.82790E-05-1.16652E-06 2.40049E-18-7.00258E-19
 -1      2577 9.90238E-05-5.34032E-05-1.94049E-05-3.77298E-05-2.14892E-18-1.94309E-18
 -1      2578 1.15816E-04-5.70385E-05-2.55547E-05-3.31334E-05-1.97994E-18-1.15493E-18
 -1      2579 1.50026E-04-3.14399E-05-5.11189E-05-2.90984E-06-1.49713E-19-8.13575E-19
 -1      2580 1.47189E-04-3.87534E-05-4.66648E-05-6.34883E-07-4.18011E-19-1.48231E-18
 -1      2581 1.46512E-04-4.02579E-05-4.56377E-05-3.50255E-07 7.99176E-19 6.00546E-19
 -1      2582 1.48856E-04-3.35327E-05-4.99252E-05 3.40490E-06 1.43974E-18 6.75509E-19
 -1      2583 1.40806E-04-2.84024E-05-4.83253E-05 9.91317E-06 1.22163E-18 1.46325E-18
 -1      2584 1.47611E-04-4.58700E-05-4.39512E-05 7.25099E-06-2.33758E-18 2.07587E-18
 -1      2585 1.40648E-04-5.08584E-05-3.85635E-05 1.26519E-05-1.45557E-18 8.84302E-19
 -1      2586 1.31392E-04-5.61528E-05-3.21374E-05-1.91817E-05-1.63668E-18-1.68560E-19
 -1      2587 1.43211E-04-5.16706E-05-3.96481E-05-1.07832E-05-4.62004E-19 8.66515E-19
 -1      2588 6.29057E-05-4.01066E-05-9.58611E-06-4.05779E-05-2.19593E-18-3.32619E-18
 -1      2589 8.04975E-05-4.65606E-05-1.45531E-05-4.30766E-05-2.05194E-18-3.39756E-18
 -1      2590 3.28108E-05-2.50074E-05-3.07047E-06-2.81422E-05-1.23413E-18-3.38517E-18
 -1      2591 4.60754E-05-3.16603E-05-6.01226E-06-3.75619E-05-1.45181E-18-3.32122E-18
 -1      2592 1.91070E-05-1.71769E-05-5.22679E-07 4.20916E-07-5.20343E-19-3.15689E-18
 -1      2593 2.25411E-05-1.79621E-05-1.66776E-06-1.49910E-05-3.70683E-19-2.88330E-18
 -1      2594 2.80347E-05-2.38846E-05-1.70501E-06 2.60677E-05-1.60301E-19-2.93815E-18
 -1      2595 2.00606E-05-2.00302E-05 1.45750E-07 1.35151E-05-1.68189E-19-3.42921E-18
 -1      2596 9.93319E-05-5.31985E-05-1.98162E-05 3.99053E-05-1.25361E-19 3.77724E-19
 -1      2597 8.34070E-05-4.79510E-05-1.49060E-05 4.06536E-05 3.53636E-19-1.04185E-18
 -1      2598 6.58782E-05-4.15837E-05-1.02576E-05-4.08130E-05 1.46960E-19 3.45685E-18
 -1      2599 8.42123E-05-4.80417E-05-1.55714E-05-4.27888E-05-1.95241E-19 3.29655E-18
 -1      2600 1.32149E-04-5.59302E-05-3.28520E-05 2.38720E-05-1.26314E-18 3.83494E-19
 -1      2601 1.15387E-04-5.64171E-05-2.52711E-05 3.09958E-05-8.92561E-19 7.40730E-19
 -1      2602 1.48655E-04-1.41535E-05-5.80572E-05-3.24793E-06-3.96284E-18 1.86792E-18
 -1      2603 1.48897E-04-1.82418E-05-5.62719E-05-4.90415E-06-3.98254E-18 2.56100E-18
 -1      2604 1.44171E-04-1.26195E-05-5.68868E-05 3.09301E-06-2.80453E-18 7.97482E-19
 -1      2605 1.46058E-04-1.16478E-05-5.79449E-05-5.76161E-07-3.54992E-18 8.46292E-19
 -1      2606 1.46982E-04-2.48980E-05-5.26248E-05 6.70234E-06-1.06980E-18 1.25954E-18
 -1      2607 1.46528E-04-1.89250E-05-5.52141E-05 6.04056E-06-2.05321E-18 8.35174E-19
 -1      2608 1.45522E-04-4.44222E-05-4.35062E-05-3.10734E-06-1.09855E-18 2.52479E-18
 -1      2609 1.48784E-04-3.57815E-05-4.89223E-05 3.20025E-06-3.22084E-19 2.45978E-18
 -1      2610 1.33092E-04-5.55692E-05-3.33171E-05-1.89167E-05-9.13631E-19 2.36725E-18
 -1      2611 1.41798E-04-5.23901E-05-3.86710E-05-1.28908E-05-1.23598E-18 2.08772E-18
 -1      2612 1.04615E-04-5.48034E-05-2.12444E-05-3.57000E-05-1.85500E-19 2.60727E-18
 -1      2613 1.21924E-04-5.70012E-05-2.80014E-05-3.01808E-05-7.46448E-19 3.34366E-18
 -1      2614 2.61407E-05-2.17241E-05-1.71918E-06 2.30116E-05-8.79432E-19-2.52204E-18
 -1      2615 1.88004E-05-1.86813E-05 1.62378E-07 7.70230E-06-5.74235E-19 1.49925E-19
 -1      2616 9.62664E-05-2.50716E-05-3.05376E-05 7.58191E-06 1.94311E-18 1.98684E-18
 -1      2617 9.73841E-05-2.37562E-05-3.15761E-05 1.06831E-05 2.04283E-18 2.33871E-18
 -1      2618 9.58340E-05-2.12853E-05-3.20053E-05 1.18824E-05 2.23776E-18 1.56386E-18
 -1      2619 9.58348E-05-2.41412E-05-3.07593E-05 7.66405E-06 2.01808E-18 1.03437E-18
 -1      2620 1.45376E-04-4.85044E-05-4.18508E-05 7.72929E-06-1.05501E-18-2.01636E-18
 -1      2621 1.35840E-04-5.39774E-05-3.52086E-05 1.58681E-05-1.63742E-18-2.47249E-18
 -1      2622 1.34486E-04-5.77374E-05-3.28086E-05 1.42864E-05-1.48554E-18-1.39485E-18
 -1      2623 1.39418E-04-1.19110E-05-5.49063E-05-3.13772E-06 2.27386E-18 1.68718E-19
 -1      2624 9.08275E-05-1.50189E-05-3.24841E-05-6.77144E-06-7.81952E-19-2.46497E-18
 -1      2625 8.97344E-05-1.31665E-05-3.28668E-05-7.93462E-06-8.30256E-19-2.61437E-18
 -1      2626 9.03833E-05-1.39543E-05-3.28166E-05-9.10765E-06-1.11378E-18-2.46396E-18
 -1      2627 9.47190E-05-2.69086E-05-2.90747E-05 1.81974E-06 1.27563E-18 2.79582E-19
 -1      2628 9.42132E-05-1.90683E-05-3.22500E-05 1.15880E-05 2.28019E-18 6.22013E-19
 -1      2629 1.43436E-04-4.51376E-05-4.22184E-05-2.17881E-06-1.52228E-18-1.88613E-18
 -1      2630 1.41895E-04-3.14443E-05-4.75291E-05 9.36513E-06-8.54550E-19 1.62779E-18
 -1      2631 1.36594E-04-1.44943E-05-5.26212E-05 6.91381E-06-2.52882E-18 3.05779E-19
 -1      2632 1.36381E-04-1.07040E-05-5.39765E-05-2.78597E-06-3.43430E-18 1.56137E-18
 -1      2633 3.66606E-05-2.15498E-05-5.92196E-06-2.49345E-05 1.66018E-19 2.99680E-18
 -1      2634 1.30613E-04-1.67726E-05-4.92237E-05 9.68387E-06 1.45118E-18-5.14308E-19
 -1      2635 1.37629E-04-1.39880E-05-5.34359E-05 6.24040E-06 1.81329E-18-9.87852E-19
 -1      2636 1.29014E-04-1.05185E-05-5.13726E-05 4.60562E-06 2.22748E-18-3.18723E-19
 -1      2637 1.37210E-04-5.62768E-05-3.46197E-05 1.30224E-05-8.33110E-19 1.59390E-18
 -1      2638 6.51535E-05-3.72028E-05-1.15054E-05-3.92803E-05-4.92550E-19 3.38432E-18
 -1      2639 7.13282E-05-3.96390E-05-1.30714E-05 3.95268E-05-2.37614E-18-4.05962E-18
 -1      2640 9.54599E-05-2.82477E-05-2.88044E-05 8.35733E-07-1.71486E-19 1.46610E-18
 -1      2641 9.53955E-05-2.81072E-05-2.88378E-05 9.68859E-07-7.22369E-20 2.57991E-18
 -1      2642 1.13657E-04-5.72240E-05-2.40478E-05 3.09500E-05 5.15208E-19 8.61538E-19
 -1      2643 9.55330E-05-2.82641E-05-2.88251E-05-9.34570E-07 6.47010E-19 1.48352E-18
 -1      2644 9.53567E-05-2.80340E-05-2.88554E-05-1.06093E-06-7.00037E-19-4.84448E-20
 -1      2645 9.53633E-05-2.79203E-05-2.89018E-05-1.33111E-06-6.45848E-19 9.76623E-19
 -1      2646 9.56787E-05-2.82909E-05-2.88736E-05-1.12821E-06-6.24498E-19 1.43617E-18
 -1      2647 4.25421E-05-2.54855E-05-6.81870E-06 3.08315E-05 1.31925E-19-2.56227E-18
 -1      2648 2.64653E-05-1.54077E-05-4.16818E-06 6.63758E-06 7.59683E-21-2.99468E-18
 -1      2649 2.52126E-05-1.51614E-05-3.73791E-06 1.59241E-06-1.21265E-18 1.26843E-19
 -1      2650 9.46935E-05-2.05865E-05-3.17158E-05 9.64778E-06 2.17163E-18 3.65984E-19
 -1      2651 1.08735E-04-5.57094E-05-2.24629E-05 3.34464E-05-1.34424E-18-2.17415E-18
 -1      2652 3.45406E-05-1.93794E-05-5.90781E-06-2.09623E-05-3.47072E-19-3.21915E-18
 -1      2653 9.11496E-05-1.49974E-05-3.26897E-05-9.79561E-06-1.27695E-18-2.34394E-18
 -1      2654 9.21628E-05-1.62776E-05-3.26018E-05-1.08255E-05-1.52655E-18-2.09408E-18
 -1      2655 9.36543E-05-1.91958E-05-3.18957E-05-9.17638E-06-1.52970E-18-1.79826E-18
 -1      2656 9.20933E-05-1.68025E-05-3.22530E-05-8.27994E-06-1.16378E-18-2.19981E-18
 -1      2657 3.89125E-05-2.24965E-05-6.49746E-06 2.72799E-05-1.88306E-18-3.30216E-18
 -1      2658 1.00590E-04-5.31652E-05-2.00039E-05-3.67506E-05-3.82224E-19 3.19641E-18
 -1      2659 1.29853E-04-5.89723E-05-3.02152E-05-1.98609E-05-1.11830E-18 2.67779E-18
 -1      2660 1.42386E-04-5.00252E-05-3.95808E-05-1.20297E-06-1.10206E-18 3.22360E-18
 -1      2661 1.42514E-04-2.30223E-05-5.13689E-05-8.54003E-06-3.74558E-18 2.07989E-18
 -1      2662 1.45050E-04-4.18626E-05-4.42763E-05-3.52555E-06-2.35221E-18 2.74079E-18
 -1      2663 6.14686E-05-3.53513E-05-1.07245E-05-3.87588E-05-2.02123E-18-3.10332E-18
 -1      2664 1.27101E-04-5.84668E-05-2.91597E-05-2.14643E-05-2.53729E-18 4.12187E-19
 -1      2665 1.42513E-04-4.76087E-05-4.08169E-05 5.00205E-07-7.39354E-19 1.08674E-18
 -1      2666 1.43653E-04-2.56252E-05-5.07926E-05-8.87504E-06 3.52366E-19-1.32603E-18
 -1      2667 7.82196E-05-4.31263E-05-1.45787E-05 3.98690E-05 1.05985E-18-3.42837E-19
 -1      2668 9.53366E-05-5.11217E-05-1.85705E-05-3.84473E-05-2.80897E-18-1.75185E-18
 -1      2669 9.54072E-05-2.80008E-05-2.88855E-05 1.24290E-06 3.18920E-19 1.10498E-18
 -1      2670 9.56029E-05-2.81276E-05-2.89221E-05-1.43304E-06-1.16869E-18 4.89210E-19
 -1      2671 9.05938E-05-1.51116E-05-3.23718E-05 3.16523E-06 1.16186E-18-1.80491E-18
 -1      2672 9.04039E-05-1.48364E-05-3.24066E-05 2.23817E-06 9.57960E-19-1.87727E-18
 -1      2673 9.02690E-05-1.46294E-05-3.24370E-05 1.40876E-06 8.16403E-19-2.04800E-18
 -1      2674 9.02038E-05-1.45355E-05-3.24487E-05 4.60069E-07 6.30386E-19-2.09648E-18
 -1      2675 9.14441E-05-1.65051E-05-3.21033E-05 1.61874E-06 8.18014E-19-1.84811E-18
 -1      2676 9.21675E-05-1.75153E-05-3.20314E-05 6.42888E-06 1.95670E-18-1.14593E-18
 -1      2677 9.16473E-05-1.67157E-05-3.21363E-05 5.59068E-06 1.79427E-18-1.31650E-18
 -1      2678 9.35704E-05-1.97507E-05-3.16791E-05 7.55601E-06 2.10124E-18-6.87840E-19
 -1      2679 9.27909E-05-1.84937E-05-3.18591E-05 6.97562E-06 2.01386E-18-9.61376E-19
 -1      2680 9.34554E-05-1.98234E-05-3.15338E-05 5.67986E-06 1.89843E-18-8.81232E-19
 -1      2681 9.52066E-05-2.53791E-05-2.99377E-05 3.92780E-06 1.52759E-18 1.90616E-19
 -1      2682 9.55369E-05-2.45343E-05-3.03972E-05 5.57192E-06 1.70105E-18 2.77186E-19
 -1      2683 1.17570E-04-5.79648E-05-2.58869E-05 2.68480E-05-1.13767E-18-1.64729E-18
 -1      2684 1.01788E-04-5.18602E-05-2.08740E-05 3.38837E-05-1.16382E-18-2.14465E-18
 -1      2685 9.53549E-05-2.58533E-05-2.97619E-05-2.62095E-06-9.24474E-19-1.41884E-18
 -1      2686 9.52085E-05-2.64302E-05-2.94858E-05-1.61347E-06-9.09332E-19-1.45203E-18
 -1      2687 9.52341E-05-2.69347E-05-2.92484E-05-8.41941E-07-8.56699E-19-1.29949E-18
 -1      2688 9.51153E-05-2.72778E-05-2.90781E-05-2.01652E-07-8.08195E-19-1.37533E-18
 -1      2689 9.54336E-05-2.62550E-05-2.96562E-05-1.48094E-06-8.90053E-19-1.41798E-18
 -1      2690 9.50874E-05-2.75670E-05-2.89217E-05 3.07749E-07-7.34314E-19-1.31947E-18
 -1      2691 9.50301E-05-2.77765E-05-2.88242E-05 7.07332E-07-6.79900E-19-1.29068E-18
 -1      2692 9.54398E-05-2.72059E-05-2.92510E-05-1.26266E-07-7.95382E-19-1.37532E-18
 -1      2693 9.49942E-05-2.79391E-05-2.87283E-05 1.03672E-06-6.47324E-19-1.11995E-18
 -1      2694 9.49948E-05-2.80673E-05-2.86821E-05 1.28723E-06-6.01090E-19-1.17086E-18
 -1      2695 9.53891E-05-2.77707E-05-2.89866E-05 7.69680E-07-6.21355E-19-1.21744E-18
 -1      2696 9.49679E-05-2.81502E-05-2.86309E-05 1.50321E-06-6.37115E-19-9.81994E-19
 -1      2697 9.50148E-05-2.82248E-05-2.86214E-05 1.66897E-06-5.92438E-19-1.02777E-18
 -1      2698 9.53380E-05-2.80871E-05-2.88279E-05 1.35866E-06-6.09626E-19-9.05521E-19
 -1      2699 9.50007E-05-2.82538E-05-2.86036E-05 1.82335E-06-4.32961E-19-9.37474E-19
 -1      2700 9.50837E-05-2.82910E-05-2.86213E-05 1.95073E-06-2.92821E-19-7.32775E-19
 -1      2701 9.53058E-05-2.82380E-05-2.87481E-05 1.76166E-06-3.80880E-19-6.45766E-19
 -1      2702 9.50817E-05-2.82815E-05-2.86288E-05 2.08321E-06-1.20884E-19-5.20845E-19
 -1      2703 9.51944E-05-2.82916E-05-2.86673E-05 2.20637E-06-8.07284E-20-2.04077E-19
 -1      2704 9.52956E-05-2.82726E-05-2.87279E-05 2.07352E-06-5.43150E-20-2.07844E-19
 -1      2705 9.52028E-05-2.82535E-05-2.86943E-05 2.34729E-06-3.40674E-19-5.15126E-20
 -1      2706 9.53426E-05-2.82446E-05-2.87499E-05 2.49173E-06-7.35423E-20-9.61425E-20
 -1      2707 9.53058E-05-2.82219E-05-2.87532E-05 2.36699E-06-4.41426E-20-9.69533E-20
 -1      2708 9.53603E-05-2.81852E-05-2.87923E-05 2.66427E-06 1.50696E-19 3.65010E-20
 -1      2709 9.55280E-05-2.81646E-05-2.88626E-05 2.84893E-06 7.89956E-20-3.27808E-20
 -1      2710 9.53338E-05-2.81079E-05-2.88134E-05 2.69762E-06-1.72951E-19-5.67432E-20
 -1      2711 9.55548E-05-2.80907E-05-2.89170E-05 3.07045E-06-1.41781E-19-3.26424E-19
 -1      2712 9.57544E-05-2.80666E-05-2.90005E-05 3.30853E-06-5.80958E-20-5.72778E-19
 -1      2713 9.53790E-05-2.79483E-05-2.89007E-05 3.10742E-06-1.66203E-19-5.39244E-19
 -1      2714 9.57922E-05-2.79867E-05-2.90640E-05 3.59102E-06-1.19575E-19-8.11103E-19
 -1      2715 9.60305E-05-2.79702E-05-2.91592E-05 3.88963E-06-4.43811E-19-9.15199E-19
 -1      2716 9.54435E-05-2.77618E-05-2.90080E-05 3.62675E-06-2.90478E-19-6.67393E-19
 -1      2717 9.60850E-05-2.78966E-05-2.92283E-05 4.23926E-06-4.57830E-19-6.65011E-19
 -1      2718 9.63725E-05-2.79042E-05-2.93332E-05 4.59783E-06-6.57613E-19-4.29357E-19
 -1      2719 9.55349E-05-2.75732E-05-2.91279E-05 4.27448E-06-2.70906E-19-6.02332E-19
 -1      2720 9.64554E-05-2.78572E-05-2.94036E-05 5.01337E-06-1.13107E-18-1.41516E-19
 -1      2721 9.68079E-05-2.79144E-05-2.95151E-05 5.42051E-06-1.11253E-18-4.14001E-20
 -1      2722 9.56706E-05-2.74202E-05-2.92518E-05 5.05636E-06-7.84662E-19-4.64698E-19
 -1      2723 9.69424E-05-2.79269E-05-2.95812E-05 5.89055E-06-7.67718E-19-7.12160E-20
 -1      2724 9.73839E-05-2.80731E-05-2.96941E-05 6.31918E-06-5.66609E-19 1.06326E-20
 -1      2725 9.58847E-05-2.73633E-05-2.93690E-05 5.96126E-06-9.66043E-19 1.50716E-19
 -1      2726 9.76118E-05-2.81974E-05-2.97492E-05 6.81744E-06-4.11229E-19 1.71178E-19
 -1      2727 9.81794E-05-2.84912E-05-2.98570E-05 7.21785E-06-3.01194E-19 3.49935E-19
 -1      2728 9.62399E-05-2.74978E-05-2.94660E-05 6.95482E-06-5.29093E-19 6.41336E-19
 -1      2729 9.85721E-05-2.88056E-05-2.98944E-05 7.69579E-06-3.53497E-19 5.47789E-19
 -1      2730 9.93207E-05-2.93284E-05-2.99901E-05 7.98661E-06-1.24849E-19 7.81524E-19
 -1      2731 9.68463E-05-2.79694E-05-2.95287E-05 7.96939E-06-1.09832E-19 6.79845E-19
 -1      2732 9.99914E-05-2.99401E-05-3.00068E-05 8.36123E-06 8.62863E-20 9.72802E-19
 -1      2733 1.00995E-04-3.07900E-05-3.00868E-05 8.41932E-06 3.90784E-19 1.11047E-18
 -1      2734 9.78839E-05-2.89853E-05-2.95472E-05 8.88700E-06 1.42461E-21 9.35629E-19
 -1      2735 1.02105E-04-3.18229E-05-3.00906E-05 8.55328E-06 3.38008E-19 1.44031E-18
 -1      2736 1.03441E-04-3.30840E-05-3.01621E-05 8.20560E-06 6.94187E-19 8.95152E-19
 -1      2737 9.96232E-05-3.08075E-05-2.95266E-05 9.50998E-06 4.97333E-19 7.81197E-19
 -1      2738 1.05181E-04-3.46306E-05-3.01845E-05 7.87800E-06 1.28915E-18 9.18711E-19
 -1      2739 1.06878E-04-3.62895E-05-3.02784E-05 6.90799E-06 1.36932E-18 5.01680E-19
 -1      2740 1.02420E-04-3.36945E-05-2.95084E-05 9.51077E-06 8.17213E-19 6.65320E-19
 -1      2741 1.09385E-04-3.82879E-05-3.03965E-05 5.77825E-06 1.52622E-18 7.14891E-19
 -1      2742 1.11290E-04-4.00439E-05-3.05821E-05 3.97421E-06 1.45647E-18 7.92929E-19
 -1      2743 1.06628E-04-3.77246E-05-2.96066E-05 8.35850E-06 1.43947E-18 5.72005E-19
 -1      2744 1.14409E-04-4.20295E-05-3.09395E-05 1.67625E-06 9.29935E-19 8.28026E-19
 -1      2745 1.16085E-04-4.31383E-05-3.13314E-05-9.71707E-07 5.20862E-19 5.83488E-19
 -1      2746 1.12292E-04-4.23428E-05-3.00606E-05 5.28588E-06 1.26771E-18 1.43800E-18
 -1      2747 1.18976E-04-4.39401E-05-3.21363E-05-4.54537E-06 3.07989E-19 6.32277E-19
 -1      2748 1.19570E-04-4.31278E-05-3.28446E-05-7.41398E-06-3.86426E-19 7.70596E-19
 -1      2749 1.18490E-04-4.57184E-05-3.12724E-05-4.76927E-07 4.70110E-19 1.60228E-18
 -1      2750 1.21064E-04-4.13501E-05-3.42352E-05-1.14709E-05-1.20233E-18 7.67521E-19
 -1      2751 1.19712E-04-3.74269E-05-3.52985E-05-1.31868E-05-1.63776E-18 2.93982E-19
 -1      2752 1.23275E-04-4.48833E-05-3.37256E-05-8.19518E-06-1.05314E-18 1.42713E-18
 -1      2753 1.18352E-04-3.24360E-05-3.71172E-05-1.45535E-05-1.67570E-18-2.81109E-19
 -1      2754 1.15887E-04-2.68232E-05-3.82046E-05-1.31949E-05-1.42431E-18-8.23144E-19
 -1      2755 1.23128E-04-3.64603E-05-3.72392E-05-1.40314E-05-1.91329E-18 4.48080E-19
 -1      2756 1.13310E-04-2.16137E-05-3.96607E-05-9.35377E-06-1.18603E-18-1.62891E-18
 -1      2757 1.11754E-04-1.84347E-05-4.02079E-05-4.68783E-06-1.56256E-18-2.17690E-18
 -1      2758 1.18760E-04-2.32300E-05-4.11407E-05-1.25969E-05-1.78343E-18-1.17618E-18
 -1      2759 1.11573E-04-1.78712E-05-4.03363E-05 2.53530E-06-1.42100E-18-2.57174E-18
 -1      2760 1.12740E-04-2.02480E-05-3.99314E-05 7.63026E-06-1.56426E-18-2.09812E-18
 -1      2761 1.15449E-04-1.59061E-05-4.28867E-05-1.15296E-06-1.83753E-18-1.51672E-18
 -1      2762 1.14987E-04-2.48957E-05-3.86605E-05 1.21828E-05-1.29707E-18-2.00775E-18
 -1      2763 1.17459E-04-3.03838E-05-3.76288E-05 1.43237E-05-5.55733E-19-1.59600E-18
 -1      2764 1.17997E-04-2.16006E-05-4.15633E-05 1.07896E-05-1.48083E-18-1.72496E-18
 -1      2765 1.19330E-04-3.58096E-05-3.58129E-05 1.36420E-05-6.22225E-19-1.29737E-18
 -1      2766 1.20764E-04-4.01179E-05-3.47243E-05 1.23285E-05-1.99489E-19-1.24161E-18
 -1      2767 1.22688E-04-3.45987E-05-3.78608E-05 1.44775E-05-2.09535E-19-1.39366E-18
 -1      2768 1.19964E-04-4.25839E-05-3.32165E-05 8.71142E-06-6.89144E-19-1.00713E-18
 -1      2769 1.19625E-04-4.39399E-05-3.24355E-05 5.79706E-06-7.06363E-19-1.15405E-18
 -1      2770 1.23477E-04-4.37920E-05-3.42069E-05 9.54050E-06-9.89970E-21-9.59291E-19
 -1      2771 1.16864E-04-4.34357E-05-3.15405E-05 2.08037E-06-4.74474E-19-1.21775E-18
 -1      2772 1.15323E-04-4.26029E-05-3.11011E-05-7.12692E-07-6.18499E-20-1.77401E-18
 -1      2773 1.19580E-04-4.59738E-05-3.15839E-05 1.62344E-06-6.93945E-19 4.55717E-19
 -1      2774 1.12155E-04-4.06940E-05-3.06826E-05-3.24737E-06 5.21109E-19-1.23112E-18
 -1      2775 1.10234E-04-3.89718E-05-3.04699E-05-5.20786E-06 4.70347E-19-7.07703E-20
 -1      2776 1.13406E-04-4.30849E-05-3.02129E-05-4.49369E-06 2.34959E-19 2.94117E-19
 -1      2777 1.07605E-04-3.69228E-05-3.03220E-05-6.50459E-06 6.33106E-19 6.30746E-19
 -1      2778 1.05851E-04-3.52132E-05-3.02189E-05-7.60343E-06 7.92298E-19 1.75728E-18
 -1      2779 1.07534E-04-3.84823E-05-2.96623E-05-7.95969E-06 1.02545E-18 9.69773E-19
 -1      2780 1.03984E-04-3.35700E-05-3.01882E-05-8.03851E-06-2.47757E-19 1.19803E-18
 -1      2781 1.02584E-04-3.22295E-05-3.01180E-05-8.46977E-06 2.84314E-20 4.55284E-19
 -1      2782 1.03062E-04-3.42876E-05-2.95243E-05-9.37489E-06 7.01759E-20 7.97687E-19
 -1      2783 1.01378E-04-3.11047E-05-3.01172E-05-8.38842E-06-4.89360E-20 2.00218E-19
 -1      2784 1.00325E-04-3.01824E-05-3.00431E-05-8.37381E-06-1.75259E-21-1.12369E-18
 -1      2785 1.00039E-04-3.11893E-05-2.95381E-05-9.51309E-06-7.43344E-19 1.39236E-18
 -1      2786 9.95901E-05-2.94986E-05-3.00336E-05-8.01511E-06 8.81724E-19-2.29577E-18
 -1      2787 9.88101E-05-2.89197E-05-2.99451E-05-7.73571E-06 9.16297E-19-2.07424E-18
 -1      2788 9.81410E-05-2.91859E-05-2.95699E-05-8.94302E-06-3.24943E-19-2.12349E-19
 -1      2789 9.83775E-05-2.85530E-05-2.99163E-05-7.24813E-06 8.15548E-19-2.44906E-18
 -1      2790 9.77935E-05-2.82183E-05-2.98161E-05-6.83450E-06 5.68013E-19-2.45601E-18
 -1      2791 9.70038E-05-2.80329E-05-2.95682E-05-8.02119E-06 5.80961E-19-2.53958E-18
 -1      2792 9.75422E-05-2.80563E-05-2.97699E-05-6.30755E-06 7.46699E-19-1.81620E-18
 -1      2793 9.70957E-05-2.78803E-05-2.96651E-05-5.84621E-06 6.26387E-19-1.09521E-18
 -1      2794 9.63388E-05-2.74609E-05-2.95236E-05-6.96143E-06 6.09761E-19-2.37953E-18
 -1      2795 9.69473E-05-2.78387E-05-2.96080E-05-5.33193E-06 2.64233E-19-3.76047E-19
 -1      2796 9.65987E-05-2.77583E-05-2.95058E-05-4.87568E-06 3.65319E-20-3.24133E-19
 -1      2797 9.59504E-05-2.72506E-05-2.94450E-05-5.89027E-06 9.82967E-19-2.18972E-18
 -1      2798 9.65062E-05-2.77797E-05-2.94448E-05-4.40213E-06 4.18457E-19 4.17701E-19
 -1      2799 9.62293E-05-2.77517E-05-2.93506E-05-3.97954E-06 2.23557E-18 1.25549E-18
 -1      2800 9.57167E-05-2.72447E-05-2.93464E-05-4.87976E-06 1.15353E-18-9.03997E-19
 -1      2801 9.61650E-05-2.77987E-05-2.92913E-05-3.55863E-06 2.70126E-18 1.14480E-18
 -1      2802 9.59419E-05-2.77949E-05-2.92087E-05-3.18122E-06 2.38492E-18 1.06177E-18
 -1      2803 9.55651E-05-2.73377E-05-2.92412E-05-3.96648E-06 2.22793E-18 6.51555E-19
 -1      2804 9.58914E-05-2.78453E-05-2.91551E-05-2.81485E-06 1.75679E-18 9.39992E-19
 -1      2805 9.57096E-05-2.78482E-05-2.90857E-05-2.48413E-06 8.23686E-19 4.88675E-19
 -1      2806 9.54546E-05-2.74640E-05-2.91399E-05-3.16161E-06 1.25399E-18-3.41522E-19
 -1      2807 9.56611E-05-2.78875E-05-2.90399E-05-2.16855E-06-3.19440E-19-2.03972E-19
 -1      2808 9.55133E-05-2.78847E-05-2.89841E-05-1.87924E-06-1.31751E-18-7.98361E-19
 -1      2809 9.53596E-05-2.75815E-05-2.90497E-05-2.46384E-06-1.34439E-19-1.02140E-18
 -1      2810 5.20065E-05-2.66472E-05-1.07268E-05 3.34980E-05 9.40312E-19-1.01220E-18
 -1      2811 3.89673E-05-1.94655E-05-7.73836E-06 2.39313E-05 5.81276E-19-2.44073E-18
 -1      2812 1.23035E-04-5.91741E-05-2.75460E-05 2.38577E-05 5.50571E-19 7.58359E-19
 -1      2813 1.08477E-04-5.46881E-05-2.28370E-05 3.11243E-05 1.02036E-18 8.37649E-19
 -1      2814 9.46172E-05-2.77737E-05-2.86465E-05-6.61956E-07 7.11226E-19 2.51659E-20
 -1      2815 9.46811E-05-2.75952E-05-2.87329E-05-2.76715E-07 7.99980E-19-1.56066E-20
 -1      2816 9.47936E-05-2.82698E-05-2.85056E-05-1.83240E-06 1.65928E-19 1.87379E-20
 -1      2817 9.46690E-05-2.82180E-05-2.84764E-05-1.72417E-06 2.60689E-19-2.31471E-19
 -1      2818 9.49923E-05-2.83112E-05-2.85721E-05-2.05182E-06 3.21825E-19 1.21182E-19
 -1      2819 9.48317E-05-2.82780E-05-2.85227E-05-1.95010E-06 3.13030E-19 2.78967E-19
 -1      2820 9.50858E-05-2.82905E-05-2.86309E-05-1.99365E-06 4.07181E-20-2.26213E-19
 -1      2821 9.52443E-05-2.83206E-05-2.86750E-05-2.29409E-06 3.66101E-19 1.23091E-19
 -1      2822 9.50508E-05-2.82995E-05-2.86088E-05-2.17449E-06 2.74320E-19 6.36495E-20
 -1      2823 9.51856E-05-2.82858E-05-2.86749E-05-2.25595E-06 4.69844E-19-8.90338E-20
 -1      2824 9.55494E-05-2.83103E-05-2.88090E-05-2.59999E-06 3.29774E-19 2.64091E-19
 -1      2825 9.53214E-05-2.82950E-05-2.87277E-05-2.44457E-06 4.46220E-19 3.00655E-19
 -1      2826 9.53221E-05-2.82342E-05-2.87550E-05-2.54864E-06 4.19621E-19 1.33104E-20
 -1      2827 9.59133E-05-2.82932E-05-2.89711E-05-2.99878E-06 3.38102E-19 3.01616E-19
 -1      2828 9.56457E-05-2.82766E-05-2.88753E-05-2.79514E-06 4.35914E-19 3.06340E-19
 -1      2829 9.54948E-05-2.81512E-05-2.88643E-05-2.91348E-06 4.61041E-19 8.24732E-20
 -1      2830 9.63473E-05-2.82862E-05-2.91591E-05-3.50833E-06 2.74749E-19 5.51146E-19
 -1      2831 9.60319E-05-2.82585E-05-2.90488E-05-3.24992E-06 2.50713E-19 5.27218E-19
 -1      2832 9.57080E-05-2.80532E-05-2.89975E-05-3.38002E-06 1.31906E-19 4.07379E-19
 -1      2833 9.68690E-05-2.83134E-05-2.93702E-05-4.13281E-06 2.43483E-19 6.49741E-20
 -1      2834 9.64947E-05-2.82609E-05-2.92461E-05-3.82062E-06 4.12731E-19 6.51743E-19
 -1      2835 9.59716E-05-2.79617E-05-2.91498E-05-3.96567E-06 4.21663E-19 3.19085E-19
 -1      2836 9.75036E-05-2.84116E-05-2.95999E-05-4.85764E-06 2.26358E-19-2.99967E-19
 -1      2837 9.70566E-05-2.83141E-05-2.94637E-05-4.50336E-06 2.35173E-19 8.63193E-20
 -1      2838 9.63039E-05-2.79090E-05-2.93152E-05-4.67334E-06 2.61505E-19 2.04779E-19
 -1      2839 9.82889E-05-2.86375E-05-2.98405E-05-5.64101E-06 6.02477E-19 3.53284E-19
 -1      2840 9.77516E-05-2.84645E-05-2.96958E-05-5.27212E-06 2.19964E-19 3.59850E-20
 -1      2841 9.67362E-05-2.79455E-05-2.94858E-05-5.48661E-06 1.78933E-19 1.49796E-19
 -1      2842 9.92809E-05-2.90751E-05-3.00805E-05-6.40145E-06 5.87563E-20 6.63034E-19
 -1      2843 9.86306E-05-2.87835E-05-2.99333E-05-6.06824E-06 7.26587E-19 6.13758E-19
 -1      2844 9.73214E-05-2.81494E-05-2.96511E-05-6.36159E-06 4.57151E-19 5.28493E-19
 -1      2845 1.00563E-04-2.98426E-05-3.03058E-05-7.00150E-06-5.53282E-19 5.43812E-19
 -1      2846 9.97708E-05-2.93744E-05-3.01641E-05-6.78554E-06-3.50638E-19 4.75047E-19
 -1      2847 9.81460E-05-2.86375E-05-2.97991E-05-7.21486E-06-2.28810E-19 6.18552E-19
 -1      2848 1.02248E-04-3.10858E-05-3.05037E-05-7.22911E-06-2.40030E-19 2.76351E-19
 -1      2849 1.01283E-04-3.03753E-05-3.03755E-05-7.25093E-06-6.78832E-19 1.11979E-19
 -1      2850 9.93446E-05-2.95713E-05-2.99192E-05-7.90610E-06-4.04709E-19 1.45175E-19
 -1      2851 1.04468E-04-3.29411E-05-3.06733E-05-6.78313E-06 2.56024E-19 4.94936E-19
 -1      2852 1.03308E-04-3.19403E-05-3.05619E-05-7.20317E-06 2.79464E-19 3.65297E-19
 -1      2853 1.01109E-04-3.11465E-05-3.00105E-05-8.21468E-06-4.07070E-19 5.35167E-20
 -1      2854 1.07312E-04-3.54303E-05-3.08433E-05-5.27710E-06 1.82691E-19 6.32895E-19
 -1      2855 1.05985E-04-3.41738E-05-3.07383E-05-6.27829E-06 2.05943E-19 5.68357E-19
 -1      2856 1.03669E-04-3.35364E-05-3.00974E-05-7.81115E-06 4.52923E-19 1.46569E-19
 -1      2857 1.10669E-04-3.82450E-05-3.10971E-05-2.31937E-06-2.57561E-19 5.14227E-19
 -1      2858 1.09329E-04-3.69662E-05-3.09633E-05-4.03730E-06 1.27406E-19 6.16384E-19
 -1      2859 1.07205E-04-3.67319E-05-3.02548E-05-6.23635E-06 2.22338E-19 5.69956E-19
 -1      2860 1.14010E-04-4.04518E-05-3.15919E-05 2.26125E-06-1.14366E-18-9.98622E-20
 -1      2861 1.13010E-04-3.97219E-05-3.13646E-05-1.12701E-07-7.28844E-19 6.80038E-19
 -1      2862 1.11618E-04-4.02502E-05-3.06393E-05-2.97114E-06-5.56909E-19 9.59321E-19
 -1      2863 1.16185E-04-4.03721E-05-3.25178E-05 7.79466E-06-1.39428E-18 5.49920E-19
 -1      2864 1.16004E-04-4.10273E-05-3.21277E-05 5.33157E-06-1.40031E-18 3.15520E-20
 -1      2865 1.16084E-04-4.26953E-05-3.15062E-05 2.37938E-06-1.28046E-18 7.67504E-19
 -1      2866 1.15774E-04-3.63560E-05-3.40144E-05 1.23805E-05-2.41074E-19 1.15193E-19
 -1      2867 1.16877E-04-3.91239E-05-3.34156E-05 1.08945E-05-7.91059E-19 4.12685E-19
 -1      2868 1.19024E-04-4.17181E-05-3.31170E-05 9.06700E-06-1.17120E-18 3.62497E-19
 -1      2869 1.12404E-04-2.87473E-05-3.58118E-05 1.24491E-05 5.53258E-19-2.93450E-19
 -1      2870 1.14375E-04-3.27629E-05-3.51734E-05 1.34632E-05 2.54871E-19 5.09692E-20
 -1      2871 1.18521E-04-3.57670E-05-3.54328E-05 1.36427E-05 1.12404E-19 5.68525E-19
 -1      2872 1.08673E-04-2.19225E-05-3.71916E-05 5.88092E-06 3.67321E-19 3.00912E-19
 -1      2873 1.10093E-04-2.46835E-05-3.68087E-05 9.69429E-06 7.23075E-19 1.47516E-19
 -1      2874 1.14510E-04-2.62075E-05-3.79459E-05 1.23161E-05 6.57509E-20 4.10162E-19
 -1      2875 1.08295E-04-2.14771E-05-3.73675E-05-4.45681E-06 1.25255E-18-9.87578E-19
 -1      2876 1.07914E-04-2.07146E-05-3.74631E-05 1.81374E-07 7.89607E-19-9.76205E-20
 -1      2877 1.11131E-04-1.94254E-05-3.94844E-05 3.41508E-06 5.95729E-19 4.88367E-19
 -1      2878 1.11844E-04-2.78671E-05-3.62143E-05-1.21121E-05 1.49317E-18-4.73184E-19
 -1      2879 1.09955E-04-2.41900E-05-3.67553E-05-9.33745E-06 1.32825E-18-5.67843E-19
 -1      2880 1.12099E-04-2.15345E-05-3.89655E-05-7.80972E-06 1.26848E-18-5.02502E-19
 -1      2881 1.15786E-04-3.58403E-05-3.44165E-05-1.29902E-05 2.13743E-21-6.80203E-19
 -1      2882 1.14051E-04-3.21389E-05-3.50673E-05-1.31736E-05 1.24673E-18-4.34292E-19
 -1      2883 1.16382E-04-3.01816E-05-3.69813E-05-1.37773E-05 1.42823E-18-4.74669E-19
 -1      2884 1.16897E-04-4.04273E-05-3.28138E-05-8.74224E-06-1.06554E-19-3.47595E-19
 -1      2885 1.16302E-04-3.85494E-05-3.33294E-05-1.08528E-05-5.17269E-19-6.87007E-19
 -1      2886 1.19182E-04-3.88470E-05-3.43938E-05-1.20091E-05-4.50185E-20-1.12279E-18
 -1      2887 1.14960E-04-4.08056E-05-3.17518E-05-2.94537E-06 1.22597E-18-1.44661E-19
 -1      2888 1.15522E-04-4.08116E-05-3.20698E-05-5.51613E-06 6.92985E-19-2.32726E-19
 -1      2889 1.18177E-04-4.27201E-05-3.23223E-05-6.01456E-06-9.00556E-20-1.38191E-18
 -1      2890 1.11499E-04-3.86565E-05-3.11682E-05 1.94593E-06 1.35795E-18-2.09818E-19
 -1      2891 1.12704E-04-3.97065E-05-3.13453E-05-1.94929E-07 1.45316E-18 3.14322E-20
 -1      2892 1.14345E-04-4.19157E-05-3.10627E-05 1.28620E-07 7.97733E-19-1.61761E-18
 -1      2893 1.07883E-04-3.57611E-05-3.08651E-05 5.13563E-06 2.37204E-20 5.63641E-21
 -1      2894 1.09252E-04-3.70793E-05-3.09789E-05 3.72211E-06 1.03472E-18 3.91408E-19
 -1      2895 1.09725E-04-3.87991E-05-3.04429E-05 4.55204E-06 9.57482E-19-6.48217E-19
 -1      2896 1.04807E-04-3.31573E-05-3.06748E-05 6.76306E-06 3.24008E-19-9.53926E-19
 -1      2897 1.06072E-04-3.43239E-05-3.07778E-05 6.02867E-06 1.46787E-19-4.38622E-19
 -1      2898 1.05630E-04-3.53055E-05-3.01825E-05 7.04081E-06 4.23232E-19-7.56377E-19
 -1      2899 1.02419E-04-3.11968E-05-3.05040E-05 7.25351E-06-1.94092E-19 5.31598E-20
 -1      2900 1.03493E-04-3.20782E-05-3.06190E-05 7.03009E-06 1.09778E-19-4.31658E-19
 -1      2901 1.02511E-04-3.24168E-05-3.00724E-05 8.04811E-06 1.89369E-20-2.13995E-18
 -1      2902 1.00636E-04-2.98750E-05-3.03156E-05 7.02067E-06-4.99163E-19 1.02156E-18
 -1      2903 1.01517E-04-3.04809E-05-3.04458E-05 7.13023E-06-4.41521E-19 1.17447E-18
 -1      2904 1.00312E-04-3.03702E-05-2.99959E-05 8.08175E-06-1.26767E-18-1.42194E-18
 -1      2905 9.93103E-05-2.90532E-05-3.01056E-05 6.38399E-06-1.07858E-18-4.91264E-19
 -1      2906 1.00026E-04-2.94443E-05-3.02447E-05 6.68246E-06-3.88389E-19 1.04888E-18
 -1      2907 9.88158E-05-2.90737E-05-2.99025E-05 7.54549E-06-6.46962E-19-1.28076E-18
 -1      2908 9.83117E-05-2.85783E-05-2.98845E-05 5.56272E-06-1.65461E-18 5.60123E-19
 -1      2909 9.88940E-05-2.88191E-05-3.00237E-05 5.94767E-06-1.82669E-18-6.03656E-19
 -1      2910 9.78016E-05-2.83316E-05-2.97810E-05 6.71781E-06-1.62219E-18-8.60529E-19
 -1      2911 9.75452E-05-2.83252E-05-2.96661E-05 4.69603E-06-5.73686E-19 5.13576E-20
 -1      2912 9.80192E-05-2.84680E-05-2.97976E-05 5.10163E-06-9.21702E-19 6.59715E-19
 -1      2913 9.71012E-05-2.79580E-05-2.96383E-05 5.77930E-06-1.69390E-18-9.58044E-19
 -1      2914 9.69460E-05-2.82036E-05-2.94621E-05 3.86435E-06 4.31816E-19-6.24698E-19
 -1      2915 9.73314E-05-2.82863E-05-2.95805E-05 4.25277E-06 4.97388E-20-3.46610E-19
 -1      2916 9.66016E-05-2.78088E-05-2.94866E-05 4.84058E-06 1.83000E-19 1.24625E-19
 -1      2917 9.64708E-05-2.81521E-05-2.92805E-05 3.10732E-06-1.45969E-19-2.16059E-19
 -1      2918 9.67831E-05-2.82009E-05-2.93827E-05 3.46053E-06 5.25493E-20-7.19730E-19
 -1      2919 9.62306E-05-2.77829E-05-2.93380E-05 3.96333E-06-4.34264E-19-6.89895E-19
 -1      2920 9.60893E-05-2.81301E-05-2.91259E-05 2.43740E-06 8.19154E-19 1.15130E-18
 -1      2921 9.63409E-05-2.81626E-05-2.92108E-05 2.75036E-06 7.36192E-19 5.44455E-19
 -1      2922 9.59431E-05-2.78129E-05-2.92014E-05 3.17580E-06-4.40313E-19-1.14679E-18
 -1      2923 9.57821E-05-2.81125E-05-2.89993E-05 1.85020E-06 6.77089E-19 1.79910E-18
 -1      2924 9.59804E-05-2.81400E-05-2.90672E-05 2.12372E-06 6.50894E-19 1.37017E-18
 -1      2925 9.57074E-05-2.78541E-05-2.90824E-05 2.48450E-06 6.52633E-19-9.62524E-19
 -1      2926 9.55076E-05-2.80414E-05-2.89111E-05 1.41552E-06 1.08983E-18 9.44342E-19
 -1      2927 9.56626E-05-2.80649E-05-2.89640E-05 1.66557E-06 6.91127E-19 1.54695E-18
 -1      2928 9.54763E-05-2.78370E-05-2.89943E-05 1.96211E-06 7.47946E-19-1.66717E-18
 -1      2929 9.52753E-05-2.77680E-05-2.89377E-05 1.57539E-06-2.16668E-19-1.90842E-18
 -1      2930 9.37601E-05-2.60885E-05-2.90062E-05 1.65125E-07 7.35350E-19-1.46434E-20
 -1      2931 9.37971E-05-2.61267E-05-2.90037E-05 4.43459E-07 5.41690E-19-2.14043E-19
 -1      2932 9.54875E-05-2.79061E-05-2.89583E-05-1.68981E-06-6.60970E-19 5.96841E-20
 -1      2933 9.54010E-05-2.79048E-05-2.89261E-05-1.50931E-06-2.51701E-19 3.92825E-19
 -1      2934 9.52868E-05-2.76631E-05-2.89841E-05-1.94564E-06-2.35185E-19-2.33798E-18
 -1      2935 9.41279E-05-2.64888E-05-2.89946E-05 1.23885E-06-1.02562E-18 2.36206E-19
 -1      2936 9.42912E-05-2.66579E-05-2.89835E-05 1.40886E-06-1.34255E-19-1.07578E-18
 -1      2937 9.37960E-05-2.61252E-05-2.90040E-05-4.43640E-07 4.14818E-19-7.55769E-19
 -1      2938 9.37597E-05-2.60877E-05-2.90063E-05-1.65155E-07 3.39467E-19-2.56729E-20
 -1      2939 9.35363E-05-2.59226E-05-2.89713E-05 5.88366E-10 7.38301E-19-5.65290E-20
 -1      2940 9.38749E-05-2.62142E-05-2.90031E-05 7.51902E-07-1.18648E-18 4.92248E-19
 -1      2941 9.39812E-05-2.63238E-05-2.89959E-05 9.92631E-07-1.10139E-18 1.38489E-18
 -1      2942 9.38849E-05-2.62691E-05-2.89734E-05 1.25535E-06-9.42876E-19-8.64149E-20
 -1      2943 9.36265E-05-2.60125E-05-2.89717E-05 6.71701E-07 1.31562E-19 8.88310E-19
 -1      2944 1.28099E-04-1.03395E-05-5.12226E-05-3.29071E-06 1.81900E-18 7.75565E-21
 -1      2945 1.32440E-04-1.43061E-05-5.11809E-05-8.56041E-06 1.31396E-18-2.63215E-19
 -1      2946 9.39746E-05-2.63156E-05-2.89967E-05-9.85732E-07 1.05134E-18-2.48319E-18
 -1      2947 9.38712E-05-2.62092E-05-2.90035E-05-7.47894E-07 4.46573E-19-6.21695E-19
 -1      2948 9.36228E-05-2.60075E-05-2.89722E-05-6.65914E-07 4.32742E-19-6.97010E-19
 -1      2949 9.42831E-05-2.66474E-05-2.89847E-05-1.40675E-06 2.24741E-18-1.77088E-18
 -1      2950 9.41201E-05-2.64787E-05-2.89956E-05-1.23462E-06 1.79465E-18-2.60586E-18
 -1      2951 9.38759E-05-2.62576E-05-2.89743E-05-1.24832E-06 1.27396E-18-1.53215E-18
 -1      2952 9.46809E-05-2.70848E-05-2.89684E-05-1.63397E-06 1.83990E-18 7.01414E-20
 -1      2953 9.44848E-05-2.68723E-05-2.89828E-05-1.56206E-06 2.19089E-18-1.25684E-18
 -1      2954 9.42697E-05-2.66497E-05-2.89767E-05-1.67435E-06 2.75558E-18-1.29880E-18
 -1      2955 9.47526E-05-2.73566E-05-2.88857E-05 2.45244E-07 1.04941E-18-1.73427E-19
 -1      2956 9.49169E-05-2.70706E-05-2.90494E-05 8.78790E-07 1.19531E-18 7.75420E-21
 -1      2957 9.51598E-05-2.72953E-05-2.90951E-05 1.90699E-07 9.39063E-19-1.47828E-19
 -1      2958 3.60100E-05-1.43571E-05-8.71377E-06-1.44797E-05 1.47463E-19-2.63194E-18
 -1      2959 4.54024E-05-2.12190E-05-9.92986E-06-2.81468E-05-6.10817E-19-2.26581E-18
 -1      2960 9.45122E-05-2.14688E-05-3.13355E-05-7.65262E-06-1.47409E-18-1.55196E-18
 -1      2961 9.49338E-05-2.31929E-05-3.07457E-05-5.94994E-06-1.35538E-18-1.43057E-18
 -1      2962 9.37504E-05-2.01075E-05-3.15631E-05-7.51548E-06-1.26742E-18-1.83461E-18
 -1      2963 9.46909E-05-2.18881E-05-3.12076E-05 7.81347E-06 2.01489E-18 1.30721E-19
 -1      2964 3.25622E-05-1.45300E-05-7.23920E-06 1.39132E-05-2.05353E-19-3.21195E-18
 -1      2965 3.11962E-05-1.19518E-05-7.81708E-06-1.94048E-08-1.53452E-19-2.78780E-18
 -1      2966 4.30723E-05-1.61785E-05-1.08864E-05 1.70242E-05 4.21293E-19-2.08211E-18
 -1      2967 9.46548E-05-2.81822E-05-2.84847E-05-1.58113E-06 2.36377E-19-3.52802E-19
 -1      2968 9.45754E-05-2.81037E-05-2.84819E-05-1.43329E-06 2.05426E-19-3.56007E-19
 -1      2969 9.50270E-05-2.82299E-05-2.86329E-05-1.70580E-06 1.76588E-19-4.04385E-19
 -1      2970 9.45898E-05-2.80281E-05-2.85241E-05-1.22449E-06 4.15072E-19-7.43666E-20
 -1      2971 9.45713E-05-2.79107E-05-2.85579E-05-9.91039E-07 6.75849E-19 1.12739E-19
 -1      2972 9.50168E-05-2.80776E-05-2.86954E-05-1.31794E-06 5.02942E-19-3.46990E-19
 -1      2973 9.52958E-05-2.42910E-05-3.04187E-05-4.88581E-06-1.19598E-18-1.35461E-18
 -1      2974 9.52025E-05-2.52162E-05-3.00067E-05-3.42486E-06-9.74985E-19-1.45092E-18
 -1      2975 9.52575E-05-2.48932E-05-3.01536E-05-3.16222E-06-1.04526E-18-1.47494E-18
 -1      2976 9.48760E-05-2.32156E-05-3.07176E-05-5.05049E-06-1.18026E-18-1.54857E-18
 -1      2977 4.85796E-05-2.34392E-05-1.05943E-05 3.04763E-05-2.90638E-18-4.30907E-18
 -1      2978 3.73317E-05-1.67807E-05-8.19131E-06 1.97193E-05-2.83841E-18-2.71262E-18
 -1      2979 8.90731E-05-4.55925E-05-1.85840E-05 3.69420E-05 1.42799E-18 9.10031E-20
 -1      2980 7.14552E-05-3.62549E-05-1.44256E-05 3.69279E-05 1.59570E-18-3.40507E-19
 -1      2981 8.28572E-05-4.36652E-05-1.69031E-05 3.91838E-05-1.67035E-18-2.37180E-18
 -1      2982 6.57782E-05-3.35045E-05-1.32096E-05 3.65379E-05-1.82430E-18-3.73033E-18
 -1      2983 9.49838E-05-2.66478E-05-2.92917E-05 1.69333E-06 1.25561E-18-8.55512E-21
 -1      2984 9.52399E-05-2.61560E-05-2.95705E-05 2.72081E-06 1.34992E-18 7.16421E-20
 -1      2985 9.52731E-05-2.49828E-05-3.01224E-05 3.75087E-06 1.57449E-18-2.43894E-19
 -1      2986 9.52677E-05-2.64437E-05-2.95035E-05 1.61845E-06 1.34329E-18-3.01476E-19
 -1      2987 6.17607E-05-3.15560E-05-1.24291E-05-3.56648E-05-1.47595E-19 2.99119E-18
 -1      2988 7.64671E-05-4.02438E-05-1.54404E-05-3.92680E-05-1.48337E-19 2.94736E-18
 -1      2989 9.12095E-05-1.60387E-05-3.22438E-05 4.87645E-06 1.67284E-18-1.41248E-18
 -1      2990 9.08687E-05-1.55350E-05-3.23079E-05 3.95858E-06 1.38669E-18-1.62601E-18
 -1      2991 9.18378E-05-1.71236E-05-3.20046E-05 3.15759E-06 1.11471E-18-1.58147E-18
 -1      2992 9.25063E-05-1.81997E-05-3.18254E-05 4.56276E-06 1.58076E-18-1.15513E-18
 -1      2993 1.37269E-04-5.13209E-05-3.69305E-05 2.26315E-07-1.01527E-18 2.60569E-19
 -1      2994 1.38915E-04-4.21492E-05-4.19487E-05 7.88276E-06 1.57230E-20 9.20513E-19
 -1      2995 1.37457E-04-3.61300E-05-4.36267E-05 1.15434E-05-3.27908E-19 9.52065E-19
 -1      2996 1.34656E-04-2.68589E-05-4.68820E-05 1.24885E-05-1.49914E-18-3.69730E-19
 -1      2997 1.37208E-04-3.53274E-05-4.39907E-05 1.17005E-05 2.67451E-19 1.22163E-18
 -1      2998 1.33321E-04-2.75394E-05-4.59151E-05 1.28249E-05 7.63918E-19 8.06164E-19
 -1      2999 1.33929E-04-4.08855E-05-4.01206E-05 1.09757E-05-8.49151E-20 1.06398E-18
 -1      3000 5.73147E-05-2.94728E-05-1.14449E-05-3.47509E-05-1.53609E-18-2.29281E-18
 -1      3001 7.25595E-05-3.83204E-05-1.45382E-05-3.91195E-05-2.34999E-18-2.17762E-18
 -1      3002 9.08320E-05-1.54854E-05-3.23134E-05-3.89614E-06-1.09308E-19-2.38975E-18
 -1      3003 9.11646E-05-1.59783E-05-3.22509E-05-4.81699E-06-3.85976E-19-2.28464E-18
 -1      3004 1.34747E-04-2.13881E-05-4.91432E-05-1.06137E-05 6.76568E-20-9.55877E-19
 -1      3005 1.35615E-04-3.05504E-05-4.54500E-05-1.23837E-05-7.59047E-19-1.59496E-18
 -1      3006 1.26306E-04-1.92849E-05-4.60401E-05-1.13811E-05-2.19593E-19-1.73636E-18
 -1      3007 1.20233E-04-5.79413E-05-2.63606E-05-2.38131E-05-2.58954E-18-1.89682E-19
 -1      3008 1.31629E-04-5.78954E-05-3.19396E-05-1.23631E-05-1.61577E-18-1.14032E-19
 -1      3009 3.10466E-05-1.33062E-05-7.09991E-06 9.72466E-06-2.89278E-18-2.61225E-18
 -1      3010 2.99996E-05-1.26228E-05-7.02045E-06-4.69497E-06-1.95159E-18-2.62580E-20
 -1      3011 4.18477E-05-1.47089E-05-1.09648E-05 1.37111E-05-3.25999E-18-2.46614E-18
 -1      3012 8.89128E-05-4.62749E-05-1.77730E-05-3.73248E-05-2.65651E-18-1.68464E-18
 -1      3013 1.03975E-04-5.35806E-05-2.18939E-05-3.42133E-05-2.72882E-18-1.93653E-19
 -1      3014 1.24558E-04-5.87957E-05-2.78937E-05-2.06754E-05-6.98008E-19 1.92912E-18
 -1      3015 1.32967E-04-5.83397E-05-3.24029E-05-1.20918E-05-7.44013E-19 1.59052E-18
 -1      3016 1.38938E-04-5.45891E-05-3.66341E-05 4.90086E-06-1.14728E-18 2.79637E-18
 -1      3017 1.32389E-04-5.81381E-05-3.17061E-05 1.34736E-05-5.79159E-20 1.60280E-18
 -1      3018 9.52266E-05-2.77068E-05-2.89366E-05-1.57138E-06-1.35332E-19-8.98166E-19
 -1      3019 1.39803E-04-3.79762E-05-4.42509E-05-9.43596E-06-2.57202E-18 2.62210E-18
 -1      3020 1.40683E-04-4.67552E-05-4.04003E-05-4.25614E-06-2.18651E-18 2.92946E-18
 -1      3021 3.65061E-05-1.58325E-05-8.23446E-06-1.76322E-05-3.88788E-19 2.10488E-18
 -1      3022 4.72588E-05-2.25474E-05-1.02614E-05-2.95320E-05-3.95141E-19 2.74439E-18
 -1      3023 1.21984E-04-1.20593E-05-4.77595E-05-3.14186E-06-2.75116E-18 1.26367E-19
 -1      3024 1.25691E-04-1.54530E-05-4.79067E-05-8.97871E-06-2.71749E-18 4.53851E-19
 -1      3025 1.31602E-04-1.80036E-05-4.91384E-05 1.12218E-05-1.86877E-18-1.91641E-20
 -1      3026 1.28660E-04-1.24148E-05-5.04184E-05 6.61307E-06-2.64211E-18-7.50154E-20
 -1      3027 1.28577E-04-2.38920E-05-4.53233E-05 1.29356E-05-1.43074E-18-4.98797E-19
 -1      3028 1.37677E-04-5.34156E-05-3.61129E-05-1.43490E-06-4.71711E-19 1.77580E-18
 -1      3029 1.38890E-04-4.67527E-05-4.01551E-05 5.52883E-06 8.51268E-20 2.44708E-18
 -1      3030 9.33482E-05-4.87909E-05-1.86394E-05-3.67685E-05 3.37013E-19 3.41844E-18
 -1      3031 1.10498E-04-5.61187E-05-2.35515E-05-3.16310E-05 5.99276E-20 3.13054E-18
 -1      3032 1.35801E-04-5.60278E-05-3.46487E-05 6.11492E-06-9.41133E-19-5.24208E-19
 -1      3033 1.29388E-04-5.82122E-05-3.02672E-05 1.42495E-05-9.41583E-19-5.76406E-19
 -1      3034 1.39040E-04-4.07322E-05-4.27719E-05-8.57999E-06-6.87050E-19-8.03940E-19
 -1      3035 1.38638E-04-4.89873E-05-3.85621E-05-2.71300E-06-1.16181E-18-8.31469E-19
 -1      3036 9.15920E-05-1.66366E-05-3.21458E-05-5.53333E-06-6.62572E-19-2.21766E-18
 -1      3037 9.21133E-05-1.74422E-05-3.20417E-05-6.35566E-06-9.37907E-19-2.17796E-18
 -1      3038 9.24532E-05-1.81133E-05-3.18350E-05-4.52721E-06-4.88555E-19-2.04157E-18
 -1      3039 9.13105E-05-1.62977E-05-3.21357E-05 2.80546E-08 5.48338E-19-2.03674E-18
 -1      3040 9.01996E-05-1.45304E-05-3.24493E-05-3.78203E-07 4.89904E-19-2.25414E-18
 -1      3041 9.02562E-05-1.46119E-05-3.24388E-05-1.32740E-06 3.33540E-19-2.37929E-18
 -1      3042 6.02344E-05-2.63478E-05-1.40147E-05-2.98637E-05-1.01856E-19 2.96080E-18
 -1      3043 9.56757E-05-4.69811E-05-2.04704E-05 3.30807E-05-1.25742E-18-1.75320E-18
 -1      3044 1.29623E-04-2.35588E-05-4.59874E-05 1.29950E-05 4.80691E-19-2.13293E-19
 -1      3045 1.23434E-04-1.89164E-05-4.53089E-05 1.17508E-05 3.57977E-19-1.06334E-18
 -1      3046 1.27233E-04-2.91621E-05-4.22093E-05 1.42237E-05 2.60780E-19 2.59245E-19
 -1      3047 8.42964E-05-4.12355E-05-1.80124E-05-3.52635E-05-2.29694E-18-1.82827E-18
 -1      3048 9.42788E-05-2.66625E-05-2.89753E-05 1.67484E-06-4.68893E-19-7.06427E-19
 -1      3049 9.44894E-05-2.68810E-05-2.89813E-05 1.55981E-06-5.34809E-19-1.48233E-18
 -1      3050 9.46884E-05-2.70915E-05-2.89673E-05 1.63362E-06-1.57248E-18-1.82707E-18
 -1      3051 6.59540E-05-3.03584E-05-1.47862E-05 3.24248E-05 1.61804E-18-2.84285E-19
 -1      3052 1.10250E-04-5.31823E-05-2.46973E-05 2.58429E-05 1.50708E-18 7.18760E-19
 -1      3053 1.01263E-04-5.04450E-05-2.14955E-05 3.23078E-05 1.52529E-18 3.96107E-19
 -1      3054 9.32135E-05-4.38393E-05-2.09455E-05 3.15719E-05 1.43106E-18 7.26331E-20
 -1      3055 5.77406E-05-2.48691E-05-1.35530E-05-2.88032E-05-1.01167E-18-1.54118E-18
 -1      3056 9.50616E-05-2.77907E-05-2.88394E-05-7.30426E-07 6.91180E-19-1.12850E-20
 -1      3057 1.33402E-04-3.61182E-05-4.19465E-05-1.24308E-05-6.93296E-19-1.09775E-18
 -1      3058 1.37151E-04-5.05058E-05-3.72462E-05-2.62423E-06-1.14191E-18 2.81109E-18
 -1      3059 1.24263E-04-1.20044E-05-4.86186E-05 2.34147E-07 1.96978E-18-9.33616E-19
 -1      3060 9.48791E-05-2.73114E-05-2.89633E-05 1.66110E-06-1.25360E-18-3.91622E-18
 -1      3061 9.50875E-05-2.75400E-05-2.89459E-05 1.63222E-06-8.56573E-19-3.57331E-18
 -1      3062 9.51707E-05-2.75644E-05-2.89685E-05 1.83233E-06 3.03707E-20-3.94261E-18
 -1      3063 9.47313E-05-2.71140E-05-2.89754E-05 1.86062E-06-1.62756E-19-3.12759E-18
 -1      3064 1.34647E-04-5.15719E-05-3.56506E-05-2.16646E-06-3.17902E-20 5.39984E-20
 -1      3065 1.34674E-04-5.56920E-05-3.39747E-05-3.55956E-06-1.13484E-18 1.10961E-19
 -1      3066 1.31946E-04-5.00289E-05-3.54911E-05 4.49850E-06-4.42548E-19 4.43581E-19
 -1      3067 1.28984E-04-5.56440E-05-3.11606E-05-7.38494E-06-1.12703E-18-6.63624E-19
 -1      3068 8.94774E-05-4.40771E-05-1.90096E-05-3.45207E-05 5.63912E-19 2.78790E-18
 -1      3069 9.50362E-05-2.74742E-05-2.89543E-05-1.60846E-06 7.28323E-19-2.04955E-19
 -1      3070 9.50621E-05-2.74605E-05-2.89736E-05-1.89742E-06-2.42437E-19-1.38685E-18
 -1      3071 9.48410E-05-2.72499E-05-2.89694E-05-1.74498E-06 8.71059E-19 6.01959E-19
 -1      3072 9.46894E-05-2.70570E-05-2.89817E-05-1.93727E-06 8.99321E-19-4.59294E-19
 -1      3073 9.50980E-05-2.74255E-05-2.89975E-05-2.09838E-06-2.02050E-19-1.80382E-18
 -1      3074 4.10933E-05-1.35548E-05-1.11868E-05-7.62571E-06-1.48654E-19-2.91083E-18
 -1      3075 4.08699E-05-1.39160E-05-1.09362E-05-1.00873E-05-2.51916E-18-5.47395E-20
 -1      3076 1.17795E-04-5.63899E-05-2.61142E-05-2.32323E-05 1.36584E-19 2.10173E-18
 -1      3077 1.13879E-04-5.47740E-05-2.50759E-05-2.51842E-05-2.40309E-18-5.09775E-19
 -1      3078 1.28061E-04-5.80532E-05-2.98707E-05 1.44670E-05 4.78468E-19 1.59009E-18
 -1      3079 6.23625E-05-2.78548E-05-1.42151E-05 3.09966E-05-2.20689E-18-3.48131E-18
 -1      3080 1.23090E-04-5.68413E-05-2.82548E-05 1.72848E-05-5.65712E-19-1.07150E-19
 -1      3081 9.03820E-05-1.48071E-05-3.24098E-05-2.15456E-06 2.29480E-19-2.23362E-18
 -1      3082 9.05666E-05-1.50744E-05-3.23757E-05-3.09853E-06 1.01229E-20-2.34529E-18
 -1      3083 9.18075E-05-1.70801E-05-3.20102E-05-3.10264E-06-5.01263E-20-2.18134E-18
 -1      3084 9.14297E-05-1.64850E-05-3.21058E-05-1.56086E-06 2.30213E-19-2.22867E-18
 -1      3085 9.43540E-05-2.14009E-05-3.12702E-05 7.17568E-06 1.99982E-18-3.01838E-19
 -1      3086 9.46204E-05-2.24336E-05-3.09299E-05 5.63787E-06 1.84653E-18-4.86298E-19
 -1      3087 1.34641E-04-4.16451E-05-4.00659E-05 1.06513E-05-3.65548E-19 7.08120E-19
 -1      3088 1.33513E-04-5.52084E-05-3.35334E-05-3.74902E-06 9.88382E-20 1.00871E-18
 -1      3089 1.36479E-04-3.04630E-05-4.59667E-05-1.28867E-05-2.76609E-18 2.41129E-18
 -1      3090 1.33988E-04-3.58606E-05-4.23113E-05-1.23171E-05-2.25777E-18 2.60468E-18
 -1      3091 1.33357E-04-2.09639E-05-4.87520E-05-1.18303E-05-3.30110E-18 2.21266E-18
 -1      3092 9.42922E-05-2.17997E-05-3.10888E-05 4.89652E-06 1.74791E-18-7.49940E-19
 -1      3093 9.38287E-05-2.08485E-05-3.12800E-05 4.54877E-06 1.65064E-18-8.66943E-19
 -1      3094 9.56868E-05-2.67411E-05-2.95342E-05-5.45110E-07-7.04290E-19-1.21841E-18
 -1      3095 9.56647E-05-2.71604E-05-2.93658E-05 2.61971E-08-6.23260E-19-1.24788E-18
 -1      3096 9.56961E-05-2.75092E-05-2.92126E-05 4.61554E-07-6.52485E-19-1.03215E-18
 -1      3097 9.56645E-05-2.77611E-05-2.91045E-05 8.41369E-07-5.97642E-19-1.08113E-18
 -1      3098 9.58677E-05-2.71011E-05-2.94746E-05 1.17660E-07-5.62030E-19-8.08204E-19
 -1      3099 9.56395E-05-2.79530E-05-2.90019E-05 1.13710E-06-5.32325E-19-9.17130E-19
 -1      3100 9.56149E-05-2.80902E-05-2.89394E-05 1.39247E-06-4.47273E-19-7.25582E-19
 -1      3101 9.58797E-05-2.77311E-05-2.92101E-05 8.83111E-07-5.59743E-19-6.66607E-19
 -1      3102 9.55582E-05-2.81722E-05-2.88763E-05 1.60016E-06-2.90910E-19-8.01766E-19
 -1      3103 9.55448E-05-2.82284E-05-2.88481E-05 1.78493E-06-2.20231E-19-5.02803E-19
 -1      3104 9.58038E-05-2.80616E-05-2.90357E-05 1.41545E-06-3.23767E-19-8.53389E-19
 -1      3105 9.54691E-05-2.82312E-05-2.88154E-05 1.94751E-06-1.65905E-19-3.28478E-19
 -1      3106 9.54668E-05-2.82280E-05-2.88133E-05 2.10353E-06 3.29546E-20-4.80308E-19
 -1      3107 9.56768E-05-2.81762E-05-2.89315E-05 1.80855E-06-5.44467E-20-6.07226E-19
 -1      3108 9.53772E-05-2.81714E-05-2.88038E-05 2.25549E-06-8.87218E-21-3.11206E-19
 -1      3109 9.53847E-05-2.81237E-05-2.88216E-05 2.41488E-06-1.26775E-19-2.27435E-19
 -1      3110 9.55162E-05-2.81312E-05-2.88812E-05 2.14057E-06 9.25221E-20-5.32908E-19
 -1      3111 9.52826E-05-2.80214E-05-2.88292E-05 2.58343E-06-3.92316E-19-1.38640E-19
 -1      3112 9.52987E-05-2.79404E-05-2.88624E-05 2.77068E-06-2.21333E-19-3.55064E-19
 -1      3113 9.53284E-05-2.79646E-05-2.88713E-05 2.47393E-06-2.24611E-19-3.80131E-19
 -1      3114 9.51834E-05-2.78028E-05-2.88819E-05 2.97702E-06-1.14505E-19-3.93017E-19
 -1      3115 9.52083E-05-2.76987E-05-2.89264E-05 3.21034E-06-1.80966E-19-5.94928E-19
 -1      3116 9.51144E-05-2.77045E-05-2.88903E-05 2.85760E-06-3.15078E-19-4.07532E-19
 -1      3117 9.50790E-05-2.75359E-05-2.89527E-05 3.47067E-06-4.00455E-19-7.76513E-19
 -1      3118 9.51147E-05-2.74205E-05-2.90047E-05 3.76261E-06-3.23827E-19-6.27250E-19
 -1      3119 9.48726E-05-2.73746E-05-2.89272E-05 3.32935E-06-2.60092E-19-4.06730E-19
 -1      3120 9.49722E-05-2.72452E-05-2.90326E-05 4.08867E-06-1.48544E-19-6.73216E-19
 -1      3121 9.50246E-05-2.71347E-05-2.90878E-05 4.44583E-06-2.55005E-19-5.88226E-19
 -1      3122 9.46031E-05-2.70010E-05-2.89711E-05 3.91743E-06-4.06571E-19-1.13623E-18
 -1      3123 9.48743E-05-2.69661E-05-2.91108E-05 4.84505E-06-4.97194E-19-7.06817E-19
 -1      3124 9.49556E-05-2.68857E-05-2.91640E-05 5.26712E-06-9.98057E-19-7.04398E-19
 -1      3125 9.43115E-05-2.66187E-05-2.90095E-05 4.64147E-06-6.51844E-19-6.47302E-19
 -1      3126 9.48121E-05-2.67546E-05-2.91748E-05 5.74243E-06-1.06426E-18-1.25831E-19
 -1      3127 9.49459E-05-2.67439E-05-2.92195E-05 6.22028E-06-7.86953E-19 2.99374E-19
 -1      3128 9.40169E-05-2.62814E-05-2.90278E-05 5.51311E-06-5.25476E-19-3.57556E-19
 -1      3129 9.48403E-05-2.66997E-05-2.92093E-05 6.76951E-06-6.44570E-19 3.98842E-19
 -1      3130 9.50693E-05-2.68204E-05-2.92380E-05 7.28213E-06-2.74953E-19 5.61522E-19
 -1      3131 9.37623E-05-2.60736E-05-2.90090E-05 6.53628E-06-6.43378E-19 5.53388E-19
 -1      3132 9.50606E-05-2.69399E-05-2.91976E-05 7.89645E-06-1.35029E-19 7.99544E-19
 -1      3133 9.54577E-05-2.72844E-05-2.92033E-05 8.40613E-06-1.91434E-19 6.70440E-19
 -1      3134 9.36335E-05-2.61279E-05-2.89339E-05 7.70702E-06-1.46916E-19 7.56053E-19
 -1      3135 9.56496E-05-2.76812E-05-2.91259E-05 9.06539E-06-2.15630E-19 9.99363E-19
 -1      3136 9.63308E-05-2.83786E-05-2.91055E-05 9.50891E-06-8.92714E-21 9.48084E-19
 -1      3137 9.37856E-05-2.66441E-05-2.87853E-05 9.01066E-06-1.39383E-19 4.26263E-19
 -1      3138 9.68937E-05-2.92083E-05-2.89921E-05 1.01676E-05 2.89089E-19 7.81388E-19
 -1      3139 9.80248E-05-3.04185E-05-2.89546E-05 1.04397E-05 6.64849E-19 9.78125E-19
 -1      3140 9.44825E-05-2.79106E-05-2.85553E-05 1.04086E-05 6.86159E-20 3.99036E-19
 -1      3141 9.92167E-05-3.18666E-05-2.88265E-05 1.09925E-05 8.24259E-19 9.16496E-19
 -1      3142 1.00999E-04-3.37399E-05-2.88063E-05 1.09152E-05 1.07057E-18 9.84251E-19
 -1      3143 9.61406E-05-3.03053E-05-2.82634E-05 1.17967E-05 8.28951E-19 9.60622E-19
 -1      3144 1.03162E-04-3.59576E-05-2.87255E-05 1.11229E-05 1.13626E-18 1.28120E-18
 -1      3145 1.05752E-04-3.85259E-05-2.88061E-05 1.04112E-05 1.73770E-18 1.25525E-18
 -1      3146 9.93606E-05-3.42492E-05-2.79892E-05 1.28945E-05 1.36699E-18 1.32860E-18
 -1      3147 1.09228E-04-4.14162E-05-2.89246E-05 9.72756E-06 1.76009E-18 1.30773E-18
 -1      3148 1.12536E-04-4.41850E-05-2.92739E-05 8.01155E-06 1.28720E-18 1.69939E-18
 -1      3149 1.04831E-04-4.00075E-05-2.79408E-05 1.30030E-05 1.64712E-18 6.99305E-19
 -1      3150 1.17440E-04-4.73645E-05-2.98852E-05 5.68028E-06 8.69466E-19 1.90622E-18
 -1      3151 1.20822E-04-4.88332E-05-3.08359E-05 2.09050E-06 5.91064E-19 2.12627E-18
 -1      3152 1.13246E-04-4.66405E-05-2.86847E-05 1.06625E-05 1.55442E-18 1.02040E-18
 -1      3153 1.27294E-04-4.23369E-05-3.67672E-05-1.18895E-05-2.35488E-18 1.70611E-18
 -1      3154 1.26048E-04-3.54518E-05-3.89965E-05-1.38834E-05-2.22124E-18 1.41232E-18
 -1      3155 1.25677E-04-2.98763E-05-4.15447E-05-1.49543E-05-2.28932E-18 9.41159E-19
 -1      3156 1.22490E-04-2.16579E-05-4.34477E-05-1.17503E-05-2.44761E-18 5.93770E-19
 -1      3157 1.19469E-04-1.55016E-05-4.49614E-05 8.11881E-06-1.78343E-18-1.43403E-18
 -1      3158 1.22158E-04-2.19475E-05-4.34818E-05 1.26033E-05-9.36607E-19-7.11349E-19
 -1      3159 1.25529E-04-2.92125E-05-4.14978E-05 1.50635E-05-9.10666E-19-1.11771E-18
 -1      3160 1.27332E-04-3.70125E-05-3.91575E-05 1.37362E-05-5.65315E-19-1.35284E-18
 -1      3161 1.27425E-04-4.61291E-05-3.49168E-05 8.23815E-06 7.03487E-19-1.31801E-18
 -1      3162 1.26279E-04-4.91983E-05-3.30329E-05 4.11747E-06 5.00785E-19-8.44254E-19
 -1      3163 1.21797E-04-4.89391E-05-3.12664E-05-7.07406E-07-2.64599E-19-4.63989E-19
 -1      3164 1.18828E-04-4.78649E-05-3.02820E-05-4.06676E-06-3.25651E-19-2.90771E-20
 -1      3165 1.24873E-04-5.14164E-05-3.15510E-05-1.92223E-06 4.00025E-19-3.89721E-19
 -1      3166 1.13984E-04-4.51849E-05-2.95348E-05-6.94843E-06 3.73158E-20 4.96967E-19
 -1      3167 1.10671E-04-4.24609E-05-2.91191E-05-8.95889E-06 6.03160E-19 9.19320E-19
 -1      3168 1.15252E-04-4.79335E-05-2.90022E-05-9.56149E-06 6.96837E-19-2.53117E-21
 -1      3169 1.07012E-04-3.95271E-05-2.89272E-05-9.89919E-06 9.37897E-19 6.31526E-19
 -1      3170 1.04274E-04-3.68850E-05-2.88120E-05-1.08183E-05 8.68250E-19 2.73215E-19
 -1      3171 1.06637E-04-4.11607E-05-2.81498E-05-1.24232E-05 8.35348E-19-1.08748E-19
 -1      3172 1.01917E-04-3.45465E-05-2.88596E-05-1.07428E-05 4.77050E-19 2.49340E-19
 -1      3173 9.99822E-05-3.25415E-05-2.88701E-05-1.09542E-05-6.62165E-19 6.46172E-19
 -1      3174 1.00653E-04-3.52064E-05-2.80902E-05-1.27179E-05 3.35949E-19-6.08825E-19
 -1      3175 9.86408E-05-3.09595E-05-2.89893E-05-1.04346E-05-1.23217E-18 7.27778E-19
 -1      3176 9.73957E-05-2.96352E-05-2.90289E-05-1.02396E-05-5.18269E-19 6.20887E-19
 -1      3177 9.70163E-05-3.09624E-05-2.83248E-05-1.18223E-05-7.38697E-19-5.05796E-19
 -1      3178 9.67268E-05-2.86933E-05-2.91421E-05-9.57182E-06-9.15849E-19 8.55987E-20
 -1      3179 9.59696E-05-2.79078E-05-2.91690E-05-9.16378E-06-8.34053E-19-6.79067E-19
 -1      3180 9.50564E-05-2.83101E-05-2.86075E-05-1.05102E-05-1.29970E-18-9.93871E-19
 -1      3181 9.57048E-05-2.74251E-05-2.92501E-05-8.47289E-06-4.94119E-19 7.16976E-20
 -1      3182 9.52598E-05-2.70155E-05-2.92525E-05-7.96882E-06 3.19566E-21-4.96677E-19
 -1      3183 9.41499E-05-2.68437E-05-2.88402E-05-9.11502E-06-5.78106E-19 4.84103E-19
 -1      3184 9.52173E-05-2.68311E-05-2.92980E-05-7.30950E-06 7.45731E-19-1.97234E-18
 -1      3185 9.49593E-05-2.66615E-05-2.92777E-05-6.77992E-06 7.29473E-19-1.57776E-18
 -1      3186 9.38532E-05-2.61750E-05-2.89969E-05-7.76982E-06-4.70276E-19 1.03561E-18
 -1      3187 9.50255E-05-2.66540E-05-2.92934E-05-6.17608E-06 9.64411E-19-1.36405E-18
 -1      3188 9.48742E-05-2.66254E-05-2.92571E-05-5.66295E-06 1.28460E-18-1.37250E-18
 -1      3189 9.38780E-05-2.60010E-05-2.90817E-05-6.52737E-06 1.09830E-18-1.56876E-18
 -1      3190 9.49830E-05-2.67115E-05-2.92518E-05-5.12433E-06 1.07995E-18-1.77577E-18
 -1      3191 9.48901E-05-2.67570E-05-2.92071E-05-4.65137E-06 1.81229E-18-1.13209E-18
 -1      3192 9.40497E-05-2.61068E-05-2.91107E-05-5.40826E-06 1.10130E-18-1.72632E-18
 -1      3193 9.50045E-05-2.68813E-05-2.91893E-05-4.18132E-06 1.72825E-18-1.15071E-18
 -1      3194 9.49411E-05-2.69566E-05-2.91427E-05-3.75897E-06 1.96800E-18-1.62181E-18
 -1      3195 9.42693E-05-2.63498E-05-2.91020E-05-4.42028E-06 1.59622E-18-1.81783E-18
 -1      3196 9.50412E-05-2.70816E-05-2.91192E-05-3.35421E-06 1.40317E-18-1.90404E-18
 -1      3197 9.49949E-05-2.71648E-05-2.90754E-05-2.97957E-06 5.12163E-19-1.50173E-18
 -1      3198 9.44812E-05-2.66361E-05-2.90720E-05-3.56439E-06 1.23518E-18-2.87255E-18
 -1      3199 9.50871E-05-2.72759E-05-2.90557E-05-2.68678E-06 3.48381E-19-1.10450E-18
 -1      3200 9.50411E-05-2.73397E-05-2.90172E-05-2.35623E-06 2.79363E-19-1.01406E-18
 -1      3201 9.48090E-05-2.71382E-05-2.90045E-05-2.30413E-06 2.72395E-19-1.22811E-18
 -1      3202 9.46717E-05-2.69216E-05-2.90394E-05-2.87130E-06 9.50380E-19-2.30094E-18
 -1      3203 9.53321E-05-2.82762E-05-2.87345E-05-2.05729E-06 1.79614E-19-3.35590E-19
 -1      3204 9.52946E-05-2.82597E-05-2.87278E-05-1.91331E-06 8.40008E-20-3.61806E-19
 -1      3205 9.54103E-05-2.79479E-05-2.89056E-05-3.07631E-06 1.72060E-19 2.06809E-19
 -1      3206 9.53161E-05-2.80096E-05-2.88494E-05-2.86460E-06 3.09826E-19-1.36124E-19
 -1      3207 9.54740E-05-2.77635E-05-2.90111E-05-3.58715E-06 1.81294E-19 1.92589E-19
 -1      3208 9.53577E-05-2.78310E-05-2.89447E-05-3.32029E-06 2.37911E-19 1.62121E-19
 -1      3209 9.51580E-05-2.76743E-05-2.89224E-05-3.26413E-06 1.58123E-19-3.95785E-20
 -1      3210 9.55675E-05-2.75809E-05-2.91286E-05-4.22136E-06 3.41584E-19-1.06647E-19
 -1      3211 9.54223E-05-2.76396E-05-2.90552E-05-3.89363E-06 3.27255E-19 5.58301E-20
 -1      3212 9.50546E-05-2.74002E-05-2.89951E-05-3.82332E-06 2.08813E-19-2.57430E-19
 -1      3213 9.57097E-05-2.74393E-05-2.92495E-05-4.98228E-06 2.05120E-19-8.75405E-20
 -1      3214 9.55236E-05-2.74672E-05-2.91728E-05-4.59593E-06 3.46487E-19-9.92029E-20
 -1      3215 9.49590E-05-2.71275E-05-2.90708E-05-4.51200E-06 4.16717E-19-3.58177E-19
 -1      3216 9.59369E-05-2.74003E-05-2.93630E-05-5.85595E-06 3.04233E-20 1.63340E-19
 -1      3217 9.56892E-05-2.73632E-05-2.92879E-05-5.42395E-06 3.93393E-20 8.45858E-20
 -1      3218 9.48928E-05-2.69056E-05-2.91379E-05-5.33608E-06 2.02857E-19-2.53278E-19
 -1      3219 9.63142E-05-2.75598E-05-2.94559E-05-6.80486E-06 9.19500E-20 3.49594E-19
 -1      3220 9.59701E-05-2.74055E-05-2.93886E-05-6.35508E-06 8.80298E-20 9.59227E-20
 -1      3221 9.49001E-05-2.68119E-05-2.91826E-05-6.28770E-06-9.99818E-20 1.90958E-20
 -1      3222 9.69528E-05-2.80607E-05-2.95146E-05-7.75810E-06-3.97939E-19 6.15683E-19
 -1      3223 9.64562E-05-2.77131E-05-2.94614E-05-7.33946E-06 8.21838E-21 7.99072E-19
 -1      3224 9.50632E-05-2.69661E-05-2.91898E-05-7.34112E-06-4.30797E-19 3.84249E-19
 -1      3225 9.80295E-05-2.91029E-05-2.95299E-05-8.59582E-06-6.34859E-19 4.85585E-19
 -1      3226 9.72959E-05-2.84591E-05-2.94947E-05-8.28691E-06-4.33093E-19 6.62922E-19
 -1      3227 9.55243E-05-2.75454E-05-2.91459E-05-8.44459E-06-4.43025E-19 8.25244E-19
 -1      3228 9.98029E-05-3.09333E-05-2.95081E-05-9.12320E-06-3.84618E-20-2.69194E-20
 -1      3229 9.87181E-05-2.98741E-05-2.94862E-05-9.04463E-06-3.81126E-19 4.18772E-19
 -1      3230 9.65135E-05-2.87958E-05-2.90462E-05-9.50325E-06-2.99641E-19 5.86602E-19
 -1      3231 1.02598E-04-3.37890E-05-2.94900E-05-9.03083E-06 1.59821E-19-4.74595E-20
 -1      3232 1.01041E-04-3.22182E-05-2.94582E-05-9.35914E-06 7.53297E-20 1.39034E-19
 -1      3233 9.83737E-05-3.10208E-05-2.89097E-05-1.03428E-05-3.30388E-20 5.53963E-20
 -1      3234 1.06706E-04-3.77155E-05-2.95849E-05-7.81989E-06-1.39395E-19 1.10260E-18
 -1      3235 1.04633E-04-3.56848E-05-2.94856E-05-8.80281E-06 6.62357E-20 7.11874E-19
 -1      3236 1.01564E-04-3.45190E-05-2.88053E-05-1.06301E-05-3.37306E-19 6.34012E-19
 -1      3237 1.12145E-04-4.21749E-05-3.00171E-05-4.81505E-06-9.31055E-19 1.63943E-18
 -1      3238 1.09693E-04-4.00841E-05-2.97377E-05-6.72128E-06-4.39508E-19 1.56116E-18
 -1      3239 1.06530E-04-3.93216E-05-2.89012E-05-9.73556E-06-4.58208E-19 1.21881E-18
 -1      3240 1.18232E-04-4.56583E-05-3.11032E-05 4.73756E-07-1.25246E-18 8.08845E-19
 -1      3241 1.15909E-04-4.44516E-05-3.05308E-05-2.44612E-06-1.07787E-18 9.42830E-19
 -1      3242 1.13155E-04-4.45619E-05-2.95298E-05-6.64970E-06-7.56713E-19 1.06230E-18
 -1      3243 1.24681E-04-4.57666E-05-3.38666E-05 7.15062E-06-5.69180E-19 5.92632E-19
 -1      3244 1.23575E-04-4.78880E-05-3.24866E-05 3.59047E-06-9.61908E-19 5.19959E-19
 -1      3245 1.16978E-04-2.21679E-05-4.07879E-05 1.18687E-05-5.44748E-20 3.43578E-20
 -1      3246 1.19644E-04-2.86861E-05-3.93745E-05 1.42846E-05 7.67094E-20 2.22174E-19
 -1      3247 1.12785E-04-1.54799E-05-4.19562E-05 9.11238E-07 1.44250E-18-8.64629E-19
 -1      3248 1.13948E-04-1.76521E-05-4.16470E-05 6.69212E-06 9.90023E-19-6.16680E-20
 -1      3249 1.17944E-04-1.97016E-05-4.25474E-05-1.03467E-05 9.62335E-19-1.77395E-18
 -1      3250 1.16054E-04-1.53681E-05-4.34618E-05-5.38511E-06 1.41952E-18-1.86792E-18
 -1      3251 1.21235E-04-3.46506E-05-3.74968E-05-1.44713E-05 3.90747E-19 2.21287E-19
 -1      3252 1.18505E-04-2.78447E-05-3.89396E-05-1.39938E-05 7.72018E-19-8.26042E-19
 -1      3253 1.22947E-04-4.39957E-05-3.39519E-05-9.38499E-06 3.25479E-20-6.75052E-19
 -1      3254 1.22358E-04-3.99660E-05-3.53485E-05-1.20037E-05 2.83438E-19 4.63360E-19
 -1      3255 1.19270E-04-4.57030E-05-3.14786E-05-1.73382E-06 6.18834E-19-1.16549E-18
 -1      3256 1.20696E-04-4.53423E-05-3.23620E-05-4.98471E-06 1.04572E-20-5.95649E-19
 -1      3257 1.24115E-04-4.70343E-05-3.30760E-05-5.31632E-06 5.60683E-19-5.06466E-19
 -1      3258 1.13316E-04-4.26717E-05-3.01811E-05 4.21987E-06 9.22210E-19-1.01189E-18
 -1      3259 1.15622E-04-4.42921E-05-3.06331E-05 1.68591E-06 7.40896E-19-1.64354E-18
 -1      3260 1.17820E-04-4.67519E-05-3.05359E-05 2.55916E-06 8.02011E-19-7.39046E-19
 -1      3261 1.07562E-04-3.81637E-05-2.96651E-05 7.60400E-06 1.02561E-18-1.19001E-18
 -1      3262 1.09841E-04-4.02959E-05-2.98501E-05 6.10980E-06 1.01862E-18-1.35296E-18
 -1      3263 1.10575E-04-4.23972E-05-2.93477E-05 7.69009E-06 1.28840E-18-1.75051E-18
 -1      3264 1.03145E-04-3.41269E-05-2.95274E-05 9.00477E-06 7.00378E-19-1.24974E-18
 -1      3265 1.04984E-04-3.59862E-05-2.95888E-05 8.33169E-06 8.58936E-19-5.91198E-19
 -1      3266 1.04600E-04-3.72335E-05-2.89719E-05 9.86928E-06 6.94020E-19-1.50724E-18
 -1      3267 1.00120E-04-3.11436E-05-2.95319E-05 9.16606E-06-1.07708E-19-2.41224E-18
 -1      3268 1.01454E-04-3.25027E-05-2.95533E-05 9.04473E-06 5.13123E-19-2.52231E-18
 -1      3269 1.00426E-04-3.30073E-05-2.89623E-05 1.03253E-05 1.19565E-18-2.31522E-18
 -1      3270 9.82017E-05-2.92071E-05-2.95551E-05 8.63372E-06-1.13853E-18-2.55741E-18
 -1      3271 9.91185E-05-3.00898E-05-2.95784E-05 8.84396E-06-1.08951E-18-2.39644E-18
 -1      3272 9.78148E-05-3.00663E-05-2.90758E-05 9.83870E-06-2.43473E-19-3.54959E-18
 -1      3273 9.70363E-05-2.80811E-05-2.95478E-05 7.75606E-06-1.08949E-18-2.74907E-18
 -1      3274 9.76562E-05-2.86007E-05-2.95869E-05 8.14643E-06-7.19335E-19-3.05837E-18
 -1      3275 9.63173E-05-2.82612E-05-2.91897E-05 8.91506E-06-6.61716E-19-3.74901E-18
 -1      3276 9.63459E-05-2.75127E-05-2.95009E-05 6.73970E-06-2.62993E-18-2.07777E-18
 -1      3277 9.67694E-05-2.77844E-05-2.95556E-05 7.20996E-06-2.05838E-18-2.49839E-18
 -1      3278 9.55281E-05-2.72849E-05-2.92592E-05 7.81829E-06-1.60161E-18-3.35948E-18
 -1      3279 9.59390E-05-2.72951E-05-2.94224E-05 5.70810E-06-1.06664E-18-2.85880E-18
 -1      3280 9.62367E-05-2.74111E-05-2.94871E-05 6.19469E-06-1.55534E-18-2.40029E-18
 -1      3281 9.51581E-05-2.68580E-05-2.92776E-05 6.69084E-06-1.99267E-18-3.43415E-18
 -1      3282 9.56941E-05-2.72787E-05-2.93255E-05 4.73211E-06 6.90788E-19-2.36927E-18
 -1      3283 9.59117E-05-2.73050E-05-2.93936E-05 5.19725E-06 1.17828E-19-2.29751E-18
 -1      3284 9.50181E-05-2.67648E-05-2.92546E-05 5.61162E-06-4.94010E-19-3.51475E-18
 -1      3285 9.55377E-05-2.73622E-05-2.92229E-05 3.84766E-06-7.86421E-19-1.59056E-18
 -1      3286 9.57036E-05-2.73434E-05-2.92886E-05 4.27176E-06 4.72339E-20-1.88341E-18
 -1      3287 9.49924E-05-2.68532E-05-2.92043E-05 4.62289E-06-3.50925E-20-3.66955E-18
 -1      3288 9.54267E-05-2.74791E-05-2.91245E-05 3.06864E-06 3.44351E-19-2.02744E-18
 -1      3289 9.55588E-05-2.74452E-05-2.91839E-05 3.44398E-06-8.43228E-21-1.77151E-18
 -1      3290 9.50139E-05-2.70229E-05-2.91404E-05 3.74319E-06-3.95660E-19-2.84656E-18
 -1      3291 9.53396E-05-2.75877E-05-2.90372E-05 2.39535E-06 6.01544E-19-2.24650E-18
 -1      3292 9.54451E-05-2.75598E-05-2.90877E-05 2.71755E-06 5.39626E-19-1.81860E-18
 -1      3293 9.50419E-05-2.72051E-05-2.90739E-05 2.97593E-06-1.38478E-19-3.76940E-18
 -1      3294 9.51963E-05-2.75625E-05-2.89842E-05 2.00012E-06 1.07055E-18-3.32849E-18
 -1      3295 9.53083E-05-2.75924E-05-2.90162E-05 2.21051E-06 6.96852E-19-2.40455E-18
 -1      3296 9.50159E-05-2.73033E-05-2.90210E-05 2.42803E-06 7.04214E-19-4.04895E-18
 -1      3297 9.49609E-05-2.73350E-05-2.89882E-05 2.05478E-06 3.06743E-19-5.55845E-18
 -1      3298 4.31849E-05-1.17955E-05-1.29815E-05 2.26548E-07-6.77990E-19-2.95932E-18
 -1      3299 4.73509E-05-1.43508E-05-1.38815E-05-1.31751E-05-6.09917E-19-2.82761E-18
 -1      3300 9.23799E-05-1.82272E-05-3.17951E-05 1.77680E-06 8.20272E-19-1.65566E-18
 -1      3301 9.22586E-05-1.80206E-05-3.18284E-05 1.03506E-06 6.48758E-19-1.80640E-18
 -1      3302 9.32207E-05-2.57110E-05-2.89355E-05-1.76635E-07 4.25044E-19-1.51255E-18
 -1      3303 9.32214E-05-2.57118E-05-2.89353E-05 1.80168E-07 1.29290E-18-6.21084E-19
 -1      3304 9.42376E-05-2.66327E-05-2.89725E-05-1.96525E-06 2.19984E-18-7.54315E-19
 -1      3305 9.39794E-05-2.64035E-05-2.89679E-05-1.80062E-06 1.90277E-18-8.82537E-19
 -1      3306 9.33743E-05-2.58462E-05-2.89408E-05-9.06162E-07 1.01540E-18-3.63540E-19
 -1      3307 9.32747E-05-2.57622E-05-2.89388E-05-5.77454E-07 9.41686E-19-8.01868E-19
 -1      3308 9.29640E-05-2.55094E-05-2.89025E-05-4.13708E-07 9.64350E-19-1.44028E-18
 -1      3309 9.54373E-05-2.72227E-05-2.92408E-05 5.56483E-08 7.29700E-19-1.07543E-19
 -1      3310 9.54922E-05-2.68347E-05-2.94088E-05 6.58100E-07 1.02521E-18-2.04854E-19
 -1      3311 1.22649E-04-1.25039E-05-4.78000E-05 3.70861E-06-2.82570E-18-5.75195E-19
 -1      3312 4.81455E-05-1.58980E-05-1.36994E-05 1.73738E-05-3.33636E-18-2.46942E-18
 -1      3313 4.32639E-05-1.24813E-05-1.28082E-05 7.11271E-06-3.46323E-18-2.33686E-18
 -1      3314 9.25952E-05-1.81934E-05-3.19041E-05-6.79521E-06-1.03608E-18-2.11228E-18
 -1      3315 9.32198E-05-1.92047E-05-3.17571E-05-7.29420E-06-1.21358E-18-2.03960E-18
 -1      3316 9.41534E-05-2.11771E-05-3.12428E-05-6.01138E-06-1.20815E-18-1.82517E-18
 -1      3317 9.33632E-05-1.96049E-05-3.15763E-05-5.53636E-06-9.58090E-19-1.99807E-18
 -1      3318 5.02062E-05-1.84352E-05-1.33408E-05 2.22508E-05 8.43062E-19-9.28983E-19
 -1      3319 4.44192E-05-1.37746E-05-1.28660E-05 1.21080E-05-5.53086E-20-1.57336E-18
 -1      3320 1.31314E-04-4.33928E-05-3.77108E-05 1.10157E-05-3.34313E-19 4.39663E-19
 -1      3321 1.28940E-04-3.80775E-05-3.94721E-05 1.32103E-05 6.73921E-20 1.76236E-19
 -1      3322 9.37263E-05-2.61626E-05-2.89538E-05-1.53554E-06 1.10565E-18-2.20249E-18
 -1      3323 9.35330E-05-2.59983E-05-2.89501E-05-1.26475E-06 8.19039E-19-1.19401E-18
 -1      3324 9.32017E-05-2.57140E-05-2.89176E-05-1.20337E-06 1.14153E-18-1.27261E-18
 -1      3325 9.36585E-05-2.61085E-05-2.89460E-05-1.85329E-06 6.55344E-19-9.57236E-19
 -1      3326 9.53672E-05-2.81079E-05-2.88195E-05-2.67199E-06 3.10355E-19-7.68021E-20
 -1      3327 9.52919E-05-2.81530E-05-2.87762E-05-2.50327E-06 3.85708E-19 1.03715E-19
 -1      3328 9.52600E-05-2.79171E-05-2.88626E-05-2.81698E-06 1.77114E-19 1.17536E-19
 -1      3329 9.53412E-05-2.82236E-05-2.87598E-05-2.34569E-06 4.35118E-19-4.28602E-19
 -1      3330 9.52841E-05-2.82429E-05-2.87327E-05-2.20175E-06 2.77667E-19-4.78745E-19
 -1      3331 9.54515E-05-2.82139E-05-2.88189E-05-2.13531E-06 2.63275E-19-6.19532E-19
 -1      3332 9.53578E-05-2.81044E-05-2.88249E-05-2.45375E-06 1.23902E-19-3.84645E-19
 -1      3333 1.26197E-04-3.03385E-05-4.18851E-05-1.51382E-05-7.57724E-19-1.15286E-18
 -1      3334 1.29799E-04-3.76542E-05-3.96286E-05-1.26377E-05-8.29563E-20-8.32739E-19
 -1      3335 9.55144E-05-2.54730E-05-3.00002E-05-2.03301E-06-8.66215E-19-1.47441E-18
 -1      3336 9.55423E-05-2.61366E-05-2.97520E-05-1.17098E-06-8.08639E-19-1.46037E-18
 -1      3337 9.56953E-05-2.60457E-05-2.98525E-05-9.80563E-07-5.97570E-19-1.15952E-18
 -1      3338 9.53408E-05-2.82436E-05-2.87537E-05-1.75343E-06 3.56257E-20-3.46914E-19
 -1      3339 9.53260E-05-2.81780E-05-2.87735E-05-1.57639E-06 2.63099E-19-3.66379E-19
 -1      3340 9.55407E-05-2.82197E-05-2.88555E-05-1.80996E-06 1.28517E-19-4.52238E-19
 -1      3341 5.77876E-05-2.15622E-05-1.51653E-05-2.46779E-05-6.01182E-19 2.53692E-18
 -1      3342 6.99055E-05-3.01769E-05-1.69191E-05-3.14040E-05 1.83647E-19 2.61405E-18
 -1      3343 1.29482E-04-5.48494E-05-3.19908E-05-4.74139E-06 1.88200E-19 3.18511E-19
 -1      3344 1.32291E-04-5.10450E-05-3.51700E-05 3.76016E-06 4.79407E-19 4.96388E-19
 -1      3345 7.45174E-05-3.29178E-05-1.77534E-05 3.15861E-05 1.45335E-18 1.67924E-19
 -1      3346 5.91248E-05-2.37235E-05-1.46161E-05 2.77809E-05 1.43940E-18-5.68041E-19
 -1      3347 9.53674E-05-2.80945E-05-2.88309E-05-1.36443E-06 4.01240E-19-3.34863E-19
 -1      3348 9.53794E-05-2.79606E-05-2.88860E-05-1.11058E-06 6.35444E-19-1.87293E-19
 -1      3349 9.56216E-05-2.80863E-05-2.89482E-05-1.41093E-06 3.39336E-19-2.73842E-19
 -1      3350 5.74031E-05-2.10380E-05-1.52937E-05-2.40875E-05-3.63668E-19-1.12550E-18
 -1      3351 6.79778E-05-2.89480E-05-1.65324E-05-3.08723E-05-1.31941E-18-1.42116E-18
 -1      3352 1.25058E-04-5.53459E-05-3.01104E-05 9.85949E-06-8.08453E-20 1.55547E-18
 -1      3353 1.16688E-04-5.40057E-05-2.64557E-05 2.00809E-05-3.34724E-19 6.27069E-20
 -1      3354 7.90750E-05-3.55254E-05-1.82506E-05-3.22547E-05-1.66029E-18-2.20419E-18
 -1      3355 9.22224E-05-4.37364E-05-2.09631E-05-3.20398E-05-1.70047E-18-1.29660E-18
 -1      3356 7.81077E-05-3.18422E-05-1.94869E-05-2.80809E-05-9.35760E-19-1.92981E-18
 -1      3357 9.54068E-05-2.77810E-05-2.89849E-05-7.99956E-07 7.75813E-19-1.89465E-19
 -1      3358 9.54475E-05-2.75478E-05-2.90875E-05-4.10919E-07 7.25418E-19-8.89740E-20
 -1      3359 9.56824E-05-2.77606E-05-2.91145E-05-8.53312E-07 7.50419E-19-2.65946E-19
 -1      3360 9.52177E-05-2.42289E-05-3.04244E-05 4.20383E-06 1.58680E-18-4.44167E-19
 -1      3361 9.46534E-05-2.26901E-05-3.08325E-05 4.70808E-06 1.71172E-18-6.15320E-19
 -1      3362 9.49428E-05-2.35212E-05-3.06052E-05 3.60805E-06 1.50361E-18-6.33119E-19
 -1      3363 9.52449E-05-2.51420E-05-3.00573E-05 2.90545E-06 1.51387E-18-4.88981E-19
 -1      3364 1.30586E-04-5.71145E-05-3.18700E-05 7.75374E-06-2.10197E-19 1.67840E-18
 -1      3365 1.23512E-04-5.66580E-05-2.83264E-05 1.56326E-05 7.62038E-19 9.18779E-19
 -1      3366 8.42018E-05-3.87988E-05-1.90578E-05-3.25472E-05 3.63801E-19 2.20059E-18
 -1      3367 9.81839E-05-4.75434E-05-2.18563E-05-3.13676E-05 8.88749E-19 2.85818E-18
 -1      3368 1.10898E-04-5.26198E-05-2.46370E-05-2.50640E-05 8.60030E-19 2.24617E-18
 -1      3369 1.21604E-04-5.59073E-05-2.82928E-05-1.60738E-05 1.76818E-20 8.14627E-19
 -1      3370 1.31078E-04-4.58999E-05-3.68966E-05-9.10777E-06 2.53594E-19-5.97688E-19
 -1      3371 1.29163E-04-5.05976E-05-3.37331E-05-2.43508E-06 3.58454E-19 2.58874E-20
 -1      3372 7.25238E-05-3.20615E-05-1.74292E-05 3.22410E-05-1.33132E-18-2.86795E-18
 -1      3373 5.87140E-05-2.22215E-05-1.51570E-05 2.56615E-05-2.43562E-18-2.93391E-18
 -1      3374 1.03231E-04-4.94369E-05-2.33796E-05 2.84832E-05-7.44595E-19-1.71979E-18
 -1      3375 8.86981E-05-4.07885E-05-2.00220E-05 3.17877E-05-1.38604E-18-1.44461E-18
 -1      3376 1.30527E-04-3.51519E-05-4.11300E-05-1.38013E-05-2.50425E-18 2.43511E-18
 -1      3377 1.34079E-04-4.25030E-05-3.94819E-05-1.11602E-05-2.17137E-18 2.97886E-18
 -1      3378 1.06914E-04-5.03994E-05-2.37666E-05-2.65668E-05-1.82096E-18-7.36621E-19
 -1      3379 1.19213E-04-5.58325E-05-2.75669E-05-1.87092E-05-1.54070E-18-1.62551E-18
 -1      3380 4.25301E-05-1.18516E-05-1.27041E-05-2.45283E-06-4.03419E-18-1.86855E-18
 -1      3381 4.77420E-05-1.49812E-05-1.37581E-05-1.46688E-05-1.86081E-18-8.42480E-19
 -1      3382 9.21970E-05-1.79172E-05-3.18475E-05 4.01365E-07 6.03638E-19-1.86026E-18
 -1      3383 9.21938E-05-1.79123E-05-3.18480E-05-3.53522E-07 4.23385E-19-1.98112E-18
 -1      3384 9.31341E-05-1.94721E-05-3.15512E-05 6.10250E-07 5.74642E-19-1.71253E-18
 -1      3385 9.56922E-05-2.71591E-05-2.93766E-05-3.27840E-08 7.60331E-19-1.98904E-19
 -1      3386 1.25145E-04-3.29350E-05-3.97236E-05 1.42794E-05 2.30499E-19 4.70633E-20
 -1      3387 9.51662E-05-2.40553E-05-3.04585E-05-3.48899E-06-8.94499E-19-1.62665E-18
 -1      3388 9.52668E-05-2.47937E-05-3.02168E-05-2.62415E-06-8.41029E-19-1.59887E-18
 -1      3389 9.53554E-05-2.47350E-05-3.02946E-05-2.30119E-06-7.40746E-19-1.55061E-18
 -1      3390 9.39907E-05-2.64188E-05-2.89664E-05 1.80119E-06-1.24682E-18-1.60277E-18
 -1      3391 9.42495E-05-2.66447E-05-2.89708E-05 1.96488E-06-9.42557E-19-1.78795E-19
 -1      3392 5.54609E-05-1.48867E-05-1.72384E-05-1.09343E-05-1.07833E-18-2.28492E-18
 -1      3393 5.55711E-05-1.74732E-05-1.59195E-05-1.79721E-05-7.34708E-19-1.57665E-18
 -1      3394 6.41654E-05-2.12377E-05-1.84096E-05-2.05922E-05-9.14915E-19-1.09633E-18
 -1      3395 8.36318E-05-3.52103E-05-2.04139E-05 2.83425E-05-1.17658E-18-1.44705E-18
 -1      3396 1.22194E-04-5.31286E-05-2.97686E-05 8.84722E-06 9.36739E-19 7.48367E-19
 -1      3397 1.24624E-04-5.09242E-05-3.15304E-05 1.11484E-06 8.63378E-20 1.90859E-18
 -1      3398 1.27028E-04-4.95285E-05-3.32650E-05-2.96760E-06-1.73576E-18 1.27584E-18
 -1      3399 4.95391E-05-1.29658E-05-1.52177E-05 1.70636E-06-3.60413E-18-1.57294E-18
 -1      3400 1.29849E-04-4.48758E-05-3.64735E-05 1.01099E-05 3.80741E-19-8.21569E-19
 -1      3401 8.06293E-05-3.39736E-05-1.96731E-05-2.88960E-05-9.94734E-20 2.29167E-18
 -1      3402 1.16510E-04-5.33170E-05-2.68419E-05 1.86247E-05 1.18495E-18 1.47251E-19
 -1      3403 9.30522E-05-1.94160E-05-3.15699E-05-3.55544E-06-2.88530E-19-1.77789E-18
 -1      3404 9.34425E-05-2.01348E-05-3.14527E-05-4.14716E-06-5.92812E-19-1.73796E-18
 -1      3405 1.25720E-04-3.91002E-05-3.71765E-05-1.29314E-05 1.66760E-19 3.46225E-19
 -1      3406 1.05571E-04-4.83461E-05-2.42985E-05-2.46427E-05 7.46818E-19 1.87497E-18
 -1      3407 1.22945E-04-5.04772E-05-3.12391E-05-2.29160E-06-5.47838E-19 5.56871E-19
 -1      3408 1.21336E-04-3.51404E-05-3.70210E-05 1.38341E-05 1.50931E-19 7.47970E-19
 -1      3409 1.22798E-04-4.05607E-05-3.56107E-05 1.23635E-05-1.49832E-19 2.41199E-19
 -1      3410 1.19578E-04-1.26255E-05-4.62911E-05-1.41824E-06 2.11261E-18-1.58134E-18
 -1      3411 4.97683E-05-1.35672E-05-1.50831E-05 5.64283E-06-2.88722E-19-2.00313E-18
 -1      3412 9.25577E-05-1.85309E-05-3.17370E-05 2.37364E-06 9.22922E-19-1.46539E-18
 -1      3413 9.33529E-05-1.98730E-05-3.14722E-05 1.75211E-06 7.67057E-19-1.40574E-18
 -1      3414 9.27984E-05-1.89528E-05-3.16668E-05 3.06625E-06 1.13824E-18-1.29370E-18
 -1      3415 9.35442E-05-2.60114E-05-2.89493E-05 1.27483E-06-1.20095E-19 1.34550E-18
 -1      3416 9.37392E-05-2.61773E-05-2.89527E-05 1.54228E-06-5.01770E-19-3.47310E-20
 -1      3417 9.36773E-05-2.61297E-05-2.89446E-05 1.85752E-06-1.15490E-18 9.01829E-20
 -1      3418 1.26771E-04-5.26453E-05-3.17677E-05 2.10247E-06 1.82855E-19 1.84561E-19
 -1      3419 1.20880E-04-5.08994E-05-3.00288E-05 6.25372E-06 4.00056E-19 3.30462E-19
 -1      3420 9.32782E-05-2.57670E-05-2.89384E-05 5.86455E-07 5.12328E-19 1.49557E-18
 -1      3421 9.33821E-05-2.58552E-05-2.89403E-05 9.19838E-07-1.40545E-19 1.37755E-18
 -1      3422 9.32129E-05-2.57272E-05-2.89170E-05 1.21676E-06 5.73930E-19 1.73840E-18
 -1      3423 9.29662E-05-2.55132E-05-2.89023E-05 4.25452E-07 4.26193E-19 9.04587E-19
 -1      3424 1.23203E-04-5.42158E-05-2.95300E-05-1.03625E-05-1.04548E-18-1.05535E-18
 -1      3425 8.53407E-05-3.80026E-05-1.98658E-05 3.13537E-05 1.64901E-18 1.97888E-19
 -1      3426 7.73064E-05-3.15779E-05-1.94272E-05 2.83931E-05 1.46817E-18 1.58633E-19
 -1      3427 9.48713E-05-4.24418E-05-2.23391E-05 2.76395E-05 1.66712E-18-1.59348E-20
 -1      3428 1.23628E-04-2.27754E-05-4.35876E-05-1.27261E-05 2.37381E-19-1.76389E-18
 -1      3429 5.93718E-05-1.96204E-05-1.66111E-05 1.98772E-05-2.28757E-18-2.03341E-18
 -1      3430 1.20771E-04-1.34924E-05-4.64708E-05 6.65653E-06 1.60661E-18-1.27404E-18
 -1      3431 9.44973E-05-2.23842E-05-3.09189E-05-4.95849E-06-1.09036E-18-1.82786E-18
 -1      3432 1.29284E-04-4.69520E-05-3.52386E-05 7.40200E-06-4.76271E-19 3.34049E-19
 -1      3433 1.19738E-04-1.89456E-05-4.35647E-05 9.74914E-06 4.19917E-19-8.41527E-19
 -1      3434 9.54000E-05-2.64155E-05-2.95744E-05 1.22585E-06 1.24363E-18-4.65303E-19
 -1      3435 9.54431E-05-2.58150E-05-2.98259E-05 2.12110E-06 1.35756E-18-4.52326E-19
 -1      3436 9.53547E-05-2.51000E-05-3.01119E-05 2.49322E-06 1.36563E-18-5.60994E-19
 -1      3437 9.55914E-05-2.62825E-05-2.97092E-05 1.06383E-06 9.81361E-19-2.89007E-19
 -1      3438 6.05081E-05-2.14474E-05-1.62924E-05 2.28013E-05 9.59397E-19-5.99435E-19
 -1      3439 1.24852E-04-5.51195E-05-2.98935E-05-9.57318E-06 3.18167E-20 2.34125E-19
 -1      3440 5.58469E-05-1.79491E-05-1.58476E-05-1.89562E-05-1.38549E-18-1.13291E-19
 -1      3441 6.46850E-05-2.13797E-05-1.83864E-05-2.06630E-05-6.71788E-19 7.08464E-19
 -1      3442 5.58410E-05-1.53573E-05-1.71597E-05-1.22713E-05-2.29024E-18-2.19318E-18
 -1      3443 1.18456E-04-5.18860E-05-2.83779E-05-1.26666E-05 4.02220E-19 4.27593E-19
 -1      3444 1.09503E-04-4.94092E-05-2.55898E-05 2.10859E-05-2.10329E-19 5.11042E-19
 -1      3445 1.00998E-04-4.55308E-05-2.35532E-05-2.58421E-05-1.11443E-18-1.41110E-18
 -1      3446 9.34454E-05-2.01296E-05-3.14445E-05 4.17344E-06 1.48963E-18-8.70390E-19
 -1      3447 9.30862E-05-1.94652E-05-3.15623E-05 3.58928E-06 1.25469E-18-1.06587E-18
 -1      3448 9.37765E-05-2.06799E-05-3.13062E-05 2.76848E-06 1.04256E-18-1.00626E-18
 -1      3449 9.43478E-05-2.18885E-05-3.10333E-05 3.55176E-06 1.37155E-18-7.30355E-19
 -1      3450 1.34365E-04-4.67594E-05-3.78728E-05-8.00108E-06-2.30967E-18 3.32333E-18
 -1      3451 1.33637E-04-5.25844E-05-3.47008E-05-1.02285E-06-1.17555E-18 2.42738E-18
 -1      3452 9.46006E-05-2.69617E-05-2.89901E-05-2.21395E-06 8.15558E-19-1.97880E-18
 -1      3453 9.44092E-05-2.67893E-05-2.89832E-05-2.09920E-06 1.94541E-18-2.18598E-18
 -1      3454 9.41385E-05-2.65178E-05-2.89762E-05-2.25288E-06 1.77744E-18-1.53892E-18
 -1      3455 9.45481E-05-2.68550E-05-2.90068E-05-2.48158E-06 1.91147E-18-2.92769E-18
 -1      3456 9.25356E-05-1.84982E-05-3.17417E-05-2.32793E-06 5.69042E-20-2.01956E-18
 -1      3457 9.27708E-05-1.89093E-05-3.16732E-05-3.02681E-06-1.71675E-19-2.00136E-18
 -1      3458 9.37534E-05-2.06340E-05-3.13129E-05-2.74866E-06-3.11234E-19-1.72857E-18
 -1      3459 1.31861E-04-4.59433E-05-3.69290E-05-9.24701E-06-2.30091E-18 2.67265E-18
 -1      3460 1.17148E-04-4.89729E-05-2.90784E-05 9.14332E-06 7.14057E-19 2.35502E-19
 -1      3461 1.12398E-04-4.99256E-05-2.66432E-05 1.78738E-05 1.67476E-18 4.43567E-20
 -1      3462 9.60660E-05-2.74759E-05-2.93894E-05 6.06393E-07-4.82925E-19-7.41994E-19
 -1      3463 9.60435E-05-2.77359E-05-2.92780E-05 9.33219E-07-4.25401E-19-6.98145E-19
 -1      3464 9.60039E-05-2.79234E-05-2.91736E-05 1.17336E-06-4.34588E-19-7.10186E-19
 -1      3465 9.59488E-05-2.80462E-05-2.91018E-05 1.40730E-06-1.38034E-19-6.92011E-19
 -1      3466 9.61530E-05-2.76981E-05-2.93385E-05 9.32889E-07-3.76059E-19-5.78337E-19
 -1      3467 9.58490E-05-2.81043E-05-2.90319E-05 1.58765E-06-1.14946E-19-8.05795E-19
 -1      3468 9.57738E-05-2.81255E-05-2.89910E-05 1.77087E-06-8.08398E-20-7.47469E-19
 -1      3469 9.60160E-05-2.79834E-05-2.91577E-05 1.37014E-06-2.48898E-19-6.73953E-19
 -1      3470 9.56294E-05-2.80860E-05-2.89478E-05 1.92433E-06 9.91240E-20-9.84815E-19
 -1      3471 9.55396E-05-2.80298E-05-2.89303E-05 2.09138E-06 1.93085E-19-8.69803E-19
 -1      3472 9.57755E-05-2.80211E-05-2.90382E-05 1.71706E-06-3.26501E-20-9.79707E-19
 -1      3473 9.53580E-05-2.79147E-05-2.89068E-05 2.24550E-06 8.98004E-20-8.03794E-19
 -1      3474 9.52550E-05-2.77988E-05-2.89064E-05 2.42377E-06-2.38003E-19-6.62489E-19
 -1      3475 9.54538E-05-2.78685E-05-2.89651E-05 2.03330E-06 1.09441E-19-1.16339E-18
 -1      3476 9.50383E-05-2.76239E-05-2.88961E-05 2.60083E-06-5.08533E-19-2.25877E-19
 -1      3477 9.49217E-05-2.74621E-05-2.89071E-05 2.81158E-06-3.65877E-19-3.32769E-19
 -1      3478 9.50601E-05-2.75667E-05-2.89248E-05 2.36808E-06-1.53034E-19-9.03090E-19
 -1      3479 9.46684E-05-2.72402E-05-2.89036E-05 3.02952E-06-4.71308E-19-6.67252E-19
 -1      3480 9.45373E-05-2.70453E-05-2.89204E-05 3.28894E-06-4.21133E-19-7.73579E-19
 -1      3481 9.45950E-05-2.71475E-05-2.89039E-05 2.76106E-06-5.48971E-19-8.20083E-19
 -1      3482 9.42451E-05-2.67895E-05-2.89169E-05 3.56226E-06-3.08084E-19-7.73780E-19
 -1      3483 9.41006E-05-2.65768E-05-2.89334E-05 3.88212E-06-4.46751E-19-6.94949E-19
 -1      3484 9.40546E-05-2.66392E-05-2.88889E-05 3.24417E-06-4.18384E-19-9.68522E-19
 -1      3485 9.37681E-05-2.63038E-05-2.89220E-05 4.22289E-06-4.38360E-19-3.45426E-19
 -1      3486 9.36155E-05-2.60948E-05-2.89313E-05 4.61105E-06-4.72226E-19-1.83330E-19
 -1      3487 9.34348E-05-2.60734E-05-2.88645E-05 3.84360E-06-5.39147E-20-6.75358E-19
 -1      3488 9.32462E-05-2.58294E-05-2.89029E-05 5.03038E-06-4.31675E-19-2.25308E-19
 -1      3489 9.31000E-05-2.56573E-05-2.88966E-05 5.49140E-06-5.22367E-19 2.49026E-20
 -1      3490 9.27369E-05-2.54928E-05-2.88132E-05 4.58254E-06-4.07049E-19-2.75198E-19
 -1      3491 9.27066E-05-2.54381E-05-2.88404E-05 6.00159E-06-6.32041E-19 5.66010E-19
 -1      3492 9.25980E-05-2.53547E-05-2.88088E-05 6.53748E-06-4.16990E-19 7.56374E-19
 -1      3493 9.19753E-05-2.49610E-05-2.87141E-05 5.48555E-06-2.32679E-19-2.18763E-19
 -1      3494 9.22106E-05-2.52420E-05-2.87122E-05 7.15506E-06-3.97750E-19 9.07533E-19
 -1      3495 9.21985E-05-2.53270E-05-2.86452E-05 7.76594E-06-1.14275E-19 8.06657E-19
 -1      3496 9.11893E-05-2.45761E-05-2.85428E-05 6.58498E-06-2.34125E-19 7.89819E-19
 -1      3497 9.18770E-05-2.54125E-05-2.84952E-05 8.51562E-06 1.29638E-20 5.38513E-19
 -1      3498 9.20654E-05-2.57855E-05-2.83846E-05 9.19908E-06-1.65015E-19 5.86023E-19
 -1      3499 9.04628E-05-2.44876E-05-2.82722E-05 7.93020E-06-2.43100E-19 9.83652E-19
 -1      3500 9.19206E-05-2.62054E-05-2.81705E-05 1.01160E-05-1.54813E-19 1.07165E-18
 -1      3501 9.24825E-05-2.70392E-05-2.80154E-05 1.08593E-05 4.35519E-19 1.23969E-18
 -1      3502 8.99542E-05-2.49210E-05-2.78759E-05 9.59883E-06 7.37982E-20 1.76801E-18
 -1      3503 9.27130E-05-2.79885E-05-2.77350E-05 1.19757E-05 6.26691E-19 8.46435E-19
 -1      3504 9.39153E-05-2.95107E-05-2.75542E-05 1.27268E-05 9.36322E-19 8.83113E-19
 -1      3505 8.99553E-05-2.62181E-05-2.73360E-05 1.16957E-05 2.72491E-19 1.46690E-18
 -1      3506 9.48546E-05-3.12487E-05-2.72305E-05 1.40456E-05 1.11690E-18 6.50960E-19
 -1      3507 9.70601E-05-3.37236E-05-2.70823E-05 1.46433E-05 1.27192E-18 2.73874E-19
 -1      3508 9.09519E-05-2.88374E-05-2.66650E-05 1.43214E-05 8.16558E-19 1.60203E-19
 -1      3509 9.93044E-05-3.65040E-05-2.67950E-05 1.59552E-05 1.96812E-18 1.40690E-19
 -1      3510 1.03151E-04-4.02265E-05-2.68829E-05 1.58655E-05 1.91963E-18 1.18373E-19
 -1      3511 9.39075E-05-3.35238E-05-2.59468E-05 1.74598E-05 1.53309E-18-3.84093E-19
 -1      3512 1.07091E-04-4.59231E-05-2.61100E-05 1.89806E-05 1.55272E-18-1.59116E-20
 -1      3513 1.28351E-04-4.55943E-05-3.54932E-05-9.54099E-06-2.20604E-18 1.70219E-18
 -1      3514 5.30995E-05-1.34882E-05-1.69146E-05 6.23224E-06-2.80444E-18-9.33324E-19
 -1      3515 5.28760E-05-1.30249E-05-1.69034E-05-2.76879E-06-3.04485E-18-1.29083E-18
 -1      3516 1.10430E-04-4.44008E-05-2.83111E-05 1.12516E-05 1.21198E-18-2.97347E-20
 -1      3517 1.11831E-04-4.81686E-05-2.74660E-05 1.52121E-05 1.06655E-18 2.21669E-18
 -1      3518 1.02512E-04-4.33454E-05-2.50021E-05 2.15938E-05 8.48596E-19 1.24002E-18
 -1      3519 1.06947E-04-4.11864E-05-2.80357E-05 1.23916E-05 1.09610E-18-9.13803E-20
 -1      3520 1.12661E-04-4.78293E-05-2.77236E-05-1.38815E-05 7.24015E-19 3.02364E-19
 -1      3521 1.07535E-04-4.39949E-05-2.70880E-05-1.56497E-05 9.08807E-19 2.98756E-19
 -1      3522 1.09000E-04-4.83560E-05-2.61976E-05-1.98250E-05 8.48595E-19 1.42778E-18
 -1      3523 1.03585E-04-4.00498E-05-2.71287E-05-1.50726E-05 4.75748E-19 6.11556E-19
 -1      3524 9.98405E-05-3.66579E-05-2.70337E-05-1.53455E-05 3.91551E-19-3.52167E-19
 -1      3525 9.94217E-05-3.94406E-05-2.58765E-05-1.90395E-05 5.25617E-19 2.17588E-19
 -1      3526 9.77349E-05-3.38764E-05-2.73061E-05-1.41269E-05 3.25702E-19-1.07364E-18
 -1      3527 9.53969E-05-3.14232E-05-2.74266E-05-1.36675E-05-5.08958E-19-1.47595E-18
 -1      3528 9.39434E-05-3.26126E-05-2.63500E-05-1.63302E-05-2.36966E-19-1.39001E-18
 -1      3529 9.44935E-05-2.97130E-05-2.77293E-05-1.24624E-05-5.56652E-19-1.20430E-18
 -1      3530 9.31901E-05-2.81526E-05-2.78999E-05-1.17580E-05-4.71657E-19-1.65084E-18
 -1      3531 9.14069E-05-2.84267E-05-2.70169E-05-1.35101E-05-5.09966E-19-1.29236E-18
 -1      3532 9.29555E-05-2.72196E-05-2.81560E-05-1.07094E-05-1.05409E-18-8.34658E-19
 -1      3533 9.23204E-05-2.63334E-05-2.83072E-05-9.97061E-06-1.66369E-18-8.67711E-19
 -1      3534 9.04887E-05-2.60306E-05-2.76226E-05-1.10954E-05-9.07495E-19-1.58398E-18
 -1      3535 9.24336E-05-2.59145E-05-2.85009E-05-9.08873E-06-3.07449E-19-8.91349E-19
 -1      3536 9.21939E-05-2.54878E-05-2.86116E-05-8.38707E-06 5.23475E-20-4.44793E-19
 -1      3537 9.04852E-05-2.48836E-05-2.81015E-05-9.12706E-06-1.69709E-19-1.25788E-18
 -1      3538 9.24704E-05-2.53916E-05-2.87459E-05-7.64447E-06-7.52674E-19 9.17368E-19
 -1      3539 9.24447E-05-2.52546E-05-2.88148E-05-7.00279E-06-1.82408E-19 3.47836E-19
 -1      3540 9.09318E-05-2.45117E-05-2.84492E-05-7.52119E-06-2.77931E-20-9.68885E-19
 -1      3541 9.27785E-05-2.53452E-05-2.89003E-05-6.37298E-06 4.23319E-19-2.32955E-19
 -1      3542 9.28552E-05-2.53761E-05-2.89349E-05-5.79727E-06 1.14383E-18-1.09048E-18
 -1      3543 9.15657E-05-2.46000E-05-2.86835E-05-6.19192E-06-4.81839E-20 8.23607E-20
 -1      3544 9.31884E-05-2.55623E-05-2.89841E-05-5.25973E-06 1.15057E-18-1.36824E-18
 -1      3545 9.33039E-05-2.56802E-05-2.89939E-05-4.74963E-06 9.34661E-19-1.39575E-18
 -1      3546 9.22379E-05-2.49350E-05-2.88296E-05-5.07468E-06 8.94168E-19 7.51133E-19
 -1      3547 9.36082E-05-2.59034E-05-2.90182E-05-4.29328E-06 9.16437E-19-8.64558E-19
 -1      3548 9.37266E-05-2.60530E-05-2.90127E-05-3.84933E-06 7.77546E-19-1.47917E-18
 -1      3549 9.28708E-05-2.53800E-05-2.89124E-05-4.12682E-06 8.88715E-19 1.09435E-19
 -1      3550 9.39877E-05-2.62732E-05-2.90216E-05-3.45708E-06 9.25611E-19-2.15299E-18
 -1      3551 9.41179E-05-2.64281E-05-2.90104E-05-3.08059E-06 7.46528E-19-2.48079E-18
 -1      3552 9.34222E-05-2.58416E-05-2.89538E-05-3.32516E-06 4.74778E-19-1.58931E-18
 -1      3553 9.46304E-05-2.70144E-05-2.89720E-05-3.87445E-06 1.26037E-19-3.85469E-20
 -1      3554 9.46840E-05-2.71741E-05-2.89393E-05-3.56602E-06 3.42995E-19 8.36603E-20
 -1      3555 7.52712E-05-2.75142E-05-2.00926E-05-2.48606E-05-4.70924E-19-1.75050E-18
 -1      3556 8.38677E-05-3.38644E-05-2.15475E-05-2.65442E-05-5.15975E-19-2.75085E-18
 -1      3557 9.48949E-05-2.73804E-05-2.89292E-05-3.29486E-06 3.15231E-19 1.68878E-19
 -1      3558 9.49492E-05-2.75282E-05-2.88999E-05-3.04531E-06 9.65721E-20 2.18215E-19
 -1      3559 9.44761E-05-2.70121E-05-2.89113E-05-3.33273E-06 3.87811E-19 2.61415E-19
 -1      3560 9.40774E-05-2.63316E-05-2.90257E-05-5.43823E-06 4.44093E-22 1.94162E-19
 -1      3561 9.40998E-05-2.64421E-05-2.90044E-05-4.99881E-06 1.78140E-19 7.22112E-20
 -1      3562 9.38600E-05-2.61566E-05-2.90057E-05-6.43257E-06-3.00290E-19 3.78266E-19
 -1      3563 9.38281E-05-2.61781E-05-2.90012E-05-5.93309E-06 6.88611E-20 4.89172E-19
 -1      3564 9.30501E-05-2.56932E-05-2.88641E-05-5.57227E-06-1.56162E-19 6.98516E-19
 -1      3565 9.37901E-05-2.62544E-05-2.89309E-05-7.56032E-06-5.47567E-19-3.00628E-20
 -1      3566 9.36484E-05-2.61127E-05-2.89513E-05-7.01470E-06-5.52018E-19-1.23508E-19
 -1      3567 9.25817E-05-2.54563E-05-2.87663E-05-6.63900E-06-2.52416E-19 3.24312E-19
 -1      3568 9.40293E-05-2.68222E-05-2.87854E-05-8.79984E-06-3.99811E-19 5.04374E-20
 -1      3569 9.36841E-05-2.64087E-05-2.88368E-05-8.23399E-06-3.45382E-19 5.51485E-20
 -1      3570 9.22446E-05-2.55313E-05-2.85936E-05-7.89549E-06-2.58652E-19-5.72405E-19
 -1      3571 9.48429E-05-2.81377E-05-2.85642E-05-1.01032E-05-1.29013E-19 1.18046E-20
 -1      3572 9.41472E-05-2.73028E-05-2.86455E-05-9.56423E-06-2.42911E-19 1.30232E-19
 -1      3573 9.22157E-05-2.61415E-05-2.83282E-05-9.36322E-06-3.80035E-19-2.37889E-19
 -1      3574 9.66356E-05-3.05530E-05-2.82903E-05-1.13554E-05-2.65106E-19 8.88516E-20
 -1      3575 9.53792E-05-2.91167E-05-2.83835E-05-1.09354E-05-2.27965E-19-2.37619E-19
 -1      3576 9.27947E-05-2.76057E-05-2.79657E-05-1.10518E-05-1.02386E-19-3.86915E-19
 -1      3577 9.99733E-05-3.44763E-05-2.80413E-05-1.23011E-05-3.80319E-19 1.21779E-19
 -1      3578 9.78952E-05-3.22435E-05-2.80955E-05-1.21850E-05-1.62015E-19 1.77560E-19
 -1      3579 9.44562E-05-3.03471E-05-2.75347E-05-1.29184E-05-3.14058E-19 5.11528E-20
 -1      3580 1.05464E-04-4.00116E-05-2.80235E-05-1.22501E-05-7.68077E-19 5.53437E-19
 -1      3581 1.02402E-04-3.70438E-05-2.79183E-05-1.28073E-05-6.59637E-19 2.57882E-19
 -1      3582 9.79648E-05-3.49102E-05-2.71311E-05-1.47276E-05-5.16247E-19 1.11669E-20
 -1      3583 1.13777E-04-4.64886E-05-2.87356E-05-9.71011E-06-4.40801E-19-3.23461E-19
 -1      3584 1.09654E-04-4.35584E-05-2.81703E-05-1.19191E-05-4.88564E-19 4.35256E-19
 -1      3585 1.04175E-04-4.13655E-05-2.70507E-05-1.56667E-05-6.62003E-19-3.76685E-19
 -1      3586 9.44343E-05-2.22602E-05-3.09520E-05-4.34847E-06-9.14351E-19-1.87146E-18
 -1      3587 1.30011E-04-5.32028E-05-3.29930E-05 6.96829E-07-1.33796E-18 1.56791E-18
 -1      3588 6.64042E-05-2.25238E-05-1.89477E-05 2.20493E-05-1.90756E-18-2.11520E-18
 -1      3589 5.81591E-05-1.62141E-05-1.76661E-05 1.39465E-05-2.22106E-18-1.52394E-18
 -1      3590 1.00693E-04-3.52426E-05-2.79719E-05 1.26987E-05 1.31329E-18-1.32611E-18
 -1      3591 1.03388E-04-3.79622E-05-2.80074E-05 1.24733E-05 1.31844E-18-1.16982E-18
 -1      3592 1.01894E-04-3.95548E-05-2.69043E-05 1.59174E-05 1.98777E-18 2.01045E-18
 -1      3593 9.69192E-05-3.09969E-05-2.82096E-05 1.17551E-05 1.09547E-18-1.76259E-18
 -1      3594 9.86818E-05-3.29445E-05-2.81380E-05 1.20082E-05 1.05533E-18-1.56015E-18
 -1      3595 9.63221E-05-3.32439E-05-2.71267E-05 1.44388E-05 1.62035E-18-6.90504E-19
 -1      3596 9.48899E-05-2.83370E-05-2.85026E-05 1.04121E-05-3.35832E-19-1.12800E-18
 -1      3597 9.59276E-05-2.95581E-05-2.84144E-05 1.08868E-05 3.24366E-19-1.00436E-18
 -1      3598 9.35078E-05-2.92438E-05-2.75866E-05 1.24672E-05 3.07380E-19 1.16170E-18
 -1      3599 9.39445E-05-2.68454E-05-2.87499E-05 9.00892E-06-6.26100E-19-1.36507E-18
 -1      3600 9.45086E-05-2.75336E-05-2.86818E-05 9.57201E-06-6.43655E-19-1.63285E-18
 -1      3601 9.22522E-05-2.68957E-05-2.80337E-05 1.05549E-05 1.56565E-19 1.60772E-18
 -1      3602 9.36338E-05-2.61487E-05-2.89225E-05 7.66735E-06-2.06252E-18-2.37776E-18
 -1      3603 9.39098E-05-2.64761E-05-2.88842E-05 8.24773E-06-8.05032E-19-2.19847E-18
 -1      3604 9.19130E-05-2.56847E-05-2.83947E-05 8.85853E-06-5.14125E-19 4.60928E-19
 -1      3605 9.36639E-05-2.59525E-05-2.90229E-05 6.43571E-06-1.60874E-18-2.89748E-18
 -1      3606 9.37768E-05-2.60543E-05-2.90118E-05 6.99485E-06-1.60645E-18-3.24135E-18
 -1      3607 9.20712E-05-2.52192E-05-2.86544E-05 7.38860E-06-1.02900E-18-6.99794E-19
 -1      3608 9.38541E-05-2.60450E-05-2.90662E-05 5.33097E-06-2.98325E-19-2.72504E-18
 -1      3609 9.38820E-05-2.60173E-05-2.90752E-05 5.84774E-06-1.34555E-18-3.36586E-18
 -1      3610 9.24648E-05-2.52093E-05-2.88237E-05 6.12128E-06-1.21320E-18-2.19005E-18
 -1      3611 9.40993E-05-2.62826E-05-2.90697E-05 4.35739E-06-4.34424E-19-2.77670E-18
 -1      3612 9.40890E-05-2.61905E-05-2.90911E-05 4.82119E-06 2.85740E-19-2.97576E-18
 -1      3613 9.29401E-05-2.54512E-05-2.89223E-05 5.02885E-06-5.25981E-19-2.82048E-18
 -1      3614 9.43406E-05-2.65706E-05-2.90496E-05 3.51083E-06-6.01531E-19-3.21041E-18
 -1      3615 9.43186E-05-2.64554E-05-2.90768E-05 3.91967E-06-1.03511E-18-3.34949E-18
 -1      3616 9.34119E-05-2.58098E-05-2.89707E-05 4.09131E-06-3.80120E-19-2.02802E-18
 -1      3617 9.45531E-05-2.68487E-05-2.90190E-05 2.78603E-06 1.27147E-19-4.71631E-18
 -1      3618 9.45312E-05-2.67417E-05-2.90465E-05 3.14054E-06-4.61308E-19-4.26158E-18
 -1      3619 9.38319E-05-2.61957E-05-2.89876E-05 3.29239E-06 1.71219E-19-3.09186E-18
 -1      3620 9.58753E-05-2.71461E-05-2.94618E-05-1.85663E-07 7.46547E-19-3.76972E-19
 -1      3621 9.58627E-05-2.67130E-05-2.96249E-05 3.24050E-07 7.57256E-19-4.25472E-19
 -1      3622 1.16163E-04-4.96663E-05-2.83749E-05-1.15402E-05-8.41143E-19-6.61376E-19
 -1      3623 9.58225E-05-2.80782E-05-2.90337E-05-1.42376E-06 3.56475E-19-3.53041E-19
 -1      3624 9.58618E-05-2.79481E-05-2.91010E-05-1.17993E-06 5.78377E-19-2.87090E-19
 -1      3625 9.44910E-05-2.68809E-05-2.89817E-05 2.03355E-06-2.53665E-19-2.49040E-18
 -1      3626 9.47316E-05-2.71029E-05-2.89828E-05 2.06617E-06 5.27206E-19-4.95290E-18
 -1      3627 9.47387E-05-2.70808E-05-2.89952E-05 2.24744E-06 5.23890E-19-4.43252E-18
 -1      3628 9.42217E-05-2.66089E-05-2.89749E-05 2.19274E-06 2.66360E-19-2.01266E-18
 -1      3629 9.92714E-05-4.28758E-05-2.39040E-05-2.43709E-05 6.47960E-19 1.94673E-18
 -1      3630 9.51354E-05-2.77072E-05-2.88930E-05-2.82925E-06-6.30979E-21 2.38159E-19
 -1      3631 9.51879E-05-2.78285E-05-2.88719E-05-2.62708E-06 6.44729E-20 7.49182E-20
 -1      3632 9.48695E-05-2.74275E-05-2.89028E-05-2.84683E-06 1.28492E-19 1.01898E-19
 -1      3633 9.26112E-05-2.52637E-05-2.88639E-05-6.72392E-07 8.36854E-19-1.82822E-18
 -1      3634 9.25416E-05-2.52131E-05-2.88592E-05-2.46477E-07 5.04577E-19-1.42870E-18
 -1      3635 6.66260E-05-2.35437E-05-1.83949E-05 2.34074E-05 5.40711E-19-2.31558E-19
 -1      3636 5.91752E-05-1.83253E-05-1.72929E-05 1.81908E-05 2.00522E-19-6.73391E-19
 -1      3637 5.50479E-05-1.47869E-05-1.70047E-05 1.15789E-05 2.17807E-19-1.40216E-18
 -1      3638 5.34540E-05-1.32212E-05-1.71312E-05 8.14954E-07-4.51535E-19-1.72652E-18
 -1      3639 9.90024E-05-4.17804E-05-2.45738E-05 2.29223E-05 1.63418E-18 9.51986E-20
 -1      3640 1.10840E-04-4.85469E-05-2.67138E-05-1.77552E-05-6.83489E-19-1.36896E-18
 -1      3641 9.43503E-05-2.66463E-05-2.90089E-05-4.58580E-06 5.60097E-19-9.91218E-20
 -1      3642 9.43962E-05-2.67971E-05-2.89786E-05-4.21221E-06 4.98096E-19-9.23225E-20
 -1      3643 9.40342E-05-2.65525E-05-2.89180E-05-3.93575E-06 3.47095E-19 3.65841E-20
 -1      3644 9.35512E-05-2.60915E-05-2.89081E-05-4.67660E-06 4.04451E-19 1.96675E-19
 -1      3645 9.56684E-05-2.53884E-05-3.01277E-05-1.34282E-06-4.69841E-19-1.11607E-18
 -1      3646 9.57958E-05-2.60587E-05-2.98985E-05-6.64369E-07-3.72684E-19-1.00174E-18
 -1      3647 9.56981E-05-2.81861E-05-2.89322E-05-1.80190E-06 1.07867E-19-3.92007E-19
 -1      3648 9.57436E-05-2.81480E-05-2.89673E-05-1.61702E-06 1.85973E-19-1.90971E-19
 -1      3649 9.59412E-05-2.80299E-05-2.91069E-05-1.41572E-06 2.77020E-19-2.10516E-19
 -1      3650 9.22493E-05-1.80075E-05-3.18302E-05-9.86833E-07 3.13580E-19-2.10260E-18
 -1      3651 9.23635E-05-1.82027E-05-3.17983E-05-1.72747E-06 1.33269E-19-2.06763E-18
 -1      3652 9.33382E-05-1.98483E-05-3.14761E-05-1.71603E-06 6.15627E-20-1.96189E-18
 -1      3653 9.06282E-05-3.80493E-05-2.27650E-05 2.59526E-05-4.92258E-19-2.29599E-19
 -1      3654 7.83514E-05-2.94339E-05-2.05843E-05 2.53943E-05-9.72936E-19-1.39033E-18
 -1      3655 7.69635E-05-2.90326E-05-2.03753E-05-2.52478E-05-6.33687E-19 1.51375E-18
 -1      3656 8.87636E-05-3.72088E-05-2.21639E-05-2.68662E-05-2.33834E-19 2.40279E-18
 -1      3657 9.49068E-05-3.80571E-05-2.41968E-05-2.21960E-05 4.70169E-19 1.27060E-18
 -1      3658 9.58935E-05-2.77585E-05-2.92038E-05-9.15136E-07 5.94721E-19-1.51921E-19
 -1      3659 9.59170E-05-2.75020E-05-2.93129E-05-5.65535E-07 6.58220E-19-3.36064E-19
 -1      3660 9.60476E-05-2.77240E-05-2.92837E-05-9.35541E-07 5.80629E-19-1.54420E-19
 -1      3661 9.59860E-05-2.66687E-05-2.96983E-05-2.05033E-07-3.70884E-19-1.02948E-18
 -1      3662 9.60167E-05-2.71130E-05-2.95369E-05 2.66519E-07-4.32743E-19-7.88534E-19
 -1      3663 9.61409E-05-2.70810E-05-2.95968E-05 3.36224E-07-4.03596E-19-9.55979E-19
 -1      3664 9.25462E-05-3.85737E-05-2.28247E-05-2.57251E-05-3.46648E-19-1.96931E-18
 -1      3665 1.04105E-04-4.55764E-05-2.51428E-05-2.17105E-05-3.55919E-19-1.93075E-18
 -1      3666 1.02413E-04-4.22885E-05-2.57881E-05-1.92058E-05-3.21806E-19-1.51520E-18
 -1      3667 8.93749E-05-3.48288E-05-2.32832E-05-2.30010E-05 5.84982E-21-2.15711E-18
 -1      3668 7.15745E-05-2.36571E-05-2.03782E-05-2.01383E-05-7.58386E-19-1.72676E-18
 -1      3669 7.29423E-05-2.49873E-05-2.03627E-05-2.24103E-05-4.97169E-19 1.96218E-18
 -1      3670 8.11092E-05-2.81389E-05-2.25806E-05-2.07812E-05-4.53904E-19 1.99969E-18
 -1      3671 6.97804E-05-2.12693E-05-2.07460E-05-1.76737E-05-7.05585E-19 1.15379E-18
 -1      3672 6.08862E-05-1.57759E-05-1.90586E-05 9.33611E-06-1.85376E-18-1.22748E-18
 -1      3673 9.67636E-05-3.83640E-05-2.49083E-05 2.04417E-05 1.51943E-18 1.75554E-18
 -1      3674 9.42230E-05-2.16707E-05-3.10986E-05-2.02714E-06-9.31860E-20-1.61556E-18
 -1      3675 9.44527E-05-2.21840E-05-3.09938E-05-2.45637E-06-2.77408E-19-1.46005E-18
 -1      3676 9.52901E-05-2.41913E-05-3.04565E-05-1.79066E-06-3.61197E-19-1.27798E-18
 -1      3677 9.53515E-05-2.42239E-05-3.04780E-05-1.42396E-06-1.36094E-19-1.20527E-18
 -1      3678 9.42404E-05-2.65731E-05-2.90010E-05-2.77803E-06 5.32158E-19-2.20564E-18
 -1      3679 5.97728E-05-1.43138E-05-1.95014E-05-3.06990E-06-2.10022E-18-2.66217E-18
 -1      3680 5.71949E-05-1.43287E-05-1.81173E-05-7.33953E-06-2.26640E-18-2.78986E-18
 -1      3681 6.26560E-05-1.65290E-05-1.97305E-05-1.12810E-05-1.72740E-18-2.46185E-18
 -1      3682 9.25454E-05-2.52168E-05-2.88591E-05 2.63924E-07 4.35558E-19 1.24411E-19
 -1      3683 9.26186E-05-2.52740E-05-2.88635E-05 6.93446E-07 4.26425E-19 1.36992E-18
 -1      3684 9.21866E-05-2.49304E-05-2.88176E-05 1.58397E-08 8.55040E-19-2.44151E-19
 -1      3685 9.55381E-05-2.81367E-05-2.88834E-05-2.12432E-06 1.83854E-19-2.88426E-19
 -1      3686 9.55863E-05-2.81671E-05-2.88939E-05-1.96082E-06 2.43070E-19-3.53718E-19
 -1      3687 9.57550E-05-2.81040E-05-2.89948E-05-1.78539E-06 9.51238E-20-1.56930E-19
 -1      3688 9.58282E-05-2.60522E-05-2.99037E-05 6.82199E-07 7.97248E-19-7.07497E-19
 -1      3689 9.57051E-05-2.61158E-05-2.98321E-05 8.75319E-07 8.11827E-19-4.95412E-19
 -1      3690 9.60345E-05-2.71046E-05-2.95427E-05-2.65678E-07 7.12963E-19-3.71452E-19
 -1      3691 9.47667E-05-2.70661E-05-2.90129E-05 2.44216E-06 5.01304E-19-5.00857E-18
 -1      3692 7.42660E-05-2.75016E-05-1.97307E-05 2.50747E-05 1.16840E-18 3.93764E-19
 -1      3693 7.27351E-05-2.45951E-05-2.05048E-05 2.13812E-05 4.60283E-19 7.33054E-19
 -1      3694 8.26334E-05-3.24070E-05-2.15314E-05 2.55037E-05 1.66723E-18 5.56289E-19
 -1      3695 7.54771E-05-2.55841E-05-2.12362E-05 2.07497E-05-1.41710E-18-1.23245E-18
 -1      3696 6.20005E-05-1.71630E-05-1.89748E-05 1.28757E-05 1.30992E-19-5.13831E-19
 -1      3697 9.27600E-05-2.53934E-05-2.88778E-05-1.14919E-06 5.10637E-19-1.79557E-18
 -1      3698 9.23541E-05-2.50595E-05-2.88334E-05-1.00871E-06 2.71205E-19-2.21843E-18
 -1      3699 9.29590E-05-2.55406E-05-2.88908E-05-1.52758E-06 4.58311E-20-1.83471E-18
 -1      3700 6.04171E-05-1.42980E-05-1.96641E-05 1.01905E-06-4.41893E-19-1.28037E-18
 -1      3701 5.68488E-05-1.37712E-05-1.81499E-05-4.59104E-06-6.55676E-19-2.15091E-18
 -1      3702 6.14981E-05-1.59065E-05-1.96540E-05-9.33084E-06-8.48687E-19-1.96993E-18
 -1      3703 9.56197E-05-2.55656E-05-3.00081E-05 1.49408E-06 9.33213E-19-5.44077E-19
 -1      3704 9.53498E-05-2.79675E-05-2.88741E-05-2.45109E-06-1.40186E-19-1.15788E-19
 -1      3705 9.54001E-05-2.80500E-05-2.88663E-05-2.27954E-06-4.53505E-20-2.41942E-19
 -1      3706 9.52137E-05-2.77671E-05-2.89057E-05-2.45142E-06-2.64992E-19 8.99983E-21
 -1      3707 9.42705E-05-2.66242E-05-2.89896E-05 2.58064E-06 5.96334E-19-4.78312E-18
 -1      3708 9.31291E-05-1.94640E-05-3.15524E-05-5.70675E-07 3.66271E-19-1.88975E-18
 -1      3709 9.49034E-05-2.33766E-05-3.06457E-05-2.52359E-06-4.79373E-19-1.40439E-18
 -1      3710 9.41120E-05-2.15347E-05-3.11019E-05-4.11245E-06-7.33034E-19-1.74101E-18
 -1      3711 9.51566E-05-2.40493E-05-3.04650E-05 3.04991E-06 1.36386E-18-6.31640E-19
 -1      3712 9.48329E-05-2.31904E-05-3.07119E-05 3.24559E-06 1.39695E-18-6.75357E-19
 -1      3713 9.45755E-05-2.25170E-05-3.08856E-05 2.99629E-06 1.21710E-18-7.34410E-19
 -1      3714 9.53342E-05-2.48300E-05-3.02253E-05 2.20749E-06 1.19515E-18-5.89076E-19
 -1      3715 9.46417E-05-2.25450E-05-3.08645E-05-3.15089E-06-6.00644E-19-1.59724E-18
 -1      3716 9.32600E-05-2.58059E-05-2.89161E-05 1.93352E-06 1.44517E-19 3.33328E-19
 -1      3717 9.35759E-05-2.60534E-05-2.89355E-05 2.20981E-06 4.55142E-19-7.60640E-19
 -1      3718 9.59313E-05-2.60569E-05-2.99507E-05-4.83581E-07-3.34326E-19-1.05695E-18
 -1      3719 9.38320E-05-2.08650E-05-3.12838E-05 7.77103E-07 5.89852E-19-1.52674E-18
 -1      3720 9.37817E-05-2.07622E-05-3.13039E-05 2.35366E-07 4.92980E-19-1.76704E-18
 -1      3721 9.39701E-05-2.63783E-05-2.89721E-05 2.50029E-06-1.02757E-19-2.25956E-18
 -1      3722 9.35886E-05-2.60348E-05-2.89463E-05 2.62984E-06 8.05174E-19-1.19241E-18
 -1      3723 9.39242E-05-2.10437E-05-3.12417E-05 1.19248E-06 7.08921E-19-1.38967E-18
 -1      3724 9.45551E-05-2.21648E-05-3.10058E-05 7.79645E-07 6.25189E-19-1.32264E-18
 -1      3725 9.40672E-05-2.13464E-05-3.11808E-05 1.69301E-06 8.01725E-19-1.25717E-18
 -1      3726 9.62718E-05-2.74838E-05-2.94778E-05 6.73507E-07-3.82568E-19-8.56818E-19
 -1      3727 9.62342E-05-2.77180E-05-2.93670E-05 9.30923E-07-3.97358E-19-8.25406E-19
 -1      3728 9.61574E-05-2.78713E-05-2.92640E-05 1.10623E-06-2.86146E-19-6.94749E-19
 -1      3729 9.60584E-05-2.79562E-05-2.91876E-05 1.30151E-06-1.37145E-19-7.84593E-19
 -1      3730 9.62601E-05-2.76769E-05-2.93916E-05 8.68904E-07-3.09760E-19-9.13366E-19
 -1      3731 9.59032E-05-2.79699E-05-2.91145E-05 1.44176E-06-1.15927E-20-6.58927E-19
 -1      3732 9.57591E-05-2.79399E-05-2.90649E-05 1.60606E-06 7.51213E-20-7.78723E-19
 -1      3733 9.60298E-05-2.78689E-05-2.92109E-05 1.19155E-06-8.32500E-20-6.13623E-19
 -1      3734 9.55405E-05-2.78447E-05-2.90144E-05 1.73516E-06 3.20227E-20-8.42525E-19
 -1      3735 9.53586E-05-2.77249E-05-2.89844E-05 1.89483E-06-4.82319E-21-1.05041E-18
 -1      3736 9.56594E-05-2.77970E-05-2.90826E-05 1.46524E-06 2.27600E-20-9.45638E-19
 -1      3737 9.50838E-05-2.75435E-05-2.89494E-05 2.03283E-06 1.12094E-19-9.76675E-19
 -1      3738 9.48662E-05-2.73527E-05-2.89323E-05 2.20915E-06-9.60141E-20-7.86513E-19
 -1      3739 9.51707E-05-2.75172E-05-2.89923E-05 1.73213E-06-6.59391E-20-7.81151E-19
 -1      3740 9.45358E-05-2.71016E-05-2.89056E-05 2.37264E-06-5.32656E-19-7.97798E-19
 -1      3741 9.42812E-05-2.68549E-05-2.88946E-05 2.58274E-06-6.83930E-19-1.01826E-18
 -1      3742 9.45713E-05-2.70710E-05-2.89255E-05 2.02710E-06-2.72427E-19-9.00014E-19
 -1      3743 9.38918E-05-2.65484E-05-2.88684E-05 2.78586E-06-5.13577E-19-9.18857E-19
 -1      3744 9.35978E-05-2.62605E-05-2.88561E-05 3.04347E-06-4.28192E-19-7.51538E-19
 -1      3745 9.38582E-05-2.64911E-05-2.88670E-05 2.37959E-06-6.83658E-19-7.88337E-19
 -1      3746 9.31439E-05-2.59135E-05-2.88218E-05 3.29872E-06-2.25198E-19-4.54999E-19
 -1      3747 9.28092E-05-2.56023E-05-2.87999E-05 3.61529E-06 1.75446E-19-3.61605E-19
 -1      3748 9.30225E-05-2.58079E-05-2.87998E-05 2.81498E-06-8.47119E-20-3.33385E-19
 -1      3749 9.22849E-05-2.52334E-05-2.87471E-05 3.93536E-06 1.38966E-20-5.60937E-19
 -1      3750 9.19124E-05-2.49233E-05-2.87059E-05 4.32199E-06-3.94981E-19-3.45746E-19
 -1      3751 9.20526E-05-2.50552E-05-2.87048E-05 3.35701E-06-1.25796E-20-3.84921E-19
 -1      3752 9.13138E-05-2.45591E-05-2.86223E-05 4.72279E-06-2.24799E-19 2.51646E-19
 -1      3753 9.09157E-05-2.42869E-05-2.85499E-05 5.19305E-06 1.90502E-20 4.37573E-19
 -1      3754 9.09381E-05-2.42767E-05-2.85587E-05 4.03318E-06-3.44436E-20-5.65651E-20
 -1      3755 9.02441E-05-2.39669E-05-2.84206E-05 5.69848E-06 1.39029E-19 4.90828E-19
 -1      3756 8.98494E-05-2.37883E-05-2.83035E-05 6.27279E-06 2.22141E-20 7.60269E-19
 -1      3757 8.96749E-05-2.35342E-05-2.83334E-05 4.88276E-06 1.04790E-19 6.52497E-19
 -1      3758 8.91162E-05-2.35715E-05-2.81105E-05 6.92185E-06-1.11194E-21 1.15474E-18
 -1      3759 8.87827E-05-2.35704E-05-2.79337E-05 7.63359E-06 3.68341E-20 1.38837E-18
 -1      3760 8.82728E-05-2.29183E-05-2.79947E-05 5.96971E-06 4.11822E-19 5.34394E-19
 -1      3761 8.80162E-05-2.35428E-05-2.76560E-05 8.49177E-06 2.76815E-19 1.69591E-18
 -1      3762 8.78523E-05-2.38451E-05-2.74062E-05 9.39422E-06 3.97528E-19 1.92132E-18
 -1      3763 8.67659E-05-2.25599E-05-2.75017E-05 7.40185E-06 4.82350E-19 1.41470E-18
 -1      3764 8.71142E-05-2.41375E-05-2.70198E-05 1.05764E-05-3.02793E-19 2.01266E-18
 -1      3765 8.73107E-05-2.49405E-05-2.66887E-05 1.17420E-05-3.99489E-20 1.26075E-18
 -1      3766 8.52253E-05-2.26474E-05-2.68058E-05 9.36700E-06 2.22021E-19 1.39269E-18
 -1      3767 8.67760E-05-2.57806E-05-2.61698E-05 1.33735E-05 4.90993E-19 9.80721E-19
 -1      3768 8.76598E-05-2.73380E-05-2.57732E-05 1.48402E-05 6.92412E-19 5.36844E-19
 -1      3769 8.38791E-05-2.35390E-05-2.58477E-05 1.22004E-05 8.68159E-20 1.94131E-18
 -1      3770 9.40700E-05-2.66528E-05-2.88892E-05-3.21292E-06 3.83846E-19-1.90660E-19
 -1      3771 9.42826E-05-2.68914E-05-2.88883E-05-2.94974E-06 4.69603E-19-1.22075E-19
 -1      3772 9.14259E-05-2.98097E-05-2.64076E-05 1.49598E-05 6.00086E-19 2.65716E-18
 -1      3773 9.36558E-05-3.23268E-05-2.61950E-05 1.59134E-05 1.71355E-18 2.52026E-18
 -1      3774 9.40512E-05-2.13209E-05-3.11851E-05-1.66697E-06-5.13478E-21-1.93382E-18
 -1      3775 9.47746E-05-2.26770E-05-3.08786E-05-1.44273E-06 3.95341E-21-1.63928E-18
 -1      3776 9.39130E-05-2.10278E-05-3.12447E-05-1.16538E-06 9.92594E-20-1.90326E-18
 -1      3777 9.52827E-05-2.39948E-05-3.05679E-05-1.20249E-06-4.47182E-20-1.48471E-18
 -1      3778 9.57480E-05-2.50877E-05-3.02641E-05-8.92753E-07-1.57015E-19-1.06493E-18
 -1      3779 9.11369E-05-3.39082E-05-2.44460E-05-2.06008E-05-9.05899E-20 6.97499E-19
 -1      3780 8.83298E-05-2.70668E-05-2.61966E-05-1.40359E-05-1.52114E-19-2.29816E-19
 -1      3781 8.75252E-05-2.55991E-05-2.65668E-05-1.26861E-05-6.38474E-19-1.86099E-19
 -1      3782 8.80489E-05-2.48902E-05-2.70292E-05-1.11367E-05-9.27480E-19-6.81083E-19
 -1      3783 8.78423E-05-2.41579E-05-2.73237E-05-1.00971E-05-5.56138E-19-3.96011E-19
 -1      3784 8.48315E-05-2.35511E-05-2.62586E-05-1.15447E-05-7.55805E-19 1.10853E-19
 -1      3785 8.85105E-05-2.38980E-05-2.76689E-05-8.97066E-06-5.70387E-19-6.26365E-19
 -1      3786 8.86409E-05-2.36218E-05-2.78900E-05-8.14083E-06 4.17259E-20-6.87233E-19
 -1      3787 8.60626E-05-2.27625E-05-2.71126E-05-8.98480E-06-1.67280E-19 3.41122E-19
 -1      3788 8.93370E-05-2.36538E-05-2.81377E-05-7.29516E-06 2.36479E-19-1.44430E-18
 -1      3789 8.96227E-05-2.36540E-05-2.82922E-05-6.61796E-06 2.28165E-19-5.92150E-19
 -1      3790 8.74305E-05-2.26753E-05-2.77357E-05-7.12784E-06-1.92949E-19-1.06397E-18
 -1      3791 9.02837E-05-2.38538E-05-2.84633E-05-5.96210E-06 3.08953E-19-6.48726E-19
 -1      3792 9.06216E-05-2.40082E-05-2.85645E-05-5.39722E-06 3.96632E-19 8.12916E-20
 -1      3793 8.87792E-05-2.30015E-05-2.81756E-05-5.73325E-06 3.11812E-19-1.43258E-18
 -1      3794 9.12167E-05-2.42911E-05-2.86785E-05-4.87226E-06 3.97979E-19 8.27271E-19
 -1      3795 9.15495E-05-2.45190E-05-2.87402E-05-4.39340E-06 1.15787E-18 4.58932E-19
 -1      3796 9.00249E-05-2.35498E-05-2.84764E-05-4.64235E-06 8.45938E-19-5.86393E-19
 -1      3797 9.20695E-05-2.48349E-05-2.88130E-05-3.96391E-06 2.77566E-19 2.11063E-19
 -1      3798 9.23650E-05-2.50861E-05-2.88474E-05-3.56398E-06 2.90839E-19-7.21625E-20
 -1      3799 9.11343E-05-2.41945E-05-2.86752E-05-3.75780E-06 3.25799E-19-6.24793E-19
 -1      3800 9.28055E-05-2.53838E-05-2.88931E-05-3.19343E-06 7.76512E-19-6.48570E-19
 -1      3801 9.30706E-05-2.56266E-05-2.89102E-05-2.85023E-06 3.43118E-19-3.76037E-20
 -1      3802 9.20524E-05-2.48210E-05-2.88005E-05-3.03105E-06 9.44696E-20-3.21187E-19
 -1      3803 6.87564E-05-1.94487E-05-2.08152E-05-1.56659E-05-7.85256E-19-1.89119E-18
 -1      3804 7.72612E-05-2.55244E-05-2.23085E-05-1.96269E-05 3.87038E-20-2.31568E-18
 -1      3805 9.59420E-05-2.61255E-05-2.99282E-05 3.97889E-07 7.42763E-19-7.82886E-19
 -1      3806 9.57748E-05-2.54400E-05-3.01392E-05 9.64911E-07 7.75222E-19-8.58592E-19
 -1      3807 9.13366E-05-2.47086E-05-2.85446E-05-6.51578E-06-2.51220E-19-1.80295E-19
 -1      3808 9.15530E-05-2.48033E-05-2.86199E-05-5.95580E-06-1.40333E-19-1.82304E-20
 -1      3809 9.20603E-05-2.50445E-05-2.87140E-05-5.43298E-06-6.57331E-20 6.96448E-20
 -1      3810 9.23131E-05-2.52441E-05-2.87550E-05-4.96178E-06 4.83146E-21 1.90696E-19
 -1      3811 9.08732E-05-2.43252E-05-2.85122E-05-5.30391E-06 1.58098E-19-3.28820E-19
 -1      3812 9.03539E-05-2.52055E-05-2.78945E-05-9.44537E-06-3.02828E-19-4.00578E-19
 -1      3813 9.02443E-05-2.47849E-05-2.80686E-05-8.65873E-06-5.66981E-19-3.75386E-19
 -1      3814 9.05779E-05-2.65999E-05-2.73792E-05-1.14418E-05 1.81690E-21-5.15815E-19
 -1      3815 9.00455E-05-2.56635E-05-2.76047E-05-1.05145E-05 3.81643E-20-3.73154E-19
 -1      3816 8.80273E-05-2.42247E-05-2.73430E-05-9.76248E-06-6.57276E-20-4.49039E-19
 -1      3817 9.18882E-05-2.93119E-05-2.67522E-05-1.39138E-05-2.71094E-19-4.43897E-19
 -1      3818 9.06192E-05-2.75956E-05-2.70080E-05-1.28185E-05 1.11157E-19-4.06582E-19
 -1      3819 8.76616E-05-2.55561E-05-2.66305E-05-1.22689E-05 6.68883E-20-1.69819E-19
 -1      3820 9.49291E-05-3.39755E-05-2.60859E-05-1.66767E-05-6.86540E-19-9.25551E-19
 -1      3821 9.26285E-05-3.11434E-05-2.63082E-05-1.55646E-05-5.40908E-19-8.08708E-19
 -1      3822 8.83882E-05-2.85153E-05-2.57670E-05-1.56601E-05-7.20805E-20-1.11345E-18
 -1      3823 9.86966E-05-3.81720E-05-2.58037E-05-1.84545E-05-3.32771E-19-1.18897E-18
 -1      3824 8.99837E-05-2.67394E-05-2.71191E-05 1.21541E-05 1.24362E-20 3.71112E-18
 -1      3825 9.09712E-05-2.81699E-05-2.68529E-05 1.31748E-05 2.70918E-20 3.20380E-18
 -1      3826 8.75283E-05-2.70060E-05-2.58996E-05 1.46523E-05-2.41052E-19 5.15508E-18
 -1      3827 9.31412E-05-3.44095E-05-2.50670E-05 1.93496E-05 1.86314E-18 1.70437E-18
 -1      3828 8.97298E-05-2.51066E-05-2.77116E-05 9.89702E-06 3.19303E-19 3.75109E-18
 -1      3829 9.00954E-05-2.58725E-05-2.74857E-05 1.08109E-05 6.49708E-19 3.66030E-18
 -1      3830 8.73211E-05-2.47917E-05-2.67861E-05 1.14742E-05 6.03759E-21 4.76713E-18
 -1      3831 9.00963E-05-2.44234E-05-2.81612E-05 8.09248E-06-3.40313E-19 2.40889E-18
 -1      3832 9.01147E-05-2.47495E-05-2.79911E-05 8.87626E-06 3.30066E-19 3.48658E-18
 -1      3833 8.78997E-05-2.37679E-05-2.74801E-05 9.09428E-06 4.66892E-19 4.91529E-18
 -1      3834 9.07507E-05-2.43326E-05-2.84792E-05 6.63330E-06-1.29698E-18 1.56596E-18
 -1      3835 9.05943E-05-2.43835E-05-2.83622E-05 7.29860E-06-6.31041E-19 2.22640E-18
 -1      3836 8.88212E-05-2.34928E-05-2.79901E-05 7.29383E-06-2.89453E-19 4.43670E-18
 -1      3837 9.14943E-05-2.45778E-05-2.86912E-05 5.42907E-06-7.35567E-19 7.63553E-20
 -1      3838 9.12654E-05-2.44708E-05-2.86173E-05 5.99896E-06-5.01959E-19 1.12359E-18
 -1      3839 8.98447E-05-2.36724E-05-2.83503E-05 5.90405E-06-4.26012E-19 2.94071E-18
 -1      3840 9.22253E-05-2.49969E-05-2.88232E-05 4.42112E-06-1.34954E-19-9.12675E-20
 -1      3841 9.19811E-05-2.48097E-05-2.87815E-05 4.91058E-06-8.62036E-19-1.36805E-19
 -1      3842 9.08448E-05-2.41027E-05-2.85947E-05 4.78934E-06-5.96706E-19 2.33662E-18
 -1      3843 9.28874E-05-2.54772E-05-2.88991E-05 3.57242E-06-3.87158E-19-9.11851E-19
 -1      3844 9.26586E-05-2.52612E-05-2.88792E-05 3.99314E-06-1.44086E-19-1.42780E-19
 -1      3845 9.17584E-05-2.46506E-05-2.87531E-05 3.87906E-06-3.74141E-19 7.69285E-19
 -1      3846 9.33568E-05-2.58627E-05-2.89309E-05 2.89776E-06 1.48934E-19-7.47308E-19
 -1      3847 9.31558E-05-2.56554E-05-2.89225E-05 3.25839E-06-8.37390E-20-9.77610E-19
 -1      3848 9.24340E-05-2.51368E-05-2.88398E-05 3.15836E-06 3.67379E-19-3.44873E-19
 -1      3849 9.29304E-05-2.55343E-05-2.88875E-05 2.57892E-06 7.58526E-19-3.23729E-19
 -1      3850 9.61593E-05-2.71441E-05-2.95821E-05-3.91781E-07 5.44420E-19-6.41578E-19
 -1      3851 9.61060E-05-2.67076E-05-2.97380E-05 1.47739E-08 6.02743E-19-7.59560E-19
 -1      3852 9.60428E-05-2.61369E-05-2.99573E-05 2.50137E-07 6.21399E-19-1.00464E-18
 -1      3853 9.37785E-05-2.07581E-05-3.13045E-05-2.02037E-07 3.96436E-19-1.85087E-18
 -1      3854 9.38256E-05-2.08544E-05-3.12857E-05-7.41847E-07 2.31067E-19-1.86577E-18
 -1      3855 9.45583E-05-2.21577E-05-3.10078E-05-7.61450E-07 9.63097E-20-1.63930E-18
 -1      3856 9.44772E-05-2.19846E-05-3.10490E-05 1.11748E-08 3.70645E-19-1.73146E-18
 -1      3857 9.40147E-05-2.63931E-05-2.89814E-05-2.66497E-06 6.41695E-19-2.84815E-18
 -1      3858 9.38002E-05-2.62231E-05-2.89640E-05-2.51840E-06 8.25692E-19-1.01716E-18
 -1      3859 9.27707E-05-2.54040E-05-2.88773E-05 1.17081E-06 5.46846E-19 1.42624E-18
 -1      3860 9.29785E-05-2.55658E-05-2.88902E-05 1.54606E-06 4.39357E-20 1.17586E-18
 -1      3861 9.28455E-05-2.54527E-05-2.88772E-05 1.92319E-06 4.29954E-19 5.12659E-19
 -1      3862 9.23584E-05-2.50686E-05-2.88328E-05 1.03350E-06 2.49476E-19 1.59169E-18
 -1      3863 9.46058E-05-2.71545E-05-2.89043E-05-2.73382E-06 3.50344E-19-3.29459E-19
 -1      3864 9.47933E-05-2.73585E-05-2.89054E-05-2.51946E-06 1.96209E-20-2.65135E-19
 -1      3865 9.42203E-05-2.68103E-05-2.88866E-05-2.60735E-06 3.34324E-19-4.58123E-19
 -1      3866 9.19599E-05-3.64803E-05-2.36313E-05 2.29905E-05 1.99216E-18-8.47033E-20
 -1      3867 9.35574E-05-2.60354E-05-2.89375E-05-2.19842E-06 8.83272E-19 1.33262E-19
 -1      3868 9.32445E-05-2.57901E-05-2.89172E-05-1.92968E-06 2.97523E-19-1.33994E-18
 -1      3869 9.60272E-05-2.80061E-05-2.91524E-05-1.37635E-06 1.74557E-19-2.50939E-19
 -1      3870 9.61034E-05-2.79042E-05-2.92263E-05-1.16229E-06 2.21321E-19-2.96742E-19
 -1      3871 6.51330E-05-1.71978E-05-2.06611E-05 1.15931E-05-2.03542E-18-7.89911E-19
 -1      3872 6.16708E-05-1.44716E-05-1.99916E-05 4.52983E-06-2.29059E-18-1.54708E-18
 -1      3873 9.07093E-05-2.46868E-05-2.82793E-05-7.83204E-06-3.45022E-19-5.61662E-19
 -1      3874 9.08220E-05-2.45888E-05-2.83998E-05-7.16839E-06-7.90765E-20-2.09873E-19
 -1      3875 8.88488E-05-2.37884E-05-2.78766E-05-7.88100E-06-3.72083E-19-7.29455E-19
 -1      3876 8.71473E-05-3.05026E-05-2.42146E-05 1.97065E-05 7.02124E-19 2.50344E-18
 -1      3877 9.61650E-05-2.77348E-05-2.93293E-05-9.59680E-07 4.00174E-19-4.05189E-19
 -1      3878 9.61902E-05-2.74902E-05-2.94396E-05-6.69312E-07 5.64277E-19-4.59892E-19
 -1      3879 9.62485E-05-2.71342E-05-2.96201E-05-4.27869E-07 4.16819E-19-9.99156E-19
 -1      3880 9.62260E-05-2.76975E-05-2.93695E-05-9.25562E-07 2.76870E-19-6.93076E-19
 -1      3881 9.59434E-05-2.58338E-05-3.00530E-05-4.00172E-07-2.26864E-19-1.03477E-18
 -1      3882 9.53732E-05-2.45935E-05-3.03383E-05 1.94311E-06 1.06518E-18-6.77664E-19
 -1      3883 9.62068E-05-2.67302E-05-2.97701E-05 8.12822E-08-3.48321E-19-9.17121E-19
 -1      3884 9.62474E-05-2.71516E-05-2.96183E-05 4.39111E-07-3.47089E-19-9.42264E-19
 -1      3885 9.63135E-05-2.71499E-05-2.96395E-05 4.48493E-07-3.44885E-19-8.50935E-19
 -1      3886 9.44474E-05-2.21745E-05-3.09864E-05 2.45992E-06 1.15454E-18-7.45814E-19
 -1      3887 9.42299E-05-2.16920E-05-3.10929E-05 2.05231E-06 9.10062E-19-1.06412E-18
 -1      3888 9.47779E-05-2.26978E-05-3.08739E-05 1.45683E-06 8.34166E-19-1.00220E-18
 -1      3889 8.00512E-05-2.67181E-05-2.29132E-05 1.92820E-05-5.60680E-19-3.28212E-19
 -1      3890 7.12953E-05-2.02872E-05-2.15969E-05 1.57423E-05-1.25194E-18-8.16338E-19
 -1      3891 7.11068E-05-1.89798E-05-2.23313E-05 1.13860E-05-1.30093E-18-7.40360E-20
 -1      3892 8.16637E-05-2.52629E-05-2.42877E-05 1.61065E-05-4.38518E-19 2.17644E-18
 -1      3893 8.82649E-05-3.28258E-05-2.37457E-05 2.14056E-05 1.51587E-18 3.29244E-19
 -1      3894 8.57308E-05-3.00961E-05-2.38251E-05-2.03768E-05-6.10588E-19 1.59678E-18
 -1      3895 9.12535E-05-3.16320E-05-2.54496E-05-1.74192E-05-7.43371E-19 2.22201E-19
 -1      3896 8.92444E-05-2.90511E-05-2.57932E-05-1.59375E-05-6.21423E-19-5.75765E-19
 -1      3897 8.16211E-05-2.62264E-05-2.36814E-05-1.80321E-05-2.79580E-19 2.11095E-18
 -1      3898 9.28002E-05-2.54239E-05-2.88762E-05-1.90797E-06-2.28019E-19-1.03919E-18
 -1      3899 9.34010E-05-2.58791E-05-2.89360E-05-2.62957E-06 1.44419E-19-1.58388E-19
 -1      3900 6.71020E-05-1.92739E-05-2.04012E-05 1.55088E-05 4.81591E-19 2.99757E-19
 -1      3901 6.33898E-05-1.62656E-05-2.01635E-05 9.52751E-06 3.63390E-19-5.06076E-19
 -1      3902 9.28359E-05-2.54303E-05-2.88797E-05-2.49948E-06 2.23286E-19 1.73827E-19
 -1      3903 6.87751E-05-1.91563E-05-2.10970E-05-1.42235E-05-1.84812E-18-9.38923E-19
 -1      3904 7.51187E-05-2.21497E-05-2.27472E-05-1.57475E-05-1.23903E-18 1.47395E-18
 -1      3905 6.83014E-05-1.76312E-05-2.17989E-05-1.02122E-05-2.33691E-18-1.83328E-18
 -1      3906 9.36974E-05-2.63556E-05-2.88687E-05-3.48422E-06 4.17207E-19-1.91025E-19
 -1      3907 9.35303E-05-2.62191E-05-2.88429E-05-3.07933E-06 3.41479E-19-3.89718E-19
 -1      3908 9.34611E-05-2.61003E-05-2.88644E-05-3.80765E-06 2.44150E-19-3.80487E-19
 -1      3909 8.74579E-05-2.89775E-05-2.51093E-05 1.71928E-05 1.13941E-18 6.87769E-19
 -1      3910 8.96668E-05-3.19172E-05-2.46972E-05 1.91176E-05 1.60476E-18 2.80851E-19
 -1      3911 9.51824E-05-2.36664E-05-3.06566E-05-9.49857E-07 2.76820E-20-1.63131E-18
 -1      3912 8.50535E-05-2.61269E-05-2.53090E-05-1.52438E-05-6.05887E-19 1.33642E-18
 -1      3913 6.82443E-05-1.79500E-05-2.14765E-05-1.03136E-05-4.66689E-19-2.01072E-18
 -1      3914 6.43172E-05-1.52539E-05-2.09058E-05 1.29217E-07-2.24200E-18-2.08211E-18
 -1      3915 9.54199E-05-2.43451E-05-3.04597E-05 1.20586E-06 9.33357E-19-8.18306E-19
 -1      3916 9.53298E-05-2.42822E-05-3.04553E-05 1.53835E-06 1.01184E-18-8.54711E-19
 -1      3917 9.17104E-05-2.46017E-05-2.87632E-05-2.48377E-07 1.46748E-18-8.79158E-19
 -1      3918 9.17147E-05-2.46079E-05-2.87636E-05 2.86715E-07 7.80412E-19 5.33785E-19
 -1      3919 9.55096E-05-2.80030E-05-2.89322E-05-2.11218E-06 1.08235E-19-9.61939E-20
 -1      3920 9.57863E-05-2.80348E-05-2.90355E-05-1.70931E-06 8.45176E-20-2.03682E-19
 -1      3921 9.58977E-05-2.80409E-05-2.90810E-05-1.53510E-06 1.79066E-19-1.58776E-19
 -1      3922 9.60389E-05-2.79301E-05-2.91896E-05-1.30079E-06 2.45231E-19-4.93421E-19
 -1      3923 8.12959E-05-2.77477E-05-2.28167E-05 2.05704E-05 1.01283E-18 1.68853E-18
 -1      3924 9.21308E-05-3.43686E-05-2.48478E-05-1.97982E-05-3.90638E-19-1.81873E-18
 -1      3925 9.50006E-05-2.33692E-05-3.06850E-05 2.26409E-06 1.12107E-18-6.97678E-19
 -1      3926 9.25120E-05-2.52186E-05-2.88431E-05 2.13089E-06 9.06822E-19 4.97396E-19
 -1      3927 9.22693E-05-2.50117E-05-2.88189E-05 2.39671E-06 3.61289E-19 4.05137E-19
 -1      3928 9.22016E-05-2.49799E-05-2.88130E-05 1.71995E-06 5.66863E-19 2.45198E-18
 -1      3929 9.49580E-05-2.30573E-05-3.08245E-05 1.85766E-07 3.90837E-19-1.48909E-18
 -1      3930 9.49584E-05-2.30593E-05-3.08251E-05-1.67574E-07 2.07955E-19-1.64546E-18
 -1      3931 9.27844E-05-2.55420E-05-2.88128E-05-4.54008E-06 1.94545E-19 3.23424E-19
 -1      3932 9.30376E-05-2.57885E-05-2.88306E-05-4.14712E-06 3.13473E-19-6.52860E-20
 -1      3933 9.27400E-05-2.55724E-05-2.87799E-05-3.66706E-06 9.06776E-20-4.20418E-19
 -1      3934 7.67247E-05-2.52346E-05-2.20996E-05 1.95350E-05 7.76788E-19 1.38583E-18
 -1      3935 7.08091E-05-2.14658E-05-2.09980E-05 1.77523E-05 3.67685E-19 9.29116E-19
 -1      3936 7.19177E-05-2.04854E-05-2.20083E-05 1.45038E-05 5.93883E-19 6.80379E-19
 -1      3937 7.85605E-05-2.47080E-05-2.31450E-05 1.76875E-05 8.54173E-19 1.95229E-18
 -1      3938 6.34305E-05-1.50500E-05-2.05488E-05 5.08600E-06-1.52959E-19-7.26807E-19
 -1      3939 6.44874E-05-1.51502E-05-2.12783E-05 1.72435E-07-2.71011E-19-7.35622E-19
 -1      3940 6.77471E-05-1.67782E-05-2.17702E-05 7.76806E-06 1.48686E-19 1.19339E-19
 -1      3941 9.19881E-05-2.47914E-05-2.87911E-05-1.36577E-06 4.00171E-19-2.24842E-18
 -1      3942 9.18043E-05-2.46778E-05-2.87753E-05-8.64483E-07 1.29553E-18-3.02610E-18
 -1      3943 9.13403E-05-2.43172E-05-2.87177E-05-6.07571E-07 1.20623E-18-1.73904E-18
 -1      3944 9.24508E-05-2.51709E-05-2.88439E-05-2.09758E-06-2.46095E-19-6.60462E-19
 -1      3945 9.60274E-05-2.58850E-05-3.00605E-05-2.49267E-07-1.93744E-19-1.06173E-18
 -1      3946 8.98465E-05-2.38971E-05-2.82556E-05-6.43811E-06-4.56104E-20-5.32740E-19
 -1      3947 9.50698E-05-2.75721E-05-2.89248E-05-2.34528E-06-2.88320E-19-9.61763E-20
 -1      3948 9.52326E-05-2.77264E-05-2.89343E-05-2.16497E-06-1.88916E-19-1.86425E-19
 -1      3949 9.48145E-05-2.73100E-05-2.89284E-05-2.22533E-06-7.65436E-20-6.50499E-19
 -1      3950 8.59114E-05-2.99498E-05-2.37510E-05-2.01782E-05-4.48597E-19-2.34378E-18
 -1      3951 9.50564E-05-2.33177E-05-3.07588E-05 7.62741E-07 7.45563E-19-1.12211E-18
 -1      3952 9.49907E-05-2.31329E-05-3.08029E-05 4.32173E-07 5.30669E-19-1.20346E-18
 -1      3953 9.54561E-05-2.40405E-05-3.05910E-05 2.14257E-07 4.31849E-19-1.17812E-18
 -1      3954 8.21611E-05-2.61389E-05-2.39600E-05-1.70161E-05 5.05242E-20-1.76601E-18
 -1      3955 8.29615E-05-2.55391E-05-2.45637E-05 1.61437E-05 8.43503E-19 1.45911E-18
 -1      3956 9.18500E-05-2.49180E-05-2.86776E-05-4.39726E-06 9.32923E-20-1.01747E-20
 -1      3957 7.98015E-05-2.39156E-05-2.38915E-05-1.54617E-05-1.13451E-18 1.22444E-18
 -1      3958 8.29338E-05-2.33098E-05-2.56407E-05 1.19771E-05-9.17886E-19 3.07133E-18
 -1      3959 8.31236E-05-2.45220E-05-2.51071E-05 1.38513E-05-4.19900E-19 2.62778E-18
 -1      3960 7.78400E-05-2.12324E-05-2.41036E-05 1.26804E-05-9.22917E-19 5.44985E-19
 -1      3961 9.61465E-05-2.78043E-05-2.92900E-05 9.04204E-07-1.42509E-19-7.87496E-19
 -1      3962 9.59920E-05-2.78327E-05-2.92122E-05 1.05017E-06-7.00199E-20-7.25583E-19
 -1      3963 9.57755E-05-2.77883E-05-2.91389E-05 1.14219E-06 4.66565E-20-9.73250E-19
 -1      3964 9.55572E-05-2.76957E-05-2.90837E-05 1.27292E-06-2.08468E-20-9.08559E-19
 -1      3965 9.58919E-05-2.77306E-05-2.92102E-05 8.59850E-07-3.25630E-20-5.76712E-19
 -1      3966 9.52651E-05-2.75377E-05-2.90288E-05 1.36438E-06-6.63761E-20-8.37334E-19
 -1      3967 9.49900E-05-2.73488E-05-2.89888E-05 1.49848E-06-3.38733E-20-9.54127E-19
 -1      3968 9.53877E-05-2.75306E-05-2.90791E-05 1.03960E-06 1.76711E-20-8.30953E-19
 -1      3969 9.46279E-05-2.71001E-05-2.89447E-05 1.60164E-06-1.52399E-19-8.08148E-19
 -1      3970 9.42967E-05-2.68331E-05-2.89126E-05 1.75324E-06-4.91338E-19-8.33573E-19
 -1      3971 9.47395E-05-2.71174E-05-2.89770E-05 1.22666E-06 3.87216E-21-7.99432E-19
 -1      3972 9.38614E-05-2.65088E-05-2.88713E-05 1.87951E-06-4.98277E-19-4.51114E-19
 -1      3973 9.34709E-05-2.61795E-05-2.88390E-05 2.06173E-06-2.85675E-19-1.18316E-19
 -1      3974 9.39493E-05-2.65316E-05-2.88883E-05 1.43851E-06-1.60999E-19-3.01203E-19
 -1      3975 9.29569E-05-2.57952E-05-2.87913E-05 2.22046E-06-1.90411E-19-3.36526E-19
 -1      3976 9.25015E-05-2.54190E-05-2.87497E-05 2.44395E-06-2.71973E-20-1.82331E-19
 -1      3977 9.30098E-05-2.58036E-05-2.87955E-05 1.69756E-06-2.43949E-19 3.29073E-20
 -1      3978 9.18979E-05-2.49893E-05-2.86851E-05 2.64465E-06-1.11216E-19-1.44642E-19
 -1      3979 9.13712E-05-2.45839E-05-2.86235E-05 2.92058E-06-1.51190E-19-3.52495E-19
 -1      3980 9.19039E-05-2.49643E-05-2.86788E-05 2.01854E-06-3.22406E-20-8.20435E-19
 -1      3981 9.06646E-05-2.41267E-05-2.85291E-05 3.17529E-06 1.43920E-19-2.81349E-19
 -1      3982 9.00621E-05-2.37156E-05-2.84345E-05 3.51805E-06 2.75796E-19 1.33871E-19
 -1      3983 9.06075E-05-2.40445E-05-2.85143E-05 2.42091E-06 2.81814E-19-2.24138E-19
 -1      3984 8.92355E-05-2.32542E-05-2.82944E-05 3.84469E-06 2.01191E-19 2.18538E-20
 -1      3985 8.85572E-05-2.28703E-05-2.81510E-05 4.27688E-06 7.31596E-20 9.07320E-20
 -1      3986 8.90908E-05-2.30817E-05-2.82731E-05 2.93130E-06 1.24787E-19-2.13584E-19
 -1      3987 8.75882E-05-2.24354E-05-2.79450E-05 4.70623E-06 2.51925E-19 1.34187E-19
 -1      3988 8.68429E-05-2.21257E-05-2.77333E-05 5.26672E-06 7.13335E-19 4.62240E-19
 -1      3989 8.73147E-05-2.21220E-05-2.79183E-05 3.59372E-06 2.62387E-19-1.84066E-19
 -1      3990 8.57027E-05-2.17597E-05-2.74352E-05 5.85178E-06 9.09271E-19 5.01088E-19
 -1      3991 8.49143E-05-2.15908E-05-2.71315E-05 6.60728E-06 7.84767E-19 8.62665E-19
 -1      3992 8.52276E-05-2.12248E-05-2.74021E-05 4.48796E-06 8.90513E-19-1.60375E-19
 -1      3993 8.35588E-05-2.13449E-05-2.67063E-05 7.43262E-06 5.37983E-19 1.02126E-18
 -1      3994 8.27643E-05-2.14097E-05-2.62825E-05 8.50753E-06 2.24435E-19 1.13822E-18
 -1      3995 8.27621E-05-2.04681E-05-2.66612E-05 5.74034E-06 8.21884E-19 4.80187E-19
 -1      3996 8.10940E-05-2.13164E-05-2.56782E-05 9.71702E-06 2.07932E-19 1.52095E-18
 -1      3997 8.03462E-05-2.18617E-05-2.50769E-05 1.14204E-05 8.60172E-19 1.75595E-18
 -1      3998 7.98124E-05-1.99569E-05-2.56075E-05 7.56350E-06 6.32733E-19 1.06497E-18
 -1      3999 9.09872E-05-2.43428E-05-2.85593E-05-4.02325E-06 2.86409E-19-1.50274E-19
 -1      4000 9.14621E-05-2.46887E-05-2.86290E-05-3.64426E-06-6.62519E-20-1.53417E-19
 -1      4001 9.51075E-05-2.34297E-05-3.07316E-05-7.43256E-07 2.73990E-20-1.63220E-18
 -1      4002 9.56381E-05-2.45794E-05-3.04386E-05-5.59846E-07 2.85592E-20-1.54532E-18
 -1      4003 7.91403E-05-2.21488E-05-2.44486E-05-1.31059E-05-2.00019E-18 8.33561E-19
 -1      4004 8.37728E-05-2.16135E-05-2.66238E-05-8.22222E-06-6.64562E-19-1.08611E-18
 -1      4005 8.44677E-05-2.15438E-05-2.70043E-05-7.24115E-06-6.54918E-19-2.18416E-18
 -1      4006 8.56747E-05-2.17473E-05-2.73885E-05-6.44040E-06-2.84762E-19-1.76384E-18
 -1      4007 8.63814E-05-2.19024E-05-2.76605E-05-5.71185E-06 2.43811E-19-1.91790E-18
 -1      4008 8.36631E-05-2.06826E-05-2.69474E-05-5.72636E-06-2.74161E-19-2.57033E-18
 -1      4009 8.74110E-05-2.22335E-05-2.79296E-05-5.12944E-06 1.15632E-19-1.55796E-18
 -1      4010 8.80768E-05-2.25142E-05-2.81184E-05-4.57032E-06 1.49162E-19-1.64097E-18
 -1      4011 8.58663E-05-2.13643E-05-2.76178E-05-4.45528E-06 3.15620E-19-1.67761E-18
 -1      4012 8.89484E-05-2.29029E-05-2.83042E-05-4.13524E-06 6.03317E-19-1.54531E-18
 -1      4013 8.95462E-05-2.32406E-05-2.84318E-05-3.68730E-06 1.24065E-18-1.64413E-18
 -1      4014 8.77522E-05-2.21763E-05-2.80842E-05-3.55142E-06 9.81400E-20-1.81865E-18
 -1      4015 9.02763E-05-2.36407E-05-2.85574E-05-3.34193E-06 9.06112E-19-2.08996E-18
 -1      4016 9.07755E-05-2.39836E-05-2.86388E-05-2.95966E-06 1.85095E-19-1.63839E-18
 -1      4017 8.93321E-05-2.30236E-05-2.84046E-05-2.86067E-06 6.84582E-19-2.04871E-18
 -1      4018 9.54639E-05-2.78763E-05-2.89641E-05-2.01653E-06-1.23039E-19-2.78284E-19
 -1      4019 9.56023E-05-2.79658E-05-2.89884E-05-1.85137E-06 8.77223E-20-2.55984E-19
 -1      4020 9.53173E-05-2.76870E-05-2.89833E-05-1.90434E-06-1.22965E-19-2.62420E-19
 -1      4021 8.48317E-05-2.41279E-05-2.59763E-05-1.20182E-05 5.50767E-19-8.69474E-19
 -1      4022 8.46869E-05-2.32884E-05-2.63602E-05-1.06494E-05 5.38948E-19-5.70967E-19
 -1      4023 8.57448E-05-2.30536E-05-2.68428E-05-9.35639E-06-2.02774E-19-2.15816E-19
 -1      4024 8.60934E-05-2.27694E-05-2.71705E-05-8.33051E-06-2.34810E-19-5.87484E-19
 -1      4025 8.29139E-05-2.16945E-05-2.61997E-05-9.15295E-06 2.35053E-19-1.20466E-18
 -1      4026 8.61691E-05-2.24600E-05-2.73353E-05 7.65458E-06-1.04673E-19 4.35773E-18
 -1      4027 8.57127E-05-2.26521E-05-2.70179E-05 8.65191E-06 5.42342E-19 4.07234E-18
 -1      4028 8.76600E-05-2.26458E-05-2.78868E-05 6.08437E-06-4.47287E-19 4.13893E-18
 -1      4029 8.71434E-05-2.25766E-05-2.76620E-05 6.81961E-06-5.53627E-19 4.45337E-18
 -1      4030 8.51808E-05-2.15546E-05-2.72452E-05 6.35289E-06-3.88640E-19 4.15905E-18
 -1      4031 6.71857E-05-1.57705E-05-2.21339E-05 2.50059E-06-2.15894E-18-2.26009E-18
 -1      4032 6.63024E-05-1.53321E-05-2.16806E-05-4.29359E-06-1.76076E-18-2.78396E-18
 -1      4033 8.90453E-05-2.31156E-05-2.82734E-05 4.88492E-06-3.15332E-19 3.05046E-18
 -1      4034 8.85245E-05-2.29046E-05-2.81172E-05 5.46175E-06 1.91577E-19 3.43961E-18
 -1      4035 8.70038E-05-2.20456E-05-2.78200E-05 4.98546E-06 2.90504E-19 3.45420E-18
 -1      4036 9.02905E-05-2.37378E-05-2.85365E-05 3.93544E-06-2.83465E-19 2.10409E-18
 -1      4037 8.97998E-05-2.34508E-05-2.84325E-05 4.40201E-06-1.00458E-19 2.71389E-18
 -1      4038 8.86118E-05-2.27198E-05-2.82231E-05 3.97160E-06 3.62276E-19 2.91173E-18
 -1      4039 9.13749E-05-2.44085E-05-2.87092E-05 3.17311E-06 6.08027E-19 7.84825E-19
 -1      4040 9.09368E-05-2.40994E-05-2.86431E-05 3.55283E-06 1.09635E-19 1.12351E-18
 -1      4041 9.00022E-05-2.34764E-05-2.84984E-05 3.17978E-06 5.75399E-19 1.51055E-18
 -1      4042 9.19709E-05-2.48194E-05-2.87843E-05 2.60983E-06 4.44398E-19 1.92957E-19
 -1      4043 9.17017E-05-2.46045E-05-2.87523E-05 2.91377E-06 5.36766E-19 5.08452E-19
 -1      4044 9.09494E-05-2.40791E-05-2.86522E-05 2.58614E-06 7.32525E-19 1.94388E-18
 -1      4045 9.15632E-05-2.45149E-05-2.87376E-05 2.13393E-06 5.52470E-19 1.65223E-18
 -1      4046 8.17551E-05-2.43281E-05-2.45881E-05-1.47831E-05 3.91614E-19-1.27470E-18
 -1      4047 8.70712E-05-2.28263E-05-2.75191E-05-7.41657E-06-4.42679E-19-5.73379E-19
 -1      4048 8.75538E-05-2.28466E-05-2.77564E-05-6.64544E-06-4.90635E-19-7.30573E-19
 -1      4049 8.49512E-05-2.17405E-05-2.70626E-05-7.00317E-06-6.03613E-19-5.50462E-19
 -1      4050 9.18079E-05-2.46799E-05-2.87731E-05 7.76095E-07 3.21328E-19 1.48994E-19
 -1      4051 9.19761E-05-2.48084E-05-2.87893E-05 1.27668E-06 2.37122E-19 6.07233E-19
 -1      4052 9.16384E-05-2.45435E-05-2.87491E-05 1.47254E-06 1.04041E-18 9.12848E-19
 -1      4053 9.13316E-05-2.43125E-05-2.87150E-05 5.25482E-07 6.46243E-19 6.38020E-19
 -1      4054 6.76502E-05-1.58801E-05-2.19684E-05-5.58552E-06-1.55783E-19-1.74111E-18
 -1      4055 7.27793E-05-1.93117E-05-2.29864E-05-1.10904E-05-7.70965E-20-2.22300E-18
 -1      4056 9.55034E-05-2.41502E-05-3.05642E-05-2.01746E-07 1.03158E-19-1.50152E-18
 -1      4057 9.50398E-05-2.32486E-05-3.07748E-05-4.18790E-07 1.08487E-19-1.60440E-18
 -1      4058 8.45775E-05-2.25965E-05-2.66138E-05 9.47154E-06 1.91121E-19 3.52043E-18
 -1      4059 8.42958E-05-2.31867E-05-2.61892E-05 1.08345E-05-2.96213E-19 3.38198E-18
 -1      4060 8.07002E-05-2.09259E-05-2.55239E-05 9.62886E-06-1.35792E-19 2.39376E-18
 -1      4061 8.31297E-05-2.12007E-05-2.64915E-05 7.87226E-06-1.78683E-19 2.98744E-18
 -1      4062 8.97720E-05-2.36444E-05-2.83361E-05-4.88117E-06 4.21620E-19-2.87051E-19
 -1      4063 9.02850E-05-2.39471E-05-2.84455E-05-4.41009E-06 5.99391E-19 1.54119E-19
 -1      4064 8.99944E-05-2.36917E-05-2.84022E-05-3.60810E-06 2.91576E-19-8.95425E-20
 -1      4065 8.18763E-05-2.20594E-05-2.55884E-05-1.07788E-05-1.68688E-18-1.47632E-19
 -1      4066 8.23083E-05-2.15799E-05-2.60835E-05-9.40020E-06-9.13293E-19-3.47149E-19
 -1      4067 8.09819E-05-2.01787E-05-2.59921E-05-7.59855E-06-1.63030E-18-2.20759E-18
 -1      4068 9.63393E-05-2.68730E-05-2.97729E-05 2.26526E-07-3.71270E-19-1.23508E-18
 -1      4069 9.63670E-05-2.72445E-05-2.96277E-05 4.76067E-07-3.80502E-19-1.08748E-18
 -1      4070 9.18932E-05-2.47479E-05-2.87823E-05-1.99823E-06 5.51985E-19-1.95292E-18
 -1      4071 9.38588E-05-2.65014E-05-2.88659E-05-2.35858E-06 3.40808E-19-4.68943E-19
 -1      4072 9.41833E-05-2.67893E-05-2.88887E-05-2.15696E-06 2.38334E-19-4.75260E-19
 -1      4073 8.84498E-05-2.30923E-05-2.80023E-05-5.97711E-06-1.75087E-19-6.25864E-19
 -1      4074 8.89739E-05-2.32956E-05-2.81669E-05-5.38215E-06 2.45710E-19-4.95395E-19
 -1      4075 8.85051E-05-2.28805E-05-2.81083E-05-4.42506E-06 2.94677E-19-1.41043E-20
 -1      4076 9.53107E-05-2.39797E-05-3.05810E-05 1.14737E-06 9.57784E-19-8.35652E-19
 -1      4077 9.51857E-05-2.36262E-05-3.06704E-05 8.95715E-07 7.93731E-19-1.11339E-18
 -1      4078 9.55944E-05-2.44416E-05-3.04803E-05 5.18544E-07 7.49905E-19-1.01783E-18
 -1      4079 9.57736E-05-2.51201E-05-3.02743E-05 6.32770E-07 7.95781E-19-7.66927E-19
 -1      4080 7.87573E-05-2.18774E-05-2.43185E-05-1.28766E-05 3.90466E-19-1.88332E-18
 -1      4081 9.62010E-05-2.64861E-05-2.98770E-05-6.38667E-08 6.80370E-19-8.90561E-19
 -1      4082 9.60387E-05-2.58922E-05-3.00677E-05 3.18787E-07 7.18128E-19-7.83960E-19
 -1      4083 9.59538E-05-2.55251E-05-3.01814E-05 3.17434E-07 7.53719E-19-7.79487E-19
 -1      4084 9.59423E-05-2.54316E-05-3.02242E-05-3.62506E-07-4.46772E-20-1.49164E-18
 -1      4085 9.62286E-05-2.63672E-05-2.99407E-05 6.47259E-08-2.70377E-19-1.41015E-18
 -1      4086 9.62800E-05-2.64559E-05-2.99212E-05 9.88211E-08-2.84753E-19-1.46790E-18
 -1      4087 9.58773E-05-2.51839E-05-3.02980E-05-2.46266E-07 7.12875E-22-1.63254E-18
 -1      4088 9.63511E-05-2.75255E-05-2.94964E-05 6.14659E-07-3.38784E-19-1.02902E-18
 -1      4089 9.62755E-05-2.77071E-05-2.93888E-05 7.96860E-07-1.90490E-19-9.52010E-19
 -1      4090 9.63820E-05-2.72669E-05-2.96183E-05 4.14932E-07-3.07446E-19-1.08530E-18
 -1      4091 9.62351E-05-2.76657E-05-2.93851E-05 6.60092E-07-2.09255E-19-7.46692E-19
 -1      4092 9.12977E-05-2.45400E-05-2.86000E-05-2.97346E-06 1.25566E-19 1.95240E-19
 -1      4093 9.20743E-05-2.50925E-05-2.87046E-05-3.34089E-06-5.35109E-20-7.13437E-20
 -1      4094 9.25002E-05-2.54433E-05-2.87481E-05-3.03426E-06 1.07765E-19-9.77737E-20
 -1      4095 7.67631E-05-1.99434E-05-2.42941E-05-1.07115E-05-2.26352E-18-1.16467E-19
 -1      4096 9.63312E-05-2.73330E-05-2.95702E-05-5.75024E-07 2.78744E-19-9.73088E-19
 -1      4097 9.63017E-05-2.69751E-05-2.97143E-05-2.93244E-07 4.09301E-19-9.80322E-19
 -1      4098 9.62988E-05-2.67303E-05-2.98142E-05-2.05105E-07 5.45219E-19-6.12656E-19
 -1      4099 7.39776E-05-1.94528E-05-2.33937E-05 1.03886E-05-9.84206E-19 2.19487E-19
 -1      4100 6.97839E-05-1.64812E-05-2.26260E-05 6.45975E-06-1.48933E-18-1.22206E-18
 -1      4101 7.06517E-05-1.65344E-05-2.32389E-05 2.45523E-06-1.04566E-18-1.84889E-18
 -1      4102 7.56365E-05-1.91647E-05-2.43003E-05 8.61494E-06-7.08434E-19 3.38428E-19
 -1      4103 9.57284E-05-2.79074E-05-2.90657E-05-1.61012E-06 1.17733E-19-3.07085E-19
 -1      4104 9.14420E-05-2.44112E-05-2.87294E-05-2.27600E-06 2.87673E-19-1.77590E-18
 -1      4105 7.68487E-05-1.96665E-05-2.45819E-05-8.88764E-06 5.41345E-19-2.05763E-18
 -1      4106 9.07376E-05-2.39141E-05-2.86332E-05-1.86421E-06 9.35746E-19-2.40699E-18
 -1      4107 7.10026E-05-1.75417E-05-2.28581E-05-7.25959E-06-2.22806E-18-1.41139E-18
 -1      4108 6.95063E-05-1.63890E-05-2.26902E-05-1.87626E-06 2.31587E-19-1.02126E-18
 -1      4109 9.57721E-05-2.48868E-05-3.03882E-05 2.22562E-07 5.25028E-19-9.06750E-19
 -1      4110 9.57521E-05-2.48117E-05-3.04104E-05 5.27228E-08 3.60342E-19-1.18252E-18
 -1      4111 9.07249E-05-2.39184E-05-2.86380E-05 3.58956E-07 5.68304E-19 2.59544E-19
 -1      4112 9.08319E-05-2.39858E-05-2.86491E-05 8.52333E-07 7.15033E-19 7.26070E-19
 -1      4113 9.57768E-05-2.48659E-05-3.03944E-05-3.29776E-08 2.28774E-19-1.26373E-18
 -1      4114 9.58366E-05-2.50503E-05-3.03469E-05-1.96830E-07 9.96273E-20-1.52588E-18
 -1      4115 9.61339E-05-2.57797E-05-3.01425E-05-3.92642E-08-3.11766E-20-1.46785E-18
 -1      4116 9.60814E-05-2.55811E-05-3.02044E-05 2.44177E-08 3.39737E-19-1.09431E-18
 -1      4117 9.42383E-05-2.67808E-05-2.89062E-05-1.75784E-06 8.70437E-21-4.37697E-19
 -1      4118 9.45702E-05-2.70784E-05-2.89237E-05-2.00697E-06-5.92949E-20-5.29508E-19
 -1      4119 9.48477E-05-2.73088E-05-2.89492E-05-1.83951E-06-2.21155E-19-4.61265E-19
 -1      4120 9.30297E-05-2.58276E-05-2.87993E-05-2.79520E-06 1.61726E-19-6.91542E-20
 -1      4121 9.34041E-05-2.61567E-05-2.88277E-05-2.54709E-06 2.41316E-19-2.19531E-19
 -1      4122 9.24292E-05-2.53658E-05-2.87334E-05-2.47317E-06 2.16995E-19 1.54395E-19
 -1      4123 7.13198E-05-1.82787E-05-2.25693E-05 1.05406E-05 3.18847E-19-1.59249E-20
 -1      4124 7.01619E-05-1.71637E-05-2.28255E-05 6.79795E-06 4.60872E-20 4.92503E-19
 -1      4125 9.60338E-05-2.78941E-05-2.92032E-05-1.19293E-06 1.31964E-19-6.65548E-19
 -1      4126 9.61614E-05-2.78408E-05-2.92806E-05-1.02404E-06 1.12325E-19-6.77037E-19
 -1      4127 8.68185E-05-2.21876E-05-2.76786E-05-5.50676E-06-2.36427E-19-3.43736E-19
 -1      4128 9.34044E-05-2.61245E-05-2.88283E-05-2.07595E-06 1.10723E-19-3.44732E-19
 -1      4129 7.81114E-05-2.13967E-05-2.43790E-05 1.19587E-05 8.43149E-19 1.31062E-18
 -1      4130 7.74558E-05-2.23834E-05-2.35802E-05 1.41971E-05 7.00508E-19 1.42000E-18
 -1      4131 9.62537E-05-2.77475E-05-2.93602E-05-9.19367E-07 1.03914E-19-7.68900E-19
 -1      4132 9.63148E-05-2.75595E-05-2.94677E-05-7.08185E-07 2.13536E-19-8.07425E-19
 -1      4133 9.63542E-05-2.73965E-05-2.95527E-05-5.62287E-07 1.30551E-19-6.12309E-19
 -1      4134 9.62377E-05-2.77074E-05-2.93693E-05-8.12383E-07-1.91130E-20-6.32220E-19
 -1      4135 7.59182E-05-1.91200E-05-2.42892E-05 8.91005E-06 7.10254E-19 7.65106E-19
 -1      4136 9.06382E-05-2.38559E-05-2.86263E-05-1.04202E-06 6.81307E-19-2.61356E-18
 -1      4137 9.05272E-05-2.37734E-05-2.86111E-05-4.07953E-07 5.79614E-19-1.60255E-18
 -1      4138 9.00060E-05-2.34065E-05-2.85357E-05-7.36639E-08 1.63175E-19-1.22786E-18
 -1      4139 8.99155E-05-2.33681E-05-2.85166E-05-1.70450E-06 9.89891E-20-2.63925E-18
 -1      4140 9.59160E-05-2.53503E-05-3.02519E-05 3.26287E-07 6.72100E-19-9.08938E-19
 -1      4141 9.58238E-05-2.50437E-05-3.03353E-05 2.54609E-07 5.48038E-19-8.05269E-19
 -1      4142 9.61006E-05-2.56889E-05-3.01665E-05 7.07912E-08 5.60459E-19-8.26536E-19
 -1      4143 9.61732E-05-2.60451E-05-3.00482E-05 4.58859E-08 6.34477E-19-7.54443E-19
 -1      4144 9.55192E-05-2.75798E-05-2.91196E-05 6.79894E-07-2.17102E-20-7.11603E-19
 -1      4145 9.52289E-05-2.74188E-05-2.90618E-05 7.67843E-07 6.61372E-20-7.53500E-19
 -1      4146 9.48756E-05-2.72031E-05-2.90055E-05 8.07834E-07 5.42315E-20-6.43036E-19
 -1      4147 9.45124E-05-2.69470E-05-2.89582E-05 8.96315E-07-7.87997E-20-6.12089E-19
 -1      4148 9.50316E-05-2.72540E-05-2.90421E-05 4.47345E-07 5.75682E-20-7.68245E-19
 -1      4149 9.40750E-05-2.66346E-05-2.89080E-05 9.49192E-07 1.87857E-20-8.06179E-19
 -1      4150 9.36416E-05-2.62974E-05-2.88632E-05 1.05322E-06-1.36917E-19-5.50706E-19
 -1      4151 9.42389E-05-2.67058E-05-2.89342E-05 5.27438E-07-1.35302E-19-1.06613E-18
 -1      4152 9.31211E-05-2.59141E-05-2.88100E-05 1.11867E-06-4.52126E-19-4.70409E-19
 -1      4153 9.26088E-05-2.55119E-05-2.87582E-05 1.24130E-06-4.09170E-19-7.93348E-19
 -1      4154 9.32994E-05-2.60003E-05-2.88288E-05 6.21329E-07-1.71340E-19-1.18573E-18
 -1      4155 9.19931E-05-2.50671E-05-2.86917E-05 1.32692E-06-2.61443E-19-5.89607E-19
 -1      4156 9.13906E-05-2.46142E-05-2.86221E-05 1.47518E-06 5.01180E-20-5.50456E-19
 -1      4157 9.21794E-05-2.51520E-05-2.87068E-05 7.34313E-07-6.01881E-20-7.53948E-19
 -1      4158 9.06644E-05-2.41226E-05-2.85299E-05 1.58644E-06 4.48308E-19-8.06614E-19
 -1      4159 8.99579E-05-2.36348E-05-2.84294E-05 1.76866E-06 3.86300E-19-5.52385E-19
 -1      4160 9.08572E-05-2.41901E-05-2.85452E-05 8.74732E-07 9.11247E-20-7.98076E-19
 -1      4161 8.90989E-05-2.31117E-05-2.82962E-05 1.91317E-06 2.02677E-19-5.25113E-19
 -1      4162 8.82707E-05-2.26078E-05-2.81482E-05 2.14213E-06 2.38367E-19-5.55021E-19
 -1      4163 8.92961E-05-2.31416E-05-2.83162E-05 1.05077E-06 4.36645E-19-1.64417E-18
 -1      4164 8.72459E-05-2.20698E-05-2.79543E-05 2.33205E-06 2.90618E-19-1.59000E-19
 -1      4165 8.62712E-05-2.15711E-05-2.77380E-05 2.63084E-06 3.97731E-19-1.09299E-19
 -1      4166 8.74440E-05-2.20338E-05-2.79845E-05 1.27517E-06 4.51869E-19-8.89050E-19
 -1      4167 8.50264E-05-2.10313E-05-2.74570E-05 2.88798E-06 7.28107E-19 1.15733E-19
 -1      4168 8.38763E-05-2.05638E-05-2.71444E-05 3.29994E-06 1.29620E-18 1.32488E-19
 -1      4169 8.52195E-05-2.08903E-05-2.75038E-05 1.56794E-06 8.65818E-19-2.84276E-19
 -1      4170 8.23224E-05-2.00412E-05-2.67382E-05 3.68507E-06 1.29233E-18 3.40178E-19
 -1      4171 8.09717E-05-1.96460E-05-2.62907E-05 4.28113E-06 8.67767E-19 3.40124E-19
 -1      4172 8.24619E-05-1.97098E-05-2.68095E-05 1.96553E-06 1.25063E-18-2.99378E-19
 -1      4173 7.89664E-05-1.90867E-05-2.57056E-05 4.85574E-06 5.14667E-19 4.77270E-19
 -1      4174 7.73845E-05-1.88342E-05-2.50684E-05 5.78722E-06 8.49302E-19 7.31334E-19
 -1      4175 7.90129E-05-1.86155E-05-2.58124E-05 2.57815E-06 9.30598E-19-2.80071E-19
 -1      4176 7.28956E-05-1.74381E-05-2.37159E-05 4.32455E-06 3.78036E-19 1.09621E-19
 -1      4177 7.00846E-05-1.60481E-05-2.30279E-05 1.53925E-06 3.48987E-19-2.11685E-19
 -1      4178 7.20853E-05-1.70927E-05-2.36453E-05-3.44994E-06 4.67297E-19-1.63491E-18
 -1      4179 9.63197E-05-2.75845E-05-2.94598E-05 3.98727E-07-7.72481E-20-6.44146E-19
 -1      4180 9.61958E-05-2.76943E-05-2.93582E-05 5.14103E-07-9.34458E-20-5.90445E-19
 -1      4181 9.56610E-05-2.78128E-05-2.90776E-05-1.45561E-06-2.14377E-20-4.16267E-19
 -1      4182 9.58450E-05-2.78770E-05-2.91301E-05-1.30785E-06 1.75424E-20-5.89038E-19
 -1      4183 9.59630E-05-2.77992E-05-2.92119E-05-1.04065E-06-4.40007E-20-6.86875E-19
 -1      4184 8.45670E-05-2.07070E-05-2.73721E-05-3.43656E-06 8.30435E-19-3.27021E-18
 -1      4185 8.55905E-05-2.11226E-05-2.76556E-05-2.98797E-06 2.53078E-19-2.50562E-18
 -1      4186 8.67323E-05-2.16261E-05-2.79118E-05-2.69239E-06 1.26033E-19-2.08687E-18
 -1      4187 8.76142E-05-2.20775E-05-2.81074E-05-2.37180E-06 3.06939E-19-2.13879E-18
 -1      4188 8.56557E-05-2.09597E-05-2.76897E-05-1.72490E-06 8.43211E-19-3.48219E-18
 -1      4189 8.84492E-05-2.24980E-05-2.82678E-05-2.14393E-06 3.13674E-19-2.34622E-18
 -1      4190 8.91930E-05-2.29508E-05-2.84027E-05-1.88856E-06 1.20137E-19-2.72926E-18
 -1      4191 8.91600E-05-2.28804E-05-2.83965E-05-1.01934E-06 3.65667E-20-2.53087E-18
 -1      4192 8.76509E-05-2.20051E-05-2.81195E-05-1.30932E-06 2.03110E-19-2.48168E-18
 -1      4193 9.51700E-05-2.75262E-05-2.89893E-05-1.71575E-06-1.80237E-19-3.62076E-19
 -1      4194 9.54018E-05-2.76831E-05-2.90247E-05-1.56688E-06 4.09915E-21-2.48365E-19
 -1      4195 9.49413E-05-2.73022E-05-2.89855E-05-1.49637E-06-1.04787E-19-4.40876E-19
 -1      4196 7.41121E-05-1.79281E-05-2.41494E-05-5.71987E-06-2.03382E-18-2.10353E-18
 -1      4197 9.10395E-05-2.41405E-05-2.86758E-05 1.29308E-06 4.37208E-19 3.73036E-19
 -1      4198 9.12644E-05-2.43004E-05-2.87011E-05 1.74696E-06 1.17311E-18-1.43692E-19
 -1      4199 9.09504E-05-2.40794E-05-2.86599E-05 1.95907E-06 1.27788E-18 2.02190E-20
 -1      4200 9.04481E-05-2.37156E-05-2.85958E-05 1.14334E-06 7.19447E-19 7.55696E-19
 -1      4201 9.60089E-05-2.77256E-05-2.92662E-05 5.49886E-07-2.26015E-19-3.57524E-19
 -1      4202 9.57963E-05-2.76865E-05-2.91901E-05 6.45159E-07-6.96819E-20-4.32027E-19
 -1      4203 9.61044E-05-2.76512E-05-2.93350E-05 2.98957E-07-8.49563E-20-4.21121E-19
 -1      4204 7.40907E-05-2.01856E-05-2.30152E-05 1.27974E-05 4.48074E-19 9.04697E-19
 -1      4205 8.44148E-05-2.08987E-05-2.72501E-05 4.63075E-06 5.86475E-20 1.93315E-18
 -1      4206 8.33987E-05-2.06630E-05-2.68971E-05 5.36741E-06-2.29240E-19 2.67381E-18
 -1      4207 8.65380E-05-2.16798E-05-2.78242E-05 3.64222E-06-1.09964E-19 2.12419E-18
 -1      4208 8.56706E-05-2.13328E-05-2.75781E-05 4.14589E-06 3.26561E-19 1.68932E-18
 -1      4209 8.42399E-05-2.05283E-05-2.72784E-05 3.17685E-06 4.12836E-20-4.35415E-19
 -1      4210 8.30137E-05-2.07594E-05-2.66908E-05-5.95060E-06-1.61198E-19-1.38275E-18
 -1      4211 8.40296E-05-2.09922E-05-2.70598E-05-5.16913E-06-4.14300E-19-1.10009E-18
 -1      4212 7.31069E-05-1.67672E-05-2.40326E-05-1.95274E-06-1.78561E-18-2.24781E-18
 -1      4213 7.75334E-05-1.87150E-05-2.52285E-05-5.26363E-06-2.26233E-18-2.06338E-18
 -1      4214 8.53788E-05-2.14203E-05-2.74140E-05-4.60506E-06-1.72600E-19-3.78508E-19
 -1      4215 8.62893E-05-2.17785E-05-2.76769E-05-4.06916E-06 3.18991E-19-1.74163E-19
 -1      4216 8.37913E-05-2.04666E-05-2.70700E-05-3.55993E-06 3.53774E-19-1.26335E-18
 -1      4217 8.98551E-05-2.33818E-05-2.84968E-05 2.30167E-06 5.13745E-19 1.81021E-18
 -1      4218 8.91919E-05-2.29777E-05-2.83814E-05 2.61002E-06 1.16084E-18 1.80228E-18
 -1      4219 9.29969E-05-2.58139E-05-2.87940E-05-1.68693E-06 8.39597E-20-4.17982E-19
 -1      4220 9.34537E-05-2.61813E-05-2.88373E-05-1.52760E-06-5.40420E-20-6.75738E-19
 -1      4221 8.91221E-05-2.31543E-05-2.82749E-05-2.96750E-06 1.08214E-19 1.16298E-19
 -1      4222 8.98275E-05-2.36010E-05-2.83982E-05-2.66075E-06 6.84253E-20-7.57929E-20
 -1      4223 9.64146E-05-2.70814E-05-2.97151E-05 2.15623E-07-1.81739E-19-9.64409E-19
 -1      4224 9.64018E-05-2.73837E-05-2.95802E-05 3.56669E-07-1.38810E-19-7.68550E-19
 -1      4225 9.63645E-05-2.74166E-05-2.95485E-05 2.09091E-07-1.76066E-20-7.03079E-19
 -1      4226 7.51978E-05-1.81106E-05-2.43951E-05-5.84656E-06 7.20774E-19-2.32403E-18
 -1      4227 7.95746E-05-2.01207E-05-2.54730E-05-7.69797E-06 8.63189E-19-2.13485E-18
 -1      4228 8.83491E-05-2.25249E-05-2.82247E-05 2.86477E-06 9.71972E-19 1.34067E-18
 -1      4229 8.75745E-05-2.21208E-05-2.80544E-05 3.25478E-06 3.69485E-19 1.92289E-18
 -1      4230 8.83556E-05-2.24341E-05-2.82343E-05 1.92460E-06 1.02978E-18 2.93178E-19
 -1      4231 8.73918E-05-2.22447E-05-2.79233E-05-3.66452E-06 4.05577E-19 1.62253E-19
 -1      4232 8.81960E-05-2.26667E-05-2.81050E-05-3.26768E-06 5.46950E-19 1.57728E-19
 -1      4233 8.61879E-05-2.14762E-05-2.76815E-05-2.79562E-06 7.56915E-19-4.24719E-19
 -1      4234 8.07048E-05-2.01486E-05-2.60039E-05-6.53793E-06 4.61357E-19-1.78983E-18
 -1      4235 8.18468E-05-1.98321E-05-2.66006E-05-4.43439E-06-9.41184E-19-2.61136E-18
 -1      4236 8.31311E-05-2.02197E-05-2.70014E-05-3.76300E-06 5.63944E-19-2.69734E-18
 -1      4237 8.32496E-05-1.99923E-05-2.70661E-05-2.15527E-06 4.69880E-19-2.27744E-18
 -1      4238 7.91473E-05-1.90204E-05-2.58177E-05-4.33402E-06-1.70076E-18-2.47665E-18
 -1      4239 9.06133E-05-2.40850E-05-2.85146E-05-2.43336E-06 3.41238E-19-8.00208E-20
 -1      4240 9.12277E-05-2.45267E-05-2.85977E-05-2.19019E-06 3.87947E-19 5.85613E-20
 -1      4241 8.98737E-05-2.35418E-05-2.83993E-05-1.81564E-06 1.86129E-19-1.75770E-19
 -1      4242 7.49309E-05-1.75460E-05-2.46296E-05-2.59179E-06 7.86068E-19-1.33804E-18
 -1      4243 7.51030E-05-1.80848E-05-2.44091E-05 5.87431E-06 5.80924E-19 3.95240E-19
 -1      4244 7.47224E-05-1.74448E-05-2.45724E-05 1.23805E-06 6.37626E-19-2.27271E-19
 -1      4245 7.78820E-05-1.95465E-05-2.50244E-05 7.83987E-06-3.22576E-20 6.97408E-19
 -1      4246 7.50899E-05-1.78364E-05-2.44295E-05 5.46643E-06-6.10530E-19-1.17868E-18
 -1      4247 7.93028E-05-1.97255E-05-2.55926E-05 6.96190E-06 1.32317E-19 1.64081E-18
 -1      4248 9.58870E-05-2.77537E-05-2.92009E-05-8.57465E-07-2.16370E-21-7.91054E-19
 -1      4249 9.60793E-05-2.77640E-05-2.92781E-05-7.37836E-07 4.45158E-20-8.16261E-19
 -1      4250 7.92584E-05-1.86181E-05-2.59409E-05-2.12694E-06-1.29094E-18-2.23824E-18
 -1      4251 9.55178E-05-2.76546E-05-2.90823E-05-1.26591E-06-7.92980E-20-4.40624E-19
 -1      4252 9.24280E-05-2.53989E-05-2.87354E-05-1.82053E-06 5.40616E-20-2.57730E-19
 -1      4253 9.25375E-05-2.54319E-05-2.87444E-05-1.24204E-06-2.58912E-20-8.67601E-19
 -1      4254 9.18966E-05-2.49853E-05-2.86782E-05-2.01613E-06-3.60289E-20-2.07305E-19
 -1      4255 9.62661E-05-2.62958E-05-2.99938E-05-1.95242E-08 5.60245E-19-8.32684E-19
 -1      4256 9.62197E-05-2.61201E-05-3.00438E-05-8.33398E-09 5.53690E-19-8.06033E-19
 -1      4257 9.62497E-05-2.61777E-05-3.00339E-05-2.62871E-08 5.30226E-19-9.94496E-19
 -1      4258 8.96725E-05-2.32337E-05-2.84809E-05 1.18972E-06 7.18171E-19 1.08570E-18
 -1      4259 8.99330E-05-2.33920E-05-2.85114E-05 1.64180E-06 8.03765E-19 1.22397E-18
 -1      4260 7.41357E-05-1.73366E-05-2.43817E-05 1.84362E-06-1.17072E-18-1.65955E-18
 -1      4261 9.62975E-05-2.65997E-05-2.98767E-05-1.15284E-07 6.33359E-19-6.59643E-19
 -1      4262 9.62752E-05-2.64079E-05-2.99421E-05-7.31368E-08 5.51907E-19-7.86716E-19
 -1      4263 9.63886E-05-2.67741E-05-2.98263E-05-1.60594E-07 5.33422E-19-8.75329E-19
 -1      4264 9.63839E-05-2.70383E-05-2.97173E-05-3.37923E-07 4.13353E-19-6.29628E-19
 -1      4265 8.64332E-05-2.14098E-05-2.78348E-05 2.44308E-06 1.91828E-19 5.62023E-19
 -1      4266 8.81843E-05-2.25125E-05-2.81064E-05-2.23594E-06 4.24750E-19-1.07495E-19
 -1      4267 9.56485E-05-2.75766E-05-2.91710E-05 3.72935E-07-1.48533E-19-4.36253E-19
 -1      4268 8.01864E-05-1.92724E-05-2.60357E-05-4.36063E-06 4.11229E-19-2.47270E-18
 -1      4269 9.06156E-05-2.38602E-05-2.86120E-05 2.19452E-06 7.73642E-19 1.42211E-18
 -1      4270 8.21006E-05-2.03206E-05-2.65190E-05 5.77146E-06-1.01446E-18 2.23059E-18
 -1      4271 8.09396E-05-2.00931E-05-2.60994E-05 6.41837E-06-6.97217E-19 1.95883E-18
 -1      4272 7.88667E-05-1.88675E-05-2.56738E-05 4.54571E-06-2.46999E-19-5.74436E-19
 -1      4273 8.17156E-05-1.96758E-05-2.65596E-05 3.89812E-06-8.70200E-19-7.46428E-19
 -1      4274 9.61404E-05-2.76793E-05-2.93407E-05-5.08415E-07 1.42183E-19-8.65041E-19
 -1      4275 9.62120E-05-2.77192E-05-2.93543E-05-6.89420E-07 1.15789E-20-7.71436E-19
 -1      4276 9.63104E-05-2.76242E-05-2.94362E-05-5.72886E-07 3.15069E-20-7.92040E-19
 -1      4277 9.35782E-05-2.62273E-05-2.88547E-05-1.04474E-06 1.14783E-20-6.32462E-19
 -1      4278 9.39351E-05-2.65369E-05-2.88856E-05-1.42441E-06 8.29711E-20-7.31293E-19
 -1      4279 9.43256E-05-2.68434E-05-2.89249E-05-1.29031E-06 4.26179E-20-8.37826E-19
 -1      4280 8.91614E-05-2.28958E-05-2.84065E-05-2.94450E-07-6.79297E-20-1.77359E-18
 -1      4281 8.94059E-05-2.30333E-05-2.84398E-05 5.18358E-07 2.51076E-19 3.06018E-19
 -1      4282 8.88313E-05-2.26997E-05-2.83438E-05 1.05775E-06 4.26738E-19-1.11039E-20
 -1      4283 8.84880E-05-2.24803E-05-2.82884E-05-4.10967E-07-7.16165E-20-1.54553E-18
 -1      4284 9.62590E-05-2.62712E-05-3.00007E-05 6.64758E-09-9.63505E-21-1.23780E-18
 -1      4285 9.63725E-05-2.67593E-05-2.98334E-05 1.64472E-07-7.38645E-20-1.06919E-18
 -1      4286 9.63920E-05-2.68802E-05-2.97889E-05 1.05579E-07 1.30807E-19-6.32152E-19
 -1      4287 9.62323E-05-2.61268E-05-3.00457E-05 6.34620E-09 3.22062E-19-1.06325E-18
 -1      4288 9.51908E-05-2.73655E-05-2.90722E-05 6.81951E-08-5.36996E-20-5.75864E-19
 -1      4289 9.48336E-05-2.71450E-05-2.90129E-05 1.07166E-07-1.11401E-19-8.60647E-19
 -1      4290 9.43272E-05-2.68007E-05-2.89436E-05-2.19880E-07-5.88820E-20-8.15804E-19
 -1      4291 9.38786E-05-2.64767E-05-2.88919E-05-1.97113E-07-1.06325E-20-6.78803E-19
 -1      4292 9.33884E-05-2.61162E-05-2.88399E-05-2.65809E-07-6.12186E-21-7.54482E-19
 -1      4293 9.28547E-05-2.57136E-05-2.87837E-05-2.40212E-07 7.66361E-20-5.19282E-19
 -1      4294 9.22753E-05-2.52895E-05-2.87211E-05-3.24539E-07 4.70520E-20-6.50212E-19
 -1      4295 9.16450E-05-2.48242E-05-2.86505E-05-2.94944E-07 1.29358E-19-3.73887E-19
 -1      4296 9.09621E-05-2.43500E-05-2.85656E-05-4.01121E-07-8.16014E-22-8.14266E-19
 -1      4297 9.02178E-05-2.38352E-05-2.84679E-05-3.66829E-07 7.50360E-20-9.82385E-19
 -1      4298 8.94126E-05-2.33266E-05-2.83462E-05-5.02837E-07 1.05338E-19-1.08325E-18
 -1      4299 8.85301E-05-2.27759E-05-2.82055E-05-4.62213E-07 3.78668E-19-1.18415E-18
 -1      4300 8.75764E-05-2.22500E-05-2.80290E-05-6.40438E-07 6.41438E-19-1.02777E-18
 -1      4301 8.65207E-05-2.16766E-05-2.78250E-05-5.90899E-07 7.35764E-19-6.34084E-19
 -1      4302 8.53804E-05-2.11511E-05-2.75700E-05-8.30438E-07 7.34138E-19-8.87930E-19
 -1      4303 8.40995E-05-2.05656E-05-2.72757E-05-7.70834E-07 1.03460E-18-5.81903E-19
 -1      4304 8.27216E-05-2.00607E-05-2.69109E-05-1.09745E-06 6.79449E-19-9.04620E-19
 -1      4305 8.11796E-05-1.94557E-05-2.64982E-05-1.02981E-06 6.85600E-19-9.59082E-19
 -1      4306 8.21943E-05-1.96090E-05-2.68507E-05-6.64889E-07 2.04909E-20-1.33762E-18
 -1      4307 8.35667E-05-2.01285E-05-2.72214E-05-4.66771E-07 4.39374E-19-1.46563E-18
 -1      4308 8.46762E-05-2.06075E-05-2.74755E-05 4.65508E-07 1.88517E-19-1.19644E-18
 -1      4309 8.58071E-05-2.11206E-05-2.77421E-05 5.06002E-07 4.46231E-20-1.33218E-18
 -1      4310 9.56403E-05-2.76756E-05-2.91292E-05-9.19612E-07-2.42291E-19-8.24279E-19
 -1      4311 9.57571E-05-2.76430E-05-2.91899E-05-6.24050E-07-7.70524E-20-8.08239E-19
 -1      4312 9.53793E-05-2.75443E-05-2.90725E-05-1.02993E-06-2.41901E-19-6.39834E-19
 -1      4313 8.79378E-05-2.22144E-05-2.81788E-05 1.25323E-06 6.94868E-19-2.01892E-19
 -1      4314 9.63667E-05-2.65943E-05-2.98978E-05-1.40866E-08 4.74744E-19-7.51970E-19
 -1      4315 7.63646E-05-1.79004E-05-2.50818E-05 1.65199E-06-1.34549E-18-1.28547E-18
 -1      4316 7.87831E-05-1.86624E-05-2.58144E-05-1.05572E-06 9.84189E-19-1.21310E-18
 -1      4317 9.61537E-05-2.76692E-05-2.93525E-05-1.26809E-07 1.38217E-19-6.57394E-19
 -1      4318 9.59604E-05-2.76866E-05-2.92599E-05-1.02457E-07 4.59420E-20-4.35767E-19
 -1      4319 8.68913E-05-2.16385E-05-2.79797E-05 3.52688E-07 4.71123E-19-1.40405E-18
 -1      4320 7.68455E-05-1.80915E-05-2.51972E-05-9.90872E-07 9.26633E-19-9.43795E-19
 -1      4321 9.63726E-05-2.74236E-05-2.95510E-05-1.02147E-07-3.48665E-20-6.36737E-19
 -1      4322 9.62839E-05-2.76050E-05-2.94315E-05-7.64346E-08 3.92446E-21-6.94334E-19
 -1      4323 9.63658E-05-2.74941E-05-2.95170E-05-5.45847E-07 1.37074E-19-6.51311E-19
 -1      4324 9.63914E-05-2.72838E-05-2.96199E-05-4.02623E-07 2.85487E-19-6.97603E-19
 -1      4325 9.63925E-05-2.71591E-05-2.96766E-05-3.05052E-07 3.81655E-19-7.92840E-19
 -1      4326 9.63476E-05-2.75176E-05-2.95001E-05-4.17022E-07 9.15609E-20-6.78210E-19
 -1      4327 9.57129E-05-2.76219E-05-2.91844E-05-1.56087E-07-3.03275E-19-4.04508E-19
 -1      4328 9.54295E-05-2.74978E-05-2.91134E-05-1.36701E-07-2.16501E-19-5.12433E-19
 -1      4329 9.47272E-05-2.71256E-05-2.89729E-05-1.21455E-06-7.47875E-20-7.69293E-19
 -1      4330 9.50506E-05-2.73506E-05-2.90170E-05-1.09691E-06-4.34106E-20-5.67532E-19
 -1      4331 9.51850E-05-2.73748E-05-2.90588E-05-7.48534E-07-2.40550E-19-8.84084E-19
 -1      4332 9.44609E-05-2.69032E-05-2.89532E-05-8.77215E-07-2.02403E-20-7.26174E-19
 -1      4333 7.79875E-05-1.81549E-05-2.56550E-05 1.48513E-07-1.46322E-18-8.10786E-19
 -1      4334 8.07434E-05-1.90892E-05-2.64311E-05-3.65326E-07-1.42462E-19-7.48107E-19
 -1      4335 9.13119E-05-2.45264E-05-2.86013E-05-1.49309E-06-3.24354E-20-8.80646E-19
 -1      4336 8.41298E-05-2.03581E-05-2.73185E-05 1.90390E-06-1.92920E-19-8.83952E-19
 -1      4337 8.29617E-05-1.99764E-05-2.69888E-05 2.21337E-06-3.53508E-19-1.62305E-18
 -1      4338 8.14153E-05-1.94570E-05-2.65722E-05 2.81524E-06-1.61657E-18-2.75765E-19
 -1      4339 8.01805E-05-1.91052E-05-2.61847E-05 3.08902E-06-1.52001E-18-4.53806E-19
 -1      4340 8.76193E-05-2.19711E-05-2.81241E-05-5.53031E-07 3.80092E-19-1.82125E-18
 -1      4341 8.14900E-05-1.92825E-05-2.66312E-05 1.42183E-06-7.00517E-19-4.99317E-19
 -1      4342 9.64138E-05-2.69337E-05-2.97806E-05 8.50613E-09 3.19372E-19-7.39962E-19
 -1      4343 9.63967E-05-2.70283E-05-2.97278E-05-2.15267E-07 3.57287E-19-7.69300E-19
 -1      4344 9.64200E-05-2.72546E-05-2.96383E-05-9.39428E-08 7.66061E-20-6.03647E-19
 -1      4345 9.52683E-05-2.74158E-05-2.90803E-05-4.92642E-07-3.22891E-19-7.20205E-19
 -1      4346 7.85214E-05-1.86166E-05-2.56769E-05 3.46023E-06-5.57018E-19-5.65523E-19
 -1      4347 9.45449E-05-2.69389E-05-2.89708E-05-5.97508E-07-1.53315E-19-4.43438E-19
 -1      4348 9.49478E-05-2.72241E-05-2.90217E-05-5.40036E-07-1.42186E-19-6.60680E-19
 -3
    1PSTEP                         4           1           1          
  100CL  101 1.000000000        4348                     0    1           1
 -4  ERROR       1    1
 -5  STR(%)      1    1    0    0
 -1         1 1.70556E+01
 -1         2 2.46015E+01
 -1         3 2.17733E-02
 -1         4 2.46087E-02
 -1         5 1.40465E+01
 -1         6 1.31506E+01
 -1         7 1.31506E+01
 -1         8 3.65294E+00
 -1         9 1.81508E+00
 -1        10 1.28387E+00
 -1        11 1.03831E+00
 -1        12 8.95227E-01
 -1        13 8.04772E-01
 -1        14 7.51537E-01
 -1        15 7.53492E-01
 -1        16 8.09065E-01
 -1        17 8.96202E-01
 -1        18 1.04712E+00
 -1        19 1.30134E+00
 -1        20 1.82400E+00
 -1        21 3.49452E+00
 -1        22 8.64003E+00
 -1        23 1.31506E+01
 -1        24 4.33294E+00
 -1        25 3.35930E+00
 -1        26 2.13175E+00
 -1        27 1.38561E+00
 -1        28 1.04567E+00
 -1        29 8.15171E-01
 -1        30 6.45730E-01
 -1        31 5.17875E-01
 -1        32 4.21795E-01
 -1        33 3.51213E-01
 -1        34 3.01006E-01
 -1        35 2.91879E-01
 -1        36 3.37528E-01
 -1        37 3.96616E-01
 -1        38 4.66359E-01
 -1        39 5.40411E-01
 -1        40 6.28291E-01
 -1        41 8.01439E-01
 -1        42 1.00230E+00
 -1        43 1.21845E+00
 -1        44 1.36497E+00
 -1        45 1.36497E+00
 -1        46 1.40750E+00
 -1        47 1.40750E+00
 -1        48 1.74090E+00
 -1        49 2.75862E+00
 -1        50 3.90358E+00
 -1        51 3.94337E+00
 -1        52 4.00477E+00
 -1        53 4.00477E+00
 -1        54 3.01780E+00
 -1        55 1.79975E+00
 -1        56 1.40391E+00
 -1        57 1.40391E+00
 -1        58 1.37150E+00
 -1        59 1.37150E+00
 -1        60 1.24448E+00
 -1        61 1.03244E+00
 -1        62 8.22555E-01
 -1        63 6.45246E-01
 -1        64 5.39523E-01
 -1        65 4.58349E-01
 -1        66 3.76950E-01
 -1        67 3.01286E-01
 -1        68 2.32768E-01
 -1        69 1.91496E-01
 -1        70 1.61574E-01
 -1        71 9.49050E-02
 -1        72 1.40465E+01
 -1        73 3.40753E+00
 -1        74 2.42861E+00
 -1        75 1.68390E+00
 -1        76 1.16590E+00
 -1        77 9.36760E-01
 -1        78 7.72061E-01
 -1        79 6.41608E-01
 -1        80 5.38538E-01
 -1        81 4.59408E-01
 -1        82 4.02017E-01
 -1        83 3.64249E-01
 -1        84 3.43562E-01
 -1        85 3.38921E-01
 -1        86 3.91522E-01
 -1        87 4.58106E-01
 -1        88 5.27699E-01
 -1        89 5.88612E-01
 -1        90 6.22559E-01
 -1        91 6.43687E-01
 -1        92 8.48947E-01
 -1        93 1.02773E+00
 -1        94 1.10109E+00
 -1        95 1.39452E+00
 -1        96 1.47667E+00
 -1        97 1.68518E+00
 -1        98 1.95059E+00
 -1        99 2.98007E+00
 -1       100 3.30948E+00
 -1       101 3.79644E+00
 -1       102 3.79644E+00
 -1       103 3.19517E+00
 -1       104 1.93991E+00
 -1       105 1.27921E+00
 -1       106 1.07379E+00
 -1       107 1.26668E+00
 -1       108 1.26668E+00
 -1       109 1.26065E+00
 -1       110 1.12925E+00
 -1       111 9.53446E-01
 -1       112 7.93059E-01
 -1       113 6.29888E-01
 -1       114 4.79477E-01
 -1       115 3.70147E-01
 -1       116 2.97130E-01
 -1       117 2.30320E-01
 -1       118 1.67706E-01
 -1       119 1.14240E-01
 -1       120 7.36428E-02
 -1       121 3.08891E-02
 -1       122 3.08891E-02
 -1       123 2.94835E-02
 -1       124 1.76433E-02
 -1       125 1.24413E-02
 -1       126 2.30660E-02
 -1       127 2.97536E-02
 -1       128 3.17990E-02
 -1       129 3.17990E-02
 -1       130 2.97698E-02
 -1       131 2.28916E-02
 -1       132 1.26882E-02
 -1       133 1.80472E-02
 -1       134 2.94070E-02
 -1       135 4.12728E-02
 -1       136 4.34820E-02
 -1       137 2.46656E+01
 -1       138 4.70238E+01
 -1       139 4.70238E+01
 -1       140 1.97688E+01
 -1       141 1.20227E+01
 -1       142 1.31093E+01
 -1       143 1.31093E+01
 -1       144 1.24534E+01
 -1       145 1.24534E+01
 -1       146 1.28604E+01
 -1       147 2.81682E+01
 -1       148 2.97206E+01
 -1       149 2.83391E+01
 -1       150 2.47402E+01
 -1       151 2.43172E+01
 -1       152 2.42337E+01
 -1       153 4.53547E+01
 -1       154 4.53547E+01
 -1       155 1.24532E+01
 -1       156 1.24532E+01
 -1       157 1.23832E+01
 -1       158 1.23832E+01
 -1       159 1.21677E+01
 -1       160 1.18752E+01
 -1       161 2.48072E+01
 -1       162 3.04617E+01
 -1       163 3.04617E+01
 -1       164 2.45674E+01
 -1       165 6.06542E+00
 -1       166 2.28966E+00
 -1       167 1.49957E+00
 -1       168 1.15307E+00
 -1       169 9.67738E-01
 -1       170 8.60757E-01
 -1       171 7.93033E-01
 -1       172 7.53492E-01
 -1       173 7.96462E-01
 -1       174 8.63695E-01
 -1       175 9.76670E-01
 -1       176 1.16721E+00
 -1       177 1.52117E+00
 -1       178 2.25354E+00
 -1       179 3.92338E+00
 -1       180 1.40465E+01
 -1       181 4.33294E+00
 -1       182 3.35930E+00
 -1       183 2.13175E+00
 -1       184 1.46529E+00
 -1       185 1.04567E+00
 -1       186 8.15171E-01
 -1       187 6.45730E-01
 -1       188 5.17875E-01
 -1       189 4.21795E-01
 -1       190 3.51213E-01
 -1       191 3.01006E-01
 -1       192 2.66266E-01
 -1       193 2.91879E-01
 -1       194 3.37528E-01
 -1       195 3.96616E-01
 -1       196 4.66359E-01
 -1       197 5.92649E-01
 -1       198 7.29403E-01
 -1       199 8.49514E-01
 -1       200 1.00343E+00
 -1       201 1.21845E+00
 -1       202 1.36497E+00
 -1       203 1.34025E+00
 -1       204 1.40750E+00
 -1       205 1.23435E+00
 -1       206 1.74090E+00
 -1       207 2.75862E+00
 -1       208 3.90358E+00
 -1       209 3.94337E+00
 -1       210 4.00477E+00
 -1       211 3.01780E+00
 -1       212 1.83482E+00
 -1       213 1.32447E+00
 -1       214 1.40391E+00
 -1       215 1.30360E+00
 -1       216 1.37150E+00
 -1       217 1.24448E+00
 -1       218 1.03244E+00
 -1       219 8.64475E-01
 -1       220 7.46464E-01
 -1       221 6.10682E-01
 -1       222 4.75534E-01
 -1       223 3.76950E-01
 -1       224 3.01286E-01
 -1       225 2.32768E-01
 -1       226 1.91496E-01
 -1       227 1.61574E-01
 -1       228 9.49050E-02
 -1       229 3.40753E+00
 -1       230 2.42861E+00
 -1       231 1.68390E+00
 -1       232 1.16590E+00
 -1       233 9.36760E-01
 -1       234 7.72061E-01
 -1       235 6.41608E-01
 -1       236 5.38538E-01
 -1       237 4.59408E-01
 -1       238 4.02017E-01
 -1       239 3.64249E-01
 -1       240 3.43562E-01
 -1       241 3.36632E-01
 -1       242 3.41452E-01
 -1       243 3.95792E-01
 -1       244 4.58106E-01
 -1       245 5.27699E-01
 -1       246 5.88612E-01
 -1       247 6.22559E-01
 -1       248 7.24209E-01
 -1       249 8.48947E-01
 -1       250 1.02773E+00
 -1       251 1.10109E+00
 -1       252 1.39452E+00
 -1       253 1.47667E+00
 -1       254 1.68518E+00
 -1       255 2.08482E+00
 -1       256 2.98007E+00
 -1       257 3.30948E+00
 -1       258 3.79644E+00
 -1       259 3.19517E+00
 -1       260 1.93991E+00
 -1       261 1.27921E+00
 -1       262 1.01456E+00
 -1       263 1.07379E+00
 -1       264 1.26668E+00
 -1       265 1.26065E+00
 -1       266 1.12925E+00
 -1       267 9.53446E-01
 -1       268 7.93059E-01
 -1       269 6.48037E-01
 -1       270 5.07313E-01
 -1       271 3.80703E-01
 -1       272 2.97130E-01
 -1       273 2.30320E-01
 -1       274 1.67706E-01
 -1       275 1.14240E-01
 -1       276 7.36428E-02
 -1       277 4.54226E-02
 -1       278 4.78783E-02
 -1       279 4.78783E-02
 -1       280 2.39511E-02
 -1       281 4.23074E-02
 -1       282 5.61307E-02
 -1       283 6.19140E-02
 -1       284 6.19222E-02
 -1       285 6.19222E-02
 -1       286 5.60074E-02
 -1       287 4.27939E-02
 -1       288 2.42115E-02
 -1       289 4.85588E-02
 -1       290 4.85588E-02
 -1       291 5.92660E-02
 -1       292 3.00184E+01
 -1       293 2.89485E+01
 -1       294 4.70238E+01
 -1       295 2.06993E+01
 -1       296 1.12894E+01
 -1       297 1.20227E+01
 -1       298 1.31093E+01
 -1       299 1.21618E+01
 -1       300 1.24534E+01
 -1       301 1.18909E+01
 -1       302 1.28604E+01
 -1       303 2.97206E+01
 -1       304 3.41181E+01
 -1       305 3.41181E+01
 -1       306 2.89874E+01
 -1       307 2.89874E+01
 -1       308 3.79049E+01
 -1       309 4.53547E+01
 -1       310 1.88770E+01
 -1       311 1.07015E+01
 -1       312 1.24532E+01
 -1       313 1.20988E+01
 -1       314 1.23832E+01
 -1       315 1.21677E+01
 -1       316 1.18752E+01
 -1       317 1.17338E+01
 -1       318 2.68107E+01
 -1       319 3.14993E+01
 -1       320 3.14993E+01
 -1       321 3.00184E+01
 -1       322 1.05961E+00
 -1       323 2.46759E+00
 -1       324 7.84298E-01
 -1       325 6.90965E-01
 -1       326 6.28357E-01
 -1       327 5.84581E-01
 -1       328 5.87751E-01
 -1       329 6.30967E-01
 -1       330 6.97144E-01
 -1       331 7.91800E-01
 -1       332 9.26675E-01
 -1       333 1.14946E+00
 -1       334 1.31778E+00
 -1       335 2.20284E+00
 -1       336 1.91563E+00
 -1       337 1.74334E+00
 -1       338 1.28229E+00
 -1       339 9.22731E-01
 -1       340 6.72990E-01
 -1       341 5.71085E-01
 -1       342 4.80251E-01
 -1       343 4.01304E-01
 -1       344 3.34397E-01
 -1       345 2.78544E-01
 -1       346 2.31686E-01
 -1       347 2.34703E-01
 -1       348 2.70496E-01
 -1       349 3.15400E-01
 -1       350 4.07284E-01
 -1       351 5.29621E-01
 -1       352 6.55255E-01
 -1       353 7.70344E-01
 -1       354 8.68368E-01
 -1       355 9.77847E-01
 -1       356 1.05141E+00
 -1       357 9.99143E-01
 -1       358 7.95812E-01
 -1       359 8.71813E-01
 -1       360 1.13462E+00
 -1       361 1.72091E+00
 -1       362 2.26939E+00
 -1       363 2.44355E+00
 -1       364 2.41367E+00
 -1       365 2.34569E+00
 -1       366 1.78401E+00
 -1       367 1.24719E+00
 -1       368 8.75248E-01
 -1       369 8.18384E-01
 -1       370 9.66834E-01
 -1       371 1.04835E+00
 -1       372 9.90530E-01
 -1       373 8.81676E-01
 -1       374 7.86610E-01
 -1       375 6.76706E-01
 -1       376 5.54047E-01
 -1       377 4.34552E-01
 -1       378 3.27197E-01
 -1       379 2.36169E-01
 -1       380 1.78263E-01
 -1       381 1.28550E-01
 -1       382 8.62944E-02
 -1       383 1.14235E+00
 -1       384 9.03057E-01
 -1       385 7.15117E-01
 -1       386 5.54769E-01
 -1       387 4.64135E-01
 -1       388 4.00832E-01
 -1       389 3.55247E-01
 -1       390 3.17636E-01
 -1       391 2.89203E-01
 -1       392 2.69833E-01
 -1       393 2.58233E-01
 -1       394 2.92934E-01
 -1       395 3.71373E-01
 -1       396 4.89923E-01
 -1       397 6.13386E-01
 -1       398 7.28999E-01
 -1       399 8.26707E-01
 -1       400 9.05363E-01
 -1       401 9.05363E-01
 -1       402 8.99443E-01
 -1       403 7.54738E-01
 -1       404 6.51534E-01
 -1       405 8.72567E-01
 -1       406 1.55541E+00
 -1       407 1.91309E+00
 -1       408 1.91309E+00
 -1       409 1.87445E+00
 -1       410 2.16332E+00
 -1       411 2.07734E+00
 -1       412 1.44674E+00
 -1       413 8.53840E-01
 -1       414 5.66825E-01
 -1       415 8.25982E-01
 -1       416 9.10109E-01
 -1       417 9.47481E-01
 -1       418 9.07304E-01
 -1       419 8.13372E-01
 -1       420 7.18221E-01
 -1       421 6.01372E-01
 -1       422 4.81869E-01
 -1       423 3.70828E-01
 -1       424 2.76220E-01
 -1       425 2.17927E-01
 -1       426 1.64074E-01
 -1       427 1.12436E-01
 -1       428 6.28972E-02
 -1       429 5.17610E-02
 -1       430 8.89924E-02
 -1       431 8.89924E-02
 -1       432 5.72652E-02
 -1       433 7.82365E-02
 -1       434 8.85290E-02
 -1       435 8.85290E-02
 -1       436 8.84061E-02
 -1       437 8.84061E-02
 -1       438 7.88521E-02
 -1       439 5.79303E-02
 -1       440 5.41175E-02
 -1       441 7.93418E-02
 -1       442 2.89485E+01
 -1       443 3.15679E+01
 -1       444 2.92641E+01
 -1       445 1.63554E+01
 -1       446 9.39374E+00
 -1       447 9.07962E-01
 -1       448 8.62984E+00
 -1       449 1.01038E+01
 -1       450 1.11584E+01
 -1       451 9.42240E+00
 -1       452 7.38528E+00
 -1       453 1.11170E+01
 -1       454 1.97488E+01
 -1       455 3.41181E+01
 -1       456 3.73118E+01
 -1       457 3.73118E+01
 -1       458 2.50453E+01
 -1       459 2.66902E+01
 -1       460 1.52480E+01
 -1       461 8.92003E+00
 -1       462 7.08331E+00
 -1       463 9.80827E+00
 -1       464 1.01521E+01
 -1       465 1.02297E+01
 -1       466 9.22261E+00
 -1       467 6.24476E+00
 -1       468 1.05605E+01
 -1       469 1.81323E+01
 -1       470 3.14993E+01
 -1       471 3.15679E+01
 -1       472 7.32601E+00
 -1       473 9.12838E+00
 -1       474 1.05942E+00
 -1       475 4.82776E-01
 -1       476 5.07036E-01
 -1       477 4.28422E-01
 -1       478 4.54033E-01
 -1       479 4.83355E-01
 -1       480 5.07284E-01
 -1       481 5.07284E-01
 -1       482 5.95745E-01
 -1       483 9.03057E-01
 -1       484 8.00537E-01
 -1       485 6.03007E+00
 -1       486 7.11340E-01
 -1       487 5.96661E-01
 -1       488 4.81328E-01
 -1       489 3.92184E-01
 -1       490 3.44788E-01
 -1       491 2.93971E-01
 -1       492 2.43343E-01
 -1       493 1.93929E-01
 -1       494 1.62774E-01
 -1       495 1.88588E-01
 -1       496 2.37780E-01
 -1       497 3.39950E-01
 -1       498 4.54072E-01
 -1       499 5.77587E-01
 -1       500 7.03883E-01
 -1       501 8.20558E-01
 -1       502 9.09177E-01
 -1       503 1.03729E+00
 -1       504 1.17549E+00
 -1       505 1.25818E+00
 -1       506 1.38428E+00
 -1       507 1.59596E+00
 -1       508 1.91366E+00
 -1       509 1.85804E+00
 -1       510 2.73092E+00
 -1       511 3.17536E+00
 -1       512 2.76998E+00
 -1       513 1.96026E+00
 -1       514 1.78298E+00
 -1       515 1.63189E+00
 -1       516 1.43176E+00
 -1       517 1.25307E+00
 -1       518 1.19350E+00
 -1       519 1.06607E+00
 -1       520 9.20912E-01
 -1       521 8.40392E-01
 -1       522 7.29191E-01
 -1       523 6.06610E-01
 -1       524 4.86734E-01
 -1       525 3.77735E-01
 -1       526 2.83616E-01
 -1       527 2.05512E-01
 -1       528 1.43228E-01
 -1       529 1.86993E+01
 -1       530 5.54769E-01
 -1       531 4.64135E-01
 -1       532 4.00832E-01
 -1       533 3.39512E-01
 -1       534 2.82812E-01
 -1       535 2.31145E-01
 -1       536 1.83361E-01
 -1       537 2.07765E-01
 -1       538 2.40307E-01
 -1       539 3.18673E-01
 -1       540 4.28606E-01
 -1       541 5.45855E-01
 -1       542 6.62575E-01
 -1       543 7.64672E-01
 -1       544 8.49260E-01
 -1       545 9.26160E-01
 -1       546 9.98559E-01
 -1       547 9.96029E-01
 -1       548 1.03993E+00
 -1       549 1.12076E+00
 -1       550 1.44745E+00
 -1       551 1.66840E+00
 -1       552 2.18095E+00
 -1       553 2.30506E+00
 -1       554 2.54142E+00
 -1       555 1.88189E+00
 -1       556 1.55790E+00
 -1       557 1.25654E+00
 -1       558 1.12965E+00
 -1       559 9.43639E-01
 -1       560 1.00716E+00
 -1       561 9.76125E-01
 -1       562 8.85263E-01
 -1       563 8.12995E-01
 -1       564 7.26594E-01
 -1       565 6.18575E-01
 -1       566 5.04087E-01
 -1       567 3.95111E-01
 -1       568 2.98292E-01
 -1       569 2.16686E-01
 -1       570 1.49492E-01
 -1       571 1.05785E-01
 -1       572 9.85066E-02
 -1       573 1.16685E-01
 -1       574 8.89177E-02
 -1       575 7.96764E-02
 -1       576 1.18666E-01
 -1       577 1.18666E-01
 -1       578 1.18375E-01
 -1       579 1.17197E-01
 -1       580 9.96517E-02
 -1       581 9.35077E-02
 -1       582 9.35077E-02
 -1       583 3.15679E+01
 -1       584 7.15117E-01
 -1       585 1.33753E+01
 -1       586 9.19450E+00
 -1       587 8.78400E-01
 -1       588 2.15069E+01
 -1       589 5.37909E+00
 -1       590 1.93974E+01
 -1       591 4.54006E-01
 -1       592 7.54985E+00
 -1       593 9.75988E+00
 -1       594 4.72055E+00
 -1       595 3.93697E+00
 -1       596 4.83159E+00
 -1       597 7.35586E+00
 -1       598 1.46893E+01
 -1       599 2.25417E+01
 -1       600 3.73118E+01
 -1       601 2.50453E+01
 -1       602 1.26518E+01
 -1       603 1.43579E+01
 -1       604 8.10557E+00
 -1       605 7.51968E+00
 -1       606 8.24173E+00
 -1       607 6.29749E+00
 -1       608 4.36934E+00
 -1       609 5.85451E+00
 -1       610 1.00425E+01
 -1       611 2.92641E+01
 -1       612 1.32787E+00
 -1       613 4.88758E+00
 -1       614 5.07036E-01
 -1       615 6.92778E+00
 -1       616 8.62944E-02
 -1       617 4.61379E-01
 -1       618 3.56444E-01
 -1       619 3.40702E-01
 -1       620 3.60109E-01
 -1       621 3.36367E-01
 -1       622 5.40633E-01
 -1       623 8.70330E+00
 -1       624 3.99598E-01
 -1       625 3.84357E-01
 -1       626 3.37951E-01
 -1       627 2.80007E-01
 -1       628 2.35971E-01
 -1       629 1.98174E-01
 -1       630 1.54434E-01
 -1       631 1.05935E-01
 -1       632 1.09319E-01
 -1       633 1.71097E-01
 -1       634 2.59824E-01
 -1       635 3.62307E-01
 -1       636 4.80180E-01
 -1       637 6.14205E-01
 -1       638 7.63322E-01
 -1       639 9.22698E-01
 -1       640 1.08044E+00
 -1       641 1.27688E+00
 -1       642 1.59273E+00
 -1       643 1.93162E+00
 -1       644 2.19044E+00
 -1       645 1.91366E+00
 -1       646 1.99496E+00
 -1       647 2.73092E+00
 -1       648 7.51968E+00
 -1       649 5.46430E+00
 -1       650 3.22458E+00
 -1       651 2.22647E+00
 -1       652 2.60287E+00
 -1       653 2.18174E+00
 -1       654 1.78099E+00
 -1       655 1.50278E+00
 -1       656 1.21477E+00
 -1       657 1.06607E+00
 -1       658 9.20912E-01
 -1       659 7.77475E-01
 -1       660 6.33029E-01
 -1       661 4.99615E-01
 -1       662 3.82686E-01
 -1       663 2.84786E-01
 -1       664 2.10437E-01
 -1       665 1.47125E-01
 -1       666 1.50235E+01
 -1       667 7.03747E+00
 -1       668 3.95375E-01
 -1       669 2.39117E-01
 -1       670 1.93155E-01
 -1       671 1.44840E-01
 -1       672 1.34526E-01
 -1       673 1.62403E-01
 -1       674 2.50976E-01
 -1       675 3.51424E-01
 -1       676 4.63892E-01
 -1       677 5.86543E-01
 -1       678 7.14290E-01
 -1       679 8.37120E-01
 -1       680 9.37871E-01
 -1       681 1.11624E+00
 -1       682 1.30902E+00
 -1       683 1.46428E+00
 -1       684 1.65565E+00
 -1       685 2.35070E+00
 -1       686 2.23800E+00
 -1       687 2.18095E+00
 -1       688 3.35380E+00
 -1       689 4.43059E+00
 -1       690 3.28922E+00
 -1       691 1.78982E+00
 -1       692 1.82957E+00
 -1       693 1.89954E+00
 -1       694 1.48200E+00
 -1       695 1.30080E+00
 -1       696 1.14548E+00
 -1       697 9.76125E-01
 -1       698 8.85263E-01
 -1       699 7.74407E-01
 -1       700 6.47733E-01
 -1       701 5.21106E-01
 -1       702 4.06128E-01
 -1       703 3.10438E-01
 -1       704 2.32460E-01
 -1       705 1.66949E-01
 -1       706 1.27908E-01
 -1       707 1.58046E-01
 -1       708 9.35077E-02
 -1       709 1.49287E-01
 -1       710 1.57636E-01
 -1       711 1.58046E-01
 -1       712 6.33358E+00
 -1       713 1.57636E-01
 -1       714 1.50591E-01
 -1       715 1.16612E-01
 -1       716 4.67450E-01
 -1       717 1.60074E+01
 -1       718 3.42910E-01
 -1       719 1.48153E+01
 -1       720 2.81502E-01
 -1       721 3.19764E-01
 -1       722 3.88539E-01
 -1       723 1.51255E+01
 -1       724 1.24479E+01
 -1       725 1.14466E+01
 -1       726 5.21441E-01
 -1       727 1.09520E+01
 -1       728 3.60109E-01
 -1       729 2.44707E+00
 -1       730 3.22458E+00
 -1       731 3.50356E+00
 -1       732 1.16237E+01
 -1       733 3.59191E-01
 -1       734 4.72055E+00
 -1       735 7.13941E+00
 -1       736 1.47109E+01
 -1       737 8.57905E+00
 -1       738 6.47586E+00
 -1       739 4.68569E+00
 -1       740 2.53316E+00
 -1       741 1.58883E+01
 -1       742 5.46430E+00
 -1       743 3.50264E+00
 -1       744 8.13202E+00
 -1       745 5.75620E+00
 -1       746 2.72491E+00
 -1       747 3.59191E-01
 -1       748 3.40140E-01
 -1       749 4.19845E+00
 -1       750 1.16172E-01
 -1       751 6.26919E+00
 -1       752 9.49291E-02
 -1       753 4.68876E+00
 -1       754 1.09254E-01
 -1       755 3.55339E-01
 -1       756 4.75237E+00
 -1       757 2.39427E-01
 -1       758 2.49761E-01
 -1       759 2.35180E-01
 -1       760 2.03019E-01
 -1       761 1.62766E-01
 -1       762 1.30855E-01
 -1       763 8.92505E-02
 -1       764 9.07918E-02
 -1       765 1.30158E-01
 -1       766 2.04917E-01
 -1       767 2.98677E-01
 -1       768 4.05975E-01
 -1       769 5.25406E-01
 -1       770 6.65695E-01
 -1       771 8.53170E-01
 -1       772 1.09815E+00
 -1       773 1.41658E+00
 -1       774 1.76725E+00
 -1       775 2.20176E+00
 -1       776 3.14058E+00
 -1       777 4.38741E+00
 -1       778 2.01646E+00
 -1       779 2.60287E+00
 -1       780 3.99489E+00
 -1       781 3.09416E+00
 -1       782 2.57984E+00
 -1       783 2.10883E+00
 -1       784 1.60124E+00
 -1       785 1.18694E+00
 -1       786 8.87414E-01
 -1       787 6.68760E-01
 -1       788 5.07372E-01
 -1       789 4.01599E-01
 -1       790 3.07079E-01
 -1       791 2.26621E-01
 -1       792 2.09795E-01
 -1       793 1.50186E-01
 -1       794 1.01739E-01
 -1       795 1.75228E-01
 -1       796 2.61110E-01
 -1       797 3.62251E-01
 -1       798 4.86203E-01
 -1       799 6.30004E-01
 -1       800 7.92461E-01
 -1       801 9.82004E-01
 -1       802 1.19172E+00
 -1       803 1.42364E+00
 -1       804 1.83035E+00
 -1       805 2.32881E+00
 -1       806 3.09612E+00
 -1       807 4.43059E+00
 -1       808 3.28922E+00
 -1       809 2.72491E+00
 -1       810 3.16742E+00
 -1       811 2.97206E+00
 -1       812 2.20343E+00
 -1       813 1.85900E+00
 -1       814 1.44776E+00
 -1       815 1.17352E+00
 -1       816 9.90005E-01
 -1       817 8.14839E-01
 -1       818 6.54261E-01
 -1       819 5.12821E-01
 -1       820 3.94790E-01
 -1       821 2.96780E-01
 -1       822 2.15709E-01
 -1       823 1.34527E-01
 -1       824 8.90712E+00
 -1       825 2.86030E-01
 -1       826 1.96915E-01
 -1       827 1.76769E-01
 -1       828 2.00321E-01
 -1       829 3.02021E-01
 -1       830 9.21297E+00
 -1       831 3.02224E-01
 -1       832 8.90712E+00
 -1       833 2.33471E+00
 -1       834 2.00321E-01
 -1       835 6.90455E-02
 -1       836 1.07581E-01
 -1       837 2.35355E-01
 -1       838 1.87233E-01
 -1       839 9.27486E+00
 -1       840 8.88476E+00
 -1       841 2.34134E-01
 -1       842 8.90328E+00
 -1       843 5.76570E+00
 -1       844 6.63541E+00
 -1       845 2.76380E-01
 -1       846 2.79689E-01
 -1       847 5.98657E+00
 -1       848 7.03572E+00
 -1       849 5.55584E+00
 -1       850 9.52560E+00
 -1       851 7.69281E+00
 -1       852 6.15932E+00
 -1       853 9.21297E+00
 -1       854 2.78415E-01
 -1       855 2.82968E-01
 -1       856 1.81101E-01
 -1       857 6.87691E+00
 -1       858 2.82968E-01
 -1       859 2.86030E-01
 -1       860 2.00242E-01
 -1       861 2.00242E-01
 -1       862 6.34983E+00
 -1       863 2.72228E-01
 -1       864 6.46215E+00
 -1       865 2.77556E-01
 -1       866 2.45152E+00
 -1       867 2.09795E-01
 -1       868 2.86295E-01
 -1       869 1.64674E-01
 -1       870 1.46470E-01
 -1       871 1.21043E-01
 -1       872 1.09833E-01
 -1       873 1.21689E-01
 -1       874 1.35581E-01
 -1       875 1.97198E-01
 -1       876 2.85444E-01
 -1       877 3.91000E-01
 -1       878 5.16837E-01
 -1       879 6.65695E-01
 -1       880 8.38900E-01
 -1       881 1.04548E+00
 -1       882 1.38707E+00
 -1       883 1.93649E+00
 -1       884 2.87709E+00
 -1       885 4.58965E+00
 -1       886 7.34998E+00
 -1       887 5.15084E+00
 -1       888 4.44622E+00
 -1       889 3.41345E+00
 -1       890 2.25619E+00
 -1       891 1.74855E+00
 -1       892 1.26428E+00
 -1       893 9.69748E-01
 -1       894 7.71906E-01
 -1       895 6.08745E-01
 -1       896 4.72196E-01
 -1       897 3.60772E-01
 -1       898 2.68046E-01
 -1       899 2.48926E-01
 -1       900 6.87691E+00
 -1       901 1.65292E-01
 -1       902 4.59638E-01
 -1       903 5.87079E-01
 -1       904 7.27220E-01
 -1       905 9.27279E-01
 -1       906 1.20482E+00
 -1       907 1.61357E+00
 -1       908 2.14755E+00
 -1       909 2.82693E+00
 -1       910 3.90442E+00
 -1       911 7.34998E+00
 -1       912 3.27742E+00
 -1       913 2.04118E+00
 -1       914 1.53632E+00
 -1       915 1.16206E+00
 -1       916 9.43924E-01
 -1       917 7.92773E-01
 -1       918 6.43811E-01
 -1       919 5.08484E-01
 -1       920 3.90495E-01
 -1       921 2.92764E-01
 -1       922 1.99223E-01
 -1       923 1.69103E-01
 -1       924 1.94890E-01
 -1       925 1.14405E-01
 -1       926 2.62760E-01
 -1       927 5.85707E+00
 -1       928 5.88076E+00
 -1       929 3.46719E-01
 -1       930 1.36238E-01
 -1       931 1.37470E-01
 -1       932 2.86295E-01
 -1       933 6.34991E+00
 -1       934 6.03118E+00
 -1       935 1.93124E-01
 -1       936 1.65452E-01
 -1       937 4.38764E+00
 -1       938 5.20446E+00
 -1       939 2.05594E-01
 -1       940 6.31595E+00
 -1       941 2.56734E-01
 -1       942 1.10088E-01
 -1       943 1.78767E-01
 -1       944 4.58965E+00
 -1       945 2.62760E-01
 -1       946 5.88076E+00
 -1       947 1.04975E-01
 -1       948 1.41678E-01
 -1       949 2.93608E-01
 -1       950 2.13318E-01
 -1       951 2.13318E-01
 -1       952 1.18587E-01
 -1       953 1.07939E-01
 -1       954 1.18879E-01
 -1       955 1.36518E-01
 -1       956 1.54575E-01
 -1       957 1.79823E-01
 -1       958 2.48826E-01
 -1       959 3.41939E-01
 -1       960 4.58136E-01
 -1       961 6.05409E-01
 -1       962 7.95551E-01
 -1       963 1.04548E+00
 -1       964 1.38707E+00
 -1       965 1.86404E+00
 -1       966 2.96266E+00
 -1       967 2.28291E-01
 -1       968 3.53339E+00
 -1       969 2.13802E-01
 -1       970 1.41152E-01
 -1       971 3.03963E+00
 -1       972 1.66083E+00
 -1       973 1.26428E+00
 -1       974 9.69748E-01
 -1       975 7.44738E-01
 -1       976 5.70833E-01
 -1       977 4.31686E-01
 -1       978 3.37294E-01
 -1       979 5.76551E+00
 -1       980 1.09665E-01
 -1       981 7.27220E-01
 -1       982 5.62878E-01
 -1       983 1.16770E+00
 -1       984 1.55216E+00
 -1       985 3.29895E+00
 -1       986 4.33010E+00
 -1       987 2.40695E+00
 -1       988 1.52590E+00
 -1       989 1.11759E+00
 -1       990 8.82953E-01
 -1       991 6.89549E-01
 -1       992 5.34680E-01
 -1       993 4.09761E-01
 -1       994 3.24441E-01
 -1       995 1.34692E-01
 -1       996 2.13802E-01
 -1       997 2.93608E-01
 -1       998 1.57613E-01
 -1       999 2.37936E-01
 -1      1000 1.23108E-01
 -1      1001 4.75731E+00
 -1      1002 9.27279E-01
 -1      1003 1.37260E-01
 -1      1004 1.13812E-01
 -1      1005 2.01317E-01
 -1      1006 4.28929E+00
 -1      1007 3.65253E+00
 -1      1008 3.77140E+00
 -1      1009 4.28182E+00
 -1      1010 3.18729E-01
 -1      1011 3.54556E+00
 -1      1012 3.93794E-01
 -1      1013 1.09611E-01
 -1      1014 3.24441E-01
 -1      1015 1.55493E-01
 -1      1016 4.28656E-01
 -1      1017 3.18498E+00
 -1      1018 4.24198E+00
 -1      1019 3.93794E-01
 -1      1020 1.39690E-01
 -1      1021 1.50070E-01
 -1      1022 2.71894E+00
 -1      1023 1.20477E-01
 -1      1024 1.41399E-01
 -1      1025 1.58136E-01
 -1      1026 1.81593E-01
 -1      1027 2.23187E-01
 -1      1028 2.73290E-01
 -1      1029 3.61733E-01
 -1      1030 4.81924E-01
 -1      1031 6.45275E-01
 -1      1032 8.76862E-01
 -1      1033 1.21479E+00
 -1      1034 1.73111E+00
 -1      1035 2.36647E+00
 -1      1036 4.80210E-01
 -1      1037 1.55493E-01
 -1      1038 2.07747E+00
 -1      1039 1.10531E+00
 -1      1040 8.22027E-01
 -1      1041 6.11571E-01
 -1      1042 4.64159E-01
 -1      1043 1.24427E-01
 -1      1044 3.29895E+00
 -1      1045 1.91176E+00
 -1      1046 1.37310E+00
 -1      1047 1.05055E+00
 -1      1048 3.74528E+00
 -1      1049 7.89257E-01
 -1      1050 5.92958E-01
 -1      1051 4.47595E-01
 -1      1052 3.49662E-01
 -1      1053 1.13366E+00
 -1      1054 2.90480E-01
 -1      1055 4.24198E+00
 -1      1056 1.87531E+00
 -1      1057 6.37389E-01
 -1      1058 3.67311E+00
 -1      1059 8.22380E-02
 -1      1060 2.01510E-01
 -1      1061 8.50694E-01
 -1      1062 1.50070E-01
 -1      1063 6.94733E-02
 -1      1064 7.92018E-02
 -1      1065 1.02224E-01
 -1      1066 3.60296E-01
 -1      1067 8.11643E-02
 -1      1068 2.64258E+00
 -1      1069 9.66616E-02
 -1      1070 4.22867E-01
 -1      1071 9.66616E-02
 -1      1072 1.66940E-01
 -1      1073 2.66442E-01
 -1      1074 2.96266E+00
 -1      1075 1.11074E-01
 -1      1076 8.99375E-02
 -1      1077 4.22867E-01
 -1      1078 8.86856E-02
 -1      1079 1.58136E-01
 -1      1080 2.07144E-01
 -1      1081 2.23187E-01
 -1      1082 2.73290E-01
 -1      1083 3.37393E-01
 -1      1084 4.20810E-01
 -1      1085 5.32039E-01
 -1      1086 6.86075E-01
 -1      1087 9.27094E-01
 -1      1088 1.49242E+00
 -1      1089 1.62546E+00
 -1      1090 2.43882E+00
 -1      1091 1.20477E-01
 -1      1092 1.26985E-01
 -1      1093 8.33404E-01
 -1      1094 6.27673E-01
 -1      1095 4.47612E-01
 -1      1096 1.47896E-01
 -1      1097 3.72676E-01
 -1      1098 1.41399E-01
 -1      1099 9.81851E-01
 -1      1100 7.92568E-01
 -1      1101 1.59629E+00
 -1      1102 2.84538E+00
 -1      1103 8.89627E-01
 -1      1104 4.20951E-01
 -1      1105 2.48018E-01
 -1      1106 4.76603E-01
 -1      1107 9.85431E-02
 -1      1108 2.69102E+00
 -1      1109 6.04477E-01
 -1      1110 6.42900E-01
 -1      1111 1.71545E+00
 -1      1112 3.79948E-01
 -1      1113 1.72487E+00
 -1      1114 1.28954E-01
 -1      1115 3.05987E-01
 -1      1116 8.40400E-02
 -1      1117 8.40400E-02
 -1      1118 1.28629E+00
 -1      1119 1.00291E-01
 -1      1120 2.08997E-01
 -1      1121 4.72271E-01
 -1      1122 5.29974E-02
 -1      1123 2.08997E-01
 -1      1124 9.65260E-01
 -1      1125 1.47896E-01
 -1      1126 9.85431E-02
 -1      1127 2.08997E-01
 -1      1128 1.71545E+00
 -1      1129 1.31506E+01
 -1      1130 8.40175E+00
 -1      1131 2.73401E+00
 -1      1132 1.54947E+00
 -1      1133 1.16109E+00
 -1      1134 9.66768E-01
 -1      1135 8.49999E-01
 -1      1136 7.78154E-01
 -1      1137 7.52514E-01
 -1      1138 7.81278E-01
 -1      1139 8.52633E-01
 -1      1140 9.71662E-01
 -1      1141 1.17423E+00
 -1      1142 1.56267E+00
 -1      1143 2.65926E+00
 -1      1144 6.06728E+00
 -1      1145 1.13433E+01
 -1      1146 1.31506E+01
 -1      1147 8.74175E+00
 -1      1148 3.84612E+00
 -1      1149 2.74553E+00
 -1      1150 1.75868E+00
 -1      1151 1.21564E+00
 -1      1152 9.30422E-01
 -1      1153 7.30450E-01
 -1      1154 5.81802E-01
 -1      1155 4.69835E-01
 -1      1156 3.86504E-01
 -1      1157 3.26110E-01
 -1      1158 2.96443E-01
 -1      1159 3.14704E-01
 -1      1160 3.67072E-01
 -1      1161 4.31488E-01
 -1      1162 5.03385E-01
 -1      1163 5.84351E-01
 -1      1164 7.14865E-01
 -1      1165 9.01868E-01
 -1      1166 1.11037E+00
 -1      1167 1.29171E+00
 -1      1168 1.36497E+00
 -1      1169 1.38624E+00
 -1      1170 1.40750E+00
 -1      1171 1.57420E+00
 -1      1172 2.24976E+00
 -1      1173 3.33110E+00
 -1      1174 3.92347E+00
 -1      1175 3.97407E+00
 -1      1176 4.00477E+00
 -1      1177 3.51128E+00
 -1      1178 2.40877E+00
 -1      1179 1.60183E+00
 -1      1180 1.40391E+00
 -1      1181 1.38771E+00
 -1      1182 1.37150E+00
 -1      1183 1.30799E+00
 -1      1184 1.13846E+00
 -1      1185 9.27496E-01
 -1      1186 7.33901E-01
 -1      1187 5.92384E-01
 -1      1188 4.98936E-01
 -1      1189 4.17650E-01
 -1      1190 3.39118E-01
 -1      1191 2.67027E-01
 -1      1192 2.12132E-01
 -1      1193 1.76535E-01
 -1      1194 1.28240E-01
 -1      1195 5.97568E-02
 -1      1196 1.40465E+01
 -1      1197 8.72704E+00
 -1      1198 2.91807E+00
 -1      1199 2.05625E+00
 -1      1200 1.42490E+00
 -1      1201 1.05133E+00
 -1      1202 8.54410E-01
 -1      1203 7.06834E-01
 -1      1204 5.90073E-01
 -1      1205 4.98973E-01
 -1      1206 4.30713E-01
 -1      1207 3.83133E-01
 -1      1208 3.53905E-01
 -1      1209 3.41241E-01
 -1      1210 3.65222E-01
 -1      1211 4.24814E-01
 -1      1212 4.92903E-01
 -1      1213 5.58155E-01
 -1      1214 6.05586E-01
 -1      1215 6.33123E-01
 -1      1216 7.46317E-01
 -1      1217 9.38340E-01
 -1      1218 1.06441E+00
 -1      1219 1.24781E+00
 -1      1220 1.43560E+00
 -1      1221 1.58093E+00
 -1      1222 1.81789E+00
 -1      1223 2.46533E+00
 -1      1224 3.14478E+00
 -1      1225 3.55296E+00
 -1      1226 3.79644E+00
 -1      1227 3.49580E+00
 -1      1228 2.56754E+00
 -1      1229 1.60956E+00
 -1      1230 1.17650E+00
 -1      1231 1.17023E+00
 -1      1232 1.26668E+00
 -1      1233 1.26366E+00
 -1      1234 1.19495E+00
 -1      1235 1.04135E+00
 -1      1236 8.73253E-01
 -1      1237 7.11474E-01
 -1      1238 5.54683E-01
 -1      1239 4.24812E-01
 -1      1240 3.33639E-01
 -1      1241 2.63725E-01
 -1      1242 1.99013E-01
 -1      1243 1.40973E-01
 -1      1244 9.39415E-02
 -1      1245 4.77081E-02
 -1      1246 2.63312E-02
 -1      1247 3.08891E-02
 -1      1248 3.01863E-02
 -1      1249 2.35634E-02
 -1      1250 1.50423E-02
 -1      1251 1.77537E-02
 -1      1252 2.64098E-02
 -1      1253 3.07763E-02
 -1      1254 3.17990E-02
 -1      1255 3.07844E-02
 -1      1256 2.63307E-02
 -1      1257 1.77899E-02
 -1      1258 1.53677E-02
 -1      1259 2.37271E-02
 -1      1260 3.53399E-02
 -1      1261 4.23774E-02
 -1      1262 3.40454E-02
 -1      1263 2.46336E+01
 -1      1264 3.58447E+01
 -1      1265 4.70238E+01
 -1      1266 3.33963E+01
 -1      1267 1.58958E+01
 -1      1268 1.25660E+01
 -1      1269 1.31093E+01
 -1      1270 1.27813E+01
 -1      1271 1.24534E+01
 -1      1272 1.26569E+01
 -1      1273 2.05143E+01
 -1      1274 2.89444E+01
 -1      1275 2.90299E+01
 -1      1276 2.65397E+01
 -1      1277 2.45287E+01
 -1      1278 2.42754E+01
 -1      1279 3.47942E+01
 -1      1280 4.53547E+01
 -1      1281 3.12051E+01
 -1      1282 1.47544E+01
 -1      1283 1.24532E+01
 -1      1284 1.24182E+01
 -1      1285 1.23832E+01
 -1      1286 1.22754E+01
 -1      1287 1.20214E+01
 -1      1288 1.83412E+01
 -1      1289 2.76344E+01
 -1      1290 3.04617E+01
 -1      1291 2.75145E+01
 -1      1292 2.45845E+01
 -1      1293 1.31506E+01
 -1      1294 4.85918E+00
 -1      1295 9.60799E+00
 -1      1296 2.05237E+00
 -1      1297 2.97130E+00
 -1      1298 4.17754E+00
 -1      1299 1.39172E+00
 -1      1300 1.65732E+00
 -1      1301 1.89462E+00
 -1      1302 1.09569E+00
 -1      1303 1.21847E+00
 -1      1304 1.32632E+00
 -1      1305 9.31482E-01
 -1      1306 1.00302E+00
 -1      1307 1.06040E+00
 -1      1308 8.32765E-01
 -1      1309 8.77992E-01
 -1      1310 9.14247E-01
 -1      1311 7.72285E-01
 -1      1312 7.98903E-01
 -1      1313 8.26895E-01
 -1      1314 7.53492E-01
 -1      1315 7.52514E-01
 -1      1316 7.73262E-01
 -1      1317 8.02763E-01
 -1      1318 7.74977E-01
 -1      1319 7.74977E-01
 -1      1320 8.79948E-01
 -1      1321 8.36380E-01
 -1      1322 8.30078E-01
 -1      1323 1.01190E+00
 -1      1324 9.36436E-01
 -1      1325 9.20182E-01
 -1      1326 1.23428E+00
 -1      1327 1.10717E+00
 -1      1328 1.07194E+00
 -1      1329 1.67259E+00
 -1      1330 1.41125E+00
 -1      1331 1.34419E+00
 -1      1332 2.87403E+00
 -1      1333 2.03877E+00
 -1      1334 1.88736E+00
 -1      1335 6.28171E+00
 -1      1336 3.70895E+00
 -1      1337 3.08846E+00
 -1      1338 1.40465E+01
 -1      1339 1.13433E+01
 -1      1340 8.98497E+00
 -1      1341 1.40465E+01
 -1      1342 8.74175E+00
 -1      1343 4.33294E+00
 -1      1344 3.84612E+00
 -1      1345 3.35930E+00
 -1      1346 3.84612E+00
 -1      1347 2.74553E+00
 -1      1348 2.13175E+00
 -1      1349 2.74553E+00
 -1      1350 1.79852E+00
 -1      1351 1.42545E+00
 -1      1352 1.79852E+00
 -1      1353 1.21564E+00
 -1      1354 1.04567E+00
 -1      1355 1.25548E+00
 -1      1356 9.30422E-01
 -1      1357 8.15171E-01
 -1      1358 9.30422E-01
 -1      1359 7.30450E-01
 -1      1360 6.45730E-01
 -1      1361 7.30450E-01
 -1      1362 5.81802E-01
 -1      1363 5.17875E-01
 -1      1364 5.81802E-01
 -1      1365 4.69835E-01
 -1      1366 4.21795E-01
 -1      1367 4.69835E-01
 -1      1368 3.86504E-01
 -1      1369 3.51213E-01
 -1      1370 3.86504E-01
 -1      1371 3.26110E-01
 -1      1372 3.01006E-01
 -1      1373 3.26110E-01
 -1      1374 2.83636E-01
 -1      1375 2.79073E-01
 -1      1376 2.83636E-01
 -1      1377 2.91879E-01
 -1      1378 3.14704E-01
 -1      1379 2.79073E-01
 -1      1380 3.37528E-01
 -1      1381 3.67072E-01
 -1      1382 3.14704E-01
 -1      1383 3.96616E-01
 -1      1384 4.31488E-01
 -1      1385 3.67072E-01
 -1      1386 4.66359E-01
 -1      1387 5.03385E-01
 -1      1388 4.31488E-01
 -1      1389 5.66530E-01
 -1      1390 6.10470E-01
 -1      1391 5.29504E-01
 -1      1392 6.78847E-01
 -1      1393 7.65421E-01
 -1      1394 6.61026E-01
 -1      1395 8.25476E-01
 -1      1396 9.25905E-01
 -1      1397 7.89458E-01
 -1      1398 1.00286E+00
 -1      1399 1.11094E+00
 -1      1400 9.26473E-01
 -1      1401 1.21845E+00
 -1      1402 1.29171E+00
 -1      1403 1.11094E+00
 -1      1404 1.36497E+00
 -1      1405 1.36497E+00
 -1      1406 1.29171E+00
 -1      1407 1.35261E+00
 -1      1408 1.37388E+00
 -1      1409 1.35261E+00
 -1      1410 1.40750E+00
 -1      1411 1.40750E+00
 -1      1412 1.37388E+00
 -1      1413 1.32092E+00
 -1      1414 1.48762E+00
 -1      1415 1.32092E+00
 -1      1416 1.74090E+00
 -1      1417 2.24976E+00
 -1      1418 1.48762E+00
 -1      1419 2.75862E+00
 -1      1420 3.33110E+00
 -1      1421 2.24976E+00
 -1      1422 3.90358E+00
 -1      1423 3.92347E+00
 -1      1424 3.33110E+00
 -1      1425 3.94337E+00
 -1      1426 3.97407E+00
 -1      1427 3.92347E+00
 -1      1428 4.00477E+00
 -1      1429 4.00477E+00
 -1      1430 3.97407E+00
 -1      1431 3.51128E+00
 -1      1432 3.01780E+00
 -1      1433 3.51128E+00
 -1      1434 2.42631E+00
 -1      1435 1.81728E+00
 -1      1436 2.42631E+00
 -1      1437 1.56211E+00
 -1      1438 1.36419E+00
 -1      1439 1.57964E+00
 -1      1440 1.40391E+00
 -1      1441 1.40391E+00
 -1      1442 1.36419E+00
 -1      1443 1.35376E+00
 -1      1444 1.33755E+00
 -1      1445 1.35376E+00
 -1      1446 1.37150E+00
 -1      1447 1.37150E+00
 -1      1448 1.33755E+00
 -1      1449 1.30799E+00
 -1      1450 1.24448E+00
 -1      1451 1.30799E+00
 -1      1452 1.13846E+00
 -1      1453 1.03244E+00
 -1      1454 1.13846E+00
 -1      1455 9.48456E-01
 -1      1456 8.43515E-01
 -1      1457 9.48456E-01
 -1      1458 7.84510E-01
 -1      1459 6.95855E-01
 -1      1460 8.05470E-01
 -1      1461 6.27964E-01
 -1      1462 5.75102E-01
 -1      1463 6.78573E-01
 -1      1464 5.07528E-01
 -1      1465 4.66941E-01
 -1      1466 5.43108E-01
 -1      1467 4.17650E-01
 -1      1468 3.76950E-01
 -1      1469 4.26242E-01
 -1      1470 3.39118E-01
 -1      1471 3.01286E-01
 -1      1472 3.39118E-01
 -1      1473 2.67027E-01
 -1      1474 2.32768E-01
 -1      1475 2.67027E-01
 -1      1476 2.12132E-01
 -1      1477 1.91496E-01
 -1      1478 2.12132E-01
 -1      1479 1.76535E-01
 -1      1480 1.61574E-01
 -1      1481 1.76535E-01
 -1      1482 1.28240E-01
 -1      1483 9.49050E-02
 -1      1484 1.28240E-01
 -1      1485 6.91935E-02
 -1      1486 6.91935E-02
 -1      1487 3.40753E+00
 -1      1488 8.72704E+00
 -1      1489 8.72704E+00
 -1      1490 2.42861E+00
 -1      1491 2.91807E+00
 -1      1492 2.91807E+00
 -1      1493 1.68390E+00
 -1      1494 2.05625E+00
 -1      1495 2.05625E+00
 -1      1496 1.16590E+00
 -1      1497 1.42490E+00
 -1      1498 1.42490E+00
 -1      1499 9.36760E-01
 -1      1500 1.05133E+00
 -1      1501 1.05133E+00
 -1      1502 7.72061E-01
 -1      1503 8.54410E-01
 -1      1504 8.54410E-01
 -1      1505 6.41608E-01
 -1      1506 7.06834E-01
 -1      1507 7.06834E-01
 -1      1508 5.38538E-01
 -1      1509 5.90073E-01
 -1      1510 5.90073E-01
 -1      1511 4.59408E-01
 -1      1512 4.98973E-01
 -1      1513 4.98973E-01
 -1      1514 4.02017E-01
 -1      1515 4.30713E-01
 -1      1516 4.30713E-01
 -1      1517 3.64249E-01
 -1      1518 3.83133E-01
 -1      1519 3.83133E-01
 -1      1520 3.43562E-01
 -1      1521 3.53905E-01
 -1      1522 3.53905E-01
 -1      1523 3.37776E-01
 -1      1524 3.40097E-01
 -1      1525 3.40097E-01
 -1      1526 3.66487E-01
 -1      1527 3.40187E-01
 -1      1528 3.39042E-01
 -1      1529 4.26949E-01
 -1      1530 3.93657E-01
 -1      1531 3.68622E-01
 -1      1532 4.92903E-01
 -1      1533 4.58106E-01
 -1      1534 4.26949E-01
 -1      1535 5.58155E-01
 -1      1536 5.27699E-01
 -1      1537 4.92903E-01
 -1      1538 6.05586E-01
 -1      1539 5.88612E-01
 -1      1540 5.58155E-01
 -1      1541 6.33123E-01
 -1      1542 6.22559E-01
 -1      1543 6.05586E-01
 -1      1544 7.86578E-01
 -1      1545 6.83948E-01
 -1      1546 6.73384E-01
 -1      1547 9.38340E-01
 -1      1548 8.48947E-01
 -1      1549 7.86578E-01
 -1      1550 1.06441E+00
 -1      1551 1.02773E+00
 -1      1552 9.38340E-01
 -1      1553 1.24781E+00
 -1      1554 1.10109E+00
 -1      1555 1.06441E+00
 -1      1556 1.43560E+00
 -1      1557 1.39452E+00
 -1      1558 1.24781E+00
 -1      1559 1.58093E+00
 -1      1560 1.47667E+00
 -1      1561 1.43560E+00
 -1      1562 1.81789E+00
 -1      1563 1.68518E+00
 -1      1564 1.58093E+00
 -1      1565 2.53245E+00
 -1      1566 2.01771E+00
 -1      1567 1.88500E+00
 -1      1568 3.14478E+00
 -1      1569 2.98007E+00
 -1      1570 2.53245E+00
 -1      1571 3.55296E+00
 -1      1572 3.30948E+00
 -1      1573 3.14478E+00
 -1      1574 3.79644E+00
 -1      1575 3.79644E+00
 -1      1576 3.55296E+00
 -1      1577 3.19517E+00
 -1      1578 3.49580E+00
 -1      1579 3.49580E+00
 -1      1580 1.93991E+00
 -1      1581 2.56754E+00
 -1      1582 2.56754E+00
 -1      1583 1.27921E+00
 -1      1584 1.60956E+00
 -1      1585 1.60956E+00
 -1      1586 1.04417E+00
 -1      1587 1.14688E+00
 -1      1588 1.14688E+00
 -1      1589 1.17023E+00
 -1      1590 1.07379E+00
 -1      1591 1.04417E+00
 -1      1592 1.26668E+00
 -1      1593 1.26668E+00
 -1      1594 1.17023E+00
 -1      1595 1.26065E+00
 -1      1596 1.26366E+00
 -1      1597 1.26366E+00
 -1      1598 1.12925E+00
 -1      1599 1.19495E+00
 -1      1600 1.19495E+00
 -1      1601 9.53446E-01
 -1      1602 1.04135E+00
 -1      1603 1.04135E+00
 -1      1604 7.93059E-01
 -1      1605 8.73253E-01
 -1      1606 8.73253E-01
 -1      1607 6.38963E-01
 -1      1608 7.20548E-01
 -1      1609 7.20548E-01
 -1      1610 4.93395E-01
 -1      1611 5.68600E-01
 -1      1612 5.77675E-01
 -1      1613 3.75425E-01
 -1      1614 4.30090E-01
 -1      1615 4.44008E-01
 -1      1616 2.97130E-01
 -1      1617 3.33639E-01
 -1      1618 3.38917E-01
 -1      1619 2.30320E-01
 -1      1620 2.63725E-01
 -1      1621 2.63725E-01
 -1      1622 1.67706E-01
 -1      1623 1.99013E-01
 -1      1624 1.99013E-01
 -1      1625 1.14240E-01
 -1      1626 1.40973E-01
 -1      1627 1.40973E-01
 -1      1628 7.36428E-02
 -1      1629 9.39415E-02
 -1      1630 9.39415E-02
 -1      1631 5.22660E-02
 -1      1632 3.81559E-02
 -1      1633 3.81559E-02
 -1      1634 3.86809E-02
 -1      1635 3.93837E-02
 -1      1636 4.66504E-02
 -1      1637 3.27608E-02
 -1      1638 3.86809E-02
 -1      1639 4.78783E-02
 -1      1640 1.81962E-02
 -1      1641 2.07972E-02
 -1      1642 3.59147E-02
 -1      1643 3.26867E-02
 -1      1644 2.73743E-02
 -1      1645 3.31292E-02
 -1      1646 4.29421E-02
 -1      1647 3.95983E-02
 -1      1648 4.92190E-02
 -1      1649 4.68565E-02
 -1      1650 4.58338E-02
 -1      1651 5.90223E-02
 -1      1652 4.68606E-02
 -1      1653 4.68606E-02
 -1      1654 6.19181E-02
 -1      1655 4.58460E-02
 -1      1656 4.68606E-02
 -1      1657 6.19222E-02
 -1      1658 3.94495E-02
 -1      1659 4.28886E-02
 -1      1660 5.89648E-02
 -1      1661 2.77411E-02
 -1      1662 3.28428E-02
 -1      1663 4.94007E-02
 -1      1664 2.11294E-02
 -1      1665 1.84499E-02
 -1      1666 3.35027E-02
 -1      1667 3.89829E-02
 -1      1668 3.33030E-02
 -1      1669 3.63852E-02
 -1      1670 4.49158E-02
 -1      1671 3.89829E-02
 -1      1672 4.85588E-02
 -1      1673 5.13740E-02
 -1      1674 5.02694E-02
 -1      1675 5.39124E-02
 -1      1676 7.70855E-02
 -1      1677 2.73420E+01
 -1      1678 2.73100E+01
 -1      1679 3.79862E+01
 -1      1680 2.68071E+01
 -1      1681 4.70238E+01
 -1      1682 4.70238E+01
 -1      1683 2.02341E+01
 -1      1684 3.38616E+01
 -1      1685 1.16561E+01
 -1      1686 1.55291E+01
 -1      1687 1.25660E+01
 -1      1688 1.20227E+01
 -1      1689 1.31093E+01
 -1      1690 1.31093E+01
 -1      1691 1.23076E+01
 -1      1692 1.26355E+01
 -1      1693 1.24534E+01
 -1      1694 1.24534E+01
 -1      1695 1.23756E+01
 -1      1696 1.21721E+01
 -1      1697 2.05143E+01
 -1      1698 1.28604E+01
 -1      1699 2.97206E+01
 -1      1700 2.89444E+01
 -1      1701 3.12286E+01
 -1      1702 3.19193E+01
 -1      1703 2.94292E+01
 -1      1704 3.12286E+01
 -1      1705 2.66523E+01
 -1      1706 2.68638E+01
 -1      1707 2.66106E+01
 -1      1708 2.66523E+01
 -1      1709 4.16298E+01
 -1      1710 3.10693E+01
 -1      1711 4.53547E+01
 -1      1712 4.53547E+01
 -1      1713 1.79663E+01
 -1      1714 3.21158E+01
 -1      1715 1.15774E+01
 -1      1716 1.38785E+01
 -1      1717 1.24532E+01
 -1      1718 1.24532E+01
 -1      1719 1.22410E+01
 -1      1720 1.22760E+01
 -1      1721 1.23832E+01
 -1      1722 1.23832E+01
 -1      1723 1.21677E+01
 -1      1724 1.22754E+01
 -1      1725 1.18752E+01
 -1      1726 1.20214E+01
 -1      1727 1.82705E+01
 -1      1728 1.18045E+01
 -1      1729 2.86362E+01
 -1      1730 2.58089E+01
 -1      1731 3.09805E+01
 -1      1732 3.09805E+01
 -1      1733 2.80334E+01
 -1      1734 3.09805E+01
 -1      1735 2.73100E+01
 -1      1736 2.72929E+01
 -1      1737 1.59944E+01
 -1      1738 3.38616E+01
 -1      1739 5.22660E-02
 -1      1740 5.95327E-02
 -1      1741 2.94835E+01
 -1      1742 3.79862E+01
 -1      1743 3.00184E+01
 -1      1744 1.16561E+01
 -1      1745 1.25660E+01
 -1      1746 1.26355E+01
 -1      1747 1.23076E+01
 -1      1748 1.21721E+01
 -1      1749 1.23756E+01
 -1      1750 2.12905E+01
 -1      1751 3.19193E+01
 -1      1752 3.41181E+01
 -1      1753 3.15528E+01
 -1      1754 2.89874E+01
 -1      1755 3.34462E+01
 -1      1756 4.16298E+01
 -1      1757 3.21158E+01
 -1      1758 1.47892E+01
 -1      1759 1.15774E+01
 -1      1760 1.22760E+01
 -1      1761 1.22410E+01
 -1      1762 1.22754E+01
 -1      1763 1.20214E+01
 -1      1764 1.18045E+01
 -1      1765 1.92722E+01
 -1      1766 2.91550E+01
 -1      1767 3.14993E+01
 -1      1768 3.07589E+01
 -1      1769 9.60799E+00
 -1      1770 1.27959E+00
 -1      1771 1.67464E+00
 -1      1772 2.37863E+00
 -1      1773 4.26650E+00
 -1      1774 1.76360E+00
 -1      1775 8.76018E-01
 -1      1776 9.68682E-01
 -1      1777 7.75861E-01
 -1      1778 8.29351E-01
 -1      1779 7.37632E-01
 -1      1780 7.10695E-01
 -1      1781 7.44557E-01
 -1      1782 6.59661E-01
 -1      1783 6.69036E-01
 -1      1784 6.88807E-01
 -1      1785 6.06469E-01
 -1      1786 6.92107E-01
 -1      1787 6.70622E-01
 -1      1788 5.86166E-01
 -1      1789 7.47331E-01
 -1      1790 7.13715E-01
 -1      1791 6.09359E-01
 -1      1792 8.36907E-01
 -1      1793 7.80419E-01
 -1      1794 6.64056E-01
 -1      1795 9.79506E-01
 -1      1796 8.84235E-01
 -1      1797 7.44472E-01
 -1      1798 1.22392E+00
 -1      1799 1.04694E+00
 -1      1800 8.59237E-01
 -1      1801 1.70150E+00
 -1      1802 1.33532E+00
 -1      1803 1.03807E+00
 -1      1804 2.62058E+00
 -1      1805 1.78566E+00
 -1      1806 1.23362E+00
 -1      1807 8.12469E+00
 -1      1808 3.06311E+00
 -1      1809 1.76031E+00
 -1      1810 2.80519E+00
 -1      1811 5.19918E+00
 -1      1812 2.17212E+00
 -1      1813 2.66158E+00
 -1      1814 2.05923E+00
 -1      1815 3.40027E+00
 -1      1816 2.55132E+00
 -1      1817 1.93754E+00
 -1      1818 1.70702E+00
 -1      1819 1.37379E+00
 -1      1820 1.51281E+00
 -1      1821 1.19401E+00
 -1      1822 9.84202E-01
 -1      1823 1.10251E+00
 -1      1824 8.59331E-01
 -1      1825 7.44080E-01
 -1      1826 7.97861E-01
 -1      1827 6.93128E-01
 -1      1828 6.08407E-01
 -1      1829 6.22038E-01
 -1      1830 5.62990E-01
 -1      1831 4.99063E-01
 -1      1832 5.25668E-01
 -1      1833 4.59589E-01
 -1      1834 4.11550E-01
 -1      1835 4.40778E-01
 -1      1836 3.78096E-01
 -1      1837 3.42805E-01
 -1      1838 3.67851E-01
 -1      1839 3.14879E-01
 -1      1840 2.89775E-01
 -1      1841 3.06470E-01
 -1      1842 2.66346E-01
 -1      1843 2.48976E-01
 -1      1844 2.55115E-01
 -1      1845 2.50484E-01
 -1      1846 2.63291E-01
 -1      1847 2.33194E-01
 -1      1848 2.81188E-01
 -1      1849 3.04012E-01
 -1      1850 2.52599E-01
 -1      1851 3.26464E-01
 -1      1852 3.56008E-01
 -1      1853 2.92948E-01
 -1      1854 4.01950E-01
 -1      1855 4.36822E-01
 -1      1856 3.61342E-01
 -1      1857 4.97990E-01
 -1      1858 5.61135E-01
 -1      1859 4.68453E-01
 -1      1860 6.23952E-01
 -1      1861 6.92329E-01
 -1      1862 5.92438E-01
 -1      1863 7.49873E-01
 -1      1864 8.09929E-01
 -1      1865 7.12799E-01
 -1      1866 8.58941E-01
 -1      1867 9.35900E-01
 -1      1868 8.19356E-01
 -1      1869 9.90640E-01
 -1      1870 1.09815E+00
 -1      1871 9.23107E-01
 -1      1872 1.13493E+00
 -1      1873 1.20819E+00
 -1      1874 1.01463E+00
 -1      1875 1.18206E+00
 -1      1876 1.16970E+00
 -1      1877 1.02528E+00
 -1      1878 1.06803E+00
 -1      1879 1.10166E+00
 -1      1880 8.97478E-01
 -1      1881 1.13966E+00
 -1      1882 1.05308E+00
 -1      1883 8.33813E-01
 -1      1884 1.18448E+00
 -1      1885 1.43776E+00
 -1      1886 1.00322E+00
 -1      1887 1.73090E+00
 -1      1888 2.23976E+00
 -1      1889 1.42776E+00
 -1      1890 2.51400E+00
 -1      1891 3.08648E+00
 -1      1892 1.99515E+00
 -1      1893 3.17356E+00
 -1      1894 3.19346E+00
 -1      1895 2.35647E+00
 -1      1896 3.17852E+00
 -1      1897 3.20922E+00
 -1      1898 2.42861E+00
 -1      1899 3.17523E+00
 -1      1900 2.68175E+00
 -1      1901 2.37968E+00
 -1      1902 2.40090E+00
 -1      1903 1.80941E+00
 -1      1904 2.06485E+00
 -1      1905 1.54100E+00
 -1      1906 1.28583E+00
 -1      1907 1.51560E+00
 -1      1908 1.09986E+00
 -1      1909 1.13958E+00
 -1      1910 1.06122E+00
 -1      1911 1.11115E+00
 -1      1912 1.06099E+00
 -1      1913 8.46816E-01
 -1      1914 1.13522E+00
 -1      1915 1.16917E+00
 -1      1916 8.92609E-01
 -1      1917 1.20992E+00
 -1      1918 1.14641E+00
 -1      1919 1.00759E+00
 -1      1920 1.11750E+00
 -1      1921 1.01148E+00
 -1      1922 1.01944E+00
 -1      1923 9.57056E-01
 -1      1924 8.73075E-01
 -1      1925 9.36103E-01
 -1      1926 8.25543E-01
 -1      1927 7.66537E-01
 -1      1928 8.34143E-01
 -1      1929 7.11585E-01
 -1      1930 6.43694E-01
 -1      1931 7.31658E-01
 -1      1932 5.82364E-01
 -1      1933 5.14790E-01
 -1      1934 6.15376E-01
 -1      1935 4.55043E-01
 -1      1936 4.05751E-01
 -1      1937 4.94300E-01
 -1      1938 3.52073E-01
 -1      1939 3.14241E-01
 -1      1940 3.80874E-01
 -1      1941 2.68728E-01
 -1      1942 2.34469E-01
 -1      1943 2.81683E-01
 -1      1944 2.05516E-01
 -1      1945 1.84880E-01
 -1      1946 2.07216E-01
 -1      1947 1.60023E-01
 -1      1948 1.45062E-01
 -1      1949 1.53406E-01
 -1      1950 1.23934E-01
 -1      1951 9.05997E-02
 -1      1952 7.27802E-02
 -1      1953 1.07422E-01
 -1      1954 1.41313E+00
 -1      1955 1.78548E+00
 -1      1956 1.52899E+00
 -1      1957 1.03448E+00
 -1      1958 1.29348E+00
 -1      1959 1.02270E+00
 -1      1960 8.25939E-01
 -1      1961 9.40507E-01
 -1      1962 8.09087E-01
 -1      1963 6.63415E-01
 -1      1964 7.45765E-01
 -1      1965 6.34943E-01
 -1      1966 5.52872E-01
 -1      1967 6.18098E-01
 -1      1968 5.09452E-01
 -1      1969 4.69685E-01
 -1      1970 5.21220E-01
 -1      1971 4.32484E-01
 -1      1972 4.07328E-01
 -1      1973 4.46893E-01
 -1      1974 3.78040E-01
 -1      1975 3.59827E-01
 -1      1976 3.88522E-01
 -1      1977 3.36442E-01
 -1      1978 3.26726E-01
 -1      1979 3.45610E-01
 -1      1980 3.03420E-01
 -1      1981 3.06697E-01
 -1      1982 3.17041E-01
 -1      1983 2.79518E-01
 -1      1984 2.97432E-01
 -1      1985 3.00897E-01
 -1      1986 2.64033E-01
 -1      1987 3.17193E-01
 -1      1988 3.14783E-01
 -1      1989 2.75583E-01
 -1      1990 3.83583E-01
 -1      1991 3.56413E-01
 -1      1992 3.32154E-01
 -1      1993 4.74015E-01
 -1      1994 4.42858E-01
 -1      1995 4.30648E-01
 -1      1996 5.70542E-01
 -1      1997 5.35746E-01
 -1      1998 5.51655E-01
 -1      1999 6.58806E-01
 -1      2000 6.28349E-01
 -1      2001 6.71193E-01
 -1      2002 7.24633E-01
 -1      2003 7.07660E-01
 -1      2004 7.77853E-01
 -1      2005 8.14786E-01
 -1      2006 7.63961E-01
 -1      2007 8.66035E-01
 -1      2008 8.77155E-01
 -1      2009 8.14786E-01
 -1      2010 9.05363E-01
 -1      2011 9.63587E-01
 -1      2012 8.74195E-01
 -1      2013 9.02403E-01
 -1      2014 9.27915E-01
 -1      2015 8.91235E-01
 -1      2016 8.27091E-01
 -1      2017 1.02303E+00
 -1      2018 8.76313E-01
 -1      2019 7.03136E-01
 -1      2020 1.17462E+00
 -1      2021 1.13354E+00
 -1      2022 7.62051E-01
 -1      2023 1.62029E+00
 -1      2024 1.51604E+00
 -1      2025 1.21399E+00
 -1      2026 1.99896E+00
 -1      2027 1.79914E+00
 -1      2028 1.73425E+00
 -1      2029 2.44658E+00
 -1      2030 1.99896E+00
 -1      2031 1.91309E+00
 -1      2032 2.59197E+00
 -1      2033 2.42726E+00
 -1      2034 1.89377E+00
 -1      2035 2.97988E+00
 -1      2036 2.73640E+00
 -1      2037 2.01888E+00
 -1      2038 2.63626E+00
 -1      2039 2.93689E+00
 -1      2040 2.12033E+00
 -1      2041 1.69333E+00
 -1      2042 2.32096E+00
 -1      2043 1.76204E+00
 -1      2044 1.06653E+00
 -1      2045 1.39688E+00
 -1      2046 1.15029E+00
 -1      2047 7.90692E-01
 -1      2048 9.23018E-01
 -1      2049 7.10333E-01
 -1      2050 9.49884E-01
 -1      2051 9.20270E-01
 -1      2052 6.96404E-01
 -1      2053 1.08839E+00
 -1      2054 9.91948E-01
 -1      2055 8.68045E-01
 -1      2056 1.10406E+00
 -1      2057 1.10708E+00
 -1      2058 9.28795E-01
 -1      2059 1.01827E+00
 -1      2060 1.08398E+00
 -1      2061 9.27392E-01
 -1      2062 8.83409E-01
 -1      2063 9.71308E-01
 -1      2064 8.60338E-01
 -1      2065 7.55640E-01
 -1      2066 8.35834E-01
 -1      2067 7.65796E-01
 -1      2068 6.24705E-01
 -1      2069 6.97216E-01
 -1      2070 6.59796E-01
 -1      2071 4.94591E-01
 -1      2072 5.64953E-01
 -1      2073 5.41620E-01
 -1      2074 3.75766E-01
 -1      2075 4.39070E-01
 -1      2076 4.26349E-01
 -1      2077 2.86675E-01
 -1      2078 3.28462E-01
 -1      2079 3.23524E-01
 -1      2080 2.24123E-01
 -1      2081 2.57528E-01
 -1      2082 2.47073E-01
 -1      2083 1.65890E-01
 -1      2084 1.97197E-01
 -1      2085 1.91000E-01
 -1      2086 1.13338E-01
 -1      2087 1.40071E-01
 -1      2088 1.38255E-01
 -1      2089 6.82700E-02
 -1      2090 8.85687E-02
 -1      2091 8.76665E-02
 -1      2092 5.41599E-02
 -1      2093 3.78560E-02
 -1      2094 4.98196E-02
 -1      2095 6.84353E-02
 -1      2096 6.84353E-02
 -1      2097 7.03767E-02
 -1      2098 6.84353E-02
 -1      2099 6.72075E-02
 -1      2100 7.59448E-02
 -1      2101 8.89924E-02
 -1      2102 4.97863E-02
 -1      2103 4.06081E-02
 -1      2104 5.45131E-02
 -1      2105 6.71836E-02
 -1      2106 6.02719E-02
 -1      2107 6.77508E-02
 -1      2108 7.52215E-02
 -1      2109 7.23298E-02
 -1      2110 8.33827E-02
 -1      2111 7.52256E-02
 -1      2112 7.52215E-02
 -1      2113 8.85290E-02
 -1      2114 7.51642E-02
 -1      2115 7.51642E-02
 -1      2116 8.84676E-02
 -1      2117 7.22068E-02
 -1      2118 7.51642E-02
 -1      2119 8.84061E-02
 -1      2120 6.08230E-02
 -1      2121 6.74298E-02
 -1      2122 8.36291E-02
 -1      2123 4.10709E-02
 -1      2124 5.03621E-02
 -1      2125 6.83912E-02
 -1      2126 5.13382E-02
 -1      2127 3.91645E-02
 -1      2128 5.60239E-02
 -1      2129 6.39503E-02
 -1      2130 6.39503E-02
 -1      2131 6.67297E-02
 -1      2132 3.79862E+01
 -1      2133 2.89485E+01
 -1      2134 3.07932E+01
 -1      2135 3.07932E+01
 -1      2136 2.91063E+01
 -1      2137 2.96413E+01
 -1      2138 2.91063E+01
 -1      2139 1.85274E+01
 -1      2140 3.16896E+01
 -1      2141 1.03416E+01
 -1      2142 1.50465E+01
 -1      2143 1.28746E+01
 -1      2144 1.03051E+00
 -1      2145 1.20377E+00
 -1      2146 9.83787E-01
 -1      2147 8.46130E-01
 -1      2148 1.08696E+01
 -1      2149 1.03263E+01
 -1      2150 1.11328E+01
 -1      2151 1.16066E+01
 -1      2152 1.18059E+01
 -1      2153 1.16601E+01
 -1      2154 1.06566E+01
 -1      2155 1.09379E+01
 -1      2156 1.01228E+01
 -1      2157 9.63809E+00
 -1      2158 8.40384E+00
 -1      2159 2.04188E+01
 -1      2160 1.19887E+01
 -1      2161 2.69335E+01
 -1      2162 2.47347E+01
 -1      2163 3.41181E+01
 -1      2164 3.41181E+01
 -1      2165 3.31496E+01
 -1      2166 3.57150E+01
 -1      2167 3.31496E+01
 -1      2168 3.31496E+01
 -1      2169 3.14751E+01
 -1      2170 2.70164E+01
 -1      2171 3.60224E+01
 -1      2172 3.22976E+01
 -1      2173 1.70625E+01
 -1      2174 3.03013E+01
 -1      2175 2.09691E+01
 -1      2176 9.81076E+00
 -1      2177 1.38985E+01
 -1      2178 9.76827E+00
 -1      2179 8.89240E+00
 -1      2180 1.09535E+01
 -1      2181 1.11308E+01
 -1      2182 1.12676E+01
 -1      2183 1.11254E+01
 -1      2184 9.98016E+00
 -1      2185 1.11987E+01
 -1      2186 1.13065E+01
 -1      2187 1.05489E+01
 -1      2188 1.06951E+01
 -1      2189 9.72617E+00
 -1      2190 8.98926E+00
 -1      2191 9.05998E+00
 -1      2192 1.86856E+01
 -1      2193 1.11471E+01
 -1      2194 8.40262E+00
 -1      2195 2.48158E+01
 -1      2196 2.24715E+01
 -1      2197 3.14993E+01
 -1      2198 3.14993E+01
 -1      2199 3.07932E+01
 -1      2200 3.15336E+01
 -1      2201 9.67436E+00
 -1      2202 9.30772E+00
 -1      2203 8.35987E+00
 -1      2204 2.91345E+00
 -1      2205 1.02904E+01
 -1      2206 7.97792E+00
 -1      2207 2.10546E+00
 -1      2208 3.04160E+01
 -1      2209 2.26520E+01
 -1      2210 6.93039E-02
 -1      2211 3.15679E+01
 -1      2212 3.15336E+01
 -1      2213 1.43464E+01
 -1      2214 7.73369E+00
 -1      2215 1.01909E+01
 -1      2216 8.44579E+00
 -1      2217 1.20840E+01
 -1      2218 2.58678E+01
 -1      2219 3.11786E+01
 -1      2220 3.73118E+01
 -1      2221 3.57150E+01
 -1      2222 2.69335E+01
 -1      2223 9.25115E+00
 -1      2224 1.11188E+01
 -1      2225 8.87911E+00
 -1      2226 9.61610E+00
 -1      2227 1.06311E+01
 -1      2228 1.54329E+01
 -1      2229 8.00167E+00
 -1      2230 2.48158E+01
 -1      2231 1.10088E+00
 -1      2232 1.48752E+00
 -1      2233 5.55567E-01
 -1      2234 5.86870E-01
 -1      2235 5.99001E-01
 -1      2236 6.45667E-01
 -1      2237 4.94906E-01
 -1      2238 5.08087E-01
 -1      2239 5.06501E-01
 -1      2240 5.42500E-01
 -1      2241 5.20892E-01
 -1      2242 4.41227E-01
 -1      2243 5.90249E-01
 -1      2244 5.57161E-01
 -1      2245 4.68694E-01
 -1      2246 6.49542E-01
 -1      2247 6.02214E-01
 -1      2248 4.95319E-01
 -1      2249 7.16979E-01
 -1      2250 6.49542E-01
 -1      2251 5.07284E-01
 -1      2252 8.72603E-01
 -1      2253 7.61210E-01
 -1      2254 5.51514E-01
 -1      2255 9.03057E-01
 -1      2256 1.02270E+00
 -1      2257 9.81237E-01
 -1      2258 1.27194E+00
 -1      2259 1.04141E+00
 -1      2260 7.72624E+00
 -1      2261 8.59424E+00
 -1      2262 9.96816E-01
 -1      2263 8.17035E-01
 -1      2264 7.55938E-01
 -1      2265 7.59696E-01
 -1      2266 6.34825E-01
 -1      2267 6.54000E-01
 -1      2268 5.77159E-01
 -1      2269 5.26207E-01
 -1      2270 5.38994E-01
 -1      2271 4.81635E-01
 -1      2272 4.36218E-01
 -1      2273 4.36756E-01
 -1      2274 4.12520E-01
 -1      2275 3.73046E-01
 -1      2276 3.68486E-01
 -1      2277 3.47638E-01
 -1      2278 3.14184E-01
 -1      2279 3.19380E-01
 -1      2280 2.88870E-01
 -1      2281 2.60943E-01
 -1      2282 2.68657E-01
 -1      2283 2.36236E-01
 -1      2284 2.12807E-01
 -1      2285 2.18636E-01
 -1      2286 1.97230E-01
 -1      2287 1.98738E-01
 -1      2288 1.78352E-01
 -1      2289 2.11645E-01
 -1      2290 2.29542E-01
 -1      2291 1.75681E-01
 -1      2292 2.54138E-01
 -1      2293 2.76590E-01
 -1      2294 2.13184E-01
 -1      2295 3.27675E-01
 -1      2296 3.73617E-01
 -1      2297 2.88865E-01
 -1      2298 4.30678E-01
 -1      2299 4.91846E-01
 -1      2300 3.97011E-01
 -1      2301 5.53604E-01
 -1      2302 6.16421E-01
 -1      2303 5.15829E-01
 -1      2304 6.79569E-01
 -1      2305 7.37113E-01
 -1      2306 6.40735E-01
 -1      2307 7.95451E-01
 -1      2308 8.44463E-01
 -1      2309 7.62221E-01
 -1      2310 8.88773E-01
 -1      2311 9.43512E-01
 -1      2312 8.64868E-01
 -1      2313 1.00757E+00
 -1      2314 1.04435E+00
 -1      2315 9.73234E-01
 -1      2316 1.11345E+00
 -1      2317 1.08731E+00
 -1      2318 1.10639E+00
 -1      2319 1.12866E+00
 -1      2320 1.02699E+00
 -1      2321 1.21683E+00
 -1      2322 1.09005E+00
 -1      2323 1.12805E+00
 -1      2324 1.32123E+00
 -1      2325 1.23388E+00
 -1      2326 1.36529E+00
 -1      2327 1.49012E+00
 -1      2328 1.52414E+00
 -1      2329 1.81728E+00
 -1      2330 1.75481E+00
 -1      2331 1.78948E+00
 -1      2332 2.06371E+00
 -1      2333 1.88585E+00
 -1      2334 2.50016E+00
 -1      2335 2.58724E+00
 -1      2336 2.29448E+00
 -1      2337 2.80946E+00
 -1      2338 2.79451E+00
 -1      2339 2.95314E+00
 -1      2340 2.59182E+00
 -1      2341 2.55784E+00
 -1      2342 2.97267E+00
 -1      2343 2.15298E+00
 -1      2344 1.87213E+00
 -1      2345 2.36512E+00
 -1      2346 1.78349E+00
 -1      2347 1.51508E+00
 -1      2348 1.87162E+00
 -1      2349 1.43954E+00
 -1      2350 1.25357E+00
 -1      2351 1.70743E+00
 -1      2352 1.15350E+00
 -1      2353 1.12507E+00
 -1      2354 1.53182E+00
 -1      2355 1.03573E+00
 -1      2356 1.10995E+00
 -1      2357 1.34241E+00
 -1      2358 1.08017E+00
 -1      2359 1.12093E+00
 -1      2360 1.22329E+00
 -1      2361 1.05721E+00
 -1      2362 1.02830E+00
 -1      2363 1.12978E+00
 -1      2364 9.55721E-01
 -1      2365 9.01294E-01
 -1      2366 9.93489E-01
 -1      2367 8.61034E-01
 -1      2368 8.13501E-01
 -1      2369 8.80652E-01
 -1      2370 7.57901E-01
 -1      2371 7.02948E-01
 -1      2372 7.84791E-01
 -1      2373 6.41658E-01
 -1      2374 5.80328E-01
 -1      2375 6.67900E-01
 -1      2376 5.20390E-01
 -1      2377 4.60643E-01
 -1      2378 5.46672E-01
 -1      2379 4.06143E-01
 -1      2380 3.52466E-01
 -1      2381 4.32234E-01
 -1      2382 3.05406E-01
 -1      2383 2.59893E-01
 -1      2384 3.30675E-01
 -1      2385 2.20841E-01
 -1      2386 1.91887E-01
 -1      2387 2.44564E-01
 -1      2388 1.60745E-01
 -1      2389 1.35889E-01
 -1      2390 1.74370E-01
 -1      2391 2.38239E+01
 -1      2392 2.39817E+01
 -1      2393 5.54769E-01
 -1      2394 6.34943E-01
 -1      2395 4.64135E-01
 -1      2396 5.09452E-01
 -1      2397 5.09452E-01
 -1      2398 4.00832E-01
 -1      2399 4.32484E-01
 -1      2400 4.32484E-01
 -1      2401 3.47380E-01
 -1      2402 3.70172E-01
 -1      2403 3.70172E-01
 -1      2404 3.00224E-01
 -1      2405 3.19030E-01
 -1      2406 3.11162E-01
 -1      2407 2.60174E-01
 -1      2408 2.74391E-01
 -1      2409 2.56978E-01
 -1      2410 2.26597E-01
 -1      2411 2.36282E-01
 -1      2412 2.07253E-01
 -1      2413 2.32999E-01
 -1      2414 2.38799E-01
 -1      2415 1.95563E-01
 -1      2416 2.66620E-01
 -1      2417 2.49270E-01
 -1      2418 2.24036E-01
 -1      2419 3.45023E-01
 -1      2420 3.05803E-01
 -1      2421 2.79490E-01
 -1      2422 4.59265E-01
 -1      2423 3.99990E-01
 -1      2424 3.73639E-01
 -1      2425 5.79620E-01
 -1      2426 5.17889E-01
 -1      2427 4.87230E-01
 -1      2428 6.95787E-01
 -1      2429 6.37981E-01
 -1      2430 6.04215E-01
 -1      2431 7.95689E-01
 -1      2432 7.46835E-01
 -1      2433 7.13623E-01
 -1      2434 8.77312E-01
 -1      2435 8.37984E-01
 -1      2436 8.06966E-01
 -1      2437 9.15761E-01
 -1      2438 9.15761E-01
 -1      2439 8.87710E-01
 -1      2440 9.49001E-01
 -1      2441 9.51961E-01
 -1      2442 9.62359E-01
 -1      2443 8.75384E-01
 -1      2444 9.47736E-01
 -1      2445 9.97294E-01
 -1      2446 8.45734E-01
 -1      2447 8.97336E-01
 -1      2448 1.01798E+00
 -1      2449 9.96662E-01
 -1      2450 8.86146E-01
 -1      2451 1.08035E+00
 -1      2452 1.50143E+00
 -1      2453 1.16001E+00
 -1      2454 1.28410E+00
 -1      2455 1.79075E+00
 -1      2456 1.61190E+00
 -1      2457 1.55792E+00
 -1      2458 2.04702E+00
 -1      2459 2.04702E+00
 -1      2460 1.92467E+00
 -1      2461 2.08975E+00
 -1      2462 2.10908E+00
 -1      2463 2.24301E+00
 -1      2464 2.35237E+00
 -1      2465 2.20793E+00
 -1      2466 2.42324E+00
 -1      2467 1.97962E+00
 -1      2468 2.02260E+00
 -1      2469 2.21165E+00
 -1      2470 1.50232E+00
 -1      2471 1.81762E+00
 -1      2472 1.71989E+00
 -1      2473 1.05519E+00
 -1      2474 1.35164E+00
 -1      2475 1.40722E+00
 -1      2476 8.48235E-01
 -1      2477 9.91743E-01
 -1      2478 1.19309E+00
 -1      2479 8.84811E-01
 -1      2480 7.55232E-01
 -1      2481 1.03664E+00
 -1      2482 9.58634E-01
 -1      2483 9.16571E-01
 -1      2484 9.75399E-01
 -1      2485 9.61803E-01
 -1      2486 9.43117E-01
 -1      2487 9.91642E-01
 -1      2488 8.96283E-01
 -1      2489 9.16372E-01
 -1      2490 9.30694E-01
 -1      2491 8.13183E-01
 -1      2492 8.60149E-01
 -1      2493 8.49129E-01
 -1      2494 7.22407E-01
 -1      2495 7.69983E-01
 -1      2496 7.69794E-01
 -1      2497 6.09973E-01
 -1      2498 6.68398E-01
 -1      2499 6.72584E-01
 -1      2500 4.92978E-01
 -1      2501 5.52729E-01
 -1      2502 5.61331E-01
 -1      2503 3.82969E-01
 -1      2504 4.38490E-01
 -1      2505 4.49599E-01
 -1      2506 2.87256E-01
 -1      2507 3.34560E-01
 -1      2508 3.46702E-01
 -1      2509 2.17306E-01
 -1      2510 2.46453E-01
 -1      2511 2.57489E-01
 -1      2512 1.56783E-01
 -1      2513 1.83709E-01
 -1      2514 1.83089E-01
 -1      2515 1.09110E-01
 -1      2516 1.34929E-01
 -1      2517 1.27639E-01
 -1      2518 1.00714E-01
 -1      2519 8.83716E-02
 -1      2520 7.78859E-02
 -1      2521 1.02607E-01
 -1      2522 9.74606E-02
 -1      2523 1.07596E-01
 -1      2524 7.03393E-02
 -1      2525 8.89551E-02
 -1      2526 6.84708E-02
 -1      2527 6.57187E-02
 -1      2528 8.42971E-02
 -1      2529 8.90915E-02
 -1      2530 1.03598E-01
 -1      2531 1.03598E-01
 -1      2532 1.17676E-01
 -1      2533 1.03536E-01
 -1      2534 1.03598E-01
 -1      2535 1.18666E-01
 -1      2536 1.03391E-01
 -1      2537 1.03391E-01
 -1      2538 1.18521E-01
 -1      2539 9.80248E-02
 -1      2540 1.02802E-01
 -1      2541 1.17786E-01
 -1      2542 7.87910E-02
 -1      2543 8.92519E-02
 -1      2544 1.08425E-01
 -1      2545 7.38126E-02
 -1      2546 7.57190E-02
 -1      2547 9.65797E-02
 -1      2548 8.64248E-02
 -1      2549 7.38126E-02
 -1      2550 9.35077E-02
 -1      2551 8.28181E-02
 -1      2552 3.15679E+01
 -1      2553 3.15679E+01
 -1      2554 7.15117E-01
 -1      2555 8.09087E-01
 -1      2556 6.34943E-01
 -1      2557 1.48653E+01
 -1      2558 2.11619E+01
 -1      2559 9.29412E+00
 -1      2560 1.27749E+01
 -1      2561 1.67299E+00
 -1      2562 1.31087E+00
 -1      2563 8.39469E-01
 -1      2564 9.69006E-01
 -1      2565 2.65374E+01
 -1      2566 2.65031E+01
 -1      2567 7.59368E+00
 -1      2568 6.23120E+00
 -1      2569 2.30438E+01
 -1      2570 2.22214E+01
 -1      2571 5.19293E-01
 -1      2572 5.41181E-01
 -1      2573 4.68391E-01
 -1      2574 4.41214E-01
 -1      2575 9.35413E+00
 -1      2576 8.82684E+00
 -1      2577 1.47543E+01
 -1      2578 1.04385E+01
 -1      2579 6.67519E+00
 -1      2580 6.02328E+00
 -1      2581 5.66112E+00
 -1      2582 6.67968E+00
 -1      2583 4.98352E+00
 -1      2584 5.95745E+00
 -1      2585 6.87581E+00
 -1      2586 9.23644E+00
 -1      2587 7.37057E+00
 -1      2588 2.44037E+01
 -1      2589 1.72190E+01
 -1      2590 2.99268E+01
 -1      2591 2.83299E+01
 -1      2592 3.73118E+01
 -1      2593 3.73118E+01
 -1      2594 2.50453E+01
 -1      2595 3.11786E+01
 -1      2596 1.39499E+01
 -1      2597 1.96710E+01
 -1      2598 2.29286E+01
 -1      2599 1.62451E+01
 -1      2600 8.51280E+00
 -1      2601 1.16768E+01
 -1      2602 8.83587E+00
 -1      2603 8.66397E+00
 -1      2604 9.23573E+00
 -1      2605 9.19689E+00
 -1      2606 7.76005E+00
 -1      2607 8.26361E+00
 -1      2608 5.30705E+00
 -1      2609 6.79597E+00
 -1      2610 8.20749E+00
 -1      2611 6.04963E+00
 -1      2612 1.40874E+01
 -1      2613 1.03015E+01
 -1      2614 2.92641E+01
 -1      2615 3.04160E+01
 -1      2616 1.62175E+00
 -1      2617 1.76536E+00
 -1      2618 1.32283E+00
 -1      2619 1.19365E+00
 -1      2620 6.10679E+00
 -1      2621 7.14066E+00
 -1      2622 7.04104E+00
 -1      2623 8.33912E+00
 -1      2624 5.07036E-01
 -1      2625 6.45667E-01
 -1      2626 7.07499E-01
 -1      2627 8.09087E-01
 -1      2628 1.23867E+00
 -1      2629 4.80406E+00
 -1      2630 5.33341E+00
 -1      2631 7.26961E+00
 -1      2632 7.88070E+00
 -1      2633 2.65374E+01
 -1      2634 6.47893E+00
 -1      2635 9.04309E+00
 -1      2636 7.23882E+00
 -1      2637 6.46858E+00
 -1      2638 1.79324E+01
 -1      2639 1.60373E+01
 -1      2640 9.73888E-02
 -1      2641 9.73888E-02
 -1      2642 1.03787E+01
 -1      2643 8.62944E-02
 -1      2644 8.28181E-02
 -1      2645 8.99011E-02
 -1      2646 1.07422E-01
 -1      2647 2.22214E+01
 -1      2648 3.11786E+01
 -1      2649 3.04160E+01
 -1      2650 9.61810E-01
 -1      2651 1.12849E+01
 -1      2652 2.99268E+01
 -1      2653 6.84671E-01
 -1      2654 7.60496E-01
 -1      2655 6.69890E-01
 -1      2656 4.84208E-01
 -1      2657 2.39817E+01
 -1      2658 1.22002E+01
 -1      2659 7.94850E+00
 -1      2660 5.11192E+00
 -1      2661 6.44939E+00
 -1      2662 5.10534E+00
 -1      2663 1.86155E+01
 -1      2664 8.55787E+00
 -1      2665 5.64641E+00
 -1      2666 6.92447E+00
 -1      2667 1.60246E+01
 -1      2668 1.22246E+01
 -1      2669 9.73514E-02
 -1      2670 1.14761E-01
 -1      2671 4.19899E-01
 -1      2672 4.05238E-01
 -1      2673 3.97368E-01
 -1      2674 3.84562E-01
 -1      2675 3.48573E-01
 -1      2676 4.33696E-01
 -1      2677 4.33696E-01
 -1      2678 4.66056E-01
 -1      2679 4.21825E-01
 -1      2680 3.48238E-01
 -1      2681 7.21845E-01
 -1      2682 8.00025E-01
 -1      2683 8.94890E+00
 -1      2684 1.10393E+01
 -1      2685 5.55469E-01
 -1      2686 4.98129E-01
 -1      2687 4.90509E-01
 -1      2688 4.32843E-01
 -1      2689 3.91978E-01
 -1      2690 4.09639E-01
 -1      2691 3.65068E-01
 -1      2692 3.61154E-01
 -1      2693 3.36096E-01
 -1      2694 3.12397E-01
 -1      2695 3.08979E-01
 -1      2696 2.90380E-01
 -1      2697 2.64971E-01
 -1      2698 2.57989E-01
 -1      2699 2.46072E-01
 -1      2700 2.20758E-01
 -1      2701 2.17072E-01
 -1      2702 1.98888E-01
 -1      2703 1.74182E-01
 -1      2704 1.76304E-01
 -1      2705 1.49932E-01
 -1      2706 1.34355E-01
 -1      2707 1.30185E-01
 -1      2708 1.36046E-01
 -1      2709 1.48954E-01
 -1      2710 1.07627E-01
 -1      2711 1.79843E-01
 -1      2712 2.04438E-01
 -1      2713 1.40208E-01
 -1      2714 2.48802E-01
 -1      2715 2.99887E-01
 -1      2716 2.15460E-01
 -1      2717 3.51129E-01
 -1      2718 4.08189E-01
 -1      2719 3.11065E-01
 -1      2720 4.67126E-01
 -1      2721 5.28883E-01
 -1      2722 4.21244E-01
 -1      2723 5.95896E-01
 -1      2724 6.59044E-01
 -1      2725 5.47192E-01
 -1      2726 7.33603E-01
 -1      2727 7.91940E-01
 -1      2728 6.88763E-01
 -1      2729 8.71628E-01
 -1      2730 9.15938E-01
 -1      2731 8.43010E-01
 -1      2732 9.94809E-01
 -1      2733 1.05887E+00
 -1      2734 1.00157E+00
 -1      2735 1.15708E+00
 -1      2736 1.22618E+00
 -1      2737 1.17866E+00
 -1      2738 1.38411E+00
 -1      2739 1.42545E+00
 -1      2740 1.43480E+00
 -1      2741 1.59490E+00
 -1      2742 1.65795E+00
 -1      2743 1.76218E+00
 -1      2744 1.78736E+00
 -1      2745 1.89320E+00
 -1      2746 2.06103E+00
 -1      2747 1.75481E+00
 -1      2748 1.91366E+00
 -1      2749 2.05205E+00
 -1      2750 1.95431E+00
 -1      2751 1.92650E+00
 -1      2752 1.95431E+00
 -1      2753 2.29448E+00
 -1      2754 2.73092E+00
 -1      2755 2.36294E+00
 -1      2756 5.12530E+00
 -1      2757 5.34752E+00
 -1      2758 5.12530E+00
 -1      2759 4.31983E+00
 -1      2760 4.11714E+00
 -1      2761 6.49199E+00
 -1      2762 2.99728E+00
 -1      2763 2.59242E+00
 -1      2764 4.34444E+00
 -1      2765 2.09337E+00
 -1      2766 2.00473E+00
 -1      2767 2.72553E+00
 -1      2768 2.19293E+00
 -1      2769 2.11738E+00
 -1      2770 2.41467E+00
 -1      2771 1.90682E+00
 -1      2772 1.80675E+00
 -1      2773 2.39231E+00
 -1      2774 1.60637E+00
 -1      2775 1.51703E+00
 -1      2776 1.98137E+00
 -1      2777 1.37792E+00
 -1      2778 1.34814E+00
 -1      2779 1.64188E+00
 -1      2780 1.20414E+00
 -1      2781 1.14042E+00
 -1      2782 1.35877E+00
 -1      2783 1.06607E+00
 -1      2784 9.93489E-01
 -1      2785 1.14042E+00
 -1      2786 9.20912E-01
 -1      2787 8.80652E-01
 -1      2788 9.93489E-01
 -1      2789 8.08933E-01
 -1      2790 7.53333E-01
 -1      2791 8.49193E-01
 -1      2792 6.81110E-01
 -1      2793 6.19819E-01
 -1      2794 7.05252E-01
 -1      2795 5.53112E-01
 -1      2796 4.93174E-01
 -1      2797 5.66322E-01
 -1      2798 4.34710E-01
 -1      2799 3.80210E-01
 -1      2800 4.41150E-01
 -1      2801 3.31260E-01
 -1      2802 2.84201E-01
 -1      2803 3.33736E-01
 -1      2804 2.47026E-01
 -1      2805 2.07974E-01
 -1      2806 2.47611E-01
 -1      2807 1.76319E-01
 -1      2808 1.45177E-01
 -1      2809 1.78781E-01
 -1      2810 1.72104E+01
 -1      2811 2.00344E+01
 -1      2812 7.57152E+00
 -1      2813 9.84464E+00
 -1      2814 4.29755E-01
 -1      2815 4.75072E-01
 -1      2816 2.60965E-01
 -1      2817 2.89315E-01
 -1      2818 2.12150E-01
 -1      2819 2.37983E-01
 -1      2820 2.16136E-01
 -1      2821 1.64101E-01
 -1      2822 1.87993E-01
 -1      2823 1.68997E-01
 -1      2824 1.71146E-01
 -1      2825 1.58944E-01
 -1      2826 1.39683E-01
 -1      2827 2.01355E-01
 -1      2828 1.85084E-01
 -1      2829 1.48464E-01
 -1      2830 2.84824E-01
 -1      2831 2.45641E-01
 -1      2832 2.06689E-01
 -1      2833 3.90015E-01
 -1      2834 3.35049E-01
 -1      2835 3.01200E-01
 -1      2836 5.04874E-01
 -1      2837 4.46249E-01
 -1      2838 4.07658E-01
 -1      2839 6.24559E-01
 -1      2840 5.66199E-01
 -1      2841 5.25218E-01
 -1      2842 7.39481E-01
 -1      2843 6.88433E-01
 -1      2844 6.50417E-01
 -1      2845 8.43190E-01
 -1      2846 8.00896E-01
 -1      2847 7.75705E-01
 -1      2848 9.32016E-01
 -1      2849 8.93566E-01
 -1      2850 8.87496E-01
 -1      2851 1.05740E+00
 -1      2852 1.02120E+00
 -1      2853 1.02705E+00
 -1      2854 1.15253E+00
 -1      2855 1.15379E+00
 -1      2856 1.21263E+00
 -1      2857 1.25210E+00
 -1      2858 1.23015E+00
 -1      2859 1.38665E+00
 -1      2860 1.38820E+00
 -1      2861 1.34779E+00
 -1      2862 1.55996E+00
 -1      2863 1.89907E+00
 -1      2864 1.73573E+00
 -1      2865 2.00317E+00
 -1      2866 1.95320E+00
 -1      2867 1.84272E+00
 -1      2868 2.29435E+00
 -1      2869 2.18095E+00
 -1      2870 1.92467E+00
 -1      2871 2.20948E+00
 -1      2872 2.82943E+00
 -1      2873 2.76738E+00
 -1      2874 2.76738E+00
 -1      2875 3.48600E+00
 -1      2876 3.36783E+00
 -1      2877 3.89220E+00
 -1      2878 2.58555E+00
 -1      2879 2.91532E+00
 -1      2880 3.85990E+00
 -1      2881 1.67386E+00
 -1      2882 1.83585E+00
 -1      2883 2.53952E+00
 -1      2884 1.54305E+00
 -1      2885 1.69373E+00
 -1      2886 1.80969E+00
 -1      2887 1.51459E+00
 -1      2888 1.57804E+00
 -1      2889 1.86455E+00
 -1      2890 1.21282E+00
 -1      2891 1.30582E+00
 -1      2892 1.69077E+00
 -1      2893 1.15398E+00
 -1      2894 1.12222E+00
 -1      2895 1.39140E+00
 -1      2896 1.06080E+00
 -1      2897 1.07632E+00
 -1      2898 1.22314E+00
 -1      2899 9.30694E-01
 -1      2900 9.76125E-01
 -1      2901 1.06080E+00
 -1      2902 8.49129E-01
 -1      2903 8.85263E-01
 -1      2904 9.30694E-01
 -1      2905 7.50500E-01
 -1      2906 7.93701E-01
 -1      2907 8.29835E-01
 -1      2908 6.33154E-01
 -1      2909 6.87163E-01
 -1      2910 7.11070E-01
 -1      2911 5.12596E-01
 -1      2912 5.69840E-01
 -1      2913 5.84419E-01
 -1      2914 4.00619E-01
 -1      2915 4.55107E-01
 -1      2916 4.63617E-01
 -1      2917 3.04365E-01
 -1      2918 3.52775E-01
 -1      2919 3.58283E-01
 -1      2920 2.24573E-01
 -1      2921 2.65376E-01
 -1      2922 2.71449E-01
 -1      2923 1.58221E-01
 -1      2924 1.91818E-01
 -1      2925 1.99705E-01
 -1      2926 1.16847E-01
 -1      2927 1.38700E-01
 -1      2928 1.47429E-01
 -1      2929 1.08413E-01
 -1      2930 1.38356E-01
 -1      2931 1.38356E-01
 -1      2932 1.18368E-01
 -1      2933 8.99011E-02
 -1      2934 1.20317E-01
 -1      2935 1.32986E-01
 -1      2936 1.23897E-01
 -1      2937 1.38006E-01
 -1      2938 1.38151E-01
 -1      2939 1.57841E-01
 -1      2940 1.38356E-01
 -1      2941 1.37365E-01
 -1      2942 1.53666E-01
 -1      2943 1.58046E-01
 -1      2944 6.94171E+00
 -1      2945 7.73098E+00
 -1      2946 1.37417E-01
 -1      2947 1.38006E-01
 -1      2948 1.57636E-01
 -1      2949 1.25122E-01
 -1      2950 1.33894E-01
 -1      2951 1.54114E-01
 -1      2952 1.05060E-01
 -1      2953 1.08132E-01
 -1      2954 1.33602E-01
 -1      2955 5.11110E-01
 -1      2956 5.91284E-01
 -1      2957 4.31413E-01
 -1      2958 2.66596E+01
 -1      2959 1.92745E+01
 -1      2960 6.10655E-01
 -1      2961 5.71723E-01
 -1      2962 4.02145E-01
 -1      2963 8.27581E-01
 -1      2964 1.99303E+01
 -1      2965 2.60636E+01
 -1      2966 1.49194E+01
 -1      2967 3.10507E-01
 -1      2968 3.41167E-01
 -1      2969 2.60310E-01
 -1      2970 3.60298E-01
 -1      2971 3.91950E-01
 -1      2972 3.00633E-01
 -1      2973 5.94538E-01
 -1      2974 5.49940E-01
 -1      2975 3.94069E-01
 -1      2976 3.65725E-01
 -1      2977 1.69124E+01
 -1      2978 2.21948E+01
 -1      2979 1.25499E+01
 -1      2980 1.59226E+01
 -1      2981 1.24109E+01
 -1      2982 1.50729E+01
 -1      2983 6.18279E-01
 -1      2984 7.12249E-01
 -1      2985 5.31037E-01
 -1      2986 4.94446E-01
 -1      2987 1.62294E+01
 -1      2988 1.26549E+01
 -1      2989 4.33696E-01
 -1      2990 4.21732E-01
 -1      2991 3.58276E-01
 -1      2992 3.60109E-01
 -1      2993 4.90147E+00
 -1      2994 3.19202E+00
 -1      2995 3.79696E+00
 -1      2996 4.76103E+00
 -1      2997 3.72026E+00
 -1      2998 4.76682E+00
 -1      2999 2.97532E+00
 -1      3000 1.70827E+01
 -1      3001 1.31565E+01
 -1      3002 4.20983E-01
 -1      3003 4.33114E-01
 -1      3004 6.92447E+00
 -1      3005 4.72055E+00
 -1      3006 5.52706E+00
 -1      3007 8.44965E+00
 -1      3008 7.24763E+00
 -1      3009 2.19875E+01
 -1      3010 2.31394E+01
 -1      3011 1.49182E+01
 -1      3012 1.16342E+01
 -1      3013 9.16947E+00
 -1      3014 8.25918E+00
 -1      3015 6.16518E+00
 -1      3016 4.75864E+00
 -1      3017 6.39563E+00
 -1      3018 9.35077E-02
 -1      3019 3.95613E+00
 -1      3020 3.68238E+00
 -1      3021 2.37281E+01
 -1      3022 1.86976E+01
 -1      3023 7.88070E+00
 -1      3024 7.51968E+00
 -1      3025 5.88089E+00
 -1      3026 6.85301E+00
 -1      3027 4.34444E+00
 -1      3028 4.67857E+00
 -1      3029 3.93599E+00
 -1      3030 1.12449E+01
 -1      3031 9.08726E+00
 -1      3032 5.32189E+00
 -1      3033 7.47535E+00
 -1      3034 3.72273E+00
 -1      3035 3.80624E+00
 -1      3036 4.33114E-01
 -1      3037 4.33114E-01
 -1      3038 3.59191E-01
 -1      3039 3.40421E-01
 -1      3040 3.84281E-01
 -1      3041 3.97073E-01
 -1      3042 1.34202E+01
 -1      3043 1.00750E+01
 -1      3044 5.11426E+00
 -1      3045 5.56311E+00
 -1      3046 3.85100E+00
 -1      3047 1.01014E+01
 -1      3048 1.32729E-01
 -1      3049 1.07339E-01
 -1      3050 9.79240E-02
 -1      3051 1.37357E+01
 -1      3052 6.65333E+00
 -1      3053 9.46049E+00
 -1      3054 9.35855E+00
 -1      3055 1.38156E+01
 -1      3056 3.57570E-01
 -1      3057 3.72273E+00
 -1      3058 3.60943E+00
 -1      3059 6.63068E+00
 -1      3060 8.73028E-02
 -1      3061 9.19234E-02
 -1      3062 1.11419E-01
 -1      3063 1.05550E-01
 -1      3064 4.24055E+00
 -1      3065 6.02231E+00
 -1      3066 3.56792E+00
 -1      3067 5.91408E+00
 -1      3068 9.54201E+00
 -1      3069 9.35077E-02
 -1      3070 1.01381E-01
 -1      3071 1.01381E-01
 -1      3072 1.12933E-01
 -1      3073 1.28190E-01
 -1      3074 1.54113E+01
 -1      3075 1.52996E+01
 -1      3076 7.30394E+00
 -1      3077 7.85923E+00
 -1      3078 5.86158E+00
 -1      3079 1.32860E+01
 -1      3080 7.22975E+00
 -1      3081 4.04673E-01
 -1      3082 4.19058E-01
 -1      3083 3.57265E-01
 -1      3084 3.47740E-01
 -1      3085 5.68189E-01
 -1      3086 4.38500E-01
 -1      3087 3.36361E+00
 -1      3088 4.98925E+00
 -1      3089 5.06573E+00
 -1      3090 3.64277E+00
 -1      3091 6.13603E+00
 -1      3092 2.87897E-01
 -1      3093 2.99768E-01
 -1      3094 3.17059E-01
 -1      3095 2.93856E-01
 -1      3096 2.86565E-01
 -1      3097 2.57593E-01
 -1      3098 2.42471E-01
 -1      3099 2.41513E-01
 -1      3100 2.19495E-01
 -1      3101 2.19100E-01
 -1      3102 1.99368E-01
 -1      3103 1.80470E-01
 -1      3104 1.82892E-01
 -1      3105 1.64514E-01
 -1      3106 1.42645E-01
 -1      3107 1.46810E-01
 -1      3108 1.21842E-01
 -1      3109 9.75927E-02
 -1      3110 1.10053E-01
 -1      3111 9.83634E-02
 -1      3112 1.00055E-01
 -1      3113 9.00212E-02
 -1      3114 1.19738E-01
 -1      3115 1.50627E-01
 -1      3116 1.10475E-01
 -1      3117 1.88007E-01
 -1      3118 2.32370E-01
 -1      3119 1.67537E-01
 -1      3120 2.79250E-01
 -1      3121 3.30492E-01
 -1      3122 2.51797E-01
 -1      3123 3.84141E-01
 -1      3124 4.43078E-01
 -1      3125 3.52326E-01
 -1      3126 5.02793E-01
 -1      3127 5.69806E-01
 -1      3128 4.65691E-01
 -1      3129 6.39950E-01
 -1      3130 7.14509E-01
 -1      3131 5.95551E-01
 -1      3132 8.08246E-01
 -1      3133 8.87934E-01
 -1      3134 7.59433E-01
 -1      3135 1.01043E+00
 -1      3136 1.08930E+00
 -1      3137 9.75661E-01
 -1      3138 1.24851E+00
 -1      3139 1.34673E+00
 -1      3140 1.25737E+00
 -1      3141 1.52206E+00
 -1      3142 1.67999E+00
 -1      3143 1.59192E+00
 -1      3144 1.89724E+00
 -1      3145 2.06669E+00
 -1      3146 1.98450E+00
 -1      3147 2.53610E+00
 -1      3148 2.66551E+00
 -1      3149 2.67117E+00
 -1      3150 3.28892E+00
 -1      3151 3.15053E+00
 -1      3152 3.76399E+00
 -1      3153 2.00571E+00
 -1      3154 2.37369E+00
 -1      3155 3.74165E+00
 -1      3156 6.13603E+00
 -1      3157 5.46430E+00
 -1      3158 4.34444E+00
 -1      3159 3.22458E+00
 -1      3160 2.72553E+00
 -1      3161 2.41467E+00
 -1      3162 2.60287E+00
 -1      3163 3.29888E+00
 -1      3164 3.08832E+00
 -1      3165 3.29888E+00
 -1      3166 2.63795E+00
 -1      3167 2.43757E+00
 -1      3168 3.54452E+00
 -1      3169 2.18041E+00
 -1      3170 2.04131E+00
 -1      3171 2.83700E+00
 -1      3172 1.80580E+00
 -1      3173 1.66180E+00
 -1      3174 2.34433E+00
 -1      3175 1.40800E+00
 -1      3176 1.33365E+00
 -1      3177 1.85503E+00
 -1      3178 1.12651E+00
 -1      3179 1.05393E+00
 -1      3180 1.39409E+00
 -1      3181 9.04163E-01
 -1      3182 8.32444E-01
 -1      3183 1.03718E+00
 -1      3184 7.23117E-01
 -1      3185 6.50894E-01
 -1      3186 7.78087E-01
 -1      3187 5.70201E-01
 -1      3188 5.03494E-01
 -1      3189 5.88066E-01
 -1      3190 4.50607E-01
 -1      3191 3.92143E-01
 -1      3192 4.54486E-01
 -1      3193 3.44883E-01
 -1      3194 2.95933E-01
 -1      3195 3.54339E-01
 -1      3196 2.55703E-01
 -1      3197 2.18529E-01
 -1      3198 2.66850E-01
 -1      3199 2.10116E-01
 -1      3200 1.78460E-01
 -1      3201 1.59525E-01
 -1      3202 2.18208E-01
 -1      3203 1.71670E-01
 -1      3204 1.94652E-01
 -1      3205 1.32071E-01
 -1      3206 1.18132E-01
 -1      3207 2.13102E-01
 -1      3208 1.68815E-01
 -1      3209 1.38483E-01
 -1      3210 3.06267E-01
 -1      3211 2.56043E-01
 -1      3212 2.18169E-01
 -1      3213 4.13072E-01
 -1      3214 3.56838E-01
 -1      3215 3.11681E-01
 -1      3216 5.36373E-01
 -1      3217 4.75048E-01
 -1      3218 4.24227E-01
 -1      3219 6.72147E-01
 -1      3220 6.08274E-01
 -1      3221 5.58104E-01
 -1      3222 8.14791E-01
 -1      3223 7.53376E-01
 -1      3224 7.11233E-01
 -1      3225 9.59938E-01
 -1      3226 9.09562E-01
 -1      3227 8.87233E-01
 -1      3228 1.15398E+00
 -1      3229 1.06480E+00
 -1      3230 1.08686E+00
 -1      3231 1.36633E+00
 -1      3232 1.26994E+00
 -1      3233 1.30768E+00
 -1      3234 1.64731E+00
 -1      3235 1.56969E+00
 -1      3236 1.62699E+00
 -1      3237 1.99223E+00
 -1      3238 1.89654E+00
 -1      3239 2.07958E+00
 -1      3240 2.72341E+00
 -1      3241 2.37589E+00
 -1      3242 2.71246E+00
 -1      3243 3.46338E+00
 -1      3244 3.51973E+00
 -1      3245 3.77612E+00
 -1      3246 3.18970E+00
 -1      3247 4.43059E+00
 -1      3248 3.89220E+00
 -1      3249 4.81140E+00
 -1      3250 5.38208E+00
 -1      3251 2.53952E+00
 -1      3252 3.28922E+00
 -1      3253 2.27724E+00
 -1      3254 2.25736E+00
 -1      3255 2.53348E+00
 -1      3256 2.49850E+00
 -1      3257 2.94616E+00
 -1      3258 2.22703E+00
 -1      3259 2.43580E+00
 -1      3260 3.06974E+00
 -1      3261 1.75212E+00
 -1      3262 1.84272E+00
 -1      3263 2.58775E+00
 -1      3264 1.50224E+00
 -1      3265 1.57990E+00
 -1      3266 2.03121E+00
 -1      3267 1.21194E+00
 -1      3268 1.29662E+00
 -1      3269 1.65338E+00
 -1      3270 1.02939E+00
 -1      3271 1.07482E+00
 -1      3272 1.31064E+00
 -1      3273 8.82206E-01
 -1      3274 9.37634E-01
 -1      3275 1.08176E+00
 -1      3276 7.31286E-01
 -1      3277 7.94623E-01
 -1      3278 9.02422E-01
 -1      3279 5.87683E-01
 -1      3280 6.50997E-01
 -1      3281 7.34550E-01
 -1      3282 4.59474E-01
 -1      3283 5.16963E-01
 -1      3284 5.83541E-01
 -1      3285 3.52614E-01
 -1      3286 4.00459E-01
 -1      3287 4.53806E-01
 -1      3288 2.64620E-01
 -1      3289 3.03609E-01
 -1      3290 3.45785E-01
 -1      3291 1.91329E-01
 -1      3292 2.24085E-01
 -1      3293 2.56245E-01
 -1      3294 1.31218E-01
 -1      3295 1.50738E-01
 -1      3296 1.75118E-01
 -1      3297 1.14728E-01
 -1      3298 1.18612E+01
 -1      3299 1.24572E+01
 -1      3300 3.21237E-01
 -1      3301 3.13366E-01
 -1      3302 1.77276E-01
 -1      3303 1.77481E-01
 -1      3304 1.46691E-01
 -1      3305 1.63680E-01
 -1      3306 1.78978E-01
 -1      3307 1.78978E-01
 -1      3308 1.98618E-01
 -1      3309 3.48698E-01
 -1      3310 3.84736E-01
 -1      3311 6.85301E+00
 -1      3312 1.21692E+01
 -1      3313 1.19619E+01
 -1      3314 4.04630E-01
 -1      3315 3.81802E-01
 -1      3316 3.22567E-01
 -1      3317 3.30708E-01
 -1      3318 1.19653E+01
 -1      3319 1.18612E+01
 -1      3320 2.39089E+00
 -1      3321 2.91913E+00
 -1      3322 1.75456E-01
 -1      3323 1.78978E-01
 -1      3324 2.00321E-01
 -1      3325 1.88545E-01
 -1      3326 1.01786E-01
 -1      3327 1.06943E-01
 -1      3328 8.53922E-02
 -1      3329 1.26211E-01
 -1      3330 1.50368E-01
 -1      3331 1.28884E-01
 -1      3332 8.83135E-02
 -1      3333 4.00488E+00
 -1      3334 3.00706E+00
 -1      3335 3.17477E-01
 -1      3336 3.09856E-01
 -1      3337 2.42558E-01
 -1      3338 2.13175E-01
 -1      3339 2.34367E-01
 -1      3340 1.68709E-01
 -1      3341 1.25816E+01
 -1      3342 1.01134E+01
 -1      3343 4.53937E+00
 -1      3344 3.05276E+00
 -1      3345 1.06663E+01
 -1      3346 1.19541E+01
 -1      3347 2.57818E-01
 -1      3348 2.76949E-01
 -1      3349 2.10683E-01
 -1      3350 1.24553E+01
 -1      3351 1.02635E+01
 -1      3352 5.76095E+00
 -1      3353 7.23450E+00
 -1      3354 9.12958E+00
 -1      3355 7.60723E+00
 -1      3356 7.76935E+00
 -1      3357 2.98072E-01
 -1      3358 3.35878E-01
 -1      3359 2.55257E-01
 -1      3360 4.10161E-01
 -1      3361 3.08028E-01
 -1      3362 2.59558E-01
 -1      3363 4.00565E-01
 -1      3364 5.33613E+00
 -1      3365 6.51202E+00
 -1      3366 8.99386E+00
 -1      3367 7.58387E+00
 -1      3368 6.84393E+00
 -1      3369 6.01585E+00
 -1      3370 2.72491E+00
 -1      3371 4.24055E+00
 -1      3372 1.04861E+01
 -1      3373 1.23255E+01
 -1      3374 8.19805E+00
 -1      3375 9.56971E+00
 -1      3376 3.38441E+00
 -1      3377 2.27481E+00
 -1      3378 7.36918E+00
 -1      3379 6.64936E+00
 -1      3380 1.19619E+01
 -1      3381 1.25506E+01
 -1      3382 3.09559E-01
 -1      3383 3.09277E-01
 -1      3384 2.82223E-01
 -1      3385 2.89200E-01
 -1      3386 3.26658E+00
 -1      3387 3.35754E-01
 -1      3388 3.41283E-01
 -1      3389 2.59162E-01
 -1      3390 1.65194E-01
 -1      3391 1.48636E-01
 -1      3392 7.89201E+00
 -1      3393 1.14421E+01
 -1      3394 7.89010E+00
 -1      3395 8.60921E+00
 -1      3396 5.18699E+00
 -1      3397 3.95011E+00
 -1      3398 3.99077E+00
 -1      3399 9.21297E+00
 -1      3400 2.86455E+00
 -1      3401 8.15529E+00
 -1      3402 6.12788E+00
 -1      3403 3.21079E-01
 -1      3404 3.21079E-01
 -1      3405 3.00706E+00
 -1      3406 6.29578E+00
 -1      3407 3.89244E+00
 -1      3408 2.25783E+00
 -1      3409 2.28636E+00
 -1      3410 5.38208E+00
 -1      3411 8.90712E+00
 -1      3412 3.21237E-01
 -1      3413 2.86030E-01
 -1      3414 3.23070E-01
 -1      3415 1.79144E-01
 -1      3416 1.74764E-01
 -1      3417 1.90672E-01
 -1      3418 4.46181E+00
 -1      3419 4.46656E+00
 -1      3420 1.79144E-01
 -1      3421 1.79144E-01
 -1      3422 2.00242E-01
 -1      3423 1.98579E-01
 -1      3424 5.42404E+00
 -1      3425 9.39887E+00
 -1      3426 7.61729E+00
 -1      3427 6.30951E+00
 -1      3428 4.81140E+00
 -1      3429 9.36929E+00
 -1      3430 5.67919E+00
 -1      3431 3.45382E-01
 -1      3432 3.51173E+00
 -1      3433 4.31452E+00
 -1      3434 3.69839E-01
 -1      3435 3.96834E-01
 -1      3436 2.75958E-01
 -1      3437 2.87124E-01
 -1      3438 8.89594E+00
 -1      3439 5.23537E+00
 -1      3440 1.11752E+01
 -1      3441 7.86850E+00
 -1      3442 7.83756E+00
 -1      3443 4.77537E+00
 -1      3444 6.72925E+00
 -1      3445 6.39736E+00
 -1      3446 3.18833E-01
 -1      3447 3.18833E-01
 -1      3448 2.81793E-01
 -1      3449 2.58492E-01
 -1      3450 2.49234E+00
 -1      3451 3.56861E+00
 -1      3452 1.59525E-01
 -1      3453 1.63204E-01
 -1      3454 1.93282E-01
 -1      3455 2.09795E-01
 -1      3456 3.20817E-01
 -1      3457 3.22743E-01
 -1      3458 2.84631E-01
 -1      3459 2.23399E+00
 -1      3460 4.36888E+00
 -1      3461 5.32830E+00
 -1      3462 1.99927E-01
 -1      3463 1.83846E-01
 -1      3464 1.74744E-01
 -1      3465 1.54618E-01
 -1      3466 1.55572E-01
 -1      3467 1.41904E-01
 -1      3468 1.25949E-01
 -1      3469 1.33756E-01
 -1      3470 1.20344E-01
 -1      3471 9.95417E-02
 -1      3472 1.15438E-01
 -1      3473 1.05470E-01
 -1      3474 1.06240E-01
 -1      3475 1.15761E-01
 -1      3476 1.13186E-01
 -1      3477 1.32870E-01
 -1      3478 1.28635E-01
 -1      3479 1.63678E-01
 -1      3480 2.01057E-01
 -1      3481 1.66389E-01
 -1      3482 2.45180E-01
 -1      3483 2.92060E-01
 -1      3484 2.41321E-01
 -1      3485 3.44838E-01
 -1      3486 3.98487E-01
 -1      3487 3.38222E-01
 -1      3488 4.61406E-01
 -1      3489 5.21121E-01
 -1      3490 4.53918E-01
 -1      3491 5.95551E-01
 -1      3492 6.65695E-01
 -1      3493 5.91266E-01
 -1      3494 7.52298E-01
 -1      3495 8.46035E-01
 -1      3496 7.52298E-01
 -1      3497 9.49323E-01
 -1      3498 1.07181E+00
 -1      3499 9.42188E-01
 -1      3500 1.24261E+00
 -1      3501 1.40182E+00
 -1      3502 1.21627E+00
 -1      3503 1.67654E+00
 -1      3504 1.85187E+00
 -1      3505 1.66178E+00
 -1      3506 2.32217E+00
 -1      3507 2.53942E+00
 -1      3508 2.40679E+00
 -1      3509 3.39571E+00
 -1      3510 3.86511E+00
 -1      3511 3.73337E+00
 -1      3512 4.70488E+00
 -1      3513 2.22324E+00
 -1      3514 8.28147E+00
 -1      3515 8.28147E+00
 -1      3516 4.06145E+00
 -1      3517 5.45827E+00
 -1      3518 6.42182E+00
 -1      3519 3.67713E+00
 -1      3520 4.22055E+00
 -1      3521 3.77019E+00
 -1      3522 5.00103E+00
 -1      3523 3.25381E+00
 -1      3524 2.99665E+00
 -1      3525 3.92984E+00
 -1      3526 2.41801E+00
 -1      3527 2.18251E+00
 -1      3528 2.83482E+00
 -1      3529 1.92869E+00
 -1      3530 1.67489E+00
 -1      3531 2.00237E+00
 -1      3532 1.43276E+00
 -1      3533 1.22561E+00
 -1      3534 1.50641E+00
 -1      3535 1.07835E+00
 -1      3536 9.28581E-01
 -1      3537 1.11701E+00
 -1      3538 8.29660E-01
 -1      3539 7.20333E-01
 -1      3540 8.70827E-01
 -1      3541 6.38753E-01
 -1      3542 5.58059E-01
 -1      3543 6.90326E-01
 -1      3544 4.89784E-01
 -1      3545 4.36898E-01
 -1      3546 5.40471E-01
 -1      3547 3.81186E-01
 -1      3548 3.33926E-01
 -1      3549 4.16484E-01
 -1      3550 2.87562E-01
 -1      3551 2.47333E-01
 -1      3552 3.14409E-01
 -1      3553 2.55018E-01
 -1      3554 2.12077E-01
 -1      3555 7.89010E+00
 -1      3556 6.75616E+00
 -1      3557 1.70260E-01
 -1      3558 1.33516E-01
 -1      3559 2.07109E-01
 -1      3560 4.72920E-01
 -1      3561 4.10944E-01
 -1      3562 6.08542E-01
 -1      3563 5.36641E-01
 -1      3564 5.23359E-01
 -1      3565 7.59841E-01
 -1      3566 6.78612E-01
 -1      3567 6.57150E-01
 -1      3568 9.54642E-01
 -1      3569 8.59870E-01
 -1      3570 8.27250E-01
 -1      3571 1.19827E+00
 -1      3572 1.09341E+00
 -1      3573 1.06605E+00
 -1      3574 1.51860E+00
 -1      3575 1.40265E+00
 -1      3576 1.40920E+00
 -1      3577 1.98895E+00
 -1      3578 1.78559E+00
 -1      3579 1.88056E+00
 -1      3580 2.57787E+00
 -1      3581 2.32864E+00
 -1      3582 2.48724E+00
 -1      3583 3.50027E+00
 -1      3584 3.11661E+00
 -1      3585 3.36568E+00
 -1      3586 2.92596E-01
 -1      3587 4.21905E+00
 -1      3588 8.43779E+00
 -1      3589 8.28147E+00
 -1      3590 2.56821E+00
 -1      3591 2.74043E+00
 -1      3592 4.21413E+00
 -1      3593 1.74447E+00
 -1      3594 1.95009E+00
 -1      3595 2.65930E+00
 -1      3596 1.35492E+00
 -1      3597 1.49204E+00
 -1      3598 1.78875E+00
 -1      3599 1.07603E+00
 -1      3600 1.16779E+00
 -1      3601 1.34919E+00
 -1      3602 8.79381E-01
 -1      3603 9.66965E-01
 -1      3604 1.05299E+00
 -1      3605 7.23517E-01
 -1      3606 8.03806E-01
 -1      3607 8.68348E-01
 -1      3608 5.78316E-01
 -1      3609 6.49036E-01
 -1      3610 7.18292E-01
 -1      3611 4.51637E-01
 -1      3612 5.10652E-01
 -1      3613 5.76148E-01
 -1      3614 3.43638E-01
 -1      3615 3.92643E-01
 -1      3616 4.49490E-01
 -1      3617 2.54237E-01
 -1      3618 2.94772E-01
 -1      3619 3.41630E-01
 -1      3620 2.37802E-01
 -1      3621 2.50622E-01
 -1      3622 4.62772E+00
 -1      3623 1.78168E-01
 -1      3624 2.01618E-01
 -1      3625 1.55531E-01
 -1      3626 1.44910E-01
 -1      3627 1.64708E-01
 -1      3628 1.87996E-01
 -1      3629 5.74097E+00
 -1      3630 1.08072E-01
 -1      3631 9.17251E-02
 -1      3632 1.39848E-01
 -1      3633 2.31540E-01
 -1      3634 2.29838E-01
 -1      3635 7.37091E+00
 -1      3636 7.38209E+00
 -1      3637 7.39394E+00
 -1      3638 7.39394E+00
 -1      3639 5.42942E+00
 -1      3640 5.03187E+00
 -1      3641 3.54485E-01
 -1      3642 3.03915E-01
 -1      3643 2.97823E-01
 -1      3644 4.03178E-01
 -1      3645 1.85797E-01
 -1      3646 1.92999E-01
 -1      3647 1.43828E-01
 -1      3648 1.62351E-01
 -1      3649 1.53286E-01
 -1      3650 3.13218E-01
 -1      3651 3.20817E-01
 -1      3652 2.86295E-01
 -1      3653 7.02136E+00
 -1      3654 7.93776E+00
 -1      3655 7.65302E+00
 -1      3656 6.53345E+00
 -1      3657 5.23870E+00
 -1      3658 2.13629E-01
 -1      3659 2.34752E-01
 -1      3660 1.81113E-01
 -1      3661 2.07607E-01
 -1      3662 2.00316E-01
 -1      3663 1.65063E-01
 -1      3664 5.51153E+00
 -1      3665 5.27348E+00
 -1      3666 4.14603E+00
 -1      3667 5.63228E+00
 -1      3668 6.87691E+00
 -1      3669 7.23966E+00
 -1      3670 5.61782E+00
 -1      3671 5.83330E+00
 -1      3672 7.34998E+00
 -1      3673 5.75037E+00
 -1      3674 2.45945E-01
 -1      3675 2.44281E-01
 -1      3676 2.20475E-01
 -1      3677 1.70916E-01
 -1      3678 2.38920E-01
 -1      3679 6.83296E+00
 -1      3680 7.76446E+00
 -1      3681 6.38905E+00
 -1      3682 2.26824E-01
 -1      3683 2.28488E-01
 -1      3684 2.59747E-01
 -1      3685 1.08835E-01
 -1      3686 1.30137E-01
 -1      3687 1.23779E-01
 -1      3688 1.88995E-01
 -1      3689 2.40394E-01
 -1      3690 1.96174E-01
 -1      3691 2.05300E-01
 -1      3692 6.73720E+00
 -1      3693 5.22336E+00
 -1      3694 5.46974E+00
 -1      3695 6.84994E+00
 -1      3696 5.86892E+00
 -1      3697 2.31540E-01
 -1      3698 2.62760E-01
 -1      3699 2.31540E-01
 -1      3700 5.88076E+00
 -1      3701 7.39394E+00
 -1      3702 6.37884E+00
 -1      3703 2.25498E-01
 -1      3704 8.70103E-02
 -1      3705 1.06278E-01
 -1      3706 1.09690E-01
 -1      3707 2.43827E-01
 -1      3708 2.82355E-01
 -1      3709 2.59162E-01
 -1      3710 3.21079E-01
 -1      3711 2.10683E-01
 -1      3712 1.90552E-01
 -1      3713 2.09617E-01
 -1      3714 2.06953E-01
 -1      3715 2.82968E-01
 -1      3716 2.46925E-01
 -1      3717 2.37355E-01
 -1      3718 1.50845E-01
 -1      3719 2.49674E-01
 -1      3720 2.45867E-01
 -1      3721 2.36933E-01
 -1      3722 2.93186E-01
 -1      3723 2.49674E-01
 -1      3724 2.13318E-01
 -1      3725 2.49674E-01
 -1      3726 1.41631E-01
 -1      3727 1.32529E-01
 -1      3728 1.27205E-01
 -1      3729 1.14491E-01
 -1      3730 1.13263E-01
 -1      3731 1.19961E-01
 -1      3732 1.14356E-01
 -1      3733 1.13409E-01
 -1      3734 1.23175E-01
 -1      3735 1.29103E-01
 -1      3736 1.27698E-01
 -1      3737 1.38132E-01
 -1      3738 1.45078E-01
 -1      3739 1.45546E-01
 -1      3740 1.57702E-01
 -1      3741 1.88510E-01
 -1      3742 1.67199E-01
 -1      3743 2.23012E-01
 -1      3744 2.67135E-01
 -1      3745 2.14324E-01
 -1      3746 3.13691E-01
 -1      3747 3.66469E-01
 -1      3748 2.95382E-01
 -1      3749 4.24568E-01
 -1      3750 4.87486E-01
 -1      3751 4.00037E-01
 -1      3752 5.61123E-01
 -1      3753 6.35552E-01
 -1      3754 5.31772E-01
 -1      3755 7.30623E-01
 -1      3756 8.17226E-01
 -1      3757 7.00480E-01
 -1      3758 9.42188E-01
 -1      3759 1.04548E+00
 -1      3760 9.20514E-01
 -1      3761 1.21627E+00
 -1      3762 1.38707E+00
 -1      3763 1.21627E+00
 -1      3764 1.62555E+00
 -1      3765 1.90026E+00
 -1      3766 1.62555E+00
 -1      3767 2.44958E+00
 -1      3768 2.91987E+00
 -1      3769 2.41335E+00
 -1      3770 2.38609E-01
 -1      3771 1.96792E-01
 -1      3772 2.78729E+00
 -1      3773 3.40540E+00
 -1      3774 2.50049E-01
 -1      3775 2.09698E-01
 -1      3776 2.50049E-01
 -1      3777 1.73373E-01
 -1      3778 1.38695E-01
 -1      3779 4.72232E+00
 -1      3780 2.64791E+00
 -1      3781 2.39409E+00
 -1      3782 1.70469E+00
 -1      3783 1.46255E+00
 -1      3784 2.35023E+00
 -1      3785 1.26428E+00
 -1      3786 1.11701E+00
 -1      3787 1.46255E+00
 -1      3788 9.69748E-01
 -1      3789 8.70827E-01
 -1      3790 1.11701E+00
 -1      3791 7.58322E-01
 -1      3792 6.76742E-01
 -1      3793 8.57243E-01
 -1      3794 5.89789E-01
 -1      3795 5.21515E-01
 -1      3796 6.57785E-01
 -1      3797 4.51941E-01
 -1      3798 3.96229E-01
 -1      3799 5.01259E-01
 -1      3800 3.49033E-01
 -1      3801 3.02670E-01
 -1      3802 3.84490E-01
 -1      3803 6.32121E+00
 -1      3804 6.32121E+00
 -1      3805 1.54444E-01
 -1      3806 1.44216E-01
 -1      3807 7.27220E-01
 -1      3808 6.57150E-01
 -1      3809 5.74979E-01
 -1      3810 5.11258E-01
 -1      3811 6.45049E-01
 -1      3812 1.18626E+00
 -1      3813 1.04749E+00
 -1      3814 1.58287E+00
 -1      3815 1.37849E+00
 -1      3816 1.35993E+00
 -1      3817 2.72325E+00
 -1      3818 2.45626E+00
 -1      3819 2.42556E+00
 -1      3820 3.57851E+00
 -1      3821 3.23882E+00
 -1      3822 3.81453E+00
 -1      3823 3.60729E+00
 -1      3824 1.97164E+00
 -1      3825 2.22407E+00
 -1      3826 2.97017E+00
 -1      3827 4.81366E+00
 -1      3828 1.34398E+00
 -1      3829 1.53111E+00
 -1      3830 1.96643E+00
 -1      3831 1.03076E+00
 -1      3832 1.13982E+00
 -1      3833 1.32175E+00
 -1      3834 8.37863E-01
 -1      3835 9.13438E-01
 -1      3836 1.00027E+00
 -1      3837 6.66680E-01
 -1      3838 7.41161E-01
 -1      3839 7.86251E-01
 -1      3840 5.21582E-01
 -1      3841 5.89246E-01
 -1      3842 6.12114E-01
 -1      3843 4.00128E-01
 -1      3844 4.59123E-01
 -1      3845 4.72221E-01
 -1      3846 3.08603E-01
 -1      3847 3.57468E-01
 -1      3848 3.67101E-01
 -1      3849 3.09025E-01
 -1      3850 1.63908E-01
 -1      3851 1.66957E-01
 -1      3852 1.22178E-01
 -1      3853 2.46108E-01
 -1      3854 2.50049E-01
 -1      3855 2.13802E-01
 -1      3856 2.13560E-01
 -1      3857 2.38920E-01
 -1      3858 2.22407E-01
 -1      3859 2.46925E-01
 -1      3860 2.46925E-01
 -1      3861 2.93608E-01
 -1      3862 2.75171E-01
 -1      3863 1.61453E-01
 -1      3864 1.36009E-01
 -1      3865 1.92952E-01
 -1      3866 5.46974E+00
 -1      3867 2.07353E-01
 -1      3868 2.19128E-01
 -1      3869 1.30289E-01
 -1      3870 1.46105E-01
 -1      3871 6.05364E+00
 -1      3872 6.05364E+00
 -1      3873 9.27279E-01
 -1      3874 8.27250E-01
 -1      3875 1.04749E+00
 -1      3876 4.94165E+00
 -1      3877 1.53182E-01
 -1      3878 1.65192E-01
 -1      3879 1.35976E-01
 -1      3880 1.30184E-01
 -1      3881 1.53302E-01
 -1      3882 1.60222E-01
 -1      3883 1.39632E-01
 -1      3884 1.39243E-01
 -1      3885 1.16200E-01
 -1      3886 2.39437E-01
 -1      3887 2.43674E-01
 -1      3888 2.07318E-01
 -1      3889 5.31960E+00
 -1      3890 5.81963E+00
 -1      3891 4.52330E+00
 -1      3892 3.91134E+00
 -1      3893 4.58965E+00
 -1      3894 4.84185E+00
 -1      3895 3.53299E+00
 -1      3896 2.95436E+00
 -1      3897 4.42850E+00
 -1      3898 2.50348E-01
 -1      3899 2.52991E-01
 -1      3900 4.81424E+00
 -1      3901 4.82608E+00
 -1      3902 2.87615E-01
 -1      3903 5.37198E+00
 -1      3904 4.74314E+00
 -1      3905 5.29888E+00
 -1      3906 2.83828E-01
 -1      3907 2.73510E-01
 -1      3908 3.32724E-01
 -1      3909 3.21133E+00
 -1      3910 4.06761E+00
 -1      3911 1.77477E-01
 -1      3912 3.34608E+00
 -1      3913 5.82314E+00
 -1      3914 5.53663E+00
 -1      3915 1.55491E-01
 -1      3916 1.90042E-01
 -1      3917 3.28277E-01
 -1      3918 3.25264E-01
 -1      3919 1.07532E-01
 -1      3920 1.09850E-01
 -1      3921 1.23540E-01
 -1      3922 1.16359E-01
 -1      3923 4.06761E+00
 -1      3924 4.35887E+00
 -1      3925 1.71497E-01
 -1      3926 3.09025E-01
 -1      3927 3.24441E-01
 -1      3928 3.09025E-01
 -1      3929 1.84406E-01
 -1      3930 1.84648E-01
 -1      3931 4.44147E-01
 -1      3932 3.87688E-01
 -1      3933 3.73693E-01
 -1      3934 3.88732E+00
 -1      3935 4.52103E+00
 -1      3936 3.47819E+00
 -1      3937 3.36527E+00
 -1      3938 5.06137E+00
 -1      3939 5.06137E+00
 -1      3940 4.00669E+00
 -1      3941 3.28277E-01
 -1      3942 3.28277E-01
 -1      3943 3.93794E-01
 -1      3944 3.00027E-01
 -1      3945 1.27482E-01
 -1      3946 8.27250E-01
 -1      3947 1.27048E-01
 -1      3948 1.22333E-01
 -1      3949 1.48652E-01
 -1      3950 5.60351E+00
 -1      3951 1.81694E-01
 -1      3952 1.81694E-01
 -1      3953 1.52781E-01
 -1      3954 5.04781E+00
 -1      3955 3.25411E+00
 -1      3956 4.95767E-01
 -1      3957 3.96717E+00
 -1      3958 2.56294E+00
 -1      3959 3.12616E+00
 -1      3960 3.50411E+00
 -1      3961 1.14208E-01
 -1      3962 1.19678E-01
 -1      3963 1.30139E-01
 -1      3964 1.38958E-01
 -1      3965 1.30938E-01
 -1      3966 1.47327E-01
 -1      3967 1.56355E-01
 -1      3968 1.49767E-01
 -1      3969 1.68084E-01
 -1      3970 1.80708E-01
 -1      3971 1.69864E-01
 -1      3972 2.01505E-01
 -1      3973 2.36007E-01
 -1      3974 2.02390E-01
 -1      3975 2.61058E-01
 -1      3976 3.07614E-01
 -1      3977 2.48239E-01
 -1      3978 3.51836E-01
 -1      3979 4.09934E-01
 -1      3980 3.17512E-01
 -1      3981 4.70030E-01
 -1      3982 5.43667E-01
 -1      3983 4.21829E-01
 -1      3984 6.25342E-01
 -1      3985 7.20413E-01
 -1      3986 5.63599E-01
 -1      3987 8.36206E-01
 -1      3988 9.61169E-01
 -1      3989 7.61068E-01
 -1      3990 1.13014E+00
 -1      3991 1.30093E+00
 -1      3992 1.04583E+00
 -1      3993 1.55909E+00
 -1      3994 1.79757E+00
 -1      3995 1.47295E+00
 -1      3996 2.11525E+00
 -1      3997 2.66457E+00
 -1      3998 2.04879E+00
 -1      3999 5.21544E-01
 -1      4000 4.54433E-01
 -1      4001 1.84648E-01
 -1      4002 1.48322E-01
 -1      4003 3.66072E+00
 -1      4004 1.86915E+00
 -1      4005 1.67088E+00
 -1      4006 1.18480E+00
 -1      4007 1.03753E+00
 -1      4008 1.59139E+00
 -1      4009 8.95888E-01
 -1      4010 7.83382E-01
 -1      4011 9.63670E-01
 -1      4012 6.78154E-01
 -1      4013 5.91202E-01
 -1      4014 7.16799E-01
 -1      4015 5.17496E-01
 -1      4016 4.47923E-01
 -1      4017 5.37865E-01
 -1      4018 1.14701E-01
 -1      4019 1.17258E-01
 -1      4020 1.32059E-01
 -1      4021 3.29895E+00
 -1      4022 2.42556E+00
 -1      4023 1.73196E+00
 -1      4024 1.53973E+00
 -1      4025 2.60536E+00
 -1      4026 1.24535E+00
 -1      4027 1.44950E+00
 -1      4028 9.66753E-01
 -1      4029 1.08407E+00
 -1      4030 1.21183E+00
 -1      4031 4.25130E+00
 -1      4032 5.03061E+00
 -1      4033 7.39403E-01
 -1      4034 8.36105E-01
 -1      4035 9.19905E-01
 -1      4036 5.63819E-01
 -1      4037 6.41253E-01
 -1      4038 6.91108E-01
 -1      4039 4.28678E-01
 -1      4040 4.91138E-01
 -1      4041 5.20277E-01
 -1      4042 3.37051E-01
 -1      4043 3.79711E-01
 -1      4044 3.98628E-01
 -1      4045 3.37051E-01
 -1      4046 4.53223E+00
 -1      4047 1.15068E+00
 -1      4048 1.03047E+00
 -1      4049 1.52271E+00
 -1      4050 2.73607E-01
 -1      4051 2.92044E-01
 -1      4052 3.07461E-01
 -1      4053 3.42137E-01
 -1      4054 5.06137E+00
 -1      4055 5.00375E+00
 -1      4056 1.55493E-01
 -1      4057 1.84648E-01
 -1      4058 1.70060E+00
 -1      4059 2.14113E+00
 -1      4060 2.29712E+00
 -1      4061 1.62421E+00
 -1      4062 6.82305E-01
 -1      4063 6.00134E-01
 -1      4064 5.58800E-01
 -1      4065 3.35637E+00
 -1      4066 2.66697E+00
 -1      4067 2.87529E+00
 -1      4068 9.80252E-02
 -1      4069 1.00413E-01
 -1      4070 3.65544E-01
 -1      4071 2.14901E-01
 -1      4072 1.79561E-01
 -1      4073 8.88987E-01
 -1      4074 7.88957E-01
 -1      4075 7.44042E-01
 -1      4076 1.75693E-01
 -1      4077 1.81694E-01
 -1      4078 1.50070E-01
 -1      4079 1.29867E-01
 -1      4080 4.53223E+00
 -1      4081 1.02083E-01
 -1      4082 8.95690E-02
 -1      4083 1.09772E-01
 -1      4084 1.10177E-01
 -1      4085 9.65071E-02
 -1      4086 8.07199E-02
 -1      4087 1.17347E-01
 -1      4088 1.10405E-01
 -1      4089 1.05081E-01
 -1      4090 9.22308E-02
 -1      4091 1.11350E-01
 -1      4092 4.20253E-01
 -1      4093 3.94476E-01
 -1      4094 3.39512E-01
 -1      4095 3.97746E+00
 -1      4096 1.09212E-01
 -1      4097 1.07928E-01
 -1      4098 7.53188E-02
 -1      4099 3.46593E+00
 -1      4100 3.69994E+00
 -1      4101 3.19393E+00
 -1      4102 2.68076E+00
 -1      4103 1.17019E-01
 -1      4104 4.12740E-01
 -1      4105 3.77047E+00
 -1      4106 4.28977E-01
 -1      4107 4.01355E+00
 -1      4108 4.24198E+00
 -1      4109 1.23366E-01
 -1      4110 1.26077E-01
 -1      4111 4.08331E-01
 -1      4112 3.56673E-01
 -1      4113 1.26077E-01
 -1      4114 1.26077E-01
 -1      4115 8.79317E-02
 -1      4116 9.66616E-02
 -1      4117 1.84225E-01
 -1      4118 1.62276E-01
 -1      4119 1.53315E-01
 -1      4120 2.92586E-01
 -1      4121 2.47367E-01
 -1      4122 3.13369E-01
 -1      4123 3.36703E+00
 -1      4124 3.60232E+00
 -1      4125 1.10342E-01
 -1      4126 1.17091E-01
 -1      4127 9.92175E-01
 -1      4128 2.33976E-01
 -1      4129 2.96266E+00
 -1      4130 3.25411E+00
 -1      4131 1.06523E-01
 -1      4132 1.13599E-01
 -1      4133 8.55509E-02
 -1      4134 1.00506E-01
 -1      4135 2.66457E+00
 -1      4136 4.08331E-01
 -1      4137 4.08331E-01
 -1      4138 4.22867E-01
 -1      4139 4.43513E-01
 -1      4140 1.19378E-01
 -1      4141 1.19378E-01
 -1      4142 9.26736E-02
 -1      4143 7.90794E-02
 -1      4144 1.49767E-01
 -1      4145 1.58136E-01
 -1      4146 1.82640E-01
 -1      4147 1.94368E-01
 -1      4148 1.82640E-01
 -1      4149 2.02390E-01
 -1      4150 2.23187E-01
 -1      4151 2.15166E-01
 -1      4152 2.48239E-01
 -1      4153 2.73290E-01
 -1      4154 2.48239E-01
 -1      4155 3.05342E-01
 -1      4156 3.49563E-01
 -1      4157 3.05342E-01
 -1      4158 3.91272E-01
 -1      4159 4.51367E-01
 -1      4160 3.79102E-01
 -1      4161 5.06981E-01
 -1      4162 5.88657E-01
 -1      4163 4.76424E-01
 -1      4164 6.65675E-01
 -1      4165 7.81468E-01
 -1      4166 6.09057E-01
 -1      4167 9.01978E-01
 -1      4168 1.07094E+00
 -1      4169 8.06585E-01
 -1      4170 1.35361E+00
 -1      4171 1.61177E+00
 -1      4172 1.20976E+00
 -1      4173 1.67829E+00
 -1      4174 1.99597E+00
 -1      4175 1.55894E+00
 -1      4176 2.70074E+00
 -1      4177 3.34040E+00
 -1      4178 3.34040E+00
 -1      4179 1.11350E-01
 -1      4180 1.20477E-01
 -1      4181 1.25706E-01
 -1      4182 1.18298E-01
 -1      4183 1.19029E-01
 -1      4184 9.69359E-01
 -1      4185 8.27715E-01
 -1      4186 7.24850E-01
 -1      4187 6.19622E-01
 -1      4188 7.30538E-01
 -1      4189 5.29592E-01
 -1      4190 4.55886E-01
 -1      4191 4.35239E-01
 -1      4192 5.37642E-01
 -1      4193 1.43793E-01
 -1      4194 1.36162E-01
 -1      4195 1.57418E-01
 -1      4196 3.70919E+00
 -1      4197 3.31578E-01
 -1      4198 3.48559E-01
 -1      4199 3.61169E-01
 -1      4200 3.97771E-01
 -1      4201 1.30938E-01
 -1      4202 1.41399E-01
 -1      4203 1.30938E-01
 -1      4204 3.07382E+00
 -1      4205 1.01620E+00
 -1      4206 1.17748E+00
 -1      4207 7.90913E-01
 -1      4208 9.21561E-01
 -1      4209 8.87210E-01
 -1      4210 1.75403E+00
 -1      4211 1.36497E+00
 -1      4212 3.29533E+00
 -1      4213 3.25924E+00
 -1      4214 1.01164E+00
 -1      4215 8.70161E-01
 -1      4216 1.24296E+00
 -1      4217 4.34273E-01
 -1      4218 5.06955E-01
 -1      4219 2.57230E-01
 -1      4220 2.24764E-01
 -1      4221 5.56996E-01
 -1      4222 4.78407E-01
 -1      4223 9.03906E-02
 -1      4224 1.00383E-01
 -1      4225 1.09510E-01
 -1      4226 3.46650E+00
 -1      4227 2.99498E+00
 -1      4228 5.98718E-01
 -1      4229 6.96867E-01
 -1      4230 5.12714E-01
 -1      4231 7.46797E-01
 -1      4232 6.40145E-01
 -1      4233 7.66264E-01
 -1      4234 2.30139E+00
 -1      4235 1.89646E+00
 -1      4236 1.41038E+00
 -1      4237 1.27443E+00
 -1      4238 2.46143E+00
 -1      4239 4.30079E-01
 -1      4240 3.70122E-01
 -1      4241 4.28276E-01
 -1      4242 2.56492E+00
 -1      4243 2.29406E+00
 -1      4244 2.03214E+00
 -1      4245 2.22190E+00
 -1      4246 2.18372E+00
 -1      4247 1.80009E+00
 -1      4248 1.27969E-01
 -1      4249 1.20014E-01
 -1      4250 2.28042E+00
 -1      4251 1.37440E-01
 -1      4252 2.86215E-01
 -1      4253 2.77003E-01
 -1      4254 3.33142E-01
 -1      4255 8.63628E-02
 -1      4256 9.03508E-02
 -1      4257 9.03508E-02
 -1      4258 4.21909E-01
 -1      4259 3.96814E-01
 -1      4260 2.74398E+00
 -1      4261 7.67567E-02
 -1      4262 8.63628E-02
 -1      4263 8.40400E-02
 -1      4264 8.26022E-02
 -1      4265 6.98522E-01
 -1      4266 5.59751E-01
 -1      4267 1.49767E-01
 -1      4268 2.14365E+00
 -1      4269 4.10136E-01
 -1      4270 1.32970E+00
 -1      4271 1.58080E+00
 -1      4272 1.50558E+00
 -1      4273 1.13407E+00
 -1      4274 1.14623E-01
 -1      4275 1.05682E-01
 -1      4276 9.51142E-02
 -1      4277 2.28507E-01
 -1      4278 2.05253E-01
 -1      4279 1.87968E-01
 -1      4280 4.47569E-01
 -1      4281 4.47569E-01
 -1      4282 4.46611E-01
 -1      4283 4.59941E-01
 -1      4284 6.60996E-02
 -1      4285 6.76177E-02
 -1      4286 7.57702E-02
 -1      4287 7.48295E-02
 -1      4288 1.83566E-01
 -1      4289 2.08070E-01
 -1      4290 2.08070E-01
 -1      4291 2.16092E-01
 -1      4292 2.35603E-01
 -1      4293 2.60654E-01
 -1      4294 2.89639E-01
 -1      4295 3.21690E-01
 -1      4296 3.58671E-01
 -1      4297 4.00379E-01
 -1      4298 4.48707E-01
 -1      4299 5.04321E-01
 -1      4300 5.87469E-01
 -1      4301 6.64487E-01
 -1      4302 7.87851E-01
 -1      4303 9.08361E-01
 -1      4304 1.26169E+00
 -1      4305 1.54436E+00
 -1      4306 1.34036E+00
 -1      4307 8.99332E-01
 -1      4308 8.12986E-01
 -1      4309 7.10120E-01
 -1      4310 1.37440E-01
 -1      4311 1.38425E-01
 -1      4312 1.47896E-01
 -1      4313 5.38374E-01
 -1      4314 6.85187E-02
 -1      4315 2.28513E+00
 -1      4316 2.09172E+00
 -1      4317 1.24716E-01
 -1      4318 1.35176E-01
 -1      4319 6.16075E-01
 -1      4320 2.15824E+00
 -1      4321 9.94170E-02
 -1      4322 1.10384E-01
 -1      4323 9.42403E-02
 -1      4324 8.98537E-02
 -1      4325 9.12916E-02
 -1      4326 9.94170E-02
 -1      4327 1.44647E-01
 -1      4328 1.53016E-01
 -1      4329 1.87968E-01
 -1      4330 1.78446E-01
 -1      4331 1.78446E-01
 -1      4332 2.08997E-01
 -1      4333 2.28042E+00
 -1      4334 1.71545E+00
 -1      4335 3.42968E-01
 -1      4336 8.78914E-01
 -1      4337 9.73556E-01
 -1      4338 1.34865E+00
 -1      4339 1.50087E+00
 -1      4340 5.49972E-01
 -1      4341 1.34036E+00
 -1      4342 9.12916E-02
 -1      4343 9.12916E-02
 -1      4344 9.85431E-02
 -1      4345 1.78446E-01
 -1      4346 1.72016E+00
 -1      4347 2.08997E-01
 -1      4348 2.08997E-01
 -3
 9999
