    1C
    1UUSER                                                              
    1UDATE              27.october.2022                                 
    1UTIME              01:04:18                                        
    1UHOST                                                              
    1UPGM               CalculiX                                        
    1UVERSION           Version 2.17                             
    1UCOMPILETIME       Thu Jul 23 21:43:50 CEST 2020                    
    1UDIR                                                               
    1UDBN                                                               
    1UMAT    1SOLIDMATERIAL                                             
    2C                          4269                                     1
 -1         1 4.36364E+01 4.15797E+01 0.00000E+00
 -1         2 5.06263E+01 3.45797E+01 0.00000E+00
 -1         3 1.50000E+02 0.00000E+00 0.00000E+00
 -1         4 1.50000E+02 5.00000E+01 0.00000E+00
 -1         5 0.00000E+00 0.00000E+00 0.00000E+00
 -1         6 0.00000E+00 5.00000E+01 0.00000E+00
 -1         7 0.00000E+00 4.70500E+01 0.00000E+00
 -1         8 0.00000E+00 4.41000E+01 0.00000E+00
 -1         9 0.00000E+00 4.11500E+01 0.00000E+00
 -1        10 0.00000E+00 3.82000E+01 0.00000E+00
 -1        11 0.00000E+00 3.52500E+01 0.00000E+00
 -1        12 0.00000E+00 3.23500E+01 0.00000E+00
 -1        13 0.00000E+00 2.94000E+01 0.00000E+00
 -1        14 0.00000E+00 2.64500E+01 0.00000E+00
 -1        15 0.00000E+00 2.35000E+01 0.00000E+00
 -1        16 0.00000E+00 2.05500E+01 0.00000E+00
 -1        17 0.00000E+00 1.76000E+01 0.00000E+00
 -1        18 0.00000E+00 1.47000E+01 0.00000E+00
 -1        19 0.00000E+00 1.17500E+01 0.00000E+00
 -1        20 0.00000E+00 8.80000E+00 0.00000E+00
 -1        21 0.00000E+00 5.85000E+00 0.00000E+00
 -1        22 0.00000E+00 2.90000E+00 0.00000E+00
 -1        23 3.15000E+00 5.00000E+01 0.00000E+00
 -1        24 6.15000E+00 5.00000E+01 0.00000E+00
 -1        25 9.15000E+00 5.00000E+01 0.00000E+00
 -1        26 1.21500E+01 5.00000E+01 0.00000E+00
 -1        27 1.51500E+01 5.00000E+01 0.00000E+00
 -1        28 1.81500E+01 5.00000E+01 0.00000E+00
 -1        29 2.11500E+01 5.00000E+01 0.00000E+00
 -1        30 2.41500E+01 5.00000E+01 0.00000E+00
 -1        31 2.71500E+01 5.00000E+01 0.00000E+00
 -1        32 3.01500E+01 5.00000E+01 0.00000E+00
 -1        33 3.31500E+01 5.00000E+01 0.00000E+00
 -1        34 3.61500E+01 5.00000E+01 0.00000E+00
 -1        35 3.91500E+01 5.00000E+01 0.00000E+00
 -1        36 4.18500E+01 5.00000E+01 0.00000E+00
 -1        37 4.48500E+01 5.00000E+01 0.00000E+00
 -1        38 4.77000E+01 5.00000E+01 0.00000E+00
 -1        39 5.07000E+01 5.00000E+01 0.00000E+00
 -1        40 5.37000E+01 5.00000E+01 0.00000E+00
 -1        41 5.67000E+01 5.00000E+01 0.00000E+00
 -1        42 5.97000E+01 5.00000E+01 0.00000E+00
 -1        43 6.27000E+01 5.00000E+01 0.00000E+00
 -1        44 6.57000E+01 5.00000E+01 0.00000E+00
 -1        45 6.88500E+01 5.00000E+01 0.00000E+00
 -1        46 7.18500E+01 5.00000E+01 0.00000E+00
 -1        47 7.48500E+01 5.00000E+01 0.00000E+00
 -1        48 7.78500E+01 5.00000E+01 0.00000E+00
 -1        49 8.08500E+01 5.00000E+01 0.00000E+00
 -1        50 8.38500E+01 5.00000E+01 0.00000E+00
 -1        51 8.68500E+01 5.00000E+01 0.00000E+00
 -1        52 8.98500E+01 5.00000E+01 0.00000E+00
 -1        53 9.28500E+01 5.00000E+01 0.00000E+00
 -1        54 9.58500E+01 5.00000E+01 0.00000E+00
 -1        55 9.88500E+01 5.00000E+01 0.00000E+00
 -1        56 1.01850E+02 5.00000E+01 0.00000E+00
 -1        57 1.04850E+02 5.00000E+01 0.00000E+00
 -1        58 1.07850E+02 5.00000E+01 0.00000E+00
 -1        59 1.11000E+02 5.00000E+01 0.00000E+00
 -1        60 1.14000E+02 5.00000E+01 0.00000E+00
 -1        61 1.17000E+02 5.00000E+01 0.00000E+00
 -1        62 1.20000E+02 5.00000E+01 0.00000E+00
 -1        63 1.23000E+02 5.00000E+01 0.00000E+00
 -1        64 1.26000E+02 5.00000E+01 0.00000E+00
 -1        65 1.29000E+02 5.00000E+01 0.00000E+00
 -1        66 1.32000E+02 5.00000E+01 0.00000E+00
 -1        67 1.35000E+02 5.00000E+01 0.00000E+00
 -1        68 1.38000E+02 5.00000E+01 0.00000E+00
 -1        69 1.41000E+02 5.00000E+01 0.00000E+00
 -1        70 1.44000E+02 5.00000E+01 0.00000E+00
 -1        71 1.47000E+02 5.00000E+01 0.00000E+00
 -1        72 3.15000E+00 0.00000E+00 0.00000E+00
 -1        73 6.15000E+00 0.00000E+00 0.00000E+00
 -1        74 9.15000E+00 0.00000E+00 0.00000E+00
 -1        75 1.21500E+01 0.00000E+00 0.00000E+00
 -1        76 1.51500E+01 0.00000E+00 0.00000E+00
 -1        77 1.81500E+01 0.00000E+00 0.00000E+00
 -1        78 2.11500E+01 0.00000E+00 0.00000E+00
 -1        79 2.41500E+01 0.00000E+00 0.00000E+00
 -1        80 2.71500E+01 0.00000E+00 0.00000E+00
 -1        81 3.01500E+01 0.00000E+00 0.00000E+00
 -1        82 3.31500E+01 0.00000E+00 0.00000E+00
 -1        83 3.61500E+01 0.00000E+00 0.00000E+00
 -1        84 3.91500E+01 0.00000E+00 0.00000E+00
 -1        85 4.21500E+01 0.00000E+00 0.00000E+00
 -1        86 4.51500E+01 0.00000E+00 0.00000E+00
 -1        87 4.81500E+01 0.00000E+00 0.00000E+00
 -1        88 5.11500E+01 0.00000E+00 0.00000E+00
 -1        89 5.41500E+01 0.00000E+00 0.00000E+00
 -1        90 5.71500E+01 0.00000E+00 0.00000E+00
 -1        91 6.01500E+01 0.00000E+00 0.00000E+00
 -1        92 6.31500E+01 0.00000E+00 0.00000E+00
 -1        93 6.61500E+01 0.00000E+00 0.00000E+00
 -1        94 6.91500E+01 0.00000E+00 0.00000E+00
 -1        95 7.21500E+01 0.00000E+00 0.00000E+00
 -1        96 7.51500E+01 0.00000E+00 0.00000E+00
 -1        97 7.81500E+01 0.00000E+00 0.00000E+00
 -1        98 8.11500E+01 0.00000E+00 0.00000E+00
 -1        99 8.41500E+01 0.00000E+00 0.00000E+00
 -1       100 8.71500E+01 0.00000E+00 0.00000E+00
 -1       101 9.01500E+01 0.00000E+00 0.00000E+00
 -1       102 9.31500E+01 0.00000E+00 0.00000E+00
 -1       103 9.61500E+01 0.00000E+00 0.00000E+00
 -1       104 9.91500E+01 0.00000E+00 0.00000E+00
 -1       105 1.02150E+02 0.00000E+00 0.00000E+00
 -1       106 1.05150E+02 0.00000E+00 0.00000E+00
 -1       107 1.08150E+02 0.00000E+00 0.00000E+00
 -1       108 1.11150E+02 0.00000E+00 0.00000E+00
 -1       109 1.14150E+02 0.00000E+00 0.00000E+00
 -1       110 1.17150E+02 0.00000E+00 0.00000E+00
 -1       111 1.20150E+02 0.00000E+00 0.00000E+00
 -1       112 1.23150E+02 0.00000E+00 0.00000E+00
 -1       113 1.26150E+02 0.00000E+00 0.00000E+00
 -1       114 1.29150E+02 0.00000E+00 0.00000E+00
 -1       115 1.32150E+02 0.00000E+00 0.00000E+00
 -1       116 1.35150E+02 0.00000E+00 0.00000E+00
 -1       117 1.38150E+02 0.00000E+00 0.00000E+00
 -1       118 1.41150E+02 0.00000E+00 0.00000E+00
 -1       119 1.44150E+02 0.00000E+00 0.00000E+00
 -1       120 1.47150E+02 0.00000E+00 0.00000E+00
 -1       121 1.50000E+02 2.95000E+00 0.00000E+00
 -1       122 1.50000E+02 5.90000E+00 0.00000E+00
 -1       123 1.50000E+02 8.85000E+00 0.00000E+00
 -1       124 1.50000E+02 1.18000E+01 0.00000E+00
 -1       125 1.50000E+02 1.47500E+01 0.00000E+00
 -1       126 1.50000E+02 1.76500E+01 0.00000E+00
 -1       127 1.50000E+02 2.06000E+01 0.00000E+00
 -1       128 1.50000E+02 2.35500E+01 0.00000E+00
 -1       129 1.50000E+02 2.65000E+01 0.00000E+00
 -1       130 1.50000E+02 2.94500E+01 0.00000E+00
 -1       131 1.50000E+02 3.24000E+01 0.00000E+00
 -1       132 1.50000E+02 3.53000E+01 0.00000E+00
 -1       133 1.50000E+02 3.82500E+01 0.00000E+00
 -1       134 1.50000E+02 4.12000E+01 0.00000E+00
 -1       135 1.50000E+02 4.41500E+01 0.00000E+00
 -1       136 1.50000E+02 4.71000E+01 0.00000E+00
 -1       137 5.04874E+01 3.31922E+01 0.00000E+00
 -1       138 4.99686E+01 3.16173E+01 0.00000E+00
 -1       139 4.92340E+01 3.03900E+01 0.00000E+00
 -1       140 4.82734E+01 2.93448E+01 0.00000E+00
 -1       141 4.70936E+01 2.84988E+01 0.00000E+00
 -1       142 4.56982E+01 2.78934E+01 0.00000E+00
 -1       143 4.41983E+01 2.76031E+01 0.00000E+00
 -1       144 4.27238E+01 2.76382E+01 0.00000E+00
 -1       145 4.12521E+01 2.79947E+01 0.00000E+00
 -1       146 3.97847E+01 2.87280E+01 0.00000E+00
 -1       147 3.86353E+01 2.96715E+01 0.00000E+00
 -1       148 3.76970E+01 3.08591E+01 0.00000E+00
 -1       149 3.70736E+01 3.21177E+01 0.00000E+00
 -1       150 3.67037E+01 3.35414E+01 0.00000E+00
 -1       151 3.66438E+01 3.50738E+01 0.00000E+00
 -1       152 3.69140E+01 3.65660E+01 0.00000E+00
 -1       153 3.74501E+01 3.78744E+01 0.00000E+00
 -1       154 3.82827E+01 3.91014E+01 0.00000E+00
 -1       155 3.94096E+01 4.01671E+01 0.00000E+00
 -1       156 4.07938E+01 4.09811E+01 0.00000E+00
 -1       157 4.21368E+01 4.14194E+01 0.00000E+00
 -1       158 4.51706E+01 4.14073E+01 0.00000E+00
 -1       159 4.67158E+01 4.08610E+01 0.00000E+00
 -1       160 4.80118E+01 4.00357E+01 0.00000E+00
 -1       161 4.91084E+01 3.89325E+01 0.00000E+00
 -1       162 4.99399E+01 3.76026E+01 0.00000E+00
 -1       163 5.04362E+01 3.62000E+01 0.00000E+00
 -1       164 2.59800E+00 4.55750E+01 0.00000E+00
 -1       165 2.59800E+00 4.26250E+01 0.00000E+00
 -1       166 2.59800E+00 3.96750E+01 0.00000E+00
 -1       167 2.59800E+00 3.67250E+01 0.00000E+00
 -1       168 2.59800E+00 3.38250E+01 0.00000E+00
 -1       169 2.59800E+00 3.08750E+01 0.00000E+00
 -1       170 2.59800E+00 2.79250E+01 0.00000E+00
 -1       171 2.59800E+00 2.49750E+01 0.00000E+00
 -1       172 2.59800E+00 2.20250E+01 0.00000E+00
 -1       173 2.59800E+00 1.90750E+01 0.00000E+00
 -1       174 2.59800E+00 1.61750E+01 0.00000E+00
 -1       175 2.59800E+00 1.32250E+01 0.00000E+00
 -1       176 2.59800E+00 1.02750E+01 0.00000E+00
 -1       177 2.59800E+00 7.32500E+00 0.00000E+00
 -1       178 2.59800E+00 4.37500E+00 0.00000E+00
 -1       179 2.87400E+00 2.18750E+00 0.00000E+00
 -1       180 4.65000E+00 4.74020E+01 0.00000E+00
 -1       181 7.65000E+00 4.74020E+01 0.00000E+00
 -1       182 1.06500E+01 4.74020E+01 0.00000E+00
 -1       183 1.36500E+01 4.74020E+01 0.00000E+00
 -1       184 1.66500E+01 4.74020E+01 0.00000E+00
 -1       185 1.96500E+01 4.74020E+01 0.00000E+00
 -1       186 2.26500E+01 4.74020E+01 0.00000E+00
 -1       187 2.56500E+01 4.74020E+01 0.00000E+00
 -1       188 2.86500E+01 4.74020E+01 0.00000E+00
 -1       189 3.16500E+01 4.74020E+01 0.00000E+00
 -1       190 3.46500E+01 4.74020E+01 0.00000E+00
 -1       191 3.76500E+01 4.74020E+01 0.00000E+00
 -1       192 4.03500E+01 4.74020E+01 0.00000E+00
 -1       193 4.33500E+01 4.74020E+01 0.00000E+00
 -1       194 4.62000E+01 4.74020E+01 0.00000E+00
 -1       195 4.92000E+01 4.74020E+01 0.00000E+00
 -1       196 5.22000E+01 4.74020E+01 0.00000E+00
 -1       197 5.52000E+01 4.74020E+01 0.00000E+00
 -1       198 5.82000E+01 4.74020E+01 0.00000E+00
 -1       199 6.12000E+01 4.74020E+01 0.00000E+00
 -1       200 6.42000E+01 4.74020E+01 0.00000E+00
 -1       201 6.73500E+01 4.74020E+01 0.00000E+00
 -1       202 7.03500E+01 4.74020E+01 0.00000E+00
 -1       203 7.33500E+01 4.74020E+01 0.00000E+00
 -1       204 7.63500E+01 4.74020E+01 0.00000E+00
 -1       205 7.93500E+01 4.74020E+01 0.00000E+00
 -1       206 8.23500E+01 4.74020E+01 0.00000E+00
 -1       207 8.53500E+01 4.74020E+01 0.00000E+00
 -1       208 8.83500E+01 4.74020E+01 0.00000E+00
 -1       209 9.13500E+01 4.74020E+01 0.00000E+00
 -1       210 9.43500E+01 4.74020E+01 0.00000E+00
 -1       211 9.73500E+01 4.74020E+01 0.00000E+00
 -1       212 1.00350E+02 4.74020E+01 0.00000E+00
 -1       213 1.03350E+02 4.74020E+01 0.00000E+00
 -1       214 1.06350E+02 4.74020E+01 0.00000E+00
 -1       215 1.09500E+02 4.74020E+01 0.00000E+00
 -1       216 1.12500E+02 4.74020E+01 0.00000E+00
 -1       217 1.15500E+02 4.74020E+01 0.00000E+00
 -1       218 1.18500E+02 4.74020E+01 0.00000E+00
 -1       219 1.21500E+02 4.74020E+01 0.00000E+00
 -1       220 1.24500E+02 4.74020E+01 0.00000E+00
 -1       221 1.27500E+02 4.74020E+01 0.00000E+00
 -1       222 1.30500E+02 4.74020E+01 0.00000E+00
 -1       223 1.33500E+02 4.74020E+01 0.00000E+00
 -1       224 1.36500E+02 4.74020E+01 0.00000E+00
 -1       225 1.39500E+02 4.74020E+01 0.00000E+00
 -1       226 1.42500E+02 4.74020E+01 0.00000E+00
 -1       227 1.45500E+02 4.74020E+01 0.00000E+00
 -1       228 1.47750E+02 4.72510E+01 0.00000E+00
 -1       229 5.87400E+00 2.18750E+00 0.00000E+00
 -1       230 8.87400E+00 2.18750E+00 0.00000E+00
 -1       231 1.18740E+01 2.18750E+00 0.00000E+00
 -1       232 1.48740E+01 2.18750E+00 0.00000E+00
 -1       233 1.78740E+01 2.18750E+00 0.00000E+00
 -1       234 2.08740E+01 2.18750E+00 0.00000E+00
 -1       235 2.38740E+01 2.18750E+00 0.00000E+00
 -1       236 2.68740E+01 2.18750E+00 0.00000E+00
 -1       237 2.98740E+01 2.18750E+00 0.00000E+00
 -1       238 3.28740E+01 2.18750E+00 0.00000E+00
 -1       239 3.58740E+01 2.18750E+00 0.00000E+00
 -1       240 3.88740E+01 2.18750E+00 0.00000E+00
 -1       241 4.18740E+01 2.18750E+00 0.00000E+00
 -1       242 4.48740E+01 2.18750E+00 0.00000E+00
 -1       243 4.78740E+01 2.18750E+00 0.00000E+00
 -1       244 5.08740E+01 2.18750E+00 0.00000E+00
 -1       245 5.38740E+01 2.18750E+00 0.00000E+00
 -1       246 5.68740E+01 2.18750E+00 0.00000E+00
 -1       247 5.98740E+01 2.18750E+00 0.00000E+00
 -1       248 6.28740E+01 2.18750E+00 0.00000E+00
 -1       249 6.58740E+01 2.18750E+00 0.00000E+00
 -1       250 6.88740E+01 2.18750E+00 0.00000E+00
 -1       251 7.18740E+01 2.18750E+00 0.00000E+00
 -1       252 7.48740E+01 2.18750E+00 0.00000E+00
 -1       253 7.78740E+01 2.18750E+00 0.00000E+00
 -1       254 8.08740E+01 2.18750E+00 0.00000E+00
 -1       255 8.38740E+01 2.18750E+00 0.00000E+00
 -1       256 8.68740E+01 2.18750E+00 0.00000E+00
 -1       257 8.98740E+01 2.18750E+00 0.00000E+00
 -1       258 9.28740E+01 2.18750E+00 0.00000E+00
 -1       259 9.58740E+01 2.18750E+00 0.00000E+00
 -1       260 9.88740E+01 2.18750E+00 0.00000E+00
 -1       261 1.01874E+02 2.18750E+00 0.00000E+00
 -1       262 1.04874E+02 2.18750E+00 0.00000E+00
 -1       263 1.07874E+02 2.18750E+00 0.00000E+00
 -1       264 1.10874E+02 2.18750E+00 0.00000E+00
 -1       265 1.13874E+02 2.18750E+00 0.00000E+00
 -1       266 1.16874E+02 2.18750E+00 0.00000E+00
 -1       267 1.19874E+02 2.18750E+00 0.00000E+00
 -1       268 1.22874E+02 2.18750E+00 0.00000E+00
 -1       269 1.25874E+02 2.18750E+00 0.00000E+00
 -1       270 1.28874E+02 2.18750E+00 0.00000E+00
 -1       271 1.31874E+02 2.18750E+00 0.00000E+00
 -1       272 1.34874E+02 2.18750E+00 0.00000E+00
 -1       273 1.37874E+02 2.18750E+00 0.00000E+00
 -1       274 1.40874E+02 2.18750E+00 0.00000E+00
 -1       275 1.43874E+02 2.18750E+00 0.00000E+00
 -1       276 1.46874E+02 2.18750E+00 0.00000E+00
 -1       277 1.47402E+02 4.42500E+00 0.00000E+00
 -1       278 1.47402E+02 7.37500E+00 0.00000E+00
 -1       279 1.47402E+02 1.03250E+01 0.00000E+00
 -1       280 1.47402E+02 1.32750E+01 0.00000E+00
 -1       281 1.47402E+02 1.61750E+01 0.00000E+00
 -1       282 1.47402E+02 1.91250E+01 0.00000E+00
 -1       283 1.47402E+02 2.20750E+01 0.00000E+00
 -1       284 1.47402E+02 2.50250E+01 0.00000E+00
 -1       285 1.47402E+02 2.79750E+01 0.00000E+00
 -1       286 1.47402E+02 3.09250E+01 0.00000E+00
 -1       287 1.47402E+02 3.38250E+01 0.00000E+00
 -1       288 1.47402E+02 3.67750E+01 0.00000E+00
 -1       289 1.47402E+02 3.97250E+01 0.00000E+00
 -1       290 1.47402E+02 4.26750E+01 0.00000E+00
 -1       291 1.47576E+02 4.49630E+01 0.00000E+00
 -1       292 5.17632E+01 3.37652E+01 0.00000E+00
 -1       293 5.16978E+01 3.19205E+01 0.00000E+00
 -1       294 5.06416E+01 3.03810E+01 0.00000E+00
 -1       295 4.97080E+01 2.89903E+01 0.00000E+00
 -1       296 4.85365E+01 2.77323E+01 0.00000E+00
 -1       297 4.69118E+01 2.70070E+01 0.00000E+00
 -1       298 4.51786E+01 2.65580E+01 0.00000E+00
 -1       299 4.34323E+01 2.64086E+01 0.00000E+00
 -1       300 4.16828E+01 2.65567E+01 0.00000E+00
 -1       301 3.98266E+01 2.69771E+01 0.00000E+00
 -1       302 3.83876E+01 2.81979E+01 0.00000E+00
 -1       303 3.72149E+01 2.95137E+01 0.00000E+00
 -1       304 3.62989E+01 3.09503E+01 0.00000E+00
 -1       305 3.57152E+01 3.25247E+01 0.00000E+00
 -1       306 3.52948E+01 3.42536E+01 0.00000E+00
 -1       307 3.53386E+01 3.60808E+01 0.00000E+00
 -1       308 3.60602E+01 3.76799E+01 0.00000E+00
 -1       309 3.68631E+01 3.91686E+01 0.00000E+00
 -1       310 3.78979E+01 4.06369E+01 0.00000E+00
 -1       311 3.94872E+01 4.16192E+01 0.00000E+00
 -1       312 4.10891E+01 4.23528E+01 0.00000E+00
 -1       313 4.27488E+01 4.27884E+01 0.00000E+00
 -1       314 4.45389E+01 4.26983E+01 0.00000E+00
 -1       315 4.64031E+01 4.24352E+01 0.00000E+00
 -1       316 4.80151E+01 4.14710E+01 0.00000E+00
 -1       317 4.94200E+01 4.03388E+01 0.00000E+00
 -1       318 5.05522E+01 3.89103E+01 0.00000E+00
 -1       319 5.13311E+01 3.73057E+01 0.00000E+00
 -1       320 5.19018E+01 3.55506E+01 0.00000E+00
 -1       321 5.19600E+00 4.11500E+01 0.00000E+00
 -1       322 5.19600E+00 4.41000E+01 0.00000E+00
 -1       323 5.19600E+00 3.52750E+01 0.00000E+00
 -1       324 5.19600E+00 3.23250E+01 0.00000E+00
 -1       325 5.19600E+00 2.93750E+01 0.00000E+00
 -1       326 5.19600E+00 2.64250E+01 0.00000E+00
 -1       327 5.19600E+00 2.34750E+01 0.00000E+00
 -1       328 5.19600E+00 2.05250E+01 0.00000E+00
 -1       329 5.19600E+00 1.76250E+01 0.00000E+00
 -1       330 5.19600E+00 1.46750E+01 0.00000E+00
 -1       331 5.19600E+00 1.17250E+01 0.00000E+00
 -1       332 5.19600E+00 8.77500E+00 0.00000E+00
 -1       333 5.19600E+00 5.82500E+00 0.00000E+00
 -1       334 5.53500E+00 4.00625E+00 0.00000E+00
 -1       335 8.53500E+00 4.00625E+00 0.00000E+00
 -1       336 9.15000E+00 4.48040E+01 0.00000E+00
 -1       337 1.21500E+01 4.48040E+01 0.00000E+00
 -1       338 1.51500E+01 4.48040E+01 0.00000E+00
 -1       339 1.81500E+01 4.48040E+01 0.00000E+00
 -1       340 2.11500E+01 4.48040E+01 0.00000E+00
 -1       341 2.41500E+01 4.48040E+01 0.00000E+00
 -1       342 2.71500E+01 4.48040E+01 0.00000E+00
 -1       343 3.01500E+01 4.48040E+01 0.00000E+00
 -1       344 3.31500E+01 4.48040E+01 0.00000E+00
 -1       345 3.61500E+01 4.48040E+01 0.00000E+00
 -1       346 3.88500E+01 4.48040E+01 0.00000E+00
 -1       347 4.18500E+01 4.53517E+01 0.00000E+00
 -1       348 4.47750E+01 4.51842E+01 0.00000E+00
 -1       349 4.77000E+01 4.51842E+01 0.00000E+00
 -1       350 5.07000E+01 4.50166E+01 0.00000E+00
 -1       351 5.37000E+01 4.50166E+01 0.00000E+00
 -1       352 5.67000E+01 4.50166E+01 0.00000E+00
 -1       353 5.97000E+01 4.50166E+01 0.00000E+00
 -1       354 6.27000E+01 4.50166E+01 0.00000E+00
 -1       355 6.58500E+01 4.50166E+01 0.00000E+00
 -1       356 6.88500E+01 4.50166E+01 0.00000E+00
 -1       357 7.18500E+01 4.50166E+01 0.00000E+00
 -1       358 7.48500E+01 4.50166E+01 0.00000E+00
 -1       359 7.78500E+01 4.50166E+01 0.00000E+00
 -1       360 8.08500E+01 4.50166E+01 0.00000E+00
 -1       361 8.38500E+01 4.50166E+01 0.00000E+00
 -1       362 8.68500E+01 4.50166E+01 0.00000E+00
 -1       363 8.98500E+01 4.50166E+01 0.00000E+00
 -1       364 9.28500E+01 4.50166E+01 0.00000E+00
 -1       365 9.58500E+01 4.50166E+01 0.00000E+00
 -1       366 9.88500E+01 4.50166E+01 0.00000E+00
 -1       367 1.01850E+02 4.50166E+01 0.00000E+00
 -1       368 1.04850E+02 4.50166E+01 0.00000E+00
 -1       369 1.08000E+02 4.50166E+01 0.00000E+00
 -1       370 1.11000E+02 4.50166E+01 0.00000E+00
 -1       371 1.14000E+02 4.50166E+01 0.00000E+00
 -1       372 1.17000E+02 4.50166E+01 0.00000E+00
 -1       373 1.20000E+02 4.50166E+01 0.00000E+00
 -1       374 1.23000E+02 4.50166E+01 0.00000E+00
 -1       375 1.26000E+02 4.50166E+01 0.00000E+00
 -1       376 1.29000E+02 4.50166E+01 0.00000E+00
 -1       377 1.32000E+02 4.50166E+01 0.00000E+00
 -1       378 1.35000E+02 4.50166E+01 0.00000E+00
 -1       379 1.38000E+02 4.50166E+01 0.00000E+00
 -1       380 1.41000E+02 4.50166E+01 0.00000E+00
 -1       381 1.44000E+02 4.50166E+01 0.00000E+00
 -1       382 1.33740E+01 4.78550E+00 0.00000E+00
 -1       383 1.63740E+01 4.78550E+00 0.00000E+00
 -1       384 1.93740E+01 4.78550E+00 0.00000E+00
 -1       385 2.23740E+01 4.78550E+00 0.00000E+00
 -1       386 2.53740E+01 4.78550E+00 0.00000E+00
 -1       387 2.83740E+01 4.78550E+00 0.00000E+00
 -1       388 3.13740E+01 4.78550E+00 0.00000E+00
 -1       389 3.43740E+01 4.78550E+00 0.00000E+00
 -1       390 3.73740E+01 4.78550E+00 0.00000E+00
 -1       391 4.03740E+01 4.78550E+00 0.00000E+00
 -1       392 4.33740E+01 4.78550E+00 0.00000E+00
 -1       393 4.63740E+01 4.78550E+00 0.00000E+00
 -1       394 4.93740E+01 4.78550E+00 0.00000E+00
 -1       395 5.23740E+01 4.78550E+00 0.00000E+00
 -1       396 5.53740E+01 4.78550E+00 0.00000E+00
 -1       397 5.83740E+01 4.78550E+00 0.00000E+00
 -1       398 6.13740E+01 4.78550E+00 0.00000E+00
 -1       399 6.43740E+01 4.78550E+00 0.00000E+00
 -1       400 6.73740E+01 4.78550E+00 0.00000E+00
 -1       401 7.03740E+01 4.78550E+00 0.00000E+00
 -1       402 7.33740E+01 4.78550E+00 0.00000E+00
 -1       403 7.63740E+01 4.78550E+00 0.00000E+00
 -1       404 7.93740E+01 4.78550E+00 0.00000E+00
 -1       405 8.23740E+01 4.78550E+00 0.00000E+00
 -1       406 8.53740E+01 4.78550E+00 0.00000E+00
 -1       407 8.83740E+01 4.78550E+00 0.00000E+00
 -1       408 9.13740E+01 4.78550E+00 0.00000E+00
 -1       409 9.43740E+01 4.78550E+00 0.00000E+00
 -1       410 9.73740E+01 4.78550E+00 0.00000E+00
 -1       411 1.00374E+02 4.78550E+00 0.00000E+00
 -1       412 1.03374E+02 4.78550E+00 0.00000E+00
 -1       413 1.06374E+02 4.78550E+00 0.00000E+00
 -1       414 1.09374E+02 4.78550E+00 0.00000E+00
 -1       415 1.12374E+02 4.78550E+00 0.00000E+00
 -1       416 1.15374E+02 4.78550E+00 0.00000E+00
 -1       417 1.18374E+02 4.78550E+00 0.00000E+00
 -1       418 1.21374E+02 4.78550E+00 0.00000E+00
 -1       419 1.24374E+02 4.78550E+00 0.00000E+00
 -1       420 1.27374E+02 4.78550E+00 0.00000E+00
 -1       421 1.30374E+02 4.78550E+00 0.00000E+00
 -1       422 1.33374E+02 4.78550E+00 0.00000E+00
 -1       423 1.36374E+02 4.78550E+00 0.00000E+00
 -1       424 1.39374E+02 4.78550E+00 0.00000E+00
 -1       425 1.42374E+02 4.78550E+00 0.00000E+00
 -1       426 1.44888E+02 4.60525E+00 0.00000E+00
 -1       427 1.44804E+02 1.18000E+01 0.00000E+00
 -1       428 1.44804E+02 8.85000E+00 0.00000E+00
 -1       429 1.44804E+02 1.47000E+01 0.00000E+00
 -1       430 1.44804E+02 1.76500E+01 0.00000E+00
 -1       431 1.44804E+02 2.06000E+01 0.00000E+00
 -1       432 1.44804E+02 2.35500E+01 0.00000E+00
 -1       433 1.44804E+02 2.65000E+01 0.00000E+00
 -1       434 1.44804E+02 2.94500E+01 0.00000E+00
 -1       435 1.44804E+02 3.23500E+01 0.00000E+00
 -1       436 1.44804E+02 3.53000E+01 0.00000E+00
 -1       437 1.44804E+02 3.82500E+01 0.00000E+00
 -1       438 1.44804E+02 4.12000E+01 0.00000E+00
 -1       439 1.09545E+01 4.39587E+00 0.00000E+00
 -1       440 5.22385E+01 3.04174E+01 0.00000E+00
 -1       441 5.01321E+01 2.74208E+01 0.00000E+00
 -1       442 5.31248E+01 3.45576E+01 0.00000E+00
 -1       443 5.13206E+01 2.89165E+01 0.00000E+00
 -1       444 5.19600E+00 3.82125E+01 0.00000E+00
 -1       445 4.83550E+01 2.59565E+01 0.00000E+00
 -1       446 4.64544E+01 2.52033E+01 0.00000E+00
 -1       447 4.44373E+01 2.49414E+01 0.00000E+00
 -1       448 4.24412E+01 2.51076E+01 0.00000E+00
 -1       449 4.03758E+01 2.50941E+01 0.00000E+00
 -1       450 3.81059E+01 2.64075E+01 0.00000E+00
 -1       451 3.67711E+01 2.79376E+01 0.00000E+00
 -1       452 3.53814E+01 2.93549E+01 0.00000E+00
 -1       453 3.47917E+01 3.12870E+01 0.00000E+00
 -1       454 3.41641E+01 3.30632E+01 0.00000E+00
 -1       455 3.37696E+01 3.52043E+01 0.00000E+00
 -1       456 3.42125E+01 3.75513E+01 0.00000E+00
 -1       457 3.53208E+01 3.90396E+01 0.00000E+00
 -1       458 3.61156E+01 4.07943E+01 0.00000E+00
 -1       459 3.77908E+01 4.25870E+01 0.00000E+00
 -1       460 4.15261E+01 4.40675E+01 0.00000E+00
 -1       461 4.37174E+01 4.42053E+01 0.00000E+00
 -1       462 4.78745E+01 4.30655E+01 0.00000E+00
 -1       463 4.97411E+01 4.21751E+01 0.00000E+00
 -1       464 5.11989E+01 4.05858E+01 0.00000E+00
 -1       465 5.21077E+01 3.86740E+01 0.00000E+00
 -1       466 5.29288E+01 3.68550E+01 0.00000E+00
 -1       467 5.30594E+01 3.27129E+01 0.00000E+00
 -1       468 5.36001E+01 3.12099E+01 0.00000E+00
 -1       469 5.41517E+01 3.58619E+01 0.00000E+00
 -1       470 3.99242E+01 4.33339E+01 0.00000E+00
 -1       471 4.65954E+01 4.40189E+01 0.00000E+00
 -1       472 4.51564E+01 4.41121E+01 0.00000E+00
 -1       473 7.79400E+00 3.08500E+01 0.00000E+00
 -1       474 7.79400E+00 3.38000E+01 0.00000E+00
 -1       475 7.79400E+00 2.49500E+01 0.00000E+00
 -1       476 7.79400E+00 2.20000E+01 0.00000E+00
 -1       477 7.79400E+00 1.91000E+01 0.00000E+00
 -1       478 7.79400E+00 1.61500E+01 0.00000E+00
 -1       479 7.79400E+00 1.32000E+01 0.00000E+00
 -1       480 7.79400E+00 1.02500E+01 0.00000E+00
 -1       481 7.79400E+00 7.30000E+00 0.00000E+00
 -1       482 8.16450E+00 5.65312E+00 0.00000E+00
 -1       483 1.06500E+01 4.22060E+01 0.00000E+00
 -1       484 1.36500E+01 4.22060E+01 0.00000E+00
 -1       485 1.66500E+01 4.22060E+01 0.00000E+00
 -1       486 1.96500E+01 4.22060E+01 0.00000E+00
 -1       487 2.26500E+01 4.22060E+01 0.00000E+00
 -1       488 2.56500E+01 4.22060E+01 0.00000E+00
 -1       489 2.86500E+01 4.22060E+01 0.00000E+00
 -1       490 3.16500E+01 4.22060E+01 0.00000E+00
 -1       491 5.32427E+01 2.87722E+01 0.00000E+00
 -1       492 5.52000E+01 4.26312E+01 0.00000E+00
 -1       493 5.82000E+01 4.26312E+01 0.00000E+00
 -1       494 6.12000E+01 4.26312E+01 0.00000E+00
 -1       495 6.43500E+01 4.26312E+01 0.00000E+00
 -1       496 6.73500E+01 4.26312E+01 0.00000E+00
 -1       497 7.03500E+01 4.26312E+01 0.00000E+00
 -1       498 7.33500E+01 4.26312E+01 0.00000E+00
 -1       499 7.63500E+01 4.26312E+01 0.00000E+00
 -1       500 7.93500E+01 4.26312E+01 0.00000E+00
 -1       501 8.23500E+01 4.26312E+01 0.00000E+00
 -1       502 8.53500E+01 4.26312E+01 0.00000E+00
 -1       503 8.83500E+01 4.26312E+01 0.00000E+00
 -1       504 9.13500E+01 4.26312E+01 0.00000E+00
 -1       505 9.43500E+01 4.26312E+01 0.00000E+00
 -1       506 9.73500E+01 4.26312E+01 0.00000E+00
 -1       507 1.00350E+02 4.26312E+01 0.00000E+00
 -1       508 1.03350E+02 4.26312E+01 0.00000E+00
 -1       509 1.06500E+02 4.26312E+01 0.00000E+00
 -1       510 1.09500E+02 4.26312E+01 0.00000E+00
 -1       511 1.12500E+02 4.26312E+01 0.00000E+00
 -1       512 1.15500E+02 4.26312E+01 0.00000E+00
 -1       513 1.18500E+02 4.26312E+01 0.00000E+00
 -1       514 1.21500E+02 4.26312E+01 0.00000E+00
 -1       515 1.24500E+02 4.26312E+01 0.00000E+00
 -1       516 1.27500E+02 4.26312E+01 0.00000E+00
 -1       517 1.30500E+02 4.26312E+01 0.00000E+00
 -1       518 1.33500E+02 4.26312E+01 0.00000E+00
 -1       519 1.36500E+02 4.26312E+01 0.00000E+00
 -1       520 1.39500E+02 4.26312E+01 0.00000E+00
 -1       521 1.42152E+02 4.19156E+01 0.00000E+00
 -1       522 2.08740E+01 7.38350E+00 0.00000E+00
 -1       523 1.78740E+01 7.38350E+00 0.00000E+00
 -1       524 1.48740E+01 7.38350E+00 0.00000E+00
 -1       525 2.38740E+01 7.38350E+00 0.00000E+00
 -1       526 2.68740E+01 7.38350E+00 0.00000E+00
 -1       527 2.98740E+01 7.38350E+00 0.00000E+00
 -1       528 3.28740E+01 7.38350E+00 0.00000E+00
 -1       529 3.58740E+01 7.38350E+00 0.00000E+00
 -1       530 3.88740E+01 7.38350E+00 0.00000E+00
 -1       531 4.18740E+01 7.38350E+00 0.00000E+00
 -1       532 4.48740E+01 7.38350E+00 0.00000E+00
 -1       533 4.78740E+01 7.38350E+00 0.00000E+00
 -1       534 5.08740E+01 7.38350E+00 0.00000E+00
 -1       535 5.38740E+01 7.38350E+00 0.00000E+00
 -1       536 5.68740E+01 7.38350E+00 0.00000E+00
 -1       537 5.98740E+01 7.38350E+00 0.00000E+00
 -1       538 6.28740E+01 7.38350E+00 0.00000E+00
 -1       539 6.58740E+01 7.38350E+00 0.00000E+00
 -1       540 6.88740E+01 7.38350E+00 0.00000E+00
 -1       541 7.18740E+01 7.38350E+00 0.00000E+00
 -1       542 7.48740E+01 7.38350E+00 0.00000E+00
 -1       543 7.78740E+01 7.38350E+00 0.00000E+00
 -1       544 8.08740E+01 7.38350E+00 0.00000E+00
 -1       545 8.38740E+01 7.38350E+00 0.00000E+00
 -1       546 8.68740E+01 7.38350E+00 0.00000E+00
 -1       547 8.98740E+01 7.38350E+00 0.00000E+00
 -1       548 9.28740E+01 7.38350E+00 0.00000E+00
 -1       549 9.58740E+01 7.38350E+00 0.00000E+00
 -1       550 9.88740E+01 7.38350E+00 0.00000E+00
 -1       551 1.01874E+02 7.38350E+00 0.00000E+00
 -1       552 1.04874E+02 7.38350E+00 0.00000E+00
 -1       553 1.07874E+02 7.38350E+00 0.00000E+00
 -1       554 1.10874E+02 7.38350E+00 0.00000E+00
 -1       555 1.13874E+02 7.38350E+00 0.00000E+00
 -1       556 1.16874E+02 7.38350E+00 0.00000E+00
 -1       557 1.19874E+02 7.38350E+00 0.00000E+00
 -1       558 1.22874E+02 7.38350E+00 0.00000E+00
 -1       559 1.25874E+02 7.38350E+00 0.00000E+00
 -1       560 1.28874E+02 7.38350E+00 0.00000E+00
 -1       561 1.31874E+02 7.38350E+00 0.00000E+00
 -1       562 1.34874E+02 7.38350E+00 0.00000E+00
 -1       563 1.37874E+02 7.38350E+00 0.00000E+00
 -1       564 1.40874E+02 7.38350E+00 0.00000E+00
 -1       565 1.42206E+02 1.61750E+01 0.00000E+00
 -1       566 1.42206E+02 1.32750E+01 0.00000E+00
 -1       567 1.42206E+02 1.03250E+01 0.00000E+00
 -1       568 1.42206E+02 1.91250E+01 0.00000E+00
 -1       569 1.42206E+02 2.20750E+01 0.00000E+00
 -1       570 1.42206E+02 2.50250E+01 0.00000E+00
 -1       571 1.42206E+02 2.79750E+01 0.00000E+00
 -1       572 1.42206E+02 3.08750E+01 0.00000E+00
 -1       573 1.42206E+02 3.38250E+01 0.00000E+00
 -1       574 1.42206E+02 3.67750E+01 0.00000E+00
 -1       575 1.42179E+02 3.93453E+01 0.00000E+00
 -1       576 7.92300E+00 4.16780E+01 0.00000E+00
 -1       577 5.20543E+01 2.72764E+01 0.00000E+00
 -1       578 5.05473E+01 2.51063E+01 0.00000E+00
 -1       579 5.38524E+01 3.83667E+01 0.00000E+00
 -1       580 5.22000E+01 4.27988E+01 0.00000E+00
 -1       581 7.79400E+00 2.79000E+01 0.00000E+00
 -1       582 4.57099E+01 2.30392E+01 0.00000E+00
 -1       583 4.79439E+01 2.42191E+01 0.00000E+00
 -1       584 4.32969E+01 2.33153E+01 0.00000E+00
 -1       585 4.12316E+01 2.33018E+01 0.00000E+00
 -1       586 3.82141E+01 2.39762E+01 0.00000E+00
 -1       587 3.61461E+01 2.60451E+01 0.00000E+00
 -1       588 3.47563E+01 2.74624E+01 0.00000E+00
 -1       589 3.34461E+01 2.98202E+01 0.00000E+00
 -1       590 3.28186E+01 3.15964E+01 0.00000E+00
 -1       591 3.23625E+01 3.38381E+01 0.00000E+00
 -1       592 3.23057E+01 3.66958E+01 0.00000E+00
 -1       593 3.33911E+01 3.93199E+01 0.00000E+00
 -1       594 3.41859E+01 4.10746E+01 0.00000E+00
 -1       595 3.55776E+01 4.29760E+01 0.00000E+00
 -1       596 4.94740E+01 4.40171E+01 0.00000E+00
 -1       597 5.29753E+01 4.02584E+01 0.00000E+00
 -1       598 5.45549E+01 3.35834E+01 0.00000E+00
 -1       599 7.79400E+00 3.67375E+01 0.00000E+00
 -1       600 1.05840E+01 6.04275E+00 0.00000E+00
 -1       601 5.50956E+01 3.20803E+01 0.00000E+00
 -1       602 1.27290E+01 6.71313E+00 0.00000E+00
 -1       603 5.50754E+01 3.73736E+01 0.00000E+00
 -1       604 1.03920E+01 2.05500E+01 0.00000E+00
 -1       605 1.03920E+01 2.35000E+01 0.00000E+00
 -1       606 1.03920E+01 1.46750E+01 0.00000E+00
 -1       607 1.03920E+01 1.17250E+01 0.00000E+00
 -1       608 1.02135E+01 7.68962E+00 0.00000E+00
 -1       609 1.21500E+01 3.96080E+01 0.00000E+00
 -1       610 1.51500E+01 3.96080E+01 0.00000E+00
 -1       611 1.81500E+01 3.96080E+01 0.00000E+00
 -1       612 2.11500E+01 3.96080E+01 0.00000E+00
 -1       613 2.41500E+01 3.96080E+01 0.00000E+00
 -1       614 2.71500E+01 3.96080E+01 0.00000E+00
 -1       615 3.01500E+01 3.96080E+01 0.00000E+00
 -1       616 5.67000E+01 4.00332E+01 0.00000E+00
 -1       617 5.97000E+01 4.00332E+01 0.00000E+00
 -1       618 6.28500E+01 4.00332E+01 0.00000E+00
 -1       619 6.58500E+01 4.00332E+01 0.00000E+00
 -1       620 6.88500E+01 4.00332E+01 0.00000E+00
 -1       621 7.18500E+01 4.00332E+01 0.00000E+00
 -1       622 7.48500E+01 4.00332E+01 0.00000E+00
 -1       623 7.78500E+01 4.00332E+01 0.00000E+00
 -1       624 8.08500E+01 4.00332E+01 0.00000E+00
 -1       625 8.38500E+01 4.00332E+01 0.00000E+00
 -1       626 8.68500E+01 4.00332E+01 0.00000E+00
 -1       627 8.98500E+01 4.00332E+01 0.00000E+00
 -1       628 9.28500E+01 4.00332E+01 0.00000E+00
 -1       629 9.58500E+01 4.00332E+01 0.00000E+00
 -1       630 9.88500E+01 4.00332E+01 0.00000E+00
 -1       631 1.01850E+02 4.00332E+01 0.00000E+00
 -1       632 1.05000E+02 4.00332E+01 0.00000E+00
 -1       633 1.08000E+02 4.00332E+01 0.00000E+00
 -1       634 1.11000E+02 4.00332E+01 0.00000E+00
 -1       635 1.14000E+02 4.00332E+01 0.00000E+00
 -1       636 1.17000E+02 4.00332E+01 0.00000E+00
 -1       637 1.20000E+02 4.00332E+01 0.00000E+00
 -1       638 1.23000E+02 4.00332E+01 0.00000E+00
 -1       639 1.26000E+02 4.00332E+01 0.00000E+00
 -1       640 1.29000E+02 4.00332E+01 0.00000E+00
 -1       641 1.32000E+02 4.00332E+01 0.00000E+00
 -1       642 1.35000E+02 4.00332E+01 0.00000E+00
 -1       643 1.38000E+02 4.00332E+01 0.00000E+00
 -1       644 1.40089E+02 3.96893E+01 0.00000E+00
 -1       645 1.93740E+01 9.98150E+00 0.00000E+00
 -1       646 2.23740E+01 9.98150E+00 0.00000E+00
 -1       647 1.63740E+01 9.98150E+00 0.00000E+00
 -1       648 2.83740E+01 9.98150E+00 0.00000E+00
 -1       649 3.13740E+01 9.98150E+00 0.00000E+00
 -1       650 3.43740E+01 9.98150E+00 0.00000E+00
 -1       651 3.73740E+01 9.98150E+00 0.00000E+00
 -1       652 4.03740E+01 9.98150E+00 0.00000E+00
 -1       653 4.33740E+01 9.98150E+00 0.00000E+00
 -1       654 4.63740E+01 9.98150E+00 0.00000E+00
 -1       655 4.93740E+01 9.98150E+00 0.00000E+00
 -1       656 5.23740E+01 9.98150E+00 0.00000E+00
 -1       657 5.53740E+01 9.98150E+00 0.00000E+00
 -1       658 5.83740E+01 9.98150E+00 0.00000E+00
 -1       659 6.13740E+01 9.98150E+00 0.00000E+00
 -1       660 6.43740E+01 9.98150E+00 0.00000E+00
 -1       661 6.73740E+01 9.98150E+00 0.00000E+00
 -1       662 7.03740E+01 9.98150E+00 0.00000E+00
 -1       663 7.33740E+01 9.98150E+00 0.00000E+00
 -1       664 7.63740E+01 9.98150E+00 0.00000E+00
 -1       665 7.93740E+01 9.98150E+00 0.00000E+00
 -1       666 8.23740E+01 9.98150E+00 0.00000E+00
 -1       667 8.53740E+01 9.98150E+00 0.00000E+00
 -1       668 8.83740E+01 9.98150E+00 0.00000E+00
 -1       669 9.13740E+01 9.98150E+00 0.00000E+00
 -1       670 9.43740E+01 9.98150E+00 0.00000E+00
 -1       671 9.73740E+01 9.98150E+00 0.00000E+00
 -1       672 1.00374E+02 9.98150E+00 0.00000E+00
 -1       673 1.03374E+02 9.98150E+00 0.00000E+00
 -1       674 1.06374E+02 9.98150E+00 0.00000E+00
 -1       675 1.09374E+02 9.98150E+00 0.00000E+00
 -1       676 1.12374E+02 9.98150E+00 0.00000E+00
 -1       677 1.15374E+02 9.98150E+00 0.00000E+00
 -1       678 1.18374E+02 9.98150E+00 0.00000E+00
 -1       679 1.21374E+02 9.98150E+00 0.00000E+00
 -1       680 1.24374E+02 9.98150E+00 0.00000E+00
 -1       681 1.27374E+02 9.98150E+00 0.00000E+00
 -1       682 1.30374E+02 9.98150E+00 0.00000E+00
 -1       683 1.33374E+02 9.98150E+00 0.00000E+00
 -1       684 1.36374E+02 9.98150E+00 0.00000E+00
 -1       685 1.39290E+02 1.01532E+01 0.00000E+00
 -1       686 1.39608E+02 2.06000E+01 0.00000E+00
 -1       687 5.52842E+01 2.97179E+01 0.00000E+00
 -1       688 1.39608E+02 1.76500E+01 0.00000E+00
 -1       689 1.39290E+02 1.31032E+01 0.00000E+00
 -1       690 1.39608E+02 2.35500E+01 0.00000E+00
 -1       691 1.03920E+01 3.23250E+01 0.00000E+00
 -1       692 1.39608E+02 2.65000E+01 0.00000E+00
 -1       693 1.39608E+02 2.94000E+01 0.00000E+00
 -1       694 1.39608E+02 3.23500E+01 0.00000E+00
 -1       695 1.39608E+02 3.53000E+01 0.00000E+00
 -1       696 4.97989E+01 2.30393E+01 0.00000E+00
 -1       697 1.03920E+01 1.76125E+01 0.00000E+00
 -1       698 4.75648E+01 2.18593E+01 0.00000E+00
 -1       699 3.11087E+01 3.87275E+01 0.00000E+00
 -1       700 3.92392E+01 2.14746E+01 0.00000E+00
 -1       701 5.28472E+01 2.51175E+01 0.00000E+00
 -1       702 5.40356E+01 2.66133E+01 0.00000E+00
 -1       703 5.49698E+01 4.00340E+01 0.00000E+00
 -1       704 3.58485E+01 2.36796E+01 0.00000E+00
 -1       705 4.22765E+01 2.14259E+01 0.00000E+00
 -1       706 3.02843E+01 3.52262E+01 0.00000E+00
 -1       707 3.41069E+01 2.54356E+01 0.00000E+00
 -1       708 3.23091E+01 2.76454E+01 0.00000E+00
 -1       709 3.13572E+01 3.00811E+01 0.00000E+00
 -1       710 3.09012E+01 3.23228E+01 0.00000E+00
 -1       711 2.53740E+01 9.98150E+00 0.00000E+00
 -1       712 4.46895E+01 2.11498E+01 0.00000E+00
 -1       713 1.39449E+02 1.53766E+01 0.00000E+00
 -1       714 5.58772E+01 3.49923E+01 0.00000E+00
 -1       715 1.03920E+01 2.64500E+01 0.00000E+00
 -1       716 5.64179E+01 3.34892E+01 0.00000E+00
 -1       717 2.90873E+01 3.72578E+01 0.00000E+00
 -1       718 1.03920E+01 3.52625E+01 0.00000E+00
 -1       719 5.60771E+01 2.75590E+01 0.00000E+00
 -1       720 1.03920E+01 2.93875E+01 0.00000E+00
 -1       721 1.05210E+01 3.87342E+01 0.00000E+00
 -1       722 1.39849E+02 3.74946E+01 0.00000E+00
 -1       723 1.33741E+01 9.98153E+00 0.00000E+00
 -1       724 5.20988E+01 2.30505E+01 0.00000E+00
 -1       725 3.68736E+01 2.11780E+01 0.00000E+00
 -1       726 5.58877E+01 3.87034E+01 0.00000E+00
 -1       727 1.29900E+01 2.20250E+01 0.00000E+00
 -1       728 1.29900E+01 1.32000E+01 0.00000E+00
 -1       729 2.84233E+01 3.33135E+01 0.00000E+00
 -1       730 3.20143E+01 3.96149E+01 0.00000E+00
 -1       731 1.27710E+01 3.74352E+01 0.00000E+00
 -1       732 5.70666E+01 3.10489E+01 0.00000E+00
 -1       733 1.66500E+01 3.70100E+01 0.00000E+00
 -1       734 1.96500E+01 3.70100E+01 0.00000E+00
 -1       735 2.26500E+01 3.70100E+01 0.00000E+00
 -1       736 2.56500E+01 3.70100E+01 0.00000E+00
 -1       737 6.12750E+01 3.74352E+01 0.00000E+00
 -1       738 6.42750E+01 3.74352E+01 0.00000E+00
 -1       739 6.72750E+01 3.74352E+01 0.00000E+00
 -1       740 7.02750E+01 3.74352E+01 0.00000E+00
 -1       741 7.32750E+01 3.74352E+01 0.00000E+00
 -1       742 7.62750E+01 3.74352E+01 0.00000E+00
 -1       743 7.92750E+01 3.74352E+01 0.00000E+00
 -1       744 8.22750E+01 3.74352E+01 0.00000E+00
 -1       745 8.52750E+01 3.74352E+01 0.00000E+00
 -1       746 8.82750E+01 3.74352E+01 0.00000E+00
 -1       747 9.12750E+01 3.74352E+01 0.00000E+00
 -1       748 9.42750E+01 3.74352E+01 0.00000E+00
 -1       749 9.72750E+01 3.74352E+01 0.00000E+00
 -1       750 1.00275E+02 3.74352E+01 0.00000E+00
 -1       751 1.03425E+02 3.74352E+01 0.00000E+00
 -1       752 1.06425E+02 3.74352E+01 0.00000E+00
 -1       753 1.09425E+02 3.74352E+01 0.00000E+00
 -1       754 1.12425E+02 3.74352E+01 0.00000E+00
 -1       755 1.15425E+02 3.74352E+01 0.00000E+00
 -1       756 1.18425E+02 3.74352E+01 0.00000E+00
 -1       757 1.21425E+02 3.74352E+01 0.00000E+00
 -1       758 1.24425E+02 3.74352E+01 0.00000E+00
 -1       759 1.27425E+02 3.74352E+01 0.00000E+00
 -1       760 1.30425E+02 3.74352E+01 0.00000E+00
 -1       761 1.33425E+02 3.74352E+01 0.00000E+00
 -1       762 1.36425E+02 3.74352E+01 0.00000E+00
 -1       763 4.32499E+01 1.92509E+01 0.00000E+00
 -1       764 2.08740E+01 1.25795E+01 0.00000E+00
 -1       765 1.78740E+01 1.25795E+01 0.00000E+00
 -1       766 3.28740E+01 1.25795E+01 0.00000E+00
 -1       767 2.98740E+01 1.25795E+01 0.00000E+00
 -1       768 3.88740E+01 1.25795E+01 0.00000E+00
 -1       769 4.18740E+01 1.25795E+01 0.00000E+00
 -1       770 4.48740E+01 1.25795E+01 0.00000E+00
 -1       771 4.78740E+01 1.25795E+01 0.00000E+00
 -1       772 5.08740E+01 1.25795E+01 0.00000E+00
 -1       773 5.38740E+01 1.25795E+01 0.00000E+00
 -1       774 5.68740E+01 1.25795E+01 0.00000E+00
 -1       775 5.98740E+01 1.25795E+01 0.00000E+00
 -1       776 6.28740E+01 1.25795E+01 0.00000E+00
 -1       777 6.58740E+01 1.25795E+01 0.00000E+00
 -1       778 6.88740E+01 1.25795E+01 0.00000E+00
 -1       779 7.18740E+01 1.25795E+01 0.00000E+00
 -1       780 7.48740E+01 1.25795E+01 0.00000E+00
 -1       781 7.78740E+01 1.25795E+01 0.00000E+00
 -1       782 8.08740E+01 1.25795E+01 0.00000E+00
 -1       783 8.38740E+01 1.25795E+01 0.00000E+00
 -1       784 8.68740E+01 1.25795E+01 0.00000E+00
 -1       785 8.98740E+01 1.25795E+01 0.00000E+00
 -1       786 9.28740E+01 1.25795E+01 0.00000E+00
 -1       787 9.58740E+01 1.25795E+01 0.00000E+00
 -1       788 9.88740E+01 1.25795E+01 0.00000E+00
 -1       789 1.01874E+02 1.25795E+01 0.00000E+00
 -1       790 1.04874E+02 1.25795E+01 0.00000E+00
 -1       791 1.07874E+02 1.25795E+01 0.00000E+00
 -1       792 1.10874E+02 1.25795E+01 0.00000E+00
 -1       793 1.13874E+02 1.25795E+01 0.00000E+00
 -1       794 1.16874E+02 1.25795E+01 0.00000E+00
 -1       795 1.19874E+02 1.25795E+01 0.00000E+00
 -1       796 1.22874E+02 1.25795E+01 0.00000E+00
 -1       797 1.25874E+02 1.25795E+01 0.00000E+00
 -1       798 1.28874E+02 1.25795E+01 0.00000E+00
 -1       799 1.31874E+02 1.25795E+01 0.00000E+00
 -1       800 1.34874E+02 1.25795E+01 0.00000E+00
 -1       801 1.37082E+02 1.28414E+01 0.00000E+00
 -1       802 1.37010E+02 2.20750E+01 0.00000E+00
 -1       803 3.32841E+01 2.28778E+01 0.00000E+00
 -1       804 1.37010E+02 2.79500E+01 0.00000E+00
 -1       805 1.37010E+02 2.50125E+01 0.00000E+00
 -1       806 1.37010E+02 3.38250E+01 0.00000E+00
 -1       807 5.53090E+01 2.43815E+01 0.00000E+00
 -1       808 4.66585E+01 1.93513E+01 0.00000E+00
 -1       809 4.02125E+01 1.92995E+01 0.00000E+00
 -1       810 4.95611E+01 2.07846E+01 0.00000E+00
 -1       811 2.96114E+01 2.79950E+01 0.00000E+00
 -1       812 1.37010E+02 3.08875E+01 0.00000E+00
 -1       813 2.90174E+01 3.06543E+01 0.00000E+00
 -1       814 1.37010E+02 1.91250E+01 0.00000E+00
 -1       815 3.58740E+01 1.25795E+01 0.00000E+00
 -1       816 5.82750E+01 3.74352E+01 0.00000E+00
 -1       817 3.14863E+01 2.50877E+01 0.00000E+00
 -1       818 5.72605E+01 3.67838E+01 0.00000E+00
 -1       819 1.29900E+01 1.61375E+01 0.00000E+00
 -1       820 2.72264E+01 3.53452E+01 0.00000E+00
 -1       821 5.45606E+01 2.23144E+01 0.00000E+00
 -1       822 1.29900E+01 3.37938E+01 0.00000E+00
 -1       823 5.18610E+01 2.07958E+01 0.00000E+00
 -1       824 2.68740E+01 1.25795E+01 0.00000E+00
 -1       825 1.37241E+02 1.51147E+01 0.00000E+00
 -1       826 3.43091E+01 2.03762E+01 0.00000E+00
 -1       827 1.29900E+01 3.08563E+01 0.00000E+00
 -1       828 1.48741E+01 1.25795E+01 0.00000E+00
 -1       829 3.78470E+01 1.90030E+01 0.00000E+00
 -1       830 1.29900E+01 1.90812E+01 0.00000E+00
 -1       831 2.38740E+01 1.25795E+01 0.00000E+00
 -1       832 5.78012E+01 3.52807E+01 0.00000E+00
 -1       833 1.37126E+02 1.71199E+01 0.00000E+00
 -1       834 1.29900E+01 2.49750E+01 0.00000E+00
 -1       835 5.78595E+01 2.88900E+01 0.00000E+00
 -1       836 5.84499E+01 3.28403E+01 0.00000E+00
 -1       837 2.11500E+01 3.44120E+01 0.00000E+00
 -1       838 2.41500E+01 3.44120E+01 0.00000E+00
 -1       839 6.27750E+01 3.50498E+01 0.00000E+00
 -1       840 3.05348E+01 2.24773E+01 0.00000E+00
 -1       841 6.57750E+01 3.50498E+01 0.00000E+00
 -1       842 6.87750E+01 3.50498E+01 0.00000E+00
 -1       843 7.17750E+01 3.50498E+01 0.00000E+00
 -1       844 7.47750E+01 3.50498E+01 0.00000E+00
 -1       845 7.77750E+01 3.50498E+01 0.00000E+00
 -1       846 8.07750E+01 3.50498E+01 0.00000E+00
 -1       847 8.37750E+01 3.50498E+01 0.00000E+00
 -1       848 8.67750E+01 3.50498E+01 0.00000E+00
 -1       849 8.97750E+01 3.50498E+01 0.00000E+00
 -1       850 9.27750E+01 3.50498E+01 0.00000E+00
 -1       851 9.57750E+01 3.50498E+01 0.00000E+00
 -1       852 9.87750E+01 3.50498E+01 0.00000E+00
 -1       853 1.01925E+02 3.50498E+01 0.00000E+00
 -1       854 1.04925E+02 3.50498E+01 0.00000E+00
 -1       855 1.07925E+02 3.50498E+01 0.00000E+00
 -1       856 1.10925E+02 3.50498E+01 0.00000E+00
 -1       857 1.13925E+02 3.50498E+01 0.00000E+00
 -1       858 1.16925E+02 3.50498E+01 0.00000E+00
 -1       859 1.19925E+02 3.50498E+01 0.00000E+00
 -1       860 1.22925E+02 3.50498E+01 0.00000E+00
 -1       861 1.25925E+02 3.50498E+01 0.00000E+00
 -1       862 1.28925E+02 3.50498E+01 0.00000E+00
 -1       863 1.31925E+02 3.50498E+01 0.00000E+00
 -1       864 1.34467E+02 3.44374E+01 0.00000E+00
 -1       865 4.33740E+01 1.51775E+01 0.00000E+00
 -1       866 4.03740E+01 1.51775E+01 0.00000E+00
 -1       867 4.93740E+01 1.51775E+01 0.00000E+00
 -1       868 5.23740E+01 1.51775E+01 0.00000E+00
 -1       869 5.53740E+01 1.51775E+01 0.00000E+00
 -1       870 5.83740E+01 1.51775E+01 0.00000E+00
 -1       871 6.13740E+01 1.51775E+01 0.00000E+00
 -1       872 6.43740E+01 1.51775E+01 0.00000E+00
 -1       873 6.73740E+01 1.51775E+01 0.00000E+00
 -1       874 7.03740E+01 1.51775E+01 0.00000E+00
 -1       875 7.33740E+01 1.51775E+01 0.00000E+00
 -1       876 7.63740E+01 1.51775E+01 0.00000E+00
 -1       877 7.93740E+01 1.51775E+01 0.00000E+00
 -1       878 8.23740E+01 1.51775E+01 0.00000E+00
 -1       879 8.53740E+01 1.51775E+01 0.00000E+00
 -1       880 8.83740E+01 1.51775E+01 0.00000E+00
 -1       881 9.13740E+01 1.51775E+01 0.00000E+00
 -1       882 9.43740E+01 1.51775E+01 0.00000E+00
 -1       883 9.73740E+01 1.51775E+01 0.00000E+00
 -1       884 1.00374E+02 1.51775E+01 0.00000E+00
 -1       885 1.03374E+02 1.51775E+01 0.00000E+00
 -1       886 1.06374E+02 1.51775E+01 0.00000E+00
 -1       887 1.09374E+02 1.51775E+01 0.00000E+00
 -1       888 1.12374E+02 1.51775E+01 0.00000E+00
 -1       889 1.15374E+02 1.51775E+01 0.00000E+00
 -1       890 1.18374E+02 1.51775E+01 0.00000E+00
 -1       891 1.21374E+02 1.51775E+01 0.00000E+00
 -1       892 1.24374E+02 1.51775E+01 0.00000E+00
 -1       893 1.27374E+02 1.51775E+01 0.00000E+00
 -1       894 1.30374E+02 1.51775E+01 0.00000E+00
 -1       895 1.33374E+02 1.51775E+01 0.00000E+00
 -1       896 1.35307E+02 1.51461E+01 0.00000E+00
 -1       897 1.29900E+01 2.79188E+01 0.00000E+00
 -1       898 2.86849E+01 2.53394E+01 0.00000E+00
 -1       899 4.90918E+01 1.80793E+01 0.00000E+00
 -1       900 4.63740E+01 1.51775E+01 0.00000E+00
 -1       901 3.13740E+01 1.51775E+01 0.00000E+00
 -1       902 1.93740E+01 1.51775E+01 0.00000E+00
 -1       903 4.16957E+01 1.70577E+01 0.00000E+00
 -1       904 5.80117E+01 2.54098E+01 0.00000E+00
 -1       905 1.34412E+02 2.06000E+01 0.00000E+00
 -1       906 1.81500E+01 3.44120E+01 0.00000E+00
 -1       907 1.48741E+01 1.55170E+01 0.00000E+00
 -1       908 1.71240E+01 1.53473E+01 0.00000E+00
 -1       909 1.55700E+01 3.26341E+01 0.00000E+00
 -1       910 5.97750E+01 3.52174E+01 0.00000E+00
 -1       911 5.13916E+01 1.80905E+01 0.00000E+00
 -1       912 5.92428E+01 3.06815E+01 0.00000E+00
 -1       913 3.15598E+01 1.99757E+01 0.00000E+00
 -1       914 5.72632E+01 2.33428E+01 0.00000E+00
 -1       915 1.55880E+01 2.35000E+01 0.00000E+00
 -1       916 2.83740E+01 1.51775E+01 0.00000E+00
 -1       917 3.73740E+01 1.51775E+01 0.00000E+00
 -1       918 2.69864E+01 2.88046E+01 0.00000E+00
 -1       919 2.23740E+01 1.51775E+01 0.00000E+00
 -1       920 1.34412E+02 2.35375E+01 0.00000E+00
 -1       921 3.52825E+01 1.82012E+01 0.00000E+00
 -1       922 1.34467E+02 3.14999E+01 0.00000E+00
 -1       923 1.34412E+02 2.64750E+01 0.00000E+00
 -1       924 2.63923E+01 3.14639E+01 0.00000E+00
 -1       925 1.55880E+01 2.05562E+01 0.00000E+00
 -1       926 3.43740E+01 1.51775E+01 0.00000E+00
 -1       927 2.52712E+01 3.29379E+01 0.00000E+00
 -1       928 1.34527E+02 1.85949E+01 0.00000E+00
 -1       929 1.34440E+02 2.89875E+01 0.00000E+00
 -1       930 5.44625E+01 1.93301E+01 0.00000E+00
 -1       931 2.26500E+01 3.20266E+01 0.00000E+00
 -1       932 5.68740E+01 1.77755E+01 0.00000E+00
 -1       933 1.52310E+01 1.80366E+01 0.00000E+00
 -1       934 6.72750E+01 3.24518E+01 0.00000E+00
 -1       935 7.02750E+01 3.24518E+01 0.00000E+00
 -1       936 7.32750E+01 3.24518E+01 0.00000E+00
 -1       937 7.62750E+01 3.24518E+01 0.00000E+00
 -1       938 7.92750E+01 3.24518E+01 0.00000E+00
 -1       939 8.22750E+01 3.24518E+01 0.00000E+00
 -1       940 8.52750E+01 3.24518E+01 0.00000E+00
 -1       941 8.82750E+01 3.24518E+01 0.00000E+00
 -1       942 9.12750E+01 3.24518E+01 0.00000E+00
 -1       943 9.42750E+01 3.24518E+01 0.00000E+00
 -1       944 9.72750E+01 3.24518E+01 0.00000E+00
 -1       945 1.00425E+02 3.24518E+01 0.00000E+00
 -1       946 1.03425E+02 3.24518E+01 0.00000E+00
 -1       947 1.06425E+02 3.24518E+01 0.00000E+00
 -1       948 1.09425E+02 3.24518E+01 0.00000E+00
 -1       949 1.12425E+02 3.24518E+01 0.00000E+00
 -1       950 1.15425E+02 3.24518E+01 0.00000E+00
 -1       951 1.18425E+02 3.24518E+01 0.00000E+00
 -1       952 1.21425E+02 3.24518E+01 0.00000E+00
 -1       953 1.24425E+02 3.24518E+01 0.00000E+00
 -1       954 1.27425E+02 3.24518E+01 0.00000E+00
 -1       955 1.30425E+02 3.24518E+01 0.00000E+00
 -1       956 1.32446E+02 3.19759E+01 0.00000E+00
 -1       957 1.55880E+01 2.64438E+01 0.00000E+00
 -1       958 6.14499E+01 3.26728E+01 0.00000E+00
 -1       959 5.98740E+01 1.77755E+01 0.00000E+00
 -1       960 6.28740E+01 1.77755E+01 0.00000E+00
 -1       961 6.58740E+01 1.77755E+01 0.00000E+00
 -1       962 6.88740E+01 1.77755E+01 0.00000E+00
 -1       963 7.18740E+01 1.77755E+01 0.00000E+00
 -1       964 7.48740E+01 1.77755E+01 0.00000E+00
 -1       965 7.78740E+01 1.77755E+01 0.00000E+00
 -1       966 8.08740E+01 1.77755E+01 0.00000E+00
 -1       967 8.38740E+01 1.77755E+01 0.00000E+00
 -1       968 8.68740E+01 1.77755E+01 0.00000E+00
 -1       969 8.98740E+01 1.77755E+01 0.00000E+00
 -1       970 9.28740E+01 1.77755E+01 0.00000E+00
 -1       971 9.58740E+01 1.77755E+01 0.00000E+00
 -1       972 9.88740E+01 1.77755E+01 0.00000E+00
 -1       973 1.01874E+02 1.77755E+01 0.00000E+00
 -1       974 1.04874E+02 1.77755E+01 0.00000E+00
 -1       975 1.07874E+02 1.77755E+01 0.00000E+00
 -1       976 1.10874E+02 1.77755E+01 0.00000E+00
 -1       977 1.13874E+02 1.77755E+01 0.00000E+00
 -1       978 1.16874E+02 1.77755E+01 0.00000E+00
 -1       979 1.19874E+02 1.77755E+01 0.00000E+00
 -1       980 1.22874E+02 1.77755E+01 0.00000E+00
 -1       981 1.25874E+02 1.77755E+01 0.00000E+00
 -1       982 1.28874E+02 1.77755E+01 0.00000E+00
 -1       983 1.31874E+02 1.77755E+01 0.00000E+00
 -1       984 6.05311E+01 2.72634E+01 0.00000E+00
 -1       985 1.55880E+01 2.93813E+01 0.00000E+00
 -1       986 2.43613E+01 2.96142E+01 0.00000E+00
 -1       987 2.74280E+01 2.24981E+01 0.00000E+00
 -1       988 2.53740E+01 1.51775E+01 0.00000E+00
 -1       989 3.93265E+01 1.67844E+01 0.00000E+00
 -1       990 1.96500E+01 3.20266E+01 0.00000E+00
 -1       991 2.55433E+01 2.59483E+01 0.00000E+00
 -1       992 6.43625E+01 3.25623E+01 0.00000E+00
 -1       993 3.63283E+01 1.66893E+01 0.00000E+00
 -1       994 2.98740E+01 1.77755E+01 0.00000E+00
 -1       995 2.84530E+01 1.99965E+01 0.00000E+00
 -1       996 6.07843E+01 2.42802E+01 0.00000E+00
 -1       997 2.08740E+01 1.77755E+01 0.00000E+00
 -1       998 1.81860E+01 2.49719E+01 0.00000E+00
 -1       999 1.31758E+02 1.97806E+01 0.00000E+00
 -1      1000 1.31758E+02 2.27181E+01 0.00000E+00
 -1      1001 1.86240E+01 1.79453E+01 0.00000E+00
 -1      1002 1.31758E+02 2.56556E+01 0.00000E+00
 -1      1003 1.31786E+02 2.81681E+01 0.00000E+00
 -1      1004 1.81860E+01 2.20281E+01 0.00000E+00
 -1      1005 5.71082E+01 2.07369E+01 0.00000E+00
 -1      1006 1.90368E+01 2.85269E+01 0.00000E+00
 -1      1007 6.87750E+01 2.98538E+01 0.00000E+00
 -1      1008 7.17750E+01 2.98538E+01 0.00000E+00
 -1      1009 7.47750E+01 2.98538E+01 0.00000E+00
 -1      1010 7.77750E+01 2.98538E+01 0.00000E+00
 -1      1011 8.07750E+01 2.98538E+01 0.00000E+00
 -1      1012 8.37750E+01 2.98538E+01 0.00000E+00
 -1      1013 8.67750E+01 2.98538E+01 0.00000E+00
 -1      1014 8.97750E+01 2.98538E+01 0.00000E+00
 -1      1015 9.27750E+01 2.98538E+01 0.00000E+00
 -1      1016 9.57750E+01 2.98538E+01 0.00000E+00
 -1      1017 9.89250E+01 2.98538E+01 0.00000E+00
 -1      1018 1.01925E+02 2.98538E+01 0.00000E+00
 -1      1019 1.04925E+02 2.98538E+01 0.00000E+00
 -1      1020 1.07925E+02 2.98538E+01 0.00000E+00
 -1      1021 1.10925E+02 2.98538E+01 0.00000E+00
 -1      1022 1.13925E+02 2.98538E+01 0.00000E+00
 -1      1023 1.16925E+02 2.98538E+01 0.00000E+00
 -1      1024 1.19925E+02 2.98538E+01 0.00000E+00
 -1      1025 1.22925E+02 2.98538E+01 0.00000E+00
 -1      1026 1.25925E+02 2.98538E+01 0.00000E+00
 -1      1027 1.28925E+02 2.98538E+01 0.00000E+00
 -1      1028 2.42056E+01 2.29778E+01 0.00000E+00
 -1      1029 6.73740E+01 2.03735E+01 0.00000E+00
 -1      1030 7.03740E+01 2.03735E+01 0.00000E+00
 -1      1031 7.33740E+01 2.03735E+01 0.00000E+00
 -1      1032 7.63740E+01 2.03735E+01 0.00000E+00
 -1      1033 7.93740E+01 2.03735E+01 0.00000E+00
 -1      1034 8.23740E+01 2.03735E+01 0.00000E+00
 -1      1035 8.53740E+01 2.03735E+01 0.00000E+00
 -1      1036 8.83740E+01 2.03735E+01 0.00000E+00
 -1      1037 9.13740E+01 2.03735E+01 0.00000E+00
 -1      1038 9.43740E+01 2.03735E+01 0.00000E+00
 -1      1039 9.73740E+01 2.03735E+01 0.00000E+00
 -1      1040 1.00374E+02 2.03735E+01 0.00000E+00
 -1      1041 1.03374E+02 2.03735E+01 0.00000E+00
 -1      1042 1.06374E+02 2.03735E+01 0.00000E+00
 -1      1043 1.09374E+02 2.03735E+01 0.00000E+00
 -1      1044 1.12374E+02 2.03735E+01 0.00000E+00
 -1      1045 1.15374E+02 2.03735E+01 0.00000E+00
 -1      1046 1.18374E+02 2.03735E+01 0.00000E+00
 -1      1047 1.21374E+02 2.03735E+01 0.00000E+00
 -1      1048 1.24374E+02 2.03735E+01 0.00000E+00
 -1      1049 1.27374E+02 2.03735E+01 0.00000E+00
 -1      1050 6.32464E+01 2.59915E+01 0.00000E+00
 -1      1051 2.38740E+01 1.77755E+01 0.00000E+00
 -1      1052 6.06292E+01 2.16743E+01 0.00000E+00
 -1      1053 2.24796E+01 2.69840E+01 0.00000E+00
 -1      1054 1.32116E+02 3.00720E+01 0.00000E+00
 -1      1055 6.40016E+01 2.10239E+01 0.00000E+00
 -1      1056 6.24468E+01 2.99128E+01 0.00000E+00
 -1      1057 2.52306E+01 2.04762E+01 0.00000E+00
 -1      1058 2.11380E+01 2.61447E+01 0.00000E+00
 -1      1059 6.58625E+01 2.99643E+01 0.00000E+00
 -1      1060 2.68741E+01 1.77755E+01 0.00000E+00
 -1      1061 6.34981E+01 2.30025E+01 0.00000E+00
 -1      1062 2.23740E+01 2.03735E+01 0.00000E+00
 -1      1063 2.13867E+01 2.93172E+01 0.00000E+00
 -1      1064 2.01240E+01 2.05433E+01 0.00000E+00
 -1      1065 1.27374E+02 2.33110E+01 0.00000E+00
 -1      1066 1.28341E+02 2.67743E+01 0.00000E+00
 -1      1067 1.25355E+02 2.57414E+01 0.00000E+00
 -1      1068 2.06213E+01 2.31439E+01 0.00000E+00
 -1      1069 7.02750E+01 2.72558E+01 0.00000E+00
 -1      1070 7.32750E+01 2.72558E+01 0.00000E+00
 -1      1071 7.62750E+01 2.72558E+01 0.00000E+00
 -1      1072 7.92750E+01 2.72558E+01 0.00000E+00
 -1      1073 8.22750E+01 2.72558E+01 0.00000E+00
 -1      1074 8.52750E+01 2.72558E+01 0.00000E+00
 -1      1075 8.82750E+01 2.72558E+01 0.00000E+00
 -1      1076 9.12750E+01 2.72558E+01 0.00000E+00
 -1      1077 9.42750E+01 2.72558E+01 0.00000E+00
 -1      1078 9.74250E+01 2.72558E+01 0.00000E+00
 -1      1079 1.00425E+02 2.72558E+01 0.00000E+00
 -1      1080 1.03425E+02 2.72558E+01 0.00000E+00
 -1      1081 1.06425E+02 2.72558E+01 0.00000E+00
 -1      1082 1.09425E+02 2.72558E+01 0.00000E+00
 -1      1083 1.12425E+02 2.72558E+01 0.00000E+00
 -1      1084 1.15425E+02 2.72558E+01 0.00000E+00
 -1      1085 1.18425E+02 2.72558E+01 0.00000E+00
 -1      1086 1.21425E+02 2.72558E+01 0.00000E+00
 -1      1087 6.88740E+01 2.29715E+01 0.00000E+00
 -1      1088 7.78740E+01 2.29715E+01 0.00000E+00
 -1      1089 8.08740E+01 2.29715E+01 0.00000E+00
 -1      1090 8.38740E+01 2.29715E+01 0.00000E+00
 -1      1091 8.68740E+01 2.29715E+01 0.00000E+00
 -1      1092 8.98740E+01 2.29715E+01 0.00000E+00
 -1      1093 9.28740E+01 2.29715E+01 0.00000E+00
 -1      1094 9.58740E+01 2.29715E+01 0.00000E+00
 -1      1095 9.88740E+01 2.29715E+01 0.00000E+00
 -1      1096 1.01874E+02 2.29715E+01 0.00000E+00
 -1      1097 1.04874E+02 2.29715E+01 0.00000E+00
 -1      1098 1.07874E+02 2.29715E+01 0.00000E+00
 -1      1099 1.10874E+02 2.29715E+01 0.00000E+00
 -1      1100 1.13874E+02 2.29715E+01 0.00000E+00
 -1      1101 1.16874E+02 2.29715E+01 0.00000E+00
 -1      1102 1.19874E+02 2.29715E+01 0.00000E+00
 -1      1103 1.22874E+02 2.29715E+01 0.00000E+00
 -1      1104 1.25124E+02 2.31413E+01 0.00000E+00
 -1      1105 6.59611E+01 2.47150E+01 0.00000E+00
 -1      1106 7.48740E+01 2.29715E+01 0.00000E+00
 -1      1107 7.18740E+01 2.29715E+01 0.00000E+00
 -1      1108 6.73625E+01 2.73663E+01 0.00000E+00
 -1      1109 0.00000E+00 4.85250E+01 0.00000E+00
 -1      1110 0.00000E+00 4.55750E+01 0.00000E+00
 -1      1111 0.00000E+00 4.26250E+01 0.00000E+00
 -1      1112 0.00000E+00 3.96750E+01 0.00000E+00
 -1      1113 0.00000E+00 3.67250E+01 0.00000E+00
 -1      1114 0.00000E+00 3.38000E+01 0.00000E+00
 -1      1115 0.00000E+00 3.08750E+01 0.00000E+00
 -1      1116 0.00000E+00 2.79250E+01 0.00000E+00
 -1      1117 0.00000E+00 2.49750E+01 0.00000E+00
 -1      1118 0.00000E+00 2.20250E+01 0.00000E+00
 -1      1119 0.00000E+00 1.90750E+01 0.00000E+00
 -1      1120 0.00000E+00 1.61500E+01 0.00000E+00
 -1      1121 0.00000E+00 1.32250E+01 0.00000E+00
 -1      1122 0.00000E+00 1.02750E+01 0.00000E+00
 -1      1123 0.00000E+00 7.32500E+00 0.00000E+00
 -1      1124 0.00000E+00 4.37500E+00 0.00000E+00
 -1      1125 0.00000E+00 1.45000E+00 0.00000E+00
 -1      1126 1.57500E+00 5.00000E+01 0.00000E+00
 -1      1127 4.65000E+00 5.00000E+01 0.00000E+00
 -1      1128 7.65000E+00 5.00000E+01 0.00000E+00
 -1      1129 1.06500E+01 5.00000E+01 0.00000E+00
 -1      1130 1.36500E+01 5.00000E+01 0.00000E+00
 -1      1131 1.66500E+01 5.00000E+01 0.00000E+00
 -1      1132 1.96500E+01 5.00000E+01 0.00000E+00
 -1      1133 2.26500E+01 5.00000E+01 0.00000E+00
 -1      1134 2.56500E+01 5.00000E+01 0.00000E+00
 -1      1135 2.86500E+01 5.00000E+01 0.00000E+00
 -1      1136 3.16500E+01 5.00000E+01 0.00000E+00
 -1      1137 3.46500E+01 5.00000E+01 0.00000E+00
 -1      1138 3.76500E+01 5.00000E+01 0.00000E+00
 -1      1139 4.05000E+01 5.00000E+01 0.00000E+00
 -1      1140 4.33500E+01 5.00000E+01 0.00000E+00
 -1      1141 4.62750E+01 5.00000E+01 0.00000E+00
 -1      1142 4.92000E+01 5.00000E+01 0.00000E+00
 -1      1143 5.22000E+01 5.00000E+01 0.00000E+00
 -1      1144 5.52000E+01 5.00000E+01 0.00000E+00
 -1      1145 5.82000E+01 5.00000E+01 0.00000E+00
 -1      1146 6.12000E+01 5.00000E+01 0.00000E+00
 -1      1147 6.42000E+01 5.00000E+01 0.00000E+00
 -1      1148 6.72750E+01 5.00000E+01 0.00000E+00
 -1      1149 7.03500E+01 5.00000E+01 0.00000E+00
 -1      1150 7.33500E+01 5.00000E+01 0.00000E+00
 -1      1151 7.63500E+01 5.00000E+01 0.00000E+00
 -1      1152 7.93500E+01 5.00000E+01 0.00000E+00
 -1      1153 8.23500E+01 5.00000E+01 0.00000E+00
 -1      1154 8.53500E+01 5.00000E+01 0.00000E+00
 -1      1155 8.83500E+01 5.00000E+01 0.00000E+00
 -1      1156 9.13500E+01 5.00000E+01 0.00000E+00
 -1      1157 9.43500E+01 5.00000E+01 0.00000E+00
 -1      1158 9.73500E+01 5.00000E+01 0.00000E+00
 -1      1159 1.00350E+02 5.00000E+01 0.00000E+00
 -1      1160 1.03350E+02 5.00000E+01 0.00000E+00
 -1      1161 1.06350E+02 5.00000E+01 0.00000E+00
 -1      1162 1.09425E+02 5.00000E+01 0.00000E+00
 -1      1163 1.12500E+02 5.00000E+01 0.00000E+00
 -1      1164 1.15500E+02 5.00000E+01 0.00000E+00
 -1      1165 1.18500E+02 5.00000E+01 0.00000E+00
 -1      1166 1.21500E+02 5.00000E+01 0.00000E+00
 -1      1167 1.24500E+02 5.00000E+01 0.00000E+00
 -1      1168 1.27500E+02 5.00000E+01 0.00000E+00
 -1      1169 1.30500E+02 5.00000E+01 0.00000E+00
 -1      1170 1.33500E+02 5.00000E+01 0.00000E+00
 -1      1171 1.36500E+02 5.00000E+01 0.00000E+00
 -1      1172 1.39500E+02 5.00000E+01 0.00000E+00
 -1      1173 1.42500E+02 5.00000E+01 0.00000E+00
 -1      1174 1.45500E+02 5.00000E+01 0.00000E+00
 -1      1175 1.48500E+02 5.00000E+01 0.00000E+00
 -1      1176 1.57500E+00 0.00000E+00 0.00000E+00
 -1      1177 4.65000E+00 0.00000E+00 0.00000E+00
 -1      1178 7.65000E+00 0.00000E+00 0.00000E+00
 -1      1179 1.06500E+01 0.00000E+00 0.00000E+00
 -1      1180 1.36500E+01 0.00000E+00 0.00000E+00
 -1      1181 1.66500E+01 0.00000E+00 0.00000E+00
 -1      1182 1.96500E+01 0.00000E+00 0.00000E+00
 -1      1183 2.26500E+01 0.00000E+00 0.00000E+00
 -1      1184 2.56500E+01 0.00000E+00 0.00000E+00
 -1      1185 2.86500E+01 0.00000E+00 0.00000E+00
 -1      1186 3.16500E+01 0.00000E+00 0.00000E+00
 -1      1187 3.46500E+01 0.00000E+00 0.00000E+00
 -1      1188 3.76500E+01 0.00000E+00 0.00000E+00
 -1      1189 4.06500E+01 0.00000E+00 0.00000E+00
 -1      1190 4.36500E+01 0.00000E+00 0.00000E+00
 -1      1191 4.66500E+01 0.00000E+00 0.00000E+00
 -1      1192 4.96500E+01 0.00000E+00 0.00000E+00
 -1      1193 5.26500E+01 0.00000E+00 0.00000E+00
 -1      1194 5.56500E+01 0.00000E+00 0.00000E+00
 -1      1195 5.86500E+01 0.00000E+00 0.00000E+00
 -1      1196 6.16500E+01 0.00000E+00 0.00000E+00
 -1      1197 6.46500E+01 0.00000E+00 0.00000E+00
 -1      1198 6.76500E+01 0.00000E+00 0.00000E+00
 -1      1199 7.06500E+01 0.00000E+00 0.00000E+00
 -1      1200 7.36500E+01 0.00000E+00 0.00000E+00
 -1      1201 7.66500E+01 0.00000E+00 0.00000E+00
 -1      1202 7.96500E+01 0.00000E+00 0.00000E+00
 -1      1203 8.26500E+01 0.00000E+00 0.00000E+00
 -1      1204 8.56500E+01 0.00000E+00 0.00000E+00
 -1      1205 8.86500E+01 0.00000E+00 0.00000E+00
 -1      1206 9.16500E+01 0.00000E+00 0.00000E+00
 -1      1207 9.46500E+01 0.00000E+00 0.00000E+00
 -1      1208 9.76500E+01 0.00000E+00 0.00000E+00
 -1      1209 1.00650E+02 0.00000E+00 0.00000E+00
 -1      1210 1.03650E+02 0.00000E+00 0.00000E+00
 -1      1211 1.06650E+02 0.00000E+00 0.00000E+00
 -1      1212 1.09650E+02 0.00000E+00 0.00000E+00
 -1      1213 1.12650E+02 0.00000E+00 0.00000E+00
 -1      1214 1.15650E+02 0.00000E+00 0.00000E+00
 -1      1215 1.18650E+02 0.00000E+00 0.00000E+00
 -1      1216 1.21650E+02 0.00000E+00 0.00000E+00
 -1      1217 1.24650E+02 0.00000E+00 0.00000E+00
 -1      1218 1.27650E+02 0.00000E+00 0.00000E+00
 -1      1219 1.30650E+02 0.00000E+00 0.00000E+00
 -1      1220 1.33650E+02 0.00000E+00 0.00000E+00
 -1      1221 1.36650E+02 0.00000E+00 0.00000E+00
 -1      1222 1.39650E+02 0.00000E+00 0.00000E+00
 -1      1223 1.42650E+02 0.00000E+00 0.00000E+00
 -1      1224 1.45650E+02 0.00000E+00 0.00000E+00
 -1      1225 1.48575E+02 0.00000E+00 0.00000E+00
 -1      1226 1.50000E+02 1.47500E+00 0.00000E+00
 -1      1227 1.50000E+02 4.42500E+00 0.00000E+00
 -1      1228 1.50000E+02 7.37500E+00 0.00000E+00
 -1      1229 1.50000E+02 1.03250E+01 0.00000E+00
 -1      1230 1.50000E+02 1.32750E+01 0.00000E+00
 -1      1231 1.50000E+02 1.62000E+01 0.00000E+00
 -1      1232 1.50000E+02 1.91250E+01 0.00000E+00
 -1      1233 1.50000E+02 2.20750E+01 0.00000E+00
 -1      1234 1.50000E+02 2.50250E+01 0.00000E+00
 -1      1235 1.50000E+02 2.79750E+01 0.00000E+00
 -1      1236 1.50000E+02 3.09250E+01 0.00000E+00
 -1      1237 1.50000E+02 3.38500E+01 0.00000E+00
 -1      1238 1.50000E+02 3.67750E+01 0.00000E+00
 -1      1239 1.50000E+02 3.97250E+01 0.00000E+00
 -1      1240 1.50000E+02 4.26750E+01 0.00000E+00
 -1      1241 1.50000E+02 4.56250E+01 0.00000E+00
 -1      1242 1.50000E+02 4.85500E+01 0.00000E+00
 -1      1243 5.05915E+01 3.38825E+01 0.00000E+00
 -1      1244 5.02748E+01 3.23893E+01 0.00000E+00
 -1      1245 4.96327E+01 3.09848E+01 0.00000E+00
 -1      1246 4.87802E+01 2.98430E+01 0.00000E+00
 -1      1247 4.77055E+01 2.88911E+01 0.00000E+00
 -1      1248 4.64124E+01 2.81581E+01 0.00000E+00
 -1      1249 4.49562E+01 2.77072E+01 0.00000E+00
 -1      1250 4.34601E+01 2.75817E+01 0.00000E+00
 -1      1251 4.19783E+01 2.77765E+01 0.00000E+00
 -1      1252 4.04969E+01 2.83182E+01 0.00000E+00
 -1      1253 3.91849E+01 2.91692E+01 0.00000E+00
 -1      1254 3.81340E+01 3.02399E+01 0.00000E+00
 -1      1255 3.73536E+01 3.14727E+01 0.00000E+00
 -1      1256 3.68512E+01 3.28198E+01 0.00000E+00
 -1      1257 3.66317E+01 3.43060E+01 0.00000E+00
 -1      1258 3.67384E+01 3.58273E+01 0.00000E+00
 -1      1259 3.71490E+01 3.72338E+01 0.00000E+00
 -1      1260 3.78338E+01 3.85100E+01 0.00000E+00
 -1      1261 3.88165E+01 3.96656E+01 0.00000E+00
 -1      1262 4.00783E+01 4.06139E+01 0.00000E+00
 -1      1263 4.14542E+01 4.12342E+01 0.00000E+00
 -1      1264 4.28823E+01 4.15401E+01 0.00000E+00
 -1      1265 4.44082E+01 4.15359E+01 0.00000E+00
 -1      1266 4.59592E+01 4.11795E+01 0.00000E+00
 -1      1267 4.73865E+01 4.04841E+01 0.00000E+00
 -1      1268 4.85908E+01 3.95147E+01 0.00000E+00
 -1      1269 4.95616E+01 3.82909E+01 0.00000E+00
 -1      1270 5.02255E+01 3.69145E+01 0.00000E+00
 -1      1271 5.05786E+01 3.53954E+01 0.00000E+00
 -1      1272 1.57500E+00 4.85250E+01 0.00000E+00
 -1      1273 1.29900E+00 4.48375E+01 0.00000E+00
 -1      1274 1.29900E+00 4.63125E+01 0.00000E+00
 -1      1275 1.29900E+00 4.18875E+01 0.00000E+00
 -1      1276 1.29900E+00 4.33625E+01 0.00000E+00
 -1      1277 2.59800E+00 4.41000E+01 0.00000E+00
 -1      1278 1.29900E+00 3.89375E+01 0.00000E+00
 -1      1279 1.29900E+00 4.04125E+01 0.00000E+00
 -1      1280 2.59800E+00 4.11500E+01 0.00000E+00
 -1      1281 1.29900E+00 3.59875E+01 0.00000E+00
 -1      1282 1.29900E+00 3.74625E+01 0.00000E+00
 -1      1283 2.59800E+00 3.82000E+01 0.00000E+00
 -1      1284 1.29900E+00 3.30875E+01 0.00000E+00
 -1      1285 1.29900E+00 3.45375E+01 0.00000E+00
 -1      1286 2.59800E+00 3.52750E+01 0.00000E+00
 -1      1287 1.29900E+00 3.01375E+01 0.00000E+00
 -1      1288 1.29900E+00 3.16125E+01 0.00000E+00
 -1      1289 2.59800E+00 3.23500E+01 0.00000E+00
 -1      1290 1.29900E+00 2.71875E+01 0.00000E+00
 -1      1291 1.29900E+00 2.86625E+01 0.00000E+00
 -1      1292 2.59800E+00 2.94000E+01 0.00000E+00
 -1      1293 1.29900E+00 2.42375E+01 0.00000E+00
 -1      1294 1.29900E+00 2.57125E+01 0.00000E+00
 -1      1295 2.59800E+00 2.64500E+01 0.00000E+00
 -1      1296 1.29900E+00 2.12875E+01 0.00000E+00
 -1      1297 1.29900E+00 2.27625E+01 0.00000E+00
 -1      1298 2.59800E+00 2.35000E+01 0.00000E+00
 -1      1299 1.29900E+00 1.83375E+01 0.00000E+00
 -1      1300 1.29900E+00 1.98125E+01 0.00000E+00
 -1      1301 2.59800E+00 2.05500E+01 0.00000E+00
 -1      1302 1.29900E+00 1.54375E+01 0.00000E+00
 -1      1303 1.29900E+00 1.68875E+01 0.00000E+00
 -1      1304 2.59800E+00 1.76250E+01 0.00000E+00
 -1      1305 1.29900E+00 1.24875E+01 0.00000E+00
 -1      1306 1.29900E+00 1.39625E+01 0.00000E+00
 -1      1307 2.59800E+00 1.47000E+01 0.00000E+00
 -1      1308 1.29900E+00 9.53750E+00 0.00000E+00
 -1      1309 1.29900E+00 1.10125E+01 0.00000E+00
 -1      1310 2.59800E+00 1.17500E+01 0.00000E+00
 -1      1311 1.29900E+00 6.58750E+00 0.00000E+00
 -1      1312 1.29900E+00 8.06250E+00 0.00000E+00
 -1      1313 2.59800E+00 8.80000E+00 0.00000E+00
 -1      1314 1.29900E+00 3.63750E+00 0.00000E+00
 -1      1315 1.29900E+00 5.11250E+00 0.00000E+00
 -1      1316 2.59800E+00 5.85000E+00 0.00000E+00
 -1      1317 1.43700E+00 1.09375E+00 0.00000E+00
 -1      1318 1.43700E+00 2.54375E+00 0.00000E+00
 -1      1319 2.73600E+00 3.28125E+00 0.00000E+00
 -1      1320 3.01200E+00 1.09375E+00 0.00000E+00
 -1      1321 3.90000E+00 4.87010E+01 0.00000E+00
 -1      1322 5.40000E+00 4.87010E+01 0.00000E+00
 -1      1323 6.90000E+00 4.87010E+01 0.00000E+00
 -1      1324 8.40000E+00 4.87010E+01 0.00000E+00
 -1      1325 6.15000E+00 4.74020E+01 0.00000E+00
 -1      1326 9.90000E+00 4.87010E+01 0.00000E+00
 -1      1327 1.14000E+01 4.87010E+01 0.00000E+00
 -1      1328 9.15000E+00 4.74020E+01 0.00000E+00
 -1      1329 1.29000E+01 4.87010E+01 0.00000E+00
 -1      1330 1.44000E+01 4.87010E+01 0.00000E+00
 -1      1331 1.21500E+01 4.74020E+01 0.00000E+00
 -1      1332 1.59000E+01 4.87010E+01 0.00000E+00
 -1      1333 1.74000E+01 4.87010E+01 0.00000E+00
 -1      1334 1.51500E+01 4.74020E+01 0.00000E+00
 -1      1335 1.89000E+01 4.87010E+01 0.00000E+00
 -1      1336 2.04000E+01 4.87010E+01 0.00000E+00
 -1      1337 1.81500E+01 4.74020E+01 0.00000E+00
 -1      1338 2.19000E+01 4.87010E+01 0.00000E+00
 -1      1339 2.34000E+01 4.87010E+01 0.00000E+00
 -1      1340 2.11500E+01 4.74020E+01 0.00000E+00
 -1      1341 2.49000E+01 4.87010E+01 0.00000E+00
 -1      1342 2.64000E+01 4.87010E+01 0.00000E+00
 -1      1343 2.41500E+01 4.74020E+01 0.00000E+00
 -1      1344 2.79000E+01 4.87010E+01 0.00000E+00
 -1      1345 2.94000E+01 4.87010E+01 0.00000E+00
 -1      1346 2.71500E+01 4.74020E+01 0.00000E+00
 -1      1347 3.09000E+01 4.87010E+01 0.00000E+00
 -1      1348 3.24000E+01 4.87010E+01 0.00000E+00
 -1      1349 3.01500E+01 4.74020E+01 0.00000E+00
 -1      1350 3.39000E+01 4.87010E+01 0.00000E+00
 -1      1351 3.54000E+01 4.87010E+01 0.00000E+00
 -1      1352 3.31500E+01 4.74020E+01 0.00000E+00
 -1      1353 3.69000E+01 4.87010E+01 0.00000E+00
 -1      1354 3.84000E+01 4.87010E+01 0.00000E+00
 -1      1355 3.61500E+01 4.74020E+01 0.00000E+00
 -1      1356 3.97500E+01 4.87010E+01 0.00000E+00
 -1      1357 4.11000E+01 4.87010E+01 0.00000E+00
 -1      1358 3.90000E+01 4.74020E+01 0.00000E+00
 -1      1359 4.26000E+01 4.87010E+01 0.00000E+00
 -1      1360 4.41000E+01 4.87010E+01 0.00000E+00
 -1      1361 4.18500E+01 4.74020E+01 0.00000E+00
 -1      1362 4.55250E+01 4.87010E+01 0.00000E+00
 -1      1363 4.69500E+01 4.87010E+01 0.00000E+00
 -1      1364 4.47750E+01 4.74020E+01 0.00000E+00
 -1      1365 4.84500E+01 4.87010E+01 0.00000E+00
 -1      1366 4.99500E+01 4.87010E+01 0.00000E+00
 -1      1367 4.77000E+01 4.74020E+01 0.00000E+00
 -1      1368 5.14500E+01 4.87010E+01 0.00000E+00
 -1      1369 5.29500E+01 4.87010E+01 0.00000E+00
 -1      1370 5.07000E+01 4.74020E+01 0.00000E+00
 -1      1371 5.44500E+01 4.87010E+01 0.00000E+00
 -1      1372 5.59500E+01 4.87010E+01 0.00000E+00
 -1      1373 5.37000E+01 4.74020E+01 0.00000E+00
 -1      1374 5.74500E+01 4.87010E+01 0.00000E+00
 -1      1375 5.89500E+01 4.87010E+01 0.00000E+00
 -1      1376 5.67000E+01 4.74020E+01 0.00000E+00
 -1      1377 6.04500E+01 4.87010E+01 0.00000E+00
 -1      1378 6.19500E+01 4.87010E+01 0.00000E+00
 -1      1379 5.97000E+01 4.74020E+01 0.00000E+00
 -1      1380 6.34500E+01 4.87010E+01 0.00000E+00
 -1      1381 6.49500E+01 4.87010E+01 0.00000E+00
 -1      1382 6.27000E+01 4.74020E+01 0.00000E+00
 -1      1383 6.65250E+01 4.87010E+01 0.00000E+00
 -1      1384 6.81000E+01 4.87010E+01 0.00000E+00
 -1      1385 6.57750E+01 4.74020E+01 0.00000E+00
 -1      1386 6.96000E+01 4.87010E+01 0.00000E+00
 -1      1387 7.11000E+01 4.87010E+01 0.00000E+00
 -1      1388 6.88500E+01 4.74020E+01 0.00000E+00
 -1      1389 7.26000E+01 4.87010E+01 0.00000E+00
 -1      1390 7.41000E+01 4.87010E+01 0.00000E+00
 -1      1391 7.18500E+01 4.74020E+01 0.00000E+00
 -1      1392 7.56000E+01 4.87010E+01 0.00000E+00
 -1      1393 7.71000E+01 4.87010E+01 0.00000E+00
 -1      1394 7.48500E+01 4.74020E+01 0.00000E+00
 -1      1395 7.86000E+01 4.87010E+01 0.00000E+00
 -1      1396 8.01000E+01 4.87010E+01 0.00000E+00
 -1      1397 7.78500E+01 4.74020E+01 0.00000E+00
 -1      1398 8.16000E+01 4.87010E+01 0.00000E+00
 -1      1399 8.31000E+01 4.87010E+01 0.00000E+00
 -1      1400 8.08500E+01 4.74020E+01 0.00000E+00
 -1      1401 8.46000E+01 4.87010E+01 0.00000E+00
 -1      1402 8.61000E+01 4.87010E+01 0.00000E+00
 -1      1403 8.38500E+01 4.74020E+01 0.00000E+00
 -1      1404 8.76000E+01 4.87010E+01 0.00000E+00
 -1      1405 8.91000E+01 4.87010E+01 0.00000E+00
 -1      1406 8.68500E+01 4.74020E+01 0.00000E+00
 -1      1407 9.06000E+01 4.87010E+01 0.00000E+00
 -1      1408 9.21000E+01 4.87010E+01 0.00000E+00
 -1      1409 8.98500E+01 4.74020E+01 0.00000E+00
 -1      1410 9.36000E+01 4.87010E+01 0.00000E+00
 -1      1411 9.51000E+01 4.87010E+01 0.00000E+00
 -1      1412 9.28500E+01 4.74020E+01 0.00000E+00
 -1      1413 9.66000E+01 4.87010E+01 0.00000E+00
 -1      1414 9.81000E+01 4.87010E+01 0.00000E+00
 -1      1415 9.58500E+01 4.74020E+01 0.00000E+00
 -1      1416 9.96000E+01 4.87010E+01 0.00000E+00
 -1      1417 1.01100E+02 4.87010E+01 0.00000E+00
 -1      1418 9.88500E+01 4.74020E+01 0.00000E+00
 -1      1419 1.02600E+02 4.87010E+01 0.00000E+00
 -1      1420 1.04100E+02 4.87010E+01 0.00000E+00
 -1      1421 1.01850E+02 4.74020E+01 0.00000E+00
 -1      1422 1.05600E+02 4.87010E+01 0.00000E+00
 -1      1423 1.07100E+02 4.87010E+01 0.00000E+00
 -1      1424 1.04850E+02 4.74020E+01 0.00000E+00
 -1      1425 1.08675E+02 4.87010E+01 0.00000E+00
 -1      1426 1.10250E+02 4.87010E+01 0.00000E+00
 -1      1427 1.07925E+02 4.74020E+01 0.00000E+00
 -1      1428 1.11750E+02 4.87010E+01 0.00000E+00
 -1      1429 1.13250E+02 4.87010E+01 0.00000E+00
 -1      1430 1.11000E+02 4.74020E+01 0.00000E+00
 -1      1431 1.14750E+02 4.87010E+01 0.00000E+00
 -1      1432 1.16250E+02 4.87010E+01 0.00000E+00
 -1      1433 1.14000E+02 4.74020E+01 0.00000E+00
 -1      1434 1.17750E+02 4.87010E+01 0.00000E+00
 -1      1435 1.19250E+02 4.87010E+01 0.00000E+00
 -1      1436 1.17000E+02 4.74020E+01 0.00000E+00
 -1      1437 1.20750E+02 4.87010E+01 0.00000E+00
 -1      1438 1.22250E+02 4.87010E+01 0.00000E+00
 -1      1439 1.20000E+02 4.74020E+01 0.00000E+00
 -1      1440 1.23750E+02 4.87010E+01 0.00000E+00
 -1      1441 1.25250E+02 4.87010E+01 0.00000E+00
 -1      1442 1.23000E+02 4.74020E+01 0.00000E+00
 -1      1443 1.26750E+02 4.87010E+01 0.00000E+00
 -1      1444 1.28250E+02 4.87010E+01 0.00000E+00
 -1      1445 1.26000E+02 4.74020E+01 0.00000E+00
 -1      1446 1.29750E+02 4.87010E+01 0.00000E+00
 -1      1447 1.31250E+02 4.87010E+01 0.00000E+00
 -1      1448 1.29000E+02 4.74020E+01 0.00000E+00
 -1      1449 1.32750E+02 4.87010E+01 0.00000E+00
 -1      1450 1.34250E+02 4.87010E+01 0.00000E+00
 -1      1451 1.32000E+02 4.74020E+01 0.00000E+00
 -1      1452 1.35750E+02 4.87010E+01 0.00000E+00
 -1      1453 1.37250E+02 4.87010E+01 0.00000E+00
 -1      1454 1.35000E+02 4.74020E+01 0.00000E+00
 -1      1455 1.38750E+02 4.87010E+01 0.00000E+00
 -1      1456 1.40250E+02 4.87010E+01 0.00000E+00
 -1      1457 1.38000E+02 4.74020E+01 0.00000E+00
 -1      1458 1.41750E+02 4.87010E+01 0.00000E+00
 -1      1459 1.43250E+02 4.87010E+01 0.00000E+00
 -1      1460 1.41000E+02 4.74020E+01 0.00000E+00
 -1      1461 1.44750E+02 4.87010E+01 0.00000E+00
 -1      1462 1.46250E+02 4.87010E+01 0.00000E+00
 -1      1463 1.44000E+02 4.74020E+01 0.00000E+00
 -1      1464 1.47375E+02 4.86255E+01 0.00000E+00
 -1      1465 1.48875E+02 4.86255E+01 0.00000E+00
 -1      1466 1.48875E+02 4.71755E+01 0.00000E+00
 -1      1467 1.46625E+02 4.73265E+01 0.00000E+00
 -1      1468 6.01200E+00 1.09375E+00 0.00000E+00
 -1      1469 4.51200E+00 1.09375E+00 0.00000E+00
 -1      1470 4.37400E+00 2.18750E+00 0.00000E+00
 -1      1471 9.01200E+00 1.09375E+00 0.00000E+00
 -1      1472 7.51200E+00 1.09375E+00 0.00000E+00
 -1      1473 7.37400E+00 2.18750E+00 0.00000E+00
 -1      1474 1.20120E+01 1.09375E+00 0.00000E+00
 -1      1475 1.05120E+01 1.09375E+00 0.00000E+00
 -1      1476 1.03740E+01 2.18750E+00 0.00000E+00
 -1      1477 1.50120E+01 1.09375E+00 0.00000E+00
 -1      1478 1.35120E+01 1.09375E+00 0.00000E+00
 -1      1479 1.33740E+01 2.18750E+00 0.00000E+00
 -1      1480 1.80120E+01 1.09375E+00 0.00000E+00
 -1      1481 1.65120E+01 1.09375E+00 0.00000E+00
 -1      1482 1.63740E+01 2.18750E+00 0.00000E+00
 -1      1483 2.10120E+01 1.09375E+00 0.00000E+00
 -1      1484 1.95120E+01 1.09375E+00 0.00000E+00
 -1      1485 1.93740E+01 2.18750E+00 0.00000E+00
 -1      1486 2.40120E+01 1.09375E+00 0.00000E+00
 -1      1487 2.25120E+01 1.09375E+00 0.00000E+00
 -1      1488 2.23740E+01 2.18750E+00 0.00000E+00
 -1      1489 2.70120E+01 1.09375E+00 0.00000E+00
 -1      1490 2.55120E+01 1.09375E+00 0.00000E+00
 -1      1491 2.53740E+01 2.18750E+00 0.00000E+00
 -1      1492 3.00120E+01 1.09375E+00 0.00000E+00
 -1      1493 2.85120E+01 1.09375E+00 0.00000E+00
 -1      1494 2.83740E+01 2.18750E+00 0.00000E+00
 -1      1495 3.30120E+01 1.09375E+00 0.00000E+00
 -1      1496 3.15120E+01 1.09375E+00 0.00000E+00
 -1      1497 3.13740E+01 2.18750E+00 0.00000E+00
 -1      1498 3.60120E+01 1.09375E+00 0.00000E+00
 -1      1499 3.45120E+01 1.09375E+00 0.00000E+00
 -1      1500 3.43740E+01 2.18750E+00 0.00000E+00
 -1      1501 3.90120E+01 1.09375E+00 0.00000E+00
 -1      1502 3.75120E+01 1.09375E+00 0.00000E+00
 -1      1503 3.73740E+01 2.18750E+00 0.00000E+00
 -1      1504 4.20120E+01 1.09375E+00 0.00000E+00
 -1      1505 4.05120E+01 1.09375E+00 0.00000E+00
 -1      1506 4.03740E+01 2.18750E+00 0.00000E+00
 -1      1507 4.50120E+01 1.09375E+00 0.00000E+00
 -1      1508 4.35120E+01 1.09375E+00 0.00000E+00
 -1      1509 4.33740E+01 2.18750E+00 0.00000E+00
 -1      1510 4.80120E+01 1.09375E+00 0.00000E+00
 -1      1511 4.65120E+01 1.09375E+00 0.00000E+00
 -1      1512 4.63740E+01 2.18750E+00 0.00000E+00
 -1      1513 5.10120E+01 1.09375E+00 0.00000E+00
 -1      1514 4.95120E+01 1.09375E+00 0.00000E+00
 -1      1515 4.93740E+01 2.18750E+00 0.00000E+00
 -1      1516 5.40120E+01 1.09375E+00 0.00000E+00
 -1      1517 5.25120E+01 1.09375E+00 0.00000E+00
 -1      1518 5.23740E+01 2.18750E+00 0.00000E+00
 -1      1519 5.70120E+01 1.09375E+00 0.00000E+00
 -1      1520 5.55120E+01 1.09375E+00 0.00000E+00
 -1      1521 5.53740E+01 2.18750E+00 0.00000E+00
 -1      1522 6.00120E+01 1.09375E+00 0.00000E+00
 -1      1523 5.85120E+01 1.09375E+00 0.00000E+00
 -1      1524 5.83740E+01 2.18750E+00 0.00000E+00
 -1      1525 6.30120E+01 1.09375E+00 0.00000E+00
 -1      1526 6.15120E+01 1.09375E+00 0.00000E+00
 -1      1527 6.13740E+01 2.18750E+00 0.00000E+00
 -1      1528 6.60120E+01 1.09375E+00 0.00000E+00
 -1      1529 6.45120E+01 1.09375E+00 0.00000E+00
 -1      1530 6.43740E+01 2.18750E+00 0.00000E+00
 -1      1531 6.90120E+01 1.09375E+00 0.00000E+00
 -1      1532 6.75120E+01 1.09375E+00 0.00000E+00
 -1      1533 6.73740E+01 2.18750E+00 0.00000E+00
 -1      1534 7.20120E+01 1.09375E+00 0.00000E+00
 -1      1535 7.05120E+01 1.09375E+00 0.00000E+00
 -1      1536 7.03740E+01 2.18750E+00 0.00000E+00
 -1      1537 7.50120E+01 1.09375E+00 0.00000E+00
 -1      1538 7.35120E+01 1.09375E+00 0.00000E+00
 -1      1539 7.33740E+01 2.18750E+00 0.00000E+00
 -1      1540 7.80120E+01 1.09375E+00 0.00000E+00
 -1      1541 7.65120E+01 1.09375E+00 0.00000E+00
 -1      1542 7.63740E+01 2.18750E+00 0.00000E+00
 -1      1543 8.10120E+01 1.09375E+00 0.00000E+00
 -1      1544 7.95120E+01 1.09375E+00 0.00000E+00
 -1      1545 7.93740E+01 2.18750E+00 0.00000E+00
 -1      1546 8.40120E+01 1.09375E+00 0.00000E+00
 -1      1547 8.25120E+01 1.09375E+00 0.00000E+00
 -1      1548 8.23740E+01 2.18750E+00 0.00000E+00
 -1      1549 8.70120E+01 1.09375E+00 0.00000E+00
 -1      1550 8.55120E+01 1.09375E+00 0.00000E+00
 -1      1551 8.53740E+01 2.18750E+00 0.00000E+00
 -1      1552 9.00120E+01 1.09375E+00 0.00000E+00
 -1      1553 8.85120E+01 1.09375E+00 0.00000E+00
 -1      1554 8.83740E+01 2.18750E+00 0.00000E+00
 -1      1555 9.30120E+01 1.09375E+00 0.00000E+00
 -1      1556 9.15120E+01 1.09375E+00 0.00000E+00
 -1      1557 9.13740E+01 2.18750E+00 0.00000E+00
 -1      1558 9.60120E+01 1.09375E+00 0.00000E+00
 -1      1559 9.45120E+01 1.09375E+00 0.00000E+00
 -1      1560 9.43740E+01 2.18750E+00 0.00000E+00
 -1      1561 9.90120E+01 1.09375E+00 0.00000E+00
 -1      1562 9.75120E+01 1.09375E+00 0.00000E+00
 -1      1563 9.73740E+01 2.18750E+00 0.00000E+00
 -1      1564 1.02012E+02 1.09375E+00 0.00000E+00
 -1      1565 1.00512E+02 1.09375E+00 0.00000E+00
 -1      1566 1.00374E+02 2.18750E+00 0.00000E+00
 -1      1567 1.05012E+02 1.09375E+00 0.00000E+00
 -1      1568 1.03512E+02 1.09375E+00 0.00000E+00
 -1      1569 1.03374E+02 2.18750E+00 0.00000E+00
 -1      1570 1.08012E+02 1.09375E+00 0.00000E+00
 -1      1571 1.06512E+02 1.09375E+00 0.00000E+00
 -1      1572 1.06374E+02 2.18750E+00 0.00000E+00
 -1      1573 1.11012E+02 1.09375E+00 0.00000E+00
 -1      1574 1.09512E+02 1.09375E+00 0.00000E+00
 -1      1575 1.09374E+02 2.18750E+00 0.00000E+00
 -1      1576 1.14012E+02 1.09375E+00 0.00000E+00
 -1      1577 1.12512E+02 1.09375E+00 0.00000E+00
 -1      1578 1.12374E+02 2.18750E+00 0.00000E+00
 -1      1579 1.17012E+02 1.09375E+00 0.00000E+00
 -1      1580 1.15512E+02 1.09375E+00 0.00000E+00
 -1      1581 1.15374E+02 2.18750E+00 0.00000E+00
 -1      1582 1.20012E+02 1.09375E+00 0.00000E+00
 -1      1583 1.18512E+02 1.09375E+00 0.00000E+00
 -1      1584 1.18374E+02 2.18750E+00 0.00000E+00
 -1      1585 1.23012E+02 1.09375E+00 0.00000E+00
 -1      1586 1.21512E+02 1.09375E+00 0.00000E+00
 -1      1587 1.21374E+02 2.18750E+00 0.00000E+00
 -1      1588 1.26012E+02 1.09375E+00 0.00000E+00
 -1      1589 1.24512E+02 1.09375E+00 0.00000E+00
 -1      1590 1.24374E+02 2.18750E+00 0.00000E+00
 -1      1591 1.29012E+02 1.09375E+00 0.00000E+00
 -1      1592 1.27512E+02 1.09375E+00 0.00000E+00
 -1      1593 1.27374E+02 2.18750E+00 0.00000E+00
 -1      1594 1.32012E+02 1.09375E+00 0.00000E+00
 -1      1595 1.30512E+02 1.09375E+00 0.00000E+00
 -1      1596 1.30374E+02 2.18750E+00 0.00000E+00
 -1      1597 1.35012E+02 1.09375E+00 0.00000E+00
 -1      1598 1.33512E+02 1.09375E+00 0.00000E+00
 -1      1599 1.33374E+02 2.18750E+00 0.00000E+00
 -1      1600 1.38012E+02 1.09375E+00 0.00000E+00
 -1      1601 1.36512E+02 1.09375E+00 0.00000E+00
 -1      1602 1.36374E+02 2.18750E+00 0.00000E+00
 -1      1603 1.41012E+02 1.09375E+00 0.00000E+00
 -1      1604 1.39512E+02 1.09375E+00 0.00000E+00
 -1      1605 1.39374E+02 2.18750E+00 0.00000E+00
 -1      1606 1.44012E+02 1.09375E+00 0.00000E+00
 -1      1607 1.42512E+02 1.09375E+00 0.00000E+00
 -1      1608 1.42374E+02 2.18750E+00 0.00000E+00
 -1      1609 1.47012E+02 1.09375E+00 0.00000E+00
 -1      1610 1.45512E+02 1.09375E+00 0.00000E+00
 -1      1611 1.45374E+02 2.18750E+00 0.00000E+00
 -1      1612 1.48575E+02 1.47500E+00 0.00000E+00
 -1      1613 1.48701E+02 5.16250E+00 0.00000E+00
 -1      1614 1.48701E+02 3.68750E+00 0.00000E+00
 -1      1615 1.48701E+02 8.11250E+00 0.00000E+00
 -1      1616 1.48701E+02 6.63750E+00 0.00000E+00
 -1      1617 1.47402E+02 5.90000E+00 0.00000E+00
 -1      1618 1.48701E+02 1.10625E+01 0.00000E+00
 -1      1619 1.48701E+02 9.58750E+00 0.00000E+00
 -1      1620 1.47402E+02 8.85000E+00 0.00000E+00
 -1      1621 1.48701E+02 1.40125E+01 0.00000E+00
 -1      1622 1.48701E+02 1.25375E+01 0.00000E+00
 -1      1623 1.47402E+02 1.18000E+01 0.00000E+00
 -1      1624 1.48701E+02 1.69125E+01 0.00000E+00
 -1      1625 1.48701E+02 1.54625E+01 0.00000E+00
 -1      1626 1.47402E+02 1.47250E+01 0.00000E+00
 -1      1627 1.48701E+02 1.98625E+01 0.00000E+00
 -1      1628 1.48701E+02 1.83875E+01 0.00000E+00
 -1      1629 1.47402E+02 1.76500E+01 0.00000E+00
 -1      1630 1.48701E+02 2.28125E+01 0.00000E+00
 -1      1631 1.48701E+02 2.13375E+01 0.00000E+00
 -1      1632 1.47402E+02 2.06000E+01 0.00000E+00
 -1      1633 1.48701E+02 2.57625E+01 0.00000E+00
 -1      1634 1.48701E+02 2.42875E+01 0.00000E+00
 -1      1635 1.47402E+02 2.35500E+01 0.00000E+00
 -1      1636 1.48701E+02 2.87125E+01 0.00000E+00
 -1      1637 1.48701E+02 2.72375E+01 0.00000E+00
 -1      1638 1.47402E+02 2.65000E+01 0.00000E+00
 -1      1639 1.48701E+02 3.16625E+01 0.00000E+00
 -1      1640 1.48701E+02 3.01875E+01 0.00000E+00
 -1      1641 1.47402E+02 2.94500E+01 0.00000E+00
 -1      1642 1.48701E+02 3.45625E+01 0.00000E+00
 -1      1643 1.48701E+02 3.31125E+01 0.00000E+00
 -1      1644 1.47402E+02 3.23750E+01 0.00000E+00
 -1      1645 1.48701E+02 3.75125E+01 0.00000E+00
 -1      1646 1.48701E+02 3.60375E+01 0.00000E+00
 -1      1647 1.47402E+02 3.53000E+01 0.00000E+00
 -1      1648 1.48701E+02 4.04625E+01 0.00000E+00
 -1      1649 1.48701E+02 3.89875E+01 0.00000E+00
 -1      1650 1.47402E+02 3.82500E+01 0.00000E+00
 -1      1651 1.48701E+02 4.34125E+01 0.00000E+00
 -1      1652 1.48701E+02 4.19375E+01 0.00000E+00
 -1      1653 1.47402E+02 4.12000E+01 0.00000E+00
 -1      1654 1.48788E+02 4.60315E+01 0.00000E+00
 -1      1655 1.48788E+02 4.45565E+01 0.00000E+00
 -1      1656 1.47489E+02 4.38190E+01 0.00000E+00
 -1      1657 1.47663E+02 4.61070E+01 0.00000E+00
 -1      1658 5.11253E+01 3.34787E+01 0.00000E+00
 -1      1659 5.11948E+01 3.41725E+01 0.00000E+00
 -1      1660 5.08332E+01 3.17689E+01 0.00000E+00
 -1      1661 5.10926E+01 3.25563E+01 0.00000E+00
 -1      1662 4.99378E+01 3.03855E+01 0.00000E+00
 -1      1663 5.03051E+01 3.09992E+01 0.00000E+00
 -1      1664 4.89907E+01 2.91675E+01 0.00000E+00
 -1      1665 4.94710E+01 2.96901E+01 0.00000E+00
 -1      1666 4.78151E+01 2.81155E+01 0.00000E+00
 -1      1667 4.84049E+01 2.85385E+01 0.00000E+00
 -1      1668 4.63050E+01 2.74502E+01 0.00000E+00
 -1      1669 4.70027E+01 2.77529E+01 0.00000E+00
 -1      1670 4.46884E+01 2.70806E+01 0.00000E+00
 -1      1671 4.54384E+01 2.72257E+01 0.00000E+00
 -1      1672 4.30780E+01 2.70234E+01 0.00000E+00
 -1      1673 4.38153E+01 2.70059E+01 0.00000E+00
 -1      1674 4.14675E+01 2.72757E+01 0.00000E+00
 -1      1675 4.22033E+01 2.70974E+01 0.00000E+00
 -1      1676 3.98057E+01 2.78526E+01 0.00000E+00
 -1      1677 4.05394E+01 2.74859E+01 0.00000E+00
 -1      1678 3.85115E+01 2.89347E+01 0.00000E+00
 -1      1679 3.90862E+01 2.84630E+01 0.00000E+00
 -1      1680 3.74559E+01 3.01864E+01 0.00000E+00
 -1      1681 3.79251E+01 2.95926E+01 0.00000E+00
 -1      1682 3.66862E+01 3.15340E+01 0.00000E+00
 -1      1683 3.69979E+01 3.09047E+01 0.00000E+00
 -1      1684 3.62095E+01 3.30331E+01 0.00000E+00
 -1      1685 3.63944E+01 3.23212E+01 0.00000E+00
 -1      1686 3.59693E+01 3.46637E+01 0.00000E+00
 -1      1687 3.59993E+01 3.38975E+01 0.00000E+00
 -1      1688 3.61263E+01 3.63234E+01 0.00000E+00
 -1      1689 3.59912E+01 3.55773E+01 0.00000E+00
 -1      1690 3.67552E+01 3.77771E+01 0.00000E+00
 -1      1691 3.64871E+01 3.71230E+01 0.00000E+00
 -1      1692 3.75729E+01 3.91350E+01 0.00000E+00
 -1      1693 3.71566E+01 3.85215E+01 0.00000E+00
 -1      1694 3.86537E+01 4.04020E+01 0.00000E+00
 -1      1695 3.80903E+01 3.98692E+01 0.00000E+00
 -1      1696 4.01405E+01 4.13001E+01 0.00000E+00
 -1      1697 3.94484E+01 4.08932E+01 0.00000E+00
 -1      1698 4.16130E+01 4.18861E+01 0.00000E+00
 -1      1699 4.09415E+01 4.16669E+01 0.00000E+00
 -1      1700 4.31926E+01 4.21841E+01 0.00000E+00
 -1      1701 4.24428E+01 4.21039E+01 0.00000E+00
 -1      1702 4.48548E+01 4.20528E+01 0.00000E+00
 -1      1703 4.40876E+01 4.21390E+01 0.00000E+00
 -1      1704 4.65595E+01 4.16481E+01 0.00000E+00
 -1      1705 4.57869E+01 4.19212E+01 0.00000E+00
 -1      1706 4.80134E+01 4.07534E+01 0.00000E+00
 -1      1707 4.73654E+01 4.11660E+01 0.00000E+00
 -1      1708 4.92642E+01 3.96356E+01 0.00000E+00
 -1      1709 4.87159E+01 4.01873E+01 0.00000E+00
 -1      1710 5.02461E+01 3.82565E+01 0.00000E+00
 -1      1711 4.98303E+01 3.89214E+01 0.00000E+00
 -1      1712 5.08836E+01 3.67528E+01 0.00000E+00
 -1      1713 5.06355E+01 3.74542E+01 0.00000E+00
 -1      1714 5.12641E+01 3.50652E+01 0.00000E+00
 -1      1715 5.11690E+01 3.58753E+01 0.00000E+00
 -1      1716 5.01748E+01 2.96856E+01 0.00000E+00
 -1      1717 5.18325E+01 3.46579E+01 0.00000E+00
 -1      1718 1.48437E+02 2.56875E+00 0.00000E+00
 -1      1719 1.47138E+02 3.30625E+00 0.00000E+00
 -1      1720 5.17305E+01 3.28428E+01 0.00000E+00
 -1      1721 5.11697E+01 3.11508E+01 0.00000E+00
 -1      1722 4.91223E+01 2.83613E+01 0.00000E+00
 -1      1723 4.77242E+01 2.73696E+01 0.00000E+00
 -1      1724 4.60452E+01 2.67825E+01 0.00000E+00
 -1      1725 4.43054E+01 2.64833E+01 0.00000E+00
 -1      1726 4.25575E+01 2.64826E+01 0.00000E+00
 -1      1727 4.07547E+01 2.67669E+01 0.00000E+00
 -1      1728 3.91071E+01 2.75875E+01 0.00000E+00
 -1      1729 3.78013E+01 2.88558E+01 0.00000E+00
 -1      1730 3.67569E+01 3.02320E+01 0.00000E+00
 -1      1731 3.60070E+01 3.17375E+01 0.00000E+00
 -1      1732 3.55050E+01 3.33892E+01 0.00000E+00
 -1      1733 3.53167E+01 3.51672E+01 0.00000E+00
 -1      1734 3.56994E+01 3.68803E+01 0.00000E+00
 -1      1735 3.64617E+01 3.84243E+01 0.00000E+00
 -1      1736 3.73805E+01 3.99028E+01 0.00000E+00
 -1      1737 3.86926E+01 4.11281E+01 0.00000E+00
 -1      1738 4.02881E+01 4.19860E+01 0.00000E+00
 -1      1739 4.19190E+01 4.25706E+01 0.00000E+00
 -1      1740 4.36439E+01 4.27434E+01 0.00000E+00
 -1      1741 4.54710E+01 4.25668E+01 0.00000E+00
 -1      1742 4.72091E+01 4.19531E+01 0.00000E+00
 -1      1743 4.87175E+01 4.09049E+01 0.00000E+00
 -1      1744 4.99861E+01 3.96246E+01 0.00000E+00
 -1      1745 5.09416E+01 3.81080E+01 0.00000E+00
 -1      1746 5.16164E+01 3.64282E+01 0.00000E+00
 -1      1747 2.87400E+00 4.77875E+01 0.00000E+00
 -1      1748 3.89700E+00 4.04125E+01 0.00000E+00
 -1      1749 3.89700E+00 4.18875E+01 0.00000E+00
 -1      1750 3.89700E+00 4.33625E+01 0.00000E+00
 -1      1751 3.89700E+00 4.48375E+01 0.00000E+00
 -1      1752 5.19600E+00 4.26250E+01 0.00000E+00
 -1      1753 3.89700E+00 3.45500E+01 0.00000E+00
 -1      1754 3.89700E+00 3.60000E+01 0.00000E+00
 -1      1755 3.89700E+00 3.16000E+01 0.00000E+00
 -1      1756 3.89700E+00 3.30750E+01 0.00000E+00
 -1      1757 5.19600E+00 3.38000E+01 0.00000E+00
 -1      1758 3.89700E+00 2.86500E+01 0.00000E+00
 -1      1759 3.89700E+00 3.01250E+01 0.00000E+00
 -1      1760 5.19600E+00 3.08500E+01 0.00000E+00
 -1      1761 3.89700E+00 2.57000E+01 0.00000E+00
 -1      1762 3.89700E+00 2.71750E+01 0.00000E+00
 -1      1763 5.19600E+00 2.79000E+01 0.00000E+00
 -1      1764 3.89700E+00 2.27500E+01 0.00000E+00
 -1      1765 3.89700E+00 2.42250E+01 0.00000E+00
 -1      1766 5.19600E+00 2.49500E+01 0.00000E+00
 -1      1767 3.89700E+00 1.98000E+01 0.00000E+00
 -1      1768 3.89700E+00 2.12750E+01 0.00000E+00
 -1      1769 5.19600E+00 2.20000E+01 0.00000E+00
 -1      1770 3.89700E+00 1.69000E+01 0.00000E+00
 -1      1771 3.89700E+00 1.83500E+01 0.00000E+00
 -1      1772 5.19600E+00 1.90750E+01 0.00000E+00
 -1      1773 3.89700E+00 1.39500E+01 0.00000E+00
 -1      1774 3.89700E+00 1.54250E+01 0.00000E+00
 -1      1775 5.19600E+00 1.61500E+01 0.00000E+00
 -1      1776 3.89700E+00 1.10000E+01 0.00000E+00
 -1      1777 3.89700E+00 1.24750E+01 0.00000E+00
 -1      1778 5.19600E+00 1.32000E+01 0.00000E+00
 -1      1779 3.89700E+00 8.05000E+00 0.00000E+00
 -1      1780 3.89700E+00 9.52500E+00 0.00000E+00
 -1      1781 5.19600E+00 1.02500E+01 0.00000E+00
 -1      1782 3.89700E+00 5.10000E+00 0.00000E+00
 -1      1783 3.89700E+00 6.57500E+00 0.00000E+00
 -1      1784 5.19600E+00 7.30000E+00 0.00000E+00
 -1      1785 4.20450E+00 3.09687E+00 0.00000E+00
 -1      1786 4.06650E+00 4.19063E+00 0.00000E+00
 -1      1787 5.36550E+00 4.91563E+00 0.00000E+00
 -1      1788 5.70450E+00 3.09687E+00 0.00000E+00
 -1      1789 3.62400E+00 4.64885E+01 0.00000E+00
 -1      1790 8.70450E+00 3.09687E+00 0.00000E+00
 -1      1791 7.20450E+00 3.09687E+00 0.00000E+00
 -1      1792 7.03500E+00 4.00625E+00 0.00000E+00
 -1      1793 4.92300E+00 4.57510E+01 0.00000E+00
 -1      1794 8.40000E+00 4.61030E+01 0.00000E+00
 -1      1795 9.90000E+00 4.61030E+01 0.00000E+00
 -1      1796 1.14000E+01 4.61030E+01 0.00000E+00
 -1      1797 1.29000E+01 4.61030E+01 0.00000E+00
 -1      1798 1.06500E+01 4.48040E+01 0.00000E+00
 -1      1799 1.44000E+01 4.61030E+01 0.00000E+00
 -1      1800 1.59000E+01 4.61030E+01 0.00000E+00
 -1      1801 1.36500E+01 4.48040E+01 0.00000E+00
 -1      1802 1.74000E+01 4.61030E+01 0.00000E+00
 -1      1803 1.89000E+01 4.61030E+01 0.00000E+00
 -1      1804 1.66500E+01 4.48040E+01 0.00000E+00
 -1      1805 2.04000E+01 4.61030E+01 0.00000E+00
 -1      1806 2.19000E+01 4.61030E+01 0.00000E+00
 -1      1807 1.96500E+01 4.48040E+01 0.00000E+00
 -1      1808 2.34000E+01 4.61030E+01 0.00000E+00
 -1      1809 2.49000E+01 4.61030E+01 0.00000E+00
 -1      1810 2.26500E+01 4.48040E+01 0.00000E+00
 -1      1811 2.64000E+01 4.61030E+01 0.00000E+00
 -1      1812 2.79000E+01 4.61030E+01 0.00000E+00
 -1      1813 2.56500E+01 4.48040E+01 0.00000E+00
 -1      1814 2.94000E+01 4.61030E+01 0.00000E+00
 -1      1815 3.09000E+01 4.61030E+01 0.00000E+00
 -1      1816 2.86500E+01 4.48040E+01 0.00000E+00
 -1      1817 3.24000E+01 4.61030E+01 0.00000E+00
 -1      1818 3.39000E+01 4.61030E+01 0.00000E+00
 -1      1819 3.16500E+01 4.48040E+01 0.00000E+00
 -1      1820 3.54000E+01 4.61030E+01 0.00000E+00
 -1      1821 3.69000E+01 4.61030E+01 0.00000E+00
 -1      1822 3.46500E+01 4.48040E+01 0.00000E+00
 -1      1823 3.82500E+01 4.61030E+01 0.00000E+00
 -1      1824 3.96000E+01 4.61030E+01 0.00000E+00
 -1      1825 3.75000E+01 4.48040E+01 0.00000E+00
 -1      1826 4.11000E+01 4.63769E+01 0.00000E+00
 -1      1827 4.26000E+01 4.63769E+01 0.00000E+00
 -1      1828 4.40625E+01 4.62931E+01 0.00000E+00
 -1      1829 4.54875E+01 4.62931E+01 0.00000E+00
 -1      1830 4.69500E+01 4.62931E+01 0.00000E+00
 -1      1831 4.84500E+01 4.62931E+01 0.00000E+00
 -1      1832 4.99500E+01 4.62093E+01 0.00000E+00
 -1      1833 5.14500E+01 4.62093E+01 0.00000E+00
 -1      1834 5.29500E+01 4.62093E+01 0.00000E+00
 -1      1835 5.44500E+01 4.62093E+01 0.00000E+00
 -1      1836 5.22000E+01 4.50166E+01 0.00000E+00
 -1      1837 5.59500E+01 4.62093E+01 0.00000E+00
 -1      1838 5.74500E+01 4.62093E+01 0.00000E+00
 -1      1839 5.52000E+01 4.50166E+01 0.00000E+00
 -1      1840 5.89500E+01 4.62093E+01 0.00000E+00
 -1      1841 6.04500E+01 4.62093E+01 0.00000E+00
 -1      1842 5.82000E+01 4.50166E+01 0.00000E+00
 -1      1843 6.19500E+01 4.62093E+01 0.00000E+00
 -1      1844 6.34500E+01 4.62093E+01 0.00000E+00
 -1      1845 6.12000E+01 4.50166E+01 0.00000E+00
 -1      1846 6.50250E+01 4.62093E+01 0.00000E+00
 -1      1847 6.66000E+01 4.62093E+01 0.00000E+00
 -1      1848 6.42750E+01 4.50166E+01 0.00000E+00
 -1      1849 6.81000E+01 4.62093E+01 0.00000E+00
 -1      1850 6.96000E+01 4.62093E+01 0.00000E+00
 -1      1851 6.73500E+01 4.50166E+01 0.00000E+00
 -1      1852 7.11000E+01 4.62093E+01 0.00000E+00
 -1      1853 7.26000E+01 4.62093E+01 0.00000E+00
 -1      1854 7.03500E+01 4.50166E+01 0.00000E+00
 -1      1855 7.41000E+01 4.62093E+01 0.00000E+00
 -1      1856 7.56000E+01 4.62093E+01 0.00000E+00
 -1      1857 7.33500E+01 4.50166E+01 0.00000E+00
 -1      1858 7.71000E+01 4.62093E+01 0.00000E+00
 -1      1859 7.86000E+01 4.62093E+01 0.00000E+00
 -1      1860 7.63500E+01 4.50166E+01 0.00000E+00
 -1      1861 8.01000E+01 4.62093E+01 0.00000E+00
 -1      1862 8.16000E+01 4.62093E+01 0.00000E+00
 -1      1863 7.93500E+01 4.50166E+01 0.00000E+00
 -1      1864 8.31000E+01 4.62093E+01 0.00000E+00
 -1      1865 8.46000E+01 4.62093E+01 0.00000E+00
 -1      1866 8.23500E+01 4.50166E+01 0.00000E+00
 -1      1867 8.61000E+01 4.62093E+01 0.00000E+00
 -1      1868 8.76000E+01 4.62093E+01 0.00000E+00
 -1      1869 8.53500E+01 4.50166E+01 0.00000E+00
 -1      1870 8.91000E+01 4.62093E+01 0.00000E+00
 -1      1871 9.06000E+01 4.62093E+01 0.00000E+00
 -1      1872 8.83500E+01 4.50166E+01 0.00000E+00
 -1      1873 9.21000E+01 4.62093E+01 0.00000E+00
 -1      1874 9.36000E+01 4.62093E+01 0.00000E+00
 -1      1875 9.13500E+01 4.50166E+01 0.00000E+00
 -1      1876 9.51000E+01 4.62093E+01 0.00000E+00
 -1      1877 9.66000E+01 4.62093E+01 0.00000E+00
 -1      1878 9.43500E+01 4.50166E+01 0.00000E+00
 -1      1879 9.81000E+01 4.62093E+01 0.00000E+00
 -1      1880 9.96000E+01 4.62093E+01 0.00000E+00
 -1      1881 9.73500E+01 4.50166E+01 0.00000E+00
 -1      1882 1.01100E+02 4.62093E+01 0.00000E+00
 -1      1883 1.02600E+02 4.62093E+01 0.00000E+00
 -1      1884 1.00350E+02 4.50166E+01 0.00000E+00
 -1      1885 1.04100E+02 4.62093E+01 0.00000E+00
 -1      1886 1.05600E+02 4.62093E+01 0.00000E+00
 -1      1887 1.03350E+02 4.50166E+01 0.00000E+00
 -1      1888 1.07175E+02 4.62093E+01 0.00000E+00
 -1      1889 1.08750E+02 4.62093E+01 0.00000E+00
 -1      1890 1.06425E+02 4.50166E+01 0.00000E+00
 -1      1891 1.10250E+02 4.62093E+01 0.00000E+00
 -1      1892 1.11750E+02 4.62093E+01 0.00000E+00
 -1      1893 1.09500E+02 4.50166E+01 0.00000E+00
 -1      1894 1.13250E+02 4.62093E+01 0.00000E+00
 -1      1895 1.14750E+02 4.62093E+01 0.00000E+00
 -1      1896 1.12500E+02 4.50166E+01 0.00000E+00
 -1      1897 1.16250E+02 4.62093E+01 0.00000E+00
 -1      1898 1.17750E+02 4.62093E+01 0.00000E+00
 -1      1899 1.15500E+02 4.50166E+01 0.00000E+00
 -1      1900 1.19250E+02 4.62093E+01 0.00000E+00
 -1      1901 1.20750E+02 4.62093E+01 0.00000E+00
 -1      1902 1.18500E+02 4.50166E+01 0.00000E+00
 -1      1903 1.22250E+02 4.62093E+01 0.00000E+00
 -1      1904 1.23750E+02 4.62093E+01 0.00000E+00
 -1      1905 1.21500E+02 4.50166E+01 0.00000E+00
 -1      1906 1.25250E+02 4.62093E+01 0.00000E+00
 -1      1907 1.26750E+02 4.62093E+01 0.00000E+00
 -1      1908 1.24500E+02 4.50166E+01 0.00000E+00
 -1      1909 1.28250E+02 4.62093E+01 0.00000E+00
 -1      1910 1.29750E+02 4.62093E+01 0.00000E+00
 -1      1911 1.27500E+02 4.50166E+01 0.00000E+00
 -1      1912 1.31250E+02 4.62093E+01 0.00000E+00
 -1      1913 1.32750E+02 4.62093E+01 0.00000E+00
 -1      1914 1.30500E+02 4.50166E+01 0.00000E+00
 -1      1915 1.34250E+02 4.62093E+01 0.00000E+00
 -1      1916 1.35750E+02 4.62093E+01 0.00000E+00
 -1      1917 1.33500E+02 4.50166E+01 0.00000E+00
 -1      1918 1.37250E+02 4.62093E+01 0.00000E+00
 -1      1919 1.38750E+02 4.62093E+01 0.00000E+00
 -1      1920 1.36500E+02 4.50166E+01 0.00000E+00
 -1      1921 1.40250E+02 4.62093E+01 0.00000E+00
 -1      1922 1.41750E+02 4.62093E+01 0.00000E+00
 -1      1923 1.39500E+02 4.50166E+01 0.00000E+00
 -1      1924 1.43250E+02 4.62093E+01 0.00000E+00
 -1      1925 1.44750E+02 4.62093E+01 0.00000E+00
 -1      1926 1.42500E+02 4.50166E+01 0.00000E+00
 -1      1927 1.46538E+02 4.61825E+01 0.00000E+00
 -1      1928 1.41240E+01 3.48650E+00 0.00000E+00
 -1      1929 1.26240E+01 3.48650E+00 0.00000E+00
 -1      1930 1.71240E+01 3.48650E+00 0.00000E+00
 -1      1931 1.56240E+01 3.48650E+00 0.00000E+00
 -1      1932 1.48740E+01 4.78550E+00 0.00000E+00
 -1      1933 2.01240E+01 3.48650E+00 0.00000E+00
 -1      1934 1.86240E+01 3.48650E+00 0.00000E+00
 -1      1935 1.78740E+01 4.78550E+00 0.00000E+00
 -1      1936 2.31240E+01 3.48650E+00 0.00000E+00
 -1      1937 2.16240E+01 3.48650E+00 0.00000E+00
 -1      1938 2.08740E+01 4.78550E+00 0.00000E+00
 -1      1939 2.61240E+01 3.48650E+00 0.00000E+00
 -1      1940 2.46240E+01 3.48650E+00 0.00000E+00
 -1      1941 2.38740E+01 4.78550E+00 0.00000E+00
 -1      1942 2.91240E+01 3.48650E+00 0.00000E+00
 -1      1943 2.76240E+01 3.48650E+00 0.00000E+00
 -1      1944 2.68740E+01 4.78550E+00 0.00000E+00
 -1      1945 3.21240E+01 3.48650E+00 0.00000E+00
 -1      1946 3.06240E+01 3.48650E+00 0.00000E+00
 -1      1947 2.98740E+01 4.78550E+00 0.00000E+00
 -1      1948 3.51240E+01 3.48650E+00 0.00000E+00
 -1      1949 3.36240E+01 3.48650E+00 0.00000E+00
 -1      1950 3.28740E+01 4.78550E+00 0.00000E+00
 -1      1951 3.81240E+01 3.48650E+00 0.00000E+00
 -1      1952 3.66240E+01 3.48650E+00 0.00000E+00
 -1      1953 3.58740E+01 4.78550E+00 0.00000E+00
 -1      1954 4.11240E+01 3.48650E+00 0.00000E+00
 -1      1955 3.96240E+01 3.48650E+00 0.00000E+00
 -1      1956 3.88740E+01 4.78550E+00 0.00000E+00
 -1      1957 4.41240E+01 3.48650E+00 0.00000E+00
 -1      1958 4.26240E+01 3.48650E+00 0.00000E+00
 -1      1959 4.18740E+01 4.78550E+00 0.00000E+00
 -1      1960 4.71240E+01 3.48650E+00 0.00000E+00
 -1      1961 4.56240E+01 3.48650E+00 0.00000E+00
 -1      1962 4.48740E+01 4.78550E+00 0.00000E+00
 -1      1963 5.01240E+01 3.48650E+00 0.00000E+00
 -1      1964 4.86240E+01 3.48650E+00 0.00000E+00
 -1      1965 4.78740E+01 4.78550E+00 0.00000E+00
 -1      1966 5.31240E+01 3.48650E+00 0.00000E+00
 -1      1967 5.16240E+01 3.48650E+00 0.00000E+00
 -1      1968 5.08740E+01 4.78550E+00 0.00000E+00
 -1      1969 5.61240E+01 3.48650E+00 0.00000E+00
 -1      1970 5.46240E+01 3.48650E+00 0.00000E+00
 -1      1971 5.38740E+01 4.78550E+00 0.00000E+00
 -1      1972 5.91240E+01 3.48650E+00 0.00000E+00
 -1      1973 5.76240E+01 3.48650E+00 0.00000E+00
 -1      1974 5.68740E+01 4.78550E+00 0.00000E+00
 -1      1975 6.21240E+01 3.48650E+00 0.00000E+00
 -1      1976 6.06240E+01 3.48650E+00 0.00000E+00
 -1      1977 5.98740E+01 4.78550E+00 0.00000E+00
 -1      1978 6.51240E+01 3.48650E+00 0.00000E+00
 -1      1979 6.36240E+01 3.48650E+00 0.00000E+00
 -1      1980 6.28740E+01 4.78550E+00 0.00000E+00
 -1      1981 6.81240E+01 3.48650E+00 0.00000E+00
 -1      1982 6.66240E+01 3.48650E+00 0.00000E+00
 -1      1983 6.58740E+01 4.78550E+00 0.00000E+00
 -1      1984 7.11240E+01 3.48650E+00 0.00000E+00
 -1      1985 6.96240E+01 3.48650E+00 0.00000E+00
 -1      1986 6.88740E+01 4.78550E+00 0.00000E+00
 -1      1987 7.41240E+01 3.48650E+00 0.00000E+00
 -1      1988 7.26240E+01 3.48650E+00 0.00000E+00
 -1      1989 7.18740E+01 4.78550E+00 0.00000E+00
 -1      1990 7.71240E+01 3.48650E+00 0.00000E+00
 -1      1991 7.56240E+01 3.48650E+00 0.00000E+00
 -1      1992 7.48740E+01 4.78550E+00 0.00000E+00
 -1      1993 8.01240E+01 3.48650E+00 0.00000E+00
 -1      1994 7.86240E+01 3.48650E+00 0.00000E+00
 -1      1995 7.78740E+01 4.78550E+00 0.00000E+00
 -1      1996 8.31240E+01 3.48650E+00 0.00000E+00
 -1      1997 8.16240E+01 3.48650E+00 0.00000E+00
 -1      1998 8.08740E+01 4.78550E+00 0.00000E+00
 -1      1999 8.61240E+01 3.48650E+00 0.00000E+00
 -1      2000 8.46240E+01 3.48650E+00 0.00000E+00
 -1      2001 8.38740E+01 4.78550E+00 0.00000E+00
 -1      2002 8.91240E+01 3.48650E+00 0.00000E+00
 -1      2003 8.76240E+01 3.48650E+00 0.00000E+00
 -1      2004 8.68740E+01 4.78550E+00 0.00000E+00
 -1      2005 9.21240E+01 3.48650E+00 0.00000E+00
 -1      2006 9.06240E+01 3.48650E+00 0.00000E+00
 -1      2007 8.98740E+01 4.78550E+00 0.00000E+00
 -1      2008 9.51240E+01 3.48650E+00 0.00000E+00
 -1      2009 9.36240E+01 3.48650E+00 0.00000E+00
 -1      2010 9.28740E+01 4.78550E+00 0.00000E+00
 -1      2011 9.81240E+01 3.48650E+00 0.00000E+00
 -1      2012 9.66240E+01 3.48650E+00 0.00000E+00
 -1      2013 9.58740E+01 4.78550E+00 0.00000E+00
 -1      2014 1.01124E+02 3.48650E+00 0.00000E+00
 -1      2015 9.96240E+01 3.48650E+00 0.00000E+00
 -1      2016 9.88740E+01 4.78550E+00 0.00000E+00
 -1      2017 1.04124E+02 3.48650E+00 0.00000E+00
 -1      2018 1.02624E+02 3.48650E+00 0.00000E+00
 -1      2019 1.01874E+02 4.78550E+00 0.00000E+00
 -1      2020 1.07124E+02 3.48650E+00 0.00000E+00
 -1      2021 1.05624E+02 3.48650E+00 0.00000E+00
 -1      2022 1.04874E+02 4.78550E+00 0.00000E+00
 -1      2023 1.10124E+02 3.48650E+00 0.00000E+00
 -1      2024 1.08624E+02 3.48650E+00 0.00000E+00
 -1      2025 1.07874E+02 4.78550E+00 0.00000E+00
 -1      2026 1.13124E+02 3.48650E+00 0.00000E+00
 -1      2027 1.11624E+02 3.48650E+00 0.00000E+00
 -1      2028 1.10874E+02 4.78550E+00 0.00000E+00
 -1      2029 1.16124E+02 3.48650E+00 0.00000E+00
 -1      2030 1.14624E+02 3.48650E+00 0.00000E+00
 -1      2031 1.13874E+02 4.78550E+00 0.00000E+00
 -1      2032 1.19124E+02 3.48650E+00 0.00000E+00
 -1      2033 1.17624E+02 3.48650E+00 0.00000E+00
 -1      2034 1.16874E+02 4.78550E+00 0.00000E+00
 -1      2035 1.22124E+02 3.48650E+00 0.00000E+00
 -1      2036 1.20624E+02 3.48650E+00 0.00000E+00
 -1      2037 1.19874E+02 4.78550E+00 0.00000E+00
 -1      2038 1.25124E+02 3.48650E+00 0.00000E+00
 -1      2039 1.23624E+02 3.48650E+00 0.00000E+00
 -1      2040 1.22874E+02 4.78550E+00 0.00000E+00
 -1      2041 1.28124E+02 3.48650E+00 0.00000E+00
 -1      2042 1.26624E+02 3.48650E+00 0.00000E+00
 -1      2043 1.25874E+02 4.78550E+00 0.00000E+00
 -1      2044 1.31124E+02 3.48650E+00 0.00000E+00
 -1      2045 1.29624E+02 3.48650E+00 0.00000E+00
 -1      2046 1.28874E+02 4.78550E+00 0.00000E+00
 -1      2047 1.34124E+02 3.48650E+00 0.00000E+00
 -1      2048 1.32624E+02 3.48650E+00 0.00000E+00
 -1      2049 1.31874E+02 4.78550E+00 0.00000E+00
 -1      2050 1.37124E+02 3.48650E+00 0.00000E+00
 -1      2051 1.35624E+02 3.48650E+00 0.00000E+00
 -1      2052 1.34874E+02 4.78550E+00 0.00000E+00
 -1      2053 1.40124E+02 3.48650E+00 0.00000E+00
 -1      2054 1.38624E+02 3.48650E+00 0.00000E+00
 -1      2055 1.37874E+02 4.78550E+00 0.00000E+00
 -1      2056 1.43124E+02 3.48650E+00 0.00000E+00
 -1      2057 1.41624E+02 3.48650E+00 0.00000E+00
 -1      2058 1.40874E+02 4.78550E+00 0.00000E+00
 -1      2059 1.45881E+02 3.39637E+00 0.00000E+00
 -1      2060 1.44381E+02 3.39637E+00 0.00000E+00
 -1      2061 1.43631E+02 4.69537E+00 0.00000E+00
 -1      2062 1.46145E+02 4.51512E+00 0.00000E+00
 -1      2063 1.46103E+02 1.25375E+01 0.00000E+00
 -1      2064 1.46103E+02 1.10625E+01 0.00000E+00
 -1      2065 1.46103E+02 9.58750E+00 0.00000E+00
 -1      2066 1.46103E+02 8.11250E+00 0.00000E+00
 -1      2067 1.44804E+02 1.03250E+01 0.00000E+00
 -1      2068 1.46145E+02 5.99013E+00 0.00000E+00
 -1      2069 1.46103E+02 1.54375E+01 0.00000E+00
 -1      2070 1.46103E+02 1.39875E+01 0.00000E+00
 -1      2071 1.44804E+02 1.32500E+01 0.00000E+00
 -1      2072 1.46103E+02 1.83875E+01 0.00000E+00
 -1      2073 1.46103E+02 1.69125E+01 0.00000E+00
 -1      2074 1.44804E+02 1.61750E+01 0.00000E+00
 -1      2075 1.46103E+02 2.13375E+01 0.00000E+00
 -1      2076 1.46103E+02 1.98625E+01 0.00000E+00
 -1      2077 1.44804E+02 1.91250E+01 0.00000E+00
 -1      2078 1.46103E+02 2.42875E+01 0.00000E+00
 -1      2079 1.46103E+02 2.28125E+01 0.00000E+00
 -1      2080 1.44804E+02 2.20750E+01 0.00000E+00
 -1      2081 1.46103E+02 2.72375E+01 0.00000E+00
 -1      2082 1.46103E+02 2.57625E+01 0.00000E+00
 -1      2083 1.44804E+02 2.50250E+01 0.00000E+00
 -1      2084 1.46103E+02 3.01875E+01 0.00000E+00
 -1      2085 1.46103E+02 2.87125E+01 0.00000E+00
 -1      2086 1.44804E+02 2.79750E+01 0.00000E+00
 -1      2087 1.46103E+02 3.30875E+01 0.00000E+00
 -1      2088 1.46103E+02 3.16375E+01 0.00000E+00
 -1      2089 1.44804E+02 3.09000E+01 0.00000E+00
 -1      2090 1.46103E+02 3.60375E+01 0.00000E+00
 -1      2091 1.46103E+02 3.45625E+01 0.00000E+00
 -1      2092 1.44804E+02 3.38250E+01 0.00000E+00
 -1      2093 1.46103E+02 3.89875E+01 0.00000E+00
 -1      2094 1.46103E+02 3.75125E+01 0.00000E+00
 -1      2095 1.44804E+02 3.67750E+01 0.00000E+00
 -1      2096 1.46103E+02 4.19375E+01 0.00000E+00
 -1      2097 1.46103E+02 4.04625E+01 0.00000E+00
 -1      2098 1.44804E+02 3.97250E+01 0.00000E+00
 -1      2099 1.14143E+01 3.29169E+00 0.00000E+00
 -1      2100 9.91425E+00 3.29169E+00 0.00000E+00
 -1      2101 9.74475E+00 4.20106E+00 0.00000E+00
 -1      2102 1.21643E+01 4.59069E+00 0.00000E+00
 -1      2103 5.14400E+01 3.03992E+01 0.00000E+00
 -1      2104 5.19682E+01 3.11690E+01 0.00000E+00
 -1      2105 4.93343E+01 2.75765E+01 0.00000E+00
 -1      2106 4.99201E+01 2.82055E+01 0.00000E+00
 -1      2107 5.24440E+01 3.41614E+01 0.00000E+00
 -1      2108 5.25133E+01 3.50541E+01 0.00000E+00
 -1      2109 5.05143E+01 2.89534E+01 0.00000E+00
 -1      2110 5.09811E+01 2.96488E+01 0.00000E+00
 -1      2111 3.89700E+00 3.74688E+01 0.00000E+00
 -1      2112 3.89700E+00 3.89437E+01 0.00000E+00
 -1      2113 5.19600E+00 3.96813E+01 0.00000E+00
 -1      2114 5.19600E+00 3.67438E+01 0.00000E+00
 -1      2115 4.76334E+01 2.64818E+01 0.00000E+00
 -1      2116 4.84457E+01 2.68444E+01 0.00000E+00
 -1      2117 4.58165E+01 2.58806E+01 0.00000E+00
 -1      2118 4.66831E+01 2.61052E+01 0.00000E+00
 -1      2119 4.39348E+01 2.56750E+01 0.00000E+00
 -1      2120 4.48080E+01 2.57497E+01 0.00000E+00
 -1      2121 4.20620E+01 2.58321E+01 0.00000E+00
 -1      2122 4.29367E+01 2.57581E+01 0.00000E+00
 -1      2123 4.01012E+01 2.60356E+01 0.00000E+00
 -1      2124 4.10293E+01 2.58254E+01 0.00000E+00
 -1      2125 3.82468E+01 2.73027E+01 0.00000E+00
 -1      2126 3.89662E+01 2.66923E+01 0.00000E+00
 -1      2127 3.69930E+01 2.87256E+01 0.00000E+00
 -1      2128 3.75794E+01 2.80678E+01 0.00000E+00
 -1      2129 3.58401E+01 3.01526E+01 0.00000E+00
 -1      2130 3.62981E+01 2.94343E+01 0.00000E+00
 -1      2131 3.52534E+01 3.19058E+01 0.00000E+00
 -1      2132 3.55453E+01 3.11186E+01 0.00000E+00
 -1      2133 3.47295E+01 3.36584E+01 0.00000E+00
 -1      2134 3.49397E+01 3.27939E+01 0.00000E+00
 -1      2135 3.45541E+01 3.56425E+01 0.00000E+00
 -1      2136 3.45322E+01 3.47290E+01 0.00000E+00
 -1      2137 3.51363E+01 3.76156E+01 0.00000E+00
 -1      2138 3.47755E+01 3.68161E+01 0.00000E+00
 -1      2139 3.60920E+01 3.91041E+01 0.00000E+00
 -1      2140 3.56905E+01 3.83597E+01 0.00000E+00
 -1      2141 3.70068E+01 4.07156E+01 0.00000E+00
 -1      2142 3.64894E+01 3.99814E+01 0.00000E+00
 -1      2143 3.86390E+01 4.21031E+01 0.00000E+00
 -1      2144 3.78444E+01 4.16119E+01 0.00000E+00
 -1      2145 4.21374E+01 4.34279E+01 0.00000E+00
 -1      2146 4.13076E+01 4.32101E+01 0.00000E+00
 -1      2147 4.41282E+01 4.34518E+01 0.00000E+00
 -1      2148 4.32331E+01 4.34968E+01 0.00000E+00
 -1      2149 4.79448E+01 4.22682E+01 0.00000E+00
 -1      2150 4.71388E+01 4.27504E+01 0.00000E+00
 -1      2151 4.95805E+01 4.12570E+01 0.00000E+00
 -1      2152 4.88781E+01 4.18231E+01 0.00000E+00
 -1      2153 5.08755E+01 3.97481E+01 0.00000E+00
 -1      2154 5.03094E+01 4.04623E+01 0.00000E+00
 -1      2155 5.17194E+01 3.79898E+01 0.00000E+00
 -1      2156 5.13299E+01 3.87922E+01 0.00000E+00
 -1      2157 5.24153E+01 3.62028E+01 0.00000E+00
 -1      2158 5.21299E+01 3.70803E+01 0.00000E+00
 -1      2159 5.23786E+01 3.23167E+01 0.00000E+00
 -1      2160 5.24113E+01 3.32390E+01 0.00000E+00
 -1      2161 5.30921E+01 3.36353E+01 0.00000E+00
 -1      2162 4.03500E+01 4.50779E+01 0.00000E+00
 -1      2163 4.33125E+01 4.52680E+01 0.00000E+00
 -1      2164 6.42300E+00 4.57510E+01 0.00000E+00
 -1      2165 4.62375E+01 4.51842E+01 0.00000E+00
 -1      2166 5.17795E+01 2.96670E+01 0.00000E+00
 -1      2167 4.92436E+01 2.66887E+01 0.00000E+00
 -1      2168 7.17300E+00 4.44520E+01 0.00000E+00
 -1      2169 1.45788E+02 4.49898E+01 0.00000E+00
 -1      2170 1.44846E+02 6.72762E+00 0.00000E+00
 -1      2171 1.45701E+02 4.38458E+01 0.00000E+00
 -1      2172 5.26489E+01 3.15652E+01 0.00000E+00
 -1      2173 5.33297E+01 3.19614E+01 0.00000E+00
 -1      2174 5.29193E+01 3.08137E+01 0.00000E+00
 -1      2175 5.30268E+01 3.57063E+01 0.00000E+00
 -1      2176 5.35402E+01 3.63584E+01 0.00000E+00
 -1      2177 5.36383E+01 3.52097E+01 0.00000E+00
 -1      2178 5.07264E+01 2.81687E+01 0.00000E+00
 -1      2179 5.25182E+01 3.77645E+01 0.00000E+00
 -1      2180 5.16533E+01 3.96299E+01 0.00000E+00
 -1      2181 5.04700E+01 4.13805E+01 0.00000E+00
 -1      2182 4.88078E+01 4.26203E+01 0.00000E+00
 -1      2183 4.26218E+01 4.41364E+01 0.00000E+00
 -1      2184 3.69532E+01 4.16906E+01 0.00000E+00
 -1      2185 3.57182E+01 3.99169E+01 0.00000E+00
 -1      2186 3.47667E+01 3.82954E+01 0.00000E+00
 -1      2187 3.39910E+01 3.63778E+01 0.00000E+00
 -1      2188 3.39669E+01 3.41337E+01 0.00000E+00
 -1      2189 3.44779E+01 3.21751E+01 0.00000E+00
 -1      2190 3.50865E+01 3.03209E+01 0.00000E+00
 -1      2191 3.60762E+01 2.86462E+01 0.00000E+00
 -1      2192 3.74385E+01 2.71725E+01 0.00000E+00
 -1      2193 3.92409E+01 2.57508E+01 0.00000E+00
 -1      2194 4.14085E+01 2.51008E+01 0.00000E+00
 -1      2195 4.34392E+01 2.50245E+01 0.00000E+00
 -1      2196 4.74047E+01 2.55799E+01 0.00000E+00
 -1      2197 4.54458E+01 2.50723E+01 0.00000E+00
 -1      2198 4.07251E+01 4.37007E+01 0.00000E+00
 -1      2199 4.05066E+01 4.28433E+01 0.00000E+00
 -1      2200 3.97057E+01 4.24766E+01 0.00000E+00
 -1      2201 4.72350E+01 4.35422E+01 0.00000E+00
 -1      2202 4.64993E+01 4.32270E+01 0.00000E+00
 -1      2203 4.57798E+01 4.32736E+01 0.00000E+00
 -1      2204 4.48477E+01 4.34052E+01 0.00000E+00
 -1      2205 4.44369E+01 4.41587E+01 0.00000E+00
 -1      2206 4.58759E+01 4.40655E+01 0.00000E+00
 -1      2207 1.44402E+02 4.31083E+01 0.00000E+00
 -1      2208 3.88575E+01 4.29604E+01 0.00000E+00
 -1      2209 6.49500E+00 3.01125E+01 0.00000E+00
 -1      2210 6.49500E+00 3.15875E+01 0.00000E+00
 -1      2211 6.49500E+00 3.30625E+01 0.00000E+00
 -1      2212 6.49500E+00 3.45375E+01 0.00000E+00
 -1      2213 7.79400E+00 3.23250E+01 0.00000E+00
 -1      2214 6.49500E+00 2.42125E+01 0.00000E+00
 -1      2215 6.49500E+00 2.56875E+01 0.00000E+00
 -1      2216 6.49500E+00 2.12625E+01 0.00000E+00
 -1      2217 6.49500E+00 2.27375E+01 0.00000E+00
 -1      2218 7.79400E+00 2.34750E+01 0.00000E+00
 -1      2219 6.49500E+00 1.83625E+01 0.00000E+00
 -1      2220 6.49500E+00 1.98125E+01 0.00000E+00
 -1      2221 7.79400E+00 2.05500E+01 0.00000E+00
 -1      2222 6.49500E+00 1.54125E+01 0.00000E+00
 -1      2223 6.49500E+00 1.68875E+01 0.00000E+00
 -1      2224 7.79400E+00 1.76250E+01 0.00000E+00
 -1      2225 6.49500E+00 1.24625E+01 0.00000E+00
 -1      2226 6.49500E+00 1.39375E+01 0.00000E+00
 -1      2227 7.79400E+00 1.46750E+01 0.00000E+00
 -1      2228 6.49500E+00 9.51250E+00 0.00000E+00
 -1      2229 6.49500E+00 1.09875E+01 0.00000E+00
 -1      2230 7.79400E+00 1.17250E+01 0.00000E+00
 -1      2231 6.49500E+00 6.56250E+00 0.00000E+00
 -1      2232 6.49500E+00 8.03750E+00 0.00000E+00
 -1      2233 7.79400E+00 8.77500E+00 0.00000E+00
 -1      2234 6.84975E+00 4.82969E+00 0.00000E+00
 -1      2235 6.68025E+00 5.73906E+00 0.00000E+00
 -1      2236 7.97925E+00 6.47656E+00 0.00000E+00
 -1      2237 8.34975E+00 4.82969E+00 0.00000E+00
 -1      2238 9.90000E+00 4.35050E+01 0.00000E+00
 -1      2239 1.14000E+01 4.35050E+01 0.00000E+00
 -1      2240 1.29000E+01 4.35050E+01 0.00000E+00
 -1      2241 1.44000E+01 4.35050E+01 0.00000E+00
 -1      2242 1.21500E+01 4.22060E+01 0.00000E+00
 -1      2243 1.59000E+01 4.35050E+01 0.00000E+00
 -1      2244 1.74000E+01 4.35050E+01 0.00000E+00
 -1      2245 1.51500E+01 4.22060E+01 0.00000E+00
 -1      2246 1.89000E+01 4.35050E+01 0.00000E+00
 -1      2247 2.04000E+01 4.35050E+01 0.00000E+00
 -1      2248 1.81500E+01 4.22060E+01 0.00000E+00
 -1      2249 2.19000E+01 4.35050E+01 0.00000E+00
 -1      2250 2.34000E+01 4.35050E+01 0.00000E+00
 -1      2251 2.11500E+01 4.22060E+01 0.00000E+00
 -1      2252 2.49000E+01 4.35050E+01 0.00000E+00
 -1      2253 2.64000E+01 4.35050E+01 0.00000E+00
 -1      2254 2.41500E+01 4.22060E+01 0.00000E+00
 -1      2255 2.79000E+01 4.35050E+01 0.00000E+00
 -1      2256 2.94000E+01 4.35050E+01 0.00000E+00
 -1      2257 2.71500E+01 4.22060E+01 0.00000E+00
 -1      2258 3.09000E+01 4.35050E+01 0.00000E+00
 -1      2259 3.24000E+01 4.35050E+01 0.00000E+00
 -1      2260 3.01500E+01 4.22060E+01 0.00000E+00
 -1      2261 5.22816E+01 2.88443E+01 0.00000E+00
 -1      2262 5.27406E+01 2.95948E+01 0.00000E+00
 -1      2263 4.92000E+01 4.51004E+01 0.00000E+00
 -1      2264 1.43589E+02 6.81775E+00 0.00000E+00
 -1      2265 5.44500E+01 4.38239E+01 0.00000E+00
 -1      2266 5.59500E+01 4.38239E+01 0.00000E+00
 -1      2267 5.74500E+01 4.38239E+01 0.00000E+00
 -1      2268 5.89500E+01 4.38239E+01 0.00000E+00
 -1      2269 5.67000E+01 4.26312E+01 0.00000E+00
 -1      2270 6.04500E+01 4.38239E+01 0.00000E+00
 -1      2271 6.19500E+01 4.38239E+01 0.00000E+00
 -1      2272 5.97000E+01 4.26312E+01 0.00000E+00
 -1      2273 6.35250E+01 4.38239E+01 0.00000E+00
 -1      2274 6.51000E+01 4.38239E+01 0.00000E+00
 -1      2275 6.27750E+01 4.26312E+01 0.00000E+00
 -1      2276 6.66000E+01 4.38239E+01 0.00000E+00
 -1      2277 6.81000E+01 4.38239E+01 0.00000E+00
 -1      2278 6.58500E+01 4.26312E+01 0.00000E+00
 -1      2279 6.96000E+01 4.38239E+01 0.00000E+00
 -1      2280 7.11000E+01 4.38239E+01 0.00000E+00
 -1      2281 6.88500E+01 4.26312E+01 0.00000E+00
 -1      2282 7.26000E+01 4.38239E+01 0.00000E+00
 -1      2283 7.41000E+01 4.38239E+01 0.00000E+00
 -1      2284 7.18500E+01 4.26312E+01 0.00000E+00
 -1      2285 7.56000E+01 4.38239E+01 0.00000E+00
 -1      2286 7.71000E+01 4.38239E+01 0.00000E+00
 -1      2287 7.48500E+01 4.26312E+01 0.00000E+00
 -1      2288 7.86000E+01 4.38239E+01 0.00000E+00
 -1      2289 8.01000E+01 4.38239E+01 0.00000E+00
 -1      2290 7.78500E+01 4.26312E+01 0.00000E+00
 -1      2291 8.16000E+01 4.38239E+01 0.00000E+00
 -1      2292 8.31000E+01 4.38239E+01 0.00000E+00
 -1      2293 8.08500E+01 4.26312E+01 0.00000E+00
 -1      2294 8.46000E+01 4.38239E+01 0.00000E+00
 -1      2295 8.61000E+01 4.38239E+01 0.00000E+00
 -1      2296 8.38500E+01 4.26312E+01 0.00000E+00
 -1      2297 8.76000E+01 4.38239E+01 0.00000E+00
 -1      2298 8.91000E+01 4.38239E+01 0.00000E+00
 -1      2299 8.68500E+01 4.26312E+01 0.00000E+00
 -1      2300 9.06000E+01 4.38239E+01 0.00000E+00
 -1      2301 9.21000E+01 4.38239E+01 0.00000E+00
 -1      2302 8.98500E+01 4.26312E+01 0.00000E+00
 -1      2303 9.36000E+01 4.38239E+01 0.00000E+00
 -1      2304 9.51000E+01 4.38239E+01 0.00000E+00
 -1      2305 9.28500E+01 4.26312E+01 0.00000E+00
 -1      2306 9.66000E+01 4.38239E+01 0.00000E+00
 -1      2307 9.81000E+01 4.38239E+01 0.00000E+00
 -1      2308 9.58500E+01 4.26312E+01 0.00000E+00
 -1      2309 9.96000E+01 4.38239E+01 0.00000E+00
 -1      2310 1.01100E+02 4.38239E+01 0.00000E+00
 -1      2311 9.88500E+01 4.26312E+01 0.00000E+00
 -1      2312 1.02600E+02 4.38239E+01 0.00000E+00
 -1      2313 1.04100E+02 4.38239E+01 0.00000E+00
 -1      2314 1.01850E+02 4.26312E+01 0.00000E+00
 -1      2315 1.05675E+02 4.38239E+01 0.00000E+00
 -1      2316 1.07250E+02 4.38239E+01 0.00000E+00
 -1      2317 1.04925E+02 4.26312E+01 0.00000E+00
 -1      2318 1.08750E+02 4.38239E+01 0.00000E+00
 -1      2319 1.10250E+02 4.38239E+01 0.00000E+00
 -1      2320 1.08000E+02 4.26312E+01 0.00000E+00
 -1      2321 1.11750E+02 4.38239E+01 0.00000E+00
 -1      2322 1.13250E+02 4.38239E+01 0.00000E+00
 -1      2323 1.11000E+02 4.26312E+01 0.00000E+00
 -1      2324 1.14750E+02 4.38239E+01 0.00000E+00
 -1      2325 1.16250E+02 4.38239E+01 0.00000E+00
 -1      2326 1.14000E+02 4.26312E+01 0.00000E+00
 -1      2327 1.17750E+02 4.38239E+01 0.00000E+00
 -1      2328 1.19250E+02 4.38239E+01 0.00000E+00
 -1      2329 1.17000E+02 4.26312E+01 0.00000E+00
 -1      2330 1.20750E+02 4.38239E+01 0.00000E+00
 -1      2331 1.22250E+02 4.38239E+01 0.00000E+00
 -1      2332 1.20000E+02 4.26312E+01 0.00000E+00
 -1      2333 1.23750E+02 4.38239E+01 0.00000E+00
 -1      2334 1.25250E+02 4.38239E+01 0.00000E+00
 -1      2335 1.23000E+02 4.26312E+01 0.00000E+00
 -1      2336 1.26750E+02 4.38239E+01 0.00000E+00
 -1      2337 1.28250E+02 4.38239E+01 0.00000E+00
 -1      2338 1.26000E+02 4.26312E+01 0.00000E+00
 -1      2339 1.29750E+02 4.38239E+01 0.00000E+00
 -1      2340 1.31250E+02 4.38239E+01 0.00000E+00
 -1      2341 1.29000E+02 4.26312E+01 0.00000E+00
 -1      2342 1.32750E+02 4.38239E+01 0.00000E+00
 -1      2343 1.34250E+02 4.38239E+01 0.00000E+00
 -1      2344 1.32000E+02 4.26312E+01 0.00000E+00
 -1      2345 1.35750E+02 4.38239E+01 0.00000E+00
 -1      2346 1.37250E+02 4.38239E+01 0.00000E+00
 -1      2347 1.35000E+02 4.26312E+01 0.00000E+00
 -1      2348 1.38750E+02 4.38239E+01 0.00000E+00
 -1      2349 1.40250E+02 4.38239E+01 0.00000E+00
 -1      2350 1.38000E+02 4.26312E+01 0.00000E+00
 -1      2351 1.41576E+02 4.34661E+01 0.00000E+00
 -1      2352 1.43076E+02 4.34661E+01 0.00000E+00
 -1      2353 1.43478E+02 4.15578E+01 0.00000E+00
 -1      2354 1.40826E+02 4.22734E+01 0.00000E+00
 -1      2355 2.16240E+01 6.08450E+00 0.00000E+00
 -1      2356 2.01240E+01 6.08450E+00 0.00000E+00
 -1      2357 1.86240E+01 6.08450E+00 0.00000E+00
 -1      2358 1.71240E+01 6.08450E+00 0.00000E+00
 -1      2359 1.93740E+01 7.38350E+00 0.00000E+00
 -1      2360 1.56240E+01 6.08450E+00 0.00000E+00
 -1      2361 1.41240E+01 6.08450E+00 0.00000E+00
 -1      2362 1.63740E+01 7.38350E+00 0.00000E+00
 -1      2363 2.46240E+01 6.08450E+00 0.00000E+00
 -1      2364 2.31240E+01 6.08450E+00 0.00000E+00
 -1      2365 2.23740E+01 7.38350E+00 0.00000E+00
 -1      2366 2.76240E+01 6.08450E+00 0.00000E+00
 -1      2367 2.61240E+01 6.08450E+00 0.00000E+00
 -1      2368 2.53740E+01 7.38350E+00 0.00000E+00
 -1      2369 3.06240E+01 6.08450E+00 0.00000E+00
 -1      2370 2.91240E+01 6.08450E+00 0.00000E+00
 -1      2371 2.83740E+01 7.38350E+00 0.00000E+00
 -1      2372 3.36240E+01 6.08450E+00 0.00000E+00
 -1      2373 3.21240E+01 6.08450E+00 0.00000E+00
 -1      2374 3.13740E+01 7.38350E+00 0.00000E+00
 -1      2375 3.66240E+01 6.08450E+00 0.00000E+00
 -1      2376 3.51240E+01 6.08450E+00 0.00000E+00
 -1      2377 3.43740E+01 7.38350E+00 0.00000E+00
 -1      2378 3.96240E+01 6.08450E+00 0.00000E+00
 -1      2379 3.81240E+01 6.08450E+00 0.00000E+00
 -1      2380 3.73740E+01 7.38350E+00 0.00000E+00
 -1      2381 4.26240E+01 6.08450E+00 0.00000E+00
 -1      2382 4.11240E+01 6.08450E+00 0.00000E+00
 -1      2383 4.03740E+01 7.38350E+00 0.00000E+00
 -1      2384 4.56240E+01 6.08450E+00 0.00000E+00
 -1      2385 4.41240E+01 6.08450E+00 0.00000E+00
 -1      2386 4.33740E+01 7.38350E+00 0.00000E+00
 -1      2387 4.86240E+01 6.08450E+00 0.00000E+00
 -1      2388 4.71240E+01 6.08450E+00 0.00000E+00
 -1      2389 4.63740E+01 7.38350E+00 0.00000E+00
 -1      2390 5.16240E+01 6.08450E+00 0.00000E+00
 -1      2391 5.01240E+01 6.08450E+00 0.00000E+00
 -1      2392 4.93740E+01 7.38350E+00 0.00000E+00
 -1      2393 5.46240E+01 6.08450E+00 0.00000E+00
 -1      2394 5.31240E+01 6.08450E+00 0.00000E+00
 -1      2395 5.23740E+01 7.38350E+00 0.00000E+00
 -1      2396 5.76240E+01 6.08450E+00 0.00000E+00
 -1      2397 5.61240E+01 6.08450E+00 0.00000E+00
 -1      2398 5.53740E+01 7.38350E+00 0.00000E+00
 -1      2399 6.06240E+01 6.08450E+00 0.00000E+00
 -1      2400 5.91240E+01 6.08450E+00 0.00000E+00
 -1      2401 5.83740E+01 7.38350E+00 0.00000E+00
 -1      2402 6.36240E+01 6.08450E+00 0.00000E+00
 -1      2403 6.21240E+01 6.08450E+00 0.00000E+00
 -1      2404 6.13740E+01 7.38350E+00 0.00000E+00
 -1      2405 6.66240E+01 6.08450E+00 0.00000E+00
 -1      2406 6.51240E+01 6.08450E+00 0.00000E+00
 -1      2407 6.43740E+01 7.38350E+00 0.00000E+00
 -1      2408 6.96240E+01 6.08450E+00 0.00000E+00
 -1      2409 6.81240E+01 6.08450E+00 0.00000E+00
 -1      2410 6.73740E+01 7.38350E+00 0.00000E+00
 -1      2411 7.26240E+01 6.08450E+00 0.00000E+00
 -1      2412 7.11240E+01 6.08450E+00 0.00000E+00
 -1      2413 7.03740E+01 7.38350E+00 0.00000E+00
 -1      2414 7.56240E+01 6.08450E+00 0.00000E+00
 -1      2415 7.41240E+01 6.08450E+00 0.00000E+00
 -1      2416 7.33740E+01 7.38350E+00 0.00000E+00
 -1      2417 7.86240E+01 6.08450E+00 0.00000E+00
 -1      2418 7.71240E+01 6.08450E+00 0.00000E+00
 -1      2419 7.63740E+01 7.38350E+00 0.00000E+00
 -1      2420 8.16240E+01 6.08450E+00 0.00000E+00
 -1      2421 8.01240E+01 6.08450E+00 0.00000E+00
 -1      2422 7.93740E+01 7.38350E+00 0.00000E+00
 -1      2423 8.46240E+01 6.08450E+00 0.00000E+00
 -1      2424 8.31240E+01 6.08450E+00 0.00000E+00
 -1      2425 8.23740E+01 7.38350E+00 0.00000E+00
 -1      2426 8.76240E+01 6.08450E+00 0.00000E+00
 -1      2427 8.61240E+01 6.08450E+00 0.00000E+00
 -1      2428 8.53740E+01 7.38350E+00 0.00000E+00
 -1      2429 9.06240E+01 6.08450E+00 0.00000E+00
 -1      2430 8.91240E+01 6.08450E+00 0.00000E+00
 -1      2431 8.83740E+01 7.38350E+00 0.00000E+00
 -1      2432 9.36240E+01 6.08450E+00 0.00000E+00
 -1      2433 9.21240E+01 6.08450E+00 0.00000E+00
 -1      2434 9.13740E+01 7.38350E+00 0.00000E+00
 -1      2435 9.66240E+01 6.08450E+00 0.00000E+00
 -1      2436 9.51240E+01 6.08450E+00 0.00000E+00
 -1      2437 9.43740E+01 7.38350E+00 0.00000E+00
 -1      2438 9.96240E+01 6.08450E+00 0.00000E+00
 -1      2439 9.81240E+01 6.08450E+00 0.00000E+00
 -1      2440 9.73740E+01 7.38350E+00 0.00000E+00
 -1      2441 1.02624E+02 6.08450E+00 0.00000E+00
 -1      2442 1.01124E+02 6.08450E+00 0.00000E+00
 -1      2443 1.00374E+02 7.38350E+00 0.00000E+00
 -1      2444 1.05624E+02 6.08450E+00 0.00000E+00
 -1      2445 1.04124E+02 6.08450E+00 0.00000E+00
 -1      2446 1.03374E+02 7.38350E+00 0.00000E+00
 -1      2447 1.08624E+02 6.08450E+00 0.00000E+00
 -1      2448 1.07124E+02 6.08450E+00 0.00000E+00
 -1      2449 1.06374E+02 7.38350E+00 0.00000E+00
 -1      2450 1.11624E+02 6.08450E+00 0.00000E+00
 -1      2451 1.10124E+02 6.08450E+00 0.00000E+00
 -1      2452 1.09374E+02 7.38350E+00 0.00000E+00
 -1      2453 1.14624E+02 6.08450E+00 0.00000E+00
 -1      2454 1.13124E+02 6.08450E+00 0.00000E+00
 -1      2455 1.12374E+02 7.38350E+00 0.00000E+00
 -1      2456 1.17624E+02 6.08450E+00 0.00000E+00
 -1      2457 1.16124E+02 6.08450E+00 0.00000E+00
 -1      2458 1.15374E+02 7.38350E+00 0.00000E+00
 -1      2459 1.20624E+02 6.08450E+00 0.00000E+00
 -1      2460 1.19124E+02 6.08450E+00 0.00000E+00
 -1      2461 1.18374E+02 7.38350E+00 0.00000E+00
 -1      2462 1.23624E+02 6.08450E+00 0.00000E+00
 -1      2463 1.22124E+02 6.08450E+00 0.00000E+00
 -1      2464 1.21374E+02 7.38350E+00 0.00000E+00
 -1      2465 1.26624E+02 6.08450E+00 0.00000E+00
 -1      2466 1.25124E+02 6.08450E+00 0.00000E+00
 -1      2467 1.24374E+02 7.38350E+00 0.00000E+00
 -1      2468 1.29624E+02 6.08450E+00 0.00000E+00
 -1      2469 1.28124E+02 6.08450E+00 0.00000E+00
 -1      2470 1.27374E+02 7.38350E+00 0.00000E+00
 -1      2471 1.32624E+02 6.08450E+00 0.00000E+00
 -1      2472 1.31124E+02 6.08450E+00 0.00000E+00
 -1      2473 1.30374E+02 7.38350E+00 0.00000E+00
 -1      2474 1.35624E+02 6.08450E+00 0.00000E+00
 -1      2475 1.34124E+02 6.08450E+00 0.00000E+00
 -1      2476 1.33374E+02 7.38350E+00 0.00000E+00
 -1      2477 1.38624E+02 6.08450E+00 0.00000E+00
 -1      2478 1.37124E+02 6.08450E+00 0.00000E+00
 -1      2479 1.36374E+02 7.38350E+00 0.00000E+00
 -1      2480 1.41624E+02 6.08450E+00 0.00000E+00
 -1      2481 1.40124E+02 6.08450E+00 0.00000E+00
 -1      2482 1.39374E+02 7.38350E+00 0.00000E+00
 -1      2483 1.43505E+02 1.69125E+01 0.00000E+00
 -1      2484 1.43505E+02 1.54375E+01 0.00000E+00
 -1      2485 1.43505E+02 1.39875E+01 0.00000E+00
 -1      2486 1.43505E+02 1.25375E+01 0.00000E+00
 -1      2487 1.42206E+02 1.47250E+01 0.00000E+00
 -1      2488 1.43505E+02 1.10625E+01 0.00000E+00
 -1      2489 1.43505E+02 9.58750E+00 0.00000E+00
 -1      2490 1.42206E+02 1.18000E+01 0.00000E+00
 -1      2491 1.43505E+02 1.98625E+01 0.00000E+00
 -1      2492 1.43505E+02 1.83875E+01 0.00000E+00
 -1      2493 1.42206E+02 1.76500E+01 0.00000E+00
 -1      2494 1.43505E+02 2.28125E+01 0.00000E+00
 -1      2495 1.43505E+02 2.13375E+01 0.00000E+00
 -1      2496 1.42206E+02 2.06000E+01 0.00000E+00
 -1      2497 1.43505E+02 2.57625E+01 0.00000E+00
 -1      2498 1.43505E+02 2.42875E+01 0.00000E+00
 -1      2499 1.42206E+02 2.35500E+01 0.00000E+00
 -1      2500 1.43505E+02 2.87125E+01 0.00000E+00
 -1      2501 1.43505E+02 2.72375E+01 0.00000E+00
 -1      2502 1.42206E+02 2.65000E+01 0.00000E+00
 -1      2503 1.43505E+02 3.16125E+01 0.00000E+00
 -1      2504 1.43505E+02 3.01625E+01 0.00000E+00
 -1      2505 1.42206E+02 2.94250E+01 0.00000E+00
 -1      2506 1.43505E+02 3.45625E+01 0.00000E+00
 -1      2507 1.43505E+02 3.30875E+01 0.00000E+00
 -1      2508 1.42206E+02 3.23500E+01 0.00000E+00
 -1      2509 1.43505E+02 3.75125E+01 0.00000E+00
 -1      2510 1.43505E+02 3.60375E+01 0.00000E+00
 -1      2511 1.42206E+02 3.53000E+01 0.00000E+00
 -1      2512 1.43492E+02 4.02727E+01 0.00000E+00
 -1      2513 1.43492E+02 3.87977E+01 0.00000E+00
 -1      2514 1.42193E+02 3.80602E+01 0.00000E+00
 -1      2515 1.42165E+02 4.06305E+01 0.00000E+00
 -1      2516 3.93871E+01 4.40689E+01 0.00000E+00
 -1      2517 3.83204E+01 4.36955E+01 0.00000E+00
 -1      2518 6.55950E+00 4.28890E+01 0.00000E+00
 -1      2519 8.53650E+00 4.32410E+01 0.00000E+00
 -1      2520 9.28650E+00 4.19420E+01 0.00000E+00
 -1      2521 6.55950E+00 4.14140E+01 0.00000E+00
 -1      2522 5.10932E+01 2.73486E+01 0.00000E+00
 -1      2523 5.16874E+01 2.80965E+01 0.00000E+00
 -1      2524 5.26485E+01 2.80243E+01 0.00000E+00
 -1      2525 4.94512E+01 2.55314E+01 0.00000E+00
 -1      2526 5.03397E+01 2.62636E+01 0.00000E+00
 -1      2527 5.33906E+01 3.76108E+01 0.00000E+00
 -1      2528 5.29800E+01 3.85203E+01 0.00000E+00
 -1      2529 5.14500E+01 4.39077E+01 0.00000E+00
 -1      2530 5.29500E+01 4.39077E+01 0.00000E+00
 -1      2531 1.42839E+02 8.11675E+00 0.00000E+00
 -1      2532 6.49500E+00 2.71625E+01 0.00000E+00
 -1      2533 6.49500E+00 2.86375E+01 0.00000E+00
 -1      2534 7.79400E+00 2.93750E+01 0.00000E+00
 -1      2535 7.79400E+00 2.64250E+01 0.00000E+00
 -1      2536 4.50736E+01 2.39903E+01 0.00000E+00
 -1      2537 4.60821E+01 2.41212E+01 0.00000E+00
 -1      2538 4.71992E+01 2.47112E+01 0.00000E+00
 -1      2539 4.81495E+01 2.50878E+01 0.00000E+00
 -1      2540 4.28691E+01 2.42114E+01 0.00000E+00
 -1      2541 4.38671E+01 2.41283E+01 0.00000E+00
 -1      2542 4.08037E+01 2.41980E+01 0.00000E+00
 -1      2543 4.18364E+01 2.42047E+01 0.00000E+00
 -1      2544 4.22643E+01 2.33085E+01 0.00000E+00
 -1      2545 3.81600E+01 2.51918E+01 0.00000E+00
 -1      2546 3.92950E+01 2.45351E+01 0.00000E+00
 -1      2547 3.64586E+01 2.69913E+01 0.00000E+00
 -1      2548 3.71260E+01 2.62263E+01 0.00000E+00
 -1      2549 3.50689E+01 2.84086E+01 0.00000E+00
 -1      2550 3.57637E+01 2.77000E+01 0.00000E+00
 -1      2551 3.54512E+01 2.67537E+01 0.00000E+00
 -1      2552 3.41189E+01 3.05536E+01 0.00000E+00
 -1      2553 3.44138E+01 2.95876E+01 0.00000E+00
 -1      2554 3.34913E+01 3.23298E+01 0.00000E+00
 -1      2555 3.38051E+01 3.14417E+01 0.00000E+00
 -1      2556 3.31324E+01 3.07083E+01 0.00000E+00
 -1      2557 3.30661E+01 3.45212E+01 0.00000E+00
 -1      2558 3.32633E+01 3.34506E+01 0.00000E+00
 -1      2559 3.32591E+01 3.71236E+01 0.00000E+00
 -1      2560 3.30376E+01 3.59500E+01 0.00000E+00
 -1      2561 3.43560E+01 3.91797E+01 0.00000E+00
 -1      2562 3.38018E+01 3.84356E+01 0.00000E+00
 -1      2563 3.51507E+01 4.09344E+01 0.00000E+00
 -1      2564 3.47534E+01 4.00571E+01 0.00000E+00
 -1      2565 3.37885E+01 4.01973E+01 0.00000E+00
 -1      2566 3.66842E+01 4.27815E+01 0.00000E+00
 -1      2567 3.58466E+01 4.18851E+01 0.00000E+00
 -1      2568 4.27837E+01 4.47785E+01 0.00000E+00
 -1      2569 4.16880E+01 4.47096E+01 0.00000E+00
 -1      2570 4.96076E+01 4.30961E+01 0.00000E+00
 -1      2571 4.86743E+01 4.35413E+01 0.00000E+00
 -1      2572 5.16994E+01 4.16923E+01 0.00000E+00
 -1      2573 5.09706E+01 4.24870E+01 0.00000E+00
 -1      2574 5.25415E+01 3.94662E+01 0.00000E+00
 -1      2575 5.20871E+01 4.04221E+01 0.00000E+00
 -1      2576 5.38072E+01 3.31481E+01 0.00000E+00
 -1      2577 5.38399E+01 3.40705E+01 0.00000E+00
 -1      2578 3.69704E+01 4.36955E+01 0.00000E+00
 -1      2579 3.58638E+01 4.38900E+01 0.00000E+00
 -1      2580 7.79400E+00 3.52687E+01 0.00000E+00
 -1      2581 6.49500E+00 3.60062E+01 0.00000E+00
 -1      2582 6.49500E+00 3.74750E+01 0.00000E+00
 -1      2583 5.13008E+01 2.61914E+01 0.00000E+00
 -1      2584 9.55950E+00 5.02450E+00 0.00000E+00
 -1      2585 9.37425E+00 5.84794E+00 0.00000E+00
 -1      2586 1.07692E+01 5.21931E+00 0.00000E+00
 -1      2587 3.29179E+01 4.16403E+01 0.00000E+00
 -1      2588 3.36679E+01 4.29393E+01 0.00000E+00
 -1      2589 4.56852E+01 4.46015E+01 0.00000E+00
 -1      2590 4.71477E+01 4.46015E+01 0.00000E+00
 -1      2591 5.43479E+01 3.16451E+01 0.00000E+00
 -1      2592 5.40775E+01 3.23966E+01 0.00000E+00
 -1      2593 5.48253E+01 3.28319E+01 0.00000E+00
 -1      2594 3.43638E+01 4.38900E+01 0.00000E+00
 -1      2595 4.42462E+01 4.46947E+01 0.00000E+00
 -1      2596 4.85870E+01 4.46006E+01 0.00000E+00
 -1      2597 5.00870E+01 4.45168E+01 0.00000E+00
 -1      2598 5.37000E+01 4.27150E+01 0.00000E+00
 -1      2599 1.41540E+02 8.85425E+00 0.00000E+00
 -1      2600 4.08871E+01 4.43428E+01 0.00000E+00
 -1      2601 6.55950E+00 3.99453E+01 0.00000E+00
 -1      2602 1.30515E+01 5.74931E+00 0.00000E+00
 -1      2603 1.18418E+01 5.55450E+00 0.00000E+00
 -1      2604 1.16565E+01 6.37794E+00 0.00000E+00
 -1      2605 1.38015E+01 7.04831E+00 0.00000E+00
 -1      2606 5.34214E+01 2.99910E+01 0.00000E+00
 -1      2607 5.43533E+01 3.47226E+01 0.00000E+00
 -1      2608 5.46135E+01 3.66178E+01 0.00000E+00
 -1      2609 5.40021E+01 3.71143E+01 0.00000E+00
 -1      2610 5.44639E+01 3.78701E+01 0.00000E+00
 -1      2611 4.92456E+01 2.46627E+01 0.00000E+00
 -1      2612 5.34138E+01 3.93125E+01 0.00000E+00
 -1      2613 4.68269E+01 2.36291E+01 0.00000E+00
 -1      2614 5.25876E+01 4.15286E+01 0.00000E+00
 -1      2615 5.08370E+01 4.34079E+01 0.00000E+00
 -1      2616 3.48817E+01 4.20253E+01 0.00000E+00
 -1      2617 3.28484E+01 3.80079E+01 0.00000E+00
 -1      2618 3.25905E+01 3.27173E+01 0.00000E+00
 -1      2619 3.41012E+01 2.86413E+01 0.00000E+00
 -1      2620 3.97229E+01 2.36390E+01 0.00000E+00
 -1      2621 4.77872E+01 4.41248E+01 0.00000E+00
 -1      2622 4.49657E+01 4.46481E+01 0.00000E+00
 -1      2623 4.45034E+01 2.31772E+01 0.00000E+00
 -1      2624 3.71801E+01 2.50106E+01 0.00000E+00
 -1      2625 3.23341E+01 3.52669E+01 0.00000E+00
 -1      2626 9.09300E+00 1.98250E+01 0.00000E+00
 -1      2627 9.09300E+00 2.12750E+01 0.00000E+00
 -1      2628 9.09300E+00 2.27500E+01 0.00000E+00
 -1      2629 9.09300E+00 2.42250E+01 0.00000E+00
 -1      2630 1.03920E+01 2.20250E+01 0.00000E+00
 -1      2631 9.09300E+00 1.39375E+01 0.00000E+00
 -1      2632 9.09300E+00 1.54125E+01 0.00000E+00
 -1      2633 9.09300E+00 1.09875E+01 0.00000E+00
 -1      2634 9.09300E+00 1.24625E+01 0.00000E+00
 -1      2635 1.03920E+01 1.32000E+01 0.00000E+00
 -1      2636 9.18900E+00 6.67137E+00 0.00000E+00
 -1      2637 9.00375E+00 7.49481E+00 0.00000E+00
 -1      2638 1.03988E+01 6.86619E+00 0.00000E+00
 -1      2639 1.14000E+01 4.09070E+01 0.00000E+00
 -1      2640 1.29000E+01 4.09070E+01 0.00000E+00
 -1      2641 1.44000E+01 4.09070E+01 0.00000E+00
 -1      2642 1.59000E+01 4.09070E+01 0.00000E+00
 -1      2643 1.36500E+01 3.96080E+01 0.00000E+00
 -1      2644 1.74000E+01 4.09070E+01 0.00000E+00
 -1      2645 1.89000E+01 4.09070E+01 0.00000E+00
 -1      2646 1.66500E+01 3.96080E+01 0.00000E+00
 -1      2647 2.04000E+01 4.09070E+01 0.00000E+00
 -1      2648 2.19000E+01 4.09070E+01 0.00000E+00
 -1      2649 1.96500E+01 3.96080E+01 0.00000E+00
 -1      2650 2.34000E+01 4.09070E+01 0.00000E+00
 -1      2651 2.49000E+01 4.09070E+01 0.00000E+00
 -1      2652 2.26500E+01 3.96080E+01 0.00000E+00
 -1      2653 2.64000E+01 4.09070E+01 0.00000E+00
 -1      2654 2.79000E+01 4.09070E+01 0.00000E+00
 -1      2655 2.56500E+01 3.96080E+01 0.00000E+00
 -1      2656 2.94000E+01 4.09070E+01 0.00000E+00
 -1      2657 3.09000E+01 4.09070E+01 0.00000E+00
 -1      2658 2.86500E+01 3.96080E+01 0.00000E+00
 -1      2659 5.59500E+01 4.13322E+01 0.00000E+00
 -1      2660 5.74500E+01 4.13322E+01 0.00000E+00
 -1      2661 5.89500E+01 4.13322E+01 0.00000E+00
 -1      2662 6.04500E+01 4.13322E+01 0.00000E+00
 -1      2663 5.82000E+01 4.00332E+01 0.00000E+00
 -1      2664 6.20250E+01 4.13322E+01 0.00000E+00
 -1      2665 6.36000E+01 4.13322E+01 0.00000E+00
 -1      2666 6.12750E+01 4.00332E+01 0.00000E+00
 -1      2667 6.51000E+01 4.13322E+01 0.00000E+00
 -1      2668 6.66000E+01 4.13322E+01 0.00000E+00
 -1      2669 6.43500E+01 4.00332E+01 0.00000E+00
 -1      2670 6.81000E+01 4.13322E+01 0.00000E+00
 -1      2671 6.96000E+01 4.13322E+01 0.00000E+00
 -1      2672 6.73500E+01 4.00332E+01 0.00000E+00
 -1      2673 7.11000E+01 4.13322E+01 0.00000E+00
 -1      2674 7.26000E+01 4.13322E+01 0.00000E+00
 -1      2675 7.03500E+01 4.00332E+01 0.00000E+00
 -1      2676 7.41000E+01 4.13322E+01 0.00000E+00
 -1      2677 7.56000E+01 4.13322E+01 0.00000E+00
 -1      2678 7.33500E+01 4.00332E+01 0.00000E+00
 -1      2679 7.71000E+01 4.13322E+01 0.00000E+00
 -1      2680 7.86000E+01 4.13322E+01 0.00000E+00
 -1      2681 7.63500E+01 4.00332E+01 0.00000E+00
 -1      2682 8.01000E+01 4.13322E+01 0.00000E+00
 -1      2683 8.16000E+01 4.13322E+01 0.00000E+00
 -1      2684 7.93500E+01 4.00332E+01 0.00000E+00
 -1      2685 8.31000E+01 4.13322E+01 0.00000E+00
 -1      2686 8.46000E+01 4.13322E+01 0.00000E+00
 -1      2687 8.23500E+01 4.00332E+01 0.00000E+00
 -1      2688 8.61000E+01 4.13322E+01 0.00000E+00
 -1      2689 8.76000E+01 4.13322E+01 0.00000E+00
 -1      2690 8.53500E+01 4.00332E+01 0.00000E+00
 -1      2691 8.91000E+01 4.13322E+01 0.00000E+00
 -1      2692 9.06000E+01 4.13322E+01 0.00000E+00
 -1      2693 8.83500E+01 4.00332E+01 0.00000E+00
 -1      2694 9.21000E+01 4.13322E+01 0.00000E+00
 -1      2695 9.36000E+01 4.13322E+01 0.00000E+00
 -1      2696 9.13500E+01 4.00332E+01 0.00000E+00
 -1      2697 9.51000E+01 4.13322E+01 0.00000E+00
 -1      2698 9.66000E+01 4.13322E+01 0.00000E+00
 -1      2699 9.43500E+01 4.00332E+01 0.00000E+00
 -1      2700 9.81000E+01 4.13322E+01 0.00000E+00
 -1      2701 9.96000E+01 4.13322E+01 0.00000E+00
 -1      2702 9.73500E+01 4.00332E+01 0.00000E+00
 -1      2703 1.01100E+02 4.13322E+01 0.00000E+00
 -1      2704 1.02600E+02 4.13322E+01 0.00000E+00
 -1      2705 1.00350E+02 4.00332E+01 0.00000E+00
 -1      2706 1.04175E+02 4.13322E+01 0.00000E+00
 -1      2707 1.05750E+02 4.13322E+01 0.00000E+00
 -1      2708 1.03425E+02 4.00332E+01 0.00000E+00
 -1      2709 1.07250E+02 4.13322E+01 0.00000E+00
 -1      2710 1.08750E+02 4.13322E+01 0.00000E+00
 -1      2711 1.06500E+02 4.00332E+01 0.00000E+00
 -1      2712 1.10250E+02 4.13322E+01 0.00000E+00
 -1      2713 1.11750E+02 4.13322E+01 0.00000E+00
 -1      2714 1.09500E+02 4.00332E+01 0.00000E+00
 -1      2715 1.13250E+02 4.13322E+01 0.00000E+00
 -1      2716 1.14750E+02 4.13322E+01 0.00000E+00
 -1      2717 1.12500E+02 4.00332E+01 0.00000E+00
 -1      2718 1.16250E+02 4.13322E+01 0.00000E+00
 -1      2719 1.17750E+02 4.13322E+01 0.00000E+00
 -1      2720 1.15500E+02 4.00332E+01 0.00000E+00
 -1      2721 1.19250E+02 4.13322E+01 0.00000E+00
 -1      2722 1.20750E+02 4.13322E+01 0.00000E+00
 -1      2723 1.18500E+02 4.00332E+01 0.00000E+00
 -1      2724 1.22250E+02 4.13322E+01 0.00000E+00
 -1      2725 1.23750E+02 4.13322E+01 0.00000E+00
 -1      2726 1.21500E+02 4.00332E+01 0.00000E+00
 -1      2727 1.25250E+02 4.13322E+01 0.00000E+00
 -1      2728 1.26750E+02 4.13322E+01 0.00000E+00
 -1      2729 1.24500E+02 4.00332E+01 0.00000E+00
 -1      2730 1.28250E+02 4.13322E+01 0.00000E+00
 -1      2731 1.29750E+02 4.13322E+01 0.00000E+00
 -1      2732 1.27500E+02 4.00332E+01 0.00000E+00
 -1      2733 1.31250E+02 4.13322E+01 0.00000E+00
 -1      2734 1.32750E+02 4.13322E+01 0.00000E+00
 -1      2735 1.30500E+02 4.00332E+01 0.00000E+00
 -1      2736 1.34250E+02 4.13322E+01 0.00000E+00
 -1      2737 1.35750E+02 4.13322E+01 0.00000E+00
 -1      2738 1.33500E+02 4.00332E+01 0.00000E+00
 -1      2739 1.37250E+02 4.13322E+01 0.00000E+00
 -1      2740 1.38750E+02 4.13322E+01 0.00000E+00
 -1      2741 1.36500E+02 4.00332E+01 0.00000E+00
 -1      2742 1.39795E+02 4.11602E+01 0.00000E+00
 -1      2743 1.41121E+02 4.08024E+01 0.00000E+00
 -1      2744 1.41134E+02 3.95173E+01 0.00000E+00
 -1      2745 1.39045E+02 3.98612E+01 0.00000E+00
 -1      2746 2.01240E+01 8.68250E+00 0.00000E+00
 -1      2747 1.86240E+01 8.68250E+00 0.00000E+00
 -1      2748 2.31240E+01 8.68250E+00 0.00000E+00
 -1      2749 2.16240E+01 8.68250E+00 0.00000E+00
 -1      2750 2.08740E+01 9.98150E+00 0.00000E+00
 -1      2751 1.71240E+01 8.68250E+00 0.00000E+00
 -1      2752 1.56240E+01 8.68250E+00 0.00000E+00
 -1      2753 1.78740E+01 9.98150E+00 0.00000E+00
 -1      2754 2.91240E+01 8.68250E+00 0.00000E+00
 -1      2755 2.76240E+01 8.68250E+00 0.00000E+00
 -1      2756 3.21240E+01 8.68250E+00 0.00000E+00
 -1      2757 3.06240E+01 8.68250E+00 0.00000E+00
 -1      2758 2.98740E+01 9.98150E+00 0.00000E+00
 -1      2759 3.51240E+01 8.68250E+00 0.00000E+00
 -1      2760 3.36240E+01 8.68250E+00 0.00000E+00
 -1      2761 3.28740E+01 9.98150E+00 0.00000E+00
 -1      2762 3.81240E+01 8.68250E+00 0.00000E+00
 -1      2763 3.66240E+01 8.68250E+00 0.00000E+00
 -1      2764 3.58740E+01 9.98150E+00 0.00000E+00
 -1      2765 4.11240E+01 8.68250E+00 0.00000E+00
 -1      2766 3.96240E+01 8.68250E+00 0.00000E+00
 -1      2767 3.88740E+01 9.98150E+00 0.00000E+00
 -1      2768 4.41240E+01 8.68250E+00 0.00000E+00
 -1      2769 4.26240E+01 8.68250E+00 0.00000E+00
 -1      2770 4.18740E+01 9.98150E+00 0.00000E+00
 -1      2771 4.71240E+01 8.68250E+00 0.00000E+00
 -1      2772 4.56240E+01 8.68250E+00 0.00000E+00
 -1      2773 4.48740E+01 9.98150E+00 0.00000E+00
 -1      2774 5.01240E+01 8.68250E+00 0.00000E+00
 -1      2775 4.86240E+01 8.68250E+00 0.00000E+00
 -1      2776 4.78740E+01 9.98150E+00 0.00000E+00
 -1      2777 5.31240E+01 8.68250E+00 0.00000E+00
 -1      2778 5.16240E+01 8.68250E+00 0.00000E+00
 -1      2779 5.08740E+01 9.98150E+00 0.00000E+00
 -1      2780 5.61240E+01 8.68250E+00 0.00000E+00
 -1      2781 5.46240E+01 8.68250E+00 0.00000E+00
 -1      2782 5.38740E+01 9.98150E+00 0.00000E+00
 -1      2783 5.91240E+01 8.68250E+00 0.00000E+00
 -1      2784 5.76240E+01 8.68250E+00 0.00000E+00
 -1      2785 5.68740E+01 9.98150E+00 0.00000E+00
 -1      2786 6.21240E+01 8.68250E+00 0.00000E+00
 -1      2787 6.06240E+01 8.68250E+00 0.00000E+00
 -1      2788 5.98740E+01 9.98150E+00 0.00000E+00
 -1      2789 6.51240E+01 8.68250E+00 0.00000E+00
 -1      2790 6.36240E+01 8.68250E+00 0.00000E+00
 -1      2791 6.28740E+01 9.98150E+00 0.00000E+00
 -1      2792 6.81240E+01 8.68250E+00 0.00000E+00
 -1      2793 6.66240E+01 8.68250E+00 0.00000E+00
 -1      2794 6.58740E+01 9.98150E+00 0.00000E+00
 -1      2795 7.11240E+01 8.68250E+00 0.00000E+00
 -1      2796 6.96240E+01 8.68250E+00 0.00000E+00
 -1      2797 6.88740E+01 9.98150E+00 0.00000E+00
 -1      2798 7.41240E+01 8.68250E+00 0.00000E+00
 -1      2799 7.26240E+01 8.68250E+00 0.00000E+00
 -1      2800 7.18740E+01 9.98150E+00 0.00000E+00
 -1      2801 7.71240E+01 8.68250E+00 0.00000E+00
 -1      2802 7.56240E+01 8.68250E+00 0.00000E+00
 -1      2803 7.48740E+01 9.98150E+00 0.00000E+00
 -1      2804 8.01240E+01 8.68250E+00 0.00000E+00
 -1      2805 7.86240E+01 8.68250E+00 0.00000E+00
 -1      2806 7.78740E+01 9.98150E+00 0.00000E+00
 -1      2807 8.31240E+01 8.68250E+00 0.00000E+00
 -1      2808 8.16240E+01 8.68250E+00 0.00000E+00
 -1      2809 8.08740E+01 9.98150E+00 0.00000E+00
 -1      2810 8.61240E+01 8.68250E+00 0.00000E+00
 -1      2811 8.46240E+01 8.68250E+00 0.00000E+00
 -1      2812 8.38740E+01 9.98150E+00 0.00000E+00
 -1      2813 8.91240E+01 8.68250E+00 0.00000E+00
 -1      2814 8.76240E+01 8.68250E+00 0.00000E+00
 -1      2815 8.68740E+01 9.98150E+00 0.00000E+00
 -1      2816 9.21240E+01 8.68250E+00 0.00000E+00
 -1      2817 9.06240E+01 8.68250E+00 0.00000E+00
 -1      2818 8.98740E+01 9.98150E+00 0.00000E+00
 -1      2819 9.51240E+01 8.68250E+00 0.00000E+00
 -1      2820 9.36240E+01 8.68250E+00 0.00000E+00
 -1      2821 9.28740E+01 9.98150E+00 0.00000E+00
 -1      2822 9.81240E+01 8.68250E+00 0.00000E+00
 -1      2823 9.66240E+01 8.68250E+00 0.00000E+00
 -1      2824 9.58740E+01 9.98150E+00 0.00000E+00
 -1      2825 1.01124E+02 8.68250E+00 0.00000E+00
 -1      2826 9.96240E+01 8.68250E+00 0.00000E+00
 -1      2827 9.88740E+01 9.98150E+00 0.00000E+00
 -1      2828 1.04124E+02 8.68250E+00 0.00000E+00
 -1      2829 1.02624E+02 8.68250E+00 0.00000E+00
 -1      2830 1.01874E+02 9.98150E+00 0.00000E+00
 -1      2831 1.07124E+02 8.68250E+00 0.00000E+00
 -1      2832 1.05624E+02 8.68250E+00 0.00000E+00
 -1      2833 1.04874E+02 9.98150E+00 0.00000E+00
 -1      2834 1.10124E+02 8.68250E+00 0.00000E+00
 -1      2835 1.08624E+02 8.68250E+00 0.00000E+00
 -1      2836 1.07874E+02 9.98150E+00 0.00000E+00
 -1      2837 1.13124E+02 8.68250E+00 0.00000E+00
 -1      2838 1.11624E+02 8.68250E+00 0.00000E+00
 -1      2839 1.10874E+02 9.98150E+00 0.00000E+00
 -1      2840 1.16124E+02 8.68250E+00 0.00000E+00
 -1      2841 1.14624E+02 8.68250E+00 0.00000E+00
 -1      2842 1.13874E+02 9.98150E+00 0.00000E+00
 -1      2843 1.19124E+02 8.68250E+00 0.00000E+00
 -1      2844 1.17624E+02 8.68250E+00 0.00000E+00
 -1      2845 1.16874E+02 9.98150E+00 0.00000E+00
 -1      2846 1.22124E+02 8.68250E+00 0.00000E+00
 -1      2847 1.20624E+02 8.68250E+00 0.00000E+00
 -1      2848 1.19874E+02 9.98150E+00 0.00000E+00
 -1      2849 1.25124E+02 8.68250E+00 0.00000E+00
 -1      2850 1.23624E+02 8.68250E+00 0.00000E+00
 -1      2851 1.22874E+02 9.98150E+00 0.00000E+00
 -1      2852 1.28124E+02 8.68250E+00 0.00000E+00
 -1      2853 1.26624E+02 8.68250E+00 0.00000E+00
 -1      2854 1.25874E+02 9.98150E+00 0.00000E+00
 -1      2855 1.31124E+02 8.68250E+00 0.00000E+00
 -1      2856 1.29624E+02 8.68250E+00 0.00000E+00
 -1      2857 1.28874E+02 9.98150E+00 0.00000E+00
 -1      2858 1.34124E+02 8.68250E+00 0.00000E+00
 -1      2859 1.32624E+02 8.68250E+00 0.00000E+00
 -1      2860 1.31874E+02 9.98150E+00 0.00000E+00
 -1      2861 1.37124E+02 8.68250E+00 0.00000E+00
 -1      2862 1.35624E+02 8.68250E+00 0.00000E+00
 -1      2863 1.34874E+02 9.98150E+00 0.00000E+00
 -1      2864 1.40082E+02 8.76838E+00 0.00000E+00
 -1      2865 1.38582E+02 8.76838E+00 0.00000E+00
 -1      2866 1.37832E+02 1.00674E+01 0.00000E+00
 -1      2867 1.40748E+02 1.02391E+01 0.00000E+00
 -1      2868 1.40907E+02 2.13375E+01 0.00000E+00
 -1      2869 1.40907E+02 1.98625E+01 0.00000E+00
 -1      2870 5.42634E+01 2.92450E+01 0.00000E+00
 -1      2871 5.44421E+01 3.04639E+01 0.00000E+00
 -1      2872 1.40907E+02 1.83875E+01 0.00000E+00
 -1      2873 1.40907E+02 1.69125E+01 0.00000E+00
 -1      2874 1.39608E+02 1.91250E+01 0.00000E+00
 -1      2875 1.40748E+02 1.31891E+01 0.00000E+00
 -1      2876 1.40748E+02 1.17141E+01 0.00000E+00
 -1      2877 1.39290E+02 1.16283E+01 0.00000E+00
 -1      2878 1.40907E+02 2.42875E+01 0.00000E+00
 -1      2879 1.40907E+02 2.28125E+01 0.00000E+00
 -1      2880 1.39608E+02 2.20750E+01 0.00000E+00
 -1      2881 9.09300E+00 3.15875E+01 0.00000E+00
 -1      2882 9.09300E+00 3.30625E+01 0.00000E+00
 -1      2883 1.40907E+02 2.72375E+01 0.00000E+00
 -1      2884 1.40907E+02 2.57625E+01 0.00000E+00
 -1      2885 1.39608E+02 2.50250E+01 0.00000E+00
 -1      2886 1.40907E+02 3.01375E+01 0.00000E+00
 -1      2887 1.40907E+02 2.86875E+01 0.00000E+00
 -1      2888 1.39608E+02 2.79500E+01 0.00000E+00
 -1      2889 1.40907E+02 3.30875E+01 0.00000E+00
 -1      2890 1.40907E+02 3.16125E+01 0.00000E+00
 -1      2891 1.39608E+02 3.08750E+01 0.00000E+00
 -1      2892 1.40907E+02 3.60375E+01 0.00000E+00
 -1      2893 1.40907E+02 3.45625E+01 0.00000E+00
 -1      2894 1.39608E+02 3.38250E+01 0.00000E+00
 -1      2895 7.85850E+00 3.92077E+01 0.00000E+00
 -1      2896 4.88714E+01 2.36292E+01 0.00000E+00
 -1      2897 5.01731E+01 2.40728E+01 0.00000E+00
 -1      2898 9.09300E+00 1.68813E+01 0.00000E+00
 -1      2899 9.09300E+00 1.83563E+01 0.00000E+00
 -1      2900 1.03920E+01 1.90812E+01 0.00000E+00
 -1      2901 1.03920E+01 1.61437E+01 0.00000E+00
 -1      2902 4.66374E+01 2.24492E+01 0.00000E+00
 -1      2903 4.77544E+01 2.30392E+01 0.00000E+00
 -1      2904 4.86819E+01 2.24493E+01 0.00000E+00
 -1      2905 3.22499E+01 3.90237E+01 0.00000E+00
 -1      2906 3.17072E+01 3.77116E+01 0.00000E+00
 -1      2907 3.87266E+01 2.27254E+01 0.00000E+00
 -1      2908 4.02354E+01 2.23882E+01 0.00000E+00
 -1      2909 5.16973E+01 2.51119E+01 0.00000E+00
 -1      2910 5.24507E+01 2.61970E+01 0.00000E+00
 -1      2911 5.30449E+01 2.69448E+01 0.00000E+00
 -1      2912 5.36392E+01 2.76927E+01 0.00000E+00
 -1      2913 5.34414E+01 2.58654E+01 0.00000E+00
 -1      2914 5.44111E+01 3.92003E+01 0.00000E+00
 -1      2915 5.39725E+01 4.01462E+01 0.00000E+00
 -1      2916 3.59973E+01 2.48623E+01 0.00000E+00
 -1      2917 3.70313E+01 2.38279E+01 0.00000E+00
 -1      2918 4.17541E+01 2.23639E+01 0.00000E+00
 -1      2919 4.27867E+01 2.23706E+01 0.00000E+00
 -1      2920 3.12950E+01 3.59610E+01 0.00000E+00
 -1      2921 3.13234E+01 3.45321E+01 0.00000E+00
 -1      2922 3.44316E+01 2.64490E+01 0.00000E+00
 -1      2923 3.51265E+01 2.57403E+01 0.00000E+00
 -1      2924 3.28776E+01 2.87328E+01 0.00000E+00
 -1      2925 3.35327E+01 2.75539E+01 0.00000E+00
 -1      2926 3.20879E+01 3.08388E+01 0.00000E+00
 -1      2927 3.24017E+01 2.99507E+01 0.00000E+00
 -1      2928 3.16319E+01 3.30805E+01 0.00000E+00
 -1      2929 3.18599E+01 3.19596E+01 0.00000E+00
 -1      2930 3.11292E+01 3.12020E+01 0.00000E+00
 -1      2931 2.61240E+01 8.68250E+00 0.00000E+00
 -1      2932 2.46240E+01 8.68250E+00 0.00000E+00
 -1      2933 2.38740E+01 9.98150E+00 0.00000E+00
 -1      2934 2.68740E+01 9.98150E+00 0.00000E+00
 -1      2935 4.39932E+01 2.22325E+01 0.00000E+00
 -1      2936 4.51997E+01 2.20945E+01 0.00000E+00
 -1      2937 4.34830E+01 2.12878E+01 0.00000E+00
 -1      2938 1.40827E+02 1.57758E+01 0.00000E+00
 -1      2939 1.40827E+02 1.43258E+01 0.00000E+00
 -1      2940 1.39370E+02 1.42399E+01 0.00000E+00
 -1      2941 1.39529E+02 1.65133E+01 0.00000E+00
 -1      2942 5.52161E+01 3.42878E+01 0.00000E+00
 -1      2943 5.50145E+01 3.54271E+01 0.00000E+00
 -1      2944 1.03920E+01 2.49750E+01 0.00000E+00
 -1      2945 9.09300E+00 2.57000E+01 0.00000E+00
 -1      2946 9.09300E+00 2.71750E+01 0.00000E+00
 -1      2947 9.00375E+00 8.96981E+00 0.00000E+00
 -1      2948 3.05927E+01 3.37745E+01 0.00000E+00
 -1      2949 5.57568E+01 3.27848E+01 0.00000E+00
 -1      2950 5.54864E+01 3.35363E+01 0.00000E+00
 -1      2951 5.61475E+01 3.42408E+01 0.00000E+00
 -1      2952 5.50849E+01 4.13326E+01 0.00000E+00
 -1      2953 5.58349E+01 4.00336E+01 0.00000E+00
 -1      2954 3.06965E+01 3.69768E+01 0.00000E+00
 -1      2955 2.96858E+01 3.62420E+01 0.00000E+00
 -1      2956 3.00980E+01 3.79927E+01 0.00000E+00
 -1      2957 4.61272E+01 2.15046E+01 0.00000E+00
 -1      2958 5.40876E+01 4.14448E+01 0.00000E+00
 -1      2959 5.51899E+01 3.08991E+01 0.00000E+00
 -1      2960 1.03920E+01 3.37938E+01 0.00000E+00
 -1      2961 9.09300E+00 3.45313E+01 0.00000E+00
 -1      2962 9.09300E+00 3.60000E+01 0.00000E+00
 -1      2963 5.46599E+01 2.81656E+01 0.00000E+00
 -1      2964 5.56806E+01 2.86385E+01 0.00000E+00
 -1      2965 5.50563E+01 2.70861E+01 0.00000E+00
 -1      2966 9.09300E+00 2.86437E+01 0.00000E+00
 -1      2967 9.09300E+00 3.01187E+01 0.00000E+00
 -1      2968 1.03920E+01 3.08563E+01 0.00000E+00
 -1      2969 1.03920E+01 2.79188E+01 0.00000E+00
 -1      2970 5.54763E+01 3.61830E+01 0.00000E+00
 -1      2971 9.15750E+00 3.77359E+01 0.00000E+00
 -1      2972 9.22200E+00 4.02061E+01 0.00000E+00
 -1      2973 1.05855E+01 4.04701E+01 0.00000E+00
 -1      2974 1.04565E+01 3.69984E+01 0.00000E+00
 -1      2975 3.49777E+01 2.45576E+01 0.00000E+00
 -1      2976 1.41014E+02 3.84200E+01 0.00000E+00
 -1      2977 1.41027E+02 3.71348E+01 0.00000E+00
 -1      2978 1.39728E+02 3.63973E+01 0.00000E+00
 -1      2979 1.39969E+02 3.85919E+01 0.00000E+00
 -1      2980 1.48740E+01 9.98151E+00 0.00000E+00
 -1      2981 1.41240E+01 8.68251E+00 0.00000E+00
 -1      2982 1.30515E+01 8.34733E+00 0.00000E+00
 -1      2983 1.13355E+01 3.91711E+01 0.00000E+00
 -1      2984 5.09488E+01 2.30449E+01 0.00000E+00
 -1      2985 5.13230E+01 2.40784E+01 0.00000E+00
 -1      2986 5.24730E+01 2.40840E+01 0.00000E+00
 -1      2987 3.75438E+01 2.25771E+01 0.00000E+00
 -1      2988 3.80564E+01 2.13263E+01 0.00000E+00
 -1      2989 3.63611E+01 2.24288E+01 0.00000E+00
 -1      2990 1.03027E+01 9.70731E+00 0.00000E+00
 -1      2991 4.07578E+01 2.14502E+01 0.00000E+00
 -1      2992 3.18331E+01 2.88633E+01 0.00000E+00
 -1      2993 5.48700E+01 3.85350E+01 0.00000E+00
 -1      2994 5.54287E+01 3.93687E+01 0.00000E+00
 -1      2995 5.62938E+01 3.93683E+01 0.00000E+00
 -1      2996 5.54815E+01 3.80385E+01 0.00000E+00
 -1      2997 3.32080E+01 2.65405E+01 0.00000E+00
 -1      2998 1.16910E+01 2.12875E+01 0.00000E+00
 -1      2999 1.16910E+01 2.27625E+01 0.00000E+00
 -1      3000 1.16910E+01 1.24625E+01 0.00000E+00
 -1      3001 1.16910E+01 1.39375E+01 0.00000E+00
 -1      3002 1.14712E+01 7.20138E+00 0.00000E+00
 -1      3003 2.93538E+01 3.42698E+01 0.00000E+00
 -1      3004 2.96623E+01 3.28182E+01 0.00000E+00
 -1      3005 3.18321E+01 4.09105E+01 0.00000E+00
 -1      3006 3.31001E+01 4.03448E+01 0.00000E+00
 -1      3007 1.16460E+01 3.80848E+01 0.00000E+00
 -1      3008 1.24605E+01 3.85216E+01 0.00000E+00
 -1      3009 1.39605E+01 3.85216E+01 0.00000E+00
 -1      3010 1.15815E+01 3.63489E+01 0.00000E+00
 -1      3011 5.61754E+01 3.03834E+01 0.00000E+00
 -1      3012 5.60811E+01 3.15646E+01 0.00000E+00
 -1      3013 1.59000E+01 3.83090E+01 0.00000E+00
 -1      3014 1.74000E+01 3.83090E+01 0.00000E+00
 -1      3015 1.89000E+01 3.83090E+01 0.00000E+00
 -1      3016 2.04000E+01 3.83090E+01 0.00000E+00
 -1      3017 1.81500E+01 3.70100E+01 0.00000E+00
 -1      3018 2.19000E+01 3.83090E+01 0.00000E+00
 -1      3019 2.34000E+01 3.83090E+01 0.00000E+00
 -1      3020 2.11500E+01 3.70100E+01 0.00000E+00
 -1      3021 2.49000E+01 3.83090E+01 0.00000E+00
 -1      3022 2.64000E+01 3.83090E+01 0.00000E+00
 -1      3023 2.41500E+01 3.70100E+01 0.00000E+00
 -1      3024 3.10821E+01 3.96115E+01 0.00000E+00
 -1      3025 6.04875E+01 3.87342E+01 0.00000E+00
 -1      3026 6.20625E+01 3.87342E+01 0.00000E+00
 -1      3027 6.35625E+01 3.87342E+01 0.00000E+00
 -1      3028 6.50625E+01 3.87342E+01 0.00000E+00
 -1      3029 6.27750E+01 3.74352E+01 0.00000E+00
 -1      3030 6.65625E+01 3.87342E+01 0.00000E+00
 -1      3031 6.80625E+01 3.87342E+01 0.00000E+00
 -1      3032 6.57750E+01 3.74352E+01 0.00000E+00
 -1      3033 6.95625E+01 3.87342E+01 0.00000E+00
 -1      3034 7.10625E+01 3.87342E+01 0.00000E+00
 -1      3035 6.87750E+01 3.74352E+01 0.00000E+00
 -1      3036 7.25625E+01 3.87342E+01 0.00000E+00
 -1      3037 7.40625E+01 3.87342E+01 0.00000E+00
 -1      3038 7.17750E+01 3.74352E+01 0.00000E+00
 -1      3039 7.55625E+01 3.87342E+01 0.00000E+00
 -1      3040 7.70625E+01 3.87342E+01 0.00000E+00
 -1      3041 7.47750E+01 3.74352E+01 0.00000E+00
 -1      3042 7.85625E+01 3.87342E+01 0.00000E+00
 -1      3043 8.00625E+01 3.87342E+01 0.00000E+00
 -1      3044 7.77750E+01 3.74352E+01 0.00000E+00
 -1      3045 8.15625E+01 3.87342E+01 0.00000E+00
 -1      3046 8.30625E+01 3.87342E+01 0.00000E+00
 -1      3047 8.07750E+01 3.74352E+01 0.00000E+00
 -1      3048 8.45625E+01 3.87342E+01 0.00000E+00
 -1      3049 8.60625E+01 3.87342E+01 0.00000E+00
 -1      3050 8.37750E+01 3.74352E+01 0.00000E+00
 -1      3051 8.75625E+01 3.87342E+01 0.00000E+00
 -1      3052 8.90625E+01 3.87342E+01 0.00000E+00
 -1      3053 8.67750E+01 3.74352E+01 0.00000E+00
 -1      3054 9.05625E+01 3.87342E+01 0.00000E+00
 -1      3055 9.20625E+01 3.87342E+01 0.00000E+00
 -1      3056 8.97750E+01 3.74352E+01 0.00000E+00
 -1      3057 9.35625E+01 3.87342E+01 0.00000E+00
 -1      3058 9.50625E+01 3.87342E+01 0.00000E+00
 -1      3059 9.27750E+01 3.74352E+01 0.00000E+00
 -1      3060 9.65625E+01 3.87342E+01 0.00000E+00
 -1      3061 9.80625E+01 3.87342E+01 0.00000E+00
 -1      3062 9.57750E+01 3.74352E+01 0.00000E+00
 -1      3063 9.95625E+01 3.87342E+01 0.00000E+00
 -1      3064 1.01063E+02 3.87342E+01 0.00000E+00
 -1      3065 9.87750E+01 3.74352E+01 0.00000E+00
 -1      3066 1.02637E+02 3.87342E+01 0.00000E+00
 -1      3067 1.04213E+02 3.87342E+01 0.00000E+00
 -1      3068 1.01850E+02 3.74352E+01 0.00000E+00
 -1      3069 1.05713E+02 3.87342E+01 0.00000E+00
 -1      3070 1.07213E+02 3.87342E+01 0.00000E+00
 -1      3071 1.04925E+02 3.74352E+01 0.00000E+00
 -1      3072 1.08713E+02 3.87342E+01 0.00000E+00
 -1      3073 1.10213E+02 3.87342E+01 0.00000E+00
 -1      3074 1.07925E+02 3.74352E+01 0.00000E+00
 -1      3075 1.11713E+02 3.87342E+01 0.00000E+00
 -1      3076 1.13213E+02 3.87342E+01 0.00000E+00
 -1      3077 1.10925E+02 3.74352E+01 0.00000E+00
 -1      3078 1.14713E+02 3.87342E+01 0.00000E+00
 -1      3079 1.16213E+02 3.87342E+01 0.00000E+00
 -1      3080 1.13925E+02 3.74352E+01 0.00000E+00
 -1      3081 1.17713E+02 3.87342E+01 0.00000E+00
 -1      3082 1.19213E+02 3.87342E+01 0.00000E+00
 -1      3083 1.16925E+02 3.74352E+01 0.00000E+00
 -1      3084 1.20713E+02 3.87342E+01 0.00000E+00
 -1      3085 1.22213E+02 3.87342E+01 0.00000E+00
 -1      3086 1.19925E+02 3.74352E+01 0.00000E+00
 -1      3087 1.23713E+02 3.87342E+01 0.00000E+00
 -1      3088 1.25213E+02 3.87342E+01 0.00000E+00
 -1      3089 1.22925E+02 3.74352E+01 0.00000E+00
 -1      3090 1.26713E+02 3.87342E+01 0.00000E+00
 -1      3091 1.28212E+02 3.87342E+01 0.00000E+00
 -1      3092 1.25925E+02 3.74352E+01 0.00000E+00
 -1      3093 1.29712E+02 3.87342E+01 0.00000E+00
 -1      3094 1.31212E+02 3.87342E+01 0.00000E+00
 -1      3095 1.28925E+02 3.74352E+01 0.00000E+00
 -1      3096 1.32712E+02 3.87342E+01 0.00000E+00
 -1      3097 1.34212E+02 3.87342E+01 0.00000E+00
 -1      3098 1.31925E+02 3.74352E+01 0.00000E+00
 -1      3099 1.35712E+02 3.87342E+01 0.00000E+00
 -1      3100 1.37212E+02 3.87342E+01 0.00000E+00
 -1      3101 1.34925E+02 3.74352E+01 0.00000E+00
 -1      3102 4.27632E+01 2.03384E+01 0.00000E+00
 -1      3103 4.39697E+01 2.02003E+01 0.00000E+00
 -1      3104 2.16240E+01 1.12805E+01 0.00000E+00
 -1      3105 2.01240E+01 1.12805E+01 0.00000E+00
 -1      3106 1.86240E+01 1.12805E+01 0.00000E+00
 -1      3107 1.71240E+01 1.12805E+01 0.00000E+00
 -1      3108 1.93740E+01 1.25795E+01 0.00000E+00
 -1      3109 3.36240E+01 1.12805E+01 0.00000E+00
 -1      3110 3.21240E+01 1.12805E+01 0.00000E+00
 -1      3111 3.06240E+01 1.12805E+01 0.00000E+00
 -1      3112 2.91240E+01 1.12805E+01 0.00000E+00
 -1      3113 3.13740E+01 1.25795E+01 0.00000E+00
 -1      3114 3.96240E+01 1.12805E+01 0.00000E+00
 -1      3115 3.81240E+01 1.12805E+01 0.00000E+00
 -1      3116 4.26240E+01 1.12805E+01 0.00000E+00
 -1      3117 4.11240E+01 1.12805E+01 0.00000E+00
 -1      3118 4.03740E+01 1.25795E+01 0.00000E+00
 -1      3119 4.56240E+01 1.12805E+01 0.00000E+00
 -1      3120 4.41240E+01 1.12805E+01 0.00000E+00
 -1      3121 4.33740E+01 1.25795E+01 0.00000E+00
 -1      3122 4.86240E+01 1.12805E+01 0.00000E+00
 -1      3123 4.71240E+01 1.12805E+01 0.00000E+00
 -1      3124 4.63740E+01 1.25795E+01 0.00000E+00
 -1      3125 5.16240E+01 1.12805E+01 0.00000E+00
 -1      3126 5.01240E+01 1.12805E+01 0.00000E+00
 -1      3127 4.93740E+01 1.25795E+01 0.00000E+00
 -1      3128 5.46240E+01 1.12805E+01 0.00000E+00
 -1      3129 5.31240E+01 1.12805E+01 0.00000E+00
 -1      3130 5.23740E+01 1.25795E+01 0.00000E+00
 -1      3131 5.76240E+01 1.12805E+01 0.00000E+00
 -1      3132 5.61240E+01 1.12805E+01 0.00000E+00
 -1      3133 5.53740E+01 1.25795E+01 0.00000E+00
 -1      3134 6.06240E+01 1.12805E+01 0.00000E+00
 -1      3135 5.91240E+01 1.12805E+01 0.00000E+00
 -1      3136 5.83740E+01 1.25795E+01 0.00000E+00
 -1      3137 6.36240E+01 1.12805E+01 0.00000E+00
 -1      3138 6.21240E+01 1.12805E+01 0.00000E+00
 -1      3139 6.13740E+01 1.25795E+01 0.00000E+00
 -1      3140 6.66240E+01 1.12805E+01 0.00000E+00
 -1      3141 6.51240E+01 1.12805E+01 0.00000E+00
 -1      3142 6.43740E+01 1.25795E+01 0.00000E+00
 -1      3143 6.96240E+01 1.12805E+01 0.00000E+00
 -1      3144 6.81240E+01 1.12805E+01 0.00000E+00
 -1      3145 6.73740E+01 1.25795E+01 0.00000E+00
 -1      3146 7.26240E+01 1.12805E+01 0.00000E+00
 -1      3147 7.11240E+01 1.12805E+01 0.00000E+00
 -1      3148 7.03740E+01 1.25795E+01 0.00000E+00
 -1      3149 7.56240E+01 1.12805E+01 0.00000E+00
 -1      3150 7.41240E+01 1.12805E+01 0.00000E+00
 -1      3151 7.33740E+01 1.25795E+01 0.00000E+00
 -1      3152 7.86240E+01 1.12805E+01 0.00000E+00
 -1      3153 7.71240E+01 1.12805E+01 0.00000E+00
 -1      3154 7.63740E+01 1.25795E+01 0.00000E+00
 -1      3155 8.16240E+01 1.12805E+01 0.00000E+00
 -1      3156 8.01240E+01 1.12805E+01 0.00000E+00
 -1      3157 7.93740E+01 1.25795E+01 0.00000E+00
 -1      3158 8.46240E+01 1.12805E+01 0.00000E+00
 -1      3159 8.31240E+01 1.12805E+01 0.00000E+00
 -1      3160 8.23740E+01 1.25795E+01 0.00000E+00
 -1      3161 8.76240E+01 1.12805E+01 0.00000E+00
 -1      3162 8.61240E+01 1.12805E+01 0.00000E+00
 -1      3163 8.53740E+01 1.25795E+01 0.00000E+00
 -1      3164 9.06240E+01 1.12805E+01 0.00000E+00
 -1      3165 8.91240E+01 1.12805E+01 0.00000E+00
 -1      3166 8.83740E+01 1.25795E+01 0.00000E+00
 -1      3167 9.36240E+01 1.12805E+01 0.00000E+00
 -1      3168 9.21240E+01 1.12805E+01 0.00000E+00
 -1      3169 9.13740E+01 1.25795E+01 0.00000E+00
 -1      3170 9.66240E+01 1.12805E+01 0.00000E+00
 -1      3171 9.51240E+01 1.12805E+01 0.00000E+00
 -1      3172 9.43740E+01 1.25795E+01 0.00000E+00
 -1      3173 9.96240E+01 1.12805E+01 0.00000E+00
 -1      3174 9.81240E+01 1.12805E+01 0.00000E+00
 -1      3175 9.73740E+01 1.25795E+01 0.00000E+00
 -1      3176 1.02624E+02 1.12805E+01 0.00000E+00
 -1      3177 1.01124E+02 1.12805E+01 0.00000E+00
 -1      3178 1.00374E+02 1.25795E+01 0.00000E+00
 -1      3179 1.05624E+02 1.12805E+01 0.00000E+00
 -1      3180 1.04124E+02 1.12805E+01 0.00000E+00
 -1      3181 1.03374E+02 1.25795E+01 0.00000E+00
 -1      3182 1.08624E+02 1.12805E+01 0.00000E+00
 -1      3183 1.07124E+02 1.12805E+01 0.00000E+00
 -1      3184 1.06374E+02 1.25795E+01 0.00000E+00
 -1      3185 1.11624E+02 1.12805E+01 0.00000E+00
 -1      3186 1.10124E+02 1.12805E+01 0.00000E+00
 -1      3187 1.09374E+02 1.25795E+01 0.00000E+00
 -1      3188 1.14624E+02 1.12805E+01 0.00000E+00
 -1      3189 1.13124E+02 1.12805E+01 0.00000E+00
 -1      3190 1.12374E+02 1.25795E+01 0.00000E+00
 -1      3191 1.17624E+02 1.12805E+01 0.00000E+00
 -1      3192 1.16124E+02 1.12805E+01 0.00000E+00
 -1      3193 1.15374E+02 1.25795E+01 0.00000E+00
 -1      3194 1.20624E+02 1.12805E+01 0.00000E+00
 -1      3195 1.19124E+02 1.12805E+01 0.00000E+00
 -1      3196 1.18374E+02 1.25795E+01 0.00000E+00
 -1      3197 1.23624E+02 1.12805E+01 0.00000E+00
 -1      3198 1.22124E+02 1.12805E+01 0.00000E+00
 -1      3199 1.21374E+02 1.25795E+01 0.00000E+00
 -1      3200 1.26624E+02 1.12805E+01 0.00000E+00
 -1      3201 1.25124E+02 1.12805E+01 0.00000E+00
 -1      3202 1.24374E+02 1.25795E+01 0.00000E+00
 -1      3203 1.29624E+02 1.12805E+01 0.00000E+00
 -1      3204 1.28124E+02 1.12805E+01 0.00000E+00
 -1      3205 1.27374E+02 1.25795E+01 0.00000E+00
 -1      3206 1.32624E+02 1.12805E+01 0.00000E+00
 -1      3207 1.31124E+02 1.12805E+01 0.00000E+00
 -1      3208 1.30374E+02 1.25795E+01 0.00000E+00
 -1      3209 1.35624E+02 1.12805E+01 0.00000E+00
 -1      3210 1.34124E+02 1.12805E+01 0.00000E+00
 -1      3211 1.33374E+02 1.25795E+01 0.00000E+00
 -1      3212 1.38186E+02 1.14973E+01 0.00000E+00
 -1      3213 1.36728E+02 1.14114E+01 0.00000E+00
 -1      3214 1.35978E+02 1.27104E+01 0.00000E+00
 -1      3215 1.38186E+02 1.29723E+01 0.00000E+00
 -1      3216 1.38309E+02 2.28125E+01 0.00000E+00
 -1      3217 1.38309E+02 2.13375E+01 0.00000E+00
 -1      3218 3.36955E+01 2.41567E+01 0.00000E+00
 -1      3219 3.45663E+01 2.32787E+01 0.00000E+00
 -1      3220 1.38309E+02 2.86750E+01 0.00000E+00
 -1      3221 1.38309E+02 2.72250E+01 0.00000E+00
 -1      3222 1.38309E+02 2.57563E+01 0.00000E+00
 -1      3223 1.38309E+02 2.42813E+01 0.00000E+00
 -1      3224 1.37010E+02 2.35438E+01 0.00000E+00
 -1      3225 1.37010E+02 2.64813E+01 0.00000E+00
 -1      3226 1.38309E+02 3.45625E+01 0.00000E+00
 -1      3227 1.38309E+02 3.30875E+01 0.00000E+00
 -1      3228 5.40781E+01 2.47495E+01 0.00000E+00
 -1      3229 5.46723E+01 2.54974E+01 0.00000E+00
 -1      3230 1.17938E+01 8.83558E+00 0.00000E+00
 -1      3231 4.56740E+01 2.02506E+01 0.00000E+00
 -1      3232 4.71117E+01 2.06053E+01 0.00000E+00
 -1      3233 3.97258E+01 2.03870E+01 0.00000E+00
 -1      3234 4.12445E+01 2.03627E+01 0.00000E+00
 -1      3235 4.17312E+01 1.92752E+01 0.00000E+00
 -1      3236 4.85630E+01 2.13220E+01 0.00000E+00
 -1      3237 4.96800E+01 2.19119E+01 0.00000E+00
 -1      3238 1.18830E+01 1.08533E+01 0.00000E+00
 -1      3239 3.04843E+01 2.90381E+01 0.00000E+00
 -1      3240 3.09602E+01 2.78202E+01 0.00000E+00
 -1      3241 1.38309E+02 3.16187E+01 0.00000E+00
 -1      3242 1.38309E+02 3.01437E+01 0.00000E+00
 -1      3243 1.37010E+02 2.94188E+01 0.00000E+00
 -1      3244 1.37010E+02 3.23563E+01 0.00000E+00
 -1      3245 2.99593E+01 3.14885E+01 0.00000E+00
 -1      3246 3.01873E+01 3.03677E+01 0.00000E+00
 -1      3247 2.93144E+01 2.93247E+01 0.00000E+00
 -1      3248 2.87203E+01 3.19839E+01 0.00000E+00
 -1      3249 1.38309E+02 1.98625E+01 0.00000E+00
 -1      3250 1.38309E+02 1.83875E+01 0.00000E+00
 -1      3251 1.37010E+02 2.06000E+01 0.00000E+00
 -1      3252 3.66240E+01 1.12805E+01 0.00000E+00
 -1      3253 3.51240E+01 1.12805E+01 0.00000E+00
 -1      3254 3.43740E+01 1.25795E+01 0.00000E+00
 -1      3255 3.73740E+01 1.25795E+01 0.00000E+00
 -1      3256 3.27027E+01 3.94674E+01 0.00000E+00
 -1      3257 5.74875E+01 3.87342E+01 0.00000E+00
 -1      3258 5.89875E+01 3.87342E+01 0.00000E+00
 -1      3259 5.97750E+01 3.74352E+01 0.00000E+00
 -1      3260 3.18977E+01 2.63666E+01 0.00000E+00
 -1      3261 3.27966E+01 2.52616E+01 0.00000E+00
 -1      3262 3.23852E+01 2.39827E+01 0.00000E+00
 -1      3263 5.65689E+01 3.58880E+01 0.00000E+00
 -1      3264 5.61679E+01 3.70787E+01 0.00000E+00
 -1      3265 1.31820E+01 1.15908E+01 0.00000E+00
 -1      3266 1.29900E+01 1.46687E+01 0.00000E+00
 -1      3267 1.16910E+01 1.54063E+01 0.00000E+00
 -1      3268 1.16910E+01 1.68750E+01 0.00000E+00
 -1      3269 4.81098E+01 2.00680E+01 0.00000E+00
 -1      3270 2.87553E+01 3.52857E+01 0.00000E+00
 -1      3271 2.78248E+01 3.43294E+01 0.00000E+00
 -1      3272 2.81568E+01 3.63015E+01 0.00000E+00
 -1      3273 5.33297E+01 2.26825E+01 0.00000E+00
 -1      3274 5.37039E+01 2.37160E+01 0.00000E+00
 -1      3275 5.49348E+01 2.33480E+01 0.00000E+00
 -1      3276 1.47105E+01 3.72226E+01 0.00000E+00
 -1      3277 5.67422E+01 3.22691E+01 0.00000E+00
 -1      3278 3.06293E+01 3.91677E+01 0.00000E+00
 -1      3279 3.15615E+01 3.91712E+01 0.00000E+00
 -1      3280 2.73686E+01 3.71339E+01 0.00000E+00
 -1      3281 2.81186E+01 3.84329E+01 0.00000E+00
 -1      3282 2.96186E+01 3.84329E+01 0.00000E+00
 -1      3283 1.16910E+01 3.30594E+01 0.00000E+00
 -1      3284 1.16910E+01 3.45281E+01 0.00000E+00
 -1      3285 5.07111E+01 2.07902E+01 0.00000E+00
 -1      3286 5.08299E+01 2.19175E+01 0.00000E+00
 -1      3287 5.19799E+01 2.19231E+01 0.00000E+00
 -1      3288 1.38924E+02 3.87639E+01 0.00000E+00
 -1      3289 2.83740E+01 1.25795E+01 0.00000E+00
 -1      3290 2.76240E+01 1.12805E+01 0.00000E+00
 -1      3291 2.61240E+01 1.12805E+01 0.00000E+00
 -1      3292 1.38016E+02 3.63676E+01 0.00000E+00
 -1      3293 1.36717E+02 3.56301E+01 0.00000E+00
 -1      3294 1.38266E+02 1.41090E+01 0.00000E+00
 -1      3295 1.37161E+02 1.39781E+01 0.00000E+00
 -1      3296 1.38345E+02 1.52457E+01 0.00000E+00
 -1      3297 5.65741E+01 3.77436E+01 0.00000E+00
 -1      3298 5.56931E+01 2.59702E+01 0.00000E+00
 -1      3299 3.37966E+01 2.16270E+01 0.00000E+00
 -1      3300 3.50788E+01 2.20279E+01 0.00000E+00
 -1      3301 3.55914E+01 2.07771E+01 0.00000E+00
 -1      3302 1.16910E+01 3.15906E+01 0.00000E+00
 -1      3303 1.29900E+01 3.23250E+01 0.00000E+00
 -1      3304 1.16910E+01 3.01219E+01 0.00000E+00
 -1      3305 1.38137E+02 3.74649E+01 0.00000E+00
 -1      3306 1.56240E+01 1.12805E+01 0.00000E+00
 -1      3307 1.41241E+01 1.12805E+01 0.00000E+00
 -1      3308 3.05488E+01 2.65413E+01 0.00000E+00
 -1      3309 4.49542E+01 1.93011E+01 0.00000E+00
 -1      3310 3.85431E+01 2.02388E+01 0.00000E+00
 -1      3311 3.90298E+01 1.91513E+01 0.00000E+00
 -1      3312 3.73603E+01 2.00905E+01 0.00000E+00
 -1      3313 1.16910E+01 1.83469E+01 0.00000E+00
 -1      3314 1.16910E+01 1.98156E+01 0.00000E+00
 -1      3315 1.29900E+01 2.05531E+01 0.00000E+00
 -1      3316 1.29900E+01 1.76094E+01 0.00000E+00
 -1      3317 2.31240E+01 1.12805E+01 0.00000E+00
 -1      3318 2.23740E+01 1.25795E+01 0.00000E+00
 -1      3319 2.46240E+01 1.12805E+01 0.00000E+00
 -1      3320 5.71096E+01 3.43850E+01 0.00000E+00
 -1      3321 5.68392E+01 3.51365E+01 0.00000E+00
 -1      3322 5.75309E+01 3.60322E+01 0.00000E+00
 -1      3323 1.39320E+01 1.28898E+01 0.00000E+00
 -1      3324 5.70813E+01 3.80693E+01 0.00000E+00
 -1      3325 1.38367E+02 1.73849E+01 0.00000E+00
 -1      3326 1.38287E+02 1.62482E+01 0.00000E+00
 -1      3327 1.37183E+02 1.61173E+01 0.00000E+00
 -1      3328 1.37068E+02 1.81224E+01 0.00000E+00
 -1      3329 1.16910E+01 2.42375E+01 0.00000E+00
 -1      3330 1.16910E+01 2.57125E+01 0.00000E+00
 -1      3331 1.29900E+01 2.35000E+01 0.00000E+00
 -1      3332 5.65718E+01 2.93040E+01 0.00000E+00
 -1      3333 5.74631E+01 2.99694E+01 0.00000E+00
 -1      3334 5.69683E+01 2.82245E+01 0.00000E+00
 -1      3335 1.63740E+01 1.25795E+01 0.00000E+00
 -1      3336 2.64382E+01 3.61776E+01 0.00000E+00
 -1      3337 5.77583E+01 3.19446E+01 0.00000E+00
 -1      3338 5.74339E+01 3.31648E+01 0.00000E+00
 -1      3339 5.81256E+01 3.40605E+01 0.00000E+00
 -1      3340 1.28805E+01 3.56145E+01 0.00000E+00
 -1      3341 2.04000E+01 3.57110E+01 0.00000E+00
 -1      3342 2.19000E+01 3.57110E+01 0.00000E+00
 -1      3343 2.34000E+01 3.57110E+01 0.00000E+00
 -1      3344 2.49000E+01 3.57110E+01 0.00000E+00
 -1      3345 2.26500E+01 3.44120E+01 0.00000E+00
 -1      3346 6.20250E+01 3.62425E+01 0.00000E+00
 -1      3347 6.35250E+01 3.62425E+01 0.00000E+00
 -1      3348 3.10105E+01 2.37825E+01 0.00000E+00
 -1      3349 3.19095E+01 2.26776E+01 0.00000E+00
 -1      3350 6.50250E+01 3.62425E+01 0.00000E+00
 -1      3351 6.65250E+01 3.62425E+01 0.00000E+00
 -1      3352 6.42750E+01 3.50498E+01 0.00000E+00
 -1      3353 6.80250E+01 3.62425E+01 0.00000E+00
 -1      3354 6.95250E+01 3.62425E+01 0.00000E+00
 -1      3355 6.72750E+01 3.50498E+01 0.00000E+00
 -1      3356 7.10250E+01 3.62425E+01 0.00000E+00
 -1      3357 7.25250E+01 3.62425E+01 0.00000E+00
 -1      3358 7.02750E+01 3.50498E+01 0.00000E+00
 -1      3359 7.40250E+01 3.62425E+01 0.00000E+00
 -1      3360 7.55250E+01 3.62425E+01 0.00000E+00
 -1      3361 7.32750E+01 3.50498E+01 0.00000E+00
 -1      3362 7.70250E+01 3.62425E+01 0.00000E+00
 -1      3363 7.85250E+01 3.62425E+01 0.00000E+00
 -1      3364 7.62750E+01 3.50498E+01 0.00000E+00
 -1      3365 8.00250E+01 3.62425E+01 0.00000E+00
 -1      3366 8.15250E+01 3.62425E+01 0.00000E+00
 -1      3367 7.92750E+01 3.50498E+01 0.00000E+00
 -1      3368 8.30250E+01 3.62425E+01 0.00000E+00
 -1      3369 8.45250E+01 3.62425E+01 0.00000E+00
 -1      3370 8.22750E+01 3.50498E+01 0.00000E+00
 -1      3371 8.60250E+01 3.62425E+01 0.00000E+00
 -1      3372 8.75250E+01 3.62425E+01 0.00000E+00
 -1      3373 8.52750E+01 3.50498E+01 0.00000E+00
 -1      3374 8.90250E+01 3.62425E+01 0.00000E+00
 -1      3375 9.05250E+01 3.62425E+01 0.00000E+00
 -1      3376 8.82750E+01 3.50498E+01 0.00000E+00
 -1      3377 9.20250E+01 3.62425E+01 0.00000E+00
 -1      3378 9.35250E+01 3.62425E+01 0.00000E+00
 -1      3379 9.12750E+01 3.50498E+01 0.00000E+00
 -1      3380 9.50250E+01 3.62425E+01 0.00000E+00
 -1      3381 9.65250E+01 3.62425E+01 0.00000E+00
 -1      3382 9.42750E+01 3.50498E+01 0.00000E+00
 -1      3383 9.80250E+01 3.62425E+01 0.00000E+00
 -1      3384 9.95250E+01 3.62425E+01 0.00000E+00
 -1      3385 9.72750E+01 3.50498E+01 0.00000E+00
 -1      3386 1.01100E+02 3.62425E+01 0.00000E+00
 -1      3387 1.02675E+02 3.62425E+01 0.00000E+00
 -1      3388 1.00350E+02 3.50498E+01 0.00000E+00
 -1      3389 1.04175E+02 3.62425E+01 0.00000E+00
 -1      3390 1.05675E+02 3.62425E+01 0.00000E+00
 -1      3391 1.03425E+02 3.50498E+01 0.00000E+00
 -1      3392 1.07175E+02 3.62425E+01 0.00000E+00
 -1      3393 1.08675E+02 3.62425E+01 0.00000E+00
 -1      3394 1.06425E+02 3.50498E+01 0.00000E+00
 -1      3395 1.10175E+02 3.62425E+01 0.00000E+00
 -1      3396 1.11675E+02 3.62425E+01 0.00000E+00
 -1      3397 1.09425E+02 3.50498E+01 0.00000E+00
 -1      3398 1.13175E+02 3.62425E+01 0.00000E+00
 -1      3399 1.14675E+02 3.62425E+01 0.00000E+00
 -1      3400 1.12425E+02 3.50498E+01 0.00000E+00
 -1      3401 1.16175E+02 3.62425E+01 0.00000E+00
 -1      3402 1.17675E+02 3.62425E+01 0.00000E+00
 -1      3403 1.15425E+02 3.50498E+01 0.00000E+00
 -1      3404 1.19175E+02 3.62425E+01 0.00000E+00
 -1      3405 1.20675E+02 3.62425E+01 0.00000E+00
 -1      3406 1.18425E+02 3.50498E+01 0.00000E+00
 -1      3407 1.22175E+02 3.62425E+01 0.00000E+00
 -1      3408 1.23675E+02 3.62425E+01 0.00000E+00
 -1      3409 1.21425E+02 3.50498E+01 0.00000E+00
 -1      3410 1.25175E+02 3.62425E+01 0.00000E+00
 -1      3411 1.26675E+02 3.62425E+01 0.00000E+00
 -1      3412 1.24425E+02 3.50498E+01 0.00000E+00
 -1      3413 1.28175E+02 3.62425E+01 0.00000E+00
 -1      3414 1.29675E+02 3.62425E+01 0.00000E+00
 -1      3415 1.27425E+02 3.50498E+01 0.00000E+00
 -1      3416 1.31175E+02 3.62425E+01 0.00000E+00
 -1      3417 1.32675E+02 3.62425E+01 0.00000E+00
 -1      3418 1.30425E+02 3.50498E+01 0.00000E+00
 -1      3419 1.33946E+02 3.59363E+01 0.00000E+00
 -1      3420 1.35446E+02 3.59363E+01 0.00000E+00
 -1      3421 1.35739E+02 3.41312E+01 0.00000E+00
 -1      3422 1.33196E+02 3.47436E+01 0.00000E+00
 -1      3423 4.41240E+01 1.38785E+01 0.00000E+00
 -1      3424 4.26240E+01 1.38785E+01 0.00000E+00
 -1      3425 4.11240E+01 1.38785E+01 0.00000E+00
 -1      3426 3.96240E+01 1.38785E+01 0.00000E+00
 -1      3427 4.18740E+01 1.51775E+01 0.00000E+00
 -1      3428 5.01240E+01 1.38785E+01 0.00000E+00
 -1      3429 4.86240E+01 1.38785E+01 0.00000E+00
 -1      3430 5.31240E+01 1.38785E+01 0.00000E+00
 -1      3431 5.16240E+01 1.38785E+01 0.00000E+00
 -1      3432 5.08740E+01 1.51775E+01 0.00000E+00
 -1      3433 5.61240E+01 1.38785E+01 0.00000E+00
 -1      3434 5.46240E+01 1.38785E+01 0.00000E+00
 -1      3435 5.38740E+01 1.51775E+01 0.00000E+00
 -1      3436 5.91240E+01 1.38785E+01 0.00000E+00
 -1      3437 5.76240E+01 1.38785E+01 0.00000E+00
 -1      3438 5.68740E+01 1.51775E+01 0.00000E+00
 -1      3439 6.21240E+01 1.38785E+01 0.00000E+00
 -1      3440 6.06240E+01 1.38785E+01 0.00000E+00
 -1      3441 5.98740E+01 1.51775E+01 0.00000E+00
 -1      3442 6.51240E+01 1.38785E+01 0.00000E+00
 -1      3443 6.36240E+01 1.38785E+01 0.00000E+00
 -1      3444 6.28740E+01 1.51775E+01 0.00000E+00
 -1      3445 6.81240E+01 1.38785E+01 0.00000E+00
 -1      3446 6.66240E+01 1.38785E+01 0.00000E+00
 -1      3447 6.58740E+01 1.51775E+01 0.00000E+00
 -1      3448 7.11240E+01 1.38785E+01 0.00000E+00
 -1      3449 6.96240E+01 1.38785E+01 0.00000E+00
 -1      3450 6.88740E+01 1.51775E+01 0.00000E+00
 -1      3451 7.41240E+01 1.38785E+01 0.00000E+00
 -1      3452 7.26240E+01 1.38785E+01 0.00000E+00
 -1      3453 7.18740E+01 1.51775E+01 0.00000E+00
 -1      3454 7.71240E+01 1.38785E+01 0.00000E+00
 -1      3455 7.56240E+01 1.38785E+01 0.00000E+00
 -1      3456 7.48740E+01 1.51775E+01 0.00000E+00
 -1      3457 8.01240E+01 1.38785E+01 0.00000E+00
 -1      3458 7.86240E+01 1.38785E+01 0.00000E+00
 -1      3459 7.78740E+01 1.51775E+01 0.00000E+00
 -1      3460 8.31240E+01 1.38785E+01 0.00000E+00
 -1      3461 8.16240E+01 1.38785E+01 0.00000E+00
 -1      3462 8.08740E+01 1.51775E+01 0.00000E+00
 -1      3463 8.61240E+01 1.38785E+01 0.00000E+00
 -1      3464 8.46240E+01 1.38785E+01 0.00000E+00
 -1      3465 8.38740E+01 1.51775E+01 0.00000E+00
 -1      3466 8.91240E+01 1.38785E+01 0.00000E+00
 -1      3467 8.76240E+01 1.38785E+01 0.00000E+00
 -1      3468 8.68740E+01 1.51775E+01 0.00000E+00
 -1      3469 9.21240E+01 1.38785E+01 0.00000E+00
 -1      3470 9.06240E+01 1.38785E+01 0.00000E+00
 -1      3471 8.98740E+01 1.51775E+01 0.00000E+00
 -1      3472 9.51240E+01 1.38785E+01 0.00000E+00
 -1      3473 9.36240E+01 1.38785E+01 0.00000E+00
 -1      3474 9.28740E+01 1.51775E+01 0.00000E+00
 -1      3475 9.81240E+01 1.38785E+01 0.00000E+00
 -1      3476 9.66240E+01 1.38785E+01 0.00000E+00
 -1      3477 9.58740E+01 1.51775E+01 0.00000E+00
 -1      3478 1.01124E+02 1.38785E+01 0.00000E+00
 -1      3479 9.96240E+01 1.38785E+01 0.00000E+00
 -1      3480 9.88740E+01 1.51775E+01 0.00000E+00
 -1      3481 1.04124E+02 1.38785E+01 0.00000E+00
 -1      3482 1.02624E+02 1.38785E+01 0.00000E+00
 -1      3483 1.01874E+02 1.51775E+01 0.00000E+00
 -1      3484 1.07124E+02 1.38785E+01 0.00000E+00
 -1      3485 1.05624E+02 1.38785E+01 0.00000E+00
 -1      3486 1.04874E+02 1.51775E+01 0.00000E+00
 -1      3487 1.10124E+02 1.38785E+01 0.00000E+00
 -1      3488 1.08624E+02 1.38785E+01 0.00000E+00
 -1      3489 1.07874E+02 1.51775E+01 0.00000E+00
 -1      3490 1.13124E+02 1.38785E+01 0.00000E+00
 -1      3491 1.11624E+02 1.38785E+01 0.00000E+00
 -1      3492 1.10874E+02 1.51775E+01 0.00000E+00
 -1      3493 1.16124E+02 1.38785E+01 0.00000E+00
 -1      3494 1.14624E+02 1.38785E+01 0.00000E+00
 -1      3495 1.13874E+02 1.51775E+01 0.00000E+00
 -1      3496 1.19124E+02 1.38785E+01 0.00000E+00
 -1      3497 1.17624E+02 1.38785E+01 0.00000E+00
 -1      3498 1.16874E+02 1.51775E+01 0.00000E+00
 -1      3499 1.22124E+02 1.38785E+01 0.00000E+00
 -1      3500 1.20624E+02 1.38785E+01 0.00000E+00
 -1      3501 1.19874E+02 1.51775E+01 0.00000E+00
 -1      3502 1.25124E+02 1.38785E+01 0.00000E+00
 -1      3503 1.23624E+02 1.38785E+01 0.00000E+00
 -1      3504 1.22874E+02 1.51775E+01 0.00000E+00
 -1      3505 1.28124E+02 1.38785E+01 0.00000E+00
 -1      3506 1.26624E+02 1.38785E+01 0.00000E+00
 -1      3507 1.25874E+02 1.51775E+01 0.00000E+00
 -1      3508 1.31124E+02 1.38785E+01 0.00000E+00
 -1      3509 1.29624E+02 1.38785E+01 0.00000E+00
 -1      3510 1.28874E+02 1.51775E+01 0.00000E+00
 -1      3511 1.34124E+02 1.38785E+01 0.00000E+00
 -1      3512 1.32624E+02 1.38785E+01 0.00000E+00
 -1      3513 1.31874E+02 1.51775E+01 0.00000E+00
 -1      3514 1.36195E+02 1.39937E+01 0.00000E+00
 -1      3515 1.35091E+02 1.38628E+01 0.00000E+00
 -1      3516 1.34341E+02 1.51618E+01 0.00000E+00
 -1      3517 1.36274E+02 1.51304E+01 0.00000E+00
 -1      3518 1.16910E+01 2.71844E+01 0.00000E+00
 -1      3519 1.16910E+01 2.86531E+01 0.00000E+00
 -1      3520 1.29900E+01 2.93875E+01 0.00000E+00
 -1      3521 1.48200E+01 3.54019E+01 0.00000E+00
 -1      3522 2.91482E+01 2.66672E+01 0.00000E+00
 -1      3523 3.00856E+01 2.52135E+01 0.00000E+00
 -1      3524 4.78751E+01 1.87153E+01 0.00000E+00
 -1      3525 4.93264E+01 1.94320E+01 0.00000E+00
 -1      3526 4.71240E+01 1.38785E+01 0.00000E+00
 -1      3527 4.56240E+01 1.38785E+01 0.00000E+00
 -1      3528 4.48740E+01 1.51775E+01 0.00000E+00
 -1      3529 4.78740E+01 1.51775E+01 0.00000E+00
 -1      3530 3.21240E+01 1.38785E+01 0.00000E+00
 -1      3531 3.06240E+01 1.38785E+01 0.00000E+00
 -1      3532 2.01240E+01 1.38785E+01 0.00000E+00
 -1      3533 1.86240E+01 1.38785E+01 0.00000E+00
 -1      3534 4.09541E+01 1.81786E+01 0.00000E+00
 -1      3535 4.24728E+01 1.81543E+01 0.00000E+00
 -1      3536 5.66604E+01 2.48956E+01 0.00000E+00
 -1      3537 5.70444E+01 2.64844E+01 0.00000E+00
 -1      3538 1.35711E+02 2.13375E+01 0.00000E+00
 -1      3539 1.35711E+02 1.98625E+01 0.00000E+00
 -1      3540 1.74000E+01 3.57110E+01 0.00000E+00
 -1      3541 1.89000E+01 3.57110E+01 0.00000E+00
 -1      3542 1.96500E+01 3.44120E+01 0.00000E+00
 -1      3543 4.48120E+01 1.72142E+01 0.00000E+00
 -1      3544 4.65163E+01 1.72644E+01 0.00000E+00
 -1      3545 1.48741E+01 1.40483E+01 0.00000E+00
 -1      3546 1.39320E+01 1.43585E+01 0.00000E+00
 -1      3547 1.39320E+01 1.58273E+01 0.00000E+00
 -1      3548 1.74990E+01 1.39634E+01 0.00000E+00
 -1      3549 1.59990E+01 1.39634E+01 0.00000E+00
 -1      3550 1.59990E+01 1.54321E+01 0.00000E+00
 -1      3551 1.82490E+01 1.52624E+01 0.00000E+00
 -1      3552 1.42800E+01 3.32139E+01 0.00000E+00
 -1      3553 1.61100E+01 3.48221E+01 0.00000E+00
 -1      3554 1.68600E+01 3.35231E+01 0.00000E+00
 -1      3555 1.42800E+01 3.17452E+01 0.00000E+00
 -1      3556 5.32108E+01 2.15551E+01 0.00000E+00
 -1      3557 5.90250E+01 3.63263E+01 0.00000E+00
 -1      3558 6.05250E+01 3.63263E+01 0.00000E+00
 -1      3559 5.04764E+01 1.94376E+01 0.00000E+00
 -1      3560 5.16263E+01 1.94432E+01 0.00000E+00
 -1      3561 5.02417E+01 1.80849E+01 0.00000E+00
 -1      3562 5.81547E+01 3.08652E+01 0.00000E+00
 -1      3563 5.88464E+01 3.17609E+01 0.00000E+00
 -1      3564 5.85512E+01 2.97857E+01 0.00000E+00
 -1      3565 4.77329E+01 1.66284E+01 0.00000E+00
 -1      3566 2.56882E+01 3.48786E+01 0.00000E+00
 -1      3567 6.12750E+01 3.51336E+01 0.00000E+00
 -1      3568 3.10473E+01 2.12265E+01 0.00000E+00
 -1      3569 3.24220E+01 2.14268E+01 0.00000E+00
 -1      3570 3.29345E+01 2.01760E+01 0.00000E+00
 -1      3571 5.59119E+01 2.28286E+01 0.00000E+00
 -1      3572 5.62861E+01 2.38621E+01 0.00000E+00
 -1      3573 5.76375E+01 2.43763E+01 0.00000E+00
 -1      3574 1.42890E+01 2.27625E+01 0.00000E+00
 -1      3575 1.42890E+01 2.42375E+01 0.00000E+00
 -1      3576 2.91240E+01 1.38785E+01 0.00000E+00
 -1      3577 2.76240E+01 1.38785E+01 0.00000E+00
 -1      3578 2.98740E+01 1.51775E+01 0.00000E+00
 -1      3579 2.96099E+01 2.39084E+01 0.00000E+00
 -1      3580 3.88740E+01 1.51775E+01 0.00000E+00
 -1      3581 3.81240E+01 1.38785E+01 0.00000E+00
 -1      3582 3.66240E+01 1.38785E+01 0.00000E+00
 -1      3583 1.29900E+01 2.64469E+01 0.00000E+00
 -1      3584 2.80019E+01 2.97295E+01 0.00000E+00
 -1      3585 2.82989E+01 2.83998E+01 0.00000E+00
 -1      3586 2.31240E+01 1.38785E+01 0.00000E+00
 -1      3587 2.16240E+01 1.38785E+01 0.00000E+00
 -1      3588 2.08740E+01 1.51775E+01 0.00000E+00
 -1      3589 1.35711E+02 2.42750E+01 0.00000E+00
 -1      3590 1.35711E+02 2.28062E+01 0.00000E+00
 -1      3591 1.34412E+02 2.20688E+01 0.00000E+00
 -1      3592 2.78356E+01 2.70720E+01 0.00000E+00
 -1      3593 3.47958E+01 1.92887E+01 0.00000E+00
 -1      3594 3.60781E+01 1.96896E+01 0.00000E+00
 -1      3595 3.65648E+01 1.86021E+01 0.00000E+00
 -1      3596 1.35739E+02 3.26625E+01 0.00000E+00
 -1      3597 1.35739E+02 3.11937E+01 0.00000E+00
 -1      3598 1.34467E+02 3.29687E+01 0.00000E+00
 -1      3599 2.53740E+01 1.25795E+01 0.00000E+00
 -1      3600 1.35711E+02 2.72125E+01 0.00000E+00
 -1      3601 1.35711E+02 2.57437E+01 0.00000E+00
 -1      3602 1.34412E+02 2.50063E+01 0.00000E+00
 -1      3603 2.74078E+01 3.23887E+01 0.00000E+00
 -1      3604 2.77048E+01 3.10591E+01 0.00000E+00
 -1      3605 2.66893E+01 3.01342E+01 0.00000E+00
 -1      3606 5.79356E+01 2.71499E+01 0.00000E+00
 -1      3607 1.42890E+01 1.98188E+01 0.00000E+00
 -1      3608 1.42890E+01 2.12906E+01 0.00000E+00
 -1      3609 1.55880E+01 2.20281E+01 0.00000E+00
 -1      3610 3.51240E+01 1.38785E+01 0.00000E+00
 -1      3611 3.36240E+01 1.38785E+01 0.00000E+00
 -1      3612 3.28740E+01 1.51775E+01 0.00000E+00
 -1      3613 3.58740E+01 1.51775E+01 0.00000E+00
 -1      3614 2.62488E+01 3.41416E+01 0.00000E+00
 -1      3615 2.68472E+01 3.31257E+01 0.00000E+00
 -1      3616 2.58317E+01 3.22009E+01 0.00000E+00
 -1      3617 2.47106E+01 3.36750E+01 0.00000E+00
 -1      3618 1.34470E+02 1.95974E+01 0.00000E+00
 -1      3619 1.35769E+02 1.88599E+01 0.00000E+00
 -1      3620 1.35827E+02 1.78574E+01 0.00000E+00
 -1      3621 1.35725E+02 2.99375E+01 0.00000E+00
 -1      3622 1.35725E+02 2.84687E+01 0.00000E+00
 -1      3623 1.34426E+02 2.77312E+01 0.00000E+00
 -1      3624 1.34454E+02 3.02437E+01 0.00000E+00
 -1      3625 5.77678E+01 3.71095E+01 0.00000E+00
 -1      3626 5.80381E+01 3.63580E+01 0.00000E+00
 -1      3627 5.87881E+01 3.52491E+01 0.00000E+00
 -1      3628 5.31618E+01 2.00629E+01 0.00000E+00
 -1      3629 5.45116E+01 2.08222E+01 0.00000E+00
 -1      3630 5.91125E+01 3.40289E+01 0.00000E+00
 -1      3631 2.19000E+01 3.32193E+01 0.00000E+00
 -1      3632 2.34000E+01 3.32193E+01 0.00000E+00
 -1      3633 5.76240E+01 1.64765E+01 0.00000E+00
 -1      3634 5.61240E+01 1.64765E+01 0.00000E+00
 -1      3635 1.41105E+01 1.70871E+01 0.00000E+00
 -1      3636 1.41105E+01 1.85589E+01 0.00000E+00
 -1      3637 1.54095E+01 1.92964E+01 0.00000E+00
 -1      3638 1.50525E+01 1.67768E+01 0.00000E+00
 -1      3639 6.65250E+01 3.37508E+01 0.00000E+00
 -1      3640 6.80250E+01 3.37508E+01 0.00000E+00
 -1      3641 6.95250E+01 3.37508E+01 0.00000E+00
 -1      3642 7.10250E+01 3.37508E+01 0.00000E+00
 -1      3643 6.87750E+01 3.24518E+01 0.00000E+00
 -1      3644 7.25250E+01 3.37508E+01 0.00000E+00
 -1      3645 7.40250E+01 3.37508E+01 0.00000E+00
 -1      3646 7.17750E+01 3.24518E+01 0.00000E+00
 -1      3647 7.55250E+01 3.37508E+01 0.00000E+00
 -1      3648 7.70250E+01 3.37508E+01 0.00000E+00
 -1      3649 7.47750E+01 3.24518E+01 0.00000E+00
 -1      3650 7.85250E+01 3.37508E+01 0.00000E+00
 -1      3651 8.00250E+01 3.37508E+01 0.00000E+00
 -1      3652 7.77750E+01 3.24518E+01 0.00000E+00
 -1      3653 8.15250E+01 3.37508E+01 0.00000E+00
 -1      3654 8.30250E+01 3.37508E+01 0.00000E+00
 -1      3655 8.07750E+01 3.24518E+01 0.00000E+00
 -1      3656 8.45250E+01 3.37508E+01 0.00000E+00
 -1      3657 8.60250E+01 3.37508E+01 0.00000E+00
 -1      3658 8.37750E+01 3.24518E+01 0.00000E+00
 -1      3659 8.75250E+01 3.37508E+01 0.00000E+00
 -1      3660 8.90250E+01 3.37508E+01 0.00000E+00
 -1      3661 8.67750E+01 3.24518E+01 0.00000E+00
 -1      3662 9.05250E+01 3.37508E+01 0.00000E+00
 -1      3663 9.20250E+01 3.37508E+01 0.00000E+00
 -1      3664 8.97750E+01 3.24518E+01 0.00000E+00
 -1      3665 9.35250E+01 3.37508E+01 0.00000E+00
 -1      3666 9.50250E+01 3.37508E+01 0.00000E+00
 -1      3667 9.27750E+01 3.24518E+01 0.00000E+00
 -1      3668 9.65250E+01 3.37508E+01 0.00000E+00
 -1      3669 9.80250E+01 3.37508E+01 0.00000E+00
 -1      3670 9.57750E+01 3.24518E+01 0.00000E+00
 -1      3671 9.96000E+01 3.37508E+01 0.00000E+00
 -1      3672 1.01175E+02 3.37508E+01 0.00000E+00
 -1      3673 9.88500E+01 3.24518E+01 0.00000E+00
 -1      3674 1.02675E+02 3.37508E+01 0.00000E+00
 -1      3675 1.04175E+02 3.37508E+01 0.00000E+00
 -1      3676 1.01925E+02 3.24518E+01 0.00000E+00
 -1      3677 1.05675E+02 3.37508E+01 0.00000E+00
 -1      3678 1.07175E+02 3.37508E+01 0.00000E+00
 -1      3679 1.04925E+02 3.24518E+01 0.00000E+00
 -1      3680 1.08675E+02 3.37508E+01 0.00000E+00
 -1      3681 1.10175E+02 3.37508E+01 0.00000E+00
 -1      3682 1.07925E+02 3.24518E+01 0.00000E+00
 -1      3683 1.11675E+02 3.37508E+01 0.00000E+00
 -1      3684 1.13175E+02 3.37508E+01 0.00000E+00
 -1      3685 1.10925E+02 3.24518E+01 0.00000E+00
 -1      3686 1.14675E+02 3.37508E+01 0.00000E+00
 -1      3687 1.16175E+02 3.37508E+01 0.00000E+00
 -1      3688 1.13925E+02 3.24518E+01 0.00000E+00
 -1      3689 1.17675E+02 3.37508E+01 0.00000E+00
 -1      3690 1.19175E+02 3.37508E+01 0.00000E+00
 -1      3691 1.16925E+02 3.24518E+01 0.00000E+00
 -1      3692 1.20675E+02 3.37508E+01 0.00000E+00
 -1      3693 1.22175E+02 3.37508E+01 0.00000E+00
 -1      3694 1.19925E+02 3.24518E+01 0.00000E+00
 -1      3695 1.23675E+02 3.37508E+01 0.00000E+00
 -1      3696 1.25175E+02 3.37508E+01 0.00000E+00
 -1      3697 1.22925E+02 3.24518E+01 0.00000E+00
 -1      3698 1.26675E+02 3.37508E+01 0.00000E+00
 -1      3699 1.28175E+02 3.37508E+01 0.00000E+00
 -1      3700 1.25925E+02 3.24518E+01 0.00000E+00
 -1      3701 1.29675E+02 3.37508E+01 0.00000E+00
 -1      3702 1.31175E+02 3.37508E+01 0.00000E+00
 -1      3703 1.28925E+02 3.24518E+01 0.00000E+00
 -1      3704 1.32186E+02 3.35128E+01 0.00000E+00
 -1      3705 1.33457E+02 3.32066E+01 0.00000E+00
 -1      3706 1.33457E+02 3.17379E+01 0.00000E+00
 -1      3707 1.31436E+02 3.22138E+01 0.00000E+00
 -1      3708 1.55880E+01 2.49719E+01 0.00000E+00
 -1      3709 1.42890E+01 2.57094E+01 0.00000E+00
 -1      3710 1.42890E+01 2.71812E+01 0.00000E+00
 -1      3711 4.25349E+01 1.61176E+01 0.00000E+00
 -1      3712 4.10349E+01 1.61176E+01 0.00000E+00
 -1      3713 6.06125E+01 3.39451E+01 0.00000E+00
 -1      3714 6.21125E+01 3.38613E+01 0.00000E+00
 -1      3715 5.99499E+01 3.27566E+01 0.00000E+00
 -1      3716 5.49183E+01 1.72538E+01 0.00000E+00
 -1      3717 5.34183E+01 1.72538E+01 0.00000E+00
 -1      3718 5.18828E+01 1.66340E+01 0.00000E+00
 -1      3719 5.03828E+01 1.66340E+01 0.00000E+00
 -1      3720 6.06240E+01 1.64765E+01 0.00000E+00
 -1      3721 5.91240E+01 1.64765E+01 0.00000E+00
 -1      3722 5.83740E+01 1.77755E+01 0.00000E+00
 -1      3723 6.36240E+01 1.64765E+01 0.00000E+00
 -1      3724 6.21240E+01 1.64765E+01 0.00000E+00
 -1      3725 6.13740E+01 1.77755E+01 0.00000E+00
 -1      3726 6.66240E+01 1.64765E+01 0.00000E+00
 -1      3727 6.51240E+01 1.64765E+01 0.00000E+00
 -1      3728 6.43740E+01 1.77755E+01 0.00000E+00
 -1      3729 6.96240E+01 1.64765E+01 0.00000E+00
 -1      3730 6.81240E+01 1.64765E+01 0.00000E+00
 -1      3731 6.73740E+01 1.77755E+01 0.00000E+00
 -1      3732 7.26240E+01 1.64765E+01 0.00000E+00
 -1      3733 7.11240E+01 1.64765E+01 0.00000E+00
 -1      3734 7.03740E+01 1.77755E+01 0.00000E+00
 -1      3735 7.56240E+01 1.64765E+01 0.00000E+00
 -1      3736 7.41240E+01 1.64765E+01 0.00000E+00
 -1      3737 7.33740E+01 1.77755E+01 0.00000E+00
 -1      3738 7.86240E+01 1.64765E+01 0.00000E+00
 -1      3739 7.71240E+01 1.64765E+01 0.00000E+00
 -1      3740 7.63740E+01 1.77755E+01 0.00000E+00
 -1      3741 8.16240E+01 1.64765E+01 0.00000E+00
 -1      3742 8.01240E+01 1.64765E+01 0.00000E+00
 -1      3743 7.93740E+01 1.77755E+01 0.00000E+00
 -1      3744 8.46240E+01 1.64765E+01 0.00000E+00
 -1      3745 8.31240E+01 1.64765E+01 0.00000E+00
 -1      3746 8.23740E+01 1.77755E+01 0.00000E+00
 -1      3747 8.76240E+01 1.64765E+01 0.00000E+00
 -1      3748 8.61240E+01 1.64765E+01 0.00000E+00
 -1      3749 8.53740E+01 1.77755E+01 0.00000E+00
 -1      3750 9.06240E+01 1.64765E+01 0.00000E+00
 -1      3751 8.91240E+01 1.64765E+01 0.00000E+00
 -1      3752 8.83740E+01 1.77755E+01 0.00000E+00
 -1      3753 9.36240E+01 1.64765E+01 0.00000E+00
 -1      3754 9.21240E+01 1.64765E+01 0.00000E+00
 -1      3755 9.13740E+01 1.77755E+01 0.00000E+00
 -1      3756 9.66240E+01 1.64765E+01 0.00000E+00
 -1      3757 9.51240E+01 1.64765E+01 0.00000E+00
 -1      3758 9.43740E+01 1.77755E+01 0.00000E+00
 -1      3759 9.96240E+01 1.64765E+01 0.00000E+00
 -1      3760 9.81240E+01 1.64765E+01 0.00000E+00
 -1      3761 9.73740E+01 1.77755E+01 0.00000E+00
 -1      3762 1.02624E+02 1.64765E+01 0.00000E+00
 -1      3763 1.01124E+02 1.64765E+01 0.00000E+00
 -1      3764 1.00374E+02 1.77755E+01 0.00000E+00
 -1      3765 1.05624E+02 1.64765E+01 0.00000E+00
 -1      3766 1.04124E+02 1.64765E+01 0.00000E+00
 -1      3767 1.03374E+02 1.77755E+01 0.00000E+00
 -1      3768 1.08624E+02 1.64765E+01 0.00000E+00
 -1      3769 1.07124E+02 1.64765E+01 0.00000E+00
 -1      3770 1.06374E+02 1.77755E+01 0.00000E+00
 -1      3771 1.11624E+02 1.64765E+01 0.00000E+00
 -1      3772 1.10124E+02 1.64765E+01 0.00000E+00
 -1      3773 1.09374E+02 1.77755E+01 0.00000E+00
 -1      3774 1.14624E+02 1.64765E+01 0.00000E+00
 -1      3775 1.13124E+02 1.64765E+01 0.00000E+00
 -1      3776 1.12374E+02 1.77755E+01 0.00000E+00
 -1      3777 1.17624E+02 1.64765E+01 0.00000E+00
 -1      3778 1.16124E+02 1.64765E+01 0.00000E+00
 -1      3779 1.15374E+02 1.77755E+01 0.00000E+00
 -1      3780 1.20624E+02 1.64765E+01 0.00000E+00
 -1      3781 1.19124E+02 1.64765E+01 0.00000E+00
 -1      3782 1.18374E+02 1.77755E+01 0.00000E+00
 -1      3783 1.23624E+02 1.64765E+01 0.00000E+00
 -1      3784 1.22124E+02 1.64765E+01 0.00000E+00
 -1      3785 1.21374E+02 1.77755E+01 0.00000E+00
 -1      3786 1.26624E+02 1.64765E+01 0.00000E+00
 -1      3787 1.25124E+02 1.64765E+01 0.00000E+00
 -1      3788 1.24374E+02 1.77755E+01 0.00000E+00
 -1      3789 1.29624E+02 1.64765E+01 0.00000E+00
 -1      3790 1.28124E+02 1.64765E+01 0.00000E+00
 -1      3791 1.27374E+02 1.77755E+01 0.00000E+00
 -1      3792 1.32624E+02 1.64765E+01 0.00000E+00
 -1      3793 1.31124E+02 1.64765E+01 0.00000E+00
 -1      3794 1.30374E+02 1.77755E+01 0.00000E+00
 -1      3795 5.92714E+01 2.63366E+01 0.00000E+00
 -1      3796 5.91953E+01 2.80767E+01 0.00000E+00
 -1      3797 4.92329E+01 1.66284E+01 0.00000E+00
 -1      3798 1.42890E+01 2.86500E+01 0.00000E+00
 -1      3799 1.42890E+01 3.01187E+01 0.00000E+00
 -1      3800 1.55880E+01 2.79125E+01 0.00000E+00
 -1      3801 2.53768E+01 3.05390E+01 0.00000E+00
 -1      3802 2.56738E+01 2.92094E+01 0.00000E+00
 -1      3803 2.80565E+01 2.39187E+01 0.00000E+00
 -1      3804 2.89814E+01 2.24877E+01 0.00000E+00
 -1      3805 4.40349E+01 1.61176E+01 0.00000E+00
 -1      3806 2.61240E+01 1.38785E+01 0.00000E+00
 -1      3807 2.46240E+01 1.38785E+01 0.00000E+00
 -1      3808 2.38740E+01 1.51775E+01 0.00000E+00
 -1      3809 2.68740E+01 1.51775E+01 0.00000E+00
 -1      3810 3.85867E+01 1.78937E+01 0.00000E+00
 -1      3811 3.97695E+01 1.80420E+01 0.00000E+00
 -1      3812 1.89000E+01 3.32193E+01 0.00000E+00
 -1      3813 2.04000E+01 3.32193E+01 0.00000E+00
 -1      3814 2.11500E+01 3.20266E+01 0.00000E+00
 -1      3815 4.05111E+01 1.69210E+01 0.00000E+00
 -1      3816 3.98502E+01 1.59809E+01 0.00000E+00
 -1      3817 1.36217E+02 1.61330E+01 0.00000E+00
 -1      3818 2.62648E+01 2.73765E+01 0.00000E+00
 -1      3819 2.71141E+01 2.56439E+01 0.00000E+00
 -1      3820 6.35687E+01 3.38061E+01 0.00000E+00
 -1      3821 6.50687E+01 3.38061E+01 0.00000E+00
 -1      3822 6.58187E+01 3.25071E+01 0.00000E+00
 -1      3823 6.29062E+01 3.26175E+01 0.00000E+00
 -1      3824 3.83502E+01 1.59809E+01 0.00000E+00
 -1      3825 3.70876E+01 1.78462E+01 0.00000E+00
 -1      3826 3.78274E+01 1.67369E+01 0.00000E+00
 -1      3827 3.68511E+01 1.59334E+01 0.00000E+00
 -1      3828 3.58054E+01 1.74453E+01 0.00000E+00
 -1      3829 5.29271E+01 1.87103E+01 0.00000E+00
 -1      3830 5.98870E+01 2.89724E+01 0.00000E+00
 -1      3831 5.56683E+01 1.85528E+01 0.00000E+00
 -1      3832 3.06240E+01 1.64765E+01 0.00000E+00
 -1      3833 2.91240E+01 1.64765E+01 0.00000E+00
 -1      3834 2.94939E+01 2.12369E+01 0.00000E+00
 -1      3835 3.00064E+01 1.99861E+01 0.00000E+00
 -1      3836 2.79405E+01 2.12473E+01 0.00000E+00
 -1      3837 2.49523E+01 2.77813E+01 0.00000E+00
 -1      3838 6.03464E+01 3.16771E+01 0.00000E+00
 -1      3839 1.33951E+02 1.68862E+01 0.00000E+00
 -1      3840 1.33201E+02 1.81852E+01 0.00000E+00
 -1      3841 5.93980E+01 2.48450E+01 0.00000E+00
 -1      3842 6.06577E+01 2.57718E+01 0.00000E+00
 -1      3843 1.34917E+02 1.68705E+01 0.00000E+00
 -1      3844 2.64856E+01 2.42232E+01 0.00000E+00
 -1      3845 2.45212E+01 3.17452E+01 0.00000E+00
 -1      3846 2.35057E+01 3.08204E+01 0.00000E+00
 -1      3847 5.90238E+01 2.38115E+01 0.00000E+00
 -1      3848 2.16240E+01 1.64765E+01 0.00000E+00
 -1      3849 2.01240E+01 1.64765E+01 0.00000E+00
 -1      3850 1.68870E+01 2.42359E+01 0.00000E+00
 -1      3851 1.68870E+01 2.57078E+01 0.00000E+00
 -1      3852 1.33085E+02 2.01903E+01 0.00000E+00
 -1      3853 1.33143E+02 1.91877E+01 0.00000E+00
 -1      3854 1.31816E+02 1.87781E+01 0.00000E+00
 -1      3855 1.33085E+02 2.31278E+01 0.00000E+00
 -1      3856 1.33085E+02 2.16591E+01 0.00000E+00
 -1      3857 1.31758E+02 2.12494E+01 0.00000E+00
 -1      3858 1.76100E+01 3.23304E+01 0.00000E+00
 -1      3859 1.61775E+01 1.66919E+01 0.00000E+00
 -1      3860 1.97490E+01 1.78604E+01 0.00000E+00
 -1      3861 1.89990E+01 1.65614E+01 0.00000E+00
 -1      3862 1.78740E+01 1.66463E+01 0.00000E+00
 -1      3863 1.55790E+01 3.10077E+01 0.00000E+00
 -1      3864 1.33085E+02 2.60653E+01 0.00000E+00
 -1      3865 1.33085E+02 2.45966E+01 0.00000E+00
 -1      3866 1.31758E+02 2.41869E+01 0.00000E+00
 -1      3867 1.33113E+02 2.85778E+01 0.00000E+00
 -1      3868 1.33099E+02 2.73215E+01 0.00000E+00
 -1      3869 1.31772E+02 2.69119E+01 0.00000E+00
 -1      3870 1.68870E+01 2.12922E+01 0.00000E+00
 -1      3871 1.68870E+01 2.27641E+01 0.00000E+00
 -1      3872 1.81860E+01 2.35000E+01 0.00000E+00
 -1      3873 3.33283E+01 1.66893E+01 0.00000E+00
 -1      3874 3.25783E+01 1.79883E+01 0.00000E+00
 -1      3875 1.76190E+01 3.07039E+01 0.00000E+00
 -1      3876 5.57853E+01 2.00335E+01 0.00000E+00
 -1      3877 5.58344E+01 2.15257E+01 0.00000E+00
 -1      3878 1.73124E+01 2.89541E+01 0.00000E+00
 -1      3879 1.93434E+01 3.02768E+01 0.00000E+00
 -1      3880 5.71857E+01 2.20398E+01 0.00000E+00
 -1      3881 3.48283E+01 1.66893E+01 0.00000E+00
 -1      3882 1.69275E+01 1.79909E+01 0.00000E+00
 -1      3883 1.71060E+01 1.92508E+01 0.00000E+00
 -1      3884 3.34212E+01 1.90885E+01 0.00000E+00
 -1      3885 6.80250E+01 3.11528E+01 0.00000E+00
 -1      3886 6.95250E+01 3.11528E+01 0.00000E+00
 -1      3887 7.10250E+01 3.11528E+01 0.00000E+00
 -1      3888 7.25250E+01 3.11528E+01 0.00000E+00
 -1      3889 7.02750E+01 2.98538E+01 0.00000E+00
 -1      3890 7.40250E+01 3.11528E+01 0.00000E+00
 -1      3891 7.55250E+01 3.11528E+01 0.00000E+00
 -1      3892 7.32750E+01 2.98538E+01 0.00000E+00
 -1      3893 7.70250E+01 3.11528E+01 0.00000E+00
 -1      3894 7.85250E+01 3.11528E+01 0.00000E+00
 -1      3895 7.62750E+01 2.98538E+01 0.00000E+00
 -1      3896 8.00250E+01 3.11528E+01 0.00000E+00
 -1      3897 8.15250E+01 3.11528E+01 0.00000E+00
 -1      3898 7.92750E+01 2.98538E+01 0.00000E+00
 -1      3899 8.30250E+01 3.11528E+01 0.00000E+00
 -1      3900 8.45250E+01 3.11528E+01 0.00000E+00
 -1      3901 8.22750E+01 2.98538E+01 0.00000E+00
 -1      3902 8.60250E+01 3.11528E+01 0.00000E+00
 -1      3903 8.75250E+01 3.11528E+01 0.00000E+00
 -1      3904 8.52750E+01 2.98538E+01 0.00000E+00
 -1      3905 8.90250E+01 3.11528E+01 0.00000E+00
 -1      3906 9.05250E+01 3.11528E+01 0.00000E+00
 -1      3907 8.82750E+01 2.98538E+01 0.00000E+00
 -1      3908 9.20250E+01 3.11528E+01 0.00000E+00
 -1      3909 9.35250E+01 3.11528E+01 0.00000E+00
 -1      3910 9.12750E+01 2.98538E+01 0.00000E+00
 -1      3911 9.50250E+01 3.11528E+01 0.00000E+00
 -1      3912 9.65250E+01 3.11528E+01 0.00000E+00
 -1      3913 9.42750E+01 2.98538E+01 0.00000E+00
 -1      3914 9.81000E+01 3.11528E+01 0.00000E+00
 -1      3915 9.96750E+01 3.11528E+01 0.00000E+00
 -1      3916 9.73500E+01 2.98538E+01 0.00000E+00
 -1      3917 1.01175E+02 3.11528E+01 0.00000E+00
 -1      3918 1.02675E+02 3.11528E+01 0.00000E+00
 -1      3919 1.00425E+02 2.98538E+01 0.00000E+00
 -1      3920 1.04175E+02 3.11528E+01 0.00000E+00
 -1      3921 1.05675E+02 3.11528E+01 0.00000E+00
 -1      3922 1.03425E+02 2.98538E+01 0.00000E+00
 -1      3923 1.07175E+02 3.11528E+01 0.00000E+00
 -1      3924 1.08675E+02 3.11528E+01 0.00000E+00
 -1      3925 1.06425E+02 2.98538E+01 0.00000E+00
 -1      3926 1.10175E+02 3.11528E+01 0.00000E+00
 -1      3927 1.11675E+02 3.11528E+01 0.00000E+00
 -1      3928 1.09425E+02 2.98538E+01 0.00000E+00
 -1      3929 1.13175E+02 3.11528E+01 0.00000E+00
 -1      3930 1.14675E+02 3.11528E+01 0.00000E+00
 -1      3931 1.12425E+02 2.98538E+01 0.00000E+00
 -1      3932 1.16175E+02 3.11528E+01 0.00000E+00
 -1      3933 1.17675E+02 3.11528E+01 0.00000E+00
 -1      3934 1.15425E+02 2.98538E+01 0.00000E+00
 -1      3935 1.19175E+02 3.11528E+01 0.00000E+00
 -1      3936 1.20675E+02 3.11528E+01 0.00000E+00
 -1      3937 1.18425E+02 2.98538E+01 0.00000E+00
 -1      3938 1.22175E+02 3.11528E+01 0.00000E+00
 -1      3939 1.23675E+02 3.11528E+01 0.00000E+00
 -1      3940 1.21425E+02 2.98538E+01 0.00000E+00
 -1      3941 1.25175E+02 3.11528E+01 0.00000E+00
 -1      3942 1.26675E+02 3.11528E+01 0.00000E+00
 -1      3943 1.24425E+02 2.98538E+01 0.00000E+00
 -1      3944 1.28175E+02 3.11528E+01 0.00000E+00
 -1      3945 1.29675E+02 3.11528E+01 0.00000E+00
 -1      3946 1.27425E+02 2.98538E+01 0.00000E+00
 -1      3947 2.48744E+01 2.44630E+01 0.00000E+00
 -1      3948 2.58168E+01 2.27379E+01 0.00000E+00
 -1      3949 6.81240E+01 1.90745E+01 0.00000E+00
 -1      3950 6.66240E+01 1.90745E+01 0.00000E+00
 -1      3951 7.11240E+01 1.90745E+01 0.00000E+00
 -1      3952 6.96240E+01 1.90745E+01 0.00000E+00
 -1      3953 6.88740E+01 2.03735E+01 0.00000E+00
 -1      3954 7.41240E+01 1.90745E+01 0.00000E+00
 -1      3955 7.26240E+01 1.90745E+01 0.00000E+00
 -1      3956 7.18740E+01 2.03735E+01 0.00000E+00
 -1      3957 7.71240E+01 1.90745E+01 0.00000E+00
 -1      3958 7.56240E+01 1.90745E+01 0.00000E+00
 -1      3959 7.48740E+01 2.03735E+01 0.00000E+00
 -1      3960 8.01240E+01 1.90745E+01 0.00000E+00
 -1      3961 7.86240E+01 1.90745E+01 0.00000E+00
 -1      3962 7.78740E+01 2.03735E+01 0.00000E+00
 -1      3963 8.31240E+01 1.90745E+01 0.00000E+00
 -1      3964 8.16240E+01 1.90745E+01 0.00000E+00
 -1      3965 8.08740E+01 2.03735E+01 0.00000E+00
 -1      3966 8.61240E+01 1.90745E+01 0.00000E+00
 -1      3967 8.46240E+01 1.90745E+01 0.00000E+00
 -1      3968 8.38740E+01 2.03735E+01 0.00000E+00
 -1      3969 8.91240E+01 1.90745E+01 0.00000E+00
 -1      3970 8.76240E+01 1.90745E+01 0.00000E+00
 -1      3971 8.68740E+01 2.03735E+01 0.00000E+00
 -1      3972 9.21240E+01 1.90745E+01 0.00000E+00
 -1      3973 9.06240E+01 1.90745E+01 0.00000E+00
 -1      3974 8.98740E+01 2.03735E+01 0.00000E+00
 -1      3975 9.51240E+01 1.90745E+01 0.00000E+00
 -1      3976 9.36240E+01 1.90745E+01 0.00000E+00
 -1      3977 9.28740E+01 2.03735E+01 0.00000E+00
 -1      3978 9.81240E+01 1.90745E+01 0.00000E+00
 -1      3979 9.66240E+01 1.90745E+01 0.00000E+00
 -1      3980 9.58740E+01 2.03735E+01 0.00000E+00
 -1      3981 1.01124E+02 1.90745E+01 0.00000E+00
 -1      3982 9.96240E+01 1.90745E+01 0.00000E+00
 -1      3983 9.88740E+01 2.03735E+01 0.00000E+00
 -1      3984 1.04124E+02 1.90745E+01 0.00000E+00
 -1      3985 1.02624E+02 1.90745E+01 0.00000E+00
 -1      3986 1.01874E+02 2.03735E+01 0.00000E+00
 -1      3987 1.07124E+02 1.90745E+01 0.00000E+00
 -1      3988 1.05624E+02 1.90745E+01 0.00000E+00
 -1      3989 1.04874E+02 2.03735E+01 0.00000E+00
 -1      3990 1.10124E+02 1.90745E+01 0.00000E+00
 -1      3991 1.08624E+02 1.90745E+01 0.00000E+00
 -1      3992 1.07874E+02 2.03735E+01 0.00000E+00
 -1      3993 1.13124E+02 1.90745E+01 0.00000E+00
 -1      3994 1.11624E+02 1.90745E+01 0.00000E+00
 -1      3995 1.10874E+02 2.03735E+01 0.00000E+00
 -1      3996 1.16124E+02 1.90745E+01 0.00000E+00
 -1      3997 1.14624E+02 1.90745E+01 0.00000E+00
 -1      3998 1.13874E+02 2.03735E+01 0.00000E+00
 -1      3999 1.19124E+02 1.90745E+01 0.00000E+00
 -1      4000 1.17624E+02 1.90745E+01 0.00000E+00
 -1      4001 1.16874E+02 2.03735E+01 0.00000E+00
 -1      4002 1.22124E+02 1.90745E+01 0.00000E+00
 -1      4003 1.20624E+02 1.90745E+01 0.00000E+00
 -1      4004 1.19874E+02 2.03735E+01 0.00000E+00
 -1      4005 1.25124E+02 1.90745E+01 0.00000E+00
 -1      4006 1.23624E+02 1.90745E+01 0.00000E+00
 -1      4007 1.22874E+02 2.03735E+01 0.00000E+00
 -1      4008 1.28124E+02 1.90745E+01 0.00000E+00
 -1      4009 1.26624E+02 1.90745E+01 0.00000E+00
 -1      4010 1.25874E+02 2.03735E+01 0.00000E+00
 -1      4011 1.30316E+02 1.87781E+01 0.00000E+00
 -1      4012 5.69911E+01 1.92562E+01 0.00000E+00
 -1      4013 6.20153E+01 2.51359E+01 0.00000E+00
 -1      4014 6.18888E+01 2.66274E+01 0.00000E+00
 -1      4015 2.31240E+01 1.64765E+01 0.00000E+00
 -1      4016 2.23740E+01 1.77755E+01 0.00000E+00
 -1      4017 2.46240E+01 1.64765E+01 0.00000E+00
 -1      4018 1.73124E+01 2.74853E+01 0.00000E+00
 -1      4019 5.89462E+01 2.25086E+01 0.00000E+00
 -1      4020 6.07067E+01 2.29773E+01 0.00000E+00
 -1      4021 5.88687E+01 2.12056E+01 0.00000E+00
 -1      4022 1.86114E+01 2.67494E+01 0.00000E+00
 -1      4023 2.39606E+01 3.24823E+01 0.00000E+00
 -1      4024 2.34205E+01 2.82991E+01 0.00000E+00
 -1      4025 2.40115E+01 2.64662E+01 0.00000E+00
 -1      4026 6.17516E+01 1.97249E+01 0.00000E+00
 -1      4027 6.02516E+01 1.97249E+01 0.00000E+00
 -1      4028 1.33292E+02 3.07859E+01 0.00000E+00
 -1      4029 1.33278E+02 2.95297E+01 0.00000E+00
 -1      4030 1.31951E+02 2.91200E+01 0.00000E+00
 -1      4031 1.32281E+02 3.10239E+01 0.00000E+00
 -1      4032 6.49378E+01 1.93997E+01 0.00000E+00
 -1      4033 6.34378E+01 1.93997E+01 0.00000E+00
 -1      4034 6.23154E+01 2.13491E+01 0.00000E+00
 -1      4035 6.56878E+01 2.06987E+01 0.00000E+00
 -1      4036 5.84911E+01 1.92562E+01 0.00000E+00
 -1      4037 6.08448E+01 3.02971E+01 0.00000E+00
 -1      4038 6.19484E+01 3.12928E+01 0.00000E+00
 -1      4039 6.34046E+01 3.12376E+01 0.00000E+00
 -1      4040 6.14890E+01 2.85881E+01 0.00000E+00
 -1      4041 1.29566E+02 2.00771E+01 0.00000E+00
 -1      4042 6.28466E+01 2.79522E+01 0.00000E+00
 -1      4043 2.63293E+01 2.14871E+01 0.00000E+00
 -1      4044 2.68418E+01 2.02363E+01 0.00000E+00
 -1      4045 2.47181E+01 2.17270E+01 0.00000E+00
 -1      4046 1.96620E+01 2.55583E+01 0.00000E+00
 -1      4047 2.00874E+01 2.73358E+01 0.00000E+00
 -1      4048 2.91635E+01 1.88860E+01 0.00000E+00
 -1      4049 3.07169E+01 1.88756E+01 0.00000E+00
 -1      4050 6.65687E+01 3.12081E+01 0.00000E+00
 -1      4051 6.73187E+01 2.99091E+01 0.00000E+00
 -1      4052 6.51125E+01 3.12633E+01 0.00000E+00
 -1      4053 2.33426E+01 2.49809E+01 0.00000E+00
 -1      4054 1.31271E+02 3.12619E+01 0.00000E+00
 -1      4055 2.83740E+01 1.77755E+01 0.00000E+00
 -1      4056 2.76240E+01 1.64765E+01 0.00000E+00
 -1      4057 2.76635E+01 1.88860E+01 0.00000E+00
 -1      4058 6.21412E+01 2.36414E+01 0.00000E+00
 -1      4059 6.33722E+01 2.44970E+01 0.00000E+00
 -1      4060 2.31240E+01 1.90745E+01 0.00000E+00
 -1      4061 2.16240E+01 1.90745E+01 0.00000E+00
 -1      4062 1.29566E+02 2.15458E+01 0.00000E+00
 -1      4063 1.30521E+02 2.99629E+01 0.00000E+00
 -1      4064 2.61240E+01 1.64765E+01 0.00000E+00
 -1      4065 3.53511E+01 1.59334E+01 0.00000E+00
 -1      4066 2.20183E+01 3.06719E+01 0.00000E+00
 -1      4067 2.28740E+01 2.94657E+01 0.00000E+00
 -1      4068 2.05183E+01 3.06719E+01 0.00000E+00
 -1      4069 2.04990E+01 1.91594E+01 0.00000E+00
 -1      4070 1.93740E+01 1.92443E+01 0.00000E+00
 -1      4071 2.12490E+01 2.04584E+01 0.00000E+00
 -1      4072 6.20636E+01 2.23384E+01 0.00000E+00
 -1      4073 1.29566E+02 2.44833E+01 0.00000E+00
 -1      4074 1.29566E+02 2.30146E+01 0.00000E+00
 -1      4075 1.27374E+02 2.18423E+01 0.00000E+00
 -1      4076 2.19332E+01 2.81506E+01 0.00000E+00
 -1      4077 2.02117E+01 2.89221E+01 0.00000E+00
 -1      4078 1.30050E+02 2.62150E+01 0.00000E+00
 -1      4079 1.27858E+02 2.50427E+01 0.00000E+00
 -1      4080 1.30064E+02 2.74712E+01 0.00000E+00
 -1      4081 2.07582E+01 2.77555E+01 0.00000E+00
 -1      4082 1.26848E+02 2.62579E+01 0.00000E+00
 -1      4083 1.26365E+02 2.45262E+01 0.00000E+00
 -1      4084 1.94036E+01 2.40579E+01 0.00000E+00
 -1      4085 2.08797E+01 2.46443E+01 0.00000E+00
 -1      4086 1.30356E+02 2.90110E+01 0.00000E+00
 -1      4087 6.95250E+01 2.85548E+01 0.00000E+00
 -1      4088 7.10250E+01 2.85548E+01 0.00000E+00
 -1      4089 7.25250E+01 2.85548E+01 0.00000E+00
 -1      4090 7.40250E+01 2.85548E+01 0.00000E+00
 -1      4091 7.17750E+01 2.72558E+01 0.00000E+00
 -1      4092 7.55250E+01 2.85548E+01 0.00000E+00
 -1      4093 7.70250E+01 2.85548E+01 0.00000E+00
 -1      4094 7.47750E+01 2.72558E+01 0.00000E+00
 -1      4095 7.85250E+01 2.85548E+01 0.00000E+00
 -1      4096 8.00250E+01 2.85548E+01 0.00000E+00
 -1      4097 7.77750E+01 2.72558E+01 0.00000E+00
 -1      4098 8.15250E+01 2.85548E+01 0.00000E+00
 -1      4099 8.30250E+01 2.85548E+01 0.00000E+00
 -1      4100 8.07750E+01 2.72558E+01 0.00000E+00
 -1      4101 8.45250E+01 2.85548E+01 0.00000E+00
 -1      4102 8.60250E+01 2.85548E+01 0.00000E+00
 -1      4103 8.37750E+01 2.72558E+01 0.00000E+00
 -1      4104 8.75250E+01 2.85548E+01 0.00000E+00
 -1      4105 8.90250E+01 2.85548E+01 0.00000E+00
 -1      4106 8.67750E+01 2.72558E+01 0.00000E+00
 -1      4107 9.05250E+01 2.85548E+01 0.00000E+00
 -1      4108 9.20250E+01 2.85548E+01 0.00000E+00
 -1      4109 8.97750E+01 2.72558E+01 0.00000E+00
 -1      4110 9.35250E+01 2.85548E+01 0.00000E+00
 -1      4111 9.50250E+01 2.85548E+01 0.00000E+00
 -1      4112 9.27750E+01 2.72558E+01 0.00000E+00
 -1      4113 9.66000E+01 2.85548E+01 0.00000E+00
 -1      4114 9.81750E+01 2.85548E+01 0.00000E+00
 -1      4115 9.58500E+01 2.72558E+01 0.00000E+00
 -1      4116 9.96750E+01 2.85548E+01 0.00000E+00
 -1      4117 1.01175E+02 2.85548E+01 0.00000E+00
 -1      4118 9.89250E+01 2.72558E+01 0.00000E+00
 -1      4119 1.02675E+02 2.85548E+01 0.00000E+00
 -1      4120 1.04175E+02 2.85548E+01 0.00000E+00
 -1      4121 1.01925E+02 2.72558E+01 0.00000E+00
 -1      4122 1.05675E+02 2.85548E+01 0.00000E+00
 -1      4123 1.07175E+02 2.85548E+01 0.00000E+00
 -1      4124 1.04925E+02 2.72558E+01 0.00000E+00
 -1      4125 1.08675E+02 2.85548E+01 0.00000E+00
 -1      4126 1.10175E+02 2.85548E+01 0.00000E+00
 -1      4127 1.07925E+02 2.72558E+01 0.00000E+00
 -1      4128 1.11675E+02 2.85548E+01 0.00000E+00
 -1      4129 1.13175E+02 2.85548E+01 0.00000E+00
 -1      4130 1.10925E+02 2.72558E+01 0.00000E+00
 -1      4131 1.14675E+02 2.85548E+01 0.00000E+00
 -1      4132 1.16175E+02 2.85548E+01 0.00000E+00
 -1      4133 1.13925E+02 2.72558E+01 0.00000E+00
 -1      4134 1.17675E+02 2.85548E+01 0.00000E+00
 -1      4135 1.19175E+02 2.85548E+01 0.00000E+00
 -1      4136 1.16925E+02 2.72558E+01 0.00000E+00
 -1      4137 1.20675E+02 2.85548E+01 0.00000E+00
 -1      4138 1.22175E+02 2.85548E+01 0.00000E+00
 -1      4139 1.19925E+02 2.72558E+01 0.00000E+00
 -1      4140 1.24140E+02 2.77976E+01 0.00000E+00
 -1      4141 1.25640E+02 2.77976E+01 0.00000E+00
 -1      4142 2.45523E+01 1.91258E+01 0.00000E+00
 -1      4143 2.38023E+01 2.04248E+01 0.00000E+00
 -1      4144 2.60524E+01 1.91258E+01 0.00000E+00
 -1      4145 6.41546E+01 2.99386E+01 0.00000E+00
 -1      4146 6.96240E+01 2.16725E+01 0.00000E+00
 -1      4147 6.81240E+01 2.16725E+01 0.00000E+00
 -1      4148 7.86240E+01 2.16725E+01 0.00000E+00
 -1      4149 7.71240E+01 2.16725E+01 0.00000E+00
 -1      4150 8.16240E+01 2.16725E+01 0.00000E+00
 -1      4151 8.01240E+01 2.16725E+01 0.00000E+00
 -1      4152 7.93740E+01 2.29715E+01 0.00000E+00
 -1      4153 8.46240E+01 2.16725E+01 0.00000E+00
 -1      4154 8.31240E+01 2.16725E+01 0.00000E+00
 -1      4155 8.23740E+01 2.29715E+01 0.00000E+00
 -1      4156 8.76240E+01 2.16725E+01 0.00000E+00
 -1      4157 8.61240E+01 2.16725E+01 0.00000E+00
 -1      4158 8.53740E+01 2.29715E+01 0.00000E+00
 -1      4159 9.06240E+01 2.16725E+01 0.00000E+00
 -1      4160 8.91240E+01 2.16725E+01 0.00000E+00
 -1      4161 8.83740E+01 2.29715E+01 0.00000E+00
 -1      4162 9.36240E+01 2.16725E+01 0.00000E+00
 -1      4163 9.21240E+01 2.16725E+01 0.00000E+00
 -1      4164 9.13740E+01 2.29715E+01 0.00000E+00
 -1      4165 9.66240E+01 2.16725E+01 0.00000E+00
 -1      4166 9.51240E+01 2.16725E+01 0.00000E+00
 -1      4167 9.43740E+01 2.29715E+01 0.00000E+00
 -1      4168 9.96240E+01 2.16725E+01 0.00000E+00
 -1      4169 9.81240E+01 2.16725E+01 0.00000E+00
 -1      4170 9.73740E+01 2.29715E+01 0.00000E+00
 -1      4171 1.02624E+02 2.16725E+01 0.00000E+00
 -1      4172 1.01124E+02 2.16725E+01 0.00000E+00
 -1      4173 1.00374E+02 2.29715E+01 0.00000E+00
 -1      4174 1.05624E+02 2.16725E+01 0.00000E+00
 -1      4175 1.04124E+02 2.16725E+01 0.00000E+00
 -1      4176 1.03374E+02 2.29715E+01 0.00000E+00
 -1      4177 1.08624E+02 2.16725E+01 0.00000E+00
 -1      4178 1.07124E+02 2.16725E+01 0.00000E+00
 -1      4179 1.06374E+02 2.29715E+01 0.00000E+00
 -1      4180 1.11624E+02 2.16725E+01 0.00000E+00
 -1      4181 1.10124E+02 2.16725E+01 0.00000E+00
 -1      4182 1.09374E+02 2.29715E+01 0.00000E+00
 -1      4183 1.14624E+02 2.16725E+01 0.00000E+00
 -1      4184 1.13124E+02 2.16725E+01 0.00000E+00
 -1      4185 1.12374E+02 2.29715E+01 0.00000E+00
 -1      4186 1.17624E+02 2.16725E+01 0.00000E+00
 -1      4187 1.16124E+02 2.16725E+01 0.00000E+00
 -1      4188 1.15374E+02 2.29715E+01 0.00000E+00
 -1      4189 1.20624E+02 2.16725E+01 0.00000E+00
 -1      4190 1.19124E+02 2.16725E+01 0.00000E+00
 -1      4191 1.18374E+02 2.29715E+01 0.00000E+00
 -1      4192 1.23624E+02 2.16725E+01 0.00000E+00
 -1      4193 1.22124E+02 2.16725E+01 0.00000E+00
 -1      4194 1.21374E+02 2.29715E+01 0.00000E+00
 -1      4195 1.26249E+02 2.17574E+01 0.00000E+00
 -1      4196 1.24749E+02 2.17574E+01 0.00000E+00
 -1      4197 1.23999E+02 2.30564E+01 0.00000E+00
 -1      4198 1.26249E+02 2.32261E+01 0.00000E+00
 -1      4199 6.45544E+01 2.79779E+01 0.00000E+00
 -1      4200 2.53740E+01 1.77755E+01 0.00000E+00
 -1      4201 6.37498E+01 2.20132E+01 0.00000E+00
 -1      4202 6.47296E+01 2.38588E+01 0.00000E+00
 -1      4203 6.46037E+01 2.53533E+01 0.00000E+00
 -1      4204 7.56240E+01 2.16725E+01 0.00000E+00
 -1      4205 7.41240E+01 2.16725E+01 0.00000E+00
 -1      4206 7.63740E+01 2.29715E+01 0.00000E+00
 -1      4207 7.26240E+01 2.16725E+01 0.00000E+00
 -1      4208 7.11240E+01 2.16725E+01 0.00000E+00
 -1      4209 7.33740E+01 2.29715E+01 0.00000E+00
 -1      4210 1.94036E+01 2.25860E+01 0.00000E+00
 -1      4211 1.28633E+02 2.83141E+01 0.00000E+00
 -1      4212 1.91550E+01 2.12857E+01 0.00000E+00
 -1      4213 2.03726E+01 2.18436E+01 0.00000E+00
 -1      4214 1.27133E+02 2.83141E+01 0.00000E+00
 -1      4215 1.84050E+01 1.99867E+01 0.00000E+00
 -1      4216 2.32898E+01 2.16756E+01 0.00000E+00
 -1      4217 2.24134E+01 2.30608E+01 0.00000E+00
 -1      4218 2.26718E+01 2.45612E+01 0.00000E+00
 -1      4219 2.14976E+01 2.17587E+01 0.00000E+00
 -1      4220 6.80687E+01 2.86101E+01 0.00000E+00
 -1      4221 6.88187E+01 2.73111E+01 0.00000E+00
 -1      4222 6.66125E+01 2.86653E+01 0.00000E+00
 -1      4223 1.23390E+02 2.64986E+01 0.00000E+00
 -1      4224 7.03740E+01 2.29715E+01 0.00000E+00
 -1      4225 1.25240E+02 2.44413E+01 0.00000E+00
 -1      4226 6.74175E+01 2.38433E+01 0.00000E+00
 -1      4227 6.66675E+01 2.25443E+01 0.00000E+00
 -1      4228 6.66618E+01 2.60407E+01 0.00000E+00
 -1      4229 6.53044E+01 2.66789E+01 0.00000E+00
 -1      4230 2.18088E+01 2.65644E+01 0.00000E+00
 -1      4231 7.40745E+01 2.51137E+01 0.00000E+00
 -1      4232 7.55745E+01 2.51137E+01 0.00000E+00
 -1      4233 7.70745E+01 2.51137E+01 0.00000E+00
 -1      4234 7.85745E+01 2.51137E+01 0.00000E+00
 -1      4235 8.00745E+01 2.51137E+01 0.00000E+00
 -1      4236 8.15745E+01 2.51137E+01 0.00000E+00
 -1      4237 8.30745E+01 2.51137E+01 0.00000E+00
 -1      4238 8.45745E+01 2.51137E+01 0.00000E+00
 -1      4239 8.60745E+01 2.51137E+01 0.00000E+00
 -1      4240 8.75745E+01 2.51137E+01 0.00000E+00
 -1      4241 8.90745E+01 2.51137E+01 0.00000E+00
 -1      4242 9.05745E+01 2.51137E+01 0.00000E+00
 -1      4243 9.20745E+01 2.51137E+01 0.00000E+00
 -1      4244 9.35745E+01 2.51137E+01 0.00000E+00
 -1      4245 9.50745E+01 2.51137E+01 0.00000E+00
 -1      4246 9.66495E+01 2.51137E+01 0.00000E+00
 -1      4247 9.81495E+01 2.51137E+01 0.00000E+00
 -1      4248 9.96495E+01 2.51137E+01 0.00000E+00
 -1      4249 1.01149E+02 2.51137E+01 0.00000E+00
 -1      4250 1.02649E+02 2.51137E+01 0.00000E+00
 -1      4251 1.04149E+02 2.51137E+01 0.00000E+00
 -1      4252 1.05649E+02 2.51137E+01 0.00000E+00
 -1      4253 1.07149E+02 2.51137E+01 0.00000E+00
 -1      4254 1.08649E+02 2.51137E+01 0.00000E+00
 -1      4255 1.10149E+02 2.51137E+01 0.00000E+00
 -1      4256 1.11649E+02 2.51137E+01 0.00000E+00
 -1      4257 1.13149E+02 2.51137E+01 0.00000E+00
 -1      4258 1.14649E+02 2.51137E+01 0.00000E+00
 -1      4259 1.16149E+02 2.51137E+01 0.00000E+00
 -1      4260 1.17649E+02 2.51137E+01 0.00000E+00
 -1      4261 1.19149E+02 2.51137E+01 0.00000E+00
 -1      4262 1.20649E+02 2.51137E+01 0.00000E+00
 -1      4263 7.10745E+01 2.51137E+01 0.00000E+00
 -1      4264 6.95745E+01 2.51137E+01 0.00000E+00
 -1      4265 7.25745E+01 2.51137E+01 0.00000E+00
 -1      4266 6.81182E+01 2.51689E+01 0.00000E+00
 -1      4267 1.24115E+02 2.43565E+01 0.00000E+00
 -1      4268 1.22149E+02 2.51137E+01 0.00000E+00
 -1      4269 6.54361E+01 2.16880E+01 0.00000E+00
 -3
    3C                          2053                                     1
 -1       164    8    0    1
 -2         6         7        23      1109      1272      1126
 -1       165    8    0    1
 -2         7         8       164      1110      1273      1274
 -1       166    8    0    1
 -2         8         9       165      1111      1275      1276
 -1       167    8    0    1
 -2         8       165       164      1276      1277      1273
 -1       168    8    0    1
 -2         9        10       166      1112      1278      1279
 -1       169    8    0    1
 -2         9       166       165      1279      1280      1275
 -1       170    8    0    1
 -2        10        11       167      1113      1281      1282
 -1       171    8    0    1
 -2        10       167       166      1282      1283      1278
 -1       172    8    0    1
 -2        11        12       168      1114      1284      1285
 -1       173    8    0    1
 -2        11       168       167      1285      1286      1281
 -1       174    8    0    1
 -2        12        13       169      1115      1287      1288
 -1       175    8    0    1
 -2        12       169       168      1288      1289      1284
 -1       176    8    0    1
 -2        13        14       170      1116      1290      1291
 -1       177    8    0    1
 -2        13       170       169      1291      1292      1287
 -1       178    8    0    1
 -2        14        15       171      1117      1293      1294
 -1       179    8    0    1
 -2        14       171       170      1294      1295      1290
 -1       180    8    0    1
 -2        15        16       172      1118      1296      1297
 -1       181    8    0    1
 -2        15       172       171      1297      1298      1293
 -1       182    8    0    1
 -2        16        17       173      1119      1299      1300
 -1       183    8    0    1
 -2        16       173       172      1300      1301      1296
 -1       184    8    0    1
 -2        17        18       174      1120      1302      1303
 -1       185    8    0    1
 -2        17       174       173      1303      1304      1299
 -1       186    8    0    1
 -2        18        19       175      1121      1305      1306
 -1       187    8    0    1
 -2        18       175       174      1306      1307      1302
 -1       188    8    0    1
 -2        19        20       176      1122      1308      1309
 -1       189    8    0    1
 -2        19       176       175      1309      1310      1305
 -1       190    8    0    1
 -2        20        21       177      1123      1311      1312
 -1       191    8    0    1
 -2        20       177       176      1312      1313      1308
 -1       192    8    0    1
 -2        21        22       178      1124      1314      1315
 -1       193    8    0    1
 -2        21       178       177      1315      1316      1311
 -1       194    8    0    1
 -2        22         5       179      1125      1317      1318
 -1       195    8    0    1
 -2       178        22       179      1314      1318      1319
 -1       196    8    0    1
 -2         5        72       179      1176      1320      1317
 -1       197    8    0    1
 -2        24        23       180      1127      1321      1322
 -1       198    8    0    1
 -2        25        24       181      1128      1323      1324
 -1       199    8    0    1
 -2        24       180       181      1322      1325      1323
 -1       200    8    0    1
 -2        26        25       182      1129      1326      1327
 -1       201    8    0    1
 -2        25       181       182      1324      1328      1326
 -1       202    8    0    1
 -2        27        26       183      1130      1329      1330
 -1       203    8    0    1
 -2        26       182       183      1327      1331      1329
 -1       204    8    0    1
 -2        28        27       184      1131      1332      1333
 -1       205    8    0    1
 -2        27       183       184      1330      1334      1332
 -1       206    8    0    1
 -2        29        28       185      1132      1335      1336
 -1       207    8    0    1
 -2        28       184       185      1333      1337      1335
 -1       208    8    0    1
 -2        30        29       186      1133      1338      1339
 -1       209    8    0    1
 -2        29       185       186      1336      1340      1338
 -1       210    8    0    1
 -2        31        30       187      1134      1341      1342
 -1       211    8    0    1
 -2        30       186       187      1339      1343      1341
 -1       212    8    0    1
 -2        32        31       188      1135      1344      1345
 -1       213    8    0    1
 -2        31       187       188      1342      1346      1344
 -1       214    8    0    1
 -2        33        32       189      1136      1347      1348
 -1       215    8    0    1
 -2        32       188       189      1345      1349      1347
 -1       216    8    0    1
 -2        34        33       190      1137      1350      1351
 -1       217    8    0    1
 -2        33       189       190      1348      1352      1350
 -1       218    8    0    1
 -2        35        34       191      1138      1353      1354
 -1       219    8    0    1
 -2        34       190       191      1351      1355      1353
 -1       220    8    0    1
 -2        36        35       192      1139      1356      1357
 -1       221    8    0    1
 -2        35       191       192      1354      1358      1356
 -1       222    8    0    1
 -2        37        36       193      1140      1359      1360
 -1       223    8    0    1
 -2        36       192       193      1357      1361      1359
 -1       224    8    0    1
 -2        38        37       194      1141      1362      1363
 -1       225    8    0    1
 -2        37       193       194      1360      1364      1362
 -1       226    8    0    1
 -2        39        38       195      1142      1365      1366
 -1       227    8    0    1
 -2        38       194       195      1363      1367      1365
 -1       228    8    0    1
 -2        40        39       196      1143      1368      1369
 -1       229    8    0    1
 -2        39       195       196      1366      1370      1368
 -1       230    8    0    1
 -2        41        40       197      1144      1371      1372
 -1       231    8    0    1
 -2        40       196       197      1369      1373      1371
 -1       232    8    0    1
 -2        42        41       198      1145      1374      1375
 -1       233    8    0    1
 -2        41       197       198      1372      1376      1374
 -1       234    8    0    1
 -2        43        42       199      1146      1377      1378
 -1       235    8    0    1
 -2        42       198       199      1375      1379      1377
 -1       236    8    0    1
 -2        44        43       200      1147      1380      1381
 -1       237    8    0    1
 -2        43       199       200      1378      1382      1380
 -1       238    8    0    1
 -2        45        44       201      1148      1383      1384
 -1       239    8    0    1
 -2        44       200       201      1381      1385      1383
 -1       240    8    0    1
 -2        46        45       202      1149      1386      1387
 -1       241    8    0    1
 -2        45       201       202      1384      1388      1386
 -1       242    8    0    1
 -2        47        46       203      1150      1389      1390
 -1       243    8    0    1
 -2        46       202       203      1387      1391      1389
 -1       244    8    0    1
 -2        48        47       204      1151      1392      1393
 -1       245    8    0    1
 -2        47       203       204      1390      1394      1392
 -1       246    8    0    1
 -2        49        48       205      1152      1395      1396
 -1       247    8    0    1
 -2        48       204       205      1393      1397      1395
 -1       248    8    0    1
 -2        50        49       206      1153      1398      1399
 -1       249    8    0    1
 -2        49       205       206      1396      1400      1398
 -1       250    8    0    1
 -2        51        50       207      1154      1401      1402
 -1       251    8    0    1
 -2        50       206       207      1399      1403      1401
 -1       252    8    0    1
 -2        52        51       208      1155      1404      1405
 -1       253    8    0    1
 -2        51       207       208      1402      1406      1404
 -1       254    8    0    1
 -2        53        52       209      1156      1407      1408
 -1       255    8    0    1
 -2        52       208       209      1405      1409      1407
 -1       256    8    0    1
 -2        54        53       210      1157      1410      1411
 -1       257    8    0    1
 -2        53       209       210      1408      1412      1410
 -1       258    8    0    1
 -2        55        54       211      1158      1413      1414
 -1       259    8    0    1
 -2        54       210       211      1411      1415      1413
 -1       260    8    0    1
 -2        56        55       212      1159      1416      1417
 -1       261    8    0    1
 -2        55       211       212      1414      1418      1416
 -1       262    8    0    1
 -2        57        56       213      1160      1419      1420
 -1       263    8    0    1
 -2        56       212       213      1417      1421      1419
 -1       264    8    0    1
 -2        58        57       214      1161      1422      1423
 -1       265    8    0    1
 -2        57       213       214      1420      1424      1422
 -1       266    8    0    1
 -2        59        58       215      1162      1425      1426
 -1       267    8    0    1
 -2        58       214       215      1423      1427      1425
 -1       268    8    0    1
 -2        60        59       216      1163      1428      1429
 -1       269    8    0    1
 -2        59       215       216      1426      1430      1428
 -1       270    8    0    1
 -2        61        60       217      1164      1431      1432
 -1       271    8    0    1
 -2        60       216       217      1429      1433      1431
 -1       272    8    0    1
 -2        62        61       218      1165      1434      1435
 -1       273    8    0    1
 -2        61       217       218      1432      1436      1434
 -1       274    8    0    1
 -2        63        62       219      1166      1437      1438
 -1       275    8    0    1
 -2        62       218       219      1435      1439      1437
 -1       276    8    0    1
 -2        64        63       220      1167      1440      1441
 -1       277    8    0    1
 -2        63       219       220      1438      1442      1440
 -1       278    8    0    1
 -2        65        64       221      1168      1443      1444
 -1       279    8    0    1
 -2        64       220       221      1441      1445      1443
 -1       280    8    0    1
 -2        66        65       222      1169      1446      1447
 -1       281    8    0    1
 -2        65       221       222      1444      1448      1446
 -1       282    8    0    1
 -2        67        66       223      1170      1449      1450
 -1       283    8    0    1
 -2        66       222       223      1447      1451      1449
 -1       284    8    0    1
 -2        68        67       224      1171      1452      1453
 -1       285    8    0    1
 -2        67       223       224      1450      1454      1452
 -1       286    8    0    1
 -2        69        68       225      1172      1455      1456
 -1       287    8    0    1
 -2        68       224       225      1453      1457      1455
 -1       288    8    0    1
 -2        70        69       226      1173      1458      1459
 -1       289    8    0    1
 -2        69       225       226      1456      1460      1458
 -1       290    8    0    1
 -2        71        70       227      1174      1461      1462
 -1       291    8    0    1
 -2        70       226       227      1459      1463      1461
 -1       292    8    0    1
 -2         4        71       228      1175      1464      1465
 -1       293    8    0    1
 -2       136         4       228      1242      1465      1466
 -1       294    8    0    1
 -2        71       227       228      1462      1467      1464
 -1       295    8    0    1
 -2        72        73       229      1177      1468      1469
 -1       296    8    0    1
 -2        72       229       179      1469      1470      1320
 -1       297    8    0    1
 -2        73        74       230      1178      1471      1472
 -1       298    8    0    1
 -2        73       230       229      1472      1473      1468
 -1       299    8    0    1
 -2        74        75       231      1179      1474      1475
 -1       300    8    0    1
 -2        74       231       230      1475      1476      1471
 -1       301    8    0    1
 -2        75        76       232      1180      1477      1478
 -1       302    8    0    1
 -2        75       232       231      1478      1479      1474
 -1       303    8    0    1
 -2        76        77       233      1181      1480      1481
 -1       304    8    0    1
 -2        76       233       232      1481      1482      1477
 -1       305    8    0    1
 -2        77        78       234      1182      1483      1484
 -1       306    8    0    1
 -2        77       234       233      1484      1485      1480
 -1       307    8    0    1
 -2        78        79       235      1183      1486      1487
 -1       308    8    0    1
 -2        78       235       234      1487      1488      1483
 -1       309    8    0    1
 -2        79        80       236      1184      1489      1490
 -1       310    8    0    1
 -2        79       236       235      1490      1491      1486
 -1       311    8    0    1
 -2        80        81       237      1185      1492      1493
 -1       312    8    0    1
 -2        80       237       236      1493      1494      1489
 -1       313    8    0    1
 -2        81        82       238      1186      1495      1496
 -1       314    8    0    1
 -2        81       238       237      1496      1497      1492
 -1       315    8    0    1
 -2        82        83       239      1187      1498      1499
 -1       316    8    0    1
 -2        82       239       238      1499      1500      1495
 -1       317    8    0    1
 -2        83        84       240      1188      1501      1502
 -1       318    8    0    1
 -2        83       240       239      1502      1503      1498
 -1       319    8    0    1
 -2        84        85       241      1189      1504      1505
 -1       320    8    0    1
 -2        84       241       240      1505      1506      1501
 -1       321    8    0    1
 -2        85        86       242      1190      1507      1508
 -1       322    8    0    1
 -2        85       242       241      1508      1509      1504
 -1       323    8    0    1
 -2        86        87       243      1191      1510      1511
 -1       324    8    0    1
 -2        86       243       242      1511      1512      1507
 -1       325    8    0    1
 -2        87        88       244      1192      1513      1514
 -1       326    8    0    1
 -2        87       244       243      1514      1515      1510
 -1       327    8    0    1
 -2        88        89       245      1193      1516      1517
 -1       328    8    0    1
 -2        88       245       244      1517      1518      1513
 -1       329    8    0    1
 -2        89        90       246      1194      1519      1520
 -1       330    8    0    1
 -2        89       246       245      1520      1521      1516
 -1       331    8    0    1
 -2        90        91       247      1195      1522      1523
 -1       332    8    0    1
 -2        90       247       246      1523      1524      1519
 -1       333    8    0    1
 -2        91        92       248      1196      1525      1526
 -1       334    8    0    1
 -2        91       248       247      1526      1527      1522
 -1       335    8    0    1
 -2        92        93       249      1197      1528      1529
 -1       336    8    0    1
 -2        92       249       248      1529      1530      1525
 -1       337    8    0    1
 -2        93        94       250      1198      1531      1532
 -1       338    8    0    1
 -2        93       250       249      1532      1533      1528
 -1       339    8    0    1
 -2        94        95       251      1199      1534      1535
 -1       340    8    0    1
 -2        94       251       250      1535      1536      1531
 -1       341    8    0    1
 -2        95        96       252      1200      1537      1538
 -1       342    8    0    1
 -2        95       252       251      1538      1539      1534
 -1       343    8    0    1
 -2        96        97       253      1201      1540      1541
 -1       344    8    0    1
 -2        96       253       252      1541      1542      1537
 -1       345    8    0    1
 -2        97        98       254      1202      1543      1544
 -1       346    8    0    1
 -2        97       254       253      1544      1545      1540
 -1       347    8    0    1
 -2        98        99       255      1203      1546      1547
 -1       348    8    0    1
 -2        98       255       254      1547      1548      1543
 -1       349    8    0    1
 -2        99       100       256      1204      1549      1550
 -1       350    8    0    1
 -2        99       256       255      1550      1551      1546
 -1       351    8    0    1
 -2       100       101       257      1205      1552      1553
 -1       352    8    0    1
 -2       100       257       256      1553      1554      1549
 -1       353    8    0    1
 -2       101       102       258      1206      1555      1556
 -1       354    8    0    1
 -2       101       258       257      1556      1557      1552
 -1       355    8    0    1
 -2       102       103       259      1207      1558      1559
 -1       356    8    0    1
 -2       102       259       258      1559      1560      1555
 -1       357    8    0    1
 -2       103       104       260      1208      1561      1562
 -1       358    8    0    1
 -2       103       260       259      1562      1563      1558
 -1       359    8    0    1
 -2       104       105       261      1209      1564      1565
 -1       360    8    0    1
 -2       104       261       260      1565      1566      1561
 -1       361    8    0    1
 -2       105       106       262      1210      1567      1568
 -1       362    8    0    1
 -2       105       262       261      1568      1569      1564
 -1       363    8    0    1
 -2       106       107       263      1211      1570      1571
 -1       364    8    0    1
 -2       106       263       262      1571      1572      1567
 -1       365    8    0    1
 -2       107       108       264      1212      1573      1574
 -1       366    8    0    1
 -2       107       264       263      1574      1575      1570
 -1       367    8    0    1
 -2       108       109       265      1213      1576      1577
 -1       368    8    0    1
 -2       108       265       264      1577      1578      1573
 -1       369    8    0    1
 -2       109       110       266      1214      1579      1580
 -1       370    8    0    1
 -2       109       266       265      1580      1581      1576
 -1       371    8    0    1
 -2       110       111       267      1215      1582      1583
 -1       372    8    0    1
 -2       110       267       266      1583      1584      1579
 -1       373    8    0    1
 -2       111       112       268      1216      1585      1586
 -1       374    8    0    1
 -2       111       268       267      1586      1587      1582
 -1       375    8    0    1
 -2       112       113       269      1217      1588      1589
 -1       376    8    0    1
 -2       112       269       268      1589      1590      1585
 -1       377    8    0    1
 -2       113       114       270      1218      1591      1592
 -1       378    8    0    1
 -2       113       270       269      1592      1593      1588
 -1       379    8    0    1
 -2       114       115       271      1219      1594      1595
 -1       380    8    0    1
 -2       114       271       270      1595      1596      1591
 -1       381    8    0    1
 -2       115       116       272      1220      1597      1598
 -1       382    8    0    1
 -2       115       272       271      1598      1599      1594
 -1       383    8    0    1
 -2       116       117       273      1221      1600      1601
 -1       384    8    0    1
 -2       116       273       272      1601      1602      1597
 -1       385    8    0    1
 -2       117       118       274      1222      1603      1604
 -1       386    8    0    1
 -2       117       274       273      1604      1605      1600
 -1       387    8    0    1
 -2       118       119       275      1223      1606      1607
 -1       388    8    0    1
 -2       118       275       274      1607      1608      1603
 -1       389    8    0    1
 -2       119       120       276      1224      1609      1610
 -1       390    8    0    1
 -2       119       276       275      1610      1611      1606
 -1       391    8    0    1
 -2       120         3       121      1225      1226      1612
 -1       392    8    0    1
 -2       121       122       277      1227      1613      1614
 -1       393    8    0    1
 -2       122       123       278      1228      1615      1616
 -1       394    8    0    1
 -2       122       278       277      1616      1617      1613
 -1       395    8    0    1
 -2       123       124       279      1229      1618      1619
 -1       396    8    0    1
 -2       123       279       278      1619      1620      1615
 -1       397    8    0    1
 -2       124       125       280      1230      1621      1622
 -1       398    8    0    1
 -2       124       280       279      1622      1623      1618
 -1       399    8    0    1
 -2       125       126       281      1231      1624      1625
 -1       400    8    0    1
 -2       125       281       280      1625      1626      1621
 -1       401    8    0    1
 -2       126       127       282      1232      1627      1628
 -1       402    8    0    1
 -2       126       282       281      1628      1629      1624
 -1       403    8    0    1
 -2       127       128       283      1233      1630      1631
 -1       404    8    0    1
 -2       127       283       282      1631      1632      1627
 -1       405    8    0    1
 -2       128       129       284      1234      1633      1634
 -1       406    8    0    1
 -2       128       284       283      1634      1635      1630
 -1       407    8    0    1
 -2       129       130       285      1235      1636      1637
 -1       408    8    0    1
 -2       129       285       284      1637      1638      1633
 -1       409    8    0    1
 -2       130       131       286      1236      1639      1640
 -1       410    8    0    1
 -2       130       286       285      1640      1641      1636
 -1       411    8    0    1
 -2       131       132       287      1237      1642      1643
 -1       412    8    0    1
 -2       131       287       286      1643      1644      1639
 -1       413    8    0    1
 -2       132       133       288      1238      1645      1646
 -1       414    8    0    1
 -2       132       288       287      1646      1647      1642
 -1       415    8    0    1
 -2       133       134       289      1239      1648      1649
 -1       416    8    0    1
 -2       133       289       288      1649      1650      1645
 -1       417    8    0    1
 -2       134       135       290      1240      1651      1652
 -1       418    8    0    1
 -2       134       290       289      1652      1653      1648
 -1       419    8    0    1
 -2       135       136       291      1241      1654      1655
 -1       420    8    0    1
 -2       290       135       291      1651      1655      1656
 -1       421    8    0    1
 -2       136       228       291      1466      1657      1654
 -1       422    8    0    1
 -2         2       137       292      1243      1658      1659
 -1       423    8    0    1
 -2       137       138       293      1244      1660      1661
 -1       424    8    0    1
 -2       138       139       294      1245      1662      1663
 -1       425    8    0    1
 -2       139       140       295      1246      1664      1665
 -1       426    8    0    1
 -2       140       141       296      1247      1666      1667
 -1       427    8    0    1
 -2       141       142       297      1248      1668      1669
 -1       428    8    0    1
 -2       142       143       298      1249      1670      1671
 -1       429    8    0    1
 -2       143       144       299      1250      1672      1673
 -1       430    8    0    1
 -2       144       145       300      1251      1674      1675
 -1       431    8    0    1
 -2       145       146       301      1252      1676      1677
 -1       432    8    0    1
 -2       146       147       302      1253      1678      1679
 -1       433    8    0    1
 -2       147       148       303      1254      1680      1681
 -1       434    8    0    1
 -2       148       149       304      1255      1682      1683
 -1       435    8    0    1
 -2       149       150       305      1256      1684      1685
 -1       436    8    0    1
 -2       150       151       306      1257      1686      1687
 -1       437    8    0    1
 -2       151       152       307      1258      1688      1689
 -1       438    8    0    1
 -2       152       153       308      1259      1690      1691
 -1       439    8    0    1
 -2       153       154       309      1260      1692      1693
 -1       440    8    0    1
 -2       154       155       310      1261      1694      1695
 -1       441    8    0    1
 -2       155       156       311      1262      1696      1697
 -1       442    8    0    1
 -2       156       157       312      1263      1698      1699
 -1       443    8    0    1
 -2       157         1       313      1264      1700      1701
 -1       444    8    0    1
 -2         1       158       314      1265      1702      1703
 -1       445    8    0    1
 -2       158       159       315      1266      1704      1705
 -1       446    8    0    1
 -2       159       160       316      1267      1706      1707
 -1       447    8    0    1
 -2       160       161       317      1268      1708      1709
 -1       448    8    0    1
 -2       161       162       318      1269      1710      1711
 -1       449    8    0    1
 -2       162       163       319      1270      1712      1713
 -1       450    8    0    1
 -2       163         2       320      1271      1714      1715
 -1       451    8    0    1
 -2       294       139       295      1662      1665      1716
 -1       452    8    0    1
 -2         2       292       320      1659      1717      1714
 -1       453    8    0    1
 -2       120       121       276      1612      1718      1609
 -1       454    8    0    1
 -2       121       277       276      1614      1719      1718
 -1       455    8    0    1
 -2       292       137       293      1658      1661      1720
 -1       456    8    0    1
 -2       293       138       294      1660      1663      1721
 -1       457    8    0    1
 -2       140       296       295      1667      1722      1664
 -1       458    8    0    1
 -2       141       297       296      1669      1723      1666
 -1       459    8    0    1
 -2       142       298       297      1671      1724      1668
 -1       460    8    0    1
 -2       143       299       298      1673      1725      1670
 -1       461    8    0    1
 -2       144       300       299      1675      1726      1672
 -1       462    8    0    1
 -2       145       301       300      1677      1727      1674
 -1       463    8    0    1
 -2       146       302       301      1679      1728      1676
 -1       464    8    0    1
 -2       147       303       302      1681      1729      1678
 -1       465    8    0    1
 -2       148       304       303      1683      1730      1680
 -1       466    8    0    1
 -2       149       305       304      1685      1731      1682
 -1       467    8    0    1
 -2       150       306       305      1687      1732      1684
 -1       468    8    0    1
 -2       151       307       306      1689      1733      1686
 -1       469    8    0    1
 -2       152       308       307      1691      1734      1688
 -1       470    8    0    1
 -2       153       309       308      1693      1735      1690
 -1       471    8    0    1
 -2       154       310       309      1695      1736      1692
 -1       472    8    0    1
 -2       155       311       310      1697      1737      1694
 -1       473    8    0    1
 -2       156       312       311      1699      1738      1696
 -1       474    8    0    1
 -2       157       313       312      1701      1739      1698
 -1       475    8    0    1
 -2         1       314       313      1703      1740      1700
 -1       476    8    0    1
 -2       158       315       314      1705      1741      1702
 -1       477    8    0    1
 -2       159       316       315      1707      1742      1704
 -1       478    8    0    1
 -2       160       317       316      1709      1743      1706
 -1       479    8    0    1
 -2       161       318       317      1711      1744      1708
 -1       480    8    0    1
 -2       162       319       318      1713      1745      1710
 -1       481    8    0    1
 -2       163       320       319      1715      1746      1712
 -1       482    8    0    1
 -2        23         7       164      1272      1274      1747
 -1       483    8    0    1
 -2       165       166       321      1280      1748      1749
 -1       484    8    0    1
 -2       164       165       322      1277      1750      1751
 -1       485    8    0    1
 -2       165       321       322      1749      1752      1750
 -1       486    8    0    1
 -2       167       168       323      1286      1753      1754
 -1       487    8    0    1
 -2       168       169       324      1289      1755      1756
 -1       488    8    0    1
 -2       168       324       323      1756      1757      1753
 -1       489    8    0    1
 -2       169       170       325      1292      1758      1759
 -1       490    8    0    1
 -2       169       325       324      1759      1760      1755
 -1       491    8    0    1
 -2       170       171       326      1295      1761      1762
 -1       492    8    0    1
 -2       170       326       325      1762      1763      1758
 -1       493    8    0    1
 -2       171       172       327      1298      1764      1765
 -1       494    8    0    1
 -2       171       327       326      1765      1766      1761
 -1       495    8    0    1
 -2       172       173       328      1301      1767      1768
 -1       496    8    0    1
 -2       172       328       327      1768      1769      1764
 -1       497    8    0    1
 -2       173       174       329      1304      1770      1771
 -1       498    8    0    1
 -2       173       329       328      1771      1772      1767
 -1       499    8    0    1
 -2       174       175       330      1307      1773      1774
 -1       500    8    0    1
 -2       174       330       329      1774      1775      1770
 -1       501    8    0    1
 -2       175       176       331      1310      1776      1777
 -1       502    8    0    1
 -2       175       331       330      1777      1778      1773
 -1       503    8    0    1
 -2       176       177       332      1313      1779      1780
 -1       504    8    0    1
 -2       176       332       331      1780      1781      1776
 -1       505    8    0    1
 -2       177       178       333      1316      1782      1783
 -1       506    8    0    1
 -2       177       333       332      1783      1784      1779
 -1       507    8    0    1
 -2       178       179       334      1319      1785      1786
 -1       508    8    0    1
 -2       333       178       334      1782      1786      1787
 -1       509    8    0    1
 -2       179       229       334      1470      1788      1785
 -1       510    8    0    1
 -2       180        23       164      1321      1747      1789
 -1       511    8    0    1
 -2       229       230       335      1473      1790      1791
 -1       512    8    0    1
 -2       229       335       334      1791      1792      1788
 -1       513    8    0    1
 -2       180       164       322      1789      1751      1793
 -1       514    8    0    1
 -2       182       181       336      1328      1794      1795
 -1       515    8    0    1
 -2       183       182       337      1331      1796      1797
 -1       516    8    0    1
 -2       182       336       337      1795      1798      1796
 -1       517    8    0    1
 -2       184       183       338      1334      1799      1800
 -1       518    8    0    1
 -2       183       337       338      1797      1801      1799
 -1       519    8    0    1
 -2       185       184       339      1337      1802      1803
 -1       520    8    0    1
 -2       184       338       339      1800      1804      1802
 -1       521    8    0    1
 -2       186       185       340      1340      1805      1806
 -1       522    8    0    1
 -2       185       339       340      1803      1807      1805
 -1       523    8    0    1
 -2       187       186       341      1343      1808      1809
 -1       524    8    0    1
 -2       186       340       341      1806      1810      1808
 -1       525    8    0    1
 -2       188       187       342      1346      1811      1812
 -1       526    8    0    1
 -2       187       341       342      1809      1813      1811
 -1       527    8    0    1
 -2       189       188       343      1349      1814      1815
 -1       528    8    0    1
 -2       188       342       343      1812      1816      1814
 -1       529    8    0    1
 -2       190       189       344      1352      1817      1818
 -1       530    8    0    1
 -2       189       343       344      1815      1819      1817
 -1       531    8    0    1
 -2       191       190       345      1355      1820      1821
 -1       532    8    0    1
 -2       190       344       345      1818      1822      1820
 -1       533    8    0    1
 -2       192       191       346      1358      1823      1824
 -1       534    8    0    1
 -2       191       345       346      1821      1825      1823
 -1       535    8    0    1
 -2       193       192       347      1361      1826      1827
 -1       536    8    0    1
 -2       194       193       348      1364      1828      1829
 -1       537    8    0    1
 -2       195       194       349      1367      1830      1831
 -1       538    8    0    1
 -2       196       195       350      1370      1832      1833
 -1       539    8    0    1
 -2       197       196       351      1373      1834      1835
 -1       540    8    0    1
 -2       196       350       351      1833      1836      1834
 -1       541    8    0    1
 -2       198       197       352      1376      1837      1838
 -1       542    8    0    1
 -2       197       351       352      1835      1839      1837
 -1       543    8    0    1
 -2       199       198       353      1379      1840      1841
 -1       544    8    0    1
 -2       198       352       353      1838      1842      1840
 -1       545    8    0    1
 -2       200       199       354      1382      1843      1844
 -1       546    8    0    1
 -2       199       353       354      1841      1845      1843
 -1       547    8    0    1
 -2       201       200       355      1385      1846      1847
 -1       548    8    0    1
 -2       200       354       355      1844      1848      1846
 -1       549    8    0    1
 -2       202       201       356      1388      1849      1850
 -1       550    8    0    1
 -2       201       355       356      1847      1851      1849
 -1       551    8    0    1
 -2       203       202       357      1391      1852      1853
 -1       552    8    0    1
 -2       202       356       357      1850      1854      1852
 -1       553    8    0    1
 -2       204       203       358      1394      1855      1856
 -1       554    8    0    1
 -2       203       357       358      1853      1857      1855
 -1       555    8    0    1
 -2       205       204       359      1397      1858      1859
 -1       556    8    0    1
 -2       204       358       359      1856      1860      1858
 -1       557    8    0    1
 -2       206       205       360      1400      1861      1862
 -1       558    8    0    1
 -2       205       359       360      1859      1863      1861
 -1       559    8    0    1
 -2       207       206       361      1403      1864      1865
 -1       560    8    0    1
 -2       206       360       361      1862      1866      1864
 -1       561    8    0    1
 -2       208       207       362      1406      1867      1868
 -1       562    8    0    1
 -2       207       361       362      1865      1869      1867
 -1       563    8    0    1
 -2       209       208       363      1409      1870      1871
 -1       564    8    0    1
 -2       208       362       363      1868      1872      1870
 -1       565    8    0    1
 -2       210       209       364      1412      1873      1874
 -1       566    8    0    1
 -2       209       363       364      1871      1875      1873
 -1       567    8    0    1
 -2       211       210       365      1415      1876      1877
 -1       568    8    0    1
 -2       210       364       365      1874      1878      1876
 -1       569    8    0    1
 -2       212       211       366      1418      1879      1880
 -1       570    8    0    1
 -2       211       365       366      1877      1881      1879
 -1       571    8    0    1
 -2       213       212       367      1421      1882      1883
 -1       572    8    0    1
 -2       212       366       367      1880      1884      1882
 -1       573    8    0    1
 -2       214       213       368      1424      1885      1886
 -1       574    8    0    1
 -2       213       367       368      1883      1887      1885
 -1       575    8    0    1
 -2       215       214       369      1427      1888      1889
 -1       576    8    0    1
 -2       214       368       369      1886      1890      1888
 -1       577    8    0    1
 -2       216       215       370      1430      1891      1892
 -1       578    8    0    1
 -2       215       369       370      1889      1893      1891
 -1       579    8    0    1
 -2       217       216       371      1433      1894      1895
 -1       580    8    0    1
 -2       216       370       371      1892      1896      1894
 -1       581    8    0    1
 -2       218       217       372      1436      1897      1898
 -1       582    8    0    1
 -2       217       371       372      1895      1899      1897
 -1       583    8    0    1
 -2       219       218       373      1439      1900      1901
 -1       584    8    0    1
 -2       218       372       373      1898      1902      1900
 -1       585    8    0    1
 -2       220       219       374      1442      1903      1904
 -1       586    8    0    1
 -2       219       373       374      1901      1905      1903
 -1       587    8    0    1
 -2       221       220       375      1445      1906      1907
 -1       588    8    0    1
 -2       220       374       375      1904      1908      1906
 -1       589    8    0    1
 -2       222       221       376      1448      1909      1910
 -1       590    8    0    1
 -2       221       375       376      1907      1911      1909
 -1       591    8    0    1
 -2       223       222       377      1451      1912      1913
 -1       592    8    0    1
 -2       222       376       377      1910      1914      1912
 -1       593    8    0    1
 -2       224       223       378      1454      1915      1916
 -1       594    8    0    1
 -2       223       377       378      1913      1917      1915
 -1       595    8    0    1
 -2       225       224       379      1457      1918      1919
 -1       596    8    0    1
 -2       224       378       379      1916      1920      1918
 -1       597    8    0    1
 -2       226       225       380      1460      1921      1922
 -1       598    8    0    1
 -2       225       379       380      1919      1923      1921
 -1       599    8    0    1
 -2       227       226       381      1463      1924      1925
 -1       600    8    0    1
 -2       226       380       381      1922      1926      1924
 -1       601    8    0    1
 -2       228       227       291      1467      1927      1657
 -1       602    8    0    1
 -2       231       232       382      1479      1928      1929
 -1       603    8    0    1
 -2       232       233       383      1482      1930      1931
 -1       604    8    0    1
 -2       232       383       382      1931      1932      1928
 -1       605    8    0    1
 -2       233       234       384      1485      1933      1934
 -1       606    8    0    1
 -2       233       384       383      1934      1935      1930
 -1       607    8    0    1
 -2       234       235       385      1488      1936      1937
 -1       608    8    0    1
 -2       234       385       384      1937      1938      1933
 -1       609    8    0    1
 -2       235       236       386      1491      1939      1940
 -1       610    8    0    1
 -2       235       386       385      1940      1941      1936
 -1       611    8    0    1
 -2       236       237       387      1494      1942      1943
 -1       612    8    0    1
 -2       236       387       386      1943      1944      1939
 -1       613    8    0    1
 -2       237       238       388      1497      1945      1946
 -1       614    8    0    1
 -2       237       388       387      1946      1947      1942
 -1       615    8    0    1
 -2       238       239       389      1500      1948      1949
 -1       616    8    0    1
 -2       238       389       388      1949      1950      1945
 -1       617    8    0    1
 -2       239       240       390      1503      1951      1952
 -1       618    8    0    1
 -2       239       390       389      1952      1953      1948
 -1       619    8    0    1
 -2       240       241       391      1506      1954      1955
 -1       620    8    0    1
 -2       240       391       390      1955      1956      1951
 -1       621    8    0    1
 -2       241       242       392      1509      1957      1958
 -1       622    8    0    1
 -2       241       392       391      1958      1959      1954
 -1       623    8    0    1
 -2       242       243       393      1512      1960      1961
 -1       624    8    0    1
 -2       242       393       392      1961      1962      1957
 -1       625    8    0    1
 -2       243       244       394      1515      1963      1964
 -1       626    8    0    1
 -2       243       394       393      1964      1965      1960
 -1       627    8    0    1
 -2       244       245       395      1518      1966      1967
 -1       628    8    0    1
 -2       244       395       394      1967      1968      1963
 -1       629    8    0    1
 -2       245       246       396      1521      1969      1970
 -1       630    8    0    1
 -2       245       396       395      1970      1971      1966
 -1       631    8    0    1
 -2       246       247       397      1524      1972      1973
 -1       632    8    0    1
 -2       246       397       396      1973      1974      1969
 -1       633    8    0    1
 -2       247       248       398      1527      1975      1976
 -1       634    8    0    1
 -2       247       398       397      1976      1977      1972
 -1       635    8    0    1
 -2       248       249       399      1530      1978      1979
 -1       636    8    0    1
 -2       248       399       398      1979      1980      1975
 -1       637    8    0    1
 -2       249       250       400      1533      1981      1982
 -1       638    8    0    1
 -2       249       400       399      1982      1983      1978
 -1       639    8    0    1
 -2       250       251       401      1536      1984      1985
 -1       640    8    0    1
 -2       250       401       400      1985      1986      1981
 -1       641    8    0    1
 -2       251       252       402      1539      1987      1988
 -1       642    8    0    1
 -2       251       402       401      1988      1989      1984
 -1       643    8    0    1
 -2       252       253       403      1542      1990      1991
 -1       644    8    0    1
 -2       252       403       402      1991      1992      1987
 -1       645    8    0    1
 -2       253       254       404      1545      1993      1994
 -1       646    8    0    1
 -2       253       404       403      1994      1995      1990
 -1       647    8    0    1
 -2       254       255       405      1548      1996      1997
 -1       648    8    0    1
 -2       254       405       404      1997      1998      1993
 -1       649    8    0    1
 -2       255       256       406      1551      1999      2000
 -1       650    8    0    1
 -2       255       406       405      2000      2001      1996
 -1       651    8    0    1
 -2       256       257       407      1554      2002      2003
 -1       652    8    0    1
 -2       256       407       406      2003      2004      1999
 -1       653    8    0    1
 -2       257       258       408      1557      2005      2006
 -1       654    8    0    1
 -2       257       408       407      2006      2007      2002
 -1       655    8    0    1
 -2       258       259       409      1560      2008      2009
 -1       656    8    0    1
 -2       258       409       408      2009      2010      2005
 -1       657    8    0    1
 -2       259       260       410      1563      2011      2012
 -1       658    8    0    1
 -2       259       410       409      2012      2013      2008
 -1       659    8    0    1
 -2       260       261       411      1566      2014      2015
 -1       660    8    0    1
 -2       260       411       410      2015      2016      2011
 -1       661    8    0    1
 -2       261       262       412      1569      2017      2018
 -1       662    8    0    1
 -2       261       412       411      2018      2019      2014
 -1       663    8    0    1
 -2       262       263       413      1572      2020      2021
 -1       664    8    0    1
 -2       262       413       412      2021      2022      2017
 -1       665    8    0    1
 -2       263       264       414      1575      2023      2024
 -1       666    8    0    1
 -2       263       414       413      2024      2025      2020
 -1       667    8    0    1
 -2       264       265       415      1578      2026      2027
 -1       668    8    0    1
 -2       264       415       414      2027      2028      2023
 -1       669    8    0    1
 -2       265       266       416      1581      2029      2030
 -1       670    8    0    1
 -2       265       416       415      2030      2031      2026
 -1       671    8    0    1
 -2       266       267       417      1584      2032      2033
 -1       672    8    0    1
 -2       266       417       416      2033      2034      2029
 -1       673    8    0    1
 -2       267       268       418      1587      2035      2036
 -1       674    8    0    1
 -2       267       418       417      2036      2037      2032
 -1       675    8    0    1
 -2       268       269       419      1590      2038      2039
 -1       676    8    0    1
 -2       268       419       418      2039      2040      2035
 -1       677    8    0    1
 -2       269       270       420      1593      2041      2042
 -1       678    8    0    1
 -2       269       420       419      2042      2043      2038
 -1       679    8    0    1
 -2       270       271       421      1596      2044      2045
 -1       680    8    0    1
 -2       270       421       420      2045      2046      2041
 -1       681    8    0    1
 -2       271       272       422      1599      2047      2048
 -1       682    8    0    1
 -2       271       422       421      2048      2049      2044
 -1       683    8    0    1
 -2       272       273       423      1602      2050      2051
 -1       684    8    0    1
 -2       272       423       422      2051      2052      2047
 -1       685    8    0    1
 -2       273       274       424      1605      2053      2054
 -1       686    8    0    1
 -2       273       424       423      2054      2055      2050
 -1       687    8    0    1
 -2       274       275       425      1608      2056      2057
 -1       688    8    0    1
 -2       274       425       424      2057      2058      2053
 -1       689    8    0    1
 -2       275       276       426      1611      2059      2060
 -1       690    8    0    1
 -2       425       275       426      2056      2060      2061
 -1       691    8    0    1
 -2       276       277       426      1719      2062      2059
 -1       692    8    0    1
 -2       279       280       427      1623      2063      2064
 -1       693    8    0    1
 -2       278       279       428      1620      2065      2066
 -1       694    8    0    1
 -2       279       427       428      2064      2067      2065
 -1       695    8    0    1
 -2       277       278       426      1617      2068      2062
 -1       696    8    0    1
 -2       280       281       429      1626      2069      2070
 -1       697    8    0    1
 -2       280       429       427      2070      2071      2063
 -1       698    8    0    1
 -2       281       282       430      1629      2072      2073
 -1       699    8    0    1
 -2       281       430       429      2073      2074      2069
 -1       700    8    0    1
 -2       282       283       431      1632      2075      2076
 -1       701    8    0    1
 -2       282       431       430      2076      2077      2072
 -1       702    8    0    1
 -2       283       284       432      1635      2078      2079
 -1       703    8    0    1
 -2       283       432       431      2079      2080      2075
 -1       704    8    0    1
 -2       284       285       433      1638      2081      2082
 -1       705    8    0    1
 -2       284       433       432      2082      2083      2078
 -1       706    8    0    1
 -2       285       286       434      1641      2084      2085
 -1       707    8    0    1
 -2       285       434       433      2085      2086      2081
 -1       708    8    0    1
 -2       286       287       435      1644      2087      2088
 -1       709    8    0    1
 -2       286       435       434      2088      2089      2084
 -1       710    8    0    1
 -2       287       288       436      1647      2090      2091
 -1       711    8    0    1
 -2       287       436       435      2091      2092      2087
 -1       712    8    0    1
 -2       288       289       437      1650      2093      2094
 -1       713    8    0    1
 -2       288       437       436      2094      2095      2090
 -1       714    8    0    1
 -2       289       290       438      1653      2096      2097
 -1       715    8    0    1
 -2       289       438       437      2097      2098      2093
 -1       716    8    0    1
 -2       230       231       439      1476      2099      2100
 -1       717    8    0    1
 -2       335       230       439      1790      2100      2101
 -1       718    8    0    1
 -2       231       382       439      1929      2102      2099
 -1       719    8    0    1
 -2       293       294       440      1721      2103      2104
 -1       720    8    0    1
 -2       295       296       441      1722      2105      2106
 -1       721    8    0    1
 -2       320       292       442      1717      2107      2108
 -1       722    8    0    1
 -2       294       295       443      1716      2109      2110
 -1       723    8    0    1
 -2       166       167       444      1283      2111      2112
 -1       724    8    0    1
 -2       321       166       444      1748      2112      2113
 -1       725    8    0    1
 -2       167       323       444      1754      2114      2111
 -1       726    8    0    1
 -2       296       297       445      1723      2115      2116
 -1       727    8    0    1
 -2       297       298       446      1724      2117      2118
 -1       728    8    0    1
 -2       298       299       447      1725      2119      2120
 -1       729    8    0    1
 -2       299       300       448      1726      2121      2122
 -1       730    8    0    1
 -2       300       301       449      1727      2123      2124
 -1       731    8    0    1
 -2       301       302       450      1728      2125      2126
 -1       732    8    0    1
 -2       302       303       451      1729      2127      2128
 -1       733    8    0    1
 -2       303       304       452      1730      2129      2130
 -1       734    8    0    1
 -2       304       305       453      1731      2131      2132
 -1       735    8    0    1
 -2       305       306       454      1732      2133      2134
 -1       736    8    0    1
 -2       306       307       455      1733      2135      2136
 -1       737    8    0    1
 -2       307       308       456      1734      2137      2138
 -1       738    8    0    1
 -2       308       309       457      1735      2139      2140
 -1       739    8    0    1
 -2       309       310       458      1736      2141      2142
 -1       740    8    0    1
 -2       310       311       459      1737      2143      2144
 -1       741    8    0    1
 -2       312       313       460      1739      2145      2146
 -1       742    8    0    1
 -2       313       314       461      1740      2147      2148
 -1       743    8    0    1
 -2       315       316       462      1742      2149      2150
 -1       744    8    0    1
 -2       316       317       463      1743      2151      2152
 -1       745    8    0    1
 -2       317       318       464      1744      2153      2154
 -1       746    8    0    1
 -2       318       319       465      1745      2155      2156
 -1       747    8    0    1
 -2       319       320       466      1746      2157      2158
 -1       748    8    0    1
 -2       292       293       467      1720      2159      2160
 -1       749    8    0    1
 -2       292       467       442      2160      2161      2107
 -1       750    8    0    1
 -2       192       346       347      1824      2162      1826
 -1       751    8    0    1
 -2       348       193       347      1828      1827      2163
 -1       752    8    0    1
 -2       180       322       181      1793      2164      1325
 -1       753    8    0    1
 -2       349       194       348      1830      1829      2165
 -1       754    8    0    1
 -2       440       294       443      2103      2110      2166
 -1       755    8    0    1
 -2       296       445       441      2116      2167      2105
 -1       756    8    0    1
 -2       336       181       322      1794      2164      2168
 -1       757    8    0    1
 -2       291       227       381      1927      1925      2169
 -1       758    8    0    1
 -2       426       278       428      2068      2066      2170
 -1       759    8    0    1
 -2       290       291       381      1656      2169      2171
 -1       760    8    0    1
 -2       467       293       468      2159      2172      2173
 -1       761    8    0    1
 -2       293       440       468      2104      2174      2172
 -1       762    8    0    1
 -2       466       320       469      2157      2175      2176
 -1       763    8    0    1
 -2       320       442       469      2108      2177      2175
 -1       764    8    0    1
 -2       295       441       443      2106      2178      2109
 -1       765    8    0    1
 -2       465       319       466      2155      2158      2179
 -1       766    8    0    1
 -2       464       318       465      2153      2156      2180
 -1       767    8    0    1
 -2       463       317       464      2151      2154      2181
 -1       768    8    0    1
 -2       462       316       463      2149      2152      2182
 -1       769    8    0    1
 -2       460       313       461      2145      2148      2183
 -1       770    8    0    1
 -2       458       310       459      2141      2144      2184
 -1       771    8    0    1
 -2       457       309       458      2139      2142      2185
 -1       772    8    0    1
 -2       456       308       457      2137      2140      2186
 -1       773    8    0    1
 -2       455       307       456      2135      2138      2187
 -1       774    8    0    1
 -2       454       306       455      2133      2136      2188
 -1       775    8    0    1
 -2       453       305       454      2131      2134      2189
 -1       776    8    0    1
 -2       452       304       453      2129      2132      2190
 -1       777    8    0    1
 -2       451       303       452      2127      2130      2191
 -1       778    8    0    1
 -2       450       302       451      2125      2128      2192
 -1       779    8    0    1
 -2       449       301       450      2123      2126      2193
 -1       780    8    0    1
 -2       448       300       449      2121      2124      2194
 -1       781    8    0    1
 -2       447       299       448      2119      2122      2195
 -1       782    8    0    1
 -2       445       297       446      2115      2118      2196
 -1       783    8    0    1
 -2       446       298       447      2117      2120      2197
 -1       784    8    0    1
 -2       312       460       470      2146      2198      2199
 -1       785    8    0    1
 -2       312       470       311      2199      2200      1738
 -1       786    8    0    1
 -2       315       462       471      2150      2201      2202
 -1       787    8    0    1
 -2       314       315       472      1741      2203      2204
 -1       788    8    0    1
 -2       461       314       472      2147      2204      2205
 -1       789    8    0    1
 -2       315       471       472      2202      2206      2203
 -1       790    8    0    1
 -2       290       381       438      2171      2207      2096
 -1       791    8    0    1
 -2       311       470       459      2200      2208      2143
 -1       792    8    0    1
 -2       324       325       473      1760      2209      2210
 -1       793    8    0    1
 -2       323       324       474      1757      2211      2212
 -1       794    8    0    1
 -2       324       473       474      2210      2213      2211
 -1       795    8    0    1
 -2       326       327       475      1766      2214      2215
 -1       796    8    0    1
 -2       327       328       476      1769      2216      2217
 -1       797    8    0    1
 -2       327       476       475      2217      2218      2214
 -1       798    8    0    1
 -2       328       329       477      1772      2219      2220
 -1       799    8    0    1
 -2       328       477       476      2220      2221      2216
 -1       800    8    0    1
 -2       329       330       478      1775      2222      2223
 -1       801    8    0    1
 -2       329       478       477      2223      2224      2219
 -1       802    8    0    1
 -2       330       331       479      1778      2225      2226
 -1       803    8    0    1
 -2       330       479       478      2226      2227      2222
 -1       804    8    0    1
 -2       331       332       480      1781      2228      2229
 -1       805    8    0    1
 -2       331       480       479      2229      2230      2225
 -1       806    8    0    1
 -2       332       333       481      1784      2231      2232
 -1       807    8    0    1
 -2       332       481       480      2232      2233      2228
 -1       808    8    0    1
 -2       333       334       482      1787      2234      2235
 -1       809    8    0    1
 -2       481       333       482      2231      2235      2236
 -1       810    8    0    1
 -2       334       335       482      1792      2237      2234
 -1       811    8    0    1
 -2       337       336       483      1798      2238      2239
 -1       812    8    0    1
 -2       338       337       484      1801      2240      2241
 -1       813    8    0    1
 -2       337       483       484      2239      2242      2240
 -1       814    8    0    1
 -2       339       338       485      1804      2243      2244
 -1       815    8    0    1
 -2       338       484       485      2241      2245      2243
 -1       816    8    0    1
 -2       340       339       486      1807      2246      2247
 -1       817    8    0    1
 -2       339       485       486      2244      2248      2246
 -1       818    8    0    1
 -2       341       340       487      1810      2249      2250
 -1       819    8    0    1
 -2       340       486       487      2247      2251      2249
 -1       820    8    0    1
 -2       342       341       488      1813      2252      2253
 -1       821    8    0    1
 -2       341       487       488      2250      2254      2252
 -1       822    8    0    1
 -2       343       342       489      1816      2255      2256
 -1       823    8    0    1
 -2       342       488       489      2253      2257      2255
 -1       824    8    0    1
 -2       344       343       490      1819      2258      2259
 -1       825    8    0    1
 -2       343       489       490      2256      2260      2258
 -1       826    8    0    1
 -2       440       443       491      2166      2261      2262
 -1       827    8    0    1
 -2       195       349       350      1831      2263      1832
 -1       828    8    0    1
 -2       426       428       425      2170      2264      2061
 -1       829    8    0    1
 -2       352       351       492      1839      2265      2266
 -1       830    8    0    1
 -2       353       352       493      1842      2267      2268
 -1       831    8    0    1
 -2       352       492       493      2266      2269      2267
 -1       832    8    0    1
 -2       354       353       494      1845      2270      2271
 -1       833    8    0    1
 -2       353       493       494      2268      2272      2270
 -1       834    8    0    1
 -2       355       354       495      1848      2273      2274
 -1       835    8    0    1
 -2       354       494       495      2271      2275      2273
 -1       836    8    0    1
 -2       356       355       496      1851      2276      2277
 -1       837    8    0    1
 -2       355       495       496      2274      2278      2276
 -1       838    8    0    1
 -2       357       356       497      1854      2279      2280
 -1       839    8    0    1
 -2       356       496       497      2277      2281      2279
 -1       840    8    0    1
 -2       358       357       498      1857      2282      2283
 -1       841    8    0    1
 -2       357       497       498      2280      2284      2282
 -1       842    8    0    1
 -2       359       358       499      1860      2285      2286
 -1       843    8    0    1
 -2       358       498       499      2283      2287      2285
 -1       844    8    0    1
 -2       360       359       500      1863      2288      2289
 -1       845    8    0    1
 -2       359       499       500      2286      2290      2288
 -1       846    8    0    1
 -2       361       360       501      1866      2291      2292
 -1       847    8    0    1
 -2       360       500       501      2289      2293      2291
 -1       848    8    0    1
 -2       362       361       502      1869      2294      2295
 -1       849    8    0    1
 -2       361       501       502      2292      2296      2294
 -1       850    8    0    1
 -2       363       362       503      1872      2297      2298
 -1       851    8    0    1
 -2       362       502       503      2295      2299      2297
 -1       852    8    0    1
 -2       364       363       504      1875      2300      2301
 -1       853    8    0    1
 -2       363       503       504      2298      2302      2300
 -1       854    8    0    1
 -2       365       364       505      1878      2303      2304
 -1       855    8    0    1
 -2       364       504       505      2301      2305      2303
 -1       856    8    0    1
 -2       366       365       506      1881      2306      2307
 -1       857    8    0    1
 -2       365       505       506      2304      2308      2306
 -1       858    8    0    1
 -2       367       366       507      1884      2309      2310
 -1       859    8    0    1
 -2       366       506       507      2307      2311      2309
 -1       860    8    0    1
 -2       368       367       508      1887      2312      2313
 -1       861    8    0    1
 -2       367       507       508      2310      2314      2312
 -1       862    8    0    1
 -2       369       368       509      1890      2315      2316
 -1       863    8    0    1
 -2       368       508       509      2313      2317      2315
 -1       864    8    0    1
 -2       370       369       510      1893      2318      2319
 -1       865    8    0    1
 -2       369       509       510      2316      2320      2318
 -1       866    8    0    1
 -2       371       370       511      1896      2321      2322
 -1       867    8    0    1
 -2       370       510       511      2319      2323      2321
 -1       868    8    0    1
 -2       372       371       512      1899      2324      2325
 -1       869    8    0    1
 -2       371       511       512      2322      2326      2324
 -1       870    8    0    1
 -2       373       372       513      1902      2327      2328
 -1       871    8    0    1
 -2       372       512       513      2325      2329      2327
 -1       872    8    0    1
 -2       374       373       514      1905      2330      2331
 -1       873    8    0    1
 -2       373       513       514      2328      2332      2330
 -1       874    8    0    1
 -2       375       374       515      1908      2333      2334
 -1       875    8    0    1
 -2       374       514       515      2331      2335      2333
 -1       876    8    0    1
 -2       376       375       516      1911      2336      2337
 -1       877    8    0    1
 -2       375       515       516      2334      2338      2336
 -1       878    8    0    1
 -2       377       376       517      1914      2339      2340
 -1       879    8    0    1
 -2       376       516       517      2337      2341      2339
 -1       880    8    0    1
 -2       378       377       518      1917      2342      2343
 -1       881    8    0    1
 -2       377       517       518      2340      2344      2342
 -1       882    8    0    1
 -2       379       378       519      1920      2345      2346
 -1       883    8    0    1
 -2       378       518       519      2343      2347      2345
 -1       884    8    0    1
 -2       380       379       520      1923      2348      2349
 -1       885    8    0    1
 -2       379       519       520      2346      2350      2348
 -1       886    8    0    1
 -2       381       380       521      1926      2351      2352
 -1       887    8    0    1
 -2       438       381       521      2207      2352      2353
 -1       888    8    0    1
 -2       380       520       521      2349      2354      2351
 -1       889    8    0    1
 -2       384       385       522      1938      2355      2356
 -1       890    8    0    1
 -2       383       384       523      1935      2357      2358
 -1       891    8    0    1
 -2       384       522       523      2356      2359      2357
 -1       892    8    0    1
 -2       382       383       524      1932      2360      2361
 -1       893    8    0    1
 -2       383       523       524      2358      2362      2360
 -1       894    8    0    1
 -2       385       386       525      1941      2363      2364
 -1       895    8    0    1
 -2       385       525       522      2364      2365      2355
 -1       896    8    0    1
 -2       386       387       526      1944      2366      2367
 -1       897    8    0    1
 -2       386       526       525      2367      2368      2363
 -1       898    8    0    1
 -2       387       388       527      1947      2369      2370
 -1       899    8    0    1
 -2       387       527       526      2370      2371      2366
 -1       900    8    0    1
 -2       388       389       528      1950      2372      2373
 -1       901    8    0    1
 -2       388       528       527      2373      2374      2369
 -1       902    8    0    1
 -2       389       390       529      1953      2375      2376
 -1       903    8    0    1
 -2       389       529       528      2376      2377      2372
 -1       904    8    0    1
 -2       390       391       530      1956      2378      2379
 -1       905    8    0    1
 -2       390       530       529      2379      2380      2375
 -1       906    8    0    1
 -2       391       392       531      1959      2381      2382
 -1       907    8    0    1
 -2       391       531       530      2382      2383      2378
 -1       908    8    0    1
 -2       392       393       532      1962      2384      2385
 -1       909    8    0    1
 -2       392       532       531      2385      2386      2381
 -1       910    8    0    1
 -2       393       394       533      1965      2387      2388
 -1       911    8    0    1
 -2       393       533       532      2388      2389      2384
 -1       912    8    0    1
 -2       394       395       534      1968      2390      2391
 -1       913    8    0    1
 -2       394       534       533      2391      2392      2387
 -1       914    8    0    1
 -2       395       396       535      1971      2393      2394
 -1       915    8    0    1
 -2       395       535       534      2394      2395      2390
 -1       916    8    0    1
 -2       396       397       536      1974      2396      2397
 -1       917    8    0    1
 -2       396       536       535      2397      2398      2393
 -1       918    8    0    1
 -2       397       398       537      1977      2399      2400
 -1       919    8    0    1
 -2       397       537       536      2400      2401      2396
 -1       920    8    0    1
 -2       398       399       538      1980      2402      2403
 -1       921    8    0    1
 -2       398       538       537      2403      2404      2399
 -1       922    8    0    1
 -2       399       400       539      1983      2405      2406
 -1       923    8    0    1
 -2       399       539       538      2406      2407      2402
 -1       924    8    0    1
 -2       400       401       540      1986      2408      2409
 -1       925    8    0    1
 -2       400       540       539      2409      2410      2405
 -1       926    8    0    1
 -2       401       402       541      1989      2411      2412
 -1       927    8    0    1
 -2       401       541       540      2412      2413      2408
 -1       928    8    0    1
 -2       402       403       542      1992      2414      2415
 -1       929    8    0    1
 -2       402       542       541      2415      2416      2411
 -1       930    8    0    1
 -2       403       404       543      1995      2417      2418
 -1       931    8    0    1
 -2       403       543       542      2418      2419      2414
 -1       932    8    0    1
 -2       404       405       544      1998      2420      2421
 -1       933    8    0    1
 -2       404       544       543      2421      2422      2417
 -1       934    8    0    1
 -2       405       406       545      2001      2423      2424
 -1       935    8    0    1
 -2       405       545       544      2424      2425      2420
 -1       936    8    0    1
 -2       406       407       546      2004      2426      2427
 -1       937    8    0    1
 -2       406       546       545      2427      2428      2423
 -1       938    8    0    1
 -2       407       408       547      2007      2429      2430
 -1       939    8    0    1
 -2       407       547       546      2430      2431      2426
 -1       940    8    0    1
 -2       408       409       548      2010      2432      2433
 -1       941    8    0    1
 -2       408       548       547      2433      2434      2429
 -1       942    8    0    1
 -2       409       410       549      2013      2435      2436
 -1       943    8    0    1
 -2       409       549       548      2436      2437      2432
 -1       944    8    0    1
 -2       410       411       550      2016      2438      2439
 -1       945    8    0    1
 -2       410       550       549      2439      2440      2435
 -1       946    8    0    1
 -2       411       412       551      2019      2441      2442
 -1       947    8    0    1
 -2       411       551       550      2442      2443      2438
 -1       948    8    0    1
 -2       412       413       552      2022      2444      2445
 -1       949    8    0    1
 -2       412       552       551      2445      2446      2441
 -1       950    8    0    1
 -2       413       414       553      2025      2447      2448
 -1       951    8    0    1
 -2       413       553       552      2448      2449      2444
 -1       952    8    0    1
 -2       414       415       554      2028      2450      2451
 -1       953    8    0    1
 -2       414       554       553      2451      2452      2447
 -1       954    8    0    1
 -2       415       416       555      2031      2453      2454
 -1       955    8    0    1
 -2       415       555       554      2454      2455      2450
 -1       956    8    0    1
 -2       416       417       556      2034      2456      2457
 -1       957    8    0    1
 -2       416       556       555      2457      2458      2453
 -1       958    8    0    1
 -2       417       418       557      2037      2459      2460
 -1       959    8    0    1
 -2       417       557       556      2460      2461      2456
 -1       960    8    0    1
 -2       418       419       558      2040      2462      2463
 -1       961    8    0    1
 -2       418       558       557      2463      2464      2459
 -1       962    8    0    1
 -2       419       420       559      2043      2465      2466
 -1       963    8    0    1
 -2       419       559       558      2466      2467      2462
 -1       964    8    0    1
 -2       420       421       560      2046      2468      2469
 -1       965    8    0    1
 -2       420       560       559      2469      2470      2465
 -1       966    8    0    1
 -2       421       422       561      2049      2471      2472
 -1       967    8    0    1
 -2       421       561       560      2472      2473      2468
 -1       968    8    0    1
 -2       422       423       562      2052      2474      2475
 -1       969    8    0    1
 -2       422       562       561      2475      2476      2471
 -1       970    8    0    1
 -2       423       424       563      2055      2477      2478
 -1       971    8    0    1
 -2       423       563       562      2478      2479      2474
 -1       972    8    0    1
 -2       424       425       564      2058      2480      2481
 -1       973    8    0    1
 -2       424       564       563      2481      2482      2477
 -1       974    8    0    1
 -2       429       430       565      2074      2483      2484
 -1       975    8    0    1
 -2       427       429       566      2071      2485      2486
 -1       976    8    0    1
 -2       429       565       566      2484      2487      2485
 -1       977    8    0    1
 -2       428       427       567      2067      2488      2489
 -1       978    8    0    1
 -2       427       566       567      2486      2490      2488
 -1       979    8    0    1
 -2       430       431       568      2077      2491      2492
 -1       980    8    0    1
 -2       430       568       565      2492      2493      2483
 -1       981    8    0    1
 -2       431       432       569      2080      2494      2495
 -1       982    8    0    1
 -2       431       569       568      2495      2496      2491
 -1       983    8    0    1
 -2       432       433       570      2083      2497      2498
 -1       984    8    0    1
 -2       432       570       569      2498      2499      2494
 -1       985    8    0    1
 -2       433       434       571      2086      2500      2501
 -1       986    8    0    1
 -2       433       571       570      2501      2502      2497
 -1       987    8    0    1
 -2       434       435       572      2089      2503      2504
 -1       988    8    0    1
 -2       434       572       571      2504      2505      2500
 -1       989    8    0    1
 -2       435       436       573      2092      2506      2507
 -1       990    8    0    1
 -2       435       573       572      2507      2508      2503
 -1       991    8    0    1
 -2       436       437       574      2095      2509      2510
 -1       992    8    0    1
 -2       436       574       573      2510      2511      2506
 -1       993    8    0    1
 -2       437       438       575      2098      2512      2513
 -1       994    8    0    1
 -2       574       437       575      2509      2513      2514
 -1       995    8    0    1
 -2       438       521       575      2353      2515      2512
 -1       996    8    0    1
 -2       459       470       346      2208      2516      2517
 -1       997    8    0    1
 -2       336       322       576      2168      2518      2519
 -1       998    8    0    1
 -2       483       336       576      2238      2519      2520
 -1       999    8    0    1
 -2       322       321       576      1752      2521      2518
 -1      1000    8    0    1
 -2       443       441       577      2178      2522      2523
 -1      1001    8    0    1
 -2       443       577       491      2523      2524      2261
 -1      1002    8    0    1
 -2       441       445       578      2167      2525      2526
 -1      1003    8    0    1
 -2       465       466       579      2179      2527      2528
 -1      1004    8    0    1
 -2       351       350       580      1836      2529      2530
 -1      1005    8    0    1
 -2       425       428       564      2264      2531      2480
 -1      1006    8    0    1
 -2       325       326       581      1763      2532      2533
 -1      1007    8    0    1
 -2       473       325       581      2209      2533      2534
 -1      1008    8    0    1
 -2       326       475       581      2215      2535      2532
 -1      1009    8    0    1
 -2       446       447       582      2197      2536      2537
 -1      1010    8    0    1
 -2       445       446       583      2196      2538      2539
 -1      1011    8    0    1
 -2       447       448       584      2195      2540      2541
 -1      1012    8    0    1
 -2       448       449       585      2194      2542      2543
 -1      1013    8    0    1
 -2       448       585       584      2543      2544      2540
 -1      1014    8    0    1
 -2       449       450       586      2193      2545      2546
 -1      1015    8    0    1
 -2       450       451       587      2192      2547      2548
 -1      1016    8    0    1
 -2       451       452       588      2191      2549      2550
 -1      1017    8    0    1
 -2       451       588       587      2550      2551      2547
 -1      1018    8    0    1
 -2       452       453       589      2190      2552      2553
 -1      1019    8    0    1
 -2       453       454       590      2189      2554      2555
 -1      1020    8    0    1
 -2       453       590       589      2555      2556      2552
 -1      1021    8    0    1
 -2       454       455       591      2188      2557      2558
 -1      1022    8    0    1
 -2       455       456       592      2187      2559      2560
 -1      1023    8    0    1
 -2       456       457       593      2186      2561      2562
 -1      1024    8    0    1
 -2       457       458       594      2185      2563      2564
 -1      1025    8    0    1
 -2       457       594       593      2564      2565      2561
 -1      1026    8    0    1
 -2       458       459       595      2184      2566      2567
 -1      1027    8    0    1
 -2       460       461       347      2183      2568      2569
 -1      1028    8    0    1
 -2       462       463       596      2182      2570      2571
 -1      1029    8    0    1
 -2       463       464       580      2181      2572      2573
 -1      1030    8    0    1
 -2       464       465       597      2180      2574      2575
 -1      1031    8    0    1
 -2       442       467       598      2161      2576      2577
 -1      1032    8    0    1
 -2       459       346       345      2517      1825      2578
 -1      1033    8    0    1
 -2       459       345       595      2578      2579      2566
 -1      1034    8    0    1
 -2       323       474       599      2212      2580      2581
 -1      1035    8    0    1
 -2       323       599       444      2581      2582      2114
 -1      1036    8    0    1
 -2       577       441       578      2522      2526      2583
 -1      1037    8    0    1
 -2       482       335       600      2237      2584      2585
 -1      1038    8    0    1
 -2       335       439       600      2101      2586      2584
 -1      1039    8    0    1
 -2       344       490       594      2259      2587      2588
 -1      1040    8    0    1
 -2       349       348       471      2165      2589      2590
 -1      1041    8    0    1
 -2       467       468       601      2173      2591      2592
 -1      1042    8    0    1
 -2       467       601       598      2592      2593      2576
 -1      1043    8    0    1
 -2       345       344       595      1822      2594      2579
 -1      1044    8    0    1
 -2       348       347       461      2163      2568      2595
 -1      1045    8    0    1
 -2       350       349       596      2263      2596      2597
 -1      1046    8    0    1
 -2       492       351       580      2265      2530      2598
 -1      1047    8    0    1
 -2       428       567       564      2489      2599      2531
 -1      1048    8    0    1
 -2       347       346       470      2162      2516      2600
 -1      1049    8    0    1
 -2       576       321       444      2521      2113      2601
 -1      1050    8    0    1
 -2       439       382       602      2102      2602      2603
 -1      1051    8    0    1
 -2       600       439       602      2586      2603      2604
 -1      1052    8    0    1
 -2       382       524       602      2361      2605      2602
 -1      1053    8    0    1
 -2       468       440       491      2174      2262      2606
 -1      1054    8    0    1
 -2       469       442       598      2177      2577      2607
 -1      1055    8    0    1
 -2       466       469       603      2176      2608      2609
 -1      1056    8    0    1
 -2       466       603       579      2609      2610      2527
 -1      1057    8    0    1
 -2       578       445       583      2525      2539      2611
 -1      1058    8    0    1
 -2       465       579       597      2528      2612      2574
 -1      1059    8    0    1
 -2       446       582       583      2537      2613      2538
 -1      1060    8    0    1
 -2       580       464       597      2572      2575      2614
 -1      1061    8    0    1
 -2       350       596       580      2597      2615      2529
 -1      1062    8    0    1
 -2       594       458       595      2563      2567      2616
 -1      1063    8    0    1
 -2       592       456       593      2559      2562      2617
 -1      1064    8    0    1
 -2       590       454       591      2554      2558      2618
 -1      1065    8    0    1
 -2       588       452       589      2549      2553      2619
 -1      1066    8    0    1
 -2       585       449       586      2542      2546      2620
 -1      1067    8    0    1
 -2       349       471       462      2590      2201      2621
 -1      1068    8    0    1
 -2       349       462       596      2621      2571      2596
 -1      1069    8    0    1
 -2       348       461       472      2595      2205      2622
 -1      1070    8    0    1
 -2       582       447       584      2536      2541      2623
 -1      1071    8    0    1
 -2       586       450       587      2545      2548      2624
 -1      1072    8    0    1
 -2       591       455       592      2557      2560      2625
 -1      1073    8    0    1
 -2       463       580       596      2573      2615      2570
 -1      1074    8    0    1
 -2       471       348       472      2589      2622      2206
 -1      1075    8    0    1
 -2       476       477       604      2221      2626      2627
 -1      1076    8    0    1
 -2       475       476       605      2218      2628      2629
 -1      1077    8    0    1
 -2       476       604       605      2627      2630      2628
 -1      1078    8    0    1
 -2       478       479       606      2227      2631      2632
 -1      1079    8    0    1
 -2       479       480       607      2230      2633      2634
 -1      1080    8    0    1
 -2       479       607       606      2634      2635      2631
 -1      1081    8    0    1
 -2       481       482       608      2236      2636      2637
 -1      1082    8    0    1
 -2       482       600       608      2585      2638      2636
 -1      1083    8    0    1
 -2       484       483       609      2242      2639      2640
 -1      1084    8    0    1
 -2       485       484       610      2245      2641      2642
 -1      1085    8    0    1
 -2       484       609       610      2640      2643      2641
 -1      1086    8    0    1
 -2       486       485       611      2248      2644      2645
 -1      1087    8    0    1
 -2       485       610       611      2642      2646      2644
 -1      1088    8    0    1
 -2       487       486       612      2251      2647      2648
 -1      1089    8    0    1
 -2       486       611       612      2645      2649      2647
 -1      1090    8    0    1
 -2       488       487       613      2254      2650      2651
 -1      1091    8    0    1
 -2       487       612       613      2648      2652      2650
 -1      1092    8    0    1
 -2       489       488       614      2257      2653      2654
 -1      1093    8    0    1
 -2       488       613       614      2651      2655      2653
 -1      1094    8    0    1
 -2       490       489       615      2260      2656      2657
 -1      1095    8    0    1
 -2       489       614       615      2654      2658      2656
 -1      1096    8    0    1
 -2       493       492       616      2269      2659      2660
 -1      1097    8    0    1
 -2       494       493       617      2272      2661      2662
 -1      1098    8    0    1
 -2       493       616       617      2660      2663      2661
 -1      1099    8    0    1
 -2       495       494       618      2275      2664      2665
 -1      1100    8    0    1
 -2       494       617       618      2662      2666      2664
 -1      1101    8    0    1
 -2       496       495       619      2278      2667      2668
 -1      1102    8    0    1
 -2       495       618       619      2665      2669      2667
 -1      1103    8    0    1
 -2       497       496       620      2281      2670      2671
 -1      1104    8    0    1
 -2       496       619       620      2668      2672      2670
 -1      1105    8    0    1
 -2       498       497       621      2284      2673      2674
 -1      1106    8    0    1
 -2       497       620       621      2671      2675      2673
 -1      1107    8    0    1
 -2       499       498       622      2287      2676      2677
 -1      1108    8    0    1
 -2       498       621       622      2674      2678      2676
 -1      1109    8    0    1
 -2       500       499       623      2290      2679      2680
 -1      1110    8    0    1
 -2       499       622       623      2677      2681      2679
 -1      1111    8    0    1
 -2       501       500       624      2293      2682      2683
 -1      1112    8    0    1
 -2       500       623       624      2680      2684      2682
 -1      1113    8    0    1
 -2       502       501       625      2296      2685      2686
 -1      1114    8    0    1
 -2       501       624       625      2683      2687      2685
 -1      1115    8    0    1
 -2       503       502       626      2299      2688      2689
 -1      1116    8    0    1
 -2       502       625       626      2686      2690      2688
 -1      1117    8    0    1
 -2       504       503       627      2302      2691      2692
 -1      1118    8    0    1
 -2       503       626       627      2689      2693      2691
 -1      1119    8    0    1
 -2       505       504       628      2305      2694      2695
 -1      1120    8    0    1
 -2       504       627       628      2692      2696      2694
 -1      1121    8    0    1
 -2       506       505       629      2308      2697      2698
 -1      1122    8    0    1
 -2       505       628       629      2695      2699      2697
 -1      1123    8    0    1
 -2       507       506       630      2311      2700      2701
 -1      1124    8    0    1
 -2       506       629       630      2698      2702      2700
 -1      1125    8    0    1
 -2       508       507       631      2314      2703      2704
 -1      1126    8    0    1
 -2       507       630       631      2701      2705      2703
 -1      1127    8    0    1
 -2       509       508       632      2317      2706      2707
 -1      1128    8    0    1
 -2       508       631       632      2704      2708      2706
 -1      1129    8    0    1
 -2       510       509       633      2320      2709      2710
 -1      1130    8    0    1
 -2       509       632       633      2707      2711      2709
 -1      1131    8    0    1
 -2       511       510       634      2323      2712      2713
 -1      1132    8    0    1
 -2       510       633       634      2710      2714      2712
 -1      1133    8    0    1
 -2       512       511       635      2326      2715      2716
 -1      1134    8    0    1
 -2       511       634       635      2713      2717      2715
 -1      1135    8    0    1
 -2       513       512       636      2329      2718      2719
 -1      1136    8    0    1
 -2       512       635       636      2716      2720      2718
 -1      1137    8    0    1
 -2       514       513       637      2332      2721      2722
 -1      1138    8    0    1
 -2       513       636       637      2719      2723      2721
 -1      1139    8    0    1
 -2       515       514       638      2335      2724      2725
 -1      1140    8    0    1
 -2       514       637       638      2722      2726      2724
 -1      1141    8    0    1
 -2       516       515       639      2338      2727      2728
 -1      1142    8    0    1
 -2       515       638       639      2725      2729      2727
 -1      1143    8    0    1
 -2       517       516       640      2341      2730      2731
 -1      1144    8    0    1
 -2       516       639       640      2728      2732      2730
 -1      1145    8    0    1
 -2       518       517       641      2344      2733      2734
 -1      1146    8    0    1
 -2       517       640       641      2731      2735      2733
 -1      1147    8    0    1
 -2       519       518       642      2347      2736      2737
 -1      1148    8    0    1
 -2       518       641       642      2734      2738      2736
 -1      1149    8    0    1
 -2       520       519       643      2350      2739      2740
 -1      1150    8    0    1
 -2       519       642       643      2737      2741      2739
 -1      1151    8    0    1
 -2       521       520       644      2354      2742      2743
 -1      1152    8    0    1
 -2       575       521       644      2515      2743      2744
 -1      1153    8    0    1
 -2       520       643       644      2740      2745      2742
 -1      1154    8    0    1
 -2       523       522       645      2359      2746      2747
 -1      1155    8    0    1
 -2       522       525       646      2365      2748      2749
 -1      1156    8    0    1
 -2       522       646       645      2749      2750      2746
 -1      1157    8    0    1
 -2       524       523       647      2362      2751      2752
 -1      1158    8    0    1
 -2       523       645       647      2747      2753      2751
 -1      1159    8    0    1
 -2       526       527       648      2371      2754      2755
 -1      1160    8    0    1
 -2       527       528       649      2374      2756      2757
 -1      1161    8    0    1
 -2       527       649       648      2757      2758      2754
 -1      1162    8    0    1
 -2       528       529       650      2377      2759      2760
 -1      1163    8    0    1
 -2       528       650       649      2760      2761      2756
 -1      1164    8    0    1
 -2       529       530       651      2380      2762      2763
 -1      1165    8    0    1
 -2       529       651       650      2763      2764      2759
 -1      1166    8    0    1
 -2       530       531       652      2383      2765      2766
 -1      1167    8    0    1
 -2       530       652       651      2766      2767      2762
 -1      1168    8    0    1
 -2       531       532       653      2386      2768      2769
 -1      1169    8    0    1
 -2       531       653       652      2769      2770      2765
 -1      1170    8    0    1
 -2       532       533       654      2389      2771      2772
 -1      1171    8    0    1
 -2       532       654       653      2772      2773      2768
 -1      1172    8    0    1
 -2       533       534       655      2392      2774      2775
 -1      1173    8    0    1
 -2       533       655       654      2775      2776      2771
 -1      1174    8    0    1
 -2       534       535       656      2395      2777      2778
 -1      1175    8    0    1
 -2       534       656       655      2778      2779      2774
 -1      1176    8    0    1
 -2       535       536       657      2398      2780      2781
 -1      1177    8    0    1
 -2       535       657       656      2781      2782      2777
 -1      1178    8    0    1
 -2       536       537       658      2401      2783      2784
 -1      1179    8    0    1
 -2       536       658       657      2784      2785      2780
 -1      1180    8    0    1
 -2       537       538       659      2404      2786      2787
 -1      1181    8    0    1
 -2       537       659       658      2787      2788      2783
 -1      1182    8    0    1
 -2       538       539       660      2407      2789      2790
 -1      1183    8    0    1
 -2       538       660       659      2790      2791      2786
 -1      1184    8    0    1
 -2       539       540       661      2410      2792      2793
 -1      1185    8    0    1
 -2       539       661       660      2793      2794      2789
 -1      1186    8    0    1
 -2       540       541       662      2413      2795      2796
 -1      1187    8    0    1
 -2       540       662       661      2796      2797      2792
 -1      1188    8    0    1
 -2       541       542       663      2416      2798      2799
 -1      1189    8    0    1
 -2       541       663       662      2799      2800      2795
 -1      1190    8    0    1
 -2       542       543       664      2419      2801      2802
 -1      1191    8    0    1
 -2       542       664       663      2802      2803      2798
 -1      1192    8    0    1
 -2       543       544       665      2422      2804      2805
 -1      1193    8    0    1
 -2       543       665       664      2805      2806      2801
 -1      1194    8    0    1
 -2       544       545       666      2425      2807      2808
 -1      1195    8    0    1
 -2       544       666       665      2808      2809      2804
 -1      1196    8    0    1
 -2       545       546       667      2428      2810      2811
 -1      1197    8    0    1
 -2       545       667       666      2811      2812      2807
 -1      1198    8    0    1
 -2       546       547       668      2431      2813      2814
 -1      1199    8    0    1
 -2       546       668       667      2814      2815      2810
 -1      1200    8    0    1
 -2       547       548       669      2434      2816      2817
 -1      1201    8    0    1
 -2       547       669       668      2817      2818      2813
 -1      1202    8    0    1
 -2       548       549       670      2437      2819      2820
 -1      1203    8    0    1
 -2       548       670       669      2820      2821      2816
 -1      1204    8    0    1
 -2       549       550       671      2440      2822      2823
 -1      1205    8    0    1
 -2       549       671       670      2823      2824      2819
 -1      1206    8    0    1
 -2       550       551       672      2443      2825      2826
 -1      1207    8    0    1
 -2       550       672       671      2826      2827      2822
 -1      1208    8    0    1
 -2       551       552       673      2446      2828      2829
 -1      1209    8    0    1
 -2       551       673       672      2829      2830      2825
 -1      1210    8    0    1
 -2       552       553       674      2449      2831      2832
 -1      1211    8    0    1
 -2       552       674       673      2832      2833      2828
 -1      1212    8    0    1
 -2       553       554       675      2452      2834      2835
 -1      1213    8    0    1
 -2       553       675       674      2835      2836      2831
 -1      1214    8    0    1
 -2       554       555       676      2455      2837      2838
 -1      1215    8    0    1
 -2       554       676       675      2838      2839      2834
 -1      1216    8    0    1
 -2       555       556       677      2458      2840      2841
 -1      1217    8    0    1
 -2       555       677       676      2841      2842      2837
 -1      1218    8    0    1
 -2       556       557       678      2461      2843      2844
 -1      1219    8    0    1
 -2       556       678       677      2844      2845      2840
 -1      1220    8    0    1
 -2       557       558       679      2464      2846      2847
 -1      1221    8    0    1
 -2       557       679       678      2847      2848      2843
 -1      1222    8    0    1
 -2       558       559       680      2467      2849      2850
 -1      1223    8    0    1
 -2       558       680       679      2850      2851      2846
 -1      1224    8    0    1
 -2       559       560       681      2470      2852      2853
 -1      1225    8    0    1
 -2       559       681       680      2853      2854      2849
 -1      1226    8    0    1
 -2       560       561       682      2473      2855      2856
 -1      1227    8    0    1
 -2       560       682       681      2856      2857      2852
 -1      1228    8    0    1
 -2       561       562       683      2476      2858      2859
 -1      1229    8    0    1
 -2       561       683       682      2859      2860      2855
 -1      1230    8    0    1
 -2       562       563       684      2479      2861      2862
 -1      1231    8    0    1
 -2       562       684       683      2862      2863      2858
 -1      1232    8    0    1
 -2       563       564       685      2482      2864      2865
 -1      1233    8    0    1
 -2       684       563       685      2861      2865      2866
 -1      1234    8    0    1
 -2       564       567       685      2599      2867      2864
 -1      1235    8    0    1
 -2       568       569       686      2496      2868      2869
 -1      1236    8    0    1
 -2       468       491       687      2606      2870      2871
 -1      1237    8    0    1
 -2       565       568       688      2493      2872      2873
 -1      1238    8    0    1
 -2       568       686       688      2869      2874      2872
 -1      1239    8    0    1
 -2       567       566       689      2490      2875      2876
 -1      1240    8    0    1
 -2       567       689       685      2876      2877      2867
 -1      1241    8    0    1
 -2       569       570       690      2499      2878      2879
 -1      1242    8    0    1
 -2       569       690       686      2879      2880      2868
 -1      1243    8    0    1
 -2       474       473       691      2213      2881      2882
 -1      1244    8    0    1
 -2       570       571       692      2502      2883      2884
 -1      1245    8    0    1
 -2       570       692       690      2884      2885      2878
 -1      1246    8    0    1
 -2       571       572       693      2505      2886      2887
 -1      1247    8    0    1
 -2       571       693       692      2887      2888      2883
 -1      1248    8    0    1
 -2       572       573       694      2508      2889      2890
 -1      1249    8    0    1
 -2       572       694       693      2890      2891      2886
 -1      1250    8    0    1
 -2       573       574       695      2511      2892      2893
 -1      1251    8    0    1
 -2       573       695       694      2893      2894      2889
 -1      1252    8    0    1
 -2       576       444       599      2601      2582      2895
 -1      1253    8    0    1
 -2       344       594       595      2588      2616      2594
 -1      1254    8    0    1
 -2       578       583       696      2611      2896      2897
 -1      1255    8    0    1
 -2       477       478       697      2224      2898      2899
 -1      1256    8    0    1
 -2       604       477       697      2626      2899      2900
 -1      1257    8    0    1
 -2       478       606       697      2632      2901      2898
 -1      1258    8    0    1
 -2       583       582       698      2613      2902      2903
 -1      1259    8    0    1
 -2       583       698       696      2903      2904      2896
 -1      1260    8    0    1
 -2       592       593       699      2617      2905      2906
 -1      1261    8    0    1
 -2       585       586       700      2620      2907      2908
 -1      1262    8    0    1
 -2       577       578       701      2583      2909      2910
 -1      1263    8    0    1
 -2       491       577       702      2524      2911      2912
 -1      1264    8    0    1
 -2       577       701       702      2910      2913      2911
 -1      1265    8    0    1
 -2       597       579       703      2612      2914      2915
 -1      1266    8    0    1
 -2       586       587       704      2624      2916      2917
 -1      1267    8    0    1
 -2       584       585       705      2544      2918      2919
 -1      1268    8    0    1
 -2       591       592       706      2625      2920      2921
 -1      1269    8    0    1
 -2       587       588       707      2551      2922      2923
 -1      1270    8    0    1
 -2       588       589       708      2619      2924      2925
 -1      1271    8    0    1
 -2       589       590       709      2556      2926      2927
 -1      1272    8    0    1
 -2       590       591       710      2618      2928      2929
 -1      1273    8    0    1
 -2       590       710       709      2929      2930      2926
 -1      1274    8    0    1
 -2       525       526       711      2368      2931      2932
 -1      1275    8    0    1
 -2       646       525       711      2748      2932      2933
 -1      1276    8    0    1
 -2       526       648       711      2755      2934      2931
 -1      1277    8    0    1
 -2       582       584       712      2623      2935      2936
 -1      1278    8    0    1
 -2       584       705       712      2919      2937      2935
 -1      1279    8    0    1
 -2       566       565       713      2487      2938      2939
 -1      1280    8    0    1
 -2       689       566       713      2875      2939      2940
 -1      1281    8    0    1
 -2       565       688       713      2873      2941      2938
 -1      1282    8    0    1
 -2       469       598       714      2607      2942      2943
 -1      1283    8    0    1
 -2       475       605       715      2629      2944      2945
 -1      1284    8    0    1
 -2       475       715       581      2945      2946      2535
 -1      1285    8    0    1
 -2       481       608       480      2637      2947      2233
 -1      1286    8    0    1
 -2       710       591       706      2928      2921      2948
 -1      1287    8    0    1
 -2       598       601       716      2593      2949      2950
 -1      1288    8    0    1
 -2       598       716       714      2950      2951      2942
 -1      1289    8    0    1
 -2       616       492       703      2659      2952      2953
 -1      1290    8    0    1
 -2       706       592       717      2920      2954      2955
 -1      1291    8    0    1
 -2       592       699       717      2906      2956      2954
 -1      1292    8    0    1
 -2       698       582       712      2902      2936      2957
 -1      1293    8    0    1
 -2       492       580       597      2598      2614      2958
 -1      1294    8    0    1
 -2       492       597       703      2958      2915      2952
 -1      1295    8    0    1
 -2       601       468       687      2591      2871      2959
 -1      1296    8    0    1
 -2       474       691       718      2882      2960      2961
 -1      1297    8    0    1
 -2       474       718       599      2961      2962      2580
 -1      1298    8    0    1
 -2       687       491       719      2870      2963      2964
 -1      1299    8    0    1
 -2       491       702       719      2912      2965      2963
 -1      1300    8    0    1
 -2       473       581       720      2534      2966      2967
 -1      1301    8    0    1
 -2       691       473       720      2881      2967      2968
 -1      1302    8    0    1
 -2       581       715       720      2946      2969      2966
 -1      1303    8    0    1
 -2       469       714       603      2943      2970      2608
 -1      1304    8    0    1
 -2       576       599       721      2895      2971      2972
 -1      1305    8    0    1
 -2       483       576       721      2520      2972      2973
 -1      1306    8    0    1
 -2       599       718       721      2962      2974      2971
 -1      1307    8    0    1
 -2       704       587       707      2916      2923      2975
 -1      1308    8    0    1
 -2       574       575       722      2514      2976      2977
 -1      1309    8    0    1
 -2       695       574       722      2892      2977      2978
 -1      1310    8    0    1
 -2       575       644       722      2744      2979      2976
 -1      1311    8    0    1
 -2       524       647       723      2752      2980      2981
 -1      1312    8    0    1
 -2       602       524       723      2605      2981      2982
 -1      1313    8    0    1
 -2       483       721       609      2973      2983      2639
 -1      1314    8    0    1
 -2       578       696       724      2897      2984      2985
 -1      1315    8    0    1
 -2       578       724       701      2985      2986      2909
 -1      1316    8    0    1
 -2       700       586       725      2907      2987      2988
 -1      1317    8    0    1
 -2       586       704       725      2917      2989      2987
 -1      1318    8    0    1
 -2       607       480       608      2633      2947      2990
 -1      1319    8    0    1
 -2       585       700       705      2908      2991      2918
 -1      1320    8    0    1
 -2       708       589       709      2924      2927      2992
 -1      1321    8    0    1
 -2       347       470       460      2600      2198      2569
 -1      1322    8    0    1
 -2       703       579       726      2914      2993      2994
 -1      1323    8    0    1
 -2       616       703       726      2953      2994      2995
 -1      1324    8    0    1
 -2       579       603       726      2610      2996      2993
 -1      1325    8    0    1
 -2       588       708       707      2925      2997      2922
 -1      1326    8    0    1
 -2       605       604       727      2630      2998      2999
 -1      1327    8    0    1
 -2       606       607       728      2635      3000      3001
 -1      1328    8    0    1
 -2       608       600       602      2638      2604      3002
 -1      1329    8    0    1
 -2       710       706       729      2948      3003      3004
 -1      1330    8    0    1
 -2       594       490       730      2587      3005      3006
 -1      1331    8    0    1
 -2       609       721       731      2983      3007      3008
 -1      1332    8    0    1
 -2       610       609       731      2643      3008      3009
 -1      1333    8    0    1
 -2       721       718       731      2974      3010      3007
 -1      1334    8    0    1
 -2       601       687       732      2959      3011      3012
 -1      1335    8    0    1
 -2       611       610       733      2646      3013      3014
 -1      1336    8    0    1
 -2       612       611       734      2649      3015      3016
 -1      1337    8    0    1
 -2       611       733       734      3014      3017      3015
 -1      1338    8    0    1
 -2       613       612       735      2652      3018      3019
 -1      1339    8    0    1
 -2       612       734       735      3016      3020      3018
 -1      1340    8    0    1
 -2       614       613       736      2655      3021      3022
 -1      1341    8    0    1
 -2       613       735       736      3019      3023      3021
 -1      1342    8    0    1
 -2       490       615       730      2657      3024      3005
 -1      1343    8    0    1
 -2       618       617       737      2666      3025      3026
 -1      1344    8    0    1
 -2       619       618       738      2669      3027      3028
 -1      1345    8    0    1
 -2       618       737       738      3026      3029      3027
 -1      1346    8    0    1
 -2       620       619       739      2672      3030      3031
 -1      1347    8    0    1
 -2       619       738       739      3028      3032      3030
 -1      1348    8    0    1
 -2       621       620       740      2675      3033      3034
 -1      1349    8    0    1
 -2       620       739       740      3031      3035      3033
 -1      1350    8    0    1
 -2       622       621       741      2678      3036      3037
 -1      1351    8    0    1
 -2       621       740       741      3034      3038      3036
 -1      1352    8    0    1
 -2       623       622       742      2681      3039      3040
 -1      1353    8    0    1
 -2       622       741       742      3037      3041      3039
 -1      1354    8    0    1
 -2       624       623       743      2684      3042      3043
 -1      1355    8    0    1
 -2       623       742       743      3040      3044      3042
 -1      1356    8    0    1
 -2       625       624       744      2687      3045      3046
 -1      1357    8    0    1
 -2       624       743       744      3043      3047      3045
 -1      1358    8    0    1
 -2       626       625       745      2690      3048      3049
 -1      1359    8    0    1
 -2       625       744       745      3046      3050      3048
 -1      1360    8    0    1
 -2       627       626       746      2693      3051      3052
 -1      1361    8    0    1
 -2       626       745       746      3049      3053      3051
 -1      1362    8    0    1
 -2       628       627       747      2696      3054      3055
 -1      1363    8    0    1
 -2       627       746       747      3052      3056      3054
 -1      1364    8    0    1
 -2       629       628       748      2699      3057      3058
 -1      1365    8    0    1
 -2       628       747       748      3055      3059      3057
 -1      1366    8    0    1
 -2       630       629       749      2702      3060      3061
 -1      1367    8    0    1
 -2       629       748       749      3058      3062      3060
 -1      1368    8    0    1
 -2       631       630       750      2705      3063      3064
 -1      1369    8    0    1
 -2       630       749       750      3061      3065      3063
 -1      1370    8    0    1
 -2       632       631       751      2708      3066      3067
 -1      1371    8    0    1
 -2       631       750       751      3064      3068      3066
 -1      1372    8    0    1
 -2       633       632       752      2711      3069      3070
 -1      1373    8    0    1
 -2       632       751       752      3067      3071      3069
 -1      1374    8    0    1
 -2       634       633       753      2714      3072      3073
 -1      1375    8    0    1
 -2       633       752       753      3070      3074      3072
 -1      1376    8    0    1
 -2       635       634       754      2717      3075      3076
 -1      1377    8    0    1
 -2       634       753       754      3073      3077      3075
 -1      1378    8    0    1
 -2       636       635       755      2720      3078      3079
 -1      1379    8    0    1
 -2       635       754       755      3076      3080      3078
 -1      1380    8    0    1
 -2       637       636       756      2723      3081      3082
 -1      1381    8    0    1
 -2       636       755       756      3079      3083      3081
 -1      1382    8    0    1
 -2       638       637       757      2726      3084      3085
 -1      1383    8    0    1
 -2       637       756       757      3082      3086      3084
 -1      1384    8    0    1
 -2       639       638       758      2729      3087      3088
 -1      1385    8    0    1
 -2       638       757       758      3085      3089      3087
 -1      1386    8    0    1
 -2       640       639       759      2732      3090      3091
 -1      1387    8    0    1
 -2       639       758       759      3088      3092      3090
 -1      1388    8    0    1
 -2       641       640       760      2735      3093      3094
 -1      1389    8    0    1
 -2       640       759       760      3091      3095      3093
 -1      1390    8    0    1
 -2       642       641       761      2738      3096      3097
 -1      1391    8    0    1
 -2       641       760       761      3094      3098      3096
 -1      1392    8    0    1
 -2       643       642       762      2741      3099      3100
 -1      1393    8    0    1
 -2       642       761       762      3097      3101      3099
 -1      1394    8    0    1
 -2       712       705       763      2937      3102      3103
 -1      1395    8    0    1
 -2       645       646       764      2750      3104      3105
 -1      1396    8    0    1
 -2       647       645       765      2753      3106      3107
 -1      1397    8    0    1
 -2       645       764       765      3105      3108      3106
 -1      1398    8    0    1
 -2       649       650       766      2761      3109      3110
 -1      1399    8    0    1
 -2       648       649       767      2758      3111      3112
 -1      1400    8    0    1
 -2       649       766       767      3110      3113      3111
 -1      1401    8    0    1
 -2       651       652       768      2767      3114      3115
 -1      1402    8    0    1
 -2       652       653       769      2770      3116      3117
 -1      1403    8    0    1
 -2       652       769       768      3117      3118      3114
 -1      1404    8    0    1
 -2       653       654       770      2773      3119      3120
 -1      1405    8    0    1
 -2       653       770       769      3120      3121      3116
 -1      1406    8    0    1
 -2       654       655       771      2776      3122      3123
 -1      1407    8    0    1
 -2       654       771       770      3123      3124      3119
 -1      1408    8    0    1
 -2       655       656       772      2779      3125      3126
 -1      1409    8    0    1
 -2       655       772       771      3126      3127      3122
 -1      1410    8    0    1
 -2       656       657       773      2782      3128      3129
 -1      1411    8    0    1
 -2       656       773       772      3129      3130      3125
 -1      1412    8    0    1
 -2       657       658       774      2785      3131      3132
 -1      1413    8    0    1
 -2       657       774       773      3132      3133      3128
 -1      1414    8    0    1
 -2       658       659       775      2788      3134      3135
 -1      1415    8    0    1
 -2       658       775       774      3135      3136      3131
 -1      1416    8    0    1
 -2       659       660       776      2791      3137      3138
 -1      1417    8    0    1
 -2       659       776       775      3138      3139      3134
 -1      1418    8    0    1
 -2       660       661       777      2794      3140      3141
 -1      1419    8    0    1
 -2       660       777       776      3141      3142      3137
 -1      1420    8    0    1
 -2       661       662       778      2797      3143      3144
 -1      1421    8    0    1
 -2       661       778       777      3144      3145      3140
 -1      1422    8    0    1
 -2       662       663       779      2800      3146      3147
 -1      1423    8    0    1
 -2       662       779       778      3147      3148      3143
 -1      1424    8    0    1
 -2       663       664       780      2803      3149      3150
 -1      1425    8    0    1
 -2       663       780       779      3150      3151      3146
 -1      1426    8    0    1
 -2       664       665       781      2806      3152      3153
 -1      1427    8    0    1
 -2       664       781       780      3153      3154      3149
 -1      1428    8    0    1
 -2       665       666       782      2809      3155      3156
 -1      1429    8    0    1
 -2       665       782       781      3156      3157      3152
 -1      1430    8    0    1
 -2       666       667       783      2812      3158      3159
 -1      1431    8    0    1
 -2       666       783       782      3159      3160      3155
 -1      1432    8    0    1
 -2       667       668       784      2815      3161      3162
 -1      1433    8    0    1
 -2       667       784       783      3162      3163      3158
 -1      1434    8    0    1
 -2       668       669       785      2818      3164      3165
 -1      1435    8    0    1
 -2       668       785       784      3165      3166      3161
 -1      1436    8    0    1
 -2       669       670       786      2821      3167      3168
 -1      1437    8    0    1
 -2       669       786       785      3168      3169      3164
 -1      1438    8    0    1
 -2       670       671       787      2824      3170      3171
 -1      1439    8    0    1
 -2       670       787       786      3171      3172      3167
 -1      1440    8    0    1
 -2       671       672       788      2827      3173      3174
 -1      1441    8    0    1
 -2       671       788       787      3174      3175      3170
 -1      1442    8    0    1
 -2       672       673       789      2830      3176      3177
 -1      1443    8    0    1
 -2       672       789       788      3177      3178      3173
 -1      1444    8    0    1
 -2       673       674       790      2833      3179      3180
 -1      1445    8    0    1
 -2       673       790       789      3180      3181      3176
 -1      1446    8    0    1
 -2       674       675       791      2836      3182      3183
 -1      1447    8    0    1
 -2       674       791       790      3183      3184      3179
 -1      1448    8    0    1
 -2       675       676       792      2839      3185      3186
 -1      1449    8    0    1
 -2       675       792       791      3186      3187      3182
 -1      1450    8    0    1
 -2       676       677       793      2842      3188      3189
 -1      1451    8    0    1
 -2       676       793       792      3189      3190      3185
 -1      1452    8    0    1
 -2       677       678       794      2845      3191      3192
 -1      1453    8    0    1
 -2       677       794       793      3192      3193      3188
 -1      1454    8    0    1
 -2       678       679       795      2848      3194      3195
 -1      1455    8    0    1
 -2       678       795       794      3195      3196      3191
 -1      1456    8    0    1
 -2       679       680       796      2851      3197      3198
 -1      1457    8    0    1
 -2       679       796       795      3198      3199      3194
 -1      1458    8    0    1
 -2       680       681       797      2854      3200      3201
 -1      1459    8    0    1
 -2       680       797       796      3201      3202      3197
 -1      1460    8    0    1
 -2       681       682       798      2857      3203      3204
 -1      1461    8    0    1
 -2       681       798       797      3204      3205      3200
 -1      1462    8    0    1
 -2       682       683       799      2860      3206      3207
 -1      1463    8    0    1
 -2       682       799       798      3207      3208      3203
 -1      1464    8    0    1
 -2       683       684       800      2863      3209      3210
 -1      1465    8    0    1
 -2       683       800       799      3210      3211      3206
 -1      1466    8    0    1
 -2       684       685       801      2866      3212      3213
 -1      1467    8    0    1
 -2       800       684       801      3209      3213      3214
 -1      1468    8    0    1
 -2       685       689       801      2877      3215      3212
 -1      1469    8    0    1
 -2       686       690       802      2880      3216      3217
 -1      1470    8    0    1
 -2       704       707       803      2975      3218      3219
 -1      1471    8    0    1
 -2       692       693       804      2888      3220      3221
 -1      1472    8    0    1
 -2       690       692       805      2885      3222      3223
 -1      1473    8    0    1
 -2       802       690       805      3216      3223      3224
 -1      1474    8    0    1
 -2       692       804       805      3221      3225      3222
 -1      1475    8    0    1
 -2       694       695       806      2894      3226      3227
 -1      1476    8    0    1
 -2       702       701       807      2913      3228      3229
 -1      1477    8    0    1
 -2       602       723       608      2982      3230      3002
 -1      1478    8    0    1
 -2       698       712       808      2957      3231      3232
 -1      1479    8    0    1
 -2       705       700       809      2991      3233      3234
 -1      1480    8    0    1
 -2       705       809       763      3234      3235      3102
 -1      1481    8    0    1
 -2       696       698       810      2904      3236      3237
 -1      1482    8    0    1
 -2       607       608       723      2990      3230      3238
 -1      1483    8    0    1
 -2       708       709       811      2992      3239      3240
 -1      1484    8    0    1
 -2       693       694       812      2891      3241      3242
 -1      1485    8    0    1
 -2       804       693       812      3220      3242      3243
 -1      1486    8    0    1
 -2       694       806       812      3227      3244      3241
 -1      1487    8    0    1
 -2       709       710       813      2930      3245      3246
 -1      1488    8    0    1
 -2       811       709       813      3239      3246      3247
 -1      1489    8    0    1
 -2       710       729       813      3004      3248      3245
 -1      1490    8    0    1
 -2       688       686       814      2874      3249      3250
 -1      1491    8    0    1
 -2       686       802       814      3217      3251      3249
 -1      1492    8    0    1
 -2       650       651       815      2764      3252      3253
 -1      1493    8    0    1
 -2       766       650       815      3109      3253      3254
 -1      1494    8    0    1
 -2       651       768       815      3115      3255      3252
 -1      1495    8    0    1
 -2       593       594       730      2565      3006      3256
 -1      1496    8    0    1
 -2       617       616       816      2663      3257      3258
 -1      1497    8    0    1
 -2       617       816       737      3258      3259      3025
 -1      1498    8    0    1
 -2       707       708       817      2997      3260      3261
 -1      1499    8    0    1
 -2       707       817       803      3261      3262      3218
 -1      1500    8    0    1
 -2       603       714       818      2970      3263      3264
 -1      1501    8    0    1
 -2       607       723       728      3238      3265      3000
 -1      1502    8    0    1
 -2       606       728       819      3001      3266      3267
 -1      1503    8    0    1
 -2       606       819       697      3267      3268      2901
 -1      1504    8    0    1
 -2       698       808       810      3232      3269      3236
 -1      1505    8    0    1
 -2       729       706       820      3003      3270      3271
 -1      1506    8    0    1
 -2       706       717       820      2955      3272      3270
 -1      1507    8    0    1
 -2       701       724       821      2986      3273      3274
 -1      1508    8    0    1
 -2       701       821       807      3274      3275      3228
 -1      1509    8    0    1
 -2       610       731       733      3009      3276      3013
 -1      1510    8    0    1
 -2       716       601       732      2949      3012      3277
 -1      1511    8    0    1
 -2       730       615       699      3024      3278      3279
 -1      1512    8    0    1
 -2       614       736       717      3022      3280      3281
 -1      1513    8    0    1
 -2       615       614       717      2658      3281      3282
 -1      1514    8    0    1
 -2       718       691       822      2960      3283      3284
 -1      1515    8    0    1
 -2       696       810       823      3237      3285      3286
 -1      1516    8    0    1
 -2       696       823       724      3286      3287      2984
 -1      1517    8    0    1
 -2       644       643       722      2745      3288      2979
 -1      1518    8    0    1
 -2       648       767       824      3112      3289      3290
 -1      1519    8    0    1
 -2       648       824       711      3290      3291      2934
 -1      1520    8    0    1
 -2       806       695       762      3226      3292      3293
 -1      1521    8    0    1
 -2       801       689       825      3215      3294      3295
 -1      1522    8    0    1
 -2       689       713       825      2940      3296      3294
 -1      1523    8    0    1
 -2       603       818       726      3264      3297      2996
 -1      1524    8    0    1
 -2       719       702       807      2965      3229      3298
 -1      1525    8    0    1
 -2       704       803       826      3219      3299      3300
 -1      1526    8    0    1
 -2       704       826       725      3300      3301      2989
 -1      1527    8    0    1
 -2       699       615       717      3278      3282      2956
 -1      1528    8    0    1
 -2       822       691       827      3283      3302      3303
 -1      1529    8    0    1
 -2       691       720       827      2968      3304      3302
 -1      1530    8    0    1
 -2       762       695       722      3292      2978      3305
 -1      1531    8    0    1
 -2       723       647       828      2980      3306      3307
 -1      1532    8    0    1
 -2       708       811       817      3240      3308      3260
 -1      1533    8    0    1
 -2       808       712       763      3231      3103      3309
 -1      1534    8    0    1
 -2       809       700       829      3233      3310      3311
 -1      1535    8    0    1
 -2       700       725       829      2988      3312      3310
 -1      1536    8    0    1
 -2       722       643       762      3288      3100      3305
 -1      1537    8    0    1
 -2       604       697       830      2900      3313      3314
 -1      1538    8    0    1
 -2       727       604       830      2998      3314      3315
 -1      1539    8    0    1
 -2       697       819       830      3268      3316      3313
 -1      1540    8    0    1
 -2       764       646       831      3104      3317      3318
 -1      1541    8    0    1
 -2       646       711       831      2933      3319      3317
 -1      1542    8    0    1
 -2       714       716       832      2951      3320      3321
 -1      1543    8    0    1
 -2       714       832       818      3321      3322      3263
 -1      1544    8    0    1
 -2       723       828       728      3307      3323      3265
 -1      1545    8    0    1
 -2       816       616       726      3257      2995      3324
 -1      1546    8    0    1
 -2       713       688       833      2941      3325      3326
 -1      1547    8    0    1
 -2       825       713       833      3296      3326      3327
 -1      1548    8    0    1
 -2       688       814       833      3250      3328      3325
 -1      1549    8    0    1
 -2       715       605       834      2944      3329      3330
 -1      1550    8    0    1
 -2       605       727       834      2999      3331      3329
 -1      1551    8    0    1
 -2       732       687       835      3011      3332      3333
 -1      1552    8    0    1
 -2       687       719       835      2964      3334      3332
 -1      1553    8    0    1
 -2       828       647       765      3306      3107      3335
 -1      1554    8    0    1
 -2       717       736       820      3280      3336      3272
 -1      1555    8    0    1
 -2       716       732       836      3277      3337      3338
 -1      1556    8    0    1
 -2       716       836       832      3338      3339      3320
 -1      1557    8    0    1
 -2       718       822       731      3284      3340      3010
 -1      1558    8    0    1
 -2       735       734       837      3020      3341      3342
 -1      1559    8    0    1
 -2       736       735       838      3023      3343      3344
 -1      1560    8    0    1
 -2       735       837       838      3342      3345      3343
 -1      1561    8    0    1
 -2       738       737       839      3029      3346      3347
 -1      1562    8    0    1
 -2       803       817       840      3262      3348      3349
 -1      1563    8    0    1
 -2       739       738       841      3032      3350      3351
 -1      1564    8    0    1
 -2       738       839       841      3347      3352      3350
 -1      1565    8    0    1
 -2       740       739       842      3035      3353      3354
 -1      1566    8    0    1
 -2       739       841       842      3351      3355      3353
 -1      1567    8    0    1
 -2       741       740       843      3038      3356      3357
 -1      1568    8    0    1
 -2       740       842       843      3354      3358      3356
 -1      1569    8    0    1
 -2       742       741       844      3041      3359      3360
 -1      1570    8    0    1
 -2       741       843       844      3357      3361      3359
 -1      1571    8    0    1
 -2       743       742       845      3044      3362      3363
 -1      1572    8    0    1
 -2       742       844       845      3360      3364      3362
 -1      1573    8    0    1
 -2       744       743       846      3047      3365      3366
 -1      1574    8    0    1
 -2       743       845       846      3363      3367      3365
 -1      1575    8    0    1
 -2       745       744       847      3050      3368      3369
 -1      1576    8    0    1
 -2       744       846       847      3366      3370      3368
 -1      1577    8    0    1
 -2       746       745       848      3053      3371      3372
 -1      1578    8    0    1
 -2       745       847       848      3369      3373      3371
 -1      1579    8    0    1
 -2       747       746       849      3056      3374      3375
 -1      1580    8    0    1
 -2       746       848       849      3372      3376      3374
 -1      1581    8    0    1
 -2       748       747       850      3059      3377      3378
 -1      1582    8    0    1
 -2       747       849       850      3375      3379      3377
 -1      1583    8    0    1
 -2       749       748       851      3062      3380      3381
 -1      1584    8    0    1
 -2       748       850       851      3378      3382      3380
 -1      1585    8    0    1
 -2       750       749       852      3065      3383      3384
 -1      1586    8    0    1
 -2       749       851       852      3381      3385      3383
 -1      1587    8    0    1
 -2       751       750       853      3068      3386      3387
 -1      1588    8    0    1
 -2       750       852       853      3384      3388      3386
 -1      1589    8    0    1
 -2       752       751       854      3071      3389      3390
 -1      1590    8    0    1
 -2       751       853       854      3387      3391      3389
 -1      1591    8    0    1
 -2       753       752       855      3074      3392      3393
 -1      1592    8    0    1
 -2       752       854       855      3390      3394      3392
 -1      1593    8    0    1
 -2       754       753       856      3077      3395      3396
 -1      1594    8    0    1
 -2       753       855       856      3393      3397      3395
 -1      1595    8    0    1
 -2       755       754       857      3080      3398      3399
 -1      1596    8    0    1
 -2       754       856       857      3396      3400      3398
 -1      1597    8    0    1
 -2       756       755       858      3083      3401      3402
 -1      1598    8    0    1
 -2       755       857       858      3399      3403      3401
 -1      1599    8    0    1
 -2       757       756       859      3086      3404      3405
 -1      1600    8    0    1
 -2       756       858       859      3402      3406      3404
 -1      1601    8    0    1
 -2       758       757       860      3089      3407      3408
 -1      1602    8    0    1
 -2       757       859       860      3405      3409      3407
 -1      1603    8    0    1
 -2       759       758       861      3092      3410      3411
 -1      1604    8    0    1
 -2       758       860       861      3408      3412      3410
 -1      1605    8    0    1
 -2       760       759       862      3095      3413      3414
 -1      1606    8    0    1
 -2       759       861       862      3411      3415      3413
 -1      1607    8    0    1
 -2       761       760       863      3098      3416      3417
 -1      1608    8    0    1
 -2       760       862       863      3414      3418      3416
 -1      1609    8    0    1
 -2       762       761       864      3101      3419      3420
 -1      1610    8    0    1
 -2       806       762       864      3293      3420      3421
 -1      1611    8    0    1
 -2       761       863       864      3417      3422      3419
 -1      1612    8    0    1
 -2       593       730       699      3256      3279      2905
 -1      1613    8    0    1
 -2       769       770       865      3121      3423      3424
 -1      1614    8    0    1
 -2       768       769       866      3118      3425      3426
 -1      1615    8    0    1
 -2       769       865       866      3424      3427      3425
 -1      1616    8    0    1
 -2       771       772       867      3127      3428      3429
 -1      1617    8    0    1
 -2       772       773       868      3130      3430      3431
 -1      1618    8    0    1
 -2       772       868       867      3431      3432      3428
 -1      1619    8    0    1
 -2       773       774       869      3133      3433      3434
 -1      1620    8    0    1
 -2       773       869       868      3434      3435      3430
 -1      1621    8    0    1
 -2       774       775       870      3136      3436      3437
 -1      1622    8    0    1
 -2       774       870       869      3437      3438      3433
 -1      1623    8    0    1
 -2       775       776       871      3139      3439      3440
 -1      1624    8    0    1
 -2       775       871       870      3440      3441      3436
 -1      1625    8    0    1
 -2       776       777       872      3142      3442      3443
 -1      1626    8    0    1
 -2       776       872       871      3443      3444      3439
 -1      1627    8    0    1
 -2       777       778       873      3145      3445      3446
 -1      1628    8    0    1
 -2       777       873       872      3446      3447      3442
 -1      1629    8    0    1
 -2       778       779       874      3148      3448      3449
 -1      1630    8    0    1
 -2       778       874       873      3449      3450      3445
 -1      1631    8    0    1
 -2       779       780       875      3151      3451      3452
 -1      1632    8    0    1
 -2       779       875       874      3452      3453      3448
 -1      1633    8    0    1
 -2       780       781       876      3154      3454      3455
 -1      1634    8    0    1
 -2       780       876       875      3455      3456      3451
 -1      1635    8    0    1
 -2       781       782       877      3157      3457      3458
 -1      1636    8    0    1
 -2       781       877       876      3458      3459      3454
 -1      1637    8    0    1
 -2       782       783       878      3160      3460      3461
 -1      1638    8    0    1
 -2       782       878       877      3461      3462      3457
 -1      1639    8    0    1
 -2       783       784       879      3163      3463      3464
 -1      1640    8    0    1
 -2       783       879       878      3464      3465      3460
 -1      1641    8    0    1
 -2       784       785       880      3166      3466      3467
 -1      1642    8    0    1
 -2       784       880       879      3467      3468      3463
 -1      1643    8    0    1
 -2       785       786       881      3169      3469      3470
 -1      1644    8    0    1
 -2       785       881       880      3470      3471      3466
 -1      1645    8    0    1
 -2       786       787       882      3172      3472      3473
 -1      1646    8    0    1
 -2       786       882       881      3473      3474      3469
 -1      1647    8    0    1
 -2       787       788       883      3175      3475      3476
 -1      1648    8    0    1
 -2       787       883       882      3476      3477      3472
 -1      1649    8    0    1
 -2       788       789       884      3178      3478      3479
 -1      1650    8    0    1
 -2       788       884       883      3479      3480      3475
 -1      1651    8    0    1
 -2       789       790       885      3181      3481      3482
 -1      1652    8    0    1
 -2       789       885       884      3482      3483      3478
 -1      1653    8    0    1
 -2       790       791       886      3184      3484      3485
 -1      1654    8    0    1
 -2       790       886       885      3485      3486      3481
 -1      1655    8    0    1
 -2       791       792       887      3187      3487      3488
 -1      1656    8    0    1
 -2       791       887       886      3488      3489      3484
 -1      1657    8    0    1
 -2       792       793       888      3190      3490      3491
 -1      1658    8    0    1
 -2       792       888       887      3491      3492      3487
 -1      1659    8    0    1
 -2       793       794       889      3193      3493      3494
 -1      1660    8    0    1
 -2       793       889       888      3494      3495      3490
 -1      1661    8    0    1
 -2       794       795       890      3196      3496      3497
 -1      1662    8    0    1
 -2       794       890       889      3497      3498      3493
 -1      1663    8    0    1
 -2       795       796       891      3199      3499      3500
 -1      1664    8    0    1
 -2       795       891       890      3500      3501      3496
 -1      1665    8    0    1
 -2       796       797       892      3202      3502      3503
 -1      1666    8    0    1
 -2       796       892       891      3503      3504      3499
 -1      1667    8    0    1
 -2       797       798       893      3205      3505      3506
 -1      1668    8    0    1
 -2       797       893       892      3506      3507      3502
 -1      1669    8    0    1
 -2       798       799       894      3208      3508      3509
 -1      1670    8    0    1
 -2       798       894       893      3509      3510      3505
 -1      1671    8    0    1
 -2       799       800       895      3211      3511      3512
 -1      1672    8    0    1
 -2       799       895       894      3512      3513      3508
 -1      1673    8    0    1
 -2       800       801       896      3214      3514      3515
 -1      1674    8    0    1
 -2       895       800       896      3511      3515      3516
 -1      1675    8    0    1
 -2       801       825       896      3295      3517      3514
 -1      1676    8    0    1
 -2       720       715       897      2969      3518      3519
 -1      1677    8    0    1
 -2       720       897       827      3519      3520      3304
 -1      1678    8    0    1
 -2       733       731       822      3276      3340      3521
 -1      1679    8    0    1
 -2       817       811       898      3308      3522      3523
 -1      1680    8    0    1
 -2       810       808       899      3269      3524      3525
 -1      1681    8    0    1
 -2       770       771       900      3124      3526      3527
 -1      1682    8    0    1
 -2       865       770       900      3423      3527      3528
 -1      1683    8    0    1
 -2       771       867       900      3429      3529      3526
 -1      1684    8    0    1
 -2       767       766       901      3113      3530      3531
 -1      1685    8    0    1
 -2       765       764       902      3108      3532      3533
 -1      1686    8    0    1
 -2       763       809       903      3235      3534      3535
 -1      1687    8    0    1
 -2       719       807       904      3298      3536      3537
 -1      1688    8    0    1
 -2       814       802       905      3251      3538      3539
 -1      1689    8    0    1
 -2       734       733       906      3017      3540      3541
 -1      1690    8    0    1
 -2       734       906       837      3541      3542      3341
 -1      1691    8    0    1
 -2       808       763       900      3309      3543      3544
 -1      1692    8    0    1
 -2       728       828       907      3323      3545      3546
 -1      1693    8    0    1
 -2       728       907       819      3546      3547      3266
 -1      1694    8    0    1
 -2       828       765       908      3335      3548      3549
 -1      1695    8    0    1
 -2       907       828       908      3545      3549      3550
 -1      1696    8    0    1
 -2       765       902       908      3533      3551      3548
 -1      1697    8    0    1
 -2       733       822       909      3521      3552      3553
 -1      1698    8    0    1
 -2       906       733       909      3540      3553      3554
 -1      1699    8    0    1
 -2       822       827       909      3303      3555      3552
 -1      1700    8    0    1
 -2       821       724       823      3273      3287      3556
 -1      1701    8    0    1
 -2       737       816       910      3259      3557      3558
 -1      1702    8    0    1
 -2       823       810       911      3285      3559      3560
 -1      1703    8    0    1
 -2       810       899       911      3525      3561      3559
 -1      1704    8    0    1
 -2       836       732       912      3337      3562      3563
 -1      1705    8    0    1
 -2       732       835       912      3333      3564      3562
 -1      1706    8    0    1
 -2       808       900       899      3544      3565      3524
 -1      1707    8    0    1
 -2       736       838       820      3344      3566      3336
 -1      1708    8    0    1
 -2       839       737       910      3346      3558      3567
 -1      1709    8    0    1
 -2       803       840       913      3349      3568      3569
 -1      1710    8    0    1
 -2       803       913       826      3569      3570      3299
 -1      1711    8    0    1
 -2       807       821       914      3275      3571      3572
 -1      1712    8    0    1
 -2       807       914       904      3572      3573      3536
 -1      1713    8    0    1
 -2       834       727       915      3331      3574      3575
 -1      1714    8    0    1
 -2       824       767       916      3289      3576      3577
 -1      1715    8    0    1
 -2       767       901       916      3531      3578      3576
 -1      1716    8    0    1
 -2       840       817       898      3348      3523      3579
 -1      1717    8    0    1
 -2       768       866       917      3426      3580      3581
 -1      1718    8    0    1
 -2       768       917       815      3581      3582      3255
 -1      1719    8    0    1
 -2       897       715       834      3518      3330      3583
 -1      1720    8    0    1
 -2       811       813       918      3247      3584      3585
 -1      1721    8    0    1
 -2       764       831       919      3318      3586      3587
 -1      1722    8    0    1
 -2       764       919       902      3587      3588      3532
 -1      1723    8    0    1
 -2       802       805       920      3224      3589      3590
 -1      1724    8    0    1
 -2       802       920       905      3590      3591      3538
 -1      1725    8    0    1
 -2       898       811       918      3522      3585      3592
 -1      1726    8    0    1
 -2       725       826       921      3301      3593      3594
 -1      1727    8    0    1
 -2       725       921       829      3594      3595      3312
 -1      1728    8    0    1
 -2       812       806       922      3244      3596      3597
 -1      1729    8    0    1
 -2       806       864       922      3421      3598      3596
 -1      1730    8    0    1
 -2       711       824       831      3291      3599      3319
 -1      1731    8    0    1
 -2       805       804       923      3225      3600      3601
 -1      1732    8    0    1
 -2       805       923       920      3601      3602      3589
 -1      1733    8    0    1
 -2       813       729       924      3248      3603      3604
 -1      1734    8    0    1
 -2       813       924       918      3604      3605      3584
 -1      1735    8    0    1
 -2       719       904       835      3537      3606      3334
 -1      1736    8    0    1
 -2       727       830       925      3315      3607      3608
 -1      1737    8    0    1
 -2       727       925       915      3608      3609      3574
 -1      1738    8    0    1
 -2       766       815       926      3254      3610      3611
 -1      1739    8    0    1
 -2       901       766       926      3530      3611      3612
 -1      1740    8    0    1
 -2       815       917       926      3582      3613      3610
 -1      1741    8    0    1
 -2       729       820       927      3271      3614      3615
 -1      1742    8    0    1
 -2       924       729       927      3603      3615      3616
 -1      1743    8    0    1
 -2       820       838       927      3566      3617      3614
 -1      1744    8    0    1
 -2       814       905       928      3539      3618      3619
 -1      1745    8    0    1
 -2       814       928       833      3619      3620      3328
 -1      1746    8    0    1
 -2       804       812       929      3243      3621      3622
 -1      1747    8    0    1
 -2       923       804       929      3600      3622      3623
 -1      1748    8    0    1
 -2       812       922       929      3597      3624      3621
 -1      1749    8    0    1
 -2       726       818       816      3297      3625      3324
 -1      1750    8    0    1
 -2       816       818       832      3625      3322      3626
 -1      1751    8    0    1
 -2       816       832       910      3626      3627      3557
 -1      1752    8    0    1
 -2       821       823       930      3556      3628      3629
 -1      1753    8    0    1
 -2       832       836       910      3339      3630      3627
 -1      1754    8    0    1
 -2       838       837       931      3345      3631      3632
 -1      1755    8    0    1
 -2       869       870       932      3438      3633      3634
 -1      1756    8    0    1
 -2       830       819       933      3316      3635      3636
 -1      1757    8    0    1
 -2       925       830       933      3607      3636      3637
 -1      1758    8    0    1
 -2       819       907       933      3547      3638      3635
 -1      1759    8    0    1
 -2       842       841       934      3355      3639      3640
 -1      1760    8    0    1
 -2       843       842       935      3358      3641      3642
 -1      1761    8    0    1
 -2       842       934       935      3640      3643      3641
 -1      1762    8    0    1
 -2       844       843       936      3361      3644      3645
 -1      1763    8    0    1
 -2       843       935       936      3642      3646      3644
 -1      1764    8    0    1
 -2       845       844       937      3364      3647      3648
 -1      1765    8    0    1
 -2       844       936       937      3645      3649      3647
 -1      1766    8    0    1
 -2       846       845       938      3367      3650      3651
 -1      1767    8    0    1
 -2       845       937       938      3648      3652      3650
 -1      1768    8    0    1
 -2       847       846       939      3370      3653      3654
 -1      1769    8    0    1
 -2       846       938       939      3651      3655      3653
 -1      1770    8    0    1
 -2       848       847       940      3373      3656      3657
 -1      1771    8    0    1
 -2       847       939       940      3654      3658      3656
 -1      1772    8    0    1
 -2       849       848       941      3376      3659      3660
 -1      1773    8    0    1
 -2       848       940       941      3657      3661      3659
 -1      1774    8    0    1
 -2       850       849       942      3379      3662      3663
 -1      1775    8    0    1
 -2       849       941       942      3660      3664      3662
 -1      1776    8    0    1
 -2       851       850       943      3382      3665      3666
 -1      1777    8    0    1
 -2       850       942       943      3663      3667      3665
 -1      1778    8    0    1
 -2       852       851       944      3385      3668      3669
 -1      1779    8    0    1
 -2       851       943       944      3666      3670      3668
 -1      1780    8    0    1
 -2       853       852       945      3388      3671      3672
 -1      1781    8    0    1
 -2       852       944       945      3669      3673      3671
 -1      1782    8    0    1
 -2       854       853       946      3391      3674      3675
 -1      1783    8    0    1
 -2       853       945       946      3672      3676      3674
 -1      1784    8    0    1
 -2       855       854       947      3394      3677      3678
 -1      1785    8    0    1
 -2       854       946       947      3675      3679      3677
 -1      1786    8    0    1
 -2       856       855       948      3397      3680      3681
 -1      1787    8    0    1
 -2       855       947       948      3678      3682      3680
 -1      1788    8    0    1
 -2       857       856       949      3400      3683      3684
 -1      1789    8    0    1
 -2       856       948       949      3681      3685      3683
 -1      1790    8    0    1
 -2       858       857       950      3403      3686      3687
 -1      1791    8    0    1
 -2       857       949       950      3684      3688      3686
 -1      1792    8    0    1
 -2       859       858       951      3406      3689      3690
 -1      1793    8    0    1
 -2       858       950       951      3687      3691      3689
 -1      1794    8    0    1
 -2       860       859       952      3409      3692      3693
 -1      1795    8    0    1
 -2       859       951       952      3690      3694      3692
 -1      1796    8    0    1
 -2       861       860       953      3412      3695      3696
 -1      1797    8    0    1
 -2       860       952       953      3693      3697      3695
 -1      1798    8    0    1
 -2       862       861       954      3415      3698      3699
 -1      1799    8    0    1
 -2       861       953       954      3696      3700      3698
 -1      1800    8    0    1
 -2       863       862       955      3418      3701      3702
 -1      1801    8    0    1
 -2       862       954       955      3699      3703      3701
 -1      1802    8    0    1
 -2       864       863       956      3422      3704      3705
 -1      1803    8    0    1
 -2       922       864       956      3598      3705      3706
 -1      1804    8    0    1
 -2       863       955       956      3702      3707      3704
 -1      1805    8    0    1
 -2       834       915       957      3575      3708      3709
 -1      1806    8    0    1
 -2       834       957       897      3709      3710      3583
 -1      1807    8    0    1
 -2       866       865       903      3427      3711      3712
 -1      1808    8    0    1
 -2       839       910       958      3567      3713      3714
 -1      1809    8    0    1
 -2       910       836       958      3630      3715      3713
 -1      1810    8    0    1
 -2       868       869       930      3435      3716      3717
 -1      1811    8    0    1
 -2       867       868       911      3432      3718      3719
 -1      1812    8    0    1
 -2       870       871       959      3441      3720      3721
 -1      1813    8    0    1
 -2       870       959       932      3721      3722      3633
 -1      1814    8    0    1
 -2       871       872       960      3444      3723      3724
 -1      1815    8    0    1
 -2       871       960       959      3724      3725      3720
 -1      1816    8    0    1
 -2       872       873       961      3447      3726      3727
 -1      1817    8    0    1
 -2       872       961       960      3727      3728      3723
 -1      1818    8    0    1
 -2       873       874       962      3450      3729      3730
 -1      1819    8    0    1
 -2       873       962       961      3730      3731      3726
 -1      1820    8    0    1
 -2       874       875       963      3453      3732      3733
 -1      1821    8    0    1
 -2       874       963       962      3733      3734      3729
 -1      1822    8    0    1
 -2       875       876       964      3456      3735      3736
 -1      1823    8    0    1
 -2       875       964       963      3736      3737      3732
 -1      1824    8    0    1
 -2       876       877       965      3459      3738      3739
 -1      1825    8    0    1
 -2       876       965       964      3739      3740      3735
 -1      1826    8    0    1
 -2       877       878       966      3462      3741      3742
 -1      1827    8    0    1
 -2       877       966       965      3742      3743      3738
 -1      1828    8    0    1
 -2       878       879       967      3465      3744      3745
 -1      1829    8    0    1
 -2       878       967       966      3745      3746      3741
 -1      1830    8    0    1
 -2       879       880       968      3468      3747      3748
 -1      1831    8    0    1
 -2       879       968       967      3748      3749      3744
 -1      1832    8    0    1
 -2       880       881       969      3471      3750      3751
 -1      1833    8    0    1
 -2       880       969       968      3751      3752      3747
 -1      1834    8    0    1
 -2       881       882       970      3474      3753      3754
 -1      1835    8    0    1
 -2       881       970       969      3754      3755      3750
 -1      1836    8    0    1
 -2       882       883       971      3477      3756      3757
 -1      1837    8    0    1
 -2       882       971       970      3757      3758      3753
 -1      1838    8    0    1
 -2       883       884       972      3480      3759      3760
 -1      1839    8    0    1
 -2       883       972       971      3760      3761      3756
 -1      1840    8    0    1
 -2       884       885       973      3483      3762      3763
 -1      1841    8    0    1
 -2       884       973       972      3763      3764      3759
 -1      1842    8    0    1
 -2       885       886       974      3486      3765      3766
 -1      1843    8    0    1
 -2       885       974       973      3766      3767      3762
 -1      1844    8    0    1
 -2       886       887       975      3489      3768      3769
 -1      1845    8    0    1
 -2       886       975       974      3769      3770      3765
 -1      1846    8    0    1
 -2       887       888       976      3492      3771      3772
 -1      1847    8    0    1
 -2       887       976       975      3772      3773      3768
 -1      1848    8    0    1
 -2       888       889       977      3495      3774      3775
 -1      1849    8    0    1
 -2       888       977       976      3775      3776      3771
 -1      1850    8    0    1
 -2       889       890       978      3498      3777      3778
 -1      1851    8    0    1
 -2       889       978       977      3778      3779      3774
 -1      1852    8    0    1
 -2       890       891       979      3501      3780      3781
 -1      1853    8    0    1
 -2       890       979       978      3781      3782      3777
 -1      1854    8    0    1
 -2       891       892       980      3504      3783      3784
 -1      1855    8    0    1
 -2       891       980       979      3784      3785      3780
 -1      1856    8    0    1
 -2       892       893       981      3507      3786      3787
 -1      1857    8    0    1
 -2       892       981       980      3787      3788      3783
 -1      1858    8    0    1
 -2       893       894       982      3510      3789      3790
 -1      1859    8    0    1
 -2       893       982       981      3790      3791      3786
 -1      1860    8    0    1
 -2       894       895       983      3513      3792      3793
 -1      1861    8    0    1
 -2       894       983       982      3793      3794      3789
 -1      1862    8    0    1
 -2       835       904       984      3606      3795      3796
 -1      1863    8    0    1
 -2       900       867       899      3529      3797      3565
 -1      1864    8    0    1
 -2       827       897       985      3520      3798      3799
 -1      1865    8    0    1
 -2       897       957       985      3710      3800      3798
 -1      1866    8    0    1
 -2       918       924       986      3605      3801      3802
 -1      1867    8    0    1
 -2       840       898       987      3579      3803      3804
 -1      1868    8    0    1
 -2       763       903       900      3535      3805      3543
 -1      1869    8    0    1
 -2       831       824       988      3599      3806      3807
 -1      1870    8    0    1
 -2       919       831       988      3586      3807      3808
 -1      1871    8    0    1
 -2       824       916       988      3577      3809      3806
 -1      1872    8    0    1
 -2       809       829       989      3311      3810      3811
 -1      1873    8    0    1
 -2       837       906       990      3542      3812      3813
 -1      1874    8    0    1
 -2       837       990       931      3813      3814      3631
 -1      1875    8    0    1
 -2       866       903       989      3712      3815      3816
 -1      1876    8    0    1
 -2       903       809       989      3534      3811      3815
 -1      1877    8    0    1
 -2       825       833       896      3327      3817      3517
 -1      1878    8    0    1
 -2       898       918       991      3592      3818      3819
 -1      1879    8    0    1
 -2       841       839       992      3352      3820      3821
 -1      1880    8    0    1
 -2       934       841       992      3639      3821      3822
 -1      1881    8    0    1
 -2       839       958       992      3714      3823      3820
 -1      1882    8    0    1
 -2       866       989       917      3816      3824      3580
 -1      1883    8    0    1
 -2       989       829       993      3810      3825      3826
 -1      1884    8    0    1
 -2       917       989       993      3824      3826      3827
 -1      1885    8    0    1
 -2       829       921       993      3595      3828      3825
 -1      1886    8    0    1
 -2       899       867       911      3797      3719      3561
 -1      1887    8    0    1
 -2       823       911       930      3560      3829      3628
 -1      1888    8    0    1
 -2       912       835       984      3564      3796      3830
 -1      1889    8    0    1
 -2       869       932       930      3634      3831      3716
 -1      1890    8    0    1
 -2       916       901       994      3578      3832      3833
 -1      1891    8    0    1
 -2       913       840       995      3568      3834      3835
 -1      1892    8    0    1
 -2       840       987       995      3804      3836      3834
 -1      1893    8    0    1
 -2       918       986       991      3802      3837      3818
 -1      1894    8    0    1
 -2       958       836       912      3715      3563      3838
 -1      1895    8    0    1
 -2       983       895       928      3792      3839      3840
 -1      1896    8    0    1
 -2       984       904       996      3795      3841      3842
 -1      1897    8    0    1
 -2       895       896       928      3516      3843      3839
 -1      1898    8    0    1
 -2       898       991       987      3819      3844      3803
 -1      1899    8    0    1
 -2       986       924       931      3801      3845      3846
 -1      1900    8    0    1
 -2       904       914       996      3573      3847      3841
 -1      1901    8    0    1
 -2       833       928       896      3620      3843      3817
 -1      1902    8    0    1
 -2       902       919       997      3588      3848      3849
 -1      1903    8    0    1
 -2       957       915       998      3708      3850      3851
 -1      1904    8    0    1
 -2       911       868       930      3718      3717      3829
 -1      1905    8    0    1
 -2       928       905       999      3618      3852      3853
 -1      1906    8    0    1
 -2       928       999       983      3853      3854      3840
 -1      1907    8    0    1
 -2       905       920      1000      3591      3855      3856
 -1      1908    8    0    1
 -2       905      1000       999      3856      3857      3852
 -1      1909    8    0    1
 -2       906       909       990      3554      3858      3812
 -1      1910    8    0    1
 -2       907       908       933      3550      3859      3638
 -1      1911    8    0    1
 -2       902       997      1001      3849      3860      3861
 -1      1912    8    0    1
 -2       902      1001       908      3861      3862      3551
 -1      1913    8    0    1
 -2       909       827       985      3555      3799      3863
 -1      1914    8    0    1
 -2       920       923      1002      3602      3864      3865
 -1      1915    8    0    1
 -2       920      1002      1000      3865      3866      3855
 -1      1916    8    0    1
 -2       923       929      1003      3623      3867      3868
 -1      1917    8    0    1
 -2       923      1003      1002      3868      3869      3864
 -1      1918    8    0    1
 -2       915       925      1004      3609      3870      3871
 -1      1919    8    0    1
 -2       915      1004       998      3871      3872      3850
 -1      1920    8    0    1
 -2       994       901       921      3832      3873      3874
 -1      1921    8    0    1
 -2       990       909       985      3858      3863      3875
 -1      1922    8    0    1
 -2       821       930      1005      3629      3876      3877
 -1      1923    8    0    1
 -2       990       985      1006      3875      3878      3879
 -1      1924    8    0    1
 -2       914       821      1005      3571      3877      3880
 -1      1925    8    0    1
 -2       901       926       921      3612      3881      3873
 -1      1926    8    0    1
 -2       925       933      1001      3637      3882      3883
 -1      1927    8    0    1
 -2       826       913       921      3570      3884      3593
 -1      1928    8    0    1
 -2       935       934      1007      3643      3885      3886
 -1      1929    8    0    1
 -2       936       935      1008      3646      3887      3888
 -1      1930    8    0    1
 -2       935      1007      1008      3886      3889      3887
 -1      1931    8    0    1
 -2       937       936      1009      3649      3890      3891
 -1      1932    8    0    1
 -2       936      1008      1009      3888      3892      3890
 -1      1933    8    0    1
 -2       938       937      1010      3652      3893      3894
 -1      1934    8    0    1
 -2       937      1009      1010      3891      3895      3893
 -1      1935    8    0    1
 -2       939       938      1011      3655      3896      3897
 -1      1936    8    0    1
 -2       938      1010      1011      3894      3898      3896
 -1      1937    8    0    1
 -2       940       939      1012      3658      3899      3900
 -1      1938    8    0    1
 -2       939      1011      1012      3897      3901      3899
 -1      1939    8    0    1
 -2       941       940      1013      3661      3902      3903
 -1      1940    8    0    1
 -2       940      1012      1013      3900      3904      3902
 -1      1941    8    0    1
 -2       942       941      1014      3664      3905      3906
 -1      1942    8    0    1
 -2       941      1013      1014      3903      3907      3905
 -1      1943    8    0    1
 -2       943       942      1015      3667      3908      3909
 -1      1944    8    0    1
 -2       942      1014      1015      3906      3910      3908
 -1      1945    8    0    1
 -2       944       943      1016      3670      3911      3912
 -1      1946    8    0    1
 -2       943      1015      1016      3909      3913      3911
 -1      1947    8    0    1
 -2       945       944      1017      3673      3914      3915
 -1      1948    8    0    1
 -2       944      1016      1017      3912      3916      3914
 -1      1949    8    0    1
 -2       946       945      1018      3676      3917      3918
 -1      1950    8    0    1
 -2       945      1017      1018      3915      3919      3917
 -1      1951    8    0    1
 -2       947       946      1019      3679      3920      3921
 -1      1952    8    0    1
 -2       946      1018      1019      3918      3922      3920
 -1      1953    8    0    1
 -2       948       947      1020      3682      3923      3924
 -1      1954    8    0    1
 -2       947      1019      1020      3921      3925      3923
 -1      1955    8    0    1
 -2       949       948      1021      3685      3926      3927
 -1      1956    8    0    1
 -2       948      1020      1021      3924      3928      3926
 -1      1957    8    0    1
 -2       950       949      1022      3688      3929      3930
 -1      1958    8    0    1
 -2       949      1021      1022      3927      3931      3929
 -1      1959    8    0    1
 -2       951       950      1023      3691      3932      3933
 -1      1960    8    0    1
 -2       950      1022      1023      3930      3934      3932
 -1      1961    8    0    1
 -2       952       951      1024      3694      3935      3936
 -1      1962    8    0    1
 -2       951      1023      1024      3933      3937      3935
 -1      1963    8    0    1
 -2       953       952      1025      3697      3938      3939
 -1      1964    8    0    1
 -2       952      1024      1025      3936      3940      3938
 -1      1965    8    0    1
 -2       954       953      1026      3700      3941      3942
 -1      1966    8    0    1
 -2       953      1025      1026      3939      3943      3941
 -1      1967    8    0    1
 -2       955       954      1027      3703      3944      3945
 -1      1968    8    0    1
 -2       954      1026      1027      3942      3946      3944
 -1      1969    8    0    1
 -2       987       991      1028      3844      3947      3948
 -1      1970    8    0    1
 -2       961       962      1029      3731      3949      3950
 -1      1971    8    0    1
 -2       962       963      1030      3734      3951      3952
 -1      1972    8    0    1
 -2       962      1030      1029      3952      3953      3949
 -1      1973    8    0    1
 -2       963       964      1031      3737      3954      3955
 -1      1974    8    0    1
 -2       963      1031      1030      3955      3956      3951
 -1      1975    8    0    1
 -2       964       965      1032      3740      3957      3958
 -1      1976    8    0    1
 -2       964      1032      1031      3958      3959      3954
 -1      1977    8    0    1
 -2       965       966      1033      3743      3960      3961
 -1      1978    8    0    1
 -2       965      1033      1032      3961      3962      3957
 -1      1979    8    0    1
 -2       966       967      1034      3746      3963      3964
 -1      1980    8    0    1
 -2       966      1034      1033      3964      3965      3960
 -1      1981    8    0    1
 -2       967       968      1035      3749      3966      3967
 -1      1982    8    0    1
 -2       967      1035      1034      3967      3968      3963
 -1      1983    8    0    1
 -2       968       969      1036      3752      3969      3970
 -1      1984    8    0    1
 -2       968      1036      1035      3970      3971      3966
 -1      1985    8    0    1
 -2       969       970      1037      3755      3972      3973
 -1      1986    8    0    1
 -2       969      1037      1036      3973      3974      3969
 -1      1987    8    0    1
 -2       970       971      1038      3758      3975      3976
 -1      1988    8    0    1
 -2       970      1038      1037      3976      3977      3972
 -1      1989    8    0    1
 -2       971       972      1039      3761      3978      3979
 -1      1990    8    0    1
 -2       971      1039      1038      3979      3980      3975
 -1      1991    8    0    1
 -2       972       973      1040      3764      3981      3982
 -1      1992    8    0    1
 -2       972      1040      1039      3982      3983      3978
 -1      1993    8    0    1
 -2       973       974      1041      3767      3984      3985
 -1      1994    8    0    1
 -2       973      1041      1040      3985      3986      3981
 -1      1995    8    0    1
 -2       974       975      1042      3770      3987      3988
 -1      1996    8    0    1
 -2       974      1042      1041      3988      3989      3984
 -1      1997    8    0    1
 -2       975       976      1043      3773      3990      3991
 -1      1998    8    0    1
 -2       975      1043      1042      3991      3992      3987
 -1      1999    8    0    1
 -2       976       977      1044      3776      3993      3994
 -1      2000    8    0    1
 -2       976      1044      1043      3994      3995      3990
 -1      2001    8    0    1
 -2       977       978      1045      3779      3996      3997
 -1      2002    8    0    1
 -2       977      1045      1044      3997      3998      3993
 -1      2003    8    0    1
 -2       978       979      1046      3782      3999      4000
 -1      2004    8    0    1
 -2       978      1046      1045      4000      4001      3996
 -1      2005    8    0    1
 -2       979       980      1047      3785      4002      4003
 -1      2006    8    0    1
 -2       979      1047      1046      4003      4004      3999
 -1      2007    8    0    1
 -2       980       981      1048      3788      4005      4006
 -1      2008    8    0    1
 -2       980      1048      1047      4006      4007      4002
 -1      2009    8    0    1
 -2       981       982      1049      3791      4008      4009
 -1      2010    8    0    1
 -2       981      1049      1048      4009      4010      4005
 -1      2011    8    0    1
 -2       982       983       999      3794      3854      4011
 -1      2012    8    0    1
 -2       930       932      1005      3831      4012      3876
 -1      2013    8    0    1
 -2       984       996      1050      3842      4013      4014
 -1      2014    8    0    1
 -2       997       919      1051      3848      4015      4016
 -1      2015    8    0    1
 -2       919       988      1051      3808      4017      4015
 -1      2016    8    0    1
 -2       985       957      1006      3800      4018      3878
 -1      2017    8    0    1
 -2       996       914      1052      3847      4019      4020
 -1      2018    8    0    1
 -2       914      1005      1052      3880      4021      4019
 -1      2019    8    0    1
 -2       957       998      1006      3851      4022      4018
 -1      2020    8    0    1
 -2       927       838       931      3617      3632      4023
 -1      2021    8    0    1
 -2       991       986      1053      3837      4024      4025
 -1      2022    8    0    1
 -2       959       960      1052      3725      4026      4027
 -1      2023    8    0    1
 -2       933       908      1001      3859      3862      3882
 -1      2024    8    0    1
 -2       929       922      1054      3624      4028      4029
 -1      2025    8    0    1
 -2      1003       929      1054      3867      4029      4030
 -1      2026    8    0    1
 -2       922       956      1054      3706      4031      4028
 -1      2027    8    0    1
 -2       960       961      1055      3728      4032      4033
 -1      2028    8    0    1
 -2      1052       960      1055      4026      4033      4034
 -1      2029    8    0    1
 -2       961      1029      1055      3950      4035      4032
 -1      2030    8    0    1
 -2      1005       932       959      4012      3722      4036
 -1      2031    8    0    1
 -2       958       912      1056      3838      4037      4038
 -1      2032    8    0    1
 -2       992       958      1056      3823      4038      4039
 -1      2033    8    0    1
 -2       912       984      1056      3830      4040      4037
 -1      2034    8    0    1
 -2      1005       959      1052      4036      4027      4021
 -1      2035    8    0    1
 -2       982       999      1049      4011      4041      4008
 -1      2036    8    0    1
 -2       984      1050      1056      4014      4042      4040
 -1      2037    8    0    1
 -2       995       987      1057      3836      4043      4044
 -1      2038    8    0    1
 -2       987      1028      1057      3948      4045      4043
 -1      2039    8    0    1
 -2      1006       998      1058      4022      4046      4047
 -1      2040    8    0    1
 -2       913       995       994      3835      4048      4049
 -1      2041    8    0    1
 -2      1007       934      1059      3885      4050      4051
 -1      2042    8    0    1
 -2       934       992      1059      3822      4052      4050
 -1      2043    8    0    1
 -2      1028       991      1053      3947      4025      4053
 -1      2044    8    0    1
 -2       956       955      1054      3707      4054      4031
 -1      2045    8    0    1
 -2       903       865       900      3711      3528      3805
 -1      2046    8    0    1
 -2       916       994      1060      3833      4055      4056
 -1      2047    8    0    1
 -2       994       995      1060      4048      4057      4055
 -1      2048    8    0    1
 -2      1050       996      1061      4013      4058      4059
 -1      2049    8    0    1
 -2       997      1051      1062      4016      4060      4061
 -1      2050    8    0    1
 -2       931       924       927      3845      3616      4023
 -1      2051    8    0    1
 -2      1049       999      1000      4041      3857      4062
 -1      2052    8    0    1
 -2       994       921       913      3874      3884      4049
 -1      2053    8    0    1
 -2       955      1027      1054      3945      4063      4054
 -1      2054    8    0    1
 -2       916      1060       988      4056      4064      3809
 -1      2055    8    0    1
 -2       926       917       993      3613      3827      4065
 -1      2056    8    0    1
 -2       986       931      1063      3846      4066      4067
 -1      2057    8    0    1
 -2       931       990      1063      3814      4068      4066
 -1      2058    8    0    1
 -2      1001       997      1064      3860      4069      4070
 -1      2059    8    0    1
 -2       997      1062      1064      4061      4071      4069
 -1      2060    8    0    1
 -2       996      1052      1061      4020      4072      4058
 -1      2061    8    0    1
 -2      1000      1002      1065      3866      4073      4074
 -1      2062    8    0    1
 -2      1000      1065      1049      4074      4075      4062
 -1      2063    8    0    1
 -2       921       926       993      3881      4065      3828
 -1      2064    8    0    1
 -2       986      1063      1053      4067      4076      4024
 -1      2065    8    0    1
 -2      1063       990      1006      4068      3879      4077
 -1      2066    8    0    1
 -2      1065      1002      1066      4073      4078      4079
 -1      2067    8    0    1
 -2      1066      1002      1003      4078      3869      4080
 -1      2068    8    0    1
 -2      1053      1063      1006      4076      4077      4081
 -1      2069    8    0    1
 -2      1065      1066      1067      4079      4082      4083
 -1      2070    8    0    1
 -2      1058       998      1068      4046      4084      4085
 -1      2071    8    0    1
 -2      1054      1027      1003      4063      4086      4030
 -1      2072    8    0    1
 -2      1008      1007      1069      3889      4087      4088
 -1      2073    8    0    1
 -2      1009      1008      1070      3892      4089      4090
 -1      2074    8    0    1
 -2      1008      1069      1070      4088      4091      4089
 -1      2075    8    0    1
 -2      1010      1009      1071      3895      4092      4093
 -1      2076    8    0    1
 -2      1009      1070      1071      4090      4094      4092
 -1      2077    8    0    1
 -2      1011      1010      1072      3898      4095      4096
 -1      2078    8    0    1
 -2      1010      1071      1072      4093      4097      4095
 -1      2079    8    0    1
 -2      1012      1011      1073      3901      4098      4099
 -1      2080    8    0    1
 -2      1011      1072      1073      4096      4100      4098
 -1      2081    8    0    1
 -2      1013      1012      1074      3904      4101      4102
 -1      2082    8    0    1
 -2      1012      1073      1074      4099      4103      4101
 -1      2083    8    0    1
 -2      1014      1013      1075      3907      4104      4105
 -1      2084    8    0    1
 -2      1013      1074      1075      4102      4106      4104
 -1      2085    8    0    1
 -2      1015      1014      1076      3910      4107      4108
 -1      2086    8    0    1
 -2      1014      1075      1076      4105      4109      4107
 -1      2087    8    0    1
 -2      1016      1015      1077      3913      4110      4111
 -1      2088    8    0    1
 -2      1015      1076      1077      4108      4112      4110
 -1      2089    8    0    1
 -2      1017      1016      1078      3916      4113      4114
 -1      2090    8    0    1
 -2      1016      1077      1078      4111      4115      4113
 -1      2091    8    0    1
 -2      1018      1017      1079      3919      4116      4117
 -1      2092    8    0    1
 -2      1017      1078      1079      4114      4118      4116
 -1      2093    8    0    1
 -2      1019      1018      1080      3922      4119      4120
 -1      2094    8    0    1
 -2      1018      1079      1080      4117      4121      4119
 -1      2095    8    0    1
 -2      1020      1019      1081      3925      4122      4123
 -1      2096    8    0    1
 -2      1019      1080      1081      4120      4124      4122
 -1      2097    8    0    1
 -2      1021      1020      1082      3928      4125      4126
 -1      2098    8    0    1
 -2      1020      1081      1082      4123      4127      4125
 -1      2099    8    0    1
 -2      1022      1021      1083      3931      4128      4129
 -1      2100    8    0    1
 -2      1021      1082      1083      4126      4130      4128
 -1      2101    8    0    1
 -2      1023      1022      1084      3934      4131      4132
 -1      2102    8    0    1
 -2      1022      1083      1084      4129      4133      4131
 -1      2103    8    0    1
 -2      1024      1023      1085      3937      4134      4135
 -1      2104    8    0    1
 -2      1023      1084      1085      4132      4136      4134
 -1      2105    8    0    1
 -2      1025      1024      1086      3940      4137      4138
 -1      2106    8    0    1
 -2      1024      1085      1086      4135      4139      4137
 -1      2107    8    0    1
 -2      1026      1025      1067      3943      4140      4141
 -1      2108    8    0    1
 -2      1062      1051      1057      4060      4142      4143
 -1      2109    8    0    1
 -2      1060       995      1057      4057      4044      4144
 -1      2110    8    0    1
 -2       992      1056      1059      4039      4145      4052
 -1      2111    8    0    1
 -2      1029      1030      1087      3953      4146      4147
 -1      2112    8    0    1
 -2      1032      1033      1088      3962      4148      4149
 -1      2113    8    0    1
 -2      1033      1034      1089      3965      4150      4151
 -1      2114    8    0    1
 -2      1033      1089      1088      4151      4152      4148
 -1      2115    8    0    1
 -2      1034      1035      1090      3968      4153      4154
 -1      2116    8    0    1
 -2      1034      1090      1089      4154      4155      4150
 -1      2117    8    0    1
 -2      1035      1036      1091      3971      4156      4157
 -1      2118    8    0    1
 -2      1035      1091      1090      4157      4158      4153
 -1      2119    8    0    1
 -2      1036      1037      1092      3974      4159      4160
 -1      2120    8    0    1
 -2      1036      1092      1091      4160      4161      4156
 -1      2121    8    0    1
 -2      1037      1038      1093      3977      4162      4163
 -1      2122    8    0    1
 -2      1037      1093      1092      4163      4164      4159
 -1      2123    8    0    1
 -2      1038      1039      1094      3980      4165      4166
 -1      2124    8    0    1
 -2      1038      1094      1093      4166      4167      4162
 -1      2125    8    0    1
 -2      1039      1040      1095      3983      4168      4169
 -1      2126    8    0    1
 -2      1039      1095      1094      4169      4170      4165
 -1      2127    8    0    1
 -2      1040      1041      1096      3986      4171      4172
 -1      2128    8    0    1
 -2      1040      1096      1095      4172      4173      4168
 -1      2129    8    0    1
 -2      1041      1042      1097      3989      4174      4175
 -1      2130    8    0    1
 -2      1041      1097      1096      4175      4176      4171
 -1      2131    8    0    1
 -2      1042      1043      1098      3992      4177      4178
 -1      2132    8    0    1
 -2      1042      1098      1097      4178      4179      4174
 -1      2133    8    0    1
 -2      1043      1044      1099      3995      4180      4181
 -1      2134    8    0    1
 -2      1043      1099      1098      4181      4182      4177
 -1      2135    8    0    1
 -2      1044      1045      1100      3998      4183      4184
 -1      2136    8    0    1
 -2      1044      1100      1099      4184      4185      4180
 -1      2137    8    0    1
 -2      1045      1046      1101      4001      4186      4187
 -1      2138    8    0    1
 -2      1045      1101      1100      4187      4188      4183
 -1      2139    8    0    1
 -2      1046      1047      1102      4004      4189      4190
 -1      2140    8    0    1
 -2      1046      1102      1101      4190      4191      4186
 -1      2141    8    0    1
 -2      1047      1048      1103      4007      4192      4193
 -1      2142    8    0    1
 -2      1047      1103      1102      4193      4194      4189
 -1      2143    8    0    1
 -2      1048      1049      1104      4010      4195      4196
 -1      2144    8    0    1
 -2      1103      1048      1104      4192      4196      4197
 -1      2145    8    0    1
 -2      1049      1065      1104      4075      4198      4195
 -1      2146    8    0    1
 -2      1056      1050      1059      4042      4199      4145
 -1      2147    8    0    1
 -2      1051       988      1060      4017      4064      4200
 -1      2148    8    0    1
 -2      1061      1052      1055      4072      4034      4201
 -1      2149    8    0    1
 -2      1050      1061      1105      4059      4202      4203
 -1      2150    8    0    1
 -2      1031      1032      1106      3959      4204      4205
 -1      2151    8    0    1
 -2      1032      1088      1106      4149      4206      4204
 -1      2152    8    0    1
 -2      1030      1031      1107      3956      4207      4208
 -1      2153    8    0    1
 -2      1031      1106      1107      4205      4209      4207
 -1      2154    8    0    1
 -2      1068       998      1004      4084      3872      4210
 -1      2155    8    0    1
 -2      1003      1027      1066      4086      4211      4080
 -1      2156    8    0    1
 -2      1068      1004      1064      4210      4212      4213
 -1      2157    8    0    1
 -2      1066      1027      1026      4211      3946      4214
 -1      2158    8    0    1
 -2      1051      1060      1057      4200      4144      4142
 -1      2159    8    0    1
 -2      1004       925      1001      3870      3883      4215
 -1      2160    8    0    1
 -2      1066      1026      1067      4214      4141      4082
 -1      2161    8    0    1
 -2      1004      1001      1064      4215      4070      4212
 -1      2162    8    0    1
 -2      1057      1028      1062      4045      4216      4143
 -1      2163    8    0    1
 -2      1058      1068      1028      4085      4217      4218
 -1      2164    8    0    1
 -2      1028      1068      1062      4217      4219      4216
 -1      2165    8    0    1
 -2      1062      1068      1064      4219      4213      4071
 -1      2166    8    0    1
 -2      1069      1007      1108      4087      4220      4221
 -1      2167    8    0    1
 -2      1007      1059      1108      4051      4222      4220
 -1      2168    8    0    1
 -2      1025      1086      1067      4138      4223      4140
 -1      2169    8    0    1
 -2      1087      1030      1107      4146      4208      4224
 -1      2170    8    0    1
 -2      1104      1065      1067      4198      4083      4225
 -1      2171    8    0    1
 -2      1029      1087      1105      4147      4226      4227
 -1      2172    8    0    1
 -2      1050      1105      1108      4203      4228      4229
 -1      2173    8    0    1
 -2      1050      1108      1059      4229      4222      4199
 -1      2174    8    0    1
 -2      1006      1058      1053      4047      4230      4081
 -1      2175    8    0    1
 -2      1071      1070      1106      4094      4231      4232
 -1      2176    8    0    1
 -2      1072      1071      1088      4097      4233      4234
 -1      2177    8    0    1
 -2      1073      1072      1089      4100      4235      4236
 -1      2178    8    0    1
 -2      1074      1073      1090      4103      4237      4238
 -1      2179    8    0    1
 -2      1075      1074      1091      4106      4239      4240
 -1      2180    8    0    1
 -2      1076      1075      1092      4109      4241      4242
 -1      2181    8    0    1
 -2      1077      1076      1093      4112      4243      4244
 -1      2182    8    0    1
 -2      1078      1077      1094      4115      4245      4246
 -1      2183    8    0    1
 -2      1079      1078      1095      4118      4247      4248
 -1      2184    8    0    1
 -2      1080      1079      1096      4121      4249      4250
 -1      2185    8    0    1
 -2      1081      1080      1097      4124      4251      4252
 -1      2186    8    0    1
 -2      1082      1081      1098      4127      4253      4254
 -1      2187    8    0    1
 -2      1083      1082      1099      4130      4255      4256
 -1      2188    8    0    1
 -2      1084      1083      1100      4133      4257      4258
 -1      2189    8    0    1
 -2      1085      1084      1101      4136      4259      4260
 -1      2190    8    0    1
 -2      1086      1085      1102      4139      4261      4262
 -1      2191    8    0    1
 -2      1087      1107      1069      4224      4263      4264
 -1      2192    8    0    1
 -2      1058      1028      1053      4218      4053      4230
 -1      2193    8    0    1
 -2      1069      1107      1070      4263      4265      4091
 -1      2194    8    0    1
 -2      1089      1090      1073      4155      4237      4236
 -1      2195    8    0    1
 -2      1108      1105      1087      4228      4226      4266
 -1      2196    8    0    1
 -2      1104      1067      1103      4225      4267      4197
 -1      2197    8    0    1
 -2      1088      1089      1072      4152      4235      4234
 -1      2198    8    0    1
 -2      1091      1092      1075      4161      4241      4240
 -1      2199    8    0    1
 -2      1092      1093      1076      4164      4243      4242
 -1      2200    8    0    1
 -2      1093      1094      1077      4167      4245      4244
 -1      2201    8    0    1
 -2      1094      1095      1078      4170      4247      4246
 -1      2202    8    0    1
 -2      1095      1096      1079      4173      4249      4248
 -1      2203    8    0    1
 -2      1096      1097      1080      4176      4251      4250
 -1      2204    8    0    1
 -2      1097      1098      1081      4179      4253      4252
 -1      2205    8    0    1
 -2      1098      1099      1082      4182      4255      4254
 -1      2206    8    0    1
 -2      1099      1100      1083      4185      4257      4256
 -1      2207    8    0    1
 -2      1100      1101      1084      4188      4259      4258
 -1      2208    8    0    1
 -2      1101      1102      1085      4191      4261      4260
 -1      2209    8    0    1
 -2      1102      1103      1086      4194      4268      4262
 -1      2210    8    0    1
 -2      1103      1067      1086      4267      4223      4268
 -1      2211    8    0    1
 -2      1070      1107      1106      4265      4209      4231
 -1      2212    8    0    1
 -2      1106      1088      1071      4206      4233      4232
 -1      2213    8    0    1
 -2      1105      1061      1029      4202      4269      4227
 -1      2214    8    0    1
 -2      1091      1074      1090      4239      4238      4158
 -1      2215    8    0    1
 -2      1108      1087      1069      4266      4264      4221
 -1      2216    8    0    1
 -2      1029      1061      1055      4269      4201      4035
 -3
    1PSTEP                         1           1           1          
  100CL  101 1.000000000        4269                     0    1           1
 -4  DISP        4    1
 -5  D1          1    2    1    0
 -5  D2          1    2    2    0
 -5  D3          1    2    3    0
 -5  ALL         1    2    0    0    1ALL
 -1         1 5.04871E-03-1.89497E-03-1.40583E-14
 -1         2 7.22849E-03-8.90287E-04-1.92747E-14
 -1         3 1.40621E-02-4.46365E-03-1.44185E-13
 -1         4 1.65038E-02-5.89306E-03-1.46698E-13
 -1         5 0.00000E+00 0.00000E+00 0.00000E+00
 -1         6 0.00000E+00 0.00000E+00 0.00000E+00
 -1         7 0.00000E+00 0.00000E+00 0.00000E+00
 -1         8 0.00000E+00 0.00000E+00 0.00000E+00
 -1         9 0.00000E+00 0.00000E+00 0.00000E+00
 -1        10 0.00000E+00 0.00000E+00 0.00000E+00
 -1        11 0.00000E+00 0.00000E+00 0.00000E+00
 -1        12 0.00000E+00 0.00000E+00 0.00000E+00
 -1        13 0.00000E+00 0.00000E+00 0.00000E+00
 -1        14 0.00000E+00 0.00000E+00 0.00000E+00
 -1        15 0.00000E+00 0.00000E+00 0.00000E+00
 -1        16 0.00000E+00 0.00000E+00 0.00000E+00
 -1        17 0.00000E+00 0.00000E+00 0.00000E+00
 -1        18 0.00000E+00 0.00000E+00 0.00000E+00
 -1        19 0.00000E+00 0.00000E+00 0.00000E+00
 -1        20 0.00000E+00 0.00000E+00 0.00000E+00
 -1        21 0.00000E+00 0.00000E+00 0.00000E+00
 -1        22 0.00000E+00 0.00000E+00 0.00000E+00
 -1        23 4.13961E-04-2.49278E-04 3.67341E-17
 -1        24 7.17111E-04-3.75318E-04-8.46186E-17
 -1        25 1.00609E-03-4.59476E-04-3.60070E-16
 -1        26 1.29781E-03-5.17400E-04-7.85074E-16
 -1        27 1.59966E-03-5.59745E-04-1.35382E-15
 -1        28 1.91821E-03-5.94927E-04-2.06272E-15
 -1        29 2.26062E-03-6.32428E-04-2.90863E-15
 -1        30 2.63473E-03-6.85216E-04-3.89053E-15
 -1        31 3.04757E-03-7.72123E-04-5.00553E-15
 -1        32 3.50041E-03-9.18704E-04-6.25238E-15
 -1        33 3.97900E-03-1.15152E-03-7.62923E-15
 -1        34 4.44322E-03-1.47666E-03-9.14395E-15
 -1        35 4.83467E-03-1.84186E-03-1.08198E-14
 -1        36 5.09851E-03-2.10010E-03-1.24830E-14
 -1        37 5.33968E-03-2.18905E-03-1.45278E-14
 -1        38 5.60949E-03-2.07158E-03-1.66593E-14
 -1        39 5.99487E-03-1.85058E-03-1.90730E-14
 -1        40 6.46147E-03-1.66183E-03-2.16305E-14
 -1        41 6.95022E-03-1.56700E-03-2.43079E-14
 -1        42 7.41775E-03-1.56465E-03-2.71009E-14
 -1        43 7.84752E-03-1.62950E-03-3.00005E-14
 -1        44 8.23987E-03-1.73634E-03-3.30121E-14
 -1        45 8.61902E-03-1.87411E-03-3.62689E-14
 -1        46 8.95682E-03-2.01820E-03-3.94630E-14
 -1        47 9.27842E-03-2.16838E-03-4.27602E-14
 -1        48 9.58865E-03-2.32120E-03-4.61595E-14
 -1        49 9.89097E-03-2.47478E-03-4.96523E-14
 -1        50 1.01878E-02-2.62819E-03-5.32263E-14
 -1        51 1.04809E-02-2.78098E-03-5.68902E-14
 -1        52 1.07714E-02-2.93298E-03-6.06210E-14
 -1        53 1.10600E-02-3.08415E-03-6.44222E-14
 -1        54 1.13475E-02-3.23453E-03-6.83064E-14
 -1        55 1.16342E-02-3.38421E-03-7.22650E-14
 -1        56 1.19203E-02-3.53327E-03-7.62760E-14
 -1        57 1.22061E-02-3.68180E-03-8.03539E-14
 -1        58 1.24917E-02-3.82989E-03-8.44950E-14
 -1        59 1.27914E-02-3.98500E-03-8.89003E-14
 -1        60 1.30769E-02-4.13242E-03-9.31445E-14
 -1        61 1.33623E-02-4.27961E-03-9.74406E-14
 -1        62 1.36477E-02-4.42662E-03-1.01791E-13
 -1        63 1.39332E-02-4.57349E-03-1.06190E-13
 -1        64 1.42187E-02-4.72025E-03-1.10623E-13
 -1        65 1.45042E-02-4.86694E-03-1.15078E-13
 -1        66 1.47898E-02-5.01357E-03-1.19554E-13
 -1        67 1.50754E-02-5.16016E-03-1.24054E-13
 -1        68 1.53610E-02-5.30674E-03-1.28564E-13
 -1        69 1.56467E-02-5.45331E-03-1.33081E-13
 -1        70 1.59324E-02-5.59988E-03-1.37618E-13
 -1        71 1.62181E-02-5.74647E-03-1.42172E-13
 -1        72 4.16501E-04 2.56217E-04 7.80422E-17
 -1        73 7.13131E-04 3.92066E-04 2.34933E-17
 -1        74 9.94297E-04 4.83933E-04-1.62644E-16
 -1        75 1.27173E-03 5.51060E-04-4.84205E-16
 -1        76 1.54948E-03 6.02667E-04-9.44567E-16
 -1        77 1.82862E-03 6.44632E-04-1.54306E-15
 -1        78 2.10856E-03 6.80830E-04-2.28264E-15
 -1        79 2.38755E-03 7.13420E-04-3.16679E-15
 -1        80 2.66302E-03 7.42756E-04-4.19380E-15
 -1        81 2.93205E-03 7.67179E-04-5.36554E-15
 -1        82 3.19212E-03 7.82979E-04-6.68162E-15
 -1        83 3.44191E-03 7.84786E-04-8.14116E-15
 -1        84 3.68205E-03 7.66526E-04-9.74760E-15
 -1        85 3.91546E-03 7.22871E-04-1.15036E-14
 -1        86 4.14688E-03 6.50751E-04-1.34119E-14
 -1        87 4.38178E-03 5.50337E-04-1.54681E-14
 -1        88 4.62501E-03 4.25078E-04-1.76670E-14
 -1        89 4.87963E-03 2.80772E-04-2.00025E-14
 -1        90 5.14648E-03 1.24113E-04-2.24721E-14
 -1        91 5.42447E-03-3.86868E-05-2.50733E-14
 -1        92 5.71125E-03-2.02798E-04-2.78064E-14
 -1        93 6.00401E-03-3.65084E-04-3.06724E-14
 -1        94 6.30012E-03-5.23952E-04-3.36714E-14
 -1        95 6.59746E-03-6.78964E-04-3.67928E-14
 -1        96 6.89453E-03-8.30414E-04-4.00327E-14
 -1        97 7.19042E-03-9.78956E-04-4.33789E-14
 -1        98 7.48470E-03-1.12535E-03-4.68360E-14
 -1        99 7.77726E-03-1.27033E-03-5.03841E-14
 -1       100 8.06820E-03-1.41447E-03-5.40261E-14
 -1       101 8.35773E-03-1.55825E-03-5.77692E-14
 -1       102 8.64609E-03-1.70197E-03-6.16036E-14
 -1       103 8.93354E-03-1.84584E-03-6.55229E-14
 -1       104 9.22030E-03-1.98999E-03-6.95010E-14
 -1       105 9.50657E-03-2.13445E-03-7.35355E-14
 -1       106 9.79249E-03-2.27925E-03-7.76373E-14
 -1       107 1.00782E-02-2.42437E-03-8.18201E-14
 -1       108 1.03638E-02-2.56977E-03-8.60616E-14
 -1       109 1.06492E-02-2.71542E-03-9.03477E-14
 -1       110 1.09347E-02-2.86128E-03-9.46629E-14
 -1       111 1.12202E-02-3.00730E-03-9.90266E-14
 -1       112 1.15057E-02-3.15345E-03-1.03439E-13
 -1       113 1.17912E-02-3.29970E-03-1.07897E-13
 -1       114 1.20767E-02-3.44603E-03-1.12387E-13
 -1       115 1.23623E-02-3.59241E-03-1.16918E-13
 -1       116 1.26479E-02-3.73882E-03-1.21464E-13
 -1       117 1.29336E-02-3.88526E-03-1.26030E-13
 -1       118 1.32192E-02-4.03170E-03-1.30619E-13
 -1       119 1.35049E-02-4.17813E-03-1.35218E-13
 -1       120 1.37906E-02-4.32456E-03-1.39818E-13
 -1       121 1.42060E-02-4.54794E-03-1.44449E-13
 -1       122 1.43500E-02-4.63222E-03-1.44730E-13
 -1       123 1.44940E-02-4.71653E-03-1.45027E-13
 -1       124 1.46379E-02-4.80085E-03-1.45311E-13
 -1       125 1.47819E-02-4.88519E-03-1.45549E-13
 -1       126 1.49234E-02-4.96812E-03-1.45752E-13
 -1       127 1.50674E-02-5.05249E-03-1.45947E-13
 -1       128 1.52114E-02-5.13688E-03-1.46142E-13
 -1       129 1.53555E-02-5.22127E-03-1.46313E-13
 -1       130 1.54996E-02-5.30565E-03-1.46425E-13
 -1       131 1.56437E-02-5.39003E-03-1.46497E-13
 -1       132 1.57854E-02-5.47296E-03-1.46565E-13
 -1       133 1.59296E-02-5.55730E-03-1.46601E-13
 -1       134 1.60738E-02-5.64162E-03-1.46602E-13
 -1       135 1.62180E-02-5.72592E-03-1.46618E-13
 -1       136 1.63621E-02-5.81021E-03-1.46651E-13
 -1       137 7.12207E-03-7.13726E-04-1.91678E-14
 -1       138 6.88631E-03-5.13578E-04-1.87644E-14
 -1       139 6.59824E-03-3.48917E-04-1.81972E-14
 -1       140 6.24586E-03-2.01921E-04-1.74706E-14
 -1       141 5.83303E-03-7.25767E-05-1.66022E-14
 -1       142 5.35863E-03 3.32725E-05-1.56078E-14
 -1       143 4.86006E-03 1.03308E-04-1.45729E-14
 -1       144 4.37833E-03 1.33053E-04-1.35890E-14
 -1       145 3.90421E-03 1.23393E-04-1.26393E-14
 -1       146 3.44003E-03 6.72471E-05-1.17213E-14
 -1       147 3.07837E-03-2.05281E-05-1.10216E-14
 -1       148 2.78766E-03-1.42719E-04-1.04616E-14
 -1       149 2.59867E-03-2.80995E-04-1.00897E-14
 -1       150 2.49246E-03-4.48020E-04-9.86274E-15
 -1       151 2.48757E-03-6.40349E-04-9.80833E-15
 -1       152 2.59112E-03-8.44674E-04-9.94044E-15
 -1       153 2.78301E-03-1.04754E-03-1.02270E-14
 -1       154 3.07981E-03-1.26442E-03-1.06931E-14
 -1       155 3.48528E-03-1.48561E-03-1.13512E-14
 -1       156 3.99293E-03-1.68888E-03-1.21977E-14
 -1       157 4.49198E-03-1.82187E-03-1.30574E-14
 -1       158 5.61127E-03-1.88491E-03-1.51296E-14
 -1       159 6.15294E-03-1.78995E-03-1.62516E-14
 -1       160 6.58164E-03-1.64718E-03-1.72226E-14
 -1       161 6.91453E-03-1.47284E-03-1.80683E-14
 -1       162 7.13704E-03-1.28255E-03-1.87272E-14
 -1       163 7.23873E-03-1.09559E-03-1.91237E-14
 -1       164 2.47411E-04-1.12491E-04-3.17095E-17
 -1       165 2.30202E-04-7.97969E-05-5.25398E-17
 -1       166 2.20980E-04-5.83135E-05-6.38832E-17
 -1       167 2.14646E-04-4.30788E-05-6.99717E-17
 -1       168 2.10384E-04-3.18233E-05-7.28279E-17
 -1       169 2.07874E-04-2.24771E-05-7.39595E-17
 -1       170 2.07029E-04-1.38825E-05-7.35767E-17
 -1       171 2.07571E-04-4.97816E-06-7.23671E-17
 -1       172 2.09157E-04 4.98590E-06-7.00903E-17
 -1       173 2.11477E-04 1.65001E-05-6.68275E-17
 -1       174 2.14293E-04 2.96707E-05-6.20841E-17
 -1       175 2.17755E-04 4.53451E-05-5.51859E-17
 -1       176 2.22291E-04 6.40691E-05-4.49402E-17
 -1       177 2.29366E-04 8.76007E-05-2.91007E-17
 -1       178 2.43975E-04 1.20900E-04-3.23228E-18
 -1       179 3.02570E-04 1.79558E-04 2.52856E-17
 -1       180 4.82548E-04-2.41740E-04-8.50421E-17
 -1       181 7.94554E-04-3.45090E-04-3.12511E-16
 -1       182 1.09760E-03-4.14048E-04-6.82908E-16
 -1       183 1.40123E-03-4.61293E-04-1.19471E-15
 -1       184 1.71145E-03-4.95701E-04-1.84495E-15
 -1       185 2.03340E-03-5.25846E-04-2.63072E-15
 -1       186 2.37199E-03-5.62492E-04-3.54982E-15
 -1       187 2.73187E-03-6.21264E-04-4.60078E-15
 -1       188 3.11661E-03-7.25125E-04-5.78156E-15
 -1       189 3.52680E-03-9.03926E-04-7.09197E-15
 -1       190 3.95636E-03-1.18338E-03-8.53661E-15
 -1       191 4.38870E-03-1.55257E-03-1.01293E-14
 -1       192 4.76008E-03-1.88480E-03-1.17094E-14
 -1       193 5.14710E-03-2.10324E-03-1.36456E-14
 -1       194 5.51225E-03-2.07074E-03-1.56721E-14
 -1       195 5.92300E-03-1.85689E-03-1.79885E-14
 -1       196 6.35815E-03-1.62466E-03-2.04616E-14
 -1       197 6.79452E-03-1.47999E-03-2.30684E-14
 -1       198 7.21390E-03-1.44130E-03-2.57932E-14
 -1       199 7.60914E-03-1.48506E-03-2.86283E-14
 -1       200 7.98026E-03-1.58171E-03-3.15725E-14
 -1       201 8.34746E-03-1.71560E-03-3.47740E-14
 -1       202 8.68000E-03-1.85925E-03-3.79178E-14
 -1       203 8.99971E-03-2.01041E-03-4.11567E-14
 -1       204 9.30982E-03-2.16469E-03-4.44983E-14
 -1       205 9.61288E-03-2.31981E-03-4.79356E-14
 -1       206 9.91080E-03-2.47463E-03-5.14610E-14
 -1       207 1.02050E-02-2.62864E-03-5.50686E-14
 -1       208 1.04966E-02-2.78165E-03-5.87552E-14
 -1       209 1.07862E-02-2.93366E-03-6.25154E-14
 -1       210 1.10745E-02-3.08473E-03-6.63494E-14
 -1       211 1.13619E-02-3.23495E-03-7.02590E-14
 -1       212 1.16486E-02-3.38444E-03-7.42327E-14
 -1       213 1.19348E-02-3.53331E-03-7.82704E-14
 -1       214 1.22208E-02-3.68167E-03-8.23695E-14
 -1       215 1.25209E-02-3.83699E-03-8.67348E-14
 -1       216 1.28065E-02-3.98456E-03-9.09475E-14
 -1       217 1.30921E-02-4.13187E-03-9.52130E-14
 -1       218 1.33777E-02-4.27896E-03-9.95300E-14
 -1       219 1.36632E-02-4.42589E-03-1.03897E-13
 -1       220 1.39488E-02-4.57270E-03-1.08312E-13
 -1       221 1.42344E-02-4.71941E-03-1.12755E-13
 -1       222 1.45200E-02-4.86606E-03-1.17224E-13
 -1       223 1.48056E-02-5.01266E-03-1.21722E-13
 -1       224 1.50913E-02-5.15924E-03-1.26231E-13
 -1       225 1.53769E-02-5.30580E-03-1.30754E-13
 -1       226 1.56626E-02-5.45237E-03-1.35292E-13
 -1       227 1.59483E-02-5.59894E-03-1.39842E-13
 -1       228 1.61552E-02-5.70457E-03-1.43252E-13
 -1       229 6.16324E-04 3.18079E-04-5.36646E-17
 -1       230 9.14212E-04 4.14433E-04-2.56349E-16
 -1       231 1.20352E-03 4.83931E-04-5.89477E-16
 -1       232 1.48945E-03 5.36720E-04-1.05833E-15
 -1       233 1.77419E-03 5.79276E-04-1.66363E-15
 -1       234 2.05827E-03 6.15931E-04-2.40787E-15
 -1       235 2.34103E-03 6.49219E-04-3.29331E-15
 -1       236 2.62107E-03 6.79811E-04-4.32046E-15
 -1       237 2.89662E-03 7.06270E-04-5.48952E-15
 -1       238 3.16607E-03 7.24948E-04-6.80229E-15
 -1       239 3.42853E-03 7.30299E-04-8.25851E-15
 -1       240 3.68440E-03 7.15834E-04-9.86100E-15
 -1       241 3.93553E-03 6.75651E-04-1.16114E-14
 -1       242 4.18508E-03 6.06123E-04-1.35107E-14
 -1       243 4.43676E-03 5.07077E-04-1.55575E-14
 -1       244 4.69392E-03 3.81936E-04-1.77462E-14
 -1       245 4.95877E-03 2.36760E-04-2.00735E-14
 -1       246 5.23205E-03 7.86571E-05-2.25351E-14
 -1       247 5.51316E-03-8.57446E-05-2.51292E-14
 -1       248 5.80056E-03-2.51307E-04-2.78574E-14
 -1       249 6.09237E-03-4.14720E-04-3.07167E-14
 -1       250 6.38672E-03-5.74341E-04-3.37048E-14
 -1       251 6.68209E-03-7.29761E-04-3.68133E-14
 -1       252 6.97733E-03-8.81345E-04-4.00407E-14
 -1       253 7.27173E-03-1.02983E-03-4.33766E-14
 -1       254 7.56491E-03-1.17605E-03-4.68185E-14
 -1       255 7.85674E-03-1.32079E-03-5.03561E-14
 -1       256 8.14726E-03-1.46468E-03-5.39862E-14
 -1       257 8.43661E-03-1.60821E-03-5.77130E-14
 -1       258 8.72497E-03-1.75171E-03-6.15319E-14
 -1       259 9.01252E-03-1.89540E-03-6.54288E-14
 -1       260 9.29945E-03-2.03940E-03-6.93935E-14
 -1       261 9.58590E-03-2.18374E-03-7.34196E-14
 -1       262 9.87202E-03-2.32845E-03-7.75114E-14
 -1       263 1.01579E-02-2.47351E-03-8.16721E-14
 -1       264 1.04436E-02-2.61886E-03-8.58923E-14
 -1       265 1.07293E-02-2.76447E-03-9.01636E-14
 -1       266 1.10149E-02-2.91031E-03-9.44759E-14
 -1       267 1.13004E-02-3.05631E-03-9.88320E-14
 -1       268 1.15860E-02-3.20246E-03-1.03240E-13
 -1       269 1.18715E-02-3.34870E-03-1.07693E-13
 -1       270 1.21571E-02-3.49503E-03-1.12182E-13
 -1       271 1.24427E-02-3.64141E-03-1.16703E-13
 -1       272 1.27284E-02-3.78783E-03-1.21246E-13
 -1       273 1.30140E-02-3.93427E-03-1.25810E-13
 -1       274 1.32997E-02-4.08072E-03-1.30395E-13
 -1       275 1.35854E-02-4.22716E-03-1.34995E-13
 -1       276 1.38711E-02-4.37359E-03-1.39596E-13
 -1       277 1.40306E-02-4.46329E-03-1.40608E-13
 -1       278 1.41745E-02-4.54759E-03-1.40882E-13
 -1       279 1.43185E-02-4.63190E-03-1.41152E-13
 -1       280 1.44624E-02-4.71622E-03-1.41403E-13
 -1       281 1.46040E-02-4.79913E-03-1.41625E-13
 -1       282 1.47479E-02-4.88348E-03-1.41829E-13
 -1       283 1.48920E-02-4.96783E-03-1.42014E-13
 -1       284 1.50360E-02-5.05220E-03-1.42182E-13
 -1       285 1.51801E-02-5.13656E-03-1.42322E-13
 -1       286 1.53242E-02-5.22092E-03-1.42427E-13
 -1       287 1.54659E-02-5.30384E-03-1.42506E-13
 -1       288 1.56101E-02-5.38818E-03-1.42567E-13
 -1       289 1.57542E-02-5.47250E-03-1.42610E-13
 -1       290 1.58984E-02-5.55681E-03-1.42648E-13
 -1       291 1.60268E-02-5.63069E-03-1.42947E-13
 -1       292 7.20427E-03-8.85522E-04-2.02646E-14
 -1       293 6.97898E-03-7.89767E-04-2.02112E-14
 -1       294 6.64632E-03-6.01277E-04-1.93361E-14
 -1       295 6.25733E-03-4.26689E-04-1.85905E-14
 -1       296 5.82595E-03-2.32394E-04-1.76807E-14
 -1       297 5.41633E-03-2.56628E-05-1.64691E-14
 -1       298 5.00185E-03 1.27021E-04-1.52353E-14
 -1       299 4.60180E-03 2.00765E-04-1.40498E-14
 -1       300 4.21343E-03 1.91215E-04-1.29198E-14
 -1       301 3.81819E-03 9.71719E-05-1.17824E-14
 -1       302 3.40069E-03-4.76246E-05-1.09350E-14
 -1       303 3.03090E-03-1.93451E-04-1.02667E-14
 -1       304 2.73432E-03-3.26443E-04-9.75773E-15
 -1       305 2.53172E-03-4.37287E-04-9.43148E-15
 -1       306 2.44548E-03-5.37653E-04-9.19980E-15
 -1       307 2.51349E-03-6.36096E-04-9.19981E-15
 -1       308 2.71998E-03-7.88969E-04-9.53902E-15
 -1       309 3.03995E-03-9.75520E-04-9.94515E-15
 -1       310 3.48046E-03-1.21058E-03-1.04956E-14
 -1       311 3.94922E-03-1.51932E-03-1.13949E-14
 -1       312 4.42009E-03-1.77902E-03-1.23616E-14
 -1       313 4.86024E-03-1.94992E-03-1.34244E-14
 -1       314 5.29635E-03-1.98190E-03-1.46491E-14
 -1       315 5.74299E-03-1.87315E-03-1.59977E-14
 -1       316 6.20684E-03-1.66494E-03-1.72295E-14
 -1       317 6.62078E-03-1.44460E-03-1.83420E-14
 -1       318 6.96744E-03-1.25082E-03-1.92644E-14
 -1       319 7.19387E-03-1.10416E-03-1.99098E-14
 -1       320 7.27993E-03-9.89558E-04-2.03896E-14
 -1       321 4.61557E-04-1.37044E-04-2.15550E-16
 -1       322 4.87751E-04-1.85220E-04-1.81675E-16
 -1       323 4.30821E-04-7.62720E-05-2.47191E-16
 -1       324 4.22914E-04-5.54945E-05-2.52677E-16
 -1       325 4.19311E-04-3.72236E-05-2.54056E-16
 -1       326 4.19381E-04-1.92158E-05-2.52009E-16
 -1       327 4.22290E-04 1.83523E-07-2.47171E-16
 -1       328 4.27198E-04 2.20872E-05-2.39175E-16
 -1       329 4.33375E-04 4.67837E-05-2.27845E-16
 -1       330 4.40884E-04 7.57817E-05-2.12209E-16
 -1       331 4.50221E-04 1.09689E-04-1.90230E-16
 -1       332 4.63390E-04 1.50506E-04-1.59086E-16
 -1       333 4.85564E-04 2.02482E-04-1.13597E-16
 -1       334 5.43150E-04 2.56194E-04-9.14694E-17
 -1       335 8.43507E-04 3.53870E-04-3.03438E-16
 -1       336 8.92845E-04-3.10160E-04-5.66109E-16
 -1       337 1.19354E-03-3.65487E-04-1.02506E-15
 -1       338 1.49448E-03-4.03970E-04-1.61993E-15
 -1       339 1.79817E-03-4.33266E-04-2.34883E-15
 -1       340 2.10709E-03-4.62080E-04-3.20948E-15
 -1       341 2.42409E-03-5.02132E-04-4.19916E-15
 -1       342 2.75361E-03-5.70524E-04-5.31716E-15
 -1       343 3.10350E-03-6.92030E-04-6.56164E-15
 -1       344 3.48600E-03-8.98759E-04-7.93424E-15
 -1       345 3.91414E-03-1.21895E-03-9.44484E-15
 -1       346 4.33557E-03-1.58674E-03-1.09384E-14
 -1       347 4.85667E-03-1.96466E-03-1.27504E-14
 -1       348 5.31162E-03-2.05683E-03-1.47361E-14
 -1       349 5.77687E-03-1.88252E-03-1.69023E-14
 -1       350 6.25491E-03-1.60474E-03-1.93009E-14
 -1       351 6.69149E-03-1.41539E-03-2.18381E-14
 -1       352 7.08558E-03-1.34308E-03-2.44970E-14
 -1       353 7.44638E-03-1.36426E-03-2.72676E-14
 -1       354 7.78580E-03-1.44684E-03-3.01466E-14
 -1       355 8.12763E-03-1.57250E-03-3.32846E-14
 -1       356 8.44362E-03-1.71239E-03-3.63742E-14
 -1       357 8.75263E-03-1.86216E-03-3.95582E-14
 -1       358 9.05617E-03-2.01635E-03-4.28427E-14
 -1       359 9.35537E-03-2.17202E-03-4.62261E-14
 -1       360 9.65115E-03-2.32765E-03-4.96998E-14
 -1       361 9.94428E-03-2.48254E-03-5.32602E-14
 -1       362 1.02354E-02-2.63638E-03-5.68999E-14
 -1       363 1.05249E-02-2.78913E-03-6.06167E-14
 -1       364 1.08133E-02-2.94083E-03-6.44064E-14
 -1       365 1.11009E-02-3.09158E-03-6.82695E-14
 -1       366 1.13878E-02-3.24152E-03-7.22020E-14
 -1       367 1.16743E-02-3.39074E-03-7.61993E-14
 -1       368 1.19605E-02-3.53939E-03-8.02619E-14
 -1       369 1.22607E-02-3.69494E-03-8.45906E-14
 -1       370 1.25466E-02-3.84269E-03-8.87685E-14
 -1       371 1.28323E-02-3.99013E-03-9.30023E-14
 -1       372 1.31180E-02-4.13732E-03-9.72905E-14
 -1       373 1.34036E-02-4.28433E-03-1.01625E-13
 -1       374 1.36892E-02-4.43119E-03-1.06013E-13
 -1       375 1.39749E-02-4.57794E-03-1.10439E-13
 -1       376 1.42605E-02-4.72461E-03-1.14898E-13
 -1       377 1.45462E-02-4.87123E-03-1.19386E-13
 -1       378 1.48318E-02-5.01781E-03-1.23898E-13
 -1       379 1.51175E-02-5.16437E-03-1.28428E-13
 -1       380 1.54032E-02-5.31093E-03-1.32965E-13
 -1       381 1.56889E-02-5.45750E-03-1.37514E-13
 -1       382 1.30479E-03 4.37748E-04-9.57069E-16
 -1       383 1.59609E-03 4.84211E-04-1.51833E-15
 -1       384 1.88637E-03 5.22971E-04-2.21453E-15
 -1       385 2.17597E-03 5.57586E-04-3.04778E-15
 -1       386 2.46448E-03 5.89912E-04-4.02023E-15
 -1       387 2.75089E-03 6.19791E-04-5.13286E-15
 -1       388 3.03389E-03 6.44747E-04-6.38598E-15
 -1       389 3.31227E-03 6.59937E-04-7.78138E-15
 -1       390 3.58545E-03 6.58720E-04-9.32150E-15
 -1       391 3.85400E-03 6.34003E-04-1.10083E-14
 -1       392 4.11984E-03 5.80183E-04-1.28410E-14
 -1       393 4.38578E-03 4.94964E-04-1.48220E-14
 -1       394 4.65476E-03 3.80228E-04-1.69454E-14
 -1       395 4.92893E-03 2.41478E-04-1.92085E-14
 -1       396 5.20911E-03 8.61978E-05-2.16099E-14
 -1       397 5.49492E-03-7.80607E-05-2.41448E-14
 -1       398 5.78514E-03-2.45097E-04-2.68133E-14
 -1       399 6.07828E-03-4.10691E-04-2.96129E-14
 -1       400 6.37290E-03-5.72557E-04-3.25405E-14
 -1       401 6.66787E-03-7.29917E-04-3.55911E-14
 -1       402 6.96241E-03-8.82976E-04-3.87601E-14
 -1       403 7.25604E-03-1.03245E-03-4.20411E-14
 -1       404 7.54854E-03-1.17924E-03-4.54254E-14
 -1       405 7.83984E-03-1.32420E-03-4.89143E-14
 -1       406 8.13002E-03-1.46808E-03-5.24948E-14
 -1       407 8.41919E-03-1.61145E-03-5.61692E-14
 -1       408 8.70750E-03-1.75470E-03-5.99370E-14
 -1       409 8.99510E-03-1.89809E-03-6.37850E-14
 -1       410 9.28214E-03-2.04179E-03-6.77060E-14
 -1       411 9.56875E-03-2.18587E-03-7.16938E-14
 -1       412 9.85503E-03-2.33034E-03-7.57441E-14
 -1       413 1.01411E-02-2.47518E-03-7.98596E-14
 -1       414 1.04270E-02-2.62036E-03-8.40376E-14
 -1       415 1.07127E-02-2.76583E-03-8.82734E-14
 -1       416 1.09984E-02-2.91156E-03-9.25608E-14
 -1       417 1.12841E-02-3.05748E-03-9.68921E-14
 -1       418 1.15697E-02-3.20356E-03-1.01270E-13
 -1       419 1.18554E-02-3.34976E-03-1.05699E-13
 -1       420 1.21410E-02-3.49606E-03-1.10169E-13
 -1       421 1.24266E-02-3.64242E-03-1.14672E-13
 -1       422 1.27123E-02-3.78883E-03-1.19206E-13
 -1       423 1.29980E-02-3.93527E-03-1.23762E-13
 -1       424 1.32837E-02-4.08172E-03-1.28336E-13
 -1       425 1.35693E-02-4.22817E-03-1.32928E-13
 -1       426 1.38000E-02-4.34573E-03-1.36770E-13
 -1       427 1.41430E-02-4.54724E-03-1.37269E-13
 -1       428 1.39991E-02-4.46293E-03-1.37019E-13
 -1       429 1.42845E-02-4.63013E-03-1.37496E-13
 -1       430 1.44285E-02-4.71447E-03-1.37709E-13
 -1       431 1.45725E-02-4.79881E-03-1.37898E-13
 -1       432 1.47165E-02-4.88315E-03-1.38068E-13
 -1       433 1.48606E-02-4.96750E-03-1.38218E-13
 -1       434 1.50047E-02-5.05184E-03-1.38346E-13
 -1       435 1.51464E-02-5.13475E-03-1.38448E-13
 -1       436 1.52905E-02-5.21908E-03-1.38528E-13
 -1       437 1.54347E-02-5.30341E-03-1.38596E-13
 -1       438 1.55789E-02-5.38772E-03-1.38658E-13
 -1       439 1.07483E-03 4.02065E-04-5.84748E-16
 -1       440 6.75147E-03-7.76092E-04-2.06634E-14
 -1       441 5.97873E-03-4.15379E-04-1.89202E-14
 -1       442 7.27265E-03-9.70692E-04-2.14480E-14
 -1       443 6.39852E-03-6.20991E-04-1.98901E-14
 -1       444 4.43380E-04-1.02285E-04-2.35814E-16
 -1       445 5.48635E-03-1.44863E-04-1.75298E-14
 -1       446 5.09659E-03 6.89621E-05-1.61232E-14
 -1       447 4.74638E-03 2.06008E-04-1.47125E-14
 -1       448 4.41222E-03 2.40330E-04-1.33969E-14
 -1       449 4.07424E-03 1.85141E-04-1.21158E-14
 -1       450 3.61899E-03 2.82841E-06-1.08022E-14
 -1       451 3.24532E-03-1.63198E-04-1.00671E-14
 -1       452 2.90141E-03-3.11737E-04-9.33811E-15
 -1       453 2.62152E-03-4.17602E-04-9.01942E-15
 -1       454 2.46074E-03-4.85205E-04-8.69436E-15
 -1       455 2.44069E-03-5.33967E-04-8.48074E-15
 -1       456 2.63644E-03-6.21029E-04-8.65548E-15
 -1       457 2.91327E-03-7.70987E-04-9.17035E-15
 -1       458 3.31050E-03-9.56206E-04-9.54735E-15
 -1       459 3.87095E-03-1.30274E-03-1.04075E-14
 -1       460 4.71674E-03-1.89505E-03-1.25906E-14
 -1       461 5.12258E-03-2.03359E-03-1.40335E-14
 -1       462 5.94479E-03-1.76004E-03-1.70967E-14
 -1       463 6.35623E-03-1.50939E-03-1.85898E-14
 -1       464 6.76497E-03-1.28091E-03-1.98069E-14
 -1       465 7.08703E-03-1.12732E-03-2.05811E-14
 -1       466 7.26537E-03-1.03686E-03-2.12876E-14
 -1       467 7.12537E-03-9.15788E-04-2.13803E-14
 -1       468 6.95489E-03-8.95741E-04-2.18317E-14
 -1       469 7.31635E-03-1.02036E-03-2.23533E-14
 -1       470 4.34788E-03-1.66715E-03-1.16213E-14
 -1       471 5.64424E-03-1.92594E-03-1.61014E-14
 -1       472 5.38387E-03-2.01539E-03-1.50452E-14
 -1       473 6.37504E-04-7.05312E-05-5.37358E-16
 -1       474 6.46720E-04-9.87403E-05-5.31069E-16
 -1       475 6.38587E-04-1.56030E-05-5.30209E-16
 -1       476 6.45882E-04 1.55249E-05-5.18208E-16
 -1       477 6.55596E-04 5.01465E-05-5.00586E-16
 -1       478 6.67342E-04 9.01687E-05-4.75853E-16
 -1       479 6.81192E-04 1.35817E-04-4.42778E-16
 -1       480 6.98716E-04 1.88386E-04-3.97645E-16
 -1       481 7.23882E-04 2.50179E-04-3.36421E-16
 -1       482 7.80293E-04 2.99863E-04-3.25860E-16
 -1       483 9.94331E-04-2.75817E-04-8.47883E-16
 -1       484 1.28447E-03-3.19712E-04-1.38949E-15
 -1       485 1.57287E-03-3.52253E-04-2.06322E-15
 -1       486 1.85892E-03-3.79908E-04-2.86795E-15
 -1       487 2.14257E-03-4.10900E-04-3.80027E-15
 -1       488 2.42520E-03-4.56223E-04-4.85784E-15
 -1       489 2.71222E-03-5.31491E-04-6.03980E-15
 -1       490 3.01765E-03-6.60544E-04-7.34363E-15
 -1       491 6.56012E-03-7.71993E-04-2.14880E-14
 -1       492 7.02341E-03-1.24874E-03-2.32172E-14
 -1       493 7.34415E-03-1.25574E-03-2.59255E-14
 -1       494 7.64256E-03-1.32690E-03-2.87397E-14
 -1       495 7.94808E-03-1.44277E-03-3.18100E-14
 -1       496 8.23788E-03-1.57593E-03-3.48402E-14
 -1       497 8.52816E-03-1.72136E-03-3.79699E-14
 -1       498 8.81883E-03-1.87309E-03-4.11965E-14
 -1       499 9.10946E-03-2.02756E-03-4.45236E-14
 -1       500 9.39967E-03-2.18281E-03-4.79465E-14
 -1       501 9.68924E-03-2.33775E-03-5.14585E-14
 -1       502 9.97812E-03-2.49190E-03-5.50533E-14
 -1       503 1.02663E-02-2.64505E-03-5.87251E-14
 -1       504 1.05540E-02-2.79717E-03-6.24716E-14
 -1       505 1.08411E-02-2.94833E-03-6.62915E-14
 -1       506 1.11278E-02-3.09863E-03-7.01819E-14
 -1       507 1.14143E-02-3.24817E-03-7.41395E-14
 -1       508 1.17004E-02-3.39707E-03-7.81627E-14
 -1       509 1.20008E-02-3.55285E-03-8.24575E-14
 -1       510 1.22867E-02-3.70077E-03-8.66026E-14
 -1       511 1.25725E-02-3.84834E-03-9.08032E-14
 -1       512 1.28582E-02-3.99564E-03-9.50620E-14
 -1       513 1.31439E-02-4.14273E-03-9.93664E-14
 -1       514 1.34296E-02-4.28964E-03-1.03724E-13
 -1       515 1.37153E-02-4.43644E-03-1.08127E-13
 -1       516 1.40010E-02-4.58314E-03-1.12571E-13
 -1       517 1.42867E-02-4.72978E-03-1.17045E-13
 -1       518 1.45723E-02-4.87637E-03-1.21556E-13
 -1       519 1.48580E-02-5.02294E-03-1.26084E-13
 -1       520 1.51437E-02-5.16950E-03-1.30629E-13
 -1       521 1.53613E-02-5.27861E-03-1.34634E-13
 -1       522 2.00673E-03 4.62565E-04-2.78948E-15
 -1       523 1.71129E-03 4.27741E-04-2.00618E-15
 -1       524 1.41656E-03 3.87722E-04-1.35551E-15
 -1       525 2.30294E-03 4.95028E-04-3.70912E-15
 -1       526 2.59939E-03 5.26360E-04-4.76659E-15
 -1       527 2.89492E-03 5.55627E-04-5.96256E-15
 -1       528 3.18789E-03 5.79262E-04-7.29764E-15
 -1       529 3.47666E-03 5.91010E-04-8.77553E-15
 -1       530 3.76045E-03 5.82765E-04-1.03975E-14
 -1       531 4.04006E-03 5.46584E-04-1.21667E-14
 -1       532 4.31792E-03 4.77301E-04-1.40825E-14
 -1       533 4.59729E-03 3.74576E-04-1.61414E-14
 -1       534 4.88086E-03 2.43138E-04-1.83424E-14
 -1       535 5.16975E-03 9.10413E-05-2.06809E-14
 -1       536 5.46342E-03-7.28746E-05-2.31578E-14
 -1       537 5.76026E-03-2.41100E-04-2.57669E-14
 -1       538 6.05846E-03-4.08443E-04-2.85093E-14
 -1       539 6.35653E-03-5.72042E-04-3.13778E-14
 -1       540 6.65350E-03-7.30847E-04-3.43713E-14
 -1       541 6.94891E-03-8.84975E-04-3.74848E-14
 -1       542 7.24264E-03-1.03515E-03-4.07108E-14
 -1       543 7.53478E-03-1.18233E-03-4.40405E-14
 -1       544 7.82553E-03-1.32745E-03-4.74755E-14
 -1       545 8.11511E-03-1.47130E-03-5.10098E-14
 -1       546 8.40374E-03-1.61451E-03-5.46342E-14
 -1       547 8.69161E-03-1.75755E-03-5.83490E-14
 -1       548 8.97890E-03-1.90070E-03-6.21516E-14
 -1       549 9.26574E-03-2.04414E-03-6.60271E-14
 -1       550 9.55223E-03-2.18797E-03-6.99741E-14
 -1       551 9.83847E-03-2.33222E-03-7.39850E-14
 -1       552 1.01245E-02-2.47687E-03-7.80585E-14
 -1       553 1.04104E-02-2.62189E-03-8.21946E-14
 -1       554 1.06963E-02-2.76723E-03-8.63898E-14
 -1       555 1.09820E-02-2.91284E-03-9.06438E-14
 -1       556 1.12677E-02-3.05868E-03-9.49499E-14
 -1       557 1.15534E-02-3.20469E-03-9.93043E-14
 -1       558 1.18391E-02-3.35085E-03-1.03709E-13
 -1       559 1.21248E-02-3.49711E-03-1.08156E-13
 -1       560 1.24105E-02-3.64345E-03-1.12641E-13
 -1       561 1.26962E-02-3.78984E-03-1.17158E-13
 -1       562 1.29819E-02-3.93627E-03-1.21705E-13
 -1       563 1.32676E-02-4.08272E-03-1.26273E-13
 -1       564 1.35533E-02-4.22918E-03-1.30858E-13
 -1       565 1.41091E-02-4.54546E-03-1.33595E-13
 -1       566 1.39676E-02-4.46257E-03-1.33381E-13
 -1       567 1.38236E-02-4.37826E-03-1.33146E-13
 -1       568 1.42530E-02-4.62979E-03-1.33793E-13
 -1       569 1.43970E-02-4.71412E-03-1.33970E-13
 -1       570 1.45411E-02-4.79845E-03-1.34127E-13
 -1       571 1.46852E-02-4.88278E-03-1.34265E-13
 -1       572 1.48269E-02-4.96568E-03-1.34384E-13
 -1       573 1.49710E-02-5.05001E-03-1.34485E-13
 -1       574 1.51152E-02-5.13433E-03-1.34574E-13
 -1       575 1.52382E-02-5.20647E-03-1.34607E-13
 -1       576 7.23745E-04-2.11237E-04-4.79790E-16
 -1       577 6.19886E-03-5.99771E-04-2.04685E-14
 -1       578 5.70316E-03-3.36358E-04-1.92064E-14
 -1       579 7.21112E-03-1.08006E-03-2.20906E-14
 -1       580 6.63980E-03-1.35778E-03-2.06152E-14
 -1       581 6.35261E-04-4.36934E-05-5.36907E-16
 -1       582 4.84690E-03 1.61175E-04-1.55601E-14
 -1       583 5.23744E-03-4.04728E-05-1.71935E-14
 -1       584 4.52689E-03 2.54842E-04-1.39312E-14
 -1       585 4.24179E-03 2.49779E-04-1.26210E-14
 -1       586 3.79990E-03 1.16692E-04-1.08571E-14
 -1       587 3.37371E-03-9.21787E-05-9.74970E-15
 -1       588 3.06070E-03-2.30786E-04-9.04273E-15
 -1       589 2.68886E-03-3.75278E-04-8.39801E-15
 -1       590 2.50191E-03-4.35317E-04-8.09103E-15
 -1       591 2.39694E-03-4.73381E-04-7.85800E-15
 -1       592 2.48716E-03-5.13300E-04-7.78912E-15
 -1       593 2.82035E-03-6.36055E-04-8.23724E-15
 -1       594 3.14457E-03-7.76582E-04-8.57426E-15
 -1       595 3.59933E-03-1.03346E-03-9.21539E-15
 -1       596 6.12863E-03-1.65368E-03-1.83351E-14
 -1       597 6.98136E-03-1.17363E-03-2.13174E-14
 -1       598 7.24213E-03-9.92085E-04-2.26912E-14
 -1       599 6.63713E-04-1.31556E-04-5.16585E-16
 -1       600 1.01318E-03 3.48635E-04-6.06157E-16
 -1       601 7.12892E-03-9.80928E-04-2.31455E-14
 -1       602 1.21457E-03 3.72183E-04-9.43520E-16
 -1       603 7.31873E-03-1.06232E-03-2.31687E-14
 -1       604 8.79887E-04 4.03783E-05-8.78773E-16
 -1       605 8.66371E-04-3.49166E-06-9.01724E-16
 -1       606 9.14011E-04 1.44469E-04-8.03563E-16
 -1       607 9.35069E-04 2.05880E-04-7.46724E-16
 -1       608 9.55845E-04 2.97714E-04-6.15657E-16
 -1       609 1.09178E-03-2.43972E-04-1.15741E-15
 -1       610 1.36769E-03-2.80424E-04-1.77750E-15
 -1       611 1.63801E-03-3.10768E-04-2.52635E-15
 -1       612 1.89982E-03-3.40500E-04-3.40215E-15
 -1       613 2.15034E-03-3.76519E-04-4.40273E-15
 -1       614 2.38801E-03-4.27279E-04-5.52561E-15
 -1       615 2.61480E-03-5.04586E-04-6.76567E-15
 -1       616 7.30954E-03-1.15073E-03-2.46004E-14
 -1       617 7.54551E-03-1.21818E-03-2.73561E-14
 -1       618 7.80047E-03-1.32557E-03-3.03576E-14
 -1       619 8.05427E-03-1.44967E-03-3.33214E-14
 -1       620 8.31811E-03-1.58735E-03-3.63901E-14
 -1       621 8.58979E-03-1.73330E-03-3.95589E-14
 -1       622 8.86702E-03-1.88387E-03-4.28297E-14
 -1       623 9.14794E-03-2.03665E-03-4.62016E-14
 -1       624 9.43115E-03-2.19017E-03-4.96640E-14
 -1       625 9.71573E-03-2.34356E-03-5.32095E-14
 -1       626 1.00011E-02-2.49638E-03-5.68363E-14
 -1       627 1.02868E-02-2.64843E-03-6.05393E-14
 -1       628 1.05727E-02-2.79965E-03-6.43150E-14
 -1       629 1.08587E-02-2.95007E-03-6.81629E-14
 -1       630 1.11446E-02-3.09977E-03-7.20817E-14
 -1       631 1.14305E-02-3.24884E-03-7.60701E-14
 -1       632 1.17307E-02-3.40477E-03-8.03239E-14
 -1       633 1.20165E-02-3.55282E-03-8.44385E-14
 -1       634 1.23023E-02-3.70050E-03-8.86099E-14
 -1       635 1.25881E-02-3.84789E-03-9.28362E-14
 -1       636 1.28738E-02-3.99504E-03-9.71135E-14
 -1       637 1.31596E-02-4.14202E-03-1.01438E-13
 -1       638 1.34453E-02-4.28886E-03-1.05814E-13
 -1       639 1.37310E-02-4.43559E-03-1.10236E-13
 -1       640 1.40167E-02-4.58225E-03-1.14702E-13
 -1       641 1.43024E-02-4.72886E-03-1.19195E-13
 -1       642 1.45882E-02-4.87543E-03-1.23721E-13
 -1       643 1.48739E-02-5.02199E-03-1.28271E-13
 -1       644 1.50561E-02-5.11423E-03-1.31437E-13
 -1       645 1.83339E-03 3.66361E-04-2.52170E-15
 -1       646 2.13464E-03 3.96827E-04-3.38978E-15
 -1       647 1.53521E-03 3.33138E-04-1.78563E-15
 -1       648 2.74521E-03 4.57662E-04-5.53252E-15
 -1       649 3.05183E-03 4.87297E-04-6.80890E-15
 -1       650 3.35609E-03 5.10989E-04-8.22434E-15
 -1       651 3.65542E-03 5.20312E-04-9.78253E-15
 -1       652 3.94884E-03 5.04737E-04-1.14862E-14
 -1       653 4.23797E-03 4.55013E-04-1.33364E-14
 -1       654 4.52665E-03 3.66950E-04-1.53323E-14
 -1       655 4.81898E-03 2.43727E-04-1.74714E-14
 -1       656 5.11709E-03 9.42792E-05-1.97502E-14
 -1       657 5.42043E-03-7.03353E-05-2.21670E-14
 -1       658 5.72661E-03-2.40502E-04-2.47178E-14
 -1       659 6.03289E-03-4.09728E-04-2.74021E-14
 -1       660 6.33717E-03-5.74643E-04-3.02159E-14
 -1       661 6.63836E-03-7.34169E-04-3.31541E-14
 -1       662 6.93620E-03-8.88577E-04-3.62115E-14
 -1       663 7.23099E-03-1.03876E-03-3.93838E-14
 -1       664 7.52325E-03-1.18580E-03-4.26635E-14
 -1       665 7.81356E-03-1.33071E-03-4.60439E-14
 -1       666 8.10243E-03-1.47433E-03-4.95277E-14
 -1       667 8.39027E-03-1.61730E-03-5.31044E-14
 -1       668 8.67740E-03-1.76010E-03-5.67719E-14
 -1       669 8.96406E-03-1.90302E-03-6.05254E-14
 -1       670 9.25039E-03-2.04625E-03-6.43573E-14
 -1       671 9.53650E-03-2.18989E-03-6.82596E-14
 -1       672 9.82248E-03-2.33397E-03-7.22316E-14
 -1       673 1.01084E-02-2.47847E-03-7.62667E-14
 -1       674 1.03942E-02-2.62336E-03-8.03644E-14
 -1       675 1.06800E-02-2.76859E-03-8.45209E-14
 -1       676 1.09657E-02-2.91411E-03-8.87357E-14
 -1       677 1.12514E-02-3.05987E-03-9.30128E-14
 -1       678 1.15372E-02-3.20583E-03-9.73420E-14
 -1       679 1.18229E-02-3.35194E-03-1.01721E-13
 -1       680 1.21086E-02-3.49817E-03-1.06145E-13
 -1       681 1.23943E-02-3.64448E-03-1.10608E-13
 -1       682 1.26800E-02-3.79086E-03-1.15107E-13
 -1       683 1.29657E-02-3.93728E-03-1.19642E-13
 -1       684 1.32514E-02-4.08373E-03-1.24203E-13
 -1       685 1.35375E-02-4.23099E-03-1.28667E-13
 -1       686 1.40776E-02-4.54509E-03-1.29883E-13
 -1       687 6.86520E-03-9.19225E-04-2.32633E-14
 -1       688 1.39336E-02-4.46077E-03-1.29700E-13
 -1       689 1.36815E-02-4.31530E-03-1.28893E-13
 -1       690 1.42216E-02-4.62941E-03-1.30048E-13
 -1       691 8.61997E-04-1.12339E-04-9.17581E-16
 -1       692 1.43657E-02-4.71374E-03-1.30197E-13
 -1       693 1.45073E-02-4.79663E-03-1.30325E-13
 -1       694 1.46515E-02-4.88095E-03-1.30444E-13
 -1       695 1.47956E-02-4.96527E-03-1.30550E-13
 -1       696 5.40473E-03-1.68951E-04-1.85662E-14
 -1       697 8.95943E-04 8.95333E-05-8.46565E-16
 -1       698 5.03366E-03 5.46655E-05-1.68551E-14
 -1       699 2.60031E-03-5.14317E-04-7.20975E-15
 -1       700 3.98455E-03 2.37189E-04-1.14018E-14
 -1       701 6.01636E-03-5.38306E-04-2.10637E-14
 -1       702 6.34175E-03-7.07905E-04-2.21041E-14
 -1       703 7.17161E-03-1.13760E-03-2.30577E-14
 -1       704 3.48123E-03 2.60296E-05-9.57705E-15
 -1       705 4.36339E-03 2.80057E-04-1.32394E-14
 -1       706 2.34344E-03-4.38405E-04-6.92126E-15
 -1       707 3.15035E-03-1.30377E-04-8.71533E-15
 -1       708 2.77689E-03-2.78401E-04-7.87044E-15
 -1       709 2.51618E-03-3.72896E-04-7.43803E-15
 -1       710 2.37706E-03-4.18639E-04-7.22392E-15
 -1       711 2.43886E-03 4.26972E-04-4.39238E-15
 -1       712 4.64875E-03 2.30773E-04-1.48131E-14
 -1       713 1.38075E-02-4.38803E-03-1.29301E-13
 -1       714 7.34844E-03-1.04480E-03-2.38731E-14
 -1       715 8.57230E-04-4.24941E-05-9.16012E-16
 -1       716 7.29663E-03-1.04260E-03-2.43382E-14
 -1       717 2.37388E-03-4.31628E-04-6.37500E-15
 -1       718 8.80180E-04-1.49395E-04-9.02592E-16
 -1       719 6.67320E-03-8.65010E-04-2.38911E-14
 -1       720 8.54946E-04-7.78945E-05-9.21365E-16
 -1       721 9.28902E-04-2.04288E-04-8.88588E-16
 -1       722 1.49259E-02-5.03975E-03-1.30998E-13
 -1       723 1.23998E-03 2.93912E-04-1.17976E-15
 -1       724 5.71529E-03-3.66290E-04-2.03804E-14
 -1       725 3.68357E-03 1.75709E-04-1.00731E-14
 -1       726 7.31016E-03-1.10332E-03-2.38840E-14
 -1       727 1.10481E-03 1.73787E-05-1.36033E-15
 -1       728 1.17244E-03 2.06883E-04-1.20560E-15
 -1       729 2.23804E-03-3.77135E-04-6.16267E-15
 -1       730 2.75519E-03-5.76115E-04-7.59305E-15
 -1       731 1.11422E-03-2.12866E-04-1.30999E-15
 -1       732 7.13066E-03-1.01978E-03-2.48704E-14
 -1       733 1.44685E-03-2.49490E-04-2.18752E-15
 -1       734 1.69815E-03-2.81502E-04-3.00708E-15
 -1       735 1.93449E-03-3.16963E-04-3.95068E-15
 -1       736 2.14964E-03-3.60983E-04-5.01653E-15
 -1       737 7.66393E-03-1.22675E-03-2.88449E-14
 -1       738 7.87841E-03-1.33899E-03-3.17419E-14
 -1       739 8.11386E-03-1.46540E-03-3.47434E-14
 -1       740 8.36474E-03-1.60209E-03-3.78507E-14
 -1       741 8.62677E-03-1.74568E-03-4.10600E-14
 -1       742 8.89665E-03-1.89352E-03-4.43756E-14
 -1       743 9.17192E-03-2.04369E-03-4.77869E-14
 -1       744 9.45085E-03-2.19492E-03-5.12826E-14
 -1       745 9.73220E-03-2.34639E-03-5.48599E-14
 -1       746 1.00151E-02-2.49764E-03-5.85175E-14
 -1       747 1.02991E-02-2.64841E-03-6.22503E-14
 -1       748 1.05838E-02-2.79861E-03-6.60539E-14
 -1       749 1.08688E-02-2.94822E-03-6.99328E-14
 -1       750 1.11542E-02-3.09727E-03-7.38830E-14
 -1       751 1.14540E-02-3.25324E-03-7.81004E-14
 -1       752 1.17396E-02-3.40133E-03-8.21819E-14
 -1       753 1.20253E-02-3.54907E-03-8.63179E-14
 -1       754 1.23110E-02-3.69651E-03-9.05144E-14
 -1       755 1.25967E-02-3.84372E-03-9.47620E-14
 -1       756 1.28824E-02-3.99073E-03-9.90582E-14
 -1       757 1.31682E-02-4.13760E-03-1.03406E-13
 -1       758 1.34539E-02-4.28436E-03-1.07803E-13
 -1       759 1.37397E-02-4.43104E-03-1.12245E-13
 -1       760 1.40254E-02-4.57767E-03-1.16729E-13
 -1       761 1.43111E-02-4.72425E-03-1.21242E-13
 -1       762 1.45969E-02-4.87080E-03-1.25783E-13
 -1       763 4.43470E-03 2.90752E-04-1.38006E-14
 -1       764 1.96010E-03 2.98677E-04-3.06467E-15
 -1       765 1.65796E-03 2.72736E-04-2.24660E-15
 -1       766 3.21931E-03 4.16090E-04-7.67069E-15
 -1       767 2.89986E-03 3.83728E-04-6.31659E-15
 -1       768 3.84542E-03 4.51008E-04-1.08018E-14
 -1       769 4.14764E-03 4.26588E-04-1.25843E-14
 -1       770 4.44596E-03 3.58700E-04-1.45151E-14
 -1       771 4.74664E-03 2.46012E-04-1.65930E-14
 -1       772 5.05407E-03 9.84840E-05-1.88141E-14
 -1       773 5.36839E-03-6.92015E-05-2.11718E-14
 -1       774 5.68617E-03-2.43485E-04-2.36666E-14
 -1       775 6.00311E-03-4.15730E-04-2.62947E-14
 -1       776 6.31595E-03-5.81971E-04-2.90525E-14
 -1       777 6.62317E-03-7.41479E-04-3.19361E-14
 -1       778 6.92470E-03-8.95112E-04-3.49407E-14
 -1       779 7.22128E-03-1.04425E-03-3.80589E-14
 -1       780 7.51400E-03-1.19028E-03-4.12873E-14
 -1       781 7.80392E-03-1.33433E-03-4.46193E-14
 -1       782 8.09195E-03-1.47728E-03-4.80516E-14
 -1       783 8.37877E-03-1.61977E-03-5.15794E-14
 -1       784 8.66488E-03-1.76222E-03-5.51996E-14
 -1       785 8.95061E-03-1.90489E-03-5.89051E-14
 -1       786 9.23616E-03-2.04795E-03-6.26936E-14
 -1       787 9.52165E-03-2.19145E-03-6.65550E-14
 -1       788 9.80715E-03-2.33542E-03-7.04864E-14
 -1       789 1.00927E-02-2.47984E-03-7.44819E-14
 -1       790 1.03783E-02-2.62466E-03-7.85406E-14
 -1       791 1.06639E-02-2.76983E-03-8.26611E-14
 -1       792 1.09495E-02-2.91530E-03-8.68399E-14
 -1       793 1.12352E-02-3.06102E-03-9.10799E-14
 -1       794 1.15209E-02-3.20694E-03-9.53839E-14
 -1       795 1.18067E-02-3.35302E-03-9.97332E-14
 -1       796 1.20924E-02-3.49922E-03-1.04132E-13
 -1       797 1.23781E-02-3.64552E-03-1.08574E-13
 -1       798 1.26639E-02-3.79188E-03-1.13053E-13
 -1       799 1.29496E-02-3.93829E-03-1.17569E-13
 -1       800 1.32353E-02-4.08474E-03-1.22120E-13
 -1       801 1.34584E-02-4.20001E-03-1.25500E-13
 -1       802 1.39021E-02-4.46039E-03-1.25981E-13
 -1       803 3.17491E-03-7.31200E-06-8.27819E-15
 -1       804 1.41890E-02-4.62830E-03-1.26282E-13
 -1       805 1.40456E-02-4.54434E-03-1.26140E-13
 -1       806 1.44761E-02-4.79621E-03-1.26531E-13
 -1       807 6.24541E-03-6.65120E-04-2.31047E-14
 -1       808 4.82215E-03 1.61914E-04-1.61160E-14
 -1       809 4.09061E-03 3.03205E-04-1.19135E-14
 -1       810 5.23188E-03-6.61176E-05-1.83042E-14
 -1       811 2.49830E-03-2.78281E-04-6.67022E-15
 -1       812 1.43326E-02-4.71225E-03-1.26413E-13
 -1       813 2.32850E-03-3.47099E-04-6.42398E-15
 -1       814 1.37581E-02-4.37607E-03-1.25812E-13
 -1       815 3.53578E-03 4.42656E-04-9.16471E-15
 -1       816 7.47726E-03-1.13319E-03-2.60473E-14
 -1       817 2.85278E-03-1.51884E-04-7.47136E-15
 -1       818 7.42565E-03-1.09783E-03-2.51234E-14
 -1       819 1.14829E-03 1.38062E-04-1.27161E-15
 -1       820 2.19586E-03-3.71962E-04-5.65518E-15
 -1       821 5.97097E-03-5.09304E-04-2.23749E-14
 -1       822 1.09254E-03-1.59971E-04-1.38965E-15
 -1       823 5.52226E-03-2.41948E-04-2.00951E-14
 -1       824 2.58180E-03 3.52423E-04-5.09807E-15
 -1       825 1.35844E-02-4.27274E-03-1.25904E-13
 -1       826 3.36905E-03 1.39458E-04-8.72070E-15
 -1       827 1.07764E-03-1.19793E-04-1.40159E-15
 -1       828 1.36130E-03 2.43480E-04-1.55702E-15
 -1       829 3.81071E-03 2.74589E-04-1.05416E-14
 -1       830 1.12568E-03 7.46899E-05-1.32265E-15
 -1       831 2.26809E-03 3.24387E-04-4.01477E-15
 -1       832 7.43105E-03-1.09701E-03-2.56050E-14
 -1       833 1.36713E-02-4.32441E-03-1.25862E-13
 -1       834 1.08750E-03-3.37119E-05-1.38619E-15
 -1       835 6.97494E-03-9.85964E-04-2.55167E-14
 -1       836 7.34887E-03-1.08997E-03-2.61596E-14
 -1       837 1.76737E-03-2.63081E-04-3.50348E-15
 -1       838 1.98450E-03-3.06938E-04-4.51173E-15
 -1       839 7.70695E-03-1.25108E-03-3.02527E-14
 -1       840 2.85206E-03-2.73026E-05-6.99761E-15
 -1       841 7.92043E-03-1.36468E-03-3.31905E-14
 -1       842 8.15476E-03-1.49036E-03-3.62353E-14
 -1       843 8.40410E-03-1.62519E-03-3.93863E-14
 -1       844 8.66424E-03-1.76643E-03-4.26467E-14
 -1       845 8.93212E-03-1.91183E-03-4.60055E-14
 -1       846 9.20548E-03-2.05971E-03-4.94541E-14
 -1       847 9.48271E-03-2.20889E-03-5.29874E-14
 -1       848 9.76263E-03-2.35862E-03-5.66023E-14
 -1       849 1.00444E-02-2.50840E-03-6.02941E-14
 -1       850 1.03275E-02-2.65797E-03-6.40597E-14
 -1       851 1.06115E-02-2.80718E-03-6.79005E-14
 -1       852 1.08960E-02-2.95600E-03-7.18131E-14
 -1       853 1.11953E-02-3.11183E-03-7.59971E-14
 -1       854 1.14805E-02-3.25986E-03-8.00426E-14
 -1       855 1.17660E-02-3.40756E-03-8.41474E-14
 -1       856 1.20516E-02-3.55500E-03-8.83143E-14
 -1       857 1.23372E-02-3.70221E-03-9.25348E-14
 -1       858 1.26229E-02-3.84923E-03-9.68055E-14
 -1       859 1.29086E-02-3.99612E-03-1.01127E-13
 -1       860 1.31944E-02-4.14289E-03-1.05500E-13
 -1       861 1.34801E-02-4.28958E-03-1.09918E-13
 -1       862 1.37659E-02-4.43621E-03-1.14382E-13
 -1       863 1.40516E-02-4.58280E-03-1.18881E-13
 -1       864 1.42639E-02-4.68951E-03-1.22695E-13
 -1       865 4.35605E-03 3.48250E-04-1.36936E-14
 -1       866 4.04461E-03 3.86665E-04-1.18304E-14
 -1       867 4.98308E-03 1.07471E-04-1.78699E-14
 -1       868 5.30999E-03-6.68476E-05-2.01736E-14
 -1       869 5.64181E-03-2.49190E-04-2.26122E-14
 -1       870 5.97210E-03-4.27124E-04-2.51851E-14
 -1       871 6.29560E-03-5.95375E-04-2.78892E-14
 -1       872 6.61017E-03-7.54214E-04-3.07187E-14
 -1       873 6.91601E-03-9.05812E-04-3.36687E-14
 -1       874 7.21456E-03-1.05255E-03-3.67343E-14
 -1       875 7.50763E-03-1.19636E-03-3.99133E-14
 -1       876 7.79692E-03-1.33864E-03-4.31960E-14
 -1       877 8.08379E-03-1.48030E-03-4.65795E-14
 -1       878 8.36926E-03-1.62192E-03-5.00614E-14
 -1       879 8.65402E-03-1.76382E-03-5.36336E-14
 -1       880 8.93852E-03-1.90618E-03-5.72921E-14
 -1       881 9.22302E-03-2.04906E-03-6.10349E-14
 -1       882 9.50766E-03-2.19249E-03-6.48568E-14
 -1       883 9.79249E-03-2.33644E-03-6.87455E-14
 -1       884 1.00775E-02-2.48085E-03-7.27040E-14
 -1       885 1.03627E-02-2.62568E-03-7.67256E-14
 -1       886 1.06481E-02-2.77086E-03-8.08095E-14
 -1       887 1.09336E-02-2.91634E-03-8.49558E-14
 -1       888 1.12192E-02-3.06206E-03-8.91575E-14
 -1       889 1.15048E-02-3.20798E-03-9.34261E-14
 -1       890 1.17905E-02-3.35405E-03-9.77519E-14
 -1       891 1.20762E-02-3.50025E-03-1.02122E-13
 -1       892 1.23619E-02-3.64654E-03-1.06537E-13
 -1       893 1.26477E-02-3.79290E-03-1.10997E-13
 -1       894 1.29334E-02-3.93930E-03-1.15492E-13
 -1       895 1.32192E-02-4.08575E-03-1.20027E-13
 -1       896 1.34018E-02-4.17924E-03-1.22960E-13
 -1       897 1.07714E-03-7.88405E-05-1.39989E-15
 -1       898 2.53482E-03-1.64262E-04-6.25246E-15
 -1       899 5.05524E-03 4.67394E-05-1.78268E-14
 -1       900 4.66584E-03 2.52348E-04-1.57081E-14
 -1       901 3.06009E-03 3.05161E-04-7.11644E-15
 -1       902 1.78183E-03 2.05227E-04-2.73685E-15
 -1       903 4.21956E-03 3.42844E-04-1.27263E-14
 -1       904 6.64605E-03-8.55869E-04-2.55118E-14
 -1       905 1.35827E-02-4.29137E-03-1.21942E-13
 -1       906 1.53108E-03-2.26366E-04-2.61732E-15
 -1       907 1.33411E-03 1.66735E-04-1.63886E-15
 -1       908 1.55571E-03 1.86460E-04-2.15303E-15
 -1       909 1.30251E-03-1.71626E-04-1.96726E-15
 -1       910 7.52813E-03-1.15354E-03-2.74170E-14
 -1       911 5.32257E-03-1.03643E-04-1.95854E-14
 -1       912 7.23892E-03-1.07699E-03-2.68293E-14
 -1       913 3.03869E-03 1.05460E-04-7.39303E-15
 -1       914 6.37876E-03-7.23234E-04-2.47490E-14
 -1       915 1.32887E-03-1.76868E-05-1.94246E-15
 -1       916 2.72840E-03 2.70737E-04-5.82259E-15
 -1       917 3.72452E-03 3.78402E-04-1.01159E-14
 -1       918 2.24199E-03-2.64512E-04-5.59585E-15
 -1       919 2.08826E-03 2.23296E-04-3.63455E-15
 -1       920 1.37261E-02-4.37532E-03-1.22107E-13
 -1       921 3.50483E-03 2.50595E-04-9.14095E-15
 -1       922 1.41203E-02-4.60557E-03-1.22574E-13
 -1       923 1.38695E-02-4.45926E-03-1.22259E-13
 -1       924 2.13322E-03-3.09499E-04-5.36647E-15
 -1       925 1.35557E-03 4.66495E-05-1.90159E-15
 -1       926 3.39459E-03 3.44745E-04-8.54638E-15
 -1       927 2.04887E-03-3.09090E-04-4.93391E-15
 -1       928 1.34958E-02-4.23971E-03-1.21997E-13
 -1       929 1.39949E-02-4.53241E-03-1.22421E-13
 -1       930 5.75322E-03-3.60507E-04-2.21329E-14
 -1       931 1.86365E-03-2.52164E-04-4.01206E-15
 -1       932 5.94487E-03-4.44386E-04-2.40737E-14
 -1       933 1.34533E-03 1.05904E-04-1.77372E-15
 -1       934 7.92515E-03-1.38344E-03-3.46253E-14
 -1       935 8.16704E-03-1.50814E-03-3.77179E-14
 -1       936 8.42045E-03-1.64122E-03-4.09195E-14
 -1       937 8.68251E-03-1.78033E-03-4.42252E-14
 -1       938 8.95105E-03-1.92351E-03-4.76257E-14
 -1       939 9.22438E-03-2.06927E-03-5.11140E-14
 -1       940 9.50124E-03-2.21654E-03-5.46870E-14
 -1       941 9.78066E-03-2.36460E-03-5.83380E-14
 -1       942 1.00619E-02-2.51296E-03-6.20641E-14
 -1       943 1.03446E-02-2.66134E-03-6.58665E-14
 -1       944 1.06282E-02-2.80959E-03-6.97405E-14
 -1       945 1.09267E-02-2.96501E-03-7.38884E-14
 -1       946 1.12115E-02-3.11279E-03-7.79018E-14
 -1       947 1.14966E-02-3.26032E-03-8.19753E-14
 -1       948 1.17819E-02-3.40765E-03-8.61068E-14
 -1       949 1.20675E-02-3.55478E-03-9.03002E-14
 -1       950 1.23531E-02-3.70177E-03-9.45491E-14
 -1       951 1.26388E-02-3.84863E-03-9.88487E-14
 -1       952 1.29245E-02-3.99539E-03-1.03196E-13
 -1       953 1.32102E-02-4.14207E-03-1.07593E-13
 -1       954 1.34960E-02-4.28870E-03-1.12033E-13
 -1       955 1.37818E-02-4.43529E-03-1.16515E-13
 -1       956 1.39510E-02-4.52043E-03-1.19536E-13
 -1       957 1.30727E-03-7.42256E-05-1.96804E-15
 -1       958 7.51611E-03-1.17719E-03-2.89390E-14
 -1       959 6.28067E-03-6.16127E-04-2.67251E-14
 -1       960 6.60326E-03-7.73617E-04-2.95013E-14
 -1       961 6.91311E-03-9.21648E-04-3.23985E-14
 -1       962 7.21284E-03-1.06431E-03-3.54120E-14
 -1       963 7.50540E-03-1.20444E-03-3.85381E-14
 -1       964 7.79324E-03-1.34383E-03-4.17733E-14
 -1       965 8.07827E-03-1.48342E-03-4.51093E-14
 -1       966 8.36183E-03-1.62368E-03-4.85466E-14
 -1       967 8.64480E-03-1.76477E-03-5.20707E-14
 -1       968 8.92773E-03-1.90671E-03-5.56850E-14
 -1       969 9.21090E-03-2.04943E-03-5.93821E-14
 -1       970 9.49447E-03-2.19284E-03-6.31614E-14
 -1       971 9.77845E-03-2.33685E-03-6.70138E-14
 -1       972 1.00628E-02-2.48137E-03-7.09316E-14
 -1       973 1.03476E-02-2.62630E-03-7.49175E-14
 -1       974 1.06326E-02-2.77158E-03-7.89661E-14
 -1       975 1.09178E-02-2.91714E-03-8.30756E-14
 -1       976 1.12032E-02-3.06293E-03-8.72479E-14
 -1       977 1.14888E-02-3.20890E-03-9.14792E-14
 -1       978 1.17744E-02-3.35501E-03-9.57700E-14
 -1       979 1.20601E-02-3.50123E-03-1.00116E-13
 -1       980 1.23458E-02-3.64753E-03-1.04506E-13
 -1       981 1.26316E-02-3.79389E-03-1.08940E-13
 -1       982 1.29173E-02-3.94031E-03-1.13413E-13
 -1       983 1.32031E-02-4.08675E-03-1.17926E-13
 -1       984 7.05387E-03-1.02708E-03-2.78894E-14
 -1       985 1.29636E-03-1.23243E-04-1.97883E-15
 -1       986 2.01390E-03-2.38942E-04-4.61065E-15
 -1       987 2.50012E-03-4.00894E-05-5.68789E-15
 -1       988 2.40374E-03 2.43977E-04-4.66273E-15
 -1       989 3.95804E-03 3.50646E-04-1.12937E-14
 -1       990 1.63251E-03-2.10052E-04-3.06310E-15
 -1       991 2.20486E-03-1.59777E-04-5.01739E-15
 -1       992 7.71041E-03-1.27446E-03-3.17323E-14
 -1       993 3.62210E-03 3.20902E-04-9.62493E-15
 -1       994 2.87345E-03 1.81365E-04-6.56483E-15
 -1       995 2.67568E-03 7.16670E-05-6.03927E-15
 -1       996 6.83297E-03-9.30175E-04-2.79772E-14
 -1       997 1.90327E-03 1.29583E-04-3.25533E-15
 -1       998 1.54977E-03-6.39455E-05-2.62127E-15
 -1       999 1.32899E-02-4.13840E-03-1.17876E-13
 -1      1000 1.34333E-02-4.22233E-03-1.18045E-13
 -1      1001 1.67592E-03 1.18572E-04-2.61332E-15
 -1      1002 1.35767E-02-4.30626E-03-1.18204E-13
 -1      1003 1.37021E-02-4.37939E-03-1.18370E-13
 -1      1004 1.58413E-03 6.53450E-06-2.58122E-15
 -1      1005 6.15895E-03-5.90431E-04-2.44678E-14
 -1      1006 1.59099E-03-1.44513E-04-2.88591E-15
 -1      1007 7.91415E-03-1.39436E-03-3.60594E-14
 -1      1008 8.16726E-03-1.52000E-03-3.92026E-14
 -1      1009 8.42756E-03-1.65283E-03-4.24523E-14
 -1      1010 8.69378E-03-1.79096E-03-4.58032E-14
 -1      1011 8.96473E-03-1.93279E-03-4.92456E-14
 -1      1012 9.23939E-03-2.07707E-03-5.27733E-14
 -1      1013 9.51693E-03-2.22290E-03-5.63831E-14
 -1      1014 9.79666E-03-2.36962E-03-6.00706E-14
 -1      1015 1.00781E-02-2.51680E-03-6.38354E-14
 -1      1016 1.03607E-02-2.66417E-03-6.76731E-14
 -1      1017 1.06584E-02-2.81894E-03-7.17810E-14
 -1      1018 1.09427E-02-2.96627E-03-7.57643E-14
 -1      1019 1.12274E-02-3.11349E-03-7.98050E-14
 -1      1020 1.15125E-02-3.26059E-03-8.39052E-14
 -1      1021 1.17979E-02-3.40757E-03-8.80688E-14
 -1      1022 1.20834E-02-3.55445E-03-9.22928E-14
 -1      1023 1.23690E-02-3.70124E-03-9.65666E-14
 -1      1024 1.26547E-02-3.84795E-03-1.00894E-13
 -1      1025 1.29404E-02-3.99460E-03-1.05270E-13
 -1      1026 1.32262E-02-4.14121E-03-1.09690E-13
 -1      1027 1.35119E-02-4.28778E-03-1.14154E-13
 -1      1028 2.15195E-03-4.89157E-05-4.48188E-15
 -1      1029 7.21917E-03-1.07984E-03-3.40897E-14
 -1      1030 7.50916E-03-1.21453E-03-3.71642E-14
 -1      1031 7.79390E-03-1.34976E-03-4.03487E-14
 -1      1032 8.07584E-03-1.48644E-03-4.36412E-14
 -1      1033 8.35660E-03-1.62484E-03-4.70300E-14
 -1      1034 8.63715E-03-1.76486E-03-5.05110E-14
 -1      1035 8.91807E-03-1.90629E-03-5.40799E-14
 -1      1036 9.19962E-03-2.04886E-03-5.77346E-14
 -1      1037 9.48190E-03-2.19234E-03-6.14684E-14
 -1      1038 9.76489E-03-2.33652E-03-6.52834E-14
 -1      1039 1.00485E-02-2.48126E-03-6.91646E-14
 -1      1040 1.03327E-02-2.62642E-03-7.31139E-14
 -1      1041 1.06173E-02-2.77190E-03-7.71249E-14
 -1      1042 1.09022E-02-2.91764E-03-8.12052E-14
 -1      1043 1.11874E-02-3.06357E-03-8.53404E-14
 -1      1044 1.14729E-02-3.20965E-03-8.95390E-14
 -1      1045 1.17584E-02-3.35584E-03-9.37982E-14
 -1      1046 1.20440E-02-3.50212E-03-9.81095E-14
 -1      1047 1.23297E-02-3.64846E-03-1.02475E-13
 -1      1048 1.26155E-02-3.79486E-03-1.06887E-13
 -1      1049 1.29012E-02-3.94129E-03-1.11338E-13
 -1      1050 7.19883E-03-1.08782E-03-3.03864E-14
 -1      1051 2.21345E-03 1.39013E-04-4.22890E-15
 -1      1052 6.61934E-03-8.17969E-04-2.76803E-14
 -1      1053 1.90384E-03-1.52612E-04-3.94408E-15
 -1      1054 1.38266E-02-4.44991E-03-1.18956E-13
 -1      1055 6.92496E-03-9.49887E-04-3.08136E-14
 -1      1056 7.41339E-03-1.16177E-03-2.97967E-14
 -1      1057 2.31219E-03 4.07828E-05-4.79482E-15
 -1      1058 1.79954E-03-1.16973E-04-3.50171E-15
 -1      1059 7.68294E-03-1.28334E-03-3.31197E-14
 -1      1060 2.53658E-03 1.54448E-04-5.33125E-15
 -1      1061 7.00866E-03-9.98601E-04-3.04577E-14
 -1      1062 2.01762E-03 4.53721E-05-3.79928E-15
 -1      1063 1.77974E-03-1.88575E-04-3.60043E-15
 -1      1064 1.79040E-03 4.28255E-05-3.10154E-15
 -1      1065 1.30446E-02-4.02517E-03-1.11510E-13
 -1      1066 1.33059E-02-4.17131E-03-1.13135E-13
 -1      1067 1.29710E-02-3.99598E-03-1.08647E-13
 -1      1068 1.79924E-03-3.42332E-05-3.30137E-15
 -1      1069 7.89919E-03-1.39798E-03-3.74951E-14
 -1      1070 8.16304E-03-1.52626E-03-4.06865E-14
 -1      1071 8.43049E-03-1.66013E-03-4.39846E-14
 -1      1072 8.70140E-03-1.79829E-03-4.73790E-14
 -1      1073 8.97540E-03-1.93955E-03-5.08602E-14
 -1      1074 9.25201E-03-2.08297E-03-5.44303E-14
 -1      1075 9.53079E-03-2.22780E-03-5.80773E-14
 -1      1076 9.81129E-03-2.37352E-03-6.18038E-14
 -1      1077 1.00932E-02-2.51979E-03-6.56069E-14
 -1      1078 1.03903E-02-2.67368E-03-6.96765E-14
 -1      1079 1.06741E-02-2.82039E-03-7.36268E-14
 -1      1080 1.09584E-02-2.96714E-03-7.76384E-14
 -1      1081 1.12432E-02-3.11390E-03-8.17102E-14
 -1      1082 1.15284E-02-3.26063E-03-8.58404E-14
 -1      1083 1.18138E-02-3.40732E-03-9.00338E-14
 -1      1084 1.20993E-02-3.55398E-03-9.42872E-14
 -1      1085 1.23849E-02-3.70060E-03-9.85881E-14
 -1      1086 1.26706E-02-3.84719E-03-1.02944E-13
 -1      1087 7.52096E-03-1.22592E-03-3.57902E-14
 -1      1088 8.35359E-03-1.62494E-03-4.55157E-14
 -1      1089 8.63090E-03-1.76373E-03-4.89538E-14
 -1      1090 8.90929E-03-1.90463E-03-5.24789E-14
 -1      1091 9.18891E-03-2.04713E-03-5.60886E-14
 -1      1092 9.46972E-03-2.19079E-03-5.97822E-14
 -1      1093 9.75160E-03-2.33530E-03-6.35526E-14
 -1      1094 1.00344E-02-2.48041E-03-6.73982E-14
 -1      1095 1.03180E-02-2.62593E-03-7.13117E-14
 -1      1096 1.06021E-02-2.77174E-03-7.52921E-14
 -1      1097 1.08868E-02-2.91776E-03-7.93361E-14
 -1      1098 1.11718E-02-3.06392E-03-8.34393E-14
 -1      1099 1.14570E-02-3.21018E-03-8.76009E-14
 -1      1100 1.17425E-02-3.35652E-03-9.18274E-14
 -1      1101 1.20280E-02-3.50290E-03-9.61089E-14
 -1      1102 1.23137E-02-3.64932E-03-1.00444E-13
 -1      1103 1.25994E-02-3.79577E-03-1.04832E-13
 -1      1104 1.28220E-02-3.91046E-03-1.08162E-13
 -1      1105 7.35978E-03-1.15573E-03-3.29583E-14
 -1      1106 8.07694E-03-1.48881E-03-4.21695E-14
 -1      1107 7.80000E-03-1.35579E-03-3.89268E-14
 -1      1108 7.65293E-03-1.28262E-03-3.45048E-14
 -1      1109 0.00000E+00 0.00000E+00 0.00000E+00
 -1      1110 0.00000E+00 0.00000E+00 0.00000E+00
 -1      1111 0.00000E+00 0.00000E+00 0.00000E+00
 -1      1112 0.00000E+00 0.00000E+00 0.00000E+00
 -1      1113 0.00000E+00 0.00000E+00 0.00000E+00
 -1      1114 0.00000E+00 0.00000E+00 0.00000E+00
 -1      1115 0.00000E+00 0.00000E+00 0.00000E+00
 -1      1116 0.00000E+00 0.00000E+00 0.00000E+00
 -1      1117 0.00000E+00 0.00000E+00 0.00000E+00
 -1      1118 0.00000E+00 0.00000E+00 0.00000E+00
 -1      1119 0.00000E+00 0.00000E+00 0.00000E+00
 -1      1120 0.00000E+00 0.00000E+00 0.00000E+00
 -1      1121 0.00000E+00 0.00000E+00 0.00000E+00
 -1      1122 0.00000E+00 0.00000E+00 0.00000E+00
 -1      1123 0.00000E+00 0.00000E+00 0.00000E+00
 -1      1124 0.00000E+00 0.00000E+00 0.00000E+00
 -1      1125 0.00000E+00 0.00000E+00 0.00000E+00
 -1      1126 2.12245E-04-1.43837E-04 1.56261E-17
 -1      1127 5.60134E-04-3.18940E-04-4.48995E-17
 -1      1128 8.57548E-04-4.25745E-04-2.39975E-16
 -1      1129 1.15049E-03-4.94519E-04-5.91365E-16
 -1      1130 1.44895E-03-5.41626E-04-1.08903E-15
 -1      1131 1.76013E-03-5.76786E-04-1.72815E-15
 -1      1132 2.09107E-03-6.08556E-04-2.50585E-15
 -1      1133 2.44925E-03-6.47632E-04-3.41945E-15
 -1      1134 2.84203E-03-7.09896E-04-4.46783E-15
 -1      1135 3.27395E-03-8.19144E-04-5.64919E-15
 -1      1136 3.74002E-03-1.00625E-03-6.96265E-15
 -1      1137 4.21523E-03-1.29579E-03-8.40994E-15
 -1      1138 4.64899E-03-1.66990E-03-1.00057E-14
 -1      1139 4.97502E-03-2.01355E-03-1.16802E-14
 -1      1140 5.22028E-03-2.20924E-03-1.35293E-14
 -1      1141 5.46606E-03-2.17825E-03-1.56195E-14
 -1      1142 5.79174E-03-1.97493E-03-1.78893E-14
 -1      1143 6.22359E-03-1.73896E-03-2.03749E-14
 -1      1144 6.70547E-03-1.58442E-03-2.29896E-14
 -1      1145 7.18426E-03-1.53717E-03-2.57243E-14
 -1      1146 7.63195E-03-1.57541E-03-2.85708E-14
 -1      1147 8.04215E-03-1.66848E-03-3.15230E-14
 -1      1148 8.42791E-03-1.79621E-03-3.46543E-14
 -1      1149 8.78617E-03-1.94113E-03-3.78801E-14
 -1      1150 9.11616E-03-2.09051E-03-4.11240E-14
 -1      1151 9.43239E-03-2.24336E-03-4.44698E-14
 -1      1152 9.73895E-03-2.39733E-03-4.79165E-14
 -1      1153 1.00388E-02-2.55127E-03-5.14514E-14
 -1      1154 1.03339E-02-2.70461E-03-5.50708E-14
 -1      1155 1.06258E-02-2.85712E-03-5.87675E-14
 -1      1156 1.09155E-02-3.00876E-03-6.25307E-14
 -1      1157 1.12036E-02-3.15955E-03-6.63715E-14
 -1      1158 1.14907E-02-3.30957E-03-7.02974E-14
 -1      1159 1.17772E-02-3.45892E-03-7.42784E-14
 -1      1160 1.20631E-02-3.60770E-03-7.83235E-14
 -1      1161 1.23488E-02-3.75598E-03-8.24359E-14
 -1      1162 1.26415E-02-3.90756E-03-8.67062E-14
 -1      1163 1.29341E-02-4.05880E-03-9.10305E-14
 -1      1164 1.32196E-02-4.20609E-03-9.52978E-14
 -1      1165 1.35050E-02-4.35317E-03-9.96219E-14
 -1      1166 1.37904E-02-4.50010E-03-1.03998E-13
 -1      1167 1.40759E-02-4.64690E-03-1.08410E-13
 -1      1168 1.43614E-02-4.79362E-03-1.12851E-13
 -1      1169 1.46470E-02-4.94027E-03-1.17315E-13
 -1      1170 1.49326E-02-5.08688E-03-1.21804E-13
 -1      1171 1.52182E-02-5.23346E-03-1.26312E-13
 -1      1172 1.55039E-02-5.38002E-03-1.30828E-13
 -1      1173 1.57896E-02-5.52659E-03-1.35348E-13
 -1      1174 1.60753E-02-5.67317E-03-1.39889E-13
 -1      1175 1.63610E-02-5.81976E-03-1.44434E-13
 -1      1176 2.29335E-04 1.58622E-04 3.96682E-17
 -1      1177 5.60116E-04 3.33385E-04 3.59142E-17
 -1      1178 8.49633E-04 4.46410E-04-8.52725E-17
 -1      1179 1.13067E-03 5.24166E-04-3.41429E-16
 -1      1180 1.40937E-03 5.81540E-04-7.33544E-16
 -1      1181 1.68836E-03 6.26782E-04-1.26358E-15
 -1      1182 1.96812E-03 6.64905E-04-1.93292E-15
 -1      1183 2.24763E-03 6.98967E-04-2.74502E-15
 -1      1184 2.52485E-03 7.30268E-04-3.70096E-15
 -1      1185 2.79709E-03 7.58168E-04-4.80001E-15
 -1      1186 3.06168E-03 7.79893E-04-6.04418E-15
 -1      1187 3.31669E-03 7.90652E-04-7.43225E-15
 -1      1188 3.56178E-03 7.84318E-04-8.96646E-15
 -1      1189 3.79870E-03 7.54719E-04-1.06475E-14
 -1      1190 4.03125E-03 6.97265E-04-1.24783E-14
 -1      1191 4.26456E-03 6.10353E-04-1.44619E-14
 -1      1192 4.50376E-03 4.95935E-04-1.65897E-14
 -1      1193 4.75280E-03 3.59008E-04-1.88555E-14
 -1      1194 5.01360E-03 2.06271E-04-2.12579E-14
 -1      1195 5.28602E-03 4.45592E-05-2.37926E-14
 -1      1196 5.56835E-03-1.20390E-04-2.64578E-14
 -1      1197 5.85801E-03-2.84541E-04-2.92572E-14
 -1      1198 6.15233E-03-4.45598E-04-3.21882E-14
 -1      1199 6.44893E-03-6.02668E-04-3.52497E-14
 -1      1200 6.74602E-03-7.55809E-04-3.84318E-14
 -1      1201 7.04242E-03-9.05604E-04-4.17213E-14
 -1      1202 7.33745E-03-1.05284E-03-4.51202E-14
 -1      1203 7.63085E-03-1.19830E-03-4.86211E-14
 -1      1204 7.92259E-03-1.34267E-03-5.22179E-14
 -1      1205 8.21283E-03-1.48649E-03-5.59118E-14
 -1      1206 8.50179E-03-1.63013E-03-5.96987E-14
 -1      1207 8.78972E-03-1.77386E-03-6.35757E-14
 -1      1208 9.07684E-03-1.91783E-03-6.75225E-14
 -1      1209 9.36337E-03-2.06212E-03-7.15272E-14
 -1      1210 9.64948E-03-2.20675E-03-7.55928E-14
 -1      1211 9.93531E-03-2.35171E-03-7.97364E-14
 -1      1212 1.02209E-02-2.49698E-03-8.39485E-14
 -1      1213 1.05065E-02-2.64252E-03-8.82133E-14
 -1      1214 1.07920E-02-2.78828E-03-9.25136E-14
 -1      1215 1.10774E-02-2.93423E-03-9.68525E-14
 -1      1216 1.13629E-02-3.08033E-03-1.01242E-13
 -1      1217 1.16484E-02-3.22654E-03-1.05674E-13
 -1      1218 1.19339E-02-3.37284E-03-1.10143E-13
 -1      1219 1.22195E-02-3.51920E-03-1.14656E-13
 -1      1220 1.25051E-02-3.66560E-03-1.19194E-13
 -1      1221 1.27907E-02-3.81203E-03-1.23752E-13
 -1      1222 1.30764E-02-3.95848E-03-1.28329E-13
 -1      1223 1.33621E-02-4.10492E-03-1.32920E-13
 -1      1224 1.36478E-02-4.25135E-03-1.37516E-13
 -1      1225 1.39264E-02-4.39411E-03-1.42003E-13
 -1      1226 1.41341E-02-4.50580E-03-1.44315E-13
 -1      1227 1.42780E-02-4.59008E-03-1.44588E-13
 -1      1228 1.44220E-02-4.67438E-03-1.44881E-13
 -1      1229 1.45659E-02-4.75869E-03-1.45171E-13
 -1      1230 1.47099E-02-4.84302E-03-1.45435E-13
 -1      1231 1.48526E-02-4.92665E-03-1.45649E-13
 -1      1232 1.49954E-02-5.01031E-03-1.45844E-13
 -1      1233 1.51394E-02-5.09469E-03-1.46041E-13
 -1      1234 1.52834E-02-5.17907E-03-1.46233E-13
 -1      1235 1.54275E-02-5.26346E-03-1.46375E-13
 -1      1236 1.55716E-02-5.34784E-03-1.46455E-13
 -1      1237 1.57146E-02-5.43149E-03-1.46528E-13
 -1      1238 1.58575E-02-5.51513E-03-1.46587E-13
 -1      1239 1.60017E-02-5.59946E-03-1.46601E-13
 -1      1240 1.61459E-02-5.68377E-03-1.46607E-13
 -1      1241 1.62900E-02-5.76806E-03-1.46632E-13
 -1      1242 1.64330E-02-5.85163E-03-1.46667E-13
 -1      1243 7.22932E-03-8.17232E-04-1.92513E-14
 -1      1244 7.04121E-03-6.50059E-04-1.90179E-14
 -1      1245 6.74741E-03-4.73482E-04-1.85323E-14
 -1      1246 6.40073E-03-3.07123E-04-1.78890E-14
 -1      1247 6.00219E-03-1.46508E-04-1.70965E-14
 -1      1248 5.55817E-03-7.21658E-07-1.61705E-14
 -1      1249 5.08707E-03 1.09646E-04-1.51556E-14
 -1      1250 4.62155E-03 1.66474E-04-1.41405E-14
 -1      1251 4.16654E-03 1.65617E-04-1.31658E-14
 -1      1252 3.70788E-03 1.07259E-04-1.22163E-14
 -1      1253 3.29013E-03 7.00585E-06-1.13943E-14
 -1      1254 2.94231E-03-1.17376E-04-1.07491E-14
 -1      1255 2.67554E-03-2.52917E-04-1.02735E-14
 -1      1256 2.50162E-03-3.93679E-04-9.96364E-15
 -1      1257 2.43162E-03-5.48621E-04-9.81853E-15
 -1      1258 2.48470E-03-7.18809E-04-9.86036E-15
 -1      1259 2.65192E-03-9.02263E-04-1.00801E-14
 -1      1260 2.92359E-03-1.10775E-03-1.04648E-14
 -1      1261 3.30299E-03-1.34297E-03-1.10396E-14
 -1      1262 3.77506E-03-1.59079E-03-1.18084E-14
 -1      1263 4.27665E-03-1.79398E-03-1.26810E-14
 -1      1264 4.78414E-03-1.92012E-03-1.36212E-14
 -1      1265 5.31684E-03-1.95188E-03-1.46629E-14
 -1      1266 5.85069E-03-1.87303E-03-1.57596E-14
 -1      1267 6.33467E-03-1.71483E-03-1.67957E-14
 -1      1268 6.73458E-03-1.52472E-03-1.76932E-14
 -1      1269 7.04262E-03-1.33011E-03-1.84395E-14
 -1      1270 7.23131E-03-1.15070E-03-1.89611E-14
 -1      1271 7.29426E-03-9.79430E-04-1.92369E-14
 -1      1272 1.69963E-04-1.05099E-04-6.32903E-18
 -1      1273 1.15903E-04-4.99931E-05-3.16723E-17
 -1      1274 1.21119E-04-6.15011E-05-2.46385E-17
 -1      1275 1.10585E-04-3.53300E-05-4.32190E-17
 -1      1276 1.13103E-04-4.17617E-05-3.97496E-17
 -1      1277 2.32933E-04-9.29686E-05-9.34040E-17
 -1      1278 1.07371E-04-2.56731E-05-4.94803E-17
 -1      1279 1.09039E-04-3.00664E-05-4.77049E-17
 -1      1280 2.22611E-04-6.66959E-05-1.13936E-16
 -1      1281 1.05031E-04-1.88818E-05-5.29904E-17
 -1      1282 1.06211E-04-2.20614E-05-5.21908E-17
 -1      1283 2.15729E-04-4.88464E-05-1.25727E-16
 -1      1284 1.03454E-04-1.38913E-05-5.46844E-17
 -1      1285 1.04213E-04-1.63034E-05-5.43592E-17
 -1      1286 2.10860E-04-3.61131E-05-1.32327E-16
 -1      1287 1.02561E-04-9.71840E-06-5.55789E-17
 -1      1288 1.02947E-04-1.18243E-05-5.55789E-17
 -1      1289 2.07687E-04-2.63167E-05-1.35539E-16
 -1      1290 1.02341E-04-5.76331E-06-5.53485E-17
 -1      1291 1.02382E-04-7.83414E-06-5.54840E-17
 -1      1292 2.06130E-04-1.78521E-05-1.36569E-16
 -1      1293 1.02676E-04-1.49691E-06-5.45354E-17
 -1      1294 1.02441E-04-3.76574E-06-5.48877E-17
 -1      1295 2.06034E-04-9.54263E-06-1.35661E-16
 -1      1296 1.03425E-04 3.43927E-06-5.28278E-17
 -1      1297 1.02988E-04 8.18218E-07-5.33427E-17
 -1      1298 2.07096E-04-4.51747E-07-1.32937E-16
 -1      1299 1.04458E-04 9.26378E-06-5.06322E-17
 -1      1300 1.03878E-04 6.19437E-06-5.13776E-17
 -1      1301 2.08985E-04 1.00420E-05-1.28627E-16
 -1      1302 1.05681E-04 1.59983E-05-4.72577E-17
 -1      1303 1.04993E-04 1.24729E-05-4.83825E-17
 -1      1304 2.11411E-04 2.22180E-05-1.22569E-16
 -1      1305 1.07166E-04 2.40552E-05-4.24330E-17
 -1      1306 1.06300E-04 1.98366E-05-4.41135E-17
 -1      1307 2.14280E-04 3.64710E-05-1.13882E-16
 -1      1308 1.09114E-04 3.37232E-05-3.53585E-17
 -1      1309 1.07904E-04 2.86234E-05-3.80284E-17
 -1      1310 2.17780E-04 5.34403E-05-1.01617E-16
 -1      1311 1.12221E-04 4.60561E-05-2.47740E-17
 -1      1312 1.10140E-04 3.94243E-05-2.93819E-17
 -1      1313 2.22541E-04 7.41486E-05-8.41341E-17
 -1      1314 1.19121E-04 6.45558E-05-8.25349E-18
 -1      1315 1.14344E-04 5.40985E-05-1.62495E-17
 -1      1316 2.30742E-04 1.01592E-04-5.88044E-17
 -1      1317 1.59419E-04 1.07725E-04 1.76047E-17
 -1      1318 1.38065E-04 8.32865E-05 1.89735E-18
 -1      1319 2.61112E-04 1.45659E-04-2.83790E-17
 -1      1320 3.39644E-04 2.15201E-04 1.48536E-17
 -1      1321 4.31573E-04-2.45454E-04-6.10948E-17
 -1      1322 5.90886E-04-3.12571E-04-1.26675E-16
 -1      1323 7.45679E-04-3.65421E-04-2.33131E-16
 -1      1324 8.97999E-04-4.07339E-04-3.77370E-16
 -1      1325 6.33779E-04-3.00807E-04-2.20269E-16
 -1      1326 1.04895E-03-4.41443E-04-5.57253E-16
 -1      1327 1.19972E-03-4.69074E-04-7.73619E-16
 -1      1328 9.43848E-04-3.86093E-04-5.18560E-16
 -1      1329 1.35147E-03-4.92053E-04-1.02566E-15
 -1      1330 1.50506E-03-5.11249E-04-1.31327E-15
 -1      1331 1.24932E-03-4.41810E-04-9.59600E-16
 -1      1332 1.66138E-03-5.27827E-04-1.63548E-15
 -1      1333 1.82119E-03-5.42779E-04-1.99196E-15
 -1      1334 1.55755E-03-4.79598E-04-1.54056E-15
 -1      1335 1.98528E-03-5.57171E-04-2.38271E-15
 -1      1336 2.15442E-03-5.72370E-04-2.80722E-15
 -1      1337 1.87445E-03-5.08084E-04-2.25857E-15
 -1      1338 2.32933E-03-5.89871E-04-3.26535E-15
 -1      1339 2.51071E-03-6.11638E-04-3.75692E-15
 -1      1340 2.20511E-03-5.36434E-04-3.11093E-15
 -1      1341 2.69915E-03-6.40145E-04-4.28158E-15
 -1      1342 2.89504E-03-6.78239E-04-4.83924E-15
 -1      1343 2.55414E-03-5.77419E-04-4.09599E-15
 -1      1344 3.09856E-03-7.29782E-04-5.42991E-15
 -1      1345 3.30922E-03-7.98585E-04-6.05347E-15
 -1      1346 2.92543E-03-6.50638E-04-5.21183E-15
 -1      1347 3.52636E-03-8.89389E-04-6.70892E-15
 -1      1348 3.74767E-03-1.00582E-03-7.39881E-15
 -1      1349 3.32149E-03-7.84897E-04-6.45789E-15
 -1      1350 3.97116E-03-1.15035E-03-8.12254E-15
 -1      1351 4.19200E-03-1.32224E-03-8.88256E-15
 -1      1352 3.74136E-03-1.01444E-03-7.83608E-15
 -1      1353 4.40702E-03-1.51540E-03-9.68119E-15
 -1      1354 4.60997E-03-1.71635E-03-1.05211E-14
 -1      1355 4.17579E-03-1.35680E-03-9.35604E-15
 -1      1356 4.78071E-03-1.88932E-03-1.13158E-14
 -1      1357 4.93952E-03-2.03523E-03-1.21473E-14
 -1      1358 4.58140E-03-1.74339E-03-1.09498E-14
 -1      1359 5.10338E-03-2.14836E-03-1.31193E-14
 -1      1360 5.26341E-03-2.19451E-03-1.41391E-14
 -1      1361 4.95916E-03-2.05855E-03-1.27060E-14
 -1      1362 5.41635E-03-2.17417E-03-1.51534E-14
 -1      1363 5.58051E-03-2.10138E-03-1.62121E-14
 -1      1364 5.32624E-03-2.15291E-03-1.46894E-14
 -1      1365 5.76745E-03-1.98622E-03-1.73694E-14
 -1      1366 5.96969E-03-1.85631E-03-1.85702E-14
 -1      1367 5.70975E-03-1.99678E-03-1.68554E-14
 -1      1368 6.18513E-03-1.73155E-03-1.98074E-14
 -1      1369 6.40790E-03-1.62644E-03-2.10808E-14
 -1      1370 6.13672E-03-1.73214E-03-1.92470E-14
 -1      1371 6.63478E-03-1.54870E-03-2.23857E-14
 -1      1372 6.86056E-03-1.50022E-03-2.37193E-14
 -1      1373 6.57648E-03-1.52273E-03-2.17853E-14
 -1      1374 7.08301E-03-1.47918E-03-2.50842E-14
 -1      1375 7.29961E-03-1.48205E-03-2.64785E-14
 -1      1376 7.00470E-03-1.42891E-03-2.44505E-14
 -1      1377 7.50956E-03-1.50418E-03-2.78994E-14
 -1      1378 7.71222E-03-1.54175E-03-2.93464E-14
 -1      1379 7.41063E-03-1.43790E-03-2.72308E-14
 -1      1380 7.90773E-03-1.59085E-03-3.08191E-14
 -1      1381 8.09638E-03-1.64869E-03-3.23174E-14
 -1      1382 7.79267E-03-1.51593E-03-3.01186E-14
 -1      1383 8.28767E-03-1.71619E-03-3.39181E-14
 -1      1384 8.47274E-03-1.78861E-03-3.55455E-14
 -1      1385 8.16168E-03-1.63740E-03-3.31876E-14
 -1      1386 8.64387E-03-1.86082E-03-3.71193E-14
 -1      1387 8.81067E-03-1.93506E-03-3.87165E-14
 -1      1388 8.51147E-03-1.78092E-03-3.63591E-14
 -1      1389 8.97370E-03-2.01080E-03-4.03366E-14
 -1      1390 9.13353E-03-2.08735E-03-4.19819E-14
 -1      1391 8.83799E-03-1.93110E-03-3.95501E-14
 -1      1392 9.29060E-03-2.16452E-03-4.36542E-14
 -1      1393 9.44534E-03-2.24187E-03-4.53526E-14
 -1      1394 9.15332E-03-2.08552E-03-4.28397E-14
 -1      1395 9.59811E-03-2.31939E-03-4.70724E-14
 -1      1396 9.74921E-03-2.39680E-03-4.88142E-14
 -1      1397 9.46027E-03-2.24122E-03-4.62291E-14
 -1      1398 9.89891E-03-2.47413E-03-5.05791E-14
 -1      1399 1.00474E-02-2.55124E-03-5.23653E-14
 -1      1400 9.76105E-03-2.39677E-03-4.97093E-14
 -1      1401 1.01950E-02-2.62817E-03-5.41721E-14
 -1      1402 1.03417E-02-2.70482E-03-5.59992E-14
 -1      1403 1.00573E-02-2.55151E-03-5.32761E-14
 -1      1404 1.04877E-02-2.78126E-03-5.78446E-14
 -1      1405 1.06331E-02-2.85742E-03-5.97079E-14
 -1      1406 1.03504E-02-2.70520E-03-5.69248E-14
 -1      1407 1.07780E-02-2.93336E-03-6.15893E-14
 -1      1408 1.09225E-02-3.00905E-03-6.34859E-14
 -1      1409 1.06411E-02-2.85781E-03-6.06466E-14
 -1      1410 1.10667E-02-3.08453E-03-6.54051E-14
 -1      1411 1.12106E-02-3.15979E-03-6.73467E-14
 -1      1412 1.09302E-02-3.00938E-03-6.44430E-14
 -1      1413 1.13543E-02-3.23485E-03-6.93033E-14
 -1      1414 1.14978E-02-3.30973E-03-7.12779E-14
 -1      1415 1.12181E-02-3.16003E-03-6.83138E-14
 -1      1416 1.16411E-02-3.38444E-03-7.32672E-14
 -1      1417 1.17843E-02-3.45899E-03-7.52697E-14
 -1      1418 1.15051E-02-3.30988E-03-7.22549E-14
 -1      1419 1.19274E-02-3.53340E-03-7.72912E-14
 -1      1420 1.20704E-02-3.60768E-03-7.93282E-14
 -1      1421 1.17916E-02-3.45904E-03-7.62613E-14
 -1      1422 1.22133E-02-3.68184E-03-8.13808E-14
 -1      1423 1.23562E-02-3.75588E-03-8.34488E-14
 -1      1424 1.20778E-02-3.60764E-03-8.03298E-14
 -1      1425 1.25062E-02-3.83353E-03-8.56321E-14
 -1      1426 1.26561E-02-3.91108E-03-8.78302E-14
 -1      1427 1.23708E-02-3.75946E-03-8.45607E-14
 -1      1428 1.27989E-02-3.98486E-03-8.99394E-14
 -1      1429 1.29417E-02-4.05856E-03-9.20595E-14
 -1      1430 1.26637E-02-3.91088E-03-8.88499E-14
 -1      1431 1.30844E-02-4.13221E-03-9.41951E-14
 -1      1432 1.32272E-02-4.20580E-03-9.63413E-14
 -1      1433 1.29493E-02-4.05830E-03-9.30905E-14
 -1      1434 1.33700E-02-4.27934E-03-9.84998E-14
 -1      1435 1.35127E-02-4.35284E-03-1.00675E-13
 -1      1436 1.32349E-02-4.20548E-03-9.73837E-14
 -1      1437 1.36555E-02-4.42630E-03-1.02862E-13
 -1      1438 1.37982E-02-4.49972E-03-1.05057E-13
 -1      1439 1.35204E-02-4.35248E-03-1.01725E-13
 -1      1440 1.39410E-02-4.57312E-03-1.07262E-13
 -1      1441 1.40837E-02-4.64650E-03-1.09474E-13
 -1      1442 1.38060E-02-4.49934E-03-1.06116E-13
 -1      1443 1.42265E-02-4.71985E-03-1.11695E-13
 -1      1444 1.43693E-02-4.79319E-03-1.13923E-13
 -1      1445 1.40916E-02-4.64608E-03-1.10540E-13
 -1      1446 1.45121E-02-4.86651E-03-1.16158E-13
 -1      1447 1.46549E-02-4.93983E-03-1.18397E-13
 -1      1448 1.43772E-02-4.79276E-03-1.14997E-13
 -1      1449 1.47977E-02-5.01313E-03-1.20640E-13
 -1      1450 1.49405E-02-5.08642E-03-1.22890E-13
 -1      1451 1.46628E-02-4.93937E-03-1.19476E-13
 -1      1452 1.50833E-02-5.15971E-03-1.25145E-13
 -1      1453 1.52262E-02-5.23299E-03-1.27405E-13
 -1      1454 1.49484E-02-5.08596E-03-1.23980E-13
 -1      1455 1.53690E-02-5.30627E-03-1.29663E-13
 -1      1456 1.55118E-02-5.37956E-03-1.31925E-13
 -1      1457 1.52341E-02-5.23252E-03-1.28497E-13
 -1      1458 1.56547E-02-5.45284E-03-1.34194E-13
 -1      1459 1.57975E-02-5.52612E-03-1.36459E-13
 -1      1460 1.55198E-02-5.37909E-03-1.33028E-13
 -1      1461 1.59404E-02-5.59941E-03-1.38728E-13
 -1      1462 1.60832E-02-5.67270E-03-1.41003E-13
 -1      1463 1.58055E-02-5.52565E-03-1.37570E-13
 -1      1464 1.61867E-02-5.72552E-03-1.42705E-13
 -1      1465 1.63295E-02-5.79882E-03-1.44973E-13
 -1      1466 1.62587E-02-5.75739E-03-1.44950E-13
 -1      1467 1.60518E-02-5.65175E-03-1.41545E-13
 -1      1468 6.54739E-04 3.59333E-04-5.06458E-17
 -1      1469 5.00748E-04 2.94460E-04-1.51788E-18
 -1      1470 4.53306E-04 2.56152E-04-3.34070E-17
 -1      1471 9.49750E-04 4.54061E-04-2.47293E-16
 -1      1472 8.03912E-04 4.10873E-04-1.32462E-16
 -1      1473 7.61083E-04 3.74307E-04-1.72605E-16
 -1      1474 1.23590E-03 5.21353E-04-5.76809E-16
 -1      1475 1.09340E-03 4.90290E-04-3.94961E-16
 -1      1476 1.05668E-03 4.55614E-04-4.41934E-16
 -1      1477 1.51889E-03 5.72462E-04-1.04173E-15
 -1      1478 1.37752E-03 5.48513E-04-7.92172E-16
 -1      1479 1.34548E-03 5.14918E-04-8.43753E-16
 -1      1480 1.80108E-03 6.13942E-04-1.64449E-15
 -1      1481 1.65998E-03 5.94163E-04-1.32557E-15
 -1      1482 1.63132E-03 5.61144E-04-1.38140E-15
 -1      1483 2.08280E-03 6.49978E-04-2.38672E-15
 -1      1484 1.94200E-03 6.32514E-04-1.99797E-15
 -1      1485 1.91587E-03 5.99809E-04-2.05624E-15
 -1      1486 2.36308E-03 6.82956E-04-3.27147E-15
 -1      1487 2.22320E-03 6.66837E-04-2.81124E-15
 -1      1488 2.19925E-03 6.34407E-04-2.87116E-15
 -1      1489 2.64015E-03 7.13408E-04-4.29886E-15
 -1      1490 2.50215E-03 6.98610E-04-3.76729E-15
 -1      1491 2.48054E-03 6.66608E-04-3.82741E-15
 -1      1492 2.91190E-03 7.39756E-04-5.46979E-15
 -1      1493 2.77683E-03 7.27335E-04-4.86671E-15
 -1      1494 2.75824E-03 6.96061E-04-4.92615E-15
 -1      1495 3.17646E-03 7.58201E-04-6.78384E-15
 -1      1496 3.04518E-03 7.50312E-04-6.10875E-15
 -1      1497 3.03071E-03 7.20160E-04-6.16751E-15
 -1      1498 3.43290E-03 7.63067E-04-8.24296E-15
 -1      1499 3.30572E-03 7.62725E-04-7.49498E-15
 -1      1500 3.29672E-03 7.34087E-04-7.55174E-15
 -1      1501 3.68179E-03 7.47790E-04-9.84823E-15
 -1      1502 3.55821E-03 7.58298E-04-9.02681E-15
 -1      1503 3.55604E-03 7.31443E-04-9.08151E-15
 -1      1504 3.92538E-03 7.06477E-04-1.16009E-14
 -1      1505 3.80406E-03 7.30596E-04-1.07064E-14
 -1      1506 3.80976E-03 7.05562E-04-1.07581E-14
 -1      1507 4.16734E-03 6.35603E-04-1.35042E-14
 -1      1508 4.04630E-03 6.74730E-04-1.25337E-14
 -1      1509 4.06037E-03 6.51271E-04-1.25827E-14
 -1      1510 4.41192E-03 5.35157E-04-1.55559E-14
 -1      1511 4.28903E-03 5.88848E-04-1.45115E-14
 -1      1512 4.31126E-03 5.66480E-04-1.45563E-14
 -1      1513 4.66294E-03 4.08731E-04-1.77480E-14
 -1      1514 4.53641E-03 4.74798E-04-1.66348E-14
 -1      1515 4.56592E-03 4.52925E-04-1.66739E-14
 -1      1516 4.92293E-03 2.62511E-04-2.00783E-14
 -1      1517 4.79170E-03 3.37636E-04-1.88959E-14
 -1      1518 4.82710E-03 3.15697E-04-1.89314E-14
 -1      1519 5.19270E-03 1.03671E-04-2.25432E-14
 -1      1520 5.05658E-03 1.84241E-04-2.12943E-14
 -1      1521 5.09625E-03 1.61830E-04-2.13254E-14
 -1      1522 5.47160E-03-6.11633E-05-2.51406E-14
 -1      1523 5.33109E-03 2.16733E-05-2.38254E-14
 -1      1524 5.37342E-03-1.42166E-06-2.38533E-14
 -1      1525 5.75787E-03-2.26904E-04-2.78699E-14
 -1      1526 5.61394E-03-1.44130E-04-2.64887E-14
 -1      1527 5.65756E-03-1.67942E-04-2.65135E-14
 -1      1528 6.04935E-03-3.90317E-04-3.07313E-14
 -1      1529 5.90310E-03-3.09003E-04-2.92837E-14
 -1      1530 5.94699E-03-3.33440E-04-2.93060E-14
 -1      1531 6.34390E-03-5.49836E-04-3.37228E-14
 -1      1532 6.19637E-03-4.70586E-04-3.22116E-14
 -1      1533 6.23988E-03-4.95495E-04-3.22287E-14
 -1      1534 6.63975E-03-7.05120E-04-3.68389E-14
 -1      1535 6.49177E-03-6.27981E-04-3.52652E-14
 -1      1536 6.53456E-03-6.53195E-04-3.52773E-14
 -1      1537 6.93558E-03-8.56574E-04-4.00696E-14
 -1      1538 6.78774E-03-7.81276E-04-3.84407E-14
 -1      1539 6.82973E-03-8.06646E-04-3.84444E-14
 -1      1540 7.23055E-03-1.00496E-03-4.34086E-14
 -1      1541 7.08321E-03-9.31096E-04-4.17254E-14
 -1      1542 7.12445E-03-9.56506E-04-4.17251E-14
 -1      1543 7.52422E-03-1.15112E-03-4.68544E-14
 -1      1544 7.37757E-03-1.07827E-03-4.51194E-14
 -1      1545 7.41818E-03-1.10364E-03-4.51129E-14
 -1      1546 7.81643E-03-1.29584E-03-5.03950E-14
 -1      1547 7.67051E-03-1.22362E-03-4.86128E-14
 -1      1548 7.71066E-03-1.24890E-03-4.86017E-14
 -1      1549 8.10722E-03-1.43974E-03-5.40353E-14
 -1      1550 7.96199E-03-1.36786E-03-5.22024E-14
 -1      1551 8.00184E-03-1.39303E-03-5.21846E-14
 -1      1552 8.39673E-03-1.58331E-03-5.77681E-14
 -1      1553 8.25212E-03-1.51155E-03-5.58905E-14
 -1      1554 8.29179E-03-1.53660E-03-5.58638E-14
 -1      1555 8.68518E-03-1.72685E-03-6.15910E-14
 -1      1556 8.54108E-03-1.65507E-03-5.96683E-14
 -1      1557 8.58066E-03-1.68001E-03-5.96357E-14
 -1      1558 8.97276E-03-1.87059E-03-6.54966E-14
 -1      1559 8.82906E-03-1.79869E-03-6.35343E-14
 -1      1560 8.86864E-03-1.82353E-03-6.34919E-14
 -1      1561 9.25967E-03-2.01464E-03-6.94639E-14
 -1      1562 9.11629E-03-1.94257E-03-6.74732E-14
 -1      1563 9.15590E-03-1.96733E-03-6.74211E-14
 -1      1564 9.54609E-03-2.15903E-03-7.34950E-14
 -1      1565 9.40293E-03-2.08679E-03-7.14711E-14
 -1      1566 9.44261E-03-2.11148E-03-7.14147E-14
 -1      1567 9.83216E-03-2.30379E-03-7.75921E-14
 -1      1568 9.68916E-03-2.23137E-03-7.55355E-14
 -1      1569 9.72892E-03-2.25600E-03-7.54721E-14
 -1      1570 1.01180E-02-2.44887E-03-8.17613E-14
 -1      1571 9.97509E-03-2.37629E-03-7.96686E-14
 -1      1572 1.00149E-02-2.40088E-03-7.95991E-14
 -1      1573 1.04037E-02-2.59426E-03-8.59915E-14
 -1      1574 1.02608E-02-2.52153E-03-8.38696E-14
 -1      1575 1.03007E-02-2.54609E-03-8.37894E-14
 -1      1576 1.06892E-02-2.73990E-03-9.02686E-14
 -1      1577 1.05465E-02-2.66705E-03-8.81257E-14
 -1      1578 1.05864E-02-2.69159E-03-8.80368E-14
 -1      1579 1.09748E-02-2.88575E-03-9.45832E-14
 -1      1580 1.08320E-02-2.81280E-03-9.24201E-14
 -1      1581 1.08721E-02-2.83732E-03-9.23275E-14
 -1      1582 1.12603E-02-3.03177E-03-9.89459E-14
 -1      1583 1.11175E-02-2.95874E-03-9.67590E-14
 -1      1584 1.11576E-02-2.98325E-03-9.66625E-14
 -1      1585 1.15458E-02-3.17792E-03-1.03356E-13
 -1      1586 1.14031E-02-3.10483E-03-1.01145E-13
 -1      1587 1.14432E-02-3.12934E-03-1.01046E-13
 -1      1588 1.18314E-02-3.32418E-03-1.07802E-13
 -1      1589 1.16886E-02-3.25104E-03-1.05573E-13
 -1      1590 1.17288E-02-3.27555E-03-1.05472E-13
 -1      1591 1.21169E-02-3.47051E-03-1.12291E-13
 -1      1592 1.19741E-02-3.39734E-03-1.10042E-13
 -1      1593 1.20143E-02-3.42184E-03-1.09938E-13
 -1      1594 1.24025E-02-3.61690E-03-1.16817E-13
 -1      1595 1.22597E-02-3.54370E-03-1.14551E-13
 -1      1596 1.22999E-02-3.56821E-03-1.14446E-13
 -1      1597 1.26882E-02-3.76332E-03-1.21362E-13
 -1      1598 1.25453E-02-3.69011E-03-1.19088E-13
 -1      1599 1.25856E-02-3.71461E-03-1.18979E-13
 -1      1600 1.29738E-02-3.90976E-03-1.25927E-13
 -1      1601 1.28310E-02-3.83654E-03-1.23640E-13
 -1      1602 1.28712E-02-3.86105E-03-1.23532E-13
 -1      1603 1.32595E-02-4.05621E-03-1.30511E-13
 -1      1604 1.31166E-02-3.98298E-03-1.28218E-13
 -1      1605 1.31569E-02-4.00749E-03-1.28105E-13
 -1      1606 1.35452E-02-4.20265E-03-1.35108E-13
 -1      1607 1.34023E-02-4.12943E-03-1.32807E-13
 -1      1608 1.34426E-02-4.15394E-03-1.32695E-13
 -1      1609 1.38309E-02-4.34907E-03-1.39702E-13
 -1      1610 1.36880E-02-4.27586E-03-1.37405E-13
 -1      1611 1.37283E-02-4.30038E-03-1.37293E-13
 -1      1612 1.39983E-02-4.43625E-03-1.42133E-13
 -1      1613 1.41903E-02-4.54776E-03-1.42670E-13
 -1      1614 1.41183E-02-4.50562E-03-1.42529E-13
 -1      1615 1.43343E-02-4.63206E-03-1.42950E-13
 -1      1616 1.42623E-02-4.58991E-03-1.42809E-13
 -1      1617 1.41026E-02-4.50544E-03-1.40742E-13
 -1      1618 1.44782E-02-4.71638E-03-1.43224E-13
 -1      1619 1.44062E-02-4.67422E-03-1.43089E-13
 -1      1620 1.42465E-02-4.58974E-03-1.41014E-13
 -1      1621 1.46221E-02-4.80071E-03-1.43472E-13
 -1      1622 1.45502E-02-4.75854E-03-1.43354E-13
 -1      1623 1.43905E-02-4.67406E-03-1.41276E-13
 -1      1624 1.47637E-02-4.88363E-03-1.43682E-13
 -1      1625 1.46929E-02-4.84217E-03-1.43579E-13
 -1      1626 1.45332E-02-4.75768E-03-1.41511E-13
 -1      1627 1.49077E-02-4.96799E-03-1.43880E-13
 -1      1628 1.48357E-02-4.92580E-03-1.43785E-13
 -1      1629 1.46759E-02-4.84130E-03-1.41722E-13
 -1      1630 1.50517E-02-5.05235E-03-1.44071E-13
 -1      1631 1.49797E-02-5.01017E-03-1.43975E-13
 -1      1632 1.48199E-02-4.92566E-03-1.41916E-13
 -1      1633 1.51957E-02-5.13673E-03-1.44243E-13
 -1      1634 1.51237E-02-5.09454E-03-1.44162E-13
 -1      1635 1.49640E-02-5.01002E-03-1.42096E-13
 -1      1636 1.53398E-02-5.22110E-03-1.44368E-13
 -1      1637 1.52678E-02-5.17891E-03-1.44311E-13
 -1      1638 1.51080E-02-5.09438E-03-1.42252E-13
 -1      1639 1.54839E-02-5.30546E-03-1.44457E-13
 -1      1640 1.54119E-02-5.26328E-03-1.44416E-13
 -1      1641 1.52521E-02-5.17874E-03-1.42370E-13
 -1      1642 1.56257E-02-5.38839E-03-1.44532E-13
 -1      1643 1.55548E-02-5.34693E-03-1.44496E-13
 -1      1644 1.53950E-02-5.26238E-03-1.42462E-13
 -1      1645 1.57698E-02-5.47273E-03-1.44584E-13
 -1      1646 1.56977E-02-5.43056E-03-1.44563E-13
 -1      1647 1.55380E-02-5.34600E-03-1.42537E-13
 -1      1648 1.59140E-02-5.55705E-03-1.44611E-13
 -1      1649 1.58419E-02-5.51489E-03-1.44599E-13
 -1      1650 1.56822E-02-5.43034E-03-1.42589E-13
 -1      1651 1.60582E-02-5.64136E-03-1.44636E-13
 -1      1652 1.59861E-02-5.59921E-03-1.44621E-13
 -1      1653 1.58263E-02-5.51465E-03-1.42628E-13
 -1      1654 1.61945E-02-5.72045E-03-1.44803E-13
 -1      1655 1.61224E-02-5.67830E-03-1.44784E-13
 -1      1656 1.59626E-02-5.59375E-03-1.42797E-13
 -1      1657 1.60910E-02-5.66763E-03-1.43099E-13
 -1      1658 7.20626E-03-8.40484E-04-1.97226E-14
 -1      1659 7.26890E-03-8.88178E-04-1.97752E-14
 -1      1660 6.94398E-03-7.20708E-04-1.95051E-14
 -1      1661 7.08662E-03-7.88391E-04-1.97084E-14
 -1      1662 6.60176E-03-5.33890E-04-1.87937E-14
 -1      1663 6.76685E-03-6.11757E-04-1.90801E-14
 -1      1664 6.20544E-03-3.52327E-04-1.80661E-14
 -1      1665 6.39055E-03-4.41430E-04-1.84324E-14
 -1      1666 5.77304E-03-1.57673E-04-1.71860E-14
 -1      1667 5.96705E-03-2.51477E-04-1.76243E-14
 -1      1668 5.35006E-03 3.54224E-05-1.60937E-14
 -1      1669 5.55095E-03-4.73203E-05-1.65915E-14
 -1      1670 4.92728E-03 1.67184E-04-1.49646E-14
 -1      1671 5.12275E-03 1.14997E-04-1.54835E-14
 -1      1672 4.52320E-03 2.17939E-04-1.38824E-14
 -1      1673 4.70640E-03 2.05141E-04-1.43728E-14
 -1      1674 4.12390E-03 1.85825E-04-1.28399E-14
 -1      1675 4.30864E-03 2.12216E-04-1.33119E-14
 -1      1676 3.70962E-03 7.05390E-05-1.18054E-14
 -1      1677 3.90610E-03 1.34001E-04-1.22584E-14
 -1      1678 3.29585E-03-7.52334E-05-1.10197E-14
 -1      1679 3.47262E-03-5.57881E-06-1.13661E-14
 -1      1680 2.93032E-03-2.23577E-04-1.03929E-14
 -1      1681 3.09172E-03-1.53864E-04-1.06697E-14
 -1      1682 2.65185E-03-3.54446E-04-9.94198E-15
 -1      1683 2.76856E-03-2.97820E-04-1.01259E-14
 -1      1684 2.46859E-03-4.67155E-04-9.65833E-15
 -1      1685 2.54022E-03-4.16559E-04-9.76991E-15
 -1      1686 2.41284E-03-5.74280E-04-9.51303E-15
 -1      1687 2.42002E-03-5.26800E-04-9.53947E-15
 -1      1688 2.51209E-03-6.88019E-04-9.58061E-15
 -1      1689 2.44747E-03-6.33070E-04-9.51636E-15
 -1      1690 2.73857E-03-8.50426E-04-9.89928E-15
 -1      1691 2.61997E-03-7.76609E-04-9.75831E-15
 -1      1692 3.08206E-03-1.05503E-03-1.03433E-14
 -1      1693 2.90879E-03-9.52603E-04-1.01139E-14
 -1      1694 3.53648E-03-1.30980E-03-1.09590E-14
 -1      1695 3.32227E-03-1.17983E-03-1.06344E-14
 -1      1696 4.02319E-03-1.61688E-03-1.18459E-14
 -1      1697 3.78738E-03-1.47847E-03-1.14257E-14
 -1      1698 4.48627E-03-1.85200E-03-1.27717E-14
 -1      1699 4.28204E-03-1.75550E-03-1.23431E-14
 -1      1700 4.94052E-03-1.99207E-03-1.38099E-14
 -1      1701 4.73261E-03-1.94210E-03-1.33106E-14
 -1      1702 5.39659E-03-1.98925E-03-1.49580E-14
 -1      1703 5.18486E-03-2.00851E-03-1.44227E-14
 -1      1704 5.86453E-03-1.84341E-03-1.61839E-14
 -1      1705 5.64423E-03-1.92904E-03-1.56216E-14
 -1      1706 6.32862E-03-1.62452E-03-1.72710E-14
 -1      1707 6.12550E-03-1.72945E-03-1.67844E-14
 -1      1708 6.73725E-03-1.40128E-03-1.82332E-14
 -1      1709 6.55534E-03-1.50294E-03-1.78096E-14
 -1      1710 7.06422E-03-1.21036E-03-1.90122E-14
 -1      1711 6.92575E-03-1.29355E-03-1.86802E-14
 -1      1712 7.25941E-03-1.06807E-03-1.95249E-14
 -1      1713 7.18666E-03-1.12797E-03-1.93258E-14
 -1      1714 7.31032E-03-9.48584E-04-1.98351E-14
 -1      1715 7.30735E-03-1.00017E-03-1.97598E-14
 -1      1716 6.43915E-03-5.57214E-04-1.89943E-14
 -1      1717 7.30180E-03-9.40717E-04-2.03332E-14
 -1      1718 1.40386E-02-4.46077E-03-1.42022E-13
 -1      1719 1.39509E-02-4.41844E-03-1.40099E-13
 -1      1720 7.13869E-03-8.63717E-04-2.02527E-14
 -1      1721 6.83226E-03-7.44396E-04-1.97947E-14
 -1      1722 6.00497E-03-3.55594E-04-1.81747E-14
 -1      1723 5.58014E-03-1.25986E-04-1.71194E-14
 -1      1724 5.17677E-03 8.16804E-05-1.59035E-14
 -1      1725 4.79087E-03 2.10289E-04-1.46972E-14
 -1      1726 4.42260E-03 2.40819E-04-1.35381E-14
 -1      1727 4.04921E-03 1.69484E-04-1.23968E-14
 -1      1728 3.65485E-03 1.73500E-05-1.13995E-14
 -1      1729 3.24341E-03-1.53595E-04-1.06310E-14
 -1      1730 2.88297E-03-3.06673E-04-1.00317E-14
 -1      1731 2.60378E-03-4.24208E-04-9.60701E-15
 -1      1732 2.43622E-03-5.11583E-04-9.32404E-15
 -1      1733 2.42073E-03-5.79307E-04-9.20954E-15
 -1      1734 2.57158E-03-6.72061E-04-9.38215E-15
 -1      1735 2.85939E-03-8.29890E-04-9.76188E-15
 -1      1736 3.27133E-03-1.04470E-03-1.02500E-14
 -1      1737 3.74923E-03-1.34334E-03-1.09823E-14
 -1      1738 4.22830E-03-1.66842E-03-1.19283E-14
 -1      1739 4.67114E-03-1.91646E-03-1.29515E-14
 -1      1740 5.07521E-03-2.03361E-03-1.40973E-14
 -1      1741 5.49315E-03-1.98138E-03-1.53782E-14
 -1      1742 5.92841E-03-1.78038E-03-1.66599E-14
 -1      1743 6.38175E-03-1.52602E-03-1.78185E-14
 -1      1744 6.79111E-03-1.29604E-03-1.88232E-14
 -1      1745 7.10979E-03-1.12645E-03-1.95986E-14
 -1      1746 7.29057E-03-1.01395E-03-2.01561E-14
 -1      1747 2.93283E-04-1.64124E-04-5.55518E-17
 -1      1748 3.35837E-04-9.45866E-05-1.80804E-16
 -1      1749 3.42893E-04-1.10462E-04-1.69651E-16
 -1      1750 3.51460E-04-1.29840E-04-1.56098E-16
 -1      1751 3.62983E-04-1.52993E-04-1.36908E-16
 -1      1752 4.69131E-04-1.58955E-04-2.46005E-16
 -1      1753 3.17433E-04-5.17163E-05-2.03749E-16
 -1      1754 3.20784E-04-6.00580E-05-2.00401E-16
 -1      1755 3.12827E-04-3.71382E-05-2.07760E-16
 -1      1756 3.14769E-04-4.40775E-05-2.06039E-16
 -1      1757 4.24208E-04-6.47322E-05-3.02140E-16
 -1      1758 3.10992E-04-2.41254E-05-2.08357E-16
 -1      1759 3.11593E-04-3.05360E-05-2.08479E-16
 -1      1760 4.18692E-04-4.57972E-05-3.06423E-16
 -1      1761 3.11493E-04-1.09701E-05-2.06269E-16
 -1      1762 3.10990E-04-1.76395E-05-2.07638E-16
 -1      1763 4.17108E-04-2.82003E-05-3.06328E-16
 -1      1764 3.13770E-04 3.55391E-06-2.01526E-16
 -1      1765 3.12450E-04-3.92522E-06-2.04359E-16
 -1      1766 4.18723E-04-9.92740E-06-3.02492E-16
 -1      1767 3.17272E-04 2.02519E-05-1.94574E-16
 -1      1768 3.15397E-04 1.16089E-05-1.98395E-16
 -1      1769 4.22672E-04 1.04282E-05-2.95147E-16
 -1      1770 3.21544E-04 3.93139E-05-1.84518E-16
 -1      1771 3.19311E-04 2.94482E-05-1.90128E-16
 -1      1772 4.28138E-04 3.35672E-05-2.84047E-16
 -1      1773 3.26680E-04 6.19366E-05-1.70613E-16
 -1      1774 3.23982E-04 5.02147E-05-1.78419E-16
 -1      1775 4.34715E-04 6.03023E-05-2.68923E-16
 -1      1776 3.33108E-04 8.87768E-05-1.50962E-16
 -1      1777 3.29646E-04 7.48137E-05-1.61966E-16
 -1      1778 4.42585E-04 9.16891E-05-2.47957E-16
 -1      1779 3.42433E-04 1.22001E-04-1.23003E-16
 -1      1780 3.37222E-04 1.04516E-04-1.38602E-16
 -1      1781 4.52729E-04 1.28977E-04-2.18751E-16
 -1      1782 3.59580E-04 1.66674E-04-8.23723E-17
 -1      1783 3.49483E-04 1.42653E-04-1.05005E-16
 -1      1784 4.68079E-04 1.75272E-04-1.77592E-16
 -1      1785 4.15976E-04 2.23638E-04-5.21908E-17
 -1      1786 3.86009E-04 1.92049E-04-7.15573E-17
 -1      1787 5.06569E-04 2.29472E-04-1.40201E-16
 -1      1788 5.70496E-04 2.88771E-04-1.08420E-16
 -1      1789 3.51489E-04-1.73250E-04-9.87979E-17
 -1      1790 8.73851E-04 3.87547E-04-3.17590E-16
 -1      1791 7.23101E-04 3.42414E-04-1.97122E-16
 -1      1792 6.88655E-04 3.11331E-04-2.17450E-16
 -1      1793 4.74885E-04-2.11172E-04-1.77470E-16
 -1      1794 8.38995E-04-3.30417E-04-4.75897E-16
 -1      1795 9.92664E-04-3.64093E-04-6.65958E-16
 -1      1796 1.14500E-03-3.91660E-04-8.90537E-16
 -1      1797 1.29775E-03-4.13966E-04-1.14995E-15
 -1      1798 1.04174E-03-3.41854E-04-8.19047E-16
 -1      1799 1.45065E-03-4.32551E-04-1.44356E-15
 -1      1800 1.60495E-03-4.48005E-04-1.77146E-15
 -1      1801 1.34385E-03-3.86524E-04-1.34503E-15
 -1      1802 1.76050E-03-4.61688E-04-2.13301E-15
 -1      1803 1.91844E-03-4.74371E-04-2.52816E-15
 -1      1804 1.64694E-03-4.17443E-04-2.00617E-15
 -1      1805 2.07854E-03-4.87623E-04-2.95600E-15
 -1      1806 2.24196E-03-5.02621E-04-3.41681E-15
 -1      1807 1.95352E-03-4.42549E-04-2.80056E-15
 -1      1808 2.40848E-03-5.21562E-04-3.91077E-15
 -1      1809 2.57918E-03-5.46426E-04-4.43665E-15
 -1      1810 2.26615E-03-4.71652E-04-3.72541E-15
 -1      1811 2.75437E-03-5.80294E-04-4.99477E-15
 -1      1812 2.93453E-03-6.26651E-04-5.58555E-15
 -1      1813 2.58834E-03-5.18861E-04-4.77934E-15
 -1      1814 3.12165E-03-6.89147E-04-6.20809E-15
 -1      1815 3.31429E-03-7.73423E-04-6.86288E-15
 -1      1816 2.92666E-03-6.05490E-04-5.96024E-15
 -1      1817 3.51764E-03-8.81940E-04-7.55147E-15
 -1      1818 3.72607E-03-1.02171E-03-8.27401E-15
 -1      1819 3.29331E-03-7.62408E-04-7.26928E-15
 -1      1820 3.94703E-03-1.18945E-03-9.03237E-15
 -1      1821 4.16968E-03-1.38629E-03-9.82954E-15
 -1      1822 3.70476E-03-1.02723E-03-8.71133E-15
 -1      1823 4.37672E-03-1.57738E-03-1.05833E-14
 -1      1824 4.57915E-03-1.76568E-03-1.13724E-14
 -1      1825 4.14144E-03-1.39561E-03-1.02186E-14
 -1      1826 4.81061E-03-1.96047E-03-1.22824E-14
 -1      1827 5.02104E-03-2.08341E-03-1.32514E-14
 -1      1828 5.21294E-03-2.12985E-03-1.42472E-14
 -1      1829 5.41299E-03-2.10366E-03-1.52564E-14
 -1      1830 5.61892E-03-2.01088E-03-1.63346E-14
 -1      1831 5.84071E-03-1.88102E-03-1.74878E-14
 -1      1832 6.07096E-03-1.73405E-03-1.86852E-14
 -1      1833 6.29590E-03-1.60392E-03-1.99174E-14
 -1      1834 6.52076E-03-1.50115E-03-2.11850E-14
 -1      1835 6.73355E-03-1.42728E-03-2.24847E-14
 -1      1836 6.46796E-03-1.47987E-03-2.05890E-14
 -1      1837 6.94167E-03-1.38602E-03-2.38157E-14
 -1      1838 7.13934E-03-1.37104E-03-2.51756E-14
 -1      1839 6.89024E-03-1.34453E-03-2.31858E-14
 -1      1840 7.33155E-03-1.38000E-03-2.65631E-14
 -1      1841 7.51678E-03-1.40711E-03-2.79789E-14
 -1      1842 7.26804E-03-1.32527E-03-2.59008E-14
 -1      1843 7.69703E-03-1.44876E-03-2.94209E-14
 -1      1844 7.87270E-03-1.50137E-03-3.08878E-14
 -1      1845 7.61659E-03-1.38524E-03-2.87257E-14
 -1      1846 8.05256E-03-1.56513E-03-3.24571E-14
 -1      1847 8.22883E-03-1.63542E-03-3.40535E-14
 -1      1848 7.95607E-03-1.49597E-03-3.17313E-14
 -1      1849 8.39308E-03-1.70639E-03-3.55983E-14
 -1      1850 8.55490E-03-1.78024E-03-3.71698E-14
 -1      1851 8.28428E-03-1.63410E-03-3.48427E-14
 -1      1852 8.71387E-03-1.85590E-03-3.87646E-14
 -1      1853 8.87093E-03-1.93281E-03-4.03812E-14
 -1      1854 8.59672E-03-1.78220E-03-3.79789E-14
 -1      1855 9.02577E-03-2.01043E-03-4.20246E-14
 -1      1856 9.17913E-03-2.08843E-03-4.36944E-14
 -1      1857 8.90315E-03-1.93628E-03-4.12132E-14
 -1      1858 9.33080E-03-2.16659E-03-4.53880E-14
 -1      1859 9.48132E-03-2.24471E-03-4.71032E-14
 -1      1860 9.20475E-03-2.09252E-03-4.45473E-14
 -1      1861 9.63058E-03-2.32271E-03-4.88405E-14
 -1      1862 9.77896E-03-2.40048E-03-5.06008E-14
 -1      1863 9.50246E-03-2.24896E-03-4.79751E-14
 -1      1864 9.92642E-03-2.47802E-03-5.23818E-14
 -1      1865 1.00732E-02-2.55526E-03-5.41844E-14
 -1      1866 9.79711E-03-2.40469E-03-5.14908E-14
 -1      1867 1.02193E-02-2.63223E-03-5.60054E-14
 -1      1868 1.03650E-02-2.70889E-03-5.78463E-14
 -1      1869 1.00894E-02-2.55933E-03-5.50896E-14
 -1      1870 1.05101E-02-2.78528E-03-5.97070E-14
 -1      1871 1.06549E-02-2.86138E-03-6.15844E-14
 -1      1872 1.03798E-02-2.71278E-03-5.87679E-14
 -1      1873 1.07993E-02-2.93724E-03-6.34804E-14
 -1      1874 1.09434E-02-3.01283E-03-6.53959E-14
 -1      1875 1.06689E-02-2.86509E-03-6.25217E-14
 -1      1876 1.10873E-02-3.08820E-03-6.73287E-14
 -1      1877 1.12311E-02-3.16335E-03-6.92795E-14
 -1      1878 1.09569E-02-3.01635E-03-6.63464E-14
 -1      1879 1.13746E-02-3.23830E-03-7.12496E-14
 -1      1880 1.15180E-02-3.31307E-03-7.32346E-14
 -1      1881 1.12442E-02-3.16670E-03-7.02453E-14
 -1      1882 1.16613E-02-3.38768E-03-7.52342E-14
 -1      1883 1.18044E-02-3.46212E-03-7.72509E-14
 -1      1884 1.15310E-02-3.31628E-03-7.42112E-14
 -1      1885 1.19475E-02-3.53643E-03-7.92847E-14
 -1      1886 1.20906E-02-3.61061E-03-8.13324E-14
 -1      1887 1.18173E-02-3.46520E-03-7.82403E-14
 -1      1888 1.22407E-02-3.68839E-03-8.34961E-14
 -1      1889 1.23908E-02-3.76604E-03-8.56755E-14
 -1      1890 1.21106E-02-3.61729E-03-8.24355E-14
 -1      1891 1.25336E-02-3.83991E-03-8.77682E-14
 -1      1892 1.26765E-02-3.91369E-03-8.98729E-14
 -1      1893 1.24036E-02-3.76892E-03-8.66893E-14
 -1      1894 1.28194E-02-3.98741E-03-9.19911E-14
 -1      1895 1.29622E-02-4.06105E-03-9.41242E-14
 -1      1896 1.26894E-02-3.91649E-03-9.08947E-14
 -1      1897 1.31050E-02-4.13465E-03-9.62687E-14
 -1      1898 1.32478E-02-4.20819E-03-9.84242E-14
 -1      1899 1.29751E-02-4.06379E-03-9.51570E-14
 -1      1900 1.33906E-02-4.28169E-03-1.00596E-13
 -1      1901 1.35334E-02-4.35515E-03-1.02780E-13
 -1      1902 1.32608E-02-4.21088E-03-9.94692E-14
 -1      1903 1.36762E-02-4.42857E-03-1.04970E-13
 -1      1904 1.38190E-02-4.50197E-03-1.07172E-13
 -1      1905 1.35464E-02-4.35780E-03-1.03829E-13
 -1      1906 1.39618E-02-4.57534E-03-1.09385E-13
 -1      1907 1.41046E-02-4.64869E-03-1.11605E-13
 -1      1908 1.38320E-02-4.50459E-03-1.08231E-13
 -1      1909 1.42474E-02-4.72203E-03-1.13835E-13
 -1      1910 1.43902E-02-4.79535E-03-1.16071E-13
 -1      1911 1.41177E-02-4.65130E-03-1.12673E-13
 -1      1912 1.45331E-02-4.86866E-03-1.18311E-13
 -1      1913 1.46759E-02-4.94195E-03-1.20558E-13
 -1      1914 1.44033E-02-4.79794E-03-1.17144E-13
 -1      1915 1.48187E-02-5.01525E-03-1.22811E-13
 -1      1916 1.49615E-02-5.08853E-03-1.25070E-13
 -1      1917 1.46890E-02-4.94453E-03-1.21644E-13
 -1      1918 1.51044E-02-5.16181E-03-1.27330E-13
 -1      1919 1.52472E-02-5.23509E-03-1.29594E-13
 -1      1920 1.49747E-02-5.09110E-03-1.26161E-13
 -1      1921 1.53901E-02-5.30837E-03-1.31862E-13
 -1      1922 1.55329E-02-5.38165E-03-1.34134E-13
 -1      1923 1.52603E-02-5.23766E-03-1.30695E-13
 -1      1924 1.56757E-02-5.45493E-03-1.36409E-13
 -1      1925 1.58186E-02-5.52822E-03-1.38681E-13
 -1      1926 1.55460E-02-5.38421E-03-1.35242E-13
 -1      1927 1.59876E-02-5.61482E-03-1.41394E-13
 -1      1928 1.39618E-03 4.90012E-04-1.04838E-15
 -1      1929 1.25094E-03 4.64233E-04-8.07256E-16
 -1      1930 1.68488E-03 5.33934E-04-1.63158E-15
 -1      1931 1.54078E-03 5.13139E-04-1.32286E-15
 -1      1932 1.44936E-03 4.64343E-04-1.25959E-15
 -1      1933 1.97220E-03 5.71333E-04-2.35170E-15
 -1      1934 1.82874E-03 5.53262E-04-1.97421E-15
 -1      1935 1.74053E-03 5.05990E-04-1.88803E-15
 -1      1936 2.25824E-03 6.05367E-04-3.21069E-15
 -1      1937 2.11548E-03 5.88672E-04-2.76364E-15
 -1      1938 2.03065E-03 5.42130E-04-2.65246E-15
 -1      1939 2.54230E-03 6.37349E-04-4.21055E-15
 -1      1940 2.40066E-03 6.21624E-04-3.69314E-15
 -1      1941 2.31980E-03 5.75586E-04-3.55541E-15
 -1      1942 2.82314E-03 6.66456E-04-5.35166E-15
 -1      1943 2.68327E-03 6.52398E-04-4.76324E-15
 -1      1944 2.60736E-03 6.07293E-04-4.59826E-15
 -1      1945 3.09944E-03 6.89504E-04-6.63484E-15
 -1      1946 2.96198E-03 6.79007E-04-5.97569E-15
 -1      1947 2.89220E-03 6.35946E-04-5.78121E-15
 -1      1948 3.37023E-03 7.01076E-04-8.06118E-15
 -1      1949 3.23557E-03 6.97101E-04-7.32971E-15
 -1      1950 3.17304E-03 6.57773E-04-7.10610E-15
 -1      1951 3.63543E-03 6.94317E-04-9.63259E-15
 -1      1952 3.50345E-03 7.00400E-04-8.82855E-15
 -1      1953 3.44895E-03 6.66738E-04-8.57336E-15
 -1      1954 3.89620E-03 6.62467E-04-1.13508E-14
 -1      1955 3.76617E-03 6.81870E-04-1.04730E-14
 -1      1956 3.71988E-03 6.55530E-04-1.01865E-14
 -1      1957 4.15490E-03 6.00750E-04-1.32169E-14
 -1      1958 4.02552E-03 6.35504E-04-1.22656E-14
 -1      1959 3.98704E-03 6.17320E-04-1.19467E-14
 -1      1960 4.41458E-03 5.07939E-04-1.52296E-14
 -1      1961 4.28431E-03 5.58158E-04-1.42050E-14
 -1      1962 4.25285E-03 5.47823E-04-1.38535E-14
 -1      1963 4.67820E-03 3.86836E-04-1.73847E-14
 -1      1964 4.54566E-03 4.50633E-04-1.62897E-14
 -1      1965 4.52026E-03 4.46792E-04-1.59050E-14
 -1      1966 4.94781E-03 2.43453E-04-1.96793E-14
 -1      1967 4.81213E-03 3.17507E-04-1.85150E-14
 -1      1968 4.79187E-03 3.18190E-04-1.80981E-14
 -1      1969 5.22420E-03 8.53228E-05-2.21111E-14
 -1      1970 5.08515E-03 1.65786E-04-2.08785E-14
 -1      1971 5.06915E-03 1.68959E-04-2.04306E-14
 -1      1972 5.50698E-03-8.02756E-05-2.46749E-14
 -1      1973 5.36488E-03 3.07655E-06-2.33758E-14
 -1      1974 5.35227E-03 7.05901E-06-2.28992E-14
 -1      1975 5.79497E-03-2.47564E-04-2.73726E-14
 -1      1976 5.65047E-03-1.63981E-04-2.60074E-14
 -1      1977 5.64038E-03-1.60327E-04-2.55003E-14
 -1      1978 6.08660E-03-4.12747E-04-3.02003E-14
 -1      1979 5.94048E-03-3.30578E-04-2.87703E-14
 -1      1980 5.93207E-03-3.27865E-04-2.82341E-14
 -1      1981 6.38037E-03-5.73887E-04-3.31567E-14
 -1      1982 6.23335E-03-4.93889E-04-3.16628E-14
 -1      1983 6.22590E-03-4.92319E-04-3.10974E-14
 -1      1984 6.67499E-03-7.30452E-04-3.62353E-14
 -1      1985 6.52767E-03-6.52746E-04-3.46809E-14
 -1      1986 6.52061E-03-6.52257E-04-3.40856E-14
 -1      1987 6.96952E-03-8.82794E-04-3.94316E-14
 -1      1988 6.82233E-03-8.07120E-04-3.78183E-14
 -1      1989 6.81526E-03-8.07516E-04-3.71940E-14
 -1      1990 7.26333E-03-1.03170E-03-4.27360E-14
 -1      1991 7.11655E-03-9.57632E-04-4.10705E-14
 -1      1992 7.10925E-03-9.58670E-04-4.04175E-14
 -1      1993 7.55609E-03-1.17809E-03-4.61485E-14
 -1      1994 7.40986E-03-1.10517E-03-4.44291E-14
 -1      1995 7.40225E-03-1.10661E-03-4.37473E-14
 -1      1996 7.84766E-03-1.32282E-03-4.96596E-14
 -1      1997 7.70202E-03-1.25062E-03-4.78933E-14
 -1      1998 7.69410E-03-1.25228E-03-4.71842E-14
 -1      1999 8.13807E-03-1.46660E-03-5.32660E-14
 -1      2000 7.99301E-03-1.39480E-03-5.14504E-14
 -1      2001 7.98482E-03-1.39652E-03-5.07185E-14
 -1      2002 8.42741E-03-1.60995E-03-5.69665E-14
 -1      2003 8.28286E-03-1.53830E-03-5.51045E-14
 -1      2004 8.27449E-03-1.53998E-03-5.43468E-14
 -1      2005 8.71584E-03-1.75326E-03-6.07559E-14
 -1      2006 8.57173E-03-1.68159E-03-5.88507E-14
 -1      2007 8.56323E-03-1.68317E-03-5.80669E-14
 -1      2008 9.00350E-03-1.89675E-03-6.46242E-14
 -1      2009 8.85975E-03-1.82497E-03-6.26795E-14
 -1      2010 8.85120E-03-1.82641E-03-6.18730E-14
 -1      2011 9.29056E-03-2.04056E-03-6.85654E-14
 -1      2012 9.14710E-03-1.96861E-03-6.65872E-14
 -1      2013 9.13853E-03-1.96991E-03-6.57545E-14
 -1      2014 9.57716E-03-2.18476E-03-7.25732E-14
 -1      2015 9.43391E-03-2.11261E-03-7.05619E-14
 -1      2016 9.42537E-03-2.11376E-03-6.97092E-14
 -1      2017 9.86341E-03-2.32934E-03-7.66436E-14
 -1      2018 9.72032E-03-2.25700E-03-7.45992E-14
 -1      2019 9.71184E-03-2.25802E-03-7.37292E-14
 -1      2020 1.01494E-02-2.47428E-03-8.07794E-14
 -1      2021 1.00064E-02-2.40176E-03-7.87036E-14
 -1      2022 9.99802E-03-2.40267E-03-7.78106E-14
 -1      2023 1.04353E-02-2.61955E-03-8.49789E-14
 -1      2024 1.02924E-02-2.54688E-03-8.28716E-14
 -1      2025 1.02840E-02-2.54768E-03-8.19571E-14
 -1      2026 1.07210E-02-2.76510E-03-8.92312E-14
 -1      2027 1.05781E-02-2.69229E-03-8.70979E-14
 -1      2028 1.05698E-02-2.69302E-03-8.61632E-14
 -1      2029 1.10066E-02-2.91089E-03-9.35291E-14
 -1      2030 1.08638E-02-2.83797E-03-9.13753E-14
 -1      2031 1.08556E-02-2.83863E-03-9.04226E-14
 -1      2032 1.12923E-02-3.05686E-03-9.78758E-14
 -1      2033 1.11494E-02-2.98385E-03-9.56968E-14
 -1      2034 1.11413E-02-2.98446E-03-9.47316E-14
 -1      2035 1.15779E-02-3.20298E-03-1.02269E-13
 -1      2036 1.14351E-02-3.12990E-03-1.00066E-13
 -1      2037 1.14269E-02-3.13047E-03-9.90874E-14
 -1      2038 1.18635E-02-3.34921E-03-1.06703E-13
 -1      2039 1.17207E-02-3.27608E-03-1.04484E-13
 -1      2040 1.17125E-02-3.27662E-03-1.03492E-13
 -1      2041 1.21491E-02-3.49553E-03-1.11181E-13
 -1      2042 1.20063E-02-3.42236E-03-1.08936E-13
 -1      2043 1.19982E-02-3.42288E-03-1.07938E-13
 -1      2044 1.24347E-02-3.64191E-03-1.15694E-13
 -1      2045 1.22919E-02-3.56871E-03-1.13433E-13
 -1      2046 1.22838E-02-3.56922E-03-1.12422E-13
 -1      2047 1.27204E-02-3.78833E-03-1.20233E-13
 -1      2048 1.25775E-02-3.71511E-03-1.17960E-13
 -1      2049 1.25695E-02-3.71561E-03-1.16941E-13
 -1      2050 1.30060E-02-3.93477E-03-1.24790E-13
 -1      2051 1.28632E-02-3.86154E-03-1.22510E-13
 -1      2052 1.28551E-02-3.86204E-03-1.21485E-13
 -1      2053 1.32917E-02-4.08122E-03-1.29368E-13
 -1      2054 1.31489E-02-4.00799E-03-1.27077E-13
 -1      2055 1.31408E-02-4.00849E-03-1.26050E-13
 -1      2056 1.35774E-02-4.22766E-03-1.33964E-13
 -1      2057 1.34345E-02-4.15444E-03-1.31667E-13
 -1      2058 1.34265E-02-4.15494E-03-1.30633E-13
 -1      2059 1.38355E-02-4.35966E-03-1.38180E-13
 -1      2060 1.36927E-02-4.28645E-03-1.35881E-13
 -1      2061 1.36847E-02-4.28695E-03-1.34850E-13
 -1      2062 1.39153E-02-4.40452E-03-1.38687E-13
 -1      2063 1.43027E-02-4.63173E-03-1.39332E-13
 -1      2064 1.42308E-02-4.58957E-03-1.39209E-13
 -1      2065 1.41588E-02-4.54742E-03-1.39082E-13
 -1      2066 1.40868E-02-4.50526E-03-1.38951E-13
 -1      2067 1.40711E-02-4.50509E-03-1.37145E-13
 -1      2068 1.39873E-02-4.44666E-03-1.38821E-13
 -1      2069 1.44442E-02-4.71463E-03-1.39555E-13
 -1      2070 1.43735E-02-4.67318E-03-1.39445E-13
 -1      2071 1.42138E-02-4.58869E-03-1.37383E-13
 -1      2072 1.45882E-02-4.79897E-03-1.39763E-13
 -1      2073 1.45162E-02-4.75680E-03-1.39662E-13
 -1      2074 1.43565E-02-4.67230E-03-1.37601E-13
 -1      2075 1.47322E-02-4.88332E-03-1.39950E-13
 -1      2076 1.46602E-02-4.84115E-03-1.39859E-13
 -1      2077 1.45005E-02-4.75664E-03-1.37802E-13
 -1      2078 1.48762E-02-4.96767E-03-1.40123E-13
 -1      2079 1.48042E-02-4.92550E-03-1.40039E-13
 -1      2080 1.46445E-02-4.84098E-03-1.37984E-13
 -1      2081 1.50203E-02-5.05202E-03-1.40265E-13
 -1      2082 1.49483E-02-5.00985E-03-1.40198E-13
 -1      2083 1.47885E-02-4.92532E-03-1.38145E-13
 -1      2084 1.51644E-02-5.13637E-03-1.40385E-13
 -1      2085 1.50924E-02-5.09420E-03-1.40330E-13
 -1      2086 1.49326E-02-5.00967E-03-1.38285E-13
 -1      2087 1.53061E-02-5.21929E-03-1.40476E-13
 -1      2088 1.52353E-02-5.17783E-03-1.40431E-13
 -1      2089 1.50755E-02-5.09330E-03-1.38400E-13
 -1      2090 1.54503E-02-5.30362E-03-1.40550E-13
 -1      2091 1.53782E-02-5.26146E-03-1.40515E-13
 -1      2092 1.52184E-02-5.17692E-03-1.38492E-13
 -1      2093 1.55945E-02-5.38795E-03-1.40607E-13
 -1      2094 1.55224E-02-5.34579E-03-1.40581E-13
 -1      2095 1.53626E-02-5.26124E-03-1.38569E-13
 -1      2096 1.57387E-02-5.47226E-03-1.40657E-13
 -1      2097 1.56666E-02-5.43010E-03-1.40633E-13
 -1      2098 1.55068E-02-5.34556E-03-1.38634E-13
 -1      2099 1.13671E-03 4.46223E-04-6.27238E-16
 -1      2100 9.89505E-04 4.12982E-04-4.47261E-16
 -1      2101 9.56070E-04 3.82765E-04-4.69798E-16
 -1      2102 1.18784E-03 4.23814E-04-7.97485E-16
 -1      2103 6.69345E-03-7.45468E-04-2.00248E-14
 -1      2104 6.87693E-03-8.25061E-04-2.04649E-14
 -1      2105 5.86046E-03-3.48319E-04-1.83384E-14
 -1      2106 6.06968E-03-4.59039E-04-1.87970E-14
 -1      2107 7.28011E-03-9.46636E-04-2.08660E-14
 -1      2108 7.32046E-03-9.67374E-04-2.09280E-14
 -1      2109 6.29980E-03-5.71176E-04-1.92716E-14
 -1      2110 6.50022E-03-6.61726E-04-1.96481E-14
 -1      2111 3.24880E-04-6.98487E-05-1.95698E-16
 -1      2112 3.29855E-04-8.11209E-05-1.89071E-16
 -1      2113 4.48573E-04-1.17600E-04-2.75035E-16
 -1      2114 4.34054E-04-8.75901E-05-2.92572E-16
 -1      2115 5.40620E-03-7.87711E-05-1.70475E-14
 -1      2116 5.59393E-03-1.99272E-04-1.76550E-14
 -1      2117 5.02597E-03 1.31584E-04-1.57333E-14
 -1      2118 5.19664E-03 4.00436E-05-1.63515E-14
 -1      2119 4.68337E-03 2.48192E-04-1.44391E-14
 -1      2120 4.83825E-03 2.06246E-04-1.50315E-14
 -1      2121 4.35267E-03 2.52050E-04-1.32161E-14
 -1      2122 4.50604E-03 2.64188E-04-1.37799E-14
 -1      2123 4.00769E-03 1.52230E-04-1.20021E-14
 -1      2124 4.17479E-03 2.16110E-04-1.25680E-14
 -1      2125 3.57189E-03-4.50364E-05-1.09143E-14
 -1      2126 3.76075E-03 4.57145E-05-1.13315E-14
 -1      2127 3.17817E-03-2.22777E-04-1.02016E-14
 -1      2128 3.36249E-03-1.38849E-04-1.05327E-14
 -1      2129 2.82937E-03-3.71326E-04-9.57421E-15
 -1      2130 2.98784E-03-3.08688E-04-9.82453E-15
 -1      2131 2.55494E-03-4.65194E-04-9.24343E-15
 -1      2132 2.66879E-03-4.26625E-04-9.40459E-15
 -1      2133 2.41235E-03-5.21488E-04-8.96149E-15
 -1      2134 2.46420E-03-5.00635E-04-9.07561E-15
 -1      2135 2.43626E-03-5.60433E-04-8.85389E-15
 -1      2136 2.40063E-03-5.43612E-04-8.85409E-15
 -1      2137 2.65745E-03-6.50325E-04-9.11431E-15
 -1      2138 2.54076E-03-6.02368E-04-8.94708E-15
 -1      2139 2.97913E-03-8.11083E-04-9.58043E-15
 -1      2140 2.80478E-03-7.31134E-04-9.38054E-15
 -1      2141 3.42491E-03-1.03129E-03-1.00505E-14
 -1      2142 3.20030E-03-9.10188E-04-9.78079E-15
 -1      2143 3.96186E-03-1.39311E-03-1.09418E-14
 -1      2144 3.73265E-03-1.22170E-03-1.04968E-14
 -1      2145 4.80030E-03-1.97358E-03-1.30675E-14
 -1      2146 4.62486E-03-1.87374E-03-1.25384E-14
 -1      2147 5.18252E-03-2.06471E-03-1.44059E-14
 -1      2148 5.01592E-03-2.04773E-03-1.37925E-14
 -1      2149 6.01006E-03-1.70399E-03-1.72134E-14
 -1      2150 5.80358E-03-1.83263E-03-1.65951E-14
 -1      2151 6.43541E-03-1.43456E-03-1.85039E-14
 -1      2152 6.23305E-03-1.56026E-03-1.79444E-14
 -1      2153 6.84940E-03-1.20949E-03-1.95610E-14
 -1      2154 6.66527E-03-1.30526E-03-1.90967E-14
 -1      2155 7.15997E-03-1.07099E-03-2.02623E-14
 -1      2156 7.03155E-03-1.12666E-03-1.99378E-14
 -1      2157 7.31417E-03-9.96119E-04-2.08492E-14
 -1      2158 7.25957E-03-1.02298E-03-2.06083E-14
 -1      2159 7.08041E-03-8.94406E-04-2.08131E-14
 -1      2160 7.20022E-03-9.19756E-04-2.08378E-14
 -1      2161 7.24573E-03-9.57545E-04-2.14316E-14
 -1      2162 4.61985E-03-1.82210E-03-1.18734E-14
 -1      2163 5.08367E-03-2.08863E-03-1.37774E-14
 -1      2164 6.29799E-04-2.64377E-04-2.88560E-16
 -1      2165 5.52891E-03-2.02280E-03-1.58497E-14
 -1      2166 6.57352E-03-7.42407E-04-2.03061E-14
 -1      2167 5.69185E-03-2.90360E-04-1.82609E-14
 -1      2168 6.85317E-04-2.53588E-04-3.88876E-16
 -1      2169 1.58579E-02-5.54409E-03-1.40235E-13
 -1      2170 1.38995E-02-4.40433E-03-1.36895E-13
 -1      2171 1.57937E-02-5.50715E-03-1.40079E-13
 -1      2172 6.97689E-03-8.88134E-04-2.10428E-14
 -1      2173 7.06318E-03-9.33662E-04-2.16300E-14
 -1      2174 6.86629E-03-8.77761E-04-2.12708E-14
 -1      2175 7.33133E-03-9.88564E-04-2.13791E-14
 -1      2176 7.32662E-03-1.00392E-03-2.18343E-14
 -1      2177 7.33303E-03-9.93803E-04-2.19148E-14
 -1      2178 6.16391E-03-5.52372E-04-1.94390E-14
 -1      2179 7.21392E-03-1.03923E-03-2.09509E-14
 -1      2180 6.93654E-03-1.15259E-03-2.02170E-14
 -1      2181 6.54182E-03-1.35341E-03-1.92272E-14
 -1      2182 6.11521E-03-1.62254E-03-1.78792E-14
 -1      2183 4.93198E-03-2.02887E-03-1.33588E-14
 -1      2184 3.61351E-03-1.09291E-03-1.00093E-14
 -1      2185 3.11077E-03-8.14015E-04-9.38837E-15
 -1      2186 2.74683E-03-6.48214E-04-8.93463E-15
 -1      2187 2.48313E-03-5.53219E-04-8.58788E-15
 -1      2188 2.39576E-03-5.19700E-04-8.60495E-15
 -1      2189 2.50401E-03-4.85057E-04-8.87457E-15
 -1      2190 2.75022E-03-4.07568E-04-9.20195E-15
 -1      2191 3.08708E-03-2.78070E-04-9.72878E-15
 -1      2192 3.47028E-03-1.00555E-04-1.04699E-14
 -1      2193 3.88916E-03 1.05950E-04-1.14945E-14
 -1      2194 4.26400E-03 2.46814E-04-1.27990E-14
 -1      2195 4.58378E-03 2.68068E-04-1.41011E-14
 -1      2196 5.25400E-03-2.07086E-05-1.68682E-14
 -1      2197 4.90105E-03 1.75147E-04-1.54627E-14
 -1      2198 4.56901E-03-1.81542E-03-1.21552E-14
 -1      2199 4.42551E-03-1.74749E-03-1.20454E-14
 -1      2200 4.21729E-03-1.59609E-03-1.15628E-14
 -1      2201 5.75280E-03-1.86153E-03-1.66477E-14
 -1      2202 5.64092E-03-1.92371E-03-1.61064E-14
 -1      2203 5.50353E-03-1.98720E-03-1.55791E-14
 -1      2204 5.32288E-03-2.04963E-03-1.49113E-14
 -1      2205 5.24251E-03-2.07839E-03-1.45948E-14
 -1      2206 5.48966E-03-2.01039E-03-1.56243E-14
 -1      2207 1.56339E-02-5.42261E-03-1.38090E-13
 -1      2208 4.14434E-03-1.48545E-03-1.10499E-14
 -1      2209 5.25553E-04-5.24287E-05-4.34846E-16
 -1      2210 5.27780E-04-6.36509E-05-4.33505E-16
 -1      2211 5.31432E-04-7.54428E-05-4.30645E-16
 -1      2212 5.36527E-04-8.81108E-05-4.26281E-16
 -1      2213 6.38804E-04-8.38653E-05-5.84927E-16
 -1      2214 5.28104E-04-6.56068E-06-4.26891E-16
 -1      2215 5.26046E-04-1.86507E-05-4.30713E-16
 -1      2216 5.34209E-04 1.99751E-05-4.15683E-16
 -1      2217 5.30889E-04 6.29520E-06-4.21958E-16
 -1      2218 6.39701E-04-7.43625E-07-5.74871E-16
 -1      2219 5.42025E-04 4.97914E-05-3.99827E-16
 -1      2220 5.37951E-04 3.43990E-05-4.08554E-16
 -1      2221 6.48322E-04 3.19793E-05-5.59110E-16
 -1      2222 5.51394E-04 8.46324E-05-3.77668E-16
 -1      2223 5.46549E-04 6.66260E-05-3.89594E-16
 -1      2224 6.58959E-04 6.92480E-05-5.36816E-16
 -1      2225 5.62600E-04 1.24984E-04-3.47419E-16
 -1      2226 5.56732E-04 1.04078E-04-3.63872E-16
 -1      2227 6.71404E-04 1.12145E-04-5.06309E-16
 -1      2228 5.77400E-04 1.72614E-04-3.06233E-16
 -1      2229 5.69414E-04 1.47787E-04-3.28635E-16
 -1      2230 6.86362E-04 1.61406E-04-4.65272E-16
 -1      2231 6.00191E-04 2.30812E-04-2.49068E-16
 -1      2232 5.87529E-04 2.00206E-04-2.80185E-16
 -1      2233 7.06460E-04 2.18901E-04-4.10045E-16
 -1      2234 6.56511E-04 2.83458E-04-2.29756E-16
 -1      2235 6.27721E-04 2.55455E-04-2.42780E-16
 -1      2236 7.47208E-04 2.76091E-04-3.70770E-16
 -1      2237 8.06839E-04 3.28968E-04-3.53098E-16
 -1      2238 9.41685E-04-2.93876E-04-7.45159E-16
 -1      2239 1.09071E-03-3.20261E-04-9.78276E-16
 -1      2240 1.23909E-03-3.42215E-04-1.24477E-15
 -1      2241 1.38759E-03-3.60280E-04-1.54506E-15
 -1      2242 1.13797E-03-2.99501E-04-1.14354E-15
 -1      2243 1.53560E-03-3.75695E-04-1.87852E-15
 -1      2244 1.68392E-03-3.88936E-04-2.24531E-15
 -1      2245 1.42806E-03-3.35765E-04-1.75030E-15
 -1      2246 1.83198E-03-4.01421E-04-2.64453E-15
 -1      2247 1.98065E-03-4.13801E-04-3.07653E-15
 -1      2248 1.71553E-03-3.63055E-04-2.48816E-15
 -1      2249 2.12936E-03-4.27830E-04-3.54011E-15
 -1      2250 2.27924E-03-4.44610E-04-4.03632E-15
 -1      2251 1.99995E-03-3.88553E-04-3.35570E-15
 -1      2252 2.42991E-03-4.66328E-04-4.56388E-15
 -1      2253 2.58306E-03-4.95191E-04-5.12338E-15
 -1      2254 2.28179E-03-4.21483E-04-4.34949E-15
 -1      2255 2.73919E-03-5.33569E-04-5.71353E-15
 -1      2256 2.90079E-03-5.86211E-04-6.33540E-15
 -1      2257 2.56442E-03-4.74504E-04-5.46903E-15
 -1      2258 3.07024E-03-6.54969E-04-6.98831E-15
 -1      2259 3.25063E-03-7.49098E-04-7.67379E-15
 -1      2260 2.85861E-03-5.66944E-04-6.71132E-15
 -1      2261 6.46724E-03-7.40102E-04-2.07156E-14
 -1      2262 6.64641E-03-8.13351E-04-2.11074E-14
 -1      2263 5.99913E-03-1.74455E-03-1.81248E-14
 -1      2264 1.37842E-02-4.34555E-03-1.34976E-13
 -1      2265 6.85769E-03-1.30102E-03-2.25579E-14
 -1      2266 7.04487E-03-1.27281E-03-2.38858E-14
 -1      2267 7.22130E-03-1.27260E-03-2.52424E-14
 -1      2268 7.38873E-03-1.29084E-03-2.66255E-14
 -1      2269 7.18941E-03-1.21983E-03-2.45870E-14
 -1      2270 7.55033E-03-1.32571E-03-2.80354E-14
 -1      2271 7.70825E-03-1.37218E-03-2.94720E-14
 -1      2272 7.49736E-03-1.26901E-03-2.73499E-14
 -1      2273 7.87099E-03-1.43090E-03-3.10095E-14
 -1      2274 8.03228E-03-1.49713E-03-3.25731E-14
 -1      2275 7.79701E-03-1.36965E-03-3.02905E-14
 -1      2276 8.18429E-03-1.56516E-03-3.40898E-14
 -1      2277 8.33580E-03-1.63687E-03-3.56311E-14
 -1      2278 8.09310E-03-1.49972E-03-3.33404E-14
 -1      2279 8.48620E-03-1.71096E-03-3.71972E-14
 -1      2280 8.63625E-03-1.78687E-03-3.87883E-14
 -1      2281 8.38242E-03-1.64247E-03-3.64196E-14
 -1      2282 8.78539E-03-1.86383E-03-4.04041E-14
 -1      2283 8.93418E-03-1.94153E-03-4.20450E-14
 -1      2284 8.67265E-03-1.79337E-03-3.95963E-14
 -1      2285 9.08219E-03-2.01957E-03-4.37097E-14
 -1      2286 9.22984E-03-2.09777E-03-4.53992E-14
 -1      2287 8.96331E-03-1.94799E-03-4.28753E-14
 -1      2288 9.37682E-03-2.17594E-03-4.71098E-14
 -1      2289 9.52345E-03-2.25398E-03-4.88439E-14
 -1      2290 9.25383E-03-2.10383E-03-4.62473E-14
 -1      2291 9.66954E-03-2.33182E-03-5.06012E-14
 -1      2292 9.81530E-03-2.40939E-03-5.23796E-14
 -1      2293 9.54385E-03-2.25953E-03-4.97138E-14
 -1      2294 9.96063E-03-2.48671E-03-5.41778E-14
 -1      2295 1.01057E-02-2.56371E-03-5.59945E-14
 -1      2296 9.83320E-03-2.41446E-03-5.32665E-14
 -1      2297 1.02504E-02-2.64044E-03-5.78320E-14
 -1      2298 1.03948E-02-2.71687E-03-5.96897E-14
 -1      2299 1.01219E-02-2.56834E-03-5.68993E-14
 -1      2300 1.05391E-02-2.79302E-03-6.15638E-14
 -1      2301 1.06831E-02-2.86890E-03-6.34566E-14
 -1      2302 1.04099E-02-2.72111E-03-6.06078E-14
 -1      2303 1.08269E-02-2.94454E-03-6.53665E-14
 -1      2304 1.09706E-02-3.01994E-03-6.72951E-14
 -1      2305 1.06973E-02-2.87282E-03-6.43893E-14
 -1      2306 1.11141E-02-3.09512E-03-6.92442E-14
 -1      2307 1.12575E-02-3.17009E-03-7.12096E-14
 -1      2308 1.09843E-02-3.02358E-03-6.82448E-14
 -1      2309 1.14008E-02-3.24488E-03-7.31905E-14
 -1      2310 1.15441E-02-3.31950E-03-7.51870E-14
 -1      2311 1.12709E-02-3.17351E-03-7.21706E-14
 -1      2312 1.16872E-02-3.39396E-03-7.71984E-14
 -1      2313 1.18303E-02-3.46828E-03-7.92288E-14
 -1      2314 1.15573E-02-3.32273E-03-7.61616E-14
 -1      2315 1.19805E-02-3.54618E-03-8.13770E-14
 -1      2316 1.21307E-02-3.62395E-03-8.35384E-14
 -1      2317 1.18505E-02-3.47507E-03-8.03181E-14
 -1      2318 1.22736E-02-3.69791E-03-8.56134E-14
 -1      2319 1.24165E-02-3.77178E-03-8.77021E-14
 -1      2320 1.21437E-02-3.62690E-03-8.45407E-14
 -1      2321 1.25595E-02-3.84557E-03-8.98034E-14
 -1      2322 1.27023E-02-3.91928E-03-9.19196E-14
 -1      2323 1.24295E-02-3.77464E-03-8.87145E-14
 -1      2324 1.28452E-02-3.99293E-03-9.40476E-14
 -1      2325 1.29881E-02-4.06652E-03-9.61900E-14
 -1      2326 1.27153E-02-3.92206E-03-9.29432E-14
 -1      2327 1.31309E-02-4.14006E-03-9.83435E-14
 -1      2328 1.32738E-02-4.21356E-03-1.00513E-13
 -1      2329 1.30010E-02-4.06924E-03-9.72240E-14
 -1      2330 1.34166E-02-4.28702E-03-1.02693E-13
 -1      2331 1.35594E-02-4.36044E-03-1.04881E-13
 -1      2332 1.32868E-02-4.21623E-03-1.01555E-13
 -1      2333 1.37023E-02-4.43384E-03-1.07082E-13
 -1      2334 1.38451E-02-4.50721E-03-1.09293E-13
 -1      2335 1.35724E-02-4.36308E-03-1.05936E-13
 -1      2336 1.39879E-02-4.58056E-03-1.11512E-13
 -1      2337 1.41307E-02-4.65389E-03-1.13743E-13
 -1      2338 1.38581E-02-4.50982E-03-1.10355E-13
 -1      2339 1.42736E-02-4.72721E-03-1.15982E-13
 -1      2340 1.44164E-02-4.80052E-03-1.18224E-13
 -1      2341 1.41438E-02-4.65648E-03-1.14815E-13
 -1      2342 1.45592E-02-4.87381E-03-1.20474E-13
 -1      2343 1.47021E-02-4.94710E-03-1.22732E-13
 -1      2344 1.44295E-02-4.80309E-03-1.19306E-13
 -1      2345 1.48449E-02-5.02038E-03-1.24992E-13
 -1      2346 1.49878E-02-5.09366E-03-1.27257E-13
 -1      2347 1.47152E-02-4.94967E-03-1.23820E-13
 -1      2348 1.51306E-02-5.16694E-03-1.29525E-13
 -1      2349 1.52735E-02-5.24022E-03-1.31799E-13
 -1      2350 1.50009E-02-5.09622E-03-1.28355E-13
 -1      2351 1.53823E-02-5.29477E-03-1.33804E-13
 -1      2352 1.55251E-02-5.36805E-03-1.36081E-13
 -1      2353 1.54701E-02-5.33316E-03-1.36648E-13
 -1      2354 1.52525E-02-5.22405E-03-1.32632E-13
 -1      2355 2.09132E-03 5.11771E-04-2.95937E-15
 -1      2356 1.94490E-03 4.94756E-04-2.53837E-15
 -1      2357 1.79832E-03 4.76947E-04-2.15112E-15
 -1      2358 1.65176E-03 4.58130E-04-1.79784E-15
 -1      2359 1.85813E-03 4.46913E-04-2.42096E-15
 -1      2360 1.50502E-03 4.37649E-04-1.47781E-15
 -1      2361 1.35808E-03 4.15183E-04-1.19136E-15
 -1      2362 1.56263E-03 4.10075E-04-1.70382E-15
 -1      2363 2.38400E-03 5.44610E-04-3.90557E-15
 -1      2364 2.23780E-03 5.28370E-04-3.41495E-15
 -1      2365 2.15427E-03 4.80326E-04-3.27226E-15
 -1      2366 2.67569E-03 5.76041E-04-4.99051E-15
 -1      2367 2.53010E-03 5.60558E-04-4.43057E-15
 -1      2368 2.45094E-03 5.12504E-04-4.26064E-15
 -1      2369 2.96520E-03 6.04297E-04-6.21482E-15
 -1      2370 2.82086E-03 5.90777E-04-5.58467E-15
 -1      2371 2.74733E-03 5.43704E-04-5.38683E-15
 -1      2372 3.25111E-03 6.24994E-04-7.58036E-15
 -1      2373 3.10872E-03 6.15964E-04-6.88001E-15
 -1      2374 3.04200E-03 5.71692E-04-6.65200E-15
 -1      2375 3.53230E-03 6.31407E-04-9.08931E-15
 -1      2376 3.39231E-03 6.30474E-04-8.31671E-15
 -1      2377 3.33319E-03 5.91404E-04-8.05847E-15
 -1      2378 3.80869E-03 6.15653E-04-1.07440E-14
 -1      2379 3.67097E-03 6.26788E-04-9.89848E-15
 -1      2380 3.61953E-03 5.95275E-04-9.60874E-15
 -1      2381 4.08163E-03 5.70777E-04-1.25453E-14
 -1      2382 3.94533E-03 5.97191E-04-1.16258E-14
 -1      2383 3.90094E-03 5.74724E-04-1.13042E-14
 -1      2384 4.35377E-03 4.93043E-04-1.44919E-14
 -1      2385 4.21747E-03 5.36076E-04-1.35004E-14
 -1      2386 4.17910E-03 5.22658E-04-1.31457E-14
 -1      2387 4.62818E-03 3.83366E-04-1.65825E-14
 -1      2388 4.49041E-03 4.41951E-04-1.55196E-14
 -1      2389 4.45711E-03 4.36061E-04-1.51328E-14
 -1      2390 4.90717E-03 2.47071E-04-1.88139E-14
 -1      2391 4.76694E-03 3.18084E-04-1.76810E-14
 -1      2392 4.73821E-03 3.17300E-04-1.72627E-14
 -1      2393 5.19165E-03 9.21181E-05-2.11848E-14
 -1      2394 5.04871E-03 1.71392E-04-1.99821E-14
 -1      2395 5.02441E-03 1.73250E-04-1.95332E-14
 -1      2396 5.48113E-03-7.31433E-05-2.36900E-14
 -1      2397 5.33587E-03 1.03035E-05-2.24210E-14
 -1      2398 5.31593E-03 1.29162E-05-2.19413E-14
 -1      2399 5.77425E-03-2.41767E-04-2.63287E-14
 -1      2400 5.62739E-03-1.57377E-04-2.49919E-14
 -1      2401 5.61152E-03-1.55119E-04-2.44839E-14
 -1      2402 6.06943E-03-4.08996E-04-2.90968E-14
 -1      2403 5.92174E-03-3.25754E-04-2.76963E-14
 -1      2404 5.90934E-03-3.24325E-04-2.71582E-14
 -1      2405 6.36529E-03-5.72255E-04-3.19947E-14
 -1      2406 6.21740E-03-4.91206E-04-3.05304E-14
 -1      2407 6.20766E-03-4.90676E-04-2.99629E-14
 -1      2408 6.66085E-03-7.30658E-04-3.50159E-14
 -1      2409 6.51320E-03-6.52070E-04-3.34902E-14
 -1      2410 6.50525E-03-6.52319E-04-3.28949E-14
 -1      2411 6.95551E-03-8.84407E-04-3.81534E-14
 -1      2412 6.80835E-03-8.08078E-04-3.65696E-14
 -1      2413 6.80143E-03-8.08920E-04-3.59470E-14
 -1      2414 7.24898E-03-1.03427E-03-4.14039E-14
 -1      2415 7.10242E-03-9.59771E-04-3.97660E-14
 -1      2416 7.09593E-03-9.61018E-04-3.91144E-14
 -1      2417 7.54119E-03-1.18122E-03-4.47607E-14
 -1      2418 7.39525E-03-1.10805E-03-4.30696E-14
 -1      2419 7.38879E-03-1.10955E-03-4.23926E-14
 -1      2420 7.83218E-03-1.32619E-03-4.82213E-14
 -1      2421 7.68683E-03-1.25390E-03-4.64779E-14
 -1      2422 7.68017E-03-1.25551E-03-4.57742E-14
 -1      2423 8.12207E-03-1.46997E-03-5.17768E-14
 -1      2424 7.97725E-03-1.39819E-03-4.99875E-14
 -1      2425 7.97029E-03-1.39981E-03-4.92577E-14
 -1      2426 8.41102E-03-1.61318E-03-5.54268E-14
 -1      2427 8.26665E-03-1.54162E-03-5.35899E-14
 -1      2428 8.25936E-03-1.54319E-03-5.28352E-14
 -1      2429 8.69917E-03-1.75625E-03-5.91660E-14
 -1      2430 8.55518E-03-1.68471E-03-5.72855E-14
 -1      2431 8.54760E-03-1.68619E-03-5.65052E-14
 -1      2432 8.98668E-03-1.89946E-03-6.29860E-14
 -1      2433 8.84300E-03-1.82782E-03-6.10667E-14
 -1      2434 8.83517E-03-1.82919E-03-6.02615E-14
 -1      2435 9.27369E-03-2.04299E-03-6.68838E-14
 -1      2436 9.13024E-03-1.97118E-03-6.49260E-14
 -1      2437 9.12224E-03-1.97242E-03-6.40992E-14
 -1      2438 9.56030E-03-2.18692E-03-7.08497E-14
 -1      2439 9.41703E-03-2.11490E-03-6.88578E-14
 -1      2440 9.40891E-03-2.11602E-03-6.80100E-14
 -1      2441 9.84661E-03-2.33125E-03-7.48805E-14
 -1      2442 9.70348E-03-2.25903E-03-7.28580E-14
 -1      2443 9.69529E-03-2.26003E-03-7.19878E-14
 -1      2444 1.01327E-02-2.47599E-03-7.89737E-14
 -1      2445 9.98968E-03-2.40357E-03-7.69185E-14
 -1      2446 9.98144E-03-2.40447E-03-7.60300E-14
 -1      2447 1.04186E-02-2.62108E-03-8.31302E-14
 -1      2448 1.02757E-02-2.54849E-03-8.10445E-14
 -1      2449 1.02674E-02-2.54930E-03-8.01347E-14
 -1      2450 1.07045E-02-2.76649E-03-8.73450E-14
 -1      2451 1.05616E-02-2.69375E-03-8.52314E-14
 -1      2452 1.05533E-02-2.69448E-03-8.43015E-14
 -1      2453 1.09902E-02-2.91216E-03-9.16142E-14
 -1      2454 1.08473E-02-2.83930E-03-8.94727E-14
 -1      2455 1.08391E-02-2.83997E-03-8.85248E-14
 -1      2456 1.12759E-02-3.05804E-03-9.59339E-14
 -1      2457 1.11331E-02-2.98508E-03-9.37674E-14
 -1      2458 1.11249E-02-2.98570E-03-9.28051E-14
 -1      2459 1.15616E-02-3.20410E-03-1.00302E-13
 -1      2460 1.14187E-02-3.13105E-03-9.81115E-14
 -1      2461 1.14106E-02-3.13164E-03-9.71354E-14
 -1      2462 1.18472E-02-3.35028E-03-1.04714E-13
 -1      2463 1.17044E-02-3.27718E-03-1.02502E-13
 -1      2464 1.16963E-02-3.27773E-03-1.01514E-13
 -1      2465 1.21329E-02-3.49657E-03-1.09170E-13
 -1      2466 1.19901E-02-3.42341E-03-1.06938E-13
 -1      2467 1.19820E-02-3.42395E-03-1.05936E-13
 -1      2468 1.24186E-02-3.64292E-03-1.13662E-13
 -1      2469 1.22757E-02-3.56974E-03-1.11412E-13
 -1      2470 1.22676E-02-3.57026E-03-1.10402E-13
 -1      2471 1.27042E-02-3.78933E-03-1.18189E-13
 -1      2472 1.25614E-02-3.71612E-03-1.15922E-13
 -1      2473 1.25533E-02-3.71663E-03-1.14901E-13
 -1      2474 1.29899E-02-3.93576E-03-1.22738E-13
 -1      2475 1.28471E-02-3.86254E-03-1.20459E-13
 -1      2476 1.28390E-02-3.86305E-03-1.19433E-13
 -1      2477 1.32756E-02-4.08222E-03-1.27306E-13
 -1      2478 1.31328E-02-4.00899E-03-1.25019E-13
 -1      2479 1.31247E-02-4.00949E-03-1.23988E-13
 -1      2480 1.35613E-02-4.22867E-03-1.31897E-13
 -1      2481 1.34185E-02-4.15544E-03-1.29599E-13
 -1      2482 1.34104E-02-4.15595E-03-1.28564E-13
 -1      2483 1.42688E-02-4.62996E-03-1.35649E-13
 -1      2484 1.41968E-02-4.58780E-03-1.35543E-13
 -1      2485 1.41260E-02-4.54635E-03-1.35435E-13
 -1      2486 1.40553E-02-4.50491E-03-1.35326E-13
 -1      2487 1.40383E-02-4.50401E-03-1.33491E-13
 -1      2488 1.39833E-02-4.46275E-03-1.35207E-13
 -1      2489 1.39114E-02-4.42060E-03-1.35084E-13
 -1      2490 1.38956E-02-4.42041E-03-1.33268E-13
 -1      2491 1.44128E-02-4.71430E-03-1.35841E-13
 -1      2492 1.43408E-02-4.67213E-03-1.35746E-13
 -1      2493 1.41810E-02-4.58762E-03-1.33695E-13
 -1      2494 1.45568E-02-4.79863E-03-1.36017E-13
 -1      2495 1.44848E-02-4.75646E-03-1.35932E-13
 -1      2496 1.43250E-02-4.67195E-03-1.33883E-13
 -1      2497 1.47008E-02-4.88297E-03-1.36172E-13
 -1      2498 1.46288E-02-4.84080E-03-1.36098E-13
 -1      2499 1.44691E-02-4.75628E-03-1.34053E-13
 -1      2500 1.48449E-02-4.96731E-03-1.36306E-13
 -1      2501 1.47729E-02-4.92514E-03-1.36239E-13
 -1      2502 1.46131E-02-4.84062E-03-1.34202E-13
 -1      2503 1.49866E-02-5.05021E-03-1.36416E-13
 -1      2504 1.49158E-02-5.00876E-03-1.36363E-13
 -1      2505 1.47560E-02-4.92423E-03-1.34328E-13
 -1      2506 1.51308E-02-5.13454E-03-1.36512E-13
 -1      2507 1.50587E-02-5.09238E-03-1.36465E-13
 -1      2508 1.48989E-02-5.00785E-03-1.34439E-13
 -1      2509 1.52750E-02-5.21887E-03-1.36592E-13
 -1      2510 1.52029E-02-5.17671E-03-1.36552E-13
 -1      2511 1.50431E-02-5.09217E-03-1.34535E-13
 -1      2512 1.54086E-02-5.29709E-03-1.36638E-13
 -1      2513 1.53365E-02-5.25494E-03-1.36604E-13
 -1      2514 1.51767E-02-5.17040E-03-1.34596E-13
 -1      2515 1.52998E-02-5.24254E-03-1.34626E-13
 -1      2516 4.37748E-03-1.63711E-03-1.13293E-14
 -1      2517 4.15186E-03-1.44465E-03-1.07188E-14
 -1      2518 6.03066E-04-2.01958E-04-3.58762E-16
 -1      2519 8.02395E-04-2.58924E-04-5.69044E-16
 -1      2520 8.55724E-04-2.45121E-04-6.94486E-16
 -1      2521 5.87973E-04-1.74753E-04-3.80392E-16
 -1      2522 6.06298E-03-5.39989E-04-1.97255E-14
 -1      2523 6.26885E-03-6.46210E-04-2.02171E-14
 -1      2524 6.37016E-03-7.18502E-04-2.10082E-14
 -1      2525 5.56130E-03-2.50351E-04-1.84048E-14
 -1      2526 5.79033E-03-3.94362E-04-1.91083E-14
 -1      2527 7.26226E-03-1.02892E-03-2.17067E-14
 -1      2528 7.16499E-03-1.05690E-03-2.13515E-14
 -1      2529 6.42738E-03-1.45861E-03-1.99929E-14
 -1      2530 6.64669E-03-1.36185E-03-2.12591E-14
 -1      2531 1.37762E-02-4.34605E-03-1.33934E-13
 -1      2532 5.24816E-04-3.02022E-05-4.33315E-16
 -1      2533 5.24609E-04-4.13569E-05-4.34792E-16
 -1      2534 6.33337E-04-5.69642E-05-5.88275E-16
 -1      2535 6.34159E-04-3.00112E-05-5.84629E-16
 -1      2536 4.78927E-03 2.14324E-04-1.51880E-14
 -1      2537 4.93511E-03 1.41647E-04-1.58934E-14
 -1      2538 5.13960E-03 3.01410E-05-1.67051E-14
 -1      2539 5.31550E-03-8.55448E-05-1.74106E-14
 -1      2540 4.48800E-03 2.82174E-04-1.37189E-14
 -1      2541 4.62409E-03 2.65904E-04-1.43738E-14
 -1      2542 4.19451E-03 2.40911E-04-1.24190E-14
 -1      2543 4.33974E-03 2.74342E-04-1.30590E-14
 -1      2544 4.39448E-03 2.86588E-04-1.33169E-14
 -1      2545 3.76248E-03 5.85521E-05-1.08771E-14
 -1      2546 3.96445E-03 1.59805E-04-1.15234E-14
 -1      2547 3.35280E-03-1.54676E-04-9.94746E-15
 -1      2548 3.52808E-03-6.34271E-05-1.03087E-14
 -1      2549 3.00343E-03-3.08227E-04-9.22352E-15
 -1      2550 3.17751E-03-2.35459E-04-9.58212E-15
 -1      2551 3.23785E-03-1.86582E-04-9.42791E-15
 -1      2552 2.65313E-03-4.34268E-04-8.73391E-15
 -1      2553 2.79317E-03-3.88238E-04-8.88924E-15
 -1      2554 2.45768E-03-4.82803E-04-8.41459E-15
 -1      2555 2.54426E-03-4.65593E-04-8.57350E-15
 -1      2556 2.57517E-03-4.36570E-04-8.27121E-15
 -1      2557 2.38211E-03-5.00466E-04-8.18906E-15
 -1      2558 2.39722E-03-4.97979E-04-8.29379E-15
 -1      2559 2.53148E-03-5.34559E-04-8.24116E-15
 -1      2560 2.43024E-03-5.13504E-04-8.15573E-15
 -1      2561 2.86159E-03-6.54719E-04-8.72662E-15
 -1      2562 2.71170E-03-5.94140E-04-8.47339E-15
 -1      2563 3.23876E-03-8.18151E-04-9.08813E-15
 -1      2564 3.04082E-03-7.28863E-04-8.90626E-15
 -1      2565 2.97261E-03-6.66536E-04-8.43593E-15
 -1      2566 3.75866E-03-1.13653E-03-9.84193E-15
 -1      2567 3.48850E-03-9.59230E-04-9.42214E-15
 -1      2568 4.98525E-03-2.05580E-03-1.34428E-14
 -1      2569 4.81105E-03-1.96876E-03-1.27298E-14
 -1      2570 6.19933E-03-1.56507E-03-1.85045E-14
 -1      2571 6.00215E-03-1.70064E-03-1.77559E-14
 -1      2572 6.67135E-03-1.27941E-03-2.02443E-14
 -1      2573 6.47476E-03-1.39301E-03-1.96274E-14
 -1      2574 7.03391E-03-1.10654E-03-2.09726E-14
 -1      2575 6.87080E-03-1.17620E-03-2.05817E-14
 -1      2576 7.21509E-03-9.75840E-04-2.20513E-14
 -1      2577 7.28959E-03-9.85582E-04-2.20843E-14
 -1      2578 3.93148E-03-1.24124E-03-9.96837E-15
 -1      2579 3.77946E-03-1.10744E-03-9.37188E-15
 -1      2580 6.51700E-04-1.13770E-04-5.73651E-16
 -1      2581 5.43204E-04-1.02128E-04-4.20020E-16
 -1      2582 5.51355E-04-1.17891E-04-4.11346E-16
 -1      2583 5.91987E-03-4.86119E-04-1.98715E-14
 -1      2584 9.23980E-04 3.55243E-04-4.82755E-16
 -1      2585 8.93396E-04 3.28222E-04-4.92851E-16
 -1      2586 1.04081E-03 3.77603E-04-6.35004E-16
 -1      2587 3.08691E-03-6.82923E-04-7.98434E-15
 -1      2588 3.34458E-03-8.11519E-04-8.29871E-15
 -1      2589 5.44595E-03-2.03942E-03-1.54674E-14
 -1      2590 5.68482E-03-1.92494E-03-1.65494E-14
 -1      2591 7.06376E-03-9.66470E-04-2.25077E-14
 -1      2592 7.14462E-03-9.72564E-04-2.22802E-14
 -1      2593 7.21311E-03-1.00052E-03-2.29376E-14
 -1      2594 3.56095E-03-9.37046E-04-8.60603E-15
 -1      2595 5.21680E-03-2.09403E-03-1.44424E-14
 -1      2596 5.92290E-03-1.77528E-03-1.76566E-14
 -1      2597 6.16971E-03-1.61846E-03-1.88555E-14
 -1      2598 6.83383E-03-1.25898E-03-2.19324E-14
 -1      2599 1.36884E-02-4.30372E-03-1.32005E-13
 -1      2600 4.65498E-03-1.86029E-03-1.22346E-14
 -1      2601 5.74918E-04-1.51471E-04-3.97523E-16
 -1      2602 1.25752E-03 4.06929E-04-9.91313E-16
 -1      2603 1.14140E-03 3.90233E-04-7.95967E-16
 -1      2604 1.11145E-03 3.63569E-04-8.04356E-16
 -1      2605 1.31372E-03 3.82506E-04-1.17963E-15
 -1      2606 6.76846E-03-8.69731E-04-2.16887E-14
 -1      2607 7.32844E-03-1.00370E-03-2.25399E-14
 -1      2608 7.34728E-03-1.02507E-03-2.27784E-14
 -1      2609 7.31223E-03-1.02128E-03-2.22411E-14
 -1      2610 7.29095E-03-1.04125E-03-2.26471E-14
 -1      2611 5.43985E-03-1.84529E-04-1.82288E-14
 -1      2612 7.11678E-03-1.08496E-03-2.17252E-14
 -1      2613 5.01184E-03 8.89258E-05-1.64134E-14
 -1      2614 6.80384E-03-1.22579E-03-2.09972E-14
 -1      2615 6.37058E-03-1.47409E-03-1.94984E-14
 -1      2616 3.37903E-03-8.66505E-04-8.92777E-15
 -1      2617 2.60962E-03-5.39103E-04-8.03864E-15
 -1      2618 2.40859E-03-4.73218E-04-7.99988E-15
 -1      2619 2.87201E-03-3.40708E-04-8.74847E-15
 -1      2620 4.04785E-03 2.08669E-04-1.17649E-14
 -1      2621 5.81235E-03-1.83223E-03-1.70515E-14
 -1      2622 5.32930E-03-2.07901E-03-1.49508E-14
 -1      2623 4.68275E-03 2.46301E-04-1.47834E-14
 -1      2624 3.62513E-03 1.02775E-05-1.03361E-14
 -1      2625 2.38617E-03-4.87337E-04-7.84956E-15
 -1      2626 7.65373E-04 4.65925E-05-7.24328E-16
 -1      2627 7.59334E-04 2.64692E-05-7.35875E-16
 -1      2628 7.53776E-04 7.21241E-06-7.45497E-16
 -1      2629 7.49088E-04-1.08544E-05-7.53548E-16
 -1      2630 8.70494E-04 1.74708E-05-9.38540E-16
 -1      2631 7.94905E-04 1.42272E-04-6.54113E-16
 -1      2632 7.86764E-04 1.16076E-04-6.75743E-16
 -1      2633 8.13888E-04 1.99984E-04-6.00689E-16
 -1      2634 8.03928E-04 1.70208E-04-6.29447E-16
 -1      2635 9.21625E-04 1.74690E-04-8.20524E-16
 -1      2636 8.64151E-04 3.02178E-04-5.00007E-16
 -1      2637 8.36341E-04 2.76997E-04-5.04561E-16
 -1      2638 9.81115E-04 3.24670E-04-6.51280E-16
 -1      2639 1.04152E-03-2.59338E-04-1.04189E-15
 -1      2640 1.18394E-03-2.80163E-04-1.31530E-15
 -1      2641 1.32538E-03-2.98169E-04-1.62132E-15
 -1      2642 1.46610E-03-3.13601E-04-1.96056E-15
 -1      2643 1.22813E-03-2.62312E-04-1.49315E-15
 -1      2644 1.60524E-03-3.27641E-04-2.33178E-15
 -1      2645 1.74322E-03-3.40531E-04-2.73551E-15
 -1      2646 1.50158E-03-2.94034E-04-2.17579E-15
 -1      2647 1.87913E-03-3.53753E-04-3.17106E-15
 -1      2648 2.01358E-03-3.67640E-04-3.63785E-15
 -1      2649 1.76732E-03-3.21592E-04-2.98683E-15
 -1      2650 2.14558E-03-3.83986E-04-4.13641E-15
 -1      2651 2.27635E-03-4.03333E-04-4.66618E-15
 -1      2652 2.02225E-03-3.51161E-04-3.92375E-15
 -1      2653 2.40486E-03-4.27681E-04-5.22590E-15
 -1      2654 2.53382E-03-4.58499E-04-5.81634E-15
 -1      2655 2.26387E-03-3.89770E-04-4.98429E-15
 -1      2656 2.66250E-03-4.97991E-04-6.43599E-15
 -1      2657 2.79619E-03-5.50753E-04-7.08614E-15
 -1      2658 2.49237E-03-4.45996E-04-6.16404E-15
 -1      2659 7.18376E-03-1.16523E-03-2.39366E-14
 -1      2660 7.32545E-03-1.18120E-03-2.52904E-14
 -1      2661 7.46029E-03-1.21376E-03-2.66685E-14
 -1      2662 7.59399E-03-1.25658E-03-2.80733E-14
 -1      2663 7.43614E-03-1.16149E-03-2.59906E-14
 -1      2664 7.73290E-03-1.31085E-03-2.95786E-14
 -1      2665 7.87341E-03-1.37254E-03-3.11100E-14
 -1      2666 7.67779E-03-1.25695E-03-2.88682E-14
 -1      2667 8.00792E-03-1.43633E-03-3.25964E-14
 -1      2668 8.14440E-03-1.50433E-03-3.41065E-14
 -1      2669 7.92956E-03-1.37786E-03-3.18544E-14
 -1      2670 8.28190E-03-1.57509E-03-3.56427E-14
 -1      2671 8.42107E-03-1.64833E-03-3.72051E-14
 -1      2672 8.18683E-03-1.51190E-03-3.48706E-14
 -1      2673 8.56106E-03-1.72301E-03-3.87917E-14
 -1      2674 8.70223E-03-1.79900E-03-4.04039E-14
 -1      2675 8.45381E-03-1.65593E-03-3.79888E-14
 -1      2676 8.84392E-03-1.87565E-03-4.20423E-14
 -1      2677 8.98635E-03-1.95286E-03-4.37034E-14
 -1      2678 8.72794E-03-1.80573E-03-4.12088E-14
 -1      2679 9.12906E-03-2.03027E-03-4.53877E-14
 -1      2680 9.27219E-03-2.10782E-03-4.70953E-14
 -1      2681 9.00693E-03-1.95846E-03-4.45292E-14
 -1      2682 9.41543E-03-2.18531E-03-4.88272E-14
 -1      2683 9.55889E-03-2.26271E-03-5.05812E-14
 -1      2684 9.28902E-03-2.11231E-03-4.79438E-14
 -1      2685 9.70234E-03-2.33992E-03-5.23570E-14
 -1      2686 9.84589E-03-2.41692E-03-5.41513E-14
 -1      2687 9.57298E-03-2.26623E-03-5.14477E-14
 -1      2688 9.98938E-03-2.49369E-03-5.59647E-14
 -1      2689 1.01329E-02-2.57021E-03-5.77997E-14
 -1      2690 9.85802E-03-2.41963E-03-5.50330E-14
 -1      2691 1.02763E-02-2.64648E-03-5.96524E-14
 -1      2692 1.04198E-02-2.72250E-03-6.15228E-14
 -1      2693 1.01436E-02-2.57226E-03-5.86967E-14
 -1      2694 1.05631E-02-2.79828E-03-6.34128E-14
 -1      2695 1.07064E-02-2.87382E-03-6.53189E-14
 -1      2696 1.04295E-02-2.72401E-03-6.24364E-14
 -1      2697 1.08497E-02-2.94915E-03-6.72457E-14
 -1      2698 1.09929E-02-3.02426E-03-6.91911E-14
 -1      2699 1.07155E-02-2.87490E-03-6.62488E-14
 -1      2700 1.11361E-02-3.09919E-03-7.11516E-14
 -1      2701 1.12792E-02-3.17394E-03-7.31297E-14
 -1      2702 1.10015E-02-3.02499E-03-7.01336E-14
 -1      2703 1.14223E-02-3.24852E-03-7.51248E-14
 -1      2704 1.15653E-02-3.32295E-03-7.71334E-14
 -1      2705 1.12875E-02-3.17439E-03-7.40880E-14
 -1      2706 1.17155E-02-3.40096E-03-7.92604E-14
 -1      2707 1.18656E-02-3.47883E-03-8.14074E-14
 -1      2708 1.15805E-02-3.32690E-03-7.82074E-14
 -1      2709 1.20086E-02-3.55288E-03-8.34655E-14
 -1      2710 1.21515E-02-3.62682E-03-8.55378E-14
 -1      2711 1.18735E-02-3.47888E-03-8.23935E-14
 -1      2712 1.22944E-02-3.70068E-03-8.76235E-14
 -1      2713 1.24373E-02-3.77445E-03-8.97241E-14
 -1      2714 1.21594E-02-3.62673E-03-8.65350E-14
 -1      2715 1.25802E-02-3.84816E-03-9.18373E-14
 -1      2716 1.27231E-02-3.92179E-03-9.39635E-14
 -1      2717 1.24452E-02-3.77426E-03-9.07328E-14
 -1      2718 1.28660E-02-3.99538E-03-9.61036E-14
 -1      2719 1.30089E-02-4.06891E-03-9.82535E-14
 -1      2720 1.27309E-02-3.92152E-03-9.49846E-14
 -1      2721 1.31517E-02-4.14240E-03-1.00419E-13
 -1      2722 1.32946E-02-4.21586E-03-1.02597E-13
 -1      2723 1.30167E-02-4.06858E-03-9.92866E-14
 -1      2724 1.34374E-02-4.28928E-03-1.04787E-13
 -1      2725 1.35803E-02-4.36267E-03-1.06986E-13
 -1      2726 1.33024E-02-4.21547E-03-1.03640E-13
 -1      2727 1.37231E-02-4.43604E-03-1.09195E-13
 -1      2728 1.38660E-02-4.50938E-03-1.11414E-13
 -1      2729 1.35882E-02-4.36225E-03-1.08037E-13
 -1      2730 1.40088E-02-4.58271E-03-1.13642E-13
 -1      2731 1.41517E-02-4.65603E-03-1.15883E-13
 -1      2732 1.38739E-02-4.50894E-03-1.12476E-13
 -1      2733 1.42945E-02-4.72933E-03-1.18131E-13
 -1      2734 1.44374E-02-4.80262E-03-1.20383E-13
 -1      2735 1.41596E-02-4.65557E-03-1.16954E-13
 -1      2736 1.45802E-02-4.87591E-03-1.22643E-13
 -1      2737 1.47231E-02-4.94919E-03-1.24909E-13
 -1      2738 1.44453E-02-4.80215E-03-1.21464E-13
 -1      2739 1.48660E-02-5.02247E-03-1.27177E-13
 -1      2740 1.50088E-02-5.09574E-03-1.29451E-13
 -1      2741 1.47310E-02-4.94871E-03-1.25998E-13
 -1      2742 1.50999E-02-5.14187E-03-1.31030E-13
 -1      2743 1.52087E-02-5.19642E-03-1.33038E-13
 -1      2744 1.51472E-02-5.16035E-03-1.33020E-13
 -1      2745 1.49650E-02-5.06811E-03-1.29850E-13
 -1      2746 1.91978E-03 4.15505E-04-2.69684E-15
 -1      2747 1.77072E-03 3.98894E-04-2.30031E-15
 -1      2748 2.21930E-03 4.47383E-04-3.59066E-15
 -1      2749 2.06937E-03 4.31588E-04-3.12684E-15
 -1      2750 1.98306E-03 3.82716E-04-2.97924E-15
 -1      2751 1.62205E-03 3.81291E-04-1.93695E-15
 -1      2752 1.47379E-03 3.62352E-04-1.60648E-15
 -1      2753 1.68287E-03 3.51246E-04-2.17751E-15
 -1      2754 2.82198E-03 5.10020E-04-5.78766E-15
 -1      2755 2.67128E-03 4.94608E-04-5.18709E-15
 -1      2756 3.12226E-03 5.38085E-04-7.09356E-15
 -1      2757 2.97247E-03 5.24746E-04-6.42284E-15
 -1      2758 2.89950E-03 4.75288E-04-6.19330E-15
 -1      2759 3.41897E-03 5.57240E-04-8.54095E-15
 -1      2760 3.27121E-03 5.49305E-04-7.79968E-15
 -1      2761 3.20568E-03 5.03927E-04-7.53928E-15
 -1      2762 3.71035E-03 5.58838E-04-1.01308E-14
 -1      2763 3.56533E-03 5.60895E-04-9.31725E-15
 -1      2764 3.50787E-03 5.22974E-04-9.02583E-15
 -1      2765 3.99638E-03 5.33336E-04-1.18673E-14
 -1      2766 3.85383E-03 5.50061E-04-1.09810E-14
 -1      2767 3.80396E-03 5.22339E-04-1.06561E-14
 -1      2768 4.27931E-03 4.73451E-04-1.37492E-14
 -1      2769 4.13787E-03 5.07985E-04-1.27901E-14
 -1      2770 4.09424E-03 4.91316E-04-1.24330E-14
 -1      2771 4.56290E-03 3.77110E-04-1.57766E-14
 -1      2772 4.42063E-03 4.29689E-04-1.47453E-14
 -1      2773 4.38177E-03 4.22519E-04-1.43552E-14
 -1      2774 4.85063E-03 2.48571E-04-1.79456E-14
 -1      2775 4.70600E-03 3.16351E-04-1.68430E-14
 -1      2776 4.67116E-03 3.15354E-04-1.64230E-14
 -1      2777 5.14407E-03 9.65499E-05-2.02551E-14
 -1      2778 4.99660E-03 1.74811E-04-1.90830E-14
 -1      2779 4.96592E-03 1.76459E-04-1.86314E-14
 -1      2780 5.44254E-03-6.88466E-05-2.27011E-14
 -1      2781 5.29281E-03 1.49018E-05-2.14612E-14
 -1      2782 5.26688E-03 1.66427E-05-2.09797E-14
 -1      2783 5.74398E-03-2.39013E-04-2.52810E-14
 -1      2784 5.59309E-03-1.53780E-04-2.39749E-14
 -1      2785 5.57225E-03-1.53110E-04-2.34650E-14
 -1      2786 6.04608E-03-4.08068E-04-2.79917E-14
 -1      2787 5.89514E-03-3.23924E-04-2.66203E-14
 -1      2788 5.87913E-03-3.24480E-04-2.60812E-14
 -1      2789 6.34707E-03-5.72906E-04-3.08326E-14
 -1      2790 6.19685E-03-4.91106E-04-2.93958E-14
 -1      2791 6.18491E-03-4.92550E-04-2.88292E-14
 -1      2792 6.64596E-03-7.32474E-04-3.37970E-14
 -1      2793 6.49686E-03-6.53345E-04-3.22994E-14
 -1      2794 6.48794E-03-6.55261E-04-3.17045E-14
 -1      2795 6.94241E-03-8.86990E-04-3.68799E-14
 -1      2796 6.79452E-03-8.10312E-04-3.53243E-14
 -1      2797 6.78757E-03-8.12380E-04-3.47011E-14
 -1      2798 7.23654E-03-1.03730E-03-4.00774E-14
 -1      2799 7.08977E-03-9.62602E-04-3.84650E-14
 -1      2800 7.08389E-03-9.64632E-04-3.78153E-14
 -1      2801 7.52866E-03-1.18445E-03-4.33804E-14
 -1      2802 7.38284E-03-1.11120E-03-4.17156E-14
 -1      2803 7.37735E-03-1.11310E-03-4.10408E-14
 -1      2804 7.81914E-03-1.32944E-03-4.67876E-14
 -1      2805 7.67409E-03-1.25715E-03-4.50714E-14
 -1      2806 7.66856E-03-1.25890E-03-4.43696E-14
 -1      2807 8.10836E-03-1.47312E-03-5.02934E-14
 -1      2808 7.96389E-03-1.40140E-03-4.85281E-14
 -1      2809 7.95807E-03-1.40299E-03-4.78013E-14
 -1      2810 8.39662E-03-1.61615E-03-5.38936E-14
 -1      2811 8.25259E-03-1.54469E-03-5.20821E-14
 -1      2812 8.24636E-03-1.54613E-03-5.13302E-14
 -1      2813 8.68417E-03-1.75901E-03-5.75845E-14
 -1      2814 8.54047E-03-1.68758E-03-5.57282E-14
 -1      2815 8.53381E-03-1.68889E-03-5.49520E-14
 -1      2816 8.97118E-03-1.90198E-03-6.13562E-14
 -1      2817 8.82773E-03-1.83047E-03-5.94596E-14
 -1      2818 8.82067E-03-1.83165E-03-5.86599E-14
 -1      2819 9.25781E-03-2.04528E-03-6.52098E-14
 -1      2820 9.11454E-03-1.97358E-03-6.32742E-14
 -1      2821 9.10715E-03-1.97466E-03-6.24512E-14
 -1      2822 9.54417E-03-2.18897E-03-6.91326E-14
 -1      2823 9.40102E-03-2.11707E-03-6.71626E-14
 -1      2824 9.39337E-03-2.11806E-03-6.63175E-14
 -1      2825 9.83032E-03-2.33311E-03-7.31232E-14
 -1      2826 9.68726E-03-2.26099E-03-7.11190E-14
 -1      2827 9.67942E-03-2.26188E-03-7.02537E-14
 -1      2828 1.01163E-02-2.47766E-03-7.71770E-14
 -1      2829 9.97333E-03-2.40533E-03-7.51431E-14
 -1      2830 9.96536E-03-2.40616E-03-7.42564E-14
 -1      2831 1.04022E-02-2.62261E-03-8.12937E-14
 -1      2832 1.02593E-02-2.55009E-03-7.92279E-14
 -1      2833 1.02512E-02-2.55084E-03-7.83234E-14
 -1      2834 1.06880E-02-2.76789E-03-8.54722E-14
 -1      2835 1.05451E-02-2.69521E-03-8.33769E-14
 -1      2836 1.05370E-02-2.69591E-03-8.24525E-14
 -1      2837 1.09738E-02-2.91345E-03-8.97052E-14
 -1      2838 1.08309E-02-2.84063E-03-8.75819E-14
 -1      2839 1.08228E-02-2.84129E-03-8.66407E-14
 -1      2840 1.12596E-02-3.05925E-03-9.39942E-14
 -1      2841 1.11167E-02-2.98632E-03-9.18422E-14
 -1      2842 1.11086E-02-2.98694E-03-9.08838E-14
 -1      2843 1.15453E-02-3.20524E-03-9.83374E-14
 -1      2844 1.14024E-02-3.13222E-03-9.61597E-14
 -1      2845 1.13943E-02-3.13281E-03-9.51850E-14
 -1      2846 1.18310E-02-3.35137E-03-1.02725E-13
 -1      2847 1.16881E-02-3.27829E-03-1.00527E-13
 -1      2848 1.16800E-02-3.27885E-03-9.95384E-14
 -1      2849 1.21167E-02-3.49762E-03-1.07159E-13
 -1      2850 1.19738E-02-3.42449E-03-1.04937E-13
 -1      2851 1.19657E-02-3.42502E-03-1.03939E-13
 -1      2852 1.24024E-02-3.64395E-03-1.11631E-13
 -1      2853 1.22595E-02-3.57078E-03-1.09390E-13
 -1      2854 1.22514E-02-3.57130E-03-1.08379E-13
 -1      2855 1.26881E-02-3.79034E-03-1.16141E-13
 -1      2856 1.25452E-02-3.71714E-03-1.13882E-13
 -1      2857 1.25372E-02-3.71765E-03-1.12860E-13
 -1      2858 1.29738E-02-3.93677E-03-1.20677E-13
 -1      2859 1.28309E-02-3.86355E-03-1.18405E-13
 -1      2860 1.28229E-02-3.86406E-03-1.17377E-13
 -1      2861 1.32595E-02-4.08322E-03-1.25237E-13
 -1      2862 1.31166E-02-4.00999E-03-1.22956E-13
 -1      2863 1.31086E-02-4.01050E-03-1.21921E-13
 -1      2864 1.35454E-02-4.23008E-03-1.29764E-13
 -1      2865 1.34025E-02-4.15685E-03-1.27470E-13
 -1      2866 1.33945E-02-4.15736E-03-1.26431E-13
 -1      2867 1.36806E-02-4.30462E-03-1.30905E-13
 -1      2868 1.42373E-02-4.62960E-03-1.31925E-13
 -1      2869 1.41653E-02-4.58744E-03-1.31835E-13
 -1      2870 6.72190E-03-8.79876E-04-2.23956E-14
 -1      2871 6.91260E-03-9.36274E-04-2.25719E-14
 -1      2872 1.40933E-02-4.54528E-03-1.31743E-13
 -1      2873 1.40213E-02-4.50312E-03-1.31646E-13
 -1      2874 1.40056E-02-4.50293E-03-1.29793E-13
 -1      2875 1.38245E-02-4.38893E-03-1.31136E-13
 -1      2876 1.37525E-02-4.34678E-03-1.31023E-13
 -1      2877 1.36095E-02-4.27314E-03-1.28783E-13
 -1      2878 1.43813E-02-4.71393E-03-1.32090E-13
 -1      2879 1.43093E-02-4.67177E-03-1.32011E-13
 -1      2880 1.41496E-02-4.58725E-03-1.29969E-13
 -1      2881 7.46502E-04-9.02154E-05-7.64485E-16
 -1      2882 7.51881E-04-1.06074E-04-7.60148E-16
 -1      2883 1.45254E-02-4.79826E-03-1.32232E-13
 -1      2884 1.44534E-02-4.75609E-03-1.32164E-13
 -1      2885 1.42936E-02-4.67157E-03-1.30127E-13
 -1      2886 1.46671E-02-4.88116E-03-1.32357E-13
 -1      2887 1.45962E-02-4.83971E-03-1.32297E-13
 -1      2888 1.44365E-02-4.75518E-03-1.30266E-13
 -1      2889 1.48112E-02-4.96548E-03-1.32468E-13
 -1      2890 1.47392E-02-4.92332E-03-1.32414E-13
 -1      2891 1.45794E-02-4.83879E-03-1.30391E-13
 -1      2892 1.49554E-02-5.04980E-03-1.32569E-13
 -1      2893 1.48833E-02-5.00764E-03-1.32519E-13
 -1      2894 1.47236E-02-4.92311E-03-1.30503E-13
 -1      2895 6.87468E-04-1.66689E-04-5.50124E-16
 -1      2896 5.29619E-03-1.01000E-04-1.79208E-14
 -1      2897 5.51807E-03-2.51447E-04-1.89287E-14
 -1      2898 7.79154E-04 9.14964E-05-6.94269E-16
 -1      2899 7.72051E-04 6.83239E-05-7.10451E-16
 -1      2900 8.85469E-04 6.40101E-05-9.10310E-16
 -1      2901 9.02453E-04 1.16226E-04-8.71536E-16
 -1      2902 4.92708E-03 1.27537E-04-1.62489E-14
 -1      2903 5.10227E-03 2.24671E-05-1.70730E-14
 -1      2904 5.19351E-03-4.17108E-05-1.77435E-14
 -1      2905 2.69277E-03-5.39858E-04-7.74354E-15
 -1      2906 2.52292E-03-4.93293E-04-7.52659E-15
 -1      2907 3.92709E-03 1.92242E-04-1.11745E-14
 -1      2908 4.12773E-03 2.59143E-04-1.20515E-14
 -1      2909 5.84084E-03-4.54792E-04-2.01637E-14
 -1      2910 6.07714E-03-5.89694E-04-2.08057E-14
 -1      2911 6.25478E-03-6.81800E-04-2.13155E-14
 -1      2912 6.43342E-03-7.66219E-04-2.18308E-14
 -1      2913 6.16530E-03-6.42444E-04-2.16157E-14
 -1      2914 7.19906E-03-1.07758E-03-2.25960E-14
 -1      2915 7.08434E-03-1.11465E-03-2.22055E-14
 -1      2916 3.46376E-03-4.29578E-05-9.70620E-15
 -1      2917 3.66189E-03 6.67184E-05-1.02472E-14
 -1      2918 4.32111E-03 2.90294E-04-1.29786E-14
 -1      2919 4.44683E-03 2.92675E-04-1.36346E-14
 -1      2920 2.38493E-03-4.61823E-04-7.37685E-15
 -1      2921 2.34290E-03-4.58238E-04-7.41096E-15
 -1      2922 3.12988E-03-2.02413E-04-8.91615E-15
 -1      2923 3.28191E-03-1.32985E-04-9.26285E-15
 -1      2924 2.74128E-03-3.54558E-04-8.16653E-15
 -1      2925 2.92269E-03-2.87264E-04-8.47945E-15
 -1      2926 2.49934E-03-4.26523E-04-7.79165E-15
 -1      2927 2.59272E-03-4.03648E-04-7.94093E-15
 -1      2928 2.36263E-03-4.55043E-04-7.56559E-15
 -1      2929 2.41749E-03-4.47682E-04-7.67928E-15
 -1      2930 2.42154E-03-4.15537E-04-7.36119E-15
 -1      2931 2.52038E-03 4.78888E-04-4.62056E-15
 -1      2932 2.36976E-03 4.63133E-04-4.08846E-15
 -1      2933 2.28632E-03 4.12988E-04-3.91469E-15
 -1      2934 2.59225E-03 4.43913E-04-4.98554E-15
 -1      2935 4.59228E-03 2.69951E-04-1.44213E-14
 -1      2936 4.73253E-03 2.20800E-04-1.52331E-14
 -1      2937 4.50806E-03 2.86574E-04-1.40599E-14
 -1      2938 1.39583E-02-4.46674E-03-1.31449E-13
 -1      2939 1.38875E-02-4.42530E-03-1.31345E-13
 -1      2940 1.37445E-02-4.35166E-03-1.29103E-13
 -1      2941 1.38706E-02-4.42440E-03-1.29505E-13
 -1      2942 7.32759E-03-1.02364E-03-2.32966E-14
 -1      2943 7.36129E-03-1.02258E-03-2.31265E-14
 -1      2944 8.58786E-04-2.37822E-05-9.57432E-16
 -1      2945 7.45412E-04-2.79131E-05-7.59578E-16
 -1      2946 7.43078E-04-4.41064E-05-7.63820E-16
 -1      2947 8.21843E-04 2.42205E-04-5.44202E-16
 -1      2948 2.31790E-03-4.35209E-04-7.10278E-15
 -1      2949 7.24037E-03-1.02580E-03-2.37599E-14
 -1      2950 7.29047E-03-1.02534E-03-2.35299E-14
 -1      2951 7.35109E-03-1.04511E-03-2.41245E-14
 -1      2952 7.09826E-03-1.16265E-03-2.31672E-14
 -1      2953 7.25010E-03-1.11579E-03-2.38500E-14
 -1      2954 2.41907E-03-4.54999E-04-7.09641E-15
 -1      2955 2.33516E-03-4.26451E-04-6.67749E-15
 -1      2956 2.46345E-03-4.52081E-04-6.81633E-15
 -1      2957 4.82575E-03 1.73793E-04-1.58606E-14
 -1      2958 6.98459E-03-1.17598E-03-2.22895E-14
 -1      2959 7.01597E-03-9.74091E-04-2.32292E-14
 -1      2960 8.67021E-04-1.29852E-04-9.58381E-16
 -1      2961 7.59683E-04-1.22839E-04-7.53399E-16
 -1      2962 7.69895E-04-1.41097E-04-7.43925E-16
 -1      2963 6.60694E-03-8.47936E-04-2.27121E-14
 -1      2964 6.76709E-03-9.13363E-04-2.36069E-14
 -1      2965 6.50781E-03-8.10366E-04-2.30212E-14
 -1      2966 7.42301E-04-5.96365E-05-7.65772E-16
 -1      2967 7.43366E-04-7.49237E-05-7.66057E-16
 -1      2968 8.54604E-04-9.48456E-05-9.68057E-16
 -1      2969 8.52621E-04-6.05588E-05-9.67406E-16
 -1      2970 7.37667E-03-1.03813E-03-2.35401E-14
 -1      2971 7.91076E-04-1.66364E-04-7.37949E-16
 -1      2972 8.25020E-04-2.08951E-04-7.15709E-16
 -1      2973 9.57288E-04-2.37579E-04-9.15582E-16
 -1      2974 8.99711E-04-1.74594E-04-9.43866E-16
 -1      2975 3.33662E-03-6.39902E-05-9.17937E-15
 -1      2976 1.50820E-02-5.12311E-03-1.32806E-13
 -1      2977 1.50205E-02-5.08704E-03-1.32786E-13
 -1      2978 1.48607E-02-5.00251E-03-1.30778E-13
 -1      2979 1.49910E-02-5.07699E-03-1.31215E-13
 -1      2980 1.38561E-03 3.15495E-04-1.50719E-15
 -1      2981 1.32590E-03 3.41433E-04-1.30936E-15
 -1      2982 1.22423E-03 3.34260E-04-1.10385E-15
 -1      2983 1.00735E-03-2.23666E-04-1.06287E-15
 -1      2984 5.54125E-03-2.70751E-04-1.95041E-14
 -1      2985 5.68082E-03-3.60712E-04-1.98335E-14
 -1      2986 5.84202E-03-4.60249E-04-2.07595E-14
 -1      2987 3.76949E-03 1.47735E-04-1.05092E-14
 -1      2988 3.84959E-03 2.15007E-04-1.07689E-14
 -1      2989 3.61030E-03 1.05111E-04-9.86697E-15
 -1      2990 9.40908E-04 2.51308E-04-7.26632E-16
 -1      2991 4.18750E-03 2.86748E-04-1.23460E-14
 -1      2992 2.63542E-03-3.52679E-04-7.68577E-15
 -1      2993 7.27353E-03-1.06102E-03-2.30040E-14
 -1      2994 7.25876E-03-1.09115E-03-2.34946E-14
 -1      2995 7.32120E-03-1.10427E-03-2.42672E-14
 -1      2996 7.33317E-03-1.06081E-03-2.35476E-14
 -1      2997 2.96884E-03-2.30290E-04-8.32281E-15
 -1      2998 9.90157E-04 3.00616E-05-1.15295E-15
 -1      2999 9.81918E-04 5.50357E-06-1.16678E-15
 -1      3000 1.05131E-03 2.08752E-04-1.00543E-15
 -1      3001 1.03973E-03 1.75099E-04-1.03921E-15
 -1      3002 1.08250E-03 3.37417E-04-8.10157E-16
 -1      3003 2.26844E-03-4.06715E-04-6.56837E-15
 -1      3004 2.28898E-03-4.05410E-04-6.71423E-15
 -1      3005 2.88229E-03-5.89871E-04-7.50344E-15
 -1      3006 2.93171E-03-6.30741E-04-8.10639E-15
 -1      3007 1.01981E-03-2.08595E-04-1.13364E-15
 -1      3008 1.10019E-03-2.27133E-04-1.27734E-15
 -1      3009 1.23595E-03-2.45168E-04-1.57871E-15
 -1      3010 9.92315E-04-1.79636E-04-1.14326E-15
 -1      3011 7.01603E-03-9.91888E-04-2.40866E-14
 -1      3012 7.14064E-03-1.01635E-03-2.40276E-14
 -1      3013 1.40473E-03-2.62508E-04-2.02053E-15
 -1      3014 1.53612E-03-2.77286E-04-2.39626E-15
 -1      3015 1.66468E-03-2.91963E-04-2.80316E-15
 -1      3016 1.79032E-03-3.06500E-04-3.24182E-15
 -1      3017 1.57040E-03-2.63355E-04-2.62091E-15
 -1      3018 1.91191E-03-3.22480E-04-3.71192E-15
 -1      3019 2.02954E-03-3.39545E-04-4.21291E-15
 -1      3020 1.81330E-03-2.95281E-04-3.50105E-15
 -1      3021 2.14168E-03-3.59756E-04-4.74368E-15
 -1      3022 2.24910E-03-3.82166E-04-5.30468E-15
 -1      3023 2.03703E-03-3.32796E-04-4.50410E-15
 -1      3024 2.67365E-03-5.13907E-04-7.20447E-15
 -1      3025 7.62459E-03-1.20817E-03-2.81263E-14
 -1      3026 7.73869E-03-1.26520E-03-2.96261E-14
 -1      3027 7.85161E-03-1.32342E-03-3.10787E-14
 -1      3028 7.96974E-03-1.38617E-03-3.25570E-14
 -1      3029 7.77576E-03-1.27456E-03-3.03061E-14
 -1      3030 8.09156E-03-1.45164E-03-3.40642E-14
 -1      3031 8.21733E-03-1.52028E-03-3.55924E-14
 -1      3032 7.99829E-03-1.39614E-03-3.32566E-14
 -1      3033 8.34595E-03-1.59073E-03-3.71482E-14
 -1      3034 8.47742E-03-1.66321E-03-3.87302E-14
 -1      3035 8.24009E-03-1.52938E-03-3.63119E-14
 -1      3036 8.61094E-03-1.73678E-03-4.03384E-14
 -1      3037 8.74644E-03-1.81153E-03-4.19726E-14
 -1      3038 8.49584E-03-1.67082E-03-3.94700E-14
 -1      3039 8.88334E-03-1.88686E-03-4.36301E-14
 -1      3040 9.02158E-03-1.96278E-03-4.53122E-14
 -1      3041 8.76147E-03-1.81751E-03-4.27324E-14
 -1      3042 9.16073E-03-2.03894E-03-4.70177E-14
 -1      3043 9.30077E-03-2.11533E-03-4.87455E-14
 -1      3044 9.03392E-03-1.96723E-03-4.60939E-14
 -1      3045 9.44139E-03-2.19173E-03-5.04951E-14
 -1      3046 9.58257E-03-2.26814E-03-5.22659E-14
 -1      3047 9.31100E-03-2.11844E-03-4.95454E-14
 -1      3048 9.72411E-03-2.34445E-03-5.40591E-14
 -1      3049 9.86601E-03-2.42065E-03-5.58680E-14
 -1      3050 9.59117E-03-2.27013E-03-5.30826E-14
 -1      3051 1.00081E-02-2.49668E-03-5.76975E-14
 -1      3052 1.01505E-02-2.57254E-03-5.95468E-14
 -1      3053 9.87337E-03-2.42172E-03-5.67021E-14
 -1      3054 1.02929E-02-2.64822E-03-6.14155E-14
 -1      3055 1.04355E-02-2.72372E-03-6.33013E-14
 -1      3056 1.01569E-02-2.57288E-03-6.03953E-14
 -1      3057 1.05782E-02-2.79902E-03-6.52054E-14
 -1      3058 1.07209E-02-2.87415E-03-6.71279E-14
 -1      3059 1.04412E-02-2.72346E-03-6.41648E-14
 -1      3060 1.08637E-02-2.94910E-03-6.90692E-14
 -1      3061 1.10065E-02-3.02388E-03-7.10278E-14
 -1      3062 1.07261E-02-2.87343E-03-6.80065E-14
 -1      3063 1.11493E-02-3.09851E-03-7.30026E-14
 -1      3064 1.12922E-02-3.17299E-03-7.49953E-14
 -1      3065 1.10114E-02-3.02279E-03-7.19209E-14
 -1      3066 1.14422E-02-3.25106E-03-7.71035E-14
 -1      3067 1.15922E-02-3.32898E-03-7.92288E-14
 -1      3068 1.13040E-02-3.17532E-03-7.60028E-14
 -1      3069 1.17351E-02-3.40308E-03-8.12699E-14
 -1      3070 1.18779E-02-3.47707E-03-8.33269E-14
 -1      3071 1.15967E-02-3.32735E-03-8.01502E-14
 -1      3072 1.20208E-02-3.55098E-03-8.53974E-14
 -1      3073 1.21637E-02-3.62479E-03-8.74813E-14
 -1      3074 1.18824E-02-3.47526E-03-8.42608E-14
 -1      3075 1.23066E-02-3.69854E-03-8.95792E-14
 -1      3076 1.24495E-02-3.77222E-03-9.16899E-14
 -1      3077 1.21681E-02-3.62285E-03-8.84278E-14
 -1      3078 1.25924E-02-3.84583E-03-9.38151E-14
 -1      3079 1.27352E-02-3.91940E-03-9.59516E-14
 -1      3080 1.24538E-02-3.77016E-03-9.26490E-14
 -1      3081 1.28781E-02-3.99292E-03-9.81024E-14
 -1      3082 1.30210E-02-4.06639E-03-1.00267E-13
 -1      3083 1.27395E-02-3.91727E-03-9.69218E-14
 -1      3084 1.31639E-02-4.13984E-03-1.02440E-13
 -1      3085 1.33067E-02-4.21325E-03-1.04627E-13
 -1      3086 1.30253E-02-4.06420E-03-1.01244E-13
 -1      3087 1.34496E-02-4.28663E-03-1.06827E-13
 -1      3088 1.35925E-02-4.35999E-03-1.09036E-13
 -1      3089 1.33110E-02-4.21101E-03-1.05618E-13
 -1      3090 1.37353E-02-4.43333E-03-1.11256E-13
 -1      3091 1.38782E-02-4.50666E-03-1.13486E-13
 -1      3092 1.35968E-02-4.35773E-03-1.10038E-13
 -1      3093 1.40211E-02-4.57997E-03-1.15723E-13
 -1      3094 1.41639E-02-4.65327E-03-1.17971E-13
 -1      3095 1.38825E-02-4.50437E-03-1.14496E-13
 -1      3096 1.43068E-02-4.72656E-03-1.20228E-13
 -1      3097 1.44496E-02-4.79984E-03-1.22490E-13
 -1      3098 1.41683E-02-4.65097E-03-1.18990E-13
 -1      3099 1.45925E-02-4.87312E-03-1.24759E-13
 -1      3100 1.47354E-02-4.94640E-03-1.27032E-13
 -1      3101 1.44540E-02-4.79753E-03-1.23518E-13
 -1      3102 4.40554E-03 3.05433E-04-1.35669E-14
 -1      3103 4.53619E-03 2.81888E-04-1.43488E-14
 -1      3104 2.04762E-03 3.48196E-04-3.26846E-15
 -1      3105 1.89569E-03 3.34086E-04-2.83031E-15
 -1      3106 1.74481E-03 3.19649E-04-2.42508E-15
 -1      3107 1.59505E-03 3.04488E-04-2.05254E-15
 -1      3108 1.80752E-03 2.86388E-04-2.68012E-15
 -1      3109 3.29204E-03 4.69263E-04-7.98851E-15
 -1      3110 3.13619E-03 4.55009E-04-7.27799E-15
 -1      3111 2.97953E-03 4.39315E-04-6.60287E-15
 -1      3112 2.82279E-03 4.23244E-04-5.96252E-15
 -1      3113 3.06179E-03 4.02635E-04-7.01705E-15
 -1      3114 3.90049E-03 4.86368E-04-1.11846E-14
 -1      3115 3.75103E-03 4.91401E-04-1.03306E-14
 -1      3116 4.19469E-03 4.49213E-04-1.30010E-14
 -1      3117 4.04801E-03 4.72804E-04-1.20748E-14
 -1      3118 3.99899E-03 4.51015E-04-1.17152E-14
 -1      3119 4.48671E-03 3.70118E-04-1.49648E-14
 -1      3120 4.34041E-03 4.15038E-04-1.39648E-14
 -1      3121 4.29709E-03 4.06304E-04-1.35726E-14
 -1      3122 4.78218E-03 2.50714E-04-1.70720E-14
 -1      3123 4.63356E-03 3.14906E-04-1.60006E-14
 -1      3124 4.59417E-03 3.14868E-04-1.55767E-14
 -1      3125 5.08455E-03 1.00666E-04-1.93209E-14
 -1      3126 4.93239E-03 1.78579E-04-1.81786E-14
 -1      3127 4.89685E-03 1.81757E-04-1.77250E-14
 -1      3128 5.39337E-03-6.67446E-05-2.17087E-14
 -1      3129 5.23833E-03 1.82453E-05-2.04980E-14
 -1      3130 5.20771E-03 2.04068E-05-2.00147E-14
 -1      3131 5.70554E-03-2.40020E-04-2.42323E-14
 -1      3132 5.54935E-03-1.53281E-04-2.29534E-14
 -1      3133 5.52466E-03-1.53730E-04-2.24416E-14
 -1      3134 6.01734E-03-4.11517E-04-2.68863E-14
 -1      3135 5.86177E-03-3.26291E-04-2.55431E-14
 -1      3136 5.84316E-03-3.29118E-04-2.50032E-14
 -1      3137 6.32606E-03-5.77678E-04-2.96701E-14
 -1      3138 6.17227E-03-4.95350E-04-2.82622E-14
 -1      3139 6.15899E-03-4.99479E-04-2.76952E-14
 -1      3140 6.63036E-03-7.37616E-04-3.25807E-14
 -1      3141 6.47884E-03-6.58385E-04-3.11102E-14
 -1      3142 6.46962E-03-6.62808E-04-3.05156E-14
 -1      3143 6.93009E-03-8.91918E-04-3.56083E-14
 -1      3144 6.78081E-03-8.15382E-04-3.40792E-14
 -1      3145 6.77428E-03-8.19449E-04-3.34576E-14
 -1      3146 7.22580E-03-1.04175E-03-3.87518E-14
 -1      3147 7.07842E-03-9.67297E-04-3.71658E-14
 -1      3148 7.07341E-03-9.70721E-04-3.65170E-14
 -1      3149 7.51829E-03-1.18836E-03-4.20037E-14
 -1      3150 7.37240E-03-1.11538E-03-4.03646E-14
 -1      3151 7.36802E-03-1.11812E-03-3.96895E-14
 -1      3152 7.80841E-03-1.33286E-03-4.53597E-14
 -1      3153 7.66360E-03-1.26081E-03-4.36687E-14
 -1      3154 7.65925E-03-1.26296E-03-4.29689E-14
 -1      3155 8.09686E-03-1.47613E-03-4.88152E-14
 -1      3156 7.95280E-03-1.40460E-03-4.70758E-14
 -1      3157 7.94812E-03-1.40628E-03-4.63498E-14
 -1      3158 8.38421E-03-1.61882E-03-5.23662E-14
 -1      3159 8.24064E-03-1.54751E-03-5.05790E-14
 -1      3160 8.23546E-03-1.54885E-03-4.98306E-14
 -1      3161 8.67086E-03-1.76138E-03-5.60090E-14
 -1      3162 8.52760E-03-1.69009E-03-5.41757E-14
 -1      3163 8.52185E-03-1.69120E-03-5.34023E-14
 -1      3164 8.95708E-03-1.90413E-03-5.97354E-14
 -1      3165 8.81400E-03-1.83272E-03-5.78628E-14
 -1      3166 8.80772E-03-1.83367E-03-5.70641E-14
 -1      3167 9.24305E-03-2.04723E-03-6.35427E-14
 -1      3168 9.10008E-03-1.97563E-03-6.16283E-14
 -1      3169 9.09333E-03-1.97647E-03-6.08096E-14
 -1      3170 9.52889E-03-2.19076E-03-6.74233E-14
 -1      3171 9.38598E-03-2.11894E-03-6.54749E-14
 -1      3172 9.37884E-03-2.11970E-03-6.46327E-14
 -1      3173 9.81466E-03-2.33475E-03-7.13734E-14
 -1      3174 9.67178E-03-2.26270E-03-6.93905E-14
 -1      3175 9.66433E-03-2.26341E-03-6.85281E-14
 -1      3176 1.01004E-02-2.47918E-03-7.53886E-14
 -1      3177 9.95753E-03-2.40691E-03-7.33726E-14
 -1      3178 9.94985E-03-2.40758E-03-7.24920E-14
 -1      3179 1.03861E-02-2.62402E-03-7.94673E-14
 -1      3180 1.02433E-02-2.55155E-03-7.74196E-14
 -1      3181 1.02354E-02-2.55219E-03-7.65184E-14
 -1      3182 1.06718E-02-2.76921E-03-8.36080E-14
 -1      3183 1.05290E-02-2.69657E-03-8.15297E-14
 -1      3184 1.05210E-02-2.69719E-03-8.06102E-14
 -1      3185 1.09576E-02-2.91470E-03-8.78060E-14
 -1      3186 1.08147E-02-2.84192E-03-8.57005E-14
 -1      3187 1.08067E-02-2.84251E-03-8.47605E-14
 -1      3188 1.12433E-02-3.06043E-03-9.20627E-14
 -1      3189 1.11004E-02-2.98754E-03-8.99281E-14
 -1      3190 1.10924E-02-2.98811E-03-8.89714E-14
 -1      3191 1.15290E-02-3.20637E-03-9.63753E-14
 -1      3192 1.13862E-02-3.13338E-03-9.42109E-14
 -1      3193 1.13781E-02-3.13394E-03-9.32415E-14
 -1      3194 1.18148E-02-3.35247E-03-1.00739E-13
 -1      3195 1.16719E-02-3.27940E-03-9.85515E-14
 -1      3196 1.16638E-02-3.27994E-03-9.75657E-14
 -1      3197 1.21005E-02-3.49868E-03-1.05148E-13
 -1      3198 1.19576E-02-3.42556E-03-1.02938E-13
 -1      3199 1.19495E-02-3.42609E-03-1.01938E-13
 -1      3200 1.23862E-02-3.64499E-03-1.09598E-13
 -1      3201 1.22433E-02-3.57182E-03-1.07368E-13
 -1      3202 1.22352E-02-3.57235E-03-1.06357E-13
 -1      3203 1.26719E-02-3.79136E-03-1.14088E-13
 -1      3204 1.25291E-02-3.71817E-03-1.11837E-13
 -1      3205 1.25210E-02-3.71868E-03-1.10816E-13
 -1      3206 1.29577E-02-3.93778E-03-1.18611E-13
 -1      3207 1.28148E-02-3.86457E-03-1.16348E-13
 -1      3208 1.28067E-02-3.86507E-03-1.15313E-13
 -1      3209 1.32434E-02-4.08423E-03-1.23161E-13
 -1      3210 1.31005E-02-4.01100E-03-1.20882E-13
 -1      3211 1.30924E-02-4.01151E-03-1.19844E-13
 -1      3212 1.34980E-02-4.21550E-03-1.27085E-13
 -1      3213 1.33549E-02-4.14186E-03-1.24854E-13
 -1      3214 1.33468E-02-4.14237E-03-1.23808E-13
 -1      3215 1.35699E-02-4.25765E-03-1.27196E-13
 -1      3216 1.40619E-02-4.54490E-03-1.28019E-13
 -1      3217 1.39899E-02-4.50274E-03-1.27934E-13
 -1      3218 3.18527E-03-7.86906E-05-8.53689E-15
 -1      3219 3.34119E-03-2.28487E-06-8.95513E-15
 -1      3220 1.43482E-02-4.71246E-03-1.28309E-13
 -1      3221 1.42773E-02-4.67102E-03-1.28242E-13
 -1      3222 1.42056E-02-4.62904E-03-1.28171E-13
 -1      3223 1.41336E-02-4.58688E-03-1.28097E-13
 -1      3224 1.39738E-02-4.50236E-03-1.26071E-13
 -1      3225 1.41173E-02-4.58632E-03-1.26222E-13
 -1      3226 1.46359E-02-4.88074E-03-1.28549E-13
 -1      3227 1.45638E-02-4.83858E-03-1.28492E-13
 -1      3228 6.12023E-03-6.18877E-04-2.21114E-14
 -1      3229 6.27625E-03-7.01402E-04-2.26399E-14
 -1      3230 1.09515E-03 3.00016E-04-9.16666E-16
 -1      3231 4.73136E-03 2.15117E-04-1.55050E-14
 -1      3232 4.90961E-03 1.26061E-04-1.65303E-14
 -1      3233 4.05510E-03 2.86311E-04-1.17025E-14
 -1      3234 4.23199E-03 3.08891E-04-1.26151E-14
 -1      3235 4.26848E-03 3.22436E-04-1.28803E-14
 -1      3236 5.11843E-03 3.85606E-06-1.76170E-14
 -1      3237 5.29281E-03-1.09783E-04-1.84811E-14
 -1      3238 1.08384E-03 2.50188E-04-9.93902E-16
 -1      3239 2.50752E-03-3.42544E-04-7.08522E-15
 -1      3240 2.63179E-03-3.00513E-04-7.29297E-15
 -1      3241 1.44920E-02-4.79660E-03-1.28433E-13
 -1      3242 1.44199E-02-4.75444E-03-1.28373E-13
 -1      3243 1.42608E-02-4.67028E-03-1.26358E-13
 -1      3244 1.44043E-02-4.75423E-03-1.26483E-13
 -1      3245 2.34128E-03-3.94467E-04-6.85120E-15
 -1      3246 2.40851E-03-3.77082E-04-6.95444E-15
 -1      3247 2.39876E-03-3.29841E-04-6.58328E-15
 -1      3248 2.25782E-03-3.72186E-04-6.32738E-15
 -1      3249 1.39179E-02-4.46058E-03-1.27848E-13
 -1      3250 1.38459E-02-4.41842E-03-1.27758E-13
 -1      3251 1.38301E-02-4.41823E-03-1.25907E-13
 -1      3252 3.59986E-03 4.88967E-04-9.51419E-15
 -1      3253 3.44676E-03 4.81200E-04-8.73397E-15
 -1      3254 3.38085E-03 4.34885E-04-8.44106E-15
 -1      3255 3.69416E-03 4.55906E-04-1.00058E-14
 -1      3256 2.77867E-03-5.73809E-04-7.94098E-15
 -1      3257 7.42323E-03-1.11753E-03-2.53500E-14
 -1      3258 7.52230E-03-1.16033E-03-2.67252E-14
 -1      3259 7.57902E-03-1.16790E-03-2.74582E-14
 -1      3260 2.82774E-03-2.32100E-04-7.70784E-15
 -1      3261 3.00842E-03-1.60912E-04-8.11815E-15
 -1      3262 3.02421E-03-9.27894E-05-7.90749E-15
 -1      3263 7.41276E-03-1.06386E-03-2.45149E-14
 -1      3264 7.39330E-03-1.06111E-03-2.41603E-14
 -1      3265 1.20347E-03 2.50003E-04-1.23861E-15
 -1      3266 1.15811E-03 1.71978E-04-1.28426E-15
 -1      3267 1.02886E-03 1.43110E-04-1.06825E-15
 -1      3268 1.01857E-03 1.12638E-04-1.09427E-15
 -1      3269 5.00877E-03 6.92334E-05-1.72341E-14
 -1      3270 2.25856E-03-3.99522E-04-6.30483E-15
 -1      3271 2.19627E-03-3.74011E-04-5.93993E-15
 -1      3272 2.26275E-03-3.92984E-04-6.04294E-15
 -1      3273 5.83174E-03-4.46804E-04-2.14071E-14
 -1      3274 5.97045E-03-5.33521E-04-2.17597E-14
 -1      3275 6.09479E-03-5.95447E-04-2.27757E-14
 -1      3276 1.27956E-03-2.30833E-04-1.76352E-15
 -1      3277 7.23843E-03-1.04344E-03-2.46296E-14
 -1      3278 2.59639E-03-4.88715E-04-7.01700E-15
 -1      3279 2.66190E-03-5.18311E-04-7.42890E-15
 -1      3280 2.25308E-03-3.85173E-04-5.70992E-15
 -1      3281 2.37153E-03-4.15546E-04-5.97945E-15
 -1      3282 2.46806E-03-4.47995E-04-6.60184E-15
 -1      3283 9.73803E-04-1.35218E-04-1.18824E-15
 -1      3284 9.84143E-04-1.54797E-04-1.17912E-15
 -1      3285 5.36327E-03-1.50211E-04-1.92304E-14
 -1      3286 5.44459E-03-2.07347E-04-1.93696E-14
 -1      3287 5.59755E-03-3.03489E-04-2.02787E-14
 -1      3288 1.48999E-02-5.03087E-03-1.29633E-13
 -1      3289 2.74177E-03 3.69155E-04-5.73081E-15
 -1      3290 2.66611E-03 4.07239E-04-5.35593E-15
 -1      3291 2.51015E-03 3.91716E-04-4.78338E-15
 -1      3292 1.46962E-02-4.91804E-03-1.28171E-13
 -1      3293 1.45365E-02-4.83351E-03-1.26168E-13
 -1      3294 1.36329E-02-4.29402E-03-1.27402E-13
 -1      3295 1.35214E-02-4.23637E-03-1.25707E-13
 -1      3296 1.36960E-02-4.33038E-03-1.27607E-13
 -1      3297 7.39723E-03-1.07931E-03-2.45257E-14
 -1      3298 6.44971E-03-7.83120E-04-2.35314E-14
 -1      3299 3.29014E-03 6.48735E-05-8.53919E-15
 -1      3300 3.44907E-03 7.97710E-05-9.19101E-15
 -1      3301 3.53742E-03 1.56333E-04-9.42543E-15
 -1      3302 9.66930E-04-1.16471E-04-1.19364E-15
 -1      3303 1.08033E-03-1.39421E-04-1.44203E-15
 -1      3304 9.63310E-04-9.79364E-05-1.19571E-15
 -1      3305 1.47614E-02-4.95528E-03-1.28394E-13
 -1      3306 1.44633E-03 2.88162E-04-1.71317E-15
 -1      3307 1.29862E-03 2.70252E-04-1.40568E-15
 -1      3308 2.66987E-03-2.37645E-04-7.10297E-15
 -1      3309 4.62323E-03 2.55842E-04-1.49769E-14
 -1      3310 3.91118E-03 2.63045E-04-1.10149E-14
 -1      3311 3.96047E-03 3.01595E-04-1.12587E-14
 -1      3312 3.76514E-03 2.34933E-04-1.03501E-14
 -1      3313 1.00861E-03 8.35720E-05-1.11678E-15
 -1      3314 9.99165E-04 5.61060E-05-1.13643E-15
 -1      3315 1.11284E-03 4.48733E-05-1.38795E-15
 -1      3316 1.13482E-03 1.05486E-04-1.34312E-15
 -1      3317 2.20076E-03 3.62319E-04-3.73985E-15
 -1      3318 2.11318E-03 3.11891E-04-3.56400E-15
 -1      3319 2.35489E-03 3.76771E-04-4.24473E-15
 -1      3320 7.39044E-03-1.07099E-03-2.49910E-14
 -1      3321 7.40846E-03-1.06674E-03-2.47532E-14
 -1      3322 7.45217E-03-1.08929E-03-2.53865E-14
 -1      3323 1.26465E-03 2.25610E-04-1.41835E-15
 -1      3324 7.41651E-03-1.09581E-03-2.49837E-14
 -1      3325 1.38024E-02-4.39259E-03-1.27780E-13
 -1      3326 1.37394E-02-4.35622E-03-1.27587E-13
 -1      3327 1.36279E-02-4.29857E-03-1.25889E-13
 -1      3328 1.37147E-02-4.35024E-03-1.25844E-13
 -1      3329 9.74625E-04-1.76019E-05-1.17777E-15
 -1      3330 9.68751E-04-3.93115E-05-1.18642E-15
 -1      3331 1.09321E-03-9.40120E-06-1.41993E-15
 -1      3332 6.92166E-03-9.71389E-04-2.44096E-14
 -1      3333 7.06119E-03-1.01765E-03-2.52228E-14
 -1      3334 6.83253E-03-9.43983E-04-2.47282E-14
 -1      3335 1.50761E-03 2.59234E-04-1.92705E-15
 -1      3336 2.16028E-03-3.60660E-04-5.36638E-15
 -1      3337 7.26226E-03-1.06617E-03-2.55367E-14
 -1      3338 7.33746E-03-1.07112E-03-2.52662E-14
 -1      3339 7.41723E-03-1.09482E-03-2.59080E-14
 -1      3340 1.09773E-03-1.84480E-04-1.39680E-15
 -1      3341 1.72555E-03-2.69260E-04-3.29138E-15
 -1      3342 1.83980E-03-2.87334E-04-3.76389E-15
 -1      3343 1.94844E-03-3.08035E-04-4.26611E-15
 -1      3344 2.05056E-03-3.30186E-04-4.79837E-15
 -1      3345 1.87161E-03-2.82494E-04-4.02923E-15
 -1      3346 7.70118E-03-1.23338E-03-2.95740E-14
 -1      3347 7.80187E-03-1.28937E-03-3.10202E-14
 -1      3348 2.86463E-03-9.77032E-05-7.27310E-15
 -1      3349 3.01875E-03-2.80793E-05-7.66265E-15
 -1      3350 7.90917E-03-1.34796E-03-3.24938E-14
 -1      3351 8.02236E-03-1.41040E-03-3.39934E-14
 -1      3352 7.81732E-03-1.30355E-03-3.17336E-14
 -1      3353 8.14035E-03-1.47508E-03-3.55191E-14
 -1      3354 8.26254E-03-1.54252E-03-3.70693E-14
 -1      3355 8.03936E-03-1.42392E-03-3.47276E-14
 -1      3356 8.38816E-03-1.61161E-03-3.86476E-14
 -1      3357 8.51677E-03-1.68256E-03-4.02526E-14
 -1      3358 8.28015E-03-1.55496E-03-3.78277E-14
 -1      3359 8.64780E-03-1.75460E-03-4.18807E-14
 -1      3360 8.78095E-03-1.82780E-03-4.35360E-14
 -1      3361 8.53432E-03-1.69372E-03-4.10320E-14
 -1      3362 8.91577E-03-1.90165E-03-4.52162E-14
 -1      3363 9.05207E-03-1.97616E-03-4.69183E-14
 -1      3364 8.79805E-03-1.83764E-03-4.43397E-14
 -1      3365 9.18952E-03-2.05099E-03-4.86418E-14
 -1      3366 9.32799E-03-2.12615E-03-5.03884E-14
 -1      3367 9.06855E-03-1.98475E-03-4.77417E-14
 -1      3368 9.46724E-03-2.20143E-03-5.21573E-14
 -1      3369 9.60718E-03-2.27682E-03-5.39467E-14
 -1      3370 9.34382E-03-2.13364E-03-5.12332E-14
 -1      3371 9.74765E-03-2.35219E-03-5.57535E-14
 -1      3372 9.88860E-03-2.42755E-03-5.75797E-14
 -1      3373 9.62240E-03-2.28334E-03-5.48070E-14
 -1      3374 1.00299E-02-2.50283E-03-5.94251E-14
 -1      3375 1.01715E-02-2.57802E-03-6.12910E-14
 -1      3376 9.90328E-03-2.43327E-03-5.84592E-14
 -1      3377 1.03133E-02-2.65308E-03-6.31759E-14
 -1      3378 1.04554E-02-2.72803E-03-6.50782E-14
 -1      3379 1.01857E-02-2.58306E-03-6.21887E-14
 -1      3380 1.05976E-02-2.80285E-03-6.69973E-14
 -1      3381 1.07399E-02-2.87753E-03-6.89365E-14
 -1      3382 1.04693E-02-2.73253E-03-6.59918E-14
 -1      3383 1.08824E-02-2.95209E-03-7.08941E-14
 -1      3384 1.10249E-02-3.02653E-03-7.28678E-14
 -1      3385 1.07536E-02-2.88159E-03-6.98675E-14
 -1      3386 1.11747E-02-3.10456E-03-7.49569E-14
 -1      3387 1.13245E-02-3.18247E-03-7.70644E-14
 -1      3388 1.10455E-02-3.03394E-03-7.39138E-14
 -1      3389 1.14672E-02-3.25657E-03-7.90891E-14
 -1      3390 1.16099E-02-3.33057E-03-8.11276E-14
 -1      3391 1.13378E-02-3.18588E-03-7.80288E-14
 -1      3392 1.17527E-02-3.40448E-03-8.31816E-14
 -1      3393 1.18955E-02-3.47831E-03-8.52505E-14
 -1      3394 1.16232E-02-3.33375E-03-8.21047E-14
 -1      3395 1.20384E-02-3.55206E-03-8.73325E-14
 -1      3396 1.21812E-02-3.62576E-03-8.94293E-14
 -1      3397 1.19087E-02-3.48132E-03-8.62391E-14
 -1      3398 1.23240E-02-3.69939E-03-9.15407E-14
 -1      3399 1.24669E-02-3.77297E-03-9.36632E-14
 -1      3400 1.21943E-02-3.62864E-03-9.04328E-14
 -1      3401 1.26098E-02-3.84650E-03-9.57987E-14
 -1      3402 1.27526E-02-3.91999E-03-9.79488E-14
 -1      3403 1.24800E-02-3.77576E-03-9.46792E-14
 -1      3404 1.28955E-02-3.99345E-03-1.00110E-13
 -1      3405 1.30384E-02-4.06687E-03-1.02283E-13
 -1      3406 1.27657E-02-3.92271E-03-9.89761E-14
 -1      3407 1.31813E-02-4.14027E-03-1.04470E-13
 -1      3408 1.33241E-02-4.21364E-03-1.06669E-13
 -1      3409 1.30515E-02-4.06953E-03-1.03325E-13
 -1      3410 1.34670E-02-4.28699E-03-1.08877E-13
 -1      3411 1.36099E-02-4.36032E-03-1.11097E-13
 -1      3412 1.33372E-02-4.21626E-03-1.07719E-13
 -1      3413 1.37528E-02-4.43364E-03-1.13329E-13
 -1      3414 1.38956E-02-4.50695E-03-1.15565E-13
 -1      3415 1.36230E-02-4.36291E-03-1.12159E-13
 -1      3416 1.40385E-02-4.58024E-03-1.17813E-13
 -1      3417 1.41814E-02-4.65353E-03-1.20072E-13
 -1      3418 1.39088E-02-4.50952E-03-1.16640E-13
 -1      3419 1.42875E-02-4.70689E-03-1.21979E-13
 -1      3420 1.44304E-02-4.78016E-03-1.24248E-13
 -1      3421 1.43700E-02-4.74286E-03-1.24621E-13
 -1      3422 1.41577E-02-4.63616E-03-1.20796E-13
 -1      3423 4.40207E-03 3.63011E-04-1.41470E-14
 -1      3424 4.25119E-03 3.96463E-04-1.31790E-14
 -1      3425 4.10010E-03 4.16985E-04-1.22489E-14
 -1      3426 3.94674E-03 4.25871E-04-1.13560E-14
 -1      3427 4.20263E-03 3.83581E-04-1.27852E-14
 -1      3428 5.01571E-03 1.08021E-04-1.83821E-14
 -1      3429 4.85880E-03 1.86384E-04-1.72691E-14
 -1      3430 5.33597E-03-6.47650E-05-2.07121E-14
 -1      3431 5.17487E-03 2.32567E-05-1.95296E-14
 -1      3432 5.14077E-03 2.79508E-05-1.90437E-14
 -1      3433 5.66128E-03-2.44487E-04-2.31797E-14
 -1      3434 5.49859E-03-1.54750E-04-2.19294E-14
 -1      3435 5.47139E-03-1.55310E-04-2.14152E-14
 -1      3436 5.98543E-03-4.20321E-04-2.57786E-14
 -1      3437 5.82393E-03-3.33285E-04-2.44622E-14
 -1      3438 5.80430E-03-3.38370E-04-2.39216E-14
 -1      3439 6.30416E-03-5.88125E-04-2.85079E-14
 -1      3440 6.14575E-03-5.05279E-04-2.71274E-14
 -1      3441 6.13272E-03-5.12649E-04-2.65589E-14
 -1      3442 6.61554E-03-7.47691E-04-3.13634E-14
 -1      3443 6.46088E-03-6.68821E-04-2.99197E-14
 -1      3444 6.45278E-03-6.76496E-04-2.93250E-14
 -1      3445 6.91957E-03-9.00554E-04-3.43366E-14
 -1      3446 6.76846E-03-8.24794E-04-3.28357E-14
 -1      3447 6.76350E-03-8.31564E-04-3.22131E-14
 -1      3448 7.21737E-03-1.04864E-03-3.74287E-14
 -1      3449 7.06918E-03-9.75048E-04-3.58687E-14
 -1      3450 7.06586E-03-9.80419E-04-3.52204E-14
 -1      3451 7.51041E-03-1.19364E-03-4.06291E-14
 -1      3452 7.36440E-03-1.12142E-03-3.90149E-14
 -1      3453 7.36165E-03-1.12538E-03-3.83415E-14
 -1      3454 7.80010E-03-1.33683E-03-4.39343E-14
 -1      3455 7.65560E-03-1.26538E-03-4.22689E-14
 -1      3456 7.65272E-03-1.26816E-03-4.15696E-14
 -1      3457 8.08760E-03-1.47913E-03-4.73419E-14
 -1      3458 7.94406E-03-1.40804E-03-4.56258E-14
 -1      3459 7.94067E-03-1.40992E-03-4.49017E-14
 -1      3460 8.37377E-03-1.62115E-03-5.08447E-14
 -1      3461 8.23081E-03-1.55014E-03-4.90821E-14
 -1      3462 8.22672E-03-1.55141E-03-4.83344E-14
 -1      3463 8.65923E-03-1.76328E-03-5.44394E-14
 -1      3464 8.51656E-03-1.69218E-03-5.26306E-14
 -1      3465 8.51174E-03-1.69305E-03-5.18603E-14
 -1      3466 8.94437E-03-1.90574E-03-5.81199E-14
 -1      3467 8.80182E-03-1.83446E-03-5.62695E-14
 -1      3468 8.79630E-03-1.83510E-03-5.54760E-14
 -1      3469 9.22941E-03-2.04867E-03-6.18837E-14
 -1      3470 9.08689E-03-1.97715E-03-5.99924E-14
 -1      3471 9.08075E-03-1.97766E-03-5.91752E-14
 -1      3472 9.51450E-03-2.19209E-03-6.57219E-14
 -1      3473 9.37194E-03-2.12032E-03-6.37921E-14
 -1      3474 9.36529E-03-2.12078E-03-6.29562E-14
 -1      3475 9.79968E-03-2.33602E-03-6.96317E-14
 -1      3476 9.65707E-03-2.26400E-03-6.76689E-14
 -1      3477 9.65001E-03-2.26444E-03-6.68097E-14
 -1      3478 1.00850E-02-2.48040E-03-7.36091E-14
 -1      3479 9.94232E-03-2.40815E-03-7.16131E-14
 -1      3480 9.93493E-03-2.40861E-03-7.07338E-14
 -1      3481 1.03704E-02-2.62520E-03-7.76479E-14
 -1      3482 1.02277E-02-2.55275E-03-7.56206E-14
 -1      3483 1.02201E-02-2.55322E-03-7.47247E-14
 -1      3484 1.06559E-02-2.77036E-03-8.17520E-14
 -1      3485 1.05131E-02-2.69774E-03-7.96926E-14
 -1      3486 1.05054E-02-2.69822E-03-7.87773E-14
 -1      3487 1.09415E-02-2.91582E-03-8.59147E-14
 -1      3488 1.07987E-02-2.84306E-03-8.38252E-14
 -1      3489 1.07908E-02-2.84355E-03-8.28927E-14
 -1      3490 1.12272E-02-3.06154E-03-9.01383E-14
 -1      3491 1.10843E-02-2.98865E-03-8.80189E-14
 -1      3492 1.10763E-02-2.98916E-03-8.70678E-14
 -1      3493 1.15128E-02-3.20745E-03-9.44196E-14
 -1      3494 1.13700E-02-3.13447E-03-9.22727E-14
 -1      3495 1.13619E-02-3.13498E-03-9.13040E-14
 -1      3496 1.17986E-02-3.35353E-03-9.87554E-14
 -1      3497 1.16557E-02-3.28047E-03-9.65807E-14
 -1      3498 1.16476E-02-3.28098E-03-9.55979E-14
 -1      3499 1.20843E-02-3.49973E-03-1.03137E-13
 -1      3500 1.19414E-02-3.42661E-03-1.00941E-13
 -1      3501 1.19333E-02-3.42713E-03-9.99437E-14
 -1      3502 1.23700E-02-3.64602E-03-1.07566E-13
 -1      3503 1.22272E-02-3.57286E-03-1.05347E-13
 -1      3504 1.22191E-02-3.57337E-03-1.04337E-13
 -1      3505 1.26558E-02-3.79238E-03-1.12031E-13
 -1      3506 1.25129E-02-3.71919E-03-1.09793E-13
 -1      3507 1.25048E-02-3.71970E-03-1.08770E-13
 -1      3508 1.29415E-02-3.93879E-03-1.16538E-13
 -1      3509 1.27986E-02-3.86558E-03-1.14279E-13
 -1      3510 1.27906E-02-3.86609E-03-1.13246E-13
 -1      3511 1.32272E-02-4.08524E-03-1.21074E-13
 -1      3512 1.30844E-02-4.01201E-03-1.18804E-13
 -1      3513 1.30763E-02-4.01252E-03-1.17760E-13
 -1      3514 1.34301E-02-4.18962E-03-1.24233E-13
 -1      3515 1.33186E-02-4.13198E-03-1.22542E-13
 -1      3516 1.33105E-02-4.13249E-03-1.21495E-13
 -1      3517 1.34931E-02-4.22599E-03-1.24434E-13
 -1      3518 9.64602E-04-5.97531E-05-1.19245E-15
 -1      3519 9.62671E-04-7.91844E-05-1.19548E-15
 -1      3520 1.07303E-03-9.97393E-05-1.44733E-15
 -1      3521 1.26236E-03-2.03052E-04-1.81214E-15
 -1      3522 2.51980E-03-2.33217E-04-6.49968E-15
 -1      3523 2.69214E-03-1.73101E-04-6.88566E-15
 -1      3524 4.93173E-03 1.16003E-04-1.70042E-14
 -1      3525 5.12683E-03 5.02116E-07-1.81106E-14
 -1      3526 4.70464E-03 2.56712E-04-1.61918E-14
 -1      3527 4.55220E-03 3.15958E-04-1.51513E-14
 -1      3528 4.50938E-03 3.17747E-04-1.47235E-14
 -1      3529 4.81941E-03 1.93267E-04-1.68113E-14
 -1      3530 3.14587E-03 3.65026E-04-7.43405E-15
 -1      3531 2.98212E-03 3.46732E-04-6.75492E-15
 -1      3532 1.87052E-03 2.51232E-04-2.94205E-15
 -1      3533 1.71899E-03 2.40141E-04-2.52893E-15
 -1      3534 4.16459E-03 3.39169E-04-1.23618E-14
 -1      3535 4.32733E-03 3.31510E-04-1.33037E-14
 -1      3536 6.44676E-03-7.76990E-04-2.43290E-14
 -1      3537 6.65131E-03-8.73256E-04-2.47317E-14
 -1      3538 1.37424E-02-4.37588E-03-1.23966E-13
 -1      3539 1.36704E-02-4.33372E-03-1.23881E-13
 -1      3540 1.48410E-03-2.35836E-04-2.44057E-15
 -1      3541 1.60676E-03-2.51986E-04-2.85041E-15
 -1      3542 1.64626E-03-2.42880E-04-3.08399E-15
 -1      3543 4.55431E-03 2.88436E-04-1.47906E-14
 -1      3544 4.73540E-03 2.18059E-04-1.59642E-14
 -1      3545 1.34593E-03 2.04868E-04-1.64281E-15
 -1      3546 1.25153E-03 1.88320E-04-1.45804E-15
 -1      3547 1.23885E-03 1.52260E-04-1.49304E-15
 -1      3548 1.60560E-03 2.29055E-04-2.24365E-15
 -1      3549 1.45705E-03 2.16909E-04-1.88711E-15
 -1      3550 1.44285E-03 1.76746E-04-1.92955E-15
 -1      3551 1.66711E-03 1.95818E-04-2.47782E-15
 -1      3552 1.19482E-03-1.65490E-04-1.71014E-15
 -1      3553 1.36415E-03-2.08523E-04-2.12292E-15
 -1      3554 1.41230E-03-1.97877E-04-2.32330E-15
 -1      3555 1.18652E-03-1.44845E-04-1.71720E-15
 -1      3556 5.73269E-03-3.78903E-04-2.12588E-14
 -1      3557 7.52676E-03-1.13426E-03-2.67581E-14
 -1      3558 7.61051E-03-1.18305E-03-2.81547E-14
 -1      3559 5.26538E-03-8.20074E-05-1.89868E-14
 -1      3560 5.40607E-03-1.66914E-04-1.98824E-14
 -1      3561 5.17985E-03-2.12116E-05-1.87367E-14
 -1      3562 7.19330E-03-1.05853E-03-2.58700E-14
 -1      3563 7.30933E-03-1.09138E-03-2.65223E-14
 -1      3564 7.12084E-03-1.04452E-03-2.61992E-14
 -1      3565 4.84749E-03 1.67991E-04-1.67952E-14
 -1      3566 2.08207E-03-3.35935E-04-5.10266E-15
 -1      3567 7.62439E-03-1.19739E-03-2.88473E-14
 -1      3568 2.95551E-03 3.50784E-05-7.23485E-15
 -1      3569 3.12071E-03 4.57277E-05-7.87306E-15
 -1      3570 3.21031E-03 1.18810E-04-8.08224E-15
 -1      3571 6.17055E-03-6.27315E-04-2.35846E-14
 -1      3572 6.30526E-03-7.03958E-04-2.39562E-14
 -1      3573 6.50824E-03-7.99716E-04-2.51646E-14
 -1      3574 1.21482E-03 6.83567E-07-1.68341E-15
 -1      3575 1.20424E-03-2.72523E-05-1.69815E-15
 -1      3576 2.81858E-03 3.29267E-04-6.11013E-15
 -1      3577 2.65635E-03 3.13205E-04-5.49906E-15
 -1      3578 2.89633E-03 2.88127E-04-6.49358E-15
 -1      3579 2.69593E-03-1.09052E-04-6.66015E-15
 -1      3580 3.88976E-03 3.94689E-04-1.09962E-14
 -1      3581 3.79119E-03 4.24177E-04-1.04993E-14
 -1      3582 3.63285E-03 4.15396E-04-9.68003E-15
 -1      3583 1.07865E-03-5.72741E-05-1.43982E-15
 -1      3584 2.28092E-03-3.14886E-04-6.03965E-15
 -1      3585 2.36019E-03-2.84264E-04-6.15780E-15
 -1      3586 2.17913E-03 2.73498E-04-3.86556E-15
 -1      3587 2.02392E-03 2.62167E-04-3.38732E-15
 -1      3588 1.93347E-03 2.14027E-04-3.21040E-15
 -1      3589 1.38858E-02-4.45983E-03-1.24129E-13
 -1      3590 1.38141E-02-4.41785E-03-1.24050E-13
 -1      3591 1.36544E-02-4.33334E-03-1.22033E-13
 -1      3592 2.37640E-03-2.31924E-04-5.96039E-15
 -1      3593 3.45026E-03 1.98722E-04-8.97161E-15
 -1      3594 3.60742E-03 2.15100E-04-9.64841E-15
 -1      3595 3.66607E-03 2.67201E-04-9.86989E-15
 -1      3596 1.42982E-02-4.70089E-03-1.24561E-13
 -1      3597 1.42264E-02-4.65891E-03-1.24499E-13
 -1      3598 1.41921E-02-4.64754E-03-1.22645E-13
 -1      3599 2.42481E-03 3.38790E-04-4.58065E-15
 -1      3600 1.40293E-02-4.54378E-03-1.24278E-13
 -1      3601 1.39575E-02-4.50180E-03-1.24205E-13
 -1      3602 1.37978E-02-4.41729E-03-1.22192E-13
 -1      3603 2.17441E-03-3.46853E-04-5.79249E-15
 -1      3604 2.21841E-03-3.35742E-04-5.91821E-15
 -1      3605 2.17256E-03-2.96399E-04-5.51861E-15
 -1      3606 6.80918E-03-9.36710E-04-2.55512E-14
 -1      3607 1.23869E-03 6.17949E-05-1.64358E-15
 -1      3608 1.22649E-03 3.03835E-05-1.66540E-15
 -1      3609 1.33972E-03 1.28580E-05-1.96749E-15
 -1      3610 3.47208E-03 4.00852E-04-8.89626E-15
 -1      3611 3.30963E-03 3.83639E-04-8.14754E-15
 -1      3612 3.23146E-03 3.27312E-04-7.85452E-15
 -1      3613 3.56501E-03 3.68365E-04-9.35389E-15
 -1      3614 2.10575E-03-3.39728E-04-5.32484E-15
 -1      3615 2.13624E-03-3.43175E-04-5.56610E-15
 -1      3616 2.07833E-03-3.12147E-04-5.18373E-15
 -1      3617 2.00546E-03-3.07675E-04-4.75680E-15
 -1      3618 1.35392E-02-4.26554E-03-1.21977E-13
 -1      3619 1.36270E-02-4.30789E-03-1.23909E-13
 -1      3620 1.35835E-02-4.28206E-03-1.23933E-13
 -1      3621 1.41637E-02-4.62233E-03-1.24424E-13
 -1      3622 1.40920E-02-4.58036E-03-1.24358E-13
 -1      3623 1.39322E-02-4.49584E-03-1.22350E-13
 -1      3624 1.40576E-02-4.56899E-03-1.22508E-13
 -1      3625 7.46738E-03-1.10391E-03-2.56064E-14
 -1      3626 7.47825E-03-1.10628E-03-2.58509E-14
 -1      3627 7.49338E-03-1.12069E-03-2.65299E-14
 -1      3628 5.62910E-03-3.03970E-04-2.11448E-14
 -1      3629 5.84572E-03-4.35141E-04-2.22969E-14
 -1      3630 7.46240E-03-1.12288E-03-2.68126E-14
 -1      3631 1.80556E-03-2.57201E-04-3.79362E-15
 -1      3632 1.91353E-03-2.79938E-04-4.29702E-15
 -1      3633 5.95381E-03-4.35219E-04-2.46689E-14
 -1      3634 5.78488E-03-3.44918E-04-2.33796E-14
 -1      3635 1.24512E-03 1.23353E-04-1.55649E-15
 -1      3636 1.23263E-03 8.94115E-05-1.58467E-15
 -1      3637 1.34876E-03 7.55891E-05-1.88217E-15
 -1      3638 1.33818E-03 1.36042E-04-1.75044E-15
 -1      3639 7.93015E-03-1.37334E-03-3.39381E-14
 -1      3640 8.04581E-03-1.43480E-03-3.54594E-14
 -1      3641 8.16568E-03-1.49845E-03-3.70079E-14
 -1      3642 8.28901E-03-1.56465E-03-3.85834E-14
 -1      3643 8.04755E-03-1.44382E-03-3.61904E-14
 -1      3644 8.41538E-03-1.63248E-03-4.01833E-14
 -1      3645 8.54429E-03-1.70207E-03-4.18101E-14
 -1      3646 8.29441E-03-1.57295E-03-3.93366E-14
 -1      3647 8.67539E-03-1.77278E-03-4.34617E-14
 -1      3648 8.80835E-03-1.84464E-03-4.51391E-14
 -1      3649 8.55170E-03-1.70940E-03-4.25870E-14
 -1      3650 8.94288E-03-1.91720E-03-4.68407E-14
 -1      3651 9.07875E-03-1.99047E-03-4.85616E-14
 -1      3652 8.81676E-03-1.85089E-03-4.59384E-14
 -1      3653 9.21575E-03-2.06415E-03-5.03052E-14
 -1      3654 9.35371E-03-2.13822E-03-5.20735E-14
 -1      3655 9.08757E-03-1.99566E-03-4.93828E-14
 -1      3656 9.49247E-03-2.21248E-03-5.38599E-14
 -1      3657 9.63193E-03-2.28693E-03-5.56642E-14
 -1      3658 9.36261E-03-2.14242E-03-5.29117E-14
 -1      3659 9.77194E-03-2.36145E-03-5.74899E-14
 -1      3660 9.91244E-03-2.43603E-03-5.93350E-14
 -1      3661 9.64074E-03-2.29025E-03-5.65225E-14
 -1      3662 1.00533E-02-2.51059E-03-6.11988E-14
 -1      3663 1.01946E-02-2.58513E-03-6.30821E-14
 -1      3664 9.92111E-03-2.43859E-03-6.02110E-14
 -1      3665 1.03361E-02-2.65961E-03-6.49851E-14
 -1      3666 1.04779E-02-2.73403E-03-6.69038E-14
 -1      3667 1.02031E-02-2.58705E-03-6.39755E-14
 -1      3668 1.06198E-02-2.80837E-03-6.88411E-14
 -1      3669 1.07620E-02-2.88263E-03-7.07970E-14
 -1      3670 1.04862E-02-2.73542E-03-6.78165E-14
 -1      3671 1.09113E-02-2.96052E-03-7.28677E-14
 -1      3672 1.10608E-02-3.03831E-03-7.49577E-14
 -1      3673 1.07773E-02-2.88729E-03-7.18231E-14
 -1      3674 1.12033E-02-3.11232E-03-7.69656E-14
 -1      3675 1.13459E-02-3.18625E-03-7.89888E-14
 -1      3676 1.10690E-02-3.03891E-03-7.59040E-14
 -1      3677 1.14885E-02-3.26011E-03-8.10244E-14
 -1      3678 1.16312E-02-3.33390E-03-8.30766E-14
 -1      3679 1.13539E-02-3.18658E-03-7.99463E-14
 -1      3680 1.17739E-02-3.40763E-03-8.51450E-14
 -1      3681 1.19167E-02-3.48130E-03-8.72266E-14
 -1      3682 1.16392E-02-3.33401E-03-8.40501E-14
 -1      3683 1.20595E-02-3.55492E-03-8.93215E-14
 -1      3684 1.22023E-02-3.62849E-03-9.14324E-14
 -1      3685 1.19246E-02-3.48124E-03-8.82134E-14
 -1      3686 1.23451E-02-3.70201E-03-9.35568E-14
 -1      3687 1.24880E-02-3.77550E-03-9.56932E-14
 -1      3688 1.22102E-02-3.62830E-03-9.24335E-14
 -1      3689 1.26308E-02-3.84895E-03-9.78409E-14
 -1      3690 1.27737E-02-3.92237E-03-1.00003E-13
 -1      3691 1.24959E-02-3.77522E-03-9.67076E-14
 -1      3692 1.29165E-02-3.99577E-03-1.02177E-13
 -1      3693 1.30594E-02-4.06914E-03-1.04364E-13
 -1      3694 1.27816E-02-3.92203E-03-1.01032E-13
 -1      3695 1.32023E-02-4.14250E-03-1.06563E-13
 -1      3696 1.33452E-02-4.21583E-03-1.08771E-13
 -1      3697 1.30674E-02-4.06875E-03-1.05405E-13
 -1      3698 1.34881E-02-4.28915E-03-1.10990E-13
 -1      3699 1.36309E-02-4.36246E-03-1.13220E-13
 -1      3700 1.33531E-02-4.21540E-03-1.09823E-13
 -1      3701 1.37738E-02-4.43576E-03-1.15462E-13
 -1      3702 1.39167E-02-4.50905E-03-1.17711E-13
 -1      3703 1.36389E-02-4.36200E-03-1.14284E-13
 -1      3704 1.40013E-02-4.55162E-03-1.19220E-13
 -1      3705 1.41074E-02-4.60498E-03-1.21126E-13
 -1      3706 1.40357E-02-4.56301E-03-1.21063E-13
 -1      3707 1.38664E-02-4.47787E-03-1.18036E-13
 -1      3708 1.31458E-03-4.76947E-05-2.00047E-15
 -1      3709 1.19513E-03-5.33295E-05-1.70935E-15
 -1      3710 1.18824E-03-7.76861E-05-1.71740E-15
 -1      3711 4.29095E-03 3.58476E-04-1.32493E-14
 -1      3712 4.13455E-03 3.74912E-04-1.23186E-14
 -1      3713 7.53954E-03-1.16536E-03-2.82043E-14
 -1      3714 7.62619E-03-1.21328E-03-2.96191E-14
 -1      3715 7.44028E-03-1.13511E-03-2.75608E-14
 -1      3716 5.68630E-03-3.01631E-04-2.24210E-14
 -1      3717 5.51278E-03-2.04488E-04-2.11881E-14
 -1      3718 5.30839E-03-8.11128E-05-1.99224E-14
 -1      3719 5.13948E-03 1.36821E-05-1.87613E-14
 -1      3720 6.28492E-03-6.05642E-04-2.73446E-14
 -1      3721 6.12092E-03-5.22003E-04-2.59906E-14
 -1      3722 6.11058E-03-5.33131E-04-2.54220E-14
 -1      3723 6.60456E-03-7.64150E-04-3.01457E-14
 -1      3724 6.44632E-03-6.86120E-04-2.87298E-14
 -1      3725 6.44171E-03-6.97784E-04-2.81343E-14
 -1      3726 6.91316E-03-9.14097E-04-3.30673E-14
 -1      3727 6.76017E-03-8.39891E-04-3.15920E-14
 -1      3728 6.75876E-03-8.49984E-04-3.09703E-14
 -1      3729 7.21283E-03-1.05884E-03-3.61054E-14
 -1      3730 7.06397E-03-9.86888E-04-3.45719E-14
 -1      3731 7.06377E-03-9.94619E-04-3.39246E-14
 -1      3732 7.50599E-03-1.20082E-03-3.92562E-14
 -1      3733 7.36009E-03-1.13002E-03-3.76673E-14
 -1      3734 7.35990E-03-1.13546E-03-3.69926E-14
 -1      3735 7.79475E-03-1.34164E-03-4.25116E-14
 -1      3736 7.65080E-03-1.27128E-03-4.08708E-14
 -1      3737 7.64995E-03-1.27482E-03-4.01723E-14
 -1      3738 8.08081E-03-1.48224E-03-4.58714E-14
 -1      3739 7.93803E-03-1.41191E-03-4.41780E-14
 -1      3740 7.93621E-03-1.41404E-03-4.34558E-14
 -1      3741 8.36538E-03-1.62313E-03-4.93265E-14
 -1      3742 8.22322E-03-1.55262E-03-4.75872E-14
 -1      3743 8.22034E-03-1.55379E-03-4.68404E-14
 -1      3744 8.64927E-03-1.76458E-03-5.28769E-14
 -1      3745 8.50737E-03-1.69378E-03-5.10918E-14
 -1      3746 8.50347E-03-1.69435E-03-5.03212E-14
 -1      3747 8.93300E-03-1.90668E-03-5.65102E-14
 -1      3748 8.79113E-03-1.83555E-03-5.46820E-14
 -1      3749 8.78633E-03-1.83580E-03-5.38905E-14
 -1      3750 9.21684E-03-2.04944E-03-6.02303E-14
 -1      3751 9.07489E-03-1.97798E-03-5.83609E-14
 -1      3752 9.06931E-03-1.97808E-03-5.75456E-14
 -1      3753 9.50095E-03-2.19281E-03-6.40260E-14
 -1      3754 9.35886E-03-2.12105E-03-6.21189E-14
 -1      3755 9.35264E-03-2.12112E-03-6.12822E-14
 -1      3756 9.78537E-03-2.33676E-03-6.78970E-14
 -1      3757 9.64312E-03-2.26472E-03-6.59527E-14
 -1      3758 9.63639E-03-2.26482E-03-6.50974E-14
 -1      3759 1.00701E-02-2.48119E-03-7.18345E-14
 -1      3760 9.92769E-03-2.40892E-03-6.98566E-14
 -1      3761 9.92056E-03-2.40907E-03-6.89814E-14
 -1      3762 1.03551E-02-2.62605E-03-7.58382E-14
 -1      3763 1.02125E-02-2.55357E-03-7.38293E-14
 -1      3764 1.02051E-02-2.55379E-03-7.29344E-14
 -1      3765 1.06403E-02-2.77126E-03-7.99049E-14
 -1      3766 1.04976E-02-2.69861E-03-7.78628E-14
 -1      3767 1.04900E-02-2.69890E-03-7.69506E-14
 -1      3768 1.09256E-02-2.91676E-03-8.40313E-14
 -1      3769 1.07829E-02-2.84398E-03-8.19595E-14
 -1      3770 1.07751E-02-2.84432E-03-8.10301E-14
 -1      3771 1.12111E-02-3.06251E-03-8.82209E-14
 -1      3772 1.10684E-02-2.98961E-03-8.61189E-14
 -1      3773 1.10605E-02-2.99000E-03-8.51712E-14
 -1      3774 1.14967E-02-3.20844E-03-9.24688E-14
 -1      3775 1.13539E-02-3.13545E-03-9.03381E-14
 -1      3776 1.13460E-02-3.13588E-03-8.93733E-14
 -1      3777 1.17824E-02-3.35453E-03-9.67740E-14
 -1      3778 1.16396E-02-3.28147E-03-9.46152E-14
 -1      3779 1.16316E-02-3.28192E-03-9.36336E-14
 -1      3780 1.20681E-02-3.50073E-03-1.01131E-13
 -1      3781 1.19253E-02-3.42762E-03-9.89462E-14
 -1      3782 1.19172E-02-3.42809E-03-9.79501E-14
 -1      3783 1.23539E-02-3.64703E-03-1.05533E-13
 -1      3784 1.22110E-02-3.57387E-03-1.03326E-13
 -1      3785 1.22029E-02-3.57436E-03-1.02317E-13
 -1      3786 1.26396E-02-3.79339E-03-1.09977E-13
 -1      3787 1.24967E-02-3.72020E-03-1.07752E-13
 -1      3788 1.24887E-02-3.72070E-03-1.06730E-13
 -1      3789 1.29254E-02-3.93980E-03-1.14461E-13
 -1      3790 1.27825E-02-3.86659E-03-1.12212E-13
 -1      3791 1.27744E-02-3.86709E-03-1.11184E-13
 -1      3792 1.32111E-02-4.08624E-03-1.18981E-13
 -1      3793 1.30682E-02-4.01302E-03-1.16717E-13
 -1      3794 1.30602E-02-4.01352E-03-1.15673E-13
 -1      3795 6.85835E-03-9.55658E-04-2.67227E-14
 -1      3796 7.01312E-03-1.01569E-03-2.67258E-14
 -1      3797 5.01129E-03 8.42144E-05-1.78941E-14
 -1      3798 1.18409E-03-1.00448E-04-1.72178E-15
 -1      3799 1.18339E-03-1.22044E-04-1.72263E-15
 -1      3800 1.29722E-03-1.00107E-04-2.01840E-15
 -1      3801 2.06788E-03-2.78219E-04-5.01898E-15
 -1      3802 2.11914E-03-2.57805E-04-5.12901E-15
 -1      3803 2.52370E-03-1.08344E-04-6.00946E-15
 -1      3804 2.67563E-03-4.30233E-05-6.36471E-15
 -1      3805 4.44657E-03 3.26672E-04-1.42173E-14
 -1      3806 2.49540E-03 2.98693E-04-4.92114E-15
 -1      3807 2.33639E-03 2.85508E-04-4.37711E-15
 -1      3808 2.24517E-03 2.32940E-04-4.17309E-15
 -1      3809 2.56639E-03 2.56566E-04-5.26684E-15
 -1      3810 3.89653E-03 3.25447E-04-1.09584E-14
 -1      3811 4.03132E-03 3.36233E-04-1.16482E-14
 -1      3812 1.57499E-03-2.17608E-04-2.87799E-15
 -1      3813 1.69229E-03-2.36273E-04-3.32042E-15
 -1      3814 1.74430E-03-2.30391E-04-3.56099E-15
 -1      3815 4.09379E-03 3.61165E-04-1.20403E-14
 -1      3816 4.00704E-03 3.79330E-04-1.16033E-14
 -1      3817 1.35365E-02-4.25182E-03-1.24413E-13
 -1      3818 2.22256E-03-2.19598E-04-5.34338E-15
 -1      3819 2.36388E-03-1.72091E-04-5.65685E-15
 -1      3820 7.71962E-03-1.26232E-03-3.10190E-14
 -1      3821 7.82473E-03-1.31780E-03-3.24880E-14
 -1      3822 7.82060E-03-1.32722E-03-3.31962E-14
 -1      3823 7.61814E-03-1.22503E-03-3.03506E-14
 -1      3824 3.84554E-03 3.71926E-04-1.07396E-14
 -1      3825 3.72415E-03 3.02690E-04-1.01231E-14
 -1      3826 3.79739E-03 3.46453E-04-1.04823E-14
 -1      3827 3.68045E-03 3.57124E-04-9.91043E-15
 -1      3828 3.57264E-03 2.91802E-04-9.42260E-15
 -1      3829 5.52663E-03-2.29251E-04-2.08804E-14
 -1      3830 7.15058E-03-1.06328E-03-2.73929E-14
 -1      3831 5.84394E-03-4.04365E-04-2.31353E-14
 -1      3832 2.97414E-03 2.45051E-04-6.87998E-15
 -1      3833 2.80437E-03 2.26791E-04-6.23213E-15
 -1      3834 2.77069E-03 1.86843E-05-6.55179E-15
 -1      3835 2.85909E-03 8.29850E-05-6.73821E-15
 -1      3836 2.59193E-03 1.04655E-05-5.90375E-15
 -1      3837 2.09725E-03-2.10295E-04-4.85427E-15
 -1      3838 7.39415E-03-1.13273E-03-2.79040E-14
 -1      3839 1.33575E-02-4.16272E-03-1.21018E-13
 -1      3840 1.33494E-02-4.16323E-03-1.19965E-13
 -1      3841 6.73783E-03-9.00860E-04-2.67676E-14
 -1      3842 6.94281E-03-9.87290E-04-2.79687E-14
 -1      3843 1.34488E-02-4.20947E-03-1.22485E-13
 -1      3844 2.34864E-03-1.12149E-04-5.39011E-15
 -1      3845 1.99242E-03-2.81255E-04-4.70231E-15
 -1      3846 1.92666E-03-2.49218E-04-4.34586E-15
 -1      3847 6.60996E-03-8.38858E-04-2.63757E-14
 -1      3848 1.99565E-03 1.74647E-04-3.48579E-15
 -1      3849 1.84236E-03 1.68019E-04-3.03403E-15
 -1      3850 1.43743E-03-4.04596E-05-2.31240E-15
 -1      3851 1.42397E-03-7.09262E-05-2.32663E-15
 -1      3852 1.34363E-02-4.21488E-03-1.19913E-13
 -1      3853 1.33928E-02-4.18905E-03-1.19940E-13
 -1      3854 1.32465E-02-4.11257E-03-1.17908E-13
 -1      3855 1.35797E-02-4.29882E-03-1.20082E-13
 -1      3856 1.35080E-02-4.25685E-03-1.20000E-13
 -1      3857 1.33616E-02-4.18036E-03-1.17970E-13
 -1      3858 1.46524E-03-1.89501E-04-2.52759E-15
 -1      3859 1.44797E-03 1.44034E-04-2.00389E-15
 -1      3860 1.78788E-03 1.23259E-04-2.96727E-15
 -1      3861 1.72801E-03 1.60597E-04-2.71900E-15
 -1      3862 1.61503E-03 1.53181E-04-2.42150E-15
 -1      3863 1.29315E-03-1.47845E-04-2.01819E-15
 -1      3864 1.37231E-02-4.38276E-03-1.20239E-13
 -1      3865 1.36514E-02-4.34079E-03-1.20163E-13
 -1      3866 1.35050E-02-4.26429E-03-1.18137E-13
 -1      3867 1.38485E-02-4.45591E-03-1.20404E-13
 -1      3868 1.37858E-02-4.41933E-03-1.20322E-13
 -1      3869 1.36394E-02-4.34283E-03-1.18300E-13
 -1      3870 1.46820E-03 2.72042E-05-2.27211E-15
 -1      3871 1.45250E-03-7.68029E-06-2.29448E-15
 -1      3872 1.56420E-03-3.10588E-05-2.64532E-15
 -1      3873 3.28432E-03 2.76732E-04-8.14373E-15
 -1      3874 3.19125E-03 2.11095E-04-7.83806E-15
 -1      3875 1.46181E-03-1.65484E-04-2.53569E-15
 -1      3876 5.94875E-03-4.79556E-04-2.33254E-14
 -1      3877 6.05817E-03-5.56095E-04-2.34514E-14
 -1      3878 1.43980E-03-1.34277E-04-2.45419E-15
 -1      3879 1.60344E-03-1.79241E-04-3.01766E-15
 -1      3880 6.25914E-03-6.61681E-04-2.46469E-14
 -1      3881 3.45706E-03 3.01640E-04-8.88708E-15
 -1      3882 1.50773E-03 1.12185E-04-2.21624E-15
 -1      3883 1.51142E-03 7.90447E-05-2.28876E-15
 -1      3884 3.28315E-03 1.78507E-04-8.28229E-15
 -1      3885 7.92400E-03-1.38972E-03-3.53749E-14
 -1      3886 8.04562E-03-1.45097E-03-3.69209E-14
 -1      3887 8.17017E-03-1.51433E-03-3.84916E-14
 -1      3888 8.29701E-03-1.57990E-03-4.00893E-14
 -1      3889 8.04192E-03-1.45621E-03-3.76489E-14
 -1      3890 8.42609E-03-1.64704E-03-4.17158E-14
 -1      3891 8.55698E-03-1.71575E-03-4.33649E-14
 -1      3892 8.29802E-03-1.58542E-03-4.08436E-14
 -1      3893 8.68957E-03-1.78556E-03-4.50395E-14
 -1      3894 8.82357E-03-1.85645E-03-4.67388E-14
 -1      3895 8.56092E-03-1.72103E-03-4.41427E-14
 -1      3896 8.95885E-03-1.92805E-03-4.84601E-14
 -1      3897 9.09521E-03-2.00035E-03-5.02026E-14
 -1      3898 8.82929E-03-1.86119E-03-4.75379E-14
 -1      3899 9.23252E-03-2.07309E-03-5.19648E-14
 -1      3900 9.37065E-03-2.14625E-03-5.37506E-14
 -1      3901 9.10198E-03-2.00443E-03-5.10201E-14
 -1      3902 9.50949E-03-2.21966E-03-5.55560E-14
 -1      3903 9.64894E-03-2.29331E-03-5.73796E-14
 -1      3904 9.37803E-03-2.14964E-03-5.45883E-14
 -1      3905 9.78891E-03-2.36707E-03-5.92247E-14
 -1      3906 9.92934E-03-2.44095E-03-6.10877E-14
 -1      3907 9.65664E-03-2.29603E-03-5.82382E-14
 -1      3908 1.00701E-02-2.51487E-03-6.29692E-14
 -1      3909 1.02113E-02-2.58882E-03-6.48715E-14
 -1      3910 9.93720E-03-2.44306E-03-6.19641E-14
 -1      3911 1.03527E-02-2.66276E-03-6.67904E-14
 -1      3912 1.04944E-02-2.73670E-03-6.87272E-14
 -1      3913 1.02192E-02-2.59040E-03-6.57649E-14
 -1      3914 1.06433E-02-2.81429E-03-7.07807E-14
 -1      3915 1.07925E-02-2.89185E-03-7.28516E-14
 -1      3916 1.05094E-02-2.74152E-03-6.97362E-14
 -1      3917 1.09347E-02-2.96567E-03-7.48415E-14
 -1      3918 1.10770E-02-3.03944E-03-7.68481E-14
 -1      3919 1.08005E-02-2.89259E-03-7.37820E-14
 -1      3920 1.12194E-02-3.11317E-03-7.88694E-14
 -1      3921 1.13619E-02-3.18685E-03-8.09050E-14
 -1      3922 1.10850E-02-3.03989E-03-7.77918E-14
 -1      3923 1.15045E-02-3.26049E-03-8.29579E-14
 -1      3924 1.16472E-02-3.33408E-03-8.50256E-14
 -1      3925 1.13699E-02-3.18705E-03-8.18660E-14
 -1      3926 1.17899E-02-3.40764E-03-8.71059E-14
 -1      3927 1.19326E-02-3.48116E-03-8.92018E-14
 -1      3928 1.16551E-02-3.33410E-03-8.59990E-14
 -1      3929 1.20754E-02-3.55464E-03-9.13093E-14
 -1      3930 1.22182E-02-3.62809E-03-9.34342E-14
 -1      3931 1.19406E-02-3.48103E-03-9.01886E-14
 -1      3932 1.23610E-02-3.70152E-03-9.55730E-14
 -1      3933 1.25038E-02-3.77492E-03-9.77215E-14
 -1      3934 1.22261E-02-3.62786E-03-9.44364E-14
 -1      3935 1.26467E-02-3.84830E-03-9.98848E-14
 -1      3936 1.27896E-02-3.92166E-03-1.02060E-13
 -1      3937 1.25118E-02-3.77460E-03-9.87385E-14
 -1      3938 1.29324E-02-3.99501E-03-1.04247E-13
 -1      3939 1.30753E-02-4.06834E-03-1.06447E-13
 -1      3940 1.27975E-02-3.92129E-03-1.03090E-13
 -1      3941 1.32182E-02-4.14165E-03-1.08655E-13
 -1      3942 1.33611E-02-4.21496E-03-1.10874E-13
 -1      3943 1.30833E-02-4.06791E-03-1.07488E-13
 -1      3944 1.35039E-02-4.28825E-03-1.13106E-13
 -1      3945 1.36468E-02-4.36154E-03-1.15348E-13
 -1      3946 1.33690E-02-4.21450E-03-1.11929E-13
 -1      3947 2.18016E-03-1.08730E-04-4.78874E-15
 -1      3948 2.32249E-03-5.13534E-05-5.10713E-15
 -1      3949 7.21476E-03-1.07287E-03-3.47832E-14
 -1      3950 7.06592E-03-1.00351E-03-3.32769E-14
 -1      3951 7.50663E-03-1.21017E-03-3.78824E-14
 -1      3952 7.36152E-03-1.14158E-03-3.63187E-14
 -1      3953 7.36521E-03-1.14847E-03-3.56454E-14
 -1      3954 7.79326E-03-1.34735E-03-4.10915E-14
 -1      3955 7.65042E-03-1.27866E-03-3.94746E-14
 -1      3956 7.65237E-03-1.28285E-03-3.87754E-14
 -1      3957 8.07691E-03-1.48539E-03-4.44026E-14
 -1      3958 7.93533E-03-1.41621E-03-4.27337E-14
 -1      3959 7.93548E-03-1.41845E-03-4.20127E-14
 -1      3960 8.35915E-03-1.62464E-03-4.78116E-14
 -1      3961 8.21812E-03-1.55485E-03-4.60944E-14
 -1      3962 8.21661E-03-1.55578E-03-4.53494E-14
 -1      3963 8.64094E-03-1.76513E-03-5.13163E-14
 -1      3964 8.50005E-03-1.69473E-03-4.95533E-14
 -1      3965 8.49710E-03-1.69489E-03-4.87857E-14
 -1      3966 8.92286E-03-1.90675E-03-5.49042E-14
 -1      3967 8.78185E-03-1.83581E-03-5.30992E-14
 -1      3968 8.77771E-03-1.83556E-03-5.23081E-14
 -1      3969 9.20522E-03-2.04935E-03-5.85800E-14
 -1      3970 9.06397E-03-1.97794E-03-5.67305E-14
 -1      3971 9.05886E-03-1.97753E-03-5.59190E-14
 -1      3972 9.48813E-03-2.19275E-03-6.23341E-14
 -1      3973 9.34660E-03-2.12096E-03-6.04484E-14
 -1      3974 9.34072E-03-2.12055E-03-5.96127E-14
 -1      3975 9.77161E-03-2.33681E-03-6.61657E-14
 -1      3976 9.62980E-03-2.26471E-03-6.42406E-14
 -1      3977 9.62333E-03-2.26438E-03-6.33856E-14
 -1      3978 1.00556E-02-2.48141E-03-7.00655E-14
 -1      3979 9.91355E-03-2.40905E-03-6.81077E-14
 -1      3980 9.90662E-03-2.40884E-03-6.72332E-14
 -1      3981 1.03401E-02-2.62643E-03-7.40320E-14
 -1      3982 1.01978E-02-2.55387E-03-7.20395E-14
 -1      3983 1.01905E-02-2.55380E-03-7.11479E-14
 -1      3984 1.06249E-02-2.77179E-03-7.80626E-14
 -1      3985 1.04824E-02-2.69908E-03-7.60400E-14
 -1      3986 1.04749E-02-2.69912E-03-7.51289E-14
 -1      3987 1.09100E-02-2.91743E-03-8.21547E-14
 -1      3988 1.07674E-02-2.84458E-03-8.01019E-14
 -1      3989 1.07597E-02-2.84474E-03-7.91734E-14
 -1      3990 1.11953E-02-3.06327E-03-8.63105E-14
 -1      3991 1.10526E-02-2.99033E-03-8.42243E-14
 -1      3992 1.10448E-02-2.99058E-03-8.32798E-14
 -1      3993 1.14808E-02-3.20929E-03-9.05244E-14
 -1      3994 1.13380E-02-3.13626E-03-8.84102E-14
 -1      3995 1.13301E-02-3.13658E-03-8.74475E-14
 -1      3996 1.17664E-02-3.35543E-03-9.47977E-14
 -1      3997 1.16236E-02-3.28234E-03-9.26536E-14
 -1      3998 1.16156E-02-3.28272E-03-9.16749E-14
 -1      3999 1.20520E-02-3.50168E-03-9.91246E-14
 -1      4000 1.19092E-02-3.42854E-03-9.69561E-14
 -1      4001 1.19012E-02-3.42896E-03-9.59608E-14
 -1      4002 1.23377E-02-3.64800E-03-1.03504E-13
 -1      4003 1.21949E-02-3.57483E-03-1.01308E-13
 -1      4004 1.21869E-02-3.57528E-03-1.00300E-13
 -1      4005 1.26235E-02-3.79438E-03-1.07925E-13
 -1      4006 1.24806E-02-3.72118E-03-1.05707E-13
 -1      4007 1.24726E-02-3.72165E-03-1.04688E-13
 -1      4008 1.29092E-02-3.94080E-03-1.12384E-13
 -1      4009 1.27664E-02-3.86758E-03-1.10151E-13
 -1      4010 1.27583E-02-3.86806E-03-1.09116E-13
 -1      4011 1.31036E-02-4.03934E-03-1.15650E-13
 -1      4012 6.04173E-03-5.17819E-04-2.43123E-14
 -1      4013 7.02122E-03-1.01689E-03-2.92043E-14
 -1      4014 7.12648E-03-1.06200E-03-2.91596E-14
 -1      4015 2.15164E-03 1.81682E-04-3.96952E-15
 -1      4016 2.05667E-03 1.32912E-04-3.76722E-15
 -1      4017 2.31034E-03 1.89960E-04-4.48605E-15
 -1      4018 1.44744E-03-1.08510E-04-2.44885E-15
 -1      4019 6.49606E-03-7.76603E-04-2.62348E-14
 -1      4020 6.72285E-03-8.79757E-04-2.78654E-14
 -1      4021 6.38952E-03-7.12681E-04-2.60885E-14
 -1      4022 1.56600E-03-1.06595E-04-2.79647E-15
 -1      4023 1.95056E-03-2.80587E-04-4.49842E-15
 -1      4024 1.95632E-03-1.99469E-04-4.31186E-15
 -1      4025 2.04752E-03-1.61769E-04-4.50455E-15
 -1      4026 6.60448E-03-7.96098E-04-2.86262E-14
 -1      4027 6.44208E-03-7.19822E-04-2.72433E-14
 -1      4028 1.39734E-02-4.52774E-03-1.20774E-13
 -1      4029 1.39107E-02-4.49117E-03-1.20697E-13
 -1      4030 1.37643E-02-4.41466E-03-1.18676E-13
 -1      4031 1.38888E-02-4.48518E-03-1.19258E-13
 -1      4032 6.91574E-03-9.36493E-04-3.16407E-14
 -1      4033 6.76134E-03-8.65205E-04-3.01944E-14
 -1      4034 6.77288E-03-8.87542E-04-2.92645E-14
 -1      4035 7.07287E-03-1.01663E-03-3.24675E-14
 -1      4036 6.21423E-03-6.04637E-04-2.56273E-14
 -1      4037 7.32943E-03-1.12354E-03-2.83278E-14
 -1      4038 7.47565E-03-1.17429E-03-2.93973E-14
 -1      4039 7.57506E-03-1.22116E-03-3.07892E-14
 -1      4040 7.24644E-03-1.10410E-03-2.88686E-14
 -1      4041 1.30956E-02-4.03984E-03-1.14603E-13
 -1      4042 7.31091E-03-1.13286E-03-3.01272E-14
 -1      4043 2.40856E-03-2.26144E-06-5.27380E-15
 -1      4044 2.49267E-03 5.08503E-05-5.43853E-15
 -1      4045 2.23188E-03-9.10719E-06-4.67965E-15
 -1      4046 1.67272E-03-9.07953E-05-3.08748E-15
 -1      4047 1.68801E-03-1.34508E-04-3.22908E-15
 -1      4048 2.78007E-03 1.24170E-04-6.34018E-15
 -1      4049 2.96168E-03 1.42241E-04-7.01515E-15
 -1      4050 7.81161E-03-1.33407E-03-3.39024E-14
 -1      4051 7.80068E-03-1.33838E-03-3.46076E-14
 -1      4052 7.70309E-03-1.28078E-03-3.24558E-14
 -1      4053 2.02062E-03-1.10710E-04-4.25384E-15
 -1      4054 1.38041E-02-4.44261E-03-1.17748E-13
 -1      4055 2.70604E-03 1.65115E-04-5.97172E-15
 -1      4056 2.63670E-03 2.12028E-04-5.61747E-15
 -1      4057 2.60948E-03 1.12065E-04-5.72208E-15
 -1      4058 6.91995E-03-9.68147E-04-2.92406E-14
 -1      4059 7.10352E-03-1.04837E-03-3.04576E-14
 -1      4060 2.11545E-03 8.88344E-05-4.05444E-15
 -1      4061 1.96098E-03 8.72277E-05-3.56571E-15
 -1      4062 1.31672E-02-4.08179E-03-1.14692E-13
 -1      4063 1.36692E-02-4.36885E-03-1.16560E-13
 -1      4064 2.47217E-03 1.99790E-04-5.03516E-15
 -1      4065 3.51281E-03 3.36665E-04-9.11967E-15
 -1      4066 1.81424E-03-2.22630E-04-3.84439E-15
 -1      4067 1.89289E-03-2.15223E-04-4.12894E-15
 -1      4068 1.69681E-03-2.01212E-04-3.36881E-15
 -1      4069 1.84605E-03 8.38645E-05-3.22192E-15
 -1      4070 1.73286E-03 8.06964E-05-2.89597E-15
 -1      4071 1.90206E-03 4.22854E-05-3.48316E-15
 -1      4072 6.81655E-03-9.14616E-04-2.90902E-14
 -1      4073 1.33107E-02-4.16570E-03-1.14857E-13
 -1      4074 1.32389E-02-4.12375E-03-1.14775E-13
 -1      4075 1.29729E-02-3.98323E-03-1.11434E-13
 -1      4076 1.83460E-03-1.74621E-04-3.81184E-15
 -1      4077 1.68216E-03-1.67103E-04-3.27394E-15
 -1      4078 1.34413E-02-4.23879E-03-1.15674E-13
 -1      4079 1.31752E-02-4.09823E-03-1.12335E-13
 -1      4080 1.35040E-02-4.27535E-03-1.15757E-13
 -1      4081 1.74045E-03-1.51246E-04-3.43637E-15
 -1      4082 1.31384E-02-4.08364E-03-1.10896E-13
 -1      4083 1.30078E-02-4.01058E-03-1.10085E-13
 -1      4084 1.66967E-03-5.23351E-05-2.99443E-15
 -1      4085 1.79717E-03-7.87251E-05-3.44432E-15
 -1      4086 1.36070E-02-4.33360E-03-1.16269E-13
 -1      4087 7.90884E-03-1.39740E-03-3.68085E-14
 -1      4088 8.03702E-03-1.45971E-03-3.83770E-14
 -1      4089 8.16683E-03-1.52378E-03-3.99745E-14
 -1      4090 8.29786E-03-1.58964E-03-4.15980E-14
 -1      4091 8.03214E-03-1.46178E-03-3.91070E-14
 -1      4092 8.43028E-03-1.65683E-03-4.32466E-14
 -1      4093 8.56382E-03-1.72534E-03-4.49197E-14
 -1      4094 8.29735E-03-1.59269E-03-4.23518E-14
 -1      4095 8.69850E-03-1.79481E-03-4.66159E-14
 -1      4096 8.83415E-03-1.86521E-03-4.83354E-14
 -1      4097 8.56624E-03-1.72872E-03-4.56966E-14
 -1      4098 8.97071E-03-1.93628E-03-5.00772E-14
 -1      4099 9.10806E-03-2.00797E-03-5.18385E-14
 -1      4100 8.83850E-03-1.86851E-03-4.91329E-14
 -1      4101 9.24614E-03-2.08009E-03-5.36216E-14
 -1      4102 9.38486E-03-2.15261E-03-5.54267E-14
 -1      4103 9.11369E-03-2.01094E-03-5.26573E-14
 -1      4104 9.52415E-03-2.22540E-03-5.72519E-14
 -1      4105 9.66393E-03-2.29843E-03-5.90957E-14
 -1      4106 9.39132E-03-2.15515E-03-5.62654E-14
 -1      4107 9.80416E-03-2.37162E-03-6.09578E-14
 -1      4108 9.94477E-03-2.44494E-03-6.28405E-14
 -1      4109 9.67093E-03-2.30050E-03-5.99521E-14
 -1      4110 1.00857E-02-2.51834E-03-6.47400E-14
 -1      4111 1.02270E-02-2.59180E-03-6.66586E-14
 -1      4112 9.95211E-03-2.44655E-03-6.37157E-14
 -1      4113 1.03755E-02-2.66898E-03-6.86939E-14
 -1      4114 1.05243E-02-2.74618E-03-7.07487E-14
 -1      4115 1.02416E-02-2.59667E-03-6.76507E-14
 -1      4116 1.06663E-02-2.81970E-03-7.27230E-14
 -1      4117 1.08083E-02-2.89323E-03-7.47116E-14
 -1      4118 1.05321E-02-2.74700E-03-7.16622E-14
 -1      4119 1.09506E-02-2.96674E-03-7.67160E-14
 -1      4120 1.10929E-02-3.04025E-03-7.87368E-14
 -1      4121 1.08161E-02-2.89375E-03-7.56414E-14
 -1      4122 1.12353E-02-3.11373E-03-8.07710E-14
 -1      4123 1.13778E-02-3.18720E-03-8.28240E-14
 -1      4124 1.11008E-02-3.04051E-03-7.96807E-14
 -1      4125 1.15204E-02-3.26064E-03-8.48922E-14
 -1      4126 1.16631E-02-3.33407E-03-8.69732E-14
 -1      4127 1.13857E-02-3.18726E-03-8.37831E-14
 -1      4128 1.18058E-02-3.40747E-03-8.90696E-14
 -1      4129 1.19485E-02-3.48086E-03-9.11781E-14
 -1      4130 1.16710E-02-3.33398E-03-8.79480E-14
 -1      4131 1.20913E-02-3.55424E-03-9.33018E-14
 -1      4132 1.22341E-02-3.62759E-03-9.54413E-14
 -1      4133 1.19565E-02-3.48066E-03-9.21702E-14
 -1      4134 1.23769E-02-3.70093E-03-9.75929E-14
 -1      4135 1.25198E-02-3.77426E-03-9.97560E-14
 -1      4136 1.22421E-02-3.62730E-03-9.64457E-14
 -1      4137 1.26626E-02-3.84758E-03-1.01932E-13
 -1      4138 1.28055E-02-3.92089E-03-1.04122E-13
 -1      4139 1.25277E-02-3.77390E-03-1.00774E-13
 -1      4140 1.29557E-02-3.99531E-03-1.06967E-13
 -1      4141 1.30985E-02-4.06859E-03-1.09180E-13
 -1      4142 2.26500E-03 8.92543E-05-4.55069E-15
 -1      4143 2.16309E-03 4.03254E-05-4.32343E-15
 -1      4144 2.42669E-03 9.38915E-05-5.10231E-15
 -1      4145 7.55183E-03-1.22326E-03-3.14695E-14
 -1      4146 7.51454E-03-1.22134E-03-3.65101E-14
 -1      4147 7.37158E-03-1.15582E-03-3.49722E-14
 -1      4148 8.35519E-03-1.62533E-03-4.62975E-14
 -1      4149 8.21580E-03-1.55646E-03-4.46041E-14
 -1      4150 8.63413E-03-1.76464E-03-4.97563E-14
 -1      4151 8.49458E-03-1.69473E-03-4.80147E-14
 -1      4152 8.49250E-03-1.69422E-03-4.72471E-14
 -1      4153 8.91377E-03-1.90572E-03-5.33018E-14
 -1      4154 8.77383E-03-1.83498E-03-5.15191E-14
 -1      4155 8.77020E-03-1.83404E-03-5.07275E-14
 -1      4156 9.19432E-03-2.04820E-03-5.69330E-14
 -1      4157 9.05392E-03-1.97681E-03-5.51072E-14
 -1      4158 9.04911E-03-1.97575E-03-5.42961E-14
 -1      4159 9.47583E-03-2.19173E-03-6.06460E-14
 -1      4160 9.33496E-03-2.11985E-03-5.87787E-14
 -1      4161 9.32926E-03-2.11885E-03-5.79466E-14
 -1      4162 9.75824E-03-2.33604E-03-6.44364E-14
 -1      4163 9.61693E-03-2.26380E-03-6.25322E-14
 -1      4164 9.61058E-03-2.26296E-03-6.16778E-14
 -1      4165 1.00414E-02-2.48094E-03-6.82990E-14
 -1      4166 9.89975E-03-2.40843E-03-6.63580E-14
 -1      4167 9.89291E-03-2.40779E-03-6.54858E-14
 -1      4168 1.03253E-02-2.62625E-03-7.22288E-14
 -1      4169 1.01833E-02-2.55355E-03-7.02567E-14
 -1      4170 1.01761E-02-2.55312E-03-6.93640E-14
 -1      4171 1.06097E-02-2.77188E-03-7.62260E-14
 -1      4172 1.04674E-02-2.69904E-03-7.42196E-14
 -1      4173 1.04600E-02-2.69880E-03-7.33113E-14
 -1      4174 1.08945E-02-2.91774E-03-8.02851E-14
 -1      4175 1.07520E-02-2.84479E-03-7.82478E-14
 -1      4176 1.07444E-02-2.84472E-03-7.73226E-14
 -1      4177 1.11796E-02-3.06378E-03-8.44050E-14
 -1      4178 1.10370E-02-2.99074E-03-8.23380E-14
 -1      4179 1.10292E-02-2.99082E-03-8.13969E-14
 -1      4180 1.14649E-02-3.20994E-03-8.85872E-14
 -1      4181 1.13222E-02-3.13684E-03-8.64884E-14
 -1      4182 1.13143E-02-3.13704E-03-8.55298E-14
 -1      4183 1.17504E-02-3.35619E-03-9.28259E-14
 -1      4184 1.16076E-02-3.28306E-03-9.06987E-14
 -1      4185 1.15997E-02-3.28334E-03-8.97244E-14
 -1      4186 1.20360E-02-3.50252E-03-9.71247E-14
 -1      4187 1.18932E-02-3.42935E-03-9.49700E-14
 -1      4188 1.18852E-02-3.42970E-03-9.39789E-14
 -1      4189 1.23217E-02-3.64890E-03-1.01474E-13
 -1      4190 1.21788E-02-3.57570E-03-9.92922E-14
 -1      4191 1.21708E-02-3.57610E-03-9.82865E-14
 -1      4192 1.26074E-02-3.79532E-03-1.05870E-13
 -1      4193 1.24645E-02-3.72210E-03-1.03666E-13
 -1      4194 1.24565E-02-3.72254E-03-1.02645E-13
 -1      4195 1.28616E-02-3.92588E-03-1.09756E-13
 -1      4196 1.27187E-02-3.85265E-03-1.07534E-13
 -1      4197 1.27107E-02-3.85311E-03-1.06504E-13
 -1      4198 1.29333E-02-3.96781E-03-1.09841E-13
 -1      4199 7.45534E-03-1.19350E-03-3.17774E-14
 -1      4200 2.37428E-03 1.44440E-04-4.80434E-15
 -1      4201 6.96556E-03-9.77052E-04-3.06708E-14
 -1      4202 7.18791E-03-1.08193E-03-3.17330E-14
 -1      4203 7.27946E-03-1.12398E-03-3.16956E-14
 -1      4204 8.07640E-03-1.48822E-03-4.29348E-14
 -1      4205 7.93674E-03-1.42055E-03-4.12895E-14
 -1      4206 8.21572E-03-1.55685E-03-4.38576E-14
 -1      4207 7.79676E-03-1.35358E-03-3.96685E-14
 -1      4208 7.65606E-03-1.28714E-03-3.80756E-14
 -1      4209 7.93921E-03-1.42251E-03-4.05656E-14
 -1      4210 1.69013E-03-1.42136E-05-2.97258E-15
 -1      4211 1.34089E-02-4.22955E-03-1.13658E-13
 -1      4212 1.68444E-03 2.22947E-05-2.87827E-15
 -1      4213 1.79409E-03 2.43509E-06-3.24420E-15
 -1      4214 1.32660E-02-4.15627E-03-1.11423E-13
 -1      4215 1.62853E-03 5.95064E-05-2.64389E-15
 -1      4216 2.08618E-03-3.15586E-06-4.17685E-15
 -1      4217 1.97176E-03-4.45960E-05-3.91053E-15
 -1      4218 1.96626E-03-9.20898E-05-4.02051E-15
 -1      4219 1.90553E-03 7.20150E-07-3.58950E-15
 -1      4220 7.78866E-03-1.34027E-03-3.53146E-14
 -1      4221 7.77754E-03-1.34047E-03-3.60187E-14
 -1      4222 7.67051E-03-1.28521E-03-3.38436E-14
 -1      4223 1.28208E-02-3.92160E-03-1.05796E-13
 -1      4224 7.66163E-03-1.29156E-03-3.73773E-14
 -1      4225 1.28965E-02-3.95322E-03-1.08412E-13
 -1      4226 7.43996E-03-1.19176E-03-3.43975E-14
 -1      4227 7.28662E-03-1.12055E-03-3.35638E-14
 -1      4228 7.51075E-03-1.22322E-03-3.37655E-14
 -1      4229 7.43231E-03-1.18830E-03-3.24502E-14
 -1      4230 1.84891E-03-1.37189E-04-3.75985E-15
 -1      4231 8.12085E-03-1.50915E-03-4.14636E-14
 -1      4232 8.25663E-03-1.57592E-03-4.31097E-14
 -1      4233 8.39295E-03-1.64369E-03-4.47807E-14
 -1      4234 8.52967E-03-1.71239E-03-4.64762E-14
 -1      4235 8.66697E-03-1.78184E-03-4.81936E-14
 -1      4236 8.80473E-03-1.85200E-03-4.99346E-14
 -1      4237 8.94302E-03-1.92270E-03-5.16985E-14
 -1      4238 9.08177E-03-1.99391E-03-5.34804E-14
 -1      4239 9.22098E-03-2.06550E-03-5.52844E-14
 -1      4240 9.36061E-03-2.13744E-03-5.71101E-14
 -1      4241 9.50064E-03-2.20963E-03-5.89534E-14
 -1      4242 9.64101E-03-2.28207E-03-6.08180E-14
 -1      4243 9.78171E-03-2.35467E-03-6.27027E-14
 -1      4244 9.92270E-03-2.42743E-03-6.46041E-14
 -1      4245 1.00640E-02-2.50029E-03-6.65235E-14
 -1      4246 1.02125E-02-2.57691E-03-6.85594E-14
 -1      4247 1.03542E-02-2.64994E-03-7.05158E-14
 -1      4248 1.04961E-02-2.72304E-03-7.24899E-14
 -1      4249 1.06381E-02-2.79617E-03-7.44805E-14
 -1      4250 1.07803E-02-2.86934E-03-7.64841E-14
 -1      4251 1.09226E-02-2.94253E-03-7.85055E-14
 -1      4252 1.10650E-02-3.01575E-03-8.05419E-14
 -1      4253 1.12075E-02-3.08897E-03-8.25929E-14
 -1      4254 1.13501E-02-3.16221E-03-8.46607E-14
 -1      4255 1.14927E-02-3.23545E-03-8.67416E-14
 -1      4256 1.16354E-02-3.30870E-03-8.88380E-14
 -1      4257 1.17781E-02-3.38196E-03-9.09491E-14
 -1      4258 1.19208E-02-3.45521E-03-9.30738E-14
 -1      4259 1.20636E-02-3.52847E-03-9.52155E-14
 -1      4260 1.22064E-02-3.60172E-03-9.73673E-14
 -1      4261 1.23493E-02-3.67498E-03-9.95314E-14
 -1      4262 1.24921E-02-3.74824E-03-1.01711E-13
 -1      4263 7.85016E-03-1.37917E-03-3.82449E-14
 -1      4264 7.71490E-03-1.31611E-03-3.66780E-14
 -1      4265 7.98531E-03-1.44353E-03-3.98409E-14
 -1      4266 7.58697E-03-1.25774E-03-3.51866E-14
 -1      4267 1.27852E-02-3.89586E-03-1.06747E-13
 -1      4268 1.26350E-02-3.82149E-03-1.03902E-13
 -1      4269 7.11155E-03-1.03950E-03-3.22865E-14
 -3
    1PSTEP                         2           1           1          
  100CL  101 1.000000000        4269                     0    1           1
 -4  STRESS      6    1
 -5  SXX         1    4    1    1
 -5  SYY         1    4    2    2
 -5  SZZ         1    4    3    3
 -5  SXY         1    4    1    2
 -5  SYZ         1    4    2    3
 -5  SZX         1    4    3    1
 -1         1 7.80274E+01 1.11732E+00 5.13327E+00 1.24800E-02-7.26433E-14-3.85348E-13
 -1         2-7.34668E-01-2.65366E+01-3.45873E+00 3.11708E-01 7.62779E-13 1.05780E-13
 -1         3 1.99999E+01 5.67149E-05-8.80610E-05 5.58020E-05-3.10188E-13-2.94090E-13
 -1         4 1.99999E+01 7.92170E-05-8.00775E-05-8.58267E-05 3.51403E-13-3.96259E-13
 -1         5 3.28371E+01 6.16486E+00 2.68592E+00 6.18033E+00-4.88498E-14 3.36417E-12
 -1         6 3.55069E+01 1.21300E+01 4.92613E+00-8.45986E+00-1.85740E-13 2.85227E-12
 -1         7 2.14136E+01 6.25587E+00-6.30363E-02-4.41596E+00-2.80748E-14 4.58394E-13
 -1         8 2.01832E+01 6.07852E+00 7.93164E-02-2.81716E+00-3.45973E-14-2.63668E-13
 -1         9 1.94379E+01 5.85646E+00 5.58670E-02-2.01293E+00-2.64337E-14-6.56818E-13
 -1        10 1.89270E+01 5.69849E+00 4.05812E-02-1.47307E+00-1.91895E-14-8.46796E-13
 -1        11 1.85565E+01 5.58461E+00 2.85831E-02-1.08627E+00-1.23426E-14-9.24688E-13
 -1        12 1.83135E+01 5.51004E+00 2.16378E-02-7.96063E-01-2.63851E-15-9.59670E-13
 -1        13 1.81863E+01 5.47117E+00 2.01574E-02-5.44722E-01-2.68665E-15-9.56144E-13
 -1        14 1.81685E+01 5.46557E+00 2.34632E-02-2.97179E-01 4.48198E-15-9.38673E-13
 -1        15 1.82397E+01 5.48705E+00 2.98974E-02-2.34404E-02 8.95161E-15-9.05683E-13
 -1        16 1.83762E+01 5.52861E+00 3.77414E-02 2.96121E-01 1.34441E-14-8.54443E-13
 -1        17 1.85587E+01 5.58441E+00 4.56168E-02 6.73374E-01 1.78286E-14-7.78794E-13
 -1        18 1.87742E+01 5.65144E+00 5.24284E-02 1.10829E+00 2.25566E-14-6.62219E-13
 -1        19 1.90411E+01 5.73545E+00 5.74454E-02 1.62835E+00 3.30101E-14-4.86588E-13
 -1        20 1.94046E+01 5.85153E+00 5.91676E-02 2.25427E+00 4.06793E-14-2.01205E-13
 -1        21 2.00118E+01 6.04859E+00 6.18383E-02 3.06386E+00 4.55122E-14 3.12281E-13
 -1        22 2.15458E+01 6.47194E+00 1.57464E-01 4.37072E+00 5.64826E-15 1.28262E-12
 -1        23 2.35509E+01-1.41823E+00-9.59286E-01-6.22924E-01-1.27561E-13 2.19991E-12
 -1        24 2.04379E+01-1.04107E-01-3.06598E-01 7.45285E-02-3.68395E-14 1.62972E-12
 -1        25 2.02799E+01-6.54685E-02-7.68261E-02 6.70118E-02-3.07397E-14 1.05266E-12
 -1        26 2.07401E+01-3.69240E-02-2.74325E-02 4.45647E-02 1.11976E-15 6.65187E-13
 -1        27 2.16684E+01-3.20800E-02-3.21907E-02 4.49770E-02 3.39138E-16 4.40599E-13
 -1        28 2.30708E+01-3.05691E-02-4.53148E-02 5.70194E-02-1.35744E-14 2.61641E-13
 -1        29 2.50022E+01-2.68305E-02-5.37517E-02 8.13513E-02 7.01154E-15 1.87881E-13
 -1        30 2.74802E+01-1.32473E-02-3.91004E-02 1.15956E-01 6.45577E-15 1.30299E-13
 -1        31 3.03215E+01 1.94800E-02 3.37889E-02 1.44289E-01 5.96745E-15 6.40182E-14
 -1        32 3.28457E+01 7.25677E-02 1.95512E-01 1.12028E-01-1.57587E-14 9.81611E-14
 -1        33 3.35688E+01 1.16050E-01 3.80206E-01-8.19662E-02 5.51408E-14 2.68119E-13
 -1        34 3.05803E+01 8.72130E-02 3.22843E-01-4.79469E-01-2.68448E-14 4.92634E-13
 -1        35 2.37977E+01-1.19509E-02-2.53996E-01-7.60544E-01 4.08343E-14 2.84300E-13
 -1        36 1.77340E+01-1.69848E-01-9.69879E-01-4.78891E-01-4.76737E-14-1.88682E-13
 -1        37 1.71807E+01-1.56062E-01-1.04025E+00 3.75038E-01-6.38170E-14-1.07715E-12
 -1        38 2.31395E+01-5.10963E-02-3.57320E-01 7.79054E-01 1.26075E-14-1.77064E-12
 -1        39 3.04313E+01 7.75151E-02 2.89734E-01 5.31980E-01 2.61440E-14-1.94786E-12
 -1        40 3.40442E+01 1.19974E-01 3.99020E-01 1.18669E-01 7.74936E-14-1.61900E-12
 -1        41 3.37489E+01 7.89482E-02 2.16195E-01-9.94895E-02 1.24714E-14-1.38305E-12
 -1        42 3.14417E+01 2.44227E-02 4.34141E-02-1.41651E-01-3.32731E-14-1.33656E-12
 -1        43 2.87119E+01-9.91787E-03-3.77009E-02-1.13220E-01 5.69909E-14-9.41192E-13
 -1        44 2.63071E+01-2.47705E-02-5.69260E-02-7.58884E-02 3.26301E-15-6.64770E-13
 -1        45 2.43713E+01-2.34587E-02-4.75638E-02-4.33559E-02-1.87573E-14-5.33839E-13
 -1        46 2.30312E+01-2.12832E-02-3.53986E-02-2.47422E-02 1.92888E-14-4.03146E-13
 -1        47 2.20812E+01-1.66262E-02-2.44037E-02-1.36330E-02-8.60068E-14-5.70787E-13
 -1        48 2.14171E+01-1.24383E-02-1.64232E-02-7.23051E-03 1.59137E-14-1.01680E-12
 -1        49 2.09560E+01-9.08634E-03-1.09896E-02-3.64164E-03-5.69945E-14-1.11975E-12
 -1        50 2.06370E+01-6.55979E-03-7.37570E-03-1.65910E-03 9.31091E-15-1.10025E-12
 -1        51 2.04168E+01-4.71110E-03-4.98127E-03-5.80197E-04-7.25890E-15-9.33977E-13
 -1        52 2.02654E+01-3.37694E-03-3.38613E-03-7.04760E-06 3.44434E-14-5.48121E-13
 -1        53 2.01621E+01-2.41878E-03-2.31300E-03 2.83223E-04-5.97674E-14-1.06070E-12
 -1        54 2.00923E+01-1.73056E-03-1.58278E-03 4.15218E-04 1.39651E-13-1.33562E-12
 -1        55 2.00459E+01-1.23496E-03-1.08040E-03 4.58924E-04-5.44819E-14-7.75163E-13
 -1        56 2.00160E+01-8.77073E-04-7.31695E-04 4.53911E-04-1.51919E-13-8.56540E-13
 -1        57 1.99974E+01-6.14254E-04-4.87888E-04 4.24211E-04-1.89068E-14-1.20084E-12
 -1        58 1.99866E+01-4.42170E-04-3.23141E-04 3.58478E-04-3.78211E-14-8.66877E-13
 -1        59 1.99810E+01-2.83926E-04-1.92734E-04 3.36045E-04-3.04158E-14-8.38552E-13
 -1        60 1.99791E+01-1.93211E-04-1.14454E-04 2.82093E-04-2.71698E-14-6.26409E-13
 -1        61 1.99794E+01-1.24825E-04-6.03978E-05 2.37770E-04 1.26810E-14-1.18041E-12
 -1        62 1.99810E+01-7.67786E-05-2.47049E-05 1.97744E-04-1.01560E-13-1.17144E-12
 -1        63 1.99834E+01-4.35032E-05-2.17427E-06 1.62966E-04 1.88640E-14-8.34948E-13
 -1        64 1.99861E+01-2.08286E-05 1.12340E-05 1.33699E-04 1.09619E-13-6.95890E-13
 -1        65 1.99888E+01-5.52048E-06 1.86800E-05 1.09826E-04-7.07734E-14-2.64133E-13
 -1        66 1.99914E+01 4.99768E-06 2.28440E-05 9.09113E-05-9.04103E-14-5.88754E-13
 -1        67 1.99939E+01 1.28445E-05 2.64085E-05 7.60923E-05 5.34008E-14-8.95019E-13
 -1        68 1.99960E+01 1.97406E-05 3.25908E-05 6.36414E-05 1.31005E-13-5.36612E-13
 -1        69 1.99979E+01 2.66847E-05 4.47383E-05 4.97836E-05 1.16212E-14 2.68879E-13
 -1        70 1.99992E+01 3.49761E-05 5.99419E-05 2.76105E-05-2.02504E-13-1.40929E-13
 -1        71 1.99998E+01 1.18775E-05 2.61254E-05-3.98115E-05-4.28157E-15-1.08246E-12
 -1        72 2.14182E+01-4.06556E-01-9.89193E-01-3.32137E-01 4.57273E-14 3.12088E-12
 -1        73 1.99661E+01-6.46017E-02-2.84913E-01-6.16607E-02 3.77337E-14 2.46617E-12
 -1        74 1.95051E+01-1.87638E-02-5.81412E-02-2.69534E-02 7.43795E-15 1.97128E-12
 -1        75 1.94319E+01-7.09402E-03-3.40161E-03-2.18976E-02-5.72941E-15 1.71740E-12
 -1        76 1.95069E+01-7.14295E-04 8.37500E-03-1.86806E-02 2.02911E-14 1.48762E-12
 -1        77 1.95916E+01 3.40584E-03 1.29026E-02-1.55531E-02-9.50650E-15 1.29463E-12
 -1        78 1.95912E+01 5.93503E-03 1.68878E-02-1.12846E-02 8.58905E-16 1.14051E-12
 -1        79 1.94353E+01 6.77795E-03 1.97166E-02-4.77580E-03 1.10377E-14 9.83721E-13
 -1        80 1.90815E+01 5.56182E-03 1.93935E-02 4.33678E-03-9.67656E-15 8.49228E-13
 -1        81 1.85293E+01 2.11524E-03 1.40744E-02 1.51775E-02 2.69382E-14 7.48335E-13
 -1        82 1.78343E+01-3.08912E-03 3.17416E-03 2.53343E-02-2.19934E-14 5.92925E-13
 -1        83 1.71119E+01-8.73670E-03-1.15832E-02 3.12958E-02 2.37497E-14 5.28504E-13
 -1        84 1.65177E+01-1.29863E-02-2.60148E-02 2.99209E-02-2.07111E-14 4.38678E-13
 -1        85 1.62038E+01-1.42586E-02-3.49409E-02 2.03476E-02 2.07687E-14 3.92983E-13
 -1        86 1.62648E+01-1.20661E-02-3.47950E-02 5.02802E-03 3.23999E-14 4.70691E-14
 -1        87 1.67016E+01-7.26588E-03-2.57104E-02-1.11700E-02-6.60875E-14 1.24988E-13
 -1        88 1.74209E+01-1.55136E-03-1.14318E-02-2.33903E-02-1.10295E-14 2.60614E-13
 -1        89 1.82739E+01 3.39876E-03 2.89333E-03-2.89872E-02 3.54964E-14 1.45484E-13
 -1        90 1.91083E+01 6.56620E-03 1.32493E-02-2.81429E-02-5.63041E-14 7.82516E-14
 -1        91 1.98108E+01 7.75519E-03 1.81123E-02-2.29640E-02-2.73388E-14 3.16247E-13
 -1        92 2.03242E+01 7.36123E-03 1.81499E-02-1.60336E-02 4.71644E-14 1.48927E-13
 -1        93 2.06421E+01 6.02089E-03 1.51433E-02-9.37293E-03-2.49643E-14-7.82759E-14
 -1        94 2.07919E+01 4.32906E-03 1.09149E-02-4.08165E-03 4.69794E-14-3.61821E-13
 -1        95 2.08161E+01 2.70451E-03 6.77424E-03-4.69561E-04-1.47324E-14-3.69629E-13
 -1        96 2.07585E+01 1.37066E-03 3.40754E-03 1.63377E-03 4.00551E-14 6.57829E-15
 -1        97 2.06563E+01 3.99117E-04 1.01725E-03 2.59785E-03 1.36106E-14-1.26886E-13
 -1        98 2.05369E+01-2.31501E-04-4.76160E-04 2.81042E-03-6.11376E-14-1.85267E-13
 -1        99 2.04187E+01-5.85985E-04-1.27014E-03 2.59168E-03 2.41648E-14-5.20004E-13
 -1       100 2.03122E+01-7.39774E-04-1.57920E-03 2.17077E-03-6.19798E-14-6.58638E-13
 -1       101 2.02222E+01-7.61270E-04-1.58650E-03 1.69396E-03 2.61069E-14-5.86345E-13
 -1       102 2.01501E+01-7.04730E-04-1.42892E-03 1.24397E-03-9.05693E-15-6.63609E-13
 -1       103 2.00946E+01-6.09279E-04-1.19922E-03 8.60073E-04-6.54262E-14-4.08241E-13
 -1       104 2.00537E+01-5.00873E-04-9.54813E-04 5.54532E-04 1.03490E-14-4.53925E-13
 -1       105 2.00249E+01-3.95254E-04-7.27625E-04 3.24498E-04 2.60925E-14-2.80702E-13
 -1       106 2.00054E+01-3.00860E-04-5.32618E-04 1.59882E-04 1.31413E-15-5.88744E-13
 -1       107 1.99932E+01-2.21275E-04-3.74312E-04 4.81317E-05 6.46343E-14-8.27966E-13
 -1       108 1.99862E+01-1.57078E-04-2.51339E-04-2.31092E-05-6.72348E-14-7.97176E-13
 -1       109 1.99829E+01-1.07161E-04-1.59431E-04-6.47240E-05 3.01728E-15-3.85794E-13
 -1       110 1.99821E+01-6.95960E-05-9.32527E-05-8.56636E-05 5.53280E-14-1.50607E-13
 -1       111 1.99829E+01-4.21777E-05-4.74387E-05-9.29438E-05-6.57688E-15-2.61043E-13
 -1       112 1.99847E+01-2.27314E-05-1.71075E-05-9.18633E-05 1.72542E-14-3.38968E-14
 -1       113 1.99869E+01-9.26502E-06 1.94991E-06-8.63043E-05 1.25929E-14-8.85695E-14
 -1       114 1.99894E+01-2.13835E-08 1.33015E-05-7.90348E-05-1.80564E-14-6.75623E-13
 -1       115 1.99918E+01 6.52522E-06 2.00938E-05-7.19547E-05-2.11319E-14-8.83279E-13
 -1       116 1.99942E+01 1.16683E-05 2.54777E-05-6.62034E-05 2.14366E-14-6.38698E-13
 -1       117 1.99963E+01 1.64729E-05 3.31729E-05-6.19781E-05-9.11292E-14-7.64766E-13
 -1       118 1.99980E+01 2.10244E-05 4.68105E-05-5.76282E-05 8.59810E-14-5.80934E-13
 -1       119 1.99993E+01 2.27865E-05 5.99603E-05-4.39831E-05-3.19740E-15-8.47814E-13
 -1       120 1.99998E+01-1.99036E-05 1.43046E-05 4.99319E-06 1.82040E-13-6.84799E-13
 -1       121 1.99998E+01-1.67971E-06 1.36919E-05 1.90675E-05-7.48548E-13-3.43161E-14
 -1       122 1.99998E+01-5.74329E-04 5.17107E-05-2.84299E-05-1.23984E-12-9.29081E-14
 -1       123 1.99998E+01-1.75438E-03 2.76963E-05-5.37148E-05-1.24543E-12 6.48792E-14
 -1       124 1.99998E+01-3.19564E-03 2.85831E-07-5.58636E-05-9.08987E-13 2.35691E-13
 -1       125 1.99998E+01-4.63006E-03-1.83053E-05-4.92462E-05 3.92945E-13-1.79345E-13
 -1       126 1.99998E+01-5.84797E-03-3.05553E-05-3.83375E-05 2.13335E-13-1.80275E-13
 -1       127 1.99998E+01-6.75169E-03-3.78522E-05-2.41183E-05-4.25890E-13 3.02069E-14
 -1       128 1.99998E+01-7.23104E-03-4.15271E-05-8.47163E-06-1.08922E-12 1.71050E-13
 -1       129 1.99998E+01-7.24143E-03-4.18724E-05 7.71851E-06 1.88609E-13 1.14303E-13
 -1       130 1.99998E+01-6.77926E-03-3.87945E-05 2.36652E-05 1.23793E-12-6.84828E-14
 -1       131 1.99998E+01-5.88352E-03-3.14942E-05 3.88830E-05 3.44249E-13-3.75271E-13
 -1       132 1.99998E+01-4.66177E-03-1.93411E-05 5.01378E-05 2.04003E-13 3.81605E-13
 -1       133 1.99998E+01-3.21204E-03 1.60688E-07 5.69933E-05 1.31694E-12 8.42677E-14
 -1       134 1.99998E+01-1.75441E-03 2.86075E-05 5.49553E-05 1.68226E-12-3.36565E-13
 -1       135 1.99998E+01-5.63376E-04 5.11697E-05 2.13187E-05 5.74747E-13 1.01217E-13
 -1       136 1.99998E+01 5.71047E-05 2.74293E-05-4.88508E-05 1.08454E-12 1.05138E-13
 -1       137-1.40313E+00-2.02235E+01-3.00718E+00-3.71813E+00 2.41279E-12 5.59677E-13
 -1       138-9.11082E-01-6.62758E+00-2.01873E+00-1.89397E+00 2.96485E-12 1.31908E-12
 -1       139 4.32429E+00 5.52753E+00-7.88723E-01 5.06294E+00 2.74208E-12 2.16061E-12
 -1       140 1.71402E+01 1.15999E+01 5.61921E-01 1.38970E+01 2.33719E-12 2.58965E-12
 -1       141 3.57738E+01 1.10172E+01 1.86268E+00 1.92946E+01 1.48459E-12 2.72848E-12
 -1       142 5.57565E+01 5.70380E+00 2.94905E+00 1.66728E+01 5.28064E-13 1.42869E-12
 -1       143 6.77752E+01 1.18036E+00 3.50804E+00 5.39859E+00 2.04767E-14-3.10155E-13
 -1       144 6.61151E+01 1.84750E+00 3.43681E+00-8.36870E+00 3.15520E-13-1.87259E-12
 -1       145 5.15674E+01 7.05919E+00 2.75431E+00-1.78624E+01 1.27769E-12-3.25628E-12
 -1       146 2.98141E+01 1.15962E+01 1.50600E+00-1.80922E+01 2.50638E-12-3.87196E-12
 -1       147 1.15587E+01 1.01864E+01 4.49680E-02-1.08033E+01 3.31524E-12-3.22853E-12
 -1       148 1.04403E+00 8.44904E-01-1.38170E+00-1.41038E+00 3.48560E-12-2.20263E-12
 -1       149-1.64573E+00-1.19607E+01-2.47302E+00 3.75003E+00 2.79665E-12-1.10451E-12
 -1       150-1.07929E+00-2.32682E+01-3.26405E+00 2.91321E+00 1.21478E-12-2.07508E-13
 -1       151-1.02715E+00-2.66246E+01-3.55934E+00-1.84695E+00-7.26700E-13-1.61239E-13
 -1       152-2.12822E+00-2.05812E+01-3.34214E+00-5.27085E+00-2.53797E-12-7.63431E-13
 -1       153-2.21013E+00-8.69508E+00-2.65676E+00-3.77578E+00-3.47883E-12-1.90040E-12
 -1       154 4.06659E+00 3.64264E+00-1.42689E+00 4.20269E+00-3.66118E-12-3.07404E-12
 -1       155 2.08913E+01 1.03414E+01 3.65644E-01 1.46983E+01-2.95730E-12-3.90454E-12
 -1       156 4.70482E+01 8.93892E+00 2.64954E+00 1.97145E+01-1.63483E-12-3.73512E-12
 -1       157 6.87229E+01 3.83176E+00 4.39380E+00 1.39531E+01-6.79026E-13-2.44793E-12
 -1       158 6.73875E+01 4.09256E+00 4.26011E+00-1.45567E+01-4.78263E-13 1.71274E-12
 -1       159 4.17957E+01 9.32799E+00 2.17857E+00-1.90820E+01-1.83381E-12 3.59301E-12
 -1       160 1.71112E+01 9.60324E+00-1.19167E-02-1.28419E+01-3.02547E-12 3.77187E-12
 -1       161 1.96753E+00 1.53195E+00-1.74273E+00-2.18896E+00-3.16047E-12 2.55290E-12
 -1       162-2.73130E+00-1.19242E+01-2.88294E+00 4.97563E+00-2.35367E-12 1.08377E-12
 -1       163-1.81362E+00-2.31676E+01-3.42866E+00 4.93844E+00-1.28822E-12 3.62786E-13
 -1       164 2.16872E+01 3.67448E+00-5.01351E-02-3.14831E+00-4.37910E-13 7.76081E-14
 -1       165 2.04456E+01 4.27861E+00-4.10766E-02-2.29305E+00-3.89725E-13-3.54338E-13
 -1       166 1.96366E+01 4.61804E+00-2.90833E-02-1.69345E+00-3.05320E-13-6.07708E-13
 -1       167 1.90705E+01 4.79682E+00-2.13351E-02-1.26250E+00-2.17356E-13-7.39941E-13
 -1       168 1.86871E+01 4.88869E+00-1.68155E-02-9.44873E-01-1.42200E-13-7.88816E-13
 -1       169 1.84625E+01 4.92131E+00-1.46208E-02-6.82818E-01-6.62611E-14-8.10659E-13
 -1       170 1.83897E+01 4.91070E+00-1.37405E-02-4.38303E-01 1.02287E-14-8.01817E-13
 -1       171 1.84427E+01 4.87224E+00-1.38232E-02-1.77583E-01 7.78947E-14-7.73178E-13
 -1       172 1.85896E+01 4.81823E+00-1.47112E-02 1.21981E-01 1.43779E-13-7.37221E-13
 -1       173 1.88012E+01 4.75555E+00-1.64110E-02 4.73465E-01 2.05267E-13-6.82536E-13
 -1       174 1.90553E+01 4.68494E+00-1.92116E-02 8.76667E-01 2.69527E-13-5.86460E-13
 -1       175 1.93638E+01 4.59296E+00-2.39801E-02 1.35253E+00 3.51211E-13-4.48344E-13
 -1       176 1.97623E+01 4.44993E+00-3.27014E-02 1.90873E+00 4.15381E-13-2.48844E-13
 -1       177 2.03704E+01 4.17600E+00-4.65012E-02 2.57280E+00 4.51254E-13 1.04361E-13
 -1       178 2.15607E+01 3.44712E+00-5.83958E-02 3.31399E+00 4.22509E-13 7.13790E-13
 -1       179 2.28520E+01 1.11725E+00-3.34968E-01 2.85141E+00 3.05779E-13 1.48657E-12
 -1       180 2.27920E+01 8.40576E-01 3.54507E-03-1.59431E+00-3.80824E-13 6.24292E-13
 -1       181 2.16028E+01 2.13716E-01-6.53708E-03-3.50192E-01-3.27524E-13 4.33500E-13
 -1       182 2.12718E+01 1.60066E-01 1.72400E-02 2.36392E-01-2.32921E-13 2.93924E-13
 -1       183 2.15122E+01 1.38619E-01 1.37578E-02 6.42196E-01-1.70090E-13 1.22749E-13
 -1       184 2.21511E+01 1.48338E-01 8.57348E-03 1.01729E+00-1.17694E-13 2.22353E-14
 -1       185 2.31419E+01 1.63378E-01 3.96785E-03 1.40968E+00-2.78809E-14 2.47415E-15
 -1       186 2.44565E+01 1.51712E-01-1.18817E-03 1.79694E+00-5.97786E-15 2.32652E-14
 -1       187 2.60344E+01 5.14901E-02-5.61844E-03 2.05022E+00-1.47259E-14 3.48185E-14
 -1       188 2.77240E+01-2.34847E-01-3.90893E-03 1.86805E+00 3.96263E-14 1.55398E-13
 -1       189 2.92301E+01-7.69251E-01 5.50858E-03 7.78805E-01 1.20383E-13 3.08194E-13
 -1       190 3.00336E+01-1.26785E+00-4.71469E-03-1.46914E+00 1.22909E-13 3.41149E-13
 -1       191 2.96038E+01-8.21880E-01-6.65887E-02-3.90511E+00-1.55070E-13 4.16533E-13
 -1       192 2.81740E+01 8.54217E-01-1.83646E-01-3.96561E+00-3.65902E-13 1.39059E-13
 -1       193 2.70948E+01 2.29220E+00-2.42263E-01-3.18273E-01-6.68854E-13-3.54520E-13
 -1       194 2.79315E+01 1.26690E+00-1.96486E-01 3.64325E+00-5.36279E-13-7.83453E-13
 -1       195 2.96634E+01-7.03329E-01-8.47745E-02 4.18950E+00-7.48637E-14-1.10425E-12
 -1       196 3.03912E+01-1.30025E+00-5.90661E-04 1.85864E+00 1.55185E-13-1.11034E-12
 -1       197 2.97813E+01-8.37740E-01 6.97353E-03-5.08659E-01 1.28061E-13-1.13208E-12
 -1       198 2.84059E+01-2.78608E-01-3.78845E-03-1.71933E+00 9.71679E-14-9.59916E-13
 -1       199 2.67903E+01 3.60746E-02-6.45280E-03-1.96751E+00 2.60464E-13-6.93471E-13
 -1       200 2.52496E+01 1.48283E-01-2.84947E-03-1.74242E+00 8.88562E-14-5.26214E-13
 -1       201 2.38792E+01 1.57682E-01 1.39773E-03-1.35921E+00 8.24562E-14-6.01767E-13
 -1       202 2.28489E+01 1.30664E-01 3.49081E-03-1.01106E+00 5.28826E-14-5.80461E-13
 -1       203 2.20599E+01 9.87473E-02 3.95328E-03-7.30496E-01-1.73187E-13-7.55723E-13
 -1       204 2.14726E+01 7.13485E-02 3.55385E-03-5.19680E-01-1.25776E-13-8.40583E-13
 -1       205 2.10423E+01 5.04743E-02 2.86635E-03-3.66720E-01-1.78461E-13-7.45697E-13
 -1       206 2.07302E+01 3.54036E-02 2.18636E-03-2.57612E-01-1.89023E-14-7.84381E-13
 -1       207 2.05055E+01 2.47847E-02 1.61952E-03-1.80331E-01 2.48850E-14-5.94970E-13
 -1       208 2.03446E+01 1.73710E-02 1.18176E-03-1.25694E-01 1.04015E-13-8.81935E-13
 -1       209 2.02301E+01 1.21988E-02 8.55953E-04-8.70454E-02-1.16152E-13-7.47312E-13
 -1       210 2.01493E+01 8.57660E-03 6.17671E-04-5.96829E-02-8.07013E-14-5.39433E-13
 -1       211 2.00929E+01 6.02472E-03 4.44644E-04-4.03144E-02 5.72748E-14-7.49112E-13
 -1       212 2.00541E+01 4.21588E-03 3.19222E-04-2.66359E-02-6.81339E-14-1.01330E-12
 -1       213 2.00279E+01 2.92739E-03 2.27721E-04-1.70257E-02-1.85619E-13-9.31752E-13
 -1       214 2.00107E+01 2.01090E-03 1.60685E-04-1.03418E-02 2.04739E-13-7.94642E-13
 -1       215 1.99995E+01 1.32795E-03 1.14810E-04-5.56441E-03 1.29048E-13-5.45059E-13
 -1       216 1.99933E+01 8.65515E-04 7.72109E-05-2.52743E-03 5.70294E-16-6.18785E-13
 -1       217 1.99901E+01 5.43519E-04 5.27751E-05-5.52581E-04-2.29866E-13-7.40571E-13
 -1       218 1.99890E+01 3.19954E-04 3.49351E-05 6.84947E-04-1.41760E-13-7.35372E-13
 -1       219 1.99891E+01 1.68195E-04 2.22374E-05 1.40920E-03 1.15535E-13-6.22114E-13
 -1       220 1.99900E+01 6.77224E-05 1.32559E-05 1.78450E-03 8.32668E-14-6.11027E-13
 -1       221 1.99913E+01 2.96166E-06 6.92292E-06 1.92777E-03 2.25815E-13-5.59879E-13
 -1       222 1.99929E+01-3.83729E-05 2.42123E-06 1.91925E-03-3.24922E-13-6.23553E-13
 -1       223 1.99944E+01-6.65296E-05-8.41727E-07 1.80964E-03-2.39847E-13-5.67358E-13
 -1       224 1.99960E+01-9.08789E-05-3.16607E-06 1.62457E-03 7.50991E-14-9.20506E-13
 -1       225 1.99973E+01-1.20675E-04-4.35891E-06 1.36710E-03 4.52297E-13-1.04255E-12
 -1       226 1.99984E+01-1.63606E-04-3.94323E-06 1.02154E-03-2.76872E-13-6.54429E-13
 -1       227 1.99992E+01-2.17940E-04-4.08348E-06 5.78079E-04-2.38038E-13-1.13704E-13
 -1       228 1.99996E+01-2.15025E-04 5.13145E-06 2.24405E-04 8.05935E-14 1.03538E-13
 -1       229 2.15136E+01 2.66049E-01-4.94299E-02 1.02779E+00 3.17819E-13 1.29754E-12
 -1       230 2.05485E+01 1.20188E-01 1.02044E-02 3.40456E-01 2.32886E-13 1.07847E-12
 -1       231 2.01399E+01 4.36566E-02 1.28597E-02 7.76145E-02 1.45025E-13 8.83705E-13
 -1       232 1.99797E+01 4.74722E-03 6.72709E-03-1.57507E-02 1.41942E-13 7.26477E-13
 -1       233 1.99134E+01-1.57872E-02 3.00173E-03-1.50389E-02 1.04391E-13 6.22204E-13
 -1       234 1.98422E+01-3.09399E-02 1.31338E-03 4.77161E-02 8.96088E-14 5.22205E-13
 -1       235 1.96992E+01-4.08228E-02 7.18851E-04 1.53054E-01 7.87220E-14 4.49730E-13
 -1       236 1.94448E+01-4.26472E-02 5.63689E-04 2.78542E-01 6.36847E-14 3.94289E-13
 -1       237 1.90715E+01-3.30401E-02 4.88116E-04 3.93084E-01 7.02541E-14 3.60543E-13
 -1       238 1.86105E+01-1.05714E-02 2.96312E-04 4.58792E-01 6.77024E-14 3.36957E-13
 -1       239 1.81323E+01 2.16105E-02-3.27544E-05 4.40681E-01 5.61595E-14 2.47349E-13
 -1       240 1.77345E+01 5.48267E-02-3.21762E-04 3.21964E-01 7.14645E-14 1.67636E-13
 -1       241 1.75151E+01 7.74619E-02-3.18103E-04 1.16991E-01 4.04702E-14 9.29265E-14
 -1       242 1.75386E+01 8.05443E-02 9.29740E-05-1.28152E-01 8.40578E-14 1.32792E-13
 -1       243 1.78109E+01 6.29642E-02 7.41935E-04-3.51543E-01-4.58670E-14 1.25966E-13
 -1       244 1.82777E+01 3.21180E-02 1.26026E-03-5.00595E-01-4.21635E-15 4.26117E-14
 -1       245 1.88455E+01-6.15882E-04 1.35275E-03-5.51395E-01 3.08513E-14 8.55501E-14
 -1       246 1.94148E+01-2.57281E-02 9.73028E-04-5.12184E-01 9.49653E-15 1.06197E-13
 -1       247 1.99073E+01-3.89748E-02 3.25222E-04-4.12594E-01-5.13179E-14 4.48736E-14
 -1       248 2.02791E+01-4.11666E-02-3.24505E-04-2.87884E-01 5.66138E-14-1.16849E-13
 -1       249 2.05195E+01-3.58689E-02-7.76716E-04-1.66922E-01 4.62846E-15-1.15165E-13
 -1       250 2.06416E+01-2.70730E-02-9.69698E-04-6.71380E-02 1.81849E-13-1.37010E-13
 -1       251 2.06710E+01-1.78309E-02-9.39960E-04 4.86050E-03-4.12767E-15-8.21374E-14
 -1       252 2.06364E+01-9.89967E-03-7.70738E-04 4.99996E-02-1.31453E-13-1.01851E-13
 -1       253 2.05639E+01-3.95790E-03-5.46153E-04 7.31413E-02 8.03532E-14 7.53203E-14
 -1       254 2.04740E+01-4.72600E-07-3.26990E-04 8.03560E-02 7.39956E-14 9.21639E-14
 -1       255 2.03811E+01 2.31022E-03-1.46353E-04 7.73058E-02 1.82242E-13-4.55298E-14
 -1       256 2.02945E+01 3.40901E-03-1.54726E-05 6.85253E-02-8.41835E-14-1.30611E-13
 -1       257 2.02188E+01 3.70119E-03 6.80538E-05 5.72710E-02-6.61736E-15-1.62281E-13
 -1       258 2.01561E+01 3.51083E-03 1.13092E-04 4.56627E-02-4.59672E-14 1.24485E-14
 -1       259 2.01062E+01 3.07184E-03 1.30197E-04 3.49342E-02-4.37076E-14 3.55077E-14
 -1       260 2.00680E+01 2.53930E-03 1.29017E-04 2.56896E-02 9.42056E-14-9.52321E-14
 -1       261 2.00398E+01 2.00729E-03 1.17234E-04 1.81220E-02-4.20714E-14-1.79685E-13
 -1       262 2.00198E+01 1.52669E-03 1.00395E-04 1.21792E-02 3.94390E-14-4.04345E-13
 -1       263 2.00062E+01 1.11980E-03 8.21704E-05 7.68006E-03 1.61499E-13-3.01982E-13
 -1       264 1.99975E+01 7.91456E-04 6.47717E-05 4.39112E-03-1.38833E-13-3.57657E-13
 -1       265 1.99924E+01 5.36699E-04 4.93605E-05 2.07254E-03-1.72695E-13-3.19317E-13
 -1       266 1.99899E+01 3.45858E-04 3.63986E-05 5.03634E-04-1.24694E-14-4.21459E-13
 -1       267 1.99891E+01 2.07652E-04 2.59123E-05-5.05173E-04 2.96393E-14-2.83329E-13
 -1       268 1.99894E+01 1.10945E-04 1.76816E-05-1.10878E-03 8.71526E-15-9.01698E-14
 -1       269 1.99905E+01 4.55897E-05 1.13665E-05-1.42836E-03 1.74377E-13-2.51838E-13
 -1       270 1.99919E+01 2.69883E-06 6.59172E-06-1.55443E-03 2.02020E-13-4.25167E-13
 -1       271 1.99935E+01-2.54892E-05 3.02837E-06-1.55055E-03 8.90107E-14-2.78292E-13
 -1       272 1.99951E+01-4.60156E-05 5.31986E-07-1.45634E-03 2.52381E-14-4.23631E-13
 -1       273 1.99966E+01-6.57847E-05-6.20957E-07-1.28966E-03-8.32670E-14-3.64700E-13
 -1       274 1.99979E+01-9.12894E-05 3.97919E-07-1.04811E-03 3.52313E-14-5.44063E-13
 -1       275 1.99988E+01-1.33022E-04 1.73750E-06-7.10941E-04 8.55703E-14-5.72943E-13
 -1       276 1.99995E+01-1.62436E-04-2.32018E-06-2.90330E-04-1.30743E-13-4.83619E-13
 -1       277 1.99996E+01-5.63599E-04-3.32811E-06-5.56549E-04-2.95503E-13-1.54895E-13
 -1       278 1.99997E+01-1.29665E-03-1.58050E-06-9.20195E-04-2.55037E-13-1.44042E-14
 -1       279 1.99998E+01-2.21986E-03-1.05135E-06-1.09891E-03-1.36112E-13 3.32382E-13
 -1       280 1.99998E+01-3.19006E-03 6.34118E-07-1.09394E-03-1.87435E-13 6.65074E-13
 -1       281 1.99999E+01-4.07520E-03 2.63979E-06-9.46633E-04-2.24731E-13 1.98767E-14
 -1       282 1.99999E+01-4.80028E-03 4.27977E-06-6.91652E-04-1.48536E-14-3.42383E-13
 -1       283 1.99999E+01-5.26995E-03 5.35385E-06-3.67504E-04 1.64705E-13-2.23073E-13
 -1       284 1.99999E+01-5.43749E-03 5.73970E-06-8.31946E-06 1.84755E-13 6.20869E-13
 -1       285 1.99999E+01-5.28549E-03 5.40414E-06 3.53541E-04 1.30687E-13 3.32869E-13
 -1       286 1.99999E+01-4.82685E-03 4.33443E-06 6.84956E-04 2.87442E-13-2.39557E-13
 -1       287 1.99999E+01-4.12035E-03 2.61615E-06 9.45737E-04 3.85532E-13-9.32108E-14
 -1       288 1.99998E+01-3.21700E-03 7.39611E-07 1.10428E-03 5.13577E-13 4.44973E-13
 -1       289 1.99998E+01-2.23615E-03-1.07603E-06 1.11214E-03 5.07732E-13 1.57035E-13
 -1       290 1.99997E+01-1.31074E-03-1.94705E-06 9.30396E-04 2.94650E-13-7.51119E-13
 -1       291 1.99996E+01-6.96665E-04 3.39086E-07 6.10029E-04-6.50896E-15-1.56718E-13
 -1       292-8.53308E-01-1.14666E+01-9.65501E-01 2.05519E+00 4.66391E-13 7.87134E-13
 -1       293 4.24618E+00-7.59505E+00-4.95134E-01 5.35744E+00 5.89750E-13 6.57661E-13
 -1       294 1.04658E+01-4.11966E+00-4.28773E-01 6.38360E+00 1.22002E-12 8.91176E-13
 -1       295 2.01257E+01-3.72015E-01-3.06791E-02 7.98815E+00 1.00714E-12 9.38138E-13
 -1       296 3.03493E+01 2.22177E+00 2.56847E-01 7.33984E+00 8.25770E-13 6.09207E-13
 -1       297 3.94771E+01 5.43790E+00 6.49981E-01 6.62599E+00 9.62307E-13 3.10224E-13
 -1       298 4.68987E+01 6.77216E+00 9.95779E-01 3.92921E+00 8.25048E-13-3.69149E-15
 -1       299 4.89848E+01 6.99946E+00 1.06323E+00-4.65770E-01 7.99638E-13-5.38958E-13
 -1       300 4.48895E+01 6.60065E+00 8.34658E-01-4.22384E+00 9.60523E-13-9.52988E-13
 -1       301 3.66668E+01 4.18667E+00 4.28580E-01-5.70396E+00 1.10011E-12-9.27702E-13
 -1       302 2.69016E+01 1.75497E+00 2.11158E-01-8.16346E+00 1.27648E-12-1.55170E-12
 -1       303 1.59379E+01-1.73320E+00-2.11821E-01-7.42217E+00 1.38733E-12-1.41745E-12
 -1       304 7.36173E+00-6.10091E+00-5.86881E-01-5.48852E+00 1.13526E-12-1.21030E-12
 -1       305 1.48883E+00-9.95596E+00-8.79650E-01-3.31511E+00 6.92474E-13-1.04854E-12
 -1       306-1.24954E+00-1.09053E+01-8.47477E-01-1.43866E+00 2.01852E-14-9.98424E-13
 -1       307-3.80015E-01-1.01986E+01-7.79268E-01 1.35726E+00-4.73552E-13-1.06753E-12
 -1       308 3.45441E+00-9.48402E+00-9.29550E-01 2.97372E+00-1.12563E-12-1.21528E-12
 -1       309 1.12146E+01-5.84455E+00-6.61240E-01 5.21572E+00-1.46416E-12-1.44218E-12
 -1       310 2.36761E+01-2.72681E+00-1.80697E-01 6.35968E+00-1.24351E-12-1.33585E-12
 -1       311 3.61293E+01 1.86472E+00 4.60975E-01 6.43875E+00-1.28597E-12-1.50147E-12
 -1       312 4.69376E+01 4.90953E+00 1.11490E+00 4.30942E+00-1.09589E-12-1.14680E-12
 -1       313 5.16996E+01 7.00198E+00 1.42256E+00 1.30884E+00-1.03081E-12-6.68104E-13
 -1       314 5.25801E+01 6.66014E+00 1.49271E+00-1.32780E+00-9.74942E-13-9.04277E-14
 -1       315 4.48265E+01 4.15753E+00 8.66630E-01-3.17042E+00-1.23537E-12 3.73923E-13
 -1       316 3.37155E+01 1.00283E+00 3.25959E-01-6.38661E+00-1.23460E-12 1.23612E-12
 -1       317 2.04719E+01-2.75939E+00-3.12304E-01-6.33221E+00-1.10789E-12 1.50596E-12
 -1       318 9.08379E+00-6.79843E+00-7.64329E-01-4.48269E+00-9.70279E-13 1.30659E-12
 -1       319 1.87047E+00-1.03896E+01-1.00003E+00-2.11554E+00-5.25913E-13 8.27491E-13
 -1       320-1.20324E+00-1.09476E+01-8.63335E-01-1.89387E-01 4.91204E-14 8.58924E-13
 -1       321 2.04192E+01 3.22159E+00-1.68134E-02-1.49673E+00-4.14135E-13-3.37089E-13
 -1       322 2.14083E+01 2.27717E+00-1.49203E-02-1.77586E+00-4.71256E-13-5.97734E-14
 -1       323 1.91052E+01 4.10049E+00-1.23858E-02-9.43162E-01-2.23209E-13-5.85359E-13
 -1       324 1.87563E+01 4.27200E+00-1.03002E-02-7.47293E-01-1.24832E-13-6.33832E-13
 -1       325 1.86053E+01 4.31933E+00-9.31699E-03-5.64986E-01-3.65158E-14-6.22753E-13
 -1       326 1.86230E+01 4.27624E+00-9.27949E-03-3.60504E-01 4.75124E-14-6.08029E-13
 -1       327 1.87684E+01 4.17302E+00-9.96243E-03-1.09641E-01 1.27237E-13-5.89907E-13
 -1       328 1.89999E+01 4.03173E+00-1.12116E-02 1.97830E-01 1.98283E-13-5.56410E-13
 -1       329 1.92816E+01 3.86394E+00-1.30160E-02 5.54151E-01 2.78123E-13-4.78848E-13
 -1       330 1.96122E+01 3.65304E+00-1.56171E-02 9.62969E-01 3.60421E-13-3.51154E-13
 -1       331 2.00044E+01 3.36191E+00-1.94743E-02 1.40242E+00 4.41230E-13-2.06671E-13
 -1       332 2.05164E+01 2.89903E+00-2.38228E-02 1.82813E+00 4.95272E-13 9.46552E-15
 -1       333 2.12066E+01 2.06246E+00-2.97324E-02 2.05993E+00 4.97361E-13 4.18807E-13
 -1       334 2.15933E+01 1.15352E+00-2.38738E-02 1.71061E+00 4.34668E-13 7.78662E-13
 -1       335 2.09674E+01 4.60616E-01 7.50559E-03 7.55060E-01 3.28544E-13 6.46933E-13
 -1       336 2.14121E+01 8.51515E-01 1.51673E-02-2.75073E-01-3.49062E-13-2.21447E-14
 -1       337 2.12580E+01 6.20910E-01 1.08013E-02 5.31578E-01-2.75487E-13-4.98990E-14
 -1       338 2.13370E+01 5.74897E-01 8.45651E-03 1.18057E+00-1.92836E-13-8.06372E-14
 -1       339 2.16095E+01 5.96566E-01 6.50631E-03 1.79427E+00-9.60215E-14-1.13081E-13
 -1       340 2.20526E+01 5.96981E-01 4.36617E-03 2.40642E+00 1.24922E-15-1.04215E-13
 -1       341 2.26823E+01 4.37167E-01 1.19304E-03 2.96416E+00 2.52899E-14-5.70398E-14
 -1       342 2.36080E+01-1.18011E-01-7.00097E-04 3.28047E+00 1.29047E-13 3.33928E-14
 -1       343 2.50942E+01-1.33501E+00 4.63753E-03 2.96675E+00 2.20141E-13 1.46216E-13
 -1       344 2.75864E+01-3.17536E+00-8.93372E-03 1.42452E+00 2.49837E-13 3.12750E-13
 -1       345 3.06802E+01-3.81967E+00-5.95178E-02-1.53372E+00 1.14487E-14 4.06022E-13
 -1       346 3.36304E+01-8.64094E-01-1.18875E-01-3.86327E+00-3.67505E-13 3.09183E-13
 -1       347 3.38681E+01 4.53174E+00-1.55840E-01-2.79352E+00-9.63479E-13 8.02067E-14
 -1       348 3.46689E+01 5.29315E+00-9.20159E-02 2.13024E+00-9.93650E-13-2.40787E-13
 -1       349 3.34480E+01 2.78823E-01-1.49699E-01 4.57623E+00-5.91610E-13-7.57464E-13
 -1       350 3.11864E+01-3.52107E+00-7.79117E-02 2.19448E+00 2.18107E-14-1.07586E-12
 -1       351 2.82411E+01-3.16289E+00-1.00509E-03-8.53440E-01 3.74666E-13-8.39807E-13
 -1       352 2.58424E+01-1.44954E+00 3.93799E-04-2.60605E+00 3.25428E-13-5.22726E-13
 -1       353 2.43051E+01-2.04683E-01-2.07112E-03-3.06400E+00 2.96576E-13-2.02499E-13
 -1       354 2.33086E+01 3.70144E-01 3.26441E-04-2.82788E+00 2.81537E-13-1.34657E-13
 -1       355 2.25617E+01 5.24081E-01 3.31844E-03-2.30699E+00-6.90557E-14-3.39897E-13
 -1       356 2.20053E+01 4.84226E-01 4.66758E-03-1.78728E+00 4.36727E-14-5.10340E-13
 -1       357 2.15502E+01 3.89620E-01 4.58498E-03-1.33832E+00-1.22235E-13-6.63308E-13
 -1       358 2.11812E+01 2.93836E-01 3.86654E-03-9.82212E-01-1.08455E-13-5.71156E-13
 -1       359 2.08871E+01 2.14472E-01 2.99022E-03-7.12297E-01-1.58262E-13-5.19191E-13
 -1       360 2.06569E+01 1.54048E-01 2.20758E-03-5.12728E-01-9.81301E-15-2.39454E-13
 -1       361 2.04797E+01 1.09881E-01 1.59131E-03-3.67102E-01 2.29803E-14-3.03148E-13
 -1       362 2.03451E+01 7.82136E-02 1.13423E-03-2.61522E-01-2.15014E-13-4.88897E-13
 -1       363 2.02442E+01 5.56763E-02 8.04776E-04-1.85194E-01 8.97301E-14-6.05802E-13
 -1       364 2.01694E+01 3.96486E-02 5.70170E-04-1.30089E-01 6.53236E-14-4.87830E-13
 -1       365 2.01147E+01 2.82175E-02 4.03671E-04-9.03573E-02 5.05128E-15-6.10711E-13
 -1       366 2.00752E+01 2.00295E-02 2.85411E-04-6.17806E-02-3.66172E-13-6.83024E-13
 -1       367 2.00470E+01 1.41404E-02 2.00735E-04-4.13149E-02-1.45702E-13-8.98801E-13
 -1       368 2.00274E+01 9.89851E-03 1.38907E-04-2.67602E-02 6.51594E-14-8.90199E-13
 -1       369 2.00135E+01 6.69985E-03 9.73780E-05-1.60980E-02 2.15857E-13-9.72108E-13
 -1       370 2.00049E+01 4.53210E-03 6.45145E-05-9.12458E-03 1.93843E-13-1.05434E-12
 -1       371 1.99995E+01 2.98264E-03 4.32641E-05-4.38799E-03-8.14444E-14-5.20313E-13
 -1       372 1.99964E+01 1.88644E-03 2.78945E-05-1.25806E-03-1.41674E-13-4.16838E-13
 -1       373 1.99948E+01 1.12232E-03 1.71338E-05 7.29770E-04 2.36383E-15-2.98590E-13
 -1       374 1.99943E+01 5.99689E-04 9.69071E-06 1.91771E-03-7.70920E-15-1.27818E-13
 -1       375 1.99944E+01 2.49669E-04 4.60660E-06 2.55495E-03 1.67253E-13-4.43111E-13
 -1       376 1.99950E+01 1.88262E-05 1.14439E-06 2.81898E-03-2.23606E-13-6.26637E-13
 -1       377 1.99958E+01-1.35611E-04-1.26516E-06 2.83103E-03-9.95302E-14-3.95778E-13
 -1       378 1.99966E+01-2.49445E-04-3.05694E-06 2.66716E-03-3.40879E-13-5.62812E-13
 -1       379 1.99975E+01-3.53851E-04-4.70800E-06 2.36732E-03 7.54166E-14-5.44135E-13
 -1       380 1.99983E+01-4.74726E-04-6.86511E-06 1.94764E-03 5.16998E-13-7.85602E-13
 -1       381 1.99990E+01-6.19274E-04-7.44701E-06 1.40740E-03-2.65110E-15-4.11265E-13
 -1       382 2.05097E+01 1.52845E-01 5.55709E-03 1.80864E-01 2.33058E-13 3.73754E-13
 -1       383 2.03605E+01 7.13960E-03 1.71717E-03 5.51911E-02 1.87736E-13 3.45824E-13
 -1       384 2.02736E+01-8.90214E-02-4.89435E-04 7.74557E-02 1.65284E-13 2.89421E-13
 -1       385 2.01945E+01-1.56260E-01-1.57595E-03 2.03431E-01 1.25059E-13 2.38953E-13
 -1       386 2.00771E+01-1.88727E-01-1.86068E-03 3.94624E-01 1.02636E-13 1.73281E-13
 -1       387 1.98916E+01-1.73088E-01-1.45769E-03 6.02010E-01 4.00457E-14 1.27253E-13
 -1       388 1.96309E+01-9.86072E-02-4.41077E-04 7.62124E-01 1.05160E-13 1.57394E-13
 -1       389 1.93178E+01 3.06026E-02 9.69511E-04 8.06099E-01 1.22516E-13 1.61155E-13
 -1       390 1.90081E+01 1.86162E-01 2.39774E-03 6.82624E-01 7.57727E-14 8.89289E-14
 -1       391 1.87783E+01 3.18856E-01 3.47475E-03 3.86566E-01 1.15363E-13 1.52098E-14
 -1       392 1.86987E+01 3.78505E-01 3.92133E-03-2.59650E-02-7.66965E-16 6.88919E-14
 -1       393 1.88020E+01 3.40700E-01 3.63353E-03-4.51639E-01 2.03138E-14 6.25758E-14
 -1       394 1.90659E+01 2.21988E-01 2.67215E-03-7.81957E-01 1.08197E-14 3.32780E-14
 -1       395 1.94250E+01 6.89069E-02 1.26963E-03-9.48481E-01 7.77877E-15-2.25759E-14
 -1       396 1.98004E+01-6.82416E-02-2.27457E-04-9.42646E-01 7.08307E-14-9.35850E-14
 -1       397 2.01279E+01-1.57652E-01-1.41833E-03-8.04969E-01 2.67392E-14-1.29979E-13
 -1       398 2.03722E+01-1.92563E-01-2.10820E-03-5.97127E-01-3.75557E-15-1.55497E-13
 -1       399 2.05247E+01-1.84138E-01-2.26774E-03-3.76372E-01 3.97283E-14-9.36528E-14
 -1       400 2.05953E+01-1.50347E-01-2.04388E-03-1.81861E-01 1.58184E-13-1.55677E-13
 -1       401 2.06023E+01-1.07535E-01-1.60786E-03-3.26243E-02-1.67921E-15 3.88157E-14
 -1       402 2.05657E+01-6.67675E-02-1.11089E-03 6.79129E-02-1.32488E-13 1.80218E-13
 -1       403 2.05031E+01-3.36625E-02-6.56501E-04 1.25628E-01-1.00629E-13 1.88243E-13
 -1       404 2.04286E+01-9.82452E-03-2.95815E-04 1.50352E-01 6.63465E-14 1.81148E-13
 -1       405 2.03520E+01 5.47229E-03-4.09794E-05 1.52340E-01 1.81619E-13 1.29970E-13
 -1       406 2.02798E+01 1.39663E-02 1.18260E-04 1.40431E-01 9.85902E-14 2.26372E-13
 -1       407 2.02157E+01 1.75865E-02 2.02202E-04 1.21378E-01-1.46821E-13 1.93498E-13
 -1       408 2.01612E+01 1.80364E-02 2.32783E-04 9.98704E-02-2.29321E-15 4.13419E-13
 -1       409 2.01166E+01 1.66416E-02 2.29223E-04 7.88602E-02 5.47237E-14 2.16198E-13
 -1       410 2.00813E+01 1.43437E-02 2.06409E-04 5.99910E-02 1.26377E-14 1.59013E-13
 -1       411 2.00542E+01 1.17590E-02 1.74842E-04 4.39964E-02 6.78595E-15 2.46339E-13
 -1       412 2.00339E+01 9.25629E-03 1.41317E-04 3.10272E-02 1.71530E-13 2.19395E-13
 -1       413 2.00193E+01 7.02998E-03 1.09810E-04 2.08946E-02 1.16977E-13 9.72122E-14
 -1       414 2.00091E+01 5.16005E-03 8.23257E-05 1.32395E-02 7.71679E-15 1.54233E-13
 -1       415 2.00023E+01 3.65667E-03 5.95820E-05 7.64154E-03-8.44424E-15 2.15808E-14
 -1       416 1.99981E+01 2.49130E-03 4.15256E-05 3.68536E-03 1.56832E-13-2.84906E-13
 -1       417 1.99956E+01 1.61711E-03 2.76855E-05 9.95741E-04 7.50621E-14-4.47061E-13
 -1       418 1.99945E+01 9.81507E-04 1.74038E-05-7.46344E-04-1.24881E-13-5.99511E-13
 -1       419 1.99943E+01 5.33139E-04 9.97495E-06-1.79970E-03 6.80804E-14-5.64977E-13
 -1       420 1.99946E+01 2.25233E-04 4.71760E-06-2.36549E-03 7.98818E-14-4.26917E-13
 -1       421 1.99953E+01 1.65810E-05 1.00535E-06-2.59275E-03 7.49836E-14-3.38322E-13
 -1       422 1.99961E+01-1.29045E-04-1.70758E-06-2.58478E-03 1.40245E-13-2.72906E-13
 -1       423 1.99970E+01-2.43976E-04-3.79005E-06-2.40509E-03-4.70295E-14-7.95942E-14
 -1       424 1.99979E+01-3.56503E-04-5.75435E-06-2.08485E-03 8.03189E-14-2.98114E-13
 -1       425 1.99986E+01-4.83244E-04-7.94194E-06-1.63674E-03 9.71557E-14-2.32785E-13
 -1       426 1.99992E+01-5.60256E-04-6.14686E-06-1.12520E-03 3.40519E-14-2.26119E-13
 -1       427 1.99998E+01-2.22488E-03-5.83203E-07-1.84759E-03-1.98100E-14 5.41771E-13
 -1       428 1.99996E+01-1.50838E-03-3.46631E-06-1.76729E-03 1.96462E-13 5.70551E-14
 -1       429 2.00000E+01-2.87585E-03 2.12558E-06-1.70372E-03-2.15909E-13 2.95806E-13
 -1       430 2.00002E+01-3.43730E-03 3.87457E-06-1.36241E-03-1.08067E-13 1.24449E-13
 -1       431 2.00003E+01-3.84506E-03 5.02982E-06-8.80593E-04 1.78516E-13-1.08867E-13
 -1       432 2.00004E+01-4.06330E-03 5.68590E-06-3.14183E-04 1.10780E-13 1.10111E-13
 -1       433 2.00004E+01-4.07275E-03 5.73604E-06 2.83467E-04-9.00761E-14 4.87016E-13
 -1       434 2.00003E+01-3.87103E-03 5.13984E-06 8.58923E-04-2.32554E-13 1.03739E-13
 -1       435 2.00002E+01-3.48217E-03 3.83670E-06 1.34832E-03-1.44834E-13-1.54163E-13
 -1       436 2.00001E+01-2.92515E-03 2.12494E-06 1.70820E-03 3.99236E-13 8.66434E-13
 -1       437 1.99998E+01-2.25732E-03-1.97279E-07 1.86774E-03 5.33700E-13 1.66708E-13
 -1       438 1.99995E+01-1.53650E-03-3.02570E-06 1.77263E-03 2.06116E-13-6.48268E-13
 -1       439 2.06730E+01 2.82359E-01 9.66777E-03 3.95449E-01 2.80546E-13 4.97118E-13
 -1       440 1.21048E+01-5.41885E+00-3.37893E-02 7.83208E+00 1.57652E-13 5.29254E-13
 -1       441 2.72977E+01-2.95266E+00-1.22259E-02 5.16873E+00 2.49356E-13 4.65739E-14
 -1       442 7.17214E-01-4.89264E+00-8.56303E-02 1.49965E+00-3.04617E-15 8.39689E-13
 -1       443 1.97041E+01-4.96678E+00-2.36723E-02 7.46506E+00 2.95930E-13 2.74246E-13
 -1       444 1.96552E+01 3.77118E+00-1.80920E-02-1.19639E+00-3.16702E-13-5.11726E-13
 -1       445 3.30660E+01 1.38196E+00 2.24455E-03 1.73050E+00 6.44245E-13-3.35301E-13
 -1       446 3.54678E+01 5.82284E+00-1.42836E-02 6.56106E-02 8.60492E-13-3.97640E-13
 -1       447 3.68312E+01 8.53793E+00 2.32693E-02-5.23156E-02 9.44467E-13-4.27040E-13
 -1       448 3.73804E+01 8.14060E+00 5.27063E-02-1.10308E-02 8.55732E-13-3.47784E-13
 -1       449 3.45392E+01 4.84719E+00-3.53357E-02 2.29906E-01 8.20510E-13-2.03559E-13
 -1       450 3.12978E+01-8.35099E-01-2.51022E-02-2.72629E+00 5.08132E-13-1.98994E-13
 -1       451 2.49508E+01-3.90688E+00-9.11920E-03-6.08888E+00 2.84481E-13-6.37213E-13
 -1       452 1.72488E+01-5.57995E+00 4.19289E-03-7.82470E+00 6.73489E-14-6.56168E-13
 -1       453 8.15625E+00-5.72820E+00-7.41749E-02-7.17007E+00 5.98133E-14-9.76427E-13
 -1       454 2.73188E+00-4.93547E+00-4.96823E-02-4.48240E+00-5.04596E-14-1.11386E-12
 -1       455 1.49625E+00-3.82096E+00 2.96734E-02 3.21986E-01-6.80914E-14-1.14236E-12
 -1       456 6.14195E+00-4.93598E+00 1.22439E-02 5.18897E+00-3.40422E-14-1.03913E-12
 -1       457 1.23432E+01-6.60835E+00-1.14330E-01 6.48020E+00-2.45748E-13-9.46999E-13
 -1       458 2.24895E+01-6.62275E+00-6.52741E-02 5.63856E+00-2.93016E-13-4.47607E-13
 -1       459 3.25263E+01-4.30111E+00-3.45111E-02 1.11153E+00-4.13052E-13-2.20310E-13
 -1       460 3.90730E+01 5.07321E+00 1.24811E-01-2.11178E+00-1.00842E-12-1.41123E-13
 -1       461 3.96431E+01 7.41894E+00 2.09733E-01 2.56811E-01-1.02360E-12-2.43747E-13
 -1       462 3.68193E+01-3.63480E-01 7.60506E-02 7.27841E-01-8.63729E-13-4.04232E-13
 -1       463 3.05983E+01-5.05592E+00-3.97357E-02-2.23175E+00-2.25847E-13-3.68733E-14
 -1       464 2.09813E+01-6.73505E+00-6.45474E-02-5.74452E+00-7.98528E-14 7.11292E-13
 -1       465 1.00367E+01-6.59307E+00-1.47451E-01-6.00099E+00-6.96665E-14 1.11237E-12
 -1       466 3.54280E+00-5.23950E+00-5.21280E-02-3.61578E+00 1.93970E-13 8.78700E-13
 -1       467 3.72834E+00-4.75012E+00-2.82417E-02 5.32727E+00-1.04000E-13 7.43364E-13
 -1       468 9.67914E+00-4.08679E+00 8.76605E-02 7.48088E+00-2.38587E-13 7.54063E-13
 -1       469 3.63961E+00-2.17570E+00 1.37097E-01-1.45953E+00 9.77135E-14 6.44429E-13
 -1       470 3.83697E+01 1.43360E+00 1.45981E-01-1.20006E+00-8.33555E-13-3.80668E-13
 -1       471 3.80514E+01 2.85881E+00 9.19738E-02 2.57590E+00-9.98215E-13-5.48755E-13
 -1       472 3.95056E+01 6.01939E+00 1.79388E-01 2.01195E+00-1.09857E-12-3.64070E-13
 -1       473 1.87709E+01 3.71390E+00-3.82573E-03-6.09869E-01-8.24831E-14-5.64132E-13
 -1       474 1.90150E+01 3.57429E+00-4.32215E-03-6.59793E-01-1.60678E-13-5.53496E-13
 -1       475 1.88843E+01 3.57735E+00-3.84377E-03-3.58201E-01 6.94515E-14-5.36682E-13
 -1       476 1.91355E+01 3.38793E+00-4.27111E-03-1.19667E-01 1.37102E-13-5.17674E-13
 -1       477 1.94415E+01 3.16046E+00-4.91303E-03 1.80371E-01 2.16284E-13-4.65076E-13
 -1       478 1.97820E+01 2.88988E+00-5.74915E-03 5.27139E-01 2.94788E-13-3.63042E-13
 -1       479 2.01445E+01 2.55511E+00-6.66712E-03 8.77784E-01 3.56272E-13-2.39706E-13
 -1       480 2.05401E+01 2.10512E+00-6.08293E-03 1.17269E+00 4.19120E-13-7.18696E-14
 -1       481 2.09242E+01 1.47428E+00-3.93981E-03 1.28511E+00 4.46909E-13 1.62788E-13
 -1       482 2.10485E+01 9.36526E-01 2.81337E-03 1.08056E+00 3.99496E-13 3.93948E-13
 -1       483 2.07980E+01 1.43056E+00 5.33230E-03 4.10347E-02-3.22121E-13-1.92257E-13
 -1       484 2.06375E+01 1.18988E+00 3.82887E-03 8.19585E-01-2.32506E-13-1.59912E-13
 -1       485 2.04633E+01 1.15405E+00 3.25907E-03 1.52227E+00-1.55674E-13-1.39172E-13
 -1       486 2.02801E+01 1.17897E+00 2.90300E-03 2.20577E+00-4.01539E-14-9.75251E-14
 -1       487 2.00952E+01 1.10819E+00 3.15644E-03 2.90179E+00 2.17448E-14-1.56579E-13
 -1       488 2.00045E+01 6.80462E-01 6.28205E-03 3.61159E+00 1.05737E-13-1.81297E-13
 -1       489 2.03330E+01-5.22609E-01 2.11327E-02 4.27062E+00 2.44347E-13-1.77021E-13
 -1       490 2.18206E+01-2.89029E+00 6.36196E-02 4.65569E+00 3.65645E-13-1.19676E-13
 -1       491 1.87115E+01-5.17183E+00 9.45920E-02 7.52508E+00-1.21410E-13-4.93043E-14
 -1       492 2.30767E+01-3.22771E+00 6.84196E-02-4.09383E+00 5.03625E-13-1.49462E-13
 -1       493 2.11882E+01-7.71527E-01 2.22001E-02-4.03694E+00 3.97109E-13-1.36073E-13
 -1       494 2.06245E+01 4.98144E-01 7.68043E-03-3.51417E+00 3.35192E-13-7.49440E-14
 -1       495 2.05398E+01 9.45864E-01 3.51639E-03-2.85271E+00 5.10216E-15-5.98142E-14
 -1       496 2.05681E+01 9.54257E-01 2.89071E-03-2.25466E+00-1.26275E-13 9.41830E-15
 -1       497 2.05747E+01 8.10860E-01 2.67875E-03-1.73822E+00-6.29760E-14-1.40595E-13
 -1       498 2.05410E+01 6.35915E-01 2.28071E-03-1.31603E+00-1.19353E-13-1.81557E-13
 -1       499 2.04782E+01 4.78284E-01 1.78282E-03-9.83465E-01-1.57577E-13-2.79134E-13
 -1       500 2.04024E+01 3.51790E-01 1.31922E-03-7.27942E-01 6.30308E-14-9.86172E-14
 -1       501 2.03260E+01 2.55812E-01 9.47997E-04-5.34769E-01-6.71094E-14-1.29586E-13
 -1       502 2.02560E+01 1.85040E-01 6.71932E-04-3.90229E-01-7.41906E-14-5.78450E-14
 -1       503 2.01958E+01 1.33570E-01 4.73713E-04-2.82782E-01-8.91371E-14 2.09198E-14
 -1       504 2.01462E+01 9.63323E-02 3.33490E-04-2.03262E-01 3.69261E-14 1.28955E-14
 -1       505 2.01065E+01 6.94004E-02 2.34744E-04-1.44629E-01-1.80169E-13-1.75391E-13
 -1       506 2.00757E+01 4.98799E-02 1.65213E-04-1.01569E-01-2.50137E-13-4.62159E-13
 -1       507 2.00523E+01 3.56912E-02 1.15868E-04-7.01053E-02-4.71414E-13-3.73166E-13
 -1       508 2.00349E+01 2.53602E-02 7.89668E-05-4.72634E-02-6.43208E-14-5.22413E-13
 -1       509 2.00217E+01 1.75027E-02 5.65860E-05-3.01665E-02 7.50098E-14-5.75541E-13
 -1       510 2.00128E+01 1.21113E-02 3.69461E-05-1.87121E-02 1.77966E-13-5.64001E-13
 -1       511 2.00067E+01 8.20645E-03 2.47269E-05-1.07059E-02 4.37852E-13-4.55144E-13
 -1       512 2.00027E+01 5.40316E-03 1.60115E-05-5.22792E-03 1.21712E-13-3.21633E-13
 -1       513 2.00001E+01 3.41376E-03 9.90371E-06-1.58403E-03-7.89157E-14-9.47831E-14
 -1       514 1.99986E+01 2.02339E-03 5.68377E-06 7.46367E-04 2.27836E-14-1.53287E-13
 -1       515 1.99979E+01 1.06900E-03 2.81614E-06 2.14968E-03-1.16257E-13-2.22982E-13
 -1       516 1.99976E+01 4.24926E-04 8.85261E-07 2.90864E-03 9.91545E-15-4.30407E-13
 -1       517 1.99976E+01-7.61919E-06-4.18031E-07 3.22481E-03 9.10143E-14-3.41142E-13
 -1       518 1.99979E+01-3.08307E-04-1.30997E-06 3.23574E-03-3.96179E-13-2.74071E-13
 -1       519 1.99983E+01-5.43197E-04-2.05894E-06 3.02820E-03-1.79835E-13-4.07393E-13
 -1       520 1.99987E+01-7.68779E-04-2.97073E-06 2.65062E-03 3.36910E-13-5.25617E-13
 -1       521 1.99992E+01-1.12103E-03-3.17913E-06 2.28309E-03 8.51281E-14-1.03542E-12
 -1       522 2.06456E+01-2.39025E-01-6.33593E-04 1.64224E-01 1.59117E-13 1.64058E-13
 -1       523 2.06492E+01-5.07318E-02 1.16965E-04 1.01083E-01 1.86233E-13 1.27862E-13
 -1       524 2.06926E+01 2.05454E-01 4.52672E-04 2.00672E-01 2.05829E-13 1.24839E-13
 -1       525 2.06498E+01-3.61733E-01-9.45369E-04 3.48443E-01 1.37614E-13 1.64476E-13
 -1       526 2.06233E+01-3.96275E-01-8.67071E-04 6.05039E-01 1.32748E-13 1.66016E-13
 -1       527 2.05303E+01-3.12407E-01-4.48007E-04 8.63443E-01 5.45053E-14 1.20504E-13
 -1       528 2.03530E+01-9.60268E-02 2.40431E-04 1.03083E+00 7.66351E-14 1.56174E-13
 -1       529 2.01096E+01 2.23020E-01 9.72302E-04 1.01068E+00 1.14943E-13 2.02326E-13
 -1       530 1.98637E+01 5.56300E-01 1.44023E-03 7.45434E-01 9.17699E-14 1.74626E-13
 -1       531 1.97041E+01 7.83293E-01 1.63858E-03 2.60876E-01 7.42684E-14 2.44834E-13
 -1       532 1.97014E+01 8.08948E-01 1.69562E-03-3.24871E-01 5.44572E-14 1.59159E-13
 -1       533 1.98628E+01 6.22523E-01 1.58666E-03-8.44173E-01 7.49384E-14-1.00149E-14
 -1       534 2.01259E+01 3.05502E-01 1.24094E-03-1.16313E+00 8.30247E-14-6.35880E-14
 -1       535 2.03999E+01-2.35907E-02 5.03192E-04-1.23494E+00 9.30011E-14-1.27818E-13
 -1       536 2.06116E+01-2.70027E-01-2.40892E-04-1.09966E+00 9.65274E-14-7.73481E-14
 -1       537 2.07299E+01-3.96315E-01-8.16372E-04-8.42396E-01 6.84411E-14-8.05990E-14
 -1       538 2.07599E+01-4.14231E-01-1.03306E-03-5.48910E-01-3.04037E-15-1.98311E-13
 -1       539 2.07252E+01-3.60275E-01-1.02207E-03-2.80395E-01 3.63039E-14-7.46231E-14
 -1       540 2.06525E+01-2.73048E-01-8.60640E-04-6.84343E-02-8.31144E-14 1.15020E-13
 -1       541 2.05630E+01-1.81472E-01-6.29852E-04 7.87491E-02-1.21039E-13 2.07008E-13
 -1       542 2.04710E+01-1.02203E-01-4.00822E-04 1.67064E-01-1.77839E-13 1.88875E-13
 -1       543 2.03846E+01-4.18992E-02-2.10276E-04 2.08770E-01-2.56279E-14 1.21894E-13
 -1       544 2.03078E+01-8.40890E-04-6.93139E-05 2.17370E-01 1.88347E-13 5.28743E-15
 -1       545 2.02418E+01 2.39014E-02 2.33879E-05 2.04887E-01 5.84669E-14 1.59585E-13
 -1       546 2.01865E+01 3.63247E-02 7.64076E-05 1.80780E-01-7.87042E-14 1.31874E-13
 -1       547 2.01413E+01 4.02906E-02 1.00287E-04 1.51833E-01-1.01511E-13 7.16956E-14
 -1       548 2.01049E+01 3.89894E-02 1.04783E-04 1.22496E-01 3.18566E-14 2.34807E-13
 -1       549 2.00762E+01 3.48032E-02 9.77261E-05 9.53986E-02 4.37960E-14 3.29976E-13
 -1       550 2.00539E+01 2.93712E-02 8.48083E-05 7.18625E-02 8.23841E-14 1.58552E-13
 -1       551 2.00369E+01 2.37339E-02 6.98311E-05 5.23342E-02 1.40805E-13 4.54307E-14
 -1       552 2.00243E+01 1.84898E-02 5.51143E-05 3.67226E-02 1.62056E-13 7.19835E-15
 -1       553 2.00150E+01 1.39338E-02 4.19111E-05 2.46406E-02 7.23187E-14 1.28369E-13
 -1       554 2.00085E+01 1.01650E-02 3.07638E-05 1.55695E-02 4.15242E-14 2.71319E-14
 -1       555 2.00039E+01 7.16652E-03 2.17733E-05 8.96171E-03 2.12876E-13 8.15783E-14
 -1       556 2.00010E+01 4.85925E-03 1.47911E-05 4.30148E-03 1.14513E-13 2.34966E-13
 -1       557 1.99991E+01 3.13722E-03 9.54588E-06 1.13541E-03 5.59310E-14 3.39142E-13
 -1       558 1.99981E+01 1.88858E-03 5.72077E-06-9.15500E-04-2.16471E-15 2.15176E-13
 -1       559 1.99977E+01 1.00704E-03 3.00627E-06-2.15505E-03 4.95357E-14 1.49398E-13
 -1       560 1.99976E+01 3.97051E-04 1.11064E-06-2.81699E-03 9.72333E-14-1.51790E-14
 -1       561 1.99978E+01-2.49242E-05-2.53838E-07-3.07312E-03 2.56853E-14-1.62296E-13
 -1       562 1.99981E+01-3.31870E-04-1.31292E-06-3.04213E-03-5.39029E-14 1.17123E-13
 -1       563 1.99985E+01-5.86136E-04-2.32181E-06-2.79845E-03 6.70892E-14 1.28465E-13
 -1       564 1.99989E+01-8.35728E-04-2.23905E-06-2.38416E-03 1.67646E-13 1.37731E-13
 -1       565 2.00005E+01-2.43186E-03 1.61511E-06-1.96728E-03 1.27601E-13 3.04857E-13
 -1       566 2.00001E+01-2.01319E-03-7.22204E-08-2.30226E-03 6.91713E-14 6.42608E-13
 -1       567 1.99996E+01-1.49968E-03-1.24576E-06-2.37796E-03 1.08467E-13 1.25333E-13
 -1       568 2.00007E+01-2.75916E-03 2.04640E-06-1.43220E-03-2.20971E-14 1.84707E-13
 -1       569 2.00009E+01-2.96954E-03 2.37737E-06-7.64186E-04-2.73683E-14-1.31573E-13
 -1       570 2.00010E+01-3.05008E-03 2.57712E-06-2.59928E-05 1.20227E-13 2.56597E-13
 -1       571 2.00009E+01-2.99551E-03 2.51445E-06 7.19237E-04-3.10761E-13 1.71542E-13
 -1       572 2.00008E+01-2.81015E-03 2.10033E-06 1.39588E-03-4.10303E-13 3.75795E-14
 -1       573 2.00005E+01-2.49347E-03 1.35111E-06 1.95775E-03 1.37800E-13 6.07321E-13
 -1       574 2.00001E+01-2.06278E-03 7.96563E-07 2.31824E-03 1.58862E-13 5.52848E-13
 -1       575 1.99997E+01-1.61343E-03-7.06880E-07 2.41950E-03 1.30831E-13 9.36536E-14
 -1       576 2.07279E+01 2.09829E+00-5.05062E-03-7.68148E-01-3.91427E-13-2.59550E-13
 -1       577 2.44535E+01-5.22593E+00 1.13964E-02 5.45572E+00-1.04576E-13-1.55514E-13
 -1       578 2.92389E+01-2.71901E+00-7.15564E-02 1.14506E+00 7.18527E-14-5.48221E-13
 -1       579 1.01542E+01-3.65372E+00 1.33640E-01-5.64323E+00 3.40325E-13 1.02074E-12
 -1       580 2.72590E+01-5.78024E+00 2.22361E-02-2.58680E+00 3.50844E-13-2.81985E-13
 -1       581 1.87434E+01 3.69956E+00-3.65824E-03-5.18751E-01-1.07633E-14-5.51001E-13
 -1       582 3.00031E+01 6.60179E+00-1.91475E-01-1.45306E+00 7.09890E-13-3.32210E-13
 -1       583 3.13609E+01 2.69051E+00-1.37643E-01-1.18956E+00 5.81771E-13-6.34798E-13
 -1       584 3.08469E+01 8.06741E+00-1.97503E-01 2.64626E-01 8.90746E-13-1.07008E-13
 -1       585 3.05948E+01 6.15846E+00-1.66209E-01 1.57395E+00 7.44974E-13-9.00668E-14
 -1       586 3.03031E+01 4.06865E-01-1.24263E-01 1.14587E+00 2.97287E-13 1.45217E-13
 -1       587 2.80439E+01-4.15087E+00-4.50665E-02-2.95360E+00-4.26222E-14 1.58554E-14
 -1       588 2.34134E+01-5.49778E+00 5.82519E-02-5.94660E+00-2.91871E-13-2.30880E-13
 -1       589 1.47813E+01-4.57836E+00 9.91580E-02-7.76717E+00-3.43676E-13-5.92824E-13
 -1       590 9.02415E+00-2.76960E+00 1.74391E-01-6.55804E+00-3.12299E-13-8.58077E-13
 -1       591 4.89491E+00-1.09699E+00 1.87142E-01-2.64640E+00-1.13437E-13-1.08344E-12
 -1       592 6.70639E+00-1.18470E+00 2.05402E-01 3.27201E+00 1.05298E-13-9.89944E-13
 -1       593 1.39570E+01-4.04677E+00 1.69980E-01 6.42813E+00 2.68327E-13-6.97428E-13
 -1       594 2.12025E+01-5.59978E+00 6.16349E-02 5.60176E+00 2.56774E-13-2.18730E-13
 -1       595 2.84825E+01-5.58720E+00 2.42634E-02 2.01274E+00 6.07916E-14 5.77073E-14
 -1       596 3.30520E+01-3.50685E+00-9.54543E-02 1.90708E+00-2.84724E-13-8.50334E-13
 -1       597 1.79251E+01-5.60343E+00 7.03979E-02-6.13570E+00 3.60920E-13 5.62779E-13
 -1       598 4.64656E+00-1.63253E+00 1.90936E-01 3.48097E+00-3.31936E-13 7.22311E-13
 -1       599 1.94870E+01 3.24943E+00-6.10488E-03-7.08903E-01-2.48220E-13-4.83705E-13
 -1       600 2.08241E+01 5.77217E-01 5.20896E-03 6.07870E-01 3.32745E-13 2.63756E-13
 -1       601 8.52682E+00-1.73886E+00 1.61013E-01 5.73563E+00-4.28053E-13 6.98698E-13
 -1       602 2.07251E+01 3.83789E-01 2.95841E-03 3.61110E-01 2.61094E-13 1.85059E-13
 -1       603 8.35304E+00-1.32922E+00 1.79288E-01-3.88868E+00 2.62419E-13 8.48724E-13
 -1       604 1.95412E+01 2.54532E+00-1.39752E-03-2.06676E-01 1.43896E-13-4.30779E-13
 -1       605 1.91884E+01 2.81909E+00-1.23763E-03-4.46413E-01 7.96380E-14-4.79795E-13
 -1       606 2.02424E+01 1.92014E+00-1.70009E-03 3.99726E-01 2.78319E-13-2.52570E-13
 -1       607 2.05503E+01 1.53648E+00-2.00010E-03 6.51419E-01 3.11381E-13-1.32920E-13
 -1       608 2.08493E+01 9.24489E-01 3.08578E-03 7.74833E-01 3.56214E-13 1.22454E-13
 -1       609 2.00135E+01 1.91449E+00 1.64448E-04 2.58469E-01-2.42834E-13-2.88892E-13
 -1       610 1.96787E+01 1.73227E+00 5.25404E-05 9.07386E-01-1.69879E-13-2.52922E-13
 -1       611 1.91614E+01 1.72767E+00 1.22762E-03 1.51164E+00-9.44967E-14-2.62712E-13
 -1       612 1.84447E+01 1.74837E+00 1.70715E-03 2.10388E+00-4.84887E-14-3.08025E-13
 -1       613 1.75089E+01 1.60820E+00 6.54893E-03 2.76506E+00 2.10810E-14-3.38152E-13
 -1       614 1.64148E+01 9.90800E-01 2.73047E-02 3.62038E+00 1.63166E-13-3.62810E-13
 -1       615 1.54332E+01-6.85008E-01 9.60768E-02 4.82503E+00 3.23868E-13-4.03965E-13
 -1       616 1.61700E+01-1.16151E+00 9.70094E-02-4.88439E+00 4.12748E-13 5.38090E-13
 -1       617 1.67819E+01 7.01409E-01 3.31802E-02-3.70954E+00 3.02362E-13 4.14060E-13
 -1       618 1.77341E+01 1.40861E+00 8.27269E-03-2.82528E+00 1.58512E-13 9.66126E-14
 -1       619 1.85372E+01 1.47755E+00 2.15552E-03-2.22715E+00 7.73456E-14 7.49715E-14
 -1       620 1.91354E+01 1.30420E+00 1.00623E-03-1.76341E+00-2.50942E-13 1.49902E-13
 -1       621 1.95401E+01 1.05921E+00 7.97333E-04-1.38757E+00-1.37245E-13-1.05539E-14
 -1       622 1.97938E+01 8.21704E-01 6.53607E-04-1.08051E+00-2.89136E-13-1.01973E-13
 -1       623 1.99414E+01 6.20910E-01 4.97638E-04-8.32072E-01 9.59692E-14-3.41132E-14
 -1       624 2.00197E+01 4.62186E-01 3.60390E-04-6.33987E-01 4.82187E-14-6.75250E-14
 -1       625 2.00556E+01 3.41181E-01 2.55251E-04-4.78246E-01-3.36617E-14-3.19762E-14
 -1       626 2.00670E+01 2.50721E-01 1.79570E-04-3.57244E-01-1.54837E-13 1.40820E-14
 -1       627 2.00653E+01 1.83751E-01 1.26296E-04-2.64152E-01-8.34241E-14 1.20018E-13
 -1       628 2.00575E+01 1.34364E-01 8.89717E-05-1.93139E-01-2.58846E-13-1.16112E-13
 -1       629 2.00475E+01 9.79633E-02 6.28295E-05-1.39393E-01-3.06524E-13-1.19344E-13
 -1       630 2.00376E+01 7.11109E-02 4.45740E-05-9.90443E-02-1.60514E-13-9.59677E-14
 -1       631 2.00286E+01 5.12882E-02 2.97158E-05-6.90000E-02-3.11534E-13 2.37092E-13
 -1       632 2.00208E+01 3.60259E-02 2.23377E-05-4.59583E-02 5.06843E-14 3.15510E-13
 -1       633 2.00149E+01 2.54122E-02 1.40841E-05-3.01348E-02 2.15972E-14 1.96878E-13
 -1       634 2.00103E+01 1.76235E-02 9.51982E-06-1.87840E-02 6.38970E-14-1.41867E-13
 -1       635 2.00068E+01 1.19506E-02 6.21575E-06-1.07910E-02 1.54866E-13-6.24771E-13
 -1       636 2.00043E+01 7.85985E-03 3.90521E-06-5.28740E-03 2.31298E-13-4.80071E-13
 -1       637 2.00025E+01 4.94823E-03 2.28954E-06-1.60669E-03 2.89031E-13-4.62917E-14
 -1       638 2.00013E+01 2.90820E-03 1.18374E-06 7.57672E-04 1.15304E-14 4.01523E-13
 -1       639 2.00005E+01 1.50267E-03 4.36703E-07 2.18578E-03-7.85554E-14 4.12920E-13
 -1       640 1.99999E+01 5.46224E-04-9.79993E-08 2.95756E-03 6.81963E-14 2.08215E-13
 -1       641 1.99996E+01-1.08429E-04-4.15496E-07 3.27330E-03-1.90462E-13-6.77216E-14
 -1       642 1.99995E+01-5.79501E-04-6.98891E-07 3.27005E-03-2.70239E-13 2.09784E-13
 -1       643 1.99995E+01-9.63484E-04-7.37713E-07 3.03144E-03-1.99383E-13 1.11403E-13
 -1       644 1.99996E+01-1.26981E-03-1.16921E-06 2.76414E-03-1.42278E-13-1.51239E-13
 -1       645 2.09322E+01-1.97361E-01-1.95058E-04 6.68663E-02 1.48592E-13 2.81935E-14
 -1       646 2.10666E+01-4.72390E-01-3.95389E-04 1.81295E-01 1.26507E-13 5.80981E-14
 -1       647 2.08333E+01 1.66251E-01 2.73008E-04 1.14674E-01 1.82445E-13-4.70465E-15
 -1       648 2.13055E+01-6.30545E-01-1.90152E-04 7.57282E-01 8.09054E-14 1.91217E-13
 -1       649 2.13042E+01-4.07077E-01 2.09592E-04 1.07208E+00 5.25250E-14 1.72430E-13
 -1       650 2.11687E+01 4.58200E-02 6.14410E-04 1.24190E+00 6.37588E-14 1.72217E-13
 -1       651 2.09275E+01 6.35975E-01 7.87477E-04 1.12912E+00 1.15662E-13 1.45004E-13
 -1       652 2.06847E+01 1.16300E+00 2.72576E-04 6.79289E-01 6.60672E-14 1.98699E-14
 -1       653 2.05669E+01 1.40801E+00-1.40866E-04-1.91626E-02 1.44314E-13-3.51058E-14
 -1       654 2.06487E+01 1.24751E+00-1.11511E-04-7.46539E-01 1.78507E-13-2.72833E-14
 -1       655 2.08771E+01 7.67938E-01 7.68040E-04-1.25966E+00 8.58916E-14-4.22563E-14
 -1       656 2.11258E+01 1.75124E-01 6.72832E-04-1.44065E+00 6.31042E-14 2.51639E-14
 -1       657 2.12786E+01-3.20749E-01 3.65415E-04-1.31734E+00 9.00334E-14-1.15574E-14
 -1       658 2.12918E+01-6.13661E-01-2.19679E-04-1.00999E+00 4.28855E-14 7.86712E-14
 -1       659 2.11861E+01-7.01450E-01-3.04594E-04-6.45024E-01 3.22080E-14 1.38639E-13
 -1       660 2.10113E+01-6.42459E-01-3.60820E-04-3.11170E-01-4.34373E-14 4.64234E-14
 -1       661 2.08158E+01-5.07295E-01-3.52460E-04-5.11729E-02-1.15413E-13 7.45255E-14
 -1       662 2.06323E+01-3.52025E-01-2.68676E-04 1.26067E-01-1.08819E-13-8.92914E-14
 -1       663 2.04766E+01-2.10871E-01-1.75127E-04 2.30033E-01-4.97517E-14-2.85979E-14
 -1       664 2.03530E+01-9.93101E-02-9.89424E-05 2.77271E-01-6.99031E-14-5.73384E-14
 -1       665 2.02587E+01-2.03666E-02-4.04250E-05 2.84885E-01 5.23659E-14-1.25543E-14
 -1       666 2.01888E+01 2.96026E-02-1.30925E-06 2.67543E-01 6.23395E-14 1.06318E-13
 -1       667 2.01377E+01 5.68718E-02 2.16572E-05 2.36531E-01 2.58157E-14 7.33874E-14
 -1       668 2.01005E+01 6.79774E-02 3.27797E-05 1.99852E-01-6.32512E-14 1.34309E-13
 -1       669 2.00734E+01 6.85708E-02 3.60018E-05 1.62750E-01-8.91956E-14 7.82551E-14
 -1       670 2.00536E+01 6.30290E-02 3.44478E-05 1.28346E-01 4.56797E-14-1.06643E-13
 -1       671 2.00390E+01 5.44718E-02 3.03741E-05 9.82376E-02 7.94366E-14-1.28508E-14
 -1       672 2.00282E+01 4.49602E-02 2.52931E-05 7.30029E-02 1.48950E-13 8.01309E-14
 -1       673 2.00201E+01 3.57445E-02 2.01412E-05 5.25781E-02 1.23117E-13 1.83454E-13
 -1       674 2.00141E+01 2.74983E-02 1.54351E-05 3.65386E-02-3.20881E-14 2.34945E-13
 -1       675 2.00097E+01 2.05101E-02 1.14134E-05 2.42878E-02 2.07715E-13 2.49352E-13
 -1       676 2.00064E+01 1.48284E-02 8.14016E-06 1.51810E-02 1.19192E-13 3.25113E-13
 -1       677 2.00041E+01 1.03649E-02 5.57861E-06 8.59845E-03 2.11719E-14 2.50178E-13
 -1       678 2.00024E+01 6.96343E-03 3.64149E-06 3.98548E-03 4.30030E-14 2.39648E-13
 -1       679 2.00012E+01 4.44339E-03 2.22002E-06 8.69946E-04 9.06524E-14 3.53574E-13
 -1       680 2.00004E+01 2.62509E-03 1.19767E-06-1.13450E-03 1.33740E-13 4.57220E-13
 -1       681 1.99999E+01 1.34271E-03 4.98102E-07-2.33254E-03 1.75180E-13 3.45548E-13
 -1       682 1.99996E+01 4.50052E-04 2.13833E-08-2.95552E-03 4.14037E-14 6.13548E-13
 -1       683 1.99995E+01-1.78967E-04-2.58298E-07-3.17229E-03-4.46469E-14 5.24495E-13
 -1       684 1.99994E+01-6.53702E-04-4.52123E-07-3.10113E-03-9.14417E-14 4.64557E-13
 -1       685 1.99995E+01-1.07921E-03-1.24625E-06-2.82910E-03 2.08299E-13 3.12831E-13
 -1       686 2.00015E+01-2.02860E-03 5.90638E-07-1.25797E-03 7.64836E-14-7.48750E-14
 -1       687 1.49150E+01-3.11050E+00 1.27034E-01 7.02415E+00-5.77462E-13 3.07868E-13
 -1       688 2.00011E+01-1.86720E-03 4.18649E-07-1.94957E-03-5.35328E-14 3.03901E-13
 -1       689 2.00003E+01-1.41533E-03-3.42121E-07-2.69923E-03 2.65062E-13 4.47256E-13
 -1       690 2.00016E+01-2.11901E-03 6.59297E-07-4.59337E-04 8.17189E-14 1.11986E-14
 -1       691 1.88342E+01 3.14942E+00-8.83089E-04-5.18825E-01-1.10215E-13-4.97512E-13
 -1       692 2.00017E+01-2.13842E-03 8.49951E-07 3.80965E-04 1.89908E-13-9.24075E-14
 -1       693 2.00015E+01-2.08504E-03 9.72368E-07 1.18614E-03 1.57607E-13-1.56627E-13
 -1       694 2.00012E+01-1.94924E-03 7.86637E-07 1.91637E-03 2.81442E-13 6.95946E-13
 -1       695 2.00007E+01-1.72231E-03-8.14689E-07 2.47572E-03 1.05828E-13 7.06564E-13
 -1       696 2.86309E+01-1.87958E-01-9.78694E-02-1.24371E+00 3.30574E-13-5.63737E-13
 -1       697 1.99022E+01 2.24734E+00-1.54395E-03 9.29610E-02 2.10224E-13-3.61893E-13
 -1       698 2.79146E+01 3.61183E+00-1.31670E-01-2.18218E+00 3.96690E-13-3.33813E-13
 -1       699 1.28713E+01-1.01841E+00 1.27654E-01 4.89289E+00 2.61286E-13-6.24792E-13
 -1       700 2.74542E+01 2.80909E+00-1.23550E-01 2.18046E+00 3.36443E-13 3.16660E-13
 -1       701 2.61724E+01-4.39234E+00-8.27806E-03 2.72658E+00-1.98169E-13-4.19357E-13
 -1       702 2.30089E+01-4.83734E+00 4.18969E-02 5.05003E+00-3.59861E-13-2.63222E-13
 -1       703 1.61551E+01-2.95621E+00 1.04947E-01-5.61771E+00 4.60181E-13 5.70897E-13
 -1       704 2.80723E+01-2.68087E+00-4.05715E-02-2.03495E-01-1.00196E-13 1.92228E-13
 -1       705 2.72557E+01 6.25300E+00-1.46927E-01 1.04434E+00 7.14859E-13 1.23779E-13
 -1       706 8.47785E+00 9.71278E-01 1.57885E-01 1.97082E-01-5.65576E-14-8.72517E-13
 -1       707 2.57475E+01-4.79471E+00 8.46696E-03-3.39599E+00-2.98163E-13 3.56676E-14
 -1       708 2.02578E+01-4.44216E+00 6.21762E-02-6.18927E+00-4.26187E-13-2.22121E-13
 -1       709 1.40940E+01-2.38750E+00 1.14485E-01-6.53810E+00-4.31769E-13-6.09950E-13
 -1       710 9.48454E+00-3.96935E-01 1.49277E-01-4.48261E+00-2.96372E-13-8.00388E-13
 -1       711 2.12077E+01-6.34651E-01-4.66131E-04 4.29262E-01 1.01182E-13 1.06431E-13
 -1       712 2.68295E+01 6.34858E+00-1.32984E-01-8.02279E-01 6.99350E-13-1.36072E-13
 -1       713 2.00008E+01-1.65506E-03 5.37211E-07-2.38471E-03-9.18287E-14 1.55667E-13
 -1       714 6.44244E+00 1.46162E-01 1.95977E-01 4.19881E-01-6.21029E-14 2.55185E-13
 -1       715 1.89017E+01 3.04439E+00-1.09119E-03-5.84423E-01 2.96691E-15-4.70753E-13
 -1       716 8.02241E+00 1.78766E-01 1.56667E-01 2.97672E+00-2.38812E-13 4.81865E-13
 -1       717 1.19697E+01 1.09352E+00 9.31640E-02 2.70332E+00 1.46657E-13-6.21708E-13
 -1       718 1.91707E+01 2.92050E+00-1.53022E-03-3.75561E-01-1.80220E-13-4.59441E-13
 -1       719 1.95562E+01-3.69755E+00 4.95967E-02 5.79793E+00-4.91406E-13-2.27099E-13
 -1       720 1.87578E+01 3.17419E+00-1.00917E-03-6.03801E-01-5.08706E-14-5.04026E-13
 -1       721 1.98969E+01 2.31819E+00-2.03632E-03-1.57163E-01-2.71148E-13-3.46349E-13
 -1       722 2.00002E+01-1.52533E-03-1.12624E-07 2.71154E-03-4.55486E-14 3.47943E-13
 -1       723 2.07753E+01 6.35720E-01 1.46911E-03 3.38540E-01 2.46231E-13-1.64383E-15
 -1       724 2.71020E+01-2.71638E+00-3.71953E-02 1.79962E-01 3.21618E-15-5.61937E-13
 -1       725 2.69779E+01-1.88066E-01-4.95412E-02 1.69000E+00 6.84426E-14 2.82914E-13
 -1       726 1.25058E+01-1.18573E+00 1.34901E-01-4.75789E+00 3.80352E-13 8.43992E-13
 -1       727 1.95645E+01 2.00376E+00-4.08677E-04-6.03579E-01 8.19091E-14-3.90778E-13
 -1       728 2.06017E+01 1.06109E+00-6.27060E-04 2.25310E-01 2.21034E-13-1.69633E-13
 -1       729 1.14363E+01 1.28651E+00 8.11154E-02-2.10648E+00-1.66042E-13-6.79529E-13
 -1       730 1.51135E+01-2.60377E+00 1.26875E-01 5.70313E+00 3.20459E-13-4.93001E-13
 -1       731 1.94025E+01 2.28899E+00 1.69298E-03 1.58075E-01-2.03093E-13-3.41889E-13
 -1       732 1.24127E+01-8.33038E-01 1.14398E-01 5.36880E+00-3.89983E-13 5.17766E-13
 -1       733 1.86053E+01 2.15047E+00 5.15902E-05 6.58347E-01-1.52277E-13-3.54573E-13
 -1       734 1.77330E+01 2.14844E+00 3.11040E-04 1.01921E+00-9.92756E-14-3.62580E-13
 -1       735 1.64626E+01 2.15361E+00 3.94016E-03 1.32884E+00-4.57075E-14-4.13249E-13
 -1       736 1.46564E+01 1.99217E+00 1.62176E-02 1.68612E+00 5.04167E-14-4.74096E-13
 -1       737 1.45567E+01 1.79854E+00 2.54518E-02-1.88932E+00 1.38641E-14 3.40885E-13
 -1       738 1.63134E+01 1.88626E+00 4.52216E-03-1.50798E+00 5.47967E-15 1.90733E-13
 -1       739 1.75462E+01 1.70967E+00 2.57194E-04-1.27136E+00-1.51741E-13 4.98041E-14
 -1       740 1.84000E+01 1.43521E+00-1.53570E-04-1.08223E+00-2.06400E-13 9.93991E-14
 -1       741 1.89798E+01 1.15088E+00-3.17236E-05-9.10359E-01-2.09323E-13 1.59769E-13
 -1       742 1.93651E+01 8.96894E-01 3.48877E-05-7.51339E-01-1.10834E-13 2.97457E-13
 -1       743 1.96158E+01 6.86451E-01 4.49749E-05-6.07890E-01-2.11156E-14 1.90395E-13
 -1       744 1.97754E+01 5.19424E-01 3.68590E-05-4.82785E-01 9.92606E-15-6.35295E-16
 -1       745 1.98748E+01 3.90177E-01 2.71442E-05-3.76971E-01-4.27810E-14-9.24855E-14
 -1       746 1.99352E+01 2.91623E-01 1.96248E-05-2.89721E-01-1.46279E-13-1.99321E-13
 -1       747 1.99708E+01 2.17072E-01 1.42742E-05-2.19263E-01-2.05472E-13 4.17315E-15
 -1       748 1.99910E+01 1.60902E-01 1.05511E-05-1.63357E-01-2.00259E-13 1.60979E-13
 -1       749 2.00018E+01 1.18659E-01 8.46501E-06-1.19677E-01-1.94332E-13 2.73121E-13
 -1       750 2.00069E+01 8.69219E-02 4.53134E-06-8.60087E-02-1.04997E-13 3.04468E-13
 -1       751 2.00089E+01 6.21084E-02 4.28186E-06-5.93794E-02 6.95735E-15 4.76746E-13
 -1       752 2.00090E+01 4.45872E-02 2.62960E-06-4.05657E-02 6.39301E-14 3.68498E-13
 -1       753 2.00083E+01 3.15403E-02 1.70705E-06-2.66990E-02-3.11696E-13 4.98473E-13
 -1       754 2.00072E+01 2.18982E-02 1.11732E-06-1.66660E-02-8.47507E-14 3.43395E-13
 -1       755 2.00060E+01 1.48379E-02 7.11416E-07-9.55207E-03 2.93676E-13 2.25343E-13
 -1       756 2.00048E+01 9.72895E-03 4.14980E-07-4.62899E-03 2.06036E-13 1.35777E-13
 -1       757 2.00038E+01 6.08426E-03 1.94630E-07-1.32572E-03 2.95199E-13 1.62707E-14
 -1       758 2.00029E+01 3.52583E-03 3.34335E-08 7.98551E-04-6.47781E-14-9.29607E-14
 -1       759 2.00021E+01 1.75732E-03-8.38995E-08 2.07912E-03-4.57069E-15 3.55327E-13
 -1       760 2.00015E+01 5.43917E-04-1.67785E-07 2.76369E-03-1.90916E-13 2.31089E-13
 -1       761 2.00009E+01-3.00208E-04-5.15252E-07 3.03374E-03 1.12290E-14-4.66088E-14
 -1       762 2.00005E+01-9.31771E-04-2.04593E-07 3.01209E-03-1.85252E-13-1.84480E-14
 -1       763 2.48238E+01 5.24183E+00-6.99655E-02 2.16690E-01 4.93883E-13 2.73679E-14
 -1       764 2.12378E+01-4.33810E-01-2.21790E-04-7.77042E-02 8.99017E-14-4.55911E-14
 -1       765 2.09764E+01 3.24625E-02 1.68704E-04-7.37130E-02 1.21324E-13-1.07250E-13
 -1       766 2.22030E+01-4.24037E-01 2.93793E-04 1.25934E+00 2.73513E-14 1.22506E-13
 -1       767 2.21174E+01-8.78219E-01 3.38859E-04 8.49661E-01 6.27686E-14 8.76727E-14
 -1       768 2.17719E+01 1.33452E+00-6.74998E-04 1.18390E+00 1.24814E-13 1.04246E-13
 -1       769 2.15168E+01 2.01446E+00-2.74767E-03 4.73920E-01 2.03104E-13 7.15492E-14
 -1       770 2.14656E+01 2.11174E+00-2.10380E-03-4.77704E-01 1.70894E-13-5.41306E-14
 -1       771 2.16787E+01 1.52046E+00-7.82324E-04-1.25636E+00 8.73060E-14-7.57530E-14
 -1       772 2.19579E+01 5.98340E-01-5.05844E-04-1.60701E+00 2.68374E-14-1.07541E-13
 -1       773 2.21090E+01-2.70795E-01 1.44211E-04-1.49691E+00 6.25329E-14-1.36105E-13
 -1       774 2.20335E+01-8.24773E-01-7.54247E-04-1.11181E+00 5.25246E-14-1.29875E-13
 -1       775 2.17779E+01-1.03607E+00 3.79925E-05-6.46613E-01-1.12816E-14-3.53827E-14
 -1       776 2.14275E+01-9.88102E-01 6.70159E-05-2.37244E-01-1.38493E-13 1.25100E-13
 -1       777 2.10694E+01-8.00332E-01-1.03993E-04 6.20819E-02-3.25696E-14 1.76175E-13
 -1       778 2.07564E+01-5.68529E-01-9.85594E-05 2.49766E-01 1.81123E-14 2.07465E-13
 -1       779 2.05093E+01-3.51376E-01-5.46718E-05 3.46868E-01-1.10949E-13 1.46514E-13
 -1       780 2.03284E+01-1.76195E-01-3.51280E-05 3.79349E-01-1.19446E-13 1.22942E-13
 -1       781 2.02036E+01-4.96608E-02-1.42307E-05 3.70211E-01-8.01328E-15 9.20257E-14
 -1       782 2.01219E+01 3.25912E-02-4.43775E-07 3.37111E-01 1.56737E-14 8.65420E-14
 -1       783 2.00710E+01 7.94674E-02 6.91201E-06 2.92488E-01 8.93928E-14 1.11457E-13
 -1       784 2.00408E+01 1.00632E-01 1.00104E-05 2.44535E-01-7.70662E-14 1.43554E-13
 -1       785 2.00237E+01 1.04646E-01 1.06035E-05 1.98270E-01-3.94331E-14 2.88612E-14
 -1       786 2.00146E+01 9.82777E-02 9.86381E-06 1.56471E-01-6.28036E-14 1.11016E-13
 -1       787 2.00100E+01 8.64570E-02 8.50197E-06 1.20399E-01-7.43633E-14 2.69968E-13
 -1       788 2.00078E+01 7.25244E-02 6.94124E-06 9.03530E-02 1.22773E-13 5.42982E-14
 -1       789 2.00067E+01 5.85746E-02 5.42927E-06 6.60470E-02-3.78373E-14 1.26956E-13
 -1       790 2.00060E+01 4.57953E-02 4.09287E-06 4.68856E-02 1.02747E-13 1.12336E-13
 -1       791 2.00055E+01 3.47540E-02 2.98060E-06 3.21378E-02 2.00888E-13-3.01565E-14
 -1       792 2.00049E+01 2.56191E-02 2.09524E-06 2.10499E-02 1.56883E-13 5.28663E-15
 -1       793 2.00044E+01 1.83216E-02 1.41497E-06 1.29121E-02 8.23451E-14 8.35058E-14
 -1       794 2.00037E+01 1.26658E-02 9.06011E-07 7.09356E-03-1.77689E-14 2.08431E-13
 -1       795 2.00031E+01 8.40180E-03 5.33716E-07 3.05663E-03-7.16139E-14 4.01349E-13
 -1       796 2.00025E+01 5.26966E-03 2.58635E-07 3.58548E-04-5.22479E-14 4.66587E-13
 -1       797 2.00019E+01 3.02318E-03 3.35194E-08-1.35471E-03 1.29114E-13 7.70549E-13
 -1       798 2.00014E+01 1.44062E-03-1.04131E-07-2.35666E-03-2.15220E-14 6.56308E-13
 -1       799 2.00010E+01 3.33189E-04 7.42185E-08-2.85137E-03 1.04141E-13 5.75850E-13
 -1       800 2.00006E+01-4.62428E-04 7.34076E-07-2.98776E-03 3.37947E-14 5.84554E-13
 -1       801 2.00005E+01-9.51900E-04-9.79880E-08-2.89383E-03 7.63843E-14 1.70726E-13
 -1       802 2.00023E+01-1.18191E-03-2.31555E-07-9.23052E-04 1.10039E-13 3.53890E-14
 -1       803 2.58512E+01-3.53187E+00-7.91498E-03-1.20889E+00-1.94983E-13 6.04159E-14
 -1       804 2.00024E+01-1.23636E-03-1.87257E-07 8.07028E-04 2.65296E-13-7.35614E-15
 -1       805 2.00024E+01-1.21300E-03-1.98249E-07-6.52314E-05 1.23300E-13 2.85386E-13
 -1       806 2.00015E+01-1.19705E-03-6.89174E-07 2.36184E-03 2.06645E-13 6.07529E-13
 -1       807 2.40254E+01-4.04171E+00 1.10868E-02 3.08510E+00-4.33663E-13-3.86053E-13
 -1       808 2.51740E+01 3.97363E+00-7.29351E-02-1.77302E+00 3.85064E-13-3.40382E-13
 -1       809 2.52316E+01 3.57378E+00-6.78043E-02 1.79163E+00 3.82864E-13 2.77167E-13
 -1       810 2.66065E+01 1.02094E+00-6.76359E-02-2.06086E+00 2.42873E-13-4.57970E-13
 -1       811 1.81324E+01-2.36435E+00 3.88128E-02-5.38243E+00-3.86805E-13-2.90818E-13
 -1       812 2.00021E+01-1.23973E-03-9.04406E-08 1.63801E-03 4.70497E-13 4.64535E-13
 -1       813 1.38461E+01-3.67539E-01 6.67618E-02-4.70569E+00-3.28311E-13-6.08619E-13
 -1       814 2.00020E+01-1.14113E-03-3.16620E-07-1.71526E-03 2.35880E-14 2.30452E-13
 -1       815 2.20628E+01 3.93597E-01 2.86280E-04 1.43771E+00 9.09939E-14 1.57429E-13
 -1       816 1.20348E+01 1.07466E+00 9.42301E-02-2.62778E+00 5.38545E-14 5.80227E-13
 -1       817 2.32736E+01-4.08947E+00 2.12968E-02-3.85433E+00-3.37173E-13-6.71940E-14
 -1       818 1.01328E+01 8.04588E-01 1.49106E-01-2.16037E+00 1.31394E-13 5.36210E-13
 -1       819 2.03401E+01 1.36937E+00-1.33937E-04-3.33409E-02 1.81527E-13-2.61083E-13
 -1       820 1.25198E+01 1.91211E+00 5.28328E-02 3.24258E-01-2.24955E-14-6.44776E-13
 -1       821 2.52392E+01-3.33084E+00-1.52454E-02 9.78627E-01-2.95721E-13-4.17760E-13
 -1       822 1.87372E+01 2.69030E+00-4.81570E-04-2.77374E-01-1.39677E-13-4.24232E-13
 -1       823 2.61854E+01-1.30005E+00-1.65812E-02-1.17765E+00 2.03396E-15-4.89220E-13
 -1       824 2.18676E+01-9.72244E-01-5.55969E-04 4.19055E-01 7.39672E-14 2.37635E-14
 -1       825 2.00011E+01-1.08794E-03-1.59526E-07-2.56555E-03 5.05857E-14-5.38428E-14
 -1       826 2.57238E+01-1.82489E+00-1.80041E-02 7.45444E-01-1.96882E-14 1.59909E-13
 -1       827 1.86108E+01 2.74471E+00-3.73805E-04-5.83867E-01-9.83328E-14-4.76315E-13
 -1       828 2.07669E+01 5.88741E-01 4.04308E-04 9.42027E-02 2.17165E-13-1.09949E-13
 -1       829 2.53043E+01 1.31375E+00-3.33735E-02 1.99536E+00 2.10083E-13 2.57315E-13
 -1       830 1.99854E+01 1.67979E+00-4.85379E-04-3.35142E-01 1.45453E-13-3.36301E-13
 -1       831 2.15483E+01-7.89961E-01-3.53951E-04 9.06658E-02 3.75944E-14 1.74973E-15
 -1       832 9.64764E+00 1.21508E+00 1.13405E-01-5.84096E-02-1.69563E-14 1.50213E-13
 -1       833 2.00016E+01-1.12987E-03 7.54791E-07-2.17632E-03 1.24223E-13 1.60322E-13
 -1       834 1.91305E+01 2.32563E+00-2.84225E-04-7.64148E-01 1.09258E-14-4.28810E-13
 -1       835 1.65462E+01-1.86011E+00 4.32942E-02 5.42376E+00-4.43038E-13 7.82438E-14
 -1       836 1.11716E+01 8.58114E-01 8.07164E-02 2.91428E+00-1.92495E-13 3.30892E-13
 -1       837 1.65802E+01 2.23906E+00 1.15836E-03 5.00963E-03-1.21584E-13-4.36675E-13
 -1       838 1.49181E+01 2.13098E+00 6.49001E-03-2.21818E-01-7.70961E-14-4.97672E-13
 -1       839 1.45275E+01 1.95401E+00 1.30905E-02-9.54413E-02-1.07458E-13 9.66564E-14
 -1       840 2.39362E+01-3.23869E+00 5.24849E-03-1.98160E+00-1.81911E-13-3.57767E-14
 -1       841 1.62471E+01 1.84795E+00 1.33238E-03-3.00157E-01-1.32795E-13-1.26067E-13
 -1       842 1.74321E+01 1.61926E+00-3.36205E-04-4.29869E-01-1.52784E-13-2.12365E-13
 -1       843 1.82546E+01 1.35114E+00-2.99745E-04-4.84814E-01-8.09153E-14-1.27312E-13
 -1       844 1.88244E+01 1.09199E+00-1.19883E-04-4.83425E-01-8.60703E-14-1.51744E-14
 -1       845 1.92163E+01 8.63417E-01-4.05406E-05-4.46160E-01-9.04305E-14 8.08076E-15
 -1       846 1.94837E+01 6.72396E-01-1.42622E-05-3.90287E-01-1.40804E-13 1.27480E-14
 -1       847 1.96643E+01 5.18043E-01-5.83462E-06-3.28101E-01-1.79906E-13-6.47640E-14
 -1       848 1.97851E+01 3.95948E-01-2.50006E-06-2.67313E-01-1.14572E-13 5.48623E-14
 -1       849 1.98653E+01 3.00653E-01-7.90470E-07-2.12164E-01-2.90998E-14 2.87045E-14
 -1       850 1.99179E+01 2.26897E-01 1.75284E-07-1.64538E-01-1.66366E-13-1.96481E-14
 -1       851 1.99520E+01 1.70125E-01 1.91001E-06-1.24859E-01 9.01391E-15 1.06874E-13
 -1       852 1.99739E+01 1.26588E-01 4.79910E-07-9.26795E-02-1.59491E-13 2.51425E-13
 -1       853 1.99882E+01 9.19219E-02-2.30210E-07-6.61483E-02-5.28633E-14 1.06492E-13
 -1       854 1.99963E+01 6.70374E-02 8.09262E-07-4.67371E-02 1.33644E-13 1.26141E-13
 -1       855 2.00011E+01 4.82216E-02 3.10884E-07-3.19867E-02-1.39442E-13 1.34331E-14
 -1       856 2.00037E+01 3.41134E-02 2.20234E-07-2.10162E-02-1.98064E-13 2.59279E-13
 -1       857 2.00048E+01 2.36333E-02 1.58824E-07-1.30247E-02-2.12716E-13 3.14627E-13
 -1       858 2.00051E+01 1.59372E-02 9.18378E-08-7.33625E-03 2.59803E-13 1.28286E-13
 -1       859 2.00049E+01 1.03623E-02 3.43230E-08-3.39461E-03 2.62559E-13 1.09803E-13
 -1       860 2.00044E+01 6.38451E-03-1.12408E-07-7.54669E-04 6.54374E-14 1.31273E-14
 -1       861 2.00037E+01 3.59482E-03-1.04626E-07 9.33091E-04 7.71943E-14 3.66846E-14
 -1       862 2.00030E+01 1.66099E-03 9.20217E-08 1.93685E-03-1.38889E-13 4.49902E-14
 -1       863 2.00023E+01 3.27998E-04 1.22142E-06 2.45343E-03-2.06170E-13 3.88048E-13
 -1       864 2.00019E+01-4.87275E-04 8.38606E-07 2.49341E-03-1.18282E-13 3.67486E-13
 -1       865 2.25179E+01 3.05355E+00-1.46369E-02 7.54889E-02 2.90880E-13-7.96112E-14
 -1       866 2.27054E+01 2.42515E+00-6.56074E-03 1.14466E+00 1.96446E-13 4.34777E-14
 -1       867 2.29365E+01 1.35336E+00-1.03027E-02-1.77092E+00 1.15737E-13-2.59880E-13
 -1       868 2.31256E+01-4.80787E-02-8.33030E-03-1.71129E+00 6.98317E-14-3.15517E-13
 -1       869 2.29895E+01-1.01426E+00 1.40218E-03-1.18431E+00 1.51678E-14-2.54155E-13
 -1       870 2.25298E+01-1.43204E+00 3.60845E-04-5.37320E-01-1.64141E-13-1.06322E-13
 -1       871 2.19458E+01-1.40320E+00 8.55845E-04-2.12082E-02-2.14695E-13 5.88275E-14
 -1       872 2.13752E+01-1.14631E+00 5.11551E-05 3.13671E-01-1.67406E-13 1.84768E-13
 -1       873 2.08978E+01-8.17208E-01-6.97735E-05 4.87862E-01-6.86999E-14 2.15487E-13
 -1       874 2.05383E+01-5.07654E-01 1.36994E-05 5.47783E-01-5.03346E-14 2.25578E-13
 -1       875 2.02889E+01-2.58113E-01-1.04558E-05 5.36843E-01-8.55982E-14 1.74472E-13
 -1       876 2.01284E+01-7.75829E-02-5.74854E-06 4.87768E-01-8.79489E-14 1.62464E-13
 -1       877 2.00334E+01 4.04812E-02 6.35282E-07 4.22104E-01-1.65896E-13 2.50200E-13
 -1       878 1.99832E+01 1.08728E-01 3.09481E-06 3.52798E-01 6.98815E-15 3.48574E-13
 -1       879 1.99615E+01 1.40653E-01 3.36898E-06 2.87021E-01-1.62244E-14 3.59022E-13
 -1       880 1.99565E+01 1.48148E-01 2.85344E-06 2.28289E-01-8.52508E-14 3.56798E-13
 -1       881 1.99603E+01 1.40623E-01 2.18626E-06 1.77928E-01-1.11968E-13 4.94197E-13
 -1       882 1.99680E+01 1.24973E-01 1.61422E-06 1.36012E-01-2.80150E-15 2.76167E-13
 -1       883 1.99766E+01 1.05923E-01 1.13424E-06 1.01951E-01 1.33445E-13 4.27035E-16
 -1       884 1.99845E+01 8.64868E-02 7.33777E-07 7.48354E-02-9.58338E-14 8.85045E-14
 -1       885 1.99910E+01 6.84194E-02 4.27239E-07 5.36548E-02 1.30273E-13 3.30931E-14
 -1       886 1.99959E+01 5.26052E-02 2.19381E-07 3.74107E-02 1.26798E-13-4.91797E-14
 -1       887 1.99994E+01 3.93577E-02 8.97940E-08 2.51811E-02 1.18238E-13 2.76689E-13
 -1       888 2.00016E+01 2.86412E-02 1.36617E-08 1.61517E-02-2.74416E-14 4.72755E-13
 -1       889 2.00029E+01 2.02266E-02-2.64227E-08 9.62651E-03-8.35476E-15 5.87515E-13
 -1       890 2.00035E+01 1.37945E-02-5.55045E-08 5.02561E-03-2.76907E-14 5.93460E-13
 -1       891 2.00036E+01 9.00029E-03-8.75954E-08 1.87717E-03-4.54756E-14 2.30586E-13
 -1       892 2.00034E+01 5.51152E-03-1.31661E-07-1.94915E-04-1.20351E-13 3.32212E-13
 -1       893 2.00029E+01 3.02530E-03-3.91188E-08-1.48566E-03 1.72814E-13 3.38899E-13
 -1       894 2.00024E+01 1.27349E-03-3.22350E-07-2.20913E-03-7.52092E-14 2.52777E-13
 -1       895 2.00018E+01 4.57346E-05-8.02997E-07-2.53703E-03 2.34589E-13 1.33424E-13
 -1       896 2.00014E+01-5.67613E-04-1.01298E-06-2.60069E-03 3.96843E-13-1.20056E-14
 -1       897 1.87762E+01 2.59594E+00-1.43853E-04-7.62526E-01-2.74639E-14-4.30155E-13
 -1       898 2.10354E+01-2.65930E+00 1.58119E-02-3.93090E+00-2.30136E-13-2.22974E-13
 -1       899 2.45051E+01 1.76622E+00-2.04229E-02-2.04162E+00 1.93318E-13-4.82356E-13
 -1       900 2.25347E+01 2.70502E+00-1.02042E-02-1.16745E+00 2.03169E-13-1.47571E-13
 -1       901 2.30691E+01-1.17843E+00-1.47404E-03 8.74197E-01 2.22840E-14 1.14553E-13
 -1       902 2.11164E+01-1.83820E-01-6.16547E-05-3.78945E-01 6.63843E-14-1.54866E-13
 -1       903 2.34736E+01 3.65279E+00-2.66340E-02 8.61703E-01 3.39668E-13-6.34874E-14
 -1       904 2.10840E+01-3.02613E+00 1.73508E-02 4.00906E+00-4.22949E-13-3.34140E-13
 -1       905 2.00029E+01-1.56355E-04 6.71127E-07-1.32440E-03 2.43561E-13-9.93408E-15
 -1       906 1.77094E+01 2.30344E+00-2.06332E-03 5.68184E-02-1.36119E-13-4.02772E-13
 -1       907 2.05837E+01 8.38731E-01 1.95899E-04-1.53784E-01 1.70153E-13-1.95347E-13
 -1       908 2.08363E+01 2.99985E-01-6.77376E-04-3.03788E-01 1.46579E-13-1.70477E-13
 -1       909 1.82625E+01 2.45974E+00 5.24212E-04-3.88480E-01-1.26575E-13-4.23567E-13
 -1       910 1.19804E+01 1.80396E+00 6.77009E-02-2.02752E-02-1.17423E-13 1.63140E-13
 -1       911 2.46367E+01 4.04737E-07-1.97868E-03-1.81291E+00 5.00329E-14-4.44764E-13
 -1       912 1.41704E+01-3.94249E-02 4.38759E-02 4.18590E+00-4.17303E-13 4.20757E-13
 -1       913 2.45523E+01-2.55570E+00-1.80471E-02-2.33387E-01-8.68880E-14 7.67398E-14
 -1       914 2.29767E+01-3.31742E+00 2.34577E-03 2.61815E+00-3.84483E-13-3.10292E-13
 -1       915 1.94850E+01 1.52527E+00 4.74596E-05-1.01712E+00-2.99969E-15-3.53579E-13
 -1       916 2.26377E+01-1.39083E+00-9.07136E-04 3.00401E-01-7.75687E-15 3.72242E-14
 -1       917 2.30902E+01 1.03399E+00-3.24023E-03 1.64171E+00 1.61934E-13 1.28805E-13
 -1       918 1.68378E+01-4.91769E-01 1.46678E-02-4.11325E+00-3.31169E-13-3.99600E-13
 -1       919 2.15537E+01-7.53925E-01-3.28563E-04-3.61482E-01 1.03877E-14-1.12073E-13
 -1       920 2.00032E+01-1.26726E-04-8.01821E-07-5.15620E-04 3.68002E-13-5.30532E-14
 -1       921 2.48392E+01-5.82133E-01-2.50502E-03 1.53326E+00 6.29040E-14 1.70880E-13
 -1       922 2.00026E+01-3.72799E-04-6.05377E-07 1.75787E-03-3.77831E-15 1.06862E-13
 -1       923 2.00032E+01-1.64612E-04-9.67491E-07 3.28826E-04 2.57203E-13 2.64897E-13
 -1       924 1.44592E+01 1.05421E+00 2.71501E-02-2.79812E+00-1.96672E-13-5.14806E-13
 -1       925 2.00341E+01 1.15275E+00 1.28905E-03-7.76074E-01 5.49041E-14-3.09030E-13
 -1       926 2.32439E+01-3.08997E-01 1.64232E-04 1.46439E+00 5.30403E-14 1.63903E-13
 -1       927 1.44291E+01 1.77845E+00 2.79814E-02-1.43891E+00-1.25222E-13-4.99647E-13
 -1       928 2.00025E+01-2.48311E-04-4.05948E-07-1.84538E-03 1.84134E-13 2.25711E-13
 -1       929 2.00030E+01-2.56281E-04-4.20346E-07 1.05581E-03 3.02311E-13 1.92146E-13
 -1       930 2.46453E+01-1.95772E+00-5.01807E-03-6.11413E-01-9.63017E-14-3.73067E-13
 -1       931 1.61293E+01 1.84848E+00 4.12625E-03-1.30457E+00-1.70466E-13-4.09736E-13
 -1       932 2.34028E+01-1.90569E+00-5.99185E-03-2.67087E-01-2.16770E-13-1.93302E-13
 -1       933 2.03592E+01 9.77033E-01 1.03953E-04-4.63284E-01 1.22123E-13-2.83766E-13
 -1       934 1.68429E+01 1.47624E+00-2.37114E-05 6.13843E-01-2.30139E-13-8.13269E-14
 -1       935 1.77418E+01 1.33262E+00-3.78824E-04 2.32493E-01-3.64324E-14 3.51228E-14
 -1       936 1.83941E+01 1.14524E+00-1.54776E-04 3.51331E-03-5.45154E-14 1.57022E-13
 -1       937 1.88663E+01 9.52517E-01-5.20751E-05-1.20702E-01-1.05220E-13-8.62714E-14
 -1       938 1.92065E+01 7.73998E-01-2.17276E-05-1.76726E-01 7.31474E-15-1.36320E-13
 -1       939 1.94497E+01 6.18296E-01-1.50280E-05-1.90809E-01-1.83760E-13-8.62072E-14
 -1       940 1.96224E+01 4.87494E-01-1.29093E-05-1.81073E-01-3.72751E-14-1.27127E-13
 -1       941 1.97441E+01 3.80271E-01-1.09699E-05-1.59467E-01-1.36904E-13-2.55097E-13
 -1       942 1.98292E+01 2.93832E-01-8.90629E-06-1.33465E-01 1.65406E-14-3.22642E-13
 -1       943 1.98884E+01 2.24979E-01-5.53754E-06-1.07444E-01 6.75034E-14-1.29698E-13
 -1       944 1.99292E+01 1.70605E-01-5.16911E-06-8.36890E-02 1.90647E-14 9.75765E-14
 -1       945 1.99580E+01 1.26206E-01-5.63894E-06-6.23954E-02-1.01656E-13 2.21024E-13
 -1       946 1.99763E+01 9.36105E-02-2.07826E-06-4.58159E-02-2.78407E-14 2.26213E-13
 -1       947 1.99883E+01 6.84896E-02-2.06357E-06-3.25974E-02-4.04477E-14-7.71809E-14
 -1       948 1.99960E+01 4.93230E-02-1.39637E-06-2.23741E-02-7.71279E-14-9.75396E-14
 -1       949 2.00006E+01 3.48519E-02-9.04233E-07-1.46685E-02-6.41729E-14-4.23646E-14
 -1       950 2.00033E+01 2.40565E-02-5.57106E-07-9.00734E-03 1.83581E-14 2.24104E-13
 -1       951 2.00045E+01 1.61131E-02-2.75281E-07-4.95914E-03 2.46504E-14-6.24636E-15
 -1       952 2.00049E+01 1.03595E-02-3.26946E-08-2.14871E-03 1.34000E-13-3.72605E-13
 -1       953 2.00047E+01 6.25072E-03-9.12878E-07-2.76775E-04 2.70520E-14-3.84888E-13
 -1       954 2.00042E+01 3.37656E-03-3.40295E-07 9.18953E-04 2.52660E-13-1.13563E-13
 -1       955 2.00035E+01 1.37670E-03-1.16968E-07 1.60675E-03 8.69871E-14 1.26786E-13
 -1       956 2.00031E+01 4.42837E-04-1.44924E-07 1.74935E-03-1.43679E-13 1.57648E-13
 -1       957 1.89108E+01 1.92085E+00-9.00891E-04-1.07584E+00-4.10495E-14-4.00785E-13
 -1       958 1.38724E+01 1.42683E+00 2.72097E-02 1.89951E+00-1.24209E-13 2.16440E-13
 -1       959 2.25305E+01-1.91216E+00 7.71953E-04 3.80008E-01-2.63873E-13-1.83550E-13
 -1       960 2.16838E+01-1.54442E+00-7.47648E-04 7.41369E-01-3.91655E-13-7.34298E-14
 -1       961 2.09944E+01-1.07899E+00-9.62926E-04 8.74925E-01-1.53353E-13 6.97429E-14
 -1       962 2.05107E+01-6.55873E-01 1.96278E-04 8.58677E-01-2.46336E-14 1.60082E-13
 -1       963 2.01944E+01-3.22175E-01-1.99414E-05 7.66186E-01-4.30478E-15 1.77306E-13
 -1       964 2.00061E+01-8.54828E-02-1.57964E-05 6.46885E-01-1.02474E-13 1.88013E-13
 -1       965 1.99067E+01 6.68584E-02-5.99393E-06 5.27157E-01-2.32681E-13 1.01276E-13
 -1       966 1.98651E+01 1.53654E-01-3.99808E-06 4.19031E-01-1.62285E-13 5.91408E-14
 -1       967 1.98583E+01 1.93421E-01-4.42712E-06 3.26949E-01 6.49415E-14 9.50384E-14
 -1       968 1.98705E+01 2.01866E-01-4.84940E-06 2.51298E-01-9.55898E-14 6.87342E-14
 -1       969 1.98913E+01 1.91156E-01-4.76790E-06 1.90606E-01-1.32260E-13 9.99204E-14
 -1       970 1.99143E+01 1.70101E-01-4.22482E-06 1.42730E-01 6.09548E-14 1.08340E-13
 -1       971 1.99361E+01 1.44706E-01-3.63574E-06 1.05459E-01 1.64262E-13 1.31727E-13
 -1       972 1.99548E+01 1.18821E-01-2.78866E-06 7.67686E-02 8.08669E-14 1.77800E-13
 -1       973 1.99700E+01 9.46864E-02-2.27238E-06 5.49162E-02-6.13808E-16 8.67664E-14
 -1       974 1.99816E+01 7.34546E-02-1.77583E-06 3.84569E-02 7.01980E-14 4.37955E-13
 -1       975 1.99902E+01 5.55519E-02-1.33885E-06 2.62074E-02 3.58624E-14 4.20980E-13
 -1       976 1.99961E+01 4.09554E-02-9.75301E-07 1.72142E-02-5.87488E-14 3.90894E-13
 -1       977 2.00000E+01 2.93901E-02-6.82023E-07 1.07158E-02-1.02310E-13 5.26192E-13
 -1       978 2.00024E+01 2.04589E-02-4.51489E-07 6.10844E-03 2.24471E-14 5.27773E-13
 -1       979 2.00036E+01 1.37256E-02-2.80890E-07 2.91783E-03 2.96417E-13 4.37759E-13
 -1       980 2.00040E+01 8.76536E-03-3.80965E-07 7.75882E-04-5.51762E-14 2.98316E-13
 -1       981 2.00040E+01 5.18851E-03-1.96118E-07-6.00750E-04-6.05367E-14 1.71469E-13
 -1       982 2.00035E+01 2.62896E-03-4.03085E-06-1.44858E-03 1.43829E-13 3.77501E-13
 -1       983 2.00029E+01 8.99536E-04 3.85861E-06-1.87646E-03 2.41705E-13-4.42620E-14
 -1       984 1.82870E+01-1.27132E+00 1.81706E-02 3.97328E+00-4.15180E-13-1.69595E-13
 -1       985 1.84478E+01 2.26492E+00-6.53617E-04-8.86464E-01-6.49066E-14-4.19673E-13
 -1       986 1.66496E+01 7.85963E-01 3.90420E-03-2.76368E+00-2.35718E-13-3.78234E-13
 -1       987 2.21768E+01-2.29399E+00 5.07225E-03-2.36690E+00-1.81921E-13-2.25818E-14
 -1       988 2.20815E+01-1.19878E+00-6.54883E-04-1.41282E-01 3.63428E-14-6.97421E-14
 -1       989 2.36917E+01 2.28553E+00-1.75990E-02 1.63372E+00 2.51753E-13 7.42230E-14
 -1       990 1.72757E+01 2.08365E+00-9.73756E-04-8.00805E-01-1.36261E-13-3.71418E-13
 -1       991 1.94032E+01-9.82071E-01 4.78013E-03-3.34846E+00-2.39368E-13-3.38190E-13
 -1       992 1.56093E+01 1.55169E+00 7.85848E-03 1.13705E+00-1.95302E-13 8.34665E-14
 -1       993 2.39611E+01 4.12799E-01-6.99254E-03 1.72093E+00 1.34261E-13 1.10147E-13
 -1       994 2.35282E+01-1.96374E+00 1.38074E-03 1.51577E-02-7.69489E-14 6.48213E-14
 -1       995 2.31798E+01-2.32252E+00-1.18751E-03-1.09985E+00-1.69952E-13-3.58457E-14
 -1       996 2.05582E+01-2.00020E+00 5.78643E-03 3.02164E+00-4.37112E-13-3.71387E-13
 -1       997 2.11970E+01-4.50653E-01-1.75410E-04-8.24161E-01-7.28516E-15-1.50782E-13
 -1       998 1.92605E+01 1.09881E+00-1.87997E-04-1.47883E+00-8.81648E-14-3.28145E-13
 -1       999 2.00034E+01 1.10997E-03 2.83938E-06-1.41746E-03 3.46475E-13 1.98311E-13
 -1      1000 2.00038E+01 1.23054E-03 1.61853E-07-7.23615E-04 2.47430E-13-5.89171E-14
 -1      1001 2.08112E+01 1.07125E-01 3.72522E-04-7.44279E-01 5.83109E-14-1.86875E-13
 -1      1002 2.00040E+01 1.23126E-03 2.05362E-06 1.42642E-05 8.51984E-14-1.36249E-14
 -1      1003 2.00038E+01 1.10438E-03 2.74681E-06 6.74958E-04-1.38197E-13-1.58726E-13
 -1      1004 2.00233E+01 6.40350E-01-1.04420E-04-1.26020E+00-1.77645E-14-2.70763E-13
 -1      1005 2.36977E+01-2.77430E+00-1.01436E-03 9.74069E-01-3.10858E-13-2.66635E-13
 -1      1006 1.81716E+01 1.59803E+00 3.97068E-03-1.48625E+00-1.10172E-13-4.07946E-13
 -1      1007 1.77082E+01 9.93230E-01 2.36899E-04 1.06687E+00-1.24854E-13-7.10628E-14
 -1      1008 1.82573E+01 9.77860E-01-8.92798E-05 6.03872E-01 7.26181E-15-7.34835E-14
 -1      1009 1.86959E+01 8.90992E-01-2.96021E-05 3.06953E-01-1.87332E-13-1.37715E-13
 -1      1010 1.90365E+01 7.74815E-01-3.61480E-05 1.23718E-01-1.33015E-13-8.39409E-14
 -1      1011 1.92967E+01 6.52809E-01-4.44006E-05 1.74361E-02-1.81189E-13-3.21495E-13
 -1      1012 1.94928E+01 5.37421E-01-4.61176E-05-3.86032E-02-1.87140E-13-4.15841E-13
 -1      1013 1.96390E+01 4.34484E-01-4.25973E-05-6.32315E-02-2.86889E-14-4.24703E-13
 -1      1014 1.97468E+01 3.45988E-01-3.66501E-05-6.92987E-02-3.27906E-14-2.19806E-13
 -1      1015 1.98255E+01 2.71824E-01-2.90465E-05-6.52709E-02 1.38929E-13-1.76128E-13
 -1      1016 1.98824E+01 2.10819E-01-2.28722E-05-5.64329E-02 1.87266E-13-1.03116E-13
 -1      1017 1.99247E+01 1.59252E-01-2.16745E-05-4.55600E-02-2.15232E-15 4.82207E-14
 -1      1018 1.99528E+01 1.20296E-01-1.34215E-05-3.55048E-02-1.51295E-13-1.62635E-13
 -1      1019 1.99722E+01 8.95524E-02-1.09729E-05-2.65768E-02-2.23095E-13-2.64535E-13
 -1      1020 1.99854E+01 6.56096E-02-8.15346E-06-1.91368E-02 5.08400E-14-1.66295E-13
 -1      1021 1.99941E+01 4.71990E-02-5.95591E-06-1.32037E-02-7.11862E-14 2.30755E-14
 -1      1022 1.99995E+01 3.32326E-02-4.26606E-06-8.64221E-03 8.17194E-14-8.09349E-14
 -1      1023 2.00027E+01 2.27908E-02-2.99392E-06-5.24858E-03-2.40799E-14 1.03270E-13
 -1      1024 2.00044E+01 1.51053E-02-1.31031E-06-2.80731E-03-1.09250E-13 4.14509E-14
 -1      1025 2.00049E+01 9.55293E-03-2.63659E-06-1.09794E-03 5.12594E-14-4.50956E-14
 -1      1026 2.00049E+01 5.62770E-03 4.67719E-06 3.72018E-05 2.62448E-13 1.92042E-13
 -1      1027 2.00043E+01 2.81433E-03-1.06322E-06 7.42382E-04 2.16022E-13-8.48381E-14
 -1      1028 2.07593E+01-1.07601E+00-1.60558E-03-2.31403E+00-1.58402E-13-1.23862E-13
 -1      1029 2.03528E+01-7.60876E-01-3.77362E-04 1.29100E+00-1.51461E-13-1.72319E-13
 -1      1030 1.99821E+01-3.34235E-01-2.63305E-04 1.07325E+00-8.56840E-14-8.78495E-14
 -1      1031 1.97966E+01-4.72531E-02 6.05765E-05 8.46589E-01 9.80690E-15-7.30811E-14
 -1      1032 1.97169E+01 1.30736E-01 4.03591E-05 6.48774E-01-1.85651E-13-5.20585E-14
 -1      1033 1.97029E+01 2.27036E-01 2.28651E-05 4.86913E-01-2.11774E-13-1.02607E-13
 -1      1034 1.97248E+01 2.66830E-01 3.90303E-06 3.60122E-01 1.11316E-14-9.64921E-14
 -1      1035 1.97637E+01 2.70157E-01-8.47314E-06 2.63487E-01-3.89172E-14 1.02268E-13
 -1      1036 1.98078E+01 2.51845E-01-1.45107E-05 1.91151E-01-6.89567E-14-9.20203E-14
 -1      1037 1.98504E+01 2.22314E-01-1.64626E-05 1.37643E-01-9.02641E-14-2.61636E-13
 -1      1038 1.98882E+01 1.88507E-01-1.55291E-05 9.83642E-02 9.20755E-14-1.65825E-13
 -1      1039 1.99196E+01 1.54795E-01-1.30946E-05 6.97105E-02 6.76587E-14-1.21105E-14
 -1      1040 1.99448E+01 1.23679E-01-1.16116E-05 4.88585E-02 4.35634E-14-1.10961E-13
 -1      1041 1.99641E+01 9.64105E-02-9.55521E-06 3.37631E-02-6.38896E-15-1.30910E-13
 -1      1042 1.99784E+01 7.34198E-02-7.65216E-06 2.28810E-02-3.36779E-14-1.30541E-13
 -1      1043 1.99886E+01 5.46248E-02-5.94171E-06 1.50851E-02-6.15561E-14 2.03785E-13
 -1      1044 1.99955E+01 3.96612E-02-4.49076E-06 9.54887E-03-1.33533E-13 1.14047E-13
 -1      1045 2.00000E+01 2.80296E-02-3.29320E-06 5.66467E-03-4.45327E-14 3.90680E-14
 -1      1046 2.00026E+01 1.91902E-02-2.43889E-06 2.98374E-03 1.57364E-13-6.71656E-15
 -1      1047 2.00040E+01 1.26140E-02-1.51483E-06 1.17210E-03 2.80822E-13 2.50507E-13
 -1      1048 2.00044E+01 7.84285E-03-4.31544E-07 1.95949E-06-3.37984E-14 2.24066E-13
 -1      1049 2.00043E+01 4.37070E-03-2.03534E-07-7.48867E-04 1.35331E-13 2.13665E-13
 -1      1050 1.88411E+01-7.54320E-01 2.69633E-03 2.88648E+00-3.34818E-13-2.79129E-13
 -1      1051 2.18299E+01-1.14823E+00-4.77857E-04-8.25177E-01-3.90086E-14-1.22388E-13
 -1      1052 2.18342E+01-2.22348E+00 3.26531E-03 1.93418E+00-4.49202E-13-1.88245E-13
 -1      1053 1.84577E+01 4.38036E-01-4.39082E-03-2.46847E+00-1.85366E-13-4.05839E-13
 -1      1054 2.00035E+01 7.81498E-04 3.61683E-06 1.20954E-03-6.65702E-14-1.90851E-13
 -1      1055 2.08620E+01-1.37920E+00-5.79110E-03 1.64293E+00-3.45671E-13-2.47945E-13
 -1      1056 1.60621E+01 4.61970E-01 3.54625E-03 2.91241E+00-3.01345E-13 1.57526E-13
 -1      1057 2.18920E+01-1.57082E+00-8.70309E-04-1.55999E+00-1.32433E-13-1.00580E-13
 -1      1058 1.89295E+01 5.88265E-01 1.16424E-02-2.11226E+00-1.32669E-13-3.71909E-13
 -1      1059 1.69771E+01 9.28658E-01 2.15313E-03 1.72040E+00-3.22570E-13-1.14888E-13
 -1      1060 2.26324E+01-1.71463E+00 1.17892E-04-5.68660E-01-7.59928E-14-3.08964E-14
 -1      1061 2.03700E+01-1.32253E+00 3.38710E-03 2.20110E+00-3.46133E-13-3.59089E-13
 -1      1062 2.11149E+01-7.31121E-01-1.41521E-03-1.43348E+00-4.67424E-14-1.43798E-13
 -1      1063 1.75288E+01 1.34236E+00 5.45487E-03-1.88231E+00-1.44886E-13-3.69575E-13
 -1      1064 2.06278E+01-7.09427E-02-3.38253E-04-1.27474E+00-4.43167E-14-1.97154E-13
 -1      1065 2.00047E+01 4.74251E-03-2.05191E-06-4.29171E-04 1.08359E-13-3.71274E-13
 -1      1066 2.00047E+01 3.73638E-03-4.12699E-06 7.85672E-05 2.78351E-14-2.03437E-13
 -1      1067 2.00049E+01 7.12045E-03-1.37178E-07-2.91228E-04 3.38074E-13-2.38513E-13
 -1      1068 1.99988E+01 1.19909E-01-1.66109E-03-1.76953E+00-1.07276E-13-2.37553E-13
 -1      1069 1.85040E+01 5.69509E-01-2.73874E-04 1.18653E+00-1.35844E-13-2.42891E-13
 -1      1070 1.87780E+01 6.52487E-01-4.94867E-04 7.57645E-01-5.73699E-14-3.44653E-13
 -1      1071 1.90297E+01 6.49567E-01-3.96303E-04 4.63130E-01-2.34747E-13-2.21388E-13
 -1      1072 1.92473E+01 5.99639E-01-2.64320E-04 2.68198E-01-2.07537E-13-2.36484E-13
 -1      1073 1.94276E+01 5.27767E-01-1.65569E-04 1.43848E-01-2.07247E-13-6.92402E-14
 -1      1074 1.95727E+01 4.49172E-01-9.89559E-05 6.78179E-02-1.84951E-13-9.07583E-14
 -1      1075 1.96867E+01 3.72592E-01-5.60674E-05 2.37608E-02-5.63381E-14-3.00768E-13
 -1      1076 1.97747E+01 3.02636E-01-2.98611E-05 1.10028E-04 1.78713E-13-2.54972E-13
 -1      1077 1.98415E+01 2.41290E-01-2.68957E-05-1.10513E-02 2.23323E-13-3.13238E-13
 -1      1078 1.98935E+01 1.86896E-01-1.46982E-05-1.50874E-02 1.30303E-13-1.98909E-13
 -1      1079 1.99295E+01 1.44123E-01 1.40590E-06-1.49356E-02-1.51514E-13-8.49208E-15
 -1      1080 1.99554E+01 1.09314E-01 3.40971E-06-1.29866E-02-2.24722E-13 6.64924E-14
 -1      1081 1.99737E+01 8.15096E-02 3.90310E-06-1.04141E-02 4.72408E-14 5.01148E-14
 -1      1082 1.99863E+01 5.96655E-02 3.73792E-06-7.84345E-03 1.18741E-13-5.18220E-14
 -1      1083 1.99946E+01 4.27797E-02 3.28091E-06-5.57605E-03-1.30365E-13-1.66873E-14
 -1      1084 1.99998E+01 2.99392E-02 2.73961E-06-3.72247E-03 4.27126E-14-2.72499E-13
 -1      1085 2.00029E+01 2.03401E-02 1.92993E-06-2.28928E-03-2.12332E-13-5.84608E-13
 -1      1086 2.00044E+01 1.32737E-02 1.05955E-07-1.20230E-03 8.59211E-14-1.53175E-13
 -1      1087 1.95933E+01-2.65885E-01 8.89719E-04 1.45448E+00-1.40301E-13-4.38360E-13
 -1      1088 1.94784E+01 3.42746E-01 2.01074E-04 5.47690E-01-1.83340E-13-2.18541E-13
 -1      1089 1.95517E+01 3.69626E-01 1.43313E-04 3.79562E-01-7.05794E-14-2.52347E-13
 -1      1090 1.96322E+01 3.58104E-01 9.18751E-05 2.59551E-01-1.83595E-13-7.29065E-14
 -1      1091 1.97092E+01 3.25280E-01 5.64108E-05 1.75591E-01-4.28706E-14 6.01348E-14
 -1      1092 1.97773E+01 2.82584E-01 3.39749E-05 1.17768E-01 1.20582E-14 1.78283E-13
 -1      1093 1.98346E+01 2.37329E-01 2.40472E-05 7.84287E-02-3.08029E-14 6.00305E-14
 -1      1094 1.98809E+01 1.93920E-01 2.43827E-05 5.18422E-02 1.40381E-13-5.68825E-14
 -1      1095 1.99172E+01 1.54659E-01 1.04382E-05 3.40220E-02 1.59532E-13-1.37041E-13
 -1      1096 1.99448E+01 1.20678E-01 3.69135E-06 2.21638E-02 2.26256E-14 7.50600E-15
 -1      1097 1.99652E+01 9.22202E-02 2.76216E-06 1.42546E-02-8.61057E-14 4.95030E-14
 -1      1098 1.99798E+01 6.90117E-02 2.20284E-06 8.99250E-03-2.12537E-13-1.74372E-13
 -1      1099 1.99900E+01 5.05225E-02 1.86494E-06 5.49793E-03-1.69181E-14-2.98788E-13
 -1      1100 1.99968E+01 3.61063E-02 1.61823E-06 3.18571E-03-1.16532E-13-3.59554E-13
 -1      1101 2.00010E+01 2.50941E-02 1.37298E-06 1.66721E-03-9.70726E-15-1.35648E-13
 -1      1102 2.00034E+01 1.68561E-02 2.97379E-06 6.90003E-04 2.71821E-13 2.96122E-14
 -1      1103 2.00045E+01 1.07735E-02 8.89389E-07 4.70021E-05 1.19574E-13 2.10863E-14
 -1      1104 2.00047E+01 7.43422E-03 8.21921E-06-2.36829E-04 8.07938E-14-1.42499E-13
 -1      1105 1.92843E+01-4.41238E-01 8.05754E-03 2.04909E+00-2.30458E-13-5.22904E-13
 -1      1106 1.94321E+01 2.52800E-01 1.99041E-04 7.77264E-01-9.97956E-14-2.93763E-13
 -1      1107 1.94475E+01 6.45614E-02-1.60641E-04 1.08057E+00-8.01992E-14-3.64134E-13
 -1      1108 1.81834E+01 3.73627E-01-4.52020E-03 1.76557E+00-2.22907E-13-1.12801E-13
 -1      1109 2.81807E+01 9.14033E+00 2.28690E+00-6.47328E+00-5.22915E-14 1.62315E-12
 -1      1110 2.10818E+01 6.39983E+00 2.50930E-01-3.51195E+00-2.85050E-14 1.74312E-13
 -1      1111 1.98456E+01 5.98286E+00 9.72840E-02-2.39616E+00-1.92901E-14-4.41232E-13
 -1      1112 1.91955E+01 5.77675E+00 6.02972E-02-1.73398E+00-1.27259E-14-7.36356E-13
 -1      1113 1.87482E+01 5.63671E+00 4.08601E-02-1.27387E+00-7.74381E-15-8.68207E-13
 -1      1114 1.84388E+01 5.54029E+00 2.87834E-02-9.37859E-01-4.77396E-15-9.23410E-13
 -1      1115 1.82520E+01 5.48260E+00 2.32960E-02-6.69396E-01-1.46411E-15-9.46487E-13
 -1      1116 1.81785E+01 5.46066E+00 2.36643E-02-4.21778E-01 1.02349E-16-9.29554E-13
 -1      1117 1.82047E+01 5.47003E+00 2.87054E-02-1.62386E-01 2.10595E-15-9.05838E-13
 -1      1118 1.83087E+01 5.50359E+00 3.65649E-02 1.33563E-01 5.18335E-15-8.65120E-13
 -1      1119 1.84689E+01 5.55434E+00 4.55371E-02 4.81588E-01 6.84522E-15-8.00873E-13
 -1      1120 1.86697E+01 5.61728E+00 5.45011E-02 8.87635E-01 1.01377E-14-7.04351E-13
 -1      1121 1.89131E+01 5.69264E+00 6.23743E-02 1.36463E+00 1.40443E-14-5.56827E-13
 -1      1122 1.92338E+01 5.79115E+00 6.99750E-02 1.93631E+00 1.79232E-14-3.23970E-13
 -1      1123 1.97377E+01 5.94694E+00 8.54074E-02 2.64951E+00 2.20934E-14 7.34794E-14
 -1      1124 2.08064E+01 6.29471E+00 1.75939E-01 3.67738E+00 2.41751E-14 8.02271E-13
 -1      1125 2.54647E+01 8.06792E+00 1.42826E+00 5.73799E+00 4.46865E-14 2.24867E-12
 -1      1126 2.89224E+01 3.50758E+00 1.15365E+00-4.07120E+00-2.16049E-13 2.54047E-12
 -1      1127 2.10047E+01-1.89553E-01-6.29298E-01-7.16219E-02-7.40796E-14 2.04523E-12
 -1      1128 2.01532E+01-1.08723E-01-2.44946E-01 7.18236E-02-3.35426E-14 1.33665E-12
 -1      1129 2.03943E+01-6.91783E-02-8.60457E-02 5.05853E-02-2.19312E-14 8.50722E-13
 -1      1130 2.11086E+01-5.55754E-02-6.02196E-02 4.51250E-02-9.36317E-15 5.53627E-13
 -1      1131 2.22729E+01-5.37932E-02-6.89023E-02 5.21303E-02-1.56203E-14 3.63203E-13
 -1      1132 2.39357E+01-5.40750E-02-8.05313E-02 7.05383E-02-9.07434E-15 2.13107E-13
 -1      1133 2.61554E+01-4.64098E-02-7.37071E-02 9.95264E-02 7.93159E-15 1.63120E-13
 -1      1134 2.88866E+01-1.47559E-02-1.16442E-02 1.29859E-01-7.43047E-15 8.74023E-14
 -1      1135 3.17484E+01 6.22070E-02 1.53666E-01 1.27478E-01 7.20170E-15 6.57946E-14
 -1      1136 3.36622E+01 1.92061E-01 4.11734E-01 1.62658E-02 1.79422E-14 1.60205E-13
 -1      1137 3.27381E+01 2.97681E-01 5.49084E-01-2.80568E-01 1.90785E-14 4.33209E-13
 -1      1138 2.74991E+01 1.69261E-01 1.45811E-01-6.40851E-01 1.03103E-14 3.66429E-13
 -1      1139 2.02328E+01-2.04658E-01-7.72727E-01-6.25924E-01-6.22766E-15 8.74856E-14
 -1      1140 1.63146E+01-5.31963E-01-1.36455E+00-6.63455E-02-3.01495E-14-5.96426E-13
 -1      1141 1.95166E+01-3.24400E-01-9.05069E-01 6.11775E-01-1.96267E-14-1.52950E-12
 -1      1142 2.70461E+01 1.54078E-01 6.27472E-02 6.84369E-01-9.46986E-15-1.93739E-12
 -1      1143 3.29085E+01 3.10297E-01 5.48817E-01 3.26824E-01 3.57075E-14-1.87239E-12
 -1      1144 3.43885E+01 2.09675E-01 4.43066E-01 8.87938E-03 8.95117E-15-1.44700E-12
 -1      1145 3.27865E+01 7.45650E-02 1.76218E-01-1.19740E-01-2.24040E-14-1.41755E-12
 -1      1146 3.00744E+01-8.63069E-03-2.76700E-03-1.27209E-01 4.11646E-14-1.11262E-12
 -1      1147 2.74318E+01-4.26019E-02-7.24388E-02-9.51799E-02 2.38776E-14-8.11309E-13
 -1      1148 2.52452E+01-4.62612E-02-7.89566E-02-6.34878E-02-2.19096E-15-6.09172E-13
 -1      1149 2.36197E+01-4.21947E-02-6.61665E-02-3.56566E-02-4.50031E-15-4.69950E-13
 -1      1150 2.24935E+01-3.31576E-02-4.88018E-02-2.06022E-02-1.14943E-14-5.00416E-13
 -1      1151 2.17031E+01-2.48244E-02-3.44303E-02-1.14894E-02-4.76195E-14-8.93084E-13
 -1      1152 2.11537E+01-1.81096E-02-2.38438E-02-6.19660E-03 1.64725E-14-1.12986E-12
 -1      1153 2.07732E+01-1.30409E-02-1.64270E-02-3.18087E-03-3.35803E-14-1.01132E-12
 -1      1154 2.05105E+01-9.33817E-03-1.13307E-02-1.48300E-03 1.78474E-14-1.18168E-12
 -1      1155 2.03296E+01-6.67472E-03-7.84409E-03-5.39654E-04 3.61573E-14-6.81710E-13
 -1      1156 2.02056E+01-4.76959E-03-5.45092E-03-2.71382E-05-2.70299E-14-6.87563E-13
 -1      1157 2.01214E+01-3.40692E-03-3.79673E-03 2.39089E-04 3.91021E-14-1.39366E-12
 -1      1158 2.00650E+01-2.42950E-03-2.64377E-03 3.64306E-04 8.81631E-14-1.15879E-12
 -1      1159 2.00281E+01-1.72586E-03-1.83384E-03 4.08969E-04-8.12933E-14-7.79687E-13
 -1      1160 2.00047E+01-1.21826E-03-1.26198E-03 4.07687E-04-9.28717E-14-9.79166E-13
 -1      1161 1.99906E+01-8.65967E-04-8.61133E-04 3.81153E-04 1.53873E-14-1.12646E-12
 -1      1162 1.99828E+01-5.51405E-04-5.55563E-04 3.24650E-04-6.54296E-14-9.06125E-13
 -1      1163 1.99794E+01-3.84497E-04-3.55485E-04 2.98748E-04 1.94660E-14-7.31301E-13
 -1      1164 1.99789E+01-2.51348E-04-2.17956E-04 2.57263E-04 4.70310E-15-8.46906E-13
 -1      1165 1.99800E+01-1.56794E-04-1.22767E-04 2.17177E-04-5.48259E-14-1.26555E-12
 -1      1166 1.99821E+01-9.11122E-05-5.89312E-05 1.81042E-04-1.11034E-14-9.54341E-13
 -1      1167 1.99847E+01-4.63422E-05-1.74830E-05 1.49738E-04 4.55285E-14-6.32433E-13
 -1      1168 1.99874E+01-1.63531E-05 8.51268E-06 1.23508E-04 7.46110E-14-5.36677E-13
 -1      1169 1.99901E+01 3.67560E-06 2.45954E-05 1.02190E-04-3.79472E-14-3.59707E-13
 -1      1170 1.99927E+01 1.76631E-05 3.55850E-05 8.51999E-05 2.69817E-15-6.77300E-13
 -1      1171 1.99950E+01 2.89176E-05 4.62634E-05 7.12886E-05 1.04597E-13-8.73229E-13
 -1      1172 1.99970E+01 4.01812E-05 6.15227E-05 5.77922E-05 5.30103E-14-7.94019E-14
 -1      1173 1.99986E+01 5.27064E-05 8.24087E-05 3.89767E-05-2.92746E-14 2.11886E-13
 -1      1174 1.99996E+01 5.75724E-05 8.48722E-05 3.10408E-07-6.73790E-14-6.21344E-13
 -1      1175 1.99999E+01 5.48645E-05-1.25390E-05-6.07875E-05 1.46529E-13-8.54719E-13
 -1      1176 2.79563E+01 5.23767E-01 3.26107E-01 1.94799E+00-3.68455E-14 3.41382E-12
 -1      1177 2.05936E+01-6.62003E-02-5.73808E-01 1.18605E-01 2.30232E-14 2.82668E-12
 -1      1178 1.96358E+01-3.93364E-02-1.86634E-01 1.23412E-02 2.28081E-14 2.23370E-12
 -1      1179 1.94153E+01-1.80515E-02-4.29482E-02-5.24855E-03 3.04184E-15 1.85332E-12
 -1      1180 1.94455E+01-6.21427E-03-3.44727E-03-1.13828E-02 8.12881E-15 1.61536E-12
 -1      1181 1.95455E+01 3.07403E-03 1.03292E-02-1.34020E-02-1.16687E-15 1.40509E-12
 -1      1182 1.96040E+01 1.00757E-02 1.93763E-02-1.34400E-02 5.06593E-15 1.25331E-12
 -1      1183 1.95393E+01 1.46884E-02 2.65855E-02-1.11092E-02 1.53631E-15 1.07686E-12
 -1      1184 1.92934E+01 1.58957E-02 3.00498E-02-5.75468E-03 4.36630E-15 9.19279E-13
 -1      1185 1.88420E+01 1.25889E-02 2.70248E-02 2.77251E-03 2.12786E-15 8.15088E-13
 -1      1186 1.82101E+01 4.47693E-03 1.56996E-02 1.34149E-02 9.77625E-15 6.68996E-13
 -1      1187 1.74832E+01-7.05318E-03-3.14271E-03 2.36152E-02-1.70960E-15 5.64427E-13
 -1      1188 1.68004E+01-1.87846E-02-2.51656E-02 2.98698E-02 5.60749E-16 4.83266E-13
 -1      1189 1.63225E+01-2.67435E-02-4.34216E-02 2.92192E-02-1.44767E-14 4.53648E-13
 -1      1190 1.61808E+01-2.80951E-02-5.13433E-02 2.09689E-02 2.82079E-14 2.27350E-13
 -1      1191 1.64277E+01-2.26827E-02-4.62077E-02 7.41542E-03 1.78026E-15 3.38202E-14
 -1      1192 1.70162E+01-1.29873E-02-3.06027E-02-7.14757E-03-3.31777E-14 2.21410E-13
 -1      1193 1.78201E+01-2.58640E-03-1.07497E-02-1.85236E-02 1.80901E-14 1.64313E-13
 -1      1194 1.86823E+01 5.61130E-03 6.87952E-03-2.43777E-02-7.72846E-16 1.39194E-13
 -1      1195 1.94652E+01 1.03000E-02 1.82984E-02-2.46938E-02-2.16294E-14 1.73889E-13
 -1      1196 2.00816E+01 1.16494E-02 2.27367E-02-2.10641E-02-3.00383E-14 2.95354E-13
 -1      1197 2.05000E+01 1.06389E-02 2.17037E-02-1.55622E-02 3.35270E-14 5.40713E-14
 -1      1198 2.07329E+01 8.39971E-03 1.75439E-02-9.91057E-03 4.02217E-15-2.05265E-13
 -1      1199 2.08168E+01 5.83456E-03 1.23466E-02-5.14406E-03 2.63494E-14-4.35564E-13
 -1      1200 2.07964E+01 3.50149E-03 7.48862E-03-1.66099E-03-1.04015E-14-1.74034E-13
 -1      1201 2.07130E+01 1.65661E-03 3.63142E-03 5.65860E-04 3.96051E-14-3.98149E-14
 -1      1202 2.05994E+01 3.51506E-04 9.27385E-04 1.77331E-03-4.30615E-15-1.95625E-13
 -1      1203 2.04787E+01-4.73677E-04-7.50806E-04 2.25454E-03-2.58112E-14-3.03975E-13
 -1      1204 2.03650E+01-9.23192E-04-1.63888E-03 2.27548E-03 2.01766E-15-5.99679E-13
 -1      1205 2.02661E+01-1.10582E-03-1.98031E-03 2.04206E-03-4.18381E-14-6.01520E-13
 -1      1206 2.01847E+01-1.11547E-03-1.97993E-03 1.69697E-03 4.18573E-14-6.60857E-13
 -1      1207 2.01208E+01-1.02464E-03-1.79061E-03 1.32964E-03-3.89873E-14-6.54343E-13
 -1      1208 2.00727E+01-8.84798E-04-1.51668E-03 9.89997E-04-5.93053E-15-3.40664E-13
 -1      1209 2.00380E+01-7.29749E-04-1.22354E-03 7.01242E-04-1.12129E-14-4.33958E-13
 -1      1210 2.00141E+01-5.79892E-04-9.48390E-04 4.69991E-04 1.69928E-14-2.57445E-13
 -1      1211 1.99985E+01-4.46123E-04-7.09330E-04 2.93539E-04 2.75053E-14-8.01435E-13
 -1      1212 1.99890E+01-3.33034E-04-5.12516E-04 1.64664E-04 3.84943E-14-9.50503E-13
 -1      1213 1.99840E+01-2.41320E-04-3.57154E-04 7.45913E-05 5.71395E-16-6.31956E-13
 -1      1214 1.99821E+01-1.69463E-04-2.38869E-04 1.46575E-05-2.72338E-14-2.40757E-13
 -1      1215 1.99822E+01-1.14850E-04-1.51799E-04-2.28567E-05 5.56377E-14-2.21137E-13
 -1      1216 1.99836E+01-7.44693E-05-8.98221E-05-4.44176E-05-7.39668E-15-1.38080E-13
 -1      1217 1.99857E+01-4.52961E-05-4.71766E-05-5.52222E-05-4.37471E-14-3.67155E-14
 -1      1218 1.99881E+01-2.44707E-05-1.86892E-05-5.93310E-05 2.82323E-14-2.96378E-13
 -1      1219 1.99906E+01-9.32817E-06 2.97992E-07-5.98585E-05 3.21452E-14-9.40960E-13
 -1      1220 1.99930E+01 2.66889E-06 1.42727E-05-5.91339E-05-6.16824E-14-5.71598E-13
 -1      1221 1.99952E+01 1.39951E-05 2.80938E-05-5.87071E-05 2.67061E-14-7.40495E-13
 -1      1222 1.99971E+01 2.68891E-05 4.69682E-05-5.89446E-05 3.05989E-14-6.76228E-13
 -1      1223 1.99987E+01 4.15278E-05 7.15469E-05-5.60593E-05 8.04677E-14-8.05222E-13
 -1      1224 1.99997E+01 4.39134E-05 7.41919E-05-3.54429E-05 7.20529E-14-7.00357E-13
 -1      1225 1.99999E+01-2.01660E-05-4.19290E-05 2.14181E-05 2.77114E-14-5.64613E-13
 -1      1226 1.99998E+01 5.94110E-05-4.04994E-05 1.85159E-05-5.82210E-13-1.14013E-13
 -1      1227 1.99998E+01-1.61286E-04 7.17587E-05 9.43927E-07-9.99139E-13 8.12576E-15
 -1      1228 1.99998E+01-1.08946E-03 6.26103E-05-4.17301E-05-1.31204E-12-7.42776E-14
 -1      1229 1.99998E+01-2.45256E-03 2.00245E-05-5.44783E-05-1.20538E-12-5.70262E-14
 -1      1230 1.99998E+01-3.93398E-03-1.58870E-05-5.26290E-05-5.61039E-14 1.03911E-13
 -1      1231 1.99998E+01-5.29166E-03-4.13102E-05-4.34725E-05 2.95138E-13-1.33358E-13
 -1      1232 1.99998E+01-6.37447E-03-5.76669E-05-3.13557E-05-2.60179E-14-1.47800E-13
 -1      1233 1.99998E+01-7.07935E-03-6.74072E-05-1.63500E-05-8.52388E-13-1.78246E-14
 -1      1234 1.99997E+01-7.32901E-03-7.09306E-05-3.63853E-07-5.09931E-13 1.37989E-13
 -1      1235 1.99998E+01-7.09962E-03-6.84488E-05 1.58005E-05 8.04901E-13 1.90915E-15
 -1      1236 1.99998E+01-6.40813E-03-5.93100E-05 3.12322E-05 9.72668E-13-2.36450E-13
 -1      1237 1.99998E+01-5.32666E-03-4.28330E-05 4.46515E-05 6.06309E-14 6.43151E-14
 -1      1238 1.99998E+01-3.95920E-03-1.69340E-05 5.36745E-05 7.60432E-13 7.81887E-14
 -1      1239 1.99998E+01-2.46051E-03 2.02586E-05 5.52021E-05 1.73209E-12-2.55104E-14
 -1      1240 1.99998E+01-1.08540E-03 6.19717E-05 3.93721E-05 1.20109E-12-1.62620E-13
 -1      1241 1.99998E+01-1.44203E-04 7.11817E-05-2.00291E-05 8.21614E-13 1.17106E-13
 -1      1242 1.99998E+01 7.96181E-05-2.07318E-05-5.89181E-05 8.97074E-13-9.65524E-14
 -1      1243-1.07724E+00-2.53519E+01-3.78802E+00-2.07249E+00 1.73972E-12 2.97311E-13
 -1      1244-1.55264E+00-1.44143E+01-2.86451E+00-3.46413E+00 2.83995E-12 1.05060E-12
 -1      1245 1.08741E+00-6.80082E-01-1.62102E+00 1.02464E+00 2.92877E-12 1.77447E-12
 -1      1246 1.04310E+01 9.27541E+00 1.64420E-02 9.56074E+00 2.64233E-12 2.50777E-12
 -1      1247 2.67081E+01 1.22474E+01 1.55310E+00 1.71140E+01 1.96010E-12 2.76135E-12
 -1      1248 4.69827E+01 9.00320E+00 2.91754E+00 1.89257E+01 1.06337E-12 2.21689E-12
 -1      1249 6.39212E+01 3.57958E+00 3.85658E+00 1.16516E+01 2.13829E-13 5.72431E-13
 -1      1250 6.93759E+01 1.56655E+00 4.16108E+00-1.57888E+00 1.42747E-13-1.10958E-12
 -1      1251 6.10327E+01 4.72826E+00 3.77400E+00-1.39079E+01 7.75380E-13-2.67375E-12
 -1      1252 4.17163E+01 1.02253E+01 2.65925E+00-1.88495E+01 1.93834E-12-3.73479E-12
 -1      1253 2.07979E+01 1.18672E+01 1.10020E+00-1.49747E+01 3.00848E-12-3.73879E-12
 -1      1254 5.76708E+00 5.94038E+00-6.85659E-01-5.89903E+00 3.51497E-12-2.81641E-12
 -1      1255-7.59933E-01-5.96981E+00-2.16178E+00 1.76905E+00 3.25961E-12-1.70131E-12
 -1      1256-1.57025E+00-1.89797E+01-3.29664E+00 3.97668E+00 2.07767E-12-6.87339E-13
 -1      1257-1.10206E+00-2.69915E+01-3.97739E+00 6.77721E-01 2.60569E-13-1.76192E-13
 -1      1258-1.83126E+00-2.54154E+01-4.01093E+00-3.99412E+00-1.71585E-12-4.95402E-13
 -1      1259-2.61536E+00-1.59023E+01-3.47269E+00-5.34075E+00-3.07798E-12-1.37529E-12
 -1      1260 2.32758E-01-2.72329E+00-2.26463E+00-4.68943E-01-3.70370E-12-2.57305E-12
 -1      1261 1.18209E+01 7.55103E+00-5.42448E-01 9.36126E+00-3.38418E-12-3.61466E-12
 -1      1262 3.42555E+01 1.04011E+01 1.78076E+00 1.80791E+01-2.35167E-12-3.94729E-12
 -1      1263 5.98425E+01 6.94468E+00 4.22778E+00 1.78184E+01-1.14558E-12-3.30402E-12
 -1      1264 7.64388E+01 2.77638E+00 5.69022E+00 7.48115E+00-3.27856E-13-1.39977E-12
 -1      1265 7.60914E+01 2.57962E+00 5.61082E+00-7.85678E+00-2.32862E-13 6.81122E-13
 -1      1266 5.62720E+01 7.35263E+00 3.84286E+00-1.78683E+01-1.15308E-12 2.75802E-12
 -1      1267 2.95633E+01 1.03123E+01 1.36381E+00-1.66750E+01-2.49734E-12 3.90310E-12
 -1      1268 8.83193E+00 6.02825E+00-9.32609E-01-7.34200E+00-3.23630E-12 3.34666E-12
 -1      1269-1.03893E+00-5.59225E+00-2.58022E+00 2.15488E+00-2.74181E-12 1.82576E-12
 -1      1270-2.57243E+00-1.89256E+01-3.61358E+00 5.72848E+00-1.87927E-12 7.76490E-13
 -1      1271-1.30811E+00-2.66932E+01-3.92500E+00 2.88509E+00-3.53856E-13 2.14447E-13
 -1      1272 2.27998E+01 1.87016E+00-7.10936E-01-2.59016E+00-8.25173E-14 1.30013E-12
 -1      1273 2.09324E+01 4.73673E+00-4.03146E-02-2.86452E+00-2.23169E-13-1.16712E-13
 -1      1274 2.14949E+01 4.85404E+00-8.78333E-02-3.76301E+00-2.86604E-13 2.05225E-13
 -1      1275 1.98965E+01 5.06026E+00-2.04128E-02-2.14501E+00-2.11269E-13-5.66040E-13
 -1      1276 2.03209E+01 5.19091E+00 1.76311E-02-2.55629E+00-2.45054E-13-3.70010E-13
 -1      1277 2.10917E+01 3.99417E+00-1.72944E-02-2.59138E+00-3.88821E-13-9.97258E-14
 -1      1278 1.92549E+01 5.15369E+00-1.10158E-02-1.58327E+00-1.67151E-13-7.90513E-13
 -1      1279 1.95570E+01 5.25270E+00 1.88722E-02-1.85562E+00-1.90695E-13-6.91412E-13
 -1      1280 2.00480E+01 4.47976E+00-1.86917E-02-1.97747E+00-3.30602E-13-4.72455E-13
 -1      1281 1.87970E+01 5.18918E+00-6.91401E-03-1.17376E+00-1.18728E-13-8.99001E-13
 -1      1282 1.90126E+01 5.25903E+00 1.32190E-02-1.37008E+00-1.37567E-13-8.51891E-13
 -1      1283 1.93585E+01 4.71981E+00-1.63243E-02-1.47173E+00-2.47882E-13-6.64448E-13
 -1      1284 1.84918E+01 5.20118E+00-3.64945E-03-8.69139E-01-6.96700E-14-9.39721E-13
 -1      1285 1.86306E+01 5.24546E+00 7.68601E-03-1.01780E+00-8.95846E-14-9.18786E-13
 -1      1286 1.88821E+01 4.84771E+00-1.34538E-02-1.09974E+00-1.73025E-13-7.56999E-13
 -1      1287 1.83221E+01 5.19997E+00-2.40597E-04-6.11563E-01-3.46199E-14-9.48481E-13
 -1      1288 1.83913E+01 5.22193E+00 3.26156E-03-7.41239E-01-4.03080E-14-9.49355E-13
 -1      1289 1.85759E+01 4.90637E+00-1.20553E-02-8.12246E-01-9.30736E-14-7.97392E-13
 -1      1290 1.82811E+01 5.19277E+00 3.68334E-03-3.65165E-01 1.50045E-14-9.35137E-13
 -1      1291 1.82867E+01 5.19470E+00 8.29923E-04-4.92943E-01-1.04430E-15-9.41445E-13
 -1      1292 1.84262E+01 4.91505E+00-1.17115E-02-5.60721E-01-3.20509E-14-7.98405E-13
 -1      1293 1.83456E+01 5.18418E+00 7.59758E-03-9.80048E-02 5.14293E-14-9.02896E-13
 -1      1294 1.83006E+01 5.17014E+00 3.86895E-04-2.38409E-01 3.82723E-14-9.21216E-13
 -1      1295 1.84159E+01 4.88950E+00-1.19379E-02-3.09321E-01 4.19617E-14-7.82641E-13
 -1      1296 1.84884E+01 5.17736E+00 1.10604E-02 2.11191E-01 9.08509E-14-8.55609E-13
 -1      1297 1.84068E+01 5.15159E+00 1.30296E-03 4.86120E-02 7.60173E-14-8.83600E-13
 -1      1298 1.85159E+01 4.84339E+00-1.25086E-02-2.99080E-02 1.01741E-13-7.48897E-13
 -1      1299 1.86858E+01 5.17339E+00 1.37340E-02 5.75028E-01 1.25802E-13-7.89783E-13
 -1      1300 1.85788E+01 5.13925E+00 2.69833E-03 3.84388E-01 1.14858E-13-8.30723E-13
 -1      1301 1.86957E+01 4.78619E+00-1.33598E-02 2.95220E-01 1.69140E-13-7.05117E-13
 -1      1302 1.89211E+01 5.17209E+00 1.56009E-02 9.93804E-01 1.64074E-13-6.84074E-13
 -1      1303 1.87951E+01 5.13047E+00 3.51183E-03 7.74852E-01 1.49982E-13-7.44642E-13
 -1      1304 1.89298E+01 4.72165E+00-1.44945E-02 6.72421E-01 2.22951E-13-6.27318E-13
 -1      1305 1.92107E+01 5.17101E+00 1.64165E-02 1.49176E+00 2.15897E-13-5.22589E-13
 -1      1306 1.90538E+01 5.11778E+00 2.34332E-03 1.22990E+00 1.93429E-13-6.14141E-13
 -1      1307 1.92121E+01 4.64352E+00-1.65813E-02 1.11137E+00 2.92479E-13-5.09821E-13
 -1      1308 1.95953E+01 5.16484E+00 1.50960E-02 2.08337E+00 2.61201E-13-2.73875E-13
 -1      1309 1.93799E+01 5.08955E+00-3.16638E-03 1.76679E+00 2.33778E-13-4.23037E-13
 -1      1310 1.95678E+01 4.53226E+00-1.98456E-02 1.62610E+00 3.61192E-13-3.41397E-13
 -1      1311 2.02063E+01 5.14002E+00 1.28575E-02 2.82219E+00 2.84231E-13 1.58248E-13
 -1      1312 1.98499E+01 5.01437E+00-1.72911E-02 2.40661E+00 2.57690E-13-9.95939E-14
 -1      1313 2.00730E+01 4.34050E+00-2.35060E-02 2.23199E+00 4.15102E-13-5.92443E-14
 -1      1314 2.14901E+01 4.93227E+00 1.47180E-02 3.86392E+00 2.38060E-13 9.35238E-13
 -1      1315 2.07159E+01 4.76569E+00-4.27683E-02 3.18636E+00 2.37865E-13 4.68410E-13
 -1      1316 2.09577E+01 3.91106E+00-1.95828E-02 2.93002E+00 4.20428E-13 4.19970E-13
 -1      1317 2.74691E+01 3.19845E+00 9.05751E-01 4.47925E+00 1.03570E-13 2.34451E-12
 -1      1318 2.23983E+01 3.53880E+00-1.78021E-01 3.73330E+00 1.12882E-13 1.37354E-12
 -1      1319 2.25430E+01 2.55039E+00-2.81549E-02 3.25970E+00 3.83535E-13 1.12566E-12
 -1      1320 2.18382E+01 3.48758E-01-7.63096E-01 1.08575E+00 2.03164E-13 2.27507E-12
 -1      1321 2.27221E+01 1.22706E-01-3.94640E-01-1.06868E+00-2.34618E-13 1.38789E-12
 -1      1322 2.16386E+01 3.00052E-01-1.54417E-01-6.16854E-01-2.17826E-13 1.11681E-12
 -1      1323 2.12032E+01 1.63741E-01-6.95279E-02-1.92892E-01-1.75596E-13 1.00056E-12
 -1      1324 2.10010E+01 1.06716E-01-1.02163E-02-1.17363E-01-1.76283E-13 7.42569E-13
 -1      1325 2.19464E+01 3.72987E-01-1.03542E-01-8.85367E-01-3.77330E-13 5.44072E-13
 -1      1326 2.08695E+01 8.95858E-02 3.82123E-03 1.23576E-01-1.38034E-13 6.59969E-13
 -1      1327 2.10511E+01 7.19555E-02 1.52102E-02 1.56019E-01-1.06880E-13 4.80494E-13
 -1      1328 2.12750E+01 1.65117E-01-4.09150E-02-3.99104E-02-2.88835E-13 3.74740E-13
 -1      1329 2.11878E+01 7.20858E-02 1.08134E-02 3.24604E-01-8.63754E-14 3.83603E-13
 -1      1330 2.16280E+01 6.45638E-02 1.07630E-02 3.56946E-01-7.91676E-14 2.75245E-13
 -1      1331 2.13005E+01 1.17020E-01-1.72635E-02 4.42787E-01-2.05183E-13 2.14471E-13
 -1      1332 2.19675E+01 7.31745E-02 2.54822E-03 5.13424E-01-5.50350E-14 2.25580E-13
 -1      1333 2.26478E+01 6.83639E-02 2.94480E-03 5.50192E-01-6.11204E-14 1.51098E-13
 -1      1334 2.17556E+01 1.14961E-01-1.64421E-02 8.29720E-01-1.42180E-13 6.79717E-14
 -1      1335 2.31684E+01 8.02628E-02-6.92731E-03 7.14686E-01-2.42497E-14 1.25684E-13
 -1      1336 2.41028E+01 7.10102E-02-4.23730E-03 7.57315E-01-4.98039E-15 8.60007E-14
 -1      1337 2.25773E+01 1.27571E-01-1.96390E-02 1.21313E+00-8.49598E-14 1.96457E-14
 -1      1338 2.47928E+01 7.99153E-02-1.46717E-02 9.19700E-01 8.25728E-16 1.01544E-13
 -1      1339 2.59739E+01 5.53902E-02-8.09399E-03 9.62626E-01-5.79051E-15 7.87911E-14
 -1      1340 2.37391E+01 1.29989E-01-2.21536E-02 1.60610E+00-5.27269E-15 6.79491E-15
 -1      1341 2.68030E+01 4.72066E-02-1.41351E-02 1.06678E+00-5.59334E-15 8.45018E-14
 -1      1342 2.81213E+01-8.88286E-03 4.23152E-04 1.08841E+00-6.44125E-15 6.04794E-14
 -1      1343 2.52091E+01 8.01263E-02-1.91533E-02 1.93629E+00-2.13015E-14 1.77462E-14
 -1      1344 2.90048E+01-6.02617E-02 1.00735E-02 1.00341E+00 2.20136E-14 1.07497E-13
 -1      1345 3.01233E+01-1.60801E-01 3.37168E-02 9.52934E-01-6.20511E-15 1.23769E-13
 -1      1346 2.68942E+01-9.42948E-02-1.54000E-03 1.99274E+00 1.98036E-14 8.86756E-14
 -1      1347 3.08855E+01-2.81859E-01 6.94378E-02 4.75144E-01 3.61933E-14 1.90847E-13
 -1      1348 3.11442E+01-3.92821E-01 8.25538E-02 2.76270E-01 6.19296E-14 2.42653E-13
 -1      1349 2.85714E+01-4.65426E-01 3.76733E-02 1.38750E+00 6.65648E-14 2.25785E-13
 -1      1350 3.14862E+01-5.39966E-01 1.24649E-01-6.94852E-01 1.13222E-13 2.83787E-13
 -1      1351 3.01265E+01-5.26997E-01 6.99425E-02-1.04763E+00 2.71796E-14 3.93907E-13
 -1      1352 2.98106E+01-9.21047E-01 8.00385E-02-2.87893E-01 1.47767E-13 3.06064E-13
 -1      1353 2.97433E+01-4.66287E-01 6.41363E-02-2.08927E+00-7.81658E-14 4.47531E-13
 -1      1354 2.68270E+01-1.74876E-01-1.17293E-01-2.31854E+00-9.64576E-14 3.15914E-13
 -1      1355 3.00004E+01-9.69634E-01 4.57290E-02-2.74925E+00-4.05578E-15 4.01682E-13
 -1      1356 2.59832E+01 1.83072E-01-2.00448E-01-2.31421E+00-1.33352E-13 1.99729E-13
 -1      1357 2.34832E+01 5.61269E-01-3.84463E-01-2.09066E+00-2.35575E-13-4.24660E-14
 -1      1358 2.88779E+01 6.11701E-02-1.18021E-01-4.13123E+00-2.65038E-13 2.66176E-13
 -1      1359 2.27726E+01 9.12443E-01-4.73055E-01-5.29558E-01-3.31957E-13-2.61721E-13
 -1      1360 2.25511E+01 9.85763E-01-4.85068E-01 1.60986E-01-3.41838E-13-6.64746E-13
 -1      1361 2.74004E+01 1.43705E+00-3.23973E-01-2.34080E+00-5.35239E-13-1.09699E-13
 -1      1362 2.30638E+01 7.32880E-01-4.31787E-01 1.86901E+00-3.42615E-13-9.16156E-13
 -1      1363 2.55277E+01 3.40604E-01-2.58407E-01 2.20879E+00-2.34104E-13-1.21558E-12
 -1      1364 2.72533E+01 1.62496E+00-3.52136E-01 1.79773E+00-6.22224E-13-5.74383E-13
 -1      1365 2.66200E+01-9.31198E-02-1.46217E-01 2.47337E+00-5.94108E-14-1.38767E-12
 -1      1366 2.97162E+01-4.53342E-01 3.25569E-02 2.25897E+00 8.33708E-15-1.46222E-12
 -1      1367 2.87928E+01 2.68446E-01-1.47984E-01 4.17587E+00-3.07032E-13-9.99166E-13
 -1      1368 3.02648E+01-5.16304E-01 6.80977E-02 1.27749E+00 5.12784E-14-1.48348E-12
 -1      1369 3.18803E+01-5.68520E-01 1.27730E-01 9.07883E-01 1.40315E-13-1.37446E-12
 -1      1370 3.02251E+01-8.84486E-01 5.17582E-02 3.10327E+00 2.32175E-14-1.10061E-12
 -1      1371 3.16593E+01-4.19556E-01 9.01215E-02-1.14371E-01 1.18683E-13-1.33872E-12
 -1      1372 3.15931E+01-3.15950E-01 7.55562E-02-3.35884E-01 7.37535E-14-1.24943E-12
 -1      1373 3.02813E+01-9.62263E-01 9.10440E-02 6.19515E-01 2.09898E-13-1.13894E-12
 -1      1374 3.09047E+01-1.82282E-01 3.80315E-02-8.68143E-01 7.23172E-14-1.19876E-12
 -1      1375 2.98944E+01-7.81679E-02 1.29846E-02-9.30550E-01 1.60635E-14-1.14027E-12
 -1      1376 2.92026E+01-5.11273E-01 4.55100E-02-1.17825E+00 9.30298E-14-1.09339E-12
 -1      1377 2.90504E+01-1.91285E-02 1.19263E-04-1.04541E+00 1.34161E-13-1.00381E-12
 -1      1378 2.77929E+01 4.14690E-02-1.41912E-02-1.02724E+00 1.91479E-13-7.99555E-13
 -1      1379 2.76220E+01-1.18007E-01 2.18002E-03-1.87899E+00 1.66211E-13-8.24462E-13
 -1      1380 2.69830E+01 5.13932E-02-1.11265E-02-9.34828E-01 5.49300E-14-7.38548E-13
 -1      1381 2.58406E+01 7.75807E-02-1.75456E-02-8.92664E-01 4.13168E-14-6.03163E-13
 -1      1382 2.59928E+01 7.38056E-02-1.75499E-02-1.86846E+00 1.78438E-13-5.93983E-13
 -1      1383 2.51178E+01 6.54827E-02-9.86931E-03-7.30953E-01 1.75884E-14-6.09242E-13
 -1      1384 2.41798E+01 7.51202E-02-1.15034E-02-6.87096E-01 1.14735E-14-5.70891E-13
 -1      1385 2.45166E+01 1.29807E-01-1.94687E-02-1.55464E+00 7.70790E-14-5.13967E-13
 -1      1386 2.36441E+01 6.03884E-02-4.02562E-03-5.39755E-01 1.70705E-14-5.22183E-13
 -1      1387 2.29843E+01 5.99457E-02-5.93882E-03-5.06961E-01 3.10351E-14-4.38847E-13
 -1      1388 2.33144E+01 1.21253E-01-1.74849E-02-1.18333E+00 8.69704E-14-6.25628E-13
 -1      1389 2.25754E+01 4.73635E-02-8.19555E-04-3.88186E-01-7.28072E-14-5.32045E-13
 -1      1390 2.21029E+01 4.46328E-02-2.52745E-03-3.63934E-01-1.46654E-13-6.35131E-13
 -1      1391 2.24104E+01 9.62006E-02-1.30258E-02-8.68384E-01-3.71595E-14-5.98037E-13
 -1      1392 2.18004E+01 3.50914E-02 8.19108E-04-2.74810E-01-1.18976E-13-6.95504E-13
 -1      1393 2.14678E+01 3.20153E-02-7.12023E-04-2.57564E-01-6.93360E-14-8.82439E-13
 -1      1394 2.17312E+01 7.08130E-02-9.38353E-03-6.22905E-01-1.69014E-13-8.56731E-13
 -1      1395 2.12474E+01 2.52615E-02 1.38198E-03-1.93035E-01-9.26568E-14-8.55275E-13
 -1      1396 2.10151E+01 2.25754E-02 1.15929E-04-1.80970E-01-9.36616E-14-9.49463E-13
 -1      1397 2.12307E+01 5.02979E-02-6.69256E-03-4.41473E-01-1.65379E-13-8.05974E-13
 -1      1398 2.08561E+01 1.79497E-02 1.40724E-03-1.35042E-01-5.46015E-14-9.31683E-13
 -1      1399 2.06947E+01 1.58145E-02 4.28582E-04-1.26641E-01-2.14715E-15-8.62172E-13
 -1      1400 2.08664E+01 3.51564E-02-4.77637E-03-3.10886E-01-7.50567E-14-8.50165E-13
 -1      1401 2.05806E+01 1.26954E-02 1.22174E-03-9.41822E-02 2.19722E-14-8.54595E-13
 -1      1402 2.04688E+01 1.10658E-02 4.99573E-04-8.83287E-02 2.12456E-14-8.22225E-13
 -1      1403 2.06033E+01 2.44332E-02-3.42174E-03-2.18049E-01-5.60533E-15-6.29780E-13
 -1      1404 2.03874E+01 8.97603E-03 9.85784E-04-6.54288E-02 7.56681E-14-8.26160E-13
 -1      1405 2.03103E+01 7.75253E-03 4.69021E-04-6.13391E-02 7.90062E-14-7.20111E-13
 -1      1406 2.04144E+01 1.69743E-02-2.46078E-03-1.52354E-01 9.49844E-14-7.48276E-13
 -1      1407 2.02526E+01 6.35472E-03 7.65543E-04-4.51725E-02-5.92569E-14-6.41858E-13
 -1      1408 2.01997E+01 5.43969E-03 4.03415E-04-4.23068E-02-1.36371E-13-8.42679E-13
 -1      1409 2.02797E+01 1.18143E-02-1.77460E-03-1.05899E-01 1.28005E-14-8.11568E-13
 -1      1410 2.01592E+01 4.50434E-03 5.82017E-04-3.08824E-02-7.62846E-14-8.23538E-13
 -1      1411 2.01233E+01 3.81825E-03 3.32172E-04-2.88711E-02 2.53227E-14-9.40094E-13
 -1      1412 2.01841E+01 8.23933E-03-1.28115E-03-7.30261E-02-1.37040E-13-6.55170E-13
 -1      1413 2.00951E+01 3.19212E-03 4.37080E-04-2.07984E-02 1.05307E-13-9.41215E-13
 -1      1414 2.00711E+01 2.67491E-03 2.67015E-04-1.93880E-02-2.18961E-14-7.81680E-13
 -1      1415 2.01171E+01 5.74956E-03-9.23951E-04-4.97537E-02 3.02396E-14-6.35082E-13
 -1      1416 2.00518E+01 2.25638E-03 3.25757E-04-1.36963E-02-9.28387E-14-8.13151E-13
 -1      1417 2.00362E+01 1.86417E-03 2.11578E-04-1.27115E-02-9.20726E-14-9.37499E-13
 -1      1418 2.00706E+01 4.00421E-03-6.63969E-04-3.32962E-02-5.49134E-14-9.52845E-13
 -1      1419 2.00232E+01 1.58598E-03 2.41554E-04-8.71950E-03-1.74509E-13-8.27739E-13
 -1      1420 2.00134E+01 1.28453E-03 1.64393E-04-8.03664E-03-1.18128E-13-9.78587E-13
 -1      1421 2.00389E+01 2.77270E-03-4.74370E-04-2.16999E-02-8.32973E-14-1.01392E-12
 -1      1422 2.00050E+01 1.11771E-03 1.82392E-04-5.26457E-03 1.19552E-13-9.69814E-13
 -1      1423 1.99992E+01 8.62246E-04 1.22832E-04-4.79544E-03 1.34947E-13-8.22814E-13
 -1      1424 2.00178E+01 1.89101E-03-3.38250E-04-1.35861E-02-2.12363E-14-8.61743E-13
 -1      1425 1.99937E+01 7.47857E-04 1.30838E-04-2.82728E-03-1.21752E-15-6.70795E-13
 -1      1426 1.99906E+01 5.55974E-04 9.58032E-05-2.49452E-03-1.28994E-14-6.87259E-13
 -1      1427 2.00040E+01 1.30616E-03-2.21220E-04-7.88283E-03 1.73975E-13-7.13523E-13
 -1      1428 1.99876E+01 5.05175E-04 9.59109E-05-1.24280E-03 3.01217E-14-6.63861E-13
 -1      1429 1.99864E+01 3.67356E-04 7.57815E-05-1.04683E-03 4.24048E-14-6.67574E-13
 -1      1430 1.99957E+01 8.17777E-04-1.58617E-04-3.99347E-03 4.98820E-14-5.13548E-13
 -1      1431 1.99849E+01 3.24242E-04 6.73615E-05-2.32532E-04-1.46582E-13-6.86754E-13
 -1      1432 1.99849E+01 2.25182E-04 5.78629E-05-1.09679E-04-1.44990E-13-9.79319E-13
 -1      1433 1.99913E+01 5.24824E-04-1.04090E-04-1.50252E-03-7.56610E-14-7.74645E-13
 -1      1434 1.99844E+01 2.01835E-04 4.77872E-05 3.98021E-04-8.25626E-14-9.80762E-13
 -1      1435 1.99851E+01 1.27282E-04 4.36554E-05 4.68739E-04-9.20778E-14-1.06966E-12
 -1      1436 1.99892E+01 3.14760E-04-6.65460E-05 9.43516E-05-2.50608E-13-6.71205E-13
 -1      1437 1.99852E+01 1.17197E-04 3.32676E-05 7.64059E-04 4.11036E-14-8.65301E-13
 -1      1438 1.99862E+01 6.14475E-05 3.24906E-05 7.99680E-04 8.82597E-14-8.35435E-13
 -1      1439 1.99888E+01 1.71645E-04-4.02164E-05 1.06739E-03 6.39370E-14-6.50199E-13
 -1      1440 1.99868E+01 5.98538E-05 2.24520E-05 9.50918E-04 1.05403E-13-6.37833E-13
 -1      1441 1.99880E+01 1.83338E-05 2.36991E-05 9.63538E-04 7.95804E-14-6.42565E-13
 -1      1442 1.99894E+01 7.64823E-05-2.20714E-05 1.61135E-03 1.22334E-13-6.29633E-13
 -1      1443 1.99887E+01 2.18616E-05 1.43838E-05 1.01923E-03 1.86375E-13-6.58917E-13
 -1      1444 1.99900E+01-9.17890E-06 1.67551E-05 1.01725E-03 8.52904E-14-5.09728E-13
 -1      1445 1.99906E+01 1.50136E-05-9.84970E-06 1.86642E-03 1.24176E-13-5.25418E-13
 -1      1446 1.99908E+01-3.01916E-06 8.37161E-06 1.01063E-03-1.67142E-13-4.03172E-13
 -1      1447 1.99921E+01-2.67273E-05 1.12903E-05 9.99545E-04-2.01903E-13-5.95253E-13
 -1      1448 1.99921E+01-2.37591E-05-1.76831E-06 1.93087E-03 5.72296E-15-5.82006E-13
 -1      1449 1.99929E+01-1.99312E-05 4.00589E-06 9.51512E-04-1.24828E-13-5.99772E-13
 -1      1450 1.99941E+01-3.90225E-05 7.19981E-06 9.34357E-04-9.36431E-14-6.79388E-13
 -1      1451 1.99937E+01-4.87634E-05 3.63173E-06 1.86999E-03-2.28141E-13-6.38006E-13
 -1      1452 1.99949E+01-3.34646E-05 1.30687E-06 8.55311E-04 3.17781E-14-8.67727E-13
 -1      1453 1.99960E+01-5.03256E-05 4.86069E-06 8.32831E-04 1.14813E-13-8.03728E-13
 -1      1454 1.99952E+01-6.78612E-05 7.65201E-06 1.72184E-03-1.58221E-13-6.35561E-13
 -1      1455 1.99966E+01-4.81372E-05 1.01143E-06 7.23576E-04 2.38679E-13-7.14100E-13
 -1      1456 1.99975E+01-6.45247E-05 5.24035E-06 6.93965E-04 1.89944E-13-3.92507E-13
 -1      1457 1.99967E+01-8.87897E-05 1.15901E-05 1.50072E-03 2.71193E-13-1.05275E-12
 -1      1458 1.99981E+01-6.79068E-05 4.38956E-06 5.47526E-04-3.61089E-14-2.16296E-13
 -1      1459 1.99987E+01-8.36022E-05 7.39841E-06 5.06198E-04-2.28099E-13-3.48115E-13
 -1      1460 1.99979E+01-1.18479E-04 1.66590E-05 1.20023E-03 1.90654E-13-8.94472E-13
 -1      1461 1.99991E+01-8.96272E-05 1.05486E-05 3.17847E-04-2.63100E-13-2.49661E-13
 -1      1462 1.99995E+01-1.11207E-04-5.09080E-06 2.55079E-04-1.60708E-13-5.94630E-13
 -1      1463 1.99989E+01-1.60151E-04 2.12959E-05 8.05676E-04-3.08021E-13-3.26033E-13
 -1      1464 1.99997E+01-9.82605E-05 4.43585E-06 9.61625E-05 6.35454E-15-5.71726E-13
 -1      1465 1.99997E+01-7.80990E-05-4.48894E-05 6.24057E-05 2.50160E-13-1.80068E-13
 -1      1466 1.99997E+01-1.11794E-04 1.29731E-05 9.39978E-05 6.20078E-13 1.39149E-13
 -1      1467 1.99995E+01-1.98517E-04 1.58767E-05 3.98613E-04-1.04982E-13 4.10494E-14
 -1      1468 2.08509E+01 7.13520E-02-1.47495E-01 4.11237E-01 1.90979E-13 1.85983E-12
 -1      1469 2.20054E+01 2.14035E-01-2.29172E-01 6.42254E-01 1.64951E-13 2.14059E-12
 -1      1470 2.22040E+01 8.61323E-01-8.88361E-02 1.91590E+00 3.19092E-13 1.46565E-12
 -1      1471 2.00725E+01 3.01854E-02-1.80532E-02 1.30549E-01 1.27497E-13 1.50901E-12
 -1      1472 2.04082E+01 1.09547E-01-5.98163E-02 1.80789E-01 1.38761E-13 1.72530E-12
 -1      1473 2.09134E+01 1.74501E-01-5.52120E-02 6.66994E-01 2.73601E-13 1.20979E-12
 -1      1474 1.98029E+01 1.16018E-02 7.83617E-03 1.65397E-02 7.81120E-14 1.28523E-12
 -1      1475 1.98824E+01 4.51699E-02 2.80442E-03 4.00229E-02 7.60772E-14 1.40675E-12
 -1      1476 2.02798E+01 5.62665E-02-1.42257E-02 2.08052E-01 1.83629E-13 1.00467E-12
 -1      1477 1.97482E+01 1.28562E-03 9.11650E-03-1.97093E-02 8.38450E-14 1.10221E-12
 -1      1478 1.97368E+01 1.59970E-02 1.19554E-02-1.08188E-02 6.65208E-14 1.20820E-12
 -1      1479 2.00228E+01 7.95957E-03-4.97243E-03 2.87158E-02 1.42327E-13 8.08981E-13
 -1      1480 1.97500E+01-6.40110E-03 7.61147E-03-1.36100E-02 5.59257E-14 9.47017E-13
 -1      1481 1.97249E+01-6.64939E-04 8.90000E-03-1.50031E-02 5.93383E-14 1.04252E-12
 -1      1482 1.99303E+01-1.08293E-02-1.09238E-03-1.75717E-02 1.15654E-13 6.86219E-13
 -1      1483 1.97086E+01-1.20079E-02 7.19362E-03 2.28926E-02 5.01371E-14 8.19998E-13
 -1      1484 1.97198E+01-1.27044E-02 5.90242E-03 1.32412E-02 4.15388E-14 8.89490E-13
 -1      1485 1.98786E+01-2.28110E-02 2.36125E-03 1.38903E-02 1.02674E-13 5.90829E-13
 -1      1486 1.95551E+01-1.53362E-02 7.23256E-03 8.07017E-02 4.95107E-14 7.13504E-13
 -1      1487 1.96377E+01-2.14824E-02 4.29556E-03 6.44479E-02 3.73443E-14 7.68025E-13
 -1      1488 1.97836E+01-3.07094E-02 5.61391E-03 9.78091E-02 8.70350E-14 4.90853E-13
 -1      1489 1.92497E+01-1.53365E-02 6.64825E-03 1.48358E-01 3.74531E-14 6.10637E-13
 -1      1490 1.94234E+01-2.59787E-02 3.31069E-03 1.28239E-01 4.57056E-14 6.74259E-13
 -1      1491 1.95924E+01-3.32921E-02 8.07347E-03 2.13714E-01 6.93603E-14 4.37000E-13
 -1      1492 1.87891E+01-1.08499E-02 4.54379E-03 2.09411E-01 4.44618E-14 5.48195E-13
 -1      1493 1.90533E+01-2.42164E-02 2.21888E-03 1.89899E-01 2.37271E-14 5.95074E-13
 -1      1494 1.92804E+01-2.81465E-02 8.83162E-03 3.35056E-01 6.83412E-14 3.85559E-13
 -1      1495 1.82170E+01-1.57571E-03 5.21602E-04 2.43631E-01 2.91348E-14 4.67126E-13
 -1      1496 1.85446E+01-1.47642E-02 5.65190E-04 2.30646E-01 5.08077E-14 5.37331E-13
 -1      1497 1.88582E+01-1.36993E-02 7.07039E-03 4.27228E-01 7.04155E-14 3.45772E-13
 -1      1498 1.76252E+01 1.09727E-02-4.91310E-03 2.32460E-01 4.78779E-14 3.82461E-13
 -1      1499 1.79622E+01 1.68530E-03-1.69278E-03 2.31782E-01 1.21528E-14 4.10789E-13
 -1      1500 1.83767E+01 8.83187E-03 2.54644E-03 4.53200E-01 5.27329E-14 2.95595E-13
 -1      1501 1.71381E+01 2.32422E-02-1.02079E-02 1.67395E-01 4.03826E-14 2.90424E-13
 -1      1502 1.74129E+01 2.13415E-02-4.06206E-03 1.82099E-01 5.23067E-14 3.38743E-13
 -1      1503 1.79223E+01 3.43621E-02-3.88776E-03 3.86154E-01 6.47876E-14 2.28822E-13
 -1      1504 1.68778E+01 3.07907E-02-1.32937E-02 5.68934E-02 2.64502E-14 2.37095E-13
 -1      1505 1.70211E+01 3.80412E-02-5.64364E-03 8.51783E-02 3.29597E-17 2.54248E-13
 -1      1506 1.75973E+01 5.49288E-02-1.02569E-02 2.24117E-01 5.07372E-14 1.30462E-13
 -1      1507 1.69220E+01 3.04910E-02-1.26804E-02-7.36504E-02 6.41119E-14 8.79626E-14
 -1      1508 1.68911E+01 4.58510E-02-5.59843E-03-3.85690E-02 6.78832E-14 2.30817E-13
 -1      1509 1.74885E+01 6.29516E-02-1.42454E-02-2.71504E-03 6.17492E-14 1.24275E-13
 -1      1510 1.72739E+01 2.24054E-02-8.43678E-03-1.90910E-01-7.55719E-14 1.15222E-13
 -1      1511 1.70684E+01 4.21644E-02-3.72003E-03-1.58199E-01-2.17014E-15 7.83401E-14
 -1      1512 1.76347E+01 5.52101E-02-1.44099E-02-2.39490E-01 4.40386E-14 1.34553E-13
 -1      1513 1.78614E+01 9.77521E-03-2.23185E-03-2.67290E-01-1.25945E-14 1.61097E-13
 -1      1514 1.75235E+01 2.90530E-02-6.62835E-04-2.44597E-01-5.23952E-14 1.04866E-13
 -1      1515 1.80116E+01 3.46452E-02-1.10196E-02-4.27782E-01-5.31506E-14 6.43799E-14
 -1      1516 1.85652E+01-2.90275E-03 3.65928E-03-2.91027E-01 1.95338E-14 1.01443E-13
 -1      1517 1.81632E+01 1.18290E-02 2.40981E-03-2.81711E-01 1.46797E-14 1.59987E-13
 -1      1518 1.85419E+01 8.79253E-03-5.72849E-03-5.28615E-01 3.13931E-14 4.60647E-14
 -1      1519 1.92615E+01-1.21282E-02 7.52909E-03-2.67520E-01-2.01612E-14 7.54362E-14
 -1      1520 1.88657E+01-3.88406E-03 4.47938E-03-2.70385E-01 4.38694E-14 1.54946E-13
 -1      1521 1.91247E+01-1.41805E-02-5.28112E-04-5.34162E-01 3.24461E-14 1.17708E-13
 -1      1522 1.98553E+01-1.65493E-02 8.86169E-03-2.13162E-01-4.07703E-15 1.34412E-13
 -1      1523 1.95192E+01-1.45155E-02 5.12372E-03-2.24160E-01-6.22601E-14 7.12833E-14
 -1      1524 1.96672E+01-2.89558E-02 3.22747E-03-4.63867E-01-5.11193E-14 8.48497E-14
 -1      1525 2.02961E+01-1.67257E-02 8.13263E-03-1.46795E-01 5.09250E-14-3.89445E-16
 -1      1526 2.00478E+01-1.92047E-02 4.55112E-03-1.61264E-01-6.54685E-15 9.74516E-14
 -1      1527 2.01065E+01-3.43360E-02 5.11677E-03-3.50740E-01 1.77961E-14-7.48681E-14
 -1      1528 2.05751E+01-1.41659E-02 6.26341E-03-8.34493E-02 8.78204E-15-9.57030E-14
 -1      1529 2.04188E+01-1.90592E-02 3.29894E-03-9.76740E-02 4.69798E-14 1.96891E-16
 -1      1530 2.04152E+01-3.22364E-02 5.42570E-03-2.27184E-01 4.14729E-14-1.07445E-13
 -1      1531 2.07119E+01-1.04397E-02 4.10442E-03-3.19086E-02 1.07103E-13-2.47541E-13
 -1      1532 2.06359E+01-1.59698E-02 1.91368E-03-4.36974E-02 5.59416E-14-1.08860E-13
 -1      1533 2.05957E+01-2.58367E-02 4.72869E-03-1.16437E-01 8.36358E-14-1.18335E-13
 -1      1534 2.07399E+01-6.69581E-03 2.20515E-03 4.75918E-03-7.63690E-15-2.32779E-13
 -1      1535 2.07247E+01-1.17052E-02 7.53772E-04-3.77617E-03 2.61937E-14-2.14913E-13
 -1      1536 2.06687E+01-1.80509E-02 3.58230E-03-3.04512E-02 1.02517E-13-1.09633E-13
 -1      1537 2.06950E+01-3.56457E-03 8.00156E-04 2.73468E-02-6.07619E-14-4.95255E-14
 -1      1538 2.07202E+01-7.49567E-03-3.59913E-05 2.19596E-02-1.00210E-13-2.25126E-13
 -1      1539 2.06627E+01-1.08314E-02 2.38317E-03 2.80456E-02-8.50737E-14-1.48348E-13
 -1      1540 2.06087E+01-1.26462E-03-9.51434E-05 3.85838E-02 2.88715E-14-3.40123E-14
 -1      1541 2.06564E+01-3.99473E-03-4.66123E-04 3.57720E-02 6.85545E-14 1.84202E-14
 -1      1542 2.06059E+01-5.12593E-03 1.34959E-03 6.20452E-02-2.76125E-15 1.28445E-14
 -1      1543 2.05049E+01 2.37262E-04-5.74395E-04 4.17224E-02-8.22095E-15-3.59938E-14
 -1      1544 2.05617E+01-1.41925E-03-6.22694E-04 4.07760E-02 2.28417E-14-3.59912E-15
 -1      1545 2.05219E+01-1.14974E-03 5.64142E-04 7.70758E-02 6.09728E-14 8.28889E-14
 -1      1546 2.03999E+01 1.09089E-03-7.61495E-04 3.97267E-02 1.07633E-13-2.96515E-13
 -1      1547 2.04569E+01 2.74982E-04-6.06935E-04 3.99878E-02 6.50022E-14-1.47650E-13
 -1      1548 2.04284E+01 1.29195E-03 2.73006E-05 7.90340E-02 1.29976E-13 3.50448E-14
 -1      1549 2.03036E+01 1.47489E-03-7.68574E-04 3.49317E-02-4.70560E-14-4.15389E-13
 -1      1550 2.03554E+01 1.25197E-03-5.03633E-04 3.58750E-02-2.53466E-14-3.61232E-13
 -1      1551 2.03373E+01 2.55494E-03-3.00022E-04 7.30272E-02 1.34754E-14-1.02984E-13
 -1      1552 2.02210E+01 1.55101E-03-6.80430E-04 2.89899E-02-1.17522E-14-3.65488E-13
 -1      1553 2.02651E+01 1.70523E-03-3.71306E-04 3.02384E-02-4.43628E-14-3.95186E-13
 -1      1554 2.02553E+01 3.00690E-03-4.69102E-04 6.29489E-02-2.19323E-14-1.20782E-13
 -1      1555 2.01536E+01 1.44639E-03-5.53766E-04 2.29604E-02-3.82576E-14-2.88568E-13
 -1      1556 2.01892E+01 1.81050E-03-2.44147E-04 2.42676E-02-7.92002E-15-2.85442E-13
 -1      1557 2.01858E+01 2.95716E-03-5.28764E-04 5.14807E-02-2.63152E-14-1.27649E-13
 -1      1558 2.01009E+01 1.25172E-03-4.22507E-04 1.74473E-02-7.52968E-14-2.29702E-13
 -1      1559 2.01285E+01 1.70723E-03-1.38378E-04 1.86684E-02-4.49336E-14-2.82730E-13
 -1      1560 2.01294E+01 2.63615E-03-5.19191E-04 4.02926E-02-2.32193E-14 4.62046E-14
 -1      1561 2.00614E+01 1.02642E-03-3.04404E-04 1.27360E-02 8.53773E-14-2.77784E-13
 -1      1562 2.00818E+01 1.49618E-03-5.88146E-05 1.37982E-02 6.06420E-14-2.12816E-13
 -1      1563 2.00854E+01 2.20013E-03-4.70503E-04 3.02973E-02 2.45816E-14-8.34792E-14
 -1      1564 2.00328E+01 8.06053E-04-2.06805E-04 8.90684E-03 2.83303E-14-2.98205E-13
 -1      1565 2.00473E+01 1.24453E-03-4.02098E-06 9.78473E-03-2.48485E-14-3.29308E-13
 -1      1566 2.00525E+01 1.74599E-03-4.03660E-04 2.18890E-02-1.97801E-14-9.82119E-14
 -1      1567 2.00130E+01 6.09405E-04-1.30971E-04 5.91971E-03 1.92076E-14-4.68170E-13
 -1      1568 2.00229E+01 9.93505E-04 3.02216E-05 6.61643E-03 6.74557E-14-3.43766E-13
 -1      1569 2.00286E+01 1.32759E-03-3.32236E-04 1.51351E-02 3.79302E-14-3.20143E-13
 -1      1570 2.00000E+01 4.44300E-04-7.50062E-05 3.67325E-03 7.36172E-14-5.26895E-13
 -1      1571 2.00063E+01 7.65726E-04 4.88537E-05 4.20722E-03 6.19538E-14-4.72750E-13
 -1      1572 2.00120E+01 9.69935E-04-2.64304E-04 9.91696E-03 8.58096E-14-3.48368E-13
 -1      1573 1.99921E+01 3.11898E-04-3.56817E-05 2.04266E-03-1.09109E-13-5.84683E-13
 -1      1574 1.99958E+01 5.71423E-04 5.64655E-05 2.43887E-03 1.88006E-14-5.52129E-13
 -1      1575 2.00011E+01 6.80173E-04-2.04096E-04 6.02616E-03 4.88350E-14-3.40312E-13
 -1      1576 1.99878E+01 2.09701E-04-9.48852E-06 9.02431E-04-4.95556E-14-3.55158E-13
 -1      1577 1.99897E+01 4.13088E-04 5.68470E-05 1.18712E-03-1.05598E-13-4.94256E-13
 -1      1578 1.99944E+01 4.55304E-04-1.53315E-04 3.22541E-03-1.66951E-13-3.95796E-13
 -1      1579 1.99861E+01 1.33493E-04 6.82033E-06 1.38527E-04 4.10074E-14-2.98470E-13
 -1      1580 1.99867E+01 2.88785E-04 5.28892E-05 3.36201E-04-4.70413E-14-3.36442E-13
 -1      1581 1.99907E+01 2.87317E-04-1.12104E-04 1.28421E-03-1.51729E-13-3.66369E-13
 -1      1582 1.99861E+01 7.85380E-05 1.59975E-05-3.46117E-04 4.26905E-14-2.63992E-13
 -1      1583 1.99858E+01 1.94352E-04 4.66603E-05-2.14134E-04 7.27312E-14-2.26047E-13
 -1      1584 1.99892E+01 1.66352E-04-7.97283E-05-2.66070E-06 4.35832E-14-3.83157E-13
 -1      1585 1.99871E+01 4.02349E-05 2.02488E-05-6.30219E-04 4.51197E-14-3.92748E-14
 -1      1586 1.99863E+01 1.24763E-04 3.95517E-05-5.46308E-04-8.06217E-15-1.61026E-13
 -1      1587 1.99890E+01 8.25110E-05-5.50209E-05-8.07414E-04-7.53292E-15-1.55042E-13
 -1      1588 1.99887E+01 1.44360E-05 2.12761E-05-7.74939E-04 8.70498E-14-1.72976E-13
 -1      1589 1.99877E+01 7.49163E-05 3.24357E-05-7.25160E-04 5.54988E-14-9.74810E-14
 -1      1590 1.99898E+01 2.67532E-05-3.66623E-05-1.26804E-03 5.63441E-14-5.69909E-14
 -1      1591 1.99907E+01-2.46052E-06 2.03762E-05-8.25655E-04 6.59391E-14-4.67039E-13
 -1      1592 1.99895E+01 4.00090E-05 2.58139E-05-7.99484E-04 1.31498E-13-2.39143E-13
 -1      1593 1.99911E+01-8.78420E-06-2.33334E-05-1.49035E-03 1.96459E-13-3.63313E-13
 -1      1594 1.99927E+01-1.35617E-05 1.86049E-05-8.13906E-04 2.05108E-14-5.92811E-13
 -1      1595 1.99915E+01 1.56233E-05 1.99621E-05-8.03921E-04 5.53097E-14-4.86907E-13
 -1      1596 1.99926E+01-3.08432E-05-1.37715E-05-1.55139E-03 1.46933E-13-3.60103E-13
 -1      1597 1.99946E+01-2.16190E-05 1.70484E-05-7.58956E-04-1.65556E-14-5.57309E-13
 -1      1598 1.99935E+01-2.39719E-06 1.51166E-05-7.60641E-04-2.67444E-14-6.58840E-13
 -1      1599 1.99943E+01-4.53480E-05-6.71704E-06-1.50285E-03 2.30669E-14-3.39335E-13
 -1      1600 1.99964E+01-2.91818E-05 1.71777E-05-6.68717E-04-4.51532E-14-5.41266E-13
 -1      1601 1.99954E+01-1.82212E-05 1.17414E-05-6.80493E-04 5.30041E-14-5.76316E-13
 -1      1602 1.99958E+01-5.78405E-05-7.46830E-07-1.37369E-03-3.22771E-14-4.10779E-13
 -1      1603 1.99979E+01-3.85973E-05 2.06112E-05-5.40195E-04 3.97392E-14-5.12474E-13
 -1      1604 1.99971E+01-3.61536E-05 1.07708E-05-5.63650E-04-5.64865E-14-6.03242E-13
 -1      1605 1.99972E+01-7.39660E-05 5.82890E-06-1.17184E-03-1.68306E-14-4.35507E-13
 -1      1606 1.99990E+01-5.11052E-05 2.41007E-05-3.60317E-04 6.48999E-15-7.26461E-13
 -1      1607 1.99984E+01-6.03986E-05 1.20837E-05-4.01583E-04 9.29349E-14-6.20827E-13
 -1      1608 1.99984E+01-9.89321E-05 1.33952E-05-8.86714E-04 1.00711E-13-6.54188E-13
 -1      1609 1.99996E+01-6.61769E-05 2.68827E-06-1.33362E-04-7.17399E-14-5.43880E-13
 -1      1610 1.99994E+01-8.46024E-05 9.64586E-06-1.89430E-04-7.13000E-14-6.11276E-13
 -1      1611 1.99992E+01-1.34933E-04 1.61316E-05-5.06160E-04 8.89046E-16-4.92568E-13
 -1      1612 1.99998E+01-4.47511E-05-4.44613E-06-9.06587E-06-2.74628E-13-3.66133E-13
 -1      1613 1.99997E+01-6.09024E-04 1.22596E-05-3.03469E-04-7.67694E-13-9.73224E-14
 -1      1614 1.99997E+01-3.06331E-04-2.18375E-06-2.44530E-04-5.28466E-13-9.01775E-14
 -1      1615 1.99998E+01-1.54310E-03 5.39530E-06-4.91521E-04-7.10739E-13 2.43145E-14
 -1      1616 1.99997E+01-9.88653E-04 7.36004E-06-4.56692E-04-7.26306E-13-1.05235E-13
 -1      1617 1.99997E+01-8.87326E-04 1.56993E-05-7.42423E-04-3.10261E-13-1.24382E-13
 -1      1618 1.99998E+01-2.69822E-03-3.10660E-07-5.74625E-04-5.19168E-13 1.83033E-13
 -1      1619 1.99998E+01-2.02026E-03 4.09192E-06-5.67072E-04-6.79475E-13 1.26675E-13
 -1      1620 1.99997E+01-1.73287E-03 9.31999E-06-1.02253E-03-2.24842E-13 6.61006E-14
 -1      1621 1.99998E+01-3.88273E-03-2.62835E-06-5.63248E-04 1.31770E-13 1.73975E-13
 -1      1622 1.99998E+01-3.20323E-03 5.88522E-07-5.73012E-04-4.57082E-13 5.68998E-13
 -1      1623 1.99998E+01-2.70608E-03-8.77783E-07-1.10524E-03-1.29844E-13 6.38232E-13
 -1      1624 1.99998E+01-4.92203E-03-2.90686E-06-4.80313E-04-3.86804E-14-2.11207E-14
 -1      1625 1.99998E+01-4.34247E-03-5.25754E-07-5.01796E-04 3.85014E-14-4.93182E-14
 -1      1626 1.99998E+01-3.65939E-03-8.90612E-06-1.02652E-03-1.75399E-13 1.73001E-13
 -1      1627 1.99999E+01-5.73047E-03-2.46285E-06-3.43481E-04-1.43176E-13-1.69478E-13
 -1      1628 1.99999E+01-5.29923E-03-9.61992E-07-3.73793E-04 4.37039E-14-2.80931E-13
 -1      1629 1.99999E+01-4.48418E-03-1.43286E-05-8.23864E-04-2.45918E-13-1.06421E-13
 -1      1630 1.99999E+01-6.20340E-03-1.82581E-06-1.72852E-04-3.93942E-13-5.16193E-14
 -1      1631 1.99999E+01-5.97439E-03-1.05776E-06-2.08022E-04-1.49743E-13-8.64809E-14
 -1      1632 1.99999E+01-5.09474E-03-1.79795E-05-5.32341E-04 8.82512E-14-3.00615E-13
 -1      1633 1.99999E+01-6.29512E-03-1.35067E-06 1.42105E-05 2.17149E-13 3.62561E-13
 -1      1634 1.99999E+01-6.29037E-03-1.35922E-06-2.27583E-05-3.79650E-13 4.23482E-13
 -1      1635 1.99999E+01-5.42027E-03-1.98230E-05-1.88914E-04 1.85343E-13 2.49868E-13
 -1      1636 1.99999E+01-5.99499E-03-1.10118E-06 2.01148E-04 5.84476E-13 1.22785E-13
 -1      1637 1.99999E+01-6.21617E-03-1.92188E-06 1.65421E-04 1.97188E-13 2.54276E-13
 -1      1638 1.99999E+01-5.42853E-03-1.99926E-05 1.73369E-04 1.77007E-13 5.10091E-13
 -1      1639 1.99999E+01-5.32916E-03-9.71683E-07 3.70785E-04 3.64304E-13-4.48146E-13
 -1      1640 1.99999E+01-5.75683E-03-2.72323E-06 3.39620E-04 6.83514E-13-1.55767E-13
 -1      1641 1.99999E+01-5.11718E-03-1.84050E-05 5.21860E-04 1.81218E-13 7.12264E-14
 -1      1642 1.99998E+01-4.38103E-03-7.51047E-07 5.02302E-04 2.89361E-13 2.30990E-13
 -1      1643 1.99998E+01-4.96185E-03-3.17623E-06 4.79934E-04 3.68949E-13-2.58765E-13
 -1      1644 1.99999E+01-4.52090E-03-1.50481E-05 8.19821E-04 3.55358E-13-3.88356E-13
 -1      1645 1.99998E+01-3.22463E-03 6.20969E-07 5.78751E-04 7.94235E-13 1.64734E-13
 -1      1646 1.99998E+01-3.91097E-03-2.75550E-06 5.68397E-04 3.66590E-13 4.45432E-13
 -1      1647 1.99999E+01-3.69693E-03-9.31486E-06 1.03179E-03 3.70380E-13 3.50750E-13
 -1      1648 1.99998E+01-2.02892E-03 4.13895E-06 5.73583E-04 1.01453E-12-1.49868E-13
 -1      1649 1.99998E+01-2.71418E-03-1.81982E-07 5.81591E-04 8.72844E-13 2.64698E-13
 -1      1650 1.99998E+01-2.72861E-03-1.09853E-06 1.11742E-03 5.18843E-13 3.60776E-13
 -1      1651 1.99997E+01-9.87630E-04 7.10803E-06 4.58401E-04 3.98842E-13-3.16245E-13
 -1      1652 1.99998E+01-1.54448E-03 6.58408E-06 4.97531E-04 9.81378E-13-5.52032E-13
 -1      1653 1.99997E+01-1.74156E-03 1.02810E-05 1.03498E-03 5.25057E-13-4.55650E-13
 -1      1654 1.99997E+01-3.48700E-04 1.72779E-06 2.59811E-04 4.32006E-13-6.05171E-14
 -1      1655 1.99997E+01-6.74180E-04 1.57831E-05 3.19743E-04 3.31262E-13 1.78783E-15
 -1      1656 1.99997E+01-9.72380E-04 1.81108E-05 7.69882E-04 1.95790E-13-4.07964E-13
 -1      1657 1.99996E+01-4.34316E-04 7.78173E-06 4.14307E-04-1.96256E-15 2.55095E-14
 -1      1658-6.23485E-01-1.52696E+01-1.64528E+00-5.62418E-01 1.40365E-12 6.14592E-13
 -1      1659-6.79115E-01-1.81057E+01-1.92121E+00 8.81472E-01 6.33715E-13 4.58855E-13
 -1      1660 2.39738E+00-7.09524E+00-9.59934E-01 1.88466E+00 1.71285E-12 8.93285E-13
 -1      1661 1.28643E+00-1.28653E+01-1.50625E+00 9.83582E-01 1.43019E-12 6.05464E-13
 -1      1662 7.74713E+00 8.39412E-01-4.20066E-01 5.48816E+00 1.96998E-12 1.41720E-12
 -1      1663 4.53171E+00-4.73562E+00-1.15109E+00 2.52203E+00 2.03193E-12 1.05149E-12
 -1      1664 1.84485E+01 5.56053E+00 2.48913E-01 1.04848E+01 1.69764E-12 1.70441E-12
 -1      1665 1.20656E+01 2.44800E+00-5.47427E-01 6.91862E+00 1.83009E-12 1.56863E-12
 -1      1666 3.23984E+01 6.61518E+00 9.21191E-01 1.27762E+01 1.17450E-12 1.62625E-12
 -1      1667 2.38219E+01 6.16057E+00 1.47484E-01 1.08228E+01 1.48603E-12 1.57541E-12
 -1      1668 4.65625E+01 5.80748E+00 1.58597E+00 1.16213E+01 8.33777E-13 9.11937E-13
 -1      1669 3.73523E+01 7.36063E+00 8.68523E-01 1.28919E+01 1.15280E-12 1.46150E-12
 -1      1670 5.63041E+01 3.85853E+00 1.91452E+00 5.01465E+00 4.09034E-13-8.33777E-14
 -1      1671 5.07955E+01 5.40319E+00 1.53315E+00 9.90948E+00 5.96939E-13 6.56031E-13
 -1      1672 5.66910E+01 3.85946E+00 1.81404E+00-3.96177E+00 5.18002E-13-1.14930E-12
 -1      1673 5.74710E+01 3.66552E+00 1.88122E+00 1.96379E+00 3.99847E-13-4.57648E-13
 -1      1674 4.76470E+01 5.92508E+00 1.31264E+00-1.06541E+01 1.07828E-12-2.02371E-12
 -1      1675 5.43751E+01 4.25176E+00 1.81862E+00-6.51474E+00 6.85618E-13-1.39522E-12
 -1      1676 3.32434E+01 6.84905E+00 5.89972E-01-1.18071E+01 1.69859E-12-2.32303E-12
 -1      1677 4.29127E+01 5.71528E+00 1.31157E+00-1.14542E+01 1.23473E-12-2.01328E-12
 -1      1678 1.90450E+01 5.50624E+00-1.17156E-01-9.79419E+00 2.22822E-12-2.41074E-12
 -1      1679 2.76268E+01 6.72455E+00 7.11380E-01-1.26620E+01 1.91902E-12-2.60902E-12
 -1      1680 8.21660E+00-2.79170E-01-8.77424E-01-4.76494E+00 2.36966E-12-1.83098E-12
 -1      1681 1.38103E+01 4.29401E+00 7.80649E-03-8.70275E+00 2.35878E-12-2.22400E-12
 -1      1682 2.63953E+00-8.41789E+00-1.44891E+00-1.08633E+00 1.93512E-12-1.17389E-12
 -1      1683 4.77734E+00-2.55194E+00-7.41176E-01-3.33703E+00 2.29461E-12-1.61571E-12
 -1      1684 1.43499E-01-1.56757E+01-1.83233E+00-8.01191E-02 9.67115E-13-6.49591E-13
 -1      1685 5.33238E-01-1.06762E+01-1.37553E+00 5.65055E-02 1.70908E-12-1.02221E-12
 -1      1686-8.26103E-01-1.77936E+01-1.82000E+00-1.27553E+00-3.09350E-13-5.54667E-13
 -1      1687-7.18524E-01-1.64040E+01-1.69719E+00 3.64827E-01 5.72875E-13-5.58942E-13
 -1      1688-5.89750E-01-1.47784E+01-1.65240E+00-1.54240E+00-1.43874E-12-8.74967E-13
 -1      1689-5.42626E-01-1.73140E+01-1.79921E+00-4.63942E-01-6.23612E-13-6.50424E-13
 -1      1690 1.33300E+00-8.80627E+00-1.45857E+00-3.28203E-01-2.28795E-12-1.48559E-12
 -1      1691 5.48521E-01-1.40291E+01-1.89548E+00-1.11682E+00-1.81100E-12-9.75935E-13
 -1      1692 8.06729E+00-9.75371E-01-8.19372E-01 4.45021E+00-2.57572E-12-2.16538E-12
 -1      1693 4.21917E+00-6.73381E+00-1.61971E+00 1.05614E+00-2.43960E-12-1.70519E-12
 -1      1694 2.23031E+01 3.84372E+00 1.93967E-01 9.99090E+00-2.11053E-12-2.52953E-12
 -1      1695 1.39272E+01 3.33640E-01-8.91366E-01 5.85918E+00-2.35634E-12-2.21501E-12
 -1      1696 4.06664E+01 5.70713E+00 1.42334E+00 1.28223E+01-1.52933E-12-2.56395E-12
 -1      1697 2.83750E+01 5.57055E+00 1.48083E-01 1.08829E+01-2.04559E-12-2.68829E-12
 -1      1698 5.62759E+01 4.41927E+00 2.34178E+00 9.25821E+00-9.48189E-13-1.81333E-12
 -1      1699 4.66608E+01 5.99211E+00 1.45524E+00 1.17977E+01-1.31323E-12-2.42628E-12
 -1      1700 6.34026E+01 3.72737E+00 2.74252E+00 1.22302E+00-5.77649E-13-5.85115E-13
 -1      1701 5.93347E+01 4.61501E+00 2.37048E+00 6.98586E+00-8.16153E-13-1.48082E-12
 -1      1702 5.91394E+01 4.66088E+00 2.37341E+00-7.42834E+00-7.03770E-13 7.40963E-13
 -1      1703 6.39383E+01 3.67455E+00 2.83844E+00-1.24275E+00-5.22804E-13-1.96038E-13
 -1      1704 4.32467E+01 5.74432E+00 1.13724E+00-1.09489E+01-1.46422E-12 1.87250E-12
 -1      1705 5.45096E+01 4.24944E+00 2.17829E+00-8.87534E+00-9.12978E-13 1.05249E-12
 -1      1706 2.52601E+01 4.76667E+00-1.12342E-01-9.93699E+00-2.02593E-12 2.51665E-12
 -1      1707 3.68151E+01 5.36083E+00 1.09193E+00-1.23787E+01-1.57918E-12 2.39142E-12
 -1      1708 1.09872E+01-5.04909E-01-1.12097E+00-4.75347E+00-2.12697E-12 2.08744E-12
 -1      1709 1.88159E+01 3.62805E+00-2.65316E-02-9.15810E+00-2.11409E-12 2.54841E-12
 -1      1710 2.91647E+00-8.71652E+00-1.74620E+00-4.95816E-02-1.66023E-12 1.22746E-12
 -1      1711 6.14697E+00-2.51129E+00-9.72895E-01-3.14944E+00-2.01528E-12 1.83675E-12
 -1      1712-5.98027E-02-1.58025E+01-1.97364E+00 1.46018E+00-8.82183E-13 6.34201E-13
 -1      1713 3.22169E-01-1.08568E+01-1.59496E+00 1.25593E+00-1.41653E-12 9.11049E-13
 -1      1714-7.89486E-01-1.79398E+01-1.84397E+00 3.77487E-01 3.47944E-13 4.99045E-13
 -1      1715-1.00013E+00-1.65201E+01-1.79583E+00 1.96861E+00-5.80702E-13 5.43454E-13
 -1      1716 1.52582E+01-2.19959E+00-2.30123E-01 7.25893E+00 1.14930E-12 9.70446E-13
 -1      1717-1.55465E+00-1.22386E+01-1.31154E+00 9.65958E-01 2.51757E-13 8.66307E-13
 -1      1718 1.99997E+01-1.17282E-04 1.02457E-05-1.29556E-04-4.52685E-13-3.06384E-13
 -1      1719 1.99995E+01-3.48651E-04 4.27375E-06-4.14013E-04-1.63394E-13-3.01500E-13
 -1      1720 1.17195E+00-1.00074E+01-1.00173E+00 3.66783E+00 6.07736E-13 7.49234E-13
 -1      1721 6.95260E+00-6.69071E+00-7.51806E-01 5.62027E+00 9.57456E-13 8.14675E-13
 -1      1722 2.57302E+01 1.26673E+00 3.39484E-01 7.89776E+00 9.27203E-13 8.59202E-13
 -1      1723 3.54830E+01 4.31345E+00 7.65940E-01 7.04318E+00 8.81101E-13 4.76952E-13
 -1      1724 4.43337E+01 6.78665E+00 1.32768E+00 5.46578E+00 9.44633E-13 1.96732E-13
 -1      1725 4.94033E+01 7.58205E+00 1.62272E+00 1.81604E+00 8.09908E-13-2.35700E-13
 -1      1726 4.83680E+01 7.45133E+00 1.52150E+00-2.48899E+00 8.93063E-13-7.89813E-13
 -1      1727 4.15910E+01 6.11936E+00 1.07378E+00-5.04073E+00 1.04508E-12-1.03040E-12
 -1      1728 3.27547E+01 3.43375E+00 7.01595E-01-7.22168E+00 1.21034E-12-1.27964E-12
 -1      1729 2.16588E+01 2.80158E-01 1.46077E-01-7.96151E+00 1.40576E-12-1.60028E-12
 -1      1730 1.14555E+01-4.14580E+00-5.05880E-01-6.39982E+00 1.32183E-12-1.35814E-12
 -1      1731 4.04682E+00-8.62999E+00-9.93994E-01-4.28831E+00 9.61564E-13-1.16346E-12
 -1      1732-3.88459E-01-1.14388E+01-1.26371E+00-2.32616E+00 3.52940E-13-1.04450E-12
 -1      1733-1.38169E+00-1.15498E+01-1.23646E+00-8.50915E-02-2.61527E-13-1.11472E-12
 -1      1734 9.86327E-01-1.08424E+01-1.26806E+00 2.03476E+00-7.91645E-13-1.13132E-12
 -1      1735 6.86115E+00-8.23689E+00-1.06983E+00 3.93226E+00-1.34892E-12-1.43280E-12
 -1      1736 1.74298E+01-4.29340E+00-4.28881E-01 5.95115E+00-1.41276E-12-1.45861E-12
 -1      1737 3.00451E+01-3.54263E-01 2.26108E-01 6.32627E+00-1.30507E-12-1.47993E-12
 -1      1738 4.26376E+01 3.94677E+00 1.23905E+00 5.58779E+00-1.20245E-12-1.41898E-12
 -1      1739 5.09011E+01 6.78835E+00 1.93848E+00 2.86962E+00-1.07131E-12-9.01168E-13
 -1      1740 5.39425E+01 7.74015E+00 2.19881E+00-4.68792E-03-1.00964E-12-4.06411E-13
 -1      1741 4.99381E+01 6.16824E+00 1.71767E+00-2.29640E+00-1.12355E-12 2.31704E-13
 -1      1742 4.04516E+01 3.02589E+00 1.02636E+00-5.12542E+00-1.28650E-12 8.62421E-13
 -1      1743 2.73374E+01-7.06206E-01 1.29988E-01-6.46390E+00-1.21225E-12 1.45106E-12
 -1      1744 1.45636E+01-4.99672E+00-6.39349E-01-5.37137E+00-1.04239E-12 1.50863E-12
 -1      1745 4.99568E+00-9.21429E+00-1.17030E+00-3.15749E+00-8.17124E-13 1.07032E-12
 -1      1746-1.93065E-01-1.16890E+01-1.31986E+00-1.03599E+00-2.31259E-13 8.57481E-13
 -1      1747 2.34773E+01 1.96168E+00-2.54407E-02-2.42962E+00-2.86500E-13 1.04972E-12
 -1      1748 2.00131E+01 3.87927E+00-3.95903E-02-1.59940E+00-3.48707E-13-4.18363E-13
 -1      1749 2.04351E+01 3.70346E+00-3.27339E-02-1.87983E+00-4.11423E-13-2.94823E-13
 -1      1750 2.09028E+01 3.24321E+00-4.78201E-02-2.04235E+00-4.16228E-13-1.37057E-13
 -1      1751 2.12677E+01 2.83994E+00-1.30384E-01-2.33443E+00-4.53070E-13 5.96606E-14
 -1      1752 2.09010E+01 2.83644E+00 1.45012E-03-1.62377E+00-4.41785E-13-1.88148E-13
 -1      1753 1.88862E+01 4.48610E+00-2.03835E-02-9.47962E-01-1.82933E-13-6.21309E-13
 -1      1754 1.90967E+01 4.44600E+00-1.27919E-02-1.10208E+00-2.25706E-13-6.00485E-13
 -1      1755 1.86062E+01 4.59340E+00-1.44445E-02-7.16715E-01-9.09156E-14-6.57191E-13
 -1      1756 1.87252E+01 4.57850E+00-1.17320E-02-8.45668E-01-1.34074E-13-6.46514E-13
 -1      1757 1.89371E+01 4.20273E+00-3.57721E-03-8.43817E-01-1.71724E-13-6.11628E-13
 -1      1758 1.84996E+01 4.61559E+00-1.04916E-02-5.01472E-01-1.41196E-14-6.47624E-13
 -1      1759 1.85330E+01 4.61860E+00-1.20201E-02-6.23406E-01-5.56007E-14-6.53595E-13
 -1      1760 1.86850E+01 4.30571E+00-4.45454E-03-6.56461E-01-8.01887E-14-6.29062E-13
 -1      1761 1.85384E+01 4.57723E+00-8.35416E-03-2.67662E-01 6.57443E-14-6.29174E-13
 -1      1762 1.85021E+01 4.59154E+00-1.28943E-02-3.98694E-01 2.61045E-14-6.42372E-13
 -1      1763 1.86164E+01 4.30335E+00-5.87103E-03-4.64453E-01 3.04757E-15-6.16492E-13
 -1      1764 1.86862E+01 4.49959E+00-7.87233E-03 8.07719E-03 1.37986E-13-6.03644E-13
 -1      1765 1.85993E+01 4.52049E+00-1.40167E-02-1.42672E-01 1.02244E-13-6.18434E-13
 -1      1766 1.86967E+01 4.22743E+00-7.56145E-03-2.37507E-01 8.53485E-14-6.02919E-13
 -1      1767 1.89079E+01 4.39712E+00-8.90397E-03 3.37438E-01 2.08207E-13-5.56260E-13
 -1      1768 1.87876E+01 4.42252E+00-1.54476E-02 1.61153E-01 1.72897E-13-5.89152E-13
 -1      1769 1.88847E+01 4.10446E+00-9.12331E-03 4.15224E-02 1.56195E-13-5.76880E-13
 -1      1770 1.91752E+01 4.27622E+00-1.12844E-02 7.16563E-01 2.77592E-13-4.66838E-13
 -1      1771 1.90338E+01 4.30624E+00-1.75829E-02 5.15675E-01 2.36294E-13-5.19562E-13
 -1      1772 1.91421E+01 3.95163E+00-1.01328E-02 3.73734E-01 2.33147E-13-5.19822E-13
 -1      1773 1.94935E+01 4.12079E+00-1.56793E-02 1.15780E+00 3.61464E-13-3.46174E-13
 -1      1774 1.93251E+01 4.16375E+00-2.11812E-02 9.22416E-01 3.14079E-13-4.13591E-13
 -1      1775 1.94495E+01 3.76713E+00-1.07304E-02 7.56588E-01 3.15797E-13-4.12373E-13
 -1      1776 1.98849E+01 3.89315E+00-2.46834E-02 1.65300E+00 4.32833E-13-1.78677E-13
 -1      1777 1.96741E+01 3.96742E+00-2.76666E-02 1.38140E+00 3.92871E-13-2.75651E-13
 -1      1778 1.98140E+01 3.52626E+00-1.03217E-02 1.18121E+00 3.89897E-13-2.78902E-13
 -1      1779 2.04290E+01 3.49195E+00-4.39091E-02 2.19011E+00 4.78421E-13 9.58469E-14
 -1      1780 2.01295E+01 3.65157E+00-3.87076E-02 1.87577E+00 4.48303E-13-7.18731E-14
 -1      1781 2.02712E+01 3.17103E+00-7.24897E-03 1.61530E+00 4.60997E-13-9.46604E-14
 -1      1782 2.13554E+01 2.64024E+00-6.13738E-02 2.62060E+00 4.61477E-13 5.95524E-13
 -1      1783 2.08137E+01 3.07167E+00-4.99131E-02 2.35342E+00 4.62465E-13 3.07684E-13
 -1      1784 2.08933E+01 2.56186E+00-9.13026E-04 1.96656E+00 4.90766E-13 2.17115E-13
 -1      1785 2.21941E+01 1.18725E+00-1.23177E-01 2.14749E+00 3.81993E-13 1.16206E-12
 -1      1786 2.17333E+01 2.24631E+00 2.83763E-03 2.52953E+00 4.17093E-13 7.96418E-13
 -1      1787 2.14328E+01 1.65157E+00-1.31688E-02 1.91796E+00 4.76539E-13 6.04662E-13
 -1      1788 2.14867E+01 7.56173E-01-5.87919E-02 1.35045E+00 3.81417E-13 1.04641E-12
 -1      1789 2.25195E+01 2.42904E+00 8.66145E-02-2.62609E+00-3.89612E-13 4.11227E-13
 -1      1790 2.07493E+01 2.76710E-01-4.75559E-03 5.24714E-01 2.84200E-13 8.65478E-13
 -1      1791 2.12186E+01 4.15855E-01-1.43999E-02 8.80581E-01 3.15900E-13 9.69795E-13
 -1      1792 2.12880E+01 8.14222E-01 4.59127E-03 1.22183E+00 3.80022E-13 7.25508E-13
 -1      1793 2.22416E+01 1.76478E+00 7.83211E-02-1.85143E+00-4.20882E-13 2.73143E-13
 -1      1794 2.15843E+01 5.93440E-01 3.38196E-02-3.45870E-01-3.25660E-13 2.01587E-13
 -1      1795 2.13853E+01 4.84931E-01 2.12126E-02 1.11763E-02-2.82836E-13 1.24773E-13
 -1      1796 2.13149E+01 4.20800E-01 2.82292E-02 3.60007E-01-2.57617E-13 1.19836E-13
 -1      1797 2.14231E+01 3.82782E-01 2.57267E-02 6.05148E-01-2.19023E-13 3.95196E-14
 -1      1798 2.12710E+01 7.05734E-01-9.39867E-03 1.42361E-01-3.21078E-13-3.30272E-14
 -1      1799 2.14600E+01 3.69993E-01 1.67982E-02 8.94310E-01-1.84250E-13 1.83334E-14
 -1      1800 2.17764E+01 3.73215E-01 2.49412E-02 1.11515E+00-1.49745E-13-3.94862E-14
 -1      1801 2.12456E+01 5.78142E-01-7.84555E-03 8.59015E-01-2.40589E-13-6.52031E-14
 -1      1802 2.19069E+01 3.78842E-01 7.81014E-03 1.39244E+00-1.12184E-13-4.03852E-14
 -1      1803 2.24037E+01 3.91731E-01 2.30891E-02 1.61644E+00-5.49673E-14-5.33367E-14
 -1      1804 2.14331E+01 5.69941E-01-6.79714E-03 1.48720E+00-1.44495E-13-8.87918E-14
 -1      1805 2.26191E+01 3.89696E-01 2.09635E-03 1.89654E+00-1.51927E-14-4.32987E-14
 -1      1806 2.32761E+01 3.74234E-01 1.79189E-02 2.11276E+00 1.22862E-14-4.17982E-14
 -1      1807 2.17996E+01 5.84541E-01-6.57903E-03 2.10030E+00-5.66283E-14-1.21688E-13
 -1      1808 2.35902E+01 3.22078E-01 8.54266E-04 2.36918E+00 4.23142E-15-1.73785E-14
 -1      1809 2.43696E+01 2.11381E-01 6.15486E-03 2.51195E+00 9.40513E-15-7.03257E-15
 -1      1810 2.23386E+01 5.08054E-01-8.92503E-03 2.69005E+00 8.49798E-15-8.56390E-14
 -1      1811 2.48479E+01 3.51918E-02 1.03880E-02 2.65031E+00 6.17536E-14 4.94639E-14
 -1      1812 2.56648E+01-2.70403E-01-1.27523E-02 2.57042E+00 1.03924E-13 1.10956E-13
 -1      1813 2.31022E+01 1.50817E-01-1.61335E-02 3.14023E+00 7.68660E-14-1.22391E-14
 -1      1814 2.64520E+01-6.58130E-01 3.82659E-02 2.39102E+00 1.25996E-13 1.83107E-13
 -1      1815 2.71573E+01-1.21401E+00-3.32269E-02 1.86378E+00 1.66811E-13 2.61511E-13
 -1      1816 2.42616E+01-7.47310E-01-2.84228E-02 3.16763E+00 1.67304E-13 8.81578E-14
 -1      1817 2.84168E+01-1.80087E+00 5.83086E-02 1.08237E+00 2.01297E-13 3.60944E-13
 -1      1818 2.88256E+01-2.30997E+00-4.34759E-02-2.83856E-02 1.61891E-13 3.61080E-13
 -1      1819 2.61112E+01-2.25906E+00-4.62491E-02 2.29343E+00 2.24785E-13 2.11386E-13
 -1      1820 3.03801E+01-2.55924E+00-6.29392E-03-1.49867E+00 9.16775E-14 4.14224E-13
 -1      1821 3.02574E+01-2.18691E+00-8.30600E-02-2.73220E+00-4.90441E-14 4.09908E-13
 -1      1822 2.89573E+01-3.55234E+00-4.06147E-02-3.91585E-02 1.42227E-13 3.69770E-13
 -1      1823 3.15614E+01-1.18414E+00-1.21640E-01-3.89518E+00-2.63511E-13 3.85636E-13
 -1      1824 3.09548E+01 4.76147E-01-1.16319E-01-4.02359E+00-3.98848E-13 2.84828E-13
 -1      1825 3.20569E+01-2.55151E+00-1.12621E-01-2.78259E+00-1.57659E-13 3.22797E-13
 -1      1826 3.07769E+01 2.26816E+00-2.57696E-01-3.32692E+00-6.35658E-13 1.19526E-13
 -1      1827 3.02891E+01 3.68310E+00-1.76639E-01-1.49786E+00-8.00637E-13-1.53599E-13
 -1      1828 3.06788E+01 3.99912E+00-1.73028E-01 8.82962E-01-8.21454E-13-3.50685E-13
 -1      1829 3.10350E+01 2.97977E+00-2.25765E-01 2.88368E+00-7.05269E-13-5.18641E-13
 -1      1830 3.06925E+01 1.30442E+00-1.10975E-01 4.06569E+00-5.63605E-13-7.88550E-13
 -1      1831 3.14259E+01-6.74147E-01-1.94052E-01 4.27715E+00-2.93196E-13-9.35960E-13
 -1      1832 3.05262E+01-1.87675E+00-6.96164E-02 3.26943E+00-6.85875E-14-1.13835E-12
 -1      1833 3.08208E+01-2.51541E+00-1.94937E-02 2.03052E+00 8.61637E-14-1.11968E-12
 -1      1834 2.93181E+01-2.32507E+00-5.30608E-02 5.17360E-01 2.61915E-13-9.84863E-13
 -1      1835 2.90663E+01-1.86274E+00 6.07876E-02-6.60348E-01 2.57707E-13-9.94663E-13
 -1      1836 2.96041E+01-3.39640E+00-4.15965E-02 6.18363E-01 2.07147E-13-9.63750E-13
 -1      1837 2.77915E+01-1.31405E+00-4.43830E-02-1.55223E+00 2.03289E-13-8.34639E-13
 -1      1838 2.71710E+01-7.31100E-01 4.11406E-02-2.14216E+00 2.12236E-13-7.21423E-13
 -1      1839 2.68984E+01-2.34592E+00-3.94670E-02-1.81889E+00 3.65860E-13-7.48800E-13
 -1      1840 2.63456E+01-3.47662E-01-2.11329E-02-2.38671E+00 2.14915E-13-5.70554E-13
 -1      1841 2.55736E+01-8.60121E-03 1.29604E-02-2.50060E+00 2.68358E-13-4.53856E-13
 -1      1842 2.49950E+01-8.42265E-01-2.67788E-02-2.88202E+00 3.00154E-13-3.61463E-13
 -1      1843 2.50546E+01 1.61288E-01-3.46740E-04-2.39822E+00 2.51817E-13-4.26206E-13
 -1      1844 2.42931E+01 2.91051E-01 5.24891E-04-2.27293E+00 2.11279E-13-3.36857E-13
 -1      1845 2.37722E+01 7.54234E-02-1.48010E-02-2.96534E+00 2.80895E-13-1.96610E-13
 -1      1846 2.39154E+01 3.31050E-01 1.17882E-02-2.03111E+00 1.72726E-14-4.29261E-13
 -1      1847 2.32302E+01 3.49393E-01-1.33322E-03-1.82202E+00 2.13059E-14-4.85531E-13
 -1      1848 2.29168E+01 4.42501E-01-5.91547E-03-2.57326E+00 9.21116E-14-2.20225E-13
 -1      1849 2.29618E+01 3.33277E-01 1.72947E-02-1.58183E+00 8.98517E-14-5.98108E-13
 -1      1850 2.24360E+01 3.05605E-01-2.83294E-04-1.38987E+00 4.73866E-14-6.55145E-13
 -1      1851 2.22672E+01 4.96616E-01-3.31233E-03-2.04527E+00-2.35012E-15-3.66655E-13
 -1      1852 2.22175E+01 2.76146E-01 1.68531E-02-1.18393E+00-4.28494E-14-6.60186E-13
 -1      1853 2.18129E+01 2.39773E-01 8.33284E-04-1.02680E+00-1.35841E-13-7.42672E-13
 -1      1854 2.17610E+01 4.29318E-01-1.98954E-03-1.55930E+00-3.11331E-14-6.13047E-13
 -1      1855 2.16362E+01 2.11009E-01 1.42831E-02-8.64502E-01-1.49891E-13-7.10206E-13
 -1      1856 2.13337E+01 1.78282E-01 1.42501E-03-7.44925E-01-1.30485E-13-7.18973E-13
 -1      1857 2.13497E+01 3.34769E-01-1.69376E-03-1.15669E+00-1.10980E-13-6.12319E-13
 -1      1858 2.11926E+01 1.54883E-01 1.11993E-02-6.22632E-01-1.09511E-13-7.45528E-13
 -1      1859 2.09703E+01 1.29031E-01 1.55515E-03-5.34872E-01-1.30557E-13-6.32989E-13
 -1      1860 2.10200E+01 2.48213E-01-1.64724E-03-8.44225E-01-1.51532E-13-5.96428E-13
 -1      1861 2.08596E+01 1.11442E-01 8.40242E-03-4.44913E-01-1.28797E-13-5.07812E-13
 -1      1862 2.06980E+01 9.22067E-02 1.44546E-03-3.81662E-01-4.09828E-16-5.46957E-13
 -1      1863 2.07601E+01 1.79414E-01-1.58528E-03-6.10155E-01-8.86511E-14-3.47596E-13
 -1      1864 2.06125E+01 7.94709E-02 6.14937E-03-3.16309E-01 7.97539E-16-4.77233E-13
 -1      1865 2.04961E+01 6.55662E-02 1.24219E-03-2.71093E-01-7.82143E-16-4.10486E-13
 -1      1866 2.05586E+01 1.28125E-01-1.45022E-03-4.38156E-01 5.04304E-14-2.66613E-13
 -1      1867 2.04310E+01 5.65004E-02 4.44025E-03-2.23893E-01-1.15684E-13-5.67384E-13
 -1      1868 2.03475E+01 4.65771E-02 1.02176E-03-1.91661E-01-9.25291E-14-7.42531E-13
 -1      1869 2.04048E+01 9.10620E-02-1.26341E-03-3.13025E-01-1.35240E-13-3.48229E-13
 -1      1870 2.02986E+01 4.01617E-02 3.18402E-03-1.57652E-01 8.47523E-14-8.27535E-13
 -1      1871 2.02392E+01 3.31061E-02 8.18104E-04-1.34683E-01 3.87025E-14-7.24020E-13
 -1      1872 2.02888E+01 6.46535E-02-1.05898E-03-2.22424E-01-2.97615E-14-5.73458E-13
 -1      1873 2.02029E+01 2.85643E-02 2.27518E-03-1.10202E-01-3.74212E-15-6.73370E-13
 -1      1874 2.01609E+01 2.35410E-02 6.43206E-04-9.38298E-02-1.08105E-14-5.65465E-13
 -1      1875 2.02023E+01 4.59202E-02-8.62035E-04-1.56965E-01 7.58438E-14-5.67014E-13
 -1      1876 2.01343E+01 2.03136E-02 1.62212E-03-7.62255E-02-1.51505E-14-5.51123E-13
 -1      1877 2.01049E+01 1.67235E-02 4.98851E-04-6.45641E-02 3.69021E-14-6.60933E-13
 -1      1878 2.01386E+01 3.26186E-02-6.86100E-04-1.09731E-01 1.24284E-14-5.09661E-13
 -1      1879 2.00857E+01 1.44189E-02 1.15364E-03-5.19329E-02-1.61066E-13-7.78426E-13
 -1      1880 2.00654E+01 1.18416E-02 3.82573E-04-4.36479E-02-2.19843E-13-8.36872E-13
 -1      1881 2.00924E+01 2.31391E-02-5.36246E-04-7.57101E-02-1.92779E-13-6.30678E-13
 -1      1882 2.00517E+01 1.01888E-02 8.17443E-04-3.46231E-02-1.10803E-13-9.90165E-13
 -1      1883 2.00381E+01 8.32941E-03 2.89025E-04-2.87671E-02-1.58613E-13-1.03803E-12
 -1      1884 2.00592E+01 1.63531E-02-4.12854E-04-5.12858E-02-2.60728E-13-7.37422E-13
 -1      1885 2.00285E+01 7.15596E-03 5.79965E-04-2.23663E-02-6.40147E-14-9.70430E-13
 -1      1886 2.00195E+01 5.78574E-03 2.06715E-04-1.82565E-02 1.38067E-13-8.35174E-13
 -1      1887 2.00358E+01 1.14691E-02-3.15637E-04-3.38475E-02-4.37524E-14-1.00143E-12
 -1      1888 2.00127E+01 4.88690E-03 4.00078E-04-1.35673E-02 1.93461E-13-9.11138E-13
 -1      1889 2.00068E+01 3.88702E-03 1.52080E-04-1.06209E-02 2.40187E-13-8.00175E-13
 -1      1890 2.00194E+01 7.95166E-03-2.14542E-04-2.12867E-02 1.34173E-13-9.00175E-13
 -1      1891 2.00026E+01 3.31522E-03 2.75702E-04-7.58133E-03 2.01657E-13-7.83634E-13
 -1      1892 1.99993E+01 2.61497E-03 1.15334E-04-5.69007E-03 3.41169E-14-7.25041E-13
 -1      1893 2.00085E+01 5.32872E-03-1.72625E-04-1.25105E-02 2.38134E-13-1.02724E-12
 -1      1894 1.99967E+01 2.18799E-03 1.82058E-04-3.62437E-03-1.10934E-13-6.89211E-13
 -1      1895 1.99950E+01 1.70244E-03 8.44636E-05-2.37896E-03-1.04694E-13-6.44646E-13
 -1      1896 2.00017E+01 3.56034E-03-1.23799E-04-6.68240E-03 4.92622E-14-8.08399E-13
 -1      1897 1.99935E+01 1.39892E-03 1.18824E-04-1.01930E-03-1.60132E-13-6.28418E-13
 -1      1898 1.99928E+01 1.05756E-03 6.00699E-05-2.27438E-04-1.92646E-13-5.33615E-13
 -1      1899 1.99976E+01 2.29832E-03-8.79151E-05-2.76916E-03-1.25756E-13-5.19097E-13
 -1      1900 1.99920E+01 8.47006E-04 7.42981E-05 6.31098E-04-3.27851E-14-5.28423E-13
 -1      1901 1.99920E+01 6.10994E-04 4.19485E-05 1.10575E-03 3.77829E-14-4.60398E-13
 -1      1902 1.99953E+01 1.41239E-03-6.11954E-05-2.25665E-04-3.69376E-14-3.34018E-13
 -1      1903 1.99918E+01 4.67838E-04 4.32666E-05 1.61431E-03 1.02246E-14-3.99304E-13
 -1      1904 1.99922E+01 3.07887E-04 2.85062E-05 1.87140E-03 2.02084E-14-4.87062E-13
 -1      1905 1.99944E+01 8.01091E-04-4.13980E-05 1.35085E-03-7.75336E-15-2.15018E-13
 -1      1906 1.99923E+01 2.12778E-04 2.20045E-05 2.13979E-03 3.94947E-14-5.37565E-13
 -1      1907 1.99929E+01 1.06443E-04 1.84784E-05 2.25060E-03 1.68685E-13-5.25429E-13
 -1      1908 1.99942E+01 3.87739E-04-2.69155E-05 2.25515E-03 1.88576E-15-3.04575E-13
 -1      1909 1.99932E+01 4.43792E-05 7.74856E-06 2.35689E-03-8.03193E-15-5.95537E-13
 -1      1910 1.99939E+01-2.60053E-05 1.07881E-05 2.37070E-03-3.43563E-13-6.55881E-13
 -1      1911 1.99946E+01 1.13586E-04-1.64566E-05 2.69994E-03 7.33321E-14-5.39071E-13
 -1      1912 1.99943E+01-6.70617E-05-1.54324E-06 2.36801E-03-2.36556E-13-5.16048E-13
 -1      1913 1.99951E+01-1.15951E-04 4.52219E-06 2.31645E-03-1.36097E-13-5.08473E-13
 -1      1914 1.99953E+01-6.75670E-05-8.98991E-06 2.83409E-03-1.81653E-13-4.43872E-13
 -1      1915 1.99955E+01-1.46190E-04-7.32319E-06 2.23782E-03-3.92113E-13-5.51181E-13
 -1      1916 1.99963E+01-1.85968E-04-9.83674E-07 2.13779E-03-1.60724E-13-7.17995E-13
 -1      1917 1.99962E+01-1.93509E-04-3.71251E-06 2.75593E-03-2.66369E-13-5.43339E-13
 -1      1918 1.99967E+01-2.14765E-04-1.05411E-05 2.00000E-03 9.24585E-14-8.17682E-13
 -1      1919 1.99974E+01-2.56228E-04-6.06239E-06 1.85562E-03 3.11462E-13-8.58080E-13
 -1      1920 1.99971E+01-2.96403E-04-2.14536E-08 2.52302E-03-1.11890E-13-5.45318E-13
 -1      1921 1.99978E+01-2.92652E-04-1.15647E-05 1.66225E-03 5.66629E-13-9.88230E-13
 -1      1922 1.99983E+01-3.42483E-04-9.86299E-06 1.46762E-03 1.31781E-13-7.84741E-13
 -1      1923 1.99979E+01-4.02349E-04 3.48837E-06 2.16251E-03 3.18885E-13-6.81076E-13
 -1      1924 1.99987E+01-3.84835E-04-1.00228E-05 1.21479E-03-1.79515E-13-4.24990E-13
 -1      1925 1.99991E+01-4.37718E-04-9.91959E-06 9.73900E-04-3.69412E-14-1.52143E-13
 -1      1926 1.99987E+01-5.30049E-04 6.65881E-06 1.67809E-03 3.00816E-13-5.70845E-13
 -1      1927 1.99994E+01-4.61526E-04-6.58840E-06 6.13491E-04-1.11990E-13-6.77270E-14
 -1      1928 2.02527E+01 6.28358E-02 6.14158E-03 7.25150E-02 1.85271E-13 5.42445E-13
 -1      1929 2.03448E+01 1.17891E-01 1.56629E-02 1.37774E-01 1.84493E-13 6.28471E-13
 -1      1930 2.01354E+01-1.40709E-02 8.81453E-04 1.87905E-02 1.40289E-13 4.72036E-13
 -1      1931 2.01815E+01 2.29874E-02 1.03083E-02 2.43611E-02 1.65523E-13 5.29296E-13
 -1      1932 2.04145E+01 6.73820E-02-3.69731E-03 1.08959E-01 2.14898E-13 3.59295E-13
 -1      1933 2.00508E+01-6.84313E-02-2.91009E-03 6.58436E-02 1.23752E-13 3.99878E-13
 -1      1934 2.00952E+01-4.15700E-02 4.23829E-03 3.28839E-02 1.31990E-13 4.47043E-13
 -1      1935 2.03079E+01-4.33144E-02-1.91929E-03 6.10256E-02 1.74847E-13 3.23835E-13
 -1      1936 1.99372E+01-1.04948E-01-4.93429E-03 1.84609E-01 9.36681E-14 3.33971E-13
 -1      1937 2.00134E+01-8.77746E-02 6.08323E-04 1.25272E-01 1.00885E-13 3.70859E-13
 -1      1938 2.02361E+01-1.20719E-01 3.92075E-04 1.36706E-01 1.50666E-13 2.66187E-13
 -1      1939 1.97523E+01-1.18151E-01-5.10932E-03 3.44280E-01 6.87935E-14 2.61953E-13
 -1      1940 1.98796E+01-1.14092E-01-1.41534E-03 2.72189E-01 8.88352E-14 3.12093E-13
 -1      1941 2.01453E+01-1.67392E-01 2.51473E-03 2.97118E-01 1.21159E-13 2.23454E-13
 -1      1942 1.94779E+01-9.94703E-02-3.33066E-03 5.04232E-01 6.14521E-14 2.47061E-13
 -1      1943 1.96592E+01-1.12905E-01-2.34737E-03 4.37883E-01 5.34234E-14 2.67800E-13
 -1      1944 1.99972E+01-1.74182E-01 3.94016E-03 4.98976E-01 7.51428E-14 1.48018E-13
 -1      1945 1.91252E+01-4.39443E-02 1.25861E-04 6.13492E-01 9.39202E-14 2.43909E-13
 -1      1946 1.93453E+01-7.64763E-02-2.25594E-03 5.75275E-01 9.13861E-14 2.67827E-13
 -1      1947 1.97723E+01-1.29691E-01 4.06207E-03 6.85964E-01 5.56430E-14 1.42367E-13
 -1      1948 1.87390E+01 4.22821E-02 4.29282E-03 6.20650E-01 8.39093E-14 1.88442E-13
 -1      1949 1.89649E+01-4.35645E-03-1.00898E-03 6.31240E-01 9.12722E-14 2.38496E-13
 -1      1950 1.94780E+01-3.11621E-02 2.34638E-03 7.91164E-01 1.30327E-13 1.64482E-13
 -1      1951 1.83930E+01 1.37794E-01 7.71350E-03 4.93306E-01 7.88193E-14 1.42586E-13
 -1      1952 1.85799E+01 8.99156E-02 1.44433E-03 5.62652E-01 8.28226E-14 1.64323E-13
 -1      1953 1.91545E+01 1.05308E-01-1.23542E-03 7.53075E-01 9.84276E-14 1.12388E-13
 -1      1954 1.81713E+01 2.10765E-01 9.13569E-03 2.38314E-01 7.05234E-14 4.59487E-14
 -1      1955 1.82751E+01 1.78527E-01 4.73189E-03 3.57994E-01 7.88588E-14 9.20371E-14
 -1      1956 1.88716E+01 2.42616E-01-5.61300E-03 5.42157E-01 1.01319E-13 8.20524E-14
 -1      1957 1.81399E+01 2.33037E-01 8.20965E-03-9.14570E-02 1.58901E-14 1.07263E-13
 -1      1958 1.81313E+01 2.29256E-01 7.84806E-03 5.14462E-02 3.85733E-14 7.35096E-14
 -1      1959 1.87078E+01 3.33805E-01-8.87853E-03 1.83729E-01 6.92731E-14 2.10797E-14
 -1      1960 1.83193E+01 1.95740E-01 5.68085E-03-4.13189E-01-5.40366E-16 1.06047E-13
 -1      1961 1.81946E+01 2.21750E-01 9.43994E-03-2.83364E-01 4.48669E-14 1.07510E-13
 -1      1962 1.87185E+01 3.44081E-01-9.30207E-03-2.41016E-01-9.71445E-17 7.77204E-14
 -1      1963 1.86744E+01 1.14709E-01 2.76158E-03-6.47842E-01-1.30469E-14 4.08267E-14
 -1      1964 1.84566E+01 1.59620E-01 8.53499E-03-5.61562E-01-1.10636E-14 7.26745E-14
 -1      1965 1.89097E+01 2.69876E-01-6.64834E-03-6.23623E-01 3.11665E-14 3.16036E-14
 -1      1966 1.91289E+01 2.05684E-02 3.93326E-04-7.51259E-01 1.59809E-14 3.40114E-14
 -1      1967 1.88594E+01 6.78952E-02 5.25958E-03-7.21976E-01 1.51775E-14 3.58923E-14
 -1      1968 1.92339E+01 1.40580E-01-2.39505E-03-8.73871E-01-2.96161E-15 1.07197E-14
 -1      1969 1.95956E+01-5.77206E-02-1.09089E-03-7.24779E-01 1.94457E-14 1.75185E-14
 -1      1970 1.93203E+01-2.16428E-02 7.85679E-04-7.47296E-01 5.74011E-14 3.02579E-15
 -1      1971 1.96141E+01 1.81625E-03 1.51654E-03-9.53147E-01 3.61511E-14-7.53486E-14
 -1      1972 2.00035E+01-1.04398E-01-1.77605E-03-6.03984E-01-2.51908E-14-6.51909E-15
 -1      1973 1.97605E+01-8.56237E-02-3.36847E-03-6.61003E-01-6.67001E-16 2.89087E-14
 -1      1974 1.99750E+01-1.07191E-01 3.91073E-03-8.78625E-01 3.92991E-14-5.38610E-14
 -1      1975 2.03123E+01-1.18553E-01-1.93190E-03-4.37120E-01 3.29467E-14-1.21699E-13
 -1      1976 2.01245E+01-1.15890E-01-6.13086E-03-5.08414E-01-1.62743E-14-5.86050E-14
 -1      1977 2.02657E+01-1.67547E-01 4.65708E-03-7.02862E-01 1.76252E-14-1.89097E-13
 -1      1978 2.05112E+01-1.08637E-01-1.77760E-03-2.66725E-01 2.64025E-15-1.17395E-13
 -1      1979 2.03860E+01-1.16937E-01-7.18680E-03-3.35871E-01 4.89830E-14-6.68474E-14
 -1      1980 2.04647E+01-1.80884E-01 4.26295E-03-4.86265E-01 1.50615E-14-9.07835E-14
 -1      1981 2.06106E+01-8.58019E-02-1.47232E-03-1.20574E-01 1.62462E-13-1.55547E-13
 -1      1982 2.05434E+01-9.92759E-02-6.82561E-03-1.77694E-01 5.94256E-14-1.12127E-13
 -1      1983 2.05743E+01-1.60987E-01 3.31985E-03-2.77334E-01 8.79444E-14-1.28316E-13
 -1      1984 2.06317E+01-5.94036E-02-1.10530E-03-1.11028E-02-1.20485E-14-1.73318E-14
 -1      1985 2.06112E+01-7.35767E-02-5.59864E-03-5.24329E-02 1.12905E-13-7.20248E-14
 -1      1986 2.06099E+01-1.24321E-01 2.26362E-03-1.05023E-01 9.77139E-14-9.57766E-14
 -1      1987 2.05985E+01-3.53788E-02-7.34754E-04 6.06734E-02-1.17812E-13 3.61972E-14
 -1      1988 2.06111E+01-4.76254E-02-4.03923E-03 3.46483E-02-6.44218E-14 2.53729E-14
 -1      1989 2.05916E+01-8.41509E-02 1.33116E-03 1.97403E-02-7.54771E-14 9.10498E-14
 -1      1990 2.05327E+01-1.64788E-02-4.01392E-04 1.00238E-01-2.02161E-14 1.30571E-13
 -1      1991 2.05656E+01-2.57417E-02-2.53084E-03 8.68021E-02-1.11425E-13 5.19697E-14
 -1      1992 2.05388E+01-4.85872E-02 6.07404E-04 9.84671E-02-1.05310E-13 1.93310E-13
 -1      1993 2.04517E+01-3.24695E-03-1.29447E-04 1.15571E-01 9.38209E-14 8.82449E-14
 -1      1994 2.04945E+01-9.48715E-03-1.28296E-03 1.11306E-01 8.97446E-14 1.64810E-13
 -1      1995 2.04678E+01-2.11582E-02 9.54636E-05 1.39213E-01-3.69428E-14 2.35451E-13
 -1      1996 2.03676E+01 4.97929E-03 7.18171E-05 1.14618E-01 1.79441E-13 9.12601E-14
 -1      1997 2.04129E+01 1.28609E-03-3.66761E-04 1.16311E-01 1.65499E-13 9.52960E-14
 -1      1998 2.03904E+01-2.30725E-03-2.35295E-04 1.52135E-01 1.46880E-13 1.17136E-13
 -1      1999 2.02885E+01 9.33194E-03 2.04717E-04 1.04027E-01-2.76098E-14 7.13013E-14
 -1      2000 2.03314E+01 7.54297E-03 2.32903E-04 1.09086E-01 1.52696E-13 1.51992E-13
 -1      2001 2.03149E+01 9.14923E-03-4.25089E-04 1.46828E-01 1.48109E-13 1.97431E-13
 -1      2002 2.02187E+01 1.09765E-02 2.79116E-04 8.87582E-02-4.40865E-14 5.02126E-14
 -1      2003 2.02565E+01 1.04765E-02 5.73035E-04 9.53065E-02-9.69535E-14 7.86065E-14
 -1      2004 2.02461E+01 1.49812E-02-5.12400E-04 1.31098E-01-5.33464E-14 1.60417E-13
 -1      2005 2.01600E+01 1.09042E-02 3.08200E-04 7.21755E-02-7.55682E-14 2.18415E-13
 -1      2006 2.01916E+01 1.11906E-02 7.22371E-04 7.89777E-02-2.38826E-14 1.42820E-13
 -1      2007 2.01865E+01 1.69425E-02-5.29756E-04 1.10655E-01-6.15865E-14 3.26370E-13
 -1      2008 2.01126E+01 9.86713E-03 3.05354E-04 5.63379E-02 1.07906E-14 1.52497E-13
 -1      2009 2.01379E+01 1.05698E-02 7.44516E-04 6.26655E-02 1.12608E-15 1.53678E-13
 -1      2010 2.01370E+01 1.64941E-02-5.02828E-04 8.92995E-02 7.24645E-15 3.41515E-13
 -1      2011 2.00757E+01 8.38839E-03 2.82301E-04 4.23438E-02 4.16584E-14 5.23476E-14
 -1      2012 2.00952E+01 9.25679E-03 6.90724E-04 4.78312E-02 2.39422E-14 7.97657E-14
 -1      2013 2.00972E+01 1.47283E-02-4.50821E-04 6.93113E-02 4.93085E-14 8.95686E-14
 -1      2014 2.00478E+01 6.80301E-03 2.48313E-04 3.06385E-02-3.58595E-14 6.21978E-14
 -1      2015 2.00623E+01 7.68170E-03 5.98461E-04 3.51604E-02 2.32238E-14 7.94952E-14
 -1      2016 2.00662E+01 1.23945E-02-3.87390E-04 5.18627E-02-1.34428E-14 2.06841E-13
 -1      2017 2.00275E+01 5.30607E-03 2.10128E-04 2.12597E-02 6.59613E-14-7.97914E-14
 -1      2018 2.00378E+01 6.10848E-03 4.92900E-04 2.48362E-02 4.75626E-14-1.83672E-15
 -1      2019 2.00427E+01 9.96515E-03-3.21694E-04 3.73833E-02 1.20187E-13 2.09835E-13
 -1      2020 2.00132E+01 3.99594E-03 1.72243E-04 1.40156E-02 1.30747E-13-1.06800E-13
 -1      2021 2.00203E+01 4.68204E-03 3.89504E-04 1.67447E-02 3.50352E-14-1.26316E-13
 -1      2022 2.00255E+01 7.70978E-03-2.59433E-04 2.58453E-02 1.02889E-13 1.83805E-13
 -1      2023 2.00036E+01 2.90861E-03 1.37370E-04 8.60628E-03-9.15485E-14-9.99141E-14
 -1      2024 2.00082E+01 3.46759E-03 2.96694E-04 1.06196E-02 1.05361E-13-1.14627E-13
 -1      2025 2.00134E+01 5.75896E-03-2.03772E-04 1.69689E-02 1.11558E-13 6.96835E-14
 -1      2026 1.99976E+01 2.04285E-03 1.06895E-04 4.70055E-03-9.69898E-14-1.63732E-13
 -1      2027 2.00003E+01 2.48072E-03 2.18144E-04 6.13551E-03-1.19945E-13-2.14595E-13
 -1      2028 2.00051E+01 4.15496E-03-1.56103E-04 1.03607E-02-1.49759E-14 1.19116E-13
 -1      2029 1.99941E+01 1.37739E-03 8.12917E-05 1.98045E-03 2.74732E-14-3.42743E-13
 -1      2030 1.99955E+01 1.70870E-03 1.54555E-04 2.96505E-03-6.22953E-14-2.80525E-13
 -1      2031 1.99997E+01 2.88820E-03-1.16650E-04 5.60091E-03 7.00108E-14-1.61406E-13
 -1      2032 1.99925E+01 8.82136E-04 6.04373E-05 1.64506E-04-1.43731E-15-3.83395E-13
 -1      2033 1.99930E+01 1.12471E-03 1.04931E-04 8.09749E-04 1.04896E-14-4.78306E-13
 -1      2034 1.99965E+01 1.92203E-03-8.49217E-05 2.29303E-03 1.11287E-13-3.94944E-13
 -1      2035 1.99920E+01 5.24784E-04 4.38513E-05-9.82916E-04-6.47473E-14-3.73406E-13
 -1      2036 1.99919E+01 6.96674E-04 6.74397E-05-5.85598E-04-5.76073E-14-4.15100E-13
 -1      2037 1.99949E+01 1.20848E-03-6.00433E-05 8.96166E-05-3.20303E-14-4.35110E-13
 -1      2038 1.99924E+01 2.74482E-04 3.08555E-05-1.65036E-03 1.79065E-13-4.00865E-13
 -1      2039 1.99919E+01 3.92407E-04 3.99539E-05-1.42889E-03 2.77027E-14-3.46848E-13
 -1      2040 1.99943E+01 6.97619E-04-4.09735E-05-1.29823E-03-6.08312E-14-5.95404E-13
 -1      2041 1.99933E+01 1.03423E-04 2.06759E-05-1.98223E-03 1.35008E-13-5.34416E-13
 -1      2042 1.99926E+01 1.82165E-04 2.03737E-05-1.88233E-03 1.63779E-13-4.41781E-13
 -1      2043 1.99944E+01 3.42413E-04-2.66477E-05-2.10030E-03 1.32246E-13-4.33316E-13
 -1      2044 1.99944E+01-1.28624E-05 1.25100E-05-2.08344E-03 1.30848E-13-4.45922E-13
 -1      2045 1.99936E+01 3.95764E-05 6.80235E-06-2.06664E-03 1.69832E-13-4.17138E-13
 -1      2046 1.99949E+01 1.00775E-04-1.60750E-05-2.49142E-03 4.54013E-14-3.27571E-13
 -1      2047 1.99956E+01-9.60476E-05 5.62882E-06-2.02422E-03 1.09998E-13-3.48181E-13
 -1      2048 1.99948E+01-5.85373E-05-2.33886E-06-2.06604E-03 1.19785E-13-3.29193E-13
 -1      2049 1.99957E+01-6.43507E-05-8.39815E-06-2.59751E-03 5.40349E-14-3.61037E-13
 -1      2050 1.99968E+01-1.65605E-04-3.18756E-07-1.84410E-03-1.60120E-13-1.78376E-13
 -1      2051 1.99960E+01-1.32887E-04-8.17198E-06-1.93274E-03 4.03634E-14-2.39202E-13
 -1      2052 1.99966E+01-1.85829E-04-2.87492E-06-2.50178E-03 6.18500E-14-1.89678E-13
 -1      2053 1.99978E+01-2.38861E-04-5.35373E-06-1.55641E-03 9.60852E-14-4.44948E-13
 -1      2054 1.99972E+01-2.02364E-04-1.12222E-05-1.69152E-03-6.94731E-14-3.11206E-13
 -1      2055 1.99974E+01-2.92525E-04 1.15613E-06-2.25104E-03-4.17596E-14-1.82715E-13
 -1      2056 1.99987E+01-3.29737E-04-7.79902E-06-1.15401E-03 3.91545E-14-4.22706E-13
 -1      2057 1.99982E+01-2.83063E-04-1.03960E-05-1.34482E-03 8.87264E-14-4.98087E-13
 -1      2058 1.99983E+01-4.07620E-04 5.78440E-06-1.86853E-03 1.68031E-13-3.37167E-13
 -1      2059 1.99993E+01-3.77535E-04-9.00568E-06-6.80771E-04-1.86279E-14-3.48940E-13
 -1      2060 1.99990E+01-3.41847E-04-7.47002E-06-9.08142E-04 3.81873E-14-3.66765E-13
 -1      2061 1.99989E+01-5.05786E-04 1.18060E-06-1.38009E-03-1.22210E-14-2.57152E-13
 -1      2062 1.99994E+01-5.57594E-04-4.38577E-06-8.32809E-04-5.99880E-14-1.74620E-13
 -1      2063 1.99999E+01-2.69672E-03 4.00931E-06-1.46497E-03-8.41217E-14 6.18224E-13
 -1      2064 1.99998E+01-2.22954E-03-4.57583E-06-1.46948E-03-9.59126E-14 5.11021E-13
 -1      2065 1.99997E+01-1.86649E-03 1.99013E-06-1.42072E-03 6.11284E-14 1.63012E-13
 -1      2066 1.99996E+01-1.41843E-03-1.00714E-05-1.33189E-03-4.69372E-14 8.17949E-14
 -1      2067 1.99997E+01-1.86591E-03 6.95707E-07-1.81066E-03 9.07037E-14 2.74594E-13
 -1      2068 1.99994E+01-9.24355E-04-1.55696E-06-1.03951E-03-8.79396E-14-1.58154E-14
 -1      2069 2.00000E+01-3.45811E-03 7.72722E-06-1.31572E-03-2.11098E-13-1.03887E-14
 -1      2070 1.99999E+01-3.02879E-03 2.74275E-06-1.40093E-03-2.62041E-13 4.31961E-13
 -1      2071 1.99999E+01-2.56155E-03-3.75986E-06-1.78504E-03-8.83505E-14 4.40250E-13
 -1      2072 2.00001E+01-4.09550E-03 1.11138E-05-1.01445E-03-1.17579E-13-7.96788E-14
 -1      2073 2.00000E+01-3.74359E-03 8.11735E-06-1.16216E-03-2.55985E-13 1.20343E-13
 -1      2074 2.00001E+01-3.18143E-03-6.65424E-06-1.54085E-03-2.15410E-13 1.54499E-13
 -1      2075 2.00001E+01-4.53066E-03 1.35203E-05-6.09614E-04 1.29286E-13-2.48017E-13
 -1      2076 2.00001E+01-4.30212E-03 1.19808E-05-7.97557E-04 8.45349E-14-2.03282E-13
 -1      2077 2.00002E+01-3.67622E-03-9.13127E-06-1.12670E-03 2.94460E-14 4.87674E-14
 -1      2078 2.00002E+01-4.72260E-03 1.47602E-05-1.46238E-04 1.36921E-13 3.46625E-13
 -1      2079 2.00002E+01-4.64121E-03 1.40667E-05-3.54730E-04 1.89361E-13-3.23507E-15
 -1      2080 2.00003E+01-3.99567E-03-1.06085E-05-6.00060E-04 1.88970E-13-4.36466E-14
 -1      2081 2.00002E+01-4.65310E-03 1.45230E-05 3.32718E-04 5.80837E-14 3.68197E-13
 -1      2082 2.00002E+01-4.72757E-03 1.45063E-05 1.22652E-04 4.13287E-14 4.90397E-13
 -1      2083 2.00003E+01-4.11202E-03-1.11731E-05-1.55743E-05-3.80826E-14 2.82626E-13
 -1      2084 2.00001E+01-4.32766E-03 1.25575E-05 7.83735E-04 8.06624E-14 7.89254E-14
 -1      2085 2.00001E+01-4.55133E-03 1.34256E-05 5.91651E-04-7.83655E-14 2.92993E-13
 -1      2086 2.00003E+01-4.01429E-03-1.08279E-05 5.73524E-04-1.85554E-13 2.91558E-13
 -1      2087 2.00000E+01-3.78743E-03 8.47905E-06 1.15484E-03 1.39424E-13-1.95849E-13
 -1      2088 2.00001E+01-4.13083E-03 1.12240E-05 1.00399E-03 3.08739E-14-8.51846E-14
 -1      2089 2.00003E+01-3.71250E-03-9.71226E-06 1.10848E-03-2.13073E-13-6.46558E-14
 -1      2090 1.99999E+01-3.06741E-03 2.77153E-06 1.40882E-03 4.88280E-13 6.11910E-13
 -1      2091 2.00000E+01-3.50447E-03 8.13943E-06 1.31695E-03 3.41198E-13 3.96988E-13
 -1      2092 2.00001E+01-3.23025E-03-7.48533E-06 1.53625E-03 1.43195E-13 3.15364E-13
 -1      2093 1.99998E+01-2.25343E-03-4.28650E-06 1.48663E-03 5.37339E-13 1.71887E-13
 -1      2094 1.99999E+01-2.72654E-03 4.47618E-06 1.48020E-03 6.01495E-13 2.89881E-13
 -1      2095 1.99999E+01-2.60487E-03-4.31182E-06 1.79826E-03 4.61113E-13 5.73350E-13
 -1      2096 1.99996E+01-1.44012E-03-1.23135E-05 1.34598E-03 2.49443E-13-7.62457E-13
 -1      2097 1.99997E+01-1.88880E-03 7.71945E-07 1.43790E-03 3.81850E-13-2.33141E-13
 -1      2098 1.99997E+01-1.89907E-03-2.04792E-06 1.82882E-03 3.89181E-13-1.29025E-13
 -1      2099 2.04229E+01 1.46465E-01 1.07573E-02 2.22245E-01 2.09423E-13 6.98405E-13
 -1      2100 2.06319E+01 2.27840E-01 1.59055E-02 3.80747E-01 2.40093E-13 7.92802E-13
 -1      2101 2.07887E+01 3.76711E-01-1.48846E-04 5.75701E-01 3.01554E-13 5.80079E-13
 -1      2102 2.05629E+01 2.07274E-01-2.76037E-03 2.84020E-01 2.59340E-13 4.54826E-13
 -1      2103 1.15167E+01-4.85877E+00-1.46871E-01 7.26794E+00 6.93445E-13 7.28216E-13
 -1      2104 8.12601E+00-6.19498E+00-2.36473E-01 6.60002E+00 4.02900E-13 6.22780E-13
 -1      2105 2.84608E+01-3.00875E-01 8.91058E-02 6.30063E+00 5.65825E-13 2.98817E-13
 -1      2106 2.37124E+01-1.90666E+00-1.35221E-01 6.50418E+00 5.77094E-13 4.97713E-13
 -1      2107-1.11986E-02-8.11479E+00-4.90896E-01 2.04343E+00 2.32342E-13 7.95974E-13
 -1      2108-1.96891E-01-7.69820E+00-4.20880E-01 4.96043E-01 7.12104E-14 8.17790E-13
 -1      2109 1.98794E+01-2.66585E+00 1.79239E-02 7.69938E+00 6.65135E-13 5.65381E-13
 -1      2110 1.51129E+01-4.59053E+00-2.98660E-01 6.95264E+00 7.29306E-13 5.91471E-13
 -1      2111 1.93480E+01 4.26482E+00-2.93188E-02-1.23418E+00-2.62766E-13-5.61698E-13
 -1      2112 1.96549E+01 4.18391E+00-1.87171E-02-1.44190E+00-3.18794E-13-4.93810E-13
 -1      2113 2.00319E+01 3.51836E+00-1.37139E-02-1.34655E+00-3.49614E-13-4.30074E-13
 -1      2114 1.93977E+01 3.95957E+00-1.53884E-03-1.06441E+00-2.64129E-13-5.46830E-13
 -1      2115 3.58935E+01 3.38483E+00 2.71212E-01 4.13636E+00 7.80195E-13-6.32827E-14
 -1      2116 3.15974E+01 1.54203E+00-3.00619E-02 4.34820E+00 7.35342E-13 1.09912E-13
 -1      2117 4.04829E+01 6.33752E+00 3.52411E-01 2.13641E+00 8.73857E-13-2.41140E-13
 -1      2118 3.71964E+01 5.18425E+00 7.44070E-02 3.00964E+00 8.84542E-13-6.20615E-14
 -1      2119 4.22781E+01 7.63479E+00 3.39333E-01 8.46714E-02 8.83404E-13-4.71501E-13
 -1      2120 4.12802E+01 7.34482E+00 2.48862E-01 1.50107E+00 8.92730E-13-2.54019E-13
 -1      2121 4.06787E+01 7.01850E+00 1.96722E-01-1.83576E+00 8.69305E-13-6.15064E-13
 -1      2122 4.26394E+01 7.53300E+00 4.09514E-01-5.32398E-01 8.61533E-13-4.36026E-13
 -1      2123 3.54468E+01 4.22506E+00 2.21086E-02-2.41379E+00 8.98448E-13-5.58775E-13
 -1      2124 3.92639E+01 5.76514E+00 3.50361E-01-2.08788E+00 8.80324E-13-5.55722E-13
 -1      2125 2.92189E+01 7.94053E-02-1.94566E-02-5.24786E+00 8.08936E-13-8.34666E-13
 -1      2126 3.34050E+01 1.62299E+00 8.24042E-02-4.30415E+00 8.41285E-13-5.67046E-13
 -1      2127 2.04101E+01-2.97901E+00-2.21150E-01-6.73251E+00 7.93254E-13-1.03645E-12
 -1      2128 2.56805E+01-1.08754E+00 8.38224E-02-7.06842E+00 8.02636E-13-1.08485E-12
 -1      2129 1.23876E+01-5.76745E+00-3.21530E-01-6.75664E+00 5.39901E-13-9.30672E-13
 -1      2130 1.68266E+01-3.78254E+00-1.25923E-02-7.66526E+00 7.18980E-13-9.73333E-13
 -1      2131 4.76244E+00-7.57670E+00-4.61075E-01-5.13979E+00 3.71814E-13-9.98757E-13
 -1      2132 7.92713E+00-5.80047E+00-2.19269E-01-6.44045E+00 5.97300E-13-1.04809E-12
 -1      2133 7.98828E-01-7.57649E+00-3.61500E-01-2.80502E+00-1.50990E-14-1.02290E-12
 -1      2134 2.34354E+00-7.29040E+00-3.48265E-01-4.18108E+00 3.10862E-13-1.06143E-12
 -1      2135 7.16852E-01-6.72259E+00-2.65075E-01 1.05416E+00-2.80304E-13-1.08530E-12
 -1      2136 2.37831E-01-7.05542E+00-3.19120E-01-7.95804E-01-1.23512E-14-1.09579E-12
 -1      2137 5.23881E+00-7.10990E+00-3.08684E-01 4.37794E+00-5.70322E-13-1.09698E-12
 -1      2138 2.91994E+00-7.13931E+00-2.92927E-01 3.21784E+00-2.35534E-13-1.01269E-12
 -1      2139 1.19680E+01-6.15277E+00-2.67033E-01 5.91541E+00-8.63865E-13-1.13692E-12
 -1      2140 7.75941E+00-7.77594E+00-5.22726E-01 4.71634E+00-6.84119E-13-1.09365E-12
 -1      2141 2.29395E+01-4.68346E+00-9.46653E-02 6.01462E+00-7.84262E-13-8.30780E-13
 -1      2142 1.68923E+01-6.34274E+00-4.47079E-01 5.44209E+00-8.20455E-13-8.94951E-13
 -1      2143 3.41890E+01-1.40824E+00 2.16265E-01 3.68941E+00-8.69527E-13-8.02580E-13
 -1      2144 2.81828E+01-3.63854E+00-2.10380E-01 3.66241E+00-7.62224E-13-7.64278E-13
 -1      2145 4.45427E+01 5.92663E+00 5.62365E-01-1.25968E-01-1.00264E-12-3.84193E-13
 -1      2146 4.25501E+01 4.74297E+00 4.08851E-01 5.75592E-01-1.01030E-12-5.99187E-13
 -1      2147 4.54576E+01 6.72438E+00 5.95335E-01-1.27237E-01-9.95537E-13-2.37282E-13
 -1      2148 4.49729E+01 7.03959E+00 5.72528E-01 4.07439E-01-1.01763E-12-4.18332E-13
 -1      2149 3.52895E+01 2.64158E-02 6.58866E-02-2.59609E+00-9.81937E-13 3.44724E-13
 -1      2150 4.00659E+01 1.86708E+00 3.33423E-01-1.45192E+00-1.06928E-12 1.01030E-14
 -1      2151 2.57056E+01-4.19782E+00-3.03133E-01-4.22262E+00-6.17395E-13 7.12985E-13
 -1      2152 3.19549E+01-2.18554E+00 1.30938E-01-4.20619E+00-7.69995E-13 5.27689E-13
 -1      2153 1.50423E+01-6.70273E+00-4.65342E-01-5.21184E+00-5.17031E-13 1.00303E-12
 -1      2154 2.08301E+01-4.82985E+00-1.13871E-01-6.03648E+00-5.96967E-13 1.02629E-12
 -1      2155 5.83741E+00-8.20063E+00-5.70720E-01-4.00341E+00-2.85882E-13 9.39415E-13
 -1      2156 9.82114E+00-6.61742E+00-3.28859E-01-5.36928E+00-5.24025E-13 1.12890E-12
 -1      2157 1.13133E+00-7.70576E+00-3.81445E-01-1.80449E+00 8.72080E-14 8.56537E-13
 -1      2158 2.91934E+00-7.76502E+00-4.26610E-01-3.13766E+00-1.68310E-13 8.01303E-13
 -1      2159 3.97338E+00-6.13056E+00-2.33170E-01 5.35603E+00 2.31704E-13 6.64191E-13
 -1      2160 1.42831E+00-8.02687E+00-5.09764E-01 3.52066E+00 1.77691E-13 7.15372E-13
 -1      2161 2.00491E+00-5.17288E+00-1.72105E-01 3.43406E+00-2.09277E-14 7.94642E-13
 -1      2162 3.40976E+01 1.88409E+00-8.17793E-02-3.69205E+00-6.69020E-13 1.96509E-13
 -1      2163 3.44012E+01 5.23915E+00-6.39775E-02-3.09253E-01-9.58233E-13-1.16396E-13
 -1      2164 2.16369E+01 1.16190E+00-1.32364E-02-1.09673E+00-3.97824E-13 1.75271E-13
 -1      2165 3.41640E+01 2.90442E+00-9.27043E-02 3.59789E+00-8.09464E-13-4.79811E-13
 -1      2166 1.59276E+01-5.36317E+00-5.32094E-02 7.68143E+00 2.47802E-13 4.03441E-13
 -1      2167 3.07009E+01-7.01000E-01 1.36092E-01 3.52424E+00 4.82892E-13-1.08247E-13
 -1      2168 2.13973E+01 1.44876E+00-2.27909E-02-1.01125E+00-4.20617E-13-2.12469E-14
 -1      2169 1.99993E+01-6.63487E-04-2.88001E-06 1.00944E-03-7.08924E-14-2.17653E-13
 -1      2170 1.99994E+01-1.02771E-03-2.04192E-06-1.46764E-03 8.24130E-14-1.36536E-14
 -1      2171 1.99994E+01-9.62551E-04-2.74733E-06 1.18737E-03 1.18160E-14-5.59754E-13
 -1      2172 7.30118E+00-5.64650E+00-1.12579E-01 6.51747E+00 1.52434E-13 7.03798E-13
 -1      2173 6.83496E+00-4.24499E+00 1.00859E-01 6.49822E+00-1.75165E-13 7.40796E-13
 -1      2174 1.05605E+01-5.00838E+00-1.23900E-01 7.65552E+00-2.55906E-14 6.30801E-13
 -1      2175 1.47200E+00-6.00946E+00-2.32531E-01-9.18254E-01 7.05269E-14 7.65499E-13
 -1      2176 3.49647E+00-3.72943E+00-1.09033E-02-2.47185E+00 1.77164E-13 7.94365E-13
 -1      2177 2.07915E+00-3.52925E+00-8.90688E-03-3.83016E-02 2.13579E-14 7.03382E-13
 -1      2178 2.37158E+01-3.89255E+00 7.10430E-02 6.42863E+00 2.99816E-13 2.07723E-13
 -1      2179 6.43298E+00-6.31575E+00-2.50260E-01-4.78304E+00 5.86753E-14 9.85600E-13
 -1      2180 1.54542E+01-6.76257E+00-1.36627E-01-6.04905E+00-1.46494E-13 9.64166E-13
 -1      2181 2.61412E+01-5.99915E+00 1.54959E-02-4.06314E+00-1.39111E-13 3.89966E-13
 -1      2182 3.41165E+01-2.57677E+00 1.81790E-01-6.85812E-01-5.44648E-13-1.94789E-13
 -1      2183 4.00769E+01 6.60241E+00 4.30147E-01-8.08207E-01-1.03184E-12-1.61871E-13
 -1      2184 2.79406E+01-5.47178E+00 6.20320E-02 3.59397E+00-3.69982E-13-4.12170E-13
 -1      2185 1.74883E+01-6.61857E+00-6.55778E-02 6.18479E+00-3.00537E-13-7.26759E-13
 -1      2186 8.99695E+00-6.16135E+00-1.94777E-01 5.72290E+00-1.48936E-13-1.03362E-12
 -1      2187 3.57808E+00-4.73056E+00-8.70425E-02 2.77932E+00-5.44564E-14-1.10573E-12
 -1      2188 1.84028E+00-4.73892E+00-1.42788E-01-2.06584E+00-8.13793E-14-1.16340E-12
 -1      2189 5.21188E+00-5.71511E+00-2.03565E-01-5.81813E+00 1.88738E-14-1.09401E-12
 -1      2190 1.26628E+01-5.76287E+00-7.94809E-02-7.66504E+00 8.52096E-14-8.44450E-13
 -1      2191 2.11955E+01-4.88070E+00 1.93734E-02-6.90079E+00 2.04559E-13-6.95083E-13
 -1      2192 2.85891E+01-2.18224E+00 1.53130E-01-4.56336E+00 4.13392E-13-4.30322E-13
 -1      2193 3.36061E+01 2.13756E+00 1.43334E-01-1.26480E+00 6.96734E-13-2.72393E-13
 -1      2194 3.63515E+01 6.87173E+00 2.26237E-01 1.24125E-01 8.44214E-13-3.06533E-13
 -1      2195 3.79511E+01 8.79051E+00 3.66620E-01-2.13011E-02 9.10216E-13-3.96475E-13
 -1      2196 3.48167E+01 3.85129E+00 2.00157E-01 9.10681E-01 7.47846E-13-3.77698E-13
 -1      2197 3.68255E+01 7.63796E+00 3.09646E-01-5.59229E-03 9.00446E-13-3.87079E-13
 -1      2198 3.93594E+01 3.78072E+00 4.43742E-01-1.72594E+00-9.52960E-13-2.89269E-13
 -1      2199 4.19849E+01 3.03898E+00 4.85899E-01 1.71146E+00-9.49518E-13-7.41407E-13
 -1      2200 3.71134E+01 1.22861E+00 9.00882E-02 2.40680E+00-9.76740E-13-8.81073E-13
 -1      2201 3.79307E+01 1.45973E+00 2.70923E-01 1.68896E+00-9.56735E-13-4.93883E-13
 -1      2202 4.12366E+01 3.29815E+00 4.09862E-01 4.75343E-02-1.10245E-12-1.94178E-13
 -1      2203 4.21721E+01 5.10240E+00 4.17053E-01-2.25937E-01-1.13487E-12-7.61613E-14
 -1      2204 4.55950E+01 6.27467E+00 7.47554E-01 1.59362E-01-1.06704E-12-2.39642E-13
 -1      2205 4.01376E+01 6.97709E+00 4.68785E-01 1.14080E+00-1.06848E-12-3.21965E-13
 -1      2206 3.87640E+01 4.43616E+00 1.07853E-01 2.39037E+00-1.04605E-12-4.19609E-13
 -1      2207 1.99993E+01-1.05617E-03-1.67876E-06 1.61418E-03 6.48600E-14-7.17729E-13
 -1      2208 3.56128E+01-1.45494E+00 1.17349E-01-2.31835E-01-6.21225E-13-3.41893E-13
 -1      2209 1.86899E+01 4.01182E+00-7.90126E-03-5.89756E-01-5.55260E-14-5.91941E-13
 -1      2210 1.87595E+01 3.98401E+00-1.05565E-02-6.74425E-01-1.08886E-13-6.06453E-13
 -1      2211 1.88814E+01 3.91244E+00-1.22496E-02-7.08492E-01-1.37787E-13-6.00258E-13
 -1      2212 1.90596E+01 3.82568E+00-1.09938E-02-7.96321E-01-1.96971E-13-5.71579E-13
 -1      2213 1.89019E+01 3.66574E+00 5.52703E-03-6.35913E-01-1.16286E-13-5.65786E-13
 -1      2214 1.88342E+01 3.87655E+00-4.04912E-03-2.33196E-01 1.05122E-13-5.69701E-13
 -1      2215 1.87449E+01 3.92041E+00-1.10032E-02-3.56770E-01 5.51238E-14-5.78277E-13
 -1      2216 1.90750E+01 3.71109E+00-4.67634E-03 3.98811E-02 1.72622E-13-5.39604E-13
 -1      2217 1.89435E+01 3.77505E+00-1.12268E-02-1.12665E-01 1.31226E-13-5.58821E-13
 -1      2218 1.90116E+01 3.48804E+00-1.59837E-03-2.42379E-01 1.03102E-13-5.30127E-13
 -1      2219 1.93663E+01 3.51120E+00-6.78221E-03 3.67045E-01 2.50911E-13-4.83466E-13
 -1      2220 1.92138E+01 3.59070E+00-1.17425E-02 1.90968E-01 2.06864E-13-5.15743E-13
 -1      2221 1.92900E+01 3.27929E+00-2.60837E-03 2.78472E-02 1.77441E-13-4.88490E-13
 -1      2222 1.96976E+01 3.26536E+00-1.05896E-02 7.42629E-01 3.33451E-13-3.57932E-13
 -1      2223 1.95266E+01 3.37043E+00-1.29441E-02 5.42980E-01 2.83192E-13-4.29334E-13
 -1      2224 1.96142E+01 3.03378E+00-2.42515E-03 3.52499E-01 2.48301E-13-4.17985E-13
 -1      2225 2.00668E+01 2.94231E+00-1.72383E-02 1.13335E+00 4.04315E-13-2.30589E-13
 -1      2226 1.98761E+01 3.09401E+00-1.50303E-02 9.24359E-01 3.56037E-13-3.01511E-13
 -1      2227 1.99687E+01 2.73914E+00-5.78719E-04 7.03102E-01 3.26380E-13-3.00491E-13
 -1      2228 2.04972E+01 2.46813E+00-2.86360E-02 1.48027E+00 4.65052E-13-3.69565E-14
 -1      2229 2.02716E+01 2.71668E+00-1.78349E-02 1.29429E+00 4.29649E-13-1.43651E-13
 -1      2230 2.03498E+01 2.36056E+00 3.61869E-03 1.03038E+00 3.81943E-13-1.50528E-13
 -1      2231 2.10316E+01 1.73925E+00-2.67502E-02 1.63890E+00 4.68774E-13 2.79131E-13
 -1      2232 2.07569E+01 2.16411E+00-1.08901E-02 1.57674E+00 4.68945E-13 8.58098E-14
 -1      2233 2.07708E+01 1.83044E+00 1.34490E-02 1.24504E+00 4.32552E-13 4.90337E-14
 -1      2234 2.12999E+01 1.02537E+00-1.78624E-02 1.38108E+00 4.13128E-13 5.86316E-13
 -1      2235 2.11568E+01 1.48742E+00 3.22866E-04 1.55970E+00 4.44240E-13 4.12535E-13
 -1      2236 2.09842E+01 1.21598E+00-3.36335E-04 1.18300E+00 4.23757E-13 2.73502E-13
 -1      2237 2.09990E+01 6.98185E-01-2.50323E-03 9.17441E-01 3.67296E-13 5.28475E-13
 -1      2238 2.11087E+01 1.16093E+00 1.13987E-02-1.37785E-01-3.27172E-13-1.05779E-13
 -1      2239 2.10361E+01 1.01090E+00 7.10760E-03 2.94913E-01-2.95036E-13-1.18867E-13
 -1      2240 2.09652E+01 9.22726E-01 1.16902E-02 6.63345E-01-2.53541E-13-1.03683E-13
 -1      2241 2.10000E+01 8.81818E-01 1.24787E-02 1.00676E+00-2.08498E-13-1.15914E-13
 -1      2242 2.07039E+01 1.29358E+00-6.43148E-04 4.37182E-01-2.86435E-13-1.75704E-13
 -1      2243 2.09110E+01 8.70456E-01 4.34029E-03 1.34451E+00-1.74046E-13-9.88704E-14
 -1      2244 2.10475E+01 8.80427E-01 1.48892E-02 1.66231E+00-1.29523E-13-1.17457E-13
 -1      2245 2.05425E+01 1.16817E+00 1.53484E-03 1.17313E+00-1.93555E-13-1.48694E-13
 -1      2246 2.09498E+01 8.88393E-01-1.24501E-03 1.99701E+00-7.41334E-14-1.04563E-13
 -1      2247 2.11764E+01 8.92476E-01 1.61851E-02 2.30706E+00-1.52968E-14-9.53008E-14
 -1      2248 2.03742E+01 1.16802E+00 3.93752E-03 1.86391E+00-1.05726E-13-1.22864E-13
 -1      2249 2.10804E+01 8.56481E-01-2.46369E-03 2.65245E+00 2.43564E-14-1.21765E-13
 -1      2250 2.14039E+01 7.68300E-01 1.73043E-02 2.93268E+00 4.65123E-14-1.11847E-13
 -1      2251 2.01966E+01 1.14992E+00 5.22959E-03 2.55270E+00-2.07592E-14-1.26093E-13
 -1      2252 2.13705E+01 5.81010E-01 6.48514E-03 3.28051E+00 5.75171E-14-1.13207E-13
 -1      2253 2.18435E+01 2.53786E-01 2.09660E-02 3.45277E+00 1.15458E-13-9.01255E-14
 -1      2254 2.00464E+01 9.02369E-01 2.01141E-03 3.25587E+00 6.56552E-14-1.63469E-13
 -1      2255 2.20550E+01-2.53481E-01 3.80446E-02 3.74440E+00 1.86907E-13-6.13329E-14
 -1      2256 2.28012E+01-1.00064E+00 3.22419E-02 3.64899E+00 2.43344E-13-4.30428E-14
 -1      2257 2.01030E+01 7.49897E-02-1.02195E-02 3.94722E+00 1.85639E-13-1.86441E-13
 -1      2258 2.36329E+01-2.00409E+00 9.06974E-02 3.69877E+00 3.08937E-13-1.38509E-14
 -1      2259 2.49574E+01-3.09686E+00 5.97125E-02 3.05748E+00 3.08274E-13 5.68365E-14
 -1      2260 2.08672E+01-1.73184E+00-1.73986E-02 4.49455E+00 2.90754E-13-1.84165E-13
 -1      2261 1.90219E+01-5.15138E+00-4.15841E-03 7.54707E+00 7.01106E-14 1.27294E-13
 -1      2262 1.56660E+01-5.20465E+00 8.76789E-02 7.62221E+00 1.14353E-14 2.71623E-13
 -1      2263 3.23711E+01-1.81269E+00-1.00083E-01 3.48805E+00-2.87728E-13-9.11382E-13
 -1      2264 1.99991E+01-9.65038E-04-3.64372E-06-1.72962E-03 1.58917E-13 3.17699E-14
 -1      2265 2.57103E+01-3.33105E+00 1.62523E-02-2.55815E+00 4.41064E-13-4.40763E-13
 -1      2266 2.45568E+01-2.16086E+00 9.64712E-02-3.24918E+00 4.22485E-13-3.59309E-13
 -1      2267 2.35825E+01-1.20108E+00 1.76718E-02-3.35091E+00 3.62193E-13-2.78045E-13
 -1      2268 2.28234E+01-4.04630E-01 4.20980E-02-3.51218E+00 3.61954E-13-1.77879E-13
 -1      2269 2.18553E+01-2.02149E+00-2.93670E-02-4.10162E+00 4.42896E-13-1.59980E-13
 -1      2270 2.24968E+01 1.07068E-01 1.44437E-02-3.29233E+00 2.73668E-13-8.76640E-14
 -1      2271 2.19905E+01 4.63656E-01 8.65385E-03-3.16067E+00 2.81507E-13-9.40607E-14
 -1      2272 2.08358E+01-1.43425E-01-1.05780E-02-3.78313E+00 3.67151E-13-9.34270E-14
 -1      2273 2.19337E+01 6.49457E-01 1.39177E-02-2.83646E+00 1.28024E-13-4.91287E-14
 -1      2274 2.15524E+01 7.37734E-01-3.43333E-03-2.57839E+00-5.26287E-14-1.87883E-13
 -1      2275 2.05797E+01 7.34061E-01 3.75215E-03-3.18352E+00 1.91977E-13-8.50567E-14
 -1      2276 2.15746E+01 7.44604E-01 1.46254E-02-2.27771E+00-9.13176E-14-1.93883E-13
 -1      2277 2.12828E+01 7.11040E-01-5.75447E-03-2.02046E+00-3.12710E-14-2.28939E-13
 -1      2278 2.05687E+01 9.58161E-01 6.95940E-03-2.55112E+00-9.24338E-14-2.17404E-14
 -1      2279 2.12982E+01 6.58967E-01 1.40690E-02-1.76242E+00-3.67341E-14-3.18943E-13
 -1      2280 2.10585E+01 5.89511E-01-4.97789E-03-1.53743E+00-9.53218E-14-4.13009E-13
 -1      2281 2.05845E+01 8.88215E-01 6.86322E-03-1.99289E+00-9.56412E-14-5.60383E-14
 -1      2282 2.10539E+01 5.25222E-01 1.23574E-02-1.32852E+00-1.03971E-13-3.66318E-13
 -1      2283 2.08586E+01 4.54986E-01-3.57864E-03-1.14781E+00-9.31863E-14-3.38298E-13
 -1      2284 2.05654E+01 7.26153E-01 5.05131E-03-1.52345E+00-5.00054E-14-1.73655E-13
 -1      2285 2.08375E+01 3.97411E-01 1.01477E-02-9.84976E-01-1.17380E-13-3.56808E-13
 -1      2286 2.06815E+01 3.38382E-01-2.36857E-03-8.46365E-01-1.75713E-13-3.51193E-13
 -1      2287 2.05122E+01 5.57855E-01 3.08461E-03-1.14643E+00-1.57991E-13-2.30506E-13
 -1      2288 2.06517E+01 2.92606E-01 7.95402E-03-7.22442E-01-1.02539E-13-2.49024E-13
 -1      2289 2.05295E+01 2.46867E-01-1.48562E-03-6.18839E-01 2.41400E-14-1.55963E-13
 -1      2290 2.04397E+01 4.14627E-01 1.55179E-03-8.52946E-01-4.20192E-14-1.82414E-13
 -1      2291 2.04973E+01 2.12463E-01 6.05291E-03-5.25926E-01-4.19124E-14-2.10959E-13
 -1      2292 2.04032E+01 1.78426E-01-8.87999E-04-4.49590E-01-5.91844E-15-3.04907E-13
 -1      2293 2.03619E+01 3.02827E-01 5.44459E-04-6.29172E-01 1.56624E-15-9.58298E-14
 -1      2294 2.03726E+01 1.53282E-01 4.52338E-03-3.80556E-01-5.95276E-14-2.82871E-13
 -1      2295 2.03011E+01 1.28459E-01-5.02712E-04-3.24732E-01-1.44828E-13-2.44929E-13
 -1      2296 2.02881E+01 2.19259E-01-3.74453E-05-4.60820E-01-1.08150E-13-1.13880E-13
 -1      2297 2.02742E+01 1.10316E-01 3.34373E-03-2.73719E-01-1.16805E-13-2.16056E-13
 -1      2298 2.02206E+01 9.23714E-02-2.64210E-04-2.33053E-01 5.69781E-15-1.81573E-13
 -1      2299 2.02229E+01 1.58151E-01-3.29405E-04-3.35235E-01-6.81601E-14-5.14559E-14
 -1      2300 2.01981E+01 7.93360E-02 2.45553E-03-1.95491E-01 1.31367E-14-2.38420E-13
 -1      2301 2.01584E+01 6.63920E-02-1.22478E-04-1.65931E-01 8.29927E-14-1.72384E-13
 -1      2302 2.01682E+01 1.13910E-01-4.43674E-04-2.42069E-01-6.19351E-14 2.90941E-14
 -1      2303 2.01403E+01 5.70205E-02 1.79548E-03-1.38357E-01-1.59495E-14-2.60901E-13
 -1      2304 2.01111E+01 4.76707E-02-4.21823E-05-1.16913E-01-5.44283E-14-4.03982E-13
 -1      2305 2.01240E+01 8.19764E-02-4.58220E-04-1.73233E-01-4.19019E-14-3.88324E-14
 -1      2306 2.00969E+01 4.09131E-02 1.30821E-03-9.67404E-02-7.98191E-14-5.88661E-13
 -1      2307 2.00759E+01 3.41398E-02 5.16594E-07-8.12303E-02-2.91378E-13-5.38486E-13
 -1      2308 2.00892E+01 5.89062E-02-4.22251E-04-1.22567E-01-2.23521E-13-3.00891E-13
 -1      2309 2.00650E+01 2.92497E-02 9.49546E-04-6.65418E-02-4.15096E-13-5.72281E-13
 -1      2310 2.00500E+01 2.43270E-02 1.99455E-05-5.53753E-02-3.15049E-13-5.58694E-13
 -1      2311 2.00625E+01 4.21962E-02-3.64878E-04-8.54405E-02-3.35627E-13-4.25105E-13
 -1      2312 2.00419E+01 2.07913E-02 6.89114E-04-4.47525E-02-1.13230E-13-6.77684E-13
 -1      2313 2.00314E+01 1.71744E-02 1.21348E-05-3.67596E-02 2.08051E-14-8.02600E-13
 -1      2314 2.00424E+01 3.00551E-02-3.02981E-04-5.83945E-02-3.41295E-13-3.31586E-13
 -1      2315 2.00252E+01 1.44686E-02 4.88618E-04-2.88037E-02 6.85001E-14-7.08530E-13
 -1      2316 2.00178E+01 1.17720E-02 1.62324E-05-2.29427E-02 1.36191E-13-7.55868E-13
 -1      2317 2.00273E+01 2.11268E-02-2.14412E-04-3.84879E-02 6.26335E-14-6.86476E-13
 -1      2318 2.00137E+01 9.97291E-03 3.47445E-04-1.76609E-02 2.04387E-13-7.71592E-13
 -1      2319 2.00090E+01 8.09823E-03 2.49086E-05-1.37888E-02 1.86097E-13-8.10474E-13
 -1      2320 2.00165E+01 1.45306E-02-1.90458E-04-2.42817E-02 1.20860E-13-6.17592E-13
 -1      2321 2.00062E+01 6.77322E-03 2.39254E-04-1.01021E-02 3.18539E-13-7.47090E-13
 -1      2322 2.00032E+01 5.43404E-03 2.23815E-05-7.45549E-03 2.42577E-13-4.64972E-13
 -1      2323 2.00093E+01 9.95732E-03-1.45459E-04-1.45901E-02 2.77301E-13-4.61264E-13
 -1      2324 2.00014E+01 4.48403E-03 1.63902E-04-4.94373E-03-1.19908E-15-3.31727E-13
 -1      2325 1.99996E+01 3.52910E-03 1.84574E-05-3.18004E-03-5.09121E-14-2.60325E-13
 -1      2326 2.00043E+01 6.65699E-03-1.09542E-04-7.87932E-03 3.22086E-13-4.58668E-13
 -1      2327 1.99984E+01 2.85715E-03 1.09448E-04-1.51824E-03-7.75566E-14-1.38593E-13
 -1      2328 1.99975E+01 2.18530E-03 1.47853E-05-3.85138E-04-4.81157E-14-1.33265E-13
 -1      2329 2.00011E+01 4.30183E-03-8.10194E-05-3.34251E-03 7.64017E-15-1.07825E-13
 -1      2330 1.99968E+01 1.71759E-03 7.04204E-05 6.69834E-04 5.03174E-14-1.10640E-13
 -1      2331 1.99965E+01 1.25288E-03 1.15252E-05 1.35876E-03 7.41004E-14-3.36188E-14
 -1      2332 1.99992E+01 2.64332E-03-5.87104E-05-3.73421E-04-4.58374E-14-1.16367E-13
 -1      2333 1.99961E+01 9.33442E-04 4.28390E-05 1.98698E-03-1.49455E-13-1.68997E-13
 -1      2334 1.99962E+01 6.17914E-04 8.63423E-06 2.36801E-03-2.16094E-15-1.99155E-13
 -1      2335 1.99981E+01 1.49456E-03-4.15305E-05 1.48005E-03-8.75144E-14-3.15584E-13
 -1      2336 1.99961E+01 4.03644E-04 2.37328E-05 2.70087E-03 1.91363E-13-4.53821E-13
 -1      2337 1.99963E+01 1.92222E-04 5.94772E-06 2.87157E-03-4.64881E-14-5.68549E-13
 -1      2338 1.99976E+01 7.12905E-04-2.84997E-05 2.55146E-03 1.86034E-14-2.36076E-13
 -1      2339 1.99963E+01 4.92100E-05 1.08830E-05 3.00244E-03-1.01096E-13-4.83570E-13
 -1      2340 1.99967E+01-9.39848E-05 3.25865E-06 3.02995E-03-1.66954E-14-3.30203E-13
 -1      2341 1.99976E+01 1.87536E-04-1.87721E-05 3.08219E-03 3.15101E-15-3.35208E-13
 -1      2342 1.99969E+01-1.93269E-04 2.65532E-06 3.02211E-03-2.66140E-13-3.93138E-13
 -1      2343 1.99973E+01-2.97700E-04 3.70587E-07 2.94932E-03-3.36269E-13-3.60321E-13
 -1      2344 1.99977E+01-1.69633E-04-1.16495E-05 3.24122E-03-1.32888E-13-3.95048E-13
 -1      2345 1.99975E+01-3.76615E-04-2.24364E-06 2.84196E-03-2.19260E-13-3.85860E-13
 -1      2346 1.99979E+01-4.66708E-04-3.09729E-06 2.69246E-03-7.33373E-14-4.40167E-13
 -1      2347 1.99981E+01-4.30561E-04-6.59904E-06 3.14023E-03-3.28313E-13-1.95778E-13
 -1      2348 1.99981E+01-5.46530E-04-6.19829E-06 2.50447E-03 1.56039E-13-4.11039E-13
 -1      2349 1.99985E+01-6.36652E-04-8.50947E-06 2.28744E-03 4.12476E-13-5.93534E-13
 -1      2350 1.99985E+01-6.52156E-04-1.91496E-06 2.84651E-03 5.92609E-14-4.99368E-13
 -1      2351 1.99987E+01-7.88513E-04-9.63953E-06 2.12477E-03 2.18340E-13-7.25295E-13
 -1      2352 1.99990E+01-8.90510E-04-1.25066E-05 1.83881E-03 8.29793E-14-7.80691E-13
 -1      2353 1.99994E+01-1.31385E-03 8.03662E-06 2.03121E-03 1.43325E-13-9.16510E-13
 -1      2354 1.99990E+01-9.31700E-04 6.36437E-06 2.46769E-03 2.14848E-13-7.03606E-13
 -1      2355 2.04160E+01-2.09486E-01-5.98783E-03 1.85613E-01 1.43547E-13 2.13846E-13
 -1      2356 2.04676E+01-1.49287E-01 5.54715E-03 1.24221E-01 1.65899E-13 2.45430E-13
 -1      2357 2.04604E+01-8.48616E-02-4.67947E-03 8.93987E-02 1.71147E-13 2.15029E-13
 -1      2358 2.05191E+01-7.22082E-04 9.69592E-03 8.48926E-02 1.80344E-13 2.42137E-13
 -1      2359 2.06382E+01-1.48284E-01-2.86431E-03 1.26436E-01 1.76295E-13 1.49218E-13
 -1      2360 2.05289E+01 8.95148E-02-2.43455E-03 1.24492E-01 1.99528E-13 2.31567E-13
 -1      2361 2.06137E+01 2.01052E-01 1.09317E-02 2.01534E-01 2.22419E-13 2.44431E-13
 -1      2362 2.06539E+01 7.04187E-02-4.64111E-03 1.40476E-01 2.01005E-13 1.20014E-13
 -1      2363 2.03582E+01-2.82272E-01-6.01749E-03 3.74166E-01 1.20660E-13 1.79172E-13
 -1      2364 2.04248E+01-2.50835E-01 2.36481E-03 2.76454E-01 1.26617E-13 2.21116E-13
 -1      2365 2.06454E+01-3.00810E-01-7.97760E-04 2.51910E-01 1.40253E-13 1.58722E-13
 -1      2366 2.02533E+01-2.84036E-01-4.13174E-03 6.05893E-01 7.81120E-14 1.44249E-13
 -1      2367 2.03481E+01-2.92430E-01-5.13809E-04 4.97751E-01 1.16417E-13 1.77883E-13
 -1      2368 2.06403E+01-3.76726E-01 1.55491E-03 4.74856E-01 1.48325E-13 1.60291E-13
 -1      2369 2.00805E+01-1.94577E-01-1.19764E-04 8.13509E-01 6.70448E-14 1.24632E-13
 -1      2370 2.02050E+01-2.52362E-01-3.20652E-03 7.28543E-01 3.94591E-14 1.22341E-13
 -1      2371 2.05848E+01-3.49977E-01 3.61041E-03 7.36113E-01 9.13691E-14 1.58962E-13
 -1      2372 1.98416E+01-1.14583E-02 5.25014E-03 9.16102E-01 1.08122E-13 1.83355E-13
 -1      2373 1.99840E+01-1.16361E-01-5.13122E-03 8.91336E-01 1.03558E-13 1.60468E-13
 -1      2374 2.04503E+01-1.99222E-01 4.42517E-03 9.53717E-01 6.71284E-14 1.31007E-13
 -1      2375 1.95713E+01 2.31405E-01 9.94717E-03 8.40524E-01 7.15860E-14 1.37530E-13
 -1      2376 1.97070E+01 1.02391E-01-5.20700E-03 9.04433E-01 1.23474E-13 1.86287E-13
 -1      2377 2.02352E+01 6.63350E-02 2.86307E-03 1.03160E+00 1.09030E-13 1.87089E-13
 -1      2378 1.93369E+01 4.61049E-01 1.16701E-02 5.57236E-01 1.26305E-13 1.08388E-13
 -1      2379 1.94342E+01 3.49588E-01-2.56379E-03 7.13660E-01 8.64122E-14 1.15549E-13
 -1      2380 1.99809E+01 3.87405E-01-1.20790E-03 8.90098E-01 9.09988E-14 1.71193E-13
 -1      2381 1.92155E+01 5.91738E-01 9.34866E-03 1.08751E-01 3.48584E-14 1.48214E-13
 -1      2382 1.92472E+01 5.41263E-01 2.47054E-03 3.28154E-01 1.02597E-13 1.24741E-13
 -1      2383 1.97678E+01 6.61853E-01-5.91758E-03 5.11701E-01 8.61234E-14 2.24836E-13
 -1      2384 1.92594E+01 5.68759E-01 4.16421E-03-3.93582E-01 1.21660E-14 9.44367E-14
 -1      2385 1.92130E+01 6.00775E-01 7.94232E-03-1.67135E-01 1.03251E-14 1.26256E-13
 -1      2386 1.96815E+01 7.84944E-01-8.42380E-03-3.10507E-02 5.92560E-14 2.13810E-13
 -1      2387 1.94640E+01 4.02916E-01-1.15278E-03-8.13483E-01 6.40991E-14 1.95035E-14
 -1      2388 1.93480E+01 5.02894E-01 1.10365E-02-6.38969E-01 6.73927E-14 4.14843E-14
 -1      2389 1.97647E+01 7.06858E-01-6.56014E-03-5.91726E-01 6.46885E-14 6.96538E-14
 -1      2390 1.97691E+01 1.63016E-01-4.40272E-03-1.05212E+00 3.52368E-14-6.07613E-14
 -1      2391 1.96089E+01 2.90569E-01 1.01070E-02-9.65894E-01 5.25415E-14-7.71844E-15
 -1      2392 1.99871E+01 4.60820E-01-1.85232E-03-1.01533E+00 8.03395E-14-7.43125E-14
 -1      2393 2.00912E+01-6.66658E-02-5.08193E-03-1.08323E+00 1.03028E-13-1.73529E-13
 -1      2394 1.99192E+01 4.57332E-02 5.79335E-03-1.08887E+00 7.40276E-14-1.24984E-13
 -1      2395 2.02665E+01 1.43383E-01 2.71241E-03-1.21046E+00 7.84680E-14-9.46318E-14
 -1      2396 2.03613E+01-2.26671E-01-3.90231E-03-9.46917E-01 5.60858E-14-1.16210E-13
 -1      2397 2.02059E+01-1.55356E-01 3.26121E-04-1.02173E+00 8.99207E-14-1.27869E-13
 -1      2398 2.05160E+01-1.41367E-01 5.01343E-03-1.17511E+00 9.05413E-14-1.21146E-13
 -1      2399 2.05448E+01-2.99006E-01-2.09522E-03-7.15630E-01 3.39138E-15-1.64831E-13
 -1      2400 2.04238E+01-2.73162E-01-4.14824E-03-8.26478E-01 5.19979E-14-1.67580E-13
 -1      2401 2.06828E+01-3.27382E-01 4.97914E-03-9.74440E-01 1.01264E-13-3.10170E-14
 -1      2402 2.06385E+01-2.97605E-01-4.77968E-04-4.60003E-01 1.25928E-14-1.52490E-13
 -1      2403 2.05584E+01-3.07028E-01-6.60970E-03-5.76731E-01-1.46005E-14-1.80486E-13
 -1      2404 2.07553E+01-4.00561E-01 3.69461E-03-6.95556E-01 6.16109E-15-1.65435E-13
 -1      2405 2.06585E+01-2.50351E-01 5.51552E-04-2.29735E-01 9.45797E-14-1.20063E-13
 -1      2406 2.06170E+01-2.79827E-01-7.13399E-03-3.32073E-01 6.93944E-14-7.81952E-14
 -1      2407 2.07500E+01-3.84074E-01 2.13594E-03-4.12511E-01 2.89345E-14-1.22162E-13
 -1      2408 2.06270E+01-1.84243E-01 1.02428E-03-5.00061E-02-3.35641E-14 8.24547E-14
 -1      2409 2.06170E+01-2.20380E-01-6.33826E-03-1.28277E-01 6.41668E-14-3.82030E-14
 -1      2410 2.06934E+01-3.14829E-01 8.59168E-04-1.71506E-01-1.88779E-14 2.24164E-15
 -1      2411 2.05647E+01-1.18434E-01 1.11873E-03 7.33118E-02-1.59898E-13 1.53212E-13
 -1      2412 2.05774E+01-1.52378E-01-4.89708E-03 2.07107E-02-6.82466E-14 1.42649E-13
 -1      2413 2.06100E+01-2.26421E-01 2.93332E-05 8.00074E-03-1.02656E-13 2.05809E-13
 -1      2414 2.04878E+01-6.33051E-02 1.01060E-03 1.46020E-01-1.29012E-13 1.90265E-13
 -1      2415 2.05148E+01-9.06731E-02-3.32900E-03 1.15927E-01-1.42742E-13 1.69482E-13
 -1      2416 2.05177E+01-1.41671E-01-4.22514E-04 1.25266E-01-1.27427E-13 1.32047E-13
 -1      2417 2.04075E+01-2.24697E-02 8.26395E-04 1.79081E-01-1.54839E-14 1.73217E-13
 -1      2418 2.04418E+01-4.20932E-02-1.93970E-03 1.66327E-01-5.79477E-14 2.10892E-13
 -1      2419 2.04275E+01-7.23150E-02-6.24802E-04 1.89662E-01-1.22563E-13 1.94863E-13
 -1      2420 2.03308E+01 4.58042E-03 6.38296E-04 1.84317E-01 1.81667E-13 7.47385E-14
 -1      2421 2.03673E+01-7.96907E-03-8.58860E-04 1.83529E-01 1.38426E-13 7.32357E-14
 -1      2422 2.03452E+01-2.18899E-02-6.83416E-04 2.14233E-01 8.98791E-14 3.32399E-14
 -1      2423 2.02617E+01 2.02979E-02 4.77426E-04 1.72121E-01 5.70784E-14 1.38323E-13
 -1      2424 2.02969E+01 1.33661E-02-1.03964E-04 1.78664E-01 9.80388E-14 8.42131E-14
 -1      2425 2.02734E+01 1.08756E-02-6.68150E-04 2.11815E-01 1.44187E-13 1.03280E-13
 -1      2426 2.02020E+01 2.76649E-02 3.51918E-04 1.50576E-01-1.42544E-13 1.16957E-13
 -1      2427 2.02337E+01 2.47576E-02 3.66371E-04 1.60901E-01 3.58500E-14 1.48677E-13
 -1      2428 2.02126E+01 2.94082E-02-6.18603E-04 1.93167E-01 2.09205E-14 1.63567E-13
 -1      2429 2.01520E+01 2.94342E-02 2.58953E-04 1.25401E-01-4.41918E-15 1.70654E-13
 -1      2430 2.01794E+01 2.91485E-02 6.15991E-04 1.37033E-01-1.40363E-13 1.30313E-13
 -1      2431 2.01623E+01 3.76106E-02-5.54949E-04 1.66401E-01-1.34485E-13 1.47025E-13
 -1      2432 2.01114E+01 2.78167E-02 1.91938E-04 1.00288E-01 6.13202E-14 2.39684E-13
 -1      2433 2.01341E+01 2.90596E-02 7.09716E-04 1.11661E-01 6.65602E-14 2.72647E-13
 -1      2434 2.01216E+01 3.89883E-02-4.86984E-04 1.37110E-01-1.97324E-14 8.08971E-14
 -1      2435 2.00793E+01 2.44270E-02 1.44050E-04 7.73673E-02-1.59853E-14 2.48864E-13
 -1      2436 2.00974E+01 2.64193E-02 7.03024E-04 8.76026E-02 7.65815E-14 2.43695E-13
 -1      2437 2.00892E+01 3.63122E-02-4.19546E-04 1.08812E-01 6.14041E-14 2.89411E-13
 -1      2438 2.00545E+01 2.03526E-02 1.09633E-04 5.76613E-02 1.65897E-14 1.81001E-13
 -1      2439 2.00685E+01 2.25820E-02 6.38644E-04 6.63615E-02 4.61243E-15 1.87361E-13
 -1      2440 2.00638E+01 3.15813E-02-3.55264E-04 8.34614E-02 5.12531E-14 2.76724E-13
 -1      2441 2.00358E+01 1.62674E-02 8.44976E-05 4.14662E-02 1.58652E-13 1.77640E-13
 -1      2442 2.00463E+01 1.84255E-02 5.46893E-04 4.85444E-02 7.20740E-14 1.72711E-13
 -1      2443 2.00444E+01 2.61268E-02-2.95735E-04 6.19244E-02 1.25783E-13 4.34265E-14
 -1      2444 2.00221E+01 1.25458E-02 6.57415E-05 2.86408E-02 1.36909E-13 6.25970E-14
 -1      2445 2.00298E+01 1.44688E-02 4.47670E-04 3.41922E-02 1.94551E-13 1.40826E-13
 -1      2446 2.00297E+01 2.07627E-02-2.41966E-04 4.43667E-02 1.64603E-13 6.81686E-14
 -1      2447 2.00123E+01 9.36057E-03 5.14367E-05 1.88117E-02 3.61112E-14 1.92072E-13
 -1      2448 2.00177E+01 1.09801E-02 3.52925E-04 2.30245E-02 1.32154E-13 1.25928E-13
 -1      2449 2.00189E+01 1.59322E-02-1.94527E-04 3.05406E-02 1.13387E-13 1.00428E-14
 -1      2450 2.00056E+01 6.75716E-03 4.03241E-05 1.15096E-02 6.12573E-14 5.06428E-14
 -1      2451 2.00092E+01 8.06356E-03 2.68961E-04 1.46064E-02 2.63270E-14 1.28947E-13
 -1      2452 2.00112E+01 1.18305E-02-1.53604E-04 1.99878E-02 3.32319E-14 6.86985E-14
 -1      2453 2.00011E+01 4.70735E-03 3.15744E-05 6.25355E-03 2.22764E-13-1.43511E-13
 -1      2454 2.00034E+01 5.72403E-03 1.98334E-04 8.45605E-03 1.66162E-13 2.88954E-14
 -1      2455 2.00058E+01 8.49819E-03-1.19051E-04 1.21716E-02 1.32983E-13 4.75402E-14
 -1      2456 1.99984E+01 3.14535E-03 2.46178E-05 2.59899E-03 1.68649E-13-1.57109E-13
 -1      2457 1.99998E+01 3.91149E-03 1.41278E-04 4.10836E-03 1.87410E-13-2.14501E-14
 -1      2458 2.00021E+01 5.88748E-03-9.04673E-05 6.55852E-03 1.47448E-13 1.83150E-13
 -1      2459 1.99969E+01 1.99061E-03 1.90283E-05 1.60570E-04-2.76993E-14-1.86324E-13
 -1      2460 1.99976E+01 2.55063E-03 9.67286E-05 1.14872E-03 1.25324E-13-7.76341E-14
 -1      2461 1.99998E+01 3.90669E-03-6.72758E-05 2.66326E-03 9.03218E-14 2.73873E-13
 -1      2462 1.99963E+01 1.16119E-03 1.44497E-05-1.37971E-03 4.98416E-15-2.38069E-13
 -1      2463 1.99964E+01 1.55871E-03 6.30038E-05-7.72666E-04-6.12359E-14-2.55979E-13
 -1      2464 1.99985E+01 2.44797E-03-4.88026E-05 6.93605E-05 2.45726E-14 3.11141E-13
 -1      2465 1.99962E+01 5.80715E-04 1.05574E-05-2.27347E-03 5.53100E-14-4.72169E-14
 -1      2466 1.99961E+01 8.55602E-04 3.82393E-05-1.93813E-03 4.42390E-14-2.21490E-13
 -1      2467 1.99978E+01 1.40339E-03-3.43435E-05-1.56444E-03 3.43936E-14 1.42134E-13
 -1      2468 1.99965E+01 1.81191E-04 7.03767E-06-2.71138E-03 5.60701E-14-8.73604E-14
 -1      2469 1.99962E+01 3.68539E-04 2.06357E-05-2.56618E-03 4.43050E-14-1.70304E-13
 -1      2470 1.99975E+01 6.73209E-04-2.32065E-05-2.50660E-03 6.51807E-14 7.15923E-14
 -1      2471 1.99970E+01-9.68426E-05 3.57170E-06-2.83039E-03 9.20626E-14-1.52264E-13
 -1      2472 1.99966E+01 3.35119E-05 8.59506E-06-2.81821E-03 5.73187E-14-2.07676E-13
 -1      2473 1.99976E+01 1.68914E-04-1.48035E-05-2.95951E-03 8.94342E-14-9.47191E-14
 -1      2474 1.99975E+01-3.05476E-04-1.60855E-08-2.72110E-03-6.14952E-15 5.11574E-14
 -1      2475 1.99971E+01-2.05544E-04 7.88941E-07-2.80598E-03 7.97836E-14-1.16735E-14
 -1      2476 1.99979E+01-1.86804E-04-8.67236E-06-3.06808E-03-7.90602E-14-1.14155E-14
 -1      2477 1.99981E+01-4.89939E-04-4.27069E-06-2.43590E-03 6.53347E-14-8.41044E-14
 -1      2478 1.99977E+01-3.97940E-04-3.95449E-06-2.59856E-03 6.02138E-14 5.53158E-14
 -1      2479 1.99983E+01-4.60290E-04-4.14550E-06-2.92789E-03 6.21430E-14 1.36194E-13
 -1      2480 1.99987E+01-6.77603E-04-1.16594E-05-2.00161E-03 1.76133E-13-2.18989E-14
 -1      2481 1.99984E+01-5.80790E-04-7.49445E-06-2.22740E-03 1.30884E-13-4.81815E-14
 -1      2482 1.99987E+01-7.07729E-04-3.61766E-07-2.59405E-03 8.56092E-14 1.04867E-13
 -1      2483 2.00004E+01-2.91889E-03 9.52961E-06-1.65647E-03 7.91224E-14 1.87706E-13
 -1      2484 2.00002E+01-2.65054E-03 1.55399E-06-1.83524E-03-5.38681E-14 3.71284E-13
 -1      2485 2.00001E+01-2.43082E-03 7.39370E-06-1.99441E-03-1.71570E-14 5.38986E-13
 -1      2486 1.99999E+01-2.11914E-03-3.81212E-06-2.06900E-03 6.96581E-14 5.17163E-13
 -1      2487 2.00003E+01-2.23301E-03-4.03889E-06-2.14346E-03 3.98767E-14 5.32603E-13
 -1      2488 1.99997E+01-1.85695E-03 4.89804E-06-2.10348E-03 2.97374E-14 3.30169E-13
 -1      2489 1.99995E+01-1.52255E-03-1.28748E-05-2.05148E-03 1.93051E-13 4.18318E-14
 -1      2490 1.99998E+01-1.76146E-03-2.93491E-06-2.34992E-03 4.09551E-14 3.30413E-13
 -1      2491 2.00005E+01-3.28527E-03 1.05135E-05-1.14720E-03 1.04792E-13 1.88603E-13
 -1      2492 2.00005E+01-3.09129E-03 4.81355E-06-1.40068E-03 2.03150E-15 1.98800E-13
 -1      2493 2.00006E+01-2.61227E-03-4.84516E-06-1.70714E-03 9.09675E-14 1.82979E-13
 -1      2494 2.00007E+01-3.49957E-03 1.06097E-05-5.30124E-04 1.21008E-13-1.81580E-14
 -1      2495 2.00006E+01-3.39589E-03 7.46530E-06-8.28440E-04 9.70322E-14-7.36236E-14
 -1      2496 2.00008E+01-2.88463E-03-6.19131E-06-1.10292E-03-8.54859E-14 1.10156E-13
 -1      2497 2.00007E+01-3.54605E-03 9.96862E-06 1.36915E-04 2.57675E-15 4.77343E-13
 -1      2498 2.00007E+01-3.54202E-03 9.32602E-06-1.77948E-04 7.94243E-15 2.07202E-13
 -1      2499 2.00009E+01-3.03218E-03-6.68899E-06-3.96811E-04 7.77483E-14 2.05820E-15
 -1      2500 2.00006E+01-3.42089E-03 8.35805E-06 7.95549E-04-2.78999E-13 8.02727E-14
 -1      2501 2.00007E+01-3.51762E-03 1.02171E-05 4.92398E-04-2.44383E-13 3.64952E-13
 -1      2502 2.00009E+01-3.04567E-03-6.78806E-06 3.47767E-04-1.27617E-14 2.50195E-13
 -1      2503 2.00005E+01-3.13836E-03 5.18875E-06 1.37605E-03-2.49798E-13-6.45394E-14
 -1      2504 2.00006E+01-3.32348E-03 1.04809E-05 1.11815E-03-3.87963E-13-7.77401E-14
 -1      2505 2.00008E+01-2.92396E-03-6.64309E-06 1.06147E-03-4.24654E-13 6.79213E-14
 -1      2506 2.00003E+01-2.70740E-03 9.30682E-07 1.83373E-03 2.75780E-13 7.37566E-13
 -1      2507 2.00004E+01-2.97093E-03 1.02100E-05 1.64381E-03 3.17633E-14 1.39595E-13
 -1      2508 2.00006E+01-2.67020E-03-6.10261E-06 1.68433E-03-5.81571E-14 3.36076E-13
 -1      2509 1.99999E+01-2.16196E-03-2.45974E-06 2.08868E-03 2.98632E-13 3.01867E-13
 -1      2510 2.00001E+01-2.47891E-03 8.97279E-06 2.00627E-03 2.88637E-13 7.66520E-13
 -1      2511 2.00003E+01-2.29279E-03-4.88584E-06 2.14996E-03 1.62995E-13 7.27802E-13
 -1      2512 1.99996E+01-1.58570E-03-7.25245E-06 2.08765E-03 2.41595E-13-2.28973E-13
 -1      2513 1.99998E+01-1.92468E-03 6.76633E-06 2.13913E-03 3.46505E-13 8.38689E-14
 -1      2514 1.99999E+01-1.84605E-03-5.18631E-06 2.37804E-03 1.27625E-13 2.60634E-13
 -1      2515 1.99994E+01-1.37113E-03-7.42045E-06 2.35828E-03 1.03859E-13-5.87434E-13
 -1      2516 3.59653E+01-4.87223E-02-4.96333E-02-2.42231E+00-5.86031E-13-7.89369E-14
 -1      2517 3.32238E+01-2.30222E+00-5.17672E-02-1.34774E+00-3.87489E-13 3.08642E-14
 -1      2518 2.10587E+01 2.15117E+00-9.86388E-03-1.22692E+00-4.23947E-13-1.66235E-13
 -1      2519 2.10678E+01 1.47322E+00 9.84331E-04-5.16026E-01-3.75072E-13-1.45571E-13
 -1      2520 2.07577E+01 1.75543E+00-1.28131E-03-3.61132E-01-3.50424E-13-2.13715E-13
 -1      2521 2.05904E+01 2.64942E+00-5.15913E-03-1.15337E+00-4.04196E-13-2.89673E-13
 -1      2522 2.55487E+01-4.24279E+00-8.64277E-02 5.35884E+00 7.19702E-14-4.03566E-14
 -1      2523 2.21555E+01-5.03910E+00 2.93607E-03 6.34357E+00 7.64944E-14 5.53307E-14
 -1      2524 2.16267E+01-5.26133E+00 6.92968E-02 6.46252E+00-1.00753E-13-8.07687E-14
 -1      2525 3.07544E+01-9.19430E-01-1.51195E-01 1.51210E+00 3.79089E-13-4.10616E-13
 -1      2526 2.85417E+01-2.79478E+00-7.28810E-03 2.96940E+00 1.32366E-13-2.50105E-13
 -1      2527 6.84764E+00-4.30180E+00 6.34545E-02-4.59955E+00 2.58321E-13 9.65172E-13
 -1      2528 1.00457E+01-5.13672E+00-3.09651E-03-5.92003E+00 1.23901E-13 1.08202E-12
 -1      2529 2.94052E+01-4.54809E+00 2.59634E-04-2.28485E-01 2.03171E-13-6.16104E-13
 -1      2530 2.78980E+01-4.34609E+00 7.86637E-02-1.58087E+00 3.64334E-13-5.13527E-13
 -1      2531 1.99993E+01-1.15716E-03 4.79674E-06-2.09060E-03 1.38021E-13 6.37972E-14
 -1      2532 1.86893E+01 3.98714E+00-5.11361E-03-4.39973E-01 2.00173E-14-5.84855E-13
 -1      2533 1.86671E+01 4.00185E+00-1.07529E-02-5.38512E-01-2.44197E-14-5.96002E-13
 -1      2534 1.87630E+01 3.72119E+00 2.99163E-03-5.66953E-01-4.30692E-14-5.53601E-13
 -1      2535 1.88172E+01 3.64719E+00 4.40829E-04-4.41996E-01 2.12730E-14-5.47171E-13
 -1      2536 3.30989E+01 7.44735E+00-1.54438E-01-6.07057E-01 8.35110E-13-3.68899E-13
 -1      2537 3.25924E+01 6.19301E+00-1.50296E-01-8.83935E-01 7.61224E-13-3.75422E-13
 -1      2538 3.31373E+01 4.11934E+00-1.63804E-01-4.24651E-01 7.14179E-13-4.88054E-13
 -1      2539 3.21412E+01 2.11652E+00-7.68088E-02 1.21725E-01 5.96856E-13-5.04097E-13
 -1      2540 3.38951E+01 8.01017E+00-1.48819E-01 3.07423E-01 8.62310E-13-2.48496E-13
 -1      2541 3.35545E+01 8.23654E+00-1.78876E-01-8.78438E-03 9.07718E-13-2.69958E-13
 -1      2542 3.23622E+01 5.58832E+00-1.40992E-01 1.03067E+00 7.68885E-13-1.55903E-13
 -1      2543 3.37282E+01 7.01117E+00-1.16411E-01 6.57891E-01 7.92921E-13-2.55393E-13
 -1      2544 3.09888E+01 7.29098E+00-7.09838E-02 9.28336E-01 8.26283E-13-1.12813E-13
 -1      2545 3.10077E+01-1.03783E-01-2.83784E-02-5.59177E-01 3.85220E-13-3.25850E-14
 -1      2546 3.20247E+01 2.39214E+00-2.07052E-01 5.54796E-01 5.86309E-13-3.26128E-14
 -1      2547 2.66692E+01-3.99873E+00-2.48981E-03-4.39526E+00 7.48845E-14-2.73559E-13
 -1      2548 2.92484E+01-2.69162E+00-1.59933E-01-2.91041E+00 2.26943E-13-6.43652E-14
 -1      2549 2.05053E+01-5.41374E+00 6.74081E-02-6.77014E+00-1.19238E-13-4.44755E-13
 -1      2550 2.39801E+01-4.86811E+00-3.53883E-02-6.07448E+00-1.98730E-14-4.04107E-13
 -1      2551 2.58809E+01-4.81455E+00 6.39265E-02-4.42973E+00-1.86143E-13-1.34698E-13
 -1      2552 1.16769E+01-5.00839E+00 5.90049E-02-7.41172E+00-1.78912E-13-7.85316E-13
 -1      2553 1.57019E+01-5.14362E+00-1.65269E-02-7.85889E+00-1.29674E-13-5.97578E-13
 -1      2554 5.95051E+00-3.65915E+00 9.24769E-02-5.49403E+00-1.87406E-13-9.72500E-13
 -1      2555 8.58292E+00-4.23353E+00 5.80293E-02-6.96970E+00-1.35447E-13-9.00308E-13
 -1      2556 1.19430E+01-3.74143E+00 1.41068E-01-7.18184E+00-3.15886E-13-7.56561E-13
 -1      2557 3.13490E+00-2.38504E+00 9.25385E-02-1.11844E+00-9.15865E-14-1.08913E-12
 -1      2558 3.88474E+00-2.94866E+00 8.82017E-02-3.66448E+00-7.92422E-14-1.09157E-12
 -1      2559 6.33435E+00-3.06564E+00 9.59209E-02 4.29672E+00 2.34812E-14-9.97979E-13
 -1      2560 4.13170E+00-2.39497E+00 1.40892E-01 1.74038E+00 3.37300E-14-1.01619E-12
 -1      2561 1.33345E+01-5.44364E+00 2.81352E-02 6.53883E+00 1.38778E-14-8.15237E-13
 -1      2562 1.00888E+01-4.39342E+00 8.74832E-02 5.79249E+00 1.26399E-13-8.38024E-13
 -1      2563 2.15865E+01-6.15774E+00-5.78919E-02 5.68219E+00-4.03011E-14-3.17617E-13
 -1      2564 1.69784E+01-5.99879E+00-1.29490E-02 6.07467E+00 4.71845E-14-5.70953E-13
 -1      2565 1.74267E+01-4.98675E+00 2.95534E-02 6.12443E+00 2.53769E-13-4.58550E-13
 -1      2566 3.00611E+01-5.12306E+00-8.30650E-02 1.59229E+00-1.91819E-13-4.65739E-14
 -1      2567 2.56781E+01-6.10483E+00-3.23684E-02 3.62826E+00-8.91509E-14-1.91624E-13
 -1      2568 3.66332E+01 5.91617E+00-1.00257E-02-1.00070E+00-9.91429E-13-8.37386E-14
 -1      2569 3.63247E+01 4.53223E+00-1.40820E-01-2.43134E+00-9.96703E-13-3.56659E-14
 -1      2570 3.17750E+01-4.08765E+00-7.25057E-02 2.70509E-02-2.17659E-13-4.77118E-13
 -1      2571 3.46073E+01-2.09963E+00-9.94503E-02 1.19418E+00-5.95252E-13-6.50868E-13
 -1      2572 2.45393E+01-6.14233E+00 6.31366E-02-3.98406E+00 1.85435E-13 1.55917E-13
 -1      2573 2.85349E+01-5.71967E+00-1.16875E-01-2.53894E+00 8.04357E-14-2.30704E-13
 -1      2574 1.41050E+01-5.97130E+00-4.75833E-03-5.99142E+00 1.35780E-13 8.61505E-13
 -1      2575 1.90634E+01-6.29669E+00-1.06472E-01-5.97613E+00 1.31284E-13 6.19744E-13
 -1      2576 4.11712E+00-3.20199E+00 6.07539E-02 4.45636E+00-2.10720E-13 7.80154E-13
 -1      2577 2.80575E+00-3.23582E+00 8.42041E-02 2.38924E+00-1.88016E-13 8.05578E-13
 -1      2578 3.16291E+01-4.25016E+00-4.99914E-02-3.63536E-01-1.92915E-13 1.11910E-13
 -1      2579 2.96098E+01-4.60508E+00 1.27717E-02 3.89611E-01-1.31284E-14 2.40287E-13
 -1      2580 1.92681E+01 3.43761E+00 8.52261E-03-6.81961E-01-2.04069E-13-5.17200E-13
 -1      2581 1.92853E+01 3.64965E+00-1.92833E-02-8.30724E-01-2.27117E-13-5.35309E-13
 -1      2582 1.95766E+01 3.50231E+00-1.15552E-02-9.40745E-01-2.92382E-13-5.02093E-13
 -1      2583 2.72182E+01-3.94278E+00 4.09430E-02 3.39981E+00-3.39451E-14-3.11196E-13
 -1      2584 2.09030E+01 5.36838E-01 8.66821E-03 6.92086E-01 3.19893E-13 4.59984E-13
 -1      2585 2.09294E+01 7.72019E-01 6.58261E-03 8.44257E-01 3.63928E-13 3.34394E-13
 -1      2586 2.07556E+01 4.24479E-01 6.17478E-03 4.98719E-01 3.10600E-13 3.78763E-13
 -1      2587 2.15367E+01-4.30811E+00 4.21967E-02 5.05425E+00 3.11584E-13-1.50477E-13
 -1      2588 2.48794E+01-4.38525E+00 5.79852E-02 3.40550E+00 2.39329E-13 5.05585E-14
 -1      2589 3.64452E+01 4.53078E+00 8.52677E-02 2.46060E+00-1.01297E-12-3.26822E-13
 -1      2590 3.52711E+01 1.23450E+00-2.33955E-01 3.51705E+00-7.63389E-13-6.26388E-13
 -1      2591 8.81409E+00-2.99278E+00 3.20286E-02 6.52003E+00-3.55160E-13 7.50733E-13
 -1      2592 6.43725E+00-3.14443E+00 1.30448E-01 5.55960E+00-2.99982E-13 7.48179E-13
 -1      2593 6.57205E+00-1.70205E+00 1.55471E-01 4.66826E+00-3.93741E-13 7.04131E-13
 -1      2594 2.79434E+01-4.49470E+00-3.49702E-02 1.71624E+00 1.80342E-13 1.68679E-13
 -1      2595 3.70464E+01 6.14126E+00-9.36930E-03 9.13119E-01-9.94427E-13-2.21219E-13
 -1      2596 3.35779E+01-1.30725E+00 2.11011E-02 3.19565E+00-4.99031E-13-8.30724E-13
 -1      2597 3.21442E+01-3.73553E+00-1.17326E-01 2.01015E+00-1.19106E-13-8.99641E-13
 -1      2598 2.46733E+01-4.57541E+00-7.10704E-02-3.39341E+00 4.17472E-13-1.72758E-13
 -1      2599 1.99993E+01-1.14393E-03 1.62119E-06-2.39298E-03 2.06059E-13 9.95147E-14
 -1      2600 3.65600E+01 3.44023E+00 1.03301E-01-2.30714E+00-9.52460E-13-1.15019E-13
 -1      2601 2.01886E+01 2.95027E+00-1.51014E-02-1.02397E+00-3.50626E-13-3.87813E-13
 -1      2602 2.06274E+01 2.65897E-01 5.61992E-03 2.68799E-01 2.44078E-13 2.76573E-13
 -1      2603 2.07047E+01 3.52972E-01 1.10213E-02 3.86563E-01 2.69586E-13 3.29438E-13
 -1      2604 2.07572E+01 4.70845E-01-2.97380E-03 4.79824E-01 2.93083E-13 2.28166E-13
 -1      2605 2.06907E+01 2.85398E-01-6.40400E-03 2.77664E-01 2.42192E-13 1.68887E-13
 -1      2606 1.42392E+01-4.60991E+00 1.17216E-01 7.70356E+00-1.19849E-13 3.81098E-13
 -1      2607 3.95930E+00-2.03541E+00 1.45668E-01 1.08946E+00-1.14797E-13 6.58029E-13
 -1      2608 5.94610E+00-1.74505E+00 1.36877E-01-2.77472E+00 1.68490E-13 7.86038E-13
 -1      2609 6.25422E+00-3.22710E+00 9.80570E-02-3.74667E+00 2.14440E-13 8.77409E-13
 -1      2610 9.19161E+00-2.53157E+00 1.26836E-01-4.66804E+00 3.17676E-13 8.83460E-13
 -1      2611 3.04861E+01-5.40168E-02-5.46208E-02-7.16538E-02 3.63411E-13-6.09013E-13
 -1      2612 1.39689E+01-4.67794E+00 1.17457E-01-5.97981E+00 3.32484E-13 8.31030E-13
 -1      2613 3.10082E+01 4.82112E+00-7.86292E-02-1.34072E+00 6.21503E-13-4.59244E-13
 -1      2614 2.29143E+01-5.68480E+00 9.78150E-02-4.60107E+00 3.11834E-13 1.51655E-13
 -1      2615 3.02707E+01-4.88589E+00-3.05060E-02-2.28341E-01 8.90121E-14-5.40429E-13
 -1      2616 2.52501E+01-5.62179E+00 1.36134E-01 3.78904E+00 1.47882E-13-1.26177E-13
 -1      2617 1.00581E+01-2.78105E+00 1.42535E-01 4.99613E+00 1.88155E-13-8.62699E-13
 -1      2618 6.90430E+00-2.03774E+00 1.69237E-01-4.65653E+00-2.29705E-13-1.00131E-12
 -1      2619 1.92085E+01-5.17124E+00 9.55075E-02-7.03669E+00-2.95070E-13-4.22573E-13
 -1      2620 3.07002E+01 3.34536E+00-9.66818E-02 1.45391E+00 5.36571E-13 1.39055E-14
 -1      2621 3.52239E+01 1.72200E-03-4.28628E-02 2.84884E+00-7.37743E-13-6.38489E-13
 -1      2622 3.70790E+01 5.38919E+00-1.04631E-02 2.10205E+00-1.03934E-12-2.28317E-13
 -1      2623 3.07131E+01 7.52993E+00-8.38882E-02-6.13808E-01 8.13349E-13-2.02567E-13
 -1      2624 2.96275E+01-1.81080E+00 4.08047E-03-9.18237E-01 1.44556E-13 6.60305E-14
 -1      2625 5.52653E+00-1.16941E+00 1.88996E-01 3.37969E-01-1.94289E-16-1.04572E-12
 -1      2626 1.94966E+01 2.85228E+00-1.47160E-03-1.30443E-02 1.80119E-13-4.43737E-13
 -1      2627 1.93291E+01 2.96008E+00-7.41464E-03-1.60887E-01 1.38452E-13-4.73120E-13
 -1      2628 1.91712E+01 3.10462E+00 1.88689E-04-2.82225E-01 1.09520E-13-5.01460E-13
 -1      2629 1.90237E+01 3.18959E+00-8.71996E-03-3.99091E-01 7.55775E-14-5.01827E-13
 -1      2630 1.93659E+01 2.68702E+00 4.24204E-04-3.30392E-01 1.11568E-13-4.64968E-13
 -1      2631 2.01832E+01 2.22538E+00-9.33246E-03 6.33092E-01 3.21724E-13-2.47413E-13
 -1      2632 2.00132E+01 2.39858E+00-5.39250E-03 4.66050E-01 2.87590E-13-3.07897E-13
 -1      2633 2.05190E+01 1.79730E+00-1.67234E-02 9.02169E-01 3.70674E-13-1.05553E-13
 -1      2634 2.03576E+01 2.03783E+00-3.15358E-03 7.66172E-01 3.31899E-13-1.84474E-13
 -1      2635 2.04026E+01 1.74733E+00 4.53254E-03 5.27203E-01 2.98892E-13-1.90388E-13
 -1      2636 2.09438E+01 9.37439E-01 2.05685E-03 9.28605E-01 3.74363E-13 2.40626E-13
 -1      2637 2.08655E+01 1.18868E+00-7.89360E-03 1.01956E+00 4.06645E-13 1.42468E-13
 -1      2638 2.08346E+01 7.54820E-01 4.67701E-03 6.87527E-01 3.49785E-13 1.93926E-13
 -1      2639 2.04058E+01 1.67867E+00 1.97270E-03 1.49545E-01-2.85657E-13-2.50168E-13
 -1      2640 2.03187E+01 1.54464E+00-3.84488E-04 5.37756E-01-2.37484E-13-2.33751E-13
 -1      2641 2.01568E+01 1.46812E+00-2.78350E-04 8.63633E-01-1.93779E-13-2.16845E-13
 -1      2642 2.00606E+01 1.43975E+00 1.34351E-03 1.21081E+00-1.50909E-13-2.07380E-13
 -1      2643 1.98604E+01 1.81648E+00 3.18629E-03 5.87063E-01-2.10689E-13-2.79088E-13
 -1      2644 1.98019E+01 1.43840E+00-6.03363E-03 1.52143E+00-1.11789E-13-1.98168E-13
 -1      2645 1.97099E+01 1.45205E+00 4.97076E-03 1.85117E+00-5.33193E-14-1.85338E-13
 -1      2646 1.94484E+01 1.74759E+00 1.30014E-02 1.21247E+00-1.34047E-13-2.44333E-13
 -1      2647 1.93449E+01 1.45170E+00-1.15998E-02 2.16415E+00-5.20628E-14-2.05104E-13
 -1      2648 1.92593E+01 1.43263E+00 1.03601E-02 2.49216E+00-3.47051E-14-2.29768E-13
 -1      2649 1.88510E+01 1.75579E+00 1.75068E-02 1.80681E+00-7.94025E-14-2.81384E-13
 -1      2650 1.87849E+01 1.33800E+00-1.27750E-02 2.84589E+00 1.75355E-14-2.28819E-13
 -1      2651 1.87575E+01 1.15764E+00 2.45652E-02 3.17906E+00 7.41366E-14-2.54627E-13
 -1      2652 1.80407E+01 1.70516E+00 2.43990E-02 2.42902E+00-1.33181E-14-3.13140E-13
 -1      2653 1.82110E+01 8.13561E-01 2.32963E-03 3.62676E+00 1.39140E-13-2.60526E-13
 -1      2654 1.83955E+01 2.51670E-01 5.80726E-02 3.96635E+00 2.06685E-13-2.76760E-13
 -1      2655 1.70222E+01 1.32336E+00 3.33140E-02 3.17779E+00 8.97537E-14-3.51124E-13
 -1      2656 1.79365E+01-5.98288E-01 4.97155E-02 4.53807E+00 2.69420E-13-2.79624E-13
 -1      2657 1.85605E+01-1.80720E+00 9.39126E-02 4.87648E+00 3.51025E-13-2.69673E-13
 -1      2658 1.59075E+01 1.43514E-01 3.44575E-02 4.22363E+00 2.28415E-13-3.91062E-13
 -1      2659 1.96272E+01-2.27976E+00 8.99863E-02-4.62254E+00 4.49848E-13 1.57069E-13
 -1      2660 1.87808E+01-9.53760E-01 6.20586E-02-4.44447E+00 3.96724E-13 1.67089E-13
 -1      2661 1.90399E+01-2.42609E-02 6.59430E-02-3.88935E+00 3.41758E-13 1.63843E-13
 -1      2662 1.87226E+01 5.80573E-01 8.49676E-03-3.61859E+00 3.70044E-13 1.73500E-13
 -1      2663 1.64494E+01-2.17995E-01 4.52867E-02-4.28975E+00 3.38458E-13 4.74148E-13
 -1      2664 1.91797E+01 9.69382E-01 2.82136E-02-3.16353E+00 2.87757E-13-3.47508E-14
 -1      2665 1.91203E+01 1.15400E+00-1.18280E-02-2.85438E+00 1.20434E-13-1.87073E-14
 -1      2666 1.73132E+01 1.08899E+00 3.43779E-02-3.25078E+00 2.24170E-13 2.48954E-13
 -1      2667 1.95284E+01 1.21971E+00 1.23636E-02-2.53133E+00 3.81713E-14-2.60467E-14
 -1      2668 1.95315E+01 1.19583E+00-1.40103E-02-2.25441E+00-1.65485E-14 9.33646E-14
 -1      2669 1.81982E+01 1.46796E+00 2.40576E-02-2.51966E+00 1.06428E-13 7.77905E-14
 -1      2670 1.98400E+01 1.13673E+00 7.58440E-03-2.00281E+00-2.10319E-13 1.13706E-13
 -1      2671 1.98369E+01 1.04057E+00-1.18957E-02-1.76080E+00-1.77720E-13-1.06599E-15
 -1      2672 1.88875E+01 1.41062E+00 1.82231E-02-1.99150E+00-7.10407E-14 1.71972E-13
 -1      2673 2.00496E+01 9.42638E-01 6.14888E-03-1.55942E+00-6.91149E-14-5.68707E-14
 -1      2674 2.00274E+01 8.33692E-01-9.01702E-03-1.35845E+00-1.17228E-13-1.51516E-13
 -1      2675 1.93744E+01 1.19524E+00 1.32947E-02-1.57268E+00-1.93674E-13 1.22306E-13
 -1      2676 2.01636E+01 7.36399E-01 5.42100E-03-1.19695E+00-2.35191E-13-1.54772E-13
 -1      2677 2.01273E+01 6.39005E-01-6.52044E-03-1.03612E+00-2.07264E-13-2.49734E-13
 -1      2678 1.96909E+01 9.49032E-01 9.09369E-03-1.23157E+00-2.05697E-13-1.10377E-13
 -1      2679 2.02089E+01 5.56683E-01 4.72236E-03-9.07800E-01-5.27172E-14-1.69051E-13
 -1      2680 2.01666E+01 4.77888E-01-4.58751E-03-7.82425E-01 1.41416E-13-1.02132E-13
 -1      2681 1.98821E+01 7.26362E-01 5.81937E-03-9.54086E-01-1.15423E-13-1.99915E-14
 -1      2682 2.02119E+01 4.13217E-01 3.98227E-03-6.81705E-01 5.85478E-14-9.07680E-14
 -1      2683 2.01698E+01 3.52622E-01-3.16666E-03-5.85706E-01 1.64365E-15-7.10628E-14
 -1      2684 1.99887E+01 5.44291E-01 3.48948E-03-7.31122E-01 1.12755E-13-1.02990E-13
 -1      2685 2.01925E+01 3.03733E-01 3.25955E-03-5.07537E-01-4.38401E-14-2.04710E-14
 -1      2686 2.01542E+01 2.58377E-01-2.15529E-03-4.34903E-01-3.23890E-14 5.78024E-14
 -1      2687 2.00418E+01 4.02997E-01 1.94615E-03-5.54520E-01-4.36874E-15-5.03426E-14
 -1      2688 2.01634E+01 2.22146E-01 2.60623E-03-3.74811E-01-1.04621E-13-1.01050E-14
 -1      2689 2.01306E+01 1.88663E-01-1.45201E-03-3.20295E-01-1.63982E-13-5.20472E-14
 -1      2690 2.00630E+01 2.96427E-01 9.80785E-04-4.16445E-01-8.10096E-14-4.15316E-14
 -1      2691 2.01324E+01 1.62062E-01 2.04716E-03-2.74463E-01-8.17042E-14-5.94818E-15
 -1      2692 2.01055E+01 1.37491E-01-9.71283E-04-2.33778E-01 5.76142E-15-3.30994E-14
 -1      2693 2.00665E+01 2.17253E-01 4.07783E-04-3.09660E-01-1.27879E-13 9.83996E-14
 -1      2694 2.01035E+01 1.18020E-01 1.58624E-03-1.99066E-01-1.16566E-13-1.30400E-13
 -1      2695 2.00820E+01 1.00015E-01-6.46531E-04-1.68847E-01-2.50745E-13-2.63733E-13
 -1      2696 2.00610E+01 1.58846E-01 8.70511E-05-2.27828E-01-1.82532E-13 3.81446E-14
 -1      2697 2.00785E+01 8.57587E-02 1.21575E-03-1.42734E-01-2.72433E-13-2.54366E-13
 -1      2698 2.00617E+01 7.25544E-02-4.28688E-04-1.20398E-01-3.12092E-13-3.86767E-13
 -1      2699 2.00518E+01 1.15860E-01-7.82143E-05-1.65629E-01-2.66942E-13-1.15762E-13
 -1      2700 2.00578E+01 6.20968E-02 9.23005E-04-1.00894E-01-2.42948E-13-2.97887E-13
 -1      2701 2.00451E+01 5.23982E-02-2.83346E-04-8.44779E-02-3.06201E-13-2.51220E-13
 -1      2702 2.00418E+01 8.42164E-02-1.51305E-04-1.18726E-01-2.28670E-13-1.11374E-13
 -1      2703 2.00414E+01 4.47201E-02 6.95606E-04-7.00303E-02-3.77207E-13-4.78399E-14
 -1      2704 2.00319E+01 3.75530E-02-2.05797E-04-5.80398E-02-1.47573E-13-7.23809E-14
 -1      2705 2.00324E+01 6.09013E-02-1.71014E-04-8.36536E-02-2.73946E-13 7.96435E-14
 -1      2706 2.00286E+01 3.16273E-02 5.12397E-04-4.69537E-02 1.78361E-15-1.48794E-13
 -1      2707 2.00214E+01 2.62037E-02-1.36075E-04-3.79712E-02 5.56901E-14-1.64391E-13
 -1      2708 2.00241E+01 4.34479E-02-1.31719E-04-5.71767E-02-1.13329E-13 2.56759E-13
 -1      2709 2.00189E+01 2.21616E-02 3.79205E-04-3.04333E-02 3.21169E-14-1.12087E-13
 -1      2710 2.00140E+01 1.83712E-02-7.79393E-05-2.43529E-02 6.65455E-14-1.61321E-13
 -1      2711 2.00173E+01 3.04994E-02-1.47787E-04-3.78354E-02 6.59602E-14 2.44196E-13
 -1      2712 2.00120E+01 1.53856E-02 2.73155E-04-1.89578E-02 1.48623E-13-2.43130E-13
 -1      2713 2.00086E+01 1.26324E-02-4.84442E-05-1.46881E-02 2.73366E-13-2.73642E-13
 -1      2714 2.00121E+01 2.13425E-02-1.24546E-04-2.42954E-02 4.69355E-15 2.69129E-15
 -1      2715 2.00071E+01 1.04616E-02 1.95604E-04-1.09048E-02 2.78485E-13-5.46117E-13
 -1      2716 2.00048E+01 8.47298E-03-2.94235E-05-7.96473E-03 1.81695E-13-6.07150E-13
 -1      2717 2.00082E+01 1.46490E-02-1.01009E-04-1.46646E-02 1.15707E-13-4.34945E-13
 -1      2718 2.00037E+01 6.91116E-03 1.37586E-04-5.37262E-03 1.81016E-13-5.45204E-13
 -1      2719 2.00023E+01 5.49136E-03-1.67627E-05-3.40140E-03 7.70014E-14-3.97970E-13
 -1      2720 2.00053E+01 9.79890E-03-7.96754E-05-7.94836E-03 2.11364E-13-5.63644E-13
 -1      2721 2.00015E+01 4.38215E-03 9.45025E-05-1.67833E-03 9.88599E-14-1.76151E-13
 -1      2722 2.00006E+01 3.38344E-03-8.50703E-06-4.04462E-04 1.41327E-13-1.37080E-13
 -1      2723 2.00032E+01 6.32382E-03-6.13397E-05-3.38079E-03 2.38683E-13-2.73502E-13
 -1      2724 2.00001E+01 2.60803E-03 6.29205E-05 6.93422E-04-8.69460E-14 1.49158E-14
 -1      2725 1.99996E+01 1.91756E-03-3.31263E-06 1.47237E-03-5.01277E-14 4.45520E-14
 -1      2726 2.00017E+01 3.86900E-03-4.61440E-05-3.76863E-04 1.27194E-13 1.21018E-13
 -1      2727 1.99992E+01 1.38456E-03 4.01594E-05 2.12743E-03-4.78414E-14 9.09443E-14
 -1      2728 1.99990E+01 9.14991E-04-3.20058E-07 2.56026E-03-6.50528E-14 2.38230E-14
 -1      2729 2.00007E+01 2.16280E-03-3.39001E-05 1.50547E-03-8.85750E-15 4.44248E-13
 -1      2730 1.99988E+01 5.52928E-04 2.41348E-05 2.90629E-03 3.65291E-15-1.11944E-13
 -1      2731 1.99988E+01 2.35582E-04 1.03752E-06 3.09967E-03 1.66704E-13-1.06874E-13
 -1      2732 2.00001E+01 9.94691E-04-2.42841E-05 2.59528E-03-2.82725E-14 3.02068E-13
 -1      2733 1.99987E+01-1.23712E-05 1.32764E-05 3.23197E-03-1.21739E-13-2.97340E-13
 -1      2734 1.99988E+01-2.32525E-04 1.21705E-06 3.25932E-03-3.34646E-13-2.89039E-13
 -1      2735 1.99997E+01 1.99103E-04-1.69063E-05 3.13193E-03-4.63900E-14 8.81532E-14
 -1      2736 1.99987E+01-4.12619E-04 6.39960E-06 3.24255E-03-3.72067E-13-1.39070E-13
 -1      2737 1.99989E+01-5.80727E-04 1.63643E-07 3.15126E-03-2.22565E-13-2.26687E-13
 -1      2738 1.99995E+01-3.56529E-04-1.14209E-05 3.28314E-03-1.79327E-13 8.10778E-14
 -1      2739 1.99989E+01-7.32222E-04 1.71614E-06 3.02456E-03-1.87958E-13-2.89382E-13
 -1      2740 1.99991E+01-8.81028E-04-2.19696E-06 2.84210E-03 1.29114E-13-3.78533E-13
 -1      2741 1.99995E+01-7.80138E-04-7.44476E-06 3.16248E-03-2.96074E-13 1.65956E-13
 -1      2742 1.99991E+01-1.01567E-03-4.92128E-06 2.71688E-03 1.08398E-13-4.67484E-13
 -1      2743 1.99994E+01-1.20422E-03-4.42450E-06 2.51774E-03 3.21745E-14-7.37360E-13
 -1      2744 1.99996E+01-1.43530E-03 6.56992E-06 2.58653E-03-5.79749E-14 1.70263E-14
 -1      2745 1.99995E+01-1.11121E-03-1.29743E-06 2.89752E-03-1.27014E-13 1.59035E-14
 -1      2746 2.07869E+01-2.34610E-01-6.38283E-03 1.15348E-01 1.48700E-13 8.71974E-14
 -1      2747 2.08047E+01-1.02087E-01 9.57236E-03 9.06748E-02 1.62626E-13 8.17015E-14
 -1      2748 2.08548E+01-4.29798E-01-6.56488E-03 2.65606E-01 1.27448E-13 1.23129E-13
 -1      2749 2.08662E+01-3.38578E-01 7.20677E-03 1.77539E-01 1.34767E-13 1.08402E-13
 -1      2750 2.09879E+01-3.39735E-01-3.63891E-03 1.17447E-01 1.35236E-13 2.40503E-14
 -1      2751 2.07410E+01 3.87525E-02-5.80768E-03 1.06367E-01 1.87819E-13 5.99330E-14
 -1      2752 2.07800E+01 2.08004E-01 1.08402E-02 1.63345E-01 1.93667E-13 5.85526E-14
 -1      2753 2.08684E+01-2.18144E-02-4.39805E-03 8.27052E-02 1.66059E-13 1.92353E-14
 -1      2754 2.09154E+01-4.66664E-01-2.50382E-03 8.11745E-01 6.01729E-14 1.62317E-13
 -1      2755 2.09628E+01-5.14409E-01 1.27193E-04 6.79633E-01 1.06723E-13 1.81890E-13
 -1      2756 2.08307E+01-2.32399E-01 2.94110E-03 1.05162E+00 5.02434E-14 1.51094E-13
 -1      2757 2.09087E+01-3.74915E-01-4.75607E-03 9.62404E-01 5.08424E-14 1.58137E-13
 -1      2758 2.13143E+01-5.14029E-01 5.48696E-03 9.17799E-01 6.45873E-14 2.03623E-13
 -1      2759 2.06480E+01 1.66349E-01 9.19656E-03 1.12320E+00 8.99971E-14 1.94001E-13
 -1      2760 2.07473E+01-5.43511E-02-9.02451E-03 1.12830E+00 5.72583E-14 1.56458E-13
 -1      2761 2.12503E+01-1.73011E-01 7.42062E-03 1.16721E+00 6.16462E-14 1.57411E-13
 -1      2762 2.04096E+01 6.30794E-01 1.27266E-02 9.30554E-01 8.98398E-14 1.61383E-13
 -1      2763 2.05053E+01 3.93977E-01-1.00813E-02 1.06285E+00 1.17557E-13 1.80259E-13
 -1      2764 2.10578E+01 3.46346E-01 4.91799E-03 1.20149E+00 9.78295E-14 1.75771E-13
 -1      2765 2.02084E+01 9.96017E-01 1.07973E-02 4.62187E-01 6.73682E-14 1.53506E-13
 -1      2766 2.02678E+01 8.31932E-01-6.37598E-03 7.10013E-01 5.43473E-14 1.24155E-13
 -1      2767 2.08052E+01 8.98822E-01-1.26660E-03 9.19764E-01 8.31380E-14 6.18546E-14
 -1      2768 2.01406E+01 1.10741E+00 3.54234E-03-1.77529E-01 1.06539E-13 1.00471E-13
 -1      2769 2.01396E+01 1.08892E+00 1.25874E-03 1.24747E-01 1.00722E-13 1.32307E-13
 -1      2770 2.06148E+01 1.27925E+00-7.21536E-03 3.38057E-01 1.09168E-13-6.39289E-15
 -1      2771 2.02512E+01 9.11058E-01-4.75061E-03-7.93915E-01 1.03259E-13 1.42703E-14
 -1      2772 2.01876E+01 1.04689E+00 9.08985E-03-5.27845E-01 1.50998E-13 5.07829E-14
 -1      2773 2.05947E+01 1.31888E+00-8.89395E-03-3.88413E-01 1.67024E-13-5.42278E-14
 -1      2774 2.04888E+01 5.01498E-01-9.40266E-03-1.20468E+00 8.34547E-14-5.49457E-14
 -1      2775 2.03840E+01 7.28394E-01 1.23126E-02-1.04482E+00 7.13947E-14-4.30267E-14
 -1      2776 2.07601E+01 1.00613E+00-2.56049E-03-1.01759E+00 1.31322E-13-8.23755E-15
 -1      2777 2.07480E+01 4.39379E-02-9.45017E-03-1.32911E+00 8.14363E-14-2.14412E-15
 -1      2778 2.06352E+01 2.73624E-01 9.70312E-03-1.29842E+00 9.52120E-14 3.22940E-15
 -1      2779 2.10108E+01 4.76634E-01 4.33481E-03-1.36673E+00 5.81155E-14-4.40452E-14
 -1      2780 2.09336E+01-3.15240E-01-6.05070E-03-1.20161E+00 7.86262E-14-3.51375E-14
 -1      2781 2.08416E+01-1.49893E-01 3.74942E-03-1.27607E+00 6.61109E-14-2.46655E-14
 -1      2782 2.12176E+01-6.45096E-02 7.86109E-03-1.39062E+00 7.96430E-14 1.80372E-14
 -1      2783 2.10049E+01-5.11804E-01-1.90962E-03-9.22407E-01 6.90622E-14 3.06725E-14
 -1      2784 2.09488E+01-4.33137E-01-1.88196E-03-1.05660E+00 8.45117E-14 9.70323E-15
 -1      2785 2.12987E+01-4.60874E-01 6.78986E-03-1.16878E+00 7.84733E-14 6.66627E-15
 -1      2786 2.09722E+01-5.55059E-01 1.49425E-03-5.96052E-01 2.59788E-14-3.24393E-16
 -1      2787 2.09526E+01-5.50795E-01-5.20872E-03-7.45929E-01 6.62450E-14 9.57420E-14
 -1      2788 2.12465E+01-6.54239E-01 3.95001E-03-8.27451E-01 2.99811E-14 1.31308E-13
 -1      2789 2.08707E+01-4.93516E-01 3.30348E-03-2.96682E-01-2.73591E-14-4.02464E-14
 -1      2790 2.08801E+01-5.36083E-01-6.20341E-03-4.31970E-01-1.94506E-16-4.07461E-14
 -1      2791 2.11001E+01-6.71648E-01 1.01206E-03-4.75226E-01 1.04206E-14 8.72430E-14
 -1      2792 2.07380E+01-3.80873E-01 3.77385E-03-6.14971E-02-1.19933E-13 8.44012E-14
 -1      2793 2.07660E+01-4.43323E-01-5.67338E-03-1.67211E-01-3.90715E-14 2.64529E-14
 -1      2794 2.09108E+01-5.76340E-01-1.04136E-03-1.77408E-01-7.19860E-14 5.39326E-14
 -1      2795 2.06016E+01-2.58178E-01 3.43715E-03 1.00593E-01-7.18386E-14 1.58191E-13
 -1      2796 2.06392E+01-3.21414E-01-4.42375E-03 2.78699E-02-9.42803E-14 1.10503E-13
 -1      2797 2.07194E+01-4.31794E-01-2.01133E-03 4.09961E-02-1.51781E-13-2.58469E-14
 -1      2798 2.04773E+01-1.49665E-01 2.73508E-03 1.96947E-01-1.28645E-13 1.22013E-13
 -1      2799 2.05179E+01-2.03261E-01-3.03285E-03 1.53837E-01-5.08704E-14 1.16186E-13
 -1      2800 2.05496E+01-2.83596E-01-2.20135E-03 1.80910E-01-3.79911E-14-9.15656E-14
 -1      2801 2.03715E+01-6.56312E-02 1.96708E-03 2.41743E-01-4.36988E-14 4.66451E-14
 -1      2802 2.04110E+01-1.05798E-01-1.80721E-03 2.21918E-01-1.33447E-13 1.25869E-13
 -1      2803 2.04104E+01-1.56951E-01-1.98336E-03 2.55722E-01-7.44223E-14-2.68342E-14
 -1      2804 2.02853E+01-7.32689E-03 1.29439E-03 2.50167E-01 1.12813E-13 1.35199E-14
 -1      2805 2.03215E+01-3.43214E-02-8.55694E-04 2.46810E-01 4.61862E-14 4.55851E-14
 -1      2806 2.03023E+01-6.13295E-02-1.61320E-03 2.82439E-01-2.43858E-14-4.18472E-14
 -1      2807 2.02167E+01 2.86878E-02 7.73426E-04 2.35514E-01 8.92641E-14 1.95925E-13
 -1      2808 2.02486E+01 1.26683E-02-1.84916E-04 2.42607E-01 1.24126E-13 7.30804E-14
 -1      2809 2.02210E+01 3.46568E-03-1.23667E-03 2.77012E-01 5.40413E-14 1.41844E-14
 -1      2810 2.01631E+01 4.75645E-02 4.05158E-04 2.08151E-01-3.08563E-14 9.09760E-14
 -1      2811 2.01903E+01 3.97443E-02 2.43981E-04 2.20973E-01 5.37668E-14 1.64592E-13
 -1      2812 2.01611E+01 4.23569E-02-9.18171E-04 2.52423E-01 5.95375E-14 1.13830E-13
 -1      2813 2.01215E+01 5.44528E-02 1.65241E-04 1.75479E-01-1.12539E-13 1.37079E-13
 -1      2814 2.01443E+01 5.22189E-02 4.85072E-04 1.90647E-01-9.85870E-14 1.17380E-13
 -1      2815 2.01174E+01 6.17484E-02-6.73378E-04 2.18300E-01-3.09400E-14 8.64070E-14
 -1      2816 2.00896E+01 5.37026E-02 2.21825E-05 1.42358E-01-5.84814E-14 1.73576E-13
 -1      2817 2.01082E+01 5.49224E-02 5.91337E-04 1.57651E-01-1.07560E-13 8.22041E-14
 -1      2818 2.00857E+01 6.77467E-02-4.95283E-04 1.81237E-01-9.66558E-14 1.32169E-13
 -1      2819 2.00652E+01 4.86236E-02-5.34893E-05 1.11676E-01 2.68506E-14 1.56947E-13
 -1      2820 2.00801E+01 5.17144E-02 6.07834E-04 1.25779E-01 1.15150E-14 1.24187E-13
 -1      2821 2.00625E+01 6.53811E-02-3.69302E-04 1.45388E-01 1.54015E-14-7.56594E-14
 -1      2822 2.00466E+01 4.15360E-02-8.56106E-05 8.49026E-02 1.19498E-13 1.07658E-13
 -1      2823 2.00583E+01 4.54127E-02 5.69689E-04 9.71560E-02 8.94957E-14 1.43432E-13
 -1      2824 2.00454E+01 5.84125E-02-2.80763E-04 1.13090E-01 4.90079E-14-1.06670E-13
 -1      2825 2.00327E+01 3.39450E-02-9.17573E-05 6.25558E-02 1.56334E-13-2.45149E-14
 -1      2826 2.00417E+01 3.79204E-02 5.02500E-04 7.27371E-02 1.60530E-13 7.40873E-14
 -1      2827 2.00329E+01 4.94407E-02-2.17769E-04 8.54105E-02 1.31681E-13 5.60672E-14
 -1      2828 2.00223E+01 2.67423E-02-8.39807E-05 4.45633E-02 1.35207E-13 9.37082E-14
 -1      2829 2.00291E+01 3.04222E-02 4.23775E-04 5.27207E-02 1.78264E-13 4.39582E-14
 -1      2830 2.00236E+01 4.01273E-02-1.71699E-04 6.25932E-02 1.32278E-13 1.44126E-13
 -1      2831 2.00147E+01 2.03898E-02-7.00205E-05 3.05221E-02 3.85431E-14 2.40797E-13
 -1      2832 2.00197E+01 2.35815E-02 3.44669E-04 3.68534E-02 3.68633E-14 1.73331E-13
 -1      2833 2.00167E+01 3.14379E-02-1.36792E-04 4.43841E-02 3.29242E-14 1.95884E-13
 -1      2834 2.00091E+01 1.50673E-02-5.45067E-05 1.98763E-02 5.54696E-14 1.86879E-13
 -1      2835 2.00128E+01 1.77077E-02 2.71669E-04 2.46470E-02 1.09145E-13 1.78999E-13
 -1      2836 2.00115E+01 2.38556E-02-1.09413E-04 3.02662E-02 1.17523E-13 1.75029E-13
 -1      2837 2.00052E+01 1.07821E-02-3.99630E-05 1.20311E-02 1.24112E-13 1.97497E-13
 -1      2838 2.00078E+01 1.28857E-02 2.08009E-04 1.55215E-02 8.79829E-14 1.20920E-13
 -1      2839 2.00078E+01 1.75502E-02-8.73393E-05 1.96148E-02 1.52292E-13 3.20002E-13
 -1      2840 2.00026E+01 7.44600E-03-2.75699E-05 6.41933E-03 3.83114E-14 2.59287E-13
 -1      2841 2.00043E+01 9.06830E-03 1.54781E-04 8.89441E-03 1.03159E-13 1.66321E-13
 -1      2842 2.00050E+01 1.25026E-02-6.92300E-05 1.17952E-02 4.39910E-14 2.95419E-13
 -1      2843 2.00008E+01 4.92597E-03-1.77084E-05 2.53757E-03 2.47110E-14 3.27084E-13
 -1      2844 2.00019E+01 6.14053E-03 1.11769E-04 4.23080E-03 4.84476E-14 2.76502E-13
 -1      2845 2.00030E+01 8.59100E-03-5.42616E-05 6.21929E-03 4.98380E-14 2.66087E-13
 -1      2846 1.99997E+01 3.07531E-03-1.03308E-05-3.94016E-05 2.89782E-14 4.21937E-13
 -1      2847 2.00003E+01 3.95945E-03 7.80376E-05 1.06779E-03 5.29443E-14 4.50302E-13
 -1      2848 2.00017E+01 5.64757E-03-4.18954E-05 2.37321E-03 5.42301E-14 2.65314E-13
 -1      2849 1.99991E+01 1.75139E-03-5.19858E-06-1.65634E-03 6.87713E-14 3.33946E-13
 -1      2850 1.99994E+01 2.37851E-03 5.23315E-05-9.77688E-04 1.25700E-14 3.85392E-13
 -1      2851 2.00007E+01 3.49258E-03-3.17525E-05-1.72198E-04 8.41219E-14 3.74800E-13
 -1      2852 1.99988E+01 8.24306E-04-1.98260E-06-2.58218E-03 1.82278E-13 1.81909E-13
 -1      2853 1.99989E+01 1.26030E-03 3.33404E-05-2.21040E-03 1.59499E-13 2.40817E-13
 -1      2854 2.00001E+01 1.95364E-03-2.35353E-05-1.76219E-03 1.83099E-13 3.82106E-13
 -1      2855 1.99987E+01 1.80191E-04-3.75036E-07-3.01835E-03 1.67318E-14 1.83376E-13
 -1      2856 1.99987E+01 4.82324E-04 1.97997E-05-2.86351E-03 1.07854E-13 2.62882E-13
 -1      2857 1.99997E+01 8.75269E-04-1.69234E-05-2.66434E-03 8.09647E-14 4.66861E-13
 -1      2858 1.99988E+01-2.79128E-04 9.60921E-08-3.10837E-03-1.55771E-13 1.86147E-13
 -1      2859 1.99987E+01-6.18429E-05 1.05553E-05-3.10782E-03-4.98229E-14 6.24023E-14
 -1      2860 1.99995E+01 1.21584E-04-1.17907E-05-3.07839E-03 6.20073E-14 6.02984E-13
 -1      2861 1.99989E+01-6.38087E-04-1.04536E-07-2.94613E-03-1.56195E-14 2.84133E-13
 -1      2862 1.99988E+01-4.66373E-04 3.81676E-06-3.06179E-03-9.34113E-14 1.54371E-13
 -1      2863 1.99994E+01-4.22114E-04-7.38181E-06-3.14675E-03-1.49375E-13 3.96128E-13
 -1      2864 1.99992E+01-9.79497E-04-3.55709E-06-2.60086E-03 1.29808E-13 2.09852E-13
 -1      2865 1.99990E+01-8.12078E-04-7.67935E-07-2.80866E-03 6.65524E-14 2.26055E-13
 -1      2866 1.99995E+01-8.68596E-04-3.29819E-06-2.97191E-03 9.46132E-14 4.41850E-13
 -1      2867 1.99996E+01-1.28444E-03 2.07396E-06-2.61117E-03 1.62298E-13 2.01880E-13
 -1      2868 2.00012E+01-2.48983E-03 6.37915E-06-1.00635E-03-3.71839E-14-6.96320E-14
 -1      2869 2.00011E+01-2.39286E-03 1.05452E-06-1.34548E-03 1.69020E-14 3.39810E-14
 -1      2870 1.65054E+01-4.25186E+00 3.57767E-02 7.25649E+00-3.25212E-13 7.25114E-14
 -1      2871 1.25957E+01-3.49273E+00 1.88329E-01 7.20666E+00-4.05731E-13 5.52919E-13
 -1      2872 2.00010E+01-2.30250E-03 6.52101E-06-1.68670E-03-2.89944E-14 1.73690E-13
 -1      2873 2.00008E+01-2.14884E-03 1.27640E-06-1.95540E-03 2.51871E-14 2.94217E-13
 -1      2874 2.00013E+01-1.95266E-03-2.17903E-06-1.61153E-03 9.19462E-14 2.04807E-13
 -1      2875 2.00002E+01-1.71306E-03 2.76874E-06-2.50401E-03 1.53526E-13 5.49451E-13
 -1      2876 1.99999E+01-1.47766E-03-9.85791E-07-2.54890E-03 1.54351E-13 3.62333E-13
 -1      2877 1.99999E+01-1.24354E-03-2.49806E-06-2.77035E-03 3.52227E-13 4.47205E-13
 -1      2878 2.00013E+01-2.57706E-03 5.29111E-06-2.38954E-04 1.37047E-13 1.26997E-13
 -1      2879 2.00013E+01-2.54029E-03 2.84095E-06-6.13704E-04 1.82715E-14-6.61439E-14
 -1      2880 2.00016E+01-2.07816E-03-2.38729E-06-8.62055E-04 2.08513E-14-1.08955E-13
 -1      2881 1.88047E+01 3.42241E+00-5.00475E-03-5.68870E-01-9.23842E-14-5.36926E-13
 -1      2882 1.89163E+01 3.34693E+00-9.34228E-03-5.81858E-01-1.36256E-13-5.31662E-13
 -1      2883 2.00013E+01-2.56180E-03 4.05113E-06 5.52564E-04-2.27418E-14 4.35642E-14
 -1      2884 2.00013E+01-2.58761E-03 4.51135E-06 1.74085E-04 1.65840E-13 7.06556E-14
 -1      2885 2.00017E+01-2.13333E-03-2.34994E-06-3.96128E-05 6.22230E-14-2.73053E-14
 -1      2886 2.00011E+01-2.44514E-03 2.10180E-06 1.29185E-03-2.09321E-13-1.36438E-14
 -1      2887 2.00012E+01-2.53127E-03 6.06990E-06 9.47986E-04-1.44108E-13-4.98593E-14
 -1      2888 2.00016E+01-2.11674E-03-2.46486E-06 7.85762E-04 2.35920E-13-1.90452E-13
 -1      2889 2.00008E+01-2.22265E-03-9.84309E-07 1.93647E-03 1.96654E-13 6.19852E-13
 -1      2890 2.00010E+01-2.36789E-03 7.71858E-06 1.64994E-03-4.24539E-14 3.70126E-13
 -1      2891 2.00014E+01-2.02303E-03-2.72515E-06 1.55656E-03 1.60921E-13 3.49742E-13
 -1      2892 2.00004E+01-1.89738E-03-2.54132E-06 2.39391E-03 1.05005E-13 7.09145E-13
 -1      2893 2.00006E+01-2.09177E-03 8.58956E-06 2.21108E-03 1.43947E-13 6.45307E-13
 -1      2894 2.00009E+01-1.83993E-03-3.27185E-06 2.20881E-03 2.68688E-13 6.44729E-13
 -1      2895 2.00959E+01 2.74425E+00 4.03769E-03-7.45252E-01-3.19662E-13-3.75882E-13
 -1      2896 2.98522E+01 1.06930E+00-1.72508E-01-1.14855E+00 4.65239E-13-6.56891E-13
 -1      2897 2.89785E+01-1.24494E+00-4.94330E-02-1.02431E-01 2.33577E-13-6.05238E-13
 -1      2898 1.98411E+01 2.56356E+00-4.58795E-03 3.07979E-01 2.59945E-13-3.62539E-13
 -1      2899 1.96671E+01 2.69828E+00-6.27137E-03 1.38729E-01 2.14479E-13-4.15956E-13
 -1      2900 1.97232E+01 2.40203E+00 1.90052E-04-5.84794E-02 1.70130E-13-3.96998E-13
 -1      2901 2.00760E+01 2.09401E+00 1.57397E-03 2.47157E-01 2.41821E-13-3.01748E-13
 -1      2902 2.88251E+01 5.00539E+00-2.09875E-01-1.76210E+00 5.45813E-13-3.39326E-13
 -1      2903 2.96795E+01 3.27882E+00-8.78713E-02-1.78777E+00 4.74620E-13-5.06845E-13
 -1      2904 2.84494E+01 1.68477E+00-9.78490E-02-1.75126E+00 3.53093E-13-4.51014E-13
 -1      2905 1.33604E+01-2.44982E+00 1.80736E-01 5.62254E+00 2.54477E-13-6.76625E-13
 -1      2906 9.88107E+00-1.09188E+00 1.62445E-01 4.20386E+00 1.75998E-13-8.10962E-13
 -1      2907 2.88686E+01 1.84106E+00-9.21202E-02 1.72272E+00 3.30666E-13 2.10137E-13
 -1      2908 2.89105E+01 4.30333E+00-1.96004E-01 1.84143E+00 5.36599E-13 1.19578E-13
 -1      2909 2.74513E+01-3.67594E+00-1.06473E-01 2.00635E+00-7.45706E-14-4.80060E-13
 -1      2910 2.55245E+01-4.72091E+00 4.70827E-02 4.02595E+00-1.85109E-13-2.80470E-13
 -1      2911 2.35373E+01-5.08284E+00-2.14412E-02 5.33712E+00-2.38920E-13-2.38691E-13
 -1      2912 2.09130E+01-4.92585E+00 5.97088E-02 6.23477E+00-2.74156E-13-1.72657E-13
 -1      2913 2.47801E+01-4.68972E+00 5.12192E-02 3.92051E+00-2.77965E-13-3.03063E-13
 -1      2914 1.32869E+01-3.29508E+00 1.31941E-01-5.60317E+00 4.23134E-13 7.84012E-13
 -1      2915 1.68256E+01-4.26590E+00 4.70856E-02-5.87342E+00 4.32626E-13 5.70557E-13
 -1      2916 2.82936E+01-3.27322E+00 2.59008E-02-1.48036E+00-5.60767E-14 1.22818E-13
 -1      2917 2.89658E+01-1.29152E+00-1.51236E-01 4.07550E-01 7.98042E-14 1.73930E-13
 -1      2918 2.88357E+01 6.33025E+00-1.43256E-01 1.35455E+00 7.51454E-13 4.73233E-14
 -1      2919 2.89568E+01 7.05172E+00-2.01156E-01 5.64555E-01 8.18290E-13-2.14932E-15
 -1      2920 7.45991E+00-7.30632E-02 1.42922E-01 1.65438E+00 2.70235E-14-9.26204E-13
 -1      2921 6.67133E+00 5.58432E-03 1.83707E-01-1.19307E+00-6.96596E-14-9.68559E-13
 -1      2922 2.47444E+01-4.97571E+00 9.86251E-02-4.51642E+00-2.90198E-13-1.01662E-13
 -1      2923 2.65516E+01-4.61059E+00-1.22304E-01-3.28728E+00-1.50040E-13 2.33980E-14
 -1      2924 1.77814E+01-4.35314E+00 1.51820E-01-6.91538E+00-3.93005E-13-3.80897E-13
 -1      2925 2.14697E+01-5.15041E+00-5.78591E-02-6.15228E+00-3.45501E-13-2.29972E-13
 -1      2926 1.17021E+01-2.50522E+00 1.70494E-01-6.45708E+00-3.64681E-13-7.44294E-13
 -1      2927 1.41951E+01-3.54064E+00 2.50864E-02-7.18635E+00-3.74728E-13-5.94205E-13
 -1      2928 7.19501E+00-7.38961E-01 1.42993E-01-3.54489E+00-2.17340E-13-9.17572E-13
 -1      2929 9.15069E+00-1.64211E+00 1.16751E-01-5.53548E+00-3.00537E-13-8.22176E-13
 -1      2930 1.18446E+01-1.39853E+00 1.64852E-01-5.58033E+00-3.63876E-13-7.42018E-13
 -1      2931 2.09115E+01-5.21518E-01-5.58784E-03 5.18607E-01 1.27788E-13 1.30679E-13
 -1      2932 2.09338E+01-4.88292E-01 4.17710E-03 3.90877E-01 1.36010E-13 1.37642E-13
 -1      2933 2.11312E+01-5.56021E-01-1.42717E-03 3.00160E-01 1.29011E-13 8.70754E-14
 -1      2934 2.12583E+01-6.31642E-01 1.92391E-03 5.91264E-01 9.46552E-14 1.44017E-13
 -1      2935 2.87492E+01 7.14858E+00-1.77330E-01-2.13509E-01 7.90173E-13-1.01207E-13
 -1      2936 2.83627E+01 6.50906E+00-1.57417E-01-1.16572E+00 7.03854E-13-2.11053E-13
 -1      2937 2.71496E+01 6.35198E+00-1.14544E-01 1.08425E-01 7.17579E-13-3.17112E-14
 -1      2938 2.00006E+01-2.03734E-03 5.02845E-06-2.17493E-03 6.26927E-15 2.83390E-13
 -1      2939 2.00004E+01-1.84178E-03 1.79636E-06-2.34433E-03-5.16644E-14 5.37469E-13
 -1      2940 2.00005E+01-1.53035E-03-2.40920E-06-2.54068E-03 5.49729E-14 2.94678E-13
 -1      2941 2.00010E+01-1.75957E-03-2.44523E-06-2.17039E-03-7.95839E-14 1.20564E-13
 -1      2942 5.38847E+00-7.75734E-01 1.46974E-01 1.92268E+00-1.76331E-13 4.74565E-13
 -1      2943 5.14291E+00-9.71775E-01 2.10179E-01-5.16719E-01 2.34812E-14 4.78617E-13
 -1      2944 1.90476E+01 2.93952E+00 2.27353E-03-5.20696E-01 4.20219E-14-4.67974E-13
 -1      2945 1.89034E+01 3.31109E+00 2.04514E-04-4.71086E-01 3.67719E-14-4.99710E-13
 -1      2946 1.88088E+01 3.36083E+00-9.69376E-03-5.46987E-01-6.98985E-15-5.13340E-13
 -1      2947 2.07281E+01 1.50867E+00 2.70657E-03 9.92454E-01 3.85907E-13 3.18764E-14
 -1      2948 8.81873E+00 3.26234E-01 1.81871E-01-2.14306E+00-1.75353E-13-8.55621E-13
 -1      2949 8.03771E+00-8.38426E-01 9.38070E-02 4.29131E+00-3.63737E-13 5.61801E-13
 -1      2950 6.65630E+00-6.85384E-01 2.42265E-01 3.18509E+00-3.03403E-13 5.66797E-13
 -1      2951 7.13509E+00 1.01529E-01 1.28558E-01 1.75863E+00-1.23006E-13 3.33150E-13
 -1      2952 1.98806E+01-3.09728E+00 1.33177E-01-4.95585E+00 4.40162E-13 2.00520E-13
 -1      2953 1.61556E+01-2.11543E+00 8.39709E-02-5.27267E+00 4.19303E-13 5.41289E-13
 -1      2954 9.73473E+00 4.88185E-02 1.85612E-01 2.92042E+00 1.26274E-13-8.04329E-13
 -1      2955 1.02281E+01 9.85907E-01 9.83101E-02 1.59432E+00 2.63609E-14-7.39936E-13
 -1      2956 1.22765E+01 6.52893E-02 8.69734E-02 3.74183E+00 2.11397E-13-6.20115E-13
 -1      2957 2.74929E+01 5.05057E+00-1.16251E-01-1.51995E+00 5.50129E-13-2.40225E-13
 -1      2958 2.09368E+01-4.33496E+00 1.44593E-01-4.97365E+00 4.58675E-13 1.89352E-13
 -1      2959 1.17818E+01-2.45859E+00 1.58240E-01 6.55451E+00-4.78145E-13 5.84671E-13
 -1      2960 1.90211E+01 3.06253E+00 1.28151E-02-4.47739E-01-1.40545E-13-4.78732E-13
 -1      2961 1.90885E+01 3.22797E+00-1.02117E-02-5.24688E-01-1.69002E-13-5.02526E-13
 -1      2962 1.93247E+01 3.06263E+00-1.04610E-02-5.33423E-01-2.18950E-13-4.73405E-13
 -1      2963 1.92459E+01-4.41622E+00 1.01801E-01 6.59948E+00-3.58769E-13-1.91985E-13
 -1      2964 1.71899E+01-3.34840E+00 7.12106E-02 6.42861E+00-5.29993E-13 7.70217E-15
 -1      2965 2.11443E+01-4.38047E+00-2.81706E-03 5.45083E+00-4.30767E-13-2.18603E-13
 -1      2966 1.87586E+01 3.43352E+00-1.60215E-03-5.62869E-01-2.60546E-14-5.16851E-13
 -1      2967 1.87521E+01 3.43070E+00-9.96619E-03-6.00597E-01-7.57270E-14-5.29358E-13
 -1      2968 1.88059E+01 3.18407E+00 9.27537E-03-5.65241E-01-8.79871E-14-5.01111E-13
 -1      2969 1.88354E+01 3.12318E+00 5.37361E-03-5.99545E-01-1.85472E-14-4.94759E-13
 -1      2970 7.20500E+00-6.21659E-01 1.83689E-01-1.71381E+00 9.97952E-14 6.35880E-13
 -1      2971 1.96926E+01 2.76936E+00-8.02978E-03-4.53158E-01-2.51764E-13-4.13987E-13
 -1      2972 2.03037E+01 2.20602E+00-6.56606E-03-4.37263E-01-3.28958E-13-3.14141E-13
 -1      2973 2.03494E+01 1.90033E+00 7.08678E-03-5.44356E-02-3.01422E-13-2.73977E-13
 -1      2974 1.95436E+01 2.65544E+00 1.17829E-02-2.68080E-01-2.26828E-13-3.98030E-13
 -1      2975 2.71303E+01-3.78300E+00 1.96799E-02-1.78715E+00-1.96589E-13 1.30382E-13
 -1      2976 1.99999E+01-1.57853E-03-1.06433E-06 2.55976E-03 6.04425E-14 3.60371E-13
 -1      2977 2.00002E+01-1.78738E-03 7.54389E-06 2.50730E-03-2.10070E-15 4.20743E-13
 -1      2978 2.00004E+01-1.63430E-03-3.82763E-06 2.60437E-03-9.82154E-14 5.50147E-13
 -1      2979 1.99999E+01-1.40784E-03-3.48576E-06 2.73519E-03-9.08336E-15 1.89076E-13
 -1      2980 2.07876E+01 3.94413E-01-3.58566E-03 2.17743E-01 2.22976E-13-7.04460E-16
 -1      2981 2.07421E+01 4.11839E-01 5.90601E-06 2.70583E-01 2.20274E-13 7.04976E-14
 -1      2982 2.07523E+01 5.28826E-01 5.86573E-03 3.59224E-01 2.57228E-13 9.77394E-14
 -1      2983 1.99405E+01 2.10714E+00-8.33083E-03 4.42010E-02-2.57904E-13-3.06635E-13
 -1      2984 2.78629E+01-1.48282E+00-5.90357E-02-5.93646E-01 1.56555E-13-5.39749E-13
 -1      2985 2.81667E+01-2.75068E+00-4.19157E-02 6.61438E-01 5.20027E-14-5.68601E-13
 -1      2986 2.67232E+01-3.55165E+00-1.43592E-02 1.51298E+00-5.65852E-14-5.14561E-13
 -1      2987 2.85775E+01 3.25569E-02-7.84431E-02 1.40432E+00 1.77268E-13 2.33202E-13
 -1      2988 2.72504E+01 1.31494E+00-6.84164E-02 1.99217E+00 1.93429E-13 3.13832E-13
 -1      2989 2.75686E+01-1.37420E+00-4.33609E-02 7.22905E-01 1.52170E-14 2.01155E-13
 -1      2990 2.07143E+01 1.26053E+00 7.00209E-03 7.32489E-01 3.31085E-13 1.33715E-15
 -1      2991 2.74873E+01 4.56881E+00-1.15804E-01 1.69851E+00 5.27245E-13 2.45894E-13
 -1      2992 1.72990E+01-3.43742E+00 1.28608E-01-6.46371E+00-4.29629E-13-3.98272E-13
 -1      2993 1.14840E+01-2.44151E+00 1.35538E-01-5.17229E+00 3.51774E-13 9.14935E-13
 -1      2994 1.44521E+01-2.09701E+00 1.56812E-01-5.11926E+00 4.33126E-13 7.20785E-13
 -1      2995 1.43173E+01-1.15844E+00 1.12028E-01-4.76872E+00 4.13558E-13 7.17246E-13
 -1      2996 1.03977E+01-1.25492E+00 1.31865E-01-4.36316E+00 3.22589E-13 8.09713E-13
 -1      2997 2.31609E+01-4.72351E+00 7.01174E-02-4.86398E+00-3.61544E-13-1.39321E-13
 -1      2998 1.95624E+01 2.27655E+00 2.30172E-03-4.03705E-01 1.23581E-13-4.17295E-13
 -1      2999 1.93621E+01 2.40353E+00-6.93855E-03-5.22093E-01 7.51350E-14-4.37775E-13
 -1      3000 2.05579E+01 1.28404E+00-8.77529E-03 4.29812E-01 2.68915E-13-1.52468E-13
 -1      3001 2.04321E+01 1.48407E+00 7.24211E-04 3.13726E-01 2.45757E-13-2.05319E-13
 -1      3002 2.07961E+01 6.48375E-01 7.55086E-03 5.59258E-01 3.00564E-13 1.65500E-13
 -1      3003 9.85897E+00 1.11312E+00 8.63529E-02-1.02206E+00-1.06797E-13-7.80986E-13
 -1      3004 1.03998E+01 4.83890E-01 1.06627E-01-3.25995E+00-2.23436E-13-7.49859E-13
 -1      3005 1.84341E+01-2.77696E+00 6.84548E-02 5.26506E+00 3.45460E-13-2.60014E-13
 -1      3006 1.79277E+01-4.01422E+00 1.38794E-01 5.71609E+00 3.00177E-13-3.57755E-13
 -1      3007 1.96526E+01 2.29777E+00-1.17536E-03 5.14102E-03-2.41446E-13-3.42329E-13
 -1      3008 1.97106E+01 2.12523E+00 8.71167E-03 2.11504E-01-2.19501E-13-3.10565E-13
 -1      3009 1.95147E+01 1.98425E+00-1.18009E-02 5.22016E-01-1.90084E-13-2.98732E-13
 -1      3010 1.92703E+01 2.58740E+00-8.99560E-03-1.22195E-01-1.89398E-13-4.02914E-13
 -1      3011 1.34267E+01-2.04031E+00 5.77837E-02 6.15766E+00-5.39929E-13 4.00721E-13
 -1      3012 1.07480E+01-1.16435E+00 2.28442E-01 5.55119E+00-3.94074E-13 5.86836E-13
 -1      3013 1.91411E+01 1.94930E+00-1.22252E-03 8.02929E-01-1.58549E-13-2.95925E-13
 -1      3014 1.88617E+01 1.92338E+00-6.99161E-03 1.07834E+00-1.19736E-13-3.15935E-13
 -1      3015 1.84151E+01 1.92783E+00-1.36784E-02 1.27954E+00-1.07786E-13-3.19711E-13
 -1      3016 1.80507E+01 1.93903E+00-5.90569E-03 1.54212E+00-6.94880E-14-3.38856E-13
 -1      3017 1.82410E+01 2.17052E+00 2.31566E-02 8.46284E-01-1.18870E-13-3.43298E-13
 -1      3018 1.74026E+01 1.92607E+00-2.11787E-02 1.74092E+00-4.26707E-14-3.65990E-13
 -1      3019 1.69350E+01 1.88507E+00 2.66595E-03 2.02016E+00-2.02097E-14-3.93350E-13
 -1      3020 1.71949E+01 2.18454E+00 3.40163E-02 1.17567E+00-7.81107E-14-3.86039E-13
 -1      3021 1.60003E+01 1.75408E+00-2.41398E-02 2.27667E+00 3.73503E-14-4.03162E-13
 -1      3022 1.54915E+01 1.52360E+00 3.74525E-02 2.63107E+00 1.12234E-13-4.30152E-13
 -1      3023 1.56859E+01 2.12048E+00 5.20710E-02 1.50086E+00 1.60570E-15-4.33102E-13
 -1      3024 1.52650E+01-1.69147E+00 8.06296E-02 5.26633E+00 3.26877E-13-4.44950E-13
 -1      3025 1.56069E+01 1.28908E+00 4.34152E-02-2.77372E+00 1.51040E-13 3.83152E-13
 -1      3026 1.60725E+01 1.54816E+00-2.25318E-02-2.39728E+00 7.68934E-14 1.85803E-13
 -1      3027 1.69784E+01 1.65802E+00 8.36654E-03-2.14296E+00 4.67877E-14 2.05633E-13
 -1      3028 1.73726E+01 1.64975E+00-2.29073E-02-1.89412E+00 1.48627E-14 1.11210E-13
 -1      3029 1.55676E+01 1.88446E+00 5.35897E-02-1.68781E+00-5.05845E-15 2.94730E-13
 -1      3030 1.80056E+01 1.59487E+00-1.14806E-03-1.73157E+00-6.12492E-14 8.07065E-14
 -1      3031 1.83033E+01 1.48699E+00-1.77044E-02-1.53562E+00-1.63153E-13 7.50295E-14
 -1      3032 1.70225E+01 1.82973E+00 3.17329E-02-1.38714E+00-6.05057E-14 8.31262E-14
 -1      3033 1.87423E+01 1.36894E+00-2.08215E-03-1.41070E+00-1.98245E-13 9.93979E-14
 -1      3034 1.89441E+01 1.23343E+00-1.28148E-02-1.24724E+00-1.79531E-13 8.74910E-14
 -1      3035 1.80364E+01 1.59478E+00 2.09731E-02-1.17620E+00-1.68413E-13 5.39239E-14
 -1      3036 1.92432E+01 1.10521E+00-1.05926E-03-1.14125E+00-1.97741E-13-6.41379E-15
 -1      3037 1.93692E+01 9.75980E-01-9.19950E-03-1.00366E+00-2.40195E-13-9.08182E-15
 -1      3038 1.87325E+01 1.30815E+00 1.43984E-02-9.95947E-01-2.24587E-13 1.02406E-13
 -1      3039 1.95692E+01 8.60788E-01 1.77523E-05-9.11372E-01-2.13503E-13 1.45543E-13
 -1      3040 1.96416E+01 7.50875E-01-6.61383E-03-7.97108E-01 1.53449E-14 1.39791E-13
 -1      3041 1.92006E+01 1.03380E+00 9.77645E-03-8.30338E-01-1.56042E-13 2.55229E-13
 -1      3042 1.97728E+01 6.56071E-01 7.31104E-04-7.17529E-01 4.33632E-14 3.68462E-14
 -1      3043 1.98102E+01 5.68013E-01-4.74648E-03-6.24435E-01 4.64207E-14 4.54346E-14
 -1      3044 1.95085E+01 7.97992E-01 6.47071E-03-6.78915E-01-4.77511E-14 2.11202E-13
 -1      3045 1.98947E+01 4.93578E-01 1.08999E-03-5.57238E-01 4.61764E-14-3.03337E-14
 -1      3046 1.99107E+01 4.25371E-01-3.39049E-03-4.82747E-01-6.89200E-15-6.37267E-14
 -1      3047 1.97070E+01 6.06849E-01 4.16690E-03-5.44545E-01-1.30925E-14 7.52035E-14
 -1      3048 1.99641E+01 3.68451E-01 1.19792E-03-4.27224E-01-4.41825E-14-1.02175E-13
 -1      3049 1.99679E+01 3.16623E-01-2.40938E-03-3.68513E-01-3.43001E-14 9.38025E-15
 -1      3050 1.98321E+01 4.57142E-01 2.61094E-03-4.29086E-01-4.19089E-14-5.03594E-14
 -1      3051 2.00010E+01 2.73719E-01 1.15479E-03-3.23514E-01-1.23207E-13 2.51262E-14
 -1      3052 1.99984E+01 2.34742E-01-1.70506E-03-2.77810E-01-1.51793E-13 4.70933E-14
 -1      3053 1.99091E+01 3.42244E-01 1.58918E-03-3.32614E-01-7.11797E-14-1.13652E-13
 -1      3054 2.00184E+01 2.02632E-01 1.03411E-03-2.41942E-01-1.75983E-13 5.80331E-14
 -1      3055 2.00130E+01 1.73463E-01-1.20324E-03-2.06735E-01-1.96639E-13-3.40620E-14
 -1      3056 1.99553E+01 2.55074E-01 9.34668E-04-2.53850E-01-2.02822E-13-1.50928E-13
 -1      3057 2.00248E+01 1.49502E-01 8.83263E-04-1.78562E-01-2.56226E-13 5.86443E-14
 -1      3058 2.00186E+01 1.27715E-01-8.47461E-04-1.51696E-01-2.78660E-13 9.41012E-14
 -1      3059 1.99821E+01 1.89342E-01 5.25243E-04-1.90766E-01-2.13792E-13 9.89320E-14
 -1      3060 2.00253E+01 1.09846E-01 7.29720E-04-1.29861E-01-2.75103E-13 1.75420E-13
 -1      3061 2.00193E+01 9.35822E-02-5.95058E-04-1.09550E-01-1.62552E-13 1.25803E-13
 -1      3062 1.99969E+01 1.39921E-01 2.76022E-04-1.41067E-01-2.00221E-13 1.91572E-13
 -1      3063 2.00229E+01 8.02520E-02 5.85471E-04-9.28429E-02-1.27727E-13 1.57158E-13
 -1      3064 2.00175E+01 6.80821E-02-4.38707E-04-7.76211E-02-2.33081E-13 2.70522E-13
 -1      3065 2.00045E+01 1.02826E-01 1.32001E-04-1.02493E-01-1.25944E-13 3.11948E-13
 -1      3066 2.00193E+01 5.76770E-02 4.57862E-04-6.44120E-02-2.23264E-13 3.54745E-13
 -1      3067 2.00147E+01 4.83050E-02-3.07215E-04-5.27199E-02 1.93028E-14 4.28633E-13
 -1      3068 2.00080E+01 7.45076E-02 7.71317E-05-7.23859E-02-9.29578E-14 3.76485E-13
 -1      3069 2.00154E+01 4.10710E-02 3.56908E-04-4.34905E-02 8.41767E-14 3.34968E-13
 -1      3070 2.00119E+01 3.44497E-02-2.00679E-04-3.53763E-02 3.49264E-14 2.91453E-13
 -1      3071 2.00089E+01 5.32841E-02-2.57340E-06-4.97543E-02 1.09611E-13 3.65076E-13
 -1      3072 2.00120E+01 2.90609E-02 2.70504E-04-2.85943E-02-1.67011E-13 3.51226E-13
 -1      3073 2.00093E+01 2.41743E-02-1.37478E-04-2.27511E-02-1.74859E-13 1.35495E-13
 -1      3074 2.00085E+01 3.79882E-02-2.57405E-05-3.34566E-02-1.36494E-13 5.13577E-13
 -1      3075 2.00090E+01 2.02062E-02 2.02553E-04-1.78655E-02-4.15254E-14 4.51429E-14
 -1      3076 2.00070E+01 1.66243E-02-9.31429E-05-1.37288E-02 6.62351E-14-1.80745E-13
 -1      3077 2.00076E+01 2.66472E-02-3.40301E-05-2.15477E-02-2.23824E-13 3.75783E-13
 -1      3078 2.00066E+01 1.37288E-02 1.49084E-04-1.02807E-02 2.17807E-13-7.99964E-14
 -1      3079 2.00052E+01 1.11305E-02-6.16849E-05-7.41524E-03 3.06787E-13 1.22136E-14
 -1      3080 2.00064E+01 1.83040E-02-3.50321E-05-1.30071E-02 9.24477E-14 2.74060E-13
 -1      3081 2.00047E+01 9.04202E-03 1.07592E-04-5.04144E-03 2.24554E-13 8.20629E-15
 -1      3082 2.00037E+01 7.18188E-03-3.95690E-05-3.11122E-03 2.53969E-13 1.00096E-13
 -1      3083 2.00053E+01 1.22292E-02-3.23520E-05-7.01456E-03 2.64238E-13 1.36418E-13
 -1      3084 2.00033E+01 5.69665E-03 7.58951E-05-1.52851E-03 2.50216E-13 9.22490E-14
 -1      3085 2.00025E+01 4.38549E-03-2.42208E-05-2.76939E-04 2.28369E-13 2.41628E-13
 -1      3086 2.00042E+01 7.86220E-03-2.80848E-05-2.92158E-03 2.46213E-13 6.12258E-14
 -1      3087 2.00022E+01 3.34620E-03 5.20967E-05 7.32457E-04 4.42329E-15 2.50366E-13
 -1      3088 2.00017E+01 2.43726E-03-1.38030E-05 1.49882E-03-4.94301E-14 2.46901E-13
 -1      3089 2.00032E+01 4.76984E-03-2.33168E-05-2.23308E-04 1.43593E-13-9.28386E-14
 -1      3090 2.00013E+01 1.72093E-03 3.46198E-05 2.09967E-03-6.97273E-14 3.74131E-13
 -1      3091 2.00010E+01 1.09885E-03-7.04668E-06 2.52396E-03-3.68056E-14 3.84734E-13
 -1      3092 2.00024E+01 2.61424E-03-1.88301E-05 1.46745E-03-4.77871E-14 8.10358E-14
 -1      3093 2.00007E+01 6.08162E-04 2.20698E-05 2.83772E-03-1.14355E-13 2.42458E-13
 -1      3094 2.00006E+01 1.81953E-04-2.60978E-06 3.02275E-03-1.13176E-13 1.20996E-13
 -1      3095 2.00017E+01 1.13022E-03-1.47391E-05 2.44167E-03-9.36278E-14 3.83074E-13
 -1      3096 2.00003E+01-1.61983E-04 1.31365E-05 3.13781E-03-1.10415E-14 8.56485E-14
 -1      3097 2.00002E+01-4.66704E-04-2.59805E-07 3.15498E-03-6.87970E-14 2.83515E-13
 -1      3098 2.00012E+01 1.08485E-04-1.12213E-05 2.91158E-03-1.07573E-13 6.29346E-14
 -1      3099 2.00000E+01-7.21964E-04 8.67926E-06 3.12530E-03-2.28277E-13 2.73221E-13
 -1      3100 2.00000E+01-9.68183E-04-6.87305E-07 3.02534E-03-2.05264E-13 2.36027E-13
 -1      3101 2.00007E+01-6.31811E-04-9.12316E-06 3.03424E-03-1.02152E-13-3.60053E-14
 -1      3102 2.60471E+01 5.74778E+00-9.35242E-02 6.65550E-01 6.16229E-13 1.01693E-13
 -1      3103 2.58029E+01 5.82338E+00-9.45632E-02-3.27013E-01 6.30385E-13-5.38185E-14
 -1      3104 2.11508E+01-4.70504E-01-6.94349E-03 5.07303E-02 1.07717E-13-4.33507E-15
 -1      3105 2.11004E+01-2.92248E-01 1.03636E-02 2.38156E-03 1.25004E-13-1.10158E-14
 -1      3106 2.09540E+01-1.02541E-01-6.54963E-03-5.38664E-03 1.36717E-13-3.91991E-14
 -1      3107 2.09194E+01 1.21203E-01 9.99980E-03 2.68217E-02 1.42573E-13-5.27067E-14
 -1      3108 2.10897E+01-2.09440E-01-5.71136E-03-8.34191E-02 1.11926E-13-8.64899E-14
 -1      3109 2.16886E+01-1.58544E-01 5.60800E-03 1.25166E+00 4.09055E-14 1.38544E-13
 -1      3110 2.17387E+01-4.38983E-01-8.18124E-03 1.15612E+00 4.20391E-14 1.32144E-13
 -1      3111 2.17071E+01-6.33942E-01-2.11227E-03 9.62816E-01 5.13918E-14 1.14930E-13
 -1      3112 2.17078E+01-7.56571E-01-1.40753E-04 8.01388E-01 7.26682E-14 1.20664E-13
 -1      3113 2.21759E+01-6.42905E-01 9.35271E-03 1.05914E+00 4.36028E-14 1.19082E-13
 -1      3114 2.12425E+01 1.29096E+00 1.41776E-02 9.23631E-01 9.56429E-14 5.25072E-14
 -1      3115 2.13291E+01 9.36256E-01-1.57621E-02 1.14519E+00 1.09241E-13 1.20186E-13
 -1      3116 2.10518E+01 1.72815E+00 7.08238E-03 2.22307E-01 1.86697E-13-2.07255E-14
 -1      3117 2.10916E+01 1.55849E+00-9.02206E-03 5.74247E-01 1.45938E-13 2.96525E-14
 -1      3118 2.16456E+01 1.67230E+00-5.45971E-03 8.47192E-01 1.41877E-13 9.86819E-14
 -1      3119 2.10537E+01 1.65004E+00-6.79101E-03-6.12289E-01 1.52989E-13-7.69900E-14
 -1      3120 2.10228E+01 1.76253E+00 2.93727E-03-2.40169E-01 1.71495E-13-8.89473E-14
 -1      3121 2.14876E+01 2.06426E+00-8.52284E-03 5.94052E-03 2.17779E-13-5.28006E-15
 -1      3122 2.12588E+01 1.09485E+00-1.52667E-02-1.24921E+00 1.05352E-13-2.03856E-14
 -1      3123 2.11793E+01 1.42018E+00 1.28094E-02-9.94052E-01 1.47738E-13-1.63655E-14
 -1      3124 2.15798E+01 1.81316E+00-3.63181E-03-8.86075E-01 9.55895E-14-5.18279E-14
 -1      3125 2.15183E+01 3.38251E-01-1.61342E-02-1.50996E+00 1.51311E-14-7.78014E-14
 -1      3126 2.14296E+01 7.29751E-01 1.33999E-02-1.42965E+00 5.79680E-14-4.84068E-14
 -1      3127 2.18373E+01 1.06935E+00 5.37504E-03-1.45685E+00 7.69130E-14-9.28736E-14
 -1      3128 2.16755E+01-3.24026E-01-9.87536E-03-1.39649E+00 9.66501E-14-5.50821E-14
 -1      3129 2.16198E+01-1.31358E-02 6.50509E-03-1.47007E+00 6.93676E-14-4.37078E-14
 -1      3130 2.20594E+01 1.77698E-01 1.15162E-02-1.57118E+00 5.07438E-14-1.57549E-13
 -1      3131 2.16551E+01-7.28132E-01-2.86243E-03-1.05585E+00 5.05440E-14 1.55637E-15
 -1      3132 2.16526E+01-5.58796E-01-1.36189E-03-1.21680E+00 9.12138E-14-6.32380E-14
 -1      3133 2.20896E+01-5.39898E-01 8.78062E-03-1.31075E+00 4.18821E-14-1.46479E-13
 -1      3134 2.14832E+01-8.63153E-01 3.24569E-03-6.46293E-01-2.97726E-14 2.50212E-14
 -1      3135 2.15292E+01-8.26477E-01-5.54128E-03-8.30255E-01-9.87291E-15 2.59395E-14
 -1      3136 2.19134E+01-9.27588E-01 4.73192E-03-8.78357E-01 2.98826E-14-8.53628E-14
 -1      3137 2.12262E+01-8.02867E-01 6.14031E-03-2.77687E-01-7.86506E-14 1.00657E-13
 -1      3138 2.13024E+01-8.54250E-01-6.41308E-03-4.41851E-01-3.65600E-14 5.46473E-14
 -1      3139 2.15985E+01-1.01470E+00-8.77718E-05-4.37194E-01-6.82031E-14 2.49279E-14
 -1      3140 2.09513E+01-6.40201E-01 6.56425E-03 1.06927E-03-7.57521E-14 1.02818E-13
 -1      3141 2.10381E+01-7.32571E-01-5.45623E-03-1.24250E-01-4.99060E-14 8.99983E-14
 -1      3142 2.12374E+01-8.99639E-01-3.52258E-03-8.22216E-02-8.58584E-14 1.65343E-13
 -1      3143 2.07026E+01-4.48427E-01 5.73283E-03 1.83845E-01-1.00300E-13-3.23296E-14
 -1      3144 2.07857E+01-5.47698E-01-3.83771E-03 1.00109E-01-5.32508E-14 1.11049E-13
 -1      3145 2.08997E+01-6.90316E-01-4.85660E-03 1.60475E-01 1.30856E-15 1.95591E-13
 -1      3146 2.04998E+01-2.72075E-01 4.40929E-03 2.85191E-01-8.73774E-14-3.91534E-14
 -1      3147 2.05715E+01-3.59053E-01-2.29306E-03 2.37406E-01-8.23289E-14-1.08436E-13
 -1      3148 2.06207E+01-4.65107E-01-4.71812E-03 3.01666E-01-2.68492E-14 1.51489E-13
 -1      3149 2.03457E+01-1.31484E-01 3.06030E-03 3.25943E-01-7.32573E-14 1.36076E-14
 -1      3150 2.04037E+01-1.98460E-01-1.11947E-03 3.05553E-01-7.22872E-14 2.80444E-14
 -1      3151 2.04090E+01-2.67823E-01-3.93626E-03 3.65331E-01-1.36525E-13 1.40898E-13
 -1      3152 2.02346E+01-3.10596E-02 1.92953E-03 3.25951E-01-9.40669E-15 4.25256E-14
 -1      3153 2.02796E+01-7.74193E-02-3.23480E-04 3.24461E-01-4.86484E-14-1.60216E-14
 -1      3154 2.02587E+01-1.15836E-01-2.98099E-03 3.76120E-01-6.44604E-14 1.39726E-13
 -1      3155 2.01575E+01 3.33098E-02 1.07799E-03 3.01316E-01 4.09163E-15 4.89992E-14
 -1      3156 2.01916E+01 4.65838E-03 1.71522E-04 3.11578E-01 4.98492E-14-2.48025E-15
 -1      3157 2.01578E+01-1.05101E-02-2.10315E-03 3.54367E-01 1.83351E-14 6.93518E-14
 -1      3158 2.01056E+01 6.91701E-02 4.88949E-04 2.63910E-01 1.00941E-13 3.97250E-14
 -1      3159 2.01310E+01 5.41006E-02 4.48631E-04 2.80484E-01 8.52917E-14 1.06572E-13
 -1      3160 2.00932E+01 5.47504E-02-1.40316E-03 3.15079E-01 1.35211E-14 1.18078E-13
 -1      3161 2.00713E+01 8.45211E-02 1.13638E-04 2.21863E-01-6.10543E-14 9.52311E-14
 -1      3162 2.00902E+01 7.89695E-02 5.78767E-04 2.40920E-01-3.20413E-14 7.47742E-14
 -1      3163 2.00539E+01 8.92532E-02-8.92718E-04 2.68522E-01 9.67337E-15 1.02623E-13
 -1      3164 2.00488E+01 8.63600E-02-1.02999E-04 1.80345E-01-8.14355E-14 9.81564E-14
 -1      3165 2.00630E+01 8.69068E-02 6.14528E-04 1.99392E-01-5.17088E-14 1.11583E-13
 -1      3166 2.00310E+01 1.02157E-01-5.44717E-04 2.21257E-01-7.15687E-14 7.93714E-14
 -1      3167 2.00342E+01 8.01640E-02-2.10197E-04 1.42337E-01 2.38579E-14 2.55981E-14
 -1      3168 2.00447E+01 8.42029E-02 5.92875E-04 1.59898E-01-1.76219E-14 7.46392E-14
 -1      3169 2.00184E+01 1.01173E-01-3.20649E-04 1.77146E-01-2.87247E-14 3.55333E-14
 -1      3170 2.00245E+01 6.98819E-02-2.47073E-04 1.09297E-01-2.74522E-14 1.80782E-13
 -1      3171 2.00324E+01 7.55751E-02 5.39028E-04 1.24626E-01 2.40321E-14 1.23973E-13
 -1      3172 2.00118E+01 9.21922E-02-1.83881E-04 1.38181E-01-4.44459E-14 1.85804E-13
 -1      3173 2.00179E+01 5.81576E-02-2.42365E-04 8.16787E-02 9.02185E-14 1.18970E-13
 -1      3174 2.00239E+01 6.43022E-02 4.69847E-04 9.45186E-02 7.24598E-14 6.56429E-14
 -1      3175 2.00086E+01 7.93788E-02-1.04875E-04 1.05125E-01 2.24291E-14 1.38558E-13
 -1      3176 2.00133E+01 4.66235E-02-2.15837E-04 5.93211E-02 3.01325E-14 1.62571E-13
 -1      3177 2.00179E+01 5.24968E-02 3.96297E-04 6.97201E-02 2.57242E-14 1.40775E-13
 -1      3178 2.00070E+01 6.54713E-02-6.18640E-05 7.79692E-02-5.11591E-16 1.35403E-13
 -1      3179 2.00100E+01 3.61836E-02-1.80259E-04 4.17209E-02 4.36973E-14 8.37038E-14
 -1      3180 2.00135E+01 4.14025E-02 3.25148E-04 4.99001E-02 1.37983E-13 1.62539E-13
 -1      3181 2.00062E+01 5.21241E-02-3.98990E-05 5.62646E-02 4.90737E-14 1.11932E-13
 -1      3182 2.00075E+01 2.72487E-02-1.43341E-04 2.82188E-02 2.38241E-13 3.70560E-14
 -1      3183 2.00101E+01 3.16559E-02 2.60280E-04 3.44808E-02 6.29751E-14 1.60006E-14
 -1      3184 2.00056E+01 4.02231E-02-2.94315E-05 3.93420E-02 1.42196E-13 2.71655E-14
 -1      3185 2.00057E+01 1.99174E-02-1.09321E-04 1.81179E-02 1.28451E-13 2.00482E-13
 -1      3186 2.00076E+01 2.34954E-02 2.03599E-04 2.27876E-02 2.40283E-13 1.36937E-13
 -1      3187 2.00051E+01 3.01408E-02-2.46586E-05 2.64553E-02 1.97124E-13-1.05554E-15
 -1      3188 2.00042E+01 1.41057E-02-8.01660E-05 1.07547E-02 7.02285E-14 1.95735E-13
 -1      3189 2.00056E+01 1.69165E-02 1.55691E-04 1.41436E-02 1.52697E-13 2.42114E-13
 -1      3190 2.00045E+01 2.19292E-02-2.22986E-05 1.68709E-02 1.06678E-13 4.23549E-14
 -1      3191 2.00031E+01 9.63533E-03-5.64610E-05 5.53678E-03-9.66552E-15 1.75764E-13
 -1      3192 2.00041E+01 1.17796E-02 1.16312E-04 7.92382E-03-2.47720E-15 1.86521E-13
 -1      3193 2.00040E+01 1.54569E-02-2.06620E-05 9.91738E-03 1.61288E-14 1.37456E-13
 -1      3194 2.00022E+01 6.29078E-03-3.80047E-05 1.95932E-03 7.32334E-14 2.67619E-13
 -1      3195 2.00029E+01 7.88253E-03 8.47415E-05 3.58222E-03 2.14161E-14 2.17011E-13
 -1      3196 2.00033E+01 1.05016E-02-1.89985E-05 5.01023E-03-2.61184E-14 2.82070E-13
 -1      3197 2.00015E+01 3.85281E-03-2.42170E-05-3.92339E-04 8.10837E-14 4.46230E-13
 -1      3198 2.00020E+01 5.00440E-03 6.00317E-05 6.61341E-04 5.12647E-14 3.46680E-13
 -1      3199 2.00027E+01 6.80817E-03-1.70779E-05 1.65942E-03-7.54461E-14 5.17555E-13
 -1      3200 2.00009E+01 2.11641E-03-1.44072E-05-1.84777E-03 1.07499E-13 5.66725E-13
 -1      3201 2.00013E+01 2.93120E-03 4.11787E-05-1.20908E-03 1.40396E-13 5.96742E-13
 -1      3202 2.00022E+01 4.12351E-03-1.49556E-05-5.33096E-04 3.46261E-14 5.49898E-13
 -1      3203 2.00005E+01 8.99218E-04-7.73633E-06-2.65941E-03-2.07675E-14 6.04172E-13
 -1      3204 2.00007E+01 1.46786E-03 2.72570E-05-2.31839E-03 4.79560E-14 5.29803E-13
 -1      3205 2.00016E+01 2.21331E-03-1.27934E-05-1.88086E-03 5.91406E-14 8.32457E-13
 -1      3206 2.00002E+01 4.56145E-05-3.22612E-06-3.01433E-03 1.14121E-13 6.54085E-13
 -1      3207 2.00003E+01 4.44973E-04 1.73212E-05-2.88466E-03 8.24625E-14 6.36937E-13
 -1      3208 2.00012E+01 8.72498E-04-1.04561E-05-2.62192E-03 3.01653E-14 4.95944E-13
 -1      3209 2.00000E+01-5.75421E-04 5.50393E-07-3.04274E-03-4.06344E-14 5.21082E-13
 -1      3210 2.00001E+01-2.86794E-04 9.41157E-06-3.06778E-03 3.31488E-15 6.40703E-13
 -1      3211 2.00008E+01-7.36688E-05-7.88300E-06-2.93351E-03 4.49874E-14 6.40101E-13
 -1      3212 2.00000E+01-1.02644E-03 9.20360E-07-2.86327E-03 2.15699E-13 2.65193E-13
 -1      3213 2.00000E+01-7.84652E-04 2.03186E-06-2.99567E-03 3.33155E-14 4.45158E-13
 -1      3214 2.00005E+01-7.15948E-04-5.73878E-06-2.94590E-03 3.86228E-14 2.77261E-13
 -1      3215 2.00004E+01-1.18651E-03-1.58062E-06-2.79649E-03 1.68751E-13 2.86976E-13
 -1      3216 2.00020E+01-1.65040E-03 1.78361E-06-6.91542E-04 9.82576E-14-3.58589E-14
 -1      3217 2.00019E+01-1.61028E-03-1.63770E-06-1.08754E-03 3.96751E-14-1.20057E-13
 -1      3218 2.59416E+01-4.00071E+00 6.43772E-02-2.17530E+00-2.60096E-13 7.82499E-14
 -1      3219 2.67337E+01-3.22300E+00-8.97607E-02-7.64614E-01-1.46976E-13 1.23526E-13
 -1      3220 2.00019E+01-1.66307E-03 2.62743E-07 9.93974E-04 3.06794E-13-9.47105E-14
 -1      3221 2.00020E+01-1.68808E-03 9.75187E-07 5.94885E-04 2.84557E-13-4.04200E-14
 -1      3222 2.00021E+01-1.67772E-03 8.33556E-07 1.56480E-04 1.97030E-13 1.31763E-13
 -1      3223 2.00020E+01-1.66923E-03-5.62034E-07-2.60114E-04 1.14774E-13 1.53311E-13
 -1      3224 2.00024E+01-1.18411E-03 2.77365E-06-4.95797E-04 1.13369E-13 1.22339E-13
 -1      3225 2.00024E+01-1.21220E-03 2.67367E-06 3.71604E-04 2.13329E-13 1.56037E-13
 -1      3226 2.00011E+01-1.46282E-03-4.53791E-06 2.41530E-03 1.92612E-13 5.64248E-13
 -1      3227 2.00014E+01-1.56853E-03 4.95786E-06 2.13466E-03 3.02063E-13 6.64431E-13
 -1      3228 2.48593E+01-4.25106E+00-5.46291E-02 2.92404E+00-3.38217E-13-3.90641E-13
 -1      3229 2.37225E+01-4.36473E+00 8.92718E-02 3.98493E+00-3.64715E-13-3.06635E-13
 -1      3230 2.07794E+01 7.72776E-01-7.79809E-03 5.41116E-01 2.97175E-13 5.01244E-14
 -1      3231 2.59704E+01 5.11292E+00-1.12819E-01-1.25221E+00 5.40484E-13-2.28142E-13
 -1      3232 2.65613E+01 3.90196E+00-6.62400E-02-2.00179E+00 3.93283E-13-3.24143E-13
 -1      3233 2.63657E+01 3.29680E+00-6.45864E-02 1.99869E+00 3.77171E-13 3.15616E-13
 -1      3234 2.61676E+01 4.81731E+00-1.32977E-01 1.42265E+00 5.25996E-13 2.29431E-13
 -1      3235 2.50892E+01 4.40141E+00-7.89068E-02 1.04971E+00 4.33986E-13 1.71460E-13
 -1      3236 2.71751E+01 2.21417E+00-1.38327E-01-2.07610E+00 3.34732E-13-3.93151E-13
 -1      3237 2.76718E+01 5.22275E-01-4.75252E-02-1.70000E+00 3.03813E-13-4.95340E-13
 -1      3238 2.06847E+01 1.07923E+00 5.35149E-03 4.97919E-01 2.64893E-13-6.43277E-14
 -1      3239 1.63185E+01-2.27698E+00 1.28669E-01-5.88258E+00-4.17624E-13-4.37428E-13
 -1      3240 1.88644E+01-3.51400E+00-6.25185E-02-5.82731E+00-3.98258E-13-2.38420E-13
 -1      3241 2.00016E+01-1.59650E-03-8.69144E-07 1.77303E-03 3.66475E-13 7.31918E-13
 -1      3242 2.00018E+01-1.65969E-03 2.66517E-06 1.41109E-03 3.25010E-13 2.07895E-13
 -1      3243 2.00022E+01-1.22740E-03 2.22335E-06 1.22421E-03 3.55676E-13 5.30262E-14
 -1      3244 2.00018E+01-1.21050E-03 1.70527E-06 2.00090E-03 3.53058E-13 6.65541E-13
 -1      3245 1.17710E+01-3.58113E-01 1.10228E-01-4.56628E+00-3.15439E-13-6.96401E-13
 -1      3246 1.37670E+01-1.44676E+00 1.37192E-02-5.62358E+00-3.80931E-13-6.06099E-13
 -1      3247 1.60653E+01-1.34882E+00 8.81157E-02-5.11674E+00-3.60923E-13-4.67883E-13
 -1      3248 1.26252E+01 4.93360E-01 1.08948E-01-3.43892E+00-2.43621E-13-6.60978E-13
 -1      3249 2.00017E+01-1.58146E-03 2.54574E-06-1.48692E-03 7.49999E-14 1.74189E-13
 -1      3250 2.00015E+01-1.51014E-03-1.25997E-06-1.83086E-03-4.87763E-14 4.40336E-13
 -1      3251 2.00021E+01-1.14970E-03 2.26243E-06-1.32489E-03 1.12231E-13-6.27967E-15
 -1      3252 2.15059E+01 5.60818E-01 1.31612E-02 1.28014E+00 1.04079E-13 1.48017E-13
 -1      3253 2.15931E+01 1.74753E-01-1.51453E-02 1.32666E+00 7.12048E-14 1.72579E-13
 -1      3254 2.21566E+01-5.06028E-03 1.07969E-02 1.36564E+00 4.19119E-14 1.42633E-13
 -1      3255 2.19351E+01 8.73475E-01 6.02132E-03 1.33401E+00 1.28257E-13 1.23712E-13
 -1      3256 1.46172E+01-3.21614E+00 1.91616E-01 5.92213E+00 2.88228E-13-6.07348E-13
 -1      3257 1.39473E+01 2.01783E-02 1.13377E-01-3.80379E+00 2.44253E-13 6.67633E-13
 -1      3258 1.43541E+01 8.33080E-01 1.80690E-02-3.23870E+00 1.76904E-13 4.87166E-13
 -1      3259 1.35019E+01 1.48171E+00 9.74467E-02-2.22839E+00 3.51785E-14 4.59043E-13
 -1      3260 2.19839E+01-4.12122E+00 1.15715E-01-4.92333E+00-3.94681E-13-1.30368E-13
 -1      3261 2.42235E+01-4.59480E+00-8.79302E-02-3.69585E+00-3.28189E-13-1.04925E-14
 -1      3262 2.46994E+01-3.87486E+00 2.29074E-02-2.52201E+00-2.69248E-13 7.40380E-15
 -1      3263 8.19618E+00 4.56139E-01 1.33897E-01-9.60363E-01 2.59168E-15 3.68205E-13
 -1      3264 9.28333E+00-2.22172E-01 1.81578E-01-3.00502E+00 2.15952E-13 7.10182E-13
 -1      3265 2.06988E+01 8.52809E-01 2.44508E-03 2.90829E-01 2.35507E-13-8.52212E-14
 -1      3266 2.04750E+01 1.21993E+00 1.01576E-03 9.88762E-02 2.08283E-13-2.15600E-13
 -1      3267 2.02841E+01 1.63791E+00-4.01369E-03 1.79666E-01 2.34175E-13-2.60682E-13
 -1      3268 2.01223E+01 1.80323E+00-1.45969E-03 3.08590E-02 1.87053E-13-3.09615E-13
 -1      3269 2.59649E+01 2.54988E+00-7.52823E-02-1.97078E+00 3.05880E-13-3.90892E-13
 -1      3270 1.07783E+01 1.49100E+00 1.50808E-01 2.48027E-01-3.15247E-14-7.49484E-13
 -1      3271 1.18876E+01 1.58635E+00 4.44208E-02-7.78034E-01-1.02880E-13-6.63615E-13
 -1      3272 1.21695E+01 1.50534E+00 6.37330E-02 1.42802E+00 7.74918E-14-6.27942E-13
 -1      3273 2.60110E+01-3.12595E+00-9.09265E-02 6.13495E-01-1.78833E-13-4.97878E-13
 -1      3274 2.57381E+01-3.77099E+00 9.40251E-03 1.77886E+00-2.59036E-13-4.70554E-13
 -1      3275 2.46602E+01-3.67007E+00 4.15559E-04 2.02576E+00-3.85275E-13-4.10325E-13
 -1      3276 1.90445E+01 2.20258E+00 3.70811E-03 4.16254E-01-1.85204E-13-3.50549E-13
 -1      3277 1.01717E+01-3.67100E-01 1.19873E-01 4.32268E+00-3.07483E-13 5.78496E-13
 -1      3278 1.42086E+01-7.81237E-01 1.44005E-01 4.78492E+00 3.01759E-13-5.04763E-13
 -1      3279 1.40461E+01-1.96046E+00 9.78219E-02 5.27701E+00 2.74725E-13-5.82395E-13
 -1      3280 1.34586E+01 1.57734E+00 7.79833E-02 2.16328E+00 9.24746E-14-5.50809E-13
 -1      3281 1.41545E+01 1.01080E+00 2.69238E-02 3.20015E+00 1.58647E-13-4.75876E-13
 -1      3282 1.35838E+01 2.05087E-01 1.08257E-01 3.78615E+00 2.35187E-13-5.27391E-13
 -1      3283 1.87881E+01 2.90521E+00-5.50346E-03-4.00734E-01-1.19696E-13-4.54102E-13
 -1      3284 1.89509E+01 2.79721E+00-5.38283E-03-3.10014E-01-1.60527E-13-4.48676E-13
 -1      3285 2.64173E+01-1.55570E-01-2.68283E-02-1.64935E+00 1.41560E-13-4.89886E-13
 -1      3286 2.73005E+01-8.77680E-01-8.57938E-02-1.16219E+00 1.83777E-13-4.80647E-13
 -1      3287 2.66978E+01-1.88679E+00 1.28052E-02-5.37990E-01 9.40914E-15-5.30749E-13
 -1      3288 1.99998E+01-1.22231E-03 3.62296E-06 2.86435E-03-8.76165E-14 2.88726E-13
 -1      3289 2.19939E+01-9.23969E-01 3.08836E-03 6.31604E-01 8.06414E-14 4.99380E-14
 -1      3290 2.15821E+01-8.07607E-01-6.37174E-03 5.89587E-01 7.68738E-14 1.08602E-13
 -1      3291 2.15442E+01-7.91033E-01 5.54838E-03 4.27347E-01 6.01177E-14 8.38414E-14
 -1      3292 2.00007E+01-1.30814E-03 4.97035E-06 2.73707E-03-9.94264E-14 2.96614E-13
 -1      3293 2.00010E+01-1.04779E-03 2.14655E-06 2.69671E-03-2.43495E-14 1.59219E-13
 -1      3294 2.00007E+01-1.25465E-03 2.99135E-06-2.62352E-03 8.02082E-14 1.38821E-13
 -1      3295 2.00008E+01-1.01178E-03 1.03510E-06-2.72423E-03 5.77375E-14 5.40065E-14
 -1      3296 2.00009E+01-1.37607E-03 3.38929E-07-2.47458E-03-4.25578E-14 4.56619E-14
 -1      3297 1.12593E+01-2.07023E-01 1.47716E-01-3.46555E+00 2.75807E-13 7.24976E-13
 -1      3298 2.19529E+01-3.98461E+00 2.52725E-02 4.49272E+00-3.98917E-13-3.02995E-13
 -1      3299 2.58516E+01-2.69027E+00-1.62460E-02-2.48159E-01-9.30454E-14 9.11398E-14
 -1      3300 2.69014E+01-2.20173E+00-7.77316E-03 3.23064E-01-6.12461E-14 1.74919E-13
 -1      3301 2.62810E+01-1.02759E+00-4.51829E-02 1.23262E+00 2.78597E-14 2.11468E-13
 -1      3302 1.87072E+01 2.93020E+00-1.05035E-02-5.41302E-01-1.07702E-13-4.83331E-13
 -1      3303 1.87005E+01 2.74537E+00 1.57414E-02-4.32669E-01-1.16818E-13-4.48253E-13
 -1      3304 1.86954E+01 2.95433E+00 2.45758E-04-5.96651E-01-6.99689E-14-4.93043E-13
 -1      3305 2.00003E+01-1.22792E-03-5.77374E-06 2.86458E-03-1.75006E-13 9.89388E-14
 -1      3306 2.07994E+01 3.59460E-01-5.41354E-03 1.01706E-01 1.97378E-13-5.95920E-14
 -1      3307 2.07755E+01 6.21892E-01 4.11321E-03 2.21013E-01 2.34441E-13-5.62603E-14
 -1      3308 2.08247E+01-3.27644E+00 7.10130E-02-4.71485E+00-3.72556E-13-1.86292E-13
 -1      3309 2.50270E+01 4.65930E+00-7.01887E-02-7.75854E-01 4.41779E-13-1.68998E-13
 -1      3310 2.63437E+01 1.92247E+00-9.64009E-02 2.02884E+00 2.49592E-13 2.75439E-13
 -1      3311 2.53320E+01 2.45731E+00-2.85076E-02 1.94416E+00 3.00038E-13 2.51348E-13
 -1      3312 2.61388E+01 6.53082E-01-2.94476E-02 1.82805E+00 1.16438E-13 2.73732E-13
 -1      3313 1.99454E+01 1.96205E+00-6.32983E-04-1.21965E-01 1.73643E-13-3.45604E-13
 -1      3314 1.97563E+01 2.10751E+00-4.00346E-03-2.69525E-01 1.38441E-13-3.81224E-13
 -1      3315 1.97746E+01 1.84275E+00-6.27028E-04-4.72597E-01 1.14349E-13-3.72281E-13
 -1      3316 2.01667E+01 1.52737E+00 7.53482E-04-1.84531E-01 1.61449E-13-2.94201E-13
 -1      3317 2.13201E+01-6.10862E-01 9.00117E-03 1.42454E-01 8.81476E-14 3.55190E-14
 -1      3318 2.13764E+01-6.19413E-01-5.31249E-03-1.13400E-03 6.95276E-14-1.87182E-14
 -1      3319 2.13747E+01-7.26708E-01-7.48311E-03 2.59883E-01 5.65191E-14 6.52244E-14
 -1      3320 8.64851E+00 6.81682E-01 8.34168E-02 1.39320E+00-1.03723E-13 3.11279E-13
 -1      3321 8.36946E+00 7.27632E-01 2.24897E-01 1.40699E-01-6.14682E-14 1.74250E-13
 -1      3322 9.75275E+00 9.35812E-01 7.20934E-02-1.11844E+00 2.17153E-14 2.97498E-13
 -1      3323 2.06833E+01 8.35173E-01 2.63278E-03 1.62105E-01 2.15849E-13-1.32657E-13
 -1      3324 1.21232E+01-3.42779E-03 1.03781E-01-3.68302E+00 2.38115E-13 7.42059E-13
 -1      3325 2.00014E+01-1.50146E-03 1.02474E-06-2.06408E-03 2.47302E-14 1.87621E-13
 -1      3326 2.00012E+01-1.40223E-03-5.06442E-08-2.27958E-03 3.09929E-14 3.46707E-14
 -1      3327 2.00013E+01-1.10655E-03 7.56549E-07-2.37406E-03 1.12906E-13 3.84422E-14
 -1      3328 2.00018E+01-1.12398E-03 1.23612E-06-1.94765E-03 4.01810E-14 2.10560E-13
 -1      3329 1.91742E+01 2.57565E+00 3.93537E-03-6.03303E-01 4.67686E-14-4.45092E-13
 -1      3330 1.89964E+01 2.67324E+00-9.63797E-03-6.69361E-01 3.51840E-15-4.46783E-13
 -1      3331 1.93476E+01 2.16770E+00 6.56751E-04-6.90115E-01 4.29423E-14-4.02748E-13
 -1      3332 1.58953E+01-2.42397E+00 1.33690E-01 6.18598E+00-5.47472E-13 1.64403E-13
 -1      3333 1.43917E+01-1.37698E+00 3.64165E-02 5.41879E+00-4.10387E-13 2.54623E-13
 -1      3334 1.78675E+01-2.79591E+00 4.99312E-03 5.59506E+00-4.99760E-13-6.04829E-14
 -1      3335 2.08605E+01 3.05257E-01-2.46295E-03 2.65247E-03 1.69482E-13-9.72940E-14
 -1      3336 1.34741E+01 1.89584E+00-1.64532E-02 1.03286E+00 1.45049E-14-5.65371E-13
 -1      3337 1.16124E+01-3.96478E-02 5.02293E-02 4.11493E+00-3.10255E-13 4.84709E-13
 -1      3338 9.84490E+00 6.51653E-01 2.08656E-01 2.95284E+00-1.99687E-13 4.09256E-13
 -1      3339 1.02540E+01 1.03039E+00 6.98358E-02 1.52768E+00-6.60322E-14 2.21309E-13
 -1      3340 1.90665E+01 2.52499E+00 1.07661E-02-5.10538E-02-1.73068E-13-3.84716E-13
 -1      3341 1.71038E+01 2.18851E+00-1.47040E-02 5.34207E-01-1.10658E-13-4.04300E-13
 -1      3342 1.64521E+01 2.17025E+00-1.82289E-02 6.34979E-01-7.93662E-14-4.24584E-13
 -1      3343 1.56055E+01 2.12418E+00-1.98052E-02 6.04278E-01-5.06617E-14-4.48662E-13
 -1      3344 1.47360E+01 2.06556E+00 1.00180E-02 6.80584E-01-1.37590E-14-4.84701E-13
 -1      3345 1.58602E+01 2.22951E+00 4.16480E-02-9.67039E-02-9.58764E-14-4.60083E-13
 -1      3346 1.44712E+01 1.86677E+00 5.32937E-03-9.38217E-01-4.65804E-14 2.36654E-13
 -1      3347 1.53437E+01 1.88513E+00-2.14730E-02-8.41408E-01-4.12465E-14 1.48010E-13
 -1      3348 2.37731E+01-3.51933E+00 8.48181E-02-2.81579E+00-2.37716E-13-3.10680E-14
 -1      3349 2.47201E+01-3.46849E+00-5.84854E-02-1.63745E+00-1.82248E-13 7.16961E-15
 -1      3350 1.62268E+01 1.84989E+00-1.17575E-02-8.72033E-01-2.96612E-14 1.14990E-14
 -1      3351 1.68509E+01 1.76173E+00-1.70619E-02-8.10220E-01-1.18007E-13-1.19348E-14
 -1      3352 1.55176E+01 1.94385E+00 4.79636E-02-2.01230E-01-1.31665E-13-1.03867E-14
 -1      3353 1.74532E+01 1.64748E+00-1.16149E-02-8.28226E-01-1.44623E-13-6.63221E-14
 -1      3354 1.78873E+01 1.51727E+00-1.18210E-02-7.71233E-01-1.62272E-13-1.92632E-14
 -1      3355 1.69265E+01 1.76431E+00 2.91214E-02-3.68982E-01-1.46062E-13-2.50838E-13
 -1      3356 1.83033E+01 1.38027E+00-8.33283E-03-7.68339E-01-1.85693E-13-3.52845E-14
 -1      3357 1.85980E+01 1.24454E+00-8.22290E-03-7.07477E-01-1.59996E-13 8.04711E-14
 -1      3358 1.79023E+01 1.50597E+00 1.95130E-02-4.60492E-01-1.53205E-13-1.59345E-13
 -1      3359 1.88863E+01 1.11289E+00-5.28341E-03-6.86755E-01-1.11220E-13 1.70844E-13
 -1      3360 1.90815E+01 9.89485E-01-5.96721E-03-6.23844E-01-1.04694E-13 1.68106E-13
 -1      3361 1.85792E+01 1.23586E+00 1.34932E-02-4.86229E-01-5.41735E-14-7.35289E-14
 -1      3362 1.92807E+01 8.75197E-01-3.05557E-03-5.92108E-01-1.50913E-13 1.82787E-13
 -1      3363 1.94068E+01 7.70773E-01-4.47161E-03-5.31229E-01-7.80487E-14 1.72887E-13
 -1      3364 1.90472E+01 9.87464E-01 9.37399E-03-4.65995E-01-1.18803E-13-1.12409E-14
 -1      3365 1.95436E+01 6.77021E-01-1.56274E-03-4.94838E-01-1.40411E-13 1.97116E-13
 -1      3366 1.96231E+01 5.92335E-01-3.39492E-03-4.39252E-01-1.25272E-13 3.83745E-14
 -1      3367 1.93680E+01 7.74508E-01 6.45162E-03-4.18761E-01-9.26921E-14 3.57020E-14
 -1      3368 1.97162E+01 5.17975E-01-6.24916E-04-4.02795E-01-9.82510E-14-5.75820E-15
 -1      3369 1.97650E+01 4.51065E-01-2.58024E-03-3.54275E-01-1.00076E-13-1.44130E-13
 -1      3370 1.95859E+01 5.99633E-01 4.38567E-03-3.59303E-01-1.98341E-13-5.77801E-14
 -1      3371 1.98280E+01 3.93266E-01-7.50198E-05-3.20544E-01-1.46932E-13-9.41608E-14
 -1      3372 1.98570E+01 3.41236E-01-1.95336E-03-2.79621E-01-1.40859E-13-1.39686E-13
 -1      3373 1.97326E+01 4.59910E-01 2.94518E-03-2.97567E-01-1.41374E-13-2.92285E-14
 -1      3374 1.98993E+01 2.96840E-01 2.18326E-04-2.50018E-01-8.03880E-14-1.05339E-13
 -1      3375 1.99158E+01 2.56766E-01-1.47097E-03-2.16407E-01-1.16056E-13 2.74968E-14
 -1      3376 1.98303E+01 3.50201E-01 1.95522E-03-2.39474E-01-3.88255E-14 7.60489E-14
 -1      3377 1.99440E+01 2.22893E-01 3.50692E-04-1.91398E-01-2.00141E-13 2.35086E-14
 -1      3378 1.99529E+01 1.92203E-01-1.10179E-03-1.64379E-01-1.70980E-13 1.26117E-13
 -1      3379 1.98948E+01 2.64998E-01 1.28371E-03-1.88041E-01-9.19168E-14-5.62784E-14
 -1      3380 1.99715E+01 1.66455E-01 3.87516E-04-1.43863E-01-5.74982E-14 8.58317E-14
 -1      3381 1.99758E+01 1.43041E-01-8.18723E-04-1.22534E-01-8.14460E-14 1.75313E-13
 -1      3382 1.99370E+01 1.99286E-01 8.33909E-04-1.44389E-01-9.01516E-14 2.30532E-14
 -1      3383 1.99880E+01 1.23497E-01 3.65339E-04-1.06101E-01-1.53159E-13 2.10020E-13
 -1      3384 1.99896E+01 1.05661E-01-6.24122E-04-8.95232E-02-1.12178E-13 2.96151E-13
 -1      3385 1.99642E+01 1.48869E-01 5.42370E-04-1.08501E-01-7.64443E-14 2.16364E-13
 -1      3386 1.99977E+01 9.01890E-02 3.23823E-04-7.60141E-02-8.78089E-14 2.02087E-13
 -1      3387 1.99980E+01 7.61766E-02-4.57443E-04-6.28595E-02-5.32876E-15 2.74588E-13
 -1      3388 1.99819E+01 1.09546E-01 3.62668E-04-7.91491E-02-9.74429E-14 1.91689E-13
 -1      3389 2.00029E+01 6.52252E-02 2.76342E-04-5.31106E-02 1.47525E-13 2.66288E-13
 -1      3390 2.00023E+01 5.51777E-02-3.22294E-04-4.37017E-02 1.25796E-13 2.19612E-13
 -1      3391 1.99927E+01 7.96619E-02 2.06180E-04-5.62463E-02 4.89155E-14 6.31404E-14
 -1      3392 2.00053E+01 4.69397E-02 2.26561E-04-3.63342E-02-8.72048E-14 2.58714E-13
 -1      3393 2.00045E+01 3.93980E-02-2.32893E-04-2.93696E-02-2.43410E-13 3.48346E-13
 -1      3394 1.99989E+01 5.77186E-02 1.21378E-04-3.91935E-02 1.92788E-14 5.27377E-14
 -1      3395 2.00062E+01 3.32558E-02 1.79611E-04-2.39208E-02-2.28972E-13 3.79431E-13
 -1      3396 2.00053E+01 2.76425E-02-1.66180E-04-1.88531E-02-1.59008E-13 4.26455E-13
 -1      3397 2.00025E+01 4.12102E-02 6.90123E-05-2.63676E-02-1.60351E-13 1.30566E-13
 -1      3398 2.00062E+01 2.31022E-02 1.39016E-04-1.49063E-02-1.84623E-13 2.83154E-13
 -1      3399 2.00053E+01 1.89661E-02-1.16599E-04-1.12919E-02 3.70518E-14 2.25851E-13
 -1      3400 2.00043E+01 2.88880E-02 3.61334E-05-1.69159E-02-2.53615E-13 2.75191E-13
 -1      3401 2.00057E+01 1.56464E-02 1.05170E-04-8.49890E-03 2.38366E-13 7.57221E-14
 -1      3402 2.00049E+01 1.26362E-02-8.00707E-05-5.98138E-03 2.00110E-13 7.25597E-14
 -1      3403 2.00049E+01 1.97838E-02 1.58459E-05-1.01003E-02 6.37466E-14 2.16517E-13
 -1      3404 2.00050E+01 1.02412E-02 7.77944E-05-4.05889E-03 1.68266E-13 1.13611E-13
 -1      3405 2.00043E+01 8.08172E-03-5.35384E-05-2.35653E-03 2.13240E-13 9.61604E-16
 -1      3406 2.00050E+01 1.31398E-02 3.74557E-06-5.30515E-03 2.87421E-13 1.36640E-13
 -1      3407 2.00041E+01 6.37968E-03 5.61828E-05-1.07937E-03 1.62772E-13-2.91615E-14
 -1      3408 2.00036E+01 4.85547E-03-3.44882E-05 2.62143E-05-6.62991E-15-1.24598E-13
 -1      3409 2.00046E+01 8.35933E-03-3.25899E-06-2.02984E-03 1.73980E-13 1.13606E-13
 -1      3410 2.00033E+01 3.66611E-03 3.95465E-05 8.33997E-04-4.77847E-14-2.72142E-14
 -1      3411 2.00029E+01 2.60678E-03-2.11576E-05 1.51046E-03 8.03171E-14 1.63766E-13
 -1      3412 2.00040E+01 4.97489E-03-6.69280E-06 1.21408E-04 2.83718E-14-7.10192E-15
 -1      3413 2.00026E+01 1.78532E-03 2.71893E-05 1.98279E-03-6.13041E-14 1.16458E-13
 -1      3414 2.00022E+01 1.05572E-03-1.17472E-05 2.35377E-03-1.65024E-13 1.12471E-13
 -1      3415 2.00033E+01 2.61357E-03-8.13309E-06 1.45848E-03 4.50649E-14-1.87499E-16
 -1      3416 2.00019E+01 4.84612E-04 1.69246E-05 2.59024E-03-2.65957E-13 1.89557E-13
 -1      3417 2.00016E+01-1.26419E-05-2.65639E-06 2.74064E-03-1.37554E-13 1.12287E-14
 -1      3418 2.00026E+01 9.82404E-04-7.62925E-06 2.21267E-03-2.38922E-13 2.42269E-13
 -1      3419 2.00014E+01-3.58691E-04 8.62897E-06 2.75267E-03-7.40337E-14 8.82878E-15
 -1      3420 2.00012E+01-7.37145E-04-1.19017E-06 2.75806E-03-1.08755E-13 1.04593E-14
 -1      3421 2.00017E+01-8.52967E-04-3.62988E-06 2.43741E-03 9.38256E-15 5.05597E-13
 -1      3422 2.00021E+01-9.33693E-05-8.75849E-06 2.48477E-03-1.71211E-13 3.62993E-13
 -1      3423 2.19850E+01 2.60631E+00 1.76408E-03-1.89694E-01 2.47227E-13-7.49834E-16
 -1      3424 2.20016E+01 2.51575E+00-1.11593E-02 2.70024E-01 2.52803E-13 2.46094E-14
 -1      3425 2.21095E+01 2.26226E+00 7.49724E-03 7.92780E-01 1.78362E-13 9.28986E-14
 -1      3426 2.22130E+01 1.81667E+00-2.09948E-02 1.15477E+00 1.54986E-13 8.18861E-14
 -1      3427 2.25911E+01 2.72922E+00-2.67710E-02 6.02044E-01 2.30985E-13-4.43599E-14
 -1      3428 2.24157E+01 8.97357E-01-2.71919E-02-1.66164E+00 5.31618E-14-1.28126E-13
 -1      3429 2.23182E+01 1.50128E+00 1.47721E-02-1.50993E+00 9.69520E-14-1.90213E-13
 -1      3430 2.25953E+01-2.13654E-01-1.59904E-02-1.57486E+00 4.22908E-14-2.05740E-13
 -1      3431 2.25435E+01 3.19802E-01 7.25029E-03-1.64912E+00 5.23646E-14-2.07220E-13
 -1      3432 2.30922E+01 6.83457E-01 2.09156E-02-1.76666E+00 9.15893E-14-2.96887E-13
 -1      3433 2.24931E+01-9.30279E-01-3.23162E-03-1.13402E+00 2.66451E-14-2.08572E-13
 -1      3434 2.25296E+01-6.24712E-01-3.37069E-03-1.33045E+00 9.68691E-15-2.31975E-13
 -1      3435 2.30797E+01-5.23026E-01 6.49889E-03-1.45551E+00 2.58947E-14-2.80555E-13
 -1      3436 2.21571E+01-1.22168E+00 5.86475E-03-5.94542E-01-7.95807E-14-7.23445E-14
 -1      3437 2.22723E+01-1.13320E+00-9.00255E-03-8.26026E-01-4.41047E-14-1.22148E-13
 -1      3438 2.27574E+01-1.23622E+00 1.48987E-03-8.56650E-01-3.78278E-14-1.70830E-13
 -1      3439 2.16996E+01-1.17523E+00 1.02891E-02-1.36592E-01-2.00964E-13 1.05025E-13
 -1      3440 2.18576E+01-1.23442E+00-8.07636E-03-3.33785E-01-9.07098E-14 3.11677E-14
 -1      3441 2.22249E+01-1.42316E+00-1.34275E-03-2.71033E-01-2.09769E-13-4.74814E-14
 -1      3442 2.12374E+01-9.53025E-01 1.00693E-02 1.79872E-01-8.68255E-14 2.00933E-13
 -1      3443 2.14015E+01-1.08212E+00-5.90954E-03 4.05008E-02-1.59434E-13 1.66248E-13
 -1      3444 2.16374E+01-1.28630E+00-7.27795E-03 1.54452E-01-2.12421E-13 1.27558E-13
 -1      3445 2.08407E+01-6.76740E-01 8.23275E-03 3.61922E-01-6.03778E-14 2.36859E-13
 -1      3446 2.09867E+01-8.20090E-01-3.28751E-03 2.78106E-01-4.77734E-14 2.32329E-13
 -1      3447 2.11114E+01-9.92989E-01-9.11150E-03 4.06908E-01-7.30514E-14 1.97662E-13
 -1      3448 2.05345E+01-4.18287E-01 6.01779E-03 4.42061E-01-9.51661E-14 2.66638E-13
 -1      3449 2.06516E+01-5.45427E-01-1.16609E-03 4.01696E-01 1.83254E-14 2.43368E-13
 -1      3450 2.06965E+01-6.71255E-01-8.08304E-03 5.21769E-01-6.85389E-14 2.05856E-13
 -1      3451 2.03161E+01-2.10029E-01 3.95006E-03 4.54467E-01-1.14631E-13 1.39849E-13
 -1      3452 2.04033E+01-3.08781E-01 1.04845E-04 4.44254E-01-1.03014E-13 2.49724E-13
 -1      3453 2.03971E+01-3.89567E-01-6.40889E-03 5.44486E-01-7.36595E-14 1.62512E-13
 -1      3454 2.01709E+01-5.95617E-02 2.34572E-03 4.26682E-01-3.46869E-14 1.57768E-13
 -1      3455 2.02320E+01-1.28666E-01 7.38734E-04 4.35359E-01-1.06371E-13 1.67576E-13
 -1      3456 2.01970E+01-1.72415E-01-4.64895E-03 5.13340E-01-8.33656E-14 1.68287E-13
 -1      3457 2.00806E+01 3.84945E-02 1.20430E-03 3.78261E-01-5.07829E-14 2.13274E-13
 -1      3458 2.01213E+01-4.96825E-03 9.81106E-04 3.97428E-01-3.05019E-14 1.54553E-13
 -1      3459 2.00733E+01-2.14840E-02-3.13100E-03 4.55277E-01-1.04708E-13 2.05443E-13
 -1      3460 2.00286E+01 9.47096E-02 4.50303E-04 3.21944E-01 1.01636E-14 3.03505E-13
 -1      3461 2.00546E+01 7.10797E-02 1.00494E-03 3.45814E-01 1.84093E-14 2.92110E-13
 -1      3462 2.00037E+01 7.28535E-02-1.96637E-03 3.87400E-01-8.66526E-14 2.93761E-13
 -1      3463 2.00018E+01 1.20454E-01-9.66533E-06 2.65486E-01-5.56185E-14 3.14097E-13
 -1      3464 2.00177E+01 1.10891E-01 9.24902E-04 2.90323E-01 4.91380E-15 2.98679E-13
 -1      3465 1.99697E+01 1.23736E-01-1.14193E-03 3.19657E-01-5.01753E-15 3.21463E-13
 -1      3466 1.99902E+01 1.25780E-01-2.61740E-04 2.13223E-01-6.64138E-14 1.96122E-13
 -1      3467 1.99997E+01 1.25391E-01 8.05933E-04 2.36788E-01-5.48877E-14 2.90214E-13
 -1      3468 1.99577E+01 1.43949E-01-5.95998E-04 2.57315E-01-2.82305E-14 3.21621E-13
 -1      3469 1.99873E+01 1.18647E-01-3.75604E-04 1.67265E-01-1.25492E-13 3.10125E-13
 -1      3470 1.99928E+01 1.23663E-01 6.80881E-04 1.88354E-01-4.23049E-14 2.62004E-13
 -1      3471 1.99579E+01 1.44228E-01-2.57642E-04 2.02748E-01-1.03413E-13 4.09016E-13
 -1      3472 1.99887E+01 1.04874E-01-4.03240E-04 1.28323E-01-6.75598E-14 2.26140E-13
 -1      3473 1.99919E+01 1.12602E-01 5.64318E-04 1.46424E-01-6.53276E-14 2.51291E-13
 -1      3474 1.99641E+01 1.32797E-01-6.37294E-05 1.56625E-01-7.60607E-14 3.99871E-13
 -1      3475 1.99918E+01 8.84303E-02-3.81382E-04 9.62796E-02 1.92203E-13-4.26313E-16
 -1      3476 1.99937E+01 9.70718E-02 4.61393E-04 1.11314E-01 6.00458E-14 1.17232E-13
 -1      3477 1.99724E+01 1.15517E-01 3.57533E-05 1.18671E-01 1.03041E-13 8.46807E-14
 -1      3478 1.99953E+01 7.18283E-02-3.34715E-04 7.05583E-02-6.61863E-14 1.67039E-13
 -1      3479 1.99964E+01 8.02747E-02 3.73092E-04 8.27075E-02 4.14481E-14 8.95409E-14
 -1      3480 1.99807E+01 9.62944E-02 7.68025E-05 8.81239E-02 1.72193E-15 2.75062E-14
 -1      3481 1.99982E+01 5.65125E-02-2.78801E-04 5.03675E-02 3.88450E-14 1.15948E-13
 -1      3482 1.99991E+01 6.41496E-02 2.98551E-04 5.99474E-02 4.01908E-14 1.06045E-13
 -1      3483 1.99879E+01 7.75372E-02 8.49160E-05 6.40185E-02 1.29773E-14 8.87082E-14
 -1      3484 2.00005E+01 4.31930E-02-2.22924E-04 3.48496E-02 2.11420E-13 5.75840E-14
 -1      3485 2.00012E+01 4.97413E-02 2.36276E-04 4.22323E-02 1.49432E-13 4.28301E-14
 -1      3486 1.99936E+01 6.05796E-02 7.62117E-05 4.53465E-02 1.30654E-13-7.50161E-14
 -1      3487 2.00020E+01 3.21017E-02-1.72119E-04 2.31705E-02 1.23903E-13 1.74973E-13
 -1      3488 2.00026E+01 3.74953E-02 1.84767E-04 2.87332E-02 1.34678E-13 1.61138E-13
 -1      3489 1.99977E+01 4.60290E-02 6.06822E-05 3.11460E-02 8.23531E-14 1.08451E-13
 -1      3490 2.00029E+01 2.31818E-02-1.28650E-04 1.45698E-02 2.58506E-14 2.12085E-13
 -1      3491 2.00034E+01 2.74802E-02 1.42574E-04 1.86650E-02 9.69837E-14 1.64428E-13
 -1      3492 2.00006E+01 3.40289E-02 4.39994E-05 2.05481E-02 8.44287E-14 3.95814E-13
 -1      3493 2.00033E+01 1.62196E-02-9.30916E-05 8.38441E-03-2.09211E-15 3.80475E-13
 -1      3494 2.00038E+01 1.95478E-02 1.08377E-04 1.13245E-02 1.69235E-15 2.75825E-13
 -1      3495 2.00023E+01 2.44486E-02 2.90289E-05 1.27974E-02-7.66534E-15 5.69427E-13
 -1      3496 2.00033E+01 1.09308E-02-6.50603E-05 4.05551E-03-1.18320E-13 5.15500E-13
 -1      3497 2.00037E+01 1.34403E-02 8.09855E-05 6.10612E-03 6.80109E-16 5.17236E-13
 -1      3498 2.00032E+01 1.70144E-02 1.69266E-05 7.25624E-03-2.55203E-14 5.93532E-13
 -1      3499 2.00030E+01 7.01420E-03-4.36806E-05 1.12527E-03-6.69130E-14 3.65723E-13
 -1      3500 2.00034E+01 8.85937E-03 5.93398E-05 2.50538E-03-9.11864E-14 4.35752E-13
 -1      3501 2.00036E+01 1.13940E-02 7.89249E-06 3.39918E-03-4.53998E-14 3.95588E-13
 -1      3502 2.00026E+01 4.18227E-03-2.78863E-05-7.71911E-04 2.86166E-14 5.05647E-13
 -1      3503 2.00030E+01 5.50760E-03 4.25021E-05 1.12998E-04-9.99798E-14 3.42059E-13
 -1      3504 2.00035E+01 7.24813E-03 1.62349E-06 8.02819E-04-6.17239E-14 1.96758E-13
 -1      3505 2.00022E+01 2.17359E-03-1.67365E-05-1.92092E-03 5.66854E-14 5.05712E-13
 -1      3506 2.00025E+01 3.10928E-03 2.96771E-05-1.39501E-03 1.72939E-13 5.40437E-13
 -1      3507 2.00031E+01 4.25934E-03-2.19254E-06-8.67588E-04-9.73072E-15 3.48110E-13
 -1      3508 2.00017E+01 7.64253E-04-8.53629E-06-2.53213E-03 2.82387E-14 3.90372E-13
 -1      3509 2.00020E+01 1.41808E-03 2.00481E-05-2.26443E-03-2.74274E-14 4.44161E-13
 -1      3510 2.00026E+01 2.14082E-03-3.99547E-06-1.86733E-03 7.48019E-14 3.29168E-13
 -1      3511 2.00012E+01-2.30352E-04-1.64686E-06-2.76445E-03 7.96920E-14 4.77919E-13
 -1      3512 2.00014E+01 2.28258E-04 1.25878E-05-2.68169E-03 8.69579E-14 5.14358E-13
 -1      3513 2.00021E+01 6.47605E-04-6.72561E-06-2.38867E-03 2.68821E-14 1.94484E-13
 -1      3514 2.00009E+01-7.67355E-04 1.60217E-06-2.74176E-03 2.23110E-13 1.12177E-13
 -1      3515 2.00010E+01-4.92829E-04 6.39118E-06-2.78304E-03 2.36418E-13 2.86079E-13
 -1      3516 2.00016E+01-2.68896E-04-7.72363E-06-2.57461E-03 3.69678E-13 3.28723E-14
 -1      3517 2.00012E+01-8.30305E-04-5.04491E-06-2.58228E-03 2.24661E-13-1.25272E-14
 -1      3518 1.88545E+01 2.82138E+00 3.46671E-03-6.72815E-01-5.99239E-15-4.43145E-13
 -1      3519 1.87460E+01 2.86945E+00-1.12847E-02-6.76210E-01-3.95974E-14-4.67962E-13
 -1      3520 1.87030E+01 2.68824E+00 8.87331E-03-6.82279E-01-6.95435E-14-4.57379E-13
 -1      3521 1.86514E+01 2.40217E+00-7.44881E-03 1.53701E-01-1.51779E-13-3.89702E-13
 -1      3522 1.97836E+01-2.41663E+00 9.79164E-02-4.60838E+00-3.09077E-13-2.55247E-13
 -1      3523 2.18783E+01-3.50475E+00-8.39794E-02-3.94585E+00-2.64299E-13-1.61617E-13
 -1      3524 2.48183E+01 2.86140E+00-4.45181E-02-1.91977E+00 2.97554E-13-4.23994E-13
 -1      3525 2.55669E+01 1.43723E+00-3.38420E-02-2.06376E+00 1.85595E-13-4.54727E-13
 -1      3526 2.21100E+01 1.99463E+00-3.17097E-02-1.17313E+00 1.08610E-13-9.71090E-14
 -1      3527 2.20104E+01 2.39317E+00-9.17897E-03-8.16623E-01 1.87100E-13-5.40575E-14
 -1      3528 2.25622E+01 2.99148E+00 8.78057E-03-5.42093E-01 2.60014E-13-9.87327E-14
 -1      3529 2.28188E+01 2.06334E+00 1.44023E-02-1.48823E+00 1.67020E-13-1.82861E-13
 -1      3530 2.26480E+01-7.73142E-01 6.05647E-04 1.07382E+00 3.86561E-14 1.21038E-13
 -1      3531 2.25868E+01-1.01734E+00-2.98900E-03 8.62102E-01 4.37703E-14 1.29933E-13
 -1      3532 2.11781E+01-3.27235E-01-5.70097E-03-2.32780E-01 7.74242E-14-1.12140E-13
 -1      3533 2.10619E+01-5.56276E-02 9.49083E-03-2.18258E-01 9.92595E-14-1.30698E-13
 -1      3534 2.43755E+01 3.66476E+00-3.15373E-02 1.33667E+00 3.57728E-13 1.36114E-13
 -1      3535 2.41198E+01 4.41941E+00-5.14961E-02 5.31943E-01 3.79752E-13-2.49319E-14
 -1      3536 2.24217E+01-3.60140E+00-2.05603E-02 3.57356E+00-3.93848E-13-3.64479E-13
 -1      3537 2.05441E+01-3.24873E+00 1.06837E-01 4.83898E+00-4.54387E-13-2.74320E-13
 -1      3538 2.00026E+01-6.76353E-04-2.59744E-06-1.13015E-03 2.30519E-13-1.99033E-15
 -1      3539 2.00024E+01-6.59878E-04-2.85477E-06-1.51548E-03 1.79835E-13 2.39453E-14
 -1      3540 1.81084E+01 2.22033E+00-1.66265E-02 3.64488E-01-1.45802E-13-3.83688E-13
 -1      3541 1.76723E+01 2.20576E+00-1.68744E-02 5.13576E-01-1.14735E-13-3.79882E-13
 -1      3542 1.72266E+01 2.30114E+00 2.72542E-02 4.01981E-02-1.31002E-13-4.13979E-13
 -1      3543 2.35753E+01 3.95664E+00-3.70199E-02-5.36991E-01 3.07858E-13-1.11724E-13
 -1      3544 2.37667E+01 3.27949E+00-4.46244E-02-1.47330E+00 2.87867E-13-2.81710E-13
 -1      3545 2.06733E+01 7.11402E-01-2.51273E-03-2.82160E-02 1.98780E-13-1.63861E-13
 -1      3546 2.05907E+01 9.50081E-01-1.12040E-03 3.56942E-02 1.96402E-13-1.95415E-13
 -1      3547 2.04627E+01 1.10726E+00 1.63684E-03-9.04749E-02 1.72046E-13-2.24321E-13
 -1      3548 2.09048E+01 1.58411E-01-4.28278E-03-1.88846E-01 1.36395E-13-1.32109E-13
 -1      3549 2.08061E+01 4.57106E-01 4.49239E-03-9.92664E-02 1.79081E-13-1.52653E-13
 -1      3550 2.07029E+01 5.66586E-01-1.94081E-03-2.31879E-01 1.57231E-13-1.80684E-13
 -1      3551 2.09598E+01 5.55879E-02-5.21824E-03-3.45288E-01 1.13357E-13-1.41520E-13
 -1      3552 1.84905E+01 2.55076E+00-9.48445E-03-3.33189E-01-1.37941E-13-4.27590E-13
 -1      3553 1.83865E+01 2.34326E+00 6.42193E-03 1.18639E-01-1.49879E-13-3.93006E-13
 -1      3554 1.79872E+01 2.36750E+00-4.69006E-03-1.72111E-01-1.32598E-13-4.07113E-13
 -1      3555 1.84451E+01 2.58763E+00-2.55974E-03-4.90167E-01-1.07875E-13-4.50174E-13
 -1      3556 2.58473E+01-2.36880E+00 3.03735E-04-1.04760E-01-1.50276E-13-4.54754E-13
 -1      3557 1.19270E+01 1.42069E+00 5.98946E-02-1.23602E+00-5.58187E-14 3.14707E-13
 -1      3558 1.31629E+01 1.73200E+00-7.54021E-03-1.02053E+00-5.17381E-14 2.66696E-13
 -1      3559 2.55459E+01 3.88095E-01-5.62138E-02-1.86320E+00 1.35971E-13-4.28324E-13
 -1      3560 2.54035E+01-5.32712E-01 1.36619E-02-1.52501E+00 2.11827E-14-4.60425E-13
 -1      3561 2.46404E+01 8.97693E-01 1.93416E-02-1.95268E+00 1.20189E-13-4.59128E-13
 -1      3562 1.34848E+01-3.67659E-01 1.46371E-01 4.74980E+00-3.95572E-13 4.63178E-13
 -1      3563 1.25591E+01 3.54207E-01 1.49844E-02 3.60443E+00-3.26031E-13 4.28949E-13
 -1      3564 1.52259E+01-9.50644E-01 2.22883E-02 4.77754E+00-4.17839E-13 2.51653E-13
 -1      3565 2.35194E+01 2.28341E+00-1.69292E-02-1.56028E+00 2.19935E-13-3.18004E-13
 -1      3566 1.38568E+01 2.05225E+00 6.56946E-02 3.22803E-02-6.20101E-14-5.73732E-13
 -1      3567 1.34678E+01 1.93062E+00 9.34218E-02-5.04643E-02-9.87034E-14 1.31182E-13
 -1      3568 2.42450E+01-2.88708E+00-1.45398E-02-1.10893E+00-1.31646E-13-4.88758E-15
 -1      3569 2.52587E+01-2.93429E+00 2.86526E-02-6.60012E-01-1.32336E-13 6.40980E-14
 -1      3570 2.50597E+01-2.29470E+00-6.68991E-02 2.25875E-01-4.74980E-14 9.89590E-14
 -1      3571 2.41330E+01-3.33322E+00 1.11048E-02 1.81515E+00-3.40431E-13-3.39419E-13
 -1      3572 2.35448E+01-3.63200E+00 4.10567E-02 2.83978E+00-4.24244E-13-3.28184E-13
 -1      3573 2.19222E+01-3.23319E+00-3.66526E-02 3.33627E+00-3.52218E-13-3.28496E-13
 -1      3574 1.95422E+01 1.77100E+00 6.11618E-03-8.06604E-01 3.84770E-14-3.69574E-13
 -1      3575 1.92856E+01 1.91503E+00-8.90043E-03-8.87394E-01 6.29602E-15-3.96809E-13
 -1      3576 2.23722E+01-1.13938E+00-7.34644E-03 5.78168E-01 2.83770E-14 7.58840E-14
 -1      3577 2.22601E+01-1.16339E+00 7.18400E-03 3.64222E-01 4.22574E-14 2.85089E-14
 -1      3578 2.28538E+01-1.25277E+00 5.98516E-03 5.93463E-01 1.11927E-14 8.13950E-14
 -1      3579 2.25972E+01-3.02395E+00 1.99308E-02-2.97067E+00-1.97196E-13-1.07316E-13
 -1      3580 2.29119E+01 1.72480E+00-7.07236E-03 1.42710E+00 1.87380E-13 9.93099E-14
 -1      3581 2.24356E+01 1.25548E+00 1.52364E-02 1.40690E+00 1.52131E-13 1.26929E-13
 -1      3582 2.25422E+01 6.54129E-01-2.21431E-02 1.52199E+00 1.22995E-13 1.48628E-13
 -1      3583 1.89564E+01 2.47024E+00 4.07815E-03-7.71553E-01-3.74971E-15-4.33677E-13
 -1      3584 1.54850E+01-3.73403E-01 7.65474E-02-4.35093E+00-3.33321E-13-4.95631E-13
 -1      3585 1.72171E+01-1.51912E+00-7.04333E-02-4.76167E+00-3.46279E-13-3.46497E-13
 -1      3586 2.15514E+01-7.91865E-01-7.56540E-03-1.38220E-01 2.93749E-14-7.83656E-14
 -1      3587 2.14150E+01-5.67054E-01 1.22043E-02-2.09466E-01 4.75603E-14-7.11640E-14
 -1      3588 2.13083E+01-4.80243E-01-8.67980E-03-3.79328E-01 3.51234E-14-1.38671E-13
 -1      3589 2.00028E+01-6.81123E-04-3.53428E-06-2.96869E-04 1.93319E-13 9.58069E-14
 -1      3590 2.00027E+01-6.64899E-04-3.98278E-06-7.12717E-04 1.89503E-13 9.53229E-14
 -1      3591 2.00030E+01-1.06540E-04 1.00312E-05-9.19974E-04 3.56945E-13-1.48756E-14
 -1      3592 1.89905E+01-1.56021E+00 5.44367E-02-4.12204E+00-2.83547E-13-3.19899E-13
 -1      3593 2.53604E+01-1.08952E+00 3.26532E-02 1.15510E+00 2.66488E-14 1.47840E-13
 -1      3594 2.58492E+01-4.08007E-01-3.78676E-02 1.59690E+00 4.20653E-14 1.97394E-13
 -1      3595 2.50462E+01 3.75125E-01-2.07443E-02 1.78245E+00 1.27249E-13 2.20865E-13
 -1      3596 2.00021E+01-8.02873E-04-1.01418E-07 2.05838E-03 1.18532E-13 4.48187E-13
 -1      3597 2.00023E+01-8.18174E-04-3.42919E-06 1.70527E-03 2.81755E-13 3.23583E-13
 -1      3598 2.00023E+01-4.05550E-04 5.78456E-06 2.12106E-03-7.82180E-14 3.64183E-13
 -1      3599 2.16980E+01-8.86009E-01-2.43464E-03 2.48162E-01 4.83768E-14 1.97743E-14
 -1      3600 2.00028E+01-7.12142E-04-2.73580E-06 5.62479E-04 2.00210E-13 1.32771E-13
 -1      3601 2.00028E+01-6.97860E-04-3.46062E-06 1.38433E-04 1.07535E-13 2.64736E-13
 -1      3602 2.00032E+01-1.10932E-04 9.96077E-06-9.07343E-05 3.09585E-13 1.06230E-13
 -1      3603 1.29880E+01 1.14916E+00 4.82180E-02-2.49756E+00-1.77447E-13-5.82645E-13
 -1      3604 1.40302E+01 3.31390E-01 1.19390E-02-3.73170E+00-2.62781E-13-5.53772E-13
 -1      3605 1.56930E+01 3.26051E-01 6.04398E-02-3.48340E+00-2.77519E-13-4.61260E-13
 -1      3606 1.89068E+01-2.55316E+00 6.89883E-03 4.79951E+00-4.80026E-13-1.17760E-13
 -1      3607 2.00156E+01 1.41788E+00 2.14234E-03-5.53138E-01 1.09107E-13-3.30031E-13
 -1      3608 1.97859E+01 1.57426E+00-4.00240E-03-6.89077E-01 6.34401E-14-3.56624E-13
 -1      3609 1.97540E+01 1.33474E+00-2.77476E-03-9.03152E-01 1.66908E-14-3.26208E-13
 -1      3610 2.26611E+01 9.24285E-02 8.52114E-03 1.45133E+00 6.85023E-14 1.66194E-13
 -1      3611 2.27001E+01-4.07571E-01-1.59799E-02 1.35190E+00 3.46125E-14 1.50273E-13
 -1      3612 2.31892E+01-7.80814E-01 6.06594E-03 1.17795E+00 3.33917E-14 1.55089E-13
 -1      3613 2.32102E+01 3.69865E-01 1.18178E-02 1.57061E+00 1.05953E-13 1.36237E-13
 -1      3614 1.34071E+01 1.82276E+00 2.35105E-02-6.30397E-01-8.20125E-14-5.80230E-13
 -1      3615 1.30996E+01 1.55594E+00 8.08418E-02-1.77875E+00-1.43694E-13-5.73666E-13
 -1      3616 1.44702E+01 1.41063E+00 3.33534E-02-2.05252E+00-1.51200E-13-5.11811E-13
 -1      3617 1.45761E+01 1.92376E+00-1.41793E-02-8.33075E-01-1.03416E-13-5.07467E-13
 -1      3618 2.00027E+01-1.72653E-04 1.03177E-05-1.57995E-03 1.19961E-13 1.64768E-13
 -1      3619 2.00022E+01-7.05997E-04-2.04373E-06-1.78154E-03 1.14243E-13 2.06528E-13
 -1      3620 2.00020E+01-7.01111E-04-4.34540E-06-2.01165E-03 1.31955E-13 2.82117E-13
 -1      3621 2.00025E+01-7.61760E-04-7.72943E-07 1.34419E-03 4.48477E-13 2.02743E-13
 -1      3622 2.00027E+01-7.57239E-04-3.29585E-06 9.38011E-04 2.92499E-13 1.74768E-13
 -1      3623 2.00031E+01-1.81200E-04 8.18642E-06 6.94336E-04 2.66749E-13 2.98531E-13
 -1      3624 2.00028E+01-2.88806E-04 6.17065E-06 1.40477E-03 1.92495E-13 6.66532E-14
 -1      3625 1.12257E+01 9.84838E-01 1.73693E-01-2.37391E+00 9.80327E-14 5.66117E-13
 -1      3626 1.07199E+01 1.05202E+00 5.20269E-02-1.39185E+00-1.97758E-16 3.00926E-13
 -1      3627 1.10169E+01 1.64896E+00 1.83356E-01-2.76865E-02-7.23904E-14 1.54002E-13
 -1      3628 2.52902E+01-1.76030E+00-6.93712E-02-8.22914E-01-6.30446E-14-4.05627E-13
 -1      3629 2.49791E+01-2.54506E+00 1.72740E-02 1.68526E-01-1.53048E-13-3.73305E-13
 -1      3630 1.13981E+01 1.29026E+00 2.99035E-02 1.37540E+00-1.41877E-13 2.28310E-13
 -1      3631 1.63196E+01 2.04500E+00-1.97034E-03-6.24654E-01-1.42326E-13-4.28536E-13
 -1      3632 1.54845E+01 1.93880E+00-1.68256E-02-8.06835E-01-1.19385E-13-4.67933E-13
 -1      3633 2.29960E+01-1.65393E+00 1.07941E-02-4.02272E-01-1.96335E-13-1.37453E-13
 -1      3634 2.32327E+01-1.48509E+00-5.79030E-03-7.31057E-01-9.06508E-14-2.18564E-13
 -1      3635 2.03491E+01 1.17393E+00-4.63850E-04-2.47956E-01 1.50564E-13-2.79627E-13
 -1      3636 2.01676E+01 1.33028E+00-8.30356E-04-3.94959E-01 1.29843E-13-3.08542E-13
 -1      3637 2.01972E+01 1.06702E+00 1.26449E-03-6.16080E-01 8.82139E-14-2.90936E-13
 -1      3638 2.04828E+01 9.12910E-01 4.02891E-03-3.06665E-01 1.48311E-13-2.36815E-13
 -1      3639 1.64839E+01 1.62727E+00-2.32027E-02 1.84882E-01-2.10239E-13-1.10053E-13
 -1      3640 1.70977E+01 1.55165E+00-7.75613E-03 7.37825E-02-1.83098E-13-2.02949E-13
 -1      3641 1.75439E+01 1.44995E+00-1.76207E-02-8.00827E-02-1.24879E-13-9.70554E-14
 -1      3642 1.79724E+01 1.34504E+00-5.63105E-03-1.38009E-01-3.58307E-14-2.99598E-14
 -1      3643 1.73566E+01 1.42835E+00 2.12337E-02 4.14981E-01-1.30741E-13-1.27034E-13
 -1      3644 1.82952E+01 1.23003E+00-1.19369E-02-2.28010E-01-3.37407E-14 3.98670E-14
 -1      3645 1.85917E+01 1.12049E+00-4.19563E-03-2.48071E-01-7.58120E-14-2.94461E-15
 -1      3646 1.81130E+01 1.25521E+00 1.49798E-02 1.12493E-01-2.68978E-14 1.80942E-13
 -1      3647 1.88256E+01 1.01020E+00-7.82374E-03-2.93492E-01-1.50312E-13-7.78758E-14
 -1      3648 1.90292E+01 9.08544E-01-3.32857E-03-2.89116E-01-8.11415E-14-1.06053E-13
 -1      3649 1.86618E+01 1.06057E+00 1.08432E-02-6.21987E-02-1.03412E-13 1.25219E-14
 -1      3650 1.91982E+01 8.11101E-01-5.00400E-03-3.05710E-01-7.82132E-14-7.40851E-14
 -1      3651 1.93365E+01 7.22817E-01-2.71686E-03-2.87515E-01-3.10788E-14-7.45263E-14
 -1      3652 1.90587E+01 8.71581E-01 7.83071E-03-1.50971E-01-3.97406E-14-1.46957E-13
 -1      3653 1.94580E+01 6.40837E-01-3.09778E-03-2.86785E-01-1.54720E-13-8.37370E-14
 -1      3654 1.95510E+01 5.67209E-01-2.22083E-03-2.62285E-01-2.30880E-13-5.99820E-14
 -1      3655 1.93437E+01 7.02023E-01 5.60538E-03-1.85090E-01-7.73767E-14-8.12107E-14
 -1      3656 1.96377E+01 5.00321E-01-1.83345E-03-2.52170E-01-9.33836E-14-2.32217E-14
 -1      3657 1.96995E+01 4.40482E-01-1.79678E-03-2.26190E-01-2.47766E-14 6.52977E-14
 -1      3658 1.95470E+01 5.57007E-01 3.97485E-03-1.86640E-01-1.03113E-13-1.52362E-13
 -1      3659 1.97610E+01 3.86973E-01-1.01711E-03-2.11875E-01-1.07080E-13-2.14082E-14
 -1      3660 1.98017E+01 3.39156E-01-1.43423E-03-1.87222E-01-7.31123E-14-8.91286E-14
 -1      3661 1.96908E+01 4.36735E-01 2.79432E-03-1.70572E-01-1.17723E-13-1.61661E-13
 -1      3662 1.98450E+01 2.96897E-01-5.07458E-04-1.71893E-01-5.34053E-14-1.74903E-13
 -1      3663 1.98714E+01 2.59120E-01-1.12955E-03-1.49990E-01-8.79567E-14-1.43823E-13
 -1      3664 1.97918E+01 3.39014E-01 1.94930E-03-1.46531E-01-4.42818E-14-3.28932E-13
 -1      3665 1.99018E+01 2.26036E-01-2.02700E-04-1.35452E-01-4.63035E-14-9.21671E-14
 -1      3666 1.99187E+01 1.96443E-01-8.75458E-04-1.16845E-01 6.25771E-14 3.32686E-14
 -1      3667 1.98623E+01 2.60746E-01 1.35133E-03-1.20387E-01 4.25464E-14-2.99817E-13
 -1      3668 1.99398E+01 1.70673E-01-4.13890E-05-1.03992E-01 3.21047E-14 7.72296E-14
 -1      3669 1.99505E+01 1.47631E-01-6.83876E-04-8.86901E-02-6.19573E-14 1.63242E-13
 -1      3670 1.99111E+01 1.98742E-01 9.38909E-04-9.54495E-02 8.20673E-14 4.76441E-14
 -1      3671 1.99656E+01 1.26790E-01 5.19707E-05-7.73221E-02-1.35069E-13 2.48365E-13
 -1      3672 1.99724E+01 1.08276E-01-5.16565E-04-6.46114E-02-7.12112E-14 2.04199E-13
 -1      3673 1.99453E+01 1.48970E-01 6.45803E-04-7.28762E-02-5.57903E-14 1.86261E-13
 -1      3674 1.99821E+01 9.31795E-02 9.34050E-05-5.59411E-02-6.29184E-14 2.18147E-13
 -1      3675 1.99858E+01 7.96893E-02-3.78686E-04-4.65013E-02 1.44368E-14 2.04362E-13
 -1      3676 1.99682E+01 1.10331E-01 4.27368E-04-5.39640E-02-7.71921E-14 2.30203E-13
 -1      3677 1.99923E+01 6.81531E-02 1.09158E-04-3.96601E-02 2.17381E-14 1.27513E-13
 -1      3678 1.99944E+01 5.78524E-02-2.81135E-04-3.24451E-02-5.23992E-14-4.31658E-14
 -1      3679 1.99830E+01 8.13040E-02 2.81851E-04-3.90699E-02-5.62598E-15 1.08011E-13
 -1      3680 1.99986E+01 4.91112E-02 1.03416E-04-2.71998E-02-6.90903E-14-7.09441E-14
 -1      3681 1.99996E+01 4.13282E-02-2.05019E-04-2.17966E-02-1.26007E-13 8.16737E-14
 -1      3682 1.99925E+01 5.90663E-02 1.85274E-04-2.73699E-02-4.89293E-14-1.11656E-13
 -1      3683 2.00022E+01 3.47651E-02 9.05547E-05-1.78737E-02-1.94266E-13 1.22149E-14
 -1      3684 2.00026E+01 2.89460E-02-1.46929E-04-1.39120E-02-1.73171E-13 1.53286E-13
 -1      3685 1.99985E+01 4.21844E-02 1.19290E-04-1.84259E-02-9.63995E-14-9.96029E-14
 -1      3686 2.00041E+01 2.40729E-02 7.53210E-05-1.10510E-02-1.06521E-13 3.10131E-13
 -1      3687 2.00041E+01 1.97757E-02-1.03153E-04-8.21215E-03 1.53087E-13 2.70189E-13
 -1      3688 2.00021E+01 2.95093E-02 7.43367E-05-1.17618E-02-2.66161E-14 4.90141E-14
 -1      3689 2.00049E+01 1.62044E-02 6.02794E-05-6.18162E-03 1.85239E-13 1.35738E-13
 -1      3690 2.00046E+01 1.30764E-02-7.04460E-05-4.20029E-03 2.76366E-13 1.99396E-14
 -1      3691 2.00040E+01 2.01124E-02 4.40457E-05-6.92399E-03 1.81541E-14 1.99421E-13
 -1      3692 2.00049E+01 1.04980E-02 4.67772E-05-2.80269E-03 2.42519E-13-7.50770E-14
 -1      3693 2.00046E+01 8.25505E-03-4.69136E-05-1.46351E-03 8.63008E-14-1.35951E-13
 -1      3694 2.00047E+01 1.32471E-02 2.42817E-05-3.50987E-03 1.63861E-13-1.88967E-13
 -1      3695 2.00046E+01 6.42210E-03 3.49420E-05-5.41084E-04 7.36054E-15-1.69807E-13
 -1      3696 2.00042E+01 4.84379E-03-2.96594E-05 3.23927E-04 8.03870E-14-1.87703E-13
 -1      3697 2.00048E+01 8.30591E-03 1.09477E-05-1.17763E-03-1.24598E-14-4.61447E-13
 -1      3698 2.00040E+01 3.56278E-03 2.57014E-05 9.04107E-04 8.39601E-14-6.18211E-15
 -1      3699 2.00036E+01 2.46402E-03-1.71792E-05 1.42736E-03 1.07250E-13-1.35188E-14
 -1      3700 2.00044E+01 4.80830E-03 1.27106E-06 3.44185E-04 1.40469E-13-2.11827E-13
 -1      3701 2.00033E+01 1.56972E-03 1.75250E-05 1.75767E-03-2.43114E-14 2.39988E-13
 -1      3702 2.00029E+01 8.26509E-04-4.05960E-06 2.02778E-03-4.49847E-14 4.73354E-13
 -1      3703 2.00038E+01 2.36719E-03-2.32197E-06 1.28344E-03 3.03365E-13-6.78917E-14
 -1      3704 2.00027E+01 4.16780E-04 8.02000E-06 2.09059E-03-1.35713E-13 3.72747E-13
 -1      3705 2.00025E+01-4.06130E-05 8.10749E-07 2.11465E-03-1.24191E-13 3.66699E-13
 -1      3706 2.00028E+01 1.37686E-05-7.15470E-06 1.75732E-03-9.81796E-14 1.16521E-13
 -1      3707 2.00033E+01 9.13255E-04-4.55047E-06 1.68032E-03-1.08560E-13 1.48283E-13
 -1      3708 1.91933E+01 1.72526E+00-1.85172E-04-1.05809E+00-1.29423E-14-3.87310E-13
 -1      3709 1.90417E+01 2.13249E+00 7.72201E-03-9.15770E-01-7.53998E-15-4.17620E-13
 -1      3710 1.88114E+01 2.24137E+00-1.39619E-02-9.10095E-01-3.12476E-14-4.16254E-13
 -1      3711 2.29757E+01 3.35124E+00-2.99773E-02 4.24594E-01 3.17326E-13-1.34971E-13
 -1      3712 2.30861E+01 2.99286E+00-2.09428E-02 1.00255E+00 2.82958E-13-1.93586E-14
 -1      3713 1.28184E+01 1.55876E+00 1.16808E-03 1.02152E+00-1.19880E-13 1.94653E-13
 -1      3714 1.40966E+01 1.66574E+00-7.17217E-03 8.53236E-01-1.04175E-13 1.43767E-13
 -1      3715 1.27704E+01 1.23709E+00 1.27081E-01 2.38396E+00-1.53999E-13 2.80595E-13
 -1      3716 2.37830E+01-1.43764E+00-5.71201E-03-9.33370E-01-4.61714E-14-3.27102E-13
 -1      3717 2.39384E+01-9.39102E-01-4.86130E-03-1.23452E+00-4.12344E-15-3.71372E-13
 -1      3718 2.38100E+01-6.70858E-02-4.01172E-02-1.75624E+00 5.08189E-14-4.16833E-13
 -1      3719 2.37440E+01 7.30714E-01-2.10799E-02-1.78004E+00 1.02886E-13-4.09339E-13
 -1      3720 2.22644E+01-1.62595E+00 1.76711E-02 1.69677E-01-2.52307E-13-7.50396E-14
 -1      3721 2.25298E+01-1.69525E+00-9.45182E-03-7.88210E-02-2.26333E-13-1.27618E-13
 -1      3722 2.29550E+01-1.89180E+00 5.73041E-03 5.43081E-02-2.34221E-13-1.62713E-13
 -1      3723 2.15496E+01-1.31302E+00 1.57803E-02 5.19803E-01-2.77946E-13 7.29357E-14
 -1      3724 2.18112E+01-1.49443E+00-6.94108E-03 3.72632E-01-2.84147E-13 8.17217E-15
 -1      3725 2.20646E+01-1.74123E+00-1.37196E-02 5.75109E-01-3.39219E-13-1.35717E-13
 -1      3726 2.09651E+01-9.25387E-01 1.11912E-02 6.72999E-01-1.13727E-13 1.74584E-13
 -1      3727 2.11922E+01-1.12611E+00-2.34432E-03 6.04625E-01-1.68152E-13 1.12375E-13
 -1      3728 2.12882E+01-1.33702E+00-1.96812E-02 8.17907E-01-2.66532E-13-2.61646E-14
 -1      3729 2.05395E+01-5.68336E-01 7.58554E-03 6.95600E-01-7.33293E-14 2.06070E-13
 -1      3730 2.07136E+01-7.43378E-01 6.94188E-04 6.78910E-01-3.92408E-14 1.77033E-13
 -1      3731 2.07153E+01-8.81229E-01-1.35441E-02 8.71050E-01-5.74816E-14 1.42180E-13
 -1      3732 2.02517E+01-2.82893E-01 4.47196E-03 6.46577E-01-5.54242E-14 1.57953E-13
 -1      3733 2.03747E+01-4.17187E-01 2.01005E-03 6.61312E-01-2.80433E-14 1.63114E-13
 -1      3734 2.03281E+01-4.98849E-01-9.37059E-03 8.14264E-01-2.37764E-14 1.83194E-13
 -1      3735 2.00734E+01-7.82724E-02 2.33460E-03 5.64416E-01-1.27109E-13 1.36512E-13
 -1      3736 2.01541E+01-1.71352E-01 2.40754E-03 5.94982E-01-9.98787E-14 1.70304E-13
 -1      3737 2.00841E+01-2.09953E-01-6.40909E-03 7.06821E-01-6.34189E-14 1.30881E-13
 -1      3738 1.99734E+01 5.45496E-02 9.53875E-04 4.73084E-01-2.08473E-13 1.37135E-13
 -1      3739 2.00224E+01-3.72527E-03 2.25923E-03 5.09573E-01-1.42934E-13 1.23126E-13
 -1      3740 1.99464E+01-1.30580E-02-4.09752E-03 5.86634E-01-1.55619E-13 1.89060E-13
 -1      3741 1.99256E+01 1.30758E-01 1.21479E-04 3.85240E-01-6.00474E-14 1.88256E-13
 -1      3742 1.99526E+01 9.90852E-02 1.90294E-03 4.21914E-01-1.93861E-13 1.66649E-13
 -1      3743 1.98802E+01 1.08191E-01-2.41867E-03 4.72427E-01-2.14535E-13 3.50346E-14
 -1      3744 1.99103E+01 1.65966E-01-3.35807E-04 3.06827E-01 1.22121E-15 1.71799E-13
 -1      3745 1.99230E+01 1.53058E-01 1.50564E-03 3.40682E-01 4.64272E-14 1.36366E-13
 -1      3746 1.98589E+01 1.72559E-01-1.28184E-03 3.72266E-01-1.43224E-14 7.39590E-14
 -1      3747 1.99133E+01 1.73701E-01-5.50493E-04 2.39915E-01-8.82664E-14 2.34019E-13
 -1      3748 1.99174E+01 1.73031E-01 1.14820E-03 2.69616E-01-1.74742E-14 2.13949E-13
 -1      3749 1.98634E+01 1.97323E-01-5.57510E-04 2.88448E-01-6.14671E-15 6.37941E-14
 -1      3750 1.99253E+01 1.64571E-01-6.16784E-04 1.84517E-01-1.37833E-13 3.34371E-13
 -1      3751 1.99247E+01 1.71157E-01 8.57861E-04 2.09686E-01-1.30524E-13 2.26623E-13
 -1      3752 1.98809E+01 1.96558E-01-1.26380E-04 2.20366E-01-1.18476E-13 1.88734E-14
 -1      3753 1.99405E+01 1.46323E-01-5.98337E-04 1.39659E-01 2.98601E-14 1.95087E-13
 -1      3754 1.99378E+01 1.56608E-01 6.35081E-04 1.60443E-01-1.74534E-14 2.89106E-13
 -1      3755 1.99033E+01 1.80853E-01 1.06910E-04 1.66179E-01-6.43905E-14 1.36567E-13
 -1      3756 1.99557E+01 1.24257E-01-5.36004E-04 1.03982E-01 1.01964E-13 1.51203E-13
 -1      3757 1.99523E+01 1.35855E-01 4.69496E-04 1.20785E-01 9.73121E-14 1.76137E-13
 -1      3758 1.99258E+01 1.57691E-01 2.13456E-04 1.23697E-01 1.26939E-13 5.23797E-14
 -1      3759 1.99691E+01 1.01766E-01-4.55819E-04 7.60427E-02-2.20619E-14 5.97615E-14
 -1      3760 1.99659E+01 1.13192E-01 3.48329E-04 8.93801E-02 7.27690E-14 8.05847E-14
 -1      3761 1.99461E+01 1.32049E-01 2.43672E-04 9.07965E-02 1.49850E-13 2.10556E-13
 -1      3762 1.99800E+01 8.08278E-02-3.72929E-04 5.44821E-02 9.78526E-14 6.07953E-14
 -1      3763 1.99773E+01 9.12448E-02 2.60275E-04 6.48865E-02-5.90085E-14 2.05266E-14
 -1      3764 1.99630E+01 1.07005E-01 2.31944E-04 6.55906E-02 1.33871E-14 9.73459E-14
 -1      3765 1.99884E+01 6.24519E-02-2.95530E-04 3.80866E-02 6.20556E-14 1.59719E-13
 -1      3766 1.99864E+01 7.14619E-02 1.95761E-04 4.60666E-02 1.57068E-13 1.79503E-13
 -1      3767 1.99763E+01 8.42750E-02 1.99828E-04 4.64892E-02 2.32109E-14 2.35348E-13
 -1      3768 1.99945E+01 4.70035E-02-2.27713E-04 2.58081E-02 1.01278E-13 2.90079E-13
 -1      3769 1.99931E+01 5.44943E-02 1.48110E-04 3.18234E-02 6.48096E-14 1.94963E-13
 -1      3770 1.99863E+01 6.46595E-02 1.60894E-04 3.21788E-02 7.06390E-14 5.15157E-13
 -1      3771 1.99987E+01 3.44527E-02-1.70867E-04 1.67644E-02-1.24314E-13 4.75527E-13
 -1      3772 1.99978E+01 4.04834E-02 1.12427E-04 2.12159E-02 4.39290E-14 2.99445E-13
 -1      3773 1.99934E+01 4.83667E-02 1.22766E-04 2.15927E-02 4.75835E-15 2.87616E-13
 -1      3774 2.00013E+01 2.45488E-02-1.24820E-04 1.02269E-02-6.44038E-14 6.35581E-13
 -1      3775 2.00009E+01 2.92702E-02 8.53160E-05 1.34547E-02-1.20073E-13 5.53869E-13
 -1      3776 1.99983E+01 3.52500E-02 8.92011E-05 1.38750E-02-1.15879E-13 5.17077E-13
 -1      3777 2.00029E+01 1.69355E-02-8.86179E-05 5.60323E-03 4.35075E-14 5.29074E-13
 -1      3778 2.00027E+01 2.05388E-02 6.44811E-05 7.88967E-03 3.43510E-14 6.47714E-13
 -1      3779 2.00013E+01 2.49737E-02 6.16354E-05 8.34423E-03-4.17915E-15 5.00964E-13
 -1      3780 2.00035E+01 1.12250E-02-6.09217E-05 2.41950E-03 8.89642E-14 3.73102E-13
 -1      3781 2.00036E+01 1.39093E-02 4.83521E-05 3.99372E-03 1.37146E-13 4.98273E-13
 -1      3782 2.00031E+01 1.71206E-02 4.01176E-05 4.46255E-03 1.34386E-13 4.22403E-13
 -1      3783 2.00037E+01 7.04109E-03-4.04483E-05 3.02243E-04-6.41937E-14 3.62910E-13
 -1      3784 2.00039E+01 8.99497E-03 3.58281E-05 1.34685E-03-4.92565E-14 2.35004E-13
 -1      3785 2.00039E+01 1.12591E-02 2.40471E-05 1.80959E-03 1.31519E-13 3.36885E-13
 -1      3786 2.00034E+01 4.04441E-03-2.40979E-05-1.03702E-03 1.30002E-14 2.07724E-13
 -1      3787 2.00037E+01 5.43411E-03 2.61683E-05-3.80597E-04-1.03428E-13 2.55296E-13
 -1      3788 2.00040E+01 6.97909E-03 1.15708E-05 5.83919E-05-6.38164E-14 2.79364E-13
 -1      3789 2.00030E+01 1.91495E-03-1.22047E-05-1.82214E-03 4.32192E-14 2.95306E-13
 -1      3790 2.00033E+01 2.89538E-03 1.61023E-05-1.45094E-03 1.80960E-13 3.87410E-13
 -1      3791 2.00037E+01 3.92909E-03 5.61556E-06-1.04224E-03-4.79714E-15 3.24193E-13
 -1      3792 2.00024E+01 4.44534E-04-3.63457E-06-2.20705E-03 2.59297E-13-5.75447E-15
 -1      3793 2.00027E+01 1.11877E-03 9.80776E-06-2.02484E-03 6.15927E-14 1.23063E-13
 -1      3794 2.00032E+01 1.74873E-03-2.35105E-06-1.65890E-03 2.34688E-13 1.63197E-13
 -1      3795 1.95865E+01-2.16165E+00 3.76610E-03 4.00700E+00-4.78904E-13-2.45670E-13
 -1      3796 1.76088E+01-1.47992E+00 9.21689E-02 4.66187E+00-4.20336E-13-5.21484E-14
 -1      3797 2.36573E+01 1.49524E+00-4.86883E-02-1.87975E+00 1.60746E-13-3.93361E-13
 -1      3798 1.86313E+01 2.43494E+00 6.32684E-03-8.22147E-01-4.86057E-14-4.30892E-13
 -1      3799 1.84945E+01 2.48441E+00-1.53662E-02-7.24313E-01-8.33964E-14-4.53304E-13
 -1      3800 1.86976E+01 2.11110E+00 1.12548E-02-9.93917E-01-5.89690E-14-4.01743E-13
 -1      3801 1.55921E+01 9.16277E-01 1.86996E-02-2.75788E+00-2.20238E-13-4.34323E-13
 -1      3802 1.66106E+01 8.93919E-02-4.48396E-02-3.43365E+00-2.87127E-13-3.89855E-13
 -1      3803 2.17663E+01-2.38430E+00 6.61571E-02-3.07569E+00-2.11059E-13-1.11368E-13
 -1      3804 2.29091E+01-2.83195E+00-4.41172E-02-2.20767E+00-1.89017E-13-1.02704E-14
 -1      3805 2.29906E+01 3.27527E+00-1.77323E-02-2.02911E-01 2.60639E-13-1.63022E-13
 -1      3806 2.19708E+01-1.10452E+00-9.89797E-03 1.37806E-01 6.20778E-14-3.82532E-14
 -1      3807 2.18323E+01-9.67553E-01 1.17765E-02-1.58556E-02 3.41756E-14-4.11826E-14
 -1      3808 2.17910E+01-9.88590E-01-8.87349E-03-2.61272E-01 2.89253E-14-9.52929E-14
 -1      3809 2.23415E+01-1.30399E+00-4.92715E-03 6.81381E-02 1.46944E-14-1.71326E-14
 -1      3810 2.45043E+01 1.90653E+00-7.09792E-03 1.81244E+00 2.47420E-13 1.87882E-13
 -1      3811 2.44241E+01 2.81837E+00-6.85710E-02 1.67547E+00 3.00201E-13 1.54514E-13
 -1      3812 1.75019E+01 2.21566E+00 8.69390E-03-3.45235E-01-1.38246E-13-3.85972E-13
 -1      3813 1.68766E+01 2.12213E+00-2.40589E-02-4.20100E-01-1.32506E-13-4.04536E-13
 -1      3814 1.67742E+01 1.99478E+00 2.91460E-02-1.03790E+00-1.56372E-13-3.83339E-13
 -1      3815 2.36291E+01 2.95253E+00-1.43413E-02 1.30064E+00 2.97958E-13 1.66958E-14
 -1      3816 2.32390E+01 2.42638E+00 1.81572E-02 1.39518E+00 2.48978E-13 3.50295E-14
 -1      3817 2.00015E+01-8.41389E-04 2.97973E-06-2.38401E-03 2.02251E-13 9.47206E-14
 -1      3818 1.82526E+01-6.89358E-01 4.98306E-02-3.71366E+00-2.82967E-13-3.69524E-13
 -1      3819 1.99962E+01-1.89863E+00-6.79327E-02-3.66415E+00-2.35339E-13-2.76683E-13
 -1      3820 1.49813E+01 1.70347E+00-2.52197E-02 5.66749E-01-1.65005E-13 9.65998E-14
 -1      3821 1.58714E+01 1.68991E+00-1.00799E-02 3.93187E-01-1.87060E-13-1.87237E-14
 -1      3822 1.63265E+01 1.53856E+00 3.38486E-02 8.65037E-01-2.24636E-13-2.95337E-14
 -1      3823 1.48898E+01 1.55328E+00 7.07403E-02 1.50002E+00-1.70719E-13 1.55089E-13
 -1      3824 2.33542E+01 1.56613E+00-4.24321E-02 1.62348E+00 2.16127E-13 1.03013E-13
 -1      3825 2.46042E+01 7.88067E-01-3.94819E-02 1.84729E+00 1.67138E-13 1.89777E-13
 -1      3826 2.38588E+01 1.35373E+00-5.98313E-03 1.72408E+00 1.86301E-13 1.10909E-13
 -1      3827 2.35620E+01 7.90002E-01 1.98678E-02 1.69614E+00 1.67727E-13 9.47549E-14
 -1      3828 2.43719E+01-1.28412E-02-4.78362E-03 1.60214E+00 9.64237E-14 1.65936E-13
 -1      3829 2.47550E+01-9.91414E-01 2.14207E-02-1.26113E+00-2.17075E-14-4.15668E-13
 -1      3830 1.62340E+01-7.58677E-01-1.54451E-02 4.16665E+00-4.12691E-13 1.03506E-13
 -1      3831 2.39492E+01-1.95678E+00-2.15952E-02-4.04945E-01-1.64499E-13-2.87501E-13
 -1      3832 2.32966E+01-1.56386E+00-2.66288E-03 4.59036E-01-2.22743E-14 8.20286E-14
 -1      3833 2.30943E+01-1.64811E+00 5.30986E-03 1.71871E-01-4.52711E-14 4.82947E-14
 -1      3834 2.36054E+01-2.69450E+00 3.65952E-02-1.49201E+00-1.93317E-13-4.92505E-14
 -1      3835 2.38060E+01-2.40935E+00-8.63995E-03-6.88048E-01-1.41610E-13 2.62472E-14
 -1      3836 2.26657E+01-2.34426E+00-1.65649E-02-1.74601E+00-1.77750E-13-3.40631E-14
 -1      3837 1.80495E+01-6.48745E-02 3.19359E-02-3.12667E+00-2.42239E-13-3.74181E-13
 -1      3838 1.38932E+01 7.13475E-01 1.63673E-02 2.96995E+00-2.42665E-13 3.23699E-13
 -1      3839 2.00022E+01-6.15683E-05 8.48122E-06-2.18386E-03 3.36693E-13 4.16228E-14
 -1      3840 2.00027E+01 3.01018E-04-6.84665E-06-1.87106E-03 2.31914E-13 2.43779E-14
 -1      3841 2.08688E+01-2.42788E+00 5.43558E-02 3.48208E+00-4.21142E-13-3.61043E-13
 -1      3842 1.93596E+01-1.72370E+00-3.55588E-02 3.51697E+00-4.11542E-13-2.36616E-13
 -1      3843 2.00020E+01-4.06774E-04 6.39545E-07-2.23168E-03 3.04708E-13 1.01453E-13
 -1      3844 2.08765E+01-1.67732E+00 2.26440E-02-2.89456E+00-2.16366E-13-1.94563E-13
 -1      3845 1.53286E+01 1.47664E+00 1.76240E-02-2.00990E+00-1.75460E-13-4.65841E-13
 -1      3846 1.63648E+01 1.35518E+00 1.56731E-02-1.99824E+00-1.96536E-13-3.83381E-13
 -1      3847 2.17199E+01-2.64569E+00 1.21577E-02 2.84825E+00-4.41084E-13-3.86823E-13
 -1      3848 2.13803E+01-6.21019E-01-4.52021E-03-5.99668E-01-6.82738E-15-1.32456E-13
 -1      3849 2.11773E+01-2.95017E-01 1.12737E-02-5.91828E-01 2.12543E-14-1.49196E-13
 -1      3850 1.94040E+01 1.32569E+00 1.18082E-02-1.23949E+00-3.24159E-14-3.39105E-13
 -1      3851 1.90506E+01 1.49736E+00-1.32770E-02-1.27772E+00-7.24435E-14-3.65912E-13
 -1      3852 2.00031E+01 4.49716E-04-1.05307E-05-1.38335E-03 2.00129E-13 1.26547E-13
 -1      3853 2.00029E+01 4.13196E-04-3.66793E-06-1.62319E-03 2.05662E-13 1.39494E-13
 -1      3854 2.00031E+01 1.04428E-03 1.24423E-05-1.65161E-03 3.03015E-13 1.01154E-15
 -1      3855 2.00035E+01 5.43595E-04-1.01046E-05-6.29513E-04 3.52217E-13-1.28069E-13
 -1      3856 2.00033E+01 5.29429E-04-6.11143E-06-1.00493E-03 2.99765E-13 3.45308E-14
 -1      3857 2.00036E+01 1.24504E-03 2.61980E-05-1.07287E-03 3.12592E-13 2.06128E-13
 -1      3858 1.77956E+01 2.25648E+00-5.19819E-03-5.71893E-01-1.32624E-13-3.95904E-13
 -1      3859 2.06047E+01 6.27931E-01-1.01774E-03-3.88130E-01 1.35714E-13-2.28259E-13
 -1      3860 2.09730E+01-1.79435E-01-1.05616E-02-7.83432E-01 2.74629E-14-1.57826E-13
 -1      3861 2.09679E+01-4.39531E-02-2.02570E-03-5.57380E-01 6.27442E-14-1.57932E-13
 -1      3862 2.08366E+01 2.20001E-01 7.29578E-03-5.14002E-01 1.03529E-13-1.76518E-13
 -1      3863 1.83771E+01 2.38693E+00 1.44881E-02-6.38985E-01-8.51591E-14-4.25713E-13
 -1      3864 2.00035E+01 5.31998E-04-8.25870E-06 1.69180E-04 2.78825E-13 1.72445E-13
 -1      3865 2.00035E+01 5.36909E-04-1.12815E-05-2.22490E-04 2.35153E-13-2.15099E-14
 -1      3866 2.00039E+01 1.32341E-03 3.71753E-05-3.60100E-04 6.71807E-14-1.40353E-13
 -1      3867 2.00034E+01 4.16258E-04-3.87972E-06 8.61715E-04 7.88551E-14 5.81163E-14
 -1      3868 2.00035E+01 4.51799E-04-8.82208E-06 5.18500E-04 1.06652E-13 1.37454E-13
 -1      3869 2.00039E+01 1.26089E-03 3.44436E-05 3.41309E-04-5.62858E-15-9.82064E-14
 -1      3870 2.00429E+01 9.04651E-01 6.39609E-03-1.01391E+00 1.40783E-14-2.91495E-13
 -1      3871 1.97308E+01 1.08318E+00-4.79894E-03-1.13597E+00-1.13186E-14-3.16949E-13
 -1      3872 1.96319E+01 8.59050E-01-5.70348E-03-1.37316E+00-3.47565E-14-3.09527E-13
 -1      3873 2.39099E+01-9.71455E-01-8.65332E-03 1.15649E+00 2.18566E-14 1.50849E-13
 -1      3874 2.42107E+01-1.43236E+00-7.41985E-03 7.55167E-01-8.52790E-15 1.33035E-13
 -1      3875 1.79086E+01 2.15782E+00 1.18219E-03-8.55686E-01-8.96395E-14-3.90552E-13
 -1      3876 2.42740E+01-2.38071E+00 2.69180E-02 1.89681E-01-2.30223E-13-2.85646E-13
 -1      3877 2.43669E+01-3.08022E+00-3.49347E-02 1.02915E+00-3.03334E-13-2.76383E-13
 -1      3878 1.82842E+01 1.89461E+00-1.95625E-02-1.17517E+00-9.95913E-14-4.02232E-13
 -1      3879 1.77140E+01 1.83392E+00 1.36516E-03-1.17931E+00-1.18156E-13-3.89045E-13
 -1      3880 2.33116E+01-3.04909E+00-1.94124E-02 1.77696E+00-3.31679E-13-2.75704E-13
 -1      3881 2.39899E+01-3.69715E-01 4.67312E-03 1.48314E+00 6.75241E-14 1.57535E-13
 -1      3882 2.05652E+01 5.40867E-01-2.67271E-03-6.11470E-01 9.16004E-14-2.37007E-13
 -1      3883 2.04143E+01 6.20350E-01-1.23171E-03-7.72058E-01 5.24051E-14-2.45886E-13
 -1      3884 2.47748E+01-1.66694E+00-2.59167E-02 6.68359E-01 5.08014E-15 1.16967E-13
 -1      3885 1.72340E+01 1.19670E+00-2.24947E-02 8.58910E-01-1.87959E-13-6.75913E-14
 -1      3886 1.77070E+01 1.17970E+00 2.23846E-03 6.40869E-01-7.72607E-14-7.44370E-15
 -1      3887 1.79702E+01 1.12661E+00-1.62674E-02 4.31638E-01-7.04048E-15 7.02948E-15
 -1      3888 1.83140E+01 1.07215E+00 8.88895E-04 2.97309E-01-7.10055E-15 4.41708E-14
 -1      3889 1.80139E+01 9.98420E-01 1.05422E-02 8.25816E-01-5.04344E-14-2.83749E-14
 -1      3890 1.85240E+01 9.98283E-01-1.11492E-02 1.64993E-01-1.21242E-13-2.73365E-14
 -1      3891 1.87723E+01 9.28370E-01-4.07577E-05 8.83522E-02-1.25923E-13-5.51531E-14
 -1      3892 1.85023E+01 9.44113E-01 8.48748E-03 4.49357E-01-8.76289E-14-1.75264E-13
 -1      3893 1.89364E+01 8.50113E-01-7.62844E-03 8.49083E-03-1.35565E-13-8.04679E-14
 -1      3894 1.91147E+01 7.78234E-01-6.10550E-04-3.00586E-02-7.70770E-15-1.12747E-13
 -1      3895 1.88862E+01 8.40349E-01 6.73761E-03 2.11194E-01-1.87721E-13-1.05524E-13
 -1      3896 1.92411E+01 7.04400E-01-5.13572E-03-7.47238E-02-4.44191E-14-2.31471E-13
 -1      3897 1.93680E+01 6.37488E-01-9.02206E-04-8.93361E-02-1.39042E-13-1.86906E-13
 -1      3898 1.91817E+01 7.19486E-01 5.22438E-03 6.78535E-02-1.21473E-13-1.96588E-13
 -1      3899 1.94640E+01 5.72077E-01-3.38550E-03-1.11291E-01-1.86313E-13-2.77215E-13
 -1      3900 1.95536E+01 5.13176E-01-9.99710E-04-1.11809E-01-1.09458E-13-3.33002E-13
 -1      3901 1.94061E+01 5.99376E-01 3.97783E-03-1.23063E-02-2.07933E-13-3.35900E-13
 -1      3902 1.96257E+01 4.57427E-01-2.17640E-03-1.19818E-01-1.10639E-13-3.48802E-13
 -1      3903 1.96885E+01 4.07365E-01-9.75429E-04-1.12809E-01-1.09172E-13-3.39480E-13
 -1      3904 1.95743E+01 4.89112E-01 2.98502E-03-5.19543E-02-1.05516E-13-4.61379E-13
 -1      3905 1.97421E+01 3.61050E-01-1.35845E-03-1.12812E-01-8.72370E-14-2.82706E-13
 -1      3906 1.97857E+01 3.19499E-01-8.84379E-04-1.02459E-01 3.16508E-15-2.98064E-13
 -1      3907 1.96990E+01 3.92552E-01 2.21335E-03-6.68477E-02-1.99257E-14-2.51765E-13
 -1      3908 1.98252E+01 2.81706E-01-8.18488E-04-9.83258E-02 1.30910E-13-2.20921E-13
 -1      3909 1.98552E+01 2.47820E-01-7.58958E-04-8.71484E-02 1.17726E-13-1.97030E-13
 -1      3910 1.97905E+01 3.10586E-01 1.62480E-03-6.75740E-02 4.43501E-14-2.28975E-13
 -1      3911 1.98839E+01 2.17352E-01-4.84884E-04-8.12729E-02 1.39488E-13-1.24361E-13
 -1      3912 1.99045E+01 1.90092E-01-6.31560E-04-7.06592E-02 1.11287E-13-2.54351E-14
 -1      3913 1.98571E+01 2.42581E-01 1.19131E-03-6.09775E-02 1.67065E-13-1.65541E-13
 -1      3914 1.99260E+01 1.64725E-01-2.59103E-04-6.41264E-02-3.49969E-14 5.10407E-14
 -1      3915 1.99404E+01 1.42147E-01-5.08449E-04-5.44035E-02-4.67577E-14 8.00523E-14
 -1      3916 1.99058E+01 1.85806E-01 8.43469E-04-5.10023E-02 9.82879E-14 1.57351E-14
 -1      3917 1.99549E+01 1.23265E-01-1.25285E-04-4.87035E-02-1.24939E-13 2.68028E-14
 -1      3918 1.99639E+01 1.06426E-01-3.98574E-04-4.09520E-02-8.14954E-14-1.54881E-14
 -1      3919 1.99402E+01 1.40410E-01 6.06132E-04-4.04951E-02-7.89138E-14-1.89449E-14
 -1      3920 1.99740E+01 9.17085E-02-3.97835E-05-3.60409E-02-1.27146E-13-8.07462E-14
 -1      3921 1.99798E+01 7.85751E-02-3.09045E-04-2.97936E-02-1.66180E-13-2.65433E-13
 -1      3922 1.99636E+01 1.05337E-01 4.22599E-04-3.09754E-02-1.89439E-13-2.52172E-13
 -1      3923 1.99867E+01 6.72138E-02 1.04650E-06-2.57808E-02-3.75214E-14-1.65291E-13
 -1      3924 1.99904E+01 5.71054E-02-2.33278E-04-2.08986E-02-4.04480E-14-1.04587E-13
 -1      3925 1.99796E+01 7.78617E-02 2.93702E-04-2.27885E-02-7.06795E-14-2.21068E-13
 -1      3926 1.99949E+01 4.84286E-02 2.09465E-05-1.77461E-02-8.64734E-14-1.60217E-14
 -1      3927 1.99971E+01 4.07421E-02-1.72374E-04-1.40331E-02-6.76275E-14 3.65286E-14
 -1      3928 1.99902E+01 5.65910E-02 2.00991E-04-1.61063E-02 3.82053E-14-5.91117E-14
 -1      3929 2.00001E+01 3.41959E-02 2.86932E-05-1.16394E-02 2.40160E-14-1.81270E-14
 -1      3930 2.00012E+01 2.84281E-02-1.24452E-04-8.88836E-03 1.10510E-13-2.01610E-14
 -1      3931 1.99971E+01 4.03361E-02 1.34556E-04-1.08675E-02-8.86824E-14-4.54402E-14
 -1      3932 2.00030E+01 2.35560E-02 2.97187E-05-7.12784E-03-2.69687E-14 6.89918E-14
 -1      3933 2.00035E+01 1.92906E-02-8.76187E-05-5.14365E-03-1.19695E-13-4.36873E-15
 -1      3934 2.00013E+01 2.80858E-02 8.74146E-05-6.89976E-03 1.12663E-13 1.89176E-14
 -1      3935 2.00045E+01 1.57185E-02 2.74178E-05-3.89134E-03-4.81814E-14-2.78150E-14
 -1      3936 2.00046E+01 1.26181E-02-5.89831E-05-2.50288E-03 7.80481E-14-1.83471E-13
 -1      3937 2.00036E+01 1.89907E-02 5.45407E-05-3.99053E-03-8.49003E-14 1.29181E-13
 -1      3938 2.00049E+01 1.00369E-02 2.31304E-05-1.64003E-03 9.36170E-14-3.16467E-13
 -1      3939 2.00048E+01 7.80952E-03-4.16512E-05-7.07086E-04 5.26921E-14-2.48421E-13
 -1      3940 2.00047E+01 1.23570E-02 3.81820E-05-1.92504E-03-5.19140E-14-1.19792E-13
 -1      3941 2.00048E+01 5.99807E-03 1.78081E-05-1.42246E-04 1.39225E-13-8.78655E-14
 -1      3942 2.00045E+01 4.44318E-03-1.73337E-05 4.73473E-04 2.30268E-13-1.82481E-14
 -1      3943 2.00049E+01 7.62332E-03 2.00617E-05-5.28526E-04 1.88493E-13 1.58336E-13
 -1      3944 2.00043E+01 3.14390E-03 1.04860E-05 8.11258E-04 2.62446E-13-1.46030E-13
 -1      3945 2.00039E+01 2.06742E-03-7.20462E-06 1.17608E-03 1.72213E-13-1.96646E-13
 -1      3946 2.00046E+01 4.21207E-03 8.02519E-06 3.91859E-04 2.33305E-13 4.35582E-14
 -1      3947 2.02104E+01-9.80304E-01 4.14370E-02-2.79458E+00-2.07191E-13-2.38740E-13
 -1      3948 2.13605E+01-1.73274E+00-3.68314E-02-2.34956E+00-1.61322E-13-7.43728E-14
 -1      3949 2.04484E+01-6.95624E-01 8.77014E-03 1.07045E+00-9.00119E-14 2.06915E-15
 -1      3950 2.06981E+01-9.20462E-01 7.76807E-03 1.09166E+00-1.30476E-13-6.74000E-14
 -1      3951 2.01012E+01-3.23155E-01 4.12120E-03 9.13697E-01-6.02040E-14 1.16782E-13
 -1      3952 2.02619E+01-4.94283E-01 5.38868E-03 9.72245E-01-6.34312E-14 7.49568E-14
 -1      3953 2.01301E+01-5.57947E-01-1.16316E-02 1.19071E+00-1.34708E-13-7.57135E-14
 -1      3954 1.99078E+01-6.54952E-02 1.54123E-03 7.43593E-01-3.75569E-14 1.04120E-13
 -1      3955 2.00060E+01-1.80512E-01 4.95644E-03 8.10830E-01 1.17218E-14 8.89086E-14
 -1      3956 1.98705E+01-1.97694E-01-7.56540E-03 9.58248E-01-1.80238E-14-9.53924E-14
 -1      3957 1.98147E+01 9.72959E-02 5.84029E-05 5.86560E-01-2.49425E-13 4.35367E-14
 -1      3958 1.98688E+01 2.73397E-02 4.07384E-03 6.50758E-01-1.49024E-13 1.01135E-13
 -1      3959 1.97456E+01 3.79656E-02-4.44723E-03 7.45940E-01-8.51503E-14-1.11854E-13
 -1      3960 1.97848E+01 1.87878E-01-6.97020E-04 4.52598E-01-1.91942E-13-6.78642E-14
 -1      3961 1.98096E+01 1.51335E-01 3.14655E-03 5.08812E-01-2.17063E-13 2.13155E-14
 -1      3962 1.97044E+01 1.77185E-01-2.32060E-03 5.66074E-01-2.11650E-13-2.87827E-14
 -1      3963 1.97912E+01 2.27472E-01-1.00956E-03 3.43712E-01 4.05001E-14 4.63369E-14
 -1      3964 1.97979E+01 2.13906E-01 2.29424E-03 3.90569E-01-6.63354E-14-2.51881E-14
 -1      3965 1.97118E+01 2.46439E-01-9.91190E-04 4.21988E-01-8.02021E-14-1.55852E-13
 -1      3966 1.98162E+01 2.33546E-01-1.07182E-03 2.57827E-01-8.09547E-14 1.16149E-13
 -1      3967 1.98127E+01 2.34670E-01 1.60751E-03 2.95707E-01 1.05079E-14 1.34771E-13
 -1      3968 1.97442E+01 2.68668E-01-2.09361E-04 3.10571E-01-4.84462E-14-4.27039E-14
 -1      3969 1.98484E+01 2.19372E-01-1.00453E-03 1.91399E-01-9.50511E-14-4.57562E-14
 -1      3970 1.98401E+01 2.29042E-01 1.09361E-03 2.21410E-01-1.20605E-13 6.67008E-15
 -1      3971 1.97867E+01 2.61501E-01 2.15348E-04 2.26365E-01-2.49307E-14 5.94476E-14
 -1      3972 1.98813E+01 1.94448E-01-8.79101E-04 1.40698E-01-1.62117E-14-5.59430E-14
 -1      3973 1.98713E+01 2.08360E-01 7.27700E-04 1.64142E-01-1.06238E-13-4.07908E-14
 -1      3974 1.98304E+01 2.37696E-01 4.14396E-04 1.63678E-01-9.85078E-14-2.37829E-13
 -1      3975 1.99111E+01 1.65190E-01-7.36511E-04 1.02368E-01 1.23358E-13 1.96393E-14
 -1      3976 1.99014E+01 1.80500E-01 4.76903E-04 1.20486E-01 6.96229E-14-1.38671E-14
 -1      3977 1.98707E+01 2.06027E-01 4.77313E-04 1.17472E-01-9.08860E-15-2.66931E-13
 -1      3978 1.99364E+01 1.35695E-01-5.96950E-04 7.36184E-02 4.86454E-14 1.39446E-13
 -1      3979 1.99279E+01 1.50625E-01 3.09847E-04 8.74930E-02 1.18940E-13 1.38653E-14
 -1      3980 1.99052E+01 1.72204E-01 4.65590E-04 8.36470E-02 1.28107E-13-8.48120E-14
 -1      3981 1.99567E+01 1.08320E-01-4.72179E-04 5.21915E-02-3.74215E-16 7.94419E-14
 -1      3982 1.99497E+01 1.21897E-01 2.02152E-04 6.27221E-02 3.78379E-14 6.99187E-14
 -1      3983 1.99333E+01 1.39702E-01 4.10530E-04 5.89982E-02 5.85912E-14-6.93012E-14
 -1      3984 1.99723E+01 8.42742E-02-3.65316E-04 3.63442E-02 1.66608E-14 1.33809E-13
 -1      3985 1.99670E+01 9.60287E-02 1.33009E-04 4.42624E-02 2.78463E-14 4.72203E-14
 -1      3986 1.99553E+01 1.10413E-01 3.40759E-04 4.11027E-02-1.01934E-14-3.49952E-14
 -1      3987 1.99839E+01 6.39895E-02-2.76954E-04 2.47188E-02-1.59042E-14 2.04120E-13
 -1      3988 1.99799E+01 7.37967E-02 8.95866E-05 3.06109E-02 3.48095E-14 1.39710E-13
 -1      3989 1.99719E+01 8.51966E-02 2.70210E-04 2.81705E-02-7.21074E-16-2.80330E-13
 -1      3990 1.99921E+01 4.74206E-02-2.05779E-04 1.62756E-02 2.78055E-14 2.71941E-13
 -1      3991 1.99893E+01 5.53598E-02 6.23055E-05 2.06071E-02 1.17563E-14 2.62590E-13
 -1      3992 1.99840E+01 6.42293E-02 2.06112E-04 1.88725E-02-7.73342E-14 1.07122E-13
 -1      3993 1.99976E+01 3.42543E-02-1.49690E-04 1.02201E-02-1.07015E-13 3.12320E-13
 -1      3994 1.99958E+01 4.05145E-02 4.48931E-05 1.33585E-02-6.95331E-14 3.18864E-13
 -1      3995 1.99924E+01 4.72894E-02 1.51589E-04 1.22364E-02-1.00942E-13 1.78251E-13
 -1      3996 2.00010E+01 2.40480E-02-1.06320E-04 5.94540E-03-6.56942E-14 2.83074E-13
 -1      3997 2.00000E+01 2.88668E-02 3.34400E-05 8.17977E-03-7.81799E-14 2.25008E-13
 -1      3998 1.99980E+01 3.39444E-02 1.07413E-04 7.54818E-03-1.05377E-13-7.31135E-16
 -1      3999 2.00030E+01 1.63183E-02-7.35109E-05 2.98819E-03 2.53707E-13 1.83166E-13
 -1      4000 2.00025E+01 1.99439E-02 2.55649E-05 4.54457E-03 8.35805E-14 2.40132E-13
 -1      4001 2.00015E+01 2.36733E-02 7.30098E-05 4.28189E-03 9.84819E-14 3.62833E-14
 -1      4002 2.00040E+01 1.05915E-02-4.96366E-05 9.96274E-04 1.19737E-13 3.14220E-13
 -1      4003 2.00038E+01 1.32616E-02 1.99868E-05 2.05014E-03 3.12404E-13 3.68181E-13
 -1      4004 2.00034E+01 1.59406E-02 4.68815E-05 2.04747E-03 1.97905E-13 1.86957E-13
 -1      4005 2.00042E+01 6.44466E-03-3.26257E-05-2.98745E-04-2.27395E-14 2.42779E-13
 -1      4006 2.00043E+01 8.37443E-03 1.80642E-05 3.95702E-04-4.79546E-14 2.73402E-13
 -1      4007 2.00043E+01 1.02385E-02 2.70227E-05 5.68714E-04 1.44101E-13 1.85840E-13
 -1      4008 2.00039E+01 3.50178E-03-2.98481E-06-1.10565E-03 8.61948E-14 2.81341E-13
 -1      4009 2.00042E+01 4.86094E-03 1.58683E-05-6.54656E-04 8.25480E-14 2.05418E-13
 -1      4010 2.00044E+01 6.10455E-03 1.85245E-06-3.81592E-04 6.40881E-14 2.08521E-13
 -1      4011 2.00035E+01 1.84344E-03-8.64663E-06-1.42827E-03 3.07748E-13 2.34207E-13
 -1      4012 2.35689E+01-2.32606E+00-4.61715E-03 3.25011E-01-2.42716E-13-2.40784E-13
 -1      4013 1.96866E+01-1.37926E+00 1.63290E-03 2.93744E+00-3.80241E-13-3.47364E-13
 -1      4014 1.86902E+01-9.62209E-01 5.61500E-02 3.38787E+00-3.78583E-13-2.53623E-13
 -1      4015 2.17183E+01-9.16770E-01 1.57098E-02-5.78860E-01-1.66926E-14-1.12054E-13
 -1      4016 2.14701E+01-8.15776E-01-1.43054E-02-8.34523E-01-2.71415E-14-1.36636E-13
 -1      4017 2.19599E+01-1.19925E+00-8.40057E-03-4.89259E-01 6.18039E-15-9.50626E-14
 -1      4018 1.85993E+01 1.74680E+00 8.03934E-03-1.26708E+00-8.42773E-14-3.96563E-13
 -1      4019 2.23902E+01-2.74319E+00 9.64630E-03 2.27996E+00-4.37025E-13-2.49005E-13
 -1      4020 2.11586E+01-2.15367E+00-2.16469E-02 2.49333E+00-4.66542E-13-3.12822E-13
 -1      4021 2.27595E+01-2.49590E+00 1.32527E-02 1.47603E+00-3.77903E-13-2.32789E-13
 -1      4022 1.87215E+01 1.32789E+00-3.74016E-03-1.50904E+00-1.07872E-13-3.68924E-13
 -1      4023 1.53366E+01 1.80595E+00 2.48860E-02-1.35100E+00-1.44716E-13-4.64065E-13
 -1      4024 1.76481E+01 6.14841E-01 1.81707E-02-2.62251E+00-2.16786E-13-4.04145E-13
 -1      4025 1.88150E+01-3.25735E-01-4.55305E-02-2.92013E+00-2.14619E-13-3.61685E-13
 -1      4026 2.18213E+01-1.84223E+00 1.74462E-02 1.28255E+00-4.26349E-13-1.22579E-13
 -1      4027 2.22377E+01-2.11464E+00-7.77733E-03 1.14143E+00-3.32725E-13-1.41825E-13
 -1      4028 2.00031E+01 1.87282E-04-1.00496E-06 1.47730E-03-4.51277E-14-9.10022E-14
 -1      4029 2.00033E+01 2.39495E-04-6.83634E-06 1.13768E-03 7.45462E-14-1.58186E-14
 -1      4030 2.00037E+01 9.82116E-04 1.41309E-05 9.46118E-04-8.52996E-14-1.77187E-13
 -1      4031 2.00033E+01 6.26001E-04 4.49482E-06 1.47817E-03-5.35243E-14-3.51442E-14
 -1      4032 2.09803E+01-1.20603E+00 1.33097E-02 1.24083E+00-2.32217E-13-1.42610E-13
 -1      4033 2.13316E+01-1.48288E+00 4.35094E-03 1.19607E+00-3.68844E-13-2.01484E-13
 -1      4034 2.12871E+01-1.78756E+00-1.02247E-02 1.79704E+00-3.93669E-13-2.35336E-13
 -1      4035 2.05612E+01-1.05209E+00-1.05756E-02 1.45261E+00-2.32702E-13-2.26365E-13
 -1      4036 2.31204E+01-2.31656E+00 1.05199E-02 6.72040E-01-2.79309E-13-2.45513E-13
 -1      4037 1.52892E+01 2.87078E-01 7.47053E-02 3.51663E+00-3.30921E-13 2.96586E-13
 -1      4038 1.48807E+01 8.61547E-01-3.21480E-02 2.45518E+00-2.19156E-13 1.92261E-13
 -1      4039 1.57856E+01 1.03844E+00 1.18585E-02 1.98477E+00-2.50032E-13 1.43368E-13
 -1      4040 1.70903E+01-3.92210E-01 4.36003E-03 3.45590E+00-3.49428E-13 2.98017E-14
 -1      4041 2.00039E+01 2.63762E-03-9.84846E-06-1.09802E-03 2.60936E-13 2.03236E-13
 -1      4042 1.74091E+01-2.42484E-01-3.75832E-02 2.97633E+00-3.28420E-13-5.98649E-14
 -1      4043 2.20804E+01-1.85863E+00 3.45903E-02-1.92273E+00-1.49655E-13-5.34562E-14
 -1      4044 2.24808E+01-1.96592E+00-1.53247E-02-1.34965E+00-1.46524E-13-5.76483E-14
 -1      4045 2.13386E+01-1.34056E+00-5.33264E-03-1.94275E+00-1.24809E-13-1.06366E-13
 -1      4046 1.91361E+01 8.59796E-01 1.72526E-02-1.78105E+00-1.09293E-13-3.44710E-13
 -1      4047 1.85005E+01 1.09252E+00-3.45157E-03-1.79688E+00-1.19341E-13-3.88444E-13
 -1      4048 2.33309E+01-2.17910E+00-2.46082E-02-5.58383E-01-1.15330E-13 2.74086E-15
 -1      4049 2.40743E+01-2.20846E+00 2.26481E-02-1.17512E-01-9.80071E-14 8.44966E-14
 -1      4050 1.68954E+01 1.21338E+00 2.40459E-03 1.15176E+00-2.57465E-13-1.10727E-14
 -1      4051 1.73989E+01 9.64076E-01 1.22900E-02 1.38109E+00-2.15732E-13-1.36950E-13
 -1      4052 1.62208E+01 1.17662E+00-3.64343E-02 1.45151E+00-2.27422E-13 1.00133E-14
 -1      4053 1.96474E+01-3.50949E-01 5.70200E-03-2.46124E+00-1.77752E-13-2.75414E-13
 -1      4054 2.00035E+01 1.09780E-03 3.29749E-06 1.39625E-03-1.38103E-14-1.07513E-13
 -1      4055 2.30435E+01-1.83270E+00-7.20730E-03-2.92648E-01-7.43910E-14 9.52331E-15
 -1      4056 2.26343E+01-1.57982E+00-1.24679E-02-1.35569E-01-4.45821E-14-4.82795E-15
 -1      4057 2.29430E+01-1.96542E+00 2.42253E-02-8.22148E-01-1.14038E-13-2.74801E-14
 -1      4058 2.05004E+01-1.62874E+00 2.08956E-02 2.59268E+00-3.83866E-13-3.35227E-13
 -1      4059 1.95896E+01-1.11617E+00-3.01217E-02 2.54647E+00-3.41882E-13-3.84701E-13
 -1      4060 2.14902E+01-9.54698E-01-5.11887E-04-1.13981E+00-4.48160E-14-1.31903E-13
 -1      4061 2.11893E+01-5.62343E-01 1.48437E-02-1.11467E+00-2.98882E-14-1.53811E-13
 -1      4062 2.00041E+01 2.70131E-03-2.33024E-05-7.91127E-04 1.90756E-13 1.80265E-13
 -1      4063 2.00039E+01 1.75851E-03-3.14085E-06 9.80899E-04 4.57737E-14-2.24715E-13
 -1      4064 2.23848E+01-1.41801E+00 1.71357E-02-3.36999E-01-2.18346E-14-4.23635E-14
 -1      4065 2.35687E+01 1.42581E-02-2.20119E-02 1.56558E+00 1.03673E-13 1.19526E-13
 -1      4066 1.67644E+01 1.55069E+00-2.30478E-02-1.62305E+00-1.68776E-13-3.79623E-13
 -1      4067 1.71219E+01 1.06206E+00 5.75102E-03-2.30506E+00-1.87958E-13-3.72402E-13
 -1      4068 1.73278E+01 1.72832E+00-7.98445E-03-1.33403E+00-1.42709E-13-3.72719E-13
 -1      4069 2.09330E+01-2.69713E-01 1.71438E-03-1.05386E+00-1.96911E-14-1.83431E-13
 -1      4070 2.07507E+01 3.19462E-02 1.05797E-02-1.00108E+00 1.01361E-14-1.99041E-13
 -1      4071 2.08383E+01-4.15673E-01-1.27207E-02-1.35735E+00-4.52764E-14-1.78376E-13
 -1      4072 2.10828E+01-1.75818E+00 1.08724E-02 2.09311E+00-4.01230E-13-2.59083E-13
 -1      4073 2.00043E+01 2.87893E-03-1.82702E-05-2.42996E-04 8.69053E-14-2.43322E-13
 -1      4074 2.00042E+01 2.86588E-03-2.15289E-05-5.61023E-04 1.24667E-13-2.23251E-13
 -1      4075 2.00046E+01 4.68308E-03 3.95494E-05-5.80170E-04 1.02125E-13-1.70052E-14
 -1      4076 1.80219E+01 8.93324E-01 8.62820E-03-2.16088E+00-1.54819E-13-3.90502E-13
 -1      4077 1.78965E+01 1.50658E+00 2.84631E-02-1.67618E+00-1.15347E-13-3.93853E-13
 -1      4078 2.00043E+01 2.37517E-03-3.02585E-05 6.07598E-05 2.03946E-14-1.00888E-13
 -1      4079 2.00047E+01 4.36510E-03 3.70060E-05-1.90303E-04 4.69032E-14-3.30586E-13
 -1      4080 2.00043E+01 2.34324E-03-1.22188E-05 3.65474E-04-1.20268E-13-2.11650E-13
 -1      4081 1.82459E+01 1.05769E+00-5.85468E-03-1.94440E+00-1.36629E-13-4.04106E-13
 -1      4082 2.00048E+01 5.44341E-03 7.12157E-06-1.58077E-04 1.79448E-13-2.87392E-13
 -1      4083 2.00048E+01 5.89723E-03-2.77093E-05-3.37434E-04 2.34000E-13-3.14641E-13
 -1      4084 1.96032E+01 6.20244E-01-3.65065E-03-1.61107E+00-1.03735E-13-2.82984E-13
 -1      4085 1.94459E+01 3.38936E-01-6.25561E-03-1.94776E+00-1.23831E-13-3.04585E-13
 -1      4086 2.00041E+01 1.90795E-03-1.46704E-05 7.14881E-04 3.98845E-14-9.08837E-14
 -1      4087 1.80826E+01 7.52043E-01-1.62254E-02 1.12806E+00-9.95986E-14-1.38505E-13
 -1      4088 1.83846E+01 7.96627E-01 9.44323E-03 8.85086E-01-5.81066E-14-1.29059E-13
 -1      4089 1.84967E+01 7.91843E-01-1.35661E-02 6.83316E-01-3.87316E-14-1.87424E-13
 -1      4090 1.87386E+01 7.87420E-01 5.61646E-03 5.24152E-01-1.11162E-13-2.33946E-13
 -1      4091 1.86499E+01 6.12939E-01 7.82379E-04 9.61578E-01-1.12136E-13-3.17336E-13
 -1      4092 1.88471E+01 7.52533E-01-1.01489E-02 3.87778E-01-1.98139E-13-1.47935E-13
 -1      4093 1.90337E+01 7.22125E-01 3.14103E-03 2.87311E-01-1.50110E-13-1.39615E-13
 -1      4094 1.89159E+01 6.54695E-01 2.61499E-03 6.02482E-01-1.19359E-13-3.10758E-13
 -1      4095 1.91305E+01 6.74179E-01-7.35029E-03 1.98569E-01-1.42705E-13-1.85783E-13
 -1      4096 1.92720E+01 6.32142E-01 1.57093E-03 1.38335E-01-2.02810E-13-2.93645E-13
 -1      4097 1.91515E+01 6.28873E-01 3.56123E-03 3.59961E-01-2.15687E-13-2.32252E-13
 -1      4098 1.93541E+01 5.80960E-01-5.19529E-03 8.29221E-02-2.62903E-13-2.02723E-13
 -1      4099 1.94598E+01 5.35833E-01 6.05360E-04 4.93759E-02-2.06776E-13-2.67112E-13
 -1      4100 1.93496E+01 5.67871E-01 3.71573E-03 2.02041E-01-2.24406E-13-1.08450E-13
 -1      4101 1.95271E+01 4.86794E-01-3.59454E-03 1.64867E-02-1.49864E-13-2.43889E-13
 -1      4102 1.96052E+01 4.43352E-01 4.36007E-05-3.84843E-05-4.81758E-14-2.70761E-13
 -1      4103 1.95107E+01 4.92190E-01 3.43871E-03 1.03138E-01-1.82754E-13-9.24461E-14
 -1      4104 1.96590E+01 3.99112E-01-2.43827E-03-1.82472E-02-1.69958E-15-3.77166E-13
 -1      4105 1.97161E+01 3.59770E-01-2.54346E-04-2.44308E-02-1.70736E-14-2.85938E-13
 -1      4106 1.96384E+01 4.14026E-01 2.97437E-03 4.40205E-02-1.22515E-13-2.06370E-13
 -1      4107 1.97582E+01 3.21368E-01-1.62305E-03-3.34513E-02 7.91563E-14-2.39944E-13
 -1      4108 1.97995E+01 2.87119E-01-3.85965E-04-3.37520E-02 1.33833E-13-2.21497E-13
 -1      4109 1.97377E+01 3.40172E-01 2.46176E-03 1.08120E-02 6.28638E-14-2.89939E-13
 -1      4110 1.98318E+01 2.54642E-01-1.07088E-03-3.73111E-02 1.57630E-13-1.68118E-13
 -1      4111 1.98614E+01 2.25709E-01-4.02975E-04-3.45814E-02 1.87682E-13-1.33454E-13
 -1      4112 1.98135E+01 2.74011E-01 1.97143E-03-6.15491E-03 1.93772E-13-2.60662E-13
 -1      4113 1.98869E+01 1.97595E-01-6.81896E-04-3.50400E-02 1.18781E-13-9.09362E-14
 -1      4114 1.99086E+01 1.72567E-01-3.91591E-04-3.08774E-02 7.25065E-14-2.44950E-14
 -1      4115 1.98717E+01 2.15570E-01 1.52926E-03-1.34846E-02 1.66762E-13-2.59930E-13
 -1      4116 1.99264E+01 1.50928E-01-4.25876E-04-2.97849E-02-7.10113E-14 5.84746E-14
 -1      4117 1.99407E+01 1.31661E-01-3.50291E-04-2.55832E-02-1.49623E-13-1.88051E-14
 -1      4118 1.99145E+01 1.66766E-01 1.20176E-03-1.52222E-02 9.95787E-15-1.00874E-13
 -1      4119 1.99537E+01 1.14374E-01-2.48362E-04-2.39135E-02-1.98080E-13-7.33419E-14
 -1      4120 1.99635E+01 9.89371E-02-2.91579E-04-2.00233E-02-1.75610E-13-1.54709E-14
 -1      4121 1.99447E+01 1.27607E-01 8.92027E-04-1.40653E-02-2.20167E-13 4.54524E-14
 -1      4122 1.99727E+01 8.52928E-02-1.44539E-04-1.82702E-02-8.61419E-14-3.20059E-15
 -1      4123 1.99793E+01 7.31421E-02-2.31192E-04-1.49324E-02 6.04111E-14-6.07616E-14
 -1      4124 1.99662E+01 9.60476E-02 6.51078E-04-1.17410E-02-8.32271E-14 6.78605E-14
 -1      4125 1.99857E+01 6.25180E-02-7.96851E-05-1.33421E-02 1.17702E-13-8.15241E-14
 -1      4126 1.99900E+01 5.30967E-02-1.77196E-04-1.06221E-02 2.53422E-14-9.79697E-15
 -1      4127 1.99811E+01 7.10322E-02 4.65431E-04-9.13371E-03 1.42897E-13-3.48971E-15
 -1      4128 1.99943E+01 4.49406E-02-4.00322E-05-9.29700E-03-1.27956E-13-2.26813E-14
 -1      4129 1.99969E+01 3.77464E-02-1.31543E-04-7.16766E-03-6.73068E-14-2.49235E-14
 -1      4130 1.99912E+01 5.15243E-02 3.24827E-04-6.69715E-03-5.58016E-14-6.31741E-14
 -1      4131 1.99996E+01 3.15775E-02-1.65152E-05-6.12780E-03 1.11268E-13-1.94583E-13
 -1      4132 2.00012E+01 2.61708E-02-9.45286E-05-4.51714E-03 1.48855E-13-7.62253E-14
 -1      4133 1.99977E+01 3.65564E-02 2.20197E-04-4.62970E-03-7.21298E-14-8.81170E-14
 -1      4134 2.00028E+01 2.15787E-02-3.12394E-06-3.73964E-03-9.43155E-14-1.90217E-13
 -1      4135 2.00035E+01 1.75822E-02-6.51833E-05-2.55919E-03-2.09121E-13-2.12730E-13
 -1      4136 2.00017E+01 2.52609E-02 1.43430E-04-2.98531E-03-3.97594E-14-4.72980E-13
 -1      4137 2.00044E+01 1.42198E-02 2.93228E-06-2.00503E-03-6.18461E-14-5.01459E-14
 -1      4138 2.00046E+01 1.13014E-02-4.98569E-05-1.13739E-03 4.71539E-14-4.65947E-15
 -1      4139 2.00038E+01 1.68784E-02 8.33969E-05-1.74529E-03-9.14042E-14-4.40553E-13
 -1      4140 2.00050E+01 8.40259E-03 1.14733E-05-6.48908E-04 2.05146E-13-2.65571E-14
 -1      4141 2.00049E+01 6.42747E-03-2.25367E-06-1.31715E-04 3.25106E-13 3.46499E-14
 -1      4142 2.19047E+01-1.31497E+00 2.04488E-02-1.16757E+00-9.56405E-14-1.19182E-13
 -1      4143 2.14429E+01-1.17229E+00-2.30955E-02-1.50715E+00-8.67486E-14-1.19709E-13
 -1      4144 2.22719E+01-1.68153E+00-1.06609E-02-1.07373E+00-1.08956E-13-7.65612E-14
 -1      4145 1.65946E+01 7.47315E-01 3.46290E-02 2.28411E+00-3.28133E-13-2.17226E-14
 -1      4146 1.97852E+01-2.95859E-01-3.61570E-04 1.24605E+00-7.82403E-14-3.35247E-13
 -1      4147 1.99818E+01-5.02460E-01 7.58341E-03 1.37862E+00-1.03565E-13-3.02840E-13
 -1      4148 1.95889E+01 2.78290E-01-3.01509E-03 5.15655E-01-2.56606E-13-1.18525E-13
 -1      4149 1.96070E+01 2.45175E-01 5.53784E-03 5.97214E-01-1.75524E-13-8.76166E-14
 -1      4150 1.96362E+01 3.12265E-01-2.74259E-03 3.69306E-01-1.48998E-14-1.57730E-13
 -1      4151 1.96335E+01 3.04470E-01 3.79748E-03 4.32099E-01-1.42578E-13-1.73612E-13
 -1      4152 1.95184E+01 3.58498E-01 1.19032E-03 4.59688E-01-1.25189E-13-2.22884E-13
 -1      4153 1.96960E+01 3.09130E-01-2.32155E-03 2.61572E-01-1.52856E-13-1.90402E-14
 -1      4154 1.96825E+01 3.16732E-01 2.50074E-03 3.08737E-01-1.11867E-13-4.92018E-14
 -1      4155 1.95970E+01 3.66613E-01 1.88541E-03 3.16673E-01-1.18131E-13-1.87581E-13
 -1      4156 1.97568E+01 2.84554E-01-1.87967E-03 1.83700E-01 1.76884E-14 1.23643E-14
 -1      4157 1.97389E+01 3.00566E-01 1.58362E-03 2.18558E-01 2.10889E-14 8.97880E-14
 -1      4158 1.96762E+01 3.44390E-01 2.05585E-03 2.15523E-01-1.18564E-13-2.18428E-14
 -1      4159 1.98124E+01 2.49329E-01-1.47745E-03 1.28132E-01-4.89637E-14-6.04927E-14
 -1      4160 1.97940E+01 2.69048E-01 9.61673E-04 1.53627E-01-3.93065E-14 6.32213E-14
 -1      4161 1.97484E+01 3.06345E-01 1.95128E-03 1.45261E-01-2.48062E-14 1.34781E-13
 -1      4162 1.98602E+01 2.10549E-01-1.13222E-03 8.88255E-02 3.75680E-14-9.17833E-14
 -1      4163 1.98433E+01 2.30959E-01 5.56367E-04 1.07357E-01-4.36011E-14-6.89933E-14
 -1      4164 1.98104E+01 2.61991E-01 1.71889E-03 9.71334E-02-6.13566E-15 1.04055E-13
 -1      4165 1.98994E+01 1.72527E-01-8.64542E-04 6.11948E-02 1.08999E-13-2.99014E-14
 -1      4166 1.98849E+01 1.91840E-01 2.89630E-04 7.45773E-02 1.60087E-13-9.34322E-14
 -1      4167 1.98614E+01 2.17295E-01 1.45637E-03 6.44916E-02 7.64211E-14 5.59627E-15
 -1      4168 1.99303E+01 1.37837E-01-6.35323E-04 4.17828E-02 1.36218E-13-1.18810E-13
 -1      4169 1.99186E+01 1.55113E-01 1.45283E-04 5.14729E-02 1.08322E-13-9.76087E-16
 -1      4170 1.99020E+01 1.75661E-01 1.19580E-03 4.25062E-02 1.37234E-13-1.26149E-13
 -1      4171 1.99539E+01 1.07570E-01-4.66938E-04 2.82277E-02-1.78688E-14-6.30890E-14
 -1      4172 1.99448E+01 1.22387E-01 5.65596E-05 3.52224E-02 3.87393E-14-5.02795E-14
 -1      4173 1.99333E+01 1.38672E-01 9.23040E-04 2.78261E-02 5.47001E-14-3.05554E-14
 -1      4174 1.99714E+01 8.21142E-02-3.38484E-04 1.87642E-02-8.83320E-14-8.15562E-14
 -1      4175 1.99646E+01 9.44292E-02 1.42795E-05 2.38030E-02-6.73481E-14-1.34809E-13
 -1      4176 1.99567E+01 1.07191E-01 6.99152E-04 1.80368E-02 1.84222E-15 5.09596E-15
 -1      4177 1.99839E+01 6.13119E-02-2.41986E-04 1.21785E-02-1.74855E-13 3.41103E-14
 -1      4178 1.99791E+01 7.12779E-02-4.80386E-06 1.57951E-02-1.26978E-13-9.08450E-14
 -1      4179 1.99738E+01 8.11470E-02 5.16853E-04 1.15142E-02-1.47751E-13 8.25668E-15
 -1      4180 1.99926E+01 4.47328E-02-1.70210E-04 7.61835E-03-4.01801E-14-3.40336E-14
 -1      4181 1.99892E+01 5.26098E-02-1.08933E-05 1.01984E-02-4.32919E-14-2.89962E-15
 -1      4182 1.99858E+01 6.01363E-02 3.72296E-04 7.17585E-03-1.31444E-13-2.65528E-13
 -1      4183 1.99982E+01 3.18169E-02-1.17394E-04 4.48614E-03-6.61395E-14-1.62128E-13
 -1      4184 1.99961E+01 3.79079E-02-1.05632E-05 6.30984E-03-6.55633E-14-7.16080E-14
 -1      4185 1.99940E+01 4.35623E-02 2.60527E-04 4.29770E-03 1.08398E-14-2.94440E-13
 -1      4186 2.00017E+01 2.19695E-02-7.92461E-05 2.36162E-03 1.12911E-13-9.86504E-14
 -1      4187 2.00004E+01 2.65814E-02-7.63678E-06 3.63386E-03 8.50679E-14-6.82257E-14
 -1      4188 1.99992E+01 3.07592E-02 1.76072E-04 2.39822E-03-1.17873E-13-3.85461E-13
 -1      4189 2.00036E+01 1.46247E-02-4.88718E-05 9.48422E-04 2.48416E-13 8.56546E-14
 -1      4190 2.00030E+01 1.80414E-02-3.83711E-06 1.82008E-03 1.73152E-13-1.93928E-14
 -1      4191 2.00024E+01 2.10673E-02 1.13336E-04 1.15880E-03 1.16778E-13 1.39226E-14
 -1      4192 2.00045E+01 9.24983E-03-2.45581E-05 4.09595E-05 2.42629E-14 1.21754E-13
 -1      4193 2.00042E+01 1.17205E-02-4.49818E-06 5.98671E-04 2.31918E-13 3.38440E-14
 -1      4194 2.00040E+01 1.38910E-02 6.51737E-05 3.61879E-04 2.49959E-13 1.38705E-14
 -1      4195 2.00045E+01 5.85130E-03-1.90893E-05-4.44120E-04 1.30872E-13-1.68933E-14
 -1      4196 2.00046E+01 7.68832E-03 1.12253E-05-9.84180E-05 1.53315E-14 4.94857E-14
 -1      4197 2.00047E+01 9.08590E-03 1.54625E-05-1.02966E-04 4.05966E-14-4.19489E-14
 -1      4198 2.00047E+01 6.05598E-03-9.49350E-06-3.48127E-04 1.05287E-13-2.59377E-13
 -1      4199 1.78198E+01 1.23864E-01 7.86890E-03 2.36669E+00-3.61820E-13-1.44753E-13
 -1      4200 2.21880E+01-1.45379E+00-1.52548E-02-7.11119E-01-5.19339E-14-7.40851E-14
 -1      4201 2.06019E+01-1.35330E+00-5.22923E-03 1.91839E+00-3.69794E-13-2.06572E-13
 -1      4202 1.97974E+01-8.62535E-01 5.65055E-03 2.14120E+00-2.66700E-13-5.16546E-13
 -1      4203 1.90983E+01-5.63155E-01 2.00340E-02 2.42034E+00-2.81924E-13-3.64791E-13
 -1      4204 1.95738E+01 1.85450E-01-2.90373E-03 7.09376E-01-1.19875E-13-1.56087E-13
 -1      4205 1.96279E+01 1.13595E-01 7.67441E-03 8.11335E-01-6.52855E-14-2.31068E-13
 -1      4206 1.94543E+01 2.98790E-01-4.50113E-04 6.57298E-01-1.43455E-13-2.67577E-13
 -1      4207 1.96237E+01 4.59131E-03-2.12201E-03 9.55840E-01-7.19925E-14-2.55402E-13
 -1      4208 1.97321E+01-1.23122E-01 8.88602E-03 1.07606E+00-6.55289E-14-3.28418E-13
 -1      4209 1.94303E+01 1.57490E-01-3.61357E-03 9.22327E-01-1.04329E-13-3.72992E-13
 -1      4210 2.00291E+01 3.96384E-01 7.58074E-03-1.50576E+00-5.17042E-14-2.51283E-13
 -1      4211 2.00045E+01 3.32874E-03 8.37155E-06 4.15762E-04 1.90456E-13-1.33104E-14
 -1      4212 2.03145E+01 2.86185E-01-2.20315E-03-1.26768E+00-4.26992E-14-2.20179E-13
 -1      4213 2.03310E+01 2.15643E-02 1.09955E-03-1.52124E+00-7.00662E-14-2.17418E-13
 -1      4214 2.00048E+01 4.66249E-03-1.83553E-05 7.29410E-05 2.21433E-13 4.67747E-14
 -1      4215 2.04381E+01 3.57604E-01-1.13991E-03-1.00768E+00 1.15155E-14-2.25428E-13
 -1      4216 2.09771E+01-8.57376E-01 1.55874E-02-1.82936E+00-9.66189E-14-1.19719E-13
 -1      4217 2.03387E+01-4.61993E-01-4.61706E-03-2.03612E+00-1.39098E-13-1.77091E-13
 -1      4218 1.97776E+01-2.67514E-01-7.18088E-03-2.26669E+00-1.55812E-13-2.54245E-13
 -1      4219 2.05782E+01-3.14638E-01 4.10627E-03-1.61645E+00-7.45979E-14-1.93432E-13
 -1      4220 1.79743E+01 7.12131E-01 1.64143E-02 1.39568E+00-1.29721E-13-1.32728E-13
 -1      4221 1.83594E+01 4.70545E-01-1.25344E-03 1.45754E+00-1.41488E-13-1.81428E-13
 -1      4222 1.75712E+01 6.22955E-01-1.15958E-02 1.74358E+00-2.65981E-13-1.51640E-13
 -1      4223 2.00048E+01 1.01495E-02 3.09584E-05-6.64853E-04 2.63091E-13-1.42015E-13
 -1      4224 1.94987E+01-1.04829E-01-6.47146E-03 1.26177E+00-9.27779E-14-4.25147E-13
 -1      4225 2.00048E+01 7.36082E-03 2.10227E-05-2.80155E-04 1.93553E-13-1.19274E-13
 -1      4226 1.94548E+01-3.79216E-01-2.43566E-03 1.73641E+00-1.84906E-13-4.82453E-13
 -1      4227 1.98329E+01-6.45041E-01-1.09944E-02 1.67875E+00-1.60361E-13-3.94608E-13
 -1      4228 1.87220E+01-3.36671E-02 3.01190E-03 1.92900E+00-2.94372E-13-2.61808E-13
 -1      4229 1.84346E+01-1.29370E-01 1.96567E-03 2.31631E+00-2.82475E-13-1.46552E-13
 -1      4230 1.87060E+01 5.38956E-01 1.56937E-02-2.29332E+00-1.63251E-13-3.87304E-13
 -1      4231 1.91039E+01 4.35047E-01-5.30567E-03 7.82177E-01-7.45696E-14-3.12663E-13
 -1      4232 1.92269E+01 4.64096E-01 4.97787E-03 6.31172E-01-1.69625E-13-2.88680E-13
 -1      4233 1.92479E+01 4.82411E-01-5.15862E-03 5.16793E-01-2.38985E-13-2.52047E-13
 -1      4234 1.93560E+01 4.80515E-01 2.50586E-03 4.14791E-01-1.84120E-13-2.17073E-13
 -1      4235 1.93913E+01 4.74317E-01-4.58923E-03 3.32389E-01-1.72468E-13-2.27026E-13
 -1      4236 1.94820E+01 4.55200E-01 9.73225E-04 2.65800E-01-1.19342E-13-1.46593E-13
 -1      4237 1.95216E+01 4.35451E-01-3.83914E-03 2.07910E-01-1.51947E-13-8.44289E-14
 -1      4238 1.95952E+01 4.08034E-01 9.01655E-05 1.65987E-01-1.97458E-13-5.91109E-14
 -1      4239 1.96334E+01 3.81948E-01-3.08233E-03 1.26155E-01-1.86697E-13-9.29390E-15
 -1      4240 1.96916E+01 3.51820E-01-3.72102E-04 1.00851E-01-1.16114E-13-7.49045E-14
 -1      4241 1.97257E+01 3.23958E-01-2.40417E-03 7.39084E-02-2.76670E-14-2.51645E-14
 -1      4242 1.97707E+01 2.94448E-01-5.73607E-04 5.94373E-02 8.94872E-14-8.19812E-14
 -1      4243 1.97995E+01 2.67538E-01-1.83529E-03 4.14610E-02 4.13873E-14-1.11220E-13
 -1      4244 1.98338E+01 2.40453E-01-6.30648E-04 3.38223E-02 8.53251E-14-2.13433E-13
 -1      4245 1.98572E+01 2.16026E-01-1.37156E-03 2.19066E-02 1.67052E-13-2.38357E-13
 -1      4246 1.98839E+01 1.91059E-01-6.04844E-04 1.81973E-02 1.38487E-13-1.66521E-13
 -1      4247 1.99022E+01 1.69807E-01-1.02218E-03 1.04276E-02 1.69693E-13-2.45239E-13
 -1      4248 1.99208E+01 1.49712E-01-5.41327E-04 9.32933E-03-4.37632E-15-1.83533E-13
 -1      4249 1.99348E+01 1.31828E-01-7.28235E-04 4.25940E-03-9.37700E-14-6.42961E-14
 -1      4250 1.99482E+01 1.15159E-01-4.42755E-04 4.36225E-03-9.79648E-14 7.56388E-15
 -1      4251 1.99586E+01 1.00435E-01-5.17987E-04 1.05946E-03-1.45808E-13 4.21365E-14
 -1      4252 1.99681E+01 8.69416E-02-3.44926E-04 1.71548E-03-1.51182E-14 4.79203E-14
 -1      4253 1.99756E+01 7.50806E-02-3.62283E-04-4.33265E-04-7.25480E-14-3.61743E-14
 -1      4254 1.99821E+01 6.43707E-02-2.59413E-04 4.04855E-04-4.30124E-14-1.25362E-13
 -1      4255 1.99873E+01 5.50068E-02-2.48446E-04-9.95095E-04-8.18534E-15-2.05266E-13
 -1      4256 1.99917E+01 4.66627E-02-1.88489E-04-1.70998E-04-6.50825E-14-2.39002E-13
 -1      4257 1.99952E+01 3.94103E-02-1.66170E-04-1.08447E-03-1.23545E-13-1.85676E-13
 -1      4258 1.99979E+01 3.30266E-02-1.31952E-04-3.65719E-04-1.52671E-13-3.23981E-13
 -1      4259 2.00001E+01 2.75144E-02-1.07266E-04-9.61435E-04-9.18057E-14-1.81408E-13
 -1      4260 2.00017E+01 2.27198E-02-8.79060E-05-3.80441E-04-1.25322E-13-2.90412E-13
 -1      4261 2.00030E+01 1.86106E-02-6.35169E-05-7.63941E-04 5.85901E-14-2.06900E-13
 -1      4262 2.00038E+01 1.50631E-02-5.61131E-05-3.20298E-04 2.17580E-13-1.24133E-13
 -1      4263 1.89824E+01 2.95521E-01-5.33876E-03 1.15217E+00-1.16357E-13-2.50846E-13
 -1      4264 1.90523E+01 1.68608E-01 1.17587E-02 1.35549E+00-1.98053E-13-3.01759E-13
 -1      4265 1.91142E+01 3.75813E-01 8.50631E-03 9.36450E-01-6.86295E-14-3.19682E-13
 -1      4266 1.89161E+01 1.97182E-02-7.91902E-03 1.63798E+00-2.46468E-13-2.32742E-13
 -1      4267 2.00047E+01 8.85968E-03-3.77100E-05-1.58016E-04 1.95984E-13-1.06230E-13
 -1      4268 2.00044E+01 1.21017E-02-9.83359E-06-5.49000E-04 1.11890E-13-8.66740E-14
 -1      4269 2.03804E+01-1.02363E+00 6.23849E-03 1.71092E+00-2.47950E-13-3.05374E-13
 -3
    1PSTEP                         3           1           1          
  100CL  101 1.000000000        4269                     0    1           1
 -4  TOSTRAIN    6    1
 -5  EXX         1    4    1    1
 -5  EYY         1    4    2    2
 -5  EZZ         1    4    3    3
 -5  EXY         1    4    1    2
 -5  EYZ         1    4    2    3
 -5  EZX         1    4    3    1
 -1         1 3.62629E-04-1.13480E-04-8.86197E-05 7.72571E-08-4.49589E-19-2.38556E-18
 -1         2 3.93521E-05-1.20374E-04 2.24888E-05 1.92962E-06 4.72179E-18 6.54545E-19
 -1         3 9.52374E-05-2.85708E-05-2.85717E-05 3.45441E-10-1.92021E-18-1.82056E-18
 -1         4 9.52374E-05-2.85707E-05-2.85717E-05-5.31308E-10 2.17535E-18-2.45303E-18
 -1         5 1.43723E-04-2.13908E-05-4.29270E-05 3.82592E-05-3.02814E-19 2.08255E-17
 -1         6 1.44715E-04 2.62632E-10-4.45949E-05-5.23706E-05-1.14964E-18 1.76561E-17
 -1         7 9.31225E-05-7.10919E-07-3.98280E-05-2.73369E-05-1.73854E-19 2.83793E-18
 -1         8 8.73137E-05-1.17338E-09-3.71391E-05-1.74396E-05-2.14061E-19-1.63223E-18
 -1         9 8.41153E-05 3.96462E-08-3.58688E-05-1.24610E-05-1.63689E-19-4.06601E-18
 -1        10 8.19300E-05 3.91024E-08-3.49861E-05-9.11900E-06-1.18810E-19-5.24208E-18
 -1        11 8.03456E-05 4.31942E-08-3.43512E-05-6.72451E-06-7.64050E-20-5.72425E-18
 -1        12 7.93045E-05 4.52970E-08-3.39305E-05-4.92801E-06-1.63583E-20-5.94082E-18
 -1        13 7.87567E-05 4.39345E-08-3.37004E-05-3.37209E-06-1.66296E-20-5.91899E-18
 -1        14 7.86754E-05 3.79531E-08-3.36513E-05-1.83968E-06 2.77486E-20-5.81083E-18
 -1        15 7.89741E-05 2.94290E-08-3.37529E-05-1.45107E-07 5.54376E-20-5.60661E-18
 -1        16 7.95538E-05 2.10788E-08-3.39700E-05 1.83313E-06 8.32408E-20-5.28941E-18
 -1        17 8.03320E-05 1.48140E-08-3.42730E-05 4.16851E-06 1.10366E-19-4.82110E-18
 -1        18 8.12525E-05 1.64383E-08-3.46441E-05 6.86084E-06 1.39655E-19-4.09947E-18
 -1        19 8.23963E-05 2.80572E-08-3.51215E-05 1.00803E-05 2.04320E-19-3.01223E-18
 -1        20 8.39589E-05 5.90875E-08-3.57984E-05 1.39550E-05 2.51847E-19-1.24558E-18
 -1        21 8.65653E-05 1.26143E-07-3.69347E-05 1.89667E-05 2.81771E-19 1.93313E-18
 -1        22 9.31283E-05-1.85847E-07-3.92755E-05 2.70568E-05 3.50460E-20 7.94006E-18
 -1        23 1.15544E-04-3.90272E-05-3.61861E-05-3.85620E-06-7.89779E-19 1.36182E-17
 -1        24 9.79102E-05-2.92548E-05-3.05083E-05 4.61367E-07-2.28087E-19 1.00887E-17
 -1        25 9.67741E-05-2.91732E-05-2.92436E-05 4.14835E-07-1.90285E-19 6.51649E-18
 -1        26 9.88542E-05-2.97653E-05-2.97066E-05 2.75877E-07 6.92516E-21 4.11776E-18
 -1        27 1.03274E-04-3.10616E-05-3.10623E-05 2.78429E-07 2.09111E-21 2.72757E-18
 -1        28 1.09969E-04-3.30391E-05-3.31304E-05 3.52977E-07-8.40333E-20 1.61966E-18
 -1        29 1.19173E-04-3.57684E-05-3.59350E-05 5.03603E-07 4.34071E-20 1.16306E-18
 -1        30 1.30933E-04-3.92647E-05-3.94248E-05 7.17825E-07 3.99627E-20 8.06746E-19
 -1        31 1.44312E-04-4.32719E-05-4.31833E-05 8.93221E-07 3.69419E-20 3.96067E-19
 -1        32 1.56025E-04-4.68562E-05-4.60951E-05 6.93508E-07-9.75544E-20 6.07653E-19
 -1        33 1.59143E-04-4.79460E-05-4.63107E-05-5.07410E-07 3.41394E-19 1.65976E-18
 -1        34 1.45035E-04-4.37321E-05-4.22734E-05-2.96814E-06-1.66197E-19 3.04942E-18
 -1        35 1.13702E-04-3.36908E-05-3.51892E-05-4.70813E-06 2.52747E-19 1.75971E-18
 -1        36 8.60759E-05-2.47576E-05-2.97101E-05-2.96457E-06-2.95125E-19-1.16806E-18
 -1        37 8.35218E-05-2.38009E-05-2.92745E-05 2.32167E-06-3.95101E-19-6.66811E-18
 -1        38 1.10772E-04-3.27894E-05-3.46850E-05 4.82271E-06 7.79800E-20-1.09615E-17
 -1        39 1.44386E-04-4.35180E-05-4.22043E-05 3.29321E-06 1.61856E-19-1.20583E-17
 -1        40 1.61374E-04-4.86332E-05-4.69058E-05 7.34615E-07 4.79718E-19-1.00221E-17
 -1        41 1.60287E-04-4.81456E-05-4.72960E-05-6.15887E-07 7.72024E-20-8.56169E-18
 -1        42 1.49625E-04-4.48624E-05-4.47448E-05-8.76888E-07-2.05974E-19-8.27395E-18
 -1        43 1.36791E-04-4.10103E-05-4.11823E-05-7.00886E-07 3.52801E-19-5.82624E-18
 -1        44 1.25389E-04-3.76182E-05-3.78172E-05-4.69785E-07 2.01981E-20-4.11531E-18
 -1        45 1.16155E-04-3.48600E-05-3.50092E-05-2.68394E-07-1.16120E-19-3.30469E-18
 -1        46 1.09753E-04-3.29525E-05-3.30399E-05-1.53166E-07 1.19404E-19-2.49570E-18
 -1        47 1.05207E-04-3.15888E-05-3.16370E-05-8.43946E-08-5.32425E-19-3.53346E-18
 -1        48 1.02027E-04-3.06316E-05-3.06563E-05-4.47603E-08 9.85127E-20-6.29451E-18
 -1        49 9.98193E-05-2.99648E-05-2.99765E-05-2.25435E-08-3.52823E-19-6.93176E-18
 -1        50 9.82913E-05-2.95021E-05-2.95072E-05-1.02706E-08 5.76375E-20-6.81105E-18
 -1        51 9.72367E-05-2.91822E-05-2.91838E-05-3.59169E-09-4.49351E-20-5.78176E-18
 -1        52 9.65117E-05-2.89619E-05-2.89619E-05-4.36280E-11 2.13222E-19-3.39313E-18
 -1        53 9.60166E-05-2.88112E-05-2.88105E-05 1.75329E-09-3.69989E-19-6.56622E-18
 -1        54 9.56821E-05-2.87092E-05-2.87083E-05 2.57040E-09 8.64507E-19-8.26813E-18
 -1        55 9.54601E-05-2.86414E-05-2.86404E-05 2.84096E-09-3.37269E-19-4.79863E-18
 -1        56 9.53164E-05-2.85974E-05-2.85965E-05 2.80993E-09-9.40454E-19-5.30239E-18
 -1        57 9.52272E-05-2.85699E-05-2.85691E-05 2.62607E-09-1.17042E-19-7.43375E-18
 -1        58 9.51755E-05-2.85540E-05-2.85532E-05 2.21915E-09-2.34130E-19-5.36638E-18
 -1        59 9.51481E-05-2.85453E-05-2.85447E-05 2.08028E-09-1.88288E-19-5.19104E-18
 -1        60 9.51391E-05-2.85424E-05-2.85419E-05 1.74629E-09-1.68194E-19-3.87777E-18
 -1        61 9.51404E-05-2.85425E-05-2.85422E-05 1.47191E-09 7.85011E-20-7.30732E-18
 -1        62 9.51480E-05-2.85447E-05-2.85444E-05 1.22413E-09-6.28703E-19-7.25175E-18
 -1        63 9.51591E-05-2.85479E-05-2.85476E-05 1.00884E-09 1.16777E-19-5.16872E-18
 -1        64 9.51717E-05-2.85516E-05-2.85514E-05 8.27663E-10 6.78592E-19-4.30789E-18
 -1        65 9.51847E-05-2.85555E-05-2.85553E-05 6.79878E-10-4.38121E-19-1.63511E-18
 -1        66 9.51972E-05-2.85592E-05-2.85591E-05 5.62784E-10-5.59683E-19-3.64467E-18
 -1        67 9.52089E-05-2.85626E-05-2.85626E-05 4.71048E-10 3.30577E-19-5.54060E-18
 -1        68 9.52192E-05-2.85657E-05-2.85656E-05 3.93970E-10 8.10982E-19-3.32188E-18
 -1        69 9.52278E-05-2.85683E-05-2.85682E-05 3.08184E-10 7.19407E-20 1.66449E-18
 -1        70 9.52341E-05-2.85702E-05-2.85700E-05 1.70922E-10-1.25360E-18-8.72417E-19
 -1        71 9.52372E-05-2.85712E-05-2.85711E-05-2.46452E-10-2.65050E-20-6.70095E-18
 -1        72 1.03985E-04-3.11202E-05-3.47270E-05-2.05609E-06 2.83147E-19 1.93198E-17
 -1        73 9.55757E-05-2.84235E-05-2.97874E-05-3.81709E-07 2.33583E-19 1.52667E-17
 -1        74 9.29914E-05-2.78708E-05-2.81145E-05-1.66854E-07 4.60417E-20 1.22032E-17
 -1        75 9.25479E-05-2.77888E-05-2.77659E-05-1.35557E-07-3.54670E-20 1.06316E-17
 -1        76 9.28792E-05-2.78824E-05-2.78261E-05-1.15642E-07 1.25613E-19 9.20915E-18
 -1        77 9.32702E-05-2.79903E-05-2.79315E-05-9.62813E-08-5.88501E-20 8.01438E-18
 -1        78 9.32590E-05-2.79834E-05-2.79156E-05-6.98573E-08 5.31732E-21 7.06029E-18
 -1        79 9.25114E-05-2.77607E-05-2.76806E-05-2.95645E-08 6.83284E-20 6.08970E-18
 -1        80 9.08288E-05-2.72606E-05-2.71749E-05 2.68468E-08-5.99040E-20 5.25714E-18
 -1        81 8.82114E-05-2.64804E-05-2.64064E-05 9.39562E-08 1.66760E-19 4.63256E-18
 -1        82 8.49249E-05-2.54967E-05-2.54580E-05 1.56832E-07-1.36150E-19 3.67045E-18
 -1        83 8.15143E-05-2.44706E-05-2.44882E-05 1.93736E-07 1.47022E-19 3.27172E-18
 -1        84 7.87116E-05-2.36214E-05-2.37021E-05 1.85224E-07-1.28208E-19 2.71564E-18
 -1        85 7.72310E-05-2.31662E-05-2.32942E-05 1.25961E-07 1.28569E-19 2.43276E-18
 -1        86 7.75185E-05-2.32432E-05-2.33839E-05 3.11259E-08 2.00567E-19 2.91386E-19
 -1        87 7.95783E-05-2.38572E-05-2.39714E-05-6.91477E-08-4.09112E-19 7.73718E-19
 -1        88 8.29753E-05-2.48781E-05-2.49393E-05-1.44797E-07-6.82761E-20 1.61335E-18
 -1        89 8.70096E-05-2.60935E-05-2.60967E-05-1.79444E-07 2.19740E-19 9.00621E-19
 -1        90 9.09636E-05-2.72852E-05-2.72439E-05-1.74218E-07-3.48549E-19 4.84417E-19
 -1        91 9.43002E-05-2.82901E-05-2.82260E-05-1.42158E-07-1.69242E-19 1.95774E-18
 -1        92 9.67453E-05-2.90254E-05-2.89586E-05-9.92554E-08 2.91970E-19 9.21926E-19
 -1        93 9.82655E-05-2.94817E-05-2.94252E-05-5.80229E-08-1.54539E-19-4.84572E-19
 -1        94 9.89874E-05-2.96977E-05-2.96569E-05-2.52673E-08 2.90827E-19-2.23984E-18
 -1        95 9.91110E-05-2.97342E-05-2.97090E-05-2.90681E-09-9.12010E-20-2.28818E-18
 -1        96 9.88434E-05-2.96534E-05-2.96408E-05 1.01138E-08 2.47960E-19 4.07246E-20
 -1        97 9.83612E-05-2.95085E-05-2.95047E-05 1.60819E-08 8.42564E-20-7.85484E-19
 -1        98 9.77958E-05-2.93389E-05-2.93404E-05 1.73979E-08-3.78471E-19-1.14690E-18
 -1        99 9.72345E-05-2.91705E-05-2.91748E-05 1.60437E-08 1.49592E-19-3.21907E-18
 -1       100 9.67279E-05-2.90186E-05-2.90238E-05 1.34381E-08-3.83685E-19-4.07729E-18
 -1       101 9.62997E-05-2.88903E-05-2.88954E-05 1.04864E-08 1.61614E-19-3.62975E-18
 -1       102 9.59557E-05-2.87871E-05-2.87916E-05 7.70076E-09-5.60668E-20-4.10805E-18
 -1       103 9.56912E-05-2.87078E-05-2.87114E-05 5.32426E-09-4.05019E-19-2.52721E-18
 -1       104 9.54961E-05-2.86492E-05-2.86520E-05 3.43282E-09 6.40649E-20-2.81001E-18
 -1       105 9.53581E-05-2.86078E-05-2.86098E-05 2.00880E-09 1.61525E-19-1.73768E-18
 -1       106 9.52652E-05-2.85799E-05-2.85813E-05 9.89744E-10 8.13506E-21-3.64460E-18
 -1       107 9.52065E-05-2.85622E-05-2.85632E-05 2.97958E-10 4.00117E-19-5.12550E-18
 -1       108 9.51729E-05-2.85521E-05-2.85527E-05-1.43057E-10-4.16215E-19-4.93490E-18
 -1       109 9.51570E-05-2.85473E-05-2.85476E-05-4.00672E-10 1.86784E-20-2.38825E-18
 -1       110 9.51531E-05-2.85461E-05-2.85462E-05-5.30299E-10 3.42507E-19-9.32332E-19
 -1       111 9.51568E-05-2.85471E-05-2.85472E-05-5.75366E-10-4.07140E-20-1.61598E-18
 -1       112 9.51651E-05-2.85496E-05-2.85496E-05-5.68677E-10 1.06811E-19-2.09837E-19
 -1       113 9.51758E-05-2.85528E-05-2.85527E-05-5.34265E-10 7.79563E-20-5.48287E-19
 -1       114 9.51875E-05-2.85563E-05-2.85562E-05-4.89263E-10-1.11778E-19-4.18243E-18
 -1       115 9.51992E-05-2.85598E-05-2.85597E-05-4.45434E-10-1.30816E-19-5.46792E-18
 -1       116 9.52103E-05-2.85631E-05-2.85630E-05-4.09831E-10 1.32703E-19-3.95385E-18
 -1       117 9.52202E-05-2.85660E-05-2.85659E-05-3.83674E-10-5.64133E-19-4.73427E-18
 -1       118 9.52285E-05-2.85685E-05-2.85684E-05-3.56746E-10 5.32263E-19-3.59626E-18
 -1       119 9.52345E-05-2.85704E-05-2.85701E-05-2.72276E-10-1.97934E-20-5.24837E-18
 -1       120 9.52373E-05-2.85713E-05-2.85711E-05 3.09102E-11 1.12691E-18-4.23923E-18
 -1       121 9.52371E-05-2.85712E-05-2.85711E-05 1.18037E-10-4.63387E-18-2.12433E-19
 -1       122 9.52380E-05-2.85740E-05-2.85701E-05-1.75994E-10-7.67521E-18-5.75146E-19
 -1       123 9.52397E-05-2.85796E-05-2.85685E-05-3.32520E-10-7.70980E-18 4.01633E-19
 -1       124 9.52417E-05-2.85864E-05-2.85666E-05-3.45822E-10-5.62706E-18 1.45904E-18
 -1       125 9.52437E-05-2.85931E-05-2.85646E-05-3.04858E-10 2.43252E-18-1.11023E-18
 -1       126 9.52454E-05-2.85989E-05-2.85629E-05-2.37328E-10 1.32065E-18-1.11599E-18
 -1       127 9.52467E-05-2.86032E-05-2.85616E-05-1.49304E-10-2.63646E-18 1.86995E-19
 -1       128 9.52474E-05-2.86055E-05-2.85610E-05-5.24434E-11-6.74280E-18 1.05888E-18
 -1       129 9.52474E-05-2.86055E-05-2.85610E-05 4.77813E-11 1.16758E-18 7.07593E-19
 -1       130 9.52468E-05-2.86033E-05-2.85616E-05 1.46499E-10 7.66339E-18-4.23941E-19
 -1       131 9.52455E-05-2.85991E-05-2.85629E-05 2.40704E-10 2.13107E-18-2.32311E-18
 -1       132 9.52438E-05-2.85933E-05-2.85646E-05 3.10377E-10 1.26288E-18 2.36232E-18
 -1       133 9.52417E-05-2.85864E-05-2.85666E-05 3.52816E-10 8.15251E-18 5.21657E-19
 -1       134 9.52397E-05-2.85796E-05-2.85685E-05 3.40200E-10 1.04140E-17-2.08350E-18
 -1       135 9.52379E-05-2.85739E-05-2.85701E-05 1.31973E-10 3.55796E-18 6.26582E-19
 -1       136 9.52371E-05-2.85709E-05-2.85711E-05-3.02410E-10 6.71384E-18 6.50853E-19
 -1       137 2.65050E-05-9.00017E-05 1.65752E-05-2.30170E-05 1.49359E-17 3.46460E-18
 -1       138 8.01338E-06-2.73744E-05 1.15652E-06-1.17246E-05 1.83535E-17 8.16624E-18
 -1       139 1.38221E-05 2.12708E-05-1.78299E-05 3.13420E-05 1.69745E-17 1.33759E-17
 -1       140 6.42461E-05 2.99489E-05-3.83815E-05 8.60291E-05 1.44690E-17 1.60314E-17
 -1       141 1.51952E-04-1.30366E-06-5.79743E-05 1.19443E-04 9.19031E-18 1.68915E-17
 -1       142 2.53146E-04-5.67041E-05-7.37573E-05 1.03213E-04 3.26891E-18 8.84472E-18
 -1       143 3.16041E-04-9.62124E-05-8.18029E-05 3.34198E-05 1.26711E-19-1.92012E-18
 -1       144 3.07285E-04-9.05622E-05-8.07237E-05-5.18062E-05 1.95321E-18-1.15923E-17
 -1       145 2.31540E-04-4.39873E-05-7.06366E-05-1.10577E-04 7.90917E-18-2.01594E-17
 -1       146 1.23255E-04 1.04770E-05-5.19862E-05-1.11999E-04 1.55164E-17-2.39693E-17
 -1       147 4.04250E-05 3.19301E-05-3.08503E-05-6.68775E-05 2.05198E-17-1.99853E-17
 -1       148 5.73842E-06 4.50574E-06-9.27799E-06-8.73094E-06 2.15786E-17-1.36355E-17
 -1       149 1.27827E-05-5.10716E-05 7.66144E-06 2.32145E-05 1.73142E-17-6.83831E-18
 -1       150 3.27638E-05-1.04596E-04 1.92391E-05 1.80342E-05 7.51911E-18-1.28460E-18
 -1       151 3.82288E-05-1.20232E-04 2.25533E-05-1.14335E-05-4.49841E-18-9.97990E-19
 -1       152 2.40418E-05-9.01908E-05 1.65270E-05-3.26291E-05-1.57108E-17-4.72570E-18
 -1       153 5.69246E-06-3.44524E-05 2.92765E-06-2.33739E-05-2.15371E-17-1.17638E-17
 -1       154 1.61994E-05 1.35749E-05-1.78079E-05 2.60167E-05-2.26641E-17-1.90286E-17
 -1       155 8.41865E-05 1.88776E-05-4.28769E-05 9.09894E-05-1.83061E-17-2.41705E-17
 -1       156 2.07484E-04-2.84305E-05-6.73648E-05 1.22042E-04-1.01201E-17-2.31236E-17
 -1       157 3.15501E-04-8.62060E-05-8.27267E-05 8.63762E-05-4.20351E-18-1.51560E-17
 -1       158 3.08960E-04-8.28653E-05-8.18281E-05-9.01129E-05-2.96070E-18 1.06040E-17
 -1       159 1.82589E-04-1.84013E-05-6.26597E-05-1.18127E-04-1.13521E-17 2.22410E-17
 -1       160 6.77800E-05 2.13022E-05-3.82202E-05-7.94975E-05-1.87258E-17 2.33497E-17
 -1       161 9.67032E-06 6.97386E-06-1.32980E-05-1.35507E-05-1.95643E-17 1.58031E-17
 -1       162 8.14680E-06-4.87614E-05 7.20811E-06 3.08015E-05-1.45715E-17 6.70977E-18
 -1       163 2.93584E-05-1.02833E-04 1.93605E-05 3.05713E-05-7.97524E-18 2.24575E-18
 -1       164 9.80946E-05-1.34125E-05-3.64697E-05-1.94895E-05-2.71086E-18 4.80479E-19
 -1       165 9.13062E-05-8.77494E-06-3.55159E-05-1.41950E-05-2.41259E-18-2.19350E-18
 -1       166 8.69522E-05-6.02015E-06-3.47880E-05-1.04832E-05-1.89009E-18-3.76201E-18
 -1       167 8.39897E-05-4.37105E-06-3.41978E-05-7.81550E-06-1.34555E-18-4.58058E-18
 -1       168 8.20265E-05-3.39243E-06-3.37598E-05-5.84922E-06-8.80286E-19-4.88314E-18
 -1       169 8.09070E-05-2.91926E-06-3.34750E-05-4.22697E-06-4.10188E-19-5.01837E-18
 -1       170 8.05744E-05-2.86711E-06-3.33517E-05-2.71331E-06 6.33215E-20-4.96365E-18
 -1       171 8.08818E-05-3.12581E-06-3.33729E-05-1.09932E-06 4.82207E-19-4.78634E-18
 -1       172 8.16596E-05-3.59156E-06-3.35098E-05 7.55121E-07 8.90062E-19-4.56375E-18
 -1       173 8.27593E-05-4.18995E-06-3.37306E-05 2.93097E-06 1.27070E-18-4.22523E-18
 -1       174 8.40740E-05-4.88508E-06-3.40061E-05 5.42699E-06 1.66850E-18-3.63047E-18
 -1       175 8.56813E-05-5.75705E-06-3.43381E-05 8.37282E-06 2.17416E-18-2.77544E-18
 -1       176 8.77959E-05-6.99500E-06-3.47446E-05 1.18160E-05 2.57141E-18-1.54047E-18
 -1       177 9.11028E-05-9.14848E-06-3.52878E-05 1.59268E-05 2.79347E-18 6.46061E-19
 -1       178 9.78291E-05-1.43027E-05-3.60036E-05 2.05152E-05 2.61556E-18 4.41860E-18
 -1       179 1.07702E-04-2.68470E-05-3.58369E-05 1.76516E-05 1.89295E-18 9.20264E-18
 -1       180 1.07327E-04-2.85623E-05-3.37439E-05-9.86955E-06-2.35750E-18 3.86461E-18
 -1       181 1.02574E-04-2.98341E-05-3.11975E-05-2.16785E-06-2.02753E-18 2.68357E-18
 -1       182 1.01041E-04-2.96507E-05-3.05348E-05 1.46338E-06-1.44191E-18 1.81951E-18
 -1       183 1.02221E-04-3.00913E-05-3.08642E-05 3.97550E-06-1.05294E-18 7.59868E-19
 -1       184 1.05257E-04-3.09503E-05-3.18155E-05 6.29748E-06-7.28581E-19 1.37649E-19
 -1       185 1.09961E-04-3.22876E-05-3.32744E-05 8.72661E-06-1.72596E-19 1.53210E-20
 -1       186 1.16244E-04-3.42137E-05-3.51602E-05 1.11239E-05-3.70114E-20 1.44025E-19
 -1       187 1.23908E-04-3.69388E-05-3.72923E-05 1.26919E-05-9.11617E-20 2.15530E-19
 -1       188 1.32360E-04-4.07185E-05-3.92889E-05 1.15641E-05 2.45312E-19 9.61958E-19
 -1       189 1.40282E-04-4.54283E-05-4.06322E-05 4.82117E-06 7.45217E-19 1.90788E-18
 -1       190 1.44835E-04-4.89358E-05-4.11164E-05-9.09465E-06 7.60841E-19 2.11186E-18
 -1       191 1.42240E-04-4.61097E-05-4.14341E-05-2.41745E-05-9.59966E-19 2.57857E-18
 -1       192 1.33204E-04-3.59185E-05-4.23434E-05-2.45490E-05-2.26518E-18 8.60916E-19
 -1       193 1.26094E-04-2.74456E-05-4.31351E-05-1.97026E-06-4.14051E-18-2.19467E-18
 -1       194 1.31478E-04-3.35886E-05-4.26477E-05 2.25535E-05-3.31942E-18-4.84999E-18
 -1       195 1.42380E-04-4.56044E-05-4.17753E-05 2.59350E-05-4.63486E-19-6.83585E-18
 -1       196 1.46578E-04-4.96069E-05-4.15613E-05 1.15059E-05 9.60694E-19-6.87355E-18
 -1       197 1.43003E-04-4.65440E-05-4.13148E-05-3.14884E-06 7.92743E-19-7.00815E-18
 -1       198 1.35670E-04-4.19011E-05-4.01999E-05-1.06434E-05 6.01513E-19-5.94233E-18
 -1       199 1.27530E-04-3.80908E-05-3.83541E-05-1.21798E-05 1.61240E-18-4.29288E-18
 -1       200 1.20029E-04-3.53607E-05-3.62963E-05-1.07864E-05 5.50064E-19-3.25750E-18
 -1       201 1.13483E-04-3.33643E-05-3.43318E-05-8.41417E-06 5.10440E-19-3.72522E-18
 -1       202 1.08613E-04-3.20241E-05-3.28114E-05-6.25895E-06 3.27370E-19-3.59333E-18
 -1       203 1.04901E-04-3.10496E-05-3.16364E-05-4.52212E-06-1.07212E-18-4.67828E-18
 -1       204 1.02144E-04-3.03405E-05-3.07602E-05-3.21707E-06-7.78614E-19-5.20361E-18
 -1       205 1.00125E-04-2.98242E-05-3.01189E-05-2.27017E-06-1.10476E-18-4.61622E-18
 -1       206 9.86617E-05-2.94492E-05-2.96548E-05-1.59474E-06-1.17014E-19-4.85569E-18
 -1       207 9.76074E-05-2.91778E-05-2.93212E-05-1.11634E-06 1.54052E-19-3.68315E-18
 -1       208 9.68524E-05-2.89826E-05-2.90829E-05-7.78106E-07 6.43899E-19-5.45959E-18
 -1       209 9.63152E-05-2.88433E-05-2.89135E-05-5.38853E-07-7.19036E-19-4.62621E-18
 -1       210 9.59360E-05-2.87448E-05-2.87940E-05-3.69466E-07-4.99579E-19-3.33935E-18
 -1       211 9.56712E-05-2.86761E-05-2.87106E-05-2.49565E-07 3.54559E-19-4.63736E-18
 -1       212 9.54890E-05-2.86290E-05-2.86532E-05-1.64889E-07-4.21781E-19-6.27283E-18
 -1       213 9.53663E-05-2.85976E-05-2.86143E-05-1.05397E-07-1.14907E-18-5.76799E-18
 -1       214 9.52858E-05-2.85773E-05-2.85888E-05-6.40207E-08 1.26743E-18-4.91921E-18
 -1       215 9.52335E-05-2.85645E-05-2.85720E-05-3.44464E-08 7.98869E-19-3.37418E-18
 -1       216 9.52049E-05-2.85579E-05-2.85627E-05-1.56460E-08 3.53033E-21-3.83057E-18
 -1       217 9.51903E-05-2.85548E-05-2.85579E-05-3.42074E-09-1.42298E-18-4.58448E-18
 -1       218 9.51851E-05-2.85542E-05-2.85560E-05 4.24015E-09-8.77560E-19-4.55230E-18
 -1       219 9.51858E-05-2.85551E-05-2.85560E-05 8.72363E-09 7.15216E-19-3.85118E-18
 -1       220 9.51903E-05-2.85568E-05-2.85572E-05 1.10469E-08 5.15461E-19-3.78255E-18
 -1       221 9.51968E-05-2.85590E-05-2.85590E-05 1.19338E-08 1.39790E-18-3.46592E-18
 -1       222 9.52042E-05-2.85614E-05-2.85612E-05 1.18811E-08-2.01142E-18-3.86009E-18
 -1       223 9.52118E-05-2.85638E-05-2.85634E-05 1.12025E-08-1.48477E-18-3.51222E-18
 -1       224 9.52190E-05-2.85661E-05-2.85655E-05 1.00569E-08 4.64899E-19-5.69837E-18
 -1       225 9.52254E-05-2.85681E-05-2.85674E-05 8.46300E-09 2.79994E-18-6.45386E-18
 -1       226 9.52307E-05-2.85699E-05-2.85689E-05 6.32382E-09-1.71397E-18-4.05123E-18
 -1       227 9.52346E-05-2.85713E-05-2.85700E-05 3.57859E-09-1.47357E-18-7.03882E-19
 -1       228 9.52366E-05-2.85719E-05-2.85706E-05 1.38917E-09 4.98912E-19 6.40950E-19
 -1       229 1.02136E-04-2.93962E-05-3.13492E-05 6.36251E-06 1.96745E-18 8.03234E-18
 -1       230 9.76636E-05-2.87972E-05-2.94781E-05 2.10758E-06 1.44168E-18 6.67627E-18
 -1       231 9.58235E-05-2.85817E-05-2.87724E-05 4.80470E-07 8.97782E-19 5.47056E-18
 -1       232 9.51252E-05-2.85295E-05-2.85172E-05-9.75045E-08 8.78690E-19 4.49723E-18
 -1       233 9.48440E-05-2.85272E-05-2.84109E-05-9.30977E-08 6.46232E-19 3.85174E-18
 -1       234 9.45291E-05-2.84953E-05-2.82956E-05 2.95386E-07 5.54721E-19 3.23270E-18
 -1       235 9.38630E-05-2.83371E-05-2.80800E-05 9.47479E-07 4.87328E-19 2.78404E-18
 -1       236 9.26542E-05-2.79821E-05-2.77146E-05 1.72430E-06 3.94235E-19 2.44084E-18
 -1       237 9.08632E-05-2.74031E-05-2.71955E-05 2.43338E-06 4.34905E-19 2.23193E-18
 -1       238 8.86363E-05-2.66373E-05-2.65700E-05 2.84014E-06 4.19110E-19 2.08593E-18
 -1       239 8.63136E-05-2.58004E-05-2.59344E-05 2.72802E-06 3.47656E-19 1.53121E-18
 -1       240 8.43723E-05-2.50735E-05-2.54149E-05 1.99311E-06 4.42401E-19 1.03775E-18
 -1       241 8.32952E-05-2.46523E-05-2.51338E-05 7.24227E-07 2.50533E-19 5.75260E-19
 -1       242 8.34019E-05-2.46717E-05-2.51697E-05-7.93321E-07 5.20368E-19 8.22045E-19
 -1       243 8.47230E-05-2.51454E-05-2.55306E-05-2.17622E-06-2.83941E-19 7.79785E-19
 -1       244 8.69891E-05-2.59599E-05-2.61509E-05-3.09892E-06-2.61017E-20 2.63786E-19
 -1       245 8.97396E-05-2.69271E-05-2.69149E-05-3.41340E-06 1.90985E-19 5.29597E-19
 -1       246 9.24868E-05-2.78593E-05-2.76941E-05-3.17066E-06 5.87877E-20 6.57418E-19
 -1       247 9.48518E-05-2.86250E-05-2.83818E-05-2.55415E-06-3.17684E-19 2.77789E-19
 -1       248 9.66263E-05-2.91657E-05-2.89128E-05-1.78214E-06 3.50467E-19-7.23350E-19
 -1       249 9.77641E-05-2.94832E-05-2.92660E-05-1.03333E-06 2.86560E-20-7.12928E-19
 -1       250 9.83333E-05-2.96155E-05-2.94539E-05-4.15616E-07 1.12573E-18-8.48160E-19
 -1       251 9.84602E-05-2.96136E-05-2.95090E-05 3.00888E-08-2.55512E-20-5.08470E-19
 -1       252 9.82840E-05-2.95267E-05-2.94702E-05 3.09521E-07-8.13756E-19-6.30507E-19
 -1       253 9.79299E-05-2.93951E-05-2.93740E-05 4.52780E-07 4.97425E-19 4.66269E-19
 -1       254 9.74957E-05-2.92481E-05-2.92501E-05 4.97442E-07 4.58068E-19 5.70536E-19
 -1       255 9.70500E-05-2.91047E-05-2.91199E-05 4.78560E-07 1.12816E-18-2.81851E-19
 -1       256 9.66354E-05-2.89758E-05-2.89970E-05 4.24204E-07-5.21136E-19-8.08543E-19
 -1       257 9.62746E-05-2.88665E-05-2.88890E-05 3.54535E-07-4.09645E-20-1.00460E-18
 -1       258 9.59761E-05-2.87778E-05-2.87989E-05 2.82674E-07-2.84559E-19 7.70626E-20
 -1       259 9.57392E-05-2.87087E-05-2.87269E-05 2.16259E-07-2.70571E-19 2.19810E-19
 -1       260 9.55581E-05-2.86567E-05-2.86716E-05 1.59031E-07 5.83178E-19-5.89532E-19
 -1       261 9.54246E-05-2.86189E-05-2.86306E-05 1.12184E-07-2.60442E-19-1.11234E-18
 -1       262 9.53301E-05-2.85926E-05-2.86014E-05 7.53949E-08 2.44147E-19-2.50309E-18
 -1       263 9.52660E-05-2.85751E-05-2.85815E-05 4.75432E-08 9.99753E-19-1.86941E-18
 -1       264 9.52251E-05-2.85642E-05-2.85687E-05 2.71831E-08-8.59440E-19-2.21407E-18
 -1       265 9.52012E-05-2.85581E-05-2.85611E-05 1.28300E-08-1.06907E-18-1.97672E-18
 -1       266 9.51893E-05-2.85554E-05-2.85573E-05 3.11774E-09-7.71913E-20-2.60903E-18
 -1       267 9.51858E-05-2.85549E-05-2.85560E-05-3.12726E-09 1.83481E-19-1.75394E-18
 -1       268 9.51875E-05-2.85558E-05-2.85564E-05-6.86388E-09 5.39516E-20-5.58194E-19
 -1       269 9.51926E-05-2.85576E-05-2.85578E-05-8.84220E-09 1.07948E-18-1.55900E-18
 -1       270 9.51995E-05-2.85598E-05-2.85598E-05-9.62269E-09 1.25060E-18-2.63199E-18
 -1       271 9.52071E-05-2.85622E-05-2.85621E-05-9.59864E-09 5.51019E-19-1.72276E-18
 -1       272 9.52147E-05-2.85646E-05-2.85643E-05-9.01546E-09 1.56236E-19-2.62248E-18
 -1       273 9.52218E-05-2.85668E-05-2.85664E-05-7.98358E-09-5.15462E-19-2.25766E-18
 -1       274 9.52280E-05-2.85688E-05-2.85682E-05-6.48828E-09 2.18098E-19-3.36801E-18
 -1       275 9.52328E-05-2.85704E-05-2.85696E-05-4.40106E-09 5.29721E-19-3.54679E-18
 -1       276 9.52360E-05-2.85715E-05-2.85705E-05-1.79728E-09-8.09359E-19-2.99384E-18
 -1       277 9.52370E-05-2.85735E-05-2.85701E-05-3.44530E-09-1.82930E-18-9.58875E-19
 -1       278 9.52384E-05-2.85771E-05-2.85691E-05-5.69645E-09-1.57880E-18-8.91686E-20
 -1       279 9.52402E-05-2.85817E-05-2.85679E-05-6.80276E-09-8.42597E-19 2.05760E-18
 -1       280 9.52419E-05-2.85864E-05-2.85666E-05-6.77202E-09-1.16031E-18 4.11713E-18
 -1       281 9.52434E-05-2.85907E-05-2.85654E-05-5.86011E-09-1.39119E-18 1.23047E-19
 -1       282 9.52446E-05-2.85942E-05-2.85644E-05-4.28166E-09-9.19506E-20-2.11952E-18
 -1       283 9.52453E-05-2.85964E-05-2.85638E-05-2.27502E-09 1.01960E-18-1.38093E-18
 -1       284 9.52456E-05-2.85973E-05-2.85636E-05-5.15014E-11 1.14372E-18 3.84347E-18
 -1       285 9.52454E-05-2.85965E-05-2.85638E-05 2.18859E-09 8.09017E-19 2.06062E-18
 -1       286 9.52446E-05-2.85943E-05-2.85644E-05 4.24020E-09 1.77940E-18-1.48297E-18
 -1       287 9.52434E-05-2.85909E-05-2.85654E-05 5.85456E-09 2.38663E-18-5.77020E-19
 -1       288 9.52419E-05-2.85865E-05-2.85666E-05 6.83602E-09 3.17929E-18 2.75460E-18
 -1       289 9.52402E-05-2.85817E-05-2.85679E-05 6.88468E-09 3.14310E-18 9.72124E-19
 -1       290 9.52385E-05-2.85772E-05-2.85691E-05 5.75959E-09 1.82402E-18-4.64978E-18
 -1       291 9.52374E-05-2.85742E-05-2.85699E-05 3.77637E-09-4.02936E-20-9.70160E-19
 -1       292 1.36967E-05-5.20043E-05 1.30022E-05 1.27226E-05 2.88711E-18 4.87245E-18
 -1       293 3.17773E-05-4.15255E-05 2.42631E-06 3.31651E-05 3.65092E-18 4.07126E-18
 -1       294 5.63349E-05-3.39560E-05-1.11077E-05 3.95175E-05 7.55151E-18 5.51694E-18
 -1       295 9.64117E-05-3.04786E-05-2.83656E-05 4.94505E-05 6.23416E-18 5.80789E-18
 -1       296 1.40980E-04-3.31432E-05-4.53070E-05 4.54371E-05 5.11195E-18 3.77184E-18
 -1       297 1.79289E-04-3.14296E-05-6.10691E-05 4.10180E-05 5.95714E-18 1.92044E-18
 -1       298 2.12230E-04-3.61723E-05-7.19309E-05 2.43237E-05 5.10729E-18-2.32934E-20
 -1       299 2.21743E-04-3.81665E-05-7.49145E-05-2.88334E-06 4.95027E-18-3.33630E-18
 -1       300 2.03138E-04-3.38886E-05-6.95829E-05-2.61476E-05 5.94596E-18-5.89958E-18
 -1       301 1.68011E-04-3.30569E-05-5.63212E-05-3.53102E-05 6.81018E-18-5.74310E-18
 -1       302 1.25294E-04-3.03756E-05-3.99325E-05-5.05357E-05 7.90134E-18-9.60641E-18
 -1       303 7.86735E-05-3.07192E-05-2.13011E-05-4.59468E-05 8.58764E-18-8.77463E-18
 -1       304 4.46098E-05-3.87303E-05-4.59584E-06-3.39766E-05 7.02656E-18-7.49206E-18
 -1       305 2.25691E-05-4.82796E-05 7.90709E-06-2.05221E-05 4.28599E-18-6.49092E-18
 -1       306 1.08396E-05-4.89345E-05 1.33285E-05-8.90598E-06 1.24937E-19-6.18091E-18
 -1       307 1.38731E-05-4.69087E-05 1.14015E-05 8.40208E-06-2.93116E-18-6.60855E-18
 -1       308 3.13261E-05-4.87690E-05 4.18731E-06 1.84088E-05-6.96833E-18-7.52329E-18
 -1       309 6.26970E-05-4.29074E-05-1.08203E-05 3.22878E-05-9.06389E-18-8.92815E-18
 -1       310 1.16897E-04-4.65496E-05-3.07880E-05 3.93695E-05-7.69932E-18-8.27022E-18
 -1       311 1.68722E-04-4.33922E-05-5.20821E-05 3.98590E-05-7.96084E-18-9.29492E-18
 -1       312 2.14906E-04-4.52678E-05-6.87583E-05 2.66774E-05-6.78394E-18-7.09877E-18
 -1       313 2.34153E-04-4.25460E-05-7.70852E-05 8.10232E-06-6.38091E-18-4.13596E-18
 -1       314 2.38735E-04-4.55319E-05-7.75208E-05-8.21971E-06-6.03511E-18-5.59889E-19
 -1       315 2.06282E-04-4.54782E-05-6.58504E-05-1.96264E-05-7.64738E-18 2.31494E-18
 -1       316 1.58652E-04-4.38553E-05-4.80454E-05-3.95362E-05-7.64310E-18 7.65294E-18
 -1       317 1.01874E-04-4.19394E-05-2.67908E-05-3.91994E-05-6.85800E-18 9.32160E-18
 -1       318 5.40601E-05-4.42584E-05-6.90446E-06-2.77500E-05-6.00737E-18 8.08826E-18
 -1       319 2.51780E-05-5.07180E-05 7.40819E-06-1.30962E-05-3.25578E-18 5.12264E-18
 -1       320 1.11431E-05-4.91794E-05 1.32473E-05-1.17239E-06 3.04138E-19 5.31746E-18
 -1       321 9.26561E-05-1.38054E-05-3.38526E-05-9.26549E-06-2.56369E-18-2.08676E-18
 -1       322 9.87127E-05-1.97184E-05-3.39075E-05-1.09934E-05-2.91731E-18-3.70001E-19
 -1       323 8.51369E-05-7.74929E-06-3.32099E-05-5.83862E-06-1.38177E-18-3.62365E-18
 -1       324 8.32276E-05-6.43718E-06-3.29466E-05-4.62610E-06-7.72772E-19-3.92372E-18
 -1       325 8.24396E-05-5.99749E-06-3.27939E-05-3.49753E-06-2.26050E-19-3.85513E-18
 -1       326 8.25851E-05-6.22792E-06-3.27573E-05-2.23169E-06 2.94125E-19-3.76399E-18
 -1       327 8.34260E-05-6.92622E-06-3.28208E-05-6.78733E-07 7.87654E-19-3.65181E-18
 -1       328 8.47323E-05-7.92801E-06-3.29558E-05 1.22466E-06 1.22747E-18-3.44445E-18
 -1       329 8.63156E-05-9.12677E-06-3.31270E-05 3.43046E-06 1.72172E-18-2.96430E-18
 -1       330 8.81950E-05-1.05997E-05-3.33104E-05 5.96124E-06 2.23118E-18-2.17382E-18
 -1       331 9.04843E-05-1.25409E-05-3.34732E-05 8.68162E-06 2.73143E-18-1.27940E-18
 -1       332 9.35899E-05-1.54703E-05-3.35641E-05 1.13170E-05 3.06597E-18 5.85975E-20
 -1       333 9.80799E-05-2.04314E-05-3.33831E-05 1.27519E-05 3.07890E-18 2.59263E-18
 -1       334 1.01212E-04-2.53205E-05-3.26092E-05 1.05895E-05 2.69083E-18 4.82034E-18
 -1       335 9.91760E-05-2.77707E-05-3.05757E-05 4.67418E-06 2.03385E-18 4.00483E-18
 -1       336 1.00724E-04-2.65556E-05-3.17330E-05-1.70283E-06-2.16088E-18-1.37087E-19
 -1       337 1.00326E-04-2.74272E-05-3.12041E-05 3.29072E-06-1.70539E-18-3.08900E-19
 -1       338 1.00771E-04-2.77559E-05-3.12624E-05 7.30830E-06-1.19375E-18-4.99181E-19
 -1       339 1.02041E-04-2.80392E-05-3.16920E-05 1.11074E-05-5.94420E-19-7.00026E-19
 -1       340 1.04153E-04-2.86672E-05-3.23358E-05 1.48969E-05 7.73331E-21-6.45140E-19
 -1       341 1.07385E-04-3.03232E-05-3.30221E-05 1.83496E-05 1.56557E-19-3.53102E-19
 -1       342 1.12589E-04-3.42867E-05-3.35605E-05 2.03077E-05 7.98861E-19 2.06717E-19
 -1       343 1.21397E-04-4.22126E-05-3.39196E-05 1.83656E-05 1.36278E-18 9.05131E-19
 -1       344 1.35913E-04-5.45171E-05-3.49154E-05 8.81849E-06 1.54664E-18 1.93606E-18
 -1       345 1.51638E-04-6.19327E-05-3.86556E-05-9.49447E-06 7.08861E-20 2.51346E-18
 -1       346 1.61549E-04-5.19884E-05-4.73751E-05-2.39155E-05-2.27518E-18 1.91398E-18
 -1       347 1.55025E-04-2.65807E-05-5.55990E-05-1.72932E-05-5.96449E-18 4.96467E-19
 -1       348 1.57660E-04-2.41901E-05-5.75268E-05 1.31872E-05-6.15094E-18-1.49049E-18
 -1       349 1.59092E-04-4.62412E-05-4.88940E-05 2.83290E-05-3.66220E-18-4.68880E-18
 -1       350 1.53648E-04-6.12077E-05-3.98929E-05 1.35849E-05 1.35029E-19-6.66014E-18
 -1       351 1.39001E-04-5.54044E-05-3.58308E-05-5.28320E-06 2.31939E-18-5.19878E-18
 -1       352 1.25129E-04-4.38209E-05-3.48451E-05-1.61327E-05 2.01453E-18-3.23592E-18
 -1       353 1.16034E-04-3.56933E-05-3.44391E-05-1.89676E-05 1.83595E-18-1.25356E-18
 -1       354 1.10464E-04-3.15358E-05-3.38252E-05-1.75059E-05 1.74285E-18-8.33590E-19
 -1       355 1.06683E-04-2.97401E-05-3.29639E-05-1.42814E-05-4.27486E-19-2.10412E-18
 -1       356 1.04089E-04-2.91370E-05-3.21057E-05-1.10641E-05 2.70357E-19-3.15925E-18
 -1       357 1.02057E-04-2.89372E-05-3.13208E-05-8.28486E-06-7.56698E-19-4.10619E-18
 -1       358 1.00438E-04-2.88651E-05-3.06602E-05-6.08036E-06-6.71392E-19-3.53573E-18
 -1       359 9.91516E-05-2.88217E-05-3.01308E-05-4.40945E-06-9.79713E-19-3.21404E-18
 -1       360 9.81430E-05-2.87794E-05-2.97194E-05-3.17403E-06-6.07440E-20-1.48234E-18
 -1       361 9.73630E-05-2.87357E-05-2.94061E-05-2.27254E-06 1.42260E-19-1.87663E-18
 -1       362 9.67682E-05-2.86936E-05-2.91708E-05-1.61895E-06-1.33104E-18-3.02651E-18
 -1       363 9.63203E-05-2.86563E-05-2.89960E-05-1.14644E-06 5.55473E-19-3.75020E-18
 -1       364 9.59875E-05-2.86255E-05-2.88674E-05-8.05310E-07 4.04384E-19-3.01990E-18
 -1       365 9.57434E-05-2.86015E-05-2.87737E-05-5.59355E-07 3.12698E-20-3.78059E-18
 -1       366 9.55669E-05-2.85838E-05-2.87060E-05-3.82451E-07-2.26678E-18-4.22824E-18
 -1       367 9.54415E-05-2.85716E-05-2.86579E-05-2.55759E-07-9.01966E-19-5.56401E-18
 -1       368 9.53541E-05-2.85636E-05-2.86240E-05-1.65659E-07 4.03368E-19-5.51076E-18
 -1       369 9.52926E-05-2.85589E-05-2.85998E-05-9.96545E-08 1.33626E-18-6.01781E-18
 -1       370 9.52548E-05-2.85569E-05-2.85846E-05-5.64855E-08 1.19998E-18-6.52687E-18
 -1       371 9.52313E-05-2.85566E-05-2.85748E-05-2.71637E-08-5.04179E-19-3.22099E-18
 -1       372 9.52180E-05-2.85573E-05-2.85688E-05-7.78797E-09-8.77029E-19-2.58043E-18
 -1       373 9.52117E-05-2.85587E-05-2.85655E-05 4.51762E-09 1.46332E-20-1.84841E-18
 -1       374 9.52099E-05-2.85604E-05-2.85641E-05 1.18716E-08-4.77236E-20-7.91254E-19
 -1       375 9.52112E-05-2.85623E-05-2.85638E-05 1.58164E-08 1.03537E-18-2.74307E-18
 -1       376 9.52142E-05-2.85642E-05-2.85643E-05 1.74508E-08-1.38423E-18-3.87918E-18
 -1       377 9.52182E-05-2.85660E-05-2.85652E-05 1.75255E-08-6.16139E-19-2.45005E-18
 -1       378 9.52225E-05-2.85678E-05-2.85663E-05 1.65110E-08-2.11020E-18-3.48407E-18
 -1       379 9.52267E-05-2.85695E-05-2.85674E-05 1.46548E-08 4.66865E-19-3.36845E-18
 -1       380 9.52306E-05-2.85712E-05-2.85683E-05 1.20568E-08 3.20046E-18-4.86325E-18
 -1       381 9.52342E-05-2.85729E-05-2.85691E-05 8.71249E-09-1.64116E-20-2.54593E-18
 -1       382 9.74390E-05-2.85797E-05-2.94915E-05 1.11963E-06 1.44274E-18 2.31372E-18
 -1       383 9.69421E-05-2.90549E-05-2.90884E-05 3.41659E-07 1.16217E-18 2.14081E-18
 -1       384 9.66689E-05-2.93855E-05-2.88375E-05 4.79488E-07 1.02319E-18 1.79165E-18
 -1       385 9.63897E-05-2.95911E-05-2.86336E-05 1.25934E-06 7.74179E-19 1.47923E-18
 -1       386 9.58775E-05-2.95776E-05-2.84208E-05 2.44291E-06 6.35364E-19 1.07269E-18
 -1       387 9.49715E-05-2.92388E-05-2.81763E-05 3.72673E-06 2.47900E-19 7.87759E-19
 -1       388 9.36219E-05-2.85131E-05-2.79054E-05 4.71791E-06 6.50992E-19 9.74343E-19
 -1       389 9.19445E-05-2.74525E-05-2.76360E-05 4.99014E-06 7.58430E-19 9.97629E-19
 -1       390 9.02453E-05-2.62713E-05-2.74089E-05 4.22577E-06 4.69069E-19 5.50512E-19
 -1       391 8.89599E-05-2.53127E-05-2.72651E-05 2.39303E-06 7.14149E-19 9.41542E-20
 -1       392 8.84952E-05-2.49157E-05-2.72345E-05-1.60736E-07-4.74802E-21 4.26473E-19
 -1       393 8.90414E-05-2.52428E-05-2.73294E-05-2.79586E-06 1.25754E-19 3.87374E-19
 -1       394 9.04690E-05-2.61837E-05-2.75414E-05-4.84069E-06 6.69768E-20 2.06006E-19
 -1       395 9.23998E-05-2.74237E-05-2.78424E-05-5.87155E-06 4.81535E-20-1.39756E-19
 -1       396 9.43853E-05-2.86109E-05-2.81899E-05-5.83543E-06 4.38474E-19-5.79336E-19
 -1       397 9.60745E-05-2.95029E-05-2.85357E-05-4.98314E-06 1.65528E-19-8.04632E-19
 -1       398 9.72883E-05-3.00170E-05-2.88380E-05-3.69650E-06-2.32479E-20-9.62601E-19
 -1       399 9.80029E-05-3.01946E-05-2.90687E-05-2.32992E-06 2.45934E-19-5.79756E-19
 -1       400 9.82906E-05-3.01349E-05-2.92168E-05-1.12581E-06 9.79233E-19-9.63714E-19
 -1       401 9.82622E-05-2.99417E-05-2.92859E-05-2.01960E-07-1.03964E-20 2.40287E-19
 -1       402 9.80289E-05-2.96959E-05-2.92895E-05 4.20413E-07-8.20161E-19 1.11564E-18
 -1       403 9.76830E-05-2.94496E-05-2.92452E-05 7.77700E-07-6.22939E-19 1.16532E-18
 -1       404 9.72935E-05-2.92301E-05-2.91711E-05 9.30751E-07 4.10716E-19 1.12140E-18
 -1       405 9.69065E-05-2.90482E-05-2.90823E-05 9.43058E-07 1.12431E-18 8.04575E-19
 -1       406 9.65505E-05-2.89048E-05-2.89906E-05 8.69332E-07 6.10320E-19 1.40135E-18
 -1       407 9.62398E-05-2.87961E-05-2.89037E-05 7.51389E-07-9.08891E-19 1.19784E-18
 -1       408 9.59797E-05-2.87162E-05-2.88264E-05 6.18245E-07-1.41959E-20 2.55926E-18
 -1       409 9.57695E-05-2.86592E-05-2.87608E-05 4.88182E-07 3.38766E-19 1.33837E-18
 -1       410 9.56046E-05-2.86196E-05-2.87071E-05 3.71373E-07 7.82336E-20 9.84368E-19
 -1       411 9.54791E-05-2.85931E-05-2.86648E-05 2.72359E-07 4.20084E-20 1.52495E-18
 -1       412 9.53862E-05-2.85760E-05-2.86325E-05 1.92073E-07 1.06185E-18 1.35816E-18
 -1       413 9.53198E-05-2.85657E-05-2.86085E-05 1.29348E-07 7.24143E-19 6.01790E-19
 -1       414 9.52740E-05-2.85600E-05-2.85914E-05 8.19585E-08 4.77706E-20 9.54775E-19
 -1       415 9.52438E-05-2.85574E-05-2.85797E-05 4.73048E-08-5.22739E-20 1.33595E-19
 -1       416 9.52252E-05-2.85568E-05-2.85720E-05 2.28142E-08 9.70868E-19-1.76370E-18
 -1       417 9.52150E-05-2.85576E-05-2.85674E-05 6.16411E-09 4.64670E-19-2.76752E-18
 -1       418 9.52107E-05-2.85590E-05-2.85649E-05-4.62022E-09-7.73073E-19-3.71126E-18
 -1       419 9.52102E-05-2.85608E-05-2.85640E-05-1.11410E-08 4.21450E-19-3.49747E-18
 -1       420 9.52122E-05-2.85627E-05-2.85641E-05-1.46435E-08 4.94506E-19-2.64282E-18
 -1       421 9.52157E-05-2.85646E-05-2.85647E-05-1.60504E-08 4.64184E-19-2.09437E-18
 -1       422 9.52198E-05-2.85665E-05-2.85657E-05-1.60010E-08 8.68181E-19-1.68942E-18
 -1       423 9.52242E-05-2.85683E-05-2.85668E-05-1.48887E-08-2.91135E-19-4.92726E-19
 -1       424 9.52284E-05-2.85701E-05-2.85679E-05-1.29062E-08 4.97212E-19-1.84547E-18
 -1       425 9.52322E-05-2.85717E-05-2.85688E-05-1.01322E-08 6.01440E-19-1.44105E-18
 -1       426 9.52349E-05-2.85729E-05-2.85695E-05-6.96552E-09 2.10798E-19-1.39978E-18
 -1       427 9.52404E-05-2.85818E-05-2.85680E-05-1.14375E-08-1.22634E-19 3.35382E-18
 -1       428 9.52381E-05-2.85780E-05-2.85686E-05-1.09403E-08 1.21619E-18 3.53198E-19
 -1       429 9.52424E-05-2.85852E-05-2.85674E-05-1.05468E-08-1.33658E-18 1.83118E-18
 -1       430 9.52440E-05-2.85881E-05-2.85668E-05-8.43396E-09-6.68984E-19 7.70398E-19
 -1       431 9.52451E-05-2.85902E-05-2.85664E-05-5.45129E-09 1.10510E-18-6.73940E-19
 -1       432 9.52456E-05-2.85913E-05-2.85661E-05-1.94494E-09 6.85784E-19 6.81640E-19
 -1       433 9.52457E-05-2.85914E-05-2.85661E-05 1.75480E-09-5.57614E-19 3.01486E-18
 -1       434 9.52452E-05-2.85903E-05-2.85663E-05 5.31714E-09-1.43962E-18 6.42191E-19
 -1       435 9.52441E-05-2.85883E-05-2.85668E-05 8.34676E-09-8.96590E-19-9.54343E-19
 -1       436 9.52425E-05-2.85854E-05-2.85673E-05 1.05746E-08 2.47146E-18 5.36364E-18
 -1       437 9.52405E-05-2.85819E-05-2.85680E-05 1.15622E-08 3.30386E-18 1.03200E-18
 -1       438 9.52381E-05-2.85781E-05-2.85686E-05 1.09734E-08 1.27596E-18-4.01309E-18
 -1       439 9.80258E-05-2.82021E-05-2.98902E-05 2.44801E-06 1.73671E-18 3.07740E-18
 -1       440 6.54314E-05-4.30483E-05-9.71227E-06 4.84843E-05 9.76100E-19 3.27627E-18
 -1       441 1.34225E-04-5.30396E-05-3.48369E-05 3.19969E-05 1.54366E-18 2.88415E-19
 -1       442 1.05271E-05-2.42006E-05 5.55713E-06 9.28354E-06-1.89391E-20 5.19814E-18
 -1       443 1.00958E-04-5.17663E-05-2.11661E-05 4.62123E-05 1.83181E-18 1.69761E-18
 -1       444 8.82347E-05-1.00950E-05-3.35524E-05-7.40620E-06-1.96054E-18-3.16783E-18
 -1       445 1.55479E-04-4.06595E-05-4.92006E-05 1.07126E-05 3.98820E-18-2.07555E-18
 -1       446 1.60597E-04-2.29201E-05-5.90547E-05 4.06161E-07 5.32710E-18-2.46190E-18
 -1       447 1.63156E-04-1.19924E-05-6.47022E-05-3.23859E-07 5.84643E-18-2.64362E-18
 -1       448 1.66297E-04-1.47112E-05-6.47791E-05-6.82857E-08 5.29777E-18-2.15279E-18
 -1       449 1.57598E-04-2.62093E-05-5.64345E-05 1.42323E-06 5.07923E-18-1.26007E-18
 -1       450 1.50266E-04-4.86519E-05-4.36376E-05-1.68770E-05 3.14558E-18-1.23190E-18
 -1       451 1.24408E-04-5.42352E-05-3.01062E-05-3.76931E-05 1.76098E-18-3.94442E-18
 -1       452 9.01024E-05-5.12183E-05-1.66498E-05-4.84386E-05 4.17164E-19-4.06199E-18
 -1       453 4.71284E-05-3.88229E-05-3.82186E-06-4.43862E-05 3.70048E-19-6.04464E-18
 -1       454 2.01306E-05-2.73340E-05 2.91140E-06-2.77482E-05-3.12343E-19-6.89517E-18
 -1       455 1.25411E-05-2.03750E-05 3.46232E-06 1.99325E-06-4.21452E-19-7.07167E-18
 -1       456 3.62813E-05-3.22964E-05-1.66452E-06 3.21222E-05-2.10488E-19-6.43290E-18
 -1       457 6.83808E-05-4.89381E-05-8.73701E-06 4.01155E-05-1.52169E-18-5.86237E-18
 -1       458 1.16647E-04-6.35715E-05-2.29776E-05 3.49054E-05-1.81413E-18-2.77102E-18
 -1       459 1.61081E-04-6.68984E-05-4.04861E-05 6.88087E-06-2.55709E-18-1.36393E-18
 -1       460 1.78636E-04-3.18388E-05-6.24717E-05-1.30729E-05-6.24316E-18-8.73503E-19
 -1       461 1.77878E-04-2.16042E-05-6.62327E-05 1.58978E-06-6.33623E-18-1.50891E-18
 -1       462 1.75741E-04-5.44385E-05-5.17176E-05 4.50568E-06-5.34687E-18-2.50235E-18
 -1       463 1.52986E-04-6.77310E-05-3.66784E-05-1.38156E-05-1.39813E-18-2.28275E-19
 -1       464 1.09625E-04-6.19527E-05-2.06591E-05-3.55613E-05-4.94244E-19 4.40335E-18
 -1       465 5.74232E-05-4.55231E-05-5.62165E-06-3.71490E-05-4.30822E-19 6.88585E-18
 -1       466 2.44299E-05-2.99367E-05 2.17564E-06-2.23834E-05 1.20072E-18 5.43943E-18
 -1       467 2.45802E-05-2.79054E-05 1.32520E-06 3.29783E-05-6.43851E-19 4.60151E-18
 -1       468 5.18042E-05-3.34135E-05-7.57164E-06 4.63102E-05-1.47717E-18 4.66789E-18
 -1       469 2.02438E-05-1.57558E-05-1.43846E-06-9.03519E-06 6.04940E-19 3.98984E-18
 -1       470 1.80456E-04-4.81958E-05-5.61668E-05-7.42896E-06-5.16007E-18-2.35666E-18
 -1       471 1.76982E-04-4.08771E-05-5.80051E-05 1.59461E-05-6.17942E-18-3.39734E-18
 -1       472 1.79267E-04-2.80291E-05-6.41815E-05 1.24549E-05-6.80062E-18-2.25343E-18
 -1       473 8.40852E-05-9.12488E-06-3.21394E-05-3.77538E-06-5.10609E-19-3.49224E-18
 -1       474 8.54475E-05-1.01376E-05-3.22909E-05-4.08443E-06-9.94677E-19-3.42640E-18
 -1       475 8.48201E-05-9.93704E-06-3.21063E-05-2.21743E-06 4.29938E-19-3.32232E-18
 -1       476 8.62878E-05-1.11974E-05-3.21967E-05-7.40795E-07 8.48725E-19-3.20465E-18
 -1       477 8.80705E-05-1.27167E-05-3.23119E-05 1.11658E-06 1.33890E-18-2.87904E-18
 -1       478 9.00800E-05-1.44905E-05-3.24158E-05 3.26324E-06 1.82488E-18-2.24740E-18
 -1       479 9.22857E-05-1.66012E-05-3.24598E-05 5.43390E-06 2.20550E-18-1.48389E-18
 -1       480 9.48114E-05-1.93100E-05-3.23793E-05 7.25952E-06 2.59455E-18-4.44902E-19
 -1       481 9.75387E-05-2.28658E-05-3.20166E-05 7.95543E-06 2.76658E-18 1.00774E-18
 -1       482 9.88891E-05-2.56137E-05-3.13938E-05 6.68917E-06 2.47308E-18 2.43872E-18
 -1       483 9.69869E-05-2.29069E-05-3.17297E-05 2.54025E-07-1.99408E-18-1.19016E-18
 -1       484 9.65686E-05-2.38216E-05-3.11638E-05 5.07362E-06-1.43932E-18-9.89932E-19
 -1       485 9.57908E-05-2.37424E-05-3.08664E-05 9.42361E-06-9.63695E-19-8.61541E-19
 -1       486 9.48836E-05-2.33616E-05-3.06420E-05 1.36548E-05-2.48570E-19-6.03726E-19
 -1       487 9.41037E-05-2.34348E-05-3.02755E-05 1.79635E-05 1.34612E-19-9.69297E-19
 -1       488 9.42783E-05-2.53465E-05-2.95200E-05 2.23575E-05 6.54563E-19-1.12231E-18
 -1       489 9.75403E-05-3.15660E-05-2.81999E-05 2.64372E-05 1.51264E-18-1.09584E-18
 -1       490 1.07946E-04-4.50264E-05-2.67403E-05 2.88210E-05 2.26356E-18-7.40843E-19
 -1       491 9.63558E-05-5.14937E-05-1.88920E-05 4.65838E-05-7.51901E-19-3.05236E-19
 -1       492 1.14402E-04-4.84345E-05-2.80299E-05-2.53427E-05 3.11760E-18-9.25211E-19
 -1       493 1.01966E-04-3.39745E-05-2.90609E-05-2.49906E-05 2.45830E-18-8.42354E-19
 -1       494 9.74892E-05-2.71024E-05-3.01386E-05-2.17544E-05 2.07500E-18-4.63934E-19
 -1       495 9.64521E-05-2.48434E-05-3.06770E-05-1.76596E-05 3.15852E-20-3.70278E-19
 -1       496 9.65761E-05-2.48431E-05-3.07325E-05-1.39574E-05-7.81700E-19 5.83052E-20
 -1       497 9.68128E-05-2.55351E-05-3.05381E-05-1.07604E-05-3.89851E-19-8.70350E-19
 -1       498 9.69025E-05-2.63193E-05-3.02418E-05-8.14686E-06-7.38851E-19-1.12393E-18
 -1       499 9.68292E-05-2.69795E-05-2.99293E-05-6.08812E-06-9.75473E-19-1.72797E-18
 -1       500 9.66500E-05-2.74730E-05-2.96426E-05-4.50630E-06 3.90190E-19-6.10487E-19
 -1       501 9.64236E-05-2.78203E-05-2.93980E-05-3.31048E-06-4.15439E-19-8.02199E-19
 -1       502 9.61918E-05-2.80570E-05-2.91983E-05-2.41570E-06-4.59276E-19-3.58088E-19
 -1       503 9.59789E-05-2.82158E-05-2.90397E-05-1.75055E-06-5.51801E-19 1.29503E-19
 -1       504 9.57960E-05-2.83220E-05-2.89163E-05-1.25829E-06 2.28590E-19 7.98290E-20
 -1       505 9.56459E-05-2.83935E-05-2.88217E-05-8.95323E-07-1.11533E-18-1.08575E-18
 -1       506 9.55272E-05-2.84423E-05-2.87501E-05-6.28761E-07-1.54847E-18-2.86098E-18
 -1       507 9.54361E-05-2.84764E-05-2.86966E-05-4.33985E-07-2.91828E-18-2.31007E-18
 -1       508 9.53678E-05-2.85006E-05-2.86571E-05-2.92583E-07-3.98176E-19-3.23399E-18
 -1       509 9.53162E-05-2.85191E-05-2.86271E-05-1.86745E-07 4.64346E-19-3.56287E-18
 -1       510 9.52819E-05-2.85322E-05-2.86069E-05-1.15837E-07 1.10169E-18-3.49144E-18
 -1       511 9.52585E-05-2.85420E-05-2.85927E-05-6.62746E-08 2.71051E-18-2.81756E-18
 -1       512 9.52431E-05-2.85496E-05-2.85829E-05-3.23633E-08 7.53453E-19-1.99106E-18
 -1       513 9.52338E-05-2.85554E-05-2.85764E-05-9.80588E-09-4.88526E-19-5.86753E-19
 -1       514 9.52286E-05-2.85598E-05-2.85723E-05 4.62037E-09 1.41042E-19-9.48923E-19
 -1       515 9.52263E-05-2.85633E-05-2.85699E-05 1.33076E-08-7.19686E-19-1.38036E-18
 -1       516 9.52260E-05-2.85660E-05-2.85686E-05 1.80059E-08 6.13813E-20-2.66442E-18
 -1       517 9.52269E-05-2.85681E-05-2.85681E-05 1.99631E-08 5.63422E-19-2.11183E-18
 -1       518 9.52285E-05-2.85699E-05-2.85680E-05 2.00307E-08-2.45254E-18-1.69663E-18
 -1       519 9.52306E-05-2.85715E-05-2.85682E-05 1.87460E-08-1.11327E-18-2.52196E-18
 -1       520 9.52328E-05-2.85732E-05-2.85684E-05 1.64086E-08 2.08563E-18-3.25382E-18
 -1       521 9.52358E-05-2.85756E-05-2.85687E-05 1.41334E-08 5.26984E-19-6.40977E-18
 -1       522 9.86546E-05-3.06310E-05-2.91552E-05 1.01663E-06 9.85010E-19 1.01560E-18
 -1       523 9.84021E-05-2.97407E-05-2.94259E-05 6.25752E-07 1.15287E-18 7.91525E-19
 -1       524 9.82420E-05-2.85832E-05-2.98522E-05 1.24225E-06 1.27418E-18 7.72809E-19
 -1       525 9.88507E-05-3.12209E-05-2.89875E-05 2.15703E-06 8.51896E-19 1.01819E-18
 -1       526 9.87734E-05-3.13476E-05-2.88998E-05 3.74548E-06 8.21771E-19 1.02772E-18
 -1       527 9.82102E-05-3.08160E-05-2.88848E-05 5.34513E-06 3.37414E-19 7.45975E-19
 -1       528 9.70560E-05-2.95334E-05-2.89374E-05 6.38133E-06 4.74408E-19 9.66790E-19
 -1       529 9.54401E-05-2.76674E-05-2.90420E-05 6.25661E-06 7.11552E-19 1.25250E-18
 -1       530 9.37921E-05-2.57297E-05-2.91645E-05 4.61459E-06 5.68099E-19 1.08102E-18
 -1       531 9.27077E-05-2.44211E-05-2.92599E-05 1.61495E-06 4.59755E-19 1.51564E-18
 -1       532 9.26581E-05-2.42951E-05-2.92924E-05-2.01110E-06 3.37117E-19 9.85270E-19
 -1       533 9.36931E-05-2.54133E-05-2.92572E-05-5.22583E-06 4.63904E-19-6.19970E-20
 -1       534 9.53996E-05-2.72984E-05-2.91819E-05-7.20033E-06 5.13962E-19-3.93638E-19
 -1       535 9.71754E-05-2.92558E-05-2.91066E-05-7.64488E-06 5.75721E-19-7.91255E-19
 -1       536 9.85368E-05-3.07307E-05-2.90606E-05-6.80743E-06 5.97551E-19-4.78822E-19
 -1       537 9.92813E-05-3.15002E-05-2.90519E-05-5.21483E-06 4.23683E-19-4.98946E-19
 -1       538 9.94500E-05-3.16281E-05-2.90702E-05-3.39801E-06-1.88217E-20-1.22764E-18
 -1       539 9.92077E-05-3.13216E-05-2.90977E-05-1.73578E-06 2.24739E-19-4.61953E-19
 -1       540 9.87363E-05-3.08025E-05-2.91175E-05-4.23641E-07-5.14518E-19 7.12027E-19
 -1       541 9.81790E-05-3.02389E-05-2.91194E-05 4.87495E-07-7.49289E-19 1.28148E-18
 -1       542 9.76275E-05-2.97304E-05-2.91002E-05 1.03420E-06-1.10091E-18 1.16922E-18
 -1       543 9.71297E-05-2.93201E-05-2.90620E-05 1.29239E-06-1.58649E-19 7.54585E-19
 -1       544 9.67049E-05-2.90150E-05-2.90102E-05 1.34563E-06 1.16596E-18 3.27317E-20
 -1       545 9.63551E-05-2.88030E-05-2.89508E-05 1.26835E-06 3.61938E-19 9.87909E-19
 -1       546 9.60743E-05-2.86650E-05-2.88894E-05 1.11912E-06-4.87216E-19 8.16365E-19
 -1       547 9.58532E-05-2.85816E-05-2.88304E-05 9.39920E-07-6.28400E-19 4.43830E-19
 -1       548 9.56819E-05-2.85358E-05-2.87765E-05 7.58308E-07 1.97208E-19 1.45357E-18
 -1       549 9.55511E-05-2.85147E-05-2.87295E-05 5.90563E-07 2.71118E-19 2.04271E-18
 -1       550 9.54527E-05-2.85087E-05-2.86900E-05 4.44863E-07 5.09997E-19 9.81512E-19
 -1       551 9.53800E-05-2.85113E-05-2.86578E-05 3.23974E-07 8.71649E-19 2.81238E-19
 -1       552 9.53272E-05-2.85181E-05-2.86322E-05 2.27330E-07 1.00320E-18 4.45612E-20
 -1       553 9.52897E-05-2.85266E-05-2.86126E-05 1.52537E-07 4.47687E-19 7.94663E-19
 -1       554 9.52638E-05-2.85351E-05-2.85979E-05 9.63825E-08 2.57054E-19 1.67960E-19
 -1       555 9.52466E-05-2.85430E-05-2.85872E-05 5.54772E-08 1.31780E-18 5.05009E-19
 -1       556 9.52357E-05-2.85497E-05-2.85797E-05 2.66282E-08 7.08892E-19 1.45455E-18
 -1       557 9.52295E-05-2.85553E-05-2.85746E-05 7.02874E-09 3.46240E-19 2.09945E-18
 -1       558 9.52264E-05-2.85597E-05-2.85714E-05-5.66738E-09-1.34006E-20 1.33204E-18
 -1       559 9.52255E-05-2.85633E-05-2.85695E-05-1.33408E-08 3.06650E-19 9.24846E-19
 -1       560 9.52261E-05-2.85661E-05-2.85686E-05-1.74385E-08 6.01920E-19-9.39653E-20
 -1       561 9.52275E-05-2.85684E-05-2.85682E-05-1.90241E-08 1.59004E-19-1.00469E-18
 -1       562 9.52294E-05-2.85703E-05-2.85682E-05-1.88323E-08-3.33685E-19 7.25046E-19
 -1       563 9.52316E-05-2.85720E-05-2.85684E-05-1.73237E-08 4.15314E-19 7.95262E-19
 -1       564 9.52340E-05-2.85738E-05-2.85686E-05-1.47591E-08 1.03781E-18 8.52620E-19
 -1       565 9.52438E-05-2.85837E-05-2.85686E-05-1.21784E-08 7.89909E-19 1.88721E-18
 -1       566 9.52414E-05-2.85811E-05-2.85687E-05-1.42521E-08 4.28203E-19 3.97805E-18
 -1       567 9.52383E-05-2.85780E-05-2.85687E-05-1.47207E-08 6.71465E-19 7.75870E-19
 -1       568 9.52456E-05-2.85856E-05-2.85685E-05-8.86599E-09-1.36792E-19 1.14342E-18
 -1       569 9.52467E-05-2.85869E-05-2.85685E-05-4.73068E-09-1.69423E-19-8.14499E-19
 -1       570 9.52471E-05-2.85873E-05-2.85684E-05-1.60908E-10 7.44262E-19 1.58846E-18
 -1       571 9.52468E-05-2.85870E-05-2.85685E-05 4.45242E-09-1.92376E-18 1.06193E-18
 -1       572 9.52458E-05-2.85859E-05-2.85685E-05 8.64113E-09-2.53997E-18 2.32635E-19
 -1       573 9.52441E-05-2.85840E-05-2.85686E-05 1.21194E-08 8.53050E-19 3.75960E-18
 -1       574 9.52416E-05-2.85814E-05-2.85686E-05 1.43510E-08 9.83429E-19 3.42239E-18
 -1       575 9.52388E-05-2.85786E-05-2.85687E-05 1.49778E-08 8.09904E-19 5.79760E-19
 -1       576 9.57139E-05-1.96122E-05-3.26329E-05-4.75520E-06-2.42312E-18-1.60674E-18
 -1       577 1.23894E-04-5.98352E-05-2.74136E-05 3.37735E-05-6.47345E-19-9.62600E-19
 -1       578 1.43220E-04-5.46153E-05-3.82263E-05 7.08845E-06 4.44798E-19-3.39374E-18
 -1       579 5.33821E-05-3.20956E-05-8.65006E-06-3.49343E-05 2.10673E-18 6.31902E-18
 -1       580 1.38031E-04-6.64982E-05-3.05781E-05-1.60136E-05 2.17206E-18-1.74562E-18
 -1       581 8.39744E-05-9.15413E-06-3.20788E-05-3.21132E-06-6.66295E-20-3.41096E-18
 -1       582 1.33714E-04-1.11509E-05-5.32044E-05-8.99513E-06 4.39441E-18-2.05646E-18
 -1       583 1.45691E-04-3.17927E-05-4.93003E-05-7.36392E-06 3.60153E-18-3.92986E-18
 -1       584 1.35647E-04-5.36865E-06-5.65324E-05 1.63816E-06 5.51418E-18-6.62429E-19
 -1       585 1.37129E-04-1.41434E-05-5.32961E-05 9.74351E-06 4.61162E-18-5.57559E-19
 -1       586 1.43897E-04-4.11751E-05-4.44631E-05 7.09347E-06 1.84026E-18 8.99125E-19
 -1       587 1.39536E-04-5.97643E-05-3.43474E-05-1.82842E-05-2.63745E-19 9.82029E-20
 -1       588 1.19263E-04-5.97109E-05-2.53164E-05-3.68123E-05-1.80683E-18-1.42925E-18
 -1       589 7.67860E-05-4.30595E-05-1.41035E-05-4.80825E-05-2.12754E-18-3.66980E-18
 -1       590 4.66796E-05-2.63293E-05-8.10463E-06-4.05974E-05-1.93319E-18-5.31185E-18
 -1       591 2.46089E-05-1.24838E-05-4.53444E-06-1.63825E-05-7.02217E-19-6.70723E-18
 -1       592 3.33342E-05-1.55154E-05-6.91002E-06 2.02553E-05 6.51792E-19-6.12802E-18
 -1       593 7.20001E-05-3.94517E-05-1.33480E-05 3.97932E-05 1.66108E-18-4.31733E-18
 -1       594 1.08876E-04-5.70430E-05-2.19962E-05 3.46776E-05 1.58967E-18-1.35405E-18
 -1       595 1.43578E-04-6.73296E-05-3.25920E-05 1.24598E-05 3.76453E-19 3.57210E-19
 -1       596 1.62536E-04-6.37800E-05-4.26618E-05 1.18057E-05-1.76255E-18-5.26399E-18
 -1       597 9.32620E-05-5.23909E-05-1.72672E-05-3.79829E-05 2.23416E-18 3.48387E-18
 -1       598 2.41859E-05-1.46847E-05-3.39654E-06 2.15489E-05-2.05482E-18 4.47180E-18
 -1       599 8.81619E-05-1.23564E-05-3.25097E-05-4.38845E-06-1.53660E-18-2.99436E-18
 -1       600 9.83306E-05-2.70076E-05-3.05486E-05 3.76300E-06 2.05985E-18 1.63278E-18
 -1       601 4.28580E-05-2.06915E-05-8.93036E-06 3.55063E-05-2.64981E-18 4.32543E-18
 -1       602 9.81383E-05-2.77839E-05-3.01414E-05 2.23544E-06 1.61629E-18 1.14560E-18
 -1       603 4.14192E-05-1.85187E-05-9.18027E-06-2.40728E-05 1.62448E-18 5.25393E-18
 -1       604 8.94191E-05-1.57934E-05-3.15588E-05-1.27942E-06 8.90785E-19-2.66672E-18
 -1       605 8.73478E-05-1.39860E-05-3.14452E-05-2.76351E-06 4.92997E-19-2.97016E-18
 -1       606 9.36518E-05-1.97718E-05-3.16689E-05 2.47449E-06 1.72292E-18-1.56353E-18
 -1       607 9.56663E-05-2.20381E-05-3.15620E-05 4.03259E-06 1.92760E-18-8.22842E-19
 -1       608 9.79573E-05-2.53868E-05-3.10907E-05 4.79659E-06 2.20513E-18 7.58047E-19
 -1       609 9.25672E-05-1.94743E-05-3.13249E-05 1.60005E-06-1.50325E-18-1.78838E-18
 -1       610 9.12334E-05-1.98636E-05-3.05869E-05 5.61715E-06-1.05163E-18-1.56571E-18
 -1       611 8.87749E-05-1.91482E-05-2.98357E-05 9.35777E-06-5.84979E-19-1.62631E-18
 -1       612 8.53316E-05-1.80264E-05-2.88390E-05 1.30240E-05-3.00175E-19-1.90682E-18
 -1       613 8.10689E-05-1.73640E-05-2.72789E-05 1.71170E-05 1.30503E-19-2.09332E-18
 -1       614 7.67114E-05-1.87707E-05-2.47352E-05 2.24119E-05 1.01008E-18-2.24597E-18
 -1       615 7.43327E-05-2.54466E-05-2.06113E-05 2.98692E-05 2.00493E-18-2.50079E-18
 -1       616 7.85206E-05-2.87696E-05-2.09787E-05-3.02367E-05 2.55509E-18 3.33105E-18
 -1       617 7.88642E-05-2.06814E-05-2.48181E-05-2.29638E-05 1.87177E-18 2.56325E-18
 -1       618 8.24239E-05-1.86386E-05-2.73073E-05-1.74898E-05 9.81267E-19 5.98075E-19
 -1       619 8.61584E-05-1.94488E-05-2.85822E-05-1.37871E-05 4.78806E-19 4.64108E-19
 -1       620 8.92562E-05-2.11272E-05-2.91946E-05-1.09164E-05-1.55345E-18 9.27965E-19
 -1       621 9.15338E-05-2.28717E-05-2.94238E-05-8.58972E-06-8.49613E-19-6.53335E-20
 -1       622 9.30813E-05-2.43649E-05-2.94476E-05-6.68885E-06-1.78989E-18-6.31258E-19
 -1       623 9.40712E-05-2.55317E-05-2.93723E-05-5.15092E-06 5.94095E-19-2.11177E-19
 -1       624 9.46713E-05-2.63992E-05-2.92582E-05-3.92468E-06 2.98497E-19-4.18012E-19
 -1       625 9.50152E-05-2.70266E-05-2.91371E-05-2.96057E-06-2.08381E-19-1.97948E-19
 -1       626 9.51987E-05-2.74735E-05-2.90244E-05-2.21151E-06-9.58516E-19 8.71744E-20
 -1       627 9.52864E-05-2.77899E-05-2.89266E-05-1.63523E-06-5.16435E-19 7.42969E-19
 -1       628 9.53198E-05-2.80139E-05-2.88451E-05-1.19562E-06-1.60238E-18-7.18788E-19
 -1       629 9.53244E-05-2.81729E-05-2.87790E-05-8.62912E-07-1.89753E-18-7.38799E-19
 -1       630 9.53154E-05-2.82865E-05-2.87265E-05-6.13132E-07-9.93655E-19-5.94086E-19
 -1       631 9.53011E-05-2.83681E-05-2.86854E-05-4.27143E-07-1.92854E-18 1.46771E-18
 -1       632 9.52857E-05-2.84296E-05-2.86525E-05-2.84504E-07 3.13760E-19 1.95316E-18
 -1       633 9.52726E-05-2.84717E-05-2.86289E-05-1.86549E-07 1.33697E-19 1.21877E-18
 -1       634 9.52618E-05-2.85022E-05-2.86112E-05-1.16282E-07 3.95553E-19-8.78224E-19
 -1       635 9.52535E-05-2.85243E-05-2.85982E-05-6.68011E-08 9.58692E-19-3.86763E-18
 -1       636 9.52473E-05-2.85401E-05-2.85888E-05-3.27315E-08 1.43185E-18-2.97187E-18
 -1       637 9.52429E-05-2.85514E-05-2.85821E-05-9.94617E-09 1.78924E-18-2.86568E-19
 -1       638 9.52400E-05-2.85594E-05-2.85774E-05 4.69035E-09 7.13786E-20 2.48562E-18
 -1       639 9.52381E-05-2.85649E-05-2.85742E-05 1.35310E-08-4.86295E-19 2.55617E-18
 -1       640 9.52370E-05-2.85687E-05-2.85721E-05 1.83087E-08 4.22168E-19 1.28895E-18
 -1       641 9.52366E-05-2.85714E-05-2.85708E-05 2.02633E-08-1.17905E-18-4.19229E-19
 -1       642 9.52366E-05-2.85735E-05-2.85699E-05 2.02432E-08-1.67291E-18 1.29866E-18
 -1       643 9.52370E-05-2.85753E-05-2.85693E-05 1.87660E-08-1.23427E-18 6.89640E-19
 -1       644 9.52379E-05-2.85769E-05-2.85690E-05 1.71114E-08-8.80767E-19-9.36241E-19
 -1       645 9.99595E-05-3.08427E-05-2.96222E-05 4.13934E-07 9.19853E-19 1.74531E-19
 -1       646 1.00993E-04-3.23441E-05-2.94222E-05 1.12230E-06 7.83141E-19 3.59655E-19
 -1       647 9.89684E-05-2.89706E-05-2.99981E-05 7.09890E-07 1.12942E-18-2.91244E-20
 -1       648 1.02356E-04-3.34388E-05-2.95366E-05 4.68794E-06 5.00843E-19 1.18372E-18
 -1       649 1.02030E-04-3.23734E-05-2.98521E-05 6.63670E-06 3.25155E-19 1.06743E-18
 -1       650 1.00737E-04-3.00237E-05-3.03036E-05 7.68794E-06 3.94697E-19 1.06611E-18
 -1       651 9.87449E-05-2.68691E-05-3.08012E-05 6.98978E-06 7.16005E-19 8.97644E-19
 -1       652 9.68367E-05-2.40119E-05-3.12097E-05 4.20512E-06 4.08986E-19 1.23005E-19
 -1       653 9.59266E-05-2.26763E-05-3.13935E-05-1.18626E-07 8.93370E-19-2.17321E-19
 -1       654 9.65451E-05-2.35575E-05-3.12808E-05-4.62143E-06 1.10504E-18-1.68898E-19
 -1       655 9.83166E-05-2.61687E-05-3.09178E-05-7.79788E-06 5.31710E-19-2.61586E-19
 -1       656 1.00348E-04-2.93467E-05-3.04266E-05-8.91832E-06 3.90644E-19 1.55776E-19
 -1       657 1.01785E-04-3.19260E-05-2.99381E-05-8.15498E-06 5.57350E-19-7.15469E-20
 -1       658 1.02266E-04-3.33387E-05-2.95412E-05-6.25230E-06 2.65482E-19 4.87013E-19
 -1       659 1.01889E-04-3.36057E-05-2.92652E-05-3.99301E-06 1.99383E-19 8.58243E-19
 -1       660 1.00972E-04-3.30749E-05-2.91000E-05-1.92629E-06-2.68898E-19 2.87383E-19
 -1       661 9.98480E-05-3.21520E-05-2.90138E-05-3.16785E-07-7.14458E-19 4.61348E-19
 -1       662 9.87521E-05-3.11506E-05-2.89730E-05 7.80418E-07-6.73644E-19-5.52756E-19
 -1       663 9.78093E-05-3.02562E-05-2.89519E-05 1.42401E-06-3.07987E-19-1.77035E-19
 -1       664 9.70609E-05-2.95484E-05-2.89343E-05 1.71644E-06-4.32734E-19-3.54952E-19
 -1       665 9.64993E-05-2.90380E-05-2.89122E-05 1.76357E-06 3.24170E-19-7.77169E-20
 -1       666 9.60949E-05-2.87002E-05-2.88835E-05 1.65622E-06 3.85911E-19 6.58157E-19
 -1       667 9.58124E-05-2.84973E-05-2.88492E-05 1.46424E-06 1.59812E-19 4.54303E-19
 -1       668 9.56194E-05-2.83913E-05-2.88119E-05 1.23718E-06-3.91555E-19 8.31436E-19
 -1       669 9.54896E-05-2.83498E-05-2.87741E-05 1.00750E-06-5.52163E-19 4.84436E-19
 -1       670 9.54031E-05-2.83479E-05-2.87378E-05 7.94520E-07 2.82779E-19-6.60171E-19
 -1       671 9.53458E-05-2.83678E-05-2.87048E-05 6.08138E-07 4.91750E-19-7.95523E-20
 -1       672 9.53079E-05-2.83976E-05-2.86758E-05 4.51923E-07 9.22068E-19 4.96049E-19
 -1       673 9.52828E-05-2.84300E-05-2.86511E-05 3.25484E-07 7.62152E-19 1.13567E-18
 -1       674 9.52661E-05-2.84607E-05-2.86308E-05 2.26191E-07-1.98641E-19 1.45442E-18
 -1       675 9.52550E-05-2.84876E-05-2.86145E-05 1.50353E-07 1.28585E-18 1.54361E-18
 -1       676 9.52476E-05-2.85100E-05-2.86018E-05 9.39778E-08 7.37856E-19 2.01260E-18
 -1       677 9.52427E-05-2.85279E-05-2.85920E-05 5.32285E-08 1.31064E-19 1.54872E-18
 -1       678 9.52395E-05-2.85417E-05-2.85848E-05 2.46720E-08 2.66209E-19 1.48353E-18
 -1       679 9.52376E-05-2.85520E-05-2.85795E-05 5.38538E-09 5.61181E-19 2.18879E-18
 -1       680 9.52364E-05-2.85596E-05-2.85758E-05-7.02307E-09 8.27916E-19 2.83041E-18
 -1       681 9.52359E-05-2.85649E-05-2.85732E-05-1.44395E-08 1.08445E-18 2.13910E-18
 -1       682 9.52357E-05-2.85688E-05-2.85715E-05-1.82961E-08 2.56308E-19 3.79816E-18
 -1       683 9.52359E-05-2.85715E-05-2.85704E-05-1.96380E-08-2.76385E-19 3.24688E-18
 -1       684 9.52363E-05-2.85737E-05-2.85697E-05-1.91975E-08-5.66068E-19 2.87583E-18
 -1       685 9.52373E-05-2.85759E-05-2.85692E-05-1.75134E-08 1.28947E-18 1.93657E-18
 -1       686 9.52480E-05-2.85832E-05-2.85706E-05-7.78741E-09 4.73470E-19-4.63512E-19
 -1       687 7.52857E-05-3.63005E-05-1.62586E-05 4.34828E-05-3.57485E-18 1.90588E-18
 -1       688 9.52462E-05-2.85819E-05-2.85704E-05-1.20687E-08-3.31393E-19 1.88129E-18
 -1       689 9.52415E-05-2.85786E-05-2.85698E-05-1.67095E-08 1.64086E-18 2.76873E-18
 -1       690 9.52490E-05-2.85839E-05-2.85708E-05-2.84351E-09 5.05879E-19 6.93244E-20
 -1       691 8.51889E-05-1.19075E-05-3.14094E-05-3.21177E-06-6.82280E-19-3.07984E-18
 -1       692 9.52491E-05-2.85840E-05-2.85708E-05 2.35836E-09 1.17562E-18-5.72047E-19
 -1       693 9.52483E-05-2.85835E-05-2.85706E-05 7.34275E-09 9.75662E-19-9.69595E-19
 -1       694 9.52466E-05-2.85824E-05-2.85704E-05 1.18632E-08 1.74226E-18 4.30823E-18
 -1       695 9.52439E-05-2.85806E-05-2.85700E-05 1.53259E-08 6.55124E-19 4.37397E-18
 -1       696 1.36746E-04-4.16565E-05-4.10988E-05-7.69916E-06 2.04638E-18-3.48978E-18
 -1       697 9.15643E-05-1.77280E-05-3.16496E-05 5.75473E-07 1.30139E-18-2.24029E-18
 -1       698 1.27955E-04-2.24908E-05-4.56648E-05-1.35087E-05 2.45560E-18-2.06644E-18
 -1       699 6.25645E-05-2.34195E-05-1.63249E-05 3.02893E-05 1.61750E-18-3.86782E-18
 -1       700 1.26898E-04-2.56672E-05-4.38216E-05 1.34981E-05 2.08277E-18 1.96025E-18
 -1       701 1.30917E-04-5.82933E-05-3.11538E-05 1.68788E-05-1.22676E-18-2.59601E-18
 -1       702 1.16417E-04-5.59647E-05-2.57599E-05 3.12621E-05-2.22768E-18-1.62947E-18
 -1       703 8.10024E-05-3.73059E-05-1.83559E-05-3.47763E-05 2.84873E-18 3.53414E-18
 -1       704 1.37565E-04-5.28114E-05-3.64667E-05-1.25973E-06-6.20253E-19 1.18995E-18
 -1       705 1.21066E-04-8.95062E-06-4.85692E-05 6.46498E-06 4.42532E-18 7.66254E-19
 -1       706 3.87576E-05-7.71162E-06-1.27469E-05 1.22003E-06-3.50111E-19-5.40126E-18
 -1       707 1.29445E-04-5.96263E-05-2.98923E-05-2.10228E-05-1.84572E-18 2.20851E-19
 -1       708 1.02723E-04-5.01816E-05-2.22977E-05-3.83145E-05-2.63822E-18-1.37504E-18
 -1       709 7.03613E-05-3.16668E-05-1.61784E-05-4.04740E-05-2.67273E-18-3.77591E-18
 -1       710 4.55183E-05-1.56528E-05-1.22714E-05-2.77495E-05-1.83466E-18-4.95472E-18
 -1       711 1.01897E-04-3.33183E-05-2.93923E-05 2.65733E-06 6.26367E-19 6.58860E-19
 -1       712 1.18880E-04-7.90650E-06-4.80305E-05-4.96649E-06 4.32924E-18-8.42321E-19
 -1       713 9.52442E-05-2.85804E-05-2.85702E-05-1.47625E-08-5.68463E-19 9.63653E-19
 -1       714 3.01895E-05-8.78744E-06-8.47906E-06 2.59926E-06-3.84452E-19 1.57982E-18
 -1       715 8.56604E-05-1.25037E-05-3.13567E-05-3.61786E-06 1.83665E-20-2.91419E-18
 -1       716 3.77227E-05-1.08331E-05-1.09699E-05 1.84273E-05-1.47840E-18 2.98304E-18
 -1       717 5.53035E-05-1.20255E-05-1.82182E-05 1.67349E-05 9.07880E-19-3.84865E-18
 -1       718 8.71189E-05-1.34773E-05-3.15661E-05-2.32490E-06-1.11565E-18-2.84416E-18
 -1       719 9.83359E-05-4.56156E-05-2.24190E-05 3.58920E-05-3.04207E-18-1.40587E-18
 -1       720 8.47898E-05-1.16802E-05-3.13362E-05-3.73781E-06-3.14913E-19-3.12016E-18
 -1       721 9.14384E-05-1.73822E-05-3.17456E-05-9.72912E-07-1.67853E-18-2.14407E-18
 -1       722 9.52411E-05-2.85789E-05-2.85695E-05 1.67857E-08-2.81967E-19 2.15394E-18
 -1       723 9.80195E-05-2.66538E-05-3.05801E-05 2.09572E-06 1.52429E-18-1.01762E-20
 -1       724 1.32991E-04-5.15991E-05-3.50137E-05 1.11405E-06 1.99119E-20-3.47868E-18
 -1       725 1.28806E-04-3.93646E-05-3.85071E-05 1.04619E-05 4.23675E-19 1.75138E-18
 -1       726 6.10528E-05-2.37045E-05-1.55292E-05-2.94536E-05 2.35455E-18 5.22466E-18
 -1       727 9.03022E-05-1.84069E-05-3.08137E-05-3.73644E-06 5.07057E-19-2.41910E-18
 -1       728 9.65882E-05-2.43773E-05-3.09498E-05 1.39478E-06 1.36831E-18-1.05011E-18
 -1       729 5.25048E-05-1.03272E-05-1.77892E-05-1.30401E-05-1.02789E-18-4.20655E-18
 -1       730 7.55076E-05-3.41709E-05-1.72669E-05 3.53051E-05 1.98383E-18-3.05186E-18
 -1       731 8.91207E-05-1.68204E-05-3.09798E-05 9.78562E-07-1.25724E-18-2.11645E-18
 -1       732 6.01348E-05-2.18627E-05-1.59976E-05 3.32354E-05-2.41419E-18 3.20515E-18
 -1       733 8.55246E-05-1.63388E-05-2.96509E-05 4.07548E-06-9.42664E-19-2.19497E-18
 -1       734 8.13734E-05-1.51027E-05-2.84006E-05 6.30939E-06-6.14563E-19-2.24454E-18
 -1       735 7.53110E-05-1.32683E-05-2.65758E-05 8.22614E-06-2.82954E-19-2.55820E-18
 -1       736 6.69235E-05-1.14744E-05-2.37065E-05 1.04379E-05 3.12110E-19-2.93488E-18
 -1       737 6.67120E-05-1.22672E-05-2.32435E-05-1.16958E-05 8.58183E-20 2.11025E-18
 -1       738 7.49819E-05-1.43292E-05-2.59780E-05-9.33509E-06 3.39181E-20 1.18072E-18
 -1       739 8.11105E-05-1.69250E-05-2.75071E-05-7.87032E-06-9.39347E-19 3.08310E-19
 -1       740 8.55692E-05-1.94512E-05-2.83368E-05-6.69951E-06-1.27772E-18 6.15325E-19
 -1       741 8.87360E-05-2.16336E-05-2.87583E-05-5.63556E-06-1.29581E-18 9.89045E-19
 -1       742 9.09336E-05-2.33936E-05-2.89456E-05-4.65115E-06-6.86117E-19 1.84140E-18
 -1       743 9.24279E-05-2.47538E-05-2.90030E-05-3.76313E-06-1.30716E-19 1.17863E-18
 -1       744 9.34266E-05-2.57772E-05-2.89925E-05-2.98867E-06 6.14469E-20-3.93273E-21
 -1       745 9.40847E-05-2.65347E-05-2.89499E-05-2.33363E-06-2.64835E-19-5.72529E-19
 -1       746 9.45131E-05-2.70903E-05-2.88954E-05-1.79351E-06-9.05535E-19-1.23389E-18
 -1       747 9.47891E-05-2.74961E-05-2.88398E-05-1.35734E-06-1.27197E-18 2.58339E-20
 -1       748 9.49654E-05-2.77924E-05-2.87884E-05-1.01126E-06-1.23970E-18 9.96534E-19
 -1       749 9.50769E-05-2.80089E-05-2.87434E-05-7.40859E-07-1.20301E-18 1.69075E-18
 -1       750 9.51468E-05-2.81674E-05-2.87055E-05-5.32435E-07-6.49981E-19 1.88480E-18
 -1       751 9.51918E-05-2.82884E-05-2.86729E-05-3.67587E-07 4.30693E-20 2.95129E-18
 -1       752 9.52174E-05-2.83720E-05-2.86480E-05-2.51121E-07 3.95758E-19 2.28118E-18
 -1       753 9.52325E-05-2.84331E-05-2.86283E-05-1.65280E-07-1.92955E-18 3.08578E-18
 -1       754 9.52410E-05-2.84774E-05-2.86130E-05-1.03171E-07-5.24647E-19 2.12578E-18
 -1       755 9.52454E-05-2.85093E-05-2.86012E-05-5.91318E-08 1.81799E-18 1.39498E-18
 -1       756 9.52471E-05-2.85320E-05-2.85922E-05-2.86557E-08 1.27546E-18 8.40524E-19
 -1       757 9.52474E-05-2.85478E-05-2.85855E-05-8.20686E-09 1.82742E-18 1.00723E-19
 -1       758 9.52467E-05-2.85587E-05-2.85806E-05 4.94341E-09-4.01007E-19-5.75471E-19
 -1       759 9.52456E-05-2.85661E-05-2.85769E-05 1.28708E-08-2.82947E-20 2.19965E-18
 -1       760 9.52443E-05-2.85709E-05-2.85743E-05 1.71086E-08-1.18186E-18 1.43055E-18
 -1       761 9.52430E-05-2.85742E-05-2.85723E-05 1.87803E-08 6.95131E-20-2.88531E-19
 -1       762 9.52420E-05-2.85766E-05-2.85709E-05 1.86463E-08-1.14680E-18-1.14202E-19
 -1       763 1.10820E-04-1.04015E-05-4.32841E-05 1.34141E-06 3.05738E-18 1.69426E-19
 -1       764 1.01752E-04-3.24052E-05-2.97211E-05-4.81026E-07 5.56535E-19-2.82230E-19
 -1       765 9.98411E-05-2.98120E-05-3.00119E-05-4.56319E-07 7.51054E-19-6.63930E-19
 -1       766 1.06334E-04-3.37382E-05-3.11114E-05 7.79592E-06 1.69314E-19 7.58368E-19
 -1       767 1.06575E-04-3.57787E-05-3.03400E-05 5.25981E-06 3.88568E-19 5.42735E-19
 -1       768 1.01770E-04-2.47469E-05-3.30124E-05 7.32889E-06 7.72659E-19 6.45337E-19
 -1       769 9.95872E-05-2.11417E-05-3.36292E-05 2.93379E-06 1.25731E-18 4.42923E-19
 -1       770 9.92036E-05-2.06063E-05-3.36920E-05-2.95721E-06 1.05792E-18-3.35093E-19
 -1       771 1.01061E-04-2.37282E-05-3.31454E-05-7.77746E-06 5.40467E-19-4.68946E-19
 -1       772 1.03707E-04-2.85184E-05-3.22256E-05-9.94818E-06 1.66136E-19-6.65732E-19
 -1       773 1.05668E-04-3.28740E-05-3.11967E-05-9.26660E-06 3.87110E-19-8.42553E-19
 -1       774 1.06101E-04-3.54029E-05-3.03018E-05-6.88260E-06 3.25152E-19-8.03988E-19
 -1       775 1.05184E-04-3.60450E-05-2.96310E-05-4.00284E-06-6.98383E-20-2.19036E-19
 -1       776 1.03447E-04-3.53161E-05-2.91989E-05-1.46865E-06-8.57338E-19 7.74430E-19
 -1       777 1.01474E-04-3.39101E-05-2.89563E-05 3.84317E-07-2.01621E-19 1.09061E-18
 -1       778 9.96523E-05-3.23591E-05-2.88403E-05 1.54617E-06 1.12124E-19 1.28431E-18
 -1       779 9.81654E-05-3.09721E-05-2.87973E-05 2.14728E-06-6.86830E-19 9.06989E-19
 -1       780 9.70534E-05-2.98795E-05-2.87890E-05 2.34835E-06-7.39426E-19 7.61068E-19
 -1       781 9.62785E-05-2.90987E-05-2.87914E-05 2.29178E-06-4.96062E-20 5.69683E-19
 -1       782 9.57721E-05-2.85904E-05-2.87922E-05 2.08688E-06 9.70276E-20 5.35736E-19
 -1       783 9.54628E-05-2.82945E-05-2.87864E-05 1.81064E-06 5.53384E-19 6.89971E-19
 -1       784 9.52886E-05-2.81505E-05-2.87734E-05 1.51379E-06-4.77076E-19 8.88669E-19
 -1       785 9.52016E-05-2.81070E-05-2.87548E-05 1.22739E-06-2.44110E-19 1.78665E-19
 -1       786 9.51673E-05-2.81243E-05-2.87327E-05 9.68627E-07-3.88784E-19 6.87243E-19
 -1       787 9.51622E-05-2.81740E-05-2.87092E-05 7.45330E-07-4.60344E-19 1.67123E-18
 -1       788 9.51714E-05-2.82372E-05-2.86861E-05 5.59328E-07 7.60021E-19 3.36132E-19
 -1       789 9.51861E-05-2.83020E-05-2.86646E-05 4.08862E-07-2.34231E-19 7.85916E-19
 -1       790 9.52013E-05-2.83619E-05-2.86454E-05 2.90244E-07 6.36055E-19 6.95414E-19
 -1       791 9.52145E-05-2.84138E-05-2.86289E-05 1.98948E-07 1.24359E-18-1.86683E-19
 -1       792 9.52250E-05-2.84565E-05-2.86151E-05 1.30309E-07 9.71182E-19 3.27268E-20
 -1       793 9.52327E-05-2.84904E-05-2.86038E-05 7.99321E-08 5.09755E-19 5.16940E-19
 -1       794 9.52378E-05-2.85165E-05-2.85949E-05 4.39125E-08-1.09998E-19 1.29029E-18
 -1       795 9.52410E-05-2.85359E-05-2.85879E-05 1.89220E-08-4.43324E-19 2.48454E-18
 -1       796 9.52425E-05-2.85499E-05-2.85825E-05 2.21958E-09-3.23439E-19 2.88839E-18
 -1       797 9.52431E-05-2.85598E-05-2.85785E-05-8.38628E-09 7.99276E-19 4.77006E-18
 -1       798 9.52429E-05-2.85666E-05-2.85755E-05-1.45888E-08-1.33232E-19 4.06286E-18
 -1       799 9.52423E-05-2.85713E-05-2.85733E-05-1.76513E-08 6.44682E-19 3.56478E-18
 -1       800 9.52417E-05-2.85745E-05-2.85716E-05-1.84956E-08 2.09206E-19 3.61867E-18
 -1       801 9.52416E-05-2.85766E-05-2.85707E-05-1.79142E-08 4.72855E-19 1.05688E-18
 -1       802 9.52508E-05-2.85804E-05-2.85730E-05-5.71413E-09 6.81194E-19 2.19074E-19
 -1       803 1.28158E-04-5.37375E-05-3.19225E-05-7.48359E-06-1.20705E-18 3.74018E-19
 -1       804 9.52511E-05-2.85807E-05-2.85730E-05 4.99588E-09 1.64231E-18-4.55380E-20
 -1       805 9.52514E-05-2.85807E-05-2.85732E-05-4.03814E-10 7.63287E-19 1.76668E-18
 -1       806 9.52470E-05-2.85793E-05-2.85719E-05 1.46209E-08 1.27923E-18 3.76089E-18
 -1       807 1.20165E-04-5.35840E-05-2.84953E-05 1.90982E-05-2.68460E-18-2.38987E-18
 -1       808 1.14304E-04-1.69366E-05-4.19867E-05-1.09758E-05 2.38378E-18-2.10713E-18
 -1       809 1.15142E-04-1.89303E-05-4.14734E-05 1.10910E-05 2.37010E-18 1.71579E-18
 -1       810 1.25336E-04-3.30510E-05-3.97898E-05-1.27577E-05 1.50347E-18-2.83505E-18
 -1       811 8.96670E-05-3.72177E-05-2.23410E-05-3.33198E-05-2.39446E-18-1.80033E-18
 -1       812 9.52497E-05-2.85803E-05-2.85726E-05 1.01401E-08 2.91260E-18 2.87569E-18
 -1       813 6.63635E-05-2.16257E-05-1.89372E-05-2.91305E-05-2.03240E-18-3.76768E-18
 -1       814 9.52490E-05-2.85797E-05-2.85726E-05-1.06183E-08 1.46021E-19 1.42661E-18
 -1       815 1.04498E-04-2.96445E-05-3.20792E-05 8.90008E-06 5.63297E-19 9.74561E-19
 -1       816 5.56387E-05-1.22097E-05-1.82791E-05-1.62672E-05 3.33393E-19 3.59192E-18
 -1       817 1.16638E-04-5.27521E-05-2.73045E-05-2.38601E-05-2.08728E-18-4.15957E-19
 -1       818 4.68892E-05-1.08571E-05-1.49149E-05-1.33737E-05 8.13390E-19 3.31928E-18
 -1       819 9.49017E-05-2.25363E-05-3.10142E-05-2.06396E-07 1.12374E-18-1.61623E-18
 -1       820 5.68111E-05-8.85564E-06-2.03654E-05 2.00731E-06-1.39251E-19-3.99148E-18
 -1       821 1.24967E-04-5.18954E-05-3.13703E-05 6.05817E-06-1.83065E-18-2.58613E-18
 -1       822 8.53822E-05-1.39558E-05-3.06130E-05-1.71708E-06-8.64667E-19-2.62619E-18
 -1       823 1.26573E-04-4.35748E-05-3.56295E-05-7.29019E-06 1.25798E-20-3.02851E-18
 -1       824 1.05521E-04-3.58683E-05-2.98531E-05 2.59415E-06 4.57892E-19 1.47108E-19
 -1       825 9.52448E-05-2.85782E-05-2.85714E-05-1.58820E-08 3.13149E-19-3.33313E-19
 -1       826 1.25127E-04-4.54125E-05-3.42270E-05 4.61465E-06-1.21880E-19 9.89905E-19
 -1       827 8.47022E-05-1.35162E-05-3.05096E-05-3.61441E-06-6.08727E-19-2.94862E-18
 -1       828 9.80485E-05-2.68641E-05-3.05062E-05 5.83159E-07 1.34436E-18-6.80638E-19
 -1       829 1.18667E-04-2.98453E-05-3.81847E-05 1.23522E-05 1.30050E-18 1.59290E-18
 -1       830 9.27696E-05-2.05509E-05-3.09526E-05-2.07469E-06 9.00424E-19-2.08186E-18
 -1       831 1.03740E-04-3.45445E-05-2.96565E-05 5.61264E-07 2.32728E-19 1.08326E-20
 -1       832 4.40433E-05-8.15825E-06-1.49781E-05-3.61583E-07-1.04979E-19 9.29936E-19
 -1       833 9.52472E-05-2.85791E-05-2.85721E-05-1.34725E-08 7.68999E-19 9.92469E-19
 -1       834 8.77759E-05-1.62545E-05-3.06530E-05-4.73044E-06 6.76351E-20-2.65453E-18
 -1       835 8.13870E-05-3.25570E-05-2.07740E-05 3.35757E-05-2.74263E-18 4.84377E-19
 -1       836 5.18568E-05-1.19884E-05-1.68009E-05 1.80408E-05-1.19163E-18 2.04831E-18
 -1       837 7.57532E-05-1.30255E-05-2.68792E-05 3.10120E-08-7.52662E-19-2.70323E-18
 -1       838 6.79852E-05-1.11734E-05-2.43250E-05-1.37316E-06-4.77261E-19-3.08082E-18
 -1       839 6.63687E-05-1.14675E-05-2.34828E-05-5.90827E-07-6.65217E-19 5.98357E-19
 -1       840 1.18601E-04-4.96244E-05-2.95428E-05-1.22670E-05-1.12611E-18-2.21475E-19
 -1       841 7.47252E-05-1.44122E-05-2.58437E-05-1.85812E-06-8.22069E-19-7.80415E-19
 -1       842 8.06970E-05-1.71917E-05-2.72178E-05-2.66109E-06-9.45807E-19-1.31464E-18
 -1       843 8.49971E-05-1.96436E-05-2.80097E-05-3.00123E-06-5.00905E-19-7.88120E-19
 -1       844 8.80799E-05-2.16918E-05-2.84525E-05-2.99263E-06-5.32817E-19-9.39361E-20
 -1       845 9.02730E-05-2.33403E-05-2.86856E-05-2.76194E-06-5.59807E-19 5.00235E-20
 -1       846 9.18189E-05-2.46319E-05-2.87945E-05-2.41606E-06-8.71644E-19 7.89160E-20
 -1       847 9.28994E-05-2.56249E-05-2.88319E-05-2.03110E-06-1.11370E-18-4.00920E-19
 -1       848 9.36493E-05-2.63790E-05-2.88301E-05-1.65480E-06-7.09254E-19 3.39623E-19
 -1       849 9.41669E-05-2.69473E-05-2.88084E-05-1.31340E-06-1.80142E-19 1.77695E-19
 -1       850 9.45228E-05-2.73736E-05-2.87782E-05-1.01857E-06-1.02988E-18-1.21631E-19
 -1       851 9.47666E-05-2.76928E-05-2.87459E-05-7.72938E-07 5.58003E-20 6.61599E-19
 -1       852 9.49330E-05-2.79313E-05-2.87150E-05-5.73730E-07-9.87328E-19 1.55644E-18
 -1       853 9.50504E-05-2.81168E-05-2.86858E-05-4.09489E-07-3.27249E-19 6.59234E-19
 -1       854 9.51249E-05-2.82470E-05-2.86620E-05-2.89325E-07 8.27322E-19 7.80874E-19
 -1       855 9.51745E-05-2.83434E-05-2.86419E-05-1.98013E-07-8.63210E-19 8.31570E-20
 -1       856 9.52068E-05-2.84142E-05-2.86254E-05-1.30100E-07-1.22611E-18 1.60506E-18
 -1       857 9.52273E-05-2.84658E-05-2.86121E-05-8.06292E-08-1.31681E-18 1.94769E-18
 -1       858 9.52396E-05-2.85028E-05-2.86015E-05-4.54149E-08 1.60830E-18 7.94153E-19
 -1       859 9.52465E-05-2.85290E-05-2.85932E-05-2.10143E-08 1.62537E-18 6.79734E-19
 -1       860 9.52497E-05-2.85472E-05-2.85868E-05-4.67176E-09 4.05089E-19 8.12641E-20
 -1       861 9.52505E-05-2.85596E-05-2.85818E-05 5.77627E-09 4.77869E-19 2.27095E-19
 -1       862 9.52499E-05-2.85678E-05-2.85780E-05 1.19900E-08-8.59791E-19 2.78511E-19
 -1       863 9.52484E-05-2.85731E-05-2.85751E-05 1.51879E-08-1.27629E-18 2.40220E-18
 -1       864 9.52479E-05-2.85765E-05-2.85735E-05 1.54354E-08-7.32225E-19 2.27491E-18
 -1       865 1.02887E-04-1.76068E-05-3.66003E-05 4.67312E-07 1.80069E-18-4.92834E-19
 -1       866 1.04666E-04-2.08786E-05-3.59321E-05 7.08598E-06 1.21610E-18 2.69147E-19
 -1       867 1.07303E-04-2.63071E-05-3.47488E-05-1.09629E-05 7.16472E-19-1.60878E-18
 -1       868 1.10203E-04-3.32536E-05-3.30076E-05-1.05937E-05 4.32294E-19-1.95320E-18
 -1       869 1.10921E-04-3.76740E-05-3.13866E-05-7.33143E-06 9.38974E-20-1.57335E-18
 -1       870 1.09330E-04-3.90051E-05-3.01379E-05-3.32627E-06-1.01611E-18-6.58183E-19
 -1       871 1.06507E-04-3.80343E-05-2.93425E-05-1.31289E-07-1.32907E-18 3.64170E-19
 -1       872 1.03424E-04-3.59947E-05-2.88982E-05 1.94177E-06-1.03633E-18 1.14380E-18
 -1       873 1.00681E-04-3.37453E-05-2.86869E-05 3.02010E-06-4.25286E-19 1.33397E-18
 -1       874 9.85265E-05-3.17578E-05-2.86151E-05 3.39104E-06-3.11595E-19 1.39644E-18
 -1       875 9.69824E-05-3.02132E-05-2.86154E-05 3.32332E-06-5.29893E-19 1.08007E-18
 -1       876 9.59605E-05-2.91243E-05-2.86441E-05 3.01952E-06-5.44446E-19 1.00573E-18
 -1       877 9.53395E-05-2.84264E-05-2.86770E-05 2.61302E-06-1.02698E-18 1.54886E-18
 -1       878 9.50028E-05-2.80297E-05-2.87027E-05 2.18399E-06 4.32599E-20 2.15784E-18
 -1       879 9.48536E-05-2.78466E-05-2.87173E-05 1.77679E-06-1.00437E-19 2.22252E-18
 -1       880 9.48192E-05-2.78038E-05-2.87209E-05 1.41322E-06-5.27743E-19 2.20875E-18
 -1       881 9.48483E-05-2.78451E-05-2.87157E-05 1.10146E-06-6.93133E-19 3.05932E-18
 -1       882 9.49073E-05-2.79306E-05-2.87043E-05 8.41981E-07-1.73426E-20 1.70961E-18
 -1       883 9.49753E-05-2.80336E-05-2.86893E-05 6.31124E-07 8.26090E-19 2.64353E-21
 -1       884 9.50405E-05-2.81374E-05-2.86728E-05 4.63267E-07-5.93257E-19 5.47885E-19
 -1       885 9.50973E-05-2.82327E-05-2.86562E-05 3.32149E-07 8.06454E-19 2.04862E-19
 -1       886 9.51434E-05-2.83151E-05-2.86407E-05 2.31590E-07 7.84943E-19-3.04446E-19
 -1       887 9.51789E-05-2.83831E-05-2.86268E-05 1.55883E-07 7.31950E-19 1.71284E-18
 -1       888 9.52050E-05-2.84374E-05-2.86147E-05 9.99869E-08-1.69877E-19 2.92658E-18
 -1       889 9.52232E-05-2.84793E-05-2.86045E-05 5.95927E-08-5.17199E-20 3.63700E-18
 -1       890 9.52352E-05-2.85108E-05-2.85962E-05 3.11110E-08-1.71419E-19 3.67380E-18
 -1       891 9.52424E-05-2.85337E-05-2.85894E-05 1.16206E-08-2.81516E-19 1.42744E-18
 -1       892 9.52463E-05-2.85500E-05-2.85841E-05-1.20662E-09-7.45028E-19 2.05655E-18
 -1       893 9.52477E-05-2.85612E-05-2.85799E-05-9.19697E-09 1.06980E-18 2.09794E-18
 -1       894 9.52477E-05-2.85688E-05-2.85767E-05-1.36756E-08-4.65581E-19 1.56481E-18
 -1       895 9.52467E-05-2.85738E-05-2.85741E-05-1.57054E-08 1.45222E-18 8.25961E-19
 -1       896 9.52458E-05-2.85762E-05-2.85727E-05-1.60995E-08 2.45665E-18-7.43205E-20
 -1       897 8.57023E-05-1.44613E-05-3.05324E-05-4.72040E-06-1.70014E-19-2.66287E-18
 -1       898 1.03945E-04-4.27365E-05-2.61763E-05-2.43342E-05-1.42466E-18-1.38031E-18
 -1       899 1.14197E-04-2.65676E-05-3.76277E-05-1.26386E-05 1.19673E-18-2.98600E-18
 -1       900 1.03458E-04-1.92968E-05-3.61054E-05-7.22710E-06 1.25771E-18-9.13531E-19
 -1       901 1.11539E-04-3.85654E-05-3.12794E-05 5.41170E-06 1.37952E-19 7.09139E-19
 -1       902 1.00817E-04-3.10416E-05-2.99040E-05-2.34585E-06 4.10950E-19-9.58692E-19
 -1       903 1.06599E-04-1.61014E-05-3.88787E-05 5.33435E-06 2.10271E-18-3.93017E-19
 -1       904 1.04698E-04-4.45549E-05-2.57143E-05 2.48180E-05-2.61824E-18-2.06848E-18
 -1       905 9.52520E-05-2.85763E-05-2.85753E-05-8.19868E-09 1.50776E-18-6.14967E-20
 -1       906 8.10427E-05-1.43274E-05-2.85996E-05 3.51733E-07-8.42638E-19-2.49335E-18
 -1       907 9.68192E-05-2.54116E-05-3.06026E-05-9.51999E-07 1.05333E-18-1.20929E-18
 -1       908 9.87930E-05-2.83367E-05-3.01979E-05-1.88059E-06 9.07395E-19-1.05534E-18
 -1       909 8.34498E-05-1.43770E-05-2.96007E-05-2.40487E-06-7.83560E-19-2.62208E-18
 -1       910 5.43755E-05-8.62120E-06-1.93695E-05-1.25513E-07-7.26907E-19 1.00993E-18
 -1       911 1.17320E-04-3.51925E-05-3.52047E-05-1.12228E-05 3.09730E-19-2.75329E-18
 -1       912 6.74719E-05-2.04939E-05-1.99782E-05 2.59127E-05-2.58329E-18 2.60468E-18
 -1       913 1.20593E-04-4.72190E-05-3.15097E-05-1.44478E-06-5.37873E-19 4.75047E-19
 -1       914 1.14149E-04-4.86244E-05-2.80735E-05 1.62076E-05-2.38013E-18-1.92086E-18
 -1       915 9.06066E-05-2.05726E-05-3.00144E-05-6.29647E-06-1.85694E-20-2.18882E-18
 -1       916 1.09787E-04-3.89613E-05-3.03570E-05 1.85962E-06-4.80182E-20 2.30433E-19
 -1       917 1.08481E-04-2.80575E-05-3.44785E-05 1.01630E-05 1.00245E-18 7.97370E-19
 -1       918 8.08614E-05-2.64167E-05-2.32816E-05-2.54630E-05-2.05010E-18-2.47373E-18
 -1       919 1.03714E-04-3.43807E-05-2.97156E-05-2.23775E-06 6.43049E-20-6.93788E-19
 -1       920 9.52533E-05-2.85765E-05-2.85758E-05-3.19193E-09 2.27811E-18-3.28425E-19
 -1       921 1.19117E-04-3.82531E-05-3.46650E-05 9.49161E-06 3.89400E-19 1.05783E-18
 -1       922 9.52512E-05-2.85770E-05-2.85747E-05 1.08820E-08-2.33895E-20 6.61529E-19
 -1       923 9.52535E-05-2.85768E-05-2.85758E-05 2.03559E-09 1.59221E-18 1.63984E-18
 -1       924 6.73084E-05-1.56747E-05-2.20327E-05-1.73217E-05-1.21749E-18-3.18688E-18
 -1       925 9.37519E-05-2.31327E-05-3.02608E-05-4.80427E-06 3.39883E-19-1.91305E-18
 -1       926 1.11126E-04-3.46772E-05-3.27633E-05 9.06525E-06 3.28344E-19 1.01464E-18
 -1       927 6.61293E-05-1.21841E-05-2.30204E-05-8.90753E-06-7.75176E-19-3.09304E-18
 -1       928 9.52503E-05-2.85762E-05-2.85746E-05-1.14238E-08 1.13987E-18 1.39726E-18
 -1       929 9.52528E-05-2.85770E-05-2.85754E-05 6.53594E-09 1.87145E-18 1.18947E-18
 -1       930 1.20163E-04-4.45229E-05-3.24347E-05-3.78494E-06-5.96157E-19-2.30946E-18
 -1       931 7.41595E-05-1.42454E-05-2.56629E-05-8.07593E-06-1.05526E-18-2.53646E-18
 -1       932 1.14173E-04-4.24987E-05-3.07387E-05-1.65339E-06-1.34191E-18-1.19663E-18
 -1       933 9.55526E-05-2.44322E-05-3.04798E-05-2.86795E-06 7.56002E-19-1.75665E-18
 -1       934 7.80956E-05-1.70316E-05-2.61704E-05 3.79998E-06-1.42467E-18-5.03451E-19
 -1       935 8.25817E-05-1.89991E-05-2.72510E-05 1.43924E-06-2.25533E-19 2.17426E-19
 -1       936 8.59549E-05-2.08235E-05-2.79140E-05 2.17491E-08-3.37477E-19 9.72038E-19
 -1       937 8.84788E-05-2.24160E-05-2.83128E-05-7.47205E-07-6.51362E-19-5.34062E-19
 -1       938 9.03537E-05-2.37521E-05-2.85436E-05-1.09402E-06 4.52819E-20-8.43884E-19
 -1       939 9.17344E-05-2.48410E-05-2.86687E-05-1.18120E-06-1.13756E-18-5.33663E-19
 -1       940 9.27435E-05-2.57106E-05-2.87285E-05-1.12093E-06-2.30751E-19-7.86977E-19
 -1       941 9.34762E-05-2.63950E-05-2.87491E-05-9.87175E-07-8.47502E-19-1.57917E-18
 -1       942 9.40052E-05-2.69283E-05-2.87473E-05-8.26210E-07 1.02394E-19-1.99731E-18
 -1       943 9.43853E-05-2.73407E-05-2.87334E-05-6.65131E-07 4.17878E-19-8.02890E-19
 -1       944 9.46571E-05-2.76578E-05-2.87140E-05-5.18074E-07 1.18020E-19 6.04045E-19
 -1       945 9.48580E-05-2.79105E-05-2.86918E-05-3.86257E-07-6.29298E-19 1.36824E-18
 -1       946 9.49915E-05-2.80918E-05-2.86713E-05-2.83622E-07-1.72347E-19 1.40037E-18
 -1       947 9.50846E-05-2.82286E-05-2.86526E-05-2.01793E-07-2.50391E-19-4.77786E-19
 -1       948 9.51485E-05-2.83308E-05-2.86361E-05-1.38506E-07-4.77458E-19-6.03817E-19
 -1       949 9.51914E-05-2.84064E-05-2.86221E-05-9.08052E-08-3.97261E-19-2.62257E-19
 -1       950 9.52193E-05-2.84615E-05-2.86105E-05-5.57597E-08 1.13645E-19 1.38731E-18
 -1       951 9.52366E-05-2.85012E-05-2.86009E-05-3.06994E-08 1.52598E-19-3.86680E-20
 -1       952 9.52466E-05-2.85291E-05-2.85932E-05-1.33015E-08 8.29522E-19-2.30660E-18
 -1       953 9.52516E-05-2.85484E-05-2.85871E-05-1.71337E-09 1.67465E-19-2.38264E-18
 -1       954 9.52532E-05-2.85613E-05-2.85822E-05 5.68876E-09 1.56408E-18-7.03008E-19
 -1       955 9.52527E-05-2.85699E-05-2.85784E-05 9.94655E-09 5.38492E-19 7.84863E-19
 -1       956 9.52521E-05-2.85737E-05-2.85764E-05 1.08293E-08-8.89444E-19 9.75918E-19
 -1       957 8.73085E-05-1.78672E-05-2.97637E-05-6.65998E-06-2.54117E-19-2.48105E-18
 -1       958 6.39820E-05-1.30622E-05-2.17265E-05 1.17589E-05-7.68911E-19 1.33987E-18
 -1       959 1.10019E-04-4.12931E-05-2.94512E-05 2.35243E-06-1.63350E-18-1.13626E-18
 -1       960 1.05463E-04-3.83301E-05-2.87740E-05 4.58943E-06-2.42453E-18-4.54566E-19
 -1       961 1.01516E-04-3.51287E-05-2.84552E-05 5.41620E-06-9.49327E-19 4.31742E-19
 -1       962 9.86065E-05-3.24244E-05-2.83630E-05 5.31562E-06-1.52494E-19 9.90983E-19
 -1       963 9.66242E-05-3.03833E-05-2.83890E-05 4.74306E-06-2.66483E-20 1.09761E-18
 -1       964 9.53895E-05-2.89872E-05-2.84582E-05 4.00453E-06-6.34365E-19 1.16389E-18
 -1       965 9.46984E-05-2.81198E-05-2.85337E-05 3.26335E-06-1.44041E-18 6.26946E-19
 -1       966 9.43762E-05-2.76470E-05-2.85982E-05 2.59400E-06-1.00462E-18 3.66110E-19
 -1       967 9.42873E-05-2.74480E-05-2.86454E-05 2.02397E-06 4.02019E-19 5.88333E-19
 -1       968 9.43332E-05-2.74252E-05-2.86749E-05 1.55566E-06-5.91746E-19 4.25498E-19
 -1       969 9.44474E-05-2.75059E-05-2.86892E-05 1.17994E-06-8.18753E-19 6.18555E-19
 -1       970 9.45871E-05-2.76390E-05-2.86921E-05 8.83565E-07 3.77339E-19 6.70676E-19
 -1       971 9.47269E-05-2.77910E-05-2.86868E-05 6.52844E-07 1.01686E-18 8.15456E-19
 -1       972 9.48532E-05-2.79411E-05-2.86766E-05 4.75234E-07 5.00605E-19 1.10066E-18
 -1       973 9.49599E-05-2.80777E-05-2.86638E-05 3.39957E-07-3.79977E-21 5.37125E-19
 -1       974 9.50457E-05-2.81954E-05-2.86501E-05 2.38066E-07 4.34559E-19 2.71115E-18
 -1       975 9.51120E-05-2.82929E-05-2.86368E-05 1.62236E-07 2.22005E-19 2.60607E-18
 -1       976 9.51612E-05-2.83709E-05-2.86244E-05 1.06564E-07-3.63683E-19 2.41982E-18
 -1       977 9.51963E-05-2.84315E-05-2.86135E-05 6.63360E-08-6.33350E-19 3.25738E-18
 -1       978 9.52202E-05-2.84774E-05-2.86041E-05 3.78142E-08 1.38958E-19 3.26717E-18
 -1       979 9.52357E-05-2.85112E-05-2.85962E-05 1.80628E-08 1.83497E-18 2.70994E-18
 -1       980 9.52448E-05-2.85355E-05-2.85897E-05 4.80308E-09-3.41567E-19 1.84672E-18
 -1       981 9.52495E-05-2.85524E-05-2.85845E-05-3.71893E-09-3.74751E-19 1.06148E-18
 -1       982 9.52512E-05-2.85639E-05-2.85802E-05-8.96737E-09 8.90372E-19 2.33691E-18
 -1       983 9.52507E-05-2.85713E-05-2.85768E-05-1.16162E-08 1.49627E-18-2.74003E-19
 -1       984 8.88712E-05-3.22042E-05-2.42216E-05 2.45965E-05-2.57015E-18-1.04988E-18
 -1       985 8.46118E-05-1.55677E-05-2.95926E-05-5.48764E-06-4.01802E-19-2.59798E-18
 -1       986 7.81555E-05-2.00480E-05-2.48894E-05-1.71085E-05-1.45920E-18-2.34145E-18
 -1       987 1.08874E-04-4.26121E-05-2.83798E-05-1.46523E-05-1.12618E-18-1.39799E-19
 -1       988 1.06864E-04-3.72526E-05-2.98356E-05-8.74601E-07 2.24980E-19-4.31736E-19
 -1       989 1.09578E-04-2.29367E-05-3.71941E-05 1.01135E-05 1.55848E-18 4.59483E-19
 -1       990 7.92899E-05-1.47560E-05-2.76608E-05-4.95737E-06-8.43523E-19-2.29926E-18
 -1       991 9.37921E-05-3.24022E-05-2.62931E-05-2.07285E-05-1.48179E-18-2.09356E-18
 -1       992 7.21020E-05-1.49212E-05-2.44782E-05 7.03891E-06-1.20901E-18 5.16696E-19
 -1       993 1.13521E-04-3.22545E-05-3.48532E-05 1.06534E-05 8.31140E-19 6.81866E-19
 -1       994 1.14842E-04-4.29648E-05-3.07998E-05 9.38336E-08-4.76340E-19 4.01275E-19
 -1       995 1.13699E-04-4.41719E-05-2.98017E-05-6.80860E-06-1.05208E-18-2.21904E-19
 -1       996 1.00745E-04-3.89019E-05-2.64839E-05 1.87054E-05-2.70593E-18-2.29907E-18
 -1       997 1.01582E-04-3.24271E-05-2.96384E-05-5.10195E-06-4.50987E-20-9.33416E-19
 -1       998 9.01471E-05-2.22823E-05-2.90856E-05-9.15463E-06-5.45782E-19-2.03137E-18
 -1       999 9.52526E-05-2.85710E-05-2.85778E-05-8.77476E-09 2.14484E-18 1.22764E-18
 -1      1000 9.52545E-05-2.85710E-05-2.85786E-05-4.47952E-09 1.53171E-18-3.64725E-19
 -1      1001 9.89476E-05-2.92208E-05-2.98816E-05-4.60744E-06 3.60972E-19-1.15684E-18
 -1      1002 9.52552E-05-2.85712E-05-2.85788E-05 8.83023E-11 5.27419E-19-8.43444E-20
 -1      1003 9.52548E-05-2.85717E-05-2.85785E-05 4.17831E-09-8.55502E-19-9.82591E-19
 -1      1004 9.44343E-05-2.55552E-05-2.95200E-05-7.80127E-06-1.09972E-19-1.67615E-18
 -1      1005 1.16811E-04-4.70634E-05-2.98954E-05 6.02995E-06-1.92436E-18-1.65060E-18
 -1      1006 8.42428E-05-1.83554E-05-2.82234E-05-9.20057E-06-6.82016E-19-2.52538E-18
 -1      1007 8.29056E-05-2.05681E-05-2.67152E-05 6.60443E-06-7.72904E-19-4.39913E-19
 -1      1008 8.55427E-05-2.14253E-05-2.74792E-05 3.73826E-06 4.49544E-20-4.54898E-19
 -1      1009 8.77555E-05-2.24656E-05-2.79815E-05 1.90018E-06-1.15968E-18-8.52520E-19
 -1      1010 8.95432E-05-2.35054E-05-2.83021E-05 7.65873E-07-8.23427E-19-5.19634E-19
 -1      1011 9.09565E-05-2.44580E-05-2.84995E-05 1.07938E-07-1.12165E-18-1.99021E-18
 -1      1012 9.20554E-05-2.52877E-05-2.86149E-05-2.38972E-07-1.15848E-18-2.57425E-18
 -1      1013 9.28984E-05-2.59867E-05-2.86766E-05-3.91433E-07-1.77598E-19-2.62911E-18
 -1      1014 9.35380E-05-2.65621E-05-2.87041E-05-4.28992E-07-2.02990E-19-1.36070E-18
 -1      1015 9.40187E-05-2.70277E-05-2.87106E-05-4.04058E-07 8.60038E-19-1.09032E-18
 -1      1016 9.43768E-05-2.73995E-05-2.87047E-05-3.49347E-07 1.15927E-18-6.38336E-19
 -1      1017 9.46519E-05-2.77054E-05-2.86914E-05-2.82038E-07-1.33239E-20 2.98509E-19
 -1      1018 9.48414E-05-2.79311E-05-2.86759E-05-2.19792E-07-9.36587E-19-1.00679E-18
 -1      1019 9.49780E-05-2.81053E-05-2.86598E-05-1.64523E-07-1.38106E-18-1.63760E-18
 -1      1020 9.50750E-05-2.82382E-05-2.86444E-05-1.18466E-07 3.14724E-19-1.02945E-18
 -1      1021 9.51426E-05-2.83382E-05-2.86305E-05-8.17375E-08-4.40677E-19 1.42849E-19
 -1      1022 9.51884E-05-2.84125E-05-2.86183E-05-5.34994E-08 5.05882E-19-5.01026E-19
 -1      1023 9.52185E-05-2.84668E-05-2.86079E-05-3.24912E-08-1.49066E-19 6.39291E-19
 -1      1024 9.52372E-05-2.85057E-05-2.85992E-05-1.73786E-08-6.76311E-19 2.56601E-19
 -1      1025 9.52480E-05-2.85330E-05-2.85921E-05-6.79675E-09 3.17320E-19-2.79163E-19
 -1      1026 9.52532E-05-2.85516E-05-2.85864E-05 2.30297E-10 1.62468E-18 1.18883E-18
 -1      1027 9.52548E-05-2.85642E-05-2.85817E-05 4.59570E-09 1.33728E-18-5.25188E-19
 -1      1028 1.00393E-04-3.47777E-05-2.81267E-05-1.43249E-05-9.80580E-19-7.66760E-19
 -1      1029 9.80056E-05-3.26981E-05-2.79903E-05 7.99188E-06-9.37614E-19-1.06674E-18
 -1      1030 9.56306E-05-3.01370E-05-2.80696E-05 6.64394E-06-5.30425E-19-5.43830E-19
 -1      1031 9.43367E-05-2.85059E-05-2.82130E-05 5.24079E-06 6.07091E-20-4.52407E-19
 -1      1032 9.37032E-05-2.75445E-05-2.83536E-05 4.01622E-06-1.14927E-18-3.22267E-19
 -1      1033 9.34987E-05-2.70658E-05-2.84712E-05 3.01422E-06-1.31098E-18-6.35188E-19
 -1      1034 9.35466E-05-2.69077E-05-2.85595E-05 2.22933E-06 6.89097E-20-5.97332E-19
 -1      1035 9.37271E-05-2.69474E-05-2.86199E-05 1.63111E-06-2.40916E-19 6.33085E-19
 -1      1036 9.39632E-05-2.70976E-05-2.86567E-05 1.18331E-06-4.26875E-19-5.69649E-19
 -1      1037 9.42083E-05-2.72991E-05-2.86754E-05 8.52075E-07-5.58778E-19-1.61965E-18
 -1      1038 9.44362E-05-2.75140E-05-2.86810E-05 6.08921E-07 5.69991E-19-1.02654E-18
 -1      1039 9.46343E-05-2.77195E-05-2.86778E-05 4.31541E-07 4.18840E-19-7.49700E-20
 -1      1040 9.47985E-05-2.79036E-05-2.86693E-05 3.02457E-07 2.69678E-19-6.86899E-19
 -1      1041 9.49294E-05-2.80610E-05-2.86579E-05 2.09010E-07-3.95507E-20-8.10397E-19
 -1      1042 9.50302E-05-2.81909E-05-2.86455E-05 1.41644E-07-2.08482E-19-8.08112E-19
 -1      1043 9.51056E-05-2.82950E-05-2.86331E-05 9.33837E-08-3.81062E-19 1.26153E-18
 -1      1044 9.51600E-05-2.83761E-05-2.86217E-05 5.91120E-08-8.26633E-19 7.06005E-19
 -1      1045 9.51980E-05-2.84379E-05-2.86115E-05 3.50670E-08-2.75678E-19 2.41850E-19
 -1      1046 9.52233E-05-2.84838E-05-2.86026E-05 1.84708E-08 9.74157E-19-4.15787E-20
 -1      1047 9.52391E-05-2.85171E-05-2.85952E-05 7.25587E-09 1.73842E-18 1.55076E-18
 -1      1048 9.52481E-05-2.85404E-05-2.85890E-05 1.21302E-11-2.09228E-19 1.38707E-18
 -1      1049 9.52525E-05-2.85568E-05-2.85839E-05-4.63584E-09 8.37763E-19 1.32269E-18
 -1      1050 9.07932E-05-3.05117E-05-2.58254E-05 1.78687E-05-2.07268E-18-1.72793E-18
 -1      1051 1.05593E-04-3.66527E-05-2.95475E-05-5.10824E-06-2.41482E-19-7.57643E-19
 -1      1052 1.07144E-04-4.17844E-05-2.79998E-05 1.19735E-05-2.78078E-18-1.16533E-18
 -1      1053 8.72744E-05-2.42760E-05-2.70148E-05-1.52810E-05-1.14750E-18-2.51233E-18
 -1      1054 9.52538E-05-2.85727E-05-2.85776E-05 7.48764E-09-4.12102E-19-1.18146E-18
 -1      1055 1.01321E-04-3.63622E-05-2.78601E-05 1.01705E-05-2.13987E-18-1.53490E-18
 -1      1056 7.58212E-05-2.07511E-05-2.35890E-05 1.80292E-05-1.86548E-18 9.75167E-19
 -1      1057 1.06493E-04-3.87532E-05-2.90345E-05-9.65707E-06-8.19822E-19-6.22636E-19
 -1      1058 8.92835E-05-2.42575E-05-2.78271E-05-1.30759E-05-8.21289E-19-2.30230E-18
 -1      1059 7.95135E-05-1.98339E-05-2.55694E-05 1.06501E-05-1.99686E-18-7.11209E-19
 -1      1060 1.10223E-04-4.04970E-05-2.98820E-05-3.52027E-06-4.70433E-19-1.91263E-19
 -1      1061 9.88846E-05-3.54026E-05-2.71946E-05 1.36258E-05-2.14273E-18-2.22293E-18
 -1      1062 1.01594E-04-3.36437E-05-2.91265E-05-8.87395E-06-2.89357E-19-8.90178E-19
 -1      1063 8.15448E-05-1.86567E-05-2.69328E-05-1.16524E-05-8.96914E-19-2.28785E-18
 -1      1064 9.83294E-05-2.98056E-05-2.93685E-05-7.89126E-06-2.74342E-19-1.22048E-18
 -1      1065 9.52536E-05-2.85555E-05-2.85849E-05-2.65677E-09 6.70796E-19-2.29837E-18
 -1      1066 9.52550E-05-2.85603E-05-2.85835E-05 4.86368E-10 1.72313E-19-1.25937E-18
 -1      1067 9.52514E-05-2.85446E-05-2.85886E-05-1.80284E-09 2.09284E-18-1.47651E-18
 -1      1068 9.50633E-05-2.79963E-05-2.87489E-05-1.09542E-05-6.64087E-19-1.47057E-18
 -1      1069 8.73010E-05-2.37219E-05-2.72491E-05 7.34519E-06-8.40942E-19-1.50361E-18
 -1      1070 8.84875E-05-2.37179E-05-2.77602E-05 4.69018E-06-3.55146E-19-2.13357E-18
 -1      1071 8.96904E-05-2.40916E-05-2.81152E-05 2.86700E-06-1.45319E-18-1.37050E-18
 -1      1072 9.07976E-05-2.46404E-05-2.83541E-05 1.66027E-06-1.28475E-18-1.46395E-18
 -1      1073 9.17587E-05-2.52403E-05-2.85085E-05 8.90489E-07-1.28296E-18-4.28630E-19
 -1      1074 9.25616E-05-2.58219E-05-2.86031E-05 4.19825E-07-1.14494E-18-5.61837E-19
 -1      1075 9.32141E-05-2.63495E-05-2.86564E-05 1.47090E-07-3.48760E-19-1.86190E-18
 -1      1076 9.37331E-05-2.68084E-05-2.86821E-05 6.81126E-10 1.10632E-18-1.57840E-18
 -1      1077 9.41389E-05-2.71960E-05-2.86899E-05-6.84129E-08 1.38248E-18-1.93909E-18
 -1      1078 9.44638E-05-2.75292E-05-2.86863E-05-9.33984E-08 8.06639E-19-1.23134E-18
 -1      1079 9.46964E-05-2.77844E-05-2.86766E-05-9.24588E-08-9.37946E-19-5.25700E-20
 -1      1080 9.48696E-05-2.79872E-05-2.86639E-05-8.03933E-08-1.39114E-18 4.11619E-19
 -1      1081 9.49964E-05-2.81457E-05-2.86503E-05-6.44685E-08 2.92443E-19 3.10235E-19
 -1      1082 9.50874E-05-2.82677E-05-2.86370E-05-4.85547E-08 7.35066E-19-3.20803E-19
 -1      1083 9.51511E-05-2.83600E-05-2.86248E-05-3.45184E-08-8.07023E-19-1.03302E-19
 -1      1084 9.51945E-05-2.84286E-05-2.86139E-05-2.30439E-08 2.64412E-19-1.68690E-18
 -1      1085 9.52228E-05-2.84787E-05-2.86046E-05-1.41718E-08-1.31443E-18-3.61900E-18
 -1      1086 9.52403E-05-2.85146E-05-2.85967E-05-7.44283E-09 5.31893E-19-9.48228E-19
 -1      1087 9.36801E-05-2.92579E-05-2.76064E-05 9.00394E-06-8.68532E-19-2.71366E-18
 -1      1088 9.22646E-05-2.61945E-05-2.83150E-05 3.39046E-06-1.13496E-18-1.35288E-18
 -1      1089 9.25753E-05-2.61711E-05-2.84584E-05 2.34967E-06-4.36920E-19-1.56215E-18
 -1      1090 9.29752E-05-2.63409E-05-2.85572E-05 1.60674E-06-1.13654E-18-4.51326E-19
 -1      1091 9.33886E-05-2.66071E-05-2.86204E-05 1.08699E-06-2.65390E-19 3.72263E-19
 -1      1092 9.37739E-05-2.69077E-05-2.86568E-05 7.29037E-07 7.46457E-20 1.10366E-18
 -1      1093 9.41113E-05-2.72050E-05-2.86740E-05 4.85511E-07-1.90685E-19 3.71617E-19
 -1      1094 9.43938E-05-2.74779E-05-2.86782E-05 3.20928E-07 8.69028E-19-3.52129E-19
 -1      1095 9.46227E-05-2.77166E-05-2.86740E-05 2.10612E-07 9.87581E-19-8.48347E-19
 -1      1096 9.48026E-05-2.79179E-05-2.86649E-05 1.37204E-07 1.40063E-19 4.64658E-20
 -1      1097 9.49405E-05-2.80825E-05-2.86534E-05 8.82430E-08-5.33035E-19 3.06447E-19
 -1      1098 9.50435E-05-2.82140E-05-2.86412E-05 5.56678E-08-1.31570E-18-1.07945E-18
 -1      1099 9.51183E-05-2.83166E-05-2.86293E-05 3.40348E-08-1.04731E-19-1.84964E-18
 -1      1100 9.51710E-05-2.83949E-05-2.86184E-05 1.97211E-08-7.21387E-19-2.22581E-18
 -1      1101 9.52069E-05-2.84533E-05-2.86087E-05 1.03208E-08-6.00926E-20-8.39725E-19
 -1      1102 9.52301E-05-2.84960E-05-2.86003E-05 4.27144E-09 1.68270E-18 1.83313E-19
 -1      1103 9.52441E-05-2.85266E-05-2.85932E-05 2.90965E-10 7.40219E-19 1.30534E-19
 -1      1104 9.52500E-05-2.85428E-05-2.85888E-05-1.46609E-09 5.00152E-19-8.82135E-19
 -1      1105 9.24486E-05-2.96616E-05-2.68802E-05 1.26848E-05-1.42664E-18-3.23702E-18
 -1      1106 9.21723E-05-2.65566E-05-2.81203E-05 4.81164E-06-6.17782E-19-1.81853E-18
 -1      1107 9.25149E-05-2.74744E-05-2.78751E-05 6.68923E-06-4.96471E-19-2.25416E-18
 -1      1108 8.60602E-05-2.41906E-05-2.65315E-05 1.09297E-05-1.37990E-18-6.98289E-19
 -1      1109 1.17869E-04 2.62632E-10-4.24257E-05-4.00727E-05-3.23567E-19 1.00479E-17
 -1      1110 9.08884E-05 7.80209E-11-3.80645E-05-2.17407E-05-1.76289E-19 1.07917E-18
 -1      1111 8.58168E-05 4.36049E-11-3.64345E-05-1.48334E-05-1.19432E-19-2.73142E-18
 -1      1112 8.30686E-05 2.97850E-11-3.53875E-05-1.07342E-05-7.88799E-20-4.55839E-18
 -1      1113 8.11662E-05 2.15570E-11-3.46410E-05-7.88583E-06-4.79632E-20-5.37462E-18
 -1      1114 7.98481E-05 1.66352E-11-3.41188E-05-5.80580E-06-2.95932E-20-5.71635E-18
 -1      1115 7.90489E-05 1.42776E-11-3.37957E-05-4.14388E-06-9.07913E-21-5.85921E-18
 -1      1116 7.87296E-05 1.40395E-11-3.36576E-05-2.61101E-06 6.28657E-22-5.75439E-18
 -1      1117 7.88339E-05 1.53819E-11-3.36844E-05-1.00524E-06 1.30562E-20-5.60757E-18
 -1      1118 7.92699E-05 1.77698E-11-3.38435E-05 8.26821E-07 3.21078E-20-5.35550E-18
 -1      1119 7.99474E-05 2.08095E-11-3.41021E-05 2.98126E-06 4.23781E-20-4.95779E-18
 -1      1120 8.08010E-05 2.43129E-11-3.44362E-05 5.49489E-06 6.27863E-20-4.36027E-18
 -1      1121 8.18409E-05 2.86011E-11-3.48540E-05 8.44768E-06 8.69797E-20-3.44703E-18
 -1      1122 8.32167E-05 3.45747E-11-3.54168E-05 1.19867E-05 1.10855E-19-2.00554E-18
 -1      1123 8.53713E-05 4.49613E-11-3.62856E-05 1.64017E-05 1.36690E-19 4.54817E-19
 -1      1124 8.98342E-05 7.08973E-11-3.78780E-05 2.27648E-05 1.49819E-19 4.96645E-18
 -1      1125 1.07694E-04 1.68545E-10-4.11024E-05 3.55209E-05 2.75921E-19 1.39206E-17
 -1      1126 1.31067E-04-2.62631E-05-4.08350E-05-2.52027E-05-1.33725E-18 1.57264E-17
 -1      1127 1.01192E-04-3.00104E-05-3.27326E-05-4.43374E-07-4.58721E-19 1.26608E-17
 -1      1128 9.64727E-05-2.89581E-05-2.98013E-05 4.44622E-07-2.07682E-19 8.27445E-18
 -1      1129 9.73375E-05-2.93412E-05-2.94456E-05 3.13147E-07-1.35777E-19 5.26637E-18
 -1      1130 1.00683E-04-3.03338E-05-3.03626E-05 2.79345E-07-5.79821E-20 3.42720E-18
 -1      1131 1.06237E-04-3.19761E-05-3.20696E-05 3.22711E-07-9.66974E-20 2.24840E-18
 -1      1132 1.14172E-04-3.43363E-05-3.45000E-05 4.36666E-07-5.61821E-20 1.31915E-18
 -1      1133 1.24721E-04-3.74805E-05-3.76495E-05 6.16116E-07 4.90981E-20 1.00998E-18
 -1      1134 1.37593E-04-4.13202E-05-4.13010E-05 8.03889E-07-4.59966E-20 5.40936E-19
 -1      1135 1.50874E-04-4.52782E-05-4.47120E-05 7.89150E-07 4.45883E-20 4.07211E-19
 -1      1136 1.59434E-04-4.77625E-05-4.64026E-05 1.00693E-07 1.11094E-19 9.91796E-19
 -1      1137 1.54686E-04-4.61356E-05-4.45793E-05-1.73685E-06 1.18095E-19 2.68213E-18
 -1      1138 1.30498E-04-3.86868E-05-3.88319E-05-3.96717E-06 6.38120E-20 2.26751E-18
 -1      1139 9.77431E-05-2.87747E-05-3.22913E-05-3.87477E-06-3.85929E-20 5.42101E-19
 -1      1140 8.03979E-05-2.38904E-05-2.90445E-05-4.10710E-07-1.86665E-19-3.69232E-18
 -1      1141 9.46924E-05-2.81326E-05-3.17272E-05 3.78718E-06-1.21523E-19-9.46813E-18
 -1      1142 1.28481E-04-3.79932E-05-3.85585E-05 4.23657E-06-5.85909E-20-1.19936E-17
 -1      1143 1.55480E-04-4.63186E-05-4.48420E-05 2.02319E-06 2.21023E-19-1.15912E-17
 -1      1144 1.62822E-04-4.87609E-05-4.73161E-05 5.49676E-08 5.54277E-20-8.95759E-18
 -1      1145 1.55768E-04-4.67345E-05-4.61052E-05-7.41249E-07-1.38688E-19-8.77537E-18
 -1      1146 1.43228E-04-4.30005E-05-4.29642E-05-7.87481E-07 2.54828E-19-6.88744E-18
 -1      1147 1.30792E-04-3.92876E-05-3.94724E-05-5.89209E-07 1.47814E-19-5.02227E-18
 -1      1148 1.20394E-04-3.61721E-05-3.63745E-05-3.93020E-07-1.35625E-20-3.77110E-18
 -1      1149 1.12630E-04-3.38488E-05-3.39972E-05-2.20731E-07-2.78628E-20-2.90927E-18
 -1      1150 1.07229E-04-3.22217E-05-3.23186E-05-1.27538E-07-7.11541E-20-3.09784E-18
 -1      1151 1.03433E-04-3.10735E-05-3.11329E-05-7.11248E-08-2.94791E-19-5.52861E-18
 -1      1152 1.00792E-04-3.02717E-05-3.03072E-05-3.83599E-08 1.01973E-19-6.99439E-18
 -1      1153 9.89623E-05-2.97147E-05-2.97357E-05-1.96911E-08-2.07881E-19-6.26053E-18
 -1      1154 9.76986E-05-2.93290E-05-2.93413E-05-9.18049E-09 1.10485E-19-7.31518E-18
 -1      1155 9.68282E-05-2.90628E-05-2.90701E-05-3.34072E-09 2.23832E-19-4.22011E-18
 -1      1156 9.62318E-05-2.88801E-05-2.88843E-05-1.67998E-10-1.67328E-19-4.25634E-18
 -1      1157 9.58266E-05-2.87557E-05-2.87581E-05 1.48008E-09 2.42061E-19-8.62740E-18
 -1      1158 9.55550E-05-2.86721E-05-2.86735E-05 2.25523E-09 5.45772E-19-7.17346E-18
 -1      1159 9.53770E-05-2.86172E-05-2.86178E-05 2.53172E-09-5.03244E-19-4.82664E-18
 -1      1160 9.52640E-05-2.85821E-05-2.85824E-05 2.52378E-09-5.74920E-19-6.06150E-18
 -1      1161 9.51960E-05-2.85609E-05-2.85609E-05 2.35952E-09 9.52548E-20-6.97335E-18
 -1      1162 9.51580E-05-2.85488E-05-2.85488E-05 2.00974E-09-4.05041E-19-5.60934E-18
 -1      1163 9.51413E-05-2.85434E-05-2.85432E-05 1.84939E-09 1.20504E-19-4.52710E-18
 -1      1164 9.51382E-05-2.85422E-05-2.85420E-05 1.59258E-09 2.91144E-20-5.24275E-18
 -1      1165 9.51433E-05-2.85434E-05-2.85432E-05 1.34443E-09-3.39398E-19-7.83437E-18
 -1      1166 9.51530E-05-2.85462E-05-2.85460E-05 1.12074E-09-6.87352E-20-5.90783E-18
 -1      1167 9.51652E-05-2.85497E-05-2.85495E-05 9.26948E-10 2.81843E-19-3.91506E-18
 -1      1168 9.51781E-05-2.85535E-05-2.85534E-05 7.64576E-10 4.61878E-19-3.32229E-18
 -1      1169 9.51910E-05-2.85573E-05-2.85572E-05 6.32604E-10-2.34911E-19-2.22676E-18
 -1      1170 9.52032E-05-2.85609E-05-2.85608E-05 5.27428E-10 1.67030E-20-4.19281E-18
 -1      1171 9.52142E-05-2.85642E-05-2.85641E-05 4.41311E-10 6.47504E-19-5.40571E-18
 -1      1172 9.52238E-05-2.85671E-05-2.85669E-05 3.57761E-10 3.28159E-19-4.91535E-19
 -1      1173 9.52313E-05-2.85693E-05-2.85691E-05 2.41284E-10-1.81224E-19 1.31168E-18
 -1      1174 9.52362E-05-2.85708E-05-2.85706E-05 1.92157E-12-4.17108E-19-3.84641E-18
 -1      1175 9.52375E-05-2.85710E-05-2.85714E-05-3.76304E-10 9.07082E-19-5.29112E-18
 -1      1176 1.31911E-04-3.79093E-05-3.91329E-05 1.20590E-05-2.28011E-19 2.11330E-17
 -1      1177 9.89788E-05-2.89149E-05-3.20572E-05 7.34224E-07 1.42593E-19 1.74985E-17
 -1      1178 9.38267E-05-2.79719E-05-2.88837E-05 7.63981E-08 1.41196E-19 1.38277E-17
 -1      1179 9.25409E-05-2.77607E-05-2.79149E-05-3.24910E-08 1.88316E-20 1.14729E-17
 -1      1180 9.26114E-05-2.78039E-05-2.77868E-05-7.04651E-08 5.03232E-20 9.99994E-18
 -1      1181 9.30545E-05-2.79222E-05-2.78773E-05-8.29647E-08-7.22377E-21 8.69818E-18
 -1      1182 9.33102E-05-2.79854E-05-2.79278E-05-8.31997E-08 3.13601E-20 7.75858E-18
 -1      1183 9.29851E-05-2.78813E-05-2.78076E-05-6.87713E-08 9.51010E-21 6.66631E-18
 -1      1184 9.18075E-05-2.75292E-05-2.74416E-05-3.56242E-08 2.70273E-20 5.69077E-18
 -1      1185 8.96670E-05-2.68957E-05-2.68064E-05 1.71632E-08 1.31737E-20 5.04581E-18
 -1      1186 8.66860E-05-2.60156E-05-2.59461E-05 8.30448E-08 6.05198E-20 4.14141E-18
 -1      1187 8.32681E-05-2.50051E-05-2.49809E-05 1.46189E-07-1.05832E-20 3.49406E-18
 -1      1188 8.00647E-05-2.40541E-05-2.40936E-05 1.84908E-07 3.47085E-21 2.99167E-18
 -1      1189 7.78265E-05-2.33832E-05-2.34864E-05 1.80881E-07-8.96167E-20 2.80828E-18
 -1      1190 7.71649E-05-2.31759E-05-2.33198E-05 1.29808E-07 1.74616E-19 1.40741E-18
 -1      1191 7.83255E-05-2.35101E-05-2.36558E-05 4.59050E-08 1.10214E-20 2.09363E-19
 -1      1192 8.10918E-05-2.43270E-05-2.44360E-05-4.42469E-08-2.05384E-19 1.37063E-18
 -1      1193 8.48768E-05-2.54543E-05-2.55048E-05-1.14670E-07 1.11986E-19 1.01718E-18
 -1      1194 8.89457E-05-2.66722E-05-2.66643E-05-1.50910E-07-4.78359E-21 8.61671E-19
 -1      1195 9.26507E-05-2.77846E-05-2.77350E-05-1.52866E-07-1.33897E-19 1.07647E-18
 -1      1196 9.55774E-05-2.86650E-05-2.85963E-05-1.30397E-07-1.85950E-19 1.82837E-18
 -1      1197 9.75731E-05-2.92661E-05-2.91976E-05-9.63374E-08 2.07549E-19 3.34710E-19
 -1      1198 9.86908E-05-2.96034E-05-2.95468E-05-6.13511E-08 2.48998E-20-1.27069E-18
 -1      1199 9.91015E-05-2.97281E-05-2.96878E-05-3.18442E-08 1.63117E-19-2.69635E-18
 -1      1200 9.90147E-05-2.97031E-05-2.96785E-05-1.02823E-08-6.43910E-20-1.07735E-18
 -1      1201 9.86258E-05-2.95873E-05-2.95751E-05 3.50294E-09 2.45174E-19-2.46473E-19
 -1      1202 9.80907E-05-2.94274E-05-2.94238E-05 1.09776E-08-2.66570E-20-1.21101E-18
 -1      1203 9.75192E-05-2.92564E-05-2.92581E-05 1.39567E-08-1.59784E-19-1.88175E-18
 -1      1204 9.69799E-05-2.90949E-05-2.90994E-05 1.40863E-08 1.24904E-20-3.71230E-18
 -1      1205 9.65095E-05-2.89540E-05-2.89594E-05 1.26413E-08-2.58998E-19-3.72370E-18
 -1      1206 9.61220E-05-2.88377E-05-2.88431E-05 1.05050E-08 2.59116E-19-4.09102E-18
 -1      1207 9.58174E-05-2.87463E-05-2.87511E-05 8.23110E-09-2.41350E-19-4.05070E-18
 -1      1208 9.55879E-05-2.86774E-05-2.86813E-05 6.12855E-09-3.67129E-20-2.10887E-18
 -1      1209 9.54220E-05-2.86275E-05-2.86306E-05 4.34102E-09-6.94136E-20-2.68641E-18
 -1      1210 9.53074E-05-2.85930E-05-2.85952E-05 2.90947E-09 1.05194E-19-1.59370E-18
 -1      1211 9.52324E-05-2.85703E-05-2.85720E-05 1.81715E-09 1.70271E-19-4.96127E-18
 -1      1212 9.51870E-05-2.85566E-05-2.85577E-05 1.01935E-09 2.38298E-19-5.88407E-18
 -1      1213 9.51629E-05-2.85493E-05-2.85500E-05 4.61756E-10 3.53726E-21-3.91211E-18
 -1      1214 9.51535E-05-2.85463E-05-2.85468E-05 9.07367E-11-1.68590E-19-1.49040E-18
 -1      1215 9.51538E-05-2.85464E-05-2.85466E-05-1.41494E-10 3.44424E-19-1.36895E-18
 -1      1216 9.51602E-05-2.85482E-05-2.85483E-05-2.74966E-10-4.57890E-20-8.54781E-19
 -1      1217 9.51699E-05-2.85511E-05-2.85511E-05-3.41852E-10-2.70815E-19-2.27286E-19
 -1      1218 9.51813E-05-2.85545E-05-2.85544E-05-3.67287E-10 1.74771E-19-1.83472E-18
 -1      1219 9.51931E-05-2.85580E-05-2.85579E-05-3.70553E-10 1.98994E-19-5.82499E-18
 -1      1220 9.52046E-05-2.85614E-05-2.85613E-05-3.66067E-10-3.81843E-19-3.53846E-18
 -1      1221 9.52152E-05-2.85645E-05-2.85645E-05-3.63425E-10 1.65323E-19-4.58402E-18
 -1      1222 9.52244E-05-2.85673E-05-2.85672E-05-3.64895E-10 1.89422E-19-4.18617E-18
 -1      1223 9.52317E-05-2.85695E-05-2.85693E-05-3.47033E-10 4.98134E-19-4.98471E-18
 -1      1224 9.52363E-05-2.85708E-05-2.85707E-05-2.19409E-10 4.46041E-19-4.33554E-18
 -1      1225 9.52375E-05-2.85713E-05-2.85714E-05 1.32588E-10 1.71547E-19-3.49522E-18
 -1      1226 9.52370E-05-2.85708E-05-2.85714E-05 1.14622E-10-3.60416E-18-7.05797E-19
 -1      1227 9.52375E-05-2.85721E-05-2.85706E-05 5.84336E-12-6.18514E-18 5.03023E-20
 -1      1228 9.52388E-05-2.85765E-05-2.85693E-05-2.58329E-10-8.12216E-18-4.59814E-19
 -1      1229 9.52407E-05-2.85829E-05-2.85676E-05-3.37247E-10-7.46186E-18-3.53019E-19
 -1      1230 9.52427E-05-2.85898E-05-2.85656E-05-3.25799E-10-3.47310E-19 6.43258E-19
 -1      1231 9.52446E-05-2.85962E-05-2.85637E-05-2.69115E-10 1.82704E-18-8.25551E-19
 -1      1232 9.52461E-05-2.86014E-05-2.85623E-05-1.94107E-10-1.61063E-19-9.14952E-19
 -1      1233 9.52471E-05-2.86047E-05-2.85613E-05-1.01215E-10-5.27668E-18-1.10343E-19
 -1      1234 9.52475E-05-2.86059E-05-2.85609E-05-2.25242E-12-3.15671E-18 8.54215E-19
 -1      1235 9.52471E-05-2.86048E-05-2.85613E-05 9.78126E-11 4.98272E-18 1.18185E-20
 -1      1236 9.52462E-05-2.86015E-05-2.85622E-05 1.93342E-10 6.02128E-18-1.46374E-18
 -1      1237 9.52447E-05-2.85964E-05-2.85637E-05 2.76414E-10 3.75334E-19 3.98141E-19
 -1      1238 9.52428E-05-2.85900E-05-2.85655E-05 3.32271E-10 4.70743E-18 4.84025E-19
 -1      1239 9.52407E-05-2.85829E-05-2.85675E-05 3.41727E-10 1.07225E-17-1.57921E-19
 -1      1240 9.52388E-05-2.85765E-05-2.85693E-05 2.43732E-10 7.43534E-18-1.00669E-18
 -1      1241 9.52374E-05-2.85720E-05-2.85706E-05-1.23990E-10 5.08618E-18 7.24945E-19
 -1      1242 9.52373E-05-2.85708E-05-2.85714E-05-3.64731E-10 5.55332E-18-5.97705E-19
 -1      1243 3.64987E-05-1.13773E-04 1.97177E-05-1.28297E-05 1.07700E-17 1.84050E-18
 -1      1244 1.72905E-05-6.23293E-05 9.16937E-06-2.14446E-05 1.75827E-17 6.50394E-18
 -1      1245 8.46542E-06-2.47618E-06-8.30104E-06 6.34300E-06 1.81299E-17 1.09852E-17
 -1      1246 3.63974E-05 2.92437E-05-2.80737E-05 5.91855E-05 1.63613E-17 1.55261E-17
 -1      1247 1.07467E-04 1.79479E-05-4.82551E-05 1.05944E-04 1.21329E-17 1.70965E-17
 -1      1248 2.06698E-04-2.84137E-05-6.60868E-05 1.17159E-04 6.58187E-18 1.37236E-17
 -1      1249 2.93763E-04-7.97797E-05-7.80650E-05 7.21289E-05 1.32370E-18 3.54314E-18
 -1      1250 3.22179E-04-9.75931E-05-8.15317E-05-9.77400E-06 8.83667E-19-6.86944E-18
 -1      1251 2.78486E-04-7.00656E-05-7.59729E-05-8.60963E-05 4.79961E-18-1.65519E-17
 -1      1252 1.80243E-04-1.47019E-05-6.15391E-05-1.16687E-04 1.19991E-17-2.31223E-17
 -1      1253 8.05127E-05 2.52276E-05-4.14254E-05-9.27004E-05 1.86229E-17-2.31460E-17
 -1      1254 1.99555E-05 2.10283E-05-1.99900E-05-3.65178E-05 2.17586E-17-1.74362E-17
 -1      1255 7.99783E-06-2.42538E-05-6.80288E-07 1.09512E-05 2.01780E-17-1.05312E-17
 -1      1256 2.43460E-05-8.34269E-05 1.36588E-05 2.46175E-05 1.28639E-17-4.25528E-18
 -1      1257 3.89933E-05-1.21274E-04 2.11936E-05 4.19542E-06 1.61275E-18-1.09082E-18
 -1      1258 3.33173E-05-1.12680E-04 1.98241E-05-2.47255E-05-1.06218E-17-3.06650E-18
 -1      1259 1.52245E-05-6.70282E-05 9.91725E-06-3.30618E-05-1.90532E-17-8.51353E-18
 -1      1260 8.23396E-06-1.00654E-05-7.22604E-06-2.90298E-06-2.29292E-17-1.59259E-17
 -1      1261 4.62776E-05 1.98453E-05-3.02572E-05 5.79506E-05-2.09488E-17-2.23803E-17
 -1      1262 1.45719E-04-1.95119E-06-5.53153E-05 1.11918E-04-1.45554E-17-2.44318E-17
 -1      1263 2.69004E-04-5.84591E-05-7.52780E-05 1.10304E-04-7.09178E-18-2.04558E-17
 -1      1264 3.51899E-04-1.04106E-04-8.60683E-05 4.63119E-05-2.02954E-18-8.66472E-18
 -1      1265 3.50639E-04-1.04434E-04-8.56689E-05-4.86372E-05-1.44160E-18 4.21738E-18
 -1      1266 2.51968E-04-5.08658E-05-7.25929E-05-1.10613E-04-7.13837E-18 1.70745E-17
 -1      1267 1.24098E-04 4.92451E-06-5.04708E-05-1.03226E-04-1.54584E-17 2.41608E-17
 -1      1268 3.47773E-05 1.74212E-05-2.56698E-05-4.54505E-05-2.00340E-17 2.07133E-17
 -1      1269 6.72765E-06-2.14595E-05-2.81366E-06 1.33397E-05-1.69728E-17 1.13045E-17
 -1      1270 1.99492E-05-8.12847E-05 1.35039E-05 3.54620E-05-1.16323E-17 4.80649E-18
 -1      1271 3.75112E-05-1.19635E-04 2.13115E-05 1.78601E-05-2.19149E-18 1.32751E-18
 -1      1272 1.06914E-04-2.26500E-05-3.86282E-05-1.60343E-05-5.10761E-19 8.04830E-18
 -1      1273 9.29689E-05-7.28994E-06-3.68622E-05-1.77327E-05-1.38140E-18-7.22519E-19
 -1      1274 9.55479E-05-7.46708E-06-3.80596E-05-2.32948E-05-1.77379E-18 1.27044E-18
 -1      1275 8.75453E-05-4.29790E-06-3.57497E-05-1.32787E-05-1.30782E-18-3.50407E-18
 -1      1276 8.93253E-05-4.33639E-06-3.63615E-05-1.58247E-05-1.51693E-18-2.29048E-18
 -1      1277 9.47555E-05-1.10865E-05-3.59193E-05-1.60419E-05-2.40698E-18-6.17328E-19
 -1      1278 8.43433E-05-2.94987E-06-3.49218E-05-9.80118E-06-1.03470E-18-4.89364E-18
 -1      1279 8.55978E-05-2.95268E-06-3.53526E-05-1.14872E-05-1.18055E-18-4.28016E-18
 -1      1280 8.90936E-05-7.28104E-06-3.51286E-05-1.22415E-05-2.04659E-18-2.92475E-18
 -1      1281 8.21063E-05-2.13258E-06-3.42989E-05-7.26615E-06-7.34986E-19-5.56526E-18
 -1      1282 8.30045E-05-2.13678E-06-3.46108E-05-8.48146E-06-8.51612E-19-5.27361E-18
 -1      1283 8.54640E-05-5.15636E-06-3.44753E-05-9.11073E-06-1.53450E-18-4.11324E-18
 -1      1284 8.06312E-05-1.64415E-06-3.38645E-05-5.38039E-06-4.31299E-19-5.81732E-18
 -1      1285 8.12125E-05-1.64770E-06-3.40720E-05-6.30066E-06-5.54568E-19-5.68773E-18
 -1      1286 8.30087E-05-3.87089E-06-3.39638E-05-6.80794E-06-1.07109E-18-4.68621E-18
 -1      1287 7.98198E-05-1.41230E-06-3.36041E-05-3.78587E-06-2.14313E-19-5.87156E-18
 -1      1288 8.01130E-05-1.41160E-06-3.37177E-05-4.58862E-06-2.49544E-19-5.87697E-18
 -1      1289 8.14646E-05-3.15608E-06-3.36035E-05-5.02819E-06-5.76171E-19-4.93626E-18
 -1      1290 7.96293E-05-1.39365E-06-3.35166E-05-2.26055E-06 9.28874E-20-5.78893E-18
 -1      1291 7.96574E-05-1.38840E-06-3.35409E-05-3.05155E-06-6.47186E-21-5.82800E-18
 -1      1292 8.07393E-05-2.90147E-06-3.34005E-05-3.47113E-06-1.98411E-19-4.94254E-18
 -1      1293 7.99433E-05-1.53233E-06-3.35778E-05-6.06696E-07 3.18379E-19-5.58935E-18
 -1      1294 7.97593E-05-1.52454E-06-3.35278E-05-1.47586E-06 2.36924E-19-5.70277E-18
 -1      1295 8.07269E-05-3.00806E-06-3.33503E-05-1.91485E-06 2.59764E-19-4.84492E-18
 -1      1296 8.06281E-05-1.77377E-06-3.37556E-05 1.30737E-06 5.62403E-19-5.29663E-18
 -1      1297 8.02904E-05-1.76598E-06-3.36487E-05 3.00931E-07 4.70586E-19-5.46993E-18
 -1      1298 8.12698E-05-3.36971E-06-3.34300E-05-1.85145E-07 6.29829E-19-4.63602E-18
 -1      1299 8.15697E-05-2.07841E-06-3.40191E-05 3.55970E-06 7.78767E-19-4.88915E-18
 -1      1300 8.11249E-05-2.07240E-06-3.38701E-05 2.37955E-06 7.11018E-19-5.14258E-18
 -1      1301 8.22086E-05-3.89760E-06-3.36091E-05 1.82755E-06 1.04706E-18-4.36499E-18
 -1      1302 8.26896E-05-2.42347E-06-3.43446E-05 6.15212E-06 1.01569E-18-4.23475E-18
 -1      1303 8.21664E-05-2.42441E-06-3.41627E-05 4.79671E-06 9.28480E-19-4.60966E-18
 -1      1304 8.34174E-05-4.53779E-06-3.38568E-05 4.16261E-06 1.38017E-18-3.88342E-18
 -1      1305 8.40687E-05-2.84338E-06-3.47528E-05 9.23473E-06 1.33649E-18-3.23508E-18
 -1      1306 8.34179E-05-2.85269E-06-3.45197E-05 7.61366E-06 1.19740E-18-3.80183E-18
 -1      1307 8.48763E-05-5.31018E-06-3.41584E-05 6.87989E-06 1.81057E-18-3.15604E-18
 -1      1308 8.59111E-05-3.42038E-06-3.52997E-05 1.28971E-05 1.61691E-18-1.69547E-18
 -1      1309 8.50189E-05-3.44506E-06-3.49714E-05 1.09373E-05 1.44716E-18-2.61881E-18
 -1      1310 8.67336E-05-6.34342E-06-3.45231E-05 1.00664E-05 2.23596E-18-2.11340E-18
 -1      1311 8.88591E-05-4.40820E-06-3.61478E-05 1.74707E-05 1.75945E-18 9.79541E-19
 -1      1312 8.73847E-05-4.45437E-06-3.56027E-05 1.48981E-05 1.59523E-18-6.16508E-19
 -1      1313 8.94186E-05-7.97308E-06-3.49884E-05 1.38171E-05 2.56969E-18-3.66765E-19
 -1      1314 9.52666E-05-7.23415E-06-3.76761E-05 2.39195E-05 1.47363E-18 5.78947E-18
 -1      1315 9.19003E-05-6.83932E-06-3.66060E-05 1.97251E-05 1.47257E-18 2.89961E-18
 -1      1316 9.42393E-05-1.12875E-05-3.56200E-05 1.81382E-05 2.60261E-18 2.59970E-18
 -1      1317 1.24942E-04-2.53048E-05-3.94978E-05 2.77287E-05 6.40992E-19 1.45135E-17
 -1      1318 1.01857E-04-1.48917E-05-3.79007E-05 2.31109E-05 6.98802E-19 8.50283E-18
 -1      1319 1.03744E-04-2.00193E-05-3.59818E-05 2.01791E-05 2.37429E-18 6.96812E-18
 -1      1320 1.04584E-04-2.84466E-05-3.53295E-05 6.72134E-06 1.25766E-18 1.40840E-17
 -1      1321 1.08589E-04-3.13120E-05-3.45146E-05-6.61564E-06-1.45256E-18 8.59156E-18
 -1      1322 1.02833E-04-2.92629E-05-3.20763E-05-3.81862E-06-1.34848E-18 6.91359E-18
 -1      1323 1.00833E-04-2.94113E-05-3.08553E-05-1.19409E-06-1.08706E-18 6.19393E-18
 -1      1324 9.98667E-05-2.94786E-05-3.02025E-05-7.26530E-07-1.09127E-18 4.59687E-18
 -1      1325 1.04122E-04-2.94280E-05-3.23779E-05-5.48084E-06-2.33591E-18 3.36801E-18
 -1      1326 9.92449E-05-2.93924E-05-2.99233E-05 7.64994E-07-8.54504E-19 4.08553E-18
 -1      1327 1.00119E-04-2.97520E-05-3.01033E-05 9.65831E-07-6.61652E-19 2.97444E-18
 -1      1328 1.01132E-04-2.95482E-05-3.08236E-05-2.47064E-07-1.78801E-18 2.31984E-18
 -1      1329 1.00776E-04-2.99405E-05-3.03198E-05 2.00946E-06-5.34703E-19 2.37466E-18
 -1      1330 1.02883E-04-3.06051E-05-3.09381E-05 2.20967E-06-4.90095E-19 1.70394E-18
 -1      1331 1.01289E-04-2.98474E-05-3.06787E-05 2.74106E-06-1.27018E-18 1.32766E-18
 -1      1332 1.04499E-04-3.10374E-05-3.14746E-05 3.17834E-06-3.40693E-19 1.39644E-18
 -1      1333 1.07745E-04-3.20327E-05-3.24377E-05 3.40595E-06-3.78372E-19 9.35389E-19
 -1      1334 1.03457E-04-3.05085E-05-3.13219E-05 5.13636E-06-8.80173E-19 4.20764E-19
 -1      1335 1.10221E-04-3.27056E-05-3.32453E-05 4.42425E-06-1.50117E-19 7.78053E-19
 -1      1336 1.14680E-04-3.40883E-05-3.45541E-05 4.68814E-06-3.08241E-20 5.32254E-19
 -1      1337 1.07357E-04-3.16178E-05-3.25291E-05 7.50988E-06-5.25941E-19 1.21642E-19
 -1      1338 1.17968E-04-3.50168E-05-3.56024E-05 5.69338E-06 5.12521E-21 6.28604E-19
 -1      1339 1.23617E-04-3.68302E-05-3.72232E-05 5.95912E-06-3.58467E-20 4.87891E-19
 -1      1340 1.12889E-04-3.32624E-05-3.42042E-05 9.94253E-06-3.26505E-20 4.20472E-20
 -1      1341 1.27586E-04-3.80450E-05-3.84247E-05 6.60388E-06-3.46270E-20 5.23096E-19
 -1      1342 1.33923E-04-4.02163E-05-4.01586E-05 6.73779E-06-3.98732E-20 3.74230E-19
 -1      1343 1.19956E-04-3.56041E-05-3.62187E-05 1.19865E-05-1.31867E-19 1.09850E-19
 -1      1344 1.38190E-04-4.17368E-05-4.13013E-05 6.21156E-06 1.36266E-19 6.65397E-19
 -1      1345 1.43626E-04-4.38472E-05-4.26430E-05 5.89912E-06-3.83944E-20 7.66194E-19
 -1      1346 1.28204E-04-3.88671E-05-3.82929E-05 1.23360E-05 1.22568E-19 5.48930E-19
 -1      1347 1.47377E-04-4.55636E-05-4.33889E-05 2.94136E-06 2.24040E-19 1.18145E-18
 -1      1348 1.48749E-04-4.64802E-05-4.35374E-05 1.71024E-06 3.83415E-19 1.50211E-18
 -1      1349 1.36665E-04-4.30864E-05-3.99720E-05 8.58931E-06 4.12082E-19 1.39768E-18
 -1      1350 1.50528E-04-4.77297E-05-4.36154E-05-4.30146E-06 7.00920E-19 1.75675E-18
 -1      1351 1.44112E-04-4.56473E-05-4.19519E-05-6.48535E-06 1.68242E-19 2.43861E-18
 -1      1352 1.43157E-04-4.70868E-05-4.08896E-05-1.78220E-06 9.14716E-19 1.89470E-18
 -1      1353 1.42209E-04-4.48024E-05-4.15189E-05-1.29336E-05-4.83881E-19 2.77022E-18
 -1      1354 1.28165E-04-3.89895E-05-3.86330E-05-1.43529E-05-5.97132E-19 1.95516E-18
 -1      1355 1.44179E-04-4.75404E-05-4.12548E-05-1.70192E-05-2.51331E-20 2.48657E-18
 -1      1356 1.23754E-04-3.59608E-05-3.83349E-05-1.43261E-05-8.25645E-19 1.23624E-18
 -1      1357 1.11572E-04-3.03255E-05-3.61800E-05-1.29422E-05-1.45838E-18-2.62792E-19
 -1      1358 1.37595E-04-4.07943E-05-4.19035E-05-2.55743E-05-1.64091E-18 1.64776E-18
 -1      1359 1.07813E-04-2.75115E-05-3.60884E-05-3.27822E-06-2.05469E-18-1.62027E-18
 -1      1360 1.06671E-04-2.68288E-05-3.59339E-05 9.96581E-07-2.11589E-18-4.11520E-18
 -1      1361 1.28888E-04-3.18375E-05-4.27391E-05-1.44907E-05-3.31317E-18-6.79089E-19
 -1      1362 1.09397E-04-2.88415E-05-3.60513E-05 1.15701E-05-2.12086E-18-5.67120E-18
 -1      1363 1.21443E-04-3.44770E-05-3.81852E-05 1.36735E-05-1.44906E-18-7.52546E-18
 -1      1364 1.27959E-04-3.06924E-05-4.29316E-05 1.11288E-05-3.85146E-18-3.55574E-18
 -1      1365 1.27104E-04-3.82631E-05-3.85917E-05 1.53114E-05-3.67877E-19-8.59103E-18
 -1      1366 1.42107E-04-4.46570E-05-4.16491E-05 1.39841E-05 5.16425E-20-9.05161E-18
 -1      1367 1.36937E-04-3.96429E-05-4.22208E-05 2.58506E-05-1.90074E-18-6.18527E-18
 -1      1368 1.44758E-04-4.57913E-05-4.21735E-05 7.90828E-06 3.17479E-19-9.18353E-18
 -1      1369 1.52441E-04-4.84330E-05-4.41229E-05 5.62023E-06 8.68632E-19-8.50834E-18
 -1      1370 1.45119E-04-4.74645E-05-4.16687E-05 1.92107E-05 1.43704E-19-6.81332E-18
 -1      1371 1.51229E-04-4.73542E-05-4.41990E-05-7.08009E-07 7.34695E-19-8.28711E-18
 -1      1372 1.50787E-04-4.67454E-05-4.43218E-05-2.07928E-06 4.56577E-19-7.73455E-18
 -1      1373 1.45441E-04-4.79712E-05-4.14507E-05 3.83509E-06 1.29940E-18-7.05056E-18
 -1      1374 1.47371E-04-4.50719E-05-4.37080E-05-5.37422E-06 4.47657E-19-7.42088E-18
 -1      1375 1.42447E-04-4.30970E-05-4.25328E-05-5.76055E-06 9.94470E-20-7.05864E-18
 -1      1376 1.39725E-04-4.42176E-05-4.07709E-05-7.29395E-06 5.75903E-19-6.76863E-18
 -1      1377 1.38363E-04-4.15919E-05-4.14727E-05-6.47156E-06 8.30524E-19-6.21394E-18
 -1      1378 1.32308E-04-3.94863E-05-3.98309E-05-6.35909E-06 1.18534E-18-4.94948E-18
 -1      1379 1.31699E-04-4.00251E-05-3.92811E-05-1.16318E-05 1.02893E-18-5.10377E-18
 -1      1380 1.28433E-04-3.82864E-05-3.86735E-05-5.78703E-06 3.40041E-19-4.57186E-18
 -1      1381 1.22965E-04-3.65206E-05-3.71095E-05-5.52602E-06 2.55768E-19-3.73393E-18
 -1      1382 1.23695E-04-3.67561E-05-3.73216E-05-1.15667E-05 1.10461E-18-3.67704E-18
 -1      1383 1.19529E-04-3.55566E-05-3.60230E-05-4.52495E-06 1.08877E-19-3.77157E-18
 -1      1384 1.15051E-04-3.41684E-05-3.47046E-05-4.25345E-06 7.10184E-20-3.53409E-18
 -1      1385 1.16588E-04-3.43778E-05-3.53019E-05-9.62395E-06 4.77157E-19-3.18170E-18
 -1      1386 1.12511E-04-3.34840E-05-3.38828E-05-3.34134E-06 1.05667E-19-3.23254E-18
 -1      1387 1.09372E-04-3.25408E-05-3.29486E-05-3.13833E-06 1.92118E-19-2.71667E-18
 -1      1388 1.10873E-04-3.27039E-05-3.35628E-05-7.32541E-06 5.38382E-19-3.87294E-18
 -1      1389 1.07435E-04-3.20238E-05-3.23221E-05-2.40306E-06-4.50708E-19-3.29361E-18
 -1      1390 1.05192E-04-3.13594E-05-3.16514E-05-2.25293E-06-9.07864E-19-3.93176E-18
 -1      1391 1.06597E-04-3.15381E-05-3.22143E-05-5.37571E-06-2.30022E-19-3.70213E-18
 -1      1392 1.03760E-04-3.09775E-05-3.11897E-05-1.70120E-06-7.36518E-19-4.30550E-18
 -1      1393 1.02183E-04-3.05148E-05-3.07174E-05-1.59445E-06-4.29224E-19-5.46273E-18
 -1      1394 1.03394E-04-3.06939E-05-3.11904E-05-3.85608E-06-1.04628E-18-5.30358E-18
 -1      1395 1.01140E-04-3.02351E-05-3.03829E-05-1.19498E-06-5.73594E-19-5.29456E-18
 -1      1396 1.00040E-04-2.99143E-05-3.00533E-05-1.12029E-06-5.79809E-19-5.87762E-18
 -1      1397 1.01036E-04-3.00805E-05-3.04333E-05-2.73293E-06-1.02377E-18-4.98937E-18
 -1      1398 9.92870E-05-2.97109E-05-2.98133E-05-8.35974E-07-3.38008E-19-5.76756E-18
 -1      1399 9.85228E-05-2.94891E-05-2.95844E-05-7.83966E-07-1.32928E-20-5.33725E-18
 -1      1400 9.93205E-05-2.96349E-05-2.98821E-05-1.92453E-06-4.64637E-19-5.26292E-18
 -1      1401 9.79830E-05-2.93422E-05-2.94132E-05-5.83032E-07 1.36019E-19-5.29035E-18
 -1      1402 9.74539E-05-2.91891E-05-2.92545E-05-5.46797E-07 1.31522E-19-5.08996E-18
 -1      1403 9.80809E-05-2.93121E-05-2.94845E-05-1.34983E-06-3.46986E-20-3.89864E-18
 -1      1404 9.70688E-05-2.90836E-05-2.91330E-05-4.05035E-07 4.68424E-19-5.11433E-18
 -1      1405 9.67039E-05-2.89784E-05-2.90235E-05-3.79718E-07 4.89087E-19-4.45783E-18
 -1      1406 9.71908E-05-2.90791E-05-2.91994E-05-9.43144E-07 5.87996E-19-4.63218E-18
 -1      1407 9.64309E-05-2.89032E-05-2.89378E-05-2.79640E-07-3.66829E-19-3.97341E-18
 -1      1408 9.61809E-05-2.88314E-05-2.88626E-05-2.61899E-07-8.44206E-19-5.21658E-18
 -1      1409 9.65554E-05-2.89121E-05-2.89963E-05-6.55566E-07 7.92406E-20-5.02400E-18
 -1      1410 9.59889E-05-2.87782E-05-2.88025E-05-1.91177E-07-4.72238E-19-5.09809E-18
 -1      1411 9.58193E-05-2.87299E-05-2.87515E-05-1.78726E-07 1.56759E-19-5.81963E-18
 -1      1412 9.61050E-05-2.87934E-05-2.88524E-05-4.52066E-07-8.48341E-19-4.05581E-18
 -1      1413 9.56858E-05-2.86927E-05-2.87098E-05-1.28752E-07 6.51901E-19-5.82657E-18
 -1      1414 9.55727E-05-2.86607E-05-2.86756E-05-1.20021E-07-1.35547E-19-4.83897E-18
 -1      1415 9.57887E-05-2.87100E-05-2.87513E-05-3.07999E-07 1.87197E-19-3.93146E-18
 -1      1416 9.54811E-05-2.86352E-05-2.86471E-05-8.47868E-08-5.74716E-19-5.03379E-18
 -1      1417 9.54075E-05-2.86146E-05-2.86248E-05-7.86900E-08-5.69973E-19-5.80356E-18
 -1      1418 9.55694E-05-2.86522E-05-2.86811E-05-2.06119E-07-3.39940E-19-5.89856E-18
 -1      1419 9.53461E-05-2.85974E-05-2.86057E-05-5.39779E-08-1.08029E-18-5.12410E-18
 -1      1420 9.52999E-05-2.85847E-05-2.85917E-05-4.97506E-08-7.31271E-19-6.05792E-18
 -1      1421 9.54200E-05-2.86131E-05-2.86332E-05-1.34333E-07-5.15650E-19-6.27666E-18
 -1      1422 9.52599E-05-2.85735E-05-2.85793E-05-3.25902E-08 7.40085E-19-6.00361E-18
 -1      1423 9.52327E-05-2.85663E-05-2.85709E-05-2.96861E-08 8.35384E-19-5.09361E-18
 -1      1424 9.53207E-05-2.85874E-05-2.86012E-05-8.41047E-08-1.31463E-19-5.33460E-18
 -1      1425 9.52068E-05-2.85591E-05-2.85629E-05-1.75022E-08-7.53706E-21-4.15254E-18
 -1      1426 9.51922E-05-2.85554E-05-2.85583E-05-1.54423E-08-7.98533E-20-4.25446E-18
 -1      1427 9.52557E-05-2.85706E-05-2.85801E-05-4.87985E-08 1.07699E-18-4.41705E-18
 -1      1428 9.51782E-05-2.85514E-05-2.85540E-05-7.69354E-09 1.86468E-19-4.10961E-18
 -1      1429 9.51728E-05-2.85504E-05-2.85522E-05-6.48037E-09 2.62506E-19-4.13260E-18
 -1      1430 9.52167E-05-2.85612E-05-2.85672E-05-2.47215E-08 3.08793E-19-3.17911E-18
 -1      1431 9.51658E-05-2.85485E-05-2.85501E-05-1.43948E-09-9.07414E-19-4.25134E-18
 -1      1432 9.51658E-05-2.85489E-05-2.85499E-05-6.78965E-10-8.97558E-19-6.06245E-18
 -1      1433 9.51959E-05-2.85563E-05-2.85602E-05-9.30133E-09-4.68378E-19-4.79542E-18
 -1      1434 9.51635E-05-2.85483E-05-2.85492E-05 2.46394E-09-5.11102E-19-6.07138E-18
 -1      1435 9.51667E-05-2.85495E-05-2.85501E-05 2.90171E-09-5.70006E-19-6.62169E-18
 -1      1436 9.51865E-05-2.85545E-05-2.85568E-05 5.84082E-10-1.55139E-18-4.15508E-18
 -1      1437 9.51674E-05-2.85498E-05-2.85503E-05 4.72989E-09 2.54451E-19-5.35662E-18
 -1      1438 9.51725E-05-2.85515E-05-2.85517E-05 4.95040E-09 5.46370E-19-5.17174E-18
 -1      1439 9.51847E-05-2.85546E-05-2.85559E-05 6.60768E-09 3.95800E-19-4.02504E-18
 -1      1440 9.51750E-05-2.85523E-05-2.85525E-05 5.88663E-09 6.52494E-19-3.94849E-18
 -1      1441 9.51809E-05-2.85542E-05-2.85542E-05 5.96476E-09 4.92640E-19-3.97778E-18
 -1      1442 9.51876E-05-2.85559E-05-2.85565E-05 9.97502E-09 7.57309E-19-3.89773E-18
 -1      1443 9.51844E-05-2.85553E-05-2.85553E-05 6.30954E-09 1.15375E-18-4.07901E-18
 -1      1444 9.51906E-05-2.85572E-05-2.85571E-05 6.29729E-09 5.27988E-19-3.15546E-18
 -1      1445 9.51933E-05-2.85579E-05-2.85581E-05 1.15540E-08 7.68706E-19-3.25259E-18
 -1      1446 9.51945E-05-2.85584E-05-2.85583E-05 6.25630E-09-1.03469E-18-2.49583E-18
 -1      1447 9.52006E-05-2.85603E-05-2.85601E-05 6.18766E-09-1.24988E-18-3.68490E-18
 -1      1448 9.52004E-05-2.85602E-05-2.85601E-05 1.19530E-08 3.54279E-20-3.60289E-18
 -1      1449 9.52045E-05-2.85614E-05-2.85613E-05 5.89031E-09-7.72744E-19-3.71288E-18
 -1      1450 9.52101E-05-2.85632E-05-2.85629E-05 5.78411E-09-5.79695E-19-4.20573E-18
 -1      1451 9.52080E-05-2.85626E-05-2.85623E-05 1.15761E-08-1.41230E-18-3.94956E-18
 -1      1452 9.52139E-05-2.85643E-05-2.85641E-05 5.29478E-09 1.96721E-19-5.37164E-18
 -1      1453 9.52189E-05-2.85659E-05-2.85655E-05 5.15562E-09 7.10746E-19-4.97546E-18
 -1      1454 9.52155E-05-2.85649E-05-2.85645E-05 1.06590E-08-9.79462E-19-3.93442E-18
 -1      1455 9.52222E-05-2.85669E-05-2.85666E-05 4.47928E-09 1.47754E-18-4.42062E-18
 -1      1456 9.52264E-05-2.85682E-05-2.85678E-05 4.29597E-09 1.17585E-18-2.42980E-18
 -1      1457 9.52223E-05-2.85671E-05-2.85665E-05 9.29020E-09 1.67881E-18-6.51705E-18
 -1      1458 9.52291E-05-2.85690E-05-2.85686E-05 3.38945E-09-2.23531E-19-1.33898E-18
 -1      1459 9.52321E-05-2.85700E-05-2.85695E-05 3.13361E-09-1.41204E-18-2.15500E-18
 -1      1460 9.52282E-05-2.85690E-05-2.85682E-05 7.42997E-09 1.18024E-18-5.53721E-18
 -1      1461 9.52341E-05-2.85707E-05-2.85700E-05 1.96762E-09-1.62871E-18-1.54552E-18
 -1      1462 9.52358E-05-2.85712E-05-2.85705E-05 1.57906E-09-9.94858E-19-3.68104E-18
 -1      1463 9.52329E-05-2.85706E-05-2.85695E-05 4.98752E-09-1.90680E-18-2.01830E-18
 -1      1464 9.52367E-05-2.85714E-05-2.85708E-05 5.95291E-10 3.93377E-20-3.53925E-18
 -1      1465 9.52370E-05-2.85713E-05-2.85711E-05 3.86321E-10 1.54861E-18-1.11470E-18
 -1      1466 9.52370E-05-2.85716E-05-2.85708E-05 5.81891E-10 3.83858E-18 8.61401E-19
 -1      1467 9.52358E-05-2.85716E-05-2.85703E-05 2.46760E-09-6.49889E-19 2.54115E-19
 -1      1468 9.93990E-05-2.92366E-05-3.05913E-05 2.54575E-06 1.18227E-18 1.15132E-17
 -1      1469 1.04809E-04-3.00897E-05-3.28333E-05 3.97586E-06 1.02120E-18 1.32512E-17
 -1      1470 1.04630E-04-2.74915E-05-3.33734E-05 1.18604E-05 1.97528E-18 9.07299E-18
 -1      1471 9.55660E-05-2.85055E-05-2.88041E-05 8.08161E-07 7.89276E-19 9.34153E-18
 -1      1472 9.71108E-05-2.85474E-05-2.95959E-05 1.11917E-06 8.59011E-19 1.06805E-17
 -1      1473 9.94174E-05-2.89665E-05-3.03886E-05 4.12901E-06 1.69370E-18 7.48921E-18
 -1      1474 9.42715E-05-2.82457E-05-2.82690E-05 1.02388E-07 4.83553E-19 7.95618E-18
 -1      1475 9.46098E-05-2.81924E-05-2.84547E-05 2.47761E-07 4.70957E-19 8.70843E-18
 -1      1476 9.65106E-05-2.86829E-05-2.91193E-05 1.28794E-06 1.13677E-18 6.21933E-18
 -1      1477 9.40243E-05-2.82186E-05-2.81702E-05-1.22010E-07 5.19043E-19 6.82325E-18
 -1      1478 9.39447E-05-2.81363E-05-2.81613E-05-6.69734E-08 4.11795E-19 7.47930E-18
 -1      1479 9.53423E-05-2.85590E-05-2.86390E-05 1.77764E-07 8.81073E-19 5.00798E-18
 -1      1480 9.40459E-05-2.82556E-05-2.81689E-05-8.42522E-08 3.46207E-19 5.86247E-18
 -1      1481 9.39162E-05-2.81943E-05-2.81351E-05-9.28764E-08 3.67331E-19 6.45372E-18
 -1      1482 9.49233E-05-2.85219E-05-2.84616E-05-1.08777E-07 7.15955E-19 4.24802E-18
 -1      1483 9.38572E-05-2.82225E-05-2.81037E-05 1.41716E-07 3.10372E-19 5.07618E-18
 -1      1484 9.39133E-05-2.82400E-05-2.81248E-05 8.19692E-08 2.57144E-19 5.50635E-18
 -1      1485 9.46891E-05-2.85100E-05-2.83541E-05 8.59874E-08 6.35602E-19 3.65751E-18
 -1      1486 9.31312E-05-2.80193E-05-2.78795E-05 4.99582E-07 3.06497E-19 4.41693E-18
 -1      1487 9.35372E-05-2.81622E-05-2.80027E-05 3.98963E-07 2.31184E-19 4.75445E-18
 -1      1488 9.42436E-05-2.84166E-05-2.81917E-05 6.05485E-07 5.38792E-19 3.03861E-18
 -1      1489 9.16775E-05-2.75820E-05-2.74459E-05 9.18408E-07 2.31854E-19 3.78015E-18
 -1      1490 9.25246E-05-2.78761E-05-2.76948E-05 7.93860E-07 2.82945E-19 4.17399E-18
 -1      1491 9.33333E-05-2.81592E-05-2.79032E-05 1.32299E-06 4.29373E-19 2.70525E-18
 -1      1492 8.94807E-05-2.68997E-05-2.68044E-05 1.29635E-06 2.75239E-19 3.39358E-18
 -1      1493 9.07612E-05-2.73374E-05-2.71738E-05 1.17557E-06 1.46882E-19 3.68379E-18
 -1      1494 9.18391E-05-2.76901E-05-2.74612E-05 2.07416E-06 4.23057E-19 2.38680E-18
 -1      1495 8.67490E-05-2.60325E-05-2.60195E-05 1.50819E-06 1.80358E-19 2.89170E-18
 -1      1496 8.83279E-05-2.65634E-05-2.64685E-05 1.42781E-06 3.14524E-19 3.32634E-18
 -1      1497 8.98106E-05-2.70157E-05-2.68871E-05 2.64475E-06 4.35908E-19 2.14049E-18
 -1      1498 8.39210E-05-2.51196E-05-2.52180E-05 1.43904E-06 2.96389E-19 2.36762E-18
 -1      1499 8.55344E-05-2.56499E-05-2.56708E-05 1.43484E-06 7.52329E-20 2.54295E-18
 -1      1500 8.74919E-05-2.62140E-05-2.62529E-05 2.80552E-06 3.26444E-19 1.82988E-18
 -1      1501 8.15914E-05-2.43577E-05-2.45648E-05 1.03625E-06 2.49991E-19 1.79789E-18
 -1      1502 8.28937E-05-2.47681E-05-2.49254E-05 1.12728E-06 3.23805E-19 2.09699E-18
 -1      1503 8.53005E-05-2.54340E-05-2.56708E-05 2.39047E-06 4.01063E-19 1.41652E-18
 -1      1504 8.03453E-05-2.39455E-05-2.42184E-05 3.52197E-07 1.63739E-19 1.46773E-18
 -1      1505 8.10068E-05-2.41267E-05-2.43971E-05 5.27294E-07 1.98523E-22 1.57392E-18
 -1      1506 8.37330E-05-2.48628E-05-2.52664E-05 1.38739E-06 3.14090E-19 8.07619E-19
 -1      1507 8.05554E-05-2.40109E-05-2.42782E-05-4.55931E-07 3.96881E-19 5.44536E-19
 -1      1508 8.03761E-05-2.39037E-05-2.42222E-05-2.38760E-07 4.20234E-19 1.42887E-18
 -1      1509 8.32092E-05-2.46635E-05-2.51414E-05-1.68074E-08 3.82277E-19 7.69323E-19
 -1      1510 8.22369E-05-2.45583E-05-2.47492E-05-1.18182E-06-4.67827E-19 7.13281E-19
 -1      1511 8.12234E-05-2.41774E-05-2.44614E-05-9.79329E-07-1.34367E-20 4.84966E-19
 -1      1512 8.39164E-05-2.49089E-05-2.53399E-05-1.48256E-06 2.72625E-19 8.32938E-19
 -1      1513 8.50434E-05-2.54665E-05-2.55408E-05-1.65465E-06-7.79667E-20 9.97249E-19
 -1      1514 8.34049E-05-2.48943E-05-2.50783E-05-1.51417E-06-3.24352E-19 6.49171E-19
 -1      1515 8.57356E-05-2.55501E-05-2.58328E-05-2.64818E-06-3.29026E-19 3.98549E-19
 -1      1516 8.84048E-05-2.65408E-05-2.65002E-05-1.80159E-06 1.20923E-19 6.27969E-19
 -1      1517 8.64712E-05-2.58946E-05-2.59529E-05-1.74393E-06 9.08745E-20 9.90420E-19
 -1      1518 8.82906E-05-2.64384E-05-2.65283E-05-3.27238E-06 1.94338E-19 2.85166E-19
 -1      1519 9.17279E-05-2.75849E-05-2.74632E-05-1.65608E-06-1.24807E-19 4.66993E-19
 -1      1520 8.98359E-05-2.69759E-05-2.69241E-05-1.67381E-06 2.71575E-19 9.59199E-19
 -1      1521 9.10911E-05-2.73878E-05-2.73033E-05-3.30672E-06 2.00858E-19 7.28667E-19
 -1      1522 9.45599E-05-2.84561E-05-2.82988E-05-1.31957E-06-2.52389E-20 8.32078E-19
 -1      1523 9.29620E-05-2.79610E-05-2.78394E-05-1.38766E-06-3.85417E-19 4.41264E-19
 -1      1524 9.36901E-05-2.82385E-05-2.80393E-05-2.87156E-06-3.16453E-19 5.25266E-19
 -1      1525 9.66604E-05-2.90857E-05-2.89318E-05-9.08731E-07 3.15250E-19-2.40875E-21
 -1      1526 9.54865E-05-2.87376E-05-2.85906E-05-9.98301E-07-4.05285E-20 6.03286E-19
 -1      1527 9.57868E-05-2.88943E-05-2.86501E-05-2.17125E-06 1.10164E-19-4.63466E-19
 -1      1528 9.79880E-05-2.94694E-05-2.93429E-05-5.16591E-07 5.43656E-20-5.92453E-19
 -1      1529 9.72550E-05-2.92652E-05-2.91268E-05-6.04648E-07 2.90828E-19 1.21099E-21
 -1      1530 9.72535E-05-2.93258E-05-2.90927E-05-1.40638E-06 2.56737E-19-6.65133E-19
 -1      1531 9.86369E-05-2.96439E-05-2.95539E-05-1.97529E-07 6.63015E-19-1.53240E-18
 -1      1532 9.82861E-05-2.95586E-05-2.94479E-05-2.70508E-07 3.46306E-19-6.73901E-19
 -1      1533 9.81049E-05-2.95522E-05-2.93630E-05-7.20800E-07 5.17749E-19-7.32551E-19
 -1      1534 9.87677E-05-2.96634E-05-2.96083E-05 2.94616E-08-4.72759E-20-1.44101E-18
 -1      1535 9.87048E-05-2.96636E-05-2.95864E-05-2.33763E-08 1.62152E-19-1.33041E-18
 -1      1536 9.84432E-05-2.96178E-05-2.94839E-05-1.88507E-07 6.34625E-19-6.78680E-19
 -1      1537 9.85517E-05-2.95824E-05-2.95554E-05 1.69290E-07-3.76145E-19-3.06581E-19
 -1      1538 9.86782E-05-2.96359E-05-2.95897E-05 1.35941E-07-6.20349E-19-1.39363E-18
 -1      1539 9.84060E-05-2.95731E-05-2.94913E-05 1.73616E-07-5.26646E-19-9.18347E-19
 -1      1540 9.81385E-05-2.94469E-05-2.94396E-05 2.38852E-07 1.78728E-19-2.10552E-19
 -1      1541 9.83701E-05-2.95275E-05-2.95056E-05 2.21446E-07 4.24385E-19 1.14029E-19
 -1      1542 9.81285E-05-2.94633E-05-2.94232E-05 3.84089E-07-1.70929E-20 7.95144E-20
 -1      1543 9.76426E-05-2.92907E-05-2.92957E-05 2.58281E-07-5.08915E-20-2.22824E-19
 -1      1544 9.79158E-05-2.93797E-05-2.93748E-05 2.52423E-07 1.41401E-19-2.22826E-20
 -1      1545 9.77240E-05-2.93232E-05-2.93126E-05 4.77136E-07 3.77451E-19 5.13121E-19
 -1      1546 9.71418E-05-2.91364E-05-2.91479E-05 2.45927E-07 6.66297E-19-1.83557E-18
 -1      1547 9.74142E-05-2.92219E-05-2.92274E-05 2.47543E-07 4.02394E-19-9.14025E-19
 -1      1548 9.72764E-05-2.91774E-05-2.91852E-05 4.89258E-07 8.04614E-19 2.16941E-19
 -1      1549 9.66829E-05-2.89970E-05-2.90109E-05 2.16244E-07-2.91299E-19-2.57145E-18
 -1      1550 9.69296E-05-2.90725E-05-2.90834E-05 2.22084E-07-1.56907E-19-2.23620E-18
 -1      1551 9.68411E-05-2.90407E-05-2.90584E-05 4.52073E-07 8.34187E-20-6.37522E-19
 -1      1552 9.62892E-05-2.88788E-05-2.88926E-05 1.79461E-07-7.27516E-20-2.26255E-18
 -1      1553 9.64985E-05-2.89415E-05-2.89543E-05 1.87190E-07-2.74627E-19-2.44639E-18
 -1      1554 9.64504E-05-2.89212E-05-2.89427E-05 3.89684E-07-1.35771E-19-7.47697E-19
 -1      1555 9.59683E-05-2.87832E-05-2.87956E-05 1.42136E-07-2.36833E-19-1.78637E-18
 -1      1556 9.61370E-05-2.88328E-05-2.88455E-05 1.50228E-07-4.90291E-20-1.76702E-18
 -1      1557 9.61193E-05-2.88220E-05-2.88436E-05 3.18690E-07-1.62903E-19-7.90209E-19
 -1      1558 9.57176E-05-2.87091E-05-2.87194E-05 1.08007E-07-4.66123E-19-1.42197E-18
 -1      1559 9.58477E-05-2.87467E-05-2.87581E-05 1.15566E-07-2.78160E-19-1.75024E-18
 -1      1560 9.58512E-05-2.87430E-05-2.87625E-05 2.49430E-07-1.43738E-19 2.86029E-19
 -1      1561 9.55293E-05-2.86538E-05-2.86620E-05 7.88421E-08 5.28526E-19-1.71961E-18
 -1      1562 9.56256E-05-2.86811E-05-2.86907E-05 8.54175E-08 3.75403E-19-1.31743E-18
 -1      1563 9.56425E-05-2.86823E-05-2.86989E-05 1.87555E-07 1.52172E-19-5.16776E-19
 -1      1564 9.53933E-05-2.86141E-05-2.86204E-05 5.51376E-08 1.75378E-19-1.84603E-18
 -1      1565 9.54617E-05-2.86331E-05-2.86408E-05 6.05721E-08-1.53824E-19-2.03857E-18
 -1      1566 9.54859E-05-2.86375E-05-2.86508E-05 1.35504E-07-1.22448E-19-6.07979E-19
 -1      1567 9.52992E-05-2.85869E-05-2.85915E-05 3.66458E-08 1.18904E-19-2.89819E-18
 -1      1568 9.53455E-05-2.85994E-05-2.86054E-05 4.09589E-08 4.17583E-19-2.12808E-18
 -1      1569 9.53728E-05-2.86055E-05-2.86157E-05 9.36936E-08 2.34807E-19-1.98184E-18
 -1      1570 9.52375E-05-2.85692E-05-2.85724E-05 2.27392E-08 4.55726E-19-3.26173E-18
 -1      1571 9.52670E-05-2.85769E-05-2.85813E-05 2.60447E-08 3.83524E-19-2.92655E-18
 -1      1572 9.52943E-05-2.85836E-05-2.85912E-05 6.13907E-08 5.31203E-19-2.15656E-18
 -1      1573 9.52000E-05-2.85586E-05-2.85607E-05 1.26451E-08-6.75435E-19-3.61947E-18
 -1      1574 9.52171E-05-2.85628E-05-2.85659E-05 1.50978E-08 1.16385E-19-3.41794E-18
 -1      1575 9.52426E-05-2.85695E-05-2.85749E-05 3.73048E-08 3.02312E-19-2.10669E-18
 -1      1576 9.51798E-05-2.85530E-05-2.85544E-05 5.58648E-09-3.06773E-19-2.19860E-18
 -1      1577 9.51882E-05-2.85548E-05-2.85570E-05 7.34881E-09-6.53702E-19-3.05968E-18
 -1      1578 9.52109E-05-2.85610E-05-2.85648E-05 1.99669E-08-1.03351E-18-2.45016E-18
 -1      1579 9.51718E-05-2.85510E-05-2.85517E-05 8.57549E-10 2.53856E-19-1.84767E-18
 -1      1580 9.51741E-05-2.85511E-05-2.85525E-05 2.08125E-09-2.91208E-19-2.08274E-18
 -1      1581 9.51936E-05-2.85566E-05-2.85591E-05 7.94985E-09-9.39275E-19-2.26800E-18
 -1      1582 9.51717E-05-2.85512E-05-2.85516E-05-2.14263E-09 2.64274E-19-1.63424E-18
 -1      1583 9.51702E-05-2.85503E-05-2.85512E-05-1.32559E-09 4.50241E-19-1.39934E-18
 -1      1584 9.51864E-05-2.85550E-05-2.85566E-05-1.64710E-11 2.69801E-19-2.37193E-18
 -1      1585 9.51766E-05-2.85528E-05-2.85530E-05-3.90135E-09 2.79312E-19-2.43130E-19
 -1      1586 9.51728E-05-2.85514E-05-2.85519E-05-3.38191E-09-4.99086E-20-9.96827E-19
 -1      1587 9.51858E-05-2.85553E-05-2.85561E-05-4.99828E-09-4.66324E-20-9.59786E-19
 -1      1588 9.51844E-05-2.85553E-05-2.85553E-05-4.79724E-09 5.38880E-19-1.07081E-18
 -1      1589 9.51793E-05-2.85535E-05-2.85538E-05-4.48909E-09 3.43564E-19-6.03454E-19
 -1      1590 9.51895E-05-2.85567E-05-2.85571E-05-7.84975E-09 3.48797E-19-3.52801E-19
 -1      1591 9.51936E-05-2.85581E-05-2.85580E-05-5.11120E-09 4.08194E-19-2.89120E-18
 -1      1592 9.51880E-05-2.85563E-05-2.85564E-05-4.94919E-09 8.14034E-19-1.48041E-18
 -1      1593 9.51957E-05-2.85587E-05-2.85588E-05-9.22595E-09 1.21617E-18-2.24908E-18
 -1      1594 9.52032E-05-2.85611E-05-2.85609E-05-5.03846E-09 1.26972E-19-3.66978E-18
 -1      1595 9.51976E-05-2.85592E-05-2.85592E-05-4.97666E-09 3.42393E-19-3.01419E-18
 -1      1596 9.52031E-05-2.85610E-05-2.85609E-05-9.60383E-09 9.09588E-19-2.22921E-18
 -1      1597 9.52125E-05-2.85639E-05-2.85636E-05-4.69830E-09-1.02487E-19-3.45001E-18
 -1      1598 9.52072E-05-2.85622E-05-2.85621E-05-4.70873E-09-1.65561E-19-4.07853E-18
 -1      1599 9.52108E-05-2.85634E-05-2.85632E-05-9.30335E-09 1.42795E-19-2.10064E-18
 -1      1600 9.52210E-05-2.85665E-05-2.85662E-05-4.13967E-09-2.79520E-19-3.35070E-18
 -1      1601 9.52162E-05-2.85650E-05-2.85648E-05-4.21257E-09 3.28120E-19-3.56767E-18
 -1      1602 9.52183E-05-2.85657E-05-2.85654E-05-8.50378E-09-1.99811E-19-2.54292E-18
 -1      1603 9.52282E-05-2.85687E-05-2.85683E-05-3.34406E-09 2.46005E-19-3.17246E-18
 -1      1604 9.52242E-05-2.85674E-05-2.85671E-05-3.48926E-09-3.49678E-19-3.73436E-18
 -1      1605 9.52250E-05-2.85678E-05-2.85673E-05-7.25422E-09-1.04189E-19-2.69599E-18
 -1      1606 9.52335E-05-2.85703E-05-2.85699E-05-2.23053E-09 4.01761E-20-4.49714E-18
 -1      1607 9.52307E-05-2.85695E-05-2.85690E-05-2.48599E-09 5.75311E-19-3.84321E-18
 -1      1608 9.52305E-05-2.85696E-05-2.85689E-05-5.48918E-09 6.23452E-19-4.04974E-18
 -1      1609 9.52365E-05-2.85712E-05-2.85708E-05-8.25573E-10-4.44104E-19-3.36688E-18
 -1      1610 9.52351E-05-2.85709E-05-2.85703E-05-1.17266E-09-4.41381E-19-3.78409E-18
 -1      1611 9.52346E-05-2.85710E-05-2.85701E-05-3.13337E-09 5.50362E-21-3.04923E-18
 -1      1612 9.52371E-05-2.85713E-05-2.85711E-05-5.61220E-11-1.70008E-18-2.26654E-18
 -1      1613 9.52376E-05-2.85739E-05-2.85701E-05-1.87862E-09-4.75239E-18-6.02472E-19
 -1      1614 9.52371E-05-2.85725E-05-2.85706E-05-1.51376E-09-3.27145E-18-5.58241E-19
 -1      1615 9.52391E-05-2.85784E-05-2.85688E-05-3.04275E-09-4.39981E-18 1.50518E-19
 -1      1616 9.52382E-05-2.85758E-05-2.85696E-05-2.82714E-09-4.49618E-18-6.51454E-19
 -1      1617 9.52377E-05-2.85752E-05-2.85696E-05-4.59595E-09-1.92066E-18-7.69982E-19
 -1      1618 9.52410E-05-2.85840E-05-2.85673E-05-3.55720E-09-3.21390E-18 1.13306E-18
 -1      1619 9.52399E-05-2.85807E-05-2.85682E-05-3.51044E-09-4.20628E-18 7.84182E-19
 -1      1620 9.52393E-05-2.85793E-05-2.85685E-05-6.32993E-09-1.39188E-18 4.09194E-19
 -1      1621 9.52428E-05-2.85897E-05-2.85656E-05-3.48677E-09 8.15719E-19 1.07699E-18
 -1      1622 9.52418E-05-2.85864E-05-2.85666E-05-3.54722E-09-2.82955E-18 3.52237E-18
 -1      1623 9.52410E-05-2.85840E-05-2.85673E-05-6.84199E-09-8.03794E-19 3.95096E-18
 -1      1624 9.52444E-05-2.85946E-05-2.85642E-05-2.97336E-09-2.39450E-19-1.30747E-19
 -1      1625 9.52435E-05-2.85919E-05-2.85650E-05-3.10636E-09 2.38342E-19-3.05303E-19
 -1      1626 9.52426E-05-2.85886E-05-2.85660E-05-6.35465E-09-1.08580E-18 1.07096E-18
 -1      1627 9.52456E-05-2.85985E-05-2.85631E-05-2.12631E-09-8.86328E-19-1.04915E-18
 -1      1628 9.52450E-05-2.85964E-05-2.85637E-05-2.31396E-09 2.70548E-19-1.73910E-18
 -1      1629 9.52440E-05-2.85926E-05-2.85649E-05-5.10011E-09-1.52235E-18-6.58796E-19
 -1      1630 9.52463E-05-2.86008E-05-2.85624E-05-1.07003E-09-2.43869E-18-3.19548E-19
 -1      1631 9.52460E-05-2.85997E-05-2.85627E-05-1.28775E-09-9.26980E-19-5.35358E-19
 -1      1632 9.52449E-05-2.85955E-05-2.85641E-05-3.29544E-09 5.46317E-19-1.86095E-18
 -1      1633 9.52465E-05-2.86012E-05-2.85623E-05 8.79698E-11 1.34426E-18 2.24442E-18
 -1      1634 9.52465E-05-2.86012E-05-2.85623E-05-1.40885E-10-2.35021E-18 2.62156E-18
 -1      1635 9.52455E-05-2.85971E-05-2.85637E-05-1.16947E-09 1.14736E-18 1.54680E-18
 -1      1636 9.52460E-05-2.85998E-05-2.85627E-05 1.24520E-09 3.61818E-18 7.60096E-19
 -1      1637 9.52464E-05-2.86008E-05-2.85624E-05 1.02404E-09 1.22069E-18 1.57409E-18
 -1      1638 9.52455E-05-2.85971E-05-2.85636E-05 1.07324E-09 1.09576E-18 3.15770E-18
 -1      1639 9.52450E-05-2.85966E-05-2.85636E-05 2.29534E-09 2.25521E-18-2.77423E-18
 -1      1640 9.52457E-05-2.85986E-05-2.85630E-05 2.10241E-09 4.23128E-18-9.64271E-19
 -1      1641 9.52450E-05-2.85956E-05-2.85641E-05 3.23056E-09 1.12183E-18 4.40925E-19
 -1      1642 9.52436E-05-2.85921E-05-2.85649E-05 3.10949E-09 1.79128E-18 1.42994E-18
 -1      1643 9.52445E-05-2.85948E-05-2.85641E-05 2.97102E-09 2.28397E-18-1.60188E-18
 -1      1644 9.52440E-05-2.85928E-05-2.85649E-05 5.07508E-09 2.19984E-18-2.40411E-18
 -1      1645 9.52418E-05-2.85865E-05-2.85665E-05 3.58274E-09 4.91669E-18 1.01978E-18
 -1      1646 9.52429E-05-2.85898E-05-2.85656E-05 3.51865E-09 2.26937E-18 2.75744E-18
 -1      1647 9.52427E-05-2.85888E-05-2.85660E-05 6.38728E-09 2.29283E-18 2.17131E-18
 -1      1648 9.52399E-05-2.85808E-05-2.85682E-05 3.55075E-09 6.28042E-18-9.27753E-19
 -1      1649 9.52410E-05-2.85841E-05-2.85673E-05 3.60032E-09 5.40332E-18 1.63860E-18
 -1      1650 9.52410E-05-2.85841E-05-2.85673E-05 6.91738E-09 3.21189E-18 2.23337E-18
 -1      1651 9.52382E-05-2.85757E-05-2.85696E-05 2.83772E-09 2.46902E-18-1.95771E-18
 -1      1652 9.52391E-05-2.85784E-05-2.85688E-05 3.07995E-09 6.07520E-18-3.41734E-18
 -1      1653 9.52393E-05-2.85794E-05-2.85685E-05 6.40704E-09 3.25035E-18-2.82069E-18
 -1      1654 9.52372E-05-2.85727E-05-2.85705E-05 1.60835E-09 2.67432E-18-3.74629E-19
 -1      1655 9.52378E-05-2.85743E-05-2.85700E-05 1.97936E-09 2.05067E-18 1.10675E-20
 -1      1656 9.52380E-05-2.85756E-05-2.85695E-05 4.76594E-09 1.21203E-18-2.52549E-18
 -1      1657 9.52369E-05-2.85730E-05-2.85702E-05 2.56475E-09-1.21492E-20 1.57916E-19
 -1      1658 2.11951E-05-6.94711E-05 1.48697E-05-3.48164E-06 8.68971E-18 3.80445E-18
 -1      1659 2.53760E-05-8.25029E-05 1.76869E-05 5.45673E-06 3.92303E-18 2.84052E-18
 -1      1660 2.29235E-05-3.58404E-05 2.14012E-06 1.16669E-05 1.06032E-17 5.53007E-18
 -1      1661 2.66567E-05-6.09495E-05 9.36869E-06 6.08884E-06 8.85234E-18 3.74817E-18
 -1      1662 3.62920E-05-6.47004E-06-1.42668E-05 3.39743E-05 1.21947E-17 8.77187E-18
 -1      1663 2.99892E-05-2.73800E-05-5.19007E-06 1.56126E-05 1.25767E-17 6.50860E-18
 -1      1664 7.95507E-05-2.31859E-07-3.31133E-05 6.49057E-05 1.05100E-17 1.05506E-17
 -1      1665 5.47401E-05-4.79735E-06-2.33405E-05 4.28295E-05 1.13308E-17 9.71208E-18
 -1      1666 1.43512E-04-1.60986E-05-5.13471E-05 7.90906E-05 7.27178E-18 1.00670E-17
 -1      1667 1.04426E-04-4.90584E-06-4.21297E-05 6.69985E-05 9.19878E-18 9.75274E-18
 -1      1668 2.11164E-04-4.11288E-05-6.72620E-05 7.19415E-05 5.16140E-18 5.64632E-18
 -1      1669 1.66112E-04-1.95506E-05-5.97398E-05 7.98070E-05 7.13668E-18 9.04631E-18
 -1      1670 2.59867E-04-6.47955E-05-7.68298E-05 3.10431E-05 2.53220E-18-5.15843E-19
 -1      1671 2.31974E-04-4.90258E-05-7.29832E-05 6.13444E-05 3.69560E-18 4.06152E-18
 -1      1672 2.61852E-04-6.52002E-05-7.78624E-05-2.45253E-05 3.20644E-18-7.11465E-18
 -1      1673 2.65748E-04-6.73341E-05-7.83798E-05 1.21568E-05 2.47503E-18-2.83322E-18
 -1      1674 2.16551E-04-4.17277E-05-7.02809E-05-6.59537E-05 6.67478E-18-1.25276E-17
 -1      1675 2.50257E-04-6.00302E-05-7.50925E-05-4.03293E-05 4.24448E-18-8.63719E-18
 -1      1676 1.47675E-04-1.57188E-05-5.44655E-05-7.30917E-05 1.05151E-17-1.43818E-17
 -1      1677 1.94308E-04-3.59619E-05-6.32230E-05-7.09072E-05 7.64363E-18-1.24641E-17
 -1      1678 8.29916E-05-8.19535E-07-3.56310E-05-6.06307E-05 1.37905E-17-1.49239E-17
 -1      1679 1.20933E-04-8.46139E-06-4.56858E-05-7.83839E-05 1.18813E-17-1.61529E-17
 -1      1680 4.07789E-05-1.18139E-05-1.55174E-05-2.94972E-05 1.46698E-17-1.13358E-17
 -1      1681 5.96179E-05 7.07519E-07-2.58261E-05-5.38741E-05 1.46003E-17-1.37677E-17
 -1      1682 2.66646E-05-4.17861E-05 1.35522E-06-6.72491E-06 1.19796E-17-7.26775E-18
 -1      1683 2.74537E-05-1.79180E-05-6.70855E-06-2.06578E-05 1.42039E-17-1.00018E-17
 -1      1684 2.56947E-05-7.22334E-05 1.34634E-05-4.95976E-07 5.98683E-18-4.02118E-18
 -1      1685 1.97560E-05-4.96357E-05 7.93977E-06 3.49796E-07 1.05794E-17-6.32818E-18
 -1      1686 2.40856E-05-8.09511E-05 1.79329E-05-7.89613E-06-1.91514E-18-3.43387E-18
 -1      1687 2.24373E-05-7.46633E-05 1.63789E-05 2.25845E-06 3.54568E-18-3.46034E-18
 -1      1688 2.06642E-05-6.71701E-05 1.40859E-05-9.54818E-06-8.90570E-18-5.41635E-18
 -1      1689 2.47206E-05-7.91020E-05 1.69417E-05-2.87202E-06-3.86035E-18-4.02637E-18
 -1      1690 2.10117E-05-4.17553E-05 3.73054E-06-2.03173E-06-1.41632E-17-9.19730E-18
 -1      1691 2.53614E-05-6.48810E-05 1.02319E-05-6.91366E-06-1.12105E-17-6.04141E-18
 -1      1692 4.09796E-05-1.49988E-05-1.40331E-05 2.75489E-05-1.59445E-17-1.34043E-17
 -1      1693 3.20249E-05-3.57793E-05-4.12057E-06 6.53801E-06-1.51026E-17-1.05557E-17
 -1      1694 1.00437E-04-1.38352E-05-3.64290E-05 6.18484E-05-1.30663E-17-1.56608E-17
 -1      1695 6.71166E-05-1.70338E-05-2.46172E-05 3.62711E-05-1.45876E-17-1.37118E-17
 -1      1696 1.83463E-04-3.29514E-05-5.94701E-05 7.93762E-05-9.46686E-18-1.58734E-17
 -1      1697 1.26950E-04-1.42209E-05-4.77885E-05 6.73701E-05-1.26631E-17-1.66425E-17
 -1      1698 2.58322E-04-6.26954E-05-7.55560E-05 5.73127E-05-5.86975E-18-1.12257E-17
 -1      1699 2.11555E-04-4.02034E-05-6.82888E-05 7.30336E-05-8.12940E-18-1.50213E-17
 -1      1700 2.92675E-04-7.67437E-05-8.28404E-05 7.57105E-06-3.57575E-18-3.62212E-18
 -1      1701 2.72567E-04-6.61740E-05-8.00687E-05 4.32458E-05-5.05255E-18-9.16659E-18
 -1      1702 2.71567E-04-6.56807E-05-7.98413E-05-4.59849E-05-4.35650E-18 4.58838E-18
 -1      1703 2.95164E-04-7.78974E-05-8.30734E-05-7.69322E-06-3.23609E-18-1.21359E-18
 -1      1704 1.96106E-04-3.60518E-05-6.45718E-05-6.77790E-05-9.06452E-18 1.15925E-17
 -1      1705 2.50387E-04-6.07472E-05-7.35686E-05-5.49426E-05-5.65183E-18 6.51622E-18
 -1      1706 1.13637E-04-1.32268E-05-4.34303E-05-6.15147E-05-1.25412E-17 1.55786E-17
 -1      1707 1.66092E-04-2.86251E-05-5.50516E-05-7.66302E-05-9.77476E-18 1.48061E-17
 -1      1708 5.46426E-05-1.64989E-05-2.03126E-05-2.94262E-05-1.31680E-17 1.29215E-17
 -1      1709 8.44546E-05-9.56555E-06-3.21892E-05-5.66930E-05-1.30858E-17 1.57760E-17
 -1      1710 2.88347E-05-4.31791E-05-2.94743E-08-3.06933E-07-1.02787E-17 7.59916E-18
 -1      1711 3.42487E-05-1.93501E-05-9.82666E-06-1.94965E-05-1.24768E-17 1.13706E-17
 -1      1712 2.51097E-05-7.23452E-05 1.32622E-05 9.03919E-06-5.46040E-18 3.92605E-18
 -1      1713 1.93224E-05-4.98809E-05 7.45448E-06 7.77480E-06-8.76933E-18 5.63997E-18
 -1      1714 2.45031E-05-8.16657E-05 1.79754E-05 2.33683E-06 2.15387E-18 3.08892E-18
 -1      1715 2.14030E-05-7.46728E-05 1.64773E-05 1.21866E-05-3.59565E-18 3.36441E-18
 -1      1716 7.61292E-05-3.19429E-05-1.97510E-05 4.49363E-05 7.11338E-18 6.00716E-18
 -1      1717 1.19543E-05-5.41845E-05 1.34592E-05 5.97974E-06 1.55854E-18 5.36257E-18
 -1      1718 9.52368E-05-2.85716E-05-2.85708E-05-8.02011E-10-2.80233E-18-1.89666E-18
 -1      1719 9.52364E-05-2.85725E-05-2.85703E-05-2.56294E-09-1.01148E-18-1.86643E-18
 -1      1720 2.13080E-05-4.78974E-05 7.85188E-06 2.27056E-05 3.76252E-18 4.63835E-18
 -1      1721 4.37398E-05-4.07188E-05-3.95415E-06 3.47922E-05 5.92669E-18 5.04292E-18
 -1      1722 1.20230E-04-3.12104E-05-3.69505E-05 4.88909E-05 5.73992E-18 5.31937E-18
 -1      1723 1.61711E-04-3.12440E-05-5.32048E-05 4.36006E-05 5.45447E-18 2.95276E-18
 -1      1724 1.99521E-04-3.29131E-05-6.67068E-05 3.38358E-05 5.84770E-18 1.21803E-18
 -1      1725 2.22104E-04-3.67894E-05-7.36804E-05 1.12421E-05 5.01359E-18-1.45944E-18
 -1      1726 2.17506E-04-3.57882E-05-7.24967E-05-1.54080E-05 5.52816E-18-4.88992E-18
 -1      1727 1.87777E-04-3.18100E-05-6.30444E-05-3.12045E-05 6.46943E-18-6.37773E-18
 -1      1728 1.50067E-04-3.14435E-05-4.83568E-05-4.47057E-05 7.49222E-18-7.92230E-18
 -1      1729 1.02528E-04-2.98157E-05-3.06458E-05-4.92855E-05 8.70242E-18-9.90605E-18
 -1      1730 6.11954E-05-3.53843E-05-1.28514E-05-3.96180E-05 8.18319E-18-8.40723E-18
 -1      1731 3.30191E-05-4.54564E-05 1.81409E-06-2.65467E-05 5.95210E-18-7.20235E-18
 -1      1732 1.62966E-05-5.21103E-05 1.08784E-05-1.44001E-05 2.18492E-18-6.46625E-18
 -1      1733 1.16866E-05-5.12588E-05 1.25856E-05-5.26757E-07-1.61884E-18-6.90120E-18
 -1      1734 2.19975E-05-5.12281E-05 8.04176E-06 1.25961E-05-4.90009E-18-7.00369E-18
 -1      1735 4.59675E-05-4.74966E-05-3.12907E-06 2.43426E-05-8.35005E-18-8.87002E-18
 -1      1736 8.97452E-05-4.47318E-05-2.08086E-05 3.68404E-05-8.74646E-18-9.02979E-18
 -1      1737 1.43255E-04-4.49316E-05-4.13388E-05 3.91626E-05-8.07985E-18-9.15981E-18
 -1      1738 1.95628E-04-4.38868E-05-6.06489E-05 3.45911E-05-7.44394E-18-8.78458E-18
 -1      1739 2.29920E-04-4.31597E-05-7.31827E-05 1.77643E-05-6.63184E-18-5.57814E-18
 -1      1740 2.42671E-04-4.33440E-05-7.76476E-05-2.90205E-08-6.25026E-18-2.51569E-18
 -1      1741 2.26535E-04-4.44213E-05-7.19724E-05-1.42158E-05-6.95520E-18 1.43403E-18
 -1      1742 1.86838E-04-4.48452E-05-5.72232E-05-3.17288E-05-7.96380E-18 5.33970E-18
 -1      1743 1.31001E-04-4.26020E-05-3.74255E-05-4.00146E-05-7.50386E-18 8.98194E-18
 -1      1744 7.74020E-05-4.36857E-05-1.67115E-05-3.32514E-05-6.45354E-18 9.33811E-18
 -1      1745 3.86241E-05-4.93424E-05 4.53721E-07-1.95464E-05-5.05933E-18 6.62554E-18
 -1      1746 1.76648E-05-5.35007E-05 1.06894E-05-6.41325E-06-1.43149E-18 5.30857E-18
 -1      1747 1.09031E-04-2.41613E-05-3.64625E-05-1.50405E-05-1.77361E-18 6.49823E-18
 -1      1748 8.98154E-05-1.00609E-05-3.43206E-05-9.90105E-06-2.15866E-18-2.58988E-18
 -1      1749 9.20661E-05-1.15107E-05-3.46395E-05-1.16370E-05-2.54690E-18-1.82509E-18
 -1      1750 9.49721E-05-1.43489E-05-3.47220E-05-1.26431E-05-2.57664E-18-8.48409E-19
 -1      1751 9.74041E-05-1.66727E-05-3.50604E-05-1.44513E-05-2.80470E-18 3.69359E-19
 -1      1752 9.54745E-05-1.63538E-05-3.39037E-05-1.00519E-05-2.73485E-18-1.16472E-18
 -1      1753 8.35546E-05-5.58876E-06-3.34861E-05-5.86834E-06-1.13244E-18-3.84620E-18
 -1      1754 8.46033E-05-6.09122E-06-3.36933E-05-6.82243E-06-1.39723E-18-3.71728E-18
 -1      1755 8.20597E-05-4.68633E-06-3.32111E-05-4.43680E-06-5.62810E-19-4.06833E-18
 -1      1756 8.26434E-05-4.93108E-06-3.33468E-05-5.23509E-06-8.29986E-19-4.00223E-18
 -1      1757 8.41781E-05-7.03496E-06-3.30740E-05-5.22363E-06-1.06306E-18-3.78626E-18
 -1      1758 8.15147E-05-4.43405E-06-3.30717E-05-3.10435E-06-8.74070E-20-4.00912E-18
 -1      1759 8.16714E-05-4.46518E-06-3.31309E-05-3.85918E-06-3.44193E-19-4.04606E-18
 -1      1760 8.28315E-05-6.18309E-06-3.28651E-05-4.06381E-06-4.96407E-19-3.89420E-18
 -1      1761 8.17510E-05-4.67511E-06-3.30621E-05-1.65696E-06 4.06988E-19-3.89490E-18
 -1      1762 8.15643E-05-4.54865E-06-3.30523E-05-2.46810E-06 1.61599E-19-3.97658E-18
 -1      1763 8.25104E-05-6.09437E-06-3.27705E-05-2.87519E-06 1.88661E-20-3.81638E-18
 -1      1764 8.25650E-05-5.25665E-06-3.31600E-05 5.00016E-08 8.54201E-19-3.73683E-18
 -1      1765 8.21303E-05-5.02426E-06-3.30950E-05-8.83209E-07 6.32941E-19-3.82839E-18
 -1      1766 8.30035E-05-6.56814E-06-3.27848E-05-1.47028E-06 5.28348E-19-3.73235E-18
 -1      1767 8.37689E-05-6.05994E-06-3.33353E-05 2.08890E-06 1.28890E-18-3.44351E-18
 -1      1768 8.31687E-05-5.75768E-06-3.32308E-05 9.97612E-07 1.07032E-18-3.64713E-18
 -1      1769 8.40765E-05-7.41999E-06-3.28851E-05 2.57043E-07 9.66921E-19-3.57116E-18
 -1      1770 8.52177E-05-7.01407E-06-3.35558E-05 4.43586E-06 1.71842E-18-2.88997E-18
 -1      1771 8.45104E-05-6.66010E-06-3.34266E-05 3.19228E-06 1.46277E-18-3.21633E-18
 -1      1772 8.55222E-05-8.51410E-06-3.30393E-05 2.31359E-06 1.44329E-18-3.21796E-18
 -1      1773 8.69618E-05-8.20268E-06-3.38094E-05 7.16733E-06 2.23764E-18-2.14295E-18
 -1      1774 8.61065E-05-7.74970E-06-3.36564E-05 5.71020E-06 1.94430E-18-2.56036E-18
 -1      1775 8.72503E-05-9.83093E-06-3.32177E-05 4.68364E-06 1.95493E-18-2.55279E-18
 -1      1776 8.91635E-05-9.83288E-06-3.40862E-05 1.02328E-05 2.67945E-18-1.10612E-18
 -1      1777 8.80579E-05-9.17384E-06-3.39053E-05 8.55151E-06 2.43206E-18-1.70639E-18
 -1      1778 8.93294E-05-1.14992E-05-3.33923E-05 7.31223E-06 2.41365E-18-1.72653E-18
 -1      1779 9.23554E-05-1.24933E-05-3.43819E-05 1.35578E-05 2.96164E-18 5.93400E-19
 -1      1780 9.06934E-05-1.13127E-05-3.41572E-05 1.16119E-05 2.77521E-18-4.44904E-19
 -1      1781 9.20097E-05-1.38483E-05-3.35234E-05 9.99947E-06 2.85380E-18-5.85975E-19
 -1      1782 9.80085E-05-1.78475E-05-3.45718E-05 1.62227E-05 2.85676E-18 3.68650E-18
 -1      1783 9.47959E-05-1.50355E-05-3.43596E-05 1.45688E-05 2.86287E-18 1.90469E-18
 -1      1784 9.58333E-05-1.76469E-05-3.35117E-05 1.21739E-05 3.03808E-18 1.34406E-18
 -1      1785 1.04166E-04-2.58764E-05-3.39885E-05 1.32940E-05 2.36470E-18 7.19374E-18
 -1      1786 1.00279E-04-2.03549E-05-3.42431E-05 1.56590E-05 2.58202E-18 4.93021E-18
 -1      1787 9.97203E-05-2.27348E-05-3.30403E-05 1.18731E-05 2.95000E-18 3.74317E-18
 -1      1788 1.01321E-04-2.70104E-05-3.20555E-05 8.35991E-06 2.36121E-18 6.47782E-18
 -1      1789 1.03642E-04-2.07276E-05-3.52283E-05-1.62568E-05-2.41191E-18 2.54565E-18
 -1      1790 9.84176E-05-2.83174E-05-3.00598E-05 3.24823E-06 1.75930E-18 5.35773E-18
 -1      1791 1.00467E-04-2.83115E-05-3.09749E-05 5.45121E-06 1.95559E-18 6.00350E-18
 -1      1792 1.00202E-04-2.65407E-05-3.15527E-05 7.56368E-06 2.35255E-18 4.49124E-18
 -1      1793 1.03280E-04-2.34819E-05-3.39219E-05-1.14612E-05-2.60547E-18 1.69084E-18
 -1      1794 1.01886E-04-2.80571E-05-3.15214E-05-2.14110E-06-2.01599E-18 1.24792E-18
 -1      1795 1.01112E-04-2.82715E-05-3.11421E-05 6.91867E-08-1.75092E-18 7.72388E-19
 -1      1796 1.00858E-04-2.84863E-05-3.09165E-05 2.22862E-06-1.59476E-18 7.41835E-19
 -1      1797 1.01431E-04-2.88184E-05-3.10287E-05 3.74615E-06-1.35585E-18 2.44644E-19
 -1      1798 1.00296E-04-2.70130E-05-3.14401E-05 8.81284E-07-1.98764E-18-2.04454E-19
 -1      1799 1.01638E-04-2.89192E-05-3.11057E-05 5.53620E-06-1.14060E-18 1.13489E-19
 -1      1800 1.03129E-04-2.93676E-05-3.15236E-05 6.90333E-06-9.26998E-19-2.44438E-19
 -1      1801 1.00355E-04-2.75867E-05-3.12142E-05 5.31771E-06-1.48936E-18-4.03641E-19
 -1      1802 1.03766E-04-2.95027E-05-3.17996E-05 8.61985E-06-6.94461E-19-2.50002E-19
 -1      1803 1.06092E-04-3.01729E-05-3.24550E-05 1.00065E-05-3.40269E-19-3.30174E-19
 -1      1804 1.01258E-04-2.78950E-05-3.14653E-05 9.20649E-06-8.94487E-19-5.49666E-19
 -1      1805 1.07150E-04-3.04603E-05-3.28597E-05 1.17405E-05-9.40471E-20-2.68040E-19
 -1      1806 1.10278E-04-3.14951E-05-3.37009E-05 1.30790E-05 7.60543E-20-2.58755E-19
 -1      1807 1.02982E-04-2.83494E-05-3.20087E-05 1.30018E-05-3.50562E-19-7.53307E-19
 -1      1808 1.11873E-04-3.21677E-05-3.41563E-05 1.46664E-05 2.61885E-20-1.07567E-19
 -1      1809 1.15735E-04-3.38160E-05-3.50864E-05 1.55502E-05 5.82215E-20-4.35296E-20
 -1      1810 1.05661E-04-2.94802E-05-3.26806E-05 1.66527E-05 5.26070E-20-5.30147E-19
 -1      1811 1.18258E-04-3.53442E-05-3.54978E-05 1.64067E-05 3.82270E-19 3.06202E-19
 -1      1812 1.22618E-04-3.79334E-05-3.63384E-05 1.59121E-05 6.43322E-19 6.86864E-19
 -1      1813 1.09818E-04-3.22619E-05-3.32954E-05 1.94395E-05 4.75841E-19-7.57664E-20
 -1      1814 1.26847E-04-4.09772E-05-3.66662E-05 1.48015E-05 7.79998E-19 1.13350E-18
 -1      1815 1.31102E-04-4.45297E-05-3.72201E-05 1.15377E-05 1.03269E-18 1.61887E-18
 -1      1816 1.16640E-04-3.81775E-05-3.37273E-05 1.96092E-05 1.03571E-18 5.45741E-19
 -1      1817 1.37807E-04-4.92543E-05-3.77451E-05 6.70036E-06 1.24609E-18 2.23442E-18
 -1      1818 1.40627E-04-5.21171E-05-3.80865E-05-1.75721E-07 1.00220E-18 2.23529E-18
 -1      1819 1.27633E-04-4.79931E-05-3.42948E-05 1.41974E-05 1.39154E-18 1.30853E-18
 -1      1820 1.48332E-04-5.55780E-05-3.97740E-05-9.27750E-06 5.67532E-19 2.56426E-18
 -1      1821 1.47326E-04-5.35201E-05-4.04962E-05-1.69136E-05-3.03595E-19 2.53747E-18
 -1      1822 1.43025E-04-5.82254E-05-3.64862E-05-2.42409E-07 8.80517E-19 2.28905E-18
 -1      1823 1.52158E-04-5.05528E-05-4.39754E-05-2.41130E-05-1.63128E-18 2.38742E-18
 -1      1824 1.46890E-04-4.17876E-05-4.54552E-05-2.49080E-05-2.46952E-18 1.76289E-18
 -1      1825 1.56458E-04-5.77847E-05-4.26868E-05-1.72256E-05-9.75994E-19 1.99836E-18
 -1      1826 1.43685E-04-3.27981E-05-4.84343E-05-2.05952E-05-3.93510E-18 7.39910E-19
 -1      1827 1.39225E-04-2.54792E-05-4.93729E-05-9.27249E-06-4.95684E-18-9.50742E-19
 -1      1828 1.40624E-04-2.45362E-05-5.03638E-05 5.46595E-06-5.08559E-18-2.17089E-18
 -1      1829 1.43851E-04-2.98237E-05-4.96675E-05 1.78513E-05-4.36624E-18-3.21060E-18
 -1      1830 1.44450E-04-3.74764E-05-4.62384E-05 2.51686E-05-3.48872E-18-4.88156E-18
 -1      1831 1.50887E-04-4.78271E-05-4.48551E-05 2.64776E-05-1.81509E-18-5.79392E-18
 -1      1832 1.48143E-04-5.24463E-05-4.12593E-05 2.02393E-05-4.24575E-19-7.04692E-18
 -1      1833 1.50387E-04-5.59800E-05-4.05291E-05 1.25699E-05 5.33406E-19-6.93140E-18
 -1      1834 1.43007E-04-5.28790E-05-3.88142E-05 3.20270E-06 1.62138E-18-6.09677E-18
 -1      1835 1.40985E-04-5.04804E-05-3.85728E-05-4.08787E-06 1.59533E-18-6.15744E-18
 -1      1836 1.45883E-04-5.84055E-05-3.76377E-05 3.82796E-06 1.28233E-18-5.96612E-18
 -1      1837 1.34281E-04-4.58961E-05-3.80363E-05-9.60904E-06 1.25845E-18-5.16680E-18
 -1      1838 1.30371E-04-4.23559E-05-3.75754E-05-1.32610E-05 1.31380E-18-4.46595E-18
 -1      1839 1.31495E-04-4.95410E-05-3.52630E-05-1.12598E-05 2.26491E-18-4.63544E-18
 -1      1840 1.25982E-04-3.92619E-05-3.72406E-05-1.47749E-05 1.33045E-18-3.53201E-18
 -1      1841 1.21773E-04-3.65931E-05-3.64597E-05-1.54799E-05 1.66128E-18-2.80956E-18
 -1      1842 1.20265E-04-3.96797E-05-3.46315E-05-1.78410E-05 1.85807E-18-2.23763E-18
 -1      1843 1.19078E-04-3.50238E-05-3.60244E-05-1.48461E-05 1.55887E-18-2.63841E-18
 -1      1844 1.15265E-04-3.33193E-05-3.51177E-05-1.40705E-05 1.30792E-18-2.08531E-18
 -1      1845 1.13114E-04-3.35800E-05-3.41385E-05-1.83569E-05 1.73888E-18-1.21711E-18
 -1      1846 1.13393E-04-3.26052E-05-3.45816E-05-1.25735E-05 1.06931E-19-2.65733E-18
 -1      1847 1.10123E-04-3.15203E-05-3.36914E-05-1.12792E-05 1.31889E-19-3.00567E-18
 -1      1848 1.08504E-04-3.06227E-05-3.33986E-05-1.59297E-05 5.70214E-19-1.36329E-18
 -1      1849 1.08841E-04-3.12403E-05-3.31964E-05-9.79226E-06 5.56223E-19-3.70257E-18
 -1      1850 1.06402E-04-3.05958E-05-3.24894E-05-8.60398E-06 2.93351E-19-4.05566E-18
 -1      1851 1.05329E-04-2.94407E-05-3.25355E-05-1.26612E-05-1.45451E-20-2.26977E-18
 -1      1852 1.05379E-04-3.04483E-05-3.20535E-05-7.32909E-06-2.65254E-19-4.08687E-18
 -1      1853 1.03527E-04-3.00208E-05-3.14999E-05-6.35636E-06-8.40925E-19-4.59749E-18
 -1      1854 1.03013E-04-2.90399E-05-3.17099E-05-9.65281E-06-1.92733E-19-3.79506E-18
 -1      1855 1.02708E-04-2.99245E-05-3.11424E-05-5.35168E-06-9.27911E-19-4.39651E-18
 -1      1856 1.01332E-04-2.96298E-05-3.07246E-05-4.61144E-06-8.07765E-19-4.45079E-18
 -1      1857 1.01190E-04-2.89031E-05-3.09859E-05-7.16045E-06-6.87020E-19-3.79054E-18
 -1      1858 1.00680E-04-2.95536E-05-3.04431E-05-3.85439E-06-6.77924E-19-4.61518E-18
 -1      1859 9.96719E-05-2.93453E-05-3.01345E-05-3.31111E-06-8.08212E-19-3.91850E-18
 -1      1860 9.97428E-05-2.88442E-05-3.03910E-05-5.22615E-06-9.38053E-19-3.69217E-18
 -1      1861 9.91601E-05-2.92807E-05-2.99186E-05-2.75422E-06-7.97314E-19-3.14360E-18
 -1      1862 9.84282E-05-2.91316E-05-2.96934E-05-2.36267E-06-2.53283E-21-3.38592E-18
 -1      1863 9.86034E-05-2.88006E-05-2.99211E-05-3.77715E-06-5.48790E-19-2.15179E-18
 -1      1864 9.80325E-05-2.90768E-05-2.95307E-05-1.95810E-06 4.93661E-21-2.95430E-18
 -1      1865 9.75048E-05-2.89696E-05-2.93678E-05-1.67820E-06-4.84232E-21-2.54110E-18
 -1      1866 9.77173E-05-2.87573E-05-2.95594E-05-2.71239E-06 3.12190E-19-1.65046E-18
 -1      1867 9.72032E-05-2.89244E-05-2.92466E-05-1.38601E-06-7.16137E-19-3.51237E-18
 -1      1868 9.68249E-05-2.88475E-05-2.91296E-05-1.18647E-06-5.72801E-19-4.59662E-18
 -1      1869 9.70373E-05-2.87143E-05-2.92858E-05-1.93777E-06-8.37199E-19-2.15570E-18
 -1      1870 9.65980E-05-2.88113E-05-2.90402E-05-9.75942E-07 5.24656E-19-5.12284E-18
 -1      1871 9.63286E-05-2.87566E-05-2.89565E-05-8.33750E-07 2.39588E-19-4.48203E-18
 -1      1872 9.65223E-05-2.86746E-05-2.90814E-05-1.37691E-06-1.84237E-19-3.54998E-18
 -1      1873 9.61600E-05-2.87285E-05-2.88912E-05-6.82200E-07-2.31652E-20-4.16848E-18
 -1      1874 9.59697E-05-2.86901E-05-2.88319E-05-5.80851E-07-6.69214E-20-3.50050E-18
 -1      1875 9.61371E-05-2.86405E-05-2.89302E-05-9.71685E-07 4.69509E-19-3.51008E-18
 -1      1876 9.58461E-05-2.86688E-05-2.87845E-05-4.71872E-07-9.37890E-20-3.41172E-18
 -1      1877 9.57132E-05-2.86424E-05-2.87428E-05-3.99682E-07 2.28442E-19-4.09149E-18
 -1      1878 9.58527E-05-2.86132E-05-2.88194E-05-6.79288E-07 7.69377E-20-3.15504E-18
 -1      1879 9.56238E-05-2.86268E-05-2.87089E-05-3.21490E-07-9.97072E-19-4.81883E-18
 -1      1880 9.55323E-05-2.86091E-05-2.86800E-05-2.70201E-07-1.36093E-18-5.18064E-18
 -1      1881 9.56456E-05-2.85924E-05-2.87390E-05-4.68682E-07-1.19339E-18-3.90420E-18
 -1      1882 9.54688E-05-2.85980E-05-2.86560E-05-2.14334E-07-6.85925E-19-6.12959E-18
 -1      1883 9.54070E-05-2.85865E-05-2.86363E-05-1.78082E-07-9.81892E-19-6.42590E-18
 -1      1884 9.54971E-05-2.85775E-05-2.86813E-05-3.17483E-07-1.61403E-18-4.56500E-18
 -1      1885 9.53628E-05-2.85789E-05-2.86196E-05-1.38458E-07-3.96282E-19-6.00742E-18
 -1      1886 9.53222E-05-2.85720E-05-2.86065E-05-1.13017E-07 8.54702E-19-5.17013E-18
 -1      1887 9.53926E-05-2.85675E-05-2.86405E-05-2.09532E-07-2.70848E-19-6.19932E-18
 -1      1888 9.52910E-05-2.85669E-05-2.85946E-05-8.39882E-08 1.19762E-18-5.64038E-18
 -1      1889 9.52647E-05-2.85628E-05-2.85860E-05-6.57484E-08 1.48687E-18-4.95346E-18
 -1      1890 9.53194E-05-2.85610E-05-2.86115E-05-1.31775E-07 8.30593E-19-5.57251E-18
 -1      1891 9.52454E-05-2.85598E-05-2.85786E-05-4.69321E-08 1.24835E-18-4.85107E-18
 -1      1892 9.52310E-05-2.85582E-05-2.85736E-05-3.52243E-08 2.11200E-19-4.48835E-18
 -1      1893 9.52710E-05-2.85579E-05-2.85919E-05-7.74458E-08 1.47416E-18-6.35908E-18
 -1      1894 9.52190E-05-2.85566E-05-2.85690E-05-2.24366E-08-6.86736E-19-4.26655E-18
 -1      1895 9.52116E-05-2.85563E-05-2.85663E-05-1.47269E-08-6.48105E-19-3.99066E-18
 -1      1896 9.52411E-05-2.85567E-05-2.85795E-05-4.13672E-08 3.04956E-19-5.00438E-18
 -1      1897 9.52048E-05-2.85556E-05-2.85635E-05-6.30993E-09-9.91292E-19-3.89020E-18
 -1      1898 9.52021E-05-2.85561E-05-2.85623E-05-1.40795E-09-1.19257E-18-3.30333E-18
 -1      1899 9.52233E-05-2.85569E-05-2.85716E-05-1.71424E-08-7.78491E-19-3.21346E-18
 -1      1900 9.51988E-05-2.85561E-05-2.85609E-05 3.90680E-09-2.02956E-19-3.27119E-18
 -1      1901 9.51991E-05-2.85572E-05-2.85607E-05 6.84515E-09 2.33894E-19-2.85008E-18
 -1      1902 9.52139E-05-2.85579E-05-2.85671E-05-1.39698E-09-2.28661E-19-2.06773E-18
 -1      1903 9.51981E-05-2.85575E-05-2.85601E-05 9.99332E-09 6.32951E-20-2.47188E-18
 -1      1904 9.52003E-05-2.85588E-05-2.85605E-05 1.15848E-08 1.25099E-19-3.01515E-18
 -1      1905 9.52102E-05-2.85595E-05-2.85647E-05 8.36238E-09-4.79970E-20-1.33107E-18
 -1      1906 9.52009E-05-2.85594E-05-2.85606E-05 1.32463E-08 2.44491E-19-3.32778E-18
 -1      1907 9.52041E-05-2.85608E-05-2.85613E-05 1.39323E-08 1.04424E-18-3.25266E-18
 -1      1908 9.52102E-05-2.85613E-05-2.85639E-05 1.39605E-08 1.16737E-20-1.88546E-18
 -1      1909 9.52056E-05-2.85615E-05-2.85617E-05 1.45903E-08-4.97214E-20-3.68666E-18
 -1      1910 9.52093E-05-2.85629E-05-2.85627E-05 1.46758E-08-2.12682E-18-4.06022E-18
 -1      1911 9.52125E-05-2.85632E-05-2.85640E-05 1.67139E-08 4.53961E-19-3.33711E-18
 -1      1912 9.52112E-05-2.85636E-05-2.85632E-05 1.46591E-08-1.46439E-18-3.19458E-18
 -1      1913 9.52150E-05-2.85650E-05-2.85643E-05 1.43399E-08-8.42507E-19-3.14769E-18
 -1      1914 9.52161E-05-2.85651E-05-2.85647E-05 1.75444E-08-1.12452E-18-2.74778E-18
 -1      1915 9.52171E-05-2.85657E-05-2.85649E-05 1.38532E-08-2.42737E-18-3.41207E-18
 -1      1916 9.52207E-05-2.85670E-05-2.85659E-05 1.32339E-08-9.94957E-19-4.44473E-18
 -1      1917 9.52203E-05-2.85669E-05-2.85657E-05 1.70605E-08-1.64895E-18-3.36353E-18
 -1      1918 9.52228E-05-2.85678E-05-2.85665E-05 1.23810E-08 5.72362E-19-5.06184E-18
 -1      1919 9.52260E-05-2.85689E-05-2.85674E-05 1.14872E-08 1.92810E-18-5.31192E-18
 -1      1920 9.52246E-05-2.85687E-05-2.85668E-05 1.56187E-08-6.92651E-19-3.37578E-18
 -1      1921 9.52280E-05-2.85696E-05-2.85679E-05 1.02901E-08 3.50771E-18-6.11762E-18
 -1      1922 9.52306E-05-2.85707E-05-2.85686E-05 9.08527E-09 8.15789E-19-4.85792E-18
 -1      1923 9.52288E-05-2.85704E-05-2.85679E-05 1.33869E-08 1.97405E-18-4.21618E-18
 -1      1924 9.52324E-05-2.85714E-05-2.85690E-05 7.52015E-09-1.11128E-18-2.63089E-18
 -1      1925 9.52344E-05-2.85722E-05-2.85696E-05 6.02890E-09-2.28684E-19-9.41835E-19
 -1      1926 9.52325E-05-2.85721E-05-2.85687E-05 1.03882E-08 1.86220E-18-3.53380E-18
 -1      1927 9.52360E-05-2.85728E-05-2.85700E-05 3.79780E-09-6.93271E-19-4.19262E-19
 -1      1928 9.63431E-05-2.86420E-05-2.89930E-05 4.48902E-07 1.14692E-18 3.35798E-18
 -1      1929 9.66891E-05-2.85250E-05-2.91578E-05 8.52885E-07 1.14210E-18 3.89054E-18
 -1      1930 9.59017E-05-2.88331E-05-2.87405E-05 1.16322E-07 8.68454E-19 2.92213E-18
 -1      1931 9.60548E-05-2.87360E-05-2.88145E-05 1.50807E-07 1.02467E-18 3.27659E-18
 -1      1932 9.71208E-05-2.88374E-05-2.92774E-05 6.74507E-07 1.33032E-18 2.22420E-18
 -1      1933 9.55818E-05-2.89657E-05-2.85601E-05 4.07603E-07 7.66085E-19 2.47543E-18
 -1      1934 9.57445E-05-2.89114E-05-2.86278E-05 2.03567E-07 8.17077E-19 2.76741E-18
 -1      1935 9.67688E-05-2.92148E-05-2.89585E-05 3.77778E-07 1.08239E-18 2.00469E-18
 -1      1936 9.50960E-05-2.89744E-05-2.83553E-05 1.14282E-06 5.79850E-19 2.06744E-18
 -1      1937 9.54264E-05-2.90094E-05-2.84623E-05 7.75494E-07 6.24531E-19 2.29580E-18
 -1      1938 9.65342E-05-2.94841E-05-2.87344E-05 8.46272E-07 9.32692E-19 1.64782E-18
 -1      1939 9.42348E-05-2.87729E-05-2.80732E-05 2.13126E-06 4.25857E-19 1.62161E-18
 -1      1940 9.48297E-05-2.89407E-05-2.82432E-05 1.68498E-06 5.49928E-19 1.93200E-18
 -1      1941 9.61654E-05-2.95797E-05-2.85279E-05 1.83930E-06 7.50028E-19 1.38328E-18
 -1      1942 9.28986E-05-2.82944E-05-2.76993E-05 3.12144E-06 3.80414E-19 1.52942E-18
 -1      1943 9.37800E-05-2.86189E-05-2.79345E-05 2.71071E-06 3.30713E-19 1.65781E-18
 -1      1944 9.54678E-05-2.94024E-05-2.82998E-05 3.08890E-06 4.65172E-19 9.16304E-19
 -1      1945 9.11348E-05-2.75311E-05-2.72583E-05 3.79781E-06 5.81411E-19 1.50992E-18
 -1      1946 9.22331E-05-2.79971E-05-2.75377E-05 3.56123E-06 5.65722E-19 1.65798E-18
 -1      1947 9.43332E-05-2.88695E-05-2.80415E-05 4.24645E-06 3.44455E-19 8.81322E-19
 -1      1948 8.91669E-05-2.65748E-05-2.68100E-05 3.84212E-06 5.19440E-19 1.16655E-18
 -1      1949 9.03168E-05-2.71120E-05-2.70913E-05 3.90768E-06 5.65019E-19 1.47641E-18
 -1      1950 9.27934E-05-2.79774E-05-2.77700E-05 4.89768E-06 8.06784E-19 1.01822E-18
 -1      1951 8.73778E-05-2.56306E-05-2.64358E-05 3.05380E-06 4.87931E-19 8.82671E-19
 -1      1952 8.83452E-05-2.61166E-05-2.66643E-05 3.48309E-06 5.12710E-19 1.01724E-18
 -1      1953 9.10635E-05-2.68604E-05-2.75200E-05 4.66189E-06 6.09313E-19 6.95733E-19
 -1      1954 8.62157E-05-2.49684E-05-2.62165E-05 1.47528E-06 4.36579E-19 2.84444E-19
 -1      1955 8.67623E-05-2.52639E-05-2.63397E-05 2.21615E-06 4.88172E-19 5.69752E-19
 -1      1956 8.95264E-05-2.57962E-05-2.73328E-05 3.35621E-06 6.27215E-19 5.07943E-19
 -1      1957 8.60357E-05-2.48161E-05-2.62079E-05-5.66163E-07 9.83716E-20 6.64005E-19
 -1      1958 8.60009E-05-2.48214E-05-2.61920E-05 3.18476E-07 2.38790E-19 4.55060E-19
 -1      1959 8.86205E-05-2.51232E-05-2.72445E-05 1.13737E-06 4.28834E-19 1.30492E-19
 -1      1960 8.69471E-05-2.52465E-05-2.64230E-05-2.55784E-06-3.34512E-21 6.56484E-19
 -1      1961 8.63109E-05-2.49499E-05-2.62642E-05-1.75416E-06 2.77757E-19 6.65537E-19
 -1      1962 8.86577E-05-2.50890E-05-2.72766E-05-1.49200E-06-6.02187E-22 4.81125E-19
 -1      1963 8.87578E-05-2.61354E-05-2.68284E-05-4.01045E-06-8.07626E-20 2.52733E-19
 -1      1964 8.76485E-05-2.56187E-05-2.65540E-05-3.47633E-06-6.84906E-20 4.49890E-19
 -1      1965 8.96700E-05-2.57192E-05-2.74310E-05-3.86053E-06 1.92935E-19 1.95641E-19
 -1      1966 9.10601E-05-2.72296E-05-2.73545E-05-4.65065E-06 9.89291E-20 2.10551E-19
 -1      1967 8.97023E-05-2.66263E-05-2.70140E-05-4.46938E-06 9.39545E-20 2.22191E-19
 -1      1968 9.13925E-05-2.68041E-05-2.76892E-05-5.40968E-06-1.83336E-20 6.63614E-20
 -1      1969 9.33962E-05-2.82670E-05-2.79164E-05-4.48673E-06 1.20377E-19 1.08453E-19
 -1      1970 9.20314E-05-2.77047E-05-2.75658E-05-4.62612E-06 3.55339E-19 1.87307E-20
 -1      1971 9.33956E-05-2.80136E-05-2.80155E-05-5.90043E-06 2.23791E-19-4.66444E-19
 -1      1972 9.54065E-05-2.90711E-05-2.84358E-05-3.73895E-06-1.55942E-19-4.03598E-20
 -1      1973 9.42247E-05-2.86322E-05-2.81230E-05-4.09193E-06-4.13094E-21 1.78962E-19
 -1      1974 9.52666E-05-2.90517E-05-2.83640E-05-5.43911E-06 2.43280E-19-3.33426E-19
 -1      1975 9.68973E-05-2.95793E-05-2.88574E-05-2.70598E-06 2.03956E-19-7.53372E-19
 -1      1976 9.60052E-05-2.92924E-05-2.86129E-05-3.14733E-06-1.00744E-19-3.62795E-19
 -1      1977 9.67359E-05-2.97554E-05-2.86894E-05-4.35105E-06 1.09108E-19-1.17060E-18
 -1      1978 9.78300E-05-2.98165E-05-2.91549E-05-1.65115E-06 1.63467E-20-7.26732E-19
 -1      1979 9.72534E-05-2.96694E-05-2.89900E-05-2.07920E-06 3.03225E-19-4.13818E-19
 -1      1980 9.77034E-05-3.01028E-05-2.89566E-05-3.01021E-06 9.32365E-20-5.61993E-19
 -1      1981 9.82702E-05-2.98501E-05-2.93281E-05-7.46412E-07 1.00572E-18-9.62909E-19
 -1      1982 9.79775E-05-2.98108E-05-2.92384E-05-1.10001E-06 3.67875E-19-6.94118E-19
 -1      1983 9.81981E-05-3.01632E-05-2.91461E-05-1.71683E-06 5.44417E-19-7.94336E-19
 -1      1984 9.83325E-05-2.97551E-05-2.93942E-05-6.87315E-08-7.45885E-20-1.07292E-19
 -1      1985 9.82619E-05-2.97870E-05-2.93662E-05-3.24585E-07 6.98939E-19-4.45867E-19
 -1      1986 9.83166E-05-3.00379E-05-2.92543E-05-6.50144E-07 6.04896E-19-5.92902E-19
 -1      1987 9.81396E-05-2.95938E-05-2.93794E-05 3.75597E-07-7.29310E-19 2.24077E-19
 -1      1988 9.82220E-05-2.96655E-05-2.93957E-05 2.14490E-07-3.98800E-19 1.57070E-19
 -1      1989 9.81734E-05-2.98192E-05-2.92900E-05 1.22202E-07-4.67240E-19 5.63642E-19
 -1      1990 9.77990E-05-2.94104E-05-2.93108E-05 6.20518E-07-1.25147E-19 8.08299E-19
 -1      1991 9.79720E-05-2.94985E-05-2.93548E-05 5.37346E-07-6.89775E-19 3.21718E-19
 -1      1992 9.78726E-05-2.95734E-05-2.92689E-05 6.09559E-07-6.51917E-19 1.19668E-18
 -1      1993 9.73937E-05-2.92319E-05-2.92126E-05 7.15442E-07 5.80796E-19 5.46278E-19
 -1      1994 9.76082E-05-2.93212E-05-2.92704E-05 6.89039E-07 5.55562E-19 1.02025E-18
 -1      1995 9.74958E-05-2.93406E-05-2.92090E-05 8.61795E-07-2.28694E-19 1.45755E-18
 -1      1996 9.69814E-05-2.90730E-05-2.91034E-05 7.09542E-07 1.11082E-18 5.64944E-19
 -1      1997 9.72030E-05-2.91546E-05-2.91649E-05 7.20023E-07 1.02452E-18 5.89927E-19
 -1      1998 9.71010E-05-2.91399E-05-2.91270E-05 9.41786E-07 9.09257E-19 7.25127E-19
 -1      1999 9.65983E-05-2.89394E-05-2.89959E-05 6.43975E-07-1.70918E-19 4.41389E-19
 -1      2000 9.68051E-05-2.90093E-05-2.90545E-05 6.75295E-07 9.45261E-19 9.40902E-19
 -1      2001 9.67251E-05-2.89771E-05-2.90364E-05 9.08936E-07 9.16863E-19 1.22219E-18
 -1      2002 9.62633E-05-2.88320E-05-2.88982E-05 5.49456E-07-2.72916E-19 3.10840E-19
 -1      2003 9.64438E-05-2.88888E-05-2.89501E-05 5.89993E-07-6.00189E-19 4.86611E-19
 -1      2004 9.63893E-05-2.88509E-05-2.89468E-05 8.11560E-07-3.30240E-19 9.93060E-19
 -1      2005 9.59840E-05-2.87485E-05-2.88141E-05 4.46801E-07-4.67804E-19 1.35209E-18
 -1      2006 9.61336E-05-2.87929E-05-2.88577E-05 4.88910E-07-1.47844E-19 8.84122E-19
 -1      2007 9.61029E-05-2.87565E-05-2.88646E-05 6.85006E-07-3.81249E-19 2.02038E-18
 -1      2008 9.57598E-05-2.86857E-05-2.87449E-05 3.48759E-07 6.67986E-20 9.44031E-19
 -1      2009 9.58788E-05-2.87192E-05-2.87800E-05 3.87929E-07 6.97106E-21 9.51339E-19
 -1      2010 9.58676E-05-2.86879E-05-2.87931E-05 5.52806E-07 4.48592E-20 2.11414E-18
 -1      2011 9.55860E-05-2.86400E-05-2.86901E-05 2.62128E-07 2.57885E-19 3.24057E-19
 -1      2012 9.56771E-05-2.86643E-05-2.87173E-05 2.96098E-07 1.48213E-19 4.93788E-19
 -1      2013 9.56805E-05-2.86395E-05-2.87334E-05 4.29070E-07 3.05243E-19 5.54472E-19
 -1      2014 9.54556E-05-2.86077E-05-2.86482E-05 1.89667E-07-2.21987E-19 3.85034E-19
 -1      2015 9.55229E-05-2.86247E-05-2.86685E-05 2.17660E-07 1.43766E-19 4.92113E-19
 -1      2016 9.55360E-05-2.86064E-05-2.86855E-05 3.21055E-07-8.32173E-20 1.28045E-18
 -1      2017 9.53611E-05-2.85857E-05-2.86173E-05 1.31607E-07 4.08332E-19-4.93946E-19
 -1      2018 9.54089E-05-2.85971E-05-2.86319E-05 1.53748E-07 2.94436E-19-1.13702E-20
 -1      2019 9.54278E-05-2.85846E-05-2.86482E-05 2.31420E-07 7.44012E-19 1.29898E-18
 -1      2020 9.52951E-05-2.85715E-05-2.85952E-05 8.67630E-08 8.09383E-19-6.61146E-19
 -1      2021 9.53276E-05-2.85787E-05-2.86053E-05 1.03658E-07 2.16884E-19-7.81956E-19
 -1      2022 9.53491E-05-2.85708E-05-2.86202E-05 1.59995E-07 6.36930E-19 1.13784E-18
 -1      2023 9.52511E-05-2.85630E-05-2.85801E-05 5.32770E-08-5.66729E-19-6.18516E-19
 -1      2024 9.52719E-05-2.85671E-05-2.85867E-05 6.57403E-08 6.52235E-19-7.09595E-19
 -1      2025 9.52938E-05-2.85628E-05-2.85997E-05 1.05046E-07 6.90597E-19 4.31374E-19
 -1      2026 9.52236E-05-2.85584E-05-2.85704E-05 2.90987E-08-6.00413E-19-1.01358E-18
 -1      2027 9.52359E-05-2.85604E-05-2.85744E-05 3.79817E-08-7.42518E-19-1.32845E-18
 -1      2028 9.52565E-05-2.85587E-05-2.85853E-05 6.41380E-08-9.27081E-20 7.37387E-19
 -1      2029 9.52080E-05-2.85566E-05-2.85646E-05 1.22599E-08 1.70072E-19-2.12174E-18
 -1      2030 9.52142E-05-2.85571E-05-2.85668E-05 1.83551E-08-3.85637E-19-1.73658E-18
 -1      2031 9.52327E-05-2.85571E-05-2.85757E-05 3.46723E-08 4.33400E-19-9.99179E-19
 -1      2032 9.52009E-05-2.85565E-05-2.85616E-05 1.01837E-09-8.89759E-21-2.37340E-18
 -1      2033 9.52028E-05-2.85562E-05-2.85625E-05 5.01273E-09 6.49357E-20-2.96094E-18
 -1      2034 9.52188E-05-2.85572E-05-2.85696E-05 1.41949E-08 6.88919E-19-2.44489E-18
 -1      2035 9.51994E-05-2.85576E-05-2.85606E-05-6.08472E-09-4.00816E-19-2.31156E-18
 -1      2036 9.51986E-05-2.85567E-05-2.85606E-05-3.62513E-09-3.56616E-19-2.56966E-18
 -1      2037 9.52120E-05-2.85582E-05-2.85661E-05 5.54770E-10-1.98283E-19-2.69354E-18
 -1      2038 9.52015E-05-2.85593E-05-2.85608E-05-1.02165E-08 1.10850E-18-2.48154E-18
 -1      2039 9.51991E-05-2.85581E-05-2.85603E-05-8.84553E-09 1.71493E-19-2.14715E-18
 -1      2040 9.52098E-05-2.85598E-05-2.85644E-05-8.03666E-09-3.76574E-19-3.68583E-18
 -1      2041 9.52059E-05-2.85614E-05-2.85619E-05-1.22709E-08 8.35765E-19-3.30829E-18
 -1      2042 9.52025E-05-2.85600E-05-2.85610E-05-1.16525E-08 1.01387E-18-2.73483E-18
 -1      2043 9.52108E-05-2.85617E-05-2.85640E-05-1.30018E-08 8.18668E-19-2.68243E-18
 -1      2044 9.52113E-05-2.85635E-05-2.85633E-05-1.28975E-08 8.10008E-19-2.76047E-18
 -1      2045 9.52076E-05-2.85621E-05-2.85623E-05-1.27935E-08 1.05134E-18-2.58228E-18
 -1      2046 9.52137E-05-2.85636E-05-2.85644E-05-1.54231E-08 2.81056E-19-2.02782E-18
 -1      2047 9.52172E-05-2.85656E-05-2.85650E-05-1.25309E-08 6.80939E-19-2.15541E-18
 -1      2048 9.52134E-05-2.85643E-05-2.85639E-05-1.27898E-08 7.41528E-19-2.03786E-18
 -1      2049 9.52176E-05-2.85656E-05-2.85652E-05-1.60798E-08 3.34502E-19-2.23499E-18
 -1      2050 9.52229E-05-2.85676E-05-2.85666E-05-1.14159E-08-9.91218E-19-1.10423E-18
 -1      2051 9.52194E-05-2.85664E-05-2.85656E-05-1.19646E-08 2.49869E-19-1.48078E-18
 -1      2052 9.52220E-05-2.85674E-05-2.85663E-05-1.54872E-08 3.82881E-19-1.17420E-18
 -1      2053 9.52281E-05-2.85694E-05-2.85680E-05-9.63495E-09 5.94813E-19-2.75444E-18
 -1      2054 9.52250E-05-2.85684E-05-2.85672E-05-1.04713E-08-4.30072E-19-1.92651E-18
 -1      2055 9.52263E-05-2.85692E-05-2.85674E-05-1.39350E-08-2.58512E-19-1.13110E-18
 -1      2056 9.52324E-05-2.85711E-05-2.85691E-05-7.14385E-09 2.42385E-19-2.61675E-18
 -1      2057 9.52300E-05-2.85702E-05-2.85685E-05-8.32506E-09 5.49259E-19-3.08340E-18
 -1      2058 9.52304E-05-2.85709E-05-2.85683E-05-1.15671E-08 1.04019E-18-2.08722E-18
 -1      2059 9.52354E-05-2.85722E-05-2.85700E-05-4.21429E-09-1.15315E-19-2.16010E-18
 -1      2060 9.52337E-05-2.85716E-05-2.85695E-05-5.62183E-09 2.36398E-19-2.27045E-18
 -1      2061 9.52336E-05-2.85723E-05-2.85691E-05-8.54339E-09-7.56540E-20-1.59189E-18
 -1      2062 9.52359E-05-2.85732E-05-2.85698E-05-5.15548E-09-3.71354E-19-1.08098E-18
 -1      2063 9.52412E-05-2.85841E-05-2.85673E-05-9.06888E-09-5.20753E-19 3.82710E-18
 -1      2064 9.52402E-05-2.85817E-05-2.85679E-05-9.09679E-09-5.93745E-19 3.16346E-18
 -1      2065 9.52392E-05-2.85799E-05-2.85683E-05-8.79492E-09 3.78414E-19 1.00912E-18
 -1      2066 9.52381E-05-2.85776E-05-2.85688E-05-8.24504E-09-2.90564E-19 5.06349E-19
 -1      2067 9.52393E-05-2.85799E-05-2.85683E-05-1.12089E-08 5.61499E-19 1.69987E-18
 -1      2068 9.52368E-05-2.85750E-05-2.85693E-05-6.43508E-09-5.44388E-19-9.79048E-20
 -1      2069 9.52429E-05-2.85879E-05-2.85664E-05-8.14492E-09-1.30680E-18-6.43112E-20
 -1      2070 9.52420E-05-2.85857E-05-2.85670E-05-8.67242E-09-1.62216E-18 2.67405E-18
 -1      2071 9.52414E-05-2.85835E-05-2.85677E-05-1.10502E-08-5.46932E-19 2.72535E-18
 -1      2072 9.52443E-05-2.85911E-05-2.85656E-05-6.27992E-09-7.27871E-19-4.93249E-19
 -1      2073 9.52436E-05-2.85893E-05-2.85661E-05-7.19434E-09-1.58467E-18 7.44983E-19
 -1      2074 9.52432E-05-2.85867E-05-2.85671E-05-9.53859E-09-1.33349E-18 9.56422E-19
 -1      2075 9.52452E-05-2.85932E-05-2.85651E-05-3.77380E-09 8.00339E-19-1.53534E-18
 -1      2076 9.52448E-05-2.85921E-05-2.85654E-05-4.93726E-09 5.23311E-19-1.25841E-18
 -1      2077 9.52445E-05-2.85893E-05-2.85666E-05-6.97483E-09 1.82285E-19 3.01893E-19
 -1      2078 9.52456E-05-2.85942E-05-2.85649E-05-9.05285E-10 8.47604E-19 2.14578E-18
 -1      2079 9.52455E-05-2.85938E-05-2.85650E-05-2.19595E-09 1.17223E-18-2.00266E-20
 -1      2080 9.52453E-05-2.85909E-05-2.85662E-05-3.71466E-09 1.16981E-18-2.70193E-19
 -1      2081 9.52455E-05-2.85938E-05-2.85649E-05 2.05968E-09 3.59565E-19 2.27931E-18
 -1      2082 9.52456E-05-2.85942E-05-2.85648E-05 7.59275E-10 2.55844E-19 3.03579E-18
 -1      2083 9.52456E-05-2.85915E-05-2.85661E-05-9.64121E-11-2.35749E-19 1.74959E-18
 -1      2084 9.52448E-05-2.85922E-05-2.85654E-05 4.85169E-09 4.99338E-19 4.88586E-19
 -1      2085 9.52453E-05-2.85933E-05-2.85651E-05 3.66260E-09-4.85120E-19 1.81377E-18
 -1      2086 9.52454E-05-2.85910E-05-2.85662E-05 3.55039E-09-1.14867E-18 1.80488E-18
 -1      2087 9.52437E-05-2.85895E-05-2.85660E-05 7.14903E-09 8.63104E-19-1.21240E-18
 -1      2088 9.52444E-05-2.85912E-05-2.85656E-05 6.21517E-09 1.91124E-19-5.27333E-19
 -1      2089 9.52446E-05-2.85895E-05-2.85665E-05 6.86200E-09-1.31902E-18-4.00250E-19
 -1      2090 9.52421E-05-2.85859E-05-2.85669E-05 8.72128E-09 3.02269E-18 3.78802E-18
 -1      2091 9.52431E-05-2.85881E-05-2.85664E-05 8.15258E-09 2.11218E-18 2.45755E-18
 -1      2092 9.52433E-05-2.85870E-05-2.85670E-05 9.51011E-09 8.86443E-19 1.95225E-18
 -1      2093 9.52402E-05-2.85818E-05-2.85679E-05 9.20295E-09 3.32638E-18 1.06406E-18
 -1      2094 9.52413E-05-2.85842E-05-2.85673E-05 9.16314E-09 3.72354E-18 1.79450E-18
 -1      2095 9.52415E-05-2.85837E-05-2.85676E-05 1.11321E-08 2.85451E-18 3.54931E-18
 -1      2096 9.52382E-05-2.85777E-05-2.85688E-05 8.33226E-09 1.54417E-18-4.71997E-18
 -1      2097 9.52393E-05-2.85800E-05-2.85683E-05 8.90126E-09 2.36383E-18-1.44326E-18
 -1      2098 9.52393E-05-2.85800E-05-2.85683E-05 1.13213E-08 2.40921E-18-7.98724E-19
 -1      2099 9.70273E-05-2.84935E-05-2.93336E-05 1.37580E-06 1.29645E-18 4.32345E-18
 -1      2100 9.78989E-05-2.84119E-05-2.97239E-05 2.35701E-06 1.48630E-18 4.90781E-18
 -1      2101 9.84560E-05-2.79041E-05-3.02371E-05 3.56386E-06 1.86673E-18 3.59097E-18
 -1      2102 9.76266E-05-2.83847E-05-2.96849E-05 1.75822E-06 1.60545E-18 2.81559E-18
 -1      2103 6.19923E-05-3.93796E-05-1.02107E-05 4.49920E-05 4.29234E-18 4.50796E-18
 -1      2104 4.78831E-05-4.07707E-05-3.88467E-06 4.08573E-05 2.49451E-18 3.85506E-18
 -1      2105 1.35830E-04-4.22184E-05-3.98042E-05 3.90039E-05 3.50227E-18 1.84992E-18
 -1      2106 1.15833E-04-4.27610E-05-3.17949E-05 4.02640E-05 3.57278E-18 3.08151E-18
 -1      2107 1.22405E-05-3.79246E-05 9.27095E-06 1.26498E-05 1.43805E-18 4.92719E-18
 -1      2108 1.06611E-05-3.57756E-05 9.27451E-06 3.07074E-06 4.40881E-19 5.06314E-18
 -1      2109 9.84467E-05-4.11193E-05-2.45055E-05 4.76628E-05 4.11743E-18 3.49994E-18
 -1      2110 7.89507E-05-4.30229E-05-1.64541E-05 4.30402E-05 4.51384E-18 3.66130E-18
 -1      2111 8.60826E-05-7.28946E-06-3.38722E-05-7.64019E-06-1.62664E-18-3.47719E-18
 -1      2112 8.76444E-05-8.12826E-06-3.41446E-05-8.92603E-06-1.97349E-18-3.05692E-18
 -1      2113 9.03836E-05-1.18434E-05-3.37086E-05-8.33577E-06-2.16428E-18-2.66238E-18
 -1      2114 8.67155E-05-8.85367E-06-3.33748E-05-6.58919E-06-1.63509E-18-3.38514E-18
 -1      2115 1.65698E-04-3.55456E-05-5.48203E-05 2.56061E-05 4.82981E-18-3.91753E-19
 -1      2116 1.48304E-04-3.77532E-05-4.74852E-05 2.69174E-05 4.55211E-18 6.80167E-19
 -1      2117 1.83219E-04-2.81575E-05-6.52082E-05 1.32254E-05 5.40915E-18-1.49290E-18
 -1      2118 1.69613E-04-2.85571E-05-6.01894E-05 1.86311E-05 5.47586E-18-3.84129E-19
 -1      2119 1.89932E-04-2.45258E-05-6.96882E-05 5.24157E-07 5.46844E-18-2.91889E-18
 -1      2120 1.85724E-04-2.43519E-05-6.82793E-05 9.29232E-06 5.52647E-18-1.57273E-18
 -1      2121 1.83401E-04-2.49720E-05-6.72021E-05-1.13642E-05 5.38162E-18-3.80741E-18
 -1      2122 1.91699E-04-2.56271E-05-6.97248E-05-3.29580E-06 5.33334E-18-2.69928E-18
 -1      2123 1.62727E-04-3.05506E-05-5.65689E-05-1.49425E-05 5.56204E-18-3.45928E-18
 -1      2124 1.78235E-04-2.91387E-05-6.26588E-05-1.29250E-05 5.44960E-18-3.44022E-18
 -1      2125 1.39052E-04-4.13354E-05-4.19474E-05-3.24868E-05 5.00745E-18-5.16732E-18
 -1      2126 1.56635E-04-4.01107E-05-4.96476E-05-2.66447E-05 5.20788E-18-3.51053E-18
 -1      2127 1.01762E-04-4.30271E-05-2.59546E-05-4.16775E-05 4.91067E-18-6.41585E-18
 -1      2128 1.23722E-04-4.19850E-05-3.47337E-05-4.37569E-05 4.96785E-18-6.71612E-18
 -1      2129 6.76870E-05-4.47012E-05-1.09884E-05-4.18268E-05 3.34154E-18-5.76109E-18
 -1      2130 8.55483E-05-4.20321E-05-1.86943E-05-4.74516E-05 4.45031E-18-6.02537E-18
 -1      2131 3.41608E-05-4.22243E-05 1.82477E-06-3.18177E-05 2.30139E-18-6.18292E-18
 -1      2132 4.63478E-05-3.86325E-05-4.08223E-06-3.98694E-05 3.69730E-18-6.48806E-18
 -1      2133 1.51439E-05-3.67033E-05 7.96094E-06-1.73644E-05-9.33854E-20-6.33242E-18
 -1      2134 2.20721E-05-3.75666E-05 5.40854E-06-2.58829E-05 1.92446E-18-6.57086E-18
 -1      2135 1.33960E-05-3.26577E-05 7.31736E-06 6.52577E-06-1.73462E-18-6.71824E-18
 -1      2136 1.16676E-05-3.34811E-05 8.21980E-06-4.92641E-06-7.62330E-20-6.78389E-18
 -1      2137 3.55447E-05-4.08997E-05 1.20307E-06 2.71016E-05-3.53043E-18-6.79109E-18
 -1      2138 2.45220E-05-3.77496E-05 4.63278E-06 1.99200E-05-1.45732E-18-6.26931E-18
 -1      2139 6.61618E-05-4.60146E-05-9.57911E-06 3.66192E-05-5.34817E-18-7.03842E-18
 -1      2140 4.88048E-05-4.73664E-05-2.46555E-06 2.91964E-05-4.23559E-18-6.77012E-18
 -1      2141 1.16061E-04-5.49376E-05-2.65308E-05 3.72333E-05-4.85519E-18-5.14318E-18
 -1      2142 9.01395E-05-5.36968E-05-1.71998E-05 3.36891E-05-5.07796E-18-5.54065E-18
 -1      2143 1.64508E-04-5.58563E-05-4.57999E-05 2.28392E-05-5.38289E-18-4.96785E-18
 -1      2144 1.39702E-04-5.72869E-05-3.60650E-05 2.26721E-05-4.71882E-18-4.73153E-18
 -1      2145 2.02838E-04-3.62137E-05-6.94211E-05-7.79799E-07-6.20748E-18-2.37826E-18
 -1      2146 1.95260E-04-3.87844E-05-6.56146E-05 3.56319E-06-6.25491E-18-3.70831E-18
 -1      2147 2.06008E-04-3.37691E-05-7.17107E-05-7.87657E-07-6.16259E-18-1.46897E-18
 -1      2148 2.03282E-04-3.15431E-05-7.15772E-05 2.52224E-06-6.30023E-18-2.58980E-18
 -1      2149 1.67913E-04-5.03819E-05-5.01376E-05-1.60710E-05-6.07852E-18 2.13368E-18
 -1      2150 1.87646E-04-4.88224E-05-5.83165E-05-8.98810E-06-6.61940E-18 6.26804E-20
 -1      2151 1.28838E-04-5.62789E-05-3.21690E-05-2.61400E-05-3.82224E-18 4.41304E-18
 -1      2152 1.55102E-04-5.62443E-05-4.19042E-05-2.60383E-05-4.76625E-18 3.26701E-18
 -1      2153 8.18703E-05-5.27420E-05-1.41296E-05-3.22638E-05-3.19967E-18 6.20918E-18
 -1      2154 1.06253E-04-5.25938E-05-2.33997E-05-3.73687E-05-3.69476E-18 6.35317E-18
 -1      2155 4.03277E-05-4.65745E-05 6.58321E-07-2.47830E-05-1.76988E-18 5.81530E-18
 -1      2156 5.66906E-05-4.50719E-05-6.14274E-06-3.32384E-05-3.24414E-18 6.98818E-18
 -1      2157 1.69405E-05-3.77654E-05 7.57563E-06-1.11706E-05 5.39984E-19 5.30243E-18
 -1      2158 2.56040E-05-4.05373E-05 4.89092E-06-1.94236E-05-1.04312E-18 4.96065E-18
 -1      2159 2.80119E-05-3.45363E-05 1.97135E-06 3.31564E-05 1.43445E-18 4.11171E-18
 -1      2160 1.89966E-05-3.95354E-05 6.99907E-06 2.17946E-05 1.09987E-18 4.42829E-18
 -1      2161 1.71829E-05-2.72511E-05 3.70613E-06 2.12585E-05-1.29384E-19 4.91957E-18
 -1      2162 1.59795E-04-3.96222E-05-5.17918E-05-2.28556E-05-4.14136E-18 1.21634E-18
 -1      2163 1.56422E-04-2.41049E-05-5.69338E-05-1.91442E-06-5.93220E-18-7.20534E-19
 -1      2164 1.01392E-04-2.53580E-05-3.26327E-05-6.78928E-06-2.46272E-18 1.08500E-18
 -1      2165 1.58669E-04-3.48427E-05-5.33963E-05 2.22727E-05-5.01105E-18-2.97012E-18
 -1      2166 8.35834E-05-4.82166E-05-1.53454E-05 4.75517E-05 1.53398E-18 2.49732E-18
 -1      2167 1.47002E-04-4.73909E-05-4.22090E-05 2.18167E-05 2.98950E-18-6.70003E-19
 -1      2168 9.98548E-05-2.36361E-05-3.27458E-05-6.26014E-06-2.60383E-18-1.31515E-19
 -1      2169 9.52358E-05-2.85736E-05-2.85695E-05 6.24890E-09-4.38858E-19-1.34737E-18
 -1      2170 9.52365E-05-2.85754E-05-2.85691E-05-9.08541E-09 5.10176E-19-8.45220E-20
 -1      2171 9.52365E-05-2.85751E-05-2.85692E-05 7.35036E-09 7.31466E-20-3.46514E-18
 -1      2172 4.29948E-05-3.71575E-05-2.89993E-06 4.03463E-05 9.44442E-19 4.35671E-18
 -1      2173 3.84676E-05-3.01225E-05-3.21968E-06 4.02271E-05-1.08441E-18 4.58584E-18
 -1      2174 5.76200E-05-3.87588E-05-8.52162E-06 4.73913E-05-1.58819E-19 3.90503E-18
 -1      2175 1.59267E-05-3.03871E-05 5.37479E-06-5.68443E-06 4.36751E-19 4.73915E-18
 -1      2176 2.19932E-05-2.27386E-05 2.80880E-07-1.53019E-05 1.09691E-18 4.91745E-18
 -1      2177 1.49552E-05-1.97634E-05 2.02915E-06-2.37105E-07 1.32256E-19 4.35544E-18
 -1      2178 1.18392E-04-5.25172E-05-2.79807E-05 3.97963E-05 1.85585E-18 1.28601E-18
 -1      2179 4.00132E-05-3.89074E-05-1.35919E-06-2.96093E-05 3.62530E-19 6.10139E-18
 -1      2180 8.34472E-05-5.40849E-05-1.30672E-05-3.74465E-05-9.06325E-19 5.96856E-18
 -1      2181 1.33030E-04-6.59342E-05-2.87006E-05-2.51528E-05-8.61433E-19 2.41404E-18
 -1      2182 1.65881E-04-6.12679E-05-4.41911E-05-4.24550E-06-3.37151E-18-1.20490E-18
 -1      2183 1.80796E-04-2.64271E-05-6.46364E-05-5.00319E-06-6.38790E-18-1.00162E-18
 -1      2184 1.40779E-04-6.60598E-05-3.18029E-05 2.22484E-05-2.29038E-18-2.55190E-18
 -1      2185 9.28266E-05-5.64066E-05-1.58405E-05 3.82868E-05-1.86051E-18-4.49902E-18
 -1      2186 5.19228E-05-4.19143E-05-4.97837E-06 3.54275E-05-9.22419E-19-6.39891E-18
 -1      2187 2.39208E-05-2.75137E-05 1.23191E-06 1.72053E-05-3.36907E-19-6.84487E-18
 -1      2188 1.57371E-05-2.49913E-05 3.46098E-06-1.27885E-05-5.03773E-19-7.20147E-18
 -1      2189 3.32737E-05-3.43695E-05-2.50465E-07-3.60170E-05 1.16467E-19-6.77245E-18
 -1      2190 6.86455E-05-4.54185E-05-1.02356E-05-4.74503E-05 5.27702E-19-5.22757E-18
 -1      2191 1.07876E-04-5.35483E-05-2.32146E-05-4.27191E-05 1.26631E-18-4.30293E-18
 -1      2192 1.39037E-04-5.14519E-05-3.69948E-05-2.82494E-05 2.55889E-18-2.66392E-18
 -1      2193 1.56771E-04-3.80346E-05-5.03798E-05-7.82972E-06 4.31309E-18-1.68602E-18
 -1      2194 1.62963E-04-1.95314E-05-6.06702E-05 7.68394E-07 5.22662E-18-1.89714E-18
 -1      2195 1.67638E-04-1.28801E-05-6.50279E-05-1.31864E-07 5.63404E-18-2.45446E-18
 -1      2196 1.60006E-04-3.16846E-05-5.42868E-05 5.63755E-06 4.62967E-18-2.33739E-18
 -1      2197 1.64006E-04-1.66790E-05-6.20448E-05-3.46189E-08 5.57390E-18-2.39626E-18
 -1      2198 1.81391E-04-3.88582E-05-5.95156E-05-1.06844E-05-5.89916E-18-1.79063E-18
 -1      2199 1.94893E-04-4.62013E-05-6.20061E-05 1.05948E-05-5.87777E-18-4.58838E-18
 -1      2200 1.74846E-04-4.72973E-05-5.43452E-05 1.48993E-05-6.04660E-18-5.45405E-18
 -1      2201 1.78150E-04-4.76226E-05-5.49819E-05 1.04555E-05-5.92267E-18-3.05821E-18
 -1      2202 1.91068E-04-4.37895E-05-6.16694E-05 2.94260E-07-6.82497E-18-1.20236E-18
 -1      2203 1.92935E-04-3.65446E-05-6.55491E-05-1.39866E-06-7.02529E-18-4.71797E-19
 -1      2204 2.07087E-04-3.63243E-05-7.05398E-05 9.86524E-07-6.60601E-18-1.48379E-18
 -1      2205 1.80494E-04-2.47849E-05-6.50744E-05 7.06210E-06-6.61448E-18-1.99307E-18
 -1      2206 1.78099E-04-3.44067E-05-6.12010E-05 1.47975E-05-6.47472E-18-2.59743E-18
 -1      2207 9.52361E-05-2.85754E-05-2.85689E-05 9.99253E-09 4.01515E-19-4.44309E-18
 -1      2208 1.71496E-04-5.79714E-05-4.82382E-05-1.43517E-06-3.84582E-18-2.11674E-18
 -1      2209 8.32797E-05-7.58468E-06-3.24687E-05-3.65087E-06-3.43732E-19-3.66439E-18
 -1      2210 8.36547E-05-7.81275E-06-3.25410E-05-4.17501E-06-6.74058E-19-3.75423E-18
 -1      2211 8.43399E-05-8.32532E-06-3.26210E-05-4.38590E-06-8.52969E-19-3.71588E-18
 -1      2212 8.53106E-05-8.99481E-06-3.27456E-05-4.92960E-06-1.21934E-18-3.53835E-18
 -1      2213 8.47642E-05-9.55466E-06-3.22131E-05-3.93660E-06-7.19864E-19-3.50248E-18
 -1      2214 8.41545E-05-8.44043E-06-3.24632E-05-1.44360E-06 6.50755E-19-3.52672E-18
 -1      2215 8.36765E-05-8.09406E-06-3.24314E-05-2.20858E-06 3.41243E-19-3.57981E-18
 -1      2216 8.55382E-05-9.57140E-06-3.25738E-05 2.46883E-07 1.06861E-18-3.34041E-18
 -1      2217 8.48303E-05-9.06970E-06-3.25085E-05-6.97450E-07 8.12348E-19-3.45938E-18
 -1      2218 8.55510E-05-1.05475E-05-3.21500E-05-1.50044E-06 6.38249E-19-3.28173E-18
 -1      2219 8.72142E-05-1.09365E-05-3.27145E-05 2.27218E-06 1.55326E-18-2.99289E-18
 -1      2220 8.63813E-05-1.03329E-05-3.26337E-05 1.18218E-06 1.28058E-18-3.19269E-18
 -1      2221 8.71764E-05-1.19378E-05-3.22543E-05 1.72388E-07 1.09845E-18-3.02399E-18
 -1      2222 8.91485E-05-1.25750E-05-3.28547E-05 4.59723E-06 2.06422E-18-2.21577E-18
 -1      2223 8.81876E-05-1.18271E-05-3.27717E-05 3.36131E-06 1.75309E-18-2.65778E-18
 -1      2224 8.90704E-05-1.35702E-05-3.23658E-05 2.18214E-06 1.53710E-18-2.58752E-18
 -1      2225 9.13776E-05-1.46313E-05-3.29523E-05 7.01595E-06 2.50290E-18-1.42746E-18
 -1      2226 9.02497E-05-1.36396E-05-3.28861E-05 5.72222E-06 2.20404E-18-1.86650E-18
 -1      2227 9.11766E-05-1.54823E-05-3.24425E-05 4.35254E-06 2.02045E-18-1.86018E-18
 -1      2228 9.41208E-05-1.74878E-05-3.29440E-05 9.16356E-06 2.87889E-18-2.28778E-19
 -1      2229 9.26761E-05-1.59974E-05-3.29254E-05 8.01225E-06 2.65973E-18-8.89265E-19
 -1      2230 9.35266E-05-1.78356E-05-3.24262E-05 6.37855E-06 2.36441E-18-9.31842E-19
 -1      2231 9.77040E-05-2.17248E-05-3.26572E-05 1.01456E-05 2.90195E-18 1.72797E-18
 -1      2232 9.57664E-05-1.93319E-05-3.27962E-05 9.76077E-06 2.90300E-18 5.31209E-19
 -1      2233 9.62746E-05-2.09754E-05-3.22235E-05 7.70737E-06 2.67769E-18 3.03549E-19
 -1      2234 9.99890E-05-2.55203E-05-3.19784E-05 8.54951E-06 2.55751E-18 3.62956E-18
 -1      2235 9.86215E-05-2.31416E-05-3.23474E-05 9.65531E-06 2.75006E-18 2.55376E-18
 -1      2236 9.81882E-05-2.41866E-05-3.17162E-05 7.32333E-06 2.62327E-18 1.69311E-18
 -1      2237 9.90014E-05-2.66703E-05-3.10079E-05 5.67939E-06 2.27377E-18 3.27151E-18
 -1      2238 9.88430E-05-2.46434E-05-3.17595E-05-8.52957E-07-2.02535E-18-6.54823E-19
 -1      2239 9.87174E-05-2.52478E-05-3.14618E-05 1.82565E-06-1.82642E-18-7.35838E-19
 -1      2240 9.84996E-05-2.55731E-05-3.12128E-05 4.10642E-06-1.56955E-18-6.41851E-19
 -1      2241 9.87225E-05-2.58187E-05-3.12003E-05 6.23230E-06-1.29071E-18-7.17563E-19
 -1      2242 9.67429E-05-2.34162E-05-3.14280E-05 2.70636E-06-1.77317E-18-1.08769E-18
 -1      2243 9.83265E-05-2.57340E-05-3.10957E-05 8.32317E-06-1.07743E-18-6.12054E-19
 -1      2244 9.89472E-05-2.58966E-05-3.12547E-05 1.02905E-05-8.01809E-19-7.27118E-19
 -1      2245 9.61503E-05-2.37859E-05-3.10079E-05 7.26222E-06-1.19820E-18-9.20487E-19
 -1      2246 9.84937E-05-2.56961E-05-3.12034E-05 1.23624E-05-4.58923E-19-6.47297E-19
 -1      2247 9.95418E-05-2.60252E-05-3.14499E-05 1.42818E-05-9.46923E-20-5.89958E-19
 -1      2248 9.53456E-05-2.35496E-05-3.07558E-05 1.15385E-05-6.54490E-19-7.60584E-19
 -1      2249 9.91629E-05-2.60329E-05-3.13501E-05 1.64199E-05 1.50778E-19-7.53783E-19
 -1      2250 1.00801E-04-2.69432E-05-3.15922E-05 1.81547E-05 2.87935E-19-6.92385E-19
 -1      2251 9.45242E-05-2.33840E-05-3.04702E-05 1.58024E-05-1.28508E-19-7.80574E-19
 -1      2252 1.00925E-04-2.77719E-05-3.13285E-05 2.03079E-05 3.56060E-19-7.00809E-19
 -1      2253 1.03624E-04-3.00264E-05-3.14677E-05 2.13743E-05 7.14744E-19-5.57923E-19
 -1      2254 9.41673E-05-2.43437E-05-2.99173E-05 2.01554E-05 4.06439E-19-1.01195E-18
 -1      2255 1.05332E-04-3.27686E-05-3.09639E-05 2.31796E-05 1.15704E-18-3.79676E-19
 -1      2256 1.09961E-04-3.73842E-05-3.09902E-05 2.25890E-05 1.50640E-18-2.66465E-19
 -1      2257 9.56360E-05-2.83469E-05-2.88744E-05 2.44352E-05 1.14919E-18-1.15418E-18
 -1      2258 1.15271E-04-4.34342E-05-3.04664E-05 2.28972E-05 1.91252E-18-8.57621E-20
 -1      2259 1.23183E-04-5.04856E-05-3.09450E-05 1.89273E-05 1.90847E-18 3.51850E-19
 -1      2260 1.01866E-04-3.80322E-05-2.74190E-05 2.78234E-05 1.79979E-18-1.14011E-18
 -1      2261 9.79458E-05-5.16986E-05-1.98349E-05 4.67200E-05 4.33681E-19 7.87899E-19
 -1      2262 8.19100E-05-4.72893E-05-1.45273E-05 4.71851E-05 7.07273E-20 1.68144E-18
 -1      2263 1.56881E-04-5.47333E-05-4.41315E-05 2.15927E-05-1.78120E-18-5.64177E-18
 -1      2264 9.52353E-05-2.85748E-05-2.85688E-05-1.07072E-08 9.83773E-19 1.96671E-19
 -1      2265 1.27166E-04-5.26144E-05-3.18930E-05-1.58362E-05 2.73025E-18-2.72846E-18
 -1      2266 1.19886E-04-4.55088E-05-3.15348E-05-2.01140E-05 2.61537E-18-2.22429E-18
 -1      2267 1.13988E-04-3.94339E-05-3.18893E-05-2.07437E-05 2.24212E-18-1.72123E-18
 -1      2268 1.09201E-04-3.45918E-05-3.18264E-05-2.17421E-05 2.24067E-18-1.10116E-18
 -1      2269 1.07003E-04-4.08060E-05-2.84738E-05-2.53910E-05 2.74179E-18-9.90367E-19
 -1      2270 1.06954E-04-3.16491E-05-3.22225E-05-2.03811E-05 1.69413E-18-5.42678E-19
 -1      2271 1.04042E-04-2.92195E-05-3.20362E-05-1.95661E-05 1.74266E-18-5.82278E-19
 -1      2272 9.94381E-05-3.04333E-05-2.96109E-05-2.34194E-05 2.27284E-18-5.78351E-19
 -1      2273 1.03498E-04-2.82610E-05-3.21953E-05-1.75591E-05 7.92532E-19-3.04130E-19
 -1      2274 1.01581E-04-2.72712E-05-3.18594E-05-1.59615E-05-3.25798E-19-1.16308E-18
 -1      2275 9.69443E-05-2.59093E-05-3.04303E-05-1.97075E-05 1.18842E-18-5.26540E-19
 -1      2276 1.01652E-04-2.72960E-05-3.18149E-05-1.41001E-05-5.65299E-19-1.20023E-18
 -1      2277 1.00339E-04-2.70099E-05-3.14472E-05-1.25076E-05-1.93585E-19-1.41724E-18
 -1      2278 9.65673E-05-2.48311E-05-3.07195E-05-1.57927E-05-5.72206E-19-1.34584E-19
 -1      2279 1.00458E-04-2.73081E-05-3.13003E-05-1.09102E-05-2.27402E-19-1.97441E-18
 -1      2280 9.94438E-05-2.72693E-05-3.09495E-05-9.51740E-06-5.90091E-19-2.55672E-18
 -1      2281 9.67427E-05-2.51866E-05-3.06426E-05-1.23370E-05-5.92069E-19-3.46904E-19
 -1      2282 9.94885E-05-2.75935E-05-3.07684E-05-8.22419E-06-6.43633E-19-2.26768E-18
 -1      2283 9.86819E-05-2.76263E-05-3.04650E-05-7.10550E-06-5.76866E-19-2.09422E-18
 -1      2284 9.68861E-05-2.59285E-05-3.03925E-05-9.43090E-06-3.09557E-19-1.07501E-18
 -1      2285 9.86442E-05-2.78900E-05-3.02873E-05-6.09747E-06-7.26637E-19-2.20881E-18
 -1      2286 9.80034E-05-2.79303E-05-3.00397E-05-5.23940E-06-1.08774E-18-2.17405E-18
 -1      2287 9.68758E-05-2.66511E-05-3.00854E-05-7.09696E-06-9.78042E-19-1.42694E-18
 -1      2288 9.79123E-05-2.81205E-05-2.98826E-05-4.47226E-06-6.34765E-19-1.54158E-18
 -1      2289 9.74089E-05-2.81502E-05-2.96876E-05-3.83091E-06 1.49440E-19-9.65487E-19
 -1      2290 9.67374E-05-2.72274E-05-2.97845E-05-5.28014E-06-2.60119E-19-1.12923E-18
 -1      2291 9.72942E-05-2.82788E-05-2.95566E-05-3.25574E-06-2.59456E-19-1.30594E-18
 -1      2292 9.69043E-05-2.82965E-05-2.94065E-05-2.78317E-06-3.66367E-20-1.88752E-18
 -1      2293 9.65282E-05-2.76472E-05-2.95185E-05-3.89488E-06 9.69538E-21-5.93232E-19
 -1      2294 9.67871E-05-2.83803E-05-2.93012E-05-2.35582E-06-3.68505E-19-1.75110E-18
 -1      2295 9.64892E-05-2.83892E-05-2.91875E-05-2.01025E-06-8.96556E-19-1.51623E-18
 -1      2296 9.62966E-05-2.79388E-05-2.92963E-05-2.85269E-06-6.69498E-19-7.04972E-19
 -1      2297 9.63817E-05-2.84427E-05-2.91049E-05-1.69445E-06-7.23078E-19-1.33749E-18
 -1      2298 9.61571E-05-2.84464E-05-2.90198E-05-1.44271E-06 3.52726E-20-1.12402E-18
 -1      2299 9.60741E-05-2.81363E-05-2.91174E-05-2.07526E-06-4.21944E-19-3.18537E-19
 -1      2300 9.60648E-05-2.84802E-05-2.89561E-05-1.21018E-06 8.13226E-20-1.47593E-18
 -1      2301 9.58977E-05-2.84814E-05-2.88931E-05-1.02719E-06 5.13764E-19-1.06714E-18
 -1      2302 9.58771E-05-2.82687E-05-2.89766E-05-1.49852E-06-3.83407E-19 1.80106E-19
 -1      2303 9.58220E-05-2.85028E-05-2.88447E-05-8.56494E-07-9.87352E-20-1.61510E-18
 -1      2304 9.56993E-05-2.85031E-05-2.87985E-05-7.23748E-07-3.36937E-19-2.50084E-18
 -1      2305 9.57121E-05-2.83575E-05-2.88678E-05-1.07240E-06-2.59393E-19-2.40391E-19
 -1      2306 9.56394E-05-2.85170E-05-2.87621E-05-5.98869E-07-4.94118E-19-3.64409E-18
 -1      2307 9.55506E-05-2.85172E-05-2.87286E-05-5.02854E-07-1.80377E-18-3.33349E-18
 -1      2308 9.55792E-05-2.84177E-05-2.87850E-05-7.58748E-07-1.38370E-18-1.86266E-18
 -1      2309 9.55046E-05-2.85264E-05-2.87016E-05-4.11925E-07-2.56964E-18-3.54269E-18
 -1      2310 9.54415E-05-2.85271E-05-2.86775E-05-3.42799E-07-1.95031E-18-3.45858E-18
 -1      2311 9.54757E-05-2.84592E-05-2.87227E-05-5.28918E-07-2.07769E-18-2.63160E-18
 -1      2312 9.54071E-05-2.85333E-05-2.86578E-05-2.77039E-07-7.00949E-19-4.19519E-18
 -1      2313 9.53630E-05-2.85345E-05-2.86407E-05-2.27559E-07 1.28793E-19-4.96847E-18
 -1      2314 9.53974E-05-2.84884E-05-2.86763E-05-3.61490E-07-2.11278E-18-2.05268E-18
 -1      2315 9.53368E-05-2.85393E-05-2.86258E-05-1.78308E-07 4.24048E-19-4.38614E-18
 -1      2316 9.53059E-05-2.85408E-05-2.86136E-05-1.42026E-07 8.43086E-19-4.67918E-18
 -1      2317 9.53383E-05-2.85096E-05-2.86417E-05-2.38258E-07 3.87731E-19-4.24962E-18
 -1      2318 9.52886E-05-2.85440E-05-2.86036E-05-1.09329E-07 1.26525E-18-4.77652E-18
 -1      2319 9.52694E-05-2.85458E-05-2.85958E-05-8.53591E-08 1.15203E-18-5.01722E-18
 -1      2320 9.52964E-05-2.85256E-05-2.86167E-05-1.50316E-07 7.48183E-19-3.82319E-18
 -1      2321 9.52576E-05-2.85484E-05-2.85888E-05-6.25368E-08 1.97191E-18-4.62484E-18
 -1      2322 9.52457E-05-2.85502E-05-2.85837E-05-4.61531E-08 1.50166E-18-2.87840E-18
 -1      2323 9.52681E-05-2.85370E-05-2.85996E-05-9.03199E-08 1.71662E-18-2.85545E-18
 -1      2324 9.52379E-05-2.85522E-05-2.85790E-05-3.06040E-08-7.42283E-21-2.05355E-18
 -1      2325 9.52311E-05-2.85541E-05-2.85758E-05-1.96860E-08-3.15170E-19-1.61154E-18
 -1      2326 9.52493E-05-2.85457E-05-2.85876E-05-4.87767E-08 1.99386E-18-2.83937E-18
 -1      2327 9.52264E-05-2.85557E-05-2.85727E-05-9.39862E-09-4.80112E-19-8.57958E-19
 -1      2328 9.52231E-05-2.85575E-05-2.85709E-05-2.38419E-09-2.97859E-19-8.24977E-19
 -1      2329 9.52374E-05-2.85524E-05-2.85795E-05-2.06917E-08 4.72963E-20-6.67488E-19
 -1      2330 9.52205E-05-2.85588E-05-2.85690E-05 4.14659E-09 3.11489E-19-6.84911E-19
 -1      2331 9.52195E-05-2.85605E-05-2.85681E-05 8.41137E-09 4.58717E-19-2.08116E-19
 -1      2332 9.52304E-05-2.85576E-05-2.85743E-05-2.31165E-09-2.83756E-19-7.20366E-19
 -1      2333 9.52183E-05-2.85615E-05-2.85671E-05 1.23004E-08-9.25200E-19-1.04617E-18
 -1      2334 9.52189E-05-2.85630E-05-2.85668E-05 1.46591E-08-1.33773E-20-1.23286E-18
 -1      2335 9.52269E-05-2.85615E-05-2.85710E-05 9.16221E-09-5.41756E-19-1.95362E-18
 -1      2336 9.52187E-05-2.85639E-05-2.85663E-05 1.67197E-08 1.18463E-18-2.80937E-18
 -1      2337 9.52202E-05-2.85652E-05-2.85664E-05 1.77764E-08-2.87784E-19-3.51959E-18
 -1      2338 9.52258E-05-2.85646E-05-2.85692E-05 1.57947E-08 1.15164E-19-1.46142E-18
 -1      2339 9.52206E-05-2.85660E-05-2.85662E-05 1.85865E-08-6.25832E-19-2.99353E-18
 -1      2340 9.52226E-05-2.85672E-05-2.85666E-05 1.87568E-08-1.03353E-19-2.04411E-18
 -1      2341 9.52262E-05-2.85670E-05-2.85683E-05 1.90802E-08 1.95062E-20-2.07510E-18
 -1      2342 9.52234E-05-2.85679E-05-2.85666E-05 1.87083E-08-1.64753E-18-2.43371E-18
 -1      2343 9.52255E-05-2.85689E-05-2.85671E-05 1.82577E-08-2.08167E-18-2.23056E-18
 -1      2344 9.52276E-05-2.85690E-05-2.85680E-05 2.00647E-08-8.22641E-19-2.44553E-18
 -1      2345 9.52265E-05-2.85696E-05-2.85673E-05 1.75931E-08-1.35732E-18-2.38866E-18
 -1      2346 9.52286E-05-2.85706E-05-2.85677E-05 1.66676E-08-4.53993E-19-2.72484E-18
 -1      2347 9.52295E-05-2.85707E-05-2.85681E-05 1.94395E-08-2.03241E-18-1.21196E-18
 -1      2348 9.52297E-05-2.85713E-05-2.85679E-05 1.55039E-08 9.65954E-19-2.54453E-18
 -1      2349 9.52317E-05-2.85723E-05-2.85684E-05 1.41603E-08 2.55343E-18-3.67426E-18
 -1      2350 9.52317E-05-2.85723E-05-2.85683E-05 1.76213E-08 3.66853E-19-3.09133E-18
 -1      2351 9.52332E-05-2.85733E-05-2.85685E-05 1.31534E-08 1.35163E-18-4.48992E-18
 -1      2352 9.52348E-05-2.85743E-05-2.85689E-05 1.13831E-08 5.13681E-19-4.83285E-18
 -1      2353 9.52370E-05-2.85768E-05-2.85686E-05 1.25742E-08 8.87251E-19-5.67364E-18
 -1      2354 9.52344E-05-2.85744E-05-2.85686E-05 1.52762E-08 1.33001E-18-4.35565E-18
 -1      2355 9.75270E-05-3.01548E-05-2.88950E-05 1.14903E-06 8.88625E-19 1.32381E-18
 -1      2356 9.76702E-05-2.99583E-05-2.89998E-05 7.68988E-07 1.02699E-18 1.51933E-18
 -1      2357 9.75582E-05-2.96265E-05-2.91301E-05 5.53421E-07 1.05948E-18 1.33113E-18
 -1      2358 9.76971E-05-2.93303E-05-2.92658E-05 5.25526E-07 1.11641E-18 1.49894E-18
 -1      2359 9.84930E-05-3.01851E-05-2.92849E-05 7.82697E-07 1.09135E-18 9.23731E-19
 -1      2360 9.76321E-05-2.88972E-05-2.94664E-05 7.70662E-07 1.23517E-18 1.43351E-18
 -1      2361 9.78577E-05-2.85064E-05-2.96833E-05 1.24759E-06 1.37688E-18 1.51314E-18
 -1      2362 9.82580E-05-2.91636E-05-2.96283E-05 8.69615E-07 1.24432E-18 7.42942E-19
 -1      2363 9.73557E-05-3.04187E-05-2.87086E-05 2.31627E-06 7.46939E-19 1.10916E-18
 -1      2364 9.76161E-05-3.03762E-05-2.88087E-05 1.71138E-06 7.83823E-19 1.36881E-18
 -1      2365 9.87421E-05-3.09247E-05-2.90674E-05 1.55945E-06 8.68231E-19 9.82563E-19
 -1      2366 9.68562E-05-3.02800E-05-2.85473E-05 3.75077E-06 4.83549E-19 8.92970E-19
 -1      2367 9.73141E-05-3.04605E-05-2.86534E-05 3.08131E-06 7.20678E-19 1.10118E-18
 -1      2368 9.88233E-05-3.12824E-05-2.89406E-05 2.93959E-06 9.18204E-19 9.92280E-19
 -1      2369 9.58995E-05-2.96128E-05-2.84090E-05 5.03601E-06 4.15039E-19 7.71531E-19
 -1      2370 9.65792E-05-3.00614E-05-2.85190E-05 4.51003E-06 2.44270E-19 7.57350E-19
 -1      2371 9.85178E-05-3.10786E-05-2.88897E-05 4.55689E-06 5.65618E-19 9.84048E-19
 -1      2372 9.44926E-05-2.84072E-05-2.83037E-05 5.67111E-06 6.69329E-19 1.13505E-18
 -1      2373 9.53352E-05-2.90953E-05-2.84067E-05 5.51779E-06 6.41072E-19 9.93372E-19
 -1      2374 9.76609E-05-3.01698E-05-2.89091E-05 5.90397E-06 4.15557E-19 8.10997E-19
 -1      2375 9.28521E-05-2.68713E-05-2.82423E-05 5.20324E-06 4.43151E-19 8.51379E-19
 -1      2376 9.37039E-05-2.76578E-05-2.83239E-05 5.59887E-06 7.64360E-19 1.15320E-18
 -1      2377 9.62594E-05-2.85957E-05-2.89886E-05 6.38610E-06 6.74950E-19 1.15817E-18
 -1      2378 9.14050E-05-2.54453E-05-2.82272E-05 3.44956E-06 7.81889E-19 6.70971E-19
 -1      2379 9.20483E-05-2.60948E-05-2.82748E-05 4.41790E-06 5.34933E-19 7.15309E-19
 -1      2380 9.45954E-05-2.66976E-05-2.91033E-05 5.51013E-06 5.63326E-19 1.05977E-18
 -1      2381 9.06439E-05-2.46463E-05-2.82516E-05 6.73220E-07 2.15785E-19 9.17516E-19
 -1      2382 9.08766E-05-2.49221E-05-2.82575E-05 2.03143E-06 6.35127E-19 7.72205E-19
 -1      2383 9.31956E-05-2.50796E-05-2.92135E-05 3.16767E-06 5.33144E-19 1.39184E-18
 -1      2384 9.08928E-05-2.48110E-05-2.83061E-05-2.43646E-06 7.53131E-20 5.84609E-19
 -1      2385 9.06208E-05-2.45976E-05-2.82676E-05-1.03465E-06 6.39146E-20 7.81584E-19
 -1      2386 9.26122E-05-2.43666E-05-2.92779E-05-1.92219E-07 3.66822E-19 1.32359E-18
 -1      2387 9.21118E-05-2.58854E-05-2.83868E-05-5.03585E-06 3.96802E-19 1.20736E-19
 -1      2388 9.13992E-05-2.52611E-05-2.83059E-05-3.95552E-06 4.17194E-19 2.56808E-19
 -1      2389 9.31173E-05-2.48599E-05-2.92763E-05-3.66306E-06 4.00453E-19 4.31190E-19
 -1      2390 9.39117E-05-2.74589E-05-2.84953E-05-6.51315E-06 2.18134E-19-3.76141E-19
 -1      2391 9.29460E-05-2.66434E-05-2.83796E-05-5.97935E-06 3.25257E-19-4.77813E-20
 -1      2392 9.45211E-05-2.63560E-05-2.92202E-05-6.28536E-06 4.97337E-19-4.60030E-19
 -1      2393 9.57747E-05-2.90119E-05-2.86306E-05-6.70570E-06 6.37792E-19-1.07422E-18
 -1      2394 9.47797E-05-2.82465E-05-2.84937E-05-6.74060E-06 4.58265E-19-7.73713E-19
 -1      2395 9.62982E-05-2.82732E-05-2.91440E-05-7.49332E-06 4.85754E-19-5.85816E-19
 -1      2396 9.72882E-05-3.01614E-05-2.87824E-05-5.86187E-06 3.47198E-19-7.19399E-19
 -1      2397 9.64402E-05-2.96059E-05-2.86421E-05-6.32501E-06 5.56652E-19-7.91572E-19
 -1      2398 9.78900E-05-2.99889E-05-2.90827E-05-7.27448E-06 5.60494E-19-7.49951E-19
 -1      2399 9.82624E-05-3.07705E-05-2.89325E-05-4.43009E-06 2.09938E-20-1.02038E-18
 -1      2400 9.76525E-05-3.04718E-05-2.88064E-05-5.11630E-06 3.21892E-19-1.03740E-18
 -1      2401 9.89499E-05-3.11129E-05-2.90554E-05-6.03225E-06 6.26875E-19-1.92010E-19
 -1      2402 9.87044E-05-3.09001E-05-2.90607E-05-2.84764E-06 7.79535E-20-9.43983E-19
 -1      2403 9.83454E-05-3.08218E-05-2.89621E-05-3.57024E-06-9.03827E-20-1.11729E-18
 -1      2404 9.94018E-05-3.15632E-05-2.90606E-05-4.30582E-06 3.81409E-20-1.02412E-18
 -1      2405 9.87306E-05-3.07051E-05-2.91518E-05-1.42217E-06 5.85493E-19-7.43249E-19
 -1      2406 9.85862E-05-3.07752E-05-2.90871E-05-2.05569E-06 4.29583E-19-4.84065E-19
 -1      2407 9.93554E-05-3.14749E-05-2.90841E-05-2.55364E-06 1.79118E-19-7.56242E-19
 -1      2408 9.84853E-05-3.03459E-05-2.91990E-05-3.09561E-07-2.07779E-19 5.10434E-19
 -1      2409 9.84999E-05-3.04932E-05-2.91682E-05-7.94098E-07 3.97223E-19-2.36495E-19
 -1      2410 9.89887E-05-3.10625E-05-2.91082E-05-1.06170E-06-1.16864E-19 1.38769E-20
 -1      2411 9.80947E-05-2.99437E-05-2.92036E-05 4.53835E-07-9.89845E-19 9.48455E-19
 -1      2412 9.82122E-05-3.01149E-05-2.92019E-05 1.28209E-07-4.22479E-19 8.83067E-19
 -1      2413 9.84664E-05-3.05211E-05-2.91193E-05 4.95284E-08-6.35492E-19 1.27406E-18
 -1      2414 9.76501E-05-2.95712E-05-2.91731E-05 9.03932E-07-7.98644E-19 1.17783E-18
 -1      2415 9.78238E-05-2.97339E-05-2.91932E-05 7.17643E-07-8.83639E-19 1.04917E-18
 -1      2416 9.79063E-05-2.99850E-05-2.91106E-05 7.75455E-07-7.88834E-19 8.17431E-19
 -1      2417 9.72097E-05-2.92618E-05-2.91176E-05 1.10860E-06-9.58531E-20 1.07230E-18
 -1      2418 9.74050E-05-2.94003E-05-2.91517E-05 1.02964E-06-3.58724E-19 1.30552E-18
 -1      2419 9.73778E-05-2.95255E-05-2.90817E-05 1.17410E-06-7.58725E-19 1.20629E-18
 -1      2420 9.68061E-05-2.90232E-05-2.90476E-05 1.14101E-06 1.12460E-18 4.62667E-19
 -1      2421 9.69999E-05-2.91329E-05-2.90889E-05 1.13613E-06 8.56926E-19 4.53364E-19
 -1      2422 9.69140E-05-2.91678E-05-2.90365E-05 1.32621E-06 5.56394E-19 2.05771E-19
 -1      2423 9.64547E-05-2.88493E-05-2.89720E-05 1.06551E-06 3.53343E-19 8.56287E-19
 -1      2424 9.66329E-05-2.89318E-05-2.90152E-05 1.10602E-06 6.06907E-19 5.21319E-19
 -1      2425 9.65253E-05-2.89092E-05-2.89807E-05 1.31124E-06 8.92588E-19 6.39350E-19
 -1      2426 9.61598E-05-2.87287E-05-2.88978E-05 9.32135E-07-8.82417E-19 7.24019E-19
 -1      2427 9.63152E-05-2.87880E-05-2.89390E-05 9.96051E-07 2.21929E-19 9.20380E-19
 -1      2428 9.62093E-05-2.87342E-05-2.89201E-05 1.19580E-06 1.29508E-19 1.01256E-18
 -1      2429 9.59196E-05-2.86488E-05-2.88294E-05 7.76292E-07-2.73567E-20 1.05643E-18
 -1      2430 9.60496E-05-2.86897E-05-2.88664E-05 8.48301E-07-8.68912E-19 8.06697E-19
 -1      2431 9.59582E-05-2.86234E-05-2.88597E-05 1.03010E-06-8.32529E-19 9.10153E-19
 -1      2432 9.57288E-05-2.85984E-05-2.87695E-05 6.20832E-07 3.79601E-19 1.48376E-18
 -1      2433 9.58339E-05-2.86256E-05-2.88011E-05 6.91236E-07 4.12039E-19 1.68782E-18
 -1      2434 9.57621E-05-2.85588E-05-2.88032E-05 8.48779E-07-1.22153E-19 5.00792E-19
 -1      2435 9.55807E-05-2.85686E-05-2.87189E-05 4.78940E-07-9.89567E-20 1.54059E-18
 -1      2436 9.56632E-05-2.85858E-05-2.87450E-05 5.42302E-07 4.74076E-19 1.50859E-18
 -1      2437 9.56115E-05-2.85253E-05-2.87527E-05 6.73600E-07 3.80120E-19 1.79159E-18
 -1      2438 9.54684E-05-2.85525E-05-2.86778E-05 3.56951E-07 1.02698E-19 1.12048E-18
 -1      2439 9.55312E-05-2.85627E-05-2.86985E-05 4.10809E-07 2.85530E-20 1.15986E-18
 -1      2440 9.54975E-05-2.85117E-05-2.87094E-05 5.16666E-07 3.17281E-19 1.71305E-18
 -1      2441 9.53852E-05-2.85452E-05-2.86454E-05 2.56695E-07 9.82134E-19 1.09968E-18
 -1      2442 9.54317E-05-2.85507E-05-2.86614E-05 3.00513E-07 4.46172E-19 1.06916E-18
 -1      2443 9.54125E-05-2.85100E-05-2.86736E-05 3.83341E-07 7.78654E-19 2.68831E-19
 -1      2444 9.53252E-05-2.85433E-05-2.86206E-05 1.77300E-07 8.47531E-19 3.87505E-19
 -1      2445 9.53585E-05-2.85457E-05-2.86325E-05 2.11666E-07 1.20436E-18 8.71777E-19
 -1      2446 9.53504E-05-2.85147E-05-2.86447E-05 2.74651E-07 1.01897E-18 4.21996E-19
 -1      2447 9.52832E-05-2.85445E-05-2.86021E-05 1.16453E-07 2.23545E-19 1.18902E-18
 -1      2448 9.53062E-05-2.85449E-05-2.86107E-05 1.42533E-07 8.18096E-19 7.79556E-19
 -1      2449 9.53058E-05-2.85223E-05-2.86222E-05 1.89061E-07 7.01922E-19 6.21696E-20
 -1      2450 9.52548E-05-2.85472E-05-2.85888E-05 7.12497E-08 3.79212E-19 3.13503E-19
 -1      2451 9.52700E-05-2.85466E-05-2.85948E-05 9.04206E-08 1.62977E-19 7.98242E-19
 -1      2452 9.52747E-05-2.85308E-05-2.86050E-05 1.23734E-07 2.05721E-19 4.25276E-19
 -1      2453 9.52367E-05-2.85507E-05-2.85796E-05 3.87125E-08 1.37902E-18-8.88402E-19
 -1      2454 9.52460E-05-2.85494E-05-2.85836E-05 5.23470E-08 1.02862E-18 1.78876E-19
 -1      2455 9.52536E-05-2.85390E-05-2.85924E-05 7.53477E-08 8.23228E-19 2.94296E-19
 -1      2456 9.52260E-05-2.85542E-05-2.85735E-05 1.60890E-08 1.04402E-18-9.72582E-19
 -1      2457 9.52311E-05-2.85526E-05-2.85760E-05 2.54327E-08 1.16016E-18-1.32786E-19
 -1      2458 9.52399E-05-2.85463E-05-2.85833E-05 4.06004E-08 9.12773E-19 1.13379E-18
 -1      2459 9.52205E-05-2.85576E-05-2.85698E-05 9.94008E-10-1.71472E-19-1.15343E-18
 -1      2460 9.52227E-05-2.85559E-05-2.85711E-05 7.11114E-09 7.75814E-19-4.80592E-19
 -1      2461 9.52317E-05-2.85525E-05-2.85771E-05 1.64868E-08 5.59135E-19 1.69540E-18
 -1      2462 9.52186E-05-2.85606E-05-2.85677E-05-8.54105E-09 3.08543E-20-1.47376E-18
 -1      2463 9.52189E-05-2.85590E-05-2.85683E-05-4.78317E-09-3.79080E-19-1.58463E-18
 -1      2464 9.52273E-05-2.85575E-05-2.85729E-05 4.29374E-10 1.52116E-19 1.92611E-18
 -1      2465 9.52190E-05-2.85632E-05-2.85667E-05-1.40739E-08 3.42395E-19-2.92295E-19
 -1      2466 9.52181E-05-2.85618E-05-2.85668E-05-1.19979E-08 2.73860E-19-1.37113E-18
 -1      2467 9.52255E-05-2.85615E-05-2.85704E-05-9.68461E-09 2.12913E-19 8.79877E-19
 -1      2468 9.52210E-05-2.85655E-05-2.85666E-05-1.67847E-08 3.47101E-19-5.40802E-19
 -1      2469 9.52193E-05-2.85642E-05-2.85664E-05-1.58859E-08 2.74269E-19-1.05426E-18
 -1      2470 9.52255E-05-2.85647E-05-2.85690E-05-1.55170E-08 4.03499E-19 4.43191E-19
 -1      2471 9.52237E-05-2.85675E-05-2.85669E-05-1.75214E-08 5.69912E-19-9.42588E-19
 -1      2472 9.52216E-05-2.85664E-05-2.85665E-05-1.74461E-08 3.54830E-19-1.28562E-18
 -1      2473 9.52266E-05-2.85672E-05-2.85684E-05-1.83208E-08 5.53640E-19-5.86357E-19
 -1      2474 9.52268E-05-2.85694E-05-2.85675E-05-1.68449E-08-3.80685E-20 3.16689E-19
 -1      2475 9.52246E-05-2.85683E-05-2.85670E-05-1.73703E-08 4.93899E-19-7.22643E-20
 -1      2476 9.52283E-05-2.85693E-05-2.85682E-05-1.89929E-08-4.89421E-19-7.06674E-20
 -1      2477 9.52300E-05-2.85711E-05-2.85681E-05-1.50794E-08 4.04453E-19-5.20646E-19
 -1      2478 9.52279E-05-2.85701E-05-2.85676E-05-1.60863E-08 3.72752E-19 3.42431E-19
 -1      2479 9.52304E-05-2.85711E-05-2.85683E-05-1.81251E-08 3.84695E-19 8.43107E-19
 -1      2480 9.52330E-05-2.85728E-05-2.85687E-05-1.23909E-08 1.09035E-18-1.35565E-19
 -1      2481 9.52311E-05-2.85718E-05-2.85683E-05-1.37887E-08 8.10234E-19-2.98267E-19
 -1      2482 9.52327E-05-2.85729E-05-2.85685E-05-1.60584E-08 5.29961E-19 6.49174E-19
 -1      2483 9.52440E-05-2.85859E-05-2.85677E-05-1.02544E-08 4.89805E-19 1.16199E-18
 -1      2484 9.52430E-05-2.85844E-05-2.85680E-05-1.13610E-08-3.33469E-19 2.29843E-18
 -1      2485 9.52420E-05-2.85832E-05-2.85681E-05-1.23463E-08-1.06210E-19 3.33658E-18
 -1      2486 9.52408E-05-2.85814E-05-2.85683E-05-1.28081E-08 4.31217E-19 3.20149E-18
 -1      2487 9.52426E-05-2.85825E-05-2.85687E-05-1.32691E-08 2.46855E-19 3.29707E-18
 -1      2488 9.52395E-05-2.85799E-05-2.85684E-05-1.30216E-08 1.84089E-19 2.04390E-18
 -1      2489 9.52381E-05-2.85780E-05-2.85687E-05-1.26996E-08 1.19508E-18 2.58959E-19
 -1      2490 9.52399E-05-2.85796E-05-2.85687E-05-1.45471E-08 2.53531E-19 2.04541E-18
 -1      2491 9.52454E-05-2.85879E-05-2.85675E-05-7.10170E-09 6.48715E-19 1.16754E-18
 -1      2492 9.52447E-05-2.85868E-05-2.85677E-05-8.67089E-09 1.25760E-20 1.23067E-18
 -1      2493 9.52447E-05-2.85847E-05-2.85686E-05-1.05680E-08 5.63132E-19 1.13272E-18
 -1      2494 9.52462E-05-2.85890E-05-2.85673E-05-3.28172E-09 7.49095E-19-1.12406E-19
 -1      2495 9.52458E-05-2.85885E-05-2.85674E-05-5.12844E-09 6.00675E-19-4.55765E-19
 -1      2496 9.52461E-05-2.85863E-05-2.85685E-05-6.82763E-09-5.29198E-19 6.81917E-19
 -1      2497 9.52464E-05-2.85893E-05-2.85673E-05 8.47567E-10 1.59513E-20 2.95498E-18
 -1      2498 9.52463E-05-2.85893E-05-2.85673E-05-1.10158E-09 4.91674E-20 1.28268E-18
 -1      2499 9.52469E-05-2.85872E-05-2.85685E-05-2.45645E-09 4.81299E-19 1.27412E-20
 -1      2500 9.52459E-05-2.85886E-05-2.85674E-05 4.92483E-09-1.72714E-18 4.96926E-19
 -1      2501 9.52463E-05-2.85891E-05-2.85673E-05 3.04818E-09-1.51285E-18 2.25923E-18
 -1      2502 9.52469E-05-2.85873E-05-2.85685E-05 2.15285E-09-7.90011E-20 1.54882E-18
 -1      2503 9.52449E-05-2.85871E-05-2.85676E-05 8.51839E-09-1.54637E-18-3.99529E-19
 -1      2504 9.52455E-05-2.85881E-05-2.85674E-05 6.92186E-09-2.40167E-18-4.81248E-19
 -1      2505 9.52463E-05-2.85866E-05-2.85685E-05 6.57101E-09-2.62881E-18 4.20465E-19
 -1      2506 9.52432E-05-2.85847E-05-2.85679E-05 1.13516E-08 1.70721E-18 4.56588E-18
 -1      2507 9.52442E-05-2.85861E-05-2.85677E-05 1.01760E-08 1.96630E-19 8.64159E-19
 -1      2508 9.52450E-05-2.85851E-05-2.85686E-05 1.04268E-08-3.60020E-19 2.08047E-18
 -1      2509 9.52409E-05-2.85816E-05-2.85683E-05 1.29299E-08 1.84867E-18 1.86870E-18
 -1      2510 9.52422E-05-2.85834E-05-2.85680E-05 1.24198E-08 1.78680E-18 4.74512E-18
 -1      2511 9.52429E-05-2.85828E-05-2.85686E-05 1.33093E-08 1.00901E-18 4.50544E-18
 -1      2512 9.52383E-05-2.85784E-05-2.85686E-05 1.29236E-08 1.49559E-18-1.41745E-18
 -1      2513 9.52398E-05-2.85803E-05-2.85683E-05 1.32422E-08 2.14503E-18 5.19189E-19
 -1      2514 9.52402E-05-2.85801E-05-2.85687E-05 1.47212E-08 7.90060E-19 1.61345E-18
 -1      2515 9.52372E-05-2.85771E-05-2.85687E-05 1.45989E-08 6.42939E-19-3.63649E-18
 -1      2516 1.71404E-04-5.15402E-05-5.15458E-05-1.49952E-05-3.62774E-18-4.88738E-19
 -1      2517 1.61571E-04-5.83516E-05-4.44202E-05-8.34315E-06-2.39877E-18 1.90582E-19
 -1      2518 9.72205E-05-1.98261E-05-3.32039E-05-7.59521E-06-2.62445E-18-1.02907E-18
 -1      2519 9.82170E-05-2.30830E-05-3.21968E-05-3.19445E-06-2.32188E-18-9.01156E-19
 -1      2520 9.63404E-05-2.12929E-05-3.21678E-05-2.23558E-06-2.16929E-18-1.32300E-18
 -1      2521 9.42722E-05-1.67913E-05-3.32244E-05-7.13992E-06-2.50217E-18-1.79321E-18
 -1      2522 1.27845E-04-5.65784E-05-3.08485E-05 3.31738E-05 4.45328E-19-2.50086E-19
 -1      2523 1.12697E-04-5.56506E-05-2.44380E-05 3.92697E-05 4.73280E-19 3.42519E-19
 -1      2524 1.10402E-04-5.60483E-05-2.30492E-05 4.00061E-05-6.23840E-19-5.00014E-19
 -1      2525 1.47979E-04-4.80971E-05-4.33413E-05 9.36060E-06 2.34677E-18-2.54152E-18
 -1      2526 1.39916E-04-5.40719E-05-3.68160E-05 1.83820E-05 8.19451E-19-1.54816E-18
 -1      2527 3.86626E-05-3.03577E-05-3.33476E-06-2.84734E-05 1.59920E-18 5.97497E-18
 -1      2528 5.51794E-05-3.88072E-05-7.02763E-06-3.66478E-05 7.66988E-19 6.69791E-18
 -1      2529 1.46522E-04-6.36653E-05-3.55089E-05-1.41443E-06 1.25774E-18-3.81392E-18
 -1      2530 1.38944E-04-6.06624E-05-3.32711E-05-9.78637E-06 2.25533E-18-3.17886E-18
 -1      2531 9.52362E-05-2.85759E-05-2.85687E-05-1.29418E-08 8.54413E-19 3.94935E-19
 -1      2532 8.33078E-05-7.70523E-06-3.24192E-05-2.72364E-06 1.23917E-19-3.62053E-18
 -1      2533 8.31894E-05-7.59551E-06-3.24354E-05-3.33364E-06-1.51170E-19-3.68954E-18
 -1      2534 8.40275E-05-9.08865E-06-3.21061E-05-3.50971E-06-2.66619E-19-3.42706E-18
 -1      2535 8.43948E-05-9.51476E-06-3.20899E-05-2.73616E-06 1.31690E-19-3.38725E-18
 -1      2536 1.47195E-04-1.16000E-05-5.86586E-05-3.75797E-06 5.16923E-18-2.28360E-18
 -1      2537 1.46569E-04-1.68553E-05-5.61234E-05-5.47198E-06 4.71247E-18-2.32383E-18
 -1      2538 1.52146E-04-2.74891E-05-5.40038E-05-2.62879E-06 4.42109E-18-3.02115E-18
 -1      2539 1.50139E-04-3.57276E-05-4.93053E-05 7.53538E-07 3.69497E-18-3.12026E-18
 -1      2540 1.50175E-04-1.00653E-05-6.05733E-05 1.90310E-06 5.33843E-18-1.53842E-18
 -1      2541 1.48273E-04-8.45792E-06-6.05533E-05-5.43795E-08 5.61922E-18-1.67114E-18
 -1      2542 1.46324E-04-1.94193E-05-5.48865E-05 6.38031E-06 4.75927E-18-9.64982E-19
 -1      2543 1.50761E-04-1.46302E-05-5.87534E-05 4.07266E-06 4.90898E-18-1.58099E-18
 -1      2544 1.37251E-04-9.44932E-06-5.50234E-05 5.74684E-06 5.11523E-18-6.98379E-19
 -1      2545 1.47844E-04-4.47504E-05-4.42836E-05-3.46157E-06 2.38456E-18-2.01382E-19
 -1      2546 1.49377E-04-3.40627E-05-5.01529E-05 3.43445E-06 3.62964E-18-2.01806E-19
 -1      2547 1.32712E-04-5.71369E-05-3.23983E-05-2.72088E-05 4.63539E-19-1.69322E-18
 -1      2548 1.43352E-04-5.43721E-05-3.86998E-05-1.80169E-05 1.40502E-18-3.98317E-19
 -1      2549 1.05282E-04-5.51692E-05-2.12383E-05-4.19104E-05-7.37977E-19-2.75323E-18
 -1      2550 1.21196E-04-5.73881E-05-2.74713E-05-3.76039E-05-1.23032E-19-2.50150E-18
 -1      2551 1.30029E-04-5.99904E-05-2.97903E-05-2.74221E-05-1.15218E-18-8.33692E-19
 -1      2552 6.26750E-05-4.06151E-05-9.24551E-06-4.58821E-05-1.10750E-18-4.86155E-18
 -1      2553 8.21428E-05-4.69012E-05-1.51620E-05-4.86503E-05-8.02564E-19-3.69936E-18
 -1      2554 3.34310E-05-2.60574E-05-2.83300E-06-3.40107E-05-1.16001E-18-6.01986E-18
 -1      2555 4.68360E-05-3.25039E-05-5.93709E-06-4.31458E-05-8.38774E-19-5.57348E-18
 -1      2556 6.20149E-05-3.50793E-05-1.10448E-05-4.44590E-05-1.95538E-18-4.68367E-18
 -1      2557 1.82031E-05-1.59679E-05-6.30578E-07-6.92365E-06-5.66943E-19-6.74238E-18
 -1      2558 2.25851E-05-1.97169E-05-9.17252E-07-2.26849E-05-4.90326E-19-6.75763E-18
 -1      2559 3.44061E-05-2.37844E-05-4.21282E-06 2.65988E-05 1.45690E-19-6.17783E-18
 -1      2560 2.28949E-05-1.75083E-05-1.81013E-06 1.07738E-05 2.08794E-19-6.29091E-18
 -1      2561 7.12339E-05-4.50115E-05-1.11386E-05 4.04785E-05 8.59738E-20-5.04683E-18
 -1      2562 5.41932E-05-3.54586E-05-7.71967E-06 3.58583E-05 7.82658E-19-5.18787E-18
 -1      2563 1.11672E-04-6.00777E-05-2.23167E-05 3.51754E-05-2.49451E-19-1.96608E-18
 -1      2564 8.94379E-05-5.28021E-05-1.57469E-05 3.76051E-05 2.91803E-19-3.53446E-18
 -1      2565 9.00662E-05-4.86840E-05-1.76307E-05 3.79132E-05 1.57082E-18-2.83873E-18
 -1      2566 1.50585E-04-6.72213E-05-3.60213E-05 9.85704E-06-1.18733E-18-2.88203E-19
 -1      2567 1.31044E-04-6.57074E-05-2.81160E-05 2.24607E-05-5.52054E-19-1.18627E-18
 -1      2568 1.66007E-04-2.41466E-05-6.08326E-05-6.19482E-06-6.13802E-18-5.18490E-19
 -1      2569 1.66701E-04-3.01092E-05-5.90376E-05-1.50511E-05-6.17021E-18-2.21076E-19
 -1      2570 1.57253E-04-6.47543E-05-3.98986E-05 1.67458E-07-1.34742E-18-2.95382E-18
 -1      2571 1.67938E-04-5.92953E-05-4.69132E-05 7.39252E-06-3.68482E-18-4.02934E-18
 -1      2572 1.25539E-04-6.43956E-05-2.59808E-05-2.46632E-05 1.14836E-18 9.65194E-19
 -1      2573 1.44218E-04-6.78337E-05-3.31497E-05-1.57173E-05 4.98267E-19-1.42810E-18
 -1      2574 7.57041E-05-4.85780E-05-1.16423E-05-3.70898E-05 8.41104E-19 5.33313E-18
 -1      2575 9.99253E-05-5.70655E-05-1.87451E-05-3.69951E-05 8.13152E-19 3.83648E-18
 -1      2576 2.40928E-05-2.12160E-05-1.01803E-06 2.75870E-05-1.30485E-18 4.82893E-18
 -1      2577 1.78630E-05-1.95372E-05 1.01535E-06 1.47905E-05-1.16404E-18 4.98691E-18
 -1      2578 1.56758E-04-6.53519E-05-3.93508E-05-2.25046E-06-1.19416E-18 6.92873E-19
 -1      2579 1.47559E-04-6.42469E-05-3.56602E-05 2.41188E-06-8.12093E-20 1.48750E-18
 -1      2580 8.68300E-05-1.11685E-05-3.23962E-05-4.22166E-06-1.26328E-18-3.20171E-18
 -1      2581 8.66486E-05-1.01436E-05-3.28561E-05-5.14258E-06-1.40596E-18-3.31382E-18
 -1      2582 8.82352E-05-1.12724E-05-3.30249E-05-5.82366E-06-1.80998E-18-3.10819E-18
 -1      2583 1.35184E-04-5.77167E-05-3.30556E-05 2.10465E-05-2.10170E-19-1.92615E-18
 -1      2584 9.87586E-05-2.73174E-05-3.05870E-05 4.28434E-06 1.98031E-18 2.84752E-18
 -1      2585 9.85513E-05-2.62322E-05-3.09706E-05 5.22636E-06 2.25289E-18 2.07006E-18
 -1      2586 9.82209E-05-2.76383E-05-3.02278E-05 3.08731E-06 1.92276E-18 2.34473E-18
 -1      2587 1.08650E-04-5.13419E-05-2.44114E-05 3.12882E-05 1.92891E-18-9.31524E-19
 -1      2588 1.24655E-04-5.65070E-05-2.90012E-05 2.10817E-05 1.48167E-18 3.12939E-19
 -1      2589 1.66954E-04-3.06112E-05-5.81311E-05 1.52323E-05-6.27058E-18-2.02314E-18
 -1      2590 1.66528E-04-4.41746E-05-5.32650E-05 2.17722E-05-4.72581E-18-3.87793E-18
 -1      2591 4.62015E-05-2.68887E-05-8.16364E-06 4.03621E-05-2.19879E-18 4.64746E-18
 -1      2592 3.49592E-05-2.43559E-05-4.08284E-06 3.44166E-05-1.85754E-18 4.63158E-18
 -1      2593 3.35049E-05-1.77157E-05-6.21681E-06 2.88988E-05-2.43744E-18 4.35883E-18
 -1      2594 1.39535E-04-6.12726E-05-3.36647E-05 1.06244E-05 1.11655E-18 1.04414E-18
 -1      2595 1.67652E-04-2.36660E-05-6.17413E-05 5.65264E-06-6.15666E-18-1.36955E-18
 -1      2596 1.61732E-04-5.42235E-05-4.60004E-05 1.97826E-05-3.08902E-18-5.14255E-18
 -1      2597 1.58572E-04-6.35410E-05-4.11426E-05 1.24438E-05-7.37289E-19-5.56924E-18
 -1      2598 1.24130E-04-5.69337E-05-2.90497E-05-2.10068E-05 2.58414E-18-1.06941E-18
 -1      2599 9.52362E-05-2.85758E-05-2.85687E-05-1.48137E-08 1.27560E-18 6.16043E-19
 -1      2600 1.69033E-04-3.59940E-05-5.66512E-05-1.42823E-05-5.89577E-18-7.12143E-19
 -1      2601 9.19431E-05-1.47704E-05-3.31274E-05-6.33889E-06-2.17054E-18-2.40075E-18
 -1      2602 9.78380E-05-2.82096E-05-2.98209E-05 1.66399E-06 1.51096E-18 1.71212E-18
 -1      2603 9.80740E-05-2.79131E-05-3.00300E-05 2.39301E-06 1.66886E-18 2.03938E-18
 -1      2604 9.81756E-05-2.74068E-05-3.03400E-05 2.97034E-06 1.81432E-18 1.41246E-18
 -1      2605 9.81288E-05-2.81900E-05-2.99964E-05 1.71887E-06 1.49928E-18 1.04549E-18
 -1      2606 7.42239E-05-4.24611E-05-1.31980E-05 4.76887E-05-7.42213E-19 2.35899E-18
 -1      2607 2.15534E-05-1.55567E-05-2.05475E-06 6.74427E-06-7.10634E-19 4.07380E-18
 -1      2608 3.06122E-05-1.69997E-05-5.34970E-06-1.71769E-05 1.04302E-18 4.86599E-18
 -1      2609 3.42521E-05-2.44418E-05-3.85752E-06-2.31936E-05 1.32762E-18 5.43160E-18
 -1      2610 4.72049E-05-2.53672E-05-8.91036E-06-2.88974E-05 1.96660E-18 5.46908E-18
 -1      2611 1.45327E-04-4.37307E-05-4.37344E-05-4.43571E-07 2.24983E-18-3.77036E-18
 -1      2612 7.30334E-05-4.23992E-05-1.27134E-05-3.70179E-05 2.05850E-18 5.14435E-18
 -1      2613 1.40883E-04-2.12274E-05-5.15592E-05-8.29968E-06 3.84701E-18-2.84296E-18
 -1      2614 1.17097E-04-5.99450E-05-2.41478E-05-2.84828E-05 1.93060E-18 9.38648E-19
 -1      2615 1.51170E-04-6.64664E-05-3.64093E-05-1.41354E-06 5.51207E-19-3.34578E-18
 -1      2616 1.28075E-04-6.30365E-05-2.73922E-05 2.34560E-05 9.15643E-19-7.81229E-19
 -1      2617 5.16650E-05-2.78154E-05-9.71703E-06 3.09284E-05 1.16488E-18-5.34012E-18
 -1      2618 3.55469E-05-1.98086E-05-6.14633E-06-2.88261E-05-1.42206E-18-6.19838E-18
 -1      2619 9.87199E-05-5.22020E-05-1.95984E-05-4.35605E-05-1.82684E-18-2.61597E-18
 -1      2620 1.41551E-04-2.77891E-05-4.90970E-05 9.00039E-06 3.32153E-18 8.62915E-20
 -1      2621 1.67791E-04-5.02504E-05-5.05264E-05 1.76357E-05-4.56699E-18-3.95226E-18
 -1      2622 1.68883E-04-2.72922E-05-6.07186E-05 1.30127E-05-6.43406E-18-1.41285E-18
 -1      2623 1.35616E-04-7.89921E-06-5.50324E-05-3.79976E-06 5.03476E-18-1.25398E-18
 -1      2624 1.43664E-04-5.09536E-05-3.97187E-05-5.68432E-06 8.94943E-19 4.08905E-19
 -1      2625 2.77174E-05-1.37337E-05-5.32448E-06 2.09219E-06-1.19114E-21-6.47345E-18
 -1      2626 8.87682E-05-1.42679E-05-3.19339E-05-8.07502E-08 1.11502E-18-2.74694E-18
 -1      2627 8.78252E-05-1.35068E-05-3.18770E-05-9.95966E-07 8.57082E-19-2.92884E-18
 -1      2628 8.68561E-05-1.26038E-05-3.18217E-05-1.74711E-06 6.77980E-19-3.10427E-18
 -1      2629 8.60451E-05-1.19758E-05-3.17748E-05-2.47057E-06 4.67860E-19-3.10655E-18
 -1      2630 8.83796E-05-1.48709E-05-3.15022E-05-2.04528E-06 6.90662E-19-2.87838E-18
 -1      2631 9.29445E-05-1.82227E-05-3.20567E-05 3.91914E-06 1.99162E-18-1.53160E-18
 -1      2632 9.18819E-05-1.71607E-05-3.20424E-05 2.88507E-06 1.78032E-18-1.90603E-18
 -1      2633 9.51658E-05-2.07304E-05-3.19601E-05 5.58485E-06 2.29465E-18-6.53421E-19
 -1      2634 9.40342E-05-1.93738E-05-3.20085E-05 4.74297E-06 2.05461E-18-1.14199E-18
 -1      2635 9.46526E-05-2.08324E-05-3.16212E-05 3.26364E-06 1.85029E-18-1.17859E-18
 -1      2636 9.83901E-05-2.54586E-05-3.12491E-05 5.74851E-06 2.31749E-18 1.48959E-18
 -1      2637 9.76725E-05-2.41361E-05-3.15435E-05 6.31156E-06 2.51733E-18 8.81947E-19
 -1      2638 9.81272E-05-2.61759E-05-3.08197E-05 4.25612E-06 2.16535E-18 1.20049E-18
 -1      2639 9.47694E-05-2.11602E-05-3.15398E-05 9.25757E-07-1.76835E-18-1.54866E-18
 -1      2640 9.45496E-05-2.16707E-05-3.12352E-05 3.32897E-06-1.47014E-18-1.44703E-18
 -1      2641 9.38877E-05-2.18039E-05-3.08940E-05 5.34630E-06-1.19958E-18-1.34237E-18
 -1      2642 9.34680E-05-2.18040E-05-3.07084E-05 7.49549E-06-9.34205E-19-1.28378E-18
 -1      2643 9.19739E-05-1.97267E-05-3.09518E-05 3.63420E-06-1.30426E-18-1.72769E-18
 -1      2644 9.22483E-05-2.14302E-05-3.03720E-05 9.41836E-06-6.92026E-19-1.22675E-18
 -1      2645 9.17753E-05-2.12496E-05-3.02077E-05 1.14596E-05-3.30072E-19-1.14733E-18
 -1      2646 9.00964E-05-1.94802E-05-3.02181E-05 7.50577E-06-8.29815E-19-1.51254E-18
 -1      2647 9.00612E-05-2.07061E-05-2.97646E-05 1.33971E-05-3.22294E-19-1.26969E-18
 -1      2648 8.96495E-05-2.07060E-05-2.95106E-05 1.54276E-05-2.14842E-19-1.42237E-18
 -1      2649 8.72335E-05-1.85941E-05-2.93549E-05 1.11850E-05-4.91540E-19-1.74190E-18
 -1      2650 8.75588E-05-2.04459E-05-2.88079E-05 1.76174E-05 1.08553E-19-1.41650E-18
 -1      2651 8.76324E-05-2.13189E-05-2.83332E-05 1.96799E-05 4.58941E-19-1.57627E-18
 -1      2652 8.34374E-05-1.76875E-05-2.80922E-05 1.50368E-05-8.24567E-20-1.93849E-18
 -1      2653 8.55533E-05-2.21449E-05-2.71668E-05 2.24514E-05 8.61350E-19-1.61278E-18
 -1      2654 8.71549E-05-2.51638E-05-2.63622E-05 2.45536E-05 1.27948E-18-1.71327E-18
 -1      2655 7.91200E-05-1.80633E-05-2.60493E-05 1.96720E-05 5.55624E-19-2.17362E-18
 -1      2656 8.61957E-05-2.85436E-05-2.45322E-05 2.80928E-05 1.66786E-18-1.73102E-18
 -1      2657 9.08308E-05-3.52549E-05-2.34861E-05 3.01877E-05 2.17296E-18-1.66934E-18
 -1      2658 7.54959E-05-2.20909E-05-2.27660E-05 2.61463E-05 1.41402E-18-2.42090E-18
 -1      2659 9.65910E-05-3.90234E-05-2.43535E-05-2.86157E-05 2.78473E-18 9.72341E-19
 -1      2660 9.07063E-05-3.14601E-05-2.51717E-05-2.75134E-05 2.45589E-18 1.03433E-18
 -1      2661 9.06068E-05-2.74096E-05-2.68512E-05-2.40770E-05 2.11565E-18 1.01426E-18
 -1      2662 8.83138E-05-2.39941E-05-2.75355E-05-2.24008E-05 2.29075E-18 1.07405E-18
 -1      2663 7.85772E-05-2.46019E-05-2.29721E-05-2.65556E-05 2.09527E-18 2.93521E-18
 -1      2664 8.99069E-05-2.28238E-05-2.86501E-05-1.95838E-05 1.78135E-18-2.15113E-19
 -1      2665 8.94176E-05-2.18026E-05-2.90197E-05-1.76700E-05 7.45541E-19-1.15805E-19
 -1      2666 8.08389E-05-1.95965E-05-2.61251E-05-2.01239E-05 1.38771E-18 1.54114E-18
 -1      2667 9.12323E-05-2.21072E-05-2.95813E-05-1.56701E-05 2.36302E-19-1.61239E-19
 -1      2668 9.13189E-05-2.21877E-05-2.96772E-05-1.39559E-05-1.02443E-19 5.77974E-19
 -1      2669 8.45265E-05-1.90415E-05-2.79799E-05-1.55979E-05 6.58841E-19 4.81561E-19
 -1      2670 9.28414E-05-2.29407E-05-2.99306E-05-1.23984E-05-1.30197E-18 7.03896E-19
 -1      2671 9.29918E-05-2.33663E-05-2.98816E-05-1.09002E-05-1.10017E-18-6.59925E-21
 -1      2672 8.78992E-05-2.02909E-05-2.89105E-05-1.23283E-05-4.39775E-19 1.06459E-18
 -1      2673 9.41189E-05-2.41623E-05-2.99596E-05-9.65356E-06-4.27853E-19-3.52056E-19
 -1      2674 9.41904E-05-2.46277E-05-2.98445E-05-8.40944E-06-7.25700E-19-9.37959E-19
 -1      2675 9.05325E-05-2.20051E-05-2.93219E-05-9.73562E-06-1.19894E-18 7.57135E-19
 -1      2676 9.49574E-05-2.53062E-05-2.98313E-05-7.40968E-06-1.45594E-18-9.58111E-19
 -1      2677 9.49408E-05-2.57011E-05-2.96972E-05-6.41405E-06-1.28306E-18-1.54597E-18
 -1      2678 9.23974E-05-2.36236E-05-2.94423E-05-7.62399E-06-1.27336E-18-6.83283E-19
 -1      2679 9.54308E-05-2.62257E-05-2.96426E-05-5.61971E-06-3.26343E-19-1.04650E-18
 -1      2680 9.53553E-05-2.65272E-05-2.95140E-05-4.84358E-06 8.75434E-19-6.32246E-19
 -1      2681 9.36307E-05-2.49524E-05-2.94129E-05-5.90625E-06-7.14521E-19-1.23757E-19
 -1      2682 9.56513E-05-2.69122E-05-2.94455E-05-4.22008E-06 3.62439E-19-5.61897E-19
 -1      2683 9.55475E-05-2.71303E-05-2.93328E-05-3.62580E-06 1.01747E-20-4.39913E-19
 -1      2684 9.44017E-05-2.59684E-05-2.93162E-05-4.52599E-06 6.98006E-19-6.37555E-19
 -1      2685 9.57161E-05-2.74047E-05-2.92648E-05-3.14189E-06-2.71392E-19-1.26725E-19
 -1      2686 9.56063E-05-2.75582E-05-2.91711E-05-2.69226E-06-2.00503E-19 3.57824E-19
 -1      2687 9.48586E-05-2.67149E-05-2.91976E-05-3.43274E-06-2.70445E-20-3.11645E-19
 -1      2688 9.56953E-05-2.77508E-05-2.91099E-05-2.32026E-06-6.47653E-19-6.25547E-20
 -1      2689 9.55927E-05-2.78576E-05-2.90345E-05-1.98278E-06-1.01513E-18-3.22197E-19
 -1      2690 9.51132E-05-2.72513E-05-2.90802E-05-2.57799E-06-5.01488E-19-2.57101E-19
 -1      2691 9.56344E-05-2.79918E-05-2.89824E-05-1.69906E-06-5.05788E-19-3.68220E-20
 -1      2692 9.55452E-05-2.80660E-05-2.89231E-05-1.44720E-06 3.56660E-20-2.04901E-19
 -1      2693 9.52438E-05-2.76325E-05-2.89748E-05-1.91694E-06-7.91634E-19 6.09141E-19
 -1      2694 9.55602E-05-2.81596E-05-2.88804E-05-1.23231E-06-7.21598E-19-8.07236E-19
 -1      2695 9.54866E-05-2.82114E-05-2.88345E-05-1.04525E-06-1.55223E-18-1.63263E-18
 -1      2696 9.53017E-05-2.79023E-05-2.88851E-05-1.41037E-06-1.12996E-18 2.36133E-19
 -1      2697 9.54876E-05-2.82769E-05-2.88003E-05-8.83591E-07-1.68649E-18-1.57465E-18
 -1      2698 9.54290E-05-2.83135E-05-2.87653E-05-7.45318E-07-1.93200E-18-2.39427E-18
 -1      2699 9.53196E-05-2.80937E-05-2.88114E-05-1.02532E-06-1.65250E-18-7.16622E-19
 -1      2700 9.54235E-05-2.83597E-05-2.87384E-05-6.24579E-07-1.50396E-18-1.84406E-18
 -1      2701 9.53784E-05-2.83859E-05-2.87121E-05-5.22958E-07-1.89553E-18-1.55517E-18
 -1      2702 9.53170E-05-2.82299E-05-2.87522E-05-7.34968E-07-1.41557E-18-6.89461E-19
 -1      2703 9.53706E-05-2.84187E-05-2.86912E-05-4.33521E-07-2.33509E-18-2.96152E-19
 -1      2704 9.53366E-05-2.84379E-05-2.86716E-05-3.59294E-07-9.13548E-19-4.48072E-19
 -1      2705 9.53056E-05-2.83274E-05-2.87055E-05-5.17856E-07-1.69586E-18 4.93031E-19
 -1      2706 9.53282E-05-2.84624E-05-2.86550E-05-2.90666E-07 1.10414E-20-9.21109E-19
 -1      2707 9.53026E-05-2.84770E-05-2.86400E-05-2.35060E-07 3.44748E-19-1.01766E-18
 -1      2708 9.52910E-05-2.83988E-05-2.86686E-05-3.53951E-07-7.01560E-19 1.58946E-18
 -1      2709 9.52958E-05-2.84934E-05-2.86282E-05-1.88396E-07 1.98819E-19-6.93872E-19
 -1      2710 9.52786E-05-2.85038E-05-2.86180E-05-1.50756E-07 4.11948E-19-9.98652E-19
 -1      2711 9.52772E-05-2.84507E-05-2.86404E-05-2.34219E-07 4.08325E-19 1.51169E-18
 -1      2712 9.52729E-05-2.85157E-05-2.86093E-05-1.17358E-07 9.20048E-19-1.50509E-18
 -1      2713 9.52612E-05-2.85235E-05-2.86020E-05-9.09262E-08 1.69226E-18-1.69398E-18
 -1      2714 9.52656E-05-2.84870E-05-2.86198E-05-1.50400E-07 2.90553E-20 1.66604E-20
 -1      2715 9.52568E-05-2.85321E-05-2.85956E-05-6.75062E-08 1.72396E-18-3.38073E-18
 -1      2716 9.52491E-05-2.85379E-05-2.85906E-05-4.93055E-08 1.12478E-18-3.75855E-18
 -1      2717 9.52563E-05-2.85132E-05-2.86045E-05-9.07807E-08 7.16279E-19-2.69251E-18
 -1      2718 9.52458E-05-2.85441E-05-2.85860E-05-3.32591E-08 1.12057E-18-3.37507E-18
 -1      2719 9.52411E-05-2.85485E-05-2.85826E-05-2.10563E-08 4.76675E-19-2.46363E-18
 -1      2720 9.52494E-05-2.85322E-05-2.85934E-05-4.92041E-08 1.30845E-18-3.48922E-18
 -1      2721 9.52388E-05-2.85528E-05-2.85794E-05-1.03896E-08 6.11990E-19-1.09046E-18
 -1      2722 9.52362E-05-2.85562E-05-2.85772E-05-2.50381E-09 8.74880E-19-8.48590E-19
 -1      2723 9.52443E-05-2.85458E-05-2.85853E-05-2.09287E-08 1.47756E-18-1.69311E-18
 -1      2724 9.52346E-05-2.85592E-05-2.85750E-05 4.29261E-09-5.38237E-19 9.23357E-20
 -1      2725 9.52334E-05-2.85617E-05-2.85736E-05 9.11470E-09-3.10314E-19 2.75798E-19
 -1      2726 9.52409E-05-2.85554E-05-2.85796E-05-2.33296E-09 7.87392E-19 7.49158E-19
 -1      2727 9.52324E-05-2.85638E-05-2.85721E-05 1.31698E-08-2.96161E-19 5.62988E-19
 -1      2728 9.52322E-05-2.85657E-05-2.85714E-05 1.58492E-08-4.02708E-19 1.47475E-19
 -1      2729 9.52386E-05-2.85621E-05-2.85757E-05 9.31959E-09-5.48321E-20 2.75010E-18
 -1      2730 9.52317E-05-2.85672E-05-2.85704E-05 1.79913E-08 2.26132E-20-6.92984E-19
 -1      2731 9.52321E-05-2.85686E-05-2.85701E-05 1.91884E-08 1.03198E-18-6.61601E-19
 -1      2732 9.52373E-05-2.85668E-05-2.85731E-05 1.60660E-08-1.75020E-19 1.86995E-18
 -1      2733 9.52318E-05-2.85696E-05-2.85695E-05 2.00074E-08-7.53624E-19-1.84068E-18
 -1      2734 9.52326E-05-2.85708E-05-2.85693E-05 2.01768E-08-2.07162E-18-1.78929E-18
 -1      2735 9.52366E-05-2.85701E-05-2.85714E-05 1.93881E-08-2.87176E-19 5.45710E-19
 -1      2736 9.52326E-05-2.85716E-05-2.85690E-05 2.00729E-08-2.30327E-18-8.60906E-19
 -1      2737 9.52336E-05-2.85726E-05-2.85690E-05 1.95078E-08-1.37778E-18-1.40330E-18
 -1      2738 9.52364E-05-2.85725E-05-2.85703E-05 2.03242E-08-1.11012E-18 5.01910E-19
 -1      2739 9.52338E-05-2.85733E-05-2.85688E-05 1.87235E-08-1.16355E-18-1.79141E-18
 -1      2740 9.52349E-05-2.85743E-05-2.85688E-05 1.75939E-08 7.99278E-19-2.34330E-18
 -1      2741 9.52367E-05-2.85744E-05-2.85696E-05 1.95772E-08-1.83284E-18 1.02735E-18
 -1      2742 9.52354E-05-2.85750E-05-2.85687E-05 1.68188E-08 6.71033E-19-2.89395E-18
 -1      2743 9.52367E-05-2.85762E-05-2.85688E-05 1.55860E-08 1.99175E-19-4.56461E-18
 -1      2744 9.52385E-05-2.85778E-05-2.85688E-05 1.60119E-08-3.58892E-19 1.05401E-19
 -1      2745 9.52375E-05-2.85760E-05-2.85692E-05 1.79370E-08-7.86278E-19 9.84505E-20
 -1      2746 9.93297E-05-3.08037E-05-2.93909E-05 7.14058E-07 9.20522E-19 5.39793E-19
 -1      2747 9.92023E-05-3.02208E-05-2.95296E-05 5.61320E-07 1.00673E-18 5.05772E-19
 -1      2748 9.99320E-05-3.18299E-05-2.92098E-05 1.64423E-06 7.88967E-19 7.62226E-19
 -1      2749 9.98364E-05-3.14315E-05-2.92909E-05 1.09905E-06 8.34274E-19 6.71060E-19
 -1      2750 1.00433E-04-3.15953E-05-2.95147E-05 7.27054E-07 8.37177E-19 1.48883E-19
 -1      2751 9.87197E-05-2.94372E-05-2.97130E-05 6.58462E-07 1.16269E-18 3.71015E-19
 -1      2752 9.86399E-05-2.87107E-05-2.99313E-05 1.01118E-06 1.19889E-18 3.62468E-19
 -1      2753 9.94108E-05-2.99096E-05-2.98018E-05 5.11984E-07 1.02798E-18 1.19076E-19
 -1      2754 1.00267E-04-3.20977E-05-2.92244E-05 5.02509E-06 3.72499E-19 1.00482E-18
 -1      2755 1.00558E-04-3.23966E-05-2.92114E-05 4.20725E-06 6.60668E-19 1.12599E-18
 -1      2756 9.95217E-05-3.08690E-05-2.94122E-05 6.51003E-06 3.11030E-19 9.35347E-19
 -1      2757 1.00107E-04-3.16480E-05-2.93566E-05 5.95774E-06 3.14739E-19 9.78945E-19
 -1      2758 1.02223E-04-3.29046E-05-2.96885E-05 5.68161E-06 3.99827E-19 1.26052E-18
 -1      2759 9.80731E-05-2.87182E-05-2.96910E-05 6.95311E-06 5.57125E-19 1.20096E-18
 -1      2760 9.88874E-05-2.98850E-05-2.96044E-05 6.98469E-06 3.54456E-19 9.68547E-19
 -1      2761 1.01428E-04-3.11920E-05-3.00750E-05 7.22557E-06 3.81620E-19 9.74451E-19
 -1      2762 9.62695E-05-2.61710E-05-2.99972E-05 5.76057E-06 5.56151E-19 9.99043E-19
 -1      2763 9.70959E-05-2.74028E-05-2.99041E-05 6.57956E-06 7.27735E-19 1.11589E-18
 -1      2764 9.97734E-05-2.84403E-05-3.05539E-05 7.43778E-06 6.05612E-19 1.08811E-18
 -1      2765 9.47920E-05-2.41416E-05-3.02405E-05 2.86116E-06 4.17040E-19 9.50273E-19
 -1      2766 9.53340E-05-2.49833E-05-3.01729E-05 4.39532E-06 3.36435E-19 7.68580E-19
 -1      2767 9.77900E-05-2.54397E-05-3.10117E-05 5.69377E-06 5.14664E-19 3.82910E-19
 -1      2768 9.43207E-05-2.35040E-05-3.03375E-05-1.09899E-06 6.59528E-19 6.21965E-19
 -1      2769 9.43457E-05-2.35874E-05-3.03205E-05 7.72244E-07 6.23518E-19 8.19043E-19
 -1      2770 9.63487E-05-2.33478E-05-3.13116E-05 2.09273E-06 6.75804E-19-3.95748E-20
 -1      2771 9.51397E-05-2.45852E-05-3.02545E-05-4.91471E-06 6.39219E-19 8.83404E-20
 -1      2772 9.46231E-05-2.38673E-05-3.02918E-05-3.26761E-06 9.34749E-19 3.14370E-19
 -1      2773 9.61986E-05-2.31279E-05-3.13475E-05-2.40446E-06 1.03396E-18-3.35696E-19
 -1      2774 9.68626E-05-2.68682E-05-3.00309E-05-7.45755E-06 5.16624E-19-3.40137E-19
 -1      2775 9.60084E-05-2.56690E-05-3.01019E-05-6.46794E-06 4.41966E-19-2.66355E-19
 -1      2776 9.74240E-05-2.48625E-05-3.11068E-05-6.29937E-06 8.12946E-19-5.09957E-20
 -1      2777 9.87507E-05-2.94173E-05-2.97478E-05-8.22782E-06 5.04129E-19-1.32725E-20
 -1      2778 9.78582E-05-2.81898E-05-2.98236E-05-8.03784E-06 5.89407E-19 1.99934E-20
 -1      2779 9.93642E-05-2.77519E-05-3.06757E-05-8.46072E-06 3.59762E-19-2.72661E-19
 -1      2780 1.00143E-04-3.13977E-05-2.94837E-05-7.43856E-06 4.86735E-19-2.17518E-19
 -1      2781 9.94545E-05-3.04928E-05-2.95417E-05-7.89946E-06 4.09258E-19-1.52690E-19
 -1      2782 1.01117E-04-3.06293E-05-3.01813E-05-8.60863E-06 4.93029E-19 1.11659E-19
 -1      2783 1.00757E-04-3.24415E-05-2.92850E-05-5.71014E-06 4.27528E-19 1.89877E-19
 -1      2784 1.00378E-04-3.19867E-05-2.93170E-05-6.54084E-06 5.23169E-19 6.00680E-20
 -1      2785 1.02071E-04-3.26311E-05-2.97361E-05-7.23533E-06 4.85787E-19 4.12674E-20
 -1      2786 1.00658E-04-3.26055E-05-2.91602E-05-3.68985E-06 1.60823E-19-2.00819E-21
 -1      2787 1.00569E-04-3.25477E-05-2.91703E-05-4.61766E-06 4.10088E-19 5.92688E-19
 -1      2788 1.02103E-04-3.34733E-05-2.93988E-05-5.12232E-06 1.85597E-19 8.12857E-19
 -1      2789 1.00084E-04-3.21700E-05-2.90945E-05-1.83660E-06-1.69366E-19-2.49145E-19
 -1      2790 1.00204E-04-3.23726E-05-2.90924E-05-2.67410E-06-1.20479E-21-2.52238E-19
 -1      2791 1.01435E-04-3.33428E-05-2.91787E-05-2.94188E-06 6.45083E-20 5.40076E-19
 -1      2792 9.92910E-05-3.14447E-05-2.90636E-05-3.80697E-07-7.42444E-19 5.22484E-19
 -1      2793 9.95272E-05-3.17687E-05-2.90594E-05-1.03512E-06-2.41870E-19 1.63756E-19
 -1      2794 1.00400E-04-3.26156E-05-2.90542E-05-1.09824E-06-4.45628E-19 3.33869E-19
 -1      2795 9.84669E-05-3.06652E-05-2.90457E-05 6.22717E-07-4.44715E-19 9.79280E-19
 -1      2796 9.87474E-05-3.10088E-05-2.90465E-05 1.72528E-07-5.83640E-19 6.84067E-19
 -1      2797 9.92836E-05-3.16525E-05-2.89919E-05 2.53785E-07-9.39594E-19-1.60005E-19
 -1      2798 9.77209E-05-2.99699E-05-2.90265E-05 1.21920E-06-7.96372E-19 7.55317E-19
 -1      2799 9.79989E-05-3.02748E-05-2.90353E-05 9.52323E-07-3.14912E-19 7.19246E-19
 -1      2800 9.82633E-05-3.07038E-05-2.89618E-05 1.11992E-06-2.35184E-19-5.66834E-19
 -1      2801 9.70982E-05-2.94175E-05-2.89991E-05 1.49651E-06-2.70516E-19 2.88756E-19
 -1      2802 9.73492E-05-2.96599E-05-2.90161E-05 1.37378E-06-8.26102E-19 7.79189E-19
 -1      2803 9.74196E-05-2.99023E-05-2.89430E-05 1.58304E-06-4.60710E-19-1.66117E-19
 -1      2804 9.66051E-05-2.90157E-05-2.89623E-05 1.54865E-06 6.98366E-19 8.36948E-20
 -1      2805 9.68191E-05-2.91929E-05-2.89857E-05 1.52787E-06 2.85915E-19 2.82194E-19
 -1      2806 9.67675E-05-2.92930E-05-2.89233E-05 1.74843E-06-1.50960E-19-2.59054E-19
 -1      2807 9.62279E-05-2.87455E-05-2.89183E-05 1.45794E-06 5.52587E-19 1.21287E-18
 -1      2808 9.64039E-05-2.88659E-05-2.89455E-05 1.50185E-06 7.68402E-19 4.52403E-19
 -1      2809 9.62873E-05-2.88689E-05-2.88980E-05 1.71483E-06 3.34541E-19 8.78084E-20
 -1      2810 9.59460E-05-2.85785E-05-2.88704E-05 1.28855E-06-1.91015E-19 5.63185E-19
 -1      2811 9.60871E-05-2.86544E-05-2.88989E-05 1.36793E-06 3.32842E-19 1.01891E-18
 -1      2812 9.59461E-05-2.85986E-05-2.88665E-05 1.56262E-06 3.68566E-19 7.04662E-19
 -1      2813 9.57388E-05-2.84860E-05-2.88220E-05 1.08630E-06-6.96670E-19 8.48583E-19
 -1      2814 9.58497E-05-2.85295E-05-2.88498E-05 1.18020E-06-6.10300E-19 7.26635E-19
 -1      2815 9.57101E-05-2.84442E-05-2.88306E-05 1.35138E-06-1.91533E-19 5.34901E-19
 -1      2816 9.55880E-05-2.84437E-05-2.87760E-05 8.81267E-07-3.62028E-19 1.07452E-18
 -1      2817 9.56739E-05-2.84653E-05-2.88016E-05 9.75935E-07-6.65848E-19 5.08883E-19
 -1      2818 9.55499E-05-2.83705E-05-2.87929E-05 1.12195E-06-5.98345E-19 8.18188E-19
 -1      2819 9.54791E-05-2.84329E-05-2.87343E-05 6.91329E-07 1.66218E-19 9.71579E-19
 -1      2820 9.55446E-05-2.84404E-05-2.87568E-05 7.78635E-07 7.12834E-20 7.68777E-19
 -1      2821 9.54427E-05-2.83488E-05-2.87558E-05 9.00022E-07 9.53426E-20-4.68368E-19
 -1      2822 9.54010E-05-2.84402E-05-2.86978E-05 5.25588E-07 7.39747E-19 6.66456E-19
 -1      2823 9.54502E-05-2.84393E-05-2.87169E-05 6.01442E-07 5.54021E-19 8.87912E-19
 -1      2824 9.53715E-05-2.83578E-05-2.87211E-05 7.00079E-07 3.03382E-19-6.60335E-19
 -1      2825 9.53454E-05-2.84564E-05-2.86671E-05 3.87251E-07 9.67781E-19-1.51759E-19
 -1      2826 9.53818E-05-2.84512E-05-2.86828E-05 4.50277E-07 9.93757E-19 4.58635E-19
 -1      2827 9.53244E-05-2.83827E-05-2.86901E-05 5.28731E-07 8.15168E-19 3.47083E-19
 -1      2828 9.53062E-05-2.84758E-05-2.86419E-05 2.75868E-07 8.36995E-19 5.80098E-19
 -1      2829 9.53326E-05-2.84688E-05-2.86545E-05 3.26366E-07 1.10354E-18 2.72122E-19
 -1      2830 9.52933E-05-2.84138E-05-2.86633E-05 3.87482E-07 8.18861E-19 8.92207E-19
 -1      2831 9.52789E-05-2.84952E-05-2.86218E-05 1.88946E-07 2.38600E-19 1.49065E-18
 -1      2832 9.52977E-05-2.84878E-05-2.86316E-05 2.28140E-07 2.28201E-19 1.07300E-18
 -1      2833 9.52727E-05-2.84453E-05-2.86408E-05 2.74759E-07 2.03816E-19 1.21262E-18
 -1      2834 9.52602E-05-2.85127E-05-2.86063E-05 1.23044E-07 3.43383E-19 1.15687E-18
 -1      2835 9.52731E-05-2.85057E-05-2.86137E-05 1.52577E-07 6.75657E-19 1.10809E-18
 -1      2836 9.52591E-05-2.84742E-05-2.86225E-05 1.87362E-07 7.27521E-19 1.08351E-18
 -1      2837 9.52477E-05-2.85275E-05-2.85945E-05 7.44782E-08 7.68311E-19 1.22260E-18
 -1      2838 9.52563E-05-2.85215E-05-2.85999E-05 9.60857E-08 5.44656E-19 7.48552E-19
 -1      2839 9.52501E-05-2.84988E-05-2.86080E-05 1.21425E-07 9.42761E-19 1.98097E-18
 -1      2840 9.52397E-05-2.85396E-05-2.85859E-05 3.97387E-08 2.37166E-19 1.60511E-18
 -1      2841 9.52452E-05-2.85345E-05-2.85897E-05 5.50606E-08 6.38601E-19 1.02961E-18
 -1      2842 9.52442E-05-2.85190E-05-2.85968E-05 7.30180E-08 2.72325E-19 1.82879E-18
 -1      2843 9.52349E-05-2.85491E-05-2.85797E-05 1.57088E-08 1.52973E-19 2.02481E-18
 -1      2844 9.52380E-05-2.85450E-05-2.85823E-05 2.61907E-08 2.99914E-19 1.71168E-18
 -1      2845 9.52404E-05-2.85348E-05-2.85883E-05 3.85004E-08 3.08521E-19 1.64721E-18
 -1      2846 9.52323E-05-2.85563E-05-2.85754E-05-2.43914E-10 1.79389E-19 2.61199E-18
 -1      2847 9.52338E-05-2.85531E-05-2.85772E-05 6.61012E-09 3.27750E-19 2.78758E-18
 -1      2848 9.52380E-05-2.85468E-05-2.85821E-05 1.46913E-08 3.35710E-19 1.64242E-18
 -1      2849 9.52312E-05-2.85618E-05-2.85726E-05-1.02535E-08 4.25727E-19 2.06729E-18
 -1      2850 9.52316E-05-2.85593E-05-2.85737E-05-6.05236E-09 7.78143E-20 2.38576E-18
 -1      2851 9.52366E-05-2.85558E-05-2.85776E-05-1.06599E-09 5.20755E-19 2.32019E-18
 -1      2852 9.52311E-05-2.85658E-05-2.85709E-05-1.59849E-08 1.12838E-18 1.12610E-18
 -1      2853 9.52308E-05-2.85639E-05-2.85715E-05-1.36835E-08 9.87374E-19 1.49077E-18
 -1      2854 9.52358E-05-2.85622E-05-2.85745E-05-1.09088E-08 1.13347E-18 2.36542E-18
 -1      2855 9.52317E-05-2.85687E-05-2.85698E-05-1.86850E-08 1.03578E-19 1.13519E-18
 -1      2856 9.52310E-05-2.85672E-05-2.85701E-05-1.77265E-08 6.67671E-19 1.62736E-18
 -1      2857 9.52356E-05-2.85668E-05-2.85724E-05-1.64936E-08 5.01210E-19 2.89009E-18
 -1      2858 9.52327E-05-2.85710E-05-2.85693E-05-1.92423E-08-9.64299E-19 1.15234E-18
 -1      2859 9.52317E-05-2.85698E-05-2.85694E-05-1.92389E-08-3.08428E-19 3.86300E-19
 -1      2860 9.52356E-05-2.85701E-05-2.85710E-05-1.90567E-08 3.83855E-19 3.73276E-18
 -1      2861 9.52340E-05-2.85730E-05-2.85690E-05-1.82380E-08-9.66920E-20 1.75892E-18
 -1      2862 9.52329E-05-2.85719E-05-2.85690E-05-1.89539E-08-5.78261E-19 9.55628E-19
 -1      2863 9.52360E-05-2.85726E-05-2.85700E-05-1.94799E-08-9.24702E-19 2.45222E-18
 -1      2864 9.52356E-05-2.85749E-05-2.85689E-05-1.61006E-08 8.03575E-19 1.29908E-18
 -1      2865 9.52345E-05-2.85739E-05-2.85688E-05-1.73869E-08 4.11991E-19 1.39939E-18
 -1      2866 9.52368E-05-2.85748E-05-2.85694E-05-1.83975E-08 5.85701E-19 2.73526E-18
 -1      2867 9.52378E-05-2.85769E-05-2.85690E-05-1.61644E-08 1.00470E-18 1.24974E-18
 -1      2868 9.52474E-05-2.85850E-05-2.85696E-05-6.22979E-09-2.30186E-19-4.31055E-19
 -1      2869 9.52468E-05-2.85844E-05-2.85696E-05-8.32914E-09 1.04631E-19 2.10359E-19
 -1      2870 8.46199E-05-4.38771E-05-1.73346E-05 4.49211E-05-2.01329E-18 4.48822E-19
 -1      2871 6.47003E-05-3.48950E-05-1.21075E-05 4.46127E-05-2.51177E-18 3.42265E-18
 -1      2872 9.52460E-05-2.85838E-05-2.85695E-05-1.04414E-08-1.79489E-19 1.07522E-18
 -1      2873 9.52449E-05-2.85828E-05-2.85695E-05-1.21049E-08 1.55920E-19 1.82135E-18
 -1      2874 9.52471E-05-2.85826E-05-2.85705E-05-9.97612E-09 5.69191E-19 1.26785E-18
 -1      2875 9.52415E-05-2.85799E-05-2.85693E-05-1.55010E-08 9.50397E-19 3.40136E-18
 -1      2876 9.52398E-05-2.85784E-05-2.85692E-05-1.57789E-08 9.55504E-19 2.24301E-18
 -1      2877 9.52394E-05-2.85772E-05-2.85695E-05-1.71498E-08 2.18045E-18 2.76841E-18
 -1      2878 9.52480E-05-2.85856E-05-2.85696E-05-1.47924E-09 8.48383E-19 7.86170E-19
 -1      2879 9.52478E-05-2.85854E-05-2.85696E-05-3.79912E-09 1.13109E-19-4.09462E-19
 -1      2880 9.52485E-05-2.85836E-05-2.85707E-05-5.33653E-09 1.29080E-19-6.74483E-19
 -1      2881 8.46641E-05-1.05595E-05-3.17768E-05-3.52157E-06-5.71902E-19-3.32383E-18
 -1      2882 8.53098E-05-1.10722E-05-3.18492E-05-3.60198E-06-8.43491E-19-3.29124E-18
 -1      2883 9.52479E-05-2.85855E-05-2.85696E-05 3.42064E-09-1.40782E-19 2.69683E-19
 -1      2884 9.52481E-05-2.85856E-05-2.85696E-05 1.07767E-09 1.02663E-18 4.37392E-19
 -1      2885 9.52490E-05-2.85840E-05-2.85708E-05-2.45222E-10 3.85190E-19-1.69033E-19
 -1      2886 9.52470E-05-2.85847E-05-2.85696E-05 7.99718E-09-1.29580E-18-8.44616E-20
 -1      2887 9.52476E-05-2.85853E-05-2.85696E-05 5.86848E-09-8.92097E-19-3.08653E-19
 -1      2888 9.52487E-05-2.85838E-05-2.85707E-05 4.86424E-09 1.46045E-18-1.17899E-18
 -1      2889 9.52453E-05-2.85832E-05-2.85695E-05 1.19877E-08 1.21738E-18 3.83718E-18
 -1      2890 9.52463E-05-2.85842E-05-2.85695E-05 1.02139E-08-2.62810E-19 2.29126E-18
 -1      2891 9.52475E-05-2.85830E-05-2.85705E-05 9.63587E-09 9.96177E-19 2.16507E-18
 -1      2892 9.52426E-05-2.85810E-05-2.85693E-05 1.48194E-08 6.50032E-19 4.38995E-18
 -1      2893 9.52441E-05-2.85823E-05-2.85693E-05 1.36876E-08 8.91103E-19 3.99476E-18
 -1      2894 9.52452E-05-2.85815E-05-2.85702E-05 1.36736E-08 1.66331E-18 3.99118E-18
 -1      2895 9.17685E-05-1.56463E-05-3.26095E-05-4.61347E-06-1.97886E-18-2.32690E-18
 -1      2896 1.40872E-04-3.73076E-05-4.49950E-05-7.11009E-06 2.88018E-18-4.06671E-18
 -1      2897 1.39842E-04-4.72555E-05-3.98548E-05-6.34099E-07 1.44596E-18-3.74664E-18
 -1      2898 9.08258E-05-1.61305E-05-3.20285E-05 1.90653E-06 1.60918E-18-2.24429E-18
 -1      2899 8.98071E-05-1.52379E-05-3.19804E-05 8.58796E-07 1.32773E-18-2.57497E-18
 -1      2900 9.04881E-05-1.67380E-05-3.16065E-05-3.62015E-07 1.05319E-18-2.45760E-18
 -1      2901 9.26064E-05-1.87108E-05-3.16640E-05 1.53002E-06 1.49698E-18-1.86796E-18
 -1      2902 1.30411E-04-1.70436E-05-4.93286E-05-1.09082E-05 3.37881E-18-2.10059E-18
 -1      2903 1.36772E-04-2.66603E-05-4.75018E-05-1.10671E-05 2.93815E-18-3.13762E-18
 -1      2904 1.33206E-04-3.24795E-05-4.35147E-05-1.08411E-05 2.18572E-18-2.79193E-18
 -1      2905 6.68623E-05-3.10103E-05-1.47258E-05 3.48062E-05 1.57527E-18-4.18847E-18
 -1      2906 4.83805E-05-1.95473E-05-1.17824E-05 2.60239E-05 1.08955E-18-5.02036E-18
 -1      2907 1.34971E-04-3.23423E-05-4.43096E-05 1.06645E-05 2.04707E-18 1.30104E-18
 -1      2908 1.31801E-04-2.05287E-05-4.83817E-05 1.13993E-05 3.32175E-18 7.40254E-19
 -1      2909 1.36124E-04-5.65684E-05-3.44718E-05 1.24203E-05-4.61626E-19-2.97187E-18
 -1      2910 1.28222E-04-5.90113E-05-2.94952E-05 2.49225E-05-1.14593E-18-1.73599E-18
 -1      2911 1.19374E-04-5.77981E-05-2.64657E-05 3.30393E-05-1.47913E-18-1.47760E-18
 -1      2912 1.06537E-04-5.34174E-05-2.25544E-05 3.85962E-05-1.69724E-18-1.06884E-18
 -1      2913 1.24627E-04-5.78053E-05-2.84567E-05 2.42698E-05-1.72072E-18-1.87610E-18
 -1      2914 6.77898E-05-3.48606E-05-1.36457E-05-3.46863E-05 2.61934E-18 4.85350E-18
 -1      2915 8.61489E-05-4.44177E-05-1.77182E-05-3.63592E-05 2.67811E-18 3.53213E-18
 -1      2916 1.39370E-04-5.60432E-05-3.56200E-05-9.16414E-06-3.47111E-19 7.60530E-19
 -1      2917 1.39993E-04-4.73137E-05-4.02548E-05 2.52293E-06 4.94032E-19 1.07637E-18
 -1      2918 1.28474E-04-1.08451E-05-5.09192E-05 8.38533E-06 4.65212E-18 2.92915E-19
 -1      2919 1.28103E-04-7.49982E-06-5.23986E-05 3.49486E-06 5.06547E-18-1.33011E-20
 -1      2920 3.54236E-05-1.12091E-05-9.87205E-06 1.02414E-05 1.67263E-19-5.73378E-18
 -1      2921 3.14978E-05-9.76631E-06-8.66365E-06-7.38570E-06-4.31193E-19-5.99572E-18
 -1      2922 1.24798E-04-5.91839E-05-2.77713E-05-2.79588E-05-1.79640E-18-6.29293E-19
 -1      2923 1.33198E-04-5.97114E-05-3.19268E-05-2.03498E-05-9.28772E-19 1.44896E-19
 -1      2924 9.06753E-05-4.63482E-05-1.84603E-05-4.28095E-05-2.43289E-18-2.35782E-18
 -1      2925 1.09677E-04-5.51141E-05-2.35888E-05-3.80855E-05-2.13865E-18-1.42360E-18
 -1      2926 5.90596E-05-2.88905E-05-1.23265E-05-3.99724E-05-2.25755E-18-4.60744E-18
 -1      2927 7.26181E-05-3.71748E-05-1.51012E-05-4.44869E-05-2.31971E-18-3.67845E-18
 -1      2928 3.51133E-05-1.40017E-05-8.54200E-06-2.19445E-05-1.34541E-18-5.67999E-18
 -1      2929 4.57538E-05-2.10588E-05-1.01706E-05-3.42672E-05-1.86061E-18-5.08940E-18
 -1      2930 5.81654E-05-2.38161E-05-1.41380E-05-3.45449E-05-2.25242E-18-4.59335E-18
 -1      2931 1.00332E-04-3.23490E-05-2.91552E-05 3.21042E-06 7.91071E-19 8.08967E-19
 -1      2932 1.00376E-04-3.22365E-05-2.91879E-05 2.41971E-06 8.41966E-19 8.52067E-19
 -1      2933 1.01421E-04-3.28332E-05-2.94000E-05 1.85813E-06 7.98643E-19 5.39038E-19
 -1      2934 1.02130E-04-3.33796E-05-2.94576E-05 3.66021E-06 5.85961E-19 8.91535E-19
 -1      2935 1.26942E-04-6.77617E-06-5.21270E-05-1.32172E-06 4.89140E-18-6.26508E-19
 -1      2936 1.25987E-04-9.29779E-06-5.05664E-05-7.21634E-06 4.35735E-18-1.30644E-18
 -1      2937 1.20373E-04-8.37393E-06-4.84048E-05 6.71205E-07 4.44205E-18-1.96277E-19
 -1      2938 9.52441E-05-2.85821E-05-2.85694E-05-1.34638E-08 3.88098E-20 1.75432E-18
 -1      2939 9.52427E-05-2.85808E-05-2.85694E-05-1.45125E-08-3.19827E-19 3.32719E-18
 -1      2940 9.52428E-05-2.85795E-05-2.85700E-05-1.57280E-08 3.40308E-19 1.82420E-18
 -1      2941 9.52451E-05-2.85812E-05-2.85703E-05-1.34357E-08-4.92662E-19 7.46349E-19
 -1      2942 2.65576E-05-1.16017E-05-5.88974E-06 1.19023E-05-1.09159E-18 2.93815E-18
 -1      2943 2.55780E-05-1.22748E-05-4.95791E-06-3.19874E-06 1.45398E-19 2.96334E-18
 -1      2944 8.65004E-05-1.32164E-05-3.13994E-05-3.22335E-06 2.60136E-19-2.89698E-18
 -1      2945 8.52856E-05-1.12380E-05-3.17340E-05-2.91624E-06 2.27636E-19-3.09344E-18
 -1      2946 8.47781E-05-1.08518E-05-3.17170E-05-3.38611E-06-4.32704E-20-3.17782E-18
 -1      2947 9.65460E-05-2.24313E-05-3.17539E-05 6.14376E-06 2.38894E-18 1.97326E-19
 -1      2948 4.12681E-05-1.13045E-05-1.21982E-05-1.32666E-05-1.08549E-18-5.29650E-18
 -1      2949 3.93386E-05-1.56090E-05-9.83800E-06 2.65652E-05-2.25168E-18 3.47792E-18
 -1      2950 3.23297E-05-1.31188E-05-7.37623E-06 1.97172E-05-1.87824E-18 3.50905E-18
 -1      2951 3.36479E-05-9.89317E-06-9.72585E-06 1.08868E-05-7.61483E-19 2.06253E-18
 -1      2952 9.89037E-05-4.33400E-05-2.33419E-05-3.06791E-05 2.72480E-18 1.24122E-18
 -1      2953 7.98335E-05-3.32728E-05-1.96575E-05-3.26403E-05 2.59573E-18 3.35086E-18
 -1      2954 4.60210E-05-1.39395E-05-1.30926E-05 1.80788E-05 7.81732E-19-4.97939E-18
 -1      2955 4.71562E-05-1.00572E-05-1.55518E-05 9.86959E-06 1.63213E-19-4.58065E-18
 -1      2956 5.82418E-05-1.73511E-05-1.72169E-05 2.31637E-05 1.30863E-18-3.83897E-18
 -1      2957 1.23870E-04-1.50592E-05-4.70442E-05-9.40924E-06 3.40550E-18-1.48713E-18
 -1      2958 1.05685E-04-5.07590E-05-2.30284E-05-3.07892E-05 2.83936E-18 1.17216E-18
 -1      2959 5.93902E-05-2.87648E-05-1.25654E-05 4.05755E-05-2.96006E-18 3.61937E-18
 -1      2960 8.61835E-05-1.26079E-05-3.14871E-05-2.77172E-06-8.70043E-19-2.96358E-18
 -1      2961 8.63007E-05-1.18834E-05-3.19293E-05-3.24807E-06-1.04620E-18-3.11088E-18
 -1      2962 8.76620E-05-1.30078E-05-3.20317E-05-3.30214E-06-1.35540E-18-2.93060E-18
 -1      2963 9.78107E-05-4.86692E-05-2.07005E-05 4.08539E-05-2.22113E-18-1.18855E-18
 -1      2964 8.65383E-05-4.06035E-05-1.94345E-05 3.97961E-05-3.28098E-18 4.76456E-20
 -1      2965 1.06949E-04-5.10615E-05-2.39617E-05 3.37432E-05-2.66657E-18-1.35321E-18
 -1      2966 8.44238E-05-1.04456E-05-3.17106E-05-3.48443E-06-1.61290E-19-3.19956E-18
 -1      2967 8.44092E-05-1.04379E-05-3.17372E-05-3.71798E-06-4.68787E-19-3.27698E-18
 -1      2968 8.49899E-05-1.17165E-05-3.13701E-05-3.49911E-06-5.44682E-19-3.10211E-18
 -1      2969 8.52228E-05-1.20430E-05-3.13438E-05-3.71147E-06-1.14816E-19-3.06280E-18
 -1      2970 3.49352E-05-1.35156E-05-8.53006E-06-1.06093E-05 6.17752E-19 3.93595E-18
 -1      2971 8.98297E-05-1.49334E-05-3.21268E-05-2.80527E-06-1.55854E-18-2.56278E-18
 -1      2972 9.35421E-05-1.84910E-05-3.21880E-05-2.70687E-06-2.03641E-18-1.94468E-18
 -1      2973 9.41768E-05-2.00314E-05-3.17515E-05-3.36982E-07-1.86595E-18-1.69605E-18
 -1      2974 8.92544E-05-1.52913E-05-3.16568E-05-1.65954E-06-1.40417E-18-2.46399E-18
 -1      2975 1.34568E-04-5.68000E-05-3.32596E-05-1.10633E-05-1.21692E-18 8.07275E-19
 -1      2976 9.52399E-05-2.85788E-05-2.85690E-05 1.58461E-08 3.74168E-19 2.23087E-18
 -1      2977 9.52414E-05-2.85802E-05-2.85691E-05 1.55214E-08-1.30043E-20 2.60460E-18
 -1      2978 9.52425E-05-2.85798E-05-2.85697E-05 1.61223E-08-6.08000E-19 3.40567E-18
 -1      2979 9.52395E-05-2.85780E-05-2.85693E-05 1.69321E-08-5.62303E-20 1.17047E-18
 -1      2980 9.84304E-05-2.78133E-05-3.02771E-05 1.34793E-06 1.38033E-18-4.36090E-21
 -1      2981 9.81835E-05-2.76704E-05-3.02199E-05 1.67504E-06 1.36360E-18 4.36413E-19
 -1      2982 9.80569E-05-2.71364E-05-3.03737E-05 2.22377E-06 1.59236E-18 6.05054E-19
 -1      2983 9.19563E-05-1.84405E-05-3.15362E-05 2.73625E-07-1.59655E-18-1.89822E-18
 -1      2984 1.34883E-04-4.67809E-05-3.79670E-05-3.67495E-06 9.69165E-19-3.34123E-18
 -1      2985 1.38116E-04-5.32767E-05-3.65081E-05 4.09461E-06 3.21919E-19-3.51985E-18
 -1      2986 1.32348E-04-5.50681E-05-3.31706E-05 9.36605E-06-3.50289E-19-3.18532E-18
 -1      2987 1.36149E-04-4.05579E-05-4.12451E-05 8.69340E-06 1.09738E-18 1.44377E-18
 -1      2988 1.27983E-04-3.25698E-05-4.11334E-05 1.23325E-05 1.19733E-18 1.94278E-18
 -1      2989 1.33304E-04-4.58655E-05-3.76270E-05 4.47513E-06 9.41795E-20 1.24530E-18
 -1      2990 9.68290E-05-2.35994E-05-3.13593E-05 4.53446E-06 2.04957E-18 8.27594E-21
 -1      2991 1.24530E-04-1.73458E-05-4.63458E-05 1.05146E-05 3.26383E-18 1.52217E-18
 -1      2992 8.71031E-05-4.12653E-05-1.91899E-05-4.00134E-05-2.65937E-18-2.46550E-18
 -1      2993 5.79802E-05-2.82256E-05-1.22725E-05-3.20189E-05 2.17762E-18 5.66411E-18
 -1      2994 7.15913E-05-3.08556E-05-1.69034E-05-3.16907E-05 2.68128E-18 4.46217E-18
 -1      2995 6.96725E-05-2.61297E-05-1.82649E-05-2.95206E-05 2.56016E-18 4.44015E-18
 -1      2996 5.11174E-05-2.10181E-05-1.24332E-05-2.70100E-05 1.99693E-18 5.01253E-18
 -1      2997 1.16938E-04-5.56801E-05-2.60053E-05-3.01103E-05-2.23797E-18-8.62438E-19
 -1      2998 8.98989E-05-1.71089E-05-3.11876E-05-2.49913E-06 7.65028E-19-2.58326E-18
 -1      2999 8.87766E-05-1.62048E-05-3.11268E-05-3.23200E-06 4.65122E-19-2.71003E-18
 -1      3000 9.60730E-05-2.32414E-05-3.12446E-05 2.66074E-06 1.66471E-18-9.43851E-19
 -1      3001 9.51743E-05-2.21227E-05-3.13053E-05 1.94212E-06 1.52135E-18-1.27102E-18
 -1      3002 9.80919E-05-2.66320E-05-3.05990E-05 3.46208E-06 1.86063E-18 1.02452E-18
 -1      3003 4.52339E-05-8.90702E-06-1.52632E-05-6.32706E-06-6.61122E-19-4.83444E-18
 -1      3004 4.86795E-05-1.27050E-05-1.50404E-05-2.01806E-05-1.38318E-18-4.64195E-18
 -1      3005 9.16506E-05-3.96558E-05-2.20413E-05 3.25932E-05 2.13855E-18-1.60957E-18
 -1      3006 9.09064E-05-4.49247E-05-1.92155E-05 3.53853E-05 1.85818E-18-2.21467E-18
 -1      3007 9.03032E-05-1.71318E-05-3.13633E-05 3.18254E-08-1.49466E-18-2.11918E-18
 -1      3008 9.08114E-05-1.80503E-05-3.11525E-05 1.30931E-06-1.35882E-18-1.92254E-18
 -1      3009 9.01094E-05-1.84125E-05-3.07690E-05 3.23153E-06-1.17672E-18-1.84929E-18
 -1      3010 8.80799E-05-1.51952E-05-3.12681E-05-7.56444E-07-1.17246E-18-2.49423E-18
 -1      3011 6.67687E-05-2.89793E-05-1.59911E-05 3.81188E-05-3.34239E-18 2.48075E-18
 -1      3012 5.25180E-05-2.12252E-05-1.26031E-05 3.43645E-05-2.43940E-18 3.63292E-18
 -1      3013 8.83650E-05-1.80603E-05-3.01349E-05 4.97051E-06-9.81493E-19-1.83192E-18
 -1      3014 8.70800E-05-1.77764E-05-2.97263E-05 6.67544E-06-7.41222E-19-1.95579E-18
 -1      3015 8.49565E-05-1.71076E-05-2.91265E-05 7.92099E-06-6.67247E-19-1.97916E-18
 -1      3016 8.31939E-05-1.65448E-05-2.85848E-05 9.54643E-06-4.30165E-19-2.09767E-18
 -1      3017 8.37280E-05-1.57558E-05-2.90490E-05 5.23890E-06-7.35864E-19-2.12518E-18
 -1      3018 8.01482E-05-1.56588E-05-2.77132E-05 1.07771E-05-2.64162E-19-2.26566E-18
 -1      3019 7.79462E-05-1.52202E-05-2.68732E-05 1.25058E-05-1.25109E-19-2.43502E-18
 -1      3020 7.87113E-05-1.42102E-05-2.75230E-05 7.27793E-06-4.83540E-19-2.38976E-18
 -1      3021 7.37204E-05-1.44703E-05-2.54783E-05 1.40936E-05 2.31220E-19-2.49577E-18
 -1      3022 7.15388E-05-1.49289E-05-2.41289E-05 1.62876E-05 6.94782E-19-2.66283E-18
 -1      3023 7.15911E-05-1.23853E-05-2.51897E-05 9.29101E-06 9.93609E-21-2.68111E-18
 -1      3024 7.49919E-05-2.99770E-05-1.90069E-05 3.26011E-05 2.02356E-18-2.75434E-18
 -1      3025 7.24151E-05-1.62191E-05-2.39304E-05-1.71706E-05 9.34999E-19 2.37193E-18
 -1      3026 7.43562E-05-1.55563E-05-2.52797E-05-1.48403E-05 4.76006E-19 1.15020E-18
 -1      3027 7.84690E-05-1.63715E-05-2.65836E-05-1.32659E-05 2.89639E-19 1.27296E-18
 -1      3028 8.04028E-05-1.69294E-05-2.72839E-05-1.17255E-05 9.20106E-20 6.88439E-19
 -1      3029 7.13626E-05-1.33423E-05-2.46763E-05-1.04483E-05-3.13204E-20 1.82451E-18
 -1      3030 8.34643E-05-1.81261E-05-2.80062E-05-1.07193E-05-3.79161E-19 4.99608E-19
 -1      3031 8.50595E-05-1.90413E-05-2.83561E-05-9.50625E-06-1.00999E-18 4.64470E-19
 -1      3032 7.84002E-05-1.56502E-05-2.67806E-05-8.58706E-06-3.74561E-19 5.14589E-19
 -1      3033 8.72962E-05-2.02529E-05-2.87402E-05-8.73292E-06-1.22723E-18 6.15320E-19
 -1      3034 8.84661E-05-2.11712E-05-2.88860E-05-7.72102E-06-1.11139E-18 5.41611E-19
 -1      3035 8.35796E-05-1.82021E-05-2.79447E-05-7.28124E-06-1.04256E-18 3.33810E-19
 -1      3036 9.00571E-05-2.22259E-05-2.90743E-05-7.06488E-06-1.22411E-18-3.97030E-20
 -1      3037 9.08530E-05-2.30096E-05-2.91083E-05-6.21314E-06-1.48692E-18-5.62195E-20
 -1      3038 8.73133E-05-2.05521E-05-2.85610E-05-6.16538E-06-1.39030E-18 6.33941E-19
 -1      3039 9.19571E-05-2.38571E-05-2.91857E-05-5.64182E-06-1.32168E-18 9.00981E-19
 -1      3040 9.24680E-05-2.44743E-05-2.91636E-05-4.93448E-06 9.49927E-20 8.65371E-19
 -1      3041 8.99404E-05-2.25205E-05-2.88597E-05-5.14019E-06-9.65977E-19 1.57999E-18
 -1      3042 9.32180E-05-2.51238E-05-2.91807E-05-4.44184E-06 2.68439E-19 2.28096E-19
 -1      3043 9.35295E-05-2.55887E-05-2.91343E-05-3.86555E-06 2.87366E-19 2.81261E-19
 -1      3044 9.17486E-05-2.40786E-05-2.89785E-05-4.20281E-06-2.95602E-19 1.30744E-18
 -1      3045 9.40300E-05-2.60722E-05-2.91209E-05-3.44957E-06 2.85854E-19-1.87781E-19
 -1      3046 9.42100E-05-2.64134E-05-2.90677E-05-2.98843E-06-4.26646E-20-3.94499E-19
 -1      3047 9.29698E-05-2.52690E-05-2.89999E-05-3.37099E-06-8.10486E-20 4.65546E-19
 -1      3048 9.45390E-05-2.67673E-05-2.90408E-05-2.64472E-06-2.73510E-19-6.32512E-19
 -1      3049 9.46363E-05-2.70144E-05-2.89894E-05-2.28127E-06-2.12334E-19 5.80680E-20
 -1      3050 9.37816E-05-2.61584E-05-2.89722E-05-2.65625E-06-2.59436E-19-3.11749E-19
 -1      3051 9.48500E-05-2.72710E-05-2.89583E-05-2.00270E-06-7.62711E-19 1.55543E-19
 -1      3052 9.48976E-05-2.74489E-05-2.89126E-05-1.71977E-06-9.39672E-19 2.91530E-19
 -1      3053 9.43142E-05-2.68141E-05-2.89230E-05-2.05904E-06-4.40637E-19-7.03560E-19
 -1      3054 9.50349E-05-2.76343E-05-2.88823E-05-1.49774E-06-1.08942E-18 3.59253E-19
 -1      3055 9.50541E-05-2.77623E-05-2.88436E-05-1.27979E-06-1.21729E-18-2.10860E-19
 -1      3056 9.46597E-05-2.72943E-05-2.88676E-05-1.57145E-06-1.25556E-18-9.34314E-19
 -1      3057 9.51415E-05-2.78962E-05-2.88163E-05-1.10538E-06-1.58616E-18 3.63036E-19
 -1      3058 9.51455E-05-2.79886E-05-2.87845E-05-9.39071E-07-1.72504E-18 5.82531E-19
 -1      3059 9.48817E-05-2.76450E-05-2.88139E-05-1.18093E-06-1.32347E-18 6.12436E-19
 -1      3060 9.52005E-05-2.80855E-05-2.87610E-05-8.03901E-07-1.70302E-18 1.08593E-18
 -1      3061 9.51971E-05-2.81525E-05-2.87355E-05-6.78167E-07-1.00627E-18 7.78777E-19
 -1      3062 9.50232E-05-2.79012E-05-2.87656E-05-8.73271E-07-1.23947E-18 1.18592E-18
 -1      3063 9.52315E-05-2.82228E-05-2.87159E-05-5.74741E-07-7.90694E-19 9.72881E-19
 -1      3064 9.52250E-05-2.82717E-05-2.86958E-05-4.80511E-07-1.44288E-18 1.67466E-18
 -1      3065 9.51126E-05-2.80884E-05-2.87242E-05-6.34480E-07-7.79651E-19 1.93111E-18
 -1      3066 9.52468E-05-2.83250E-05-2.86792E-05-3.98741E-07-1.38211E-18 2.19604E-18
 -1      3067 9.52397E-05-2.83620E-05-2.86629E-05-3.26361E-07 1.19494E-19 2.65344E-18
 -1      3068 9.51694E-05-2.82281E-05-2.86889E-05-4.48103E-07-5.75453E-19 2.33062E-18
 -1      3069 9.52522E-05-2.83983E-05-2.86504E-05-2.69227E-07 5.21094E-19 2.07361E-18
 -1      3070 9.52459E-05-2.84241E-05-2.86386E-05-2.18996E-07 2.16211E-19 1.80424E-18
 -1      3071 9.52042E-05-2.83304E-05-2.86602E-05-3.08003E-07 6.78546E-19 2.25999E-18
 -1      3072 9.52532E-05-2.84505E-05-2.86287E-05-1.77012E-07-1.03388E-18 2.17426E-18
 -1      3073 9.52480E-05-2.84694E-05-2.86199E-05-1.40840E-07-1.08246E-18 8.38777E-19
 -1      3074 9.52244E-05-2.84027E-05-2.86380E-05-2.07113E-07-8.44966E-19 3.17929E-18
 -1      3075 9.52519E-05-2.84884E-05-2.86122E-05-1.10596E-07-2.57062E-19 2.79456E-19
 -1      3076 9.52479E-05-2.85022E-05-2.86056E-05-8.49880E-08 4.10027E-19-1.11889E-18
 -1      3077 9.52362E-05-2.84553E-05-2.86205E-05-1.33390E-07-1.38557E-18 2.32628E-18
 -1      3078 9.52499E-05-2.85157E-05-2.85998E-05-6.36423E-08 1.34833E-18-4.95216E-19
 -1      3079 9.52468E-05-2.85257E-05-2.85950E-05-4.59039E-08 1.89916E-18 7.56078E-20
 -1      3080 9.52426E-05-2.84934E-05-2.86069E-05-8.05201E-08 5.72296E-19 1.69656E-18
 -1      3081 9.52476E-05-2.85353E-05-2.85906E-05-3.12089E-08 1.39010E-18 5.08008E-20
 -1      3082 9.52454E-05-2.85424E-05-2.85871E-05-1.92599E-08 1.57219E-18 6.19643E-19
 -1      3083 9.52458E-05-2.85207E-05-2.85966E-05-4.34235E-08 1.63576E-18 8.44494E-19
 -1      3084 9.52454E-05-2.85491E-05-2.85839E-05-9.46218E-09 1.54895E-18 5.71065E-19
 -1      3085 9.52440E-05-2.85541E-05-2.85814E-05-1.71438E-09 1.41371E-18 1.49579E-18
 -1      3086 9.52468E-05-2.85399E-05-2.85888E-05-1.80860E-08 1.52417E-18 3.79017E-19
 -1      3087 9.52435E-05-2.85587E-05-2.85791E-05 4.53426E-09 2.73823E-20 1.54989E-18
 -1      3088 9.52426E-05-2.85622E-05-2.85774E-05 9.27842E-09-3.05996E-19 1.52843E-18
 -1      3089 9.52467E-05-2.85533E-05-2.85830E-05-1.38239E-09 8.88907E-19-5.74715E-19
 -1      3090 9.52420E-05-2.85652E-05-2.85756E-05 1.29979E-08-4.31645E-19 2.31605E-18
 -1      3091 9.52414E-05-2.85677E-05-2.85745E-05 1.56245E-08-2.27844E-19 2.38169E-18
 -1      3092 9.52459E-05-2.85624E-05-2.85787E-05 9.08422E-09-2.95825E-19 5.01650E-19
 -1      3093 9.52408E-05-2.85696E-05-2.85733E-05 1.75668E-08-7.07910E-19 1.50093E-18
 -1      3094 9.52405E-05-2.85714E-05-2.85725E-05 1.87122E-08-7.00612E-19 7.49022E-19
 -1      3095 9.52447E-05-2.85685E-05-2.85756E-05 1.51151E-08-5.79600E-19 2.37141E-18
 -1      3096 9.52399E-05-2.85727E-05-2.85716E-05 1.94246E-08-6.83521E-20 5.30205E-19
 -1      3097 9.52399E-05-2.85740E-05-2.85711E-05 1.95308E-08-4.25886E-19 1.75509E-18
 -1      3098 9.52435E-05-2.85726E-05-2.85733E-05 1.80241E-08-6.65928E-19 3.89595E-19
 -1      3099 9.52393E-05-2.85749E-05-2.85704E-05 1.93471E-08-1.41314E-18 1.69137E-18
 -1      3100 9.52395E-05-2.85760E-05-2.85701E-05 1.87283E-08-1.27068E-18 1.46112E-18
 -1      3101 9.52424E-05-2.85754E-05-2.85716E-05 1.87834E-08-6.32370E-19-2.22890E-19
 -1      3102 1.15956E-04-9.70612E-06-4.58665E-05 4.12007E-06 3.81472E-18 6.29557E-19
 -1      3103 1.14687E-04-8.99578E-06-4.56307E-05-2.02437E-06 3.90249E-18-3.33164E-19
 -1      3104 1.01400E-04-3.24460E-05-2.95763E-05 3.14045E-07 6.66819E-19-2.68364E-20
 -1      3105 1.00881E-04-3.15499E-05-2.96765E-05 1.47430E-08 7.73834E-19-6.81926E-20
 -1      3106 9.99366E-05-3.04132E-05-2.98189E-05-3.33458E-08 8.46342E-19-2.42661E-19
 -1      3107 9.94287E-05-2.93220E-05-3.00104E-05 1.66039E-07 8.82597E-19-3.26280E-19
 -1      3108 1.00734E-04-3.11173E-05-2.98561E-05-5.16404E-07 6.92874E-19-5.35414E-19
 -1      3109 1.03497E-04-3.17467E-05-3.07305E-05 7.74839E-06 2.53225E-19 8.57654E-19
 -1      3110 1.04156E-04-3.31340E-05-3.04671E-05 7.15693E-06 2.60244E-19 8.18036E-19
 -1      3111 1.04276E-04-3.40260E-05-3.01146E-05 5.96029E-06 3.18140E-19 7.11474E-19
 -1      3112 1.04451E-04-3.46136E-05-2.99309E-05 4.96097E-06 4.49852E-19 7.46969E-19
 -1      3113 1.06504E-04-3.47546E-05-3.07168E-05 6.55660E-06 2.69924E-19 7.37176E-19
 -1      3114 9.92904E-05-2.42193E-05-3.21232E-05 5.71772E-06 5.92074E-19 3.25046E-19
 -1      3115 1.00252E-04-2.59892E-05-3.18827E-05 7.08925E-06 6.76257E-19 7.44009E-19
 -1      3116 9.77675E-05-2.18547E-05-3.25090E-05 1.37618E-06 1.15574E-18-1.28299E-19
 -1      3117 9.82225E-05-2.26965E-05-3.24002E-05 3.55487E-06 9.03426E-19 1.83565E-19
 -1      3118 1.00693E-04-2.29512E-05-3.33374E-05 5.24452E-06 8.78286E-19 6.10891E-19
 -1      3119 9.79082E-05-2.22097E-05-3.24662E-05-3.79036E-06 9.47071E-19-4.76605E-19
 -1      3120 9.75866E-05-2.16438E-05-3.25365E-05-1.48676E-06 1.06163E-18-5.50626E-19
 -1      3121 9.93852E-05-2.08546E-05-3.36861E-05 3.67746E-08 1.34816E-18-3.26877E-20
 -1      3122 9.96901E-05-2.51343E-05-3.20065E-05-7.73321E-06 6.52179E-19-1.26196E-19
 -1      3123 9.88068E-05-2.35117E-05-3.22240E-05-6.15366E-06 9.14567E-19-1.01312E-19
 -1      3124 1.00176E-04-2.21890E-05-3.34358E-05-5.48523E-06 5.91747E-19-3.20835E-19
 -1      3125 1.02008E-04-2.91067E-05-3.13005E-05-9.34739E-06 9.36675E-20-4.81628E-19
 -1      3126 1.00984E-04-2.71578E-05-3.15924E-05-8.85023E-06 3.58849E-19-2.99660E-19
 -1      3127 1.02452E-04-2.61117E-05-3.26982E-05-9.01860E-06 4.76131E-19-5.74932E-19
 -1      3128 1.03694E-04-3.24939E-05-3.05491E-05-8.64495E-06 5.98310E-19-3.40986E-19
 -1      3129 1.02961E-04-3.09573E-05-3.08357E-05-9.10044E-06 4.29418E-19-2.70574E-19
 -1      3130 1.04774E-04-3.06836E-05-3.17124E-05-9.72634E-06 3.14129E-19-9.75304E-19
 -1      3131 1.04164E-04-3.43990E-05-2.99093E-05-6.53623E-06 3.12891E-19 9.63459E-21
 -1      3132 1.03908E-04-3.35913E-05-3.01405E-05-7.53258E-06 5.64656E-19-3.91476E-19
 -1      3133 1.05948E-04-3.41401E-05-3.07435E-05-8.11418E-06 2.59270E-19-9.06774E-19
 -1      3134 1.03530E-04-3.48052E-05-2.94418E-05-4.00086E-06-1.84307E-19 1.54894E-19
 -1      3135 1.03709E-04-3.46837E-05-2.96017E-05-5.13968E-06-6.11179E-20 1.60577E-19
 -1      3136 1.05668E-04-3.57287E-05-2.99572E-05-5.43745E-06 1.84988E-19-5.28437E-19
 -1      3137 1.02215E-04-3.41550E-05-2.91469E-05-1.71901E-06-4.86885E-19 6.23112E-19
 -1      3138 1.02669E-04-3.44907E-05-2.92421E-05-2.73527E-06-2.26324E-19 3.38293E-19
 -1      3139 1.04300E-04-3.56868E-05-2.94059E-05-2.70644E-06-4.22211E-19 1.54315E-19
 -1      3140 1.00673E-04-3.29884E-05-2.89846E-05 6.61931E-09-4.68941E-19 6.36489E-19
 -1      3141 1.01236E-04-3.35351E-05-2.90339E-05-7.69169E-07-3.08942E-19 5.57133E-19
 -1      3142 1.02421E-04-3.46181E-05-2.90707E-05-5.08991E-07-5.31505E-19 1.02355E-18
 -1      3143 9.92163E-05-3.17187E-05-2.89073E-05 1.13809E-06-6.20907E-19-2.00136E-19
 -1      3144 9.97673E-05-3.22964E-05-2.89297E-05 6.19723E-07-3.29647E-19 6.87443E-19
 -1      3145 1.00516E-04-3.31370E-05-2.88937E-05 9.93414E-07 8.10079E-21 1.21080E-18
 -1      3146 9.80002E-05-3.05872E-05-2.88757E-05 1.76547E-06-5.40908E-19-2.42378E-19
 -1      3147 9.84755E-05-3.10943E-05-2.88858E-05 1.46966E-06-5.09655E-19-6.71267E-19
 -1      3148 9.88649E-05-3.16662E-05-2.88162E-05 1.86745E-06-1.66210E-19 9.37787E-19
 -1      3149 9.70676E-05-2.96957E-05-2.88628E-05 2.01774E-06-4.53498E-19 8.42377E-20
 -1      3150 9.74454E-05-3.00915E-05-2.88699E-05 1.89152E-06-4.47493E-19 1.73608E-19
 -1      3151 9.75741E-05-3.04255E-05-2.87919E-05 2.26157E-06-8.45154E-19 8.72229E-19
 -1      3152 9.63967E-05-2.90572E-05-2.88530E-05 2.01779E-06-5.82320E-20 2.63254E-19
 -1      3153 9.66804E-05-2.93390E-05-2.88617E-05 2.00857E-06-3.01157E-19-9.91813E-20
 -1      3154 9.66399E-05-2.94884E-05-2.87898E-05 2.32836E-06-3.99041E-19 8.64970E-19
 -1      3155 9.59390E-05-2.86394E-05-2.88389E-05 1.86529E-06 2.53292E-20 3.03328E-19
 -1      3156 9.61434E-05-2.88231E-05-2.88509E-05 1.92881E-06 3.08590E-19-1.53540E-20
 -1      3157 9.60074E-05-2.88438E-05-2.87918E-05 2.19370E-06 1.13503E-19 4.29320E-19
 -1      3158 9.56414E-05-2.83936E-05-2.88188E-05 1.63373E-06 6.24876E-19 2.45917E-19
 -1      3159 9.57841E-05-2.85016E-05-2.88338E-05 1.73633E-06 5.27997E-19 6.59729E-19
 -1      3160 9.56057E-05-2.84418E-05-2.87895E-05 1.95049E-06 8.37018E-20 7.30960E-19
 -1      3161 9.54566E-05-2.82709E-05-2.87935E-05 1.37344E-06-3.77955E-19 5.89526E-19
 -1      3162 9.55540E-05-2.83251E-05-2.88104E-05 1.49141E-06-1.98351E-19 4.62888E-19
 -1      3163 9.53683E-05-2.82221E-05-2.87801E-05 1.66228E-06 5.98828E-20 6.35283E-19
 -1      3164 9.53475E-05-2.82298E-05-2.87651E-05 1.11642E-06-5.04124E-19 6.07635E-19
 -1      3165 9.54129E-05-2.82484E-05-2.87826E-05 1.23433E-06-3.20102E-19 6.90749E-19
 -1      3166 9.52406E-05-2.81285E-05-2.87643E-05 1.36969E-06-4.43044E-19 4.91347E-19
 -1      3167 9.52866E-05-2.82382E-05-2.87358E-05 8.81132E-07 1.47692E-19 1.58465E-19
 -1      3168 9.53300E-05-2.82352E-05-2.87528E-05 9.89845E-07-1.09088E-19 4.62052E-19
 -1      3169 9.51817E-05-2.81155E-05-2.87438E-05 1.09662E-06-1.77820E-19 2.19968E-19
 -1      3170 9.52550E-05-2.82732E-05-2.87074E-05 6.76599E-07-1.69942E-19 1.11913E-18
 -1      3171 9.52838E-05-2.82586E-05-2.87232E-05 7.71494E-07 1.48770E-19 7.67449E-19
 -1      3172 9.51630E-05-2.81491E-05-2.87209E-05 8.55408E-07-2.75142E-19 1.15021E-18
 -1      3173 9.52405E-05-2.83197E-05-2.86812E-05 5.05630E-07 5.58495E-19 7.36480E-19
 -1      3174 9.52595E-05-2.83001E-05-2.86952E-05 5.85115E-07 4.48561E-19 4.06361E-19
 -1      3175 9.51657E-05-2.82055E-05-2.86976E-05 6.50774E-07 1.38847E-19 8.57737E-19
 -1      3176 9.52351E-05-2.83681E-05-2.86581E-05 3.67226E-07 1.86534E-19 1.00639E-18
 -1      3177 9.52477E-05-2.83476E-05-2.86701E-05 4.31601E-07 1.59245E-19 8.71463E-19
 -1      3178 9.51780E-05-2.82696E-05-2.86752E-05 4.82666E-07-3.16697E-21 8.38206E-19
 -1      3179 9.52343E-05-2.84131E-05-2.86383E-05 2.58272E-07 2.70507E-19 5.18166E-19
 -1      3180 9.52426E-05-2.83940E-05-2.86483E-05 3.08905E-07 8.54181E-19 1.00620E-18
 -1      3181 9.51930E-05-2.83320E-05-2.86549E-05 3.48305E-07 3.03789E-19 6.92911E-19
 -1      3182 9.52352E-05-2.84522E-05-2.86218E-05 1.74688E-07 1.47483E-18 2.29394E-19
 -1      3183 9.52408E-05-2.84355E-05-2.86299E-05 2.13453E-07 3.89846E-19 9.90512E-20
 -1      3184 9.52074E-05-2.83879E-05-2.86370E-05 2.43546E-07 8.80262E-19 1.68167E-19
 -1      3185 9.52367E-05-2.84845E-05-2.86085E-05 1.12159E-07 7.95176E-19 1.24108E-18
 -1      3186 9.52404E-05-2.84707E-05-2.86149E-05 1.41066E-07 1.48747E-18 8.47703E-19
 -1      3187 9.52193E-05-2.84351E-05-2.86219E-05 1.63771E-07 1.22029E-18-6.53431E-21
 -1      3188 9.52380E-05-2.85101E-05-2.85980E-05 6.65768E-08 4.34748E-19 1.21169E-18
 -1      3189 9.52405E-05-2.84991E-05-2.86029E-05 8.75558E-08 9.45265E-19 1.49880E-18
 -1      3190 9.52284E-05-2.84735E-05-2.86094E-05 1.04439E-07 6.60390E-19 2.62197E-19
 -1      3191 9.52390E-05-2.85298E-05-2.85898E-05 3.42753E-08-5.98342E-20 1.08806E-18
 -1      3192 9.52405E-05-2.85213E-05-2.85935E-05 4.90522E-08-1.53351E-20 1.15465E-18
 -1      3193 9.52349E-05-2.85034E-05-2.85993E-05 6.13933E-08 9.98447E-20 8.50917E-19
 -1      3194 9.52395E-05-2.85445E-05-2.85837E-05 1.21291E-08 4.53350E-19 1.65669E-18
 -1      3195 9.52405E-05-2.85381E-05-2.85864E-05 2.21757E-08 1.32576E-19 1.34340E-18
 -1      3196 9.52391E-05-2.85262E-05-2.85913E-05 3.10157E-08-1.61686E-19 1.74615E-18
 -1      3197 9.52397E-05-2.85552E-05-2.85792E-05-2.42876E-09 5.01947E-19 2.76238E-18
 -1      3198 9.52402E-05-2.85505E-05-2.85811E-05 4.09402E-09 3.17353E-19 2.14612E-18
 -1      3199 9.52415E-05-2.85429E-05-2.85852E-05 1.02726E-08-4.67047E-19 3.20391E-18
 -1      3200 9.52396E-05-2.85627E-05-2.85759E-05-1.14386E-08 6.65469E-19 3.50830E-18
 -1      3201 9.52399E-05-2.85593E-05-2.85772E-05-7.48481E-09 8.69118E-19 3.69412E-18
 -1      3202 9.52426E-05-2.85549E-05-2.85805E-05-3.30011E-09 2.14352E-19 3.40413E-18
 -1      3203 9.52394E-05-2.85679E-05-2.85735E-05-1.64630E-08-1.28560E-19 3.74011E-18
 -1      3204 9.52395E-05-2.85655E-05-2.85744E-05-1.43520E-08 2.96870E-19 3.27973E-18
 -1      3205 9.52428E-05-2.85632E-05-2.85770E-05-1.16434E-08 3.66108E-19 5.15330E-18
 -1      3206 9.52392E-05-2.85715E-05-2.85719E-05-1.86601E-08 7.06460E-19 4.04910E-18
 -1      3207 9.52391E-05-2.85698E-05-2.85725E-05-1.78574E-08 5.10482E-19 3.94294E-18
 -1      3208 9.52425E-05-2.85689E-05-2.85744E-05-1.62309E-08 1.86737E-19 3.07013E-18
 -1      3209 9.52390E-05-2.85742E-05-2.85706E-05-1.88360E-08-2.51546E-19 3.22575E-18
 -1      3210 9.52388E-05-2.85729E-05-2.85711E-05-1.89910E-08 2.05207E-20 3.96626E-18
 -1      3211 9.52419E-05-2.85729E-05-2.85725E-05-1.81598E-08 2.78494E-19 3.96253E-18
 -1      3212 9.52394E-05-2.85763E-05-2.85699E-05-1.77250E-08 1.33528E-18 1.64167E-18
 -1      3213 9.52390E-05-2.85751E-05-2.85702E-05-1.85446E-08 2.06239E-19 2.75574E-18
 -1      3214 9.52416E-05-2.85756E-05-2.85712E-05-1.82365E-08 2.39093E-19 1.71638E-18
 -1      3215 9.52416E-05-2.85776E-05-2.85703E-05-1.73116E-08 1.04465E-18 1.77652E-18
 -1      3216 9.52499E-05-2.85821E-05-2.85719E-05-4.28097E-09 6.08261E-19-2.21984E-19
 -1      3217 9.52494E-05-2.85818E-05-2.85718E-05-6.73238E-09 2.45608E-19-7.43210E-19
 -1      3218 1.29155E-04-5.62024E-05-3.10376E-05-1.34661E-05-1.61012E-18 4.84423E-19
 -1      3219 1.32036E-04-5.34104E-05-3.40141E-05-4.73332E-06-9.09846E-19 7.64712E-19
 -1      3220 9.52497E-05-2.85821E-05-2.85718E-05 6.15317E-09 1.89920E-18-5.86303E-19
 -1      3221 9.52501E-05-2.85824E-05-2.85719E-05 3.68262E-09 1.76154E-18-2.50219E-19
 -1      3222 9.52503E-05-2.85824E-05-2.85720E-05 9.68683E-10 1.21971E-18 8.15673E-19
 -1      3223 9.52502E-05-2.85823E-05-2.85720E-05-1.61023E-09 7.10509E-19 9.49071E-19
 -1      3224 9.52511E-05-2.85805E-05-2.85731E-05-3.06922E-09 7.01806E-19 7.57336E-19
 -1      3225 9.52513E-05-2.85806E-05-2.85731E-05 2.30041E-09 1.32061E-18 9.65944E-19
 -1      3226 9.52453E-05-2.85799E-05-2.85709E-05 1.49519E-08 1.19236E-18 3.49297E-18
 -1      3227 9.52469E-05-2.85809E-05-2.85711E-05 1.32145E-08 1.86992E-18 4.11314E-18
 -1      3228 1.24529E-04-5.56785E-05-2.97005E-05 1.81012E-05-2.09372E-18-2.41828E-18
 -1      3229 1.19072E-04-5.48012E-05-2.72288E-05 2.46686E-05-2.25778E-18-1.89820E-18
 -1      3230 9.78568E-05-2.59939E-05-3.08260E-05 3.34977E-06 1.83965E-18 3.10295E-19
 -1      3231 1.16526E-04-1.25922E-05-4.49420E-05-7.75175E-06 3.34578E-18-1.41230E-18
 -1      3232 1.21003E-04-1.92693E-05-4.38344E-05-1.23920E-05 2.43443E-18-2.00662E-18
 -1      3233 1.20934E-04-2.18740E-05-4.26826E-05 1.23728E-05 2.33485E-18 1.95384E-18
 -1      3234 1.17916E-04-1.42528E-05-4.48974E-05 8.80686E-06 3.25621E-18 1.42028E-18
 -1      3235 1.13298E-04-1.47700E-05-4.25052E-05 6.49819E-06 2.68663E-18 1.06146E-18
 -1      3236 1.26440E-04-2.80802E-05-4.26433E-05-1.28521E-05 2.07200E-18-2.43384E-18
 -1      3237 1.31092E-04-3.69762E-05-4.05036E-05-1.05238E-05 1.88068E-18-3.06647E-18
 -1      3238 9.69492E-05-2.44180E-05-3.10659E-05 3.08236E-06 1.63981E-18-3.98221E-19
 -1      3239 8.07763E-05-3.43388E-05-1.94467E-05-3.64159E-05-2.58528E-18-2.70791E-18
 -1      3240 9.49396E-05-4.35931E-05-2.22268E-05-3.60739E-05-2.46529E-18-1.47595E-18
 -1      3241 9.52481E-05-2.85813E-05-2.85715E-05 1.09759E-08 2.26866E-18 4.53092E-18
 -1      3242 9.52491E-05-2.85819E-05-2.85716E-05 8.73529E-09 2.01197E-18 1.28697E-18
 -1      3243 9.52504E-05-2.85804E-05-2.85728E-05 7.57842E-09 2.20180E-18 3.28258E-19
 -1      3244 9.52483E-05-2.85798E-05-2.85722E-05 1.23865E-08 2.18560E-18 4.12002E-18
 -1      3245 5.64063E-05-1.86784E-05-1.57792E-05-2.82674E-05-1.95270E-18-4.31108E-18
 -1      3246 6.76043E-05-2.65761E-05-1.75350E-05-3.48127E-05-2.35803E-18-3.75204E-18
 -1      3247 7.83026E-05-2.94993E-05-2.06040E-05-3.16750E-05-2.23426E-18-2.89640E-18
 -1      3248 5.92596E-05-1.58423E-05-1.82220E-05-2.12886E-05-1.50810E-18-4.09175E-18
 -1      3249 9.52486E-05-2.85814E-05-2.85716E-05-9.20476E-09 4.64285E-19 1.07831E-18
 -1      3250 9.52476E-05-2.85808E-05-2.85715E-05-1.13339E-08-3.01949E-19 2.72589E-18
 -1      3251 9.52499E-05-2.85800E-05-2.85728E-05-8.20168E-09 6.94762E-19-3.88742E-20
 -1      3252 1.01589E-04-2.80710E-05-3.14613E-05 7.92468E-06 6.44303E-19 9.16293E-19
 -1      3253 1.02596E-04-2.99935E-05-3.11691E-05 8.21264E-06 4.40791E-19 1.06835E-18
 -1      3254 1.05499E-04-3.16917E-05-3.15936E-05 8.45396E-06 2.59452E-19 8.82964E-19
 -1      3255 1.03197E-04-2.71851E-05-3.25550E-05 8.25814E-06 7.93966E-19 7.65837E-19
 -1      3256 7.39266E-05-3.64705E-05-1.53748E-05 3.66608E-05 1.78427E-18-3.75966E-18
 -1      3257 6.62247E-05-1.99905E-05-1.94136E-05-2.35473E-05 1.51209E-18 4.13299E-18
 -1      3258 6.71370E-05-1.65646E-05-2.16099E-05-2.00491E-05 1.09513E-18 3.01586E-18
 -1      3259 6.20388E-05-1.23719E-05-2.09411E-05-1.37948E-05 2.17767E-19 2.84169E-18
 -1      3260 1.10407E-04-5.11957E-05-2.49670E-05-3.04778E-05-2.44321E-18-8.07037E-19
 -1      3261 1.22040E-04-5.63593E-05-2.84597E-05-2.28791E-05-2.03166E-18-6.49436E-20
 -1      3262 1.23119E-04-5.37692E-05-2.96402E-05-1.56124E-05-1.66678E-18 4.58457E-20
 -1      3263 3.81865E-05-9.72802E-06-1.17228E-05-5.94511E-06 1.60407E-20 2.27958E-18
 -1      3264 4.42643E-05-1.45793E-05-1.20799E-05-1.86025E-05 1.33683E-18 4.39621E-18
 -1      3265 9.73439E-05-2.55122E-05-3.07764E-05 1.80037E-06 1.45790E-18-5.27559E-19
 -1      3266 9.57559E-05-2.34423E-05-3.09880E-05 6.12091E-07 1.28937E-18-1.33467E-18
 -1      3267 9.42570E-05-2.11720E-05-3.13363E-05 1.11222E-06 1.44966E-18-1.61374E-18
 -1      3268 9.32463E-05-2.01572E-05-3.13291E-05 1.91032E-07 1.15795E-18-1.91667E-18
 -1      3269 1.20107E-04-2.48429E-05-4.10939E-05-1.22001E-05 1.89357E-18-2.41984E-18
 -1      3270 4.89798E-05-8.51300E-06-1.68094E-05 1.53540E-06-1.95139E-19-4.63968E-18
 -1      3271 5.42779E-05-9.49171E-06-1.90370E-05-4.81640E-06-6.36876E-19-4.10811E-18
 -1      3272 5.57085E-05-1.03078E-05-1.92320E-05 8.84011E-06 4.79712E-19-3.88725E-18
 -1      3273 1.28457E-04-5.19142E-05-3.31259E-05 3.79783E-06-1.10706E-18-3.08209E-18
 -1      3274 1.27936E-04-5.47392E-05-3.13367E-05 1.10120E-05-1.60357E-18-2.91295E-18
 -1      3275 1.22672E-04-5.27060E-05-2.99840E-05 1.25404E-05-2.38504E-18-2.54011E-18
 -1      3276 8.75364E-05-1.67233E-05-3.03354E-05 2.57681E-06-1.14651E-18-2.17007E-18
 -1      3277 4.87897E-05-1.64503E-05-1.34357E-05 2.67595E-05-1.90355E-18 3.58115E-18
 -1      3278 6.85702E-05-2.42239E-05-1.84962E-05 2.96209E-05 1.86803E-18-3.12481E-18
 -1      3279 6.95472E-05-2.95412E-05-1.67994E-05 3.26672E-05 1.70068E-18-3.60529E-18
 -1      3280 6.17239E-05-1.18268E-05-2.11086E-05 1.33917E-05 5.72462E-19-3.40978E-18
 -1      3281 6.59197E-05-1.54458E-05-2.15364E-05 1.98105E-05 9.82082E-19-2.94587E-18
 -1      3282 6.42369E-05-1.85834E-05-1.91828E-05 2.34381E-05 1.45589E-18-3.26484E-18
 -1      3283 8.53245E-05-1.29979E-05-3.10166E-05-2.48073E-06-7.40975E-19-2.81111E-18
 -1      3284 8.62540E-05-1.37449E-05-3.10944E-05-1.91913E-06-9.93739E-19-2.77752E-18
 -1      3285 1.26057E-04-3.84415E-05-3.76445E-05-1.02103E-05 8.76282E-19-3.03264E-18
 -1      3286 1.31379E-04-4.30575E-05-3.81554E-05-7.19449E-06 1.13759E-18-2.97544E-18
 -1      3287 1.29809E-04-4.71427E-05-3.53833E-05-3.33041E-06 5.82600E-20-3.28561E-18
 -1      3288 9.52391E-05-2.85770E-05-2.85694E-05 1.77317E-08-5.42388E-19 1.78735E-18
 -1      3289 1.06049E-04-3.58242E-05-3.00852E-05 3.90993E-06 4.99208E-19 3.09139E-19
 -1      3290 1.03935E-04-3.46683E-05-2.97082E-05 3.64982E-06 4.75886E-19 6.72300E-19
 -1      3291 1.03714E-04-3.45522E-05-2.96210E-05 2.64548E-06 3.72157E-19 5.19018E-19
 -1      3292 9.52431E-05-2.85786E-05-2.85705E-05 1.69438E-08-6.15496E-19 1.83618E-18
 -1      3293 9.52446E-05-2.85779E-05-2.85714E-05 1.66939E-08-1.50735E-19 9.85639E-19
 -1      3294 9.52432E-05-2.85784E-05-2.85706E-05-1.62409E-08 4.96527E-19 8.59369E-19
 -1      3295 9.52432E-05-2.85773E-05-2.85711E-05-1.68643E-08 3.57422E-19 3.34326E-19
 -1      3296 9.52445E-05-2.85793E-05-2.85708E-05-1.53188E-08-2.63453E-19 2.82669E-19
 -1      3297 5.37004E-05-1.72815E-05-1.50855E-05-2.14534E-05 1.70738E-18 4.48779E-18
 -1      3298 1.10194E-04-5.03718E-05-2.55487E-05 2.78121E-05-2.46947E-18-1.87569E-18
 -1      3299 1.26969E-04-4.97184E-05-3.31650E-05-1.53622E-06-5.76002E-19 5.64193E-19
 -1      3300 1.31258E-04-4.89039E-05-3.53223E-05 1.99992E-06-3.79127E-19 1.08283E-18
 -1      3301 1.26680E-04-4.23731E-05-3.62915E-05 7.63049E-06 1.72504E-19 1.30908E-18
 -1      3302 8.49109E-05-1.27562E-05-3.09606E-05-3.35092E-06-6.66727E-19-2.99205E-18
 -1      3303 8.51056E-05-1.36643E-05-3.05620E-05-2.67843E-06-7.23160E-19-2.77490E-18
 -1      3304 8.48050E-05-1.26399E-05-3.09271E-05-3.69355E-06-4.33141E-19-3.05217E-18
 -1      3305 9.52414E-05-2.85777E-05-2.85702E-05 1.77331E-08-1.08337E-18 6.12478E-19
 -1      3306 9.85390E-05-2.79940E-05-3.02527E-05 6.29607E-07 1.22187E-18-3.68904E-19
 -1      3307 9.80365E-05-2.67237E-05-3.05481E-05 1.36818E-06 1.45130E-18-3.48279E-19
 -1      3308 1.03744E-04-4.54531E-05-2.47308E-05-2.91872E-05-2.30626E-18-1.15327E-18
 -1      3309 1.12620E-04-1.34654E-05-4.27432E-05-4.80291E-06 2.73486E-18-1.04618E-18
 -1      3310 1.22838E-04-2.83415E-05-4.08393E-05 1.25595E-05 1.54504E-18 1.70508E-18
 -1      3311 1.17159E-04-2.44464E-05-3.98348E-05 1.20353E-05 1.85736E-18 1.55595E-18
 -1      3312 1.23580E-04-3.41892E-05-3.84144E-05 1.13165E-05 7.20772E-19 1.69452E-18
 -1      3313 9.21760E-05-1.91494E-05-3.12993E-05-7.55022E-07 1.07493E-18-2.13945E-18
 -1      3314 9.10725E-05-1.81818E-05-3.12530E-05-1.66849E-06 8.57018E-19-2.35996E-18
 -1      3315 9.15334E-05-1.94736E-05-3.08850E-05-2.92560E-06 7.07877E-19-2.30460E-18
 -1      3316 9.38487E-05-2.15374E-05-3.09879E-05-1.14234E-06 9.99446E-19-1.82124E-18
 -1      3317 1.02384E-04-3.33791E-05-2.95418E-05 8.81860E-07 5.45676E-19 2.19879E-19
 -1      3318 1.02685E-04-3.34797E-05-2.96781E-05-7.02003E-09 4.30410E-19-1.15875E-19
 -1      3319 1.02833E-04-3.39851E-05-2.95328E-05 1.60880E-06 3.49880E-19 4.03770E-19
 -1      3320 4.00904E-05-9.22808E-06-1.29316E-05 8.62457E-06-6.42094E-19 1.92689E-18
 -1      3321 3.84938E-05-8.81274E-06-1.19249E-05 8.70995E-07-3.80510E-19 1.07870E-18
 -1      3322 4.50018E-05-9.57925E-06-1.49261E-05-6.92367E-06 1.34440E-19 1.84156E-18
 -1      3323 9.72952E-05-2.55744E-05-3.07282E-05 1.00351E-06 1.33621E-18-8.21213E-19
 -1      3324 5.75860E-05-1.74834E-05-1.68197E-05-2.27997E-05 1.47408E-18 4.59378E-18
 -1      3325 9.52467E-05-2.85805E-05-2.85712E-05-1.27776E-08 1.53092E-19 1.16146E-18
 -1      3326 9.52457E-05-2.85798E-05-2.85711E-05-1.41117E-08 1.91861E-19 2.14628E-19
 -1      3327 9.52460E-05-2.85786E-05-2.85718E-05-1.46965E-08 6.98939E-19 2.37975E-19
 -1      3328 9.52481E-05-2.85793E-05-2.85723E-05-1.20569E-08 2.48740E-19 1.30346E-18
 -1      3329 8.76207E-05-1.51324E-05-3.10525E-05-3.73473E-06 2.89519E-19-2.75533E-18
 -1      3330 8.66537E-05-1.43942E-05-3.10025E-05-4.14366E-06 2.17809E-20-2.76580E-18
 -1      3331 8.90338E-05-1.73180E-05-3.07330E-05-4.27214E-06 2.65833E-19-2.49320E-18
 -1      3332 7.89635E-05-3.44412E-05-1.86081E-05 3.82942E-05-3.38914E-18 1.01776E-18
 -1      3333 7.04469E-05-2.71686E-05-1.84190E-05 3.35449E-05-2.54044E-18 1.57622E-18
 -1      3334 8.90703E-05-3.88460E-05-2.15070E-05 3.46361E-05-3.09379E-18-3.74442E-19
 -1      3335 9.89032E-05-2.83436E-05-3.02485E-05 1.64201E-08 1.04917E-18-6.02296E-19
 -1      3336 6.14774E-05-1.01974E-05-2.20353E-05 6.39390E-06 8.97987E-20-3.49991E-18
 -1      3337 5.52822E-05-1.68498E-05-1.62934E-05 2.54734E-05-1.92062E-18 3.00051E-18
 -1      3338 4.56515E-05-1.12591E-05-1.40015E-05 1.82795E-05-1.23619E-18 2.53358E-18
 -1      3339 4.72570E-05-9.84178E-06-1.57880E-05 9.45707E-06-4.08786E-19 1.36997E-18
 -1      3340 8.71701E-05-1.52294E-05-3.07937E-05-3.16048E-07-1.07137E-18-2.38157E-18
 -1      3341 7.83412E-05-1.39915E-05-2.76305E-05 3.30700E-06-6.85021E-19-2.50281E-18
 -1      3342 7.52691E-05-1.31424E-05-2.66902E-05 3.93082E-06-4.91312E-19-2.62837E-18
 -1      3343 7.13058E-05-1.21502E-05-2.54225E-05 3.74077E-06-3.13621E-19-2.77742E-18
 -1      3344 6.72064E-05-1.12298E-05-2.39545E-05 4.21314E-06-8.51698E-20-3.00051E-18
 -1      3345 7.22801E-05-1.21002E-05-2.56441E-05-5.98643E-07-5.93519E-19-2.84813E-18
 -1      3346 6.62358E-05-1.17913E-05-2.33145E-05-5.80801E-06-2.88358E-19 1.46502E-18
 -1      3347 7.04028E-05-1.29121E-05-2.47148E-05-5.20872E-06-2.55334E-19 9.16251E-19
 -1      3348 1.18112E-04-5.08414E-05-2.85300E-05-1.74311E-05-1.47156E-18-1.92316E-19
 -1      3349 1.22753E-04-5.17475E-05-3.06380E-05-1.01366E-05-1.12820E-18 4.43766E-20
 -1      3350 7.46445E-05-1.43553E-05-2.58798E-05-5.39830E-06-1.83614E-19 7.11805E-20
 -1      3351 7.77498E-05-1.56591E-05-2.66707E-05-5.01565E-06-7.30518E-19-7.38846E-20
 -1      3352 7.10481E-05-1.29802E-05-2.47166E-05-1.24571E-06-8.15071E-19-6.43001E-20
 -1      3353 8.07736E-05-1.70715E-05-2.73420E-05-5.12711E-06-8.95289E-19-4.10564E-19
 -1      3354 8.30269E-05-1.83113E-05-2.77771E-05-4.77430E-06-1.00454E-18-1.19250E-19
 -1      3355 7.80404E-05-1.58208E-05-2.65625E-05-2.28418E-06-9.04197E-19-1.55280E-18
 -1      3356 8.51987E-05-1.95630E-05-2.81591E-05-4.75639E-06-1.14953E-18-2.18428E-19
 -1      3357 8.67957E-05-2.06304E-05-2.83856E-05-4.37962E-06-9.90452E-19 4.98153E-19
 -1      3358 8.30700E-05-1.84313E-05-2.76332E-05-2.85066E-06-9.48415E-19-9.86423E-19
 -1      3359 8.83525E-05-2.16734E-05-2.85954E-05-4.25134E-06-6.88502E-19 1.05761E-18
 -1      3360 8.94592E-05-2.25389E-05-2.87012E-05-3.86189E-06-6.48108E-19 1.04066E-18
 -1      3361 8.66877E-05-2.06760E-05-2.82430E-05-3.00999E-06-3.35361E-19-4.55178E-19
 -1      3362 9.05668E-05-2.33718E-05-2.88086E-05-3.66543E-06-9.34223E-19 1.13154E-18
 -1      3363 9.13188E-05-2.40473E-05-2.88465E-05-3.28856E-06-4.83159E-19 1.07025E-18
 -1      3364 8.92767E-05-2.25214E-05-2.85762E-05-2.88473E-06-7.35449E-19-6.95870E-20
 -1      3365 9.20996E-05-2.46932E-05-2.88940E-05-3.06328E-06-8.69211E-19 1.22024E-18
 -1      3366 9.26020E-05-2.52075E-05-2.88954E-05-2.71918E-06-7.75495E-19 2.37556E-19
 -1      3367 9.11129E-05-2.39897E-05-2.87443E-05-2.59233E-06-5.73808E-19 2.21012E-19
 -1      3368 9.31477E-05-2.56986E-05-2.89090E-05-2.49349E-06-6.08220E-19-3.56459E-20
 -1      3369 9.34785E-05-2.60842E-05-2.88924E-05-2.19313E-06-6.19520E-19-8.92231E-19
 -1      3370 9.24035E-05-2.51308E-05-2.88156E-05-2.22425E-06-1.22783E-18-3.57686E-19
 -1      3371 9.38573E-05-2.64529E-05-2.88879E-05-1.98432E-06-9.09581E-19-5.82901E-19
 -1      3372 9.40726E-05-2.67394E-05-2.88640E-05-1.73099E-06-8.71982E-19-8.64722E-19
 -1      3373 9.33034E-05-2.60035E-05-2.88324E-05-1.84208E-06-8.75174E-19-1.80938E-19
 -1      3374 9.43341E-05-2.70143E-05-2.88505E-05-1.54773E-06-4.97640E-19-6.52098E-19
 -1      3375 9.44726E-05-2.72264E-05-2.88250E-05-1.33966E-06-7.18440E-19 1.70218E-19
 -1      3376 9.39269E-05-2.66642E-05-2.88200E-05-1.48246E-06-2.40348E-19 4.70779E-19
 -1      3377 9.46524E-05-2.74305E-05-2.88081E-05-1.18484E-06-1.23897E-18 1.45530E-19
 -1      3378 9.47408E-05-2.75873E-05-2.87840E-05-1.01758E-06-1.05845E-18 7.80727E-19
 -1      3379 9.43568E-05-2.71611E-05-2.87936E-05-1.16407E-06-5.69009E-19-3.48390E-19
 -1      3380 9.48639E-05-2.77386E-05-2.87666E-05-8.90579E-07-3.55941E-19 5.31339E-19
 -1      3381 9.49198E-05-2.78546E-05-2.87451E-05-7.58544E-07-5.04190E-19 1.08527E-18
 -1      3382 9.46521E-05-2.75336E-05-2.87621E-05-8.93836E-07-5.58081E-19 1.42710E-19
 -1      3383 9.50038E-05-2.79667E-05-2.87289E-05-6.56818E-07-9.48129E-19 1.30013E-18
 -1      3384 9.50387E-05-2.80526E-05-2.87105E-05-5.54191E-07-6.94434E-19 1.83332E-18
 -1      3385 9.48543E-05-2.78122E-05-2.87304E-05-6.71675E-07-4.73227E-19 1.33940E-18
 -1      3386 9.50979E-05-2.81392E-05-2.86955E-05-4.70563E-07-5.43579E-19 1.25101E-18
 -1      3387 9.51204E-05-2.82052E-05-2.86796E-05-3.89130E-07-3.29876E-20 1.69983E-18
 -1      3388 9.49947E-05-2.80244E-05-2.87003E-05-4.89971E-07-6.03218E-19 1.18665E-18
 -1      3389 9.51581E-05-2.82653E-05-2.86674E-05-3.28780E-07 9.13249E-19 1.64845E-18
 -1      3390 9.51709E-05-2.83116E-05-2.86551E-05-2.70535E-07 7.78739E-19 1.35950E-18
 -1      3391 9.50891E-05-2.81819E-05-2.86738E-05-3.48191E-07 3.02810E-19 3.90869E-19
 -1      3392 9.51959E-05-2.83558E-05-2.86450E-05-2.24926E-07-5.39839E-19 1.60157E-18
 -1      3393 9.52034E-05-2.83899E-05-2.86352E-05-1.81812E-07-1.50682E-18 2.15643E-18
 -1      3394 9.51504E-05-2.82952E-05-2.86518E-05-2.42626E-07 1.19345E-19 3.26471E-19
 -1      3395 9.52197E-05-2.84221E-05-2.86269E-05-1.48081E-07-1.41745E-18 2.34886E-18
 -1      3396 9.52239E-05-2.84471E-05-2.86192E-05-1.16710E-07-9.84337E-19 2.63996E-18
 -1      3397 9.51909E-05-2.83788E-05-2.86335E-05-1.63228E-07-9.92649E-19 8.08265E-19
 -1      3398 9.52343E-05-2.84704E-05-2.86126E-05-9.22769E-08-1.14291E-18 1.75286E-18
 -1      3399 9.52364E-05-2.84885E-05-2.86066E-05-6.99020E-08 2.29368E-19 1.39813E-18
 -1      3400 9.52171E-05-2.84400E-05-2.86186E-05-1.04717E-07-1.57000E-18 1.70356E-18
 -1      3401 9.52426E-05-2.85052E-05-2.86014E-05-5.26122E-08 1.47560E-18 4.68756E-19
 -1      3402 9.52435E-05-2.85181E-05-2.85969E-05-3.70276E-08 1.23877E-18 4.49179E-19
 -1      3403 9.52334E-05-2.84843E-05-2.86067E-05-6.25257E-08 3.94622E-19 1.34034E-18
 -1      3404 9.52469E-05-2.85298E-05-2.85928E-05-2.51265E-08 1.04165E-18 7.03308E-19
 -1      3405 9.52470E-05-2.85390E-05-2.85893E-05-1.45881E-08 1.32006E-18 5.95278E-21
 -1      3406 9.52429E-05-2.85159E-05-2.85973E-05-3.28414E-08 1.77927E-18 8.45868E-19
 -1      3407 9.52486E-05-2.85470E-05-2.85862E-05-6.68178E-09 1.00764E-18-1.80524E-19
 -1      3408 9.52483E-05-2.85534E-05-2.85837E-05 1.62279E-10-4.10423E-20-7.71319E-19
 -1      3409 9.52479E-05-2.85381E-05-2.85899E-05-1.25657E-08 1.07702E-18 7.03274E-19
 -1      3410 9.52487E-05-2.85588E-05-2.85812E-05 5.16284E-09-2.95810E-19-1.68469E-19
 -1      3411 9.52481E-05-2.85631E-05-2.85794E-05 9.35044E-09 4.97201E-19 1.01379E-18
 -1      3412 9.52499E-05-2.85534E-05-2.85842E-05 7.51576E-10 1.75635E-19-4.39643E-20
 -1      3413 9.52478E-05-2.85667E-05-2.85775E-05 1.22744E-08-3.79501E-19 7.20929E-19
 -1      3414 9.52471E-05-2.85695E-05-2.85762E-05 1.45710E-08-1.02158E-18 6.96250E-19
 -1      3415 9.52500E-05-2.85637E-05-2.85799E-05 9.02870E-09 2.78973E-19-1.16071E-21
 -1      3416 9.52464E-05-2.85719E-05-2.85747E-05 1.60348E-08-1.64640E-18 1.17345E-18
 -1      3417 9.52458E-05-2.85738E-05-2.85737E-05 1.69659E-08-8.51527E-19 6.95108E-20
 -1      3418 9.52490E-05-2.85704E-05-2.85766E-05 1.36975E-08-1.47904E-18 1.49976E-18
 -1      3419 9.52455E-05-2.85752E-05-2.85729E-05 1.70403E-08-4.58304E-19 5.46544E-20
 -1      3420 9.52450E-05-2.85767E-05-2.85721E-05 1.70737E-08-6.73243E-19 6.47482E-20
 -1      3421 9.52474E-05-2.85779E-05-2.85727E-05 1.50888E-08 5.80825E-20 3.12989E-18
 -1      3422 9.52481E-05-2.85748E-05-2.85743E-05 1.53819E-08-1.05988E-18 2.24710E-18
 -1      3423 1.00965E-04-1.89987E-05-3.51220E-05-1.17429E-06 1.53046E-18-4.64214E-21
 -1      3424 1.01191E-04-1.94352E-05-3.50779E-05 1.67158E-06 1.56497E-18 1.52345E-19
 -1      3425 1.02041E-04-2.08231E-05-3.47812E-05 4.90768E-06 1.10415E-18 5.75087E-19
 -1      3426 1.03211E-04-2.30521E-05-3.44281E-05 7.14856E-06 9.59437E-19 5.06916E-19
 -1      3427 1.03716E-04-1.92385E-05-3.62994E-05 3.72694E-06 1.42991E-18-2.74609E-19
 -1      3428 1.05499E-04-2.77105E-05-3.34339E-05-1.02863E-05 3.29098E-19-7.93162E-19
 -1      3429 1.04112E-04-2.47554E-05-3.39575E-05-9.34721E-06 6.00186E-19-1.17750E-18
 -1      3430 1.07925E-04-3.32736E-05-3.20500E-05-9.74915E-06 2.61806E-19-1.27363E-18
 -1      3431 1.06883E-04-3.06925E-05-3.26273E-05-1.02088E-05 3.24162E-19-1.28280E-18
 -1      3432 1.08957E-04-2.97642E-05-3.38656E-05-1.09365E-05 5.66984E-19-1.83787E-18
 -1      3433 1.08444E-04-3.65583E-05-3.08195E-05-7.02010E-06 1.64946E-19-1.29116E-18
 -1      3434 1.08181E-04-3.51552E-05-3.13088E-05-8.23613E-06 5.99656E-20-1.43604E-18
 -1      3435 1.10641E-04-3.54709E-05-3.21929E-05-9.01027E-06 1.60298E-19-1.73677E-18
 -1      3436 1.07247E-04-3.74788E-05-2.98798E-05-3.68050E-06-4.92642E-19-4.47849E-19
 -1      3437 1.07690E-04-3.72009E-05-3.02416E-05-5.11350E-06-2.73029E-19-7.56156E-19
 -1      3438 1.10132E-04-3.83994E-05-3.07374E-05-5.30307E-06-2.34173E-19-1.05752E-18
 -1      3439 1.04996E-04-3.66105E-05-2.92716E-05-8.45569E-07-1.24406E-18 6.50153E-19
 -1      3440 1.05859E-04-3.70919E-05-2.95002E-05-2.06629E-06-5.61537E-19 1.92943E-19
 -1      3441 1.07868E-04-3.85250E-05-2.97232E-05-1.67782E-06-1.29857E-18-2.93934E-19
 -1      3442 1.02478E-04-3.48918E-05-2.89298E-05 1.11349E-06-5.37491E-19 1.24387E-18
 -1      3443 1.03466E-04-3.57181E-05-2.90558E-05 2.50719E-07-9.86976E-19 1.02915E-18
 -1      3444 1.04883E-04-3.70254E-05-2.91077E-05 9.56129E-07-1.31499E-18 7.89645E-19
 -1      3445 1.00196E-04-3.30067E-05-2.87664E-05 2.24047E-06-3.73767E-19 1.46627E-18
 -1      3446 1.01113E-04-3.38815E-05-2.88251E-05 1.72161E-06-2.95741E-19 1.43823E-18
 -1      3447 1.01962E-04-3.48746E-05-2.87839E-05 2.51895E-06-4.52224E-19 1.22362E-18
 -1      3448 9.83721E-05-3.13354E-05-2.87087E-05 2.73657E-06-5.89124E-19 1.65061E-18
 -1      3449 9.91219E-05-3.20979E-05-2.87287E-05 2.48669E-06 1.13443E-19 1.50656E-18
 -1      3450 9.95250E-05-3.27513E-05-2.86459E-05 3.23000E-06-4.24289E-19 1.27435E-18
 -1      3451 9.70379E-05-3.00288E-05-2.87042E-05 2.81337E-06-7.09621E-19 8.65732E-19
 -1      3452 9.75996E-05-3.06181E-05-2.87060E-05 2.75014E-06-6.37707E-19 1.54591E-18
 -1      3453 9.76947E-05-3.09846E-05-2.86127E-05 3.37063E-06-4.55987E-19 1.00603E-18
 -1      3454 9.61336E-05-2.91025E-05-2.87193E-05 2.64137E-06-2.14729E-19 9.76657E-19
 -1      3455 9.65255E-05-2.95166E-05-2.87155E-05 2.69508E-06-6.58487E-19 1.03738E-18
 -1      3456 9.64293E-05-2.96673E-05-2.86287E-05 3.17782E-06-5.16072E-19 1.04178E-18
 -1      3457 9.55651E-05-2.85049E-05-2.87358E-05 2.34162E-06-3.14370E-19 1.32027E-18
 -1      3458 9.58215E-05-2.87698E-05-2.87330E-05 2.46027E-06-1.88822E-19 9.56759E-19
 -1      3459 9.56224E-05-2.87740E-05-2.86604E-05 2.81838E-06-6.48195E-19 1.27179E-18
 -1      3460 9.52385E-05-2.81620E-05-2.87455E-05 1.99299E-06 6.29177E-20 1.87884E-18
 -1      3461 9.53953E-05-2.83124E-05-2.87462E-05 2.14075E-06 1.13962E-19 1.80830E-18
 -1      3462 9.51544E-05-2.82270E-05-2.86901E-05 2.39819E-06-5.36421E-19 1.81852E-18
 -1      3463 9.50744E-05-2.80003E-05-2.87461E-05 1.64348E-06-3.44305E-19 1.94441E-18
 -1      3464 9.51628E-05-2.80700E-05-2.87508E-05 1.79724E-06 3.04188E-20 1.84897E-18
 -1      3465 9.49189E-05-2.79373E-05-2.87104E-05 1.97883E-06-3.10608E-20 1.99001E-18
 -1      3466 9.50122E-05-2.79581E-05-2.87384E-05 1.31995E-06-4.11133E-19 1.21409E-18
 -1      3467 9.50564E-05-2.79751E-05-2.87463E-05 1.46583E-06-3.39781E-19 1.79656E-18
 -1      3468 9.48318E-05-2.78247E-05-2.87195E-05 1.59290E-06-1.74760E-19 1.99099E-18
 -1      3469 9.50087E-05-2.79878E-05-2.87246E-05 1.03545E-06-7.76853E-19 1.91982E-18
 -1      3470 9.50262E-05-2.79733E-05-2.87346E-05 1.16600E-06-2.61888E-19 1.62193E-18
 -1      3471 9.48320E-05-2.78241E-05-2.87186E-05 1.25511E-06-6.40178E-19 2.53200E-18
 -1      3472 9.50351E-05-2.80553E-05-2.87070E-05 7.94380E-07-4.18227E-19 1.39992E-18
 -1      3473 9.50378E-05-2.80244E-05-2.87180E-05 9.06433E-07-4.04409E-19 1.55561E-18
 -1      3474 9.48776E-05-2.78877E-05-2.87102E-05 9.69586E-07-4.70852E-19 2.47539E-18
 -1      3475 9.50735E-05-2.81381E-05-2.86879E-05 5.96016E-07 1.18983E-18-2.63910E-21
 -1      3476 9.50689E-05-2.81009E-05-2.86989E-05 6.89089E-07 3.71712E-19 7.25719E-19
 -1      3477 9.49418E-05-2.79820E-05-2.86969E-05 7.34629E-07 6.37876E-19 5.24214E-19
 -1      3478 9.51134E-05-2.82221E-05-2.86689E-05 4.36789E-07-4.09724E-19 1.03405E-18
 -1      3479 9.51060E-05-2.81846E-05-2.86793E-05 5.11999E-07 2.56583E-19 5.54301E-19
 -1      3480 9.50086E-05-2.80854E-05-2.86811E-05 5.45529E-07 1.06596E-20 1.70277E-19
 -1      3481 9.51493E-05-2.82994E-05-2.86509E-05 3.11799E-07 2.40469E-19 7.17774E-19
 -1      3482 9.51416E-05-2.82651E-05-2.86603E-05 3.71103E-07 2.48800E-19 6.56468E-19
 -1      3483 9.50696E-05-2.81850E-05-2.86645E-05 3.96305E-07 8.03355E-20 5.49146E-19
 -1      3484 9.51790E-05-2.83661E-05-2.86349E-05 2.15736E-07 1.30879E-18 3.56472E-19
 -1      3485 9.51723E-05-2.83366E-05-2.86430E-05 2.61438E-07 9.25055E-19 2.65139E-19
 -1      3486 9.51208E-05-2.82739E-05-2.86484E-05 2.80717E-07 8.08808E-19-4.64386E-19
 -1      3487 9.52020E-05-2.84212E-05-2.86210E-05 1.43436E-07 7.67017E-19 1.08317E-18
 -1      3488 9.51967E-05-2.83969E-05-2.86278E-05 1.77872E-07 8.33721E-19 9.97520E-19
 -1      3489 9.51615E-05-2.83491E-05-2.86337E-05 1.92809E-07 5.09805E-19 6.71366E-19
 -1      3490 9.52189E-05-2.84650E-05-2.86093E-05 9.01939E-08 1.60028E-19 1.31291E-18
 -1      3491 9.52150E-05-2.84457E-05-2.86149E-05 1.15546E-07 6.00375E-19 1.01789E-18
 -1      3492 9.51921E-05-2.84103E-05-2.86206E-05 1.27203E-07 5.22654E-19 2.45028E-18
 -1      3493 9.52306E-05-2.84987E-05-2.85997E-05 5.19035E-08-1.29512E-20 2.35532E-18
 -1      3494 9.52280E-05-2.84839E-05-2.86042E-05 7.01039E-08 1.04765E-20 1.70749E-18
 -1      3495 9.52141E-05-2.84584E-05-2.86095E-05 7.92221E-08-4.74521E-20 3.52502E-18
 -1      3496 9.52382E-05-2.85240E-05-2.85920E-05 2.51055E-08-7.32458E-19 3.19119E-18
 -1      3497 9.52366E-05-2.85129E-05-2.85956E-05 3.77998E-08 4.21020E-21 3.20193E-18
 -1      3498 9.52291E-05-2.84950E-05-2.86003E-05 4.49196E-08-1.57983E-19 3.67424E-18
 -1      3499 9.52426E-05-2.85423E-05-2.85860E-05 6.96594E-09-4.14223E-19 2.26400E-18
 -1      3500 9.52418E-05-2.85343E-05-2.85887E-05 1.55095E-08-5.64487E-19 2.69751E-18
 -1      3501 9.52387E-05-2.85223E-05-2.85927E-05 2.10425E-08-2.81047E-19 2.44888E-18
 -1      3502 9.52448E-05-2.85553E-05-2.85813E-05-4.77849E-09 1.77150E-19 3.13019E-18
 -1      3503 9.52445E-05-2.85496E-05-2.85834E-05 6.99509E-10-6.18923E-19 2.11751E-18
 -1      3504 9.52442E-05-2.85419E-05-2.85867E-05 4.96983E-09-3.82101E-19 1.21803E-18
 -1      3505 9.52454E-05-2.85642E-05-2.85777E-05-1.18914E-08 3.50910E-19 3.13060E-18
 -1      3506 9.52455E-05-2.85602E-05-2.85793E-05-8.63580E-09 1.07058E-18 3.34556E-18
 -1      3507 9.52469E-05-2.85556E-05-2.85820E-05-5.37079E-09-6.02378E-20 2.15497E-18
 -1      3508 9.52451E-05-2.85702E-05-2.85750E-05-1.56751E-08 1.74811E-19 2.41659E-18
 -1      3509 9.52453E-05-2.85675E-05-2.85761E-05-1.40179E-08-1.69788E-19 2.74957E-18
 -1      3510 9.52476E-05-2.85650E-05-2.85783E-05-1.15596E-08 4.63059E-19 2.03771E-18
 -1      3511 9.52442E-05-2.85743E-05-2.85728E-05-1.71133E-08 4.93331E-19 2.95855E-18
 -1      3512 9.52446E-05-2.85724E-05-2.85737E-05-1.66009E-08 5.38311E-19 3.18412E-18
 -1      3513 9.52471E-05-2.85713E-05-2.85753E-05-1.47870E-08 1.66413E-19 1.20395E-18
 -1      3514 9.52437E-05-2.85764E-05-2.85717E-05-1.69728E-08 1.38116E-18 6.94428E-19
 -1      3515 9.52437E-05-2.85753E-05-2.85722E-05-1.72283E-08 1.46354E-18 1.77096E-18
 -1      3516 9.52462E-05-2.85750E-05-2.85734E-05-1.59381E-08 2.28848E-18 2.03495E-19
 -1      3517 9.52452E-05-2.85772E-05-2.85720E-05-1.59855E-08 1.39076E-18-7.75491E-20
 -1      3518 8.57480E-05-1.35049E-05-3.09491E-05-4.16504E-06-3.70955E-20-2.74328E-18
 -1      3519 8.51834E-05-1.30998E-05-3.09329E-05-4.18606E-06-2.45126E-19-2.89691E-18
 -1      3520 8.52090E-05-1.39301E-05-3.05167E-05-4.22363E-06-4.30507E-19-2.83139E-18
 -1      3521 8.53953E-05-1.51953E-05-3.01120E-05 9.51482E-07-9.39580E-19-2.41244E-18
 -1      3522 9.75198E-05-3.99098E-05-2.43436E-05-2.85281E-05-1.91332E-18-1.58010E-18
 -1      3523 1.09309E-04-4.78241E-05-2.66479E-05-2.44267E-05-1.63614E-18-1.00048E-18
 -1      3524 1.14158E-04-2.17653E-05-3.97544E-05-1.18843E-05 1.84206E-18-2.62469E-18
 -1      3525 1.19742E-04-2.96319E-05-3.87385E-05-1.27757E-05 1.14887E-18-2.81493E-18
 -1      3526 1.02482E-04-2.20422E-05-3.45862E-05-7.26225E-06 6.72348E-19-6.01155E-19
 -1      3527 1.01406E-04-2.00343E-05-3.49060E-05-5.05528E-06 1.15824E-18-3.34642E-19
 -1      3528 1.03153E-04-1.79992E-05-3.64635E-05-3.35581E-06 1.60961E-18-6.11207E-19
 -1      3529 1.05693E-04-2.27934E-05-3.54773E-05-9.21286E-06 1.03394E-18-1.13200E-18
 -1      3530 1.08951E-04-3.60367E-05-3.12469E-05 6.64748E-06 2.39300E-19 7.49287E-19
 -1      3531 1.09014E-04-3.71071E-05-3.08277E-05 5.33682E-06 2.70961E-19 8.04348E-19
 -1      3532 1.01324E-04-3.18045E-05-2.98140E-05-1.44102E-06 4.79293E-19-6.94196E-19
 -1      3533 1.00361E-04-3.03669E-05-2.99638E-05-1.35112E-06 6.14464E-19-8.09081E-19
 -1      3534 1.10883E-04-1.73258E-05-4.02077E-05 8.27462E-06 2.21451E-18 8.42612E-19
 -1      3535 1.08616E-04-1.33385E-05-4.10155E-05 3.29298E-06 2.35086E-18-1.54325E-19
 -1      3536 1.11944E-04-4.91512E-05-2.69841E-05 2.21221E-05-2.43813E-18-2.25631E-18
 -1      3537 1.02317E-04-4.49715E-05-2.41989E-05 2.99556E-05-2.81286E-18-1.69817E-18
 -1      3538 9.52514E-05-2.85783E-05-2.85742E-05-6.99616E-09 1.42702E-18-1.23211E-20
 -1      3539 9.52505E-05-2.85780E-05-2.85739E-05-9.38154E-09 1.11326E-18 1.48233E-19
 -1      3540 8.30825E-05-1.52725E-05-2.91203E-05 2.25635E-06-9.02585E-19-2.37521E-18
 -1      3541 8.10270E-05-1.47185E-05-2.84776E-05 3.17928E-06-7.10265E-19-2.35165E-18
 -1      3542 7.87053E-05-1.36906E-05-2.77670E-05 2.48845E-07-8.10960E-19-2.56273E-18
 -1      3543 1.06664E-04-1.47851E-05-3.95077E-05-3.32423E-06 1.90582E-18-6.91622E-19
 -1      3544 1.08554E-04-1.82721E-05-3.88500E-05-9.12041E-06 1.78205E-18-1.74392E-18
 -1      3545 9.74317E-05-2.61421E-05-3.05616E-05-1.74671E-07 1.23054E-18-1.01438E-18
 -1      3546 9.66951E-05-2.48894E-05-3.07778E-05 2.20964E-07 1.21582E-18-1.20971E-18
 -1      3547 9.58575E-05-2.39621E-05-3.08065E-05-5.60083E-07 1.06505E-18-1.38865E-18
 -1      3548 9.93263E-05-2.91035E-05-3.01107E-05-1.16904E-06 8.44348E-19-8.17815E-19
 -1      3549 9.84174E-05-2.75528E-05-3.03547E-05-6.14507E-07 1.10859E-18-9.44996E-19
 -1      3550 9.77786E-05-2.68748E-05-3.03942E-05-1.43544E-06 9.73337E-19-1.11852E-18
 -1      3551 9.97368E-05-2.96705E-05-3.00469E-05-2.13749E-06 7.01733E-19-8.76078E-19
 -1      3552 8.44194E-05-1.42549E-05-3.01040E-05-2.06260E-06-8.53925E-19-2.64699E-18
 -1      3553 8.41979E-05-1.51171E-05-2.95833E-05 7.34435E-07-9.27822E-19-2.43290E-18
 -1      3554 8.22779E-05-1.44155E-05-2.91005E-05-1.06545E-06-8.20848E-19-2.52023E-18
 -1      3555 8.41411E-05-1.40245E-05-3.00590E-05-3.03437E-06-6.67800E-19-2.78680E-18
 -1      3556 1.26466E-04-4.82051E-05-3.35393E-05-6.48514E-07-9.30277E-19-2.81511E-18
 -1      3557 5.46801E-05-1.03589E-05-1.87829E-05-7.65155E-06-3.45543E-19 1.94823E-18
 -1      3558 6.02171E-05-1.05458E-05-2.13144E-05-6.31755E-06-3.20291E-19 1.65095E-18
 -1      3559 1.21173E-04-3.45657E-05-3.73162E-05-1.15341E-05 8.41726E-19-2.65154E-18
 -1      3560 1.21710E-04-3.88469E-05-3.54646E-05-9.44055E-06 1.31131E-19-2.85024E-18
 -1      3561 1.16025E-04-3.09535E-05-3.63909E-05-1.20880E-05 7.44013E-19-2.84221E-18
 -1      3562 6.45295E-05-2.12239E-05-1.80418E-05 2.94035E-05-2.44875E-18 2.86721E-18
 -1      3563 5.92779E-05-1.62763E-05-1.83763E-05 2.23132E-05-2.01824E-18 2.65540E-18
 -1      3564 7.38304E-05-2.63100E-05-2.02871E-05 2.95753E-05-2.58660E-18 1.55788E-18
 -1      3565 1.08759E-04-2.27016E-05-3.69418E-05-9.65887E-06 1.36149E-18-1.96860E-18
 -1      3566 6.29591E-05-1.01167E-05-2.24144E-05 1.99830E-07-3.83871E-19-3.55169E-18
 -1      3567 6.12409E-05-1.01797E-05-2.15529E-05-3.12398E-07-6.11023E-19 8.12093E-19
 -1      3568 1.19598E-04-4.83629E-05-3.05805E-05-6.86481E-06-8.14952E-19-3.02682E-20
 -1      3569 1.24430E-04-5.00975E-05-3.17555E-05-4.08579E-06-8.19223E-19 3.96789E-19
 -1      3570 1.22705E-04-4.66311E-05-3.28400E-05 1.39828E-06-2.94040E-19 6.12610E-19
 -1      3571 1.19665E-04-5.03641E-05-2.96611E-05 1.12367E-05-2.10742E-18-2.10118E-18
 -1      3572 1.17248E-04-5.09893E-05-2.82513E-05 1.75796E-05-2.62631E-18-2.03162E-18
 -1      3573 1.09063E-04-4.66613E-05-2.68732E-05 2.06531E-05-2.18038E-18-2.03355E-18
 -1      3574 9.05195E-05-1.94929E-05-3.04183E-05-4.99326E-06 2.38192E-19-2.28784E-18
 -1      3575 8.91129E-05-1.84189E-05-3.03289E-05-5.49339E-06 3.89739E-20-2.45643E-18
 -1      3576 1.08172E-04-3.73754E-05-3.03676E-05 3.57914E-06 1.75670E-19 4.69758E-19
 -1      3577 1.07652E-04-3.73503E-05-3.01039E-05 2.25471E-06 2.61594E-19 1.76482E-19
 -1      3578 1.10609E-04-3.86225E-05-3.08302E-05 3.67382E-06 6.92871E-20 5.03870E-19
 -1      3579 1.11897E-04-4.67099E-05-2.78669E-05-1.83899E-05-1.22075E-18-6.64334E-19
 -1      3580 1.06650E-04-2.45079E-05-3.52290E-05 8.83442E-06 1.15997E-18 6.14774E-19
 -1      3581 1.05021E-04-2.60941E-05-3.37718E-05 8.70938E-06 9.41765E-19 7.85755E-19
 -1      3582 1.06441E-04-2.90566E-05-3.32430E-05 9.42183E-06 7.61395E-19 9.20074E-19
 -1      3583 8.67340E-05-1.53234E-05-3.05901E-05-4.77628E-06-2.32123E-20-2.68467E-18
 -1      3584 7.41624E-05-2.40089E-05-2.12235E-05-2.69343E-05-2.06340E-18-3.06820E-18
 -1      3585 8.42572E-05-3.17292E-05-2.27612E-05-2.94770E-05-2.14362E-18-2.14501E-18
 -1      3586 1.03768E-04-3.45476E-05-2.96924E-05-8.55648E-07 1.81845E-19-4.85119E-19
 -1      3587 1.02769E-04-3.33106E-05-2.97247E-05-1.29669E-06 2.94421E-19-4.40538E-19
 -1      3588 1.02167E-04-3.27150E-05-2.97958E-05-2.34822E-06 2.17430E-19-8.58438E-19
 -1      3589 9.52524E-05-2.85787E-05-2.85745E-05-1.83776E-09 1.19674E-18 5.93090E-19
 -1      3590 9.52520E-05-2.85785E-05-2.85744E-05-4.41206E-09 1.17312E-18 5.90094E-19
 -1      3591 9.52526E-05-2.85763E-05-2.85755E-05-5.69508E-09 2.20966E-18-9.20872E-20
 -1      3592 9.25821E-05-3.46367E-05-2.46412E-05-2.55174E-05-1.75532E-18-1.98031E-18
 -1      3593 1.22274E-04-4.14640E-05-3.45172E-05 7.15059E-06 1.64973E-19 9.15206E-19
 -1      3594 1.23728E-04-3.88162E-05-3.65248E-05 9.88557E-06 2.60383E-19 1.22192E-18
 -1      3595 1.18761E-04-3.39643E-05-3.64149E-05 1.10342E-05 7.87714E-19 1.36723E-18
 -1      3596 9.52491E-05-2.85782E-05-2.85732E-05 1.27424E-08 7.33771E-19 2.77449E-18
 -1      3597 9.52504E-05-2.85787E-05-2.85736E-05 1.05564E-08 1.74420E-18 2.00314E-18
 -1      3598 9.52495E-05-2.85766E-05-2.85741E-05 1.31304E-08-4.84207E-19 2.25447E-18
 -1      3599 1.04593E-04-3.52128E-05-2.97430E-05 1.53624E-06 2.99476E-19 1.22412E-19
 -1      3600 9.52523E-05-2.85788E-05-2.85744E-05 3.48201E-09 1.23940E-18 8.21916E-19
 -1      3601 9.52525E-05-2.85788E-05-2.85745E-05 8.56969E-10 6.65694E-19 1.63884E-18
 -1      3602 9.52534E-05-2.85765E-05-2.85758E-05-5.61688E-10 1.91648E-18 6.57615E-19
 -1      3603 6.01372E-05-1.31510E-05-1.99664E-05-1.54611E-05-1.09848E-18-3.60683E-18
 -1      3604 6.63198E-05-1.84821E-05-2.04596E-05-2.31010E-05-1.62673E-18-3.42815E-18
 -1      3605 7.41763E-05-2.09522E-05-2.25965E-05-2.15639E-05-1.71798E-18-2.85541E-18
 -1      3606 9.36698E-05-3.91774E-05-2.33295E-05 2.97112E-05-2.97158E-18-7.28998E-19
 -1      3607 9.32840E-05-2.18450E-05-3.06091E-05-3.42419E-06 6.75426E-19-2.04305E-18
 -1      3608 9.19751E-05-2.07633E-05-3.05335E-05-4.26572E-06 3.92725E-19-2.20767E-18
 -1      3609 9.21637E-05-2.18601E-05-3.01399E-05-5.59094E-06 1.03324E-19-2.01938E-18
 -1      3610 1.07766E-04-3.19451E-05-3.24645E-05 8.98442E-06 4.24064E-19 1.02882E-18
 -1      3611 1.08701E-04-3.43467E-05-3.19226E-05 8.36890E-06 2.14265E-19 9.30261E-19
 -1      3612 1.11531E-04-3.68542E-05-3.19830E-05 7.29204E-06 2.06712E-19 9.60069E-19
 -1      3613 1.09980E-04-3.14130E-05-3.36295E-05 9.72280E-06 6.55903E-19 8.43367E-19
 -1      3614 6.12058E-05-1.05068E-05-2.16450E-05-3.90246E-06-5.07697E-19-3.59190E-18
 -1      3615 6.00409E-05-1.14200E-05-2.05515E-05-1.10113E-05-8.89543E-19-3.55124E-18
 -1      3616 6.68427E-05-1.40020E-05-2.25280E-05-1.27060E-05-9.35998E-19-3.16835E-18
 -1      3617 6.66822E-05-1.16421E-05-2.36388E-05-5.15713E-06-6.40198E-19-3.14145E-18
 -1      3618 9.52511E-05-2.85761E-05-2.85750E-05-9.78066E-09 7.42613E-19 1.01999E-18
 -1      3619 9.52497E-05-2.85780E-05-2.85736E-05-1.10286E-08 7.07220E-19 1.27851E-18
 -1      3620 9.52487E-05-2.85776E-05-2.85733E-05-1.24531E-08 8.16862E-19 1.74644E-18
 -1      3621 9.52513E-05-2.85787E-05-2.85740E-05 8.32118E-09 2.77629E-18 1.25508E-18
 -1      3622 9.52520E-05-2.85789E-05-2.85742E-05 5.80673E-09 1.81071E-18 1.08189E-18
 -1      3623 9.52532E-05-2.85768E-05-2.85756E-05 4.29827E-09 1.65130E-18 1.84805E-18
 -1      3624 9.52520E-05-2.85769E-05-2.85750E-05 8.69619E-09 1.19164E-18 4.12615E-19
 -1      3625 5.18009E-05-1.15952E-05-1.66166E-05-1.46956E-05 6.06886E-19 3.50449E-18
 -1      3626 4.94697E-05-1.03788E-05-1.65692E-05-8.61621E-06-1.24408E-21 1.86294E-18
 -1      3627 4.98439E-05-8.14820E-06-1.72210E-05-1.71393E-07-4.48140E-19 9.53336E-19
 -1      3628 1.23043E-04-4.44122E-05-3.39445E-05-5.09423E-06-3.90285E-19-2.51103E-18
 -1      3629 1.22559E-04-4.78285E-05-3.19664E-05 1.04326E-06-9.47433E-19-2.31091E-18
 -1      3630 5.23905E-05-1.01816E-05-1.79838E-05 8.51440E-06-8.78281E-19 1.41338E-18
 -1      3631 7.47937E-05-1.35728E-05-2.62445E-05-3.86691E-06-8.81063E-19-2.65285E-18
 -1      3632 7.09902E-05-1.28643E-05-2.49706E-05-4.99469E-06-7.39046E-19-2.89673E-18
 -1      3633 1.11852E-04-4.07427E-05-3.04372E-05-2.49025E-06-1.21541E-18-8.50902E-19
 -1      3634 1.12762E-04-4.02531E-05-3.10955E-05-4.52559E-06-5.61173E-19-1.35302E-18
 -1      3635 9.52241E-05-2.34793E-05-3.07494E-05-1.53497E-06 9.32063E-19-1.73102E-18
 -1      3636 9.41368E-05-2.24749E-05-3.07152E-05-2.44498E-06 8.03788E-19-1.91002E-18
 -1      3637 9.46511E-05-2.37739E-05-3.03715E-05-3.81383E-06 5.46086E-19-1.80103E-18
 -1      3638 9.62271E-05-2.49197E-05-3.05461E-05-1.89840E-06 9.18117E-19-1.46600E-18
 -1      3639 7.62033E-05-1.57664E-05-2.59836E-05 1.14450E-06-1.30148E-18-6.81275E-19
 -1      3640 7.92121E-05-1.70254E-05-2.66789E-05 4.56749E-07-1.13347E-18-1.25635E-18
 -1      3641 8.14963E-05-1.81330E-05-2.72180E-05-4.95750E-07-7.73057E-19-6.00821E-19
 -1      3642 8.36693E-05-1.92618E-05-2.76231E-05-8.54342E-07-2.21808E-19-1.85464E-19
 -1      3643 8.05797E-05-1.80238E-05-2.67346E-05 2.56893E-06-8.09350E-19-7.86399E-19
 -1      3644 8.53798E-05-2.02616E-05-2.79500E-05-1.41149E-06-2.08872E-19 2.46795E-19
 -1      3645 8.69371E-05-2.12179E-05-2.81802E-05-1.53568E-06-4.69312E-19-1.82280E-20
 -1      3646 8.44380E-05-1.99199E-05-2.75976E-05 6.96388E-07-1.66511E-19 1.12012E-18
 -1      3647 8.82140E-05-2.20721E-05-2.83742E-05-1.81685E-06-9.30504E-19-4.82089E-19
 -1      3648 8.93219E-05-2.28534E-05-2.84983E-05-1.78976E-06-5.02305E-19-6.56519E-19
 -1      3649 8.73351E-05-2.16249E-05-2.81232E-05-3.85040E-07-6.40172E-19 7.75159E-20
 -1      3650 9.02685E-05-2.35565E-05-2.86086E-05-1.89249E-06-4.84177E-19-4.58622E-19
 -1      3651 9.10500E-05-2.41777E-05-2.86692E-05-1.77985E-06-1.92392E-19-4.61353E-19
 -1      3652 8.94992E-05-2.30875E-05-2.84345E-05-9.34582E-07-2.46013E-19-9.09733E-19
 -1      3653 9.17461E-05-2.47411E-05-2.87274E-05-1.77534E-06-9.57790E-19-5.18372E-19
 -1      3654 9.22927E-05-2.52258E-05-2.87508E-05-1.62367E-06-1.42926E-18-3.71317E-19
 -1      3655 9.11021E-05-2.42989E-05-2.86101E-05-1.14579E-06-4.78998E-19-5.02732E-19
 -1      3656 9.28007E-05-2.56687E-05-2.87773E-05-1.56105E-06-5.78089E-19-1.43753E-19
 -1      3657 9.31804E-05-2.60420E-05-2.87799E-05-1.40022E-06-1.53379E-19 4.04224E-19
 -1      3658 9.22793E-05-2.52775E-05-2.87010E-05-1.15539E-06-6.38321E-19-9.43193E-19
 -1      3659 9.35488E-05-2.63859E-05-2.87877E-05-1.31161E-06-6.62877E-19-1.32527E-19
 -1      3660 9.38111E-05-2.66710E-05-2.87794E-05-1.15899E-06-4.52600E-19-5.51749E-19
 -1      3661 9.31377E-05-2.60540E-05-2.87403E-05-1.05592E-06-7.28760E-19-1.00076E-18
 -1      3662 9.40768E-05-2.69355E-05-2.87766E-05-1.06410E-06-3.30604E-19-1.08273E-18
 -1      3663 9.42573E-05-2.71522E-05-2.87633E-05-9.28511E-07-5.44494E-19-8.90336E-19
 -1      3664 9.37597E-05-2.66625E-05-2.87491E-05-9.07095E-07-2.74125E-19-2.03625E-18
 -1      3665 9.44479E-05-2.73545E-05-2.87550E-05-8.38514E-07-2.86641E-19-5.70558E-19
 -1      3666 9.45717E-05-2.75186E-05-2.87401E-05-7.23328E-07 3.87382E-19 2.05949E-19
 -1      3667 9.42081E-05-2.71350E-05-2.87408E-05-7.45251E-07 2.63383E-19-1.85601E-18
 -1      3668 9.47078E-05-2.76727E-05-2.87295E-05-6.43762E-07 1.98744E-19 4.78088E-19
 -1      3669 9.47923E-05-2.77967E-05-2.87148E-05-5.49034E-07-3.83545E-19 1.01054E-18
 -1      3670 9.45297E-05-2.74994E-05-2.87239E-05-5.90878E-07 5.08036E-19 2.94940E-19
 -1      3671 9.48929E-05-2.79185E-05-2.87031E-05-4.78661E-07-8.36140E-19 1.53750E-18
 -1      3672 9.49525E-05-2.80156E-05-2.86891E-05-3.99975E-07-4.40831E-19 1.26409E-18
 -1      3673 9.47637E-05-2.77848E-05-2.87030E-05-4.51138E-07-3.45369E-19 1.15304E-18
 -1      3674 9.50194E-05-2.81022E-05-2.86785E-05-3.46302E-07-3.89495E-19 1.35044E-18
 -1      3675 9.50573E-05-2.81712E-05-2.86668E-05-2.87865E-07 8.93708E-20 1.26510E-18
 -1      3676 9.49283E-05-2.80012E-05-2.86815E-05-3.34063E-07-4.77856E-19 1.42507E-18
 -1      3677 9.51038E-05-2.82360E-05-2.86572E-05-2.45515E-07 1.34569E-19 7.89367E-19
 -1      3678 9.51290E-05-2.82875E-05-2.86474E-05-2.00850E-07-3.24376E-19-2.67217E-19
 -1      3679 9.50404E-05-2.81603E-05-2.86619E-05-2.41861E-07-3.48275E-20 6.68641E-19
 -1      3680 9.51609E-05-2.83357E-05-2.86390E-05-1.68380E-07-4.27702E-19-4.39178E-19
 -1      3681 9.51774E-05-2.83738E-05-2.86309E-05-1.34932E-07-7.80045E-19 5.05599E-19
 -1      3682 9.51180E-05-2.82798E-05-2.86443E-05-1.69432E-07-3.02896E-19-6.91205E-19
 -1      3683 9.51988E-05-2.84092E-05-2.86238E-05-1.10646E-07-1.20260E-18 7.56159E-20
 -1      3684 9.52092E-05-2.84371E-05-2.86172E-05-8.61221E-08-1.07201E-18 9.48913E-19
 -1      3685 9.51707E-05-2.83686E-05-2.86290E-05-1.14065E-07-5.96759E-19-6.16589E-19
 -1      3686 9.52232E-05-2.84628E-05-2.86113E-05-6.84109E-08-6.59417E-19 1.91986E-18
 -1      3687 9.52295E-05-2.84830E-05-2.86060E-05-5.08371E-08 9.47679E-19 1.67260E-18
 -1      3688 9.52058E-05-2.84340E-05-2.86162E-05-7.28114E-08-1.64766E-19 3.03421E-19
 -1      3689 9.52381E-05-2.85013E-05-2.86013E-05-3.82672E-08 1.14672E-18 8.40283E-19
 -1      3690 9.52416E-05-2.85157E-05-2.85971E-05-2.60018E-08 1.71084E-18 1.23436E-19
 -1      3691 9.52282E-05-2.84814E-05-2.86056E-05-4.28628E-08 1.12383E-19 1.23451E-18
 -1      3692 9.52466E-05-2.85286E-05-2.85933E-05-1.73500E-08 1.50131E-18-4.64763E-19
 -1      3693 9.52482E-05-2.85386E-05-2.85900E-05-9.05981E-09 5.34243E-19-8.41601E-19
 -1      3694 9.52417E-05-2.85151E-05-2.85970E-05-2.17278E-08 1.01438E-18-1.16980E-18
 -1      3695 9.52507E-05-2.85474E-05-2.85870E-05-3.34957E-09 4.55652E-20-1.05119E-18
 -1      3696 9.52511E-05-2.85543E-05-2.85845E-05 2.00526E-09 4.97634E-19-1.16197E-18
 -1      3697 9.52491E-05-2.85387E-05-2.85901E-05-7.29008E-09-7.71318E-20-2.85658E-18
 -1      3698 9.52519E-05-2.85602E-05-2.85821E-05 5.59685E-09 5.19753E-19-3.82702E-20
 -1      3699 9.52516E-05-2.85648E-05-2.85801E-05 8.83603E-09 6.63928E-19-8.36879E-20
 -1      3700 9.52523E-05-2.85549E-05-2.85846E-05 2.13067E-09 8.69571E-19-1.31131E-18
 -1      3701 9.52514E-05-2.85686E-05-2.85782E-05 1.08808E-08-1.50499E-19 1.48564E-18
 -1      3702 9.52507E-05-2.85716E-05-2.85767E-05 1.25529E-08-2.78477E-19 2.93029E-18
 -1      3703 9.52528E-05-2.85656E-05-2.85803E-05 7.94509E-09 1.87797E-18-4.20282E-19
 -1      3704 9.52503E-05-2.85733E-05-2.85758E-05 1.29418E-08-8.40126E-19 2.30748E-18
 -1      3705 9.52500E-05-2.85752E-05-2.85749E-05 1.30907E-08-7.68800E-19 2.27004E-18
 -1      3706 9.52516E-05-2.85754E-05-2.85755E-05 1.08786E-08-6.07779E-19 7.21320E-19
 -1      3707 9.52523E-05-2.85717E-05-2.85774E-05 1.04020E-08-6.72038E-19 9.17944E-19
 -1      3708 8.89324E-05-1.92033E-05-2.98846E-05-6.55010E-06-8.01189E-20-2.39763E-18
 -1      3709 8.76173E-05-1.70587E-05-3.02121E-05-5.66905E-06-4.66778E-20-2.58526E-18
 -1      3710 8.63960E-05-1.61803E-05-3.01419E-05-5.63392E-06-1.93437E-19-2.57681E-18
 -1      3711 1.04663E-04-1.68213E-05-3.77526E-05 2.62844E-06 1.96438E-18-8.35545E-19
 -1      3712 1.05688E-04-1.86985E-05-3.73554E-05 6.20625E-06 1.75164E-18-1.19849E-19
 -1      3713 5.88116E-05-1.08910E-05-2.05332E-05 6.32372E-06-7.42120E-19 1.20504E-18
 -1      3714 6.47574E-05-1.21957E-05-2.25518E-05 5.28194E-06-6.44887E-19 8.89980E-19
 -1      3715 5.88625E-05-1.25340E-05-1.94055E-05 1.47579E-05-9.53302E-19 1.73697E-18
 -1      3716 1.15314E-04-4.08135E-05-3.19491E-05-5.77801E-06-2.85824E-19-2.02492E-18
 -1      3717 1.15341E-04-3.86627E-05-3.28793E-05-7.64228E-06-2.55301E-20-2.29897E-18
 -1      3718 1.13534E-04-3.42765E-05-3.41095E-05-1.08720E-05 3.14596E-19-2.58039E-18
 -1      3719 1.12053E-04-3.04103E-05-3.50642E-05-1.10193E-05 6.36922E-19-2.53400E-18
 -1      3720 1.08318E-04-3.95741E-05-2.93993E-05 1.05038E-06-1.56190E-18-4.64532E-19
 -1      3721 1.09720E-04-4.02445E-05-2.98086E-05-4.87940E-07-1.40111E-18-7.90017E-19
 -1      3722 1.12004E-04-4.18097E-05-3.00630E-05 3.36193E-07-1.44994E-18-1.00727E-18
 -1      3723 1.04470E-04-3.70601E-05-2.88342E-05 3.21783E-06-1.72062E-18 4.51508E-19
 -1      3724 1.06007E-04-3.82652E-05-2.90569E-05 2.30677E-06-1.75901E-18 5.05883E-20
 -1      3725 1.07576E-04-3.97928E-05-2.90987E-05 3.56020E-06-2.09993E-18-8.40151E-19
 -1      3726 1.01140E-04-3.43728E-05-2.85749E-05 4.16619E-06-7.04027E-19 1.08076E-18
 -1      3727 1.02528E-04-3.56337E-05-2.86771E-05 3.74291E-06-1.04094E-18 6.95655E-19
 -1      3728 1.03310E-04-3.67503E-05-2.85954E-05 5.06323E-06-1.64996E-18-1.61970E-19
 -1      3729 9.86082E-05-3.20593E-05-2.84941E-05 4.30609E-06-4.53944E-19 1.27567E-18
 -1      3730 9.96970E-05-3.31317E-05-2.85255E-05 4.20277E-06-2.42919E-19 1.09592E-18
 -1      3731 9.99225E-05-3.37702E-05-2.83989E-05 5.39222E-06-3.55839E-19 8.80163E-19
 -1      3732 9.68346E-05-3.02846E-05-2.85056E-05 4.00262E-06-3.43102E-19 9.77806E-19
 -1      3733 9.76155E-05-3.10962E-05-2.85012E-05 4.09384E-06-1.73601E-19 1.00976E-18
 -1      3734 9.75266E-05-3.14022E-05-2.83721E-05 5.04068E-06-1.47187E-19 1.13406E-18
 -1      3735 9.56961E-05-2.90524E-05-2.85534E-05 3.49400E-06-7.86863E-19 8.45074E-19
 -1      3736 9.62135E-05-2.96110E-05-2.85354E-05 3.68322E-06-6.18297E-19 1.05426E-18
 -1      3737 9.59475E-05-2.96822E-05-2.84221E-05 4.37556E-06-3.92593E-19 8.10214E-19
 -1      3738 9.50322E-05-2.82750E-05-2.86068E-05 2.92862E-06-1.29055E-18 8.48931E-19
 -1      3739 9.53470E-05-2.86244E-05-2.85874E-05 3.15450E-06-8.84830E-19 7.62209E-19
 -1      3740 9.50075E-05-2.85512E-05-2.84957E-05 3.63154E-06-9.63356E-19 1.17037E-18
 -1      3741 9.46971E-05-2.78427E-05-2.86514E-05 2.38482E-06-3.71722E-19 1.16539E-18
 -1      3742 9.48682E-05-2.80346E-05-2.86362E-05 2.61185E-06-1.20009E-18 1.03164E-18
 -1      3743 9.45167E-05-2.78817E-05-2.85664E-05 2.92455E-06-1.32807E-18 2.16881E-19
 -1      3744 9.45743E-05-2.76525E-05-2.86820E-05 1.89941E-06 7.55986E-21 1.06352E-18
 -1      3745 9.46505E-05-2.77347E-05-2.86729E-05 2.10899E-06 2.87407E-19 8.44172E-19
 -1      3746 9.43215E-05-2.75463E-05-2.86225E-05 2.30450E-06-8.86623E-20 4.57841E-19
 -1      3747 9.45777E-05-2.76196E-05-2.86983E-05 1.48519E-06-5.46411E-19 1.44869E-18
 -1      3748 9.45958E-05-2.76311E-05-2.86951E-05 1.66905E-06-1.08174E-19 1.32445E-18
 -1      3749 9.43064E-05-2.74358E-05-2.86608E-05 1.78563E-06-3.80511E-20 3.94916E-19
 -1      3750 9.46481E-05-2.76801E-05-2.87027E-05 1.14225E-06-8.53252E-19 2.06991E-18
 -1      3751 9.46339E-05-2.76501E-05-2.87043E-05 1.29806E-06-8.08004E-19 1.40291E-18
 -1      3752 9.43901E-05-2.74651E-05-2.86826E-05 1.36417E-06-7.33425E-19 1.16835E-19
 -1      3753 9.47468E-05-2.77889E-05-2.86984E-05 8.64556E-07 1.84848E-19 1.20768E-18
 -1      3754 9.47174E-05-2.77378E-05-2.87033E-05 9.93219E-07-1.08045E-19 1.78970E-18
 -1      3755 9.45189E-05-2.75722E-05-2.86911E-05 1.02873E-06-3.98608E-19 8.45414E-19
 -1      3756 9.48505E-05-2.79157E-05-2.86882E-05 6.43696E-07 6.31203E-19 9.36020E-19
 -1      3757 9.48164E-05-2.78571E-05-2.86952E-05 7.47716E-07 6.02408E-19 1.09038E-18
 -1      3758 9.46594E-05-2.77149E-05-2.86897E-05 7.65742E-07 7.85811E-19 3.24255E-19
 -1      3759 9.49462E-05-2.80420E-05-2.86748E-05 4.70740E-07-1.36574E-19 3.69952E-19
 -1      3760 9.49134E-05-2.79842E-05-2.86827E-05 5.53305E-07 4.50475E-19 4.98858E-19
 -1      3761 9.47924E-05-2.78660E-05-2.86819E-05 5.62074E-07 9.27644E-19 1.30344E-18
 -1      3762 9.50280E-05-2.81574E-05-2.86601E-05 3.37270E-07 6.05754E-19 3.76352E-19
 -1      3763 9.49995E-05-2.81049E-05-2.86682E-05 4.01679E-07-3.65291E-19 1.27069E-19
 -1      3764 9.49087E-05-2.80093E-05-2.86703E-05 4.06037E-07 8.28726E-20 6.02617E-19
 -1      3765 9.50941E-05-2.82570E-05-2.86455E-05 2.35774E-07 3.84154E-19 9.88739E-19
 -1      3766 9.50709E-05-2.82120E-05-2.86531E-05 2.85174E-07 9.72326E-19 1.11121E-18
 -1      3767 9.50045E-05-2.81365E-05-2.86570E-05 2.87790E-07 1.43686E-19 1.45692E-18
 -1      3768 9.51451E-05-2.83394E-05-2.86318E-05 1.59764E-07 6.26959E-19 1.79573E-18
 -1      3769 9.51272E-05-2.83023E-05-2.86387E-05 1.97002E-07 4.01202E-19 1.20691E-18
 -1      3770 9.50802E-05-2.82442E-05-2.86434E-05 1.99202E-07 4.37289E-19 3.18907E-18
 -1      3771 9.51828E-05-2.84052E-05-2.86196E-05 1.03779E-07-7.69561E-19 2.94374E-18
 -1      3772 9.51697E-05-2.83757E-05-2.86256E-05 1.31336E-07 2.71941E-19 1.85370E-18
 -1      3773 9.51375E-05-2.83319E-05-2.86305E-05 1.33669E-07 2.94564E-20 1.78048E-18
 -1      3774 9.52096E-05-2.84563E-05-2.86090E-05 6.33092E-08-3.98690E-19 3.93455E-18
 -1      3775 9.52004E-05-2.84334E-05-2.86141E-05 8.32912E-08-7.43312E-19 3.42871E-18
 -1      3776 9.51794E-05-2.84012E-05-2.86189E-05 8.58927E-08-7.17345E-19 3.20095E-18
 -1      3777 9.52276E-05-2.84947E-05-2.86001E-05 3.46867E-08 2.69332E-19 3.27522E-18
 -1      3778 9.52216E-05-2.84776E-05-2.86043E-05 4.88408E-08 2.12649E-19 4.00966E-18
 -1      3779 9.52087E-05-2.84545E-05-2.86087E-05 5.16548E-08-2.58709E-20 3.10120E-18
 -1      3780 9.52391E-05-2.85230E-05-2.85928E-05 1.49779E-08 5.50731E-19 2.30968E-18
 -1      3781 9.52354E-05-2.85104E-05-2.85962E-05 2.47231E-08 8.48997E-19 3.08454E-18
 -1      3782 9.52282E-05-2.84943E-05-2.86001E-05 2.76253E-08 8.31914E-19 2.61488E-18
 -1      3783 9.52456E-05-2.85431E-05-2.85869E-05 1.87103E-09-3.97390E-19 2.24659E-18
 -1      3784 9.52436E-05-2.85342E-05-2.85896E-05 8.33764E-09-3.04921E-19 1.45478E-18
 -1      3785 9.52404E-05-2.85234E-05-2.85929E-05 1.12022E-08 8.14163E-19 2.08548E-18
 -1      3786 9.52486E-05-2.85570E-05-2.85822E-05-6.41966E-09 8.04774E-20 1.28591E-18
 -1      3787 9.52479E-05-2.85509E-05-2.85843E-05-2.35608E-09-6.40268E-19 1.58040E-18
 -1      3788 9.52472E-05-2.85439E-05-2.85871E-05 3.61474E-10-3.95054E-19 1.72940E-18
 -1      3789 9.52495E-05-2.85665E-05-2.85785E-05-1.12799E-08 2.67548E-19 1.82809E-18
 -1      3790 9.52494E-05-2.85623E-05-2.85801E-05-8.98199E-09 1.12023E-18 2.39825E-18
 -1      3791 9.52502E-05-2.85581E-05-2.85823E-05-6.45195E-09-2.96966E-20 2.00691E-18
 -1      3792 9.52487E-05-2.85727E-05-2.85755E-05-1.36627E-08 1.60517E-18-3.56229E-20
 -1      3793 9.52492E-05-2.85699E-05-2.85768E-05-1.25347E-08 3.81288E-19 7.61818E-19
 -1      3794 9.52509E-05-2.85677E-05-2.85785E-05-1.02694E-08 1.45283E-18 1.01027E-18
 -1      3795 9.63517E-05-3.82797E-05-2.48747E-05 2.48053E-05-2.96463E-18-1.52081E-18
 -1      3796 8.58338E-05-3.23343E-05-2.26023E-05 2.88592E-05-2.60207E-18-3.22822E-19
 -1      3797 1.10587E-04-2.66064E-05-3.61640E-05-1.16366E-05 9.95092E-19-2.43509E-18
 -1      3798 8.52329E-05-1.50302E-05-3.00645E-05-5.08948E-06-3.00892E-19-2.66743E-18
 -1      3799 8.45417E-05-1.45682E-05-3.00430E-05-4.48384E-06-5.16264E-19-2.80617E-18
 -1      3800 8.60042E-05-1.66741E-05-2.96731E-05-6.15282E-06-3.65046E-19-2.48698E-18
 -1      3801 7.29122E-05-1.79379E-05-2.34943E-05-1.70726E-05-1.36337E-18-2.68867E-18
 -1      3802 7.90343E-05-2.32397E-05-2.40706E-05-2.12560E-05-1.77746E-18-2.41337E-18
 -1      3803 1.06961E-04-4.25430E-05-2.73735E-05-1.90400E-05-1.30655E-18-6.89430E-19
 -1      3804 1.13200E-04-4.61497E-05-2.88917E-05-1.36665E-05-1.17010E-18-6.35804E-20
 -1      3805 1.04826E-04-1.72219E-05-3.76072E-05-1.25612E-06 1.61349E-18-1.00919E-18
 -1      3806 1.06215E-04-3.66323E-05-2.98561E-05 8.53085E-07 3.84291E-19-2.36805E-19
 -1      3807 1.05329E-04-3.58132E-05-2.97506E-05-9.81535E-08 2.11563E-19-2.54939E-19
 -1      3808 1.05192E-04-3.58250E-05-2.97600E-05-1.61740E-06 1.79061E-19-5.89908E-19
 -1      3809 1.08258E-04-3.81189E-05-3.00771E-05 4.21807E-07 9.09659E-20-1.06059E-19
 -1      3810 1.13974E-04-2.59173E-05-3.77636E-05 1.12199E-05 1.53163E-18 1.16308E-18
 -1      3811 1.12377E-04-2.13728E-05-3.92444E-05 1.03719E-05 1.85842E-18 9.56499E-19
 -1      3812 8.01648E-05-1.44644E-05-2.81266E-05-2.13717E-06-8.55804E-19-2.38936E-18
 -1      3813 7.73676E-05-1.39697E-05-2.72556E-05-2.60062E-06-8.20279E-19-2.50427E-18
 -1      3814 7.69859E-05-1.45059E-05-2.66740E-05-6.42509E-06-9.68019E-19-2.37305E-18
 -1      3815 1.08322E-04-1.96757E-05-3.80420E-05 8.05158E-06 1.84449E-18 1.03358E-19
 -1      3816 1.07170E-04-2.16703E-05-3.65783E-05 8.63683E-06 1.54130E-18 2.16849E-19
 -1      3817 9.52466E-05-2.85776E-05-2.85724E-05-1.47581E-08 1.25203E-18 5.86365E-19
 -1      3818 8.78305E-05-2.94289E-05-2.48530E-05-2.29894E-05-1.75169E-18-2.28752E-18
 -1      3819 9.80294E-05-3.75101E-05-2.61772E-05-2.26829E-05-1.45684E-18-1.71281E-18
 -1      3820 6.89421E-05-1.32541E-05-2.39555E-05 3.50845E-06-1.02146E-18 5.98009E-19
 -1      3821 7.31783E-05-1.46118E-05-2.51356E-05 2.43401E-06-1.15799E-18-1.15910E-19
 -1      3822 7.54988E-05-1.60454E-05-2.53603E-05 5.35499E-06-1.39061E-18-1.82825E-19
 -1      3823 6.85839E-05-1.39756E-05-2.31533E-05 9.28583E-06-1.05682E-18 9.60082E-19
 -1      3824 1.09034E-04-2.58448E-05-3.58026E-05 1.00501E-05 1.33793E-18 6.37700E-19
 -1      3825 1.16093E-04-3.13397E-05-3.64626E-05 1.14356E-05 1.03466E-18 1.17480E-18
 -1      3826 1.11688E-04-2.76291E-05-3.60463E-05 1.06729E-05 1.15328E-18 6.86580E-19
 -1      3827 1.11043E-04-2.99264E-05-3.46939E-05 1.04999E-05 1.03832E-18 5.86582E-19
 -1      3828 1.16082E-04-3.48713E-05-3.48214E-05 9.91803E-06 5.96913E-19 1.02722E-18
 -1      3829 1.19267E-04-4.01159E-05-3.38460E-05-7.80700E-06-1.34377E-19-2.57317E-18
 -1      3830 7.84105E-05-2.67821E-05-2.21811E-05 2.57935E-05-2.55473E-18 6.40727E-19
 -1      3831 1.16870E-04-4.35003E-05-3.15206E-05-2.50681E-06-1.01833E-18-1.77979E-18
 -1      3832 1.13174E-04-4.07240E-05-3.10594E-05 2.84165E-06-1.37883E-19 5.07793E-19
 -1      3833 1.12320E-04-4.08476E-05-3.06122E-05 1.06396E-06-2.80236E-19 2.98961E-19
 -1      3834 1.16204E-04-4.66052E-05-2.96984E-05-9.23628E-06-1.19672E-18-3.04886E-19
 -1      3835 1.16816E-04-4.54693E-05-3.06078E-05-4.25935E-06-8.76634E-19 1.62485E-19
 -1      3836 1.11305E-04-4.35191E-05-2.91096E-05-1.08086E-05-1.10036E-18-2.10873E-19
 -1      3837 8.59969E-05-2.61395E-05-2.55402E-05-1.93556E-05-1.49957E-18-2.31634E-18
 -1      3838 6.51153E-05-1.64733E-05-2.07887E-05 1.83854E-05-1.50220E-18 2.00382E-18
 -1      3839 9.52486E-05-2.85749E-05-2.85744E-05-1.35192E-08 2.08429E-18 2.57665E-19
 -1      3840 9.52505E-05-2.85738E-05-2.85757E-05-1.15827E-08 1.43566E-18 1.50911E-19
 -1      3841 1.02766E-04-4.14516E-05-2.60853E-05 2.15557E-05-2.60707E-18-2.23502E-18
 -1      3842 9.47017E-05-3.58138E-05-2.53635E-05 2.17717E-05-2.54764E-18-1.46477E-18
 -1      3843 9.52481E-05-2.85762E-05-2.85737E-05-1.38152E-08 1.88629E-18 6.28042E-19
 -1      3844 1.01776E-04-3.78432E-05-2.73196E-05-1.79187E-05-1.33940E-18-1.20444E-18
 -1      3845 7.08585E-05-1.48915E-05-2.39235E-05-1.24422E-05-1.08618E-18-2.88377E-18
 -1      3846 7.59694E-05-1.69475E-05-2.52397E-05-1.23701E-05-1.21665E-18-2.37331E-18
 -1      3847 1.07190E-04-4.36444E-05-2.71910E-05 1.76320E-05-2.73052E-18-2.39462E-18
 -1      3848 1.02705E-04-3.34941E-05-2.96777E-05-3.71223E-06-4.22648E-20-8.19970E-19
 -1      3849 1.01250E-04-3.16743E-05-2.97782E-05-3.66370E-06 1.31574E-19-9.23597E-19
 -1      3850 9.04892E-05-2.14240E-05-2.95576E-05-7.67302E-06-2.00669E-19-2.09922E-18
 -1      3851 8.85970E-05-2.00659E-05-2.94175E-05-7.90968E-06-4.48459E-19-2.26517E-18
 -1      3852 9.52523E-05-2.85737E-05-2.85766E-05-8.56361E-09 1.23889E-18 7.83389E-19
 -1      3853 9.52514E-05-2.85736E-05-2.85762E-05-1.00483E-08 1.27314E-18 8.63537E-19
 -1      3854 9.52516E-05-2.85710E-05-2.85774E-05-1.02242E-08 1.87581E-18 6.26194E-21
 -1      3855 9.52538E-05-2.85738E-05-2.85772E-05-3.89698E-09 2.18039E-18-7.92807E-19
 -1      3856 9.52532E-05-2.85737E-05-2.85770E-05-6.22100E-09 1.85569E-18 2.13762E-19
 -1      3857 9.52536E-05-2.85707E-05-2.85783E-05-6.64159E-09 1.93510E-18 1.27603E-18
 -1      3858 8.15249E-05-1.46697E-05-2.86706E-05-3.54029E-06-8.21007E-19-2.45083E-18
 -1      3859 9.72220E-05-2.64437E-05-3.03372E-05-2.40271E-06 8.40133E-19-1.41303E-18
 -1      3860 1.00143E-04-3.08008E-05-2.97554E-05-4.84982E-06 1.70010E-19-9.77018E-19
 -1      3861 9.99126E-05-3.01605E-05-2.99009E-05-3.45045E-06 3.88416E-19-9.77676E-19
 -1      3862 9.88971E-05-2.87294E-05-3.00461E-05-3.18192E-06 6.40893E-19-1.09273E-18
 -1      3863 8.40793E-05-1.49073E-05-2.95939E-05-3.95562E-06-5.27178E-19-2.63536E-18
 -1      3864 9.52542E-05-2.85740E-05-2.85773E-05 1.04731E-09 1.72606E-18 1.06752E-18
 -1      3865 9.52542E-05-2.85739E-05-2.85773E-05-1.37732E-09 1.45571E-18-1.33156E-19
 -1      3866 9.52549E-05-2.85708E-05-2.85788E-05-2.22919E-09 4.15880E-19-8.68852E-19
 -1      3867 9.52537E-05-2.85743E-05-2.85769E-05 5.33442E-09 4.88150E-19 3.59767E-19
 -1      3868 9.52542E-05-2.85743E-05-2.85771E-05 3.20976E-09 6.60229E-19 8.50905E-19
 -1      3869 9.52550E-05-2.85711E-05-2.85787E-05 2.11287E-09-3.48436E-20-6.07945E-19
 -1      3870 9.41408E-05-2.43340E-05-2.98946E-05-6.27662E-06 8.71522E-20-1.80449E-18
 -1      3871 9.24156E-05-2.30220E-05-2.97571E-05-7.03222E-06-7.00682E-20-1.96207E-18
 -1      3872 9.22663E-05-2.39468E-05-2.93000E-05-8.50048E-06-2.15158E-19-1.91612E-18
 -1      3873 1.15257E-04-3.87706E-05-3.28103E-05 7.15923E-06 1.35300E-19 9.33827E-19
 -1      3874 1.17346E-04-4.13968E-05-3.25758E-05 4.67484E-06-5.27923E-20 8.23551E-19
 -1      3875 8.21948E-05-1.53101E-05-2.86607E-05-5.29711E-06-5.54909E-19-2.41770E-18
 -1      3876 1.18953E-04-4.60523E-05-3.11479E-05 1.17422E-06-1.42519E-18-1.76829E-18
 -1      3877 1.20483E-04-4.94276E-05-3.05758E-05 6.37092E-06-1.87779E-18-1.71095E-18
 -1      3878 8.43891E-05-1.70704E-05-2.89201E-05-7.27486E-06-6.16516E-19-2.49001E-18
 -1      3879 8.17307E-05-1.65748E-05-2.79192E-05-7.30050E-06-7.31446E-19-2.40837E-18
 -1      3880 1.15391E-04-4.77940E-05-2.90389E-05 1.10002E-05-2.05324E-18-1.70674E-18
 -1      3881 1.14759E-04-3.60385E-05-3.37208E-05 9.18132E-06 4.18007E-19 9.75221E-19
 -1      3882 9.71607E-05-2.67995E-05-3.01643E-05-3.78529E-06 5.67049E-19-1.46719E-18
 -1      3883 9.63263E-05-2.62074E-05-3.00553E-05-4.77941E-06 3.24413E-19-1.52215E-18
 -1      3884 1.20394E-04-4.32934E-05-3.31346E-05 4.13746E-06 3.14527E-20 7.24094E-19
 -1      3885 8.03890E-05-1.88892E-05-2.64366E-05 5.31706E-06-1.16356E-18-4.18425E-19
 -1      3886 8.26304E-05-1.96812E-05-2.69703E-05 3.96729E-06-4.78282E-19-4.60798E-20
 -1      3887 8.39861E-05-2.02836E-05-2.73586E-05 2.67205E-06-4.35833E-20 4.35167E-20
 -1      3888 8.56766E-05-2.10586E-05-2.76903E-05 1.84048E-06-4.39560E-20 2.73439E-19
 -1      3889 8.43392E-05-2.09949E-05-2.71103E-05 5.11219E-06-3.12213E-19-1.75653E-19
 -1      3890 8.67993E-05-2.16932E-05-2.79420E-05 1.02139E-06-7.50546E-19-1.69226E-19
 -1      3891 8.80656E-05-2.23967E-05-2.81440E-05 5.46942E-07-7.79526E-19-3.41425E-19
 -1      3892 8.67456E-05-2.19483E-05-2.77402E-05 2.78173E-06-5.42464E-19-1.08497E-18
 -1      3893 8.89699E-05-2.29930E-05-2.83028E-05 5.25623E-08-8.39211E-19-4.98135E-19
 -1      3894 8.99115E-05-2.36000E-05-2.84214E-05-1.86077E-07-4.77143E-20-6.97958E-19
 -1      3895 8.87239E-05-2.29882E-05-2.81486E-05 1.30739E-06-1.16208E-18-6.53246E-19
 -1      3896 9.06251E-05-2.41256E-05-2.85180E-05-4.62576E-07-2.74975E-19-1.43292E-18
 -1      3897 9.13192E-05-2.46316E-05-2.85836E-05-5.53033E-07-8.60739E-19-1.15704E-18
 -1      3898 9.03063E-05-2.39838E-05-2.84054E-05 4.20045E-07-7.51974E-19-1.21697E-18
 -1      3899 9.18733E-05-2.50767E-05-2.86391E-05-6.88943E-07-1.15336E-18-1.71609E-18
 -1      3900 9.23808E-05-2.54886E-05-2.86716E-05-6.92149E-07-6.77597E-19-2.06144E-18
 -1      3901 9.15481E-05-2.48745E-05-2.85603E-05-7.61819E-08-1.28720E-18-2.07938E-18
 -1      3902 9.28055E-05-2.58554E-05-2.87006E-05-7.41731E-07-6.84906E-19-2.15925E-18
 -1      3903 9.31742E-05-2.61852E-05-2.87130E-05-6.98344E-07-6.75829E-19-2.10154E-18
 -1      3904 9.25079E-05-2.56384E-05-2.86478E-05-3.21622E-07-6.53194E-19-2.85616E-18
 -1      3905 9.34961E-05-2.64818E-05-2.87252E-05-6.98360E-07-5.40038E-19-1.75008E-18
 -1      3906 9.37625E-05-2.67426E-05-2.87259E-05-6.34268E-07 1.95934E-20-1.84516E-18
 -1      3907 9.32408E-05-2.62753E-05-2.86917E-05-4.13819E-07-1.23349E-19-1.55855E-18
 -1      3908 9.40043E-05-2.69790E-05-2.87280E-05-6.08684E-07 8.10393E-19-1.36761E-18
 -1      3909 9.41957E-05-2.71834E-05-2.87222E-05-5.39490E-07 7.28781E-19-1.21971E-18
 -1      3910 9.37946E-05-2.67955E-05-2.87082E-05-4.18315E-07 2.74548E-19-1.41747E-18
 -1      3911 9.43756E-05-2.73699E-05-2.87184E-05-5.03118E-07 8.63497E-19-7.69853E-19
 -1      3912 9.45126E-05-2.75289E-05-2.87095E-05-4.37414E-07 6.88922E-19-1.57455E-19
 -1      3913 9.42092E-05-2.72138E-05-2.87081E-05-3.77479E-07 1.03421E-18-1.02478E-18
 -1      3914 9.46508E-05-2.76810E-05-2.87023E-05-3.96973E-07-2.16647E-19 3.15966E-19
 -1      3915 9.47520E-05-2.78087E-05-2.86918E-05-3.36784E-07-2.89453E-19 4.95562E-19
 -1      3916 9.45230E-05-2.75533E-05-2.86983E-05-3.15728E-07 6.08449E-19 9.74079E-20
 -1      3917 9.48472E-05-2.79198E-05-2.86836E-05-3.01498E-07-7.73433E-19 1.65922E-19
 -1      3918 9.49145E-05-2.80124E-05-2.86737E-05-2.53512E-07-5.04495E-19-9.58789E-20
 -1      3919 9.47521E-05-2.78183E-05-2.86838E-05-2.50684E-07-4.88514E-19-1.17278E-19
 -1      3920 9.49831E-05-2.80975E-05-2.86654E-05-2.23110E-07-7.87097E-19-4.99857E-19
 -1      3921 9.50301E-05-2.81680E-05-2.86563E-05-1.84437E-07-1.02873E-18-1.64316E-18
 -1      3922 9.49135E-05-2.80184E-05-2.86679E-05-1.91752E-07-1.17272E-18-1.56106E-18
 -1      3923 9.50787E-05-2.82324E-05-2.86484E-05-1.59595E-07-2.32275E-19-1.02323E-18
 -1      3924 9.51109E-05-2.82854E-05-2.86403E-05-1.29372E-07-2.50392E-19-6.47446E-19
 -1      3925 9.50291E-05-2.81719E-05-2.86521E-05-1.41072E-07-4.37540E-19-1.36851E-18
 -1      3926 9.51448E-05-2.83336E-05-2.86333E-05-1.09857E-07-5.35312E-19-9.91820E-20
 -1      3927 9.51665E-05-2.83731E-05-2.86264E-05-8.68713E-08-4.18647E-19 2.26129E-19
 -1      3928 9.51105E-05-2.82883E-05-2.86374E-05-9.97056E-08 2.36509E-19-3.65929E-19
 -1      3929 9.51895E-05-2.84087E-05-2.86202E-05-7.20532E-08 1.48670E-19-1.12215E-19
 -1      3930 9.52036E-05-2.84377E-05-2.86144E-05-5.50232E-08 6.84111E-19-1.24806E-19
 -1      3931 9.51666E-05-2.83754E-05-2.86243E-05-6.72749E-08-5.48986E-19-2.81296E-19
 -1      3932 9.52186E-05-2.84636E-05-2.86092E-05-4.41247E-08-1.66949E-19 4.27092E-19
 -1      3933 9.52274E-05-2.84845E-05-2.86044E-05-3.18417E-08-7.40971E-19-2.70445E-20
 -1      3934 9.52041E-05-2.84397E-05-2.86130E-05-4.27128E-08 6.97439E-19 1.17109E-19
 -1      3935 9.52368E-05-2.85030E-05-2.86001E-05-2.40893E-08-2.98266E-19-1.72188E-19
 -1      3936 9.52419E-05-2.85178E-05-2.85962E-05-1.54940E-08 4.83155E-19-1.13577E-18
 -1      3937 9.52282E-05-2.84863E-05-2.86035E-05-2.47033E-08-5.25574E-19 7.99691E-19
 -1      3938 9.52472E-05-2.85307E-05-2.85927E-05-1.01526E-08 5.79534E-19-1.95908E-18
 -1      3939 9.52498E-05-2.85410E-05-2.85896E-05-4.37720E-09 3.26189E-19-1.53784E-18
 -1      3940 9.52428E-05-2.85194E-05-2.85956E-05-1.19169E-08-3.21372E-19-7.41568E-19
 -1      3941 9.52523E-05-2.85497E-05-2.85868E-05-8.80572E-10 8.61869E-19-5.43930E-19
 -1      3942 9.52532E-05-2.85567E-05-2.85843E-05 2.93102E-09 1.42547E-18-1.12964E-19
 -1      3943 9.52505E-05-2.85422E-05-2.85892E-05-3.27183E-09 1.16686E-18 9.80176E-19
 -1      3944 9.52540E-05-2.85626E-05-2.85820E-05 5.02207E-09 1.62467E-18-9.03992E-19
 -1      3945 9.52538E-05-2.85672E-05-2.85800E-05 7.28049E-09 1.06608E-18-1.21733E-18
 -1      3946 9.52540E-05-2.85580E-05-2.85840E-05 2.42579E-09 1.44427E-18 2.69646E-19
 -1      3947 9.75814E-05-3.35994E-05-2.72743E-05-1.72998E-05-1.28261E-18-1.47792E-18
 -1      3948 1.04245E-04-3.87136E-05-2.82151E-05-1.45449E-05-9.98658E-19-4.60395E-19
 -1      3949 9.83545E-05-3.25370E-05-2.81765E-05 6.62662E-06-5.57216E-19 1.28091E-20
 -1      3950 9.98664E-05-3.39630E-05-2.82168E-05 6.75788E-06-8.07710E-19-4.17238E-19
 -1      3951 9.61757E-05-3.02607E-05-2.82347E-05 5.65622E-06-3.72691E-19 7.22935E-19
 -1      3952 9.71835E-05-3.13070E-05-2.82137E-05 6.01866E-06-3.92669E-19 4.64018E-19
 -1      3953 9.66713E-05-3.13976E-05-2.80156E-05 7.37104E-06-8.33904E-19-4.68702E-19
 -1      3954 9.48902E-05-2.87537E-05-2.83387E-05 4.60319E-06-2.32494E-19 6.44554E-19
 -1      3955 9.55175E-05-2.94467E-05-2.82985E-05 5.01942E-06 7.25631E-20 5.50387E-19
 -1      3956 9.49147E-05-2.93170E-05-2.81401E-05 5.93201E-06-1.11577E-19-5.90524E-19
 -1      3957 9.42167E-05-2.78435E-05-2.84454E-05 3.63108E-06-1.54406E-18 2.69513E-19
 -1      3958 9.45684E-05-2.82596E-05-2.84036E-05 4.02850E-06-9.22530E-19 6.26074E-19
 -1      3959 9.39790E-05-2.80209E-05-2.82835E-05 4.61773E-06-5.27121E-19-6.92429E-19
 -1      3960 9.39457E-05-2.73683E-05-2.85357E-05 2.80180E-06-1.18821E-18-4.20112E-19
 -1      3961 9.41106E-05-2.75832E-05-2.85006E-05 3.14979E-06-1.34372E-18 1.31953E-19
 -1      3962 9.35806E-05-2.73021E-05-2.84133E-05 3.50427E-06-1.31021E-18-1.78178E-19
 -1      3963 9.39203E-05-2.71885E-05-2.86029E-05 2.12774E-06 2.50715E-19 2.86847E-19
 -1      3964 9.39670E-05-2.72674E-05-2.85774E-05 2.41781E-06-4.10648E-19-1.55927E-19
 -1      3965 9.35150E-05-2.69848E-05-2.85165E-05 2.61231E-06-4.96489E-19-9.64801E-19
 -1      3966 9.40307E-05-2.71952E-05-2.86476E-05 1.59607E-06-5.01148E-19 7.19019E-19
 -1      3967 9.40089E-05-2.71887E-05-2.86315E-05 1.83057E-06 6.50490E-20 8.34299E-19
 -1      3968 9.36363E-05-2.69263E-05-2.85908E-05 1.92258E-06-2.99905E-19-2.64357E-19
 -1      3969 9.42044E-05-2.73088E-05-2.86731E-05 1.18485E-06-5.88411E-19-2.83253E-19
 -1      3970 9.41478E-05-2.72539E-05-2.86650E-05 1.37064E-06-7.46601E-19 4.12910E-20
 -1      3971 9.38483E-05-2.70217E-05-2.86392E-05 1.40131E-06-1.54333E-19 3.68009E-19
 -1      3972 9.43962E-05-2.74746E-05-2.86838E-05 8.70985E-07-1.00358E-19-3.46314E-19
 -1      3973 9.43264E-05-2.73964E-05-2.86817E-05 1.01612E-06-6.57665E-19-2.52515E-19
 -1      3974 9.40904E-05-2.71979E-05-2.86668E-05 1.01324E-06-6.09810E-19-1.47227E-18
 -1      3975 9.45799E-05-2.76568E-05-2.86839E-05 6.33707E-07 7.63645E-19 1.21577E-19
 -1      3976 9.45099E-05-2.75717E-05-2.86861E-05 7.45865E-07 4.30999E-19-8.58442E-20
 -1      3977 9.43272E-05-2.74063E-05-2.86787E-05 7.27205E-07-5.62626E-20-1.65243E-18
 -1      3978 9.47422E-05-2.78335E-05-2.86772E-05 4.55733E-07 3.01138E-19 8.63239E-19
 -1      3979 9.46789E-05-2.77515E-05-2.86821E-05 5.41623E-07 7.36294E-19 8.58326E-20
 -1      3980 9.45399E-05-2.76166E-05-2.86798E-05 5.17815E-07 7.93040E-19-5.25026E-19
 -1      3981 9.48779E-05-2.79931E-05-2.86666E-05 3.23090E-07-2.31656E-21 4.91783E-19
 -1      3982 9.48243E-05-2.79194E-05-2.86728E-05 3.88279E-07 2.34235E-19 4.32830E-19
 -1      3983 9.47203E-05-2.78115E-05-2.86738E-05 3.65227E-07 3.62707E-19-4.29007E-19
 -1      3984 9.49865E-05-2.81301E-05-2.86540E-05 2.24988E-07 1.03139E-19 8.28342E-19
 -1      3985 9.49434E-05-2.80671E-05-2.86608E-05 2.74006E-07 1.72382E-19 2.92316E-19
 -1      3986 9.48671E-05-2.79823E-05-2.86637E-05 2.54445E-07-6.31020E-20-2.16637E-19
 -1      3987 9.50703E-05-2.82433E-05-2.86411E-05 1.53021E-07-9.84545E-20 1.26360E-18
 -1      3988 9.50370E-05-2.81915E-05-2.86478E-05 1.89496E-07 2.15487E-19 8.64872E-19
 -1      3989 9.49822E-05-2.81260E-05-2.86517E-05 1.74389E-07-4.46378E-21-1.73538E-18
 -1      3990 9.51328E-05-2.83340E-05-2.86288E-05 1.00754E-07 1.72129E-19 1.68345E-18
 -1      3991 9.51080E-05-2.82926E-05-2.86350E-05 1.27568E-07 7.27769E-20 1.62556E-18
 -1      3992 9.50697E-05-2.82430E-05-2.86393E-05 1.16830E-07-4.78735E-19 6.63138E-19
 -1      3993 9.51778E-05-2.84046E-05-2.86176E-05 6.32675E-08-6.62474E-19 1.93341E-18
 -1      3994 9.51601E-05-2.83725E-05-2.86231E-05 8.26957E-08-4.30443E-19 1.97392E-18
 -1      3995 9.51340E-05-2.83356E-05-2.86274E-05 7.57494E-08-6.24881E-19 1.10346E-18
 -1      3996 9.52089E-05-2.84583E-05-2.86078E-05 3.68049E-08-4.06679E-19 1.75236E-18
 -1      3997 9.51968E-05-2.84340E-05-2.86125E-05 5.06367E-08-4.83971E-19 1.39291E-18
 -1      3998 9.51798E-05-2.84071E-05-2.86165E-05 4.67269E-08-6.52331E-19-4.52607E-21
 -1      3999 9.52293E-05-2.84980E-05-2.85994E-05 1.84983E-08 1.57057E-18 1.13388E-18
 -1      4000 9.52215E-05-2.84801E-05-2.86034E-05 2.81330E-08 5.17403E-19 1.48653E-18
 -1      4001 9.52112E-05-2.84609E-05-2.86070E-05 2.65069E-08 6.09650E-19 2.24611E-19
 -1      4002 9.52419E-05-2.85266E-05-2.85925E-05 6.16741E-09 7.41229E-19 1.94517E-18
 -1      4003 9.52373E-05-2.85138E-05-2.85957E-05 1.26913E-08 1.93393E-18 2.27922E-18
 -1      4004 9.52315E-05-2.85005E-05-2.85988E-05 1.26748E-08 1.22512E-18 1.15735E-18
 -1      4005 9.52488E-05-2.85466E-05-2.85867E-05-1.84938E-09-1.40768E-19 1.50292E-18
 -1      4006 9.52464E-05-2.85377E-05-2.85894E-05 2.44959E-09-2.96862E-19 1.69249E-18
 -1      4007 9.52438E-05-2.85288E-05-2.85920E-05 3.52061E-09 8.92053E-19 1.15044E-18
 -1      4008 9.52518E-05-2.85604E-05-2.85821E-05-6.84453E-09 5.33587E-19 1.74163E-18
 -1      4009 9.52509E-05-2.85542E-05-2.85842E-05-4.05263E-09 5.11011E-19 1.27164E-18
 -1      4010 9.52502E-05-2.85486E-05-2.85864E-05-2.36224E-09 3.96736E-19 1.29085E-18
 -1      4011 9.52519E-05-2.85676E-05-2.85790E-05-8.84165E-09 1.90510E-18 1.44985E-18
 -1      4012 1.15562E-04-4.47397E-05-3.03688E-05 2.01197E-06-1.50253E-18-1.49056E-18
 -1      4013 9.57135E-05-3.46939E-05-2.61455E-05 1.81841E-05-2.35387E-18-2.15036E-18
 -1      4014 9.02954E-05-3.13625E-05-2.50584E-05 2.09725E-05-2.34361E-18-1.57004E-18
 -1      4015 1.04708E-04-3.54142E-05-2.96417E-05-3.58342E-06-1.03336E-19-6.93667E-19
 -1      4016 1.03425E-04-3.45358E-05-2.95744E-05-5.16610E-06-1.68020E-19-8.45839E-19
 -1      4017 1.06296E-04-3.70700E-05-2.96981E-05-3.02875E-06 3.82592E-20-5.88480E-19
 -1      4018 8.60610E-05-1.82637E-05-2.90275E-05-7.84381E-06-5.21716E-19-2.45492E-18
 -1      4019 1.10525E-04-4.50626E-05-2.80212E-05 1.41141E-05-2.70540E-18-1.54146E-18
 -1      4020 1.03863E-04-4.04512E-05-2.72529E-05 1.54349E-05-2.88811E-18-1.93652E-18
 -1      4021 1.11925E-04-4.44178E-05-2.88849E-05 9.13734E-06-2.33940E-18-1.44107E-18
 -1      4022 8.72583E-05-2.04164E-05-2.86598E-05-9.34166E-06-6.67773E-19-2.28382E-18
 -1      4023 7.04157E-05-1.33451E-05-2.43708E-05-8.36336E-06-8.95857E-19-2.87279E-18
 -1      4024 8.31343E-05-2.23097E-05-2.60034E-05-1.62346E-05-1.34201E-18-2.50185E-18
 -1      4025 9.01254E-05-2.83646E-05-2.66300E-05-1.80770E-05-1.32859E-18-2.23899E-18
 -1      4026 1.06518E-04-3.99708E-05-2.84585E-05 7.93962E-06-2.63930E-18-7.58821E-19
 -1      4027 1.08926E-04-4.18268E-05-2.87843E-05 7.06599E-06-2.05973E-18-8.77965E-19
 -1      4028 9.52525E-05-2.85749E-05-2.85761E-05 9.14518E-09-2.79362E-19-5.63347E-19
 -1      4029 9.52533E-05-2.85749E-05-2.85765E-05 7.04279E-09 4.61476E-19-9.79247E-20
 -1      4030 9.52542E-05-2.85720E-05-2.85780E-05 5.85692E-09-5.28045E-19-1.09687E-18
 -1      4031 9.52529E-05-2.85732E-05-2.85770E-05 9.15055E-09-3.31341E-19-2.17560E-19
 -1      4032 1.01610E-04-3.57339E-05-2.81856E-05 7.68135E-06-1.43753E-18-8.82823E-19
 -1      4033 1.03691E-04-3.75413E-05-2.83346E-05 7.40425E-06-2.28332E-18-1.24729E-18
 -1      4034 1.03936E-04-3.89078E-05-2.79052E-05 1.11245E-05-2.43700E-18-1.45684E-18
 -1      4035 9.94286E-05-3.43680E-05-2.79205E-05 8.99234E-06-1.44053E-18-1.40130E-18
 -1      4036 1.13392E-04-4.40755E-05-2.96697E-05 4.16025E-06-1.72906E-18-1.51984E-18
 -1      4037 7.22888E-05-2.05814E-05-2.18961E-05 2.17696E-05-2.04856E-18 1.83602E-18
 -1      4038 6.96755E-05-1.71096E-05-2.26420E-05 1.51987E-05-1.35669E-18 1.19017E-18
 -1      4039 7.36690E-05-1.76228E-05-2.39778E-05 1.22866E-05-1.54781E-18 8.87522E-19
 -1      4040 8.19363E-05-2.62886E-05-2.38336E-05 2.13936E-05-2.16313E-18 1.84498E-19
 -1      4041 9.52527E-05-2.85644E-05-2.85808E-05-6.79728E-09 1.61531E-18 1.25813E-18
 -1      4042 8.33007E-05-2.59712E-05-2.47028E-05 1.84249E-05-2.03307E-18-3.70584E-19
 -1      4043 1.07751E-04-4.04435E-05-2.87235E-05-1.19026E-05-9.26437E-19-3.30915E-19
 -1      4044 1.09882E-04-4.14550E-05-2.93799E-05-8.35497E-06-9.07054E-19-3.56870E-19
 -1      4045 1.03535E-04-3.68597E-05-2.85940E-05-1.20265E-05-7.72626E-19-6.58451E-19
 -1      4046 8.98712E-05-2.32676E-05-2.84834E-05-1.10256E-05-6.76575E-19-2.13391E-18
 -1      4047 8.65418E-05-2.12219E-05-2.80065E-05-1.11235E-05-7.38776E-19-2.40465E-18
 -1      4048 1.14247E-04-4.36713E-05-3.03340E-05-3.45665E-06-7.13946E-19 1.69655E-20
 -1      4049 1.17762E-04-4.49406E-05-3.11290E-05-7.27458E-07-6.06708E-19 5.23063E-19
 -1      4050 7.87176E-05-1.83618E-05-2.58583E-05 7.12991E-06-1.59383E-18-6.85451E-20
 -1      4051 8.14571E-05-2.02823E-05-2.61743E-05 8.54957E-06-1.33548E-18-8.47784E-19
 -1      4052 7.56130E-05-1.75176E-05-2.50269E-05 8.98557E-06-1.40786E-18 6.19840E-20
 -1      4053 9.40520E-05-2.97470E-05-2.75391E-05-1.52362E-05-1.10037E-18-1.70494E-18
 -1      4054 9.52533E-05-2.85712E-05-2.85780E-05 8.64346E-09-8.54922E-20-6.65559E-19
 -1      4055 1.12359E-04-4.16361E-05-3.03354E-05-1.81163E-06-4.60515E-19 5.89532E-20
 -1      4056 1.10057E-04-3.98398E-05-3.01372E-05-8.39234E-07-2.75984E-19-2.98885E-20
 -1      4057 1.12025E-04-4.21694E-05-2.98526E-05-5.08949E-06-7.05949E-19-1.70115E-19
 -1      4058 9.99179E-05-3.70721E-05-2.68600E-05 1.60499E-05-2.37632E-18-2.07521E-18
 -1      4059 9.49214E-05-3.32572E-05-2.65341E-05 1.57639E-05-2.11642E-18-2.38148E-18
 -1      4060 1.03699E-04-3.52458E-05-2.93389E-05-7.05597E-06-2.77434E-19-8.16541E-19
 -1      4061 1.01683E-04-3.29694E-05-2.93964E-05-6.90034E-06-1.85024E-19-9.52163E-19
 -1      4062 9.52536E-05-2.85643E-05-2.85812E-05-4.89745E-09 1.18087E-18 1.11593E-18
 -1      4063 9.52543E-05-2.85687E-05-2.85796E-05 6.07223E-09 2.83361E-19-1.39109E-18
 -1      4064 1.08596E-04-3.87552E-05-2.98710E-05-2.08619E-06-1.35165E-19-2.62249E-19
 -1      4065 1.12243E-04-3.35703E-05-3.37948E-05 9.69170E-06 6.41780E-19 7.39926E-19
 -1      4066 7.76483E-05-1.65320E-05-2.62742E-05-1.00475E-05-1.04480E-18-2.35005E-18
 -1      4067 8.00076E-05-1.94107E-05-2.59498E-05-1.42694E-05-1.16355E-18-2.30535E-18
 -1      4068 8.00556E-05-1.65124E-05-2.72610E-05-8.25831E-06-8.83437E-19-2.30731E-18
 -1      4069 1.00064E-04-3.11910E-05-2.95108E-05-6.52387E-06-1.21898E-19-1.13553E-18
 -1      4070 9.87519E-05-2.95068E-05-2.96390E-05-6.19716E-06 6.27471E-20-1.23216E-18
 -1      4071 9.98418E-05-3.17302E-05-2.92357E-05-8.40262E-06-2.80283E-19-1.10423E-18
 -1      4072 1.02890E-04-3.85061E-05-2.75548E-05 1.29574E-05-2.48381E-18-1.60385E-18
 -1      4073 9.52546E-05-2.85639E-05-2.85818E-05-1.50426E-09 5.37985E-19-1.50628E-18
 -1      4074 9.52542E-05-2.85638E-05-2.85817E-05-3.47300E-09 7.71746E-19-1.38203E-18
 -1      4075 9.52530E-05-2.85557E-05-2.85844E-05-3.59153E-09 6.32204E-19-1.05270E-19
 -1      4076 8.45302E-05-2.15040E-05-2.69807E-05-1.33769E-05-9.58403E-19-2.41739E-18
 -1      4077 8.30283E-05-1.84328E-05-2.75831E-05-1.03764E-05-7.14049E-19-2.43814E-18
 -1      4078 9.52552E-05-2.85662E-05-2.85811E-05 3.76132E-10 1.26252E-19-6.24547E-19
 -1      4079 9.52543E-05-2.85574E-05-2.85842E-05-1.17807E-09 2.90353E-19-2.04648E-18
 -1      4080 9.52550E-05-2.85663E-05-2.85809E-05 2.26246E-09-7.44517E-19-1.31021E-18
 -1      4081 8.53828E-05-2.10207E-05-2.76045E-05-1.20368E-05-8.45800E-19-2.50162E-18
 -1      4082 9.52532E-05-2.85524E-05-2.85860E-05-9.78571E-10 1.11087E-18-1.77910E-18
 -1      4083 9.52524E-05-2.85501E-05-2.85868E-05-2.08888E-09 1.44857E-18-1.94778E-18
 -1      4084 9.24679E-05-2.50459E-05-2.89081E-05-9.97330E-06-6.42172E-19-1.75180E-18
 -1      4085 9.21241E-05-2.61569E-05-2.82938E-05-1.20575E-05-7.66574E-19-1.88553E-18
 -1      4086 9.52548E-05-2.85682E-05-2.85801E-05 4.42545E-09 2.46904E-19-5.62614E-19
 -1      4087 8.50564E-05-2.22279E-05-2.69839E-05 6.98322E-06-6.16565E-19-8.57411E-19
 -1      4088 8.63944E-05-2.24838E-05-2.73568E-05 5.47911E-06-3.59707E-19-7.98936E-19
 -1      4089 8.69675E-05-2.26337E-05-2.76196E-05 4.23005E-06-2.39767E-19-1.16024E-18
 -1      4090 8.80983E-05-2.30278E-05-2.78675E-05 3.24475E-06-6.88148E-19-1.44823E-18
 -1      4091 8.79325E-05-2.37251E-05-2.75147E-05 5.95262E-06-6.94173E-19-1.96446E-18
 -1      4092 8.86874E-05-2.33264E-05-2.80477E-05 2.40053E-06-1.22657E-18-9.15792E-19
 -1      4093 8.96006E-05-2.37568E-05-2.82077E-05 1.77859E-06-9.29253E-19-8.64285E-19
 -1      4094 8.91368E-05-2.39089E-05-2.79456E-05 3.72965E-06-7.38891E-19-1.92374E-18
 -1      4095 9.01449E-05-2.41084E-05-2.83274E-05 1.22924E-06-8.83412E-19-1.15009E-18
 -1      4096 9.08660E-05-2.45234E-05-2.84270E-05 8.56363E-07-1.25549E-18-1.81780E-18
 -1      4097 9.02943E-05-2.43698E-05-2.82408E-05 2.22833E-06-1.33521E-18-1.43775E-18
 -1      4098 9.13397E-05-2.48748E-05-2.85034E-05 5.13328E-07-1.62750E-18-1.25495E-18
 -1      4099 9.18995E-05-2.52490E-05-2.85623E-05 3.05660E-07-1.28004E-18-1.65355E-18
 -1      4100 9.13245E-05-2.49435E-05-2.84359E-05 1.25073E-06-1.38918E-18-6.71356E-19
 -1      4101 9.22961E-05-2.55727E-05-2.86085E-05 1.02061E-07-9.27727E-19-1.50979E-18
 -1      4102 9.27249E-05-2.58963E-05-2.86406E-05-2.38236E-10-2.98231E-19-1.67614E-18
 -1      4103 9.21999E-05-2.55335E-05-2.85591E-05 6.38471E-07-1.13134E-18-5.72285E-19
 -1      4104 9.30478E-05-2.61803E-05-2.86661E-05-1.12959E-07-1.05211E-20-2.33484E-18
 -1      4105 9.33726E-05-2.64523E-05-2.86810E-05-1.51238E-07-1.05694E-19-1.77009E-18
 -1      4106 9.29204E-05-2.60875E-05-2.86322E-05 2.72508E-07-7.58428E-19-1.27753E-18
 -1      4107 9.36299E-05-2.66933E-05-2.86928E-05-2.07079E-07 4.90015E-19-1.48537E-18
 -1      4108 9.38735E-05-2.69172E-05-2.86970E-05-2.08941E-07 8.28488E-19-1.37117E-18
 -1      4109 9.34995E-05-2.65803E-05-2.86709E-05 6.69312E-08 3.89157E-19-1.79486E-18
 -1      4110 9.40749E-05-2.71170E-05-2.87000E-05-2.30973E-07 9.75805E-19-1.04073E-18
 -1      4111 9.42562E-05-2.72980E-05-2.86978E-05-2.14076E-07 1.16184E-18-8.26147E-19
 -1      4112 9.39559E-05-2.70030E-05-2.86871E-05-3.81018E-08 1.19954E-18-1.61362E-18
 -1      4113 9.44181E-05-2.74679E-05-2.86953E-05-2.16915E-07 7.35313E-19-5.62938E-19
 -1      4114 9.45568E-05-2.76185E-05-2.86892E-05-1.91146E-07 4.48850E-19-1.51636E-19
 -1      4115 9.43171E-05-2.73638E-05-2.86889E-05-8.34764E-08 1.03233E-18-1.60909E-18
 -1      4116 9.46725E-05-2.77469E-05-2.86839E-05-1.84383E-07-4.39594E-19 3.61986E-19
 -1      4117 9.47682E-05-2.78593E-05-2.86765E-05-1.58372E-07-9.26237E-19-1.16412E-19
 -1      4118 9.45912E-05-2.76569E-05-2.86818E-05-9.42328E-08 6.16441E-20-6.24456E-19
 -1      4119 9.48545E-05-2.79603E-05-2.86698E-05-1.48036E-07-1.22621E-18-4.54021E-19
 -1      4120 9.49233E-05-2.80477E-05-2.86620E-05-1.23954E-07-1.08711E-18-9.57723E-20
 -1      4121 9.47911E-05-2.78860E-05-2.86705E-05-8.70711E-08-1.36294E-18 2.81372E-19
 -1      4122 9.49866E-05-2.81261E-05-2.86550E-05-1.13101E-07-5.33259E-19-1.98132E-20
 -1      4123 9.50354E-05-2.81932E-05-2.86475E-05-9.24388E-08 3.73973E-19-3.76143E-19
 -1      4124 9.49388E-05-2.80666E-05-2.86572E-05-7.26825E-08-5.15215E-19 4.20089E-19
 -1      4125 9.50808E-05-2.82532E-05-2.86407E-05-8.25937E-08 7.28633E-19-5.04673E-19
 -1      4126 9.51147E-05-2.83040E-05-2.86338E-05-6.57558E-08 1.56880E-19-6.06480E-20
 -1      4127 9.50459E-05-2.82068E-05-2.86437E-05-5.65420E-08 8.84601E-19-2.16029E-20
 -1      4128 9.51466E-05-2.83492E-05-2.86276E-05-5.75528E-08-7.92111E-19-1.40408E-19
 -1      4129 9.51696E-05-2.83871E-05-2.86216E-05-4.43712E-08-4.16661E-19-1.54288E-19
 -1      4130 9.51220E-05-2.83139E-05-2.86309E-05-4.14585E-08-3.45438E-19-3.91078E-19
 -1      4131 9.51913E-05-2.84205E-05-2.86161E-05-3.79340E-08 6.88799E-19-1.20456E-18
 -1      4132 9.52064E-05-2.84483E-05-2.86109E-05-2.79632E-08 9.21482E-19-4.71871E-19
 -1      4133 9.51745E-05-2.83944E-05-2.86193E-05-2.86601E-08-4.46518E-19-5.45486E-19
 -1      4134 9.52205E-05-2.84726E-05-2.86062E-05-2.31501E-08-5.83858E-19-1.17753E-18
 -1      4135 9.52299E-05-2.84927E-05-2.86019E-05-1.58426E-08-1.29456E-18-1.31690E-18
 -1      4136 9.52097E-05-2.84537E-05-2.86092E-05-1.84805E-08-2.46130E-19-2.92797E-18
 -1      4137 9.52386E-05-2.85100E-05-2.85980E-05-1.24121E-08-3.82857E-19-3.10427E-19
 -1      4138 9.52441E-05-2.85242E-05-2.85944E-05-7.04098E-09 2.91905E-19-2.88443E-20
 -1      4139 9.52321E-05-2.84966E-05-2.86006E-05-1.08042E-08-5.65836E-19-2.72723E-18
 -1      4140 9.52497E-05-2.85385E-05-2.85905E-05-4.01705E-09 1.26995E-18-1.64401E-19
 -1      4141 9.52523E-05-2.85478E-05-2.85876E-05-8.15381E-10 2.01256E-18 2.14499E-19
 -1      4142 1.06157E-04-3.75834E-05-2.93165E-05-7.22779E-06-5.92058E-19-7.37792E-19
 -1      4143 1.03817E-04-3.61821E-05-2.90680E-05-9.32996E-06-5.37014E-19-7.41055E-19
 -1      4144 1.08474E-04-3.98090E-05-2.94655E-05-6.64689E-06-6.74486E-19-4.73953E-19
 -1      4145 7.79046E-05-2.01973E-05-2.46092E-05 1.41397E-05-2.03130E-18-1.34472E-19
 -1      4146 9.46386E-05-2.96730E-05-2.78437E-05 7.71364E-06-4.84344E-19-2.07534E-18
 -1      4147 9.58585E-05-3.09490E-05-2.77915E-05 8.53429E-06-6.41117E-19-1.87472E-18
 -1      4148 9.28870E-05-2.66546E-05-2.83960E-05 3.19215E-06-1.58851E-18-7.33729E-19
 -1      4149 9.30084E-05-2.68504E-05-2.83338E-05 3.69704E-06-1.08658E-18-5.42389E-19
 -1      4150 9.30636E-05-2.65608E-05-2.85109E-05 2.28618E-06-9.22370E-20-9.76423E-19
 -1      4151 9.30523E-05-2.66034E-05-2.84647E-05 2.67490E-06-8.82624E-19-1.07474E-18
 -1      4152 9.24307E-05-2.61779E-05-2.83898E-05 2.84569E-06-7.74982E-19-1.37976E-18
 -1      4153 9.33522E-05-2.66618E-05-2.85898E-05 1.61925E-06-9.46250E-19-1.17869E-19
 -1      4154 9.32702E-05-2.66132E-05-2.85584E-05 1.91123E-06-6.92511E-19-3.04583E-19
 -1      4155 9.27928E-05-2.62527E-05-2.85105E-05 1.96036E-06-7.31289E-19-1.16122E-18
 -1      4156 9.36761E-05-2.68663E-05-2.86394E-05 1.13719E-06 1.09500E-19 7.65409E-20
 -1      4157 9.35632E-05-2.67694E-05-2.86203E-05 1.35298E-06 1.30550E-19 5.55831E-19
 -1      4158 9.32011E-05-2.64718E-05-2.85910E-05 1.33419E-06-7.33965E-19-1.35218E-19
 -1      4159 9.39908E-05-2.71141E-05-2.86667E-05 7.93197E-07-3.03108E-19-3.74479E-19
 -1      4160 9.38715E-05-2.69973E-05-2.86569E-05 9.51027E-07-2.43326E-19 3.91370E-19
 -1      4161 9.35994E-05-2.67560E-05-2.86403E-05 8.99236E-07-1.53562E-19 8.34357E-19
 -1      4162 9.42732E-05-2.73675E-05-2.86779E-05 5.49872E-07 2.32564E-19-5.68182E-19
 -1      4163 9.41612E-05-2.72486E-05-2.86749E-05 6.64592E-07-2.69911E-19-4.27102E-19
 -1      4164 9.39585E-05-2.70554E-05-2.86667E-05 6.01302E-07-3.79826E-20 6.44151E-19
 -1      4165 9.45136E-05-2.76049E-05-2.86782E-05 3.78825E-07 6.74756E-19-1.85104E-19
 -1      4166 9.44156E-05-2.74939E-05-2.86797E-05 4.61669E-07 9.91014E-19-5.78390E-19
 -1      4167 9.42657E-05-2.73408E-05-2.86769E-05 3.99234E-07 4.73083E-19 3.46435E-20
 -1      4168 9.47101E-05-2.78146E-05-2.86718E-05 2.58655E-07 8.43257E-19-7.35489E-19
 -1      4169 9.46285E-05-2.77167E-05-2.86760E-05 3.18642E-07 6.70567E-19-6.04252E-21
 -1      4170 9.45187E-05-2.75966E-05-2.86766E-05 2.63134E-07 8.49546E-19-7.80920E-19
 -1      4171 9.48656E-05-2.79927E-05-2.86615E-05 1.74743E-07-1.10616E-19-3.90551E-19
 -1      4172 9.48003E-05-2.79099E-05-2.86671E-05 2.18043E-07 2.39815E-19-3.11254E-19
 -1      4173 9.47208E-05-2.78171E-05-2.86698E-05 1.72257E-07 3.38619E-19-1.89152E-19
 -1      4174 9.49851E-05-2.81391E-05-2.86495E-05 1.16160E-07-5.46817E-19-5.04872E-19
 -1      4175 9.49346E-05-2.80712E-05-2.86557E-05 1.47352E-07-4.16917E-19-8.34531E-19
 -1      4176 9.48777E-05-2.80001E-05-2.86593E-05 1.11657E-07 1.14043E-20 3.15465E-20
 -1      4177 9.50743E-05-2.82561E-05-2.86372E-05 7.53910E-08-1.08244E-18 2.11159E-19
 -1      4178 9.50366E-05-2.82021E-05-2.86434E-05 9.77791E-08-7.86056E-19-5.62374E-19
 -1      4179 9.49964E-05-2.81483E-05-2.86474E-05 7.12783E-08-9.14650E-19 5.11128E-20
 -1      4180 9.51390E-05-2.83475E-05-2.86255E-05 4.71612E-08-2.48734E-19-2.10684E-19
 -1      4181 9.51117E-05-2.83055E-05-2.86312E-05 6.31329E-08-2.67997E-19-1.79500E-20
 -1      4182 9.50840E-05-2.82653E-05-2.86353E-05 4.44219E-08-8.13701E-19-1.64374E-18
 -1      4183 9.51844E-05-2.84172E-05-2.86149E-05 2.77713E-08-4.09435E-19-1.00365E-18
 -1      4184 9.51653E-05-2.83853E-05-2.86200E-05 3.90609E-08-4.05868E-19-4.43288E-19
 -1      4185 9.51468E-05-2.83557E-05-2.86238E-05 2.66048E-08 6.71036E-20-1.82272E-18
 -1      4186 9.52150E-05-2.84691E-05-2.86056E-05 1.46196E-08 6.98971E-19-6.10693E-19
 -1      4187 9.52023E-05-2.84455E-05-2.86101E-05 2.24953E-08 5.26611E-19-4.22349E-19
 -1      4188 9.51903E-05-2.84241E-05-2.86135E-05 1.48461E-08-7.29691E-19-2.38618E-18
 -1      4189 9.52345E-05-2.85069E-05-2.85977E-05 5.87118E-09 1.53781E-18 5.30243E-19
 -1      4190 9.52265E-05-2.84898E-05-2.86015E-05 1.12671E-08 1.07189E-18-1.20051E-19
 -1      4191 9.52193E-05-2.84747E-05-2.86044E-05 7.17352E-09 7.22909E-19 8.61877E-20
 -1      4192 9.52461E-05-2.85337E-05-2.85911E-05 2.53559E-10 1.50199E-19 7.53716E-19
 -1      4193 9.52415E-05-2.85216E-05-2.85942E-05 3.70606E-09 1.43569E-18 2.09510E-19
 -1      4194 9.52374E-05-2.85111E-05-2.85967E-05 2.24020E-09 1.54737E-18 8.58650E-20
 -1      4195 9.52513E-05-2.85500E-05-2.85863E-05-2.74931E-09 8.10162E-19-1.04577E-19
 -1      4196 9.52490E-05-2.85414E-05-2.85889E-05-6.09254E-10 9.49090E-20 3.06340E-19
 -1      4197 9.52472E-05-2.85348E-05-2.85910E-05-6.37408E-10 2.51312E-19-2.59684E-19
 -1      4198 9.52518E-05-2.85493E-05-2.85868E-05-2.15507E-09 6.51774E-19-1.60567E-18
 -1      4199 8.46680E-05-2.48783E-05-2.55963E-05 1.46509E-05-2.23984E-18-8.96088E-19
 -1      4200 1.07756E-04-3.85983E-05-2.96930E-05-4.40216E-06-3.21495E-19-4.58623E-19
 -1      4201 1.00045E-04-3.58682E-05-2.75230E-05 1.18758E-05-2.28920E-18-1.27878E-18
 -1      4202 9.54974E-05-3.23974E-05-2.70229E-05 1.32551E-05-1.65100E-18-3.19766E-18
 -1      4203 9.17204E-05-2.99937E-05-2.63834E-05 1.49830E-05-1.74524E-18-2.25823E-18
 -1      4204 9.29476E-05-2.70753E-05-2.82413E-05 4.39137E-06-7.42086E-19-9.66254E-19
 -1      4205 9.32928E-05-2.75099E-05-2.81656E-05 5.02255E-06-4.04148E-19-1.43042E-18
 -1      4206 9.22131E-05-2.63683E-05-2.82208E-05 4.06899E-06-8.88054E-19-1.65643E-18
 -1      4207 9.34426E-05-2.80089E-05-2.80505E-05 5.91711E-06-4.45668E-19-1.58106E-18
 -1      4208 9.41258E-05-2.87878E-05-2.79706E-05 6.66135E-06-4.05654E-19-2.03306E-18
 -1      4209 9.23052E-05-2.70024E-05-2.79997E-05 5.70965E-06-6.45848E-19-2.30900E-18
 -1      4210 9.47998E-05-2.67364E-05-2.91432E-05-9.32137E-06-3.20072E-19-1.55556E-18
 -1      4211 9.52548E-05-2.85620E-05-2.85826E-05 2.57376E-09 1.17901E-18-8.23977E-20
 -1      4212 9.63299E-05-2.76547E-05-2.94400E-05-7.84756E-06-2.64328E-19-1.36302E-18
 -1      4213 9.67819E-05-2.89432E-05-2.90698E-05-9.41719E-06-4.33742E-19-1.34592E-18
 -1      4214 9.52541E-05-2.85560E-05-2.85850E-05 4.51539E-10 1.37077E-18 2.89557E-19
 -1      4215 9.68150E-05-2.74928E-05-2.97136E-05-6.23804E-06 7.12864E-20-1.39551E-18
 -1      4216 1.01093E-04-3.40723E-05-2.86682E-05-1.13246E-05-5.98114E-19-7.41117E-19
 -1      4217 9.75176E-05-3.12487E-05-2.84173E-05-1.26045E-05-8.61083E-19-1.09628E-18
 -1      4218 9.45714E-05-2.95173E-05-2.79057E-05-1.40319E-05-9.64553E-19-1.57390E-18
 -1      4219 9.84352E-05-3.09016E-05-2.89285E-05-1.00066E-05-4.61796E-19-1.19744E-18
 -1      4220 8.45513E-05-2.23100E-05-2.66168E-05 8.63992E-06-8.03034E-19-8.21657E-19
 -1      4221 8.67554E-05-2.39853E-05-2.69059E-05 9.02288E-06-8.75879E-19-1.12313E-18
 -1      4222 8.27990E-05-2.21187E-05-2.60469E-05 1.07936E-05-1.64655E-18-9.38724E-19
 -1      4223 9.52462E-05-2.85299E-05-2.85926E-05-4.11576E-09 1.62866E-18-8.79138E-19
 -1      4224 9.30099E-05-2.83452E-05-2.77363E-05 7.81096E-06-5.74338E-19-2.63186E-18
 -1      4225 9.52505E-05-2.85433E-05-2.85887E-05-1.73429E-09 1.19819E-18-7.38362E-19
 -1      4226 9.31871E-05-2.95949E-05-2.72624E-05 1.07492E-05-1.14465E-18-2.98661E-18
 -1      4227 9.53796E-05-3.13887E-05-2.74636E-05 1.03922E-05-9.92711E-19-2.44281E-18
 -1      4228 8.91962E-05-2.69104E-05-2.66833E-05 1.19415E-05-1.82230E-18-1.62071E-18
 -1      4229 8.79658E-05-2.69540E-05-2.61410E-05 1.43391E-05-1.74865E-18-9.07219E-19
 -1      4230 8.82837E-05-2.41788E-05-2.74180E-05-1.41967E-05-1.01060E-18-2.39760E-18
 -1      4231 9.03571E-05-2.52121E-05-2.79381E-05 4.84205E-06-4.61621E-19-1.93553E-18
 -1      4232 9.08864E-05-2.52641E-05-2.81062E-05 3.90726E-06-1.05006E-18-1.78707E-18
 -1      4233 9.09748E-05-2.51924E-05-2.82107E-05 3.19919E-06-1.47943E-18-1.56029E-18
 -1      4234 9.14812E-05-2.53668E-05-2.83259E-05 2.56775E-06-1.13979E-18-1.34378E-18
 -1      4235 9.16687E-05-2.54367E-05-2.84014E-05 2.05764E-06-1.06766E-18-1.40540E-18
 -1      4236 9.21197E-05-2.56652E-05-2.84771E-05 1.64543E-06-7.38784E-19-9.07481E-19
 -1      4237 9.23435E-05-2.58090E-05-2.85284E-05 1.28706E-06-9.40621E-19-5.22655E-19
 -1      4238 9.27272E-05-2.60502E-05-2.85756E-05 1.02754E-06-1.22236E-18-3.65925E-19
 -1      4239 9.29513E-05-2.62245E-05-2.86081E-05 7.80959E-07-1.15574E-18-5.75337E-20
 -1      4240 9.32673E-05-2.64550E-05-2.86352E-05 6.24318E-07-7.18798E-19-4.63695E-19
 -1      4241 9.34723E-05-2.66334E-05-2.86538E-05 4.57528E-07-1.71272E-19-1.55780E-19
 -1      4242 9.37264E-05-2.68409E-05-2.86672E-05 3.67945E-07 5.53969E-19-5.07503E-19
 -1      4243 9.39037E-05-2.70084E-05-2.86759E-05 2.56663E-07 2.56207E-19-6.88508E-19
 -1      4244 9.41039E-05-2.71880E-05-2.86805E-05 2.09376E-07 5.28203E-19-1.32125E-18
 -1      4245 9.42513E-05-2.73367E-05-2.86825E-05 1.35612E-07 1.03413E-18-1.47554E-18
 -1      4246 9.44129E-05-2.74948E-05-2.86813E-05 1.12650E-07 8.57298E-19-1.03085E-18
 -1      4247 9.45311E-05-2.76216E-05-2.86791E-05 6.45516E-08 1.05048E-18-1.51815E-18
 -1      4248 9.46478E-05-2.77446E-05-2.86747E-05 5.77530E-08-2.70915E-20-1.13616E-18
 -1      4249 9.47404E-05-2.78495E-05-2.86701E-05 2.63677E-08-5.80481E-19-3.98023E-19
 -1      4250 9.48277E-05-2.79485E-05-2.86641E-05 2.70044E-08-6.06449E-19 4.68240E-20
 -1      4251 9.48984E-05-2.80333E-05-2.86583E-05 6.55859E-09-9.02619E-19 2.60845E-19
 -1      4252 9.49625E-05-2.81114E-05-2.86517E-05 1.06197E-08-9.35890E-20 2.96649E-19
 -1      4253 9.50152E-05-2.81785E-05-2.86456E-05-2.68212E-09-4.49107E-19-2.23936E-19
 -1      4254 9.50614E-05-2.82390E-05-2.86391E-05 2.50625E-09-2.66267E-19-7.76050E-19
 -1      4255 9.50996E-05-2.82911E-05-2.86331E-05-6.16012E-09-5.06711E-20-1.27069E-18
 -1      4256 9.51320E-05-2.83371E-05-2.86271E-05-1.05856E-09-4.02892E-19-1.47954E-18
 -1      4257 9.51589E-05-2.83766E-05-2.86216E-05-6.71336E-09-7.64804E-19-1.14942E-18
 -1      4258 9.51811E-05-2.84110E-05-2.86162E-05-2.26398E-09-9.45106E-19-2.00560E-18
 -1      4259 9.51993E-05-2.84404E-05-2.86114E-05-5.95174E-09-5.68321E-19-1.12300E-18
 -1      4260 9.52139E-05-2.84655E-05-2.86067E-05-2.35511E-09-7.75805E-19-1.79779E-18
 -1      4261 9.52257E-05-2.84869E-05-2.86026E-05-4.72916E-09 3.62701E-19-1.28081E-18
 -1      4262 9.52347E-05-2.85050E-05-2.85986E-05-1.98280E-09 1.34692E-18-7.68440E-19
 -1      4263 8.99776E-05-2.57028E-05-2.75653E-05 7.13246E-06-7.20309E-19-1.55286E-18
 -1      4264 9.04674E-05-2.64314E-05-2.74024E-05 8.39116E-06-1.22604E-18-1.86803E-18
 -1      4265 9.04709E-05-2.55286E-05-2.78024E-05 5.79707E-06-4.24848E-19-1.97899E-18
 -1      4266 9.00600E-05-2.69178E-05-2.70889E-05 1.01399E-05-1.52575E-18-1.44079E-18
 -1      4267 9.52477E-05-2.85358E-05-2.85909E-05-9.78194E-10 1.21324E-18-6.57613E-19
 -1      4268 9.52419E-05-2.85201E-05-2.85951E-05-3.39857E-09 6.92650E-19-5.36553E-19
 -1      4269 9.85031E-05-3.39982E-05-2.76229E-05 1.05914E-05-1.53493E-18-1.89041E-18
 -3
    1PSTEP                         4           1           1          
  100CL  101 1.000000000        4269                     0    1           1
 -4  ERROR       1    1
 -5  STR(%)      1    1    0    0
 -1         1 1.30900E+01
 -1         2 2.47131E+01
 -1         3 2.06815E-04
 -1         4 4.42896E-04
 -1         5 1.36958E+01
 -1         6 1.24867E+01
 -1         7 1.24867E+01
 -1         8 3.58013E+00
 -1         9 1.99863E+00
 -1        10 1.38257E+00
 -1        11 1.05523E+00
 -1        12 8.15651E-01
 -1        13 6.50005E-01
 -1        14 6.22716E-01
 -1        15 7.41466E-01
 -1        16 8.67822E-01
 -1        17 9.98382E-01
 -1        18 1.17792E+00
 -1        19 1.43286E+00
 -1        20 1.91182E+00
 -1        21 3.47459E+00
 -1        22 8.39401E+00
 -1        23 1.24867E+01
 -1        24 4.00499E+00
 -1        25 2.78969E+00
 -1        26 1.89117E+00
 -1        27 1.56067E+00
 -1        28 1.88974E+00
 -1        29 2.36701E+00
 -1        30 3.27362E+00
 -1        31 4.20193E+00
 -1        32 4.29173E+00
 -1        33 4.29173E+00
 -1        34 4.83728E+00
 -1        35 1.08460E+01
 -1        36 1.23303E+01
 -1        37 1.23303E+01
 -1        38 1.14746E+01
 -1        39 5.27348E+00
 -1        40 4.25435E+00
 -1        41 4.33540E+00
 -1        42 4.33540E+00
 -1        43 3.50036E+00
 -1        44 2.63142E+00
 -1        45 2.00136E+00
 -1        46 1.36900E+00
 -1        47 1.04777E+00
 -1        48 7.74827E-01
 -1        49 5.60805E-01
 -1        50 4.00362E-01
 -1        51 2.83101E-01
 -1        52 1.98580E-01
 -1        53 1.38099E-01
 -1        54 1.00698E-01
 -1        55 7.92678E-02
 -1        56 6.19077E-02
 -1        57 4.79462E-02
 -1        58 3.67777E-02
 -1        59 2.76136E-02
 -1        60 2.05811E-02
 -1        61 1.51794E-02
 -1        62 1.24876E-02
 -1        63 1.00786E-02
 -1        64 7.96972E-03
 -1        65 6.14758E-03
 -1        66 4.57929E-03
 -1        67 3.36624E-03
 -1        68 2.51249E-03
 -1        69 2.17554E-03
 -1        70 1.67753E-03
 -1        71 1.27455E-03
 -1        72 1.36958E+01
 -1        73 3.23790E+00
 -1        74 2.16137E+00
 -1        75 1.36143E+00
 -1        76 8.62207E-01
 -1        77 5.29402E-01
 -1        78 3.84304E-01
 -1        79 4.61129E-01
 -1        80 6.84094E-01
 -1        81 8.72113E-01
 -1        82 1.28464E+00
 -1        83 1.72609E+00
 -1        84 2.02294E+00
 -1        85 2.14040E+00
 -1        86 2.37772E+00
 -1        87 2.37772E+00
 -1        88 2.27588E+00
 -1        89 1.90024E+00
 -1        90 1.41508E+00
 -1        91 9.64752E-01
 -1        92 6.23091E-01
 -1        93 4.08870E-01
 -1        94 2.68846E-01
 -1        95 2.57271E-01
 -1        96 2.57271E-01
 -1        97 2.50653E-01
 -1        98 2.19160E-01
 -1        99 1.77248E-01
 -1       100 1.42737E-01
 -1       101 1.08669E-01
 -1       102 8.78206E-02
 -1       103 6.95213E-02
 -1       104 5.28005E-02
 -1       105 3.85072E-02
 -1       106 2.68856E-02
 -1       107 2.14323E-02
 -1       108 1.81044E-02
 -1       109 1.48332E-02
 -1       110 1.18283E-02
 -1       111 9.82786E-03
 -1       112 8.71089E-03
 -1       113 7.45290E-03
 -1       114 6.17597E-03
 -1       115 4.94345E-03
 -1       116 3.83593E-03
 -1       117 2.87095E-03
 -1       118 2.08431E-03
 -1       119 1.59967E-03
 -1       120 8.43493E-04
 -1       121 4.07266E-04
 -1       122 4.07266E-04
 -1       123 2.79019E-04
 -1       124 8.86511E-05
 -1       125 1.92978E-04
 -1       126 2.64475E-04
 -1       127 3.04557E-04
 -1       128 3.17066E-04
 -1       129 3.17066E-04
 -1       130 3.08948E-04
 -1       131 2.69701E-04
 -1       132 2.01808E-04
 -1       133 9.32730E-05
 -1       134 2.85920E-04
 -1       135 3.25105E-04
 -1       136 3.25105E-04
 -1       137 2.43065E+01
 -1       138 4.55321E+01
 -1       139 4.55321E+01
 -1       140 1.79006E+01
 -1       141 1.20157E+01
 -1       142 1.20157E+01
 -1       143 1.17722E+01
 -1       144 1.22950E+01
 -1       145 1.26298E+01
 -1       146 1.26298E+01
 -1       147 2.74895E+01
 -1       148 2.88145E+01
 -1       149 2.88142E+01
 -1       150 2.51099E+01
 -1       151 2.61960E+01
 -1       152 2.61960E+01
 -1       153 4.81359E+01
 -1       154 4.81359E+01
 -1       155 2.04063E+01
 -1       156 1.27106E+01
 -1       157 1.30900E+01
 -1       158 1.32648E+01
 -1       159 1.32648E+01
 -1       160 2.50376E+01
 -1       161 3.14049E+01
 -1       162 3.14049E+01
 -1       163 2.49840E+01
 -1       164 5.82967E+00
 -1       165 2.41504E+00
 -1       166 1.64640E+00
 -1       167 1.21473E+00
 -1       168 9.23236E-01
 -1       169 7.20172E-01
 -1       170 5.90346E-01
 -1       171 6.73164E-01
 -1       172 7.98406E-01
 -1       173 9.29047E-01
 -1       174 1.08991E+00
 -1       175 1.30414E+00
 -1       176 1.66079E+00
 -1       177 2.36498E+00
 -1       178 3.87871E+00
 -1       179 1.36958E+01
 -1       180 4.00499E+00
 -1       181 2.78969E+00
 -1       182 1.89117E+00
 -1       183 1.40567E+00
 -1       184 1.56067E+00
 -1       185 2.23750E+00
 -1       186 2.84223E+00
 -1       187 3.32444E+00
 -1       188 4.20193E+00
 -1       189 4.29173E+00
 -1       190 3.78211E+00
 -1       191 5.43342E+00
 -1       192 1.08460E+01
 -1       193 1.23303E+01
 -1       194 1.14746E+01
 -1       195 6.01041E+00
 -1       196 3.77983E+00
 -1       197 4.25435E+00
 -1       198 4.33540E+00
 -1       199 3.50576E+00
 -1       200 2.89787E+00
 -1       201 2.46900E+00
 -1       202 1.84524E+00
 -1       203 1.34412E+00
 -1       204 9.43205E-01
 -1       205 6.44552E-01
 -1       206 4.31515E-01
 -1       207 3.03764E-01
 -1       208 2.18481E-01
 -1       209 1.55993E-01
 -1       210 1.10490E-01
 -1       211 7.92678E-02
 -1       212 6.19077E-02
 -1       213 4.79462E-02
 -1       214 3.67777E-02
 -1       215 2.76136E-02
 -1       216 2.08827E-02
 -1       217 1.61124E-02
 -1       218 1.24876E-02
 -1       219 1.00786E-02
 -1       220 7.96972E-03
 -1       221 6.21411E-03
 -1       222 4.82437E-03
 -1       223 3.58620E-03
 -1       224 2.62257E-03
 -1       225 2.17554E-03
 -1       226 1.67753E-03
 -1       227 1.27455E-03
 -1       228 5.36470E-04
 -1       229 3.23790E+00
 -1       230 2.16137E+00
 -1       231 1.36143E+00
 -1       232 8.62207E-01
 -1       233 5.81658E-01
 -1       234 5.76625E-01
 -1       235 7.30589E-01
 -1       236 9.53825E-01
 -1       237 1.20911E+00
 -1       238 1.49918E+00
 -1       239 1.75378E+00
 -1       240 1.85634E+00
 -1       241 2.02294E+00
 -1       242 2.14040E+00
 -1       243 2.37772E+00
 -1       244 2.27588E+00
 -1       245 1.90024E+00
 -1       246 1.41508E+00
 -1       247 9.97069E-01
 -1       248 6.35722E-01
 -1       249 4.08870E-01
 -1       250 2.68846E-01
 -1       251 2.45284E-01
 -1       252 2.57271E-01
 -1       253 2.50653E-01
 -1       254 2.19160E-01
 -1       255 1.77248E-01
 -1       256 1.44846E-01
 -1       257 1.15264E-01
 -1       258 8.78206E-02
 -1       259 6.95213E-02
 -1       260 5.28005E-02
 -1       261 3.85072E-02
 -1       262 2.75181E-02
 -1       263 2.21748E-02
 -1       264 1.87056E-02
 -1       265 1.53171E-02
 -1       266 1.22045E-02
 -1       267 9.82786E-03
 -1       268 8.71089E-03
 -1       269 7.45290E-03
 -1       270 6.17597E-03
 -1       271 4.94345E-03
 -1       272 3.83593E-03
 -1       273 2.87095E-03
 -1       274 2.08431E-03
 -1       275 1.59967E-03
 -1       276 9.15532E-04
 -1       277 7.53238E-04
 -1       278 7.53238E-04
 -1       279 3.50479E-04
 -1       280 3.14605E-04
 -1       281 4.57808E-04
 -1       282 5.42671E-04
 -1       283 5.78595E-04
 -1       284 5.80276E-04
 -1       285 5.80276E-04
 -1       286 5.51417E-04
 -1       287 4.74269E-04
 -1       288 3.35418E-04
 -1       289 3.58046E-04
 -1       290 9.27149E-04
 -1       291 9.27149E-04
 -1       292 2.75574E+01
 -1       293 2.54210E+01
 -1       294 4.55321E+01
 -1       295 1.93380E+01
 -1       296 1.03983E+01
 -1       297 1.20157E+01
 -1       298 1.17722E+01
 -1       299 1.13205E+01
 -1       300 1.22950E+01
 -1       301 1.26298E+01
 -1       302 1.23927E+01
 -1       303 2.88145E+01
 -1       304 2.88145E+01
 -1       305 2.44068E+01
 -1       306 3.19143E+01
 -1       307 3.19143E+01
 -1       308 2.97222E+01
 -1       309 4.81359E+01
 -1       310 2.26192E+01
 -1       311 1.25311E+01
 -1       312 1.27106E+01
 -1       313 1.30900E+01
 -1       314 1.27445E+01
 -1       315 1.32648E+01
 -1       316 1.31635E+01
 -1       317 2.70124E+01
 -1       318 3.43856E+01
 -1       319 3.43856E+01
 -1       320 3.26306E+01
 -1       321 1.33348E+00
 -1       322 2.50408E+00
 -1       323 8.39576E-01
 -1       324 6.49984E-01
 -1       325 5.15913E-01
 -1       326 5.20152E-01
 -1       327 6.23501E-01
 -1       328 7.14314E-01
 -1       329 8.13986E-01
 -1       330 9.21746E-01
 -1       331 1.05522E+00
 -1       332 1.24090E+00
 -1       333 1.39752E+00
 -1       334 2.00292E+00
 -1       335 1.69782E+00
 -1       336 1.10075E+00
 -1       337 8.77484E-01
 -1       338 1.35346E+00
 -1       339 1.97868E+00
 -1       340 2.67324E+00
 -1       341 3.31480E+00
 -1       342 3.75016E+00
 -1       343 4.80327E+00
 -1       344 6.39592E+00
 -1       345 4.35298E+00
 -1       346 5.26620E+00
 -1       347 8.29642E+00
 -1       348 8.29642E+00
 -1       349 5.77417E+00
 -1       350 5.73677E+00
 -1       351 6.14429E+00
 -1       352 4.67715E+00
 -1       353 3.55334E+00
 -1       354 3.26401E+00
 -1       355 2.76866E+00
 -1       356 2.13156E+00
 -1       357 1.59418E+00
 -1       358 1.15298E+00
 -1       359 8.15382E-01
 -1       360 5.67289E-01
 -1       361 3.89522E-01
 -1       362 2.64160E-01
 -1       363 1.76686E-01
 -1       364 1.16134E-01
 -1       365 7.74864E-02
 -1       366 5.56056E-02
 -1       367 3.96546E-02
 -1       368 2.84569E-02
 -1       369 2.25761E-02
 -1       370 1.77015E-02
 -1       371 1.37139E-02
 -1       372 1.04866E-02
 -1       373 8.34742E-03
 -1       374 6.72607E-03
 -1       375 5.51580E-03
 -1       376 4.37733E-03
 -1       377 3.41901E-03
 -1       378 2.58604E-03
 -1       379 1.91023E-03
 -1       380 1.45617E-03
 -1       381 1.10300E-03
 -1       382 8.53896E-01
 -1       383 5.96711E-01
 -1       384 5.22821E-01
 -1       385 6.46780E-01
 -1       386 8.11228E-01
 -1       387 1.02675E+00
 -1       388 1.27392E+00
 -1       389 1.49918E+00
 -1       390 1.75378E+00
 -1       391 1.85634E+00
 -1       392 1.79072E+00
 -1       393 1.87483E+00
 -1       394 1.77598E+00
 -1       395 1.51038E+00
 -1       396 1.21155E+00
 -1       397 9.16029E-01
 -1       398 6.48608E-01
 -1       399 4.19252E-01
 -1       400 2.22544E-01
 -1       401 1.70121E-01
 -1       402 1.78591E-01
 -1       403 1.83716E-01
 -1       404 1.66037E-01
 -1       405 1.41824E-01
 -1       406 1.20652E-01
 -1       407 1.03253E-01
 -1       408 8.30291E-02
 -1       409 6.49487E-02
 -1       410 5.06694E-02
 -1       411 3.80619E-02
 -1       412 2.75181E-02
 -1       413 2.21748E-02
 -1       414 1.87056E-02
 -1       415 1.53171E-02
 -1       416 1.22045E-02
 -1       417 9.46303E-03
 -1       418 7.54201E-03
 -1       419 6.39384E-03
 -1       420 5.22426E-03
 -1       421 4.09699E-03
 -1       422 3.14488E-03
 -1       423 2.31532E-03
 -1       424 1.71105E-03
 -1       425 1.34667E-03
 -1       426 1.17900E-03
 -1       427 4.73183E-04
 -1       428 1.25476E-03
 -1       429 6.00005E-04
 -1       430 7.15808E-04
 -1       431 7.68242E-04
 -1       432 7.68242E-04
 -1       433 7.73987E-04
 -1       434 7.73987E-04
 -1       435 7.38391E-04
 -1       436 6.32150E-04
 -1       437 4.84080E-04
 -1       438 8.12880E-04
 -1       439 1.11494E+00
 -1       440 2.54210E+01
 -1       441 8.42089E+00
 -1       442 3.26306E+01
 -1       443 1.56391E+01
 -1       444 1.40122E+00
 -1       445 7.16003E+00
 -1       446 1.04669E+01
 -1       447 1.10486E+01
 -1       448 1.06265E+01
 -1       449 9.58843E+00
 -1       450 6.23286E+00
 -1       451 1.14325E+01
 -1       452 1.99589E+01
 -1       453 2.34837E+01
 -1       454 3.29179E+01
 -1       455 3.29179E+01
 -1       456 2.93781E+01
 -1       457 2.97222E+01
 -1       458 1.71690E+01
 -1       459 9.86004E+00
 -1       460 1.07475E+01
 -1       461 1.14295E+01
 -1       462 6.88623E+00
 -1       463 1.09776E+01
 -1       464 1.96490E+01
 -1       465 3.43856E+01
 -1       466 2.88690E+01
 -1       467 2.61116E+01
 -1       468 2.20548E+01
 -1       469 3.26306E+01
 -1       470 7.81264E+00
 -1       471 6.17258E+00
 -1       472 1.02306E+01
 -1       473 3.93959E-01
 -1       474 6.17763E-01
 -1       475 4.85759E-01
 -1       476 5.67105E-01
 -1       477 6.30592E-01
 -1       478 6.61816E-01
 -1       479 6.61816E-01
 -1       480 6.47696E-01
 -1       481 6.71436E-01
 -1       482 1.16322E+00
 -1       483 1.12530E+00
 -1       484 1.17703E+00
 -1       485 1.57113E+00
 -1       486 2.22096E+00
 -1       487 3.19565E+00
 -1       488 4.58693E+00
 -1       489 6.66492E+00
 -1       490 9.02678E+00
 -1       491 1.50152E+01
 -1       492 9.07073E+00
 -1       493 6.44587E+00
 -1       494 4.76443E+00
 -1       495 3.47029E+00
 -1       496 2.50391E+00
 -1       497 1.81968E+00
 -1       498 1.31444E+00
 -1       499 9.43199E-01
 -1       500 6.72009E-01
 -1       501 4.75218E-01
 -1       502 3.33326E-01
 -1       503 2.31607E-01
 -1       504 1.59079E-01
 -1       505 1.07650E-01
 -1       506 7.14114E-02
 -1       507 4.60769E-02
 -1       508 2.85624E-02
 -1       509 1.97474E-02
 -1       510 1.39118E-02
 -1       511 1.17152E-02
 -1       512 9.62765E-03
 -1       513 7.72777E-03
 -1       514 6.05103E-03
 -1       515 4.90026E-03
 -1       516 4.00786E-03
 -1       517 3.23931E-03
 -1       518 2.51656E-03
 -1       519 1.93967E-03
 -1       520 1.42380E-03
 -1       521 1.15133E-03
 -1       522 5.63870E-01
 -1       523 4.83521E-01
 -1       524 5.31201E-01
 -1       525 6.84658E-01
 -1       526 8.88399E-01
 -1       527 1.09984E+00
 -1       528 1.25952E+00
 -1       529 1.35932E+00
 -1       530 1.42260E+00
 -1       531 1.37346E+00
 -1       532 1.38001E+00
 -1       533 1.41383E+00
 -1       534 1.33487E+00
 -1       535 1.19342E+00
 -1       536 1.00519E+00
 -1       537 7.49088E-01
 -1       538 5.33752E-01
 -1       539 3.54394E-01
 -1       540 2.37883E-01
 -1       541 1.93933E-01
 -1       542 1.50147E-01
 -1       543 1.52780E-01
 -1       544 1.44398E-01
 -1       545 1.30525E-01
 -1       546 1.12424E-01
 -1       547 9.48001E-02
 -1       548 7.59601E-02
 -1       549 5.81546E-02
 -1       550 4.25826E-02
 -1       551 2.97163E-02
 -1       552 2.01705E-02
 -1       553 1.43286E-02
 -1       554 1.09875E-02
 -1       555 9.66811E-03
 -1       556 8.20451E-03
 -1       557 6.73612E-03
 -1       558 5.34898E-03
 -1       559 4.45784E-03
 -1       560 3.74655E-03
 -1       561 2.99361E-03
 -1       562 2.29829E-03
 -1       563 1.71826E-03
 -1       564 1.25476E-03
 -1       565 8.86579E-04
 -1       566 9.04292E-04
 -1       567 9.04292E-04
 -1       568 9.33622E-04
 -1       569 9.33622E-04
 -1       570 9.29683E-04
 -1       571 9.53133E-04
 -1       572 9.53133E-04
 -1       573 9.16222E-04
 -1       574 7.66027E-04
 -1       575 7.05673E-04
 -1       576 1.40122E+00
 -1       577 7.31598E+00
 -1       578 5.92270E+00
 -1       579 2.39740E+01
 -1       580 1.15707E+01
 -1       581 3.68653E-01
 -1       582 8.18352E+00
 -1       583 5.09342E+00
 -1       584 8.61406E+00
 -1       585 7.71044E+00
 -1       586 4.50134E+00
 -1       587 5.63678E+00
 -1       588 1.08823E+01
 -1       589 1.46847E+01
 -1       590 2.34837E+01
 -1       591 3.29179E+01
 -1       592 2.93781E+01
 -1       593 1.96802E+01
 -1       594 1.32808E+01
 -1       595 8.11483E+00
 -1       596 5.95135E+00
 -1       597 1.51780E+01
 -1       598 2.81194E+01
 -1       599 1.40122E+00
 -1       600 6.50433E-01
 -1       601 1.72190E+01
 -1       602 4.83043E-01
 -1       603 2.19392E+01
 -1       604 5.52253E-01
 -1       605 4.87326E-01
 -1       606 5.49005E-01
 -1       607 5.55827E-01
 -1       608 5.55827E-01
 -1       609 1.05029E+00
 -1       610 1.42906E+00
 -1       611 2.08741E+00
 -1       612 3.11372E+00
 -1       613 4.59192E+00
 -1       614 7.06775E+00
 -1       615 7.55099E+00
 -1       616 7.78822E+00
 -1       617 7.66350E+00
 -1       618 4.83292E+00
 -1       619 3.37168E+00
 -1       620 2.31868E+00
 -1       621 1.59569E+00
 -1       622 1.10303E+00
 -1       623 7.54822E-01
 -1       624 5.11518E-01
 -1       625 3.45537E-01
 -1       626 2.38112E-01
 -1       627 1.71014E-01
 -1       628 1.21281E-01
 -1       629 8.47027E-02
 -1       630 5.80391E-02
 -1       631 3.88135E-02
 -1       632 2.52909E-02
 -1       633 1.50821E-02
 -1       634 9.22439E-03
 -1       635 7.48220E-03
 -1       636 6.77774E-03
 -1       637 5.87229E-03
 -1       638 4.90026E-03
 -1       639 3.94333E-03
 -1       640 3.22769E-03
 -1       641 2.60266E-03
 -1       642 1.98958E-03
 -1       643 1.44158E-03
 -1       644 1.15731E-03
 -1       645 5.07190E-01
 -1       646 6.76444E-01
 -1       647 3.44590E-01
 -1       648 9.84252E-01
 -1       649 1.14181E+00
 -1       650 1.24839E+00
 -1       651 1.35576E+00
 -1       652 1.41771E+00
 -1       653 1.25508E+00
 -1       654 1.37832E+00
 -1       655 1.33396E+00
 -1       656 1.19250E+00
 -1       657 1.06590E+00
 -1       658 9.14380E-01
 -1       659 7.20201E-01
 -1       660 5.33752E-01
 -1       661 3.99745E-01
 -1       662 3.06868E-01
 -1       663 2.20133E-01
 -1       664 1.90854E-01
 -1       665 1.70664E-01
 -1       666 1.46275E-01
 -1       667 1.26240E-01
 -1       668 1.05058E-01
 -1       669 8.52636E-02
 -1       670 6.66540E-02
 -1       671 5.03065E-02
 -1       672 3.66401E-02
 -1       673 2.56620E-02
 -1       674 1.71471E-02
 -1       675 1.07594E-02
 -1       676 6.84919E-03
 -1       677 5.66078E-03
 -1       678 5.29697E-03
 -1       679 4.69286E-03
 -1       680 3.96942E-03
 -1       681 3.21079E-03
 -1       682 2.65091E-03
 -1       683 2.13370E-03
 -1       684 1.61930E-03
 -1       685 1.26338E-03
 -1       686 1.06836E-03
 -1       687 1.35582E+01
 -1       688 1.05944E-03
 -1       689 1.18625E-03
 -1       690 1.06836E-03
 -1       691 6.42696E-01
 -1       692 1.07314E-03
 -1       693 1.11238E-03
 -1       694 1.11238E-03
 -1       695 1.09855E-03
 -1       696 2.65568E+00
 -1       697 5.52253E-01
 -1       698 4.58175E+00
 -1       699 1.54850E+01
 -1       700 3.60158E+00
 -1       701 4.17431E+00
 -1       702 6.39250E+00
 -1       703 1.19869E+01
 -1       704 3.66531E+00
 -1       705 5.57471E+00
 -1       706 1.34766E+01
 -1       707 6.44049E+00
 -1       708 8.61827E+00
 -1       709 1.07081E+01
 -1       710 1.58511E+01
 -1       711 8.36002E-01
 -1       712 5.96893E+00
 -1       713 1.00046E-03
 -1       714 1.58958E+01
 -1       715 4.18356E-01
 -1       716 1.25205E+01
 -1       717 1.06415E+01
 -1       718 8.62655E-01
 -1       719 7.28979E+00
 -1       720 3.28353E-01
 -1       721 1.36079E+00
 -1       722 1.18152E-03
 -1       723 3.89295E-01
 -1       724 3.59462E+00
 -1       725 3.04240E+00
 -1       726 1.15664E+01
 -1       727 6.10853E-01
 -1       728 4.79166E-01
 -1       729 8.73122E+00
 -1       730 9.02678E+00
 -1       731 1.12277E+00
 -1       732 1.25205E+01
 -1       733 1.69647E+00
 -1       734 2.55780E+00
 -1       735 4.07462E+00
 -1       736 6.72891E+00
 -1       737 6.80975E+00
 -1       738 4.45544E+00
 -1       739 2.91117E+00
 -1       740 1.95913E+00
 -1       741 1.34445E+00
 -1       742 9.32469E-01
 -1       743 6.49194E-01
 -1       744 4.51462E-01
 -1       745 3.12515E-01
 -1       746 2.14719E-01
 -1       747 1.45977E-01
 -1       748 9.86926E-02
 -1       749 6.66628E-02
 -1       750 4.40279E-02
 -1       751 2.79232E-02
 -1       752 1.76201E-02
 -1       753 1.13614E-02
 -1       754 6.92386E-03
 -1       755 4.33534E-03
 -1       756 4.19342E-03
 -1       757 4.00705E-03
 -1       758 3.58647E-03
 -1       759 3.04808E-03
 -1       760 2.47807E-03
 -1       761 2.08262E-03
 -1       762 1.79537E-03
 -1       763 4.01252E+00
 -1       764 5.86340E-01
 -1       765 3.90759E-01
 -1       766 1.25419E+00
 -1       767 1.14168E+00
 -1       768 1.61266E+00
 -1       769 1.62605E+00
 -1       770 1.60720E+00
 -1       771 1.63798E+00
 -1       772 1.33396E+00
 -1       773 1.28227E+00
 -1       774 1.14331E+00
 -1       775 9.14380E-01
 -1       776 7.39556E-01
 -1       777 5.98672E-01
 -1       778 4.42158E-01
 -1       779 3.06868E-01
 -1       780 2.62536E-01
 -1       781 2.16147E-01
 -1       782 1.75872E-01
 -1       783 1.46671E-01
 -1       784 1.19932E-01
 -1       785 9.45072E-02
 -1       786 7.21140E-02
 -1       787 5.42760E-02
 -1       788 3.98714E-02
 -1       789 2.85003E-02
 -1       790 1.97353E-02
 -1       791 1.31353E-02
 -1       792 8.28606E-03
 -1       793 4.82046E-03
 -1       794 3.02729E-03
 -1       795 3.29991E-03
 -1       796 3.23117E-03
 -1       797 2.93318E-03
 -1       798 2.50737E-03
 -1       799 2.08010E-03
 -1       800 1.73518E-03
 -1       801 1.41313E-03
 -1       802 1.15631E-03
 -1       803 3.56021E+00
 -1       804 1.22897E-03
 -1       805 1.09486E-03
 -1       806 1.67967E-03
 -1       807 5.62702E+00
 -1       808 3.75919E+00
 -1       809 3.26656E+00
 -1       810 2.53950E+00
 -1       811 6.64872E+00
 -1       812 1.42639E-03
 -1       813 8.46474E+00
 -1       814 1.20177E-03
 -1       815 1.37030E+00
 -1       816 8.10882E+00
 -1       817 6.13183E+00
 -1       818 1.27648E+01
 -1       819 5.33290E-01
 -1       820 8.73122E+00
 -1       821 2.58798E+00
 -1       822 1.01514E+00
 -1       823 2.65568E+00
 -1       824 9.84252E-01
 -1       825 1.18045E-03
 -1       826 2.52073E+00
 -1       827 7.70476E-01
 -1       828 3.42646E-01
 -1       829 2.09956E+00
 -1       830 6.10853E-01
 -1       831 7.89328E-01
 -1       832 9.04525E+00
 -1       833 1.20177E-03
 -1       834 5.86091E-01
 -1       835 7.39443E+00
 -1       836 7.97224E+00
 -1       837 2.75540E+00
 -1       838 4.81974E+00
 -1       839 4.81121E+00
 -1       840 3.68032E+00
 -1       841 2.91127E+00
 -1       842 1.84673E+00
 -1       843 1.20918E+00
 -1       844 8.62895E-01
 -1       845 6.22717E-01
 -1       846 4.50410E-01
 -1       847 3.24843E-01
 -1       848 2.32864E-01
 -1       849 1.65508E-01
 -1       850 1.16338E-01
 -1       851 8.20729E-02
 -1       852 5.76964E-02
 -1       853 3.91903E-02
 -1       854 2.60534E-02
 -1       855 1.68246E-02
 -1       856 1.03313E-02
 -1       857 5.85304E-03
 -1       858 2.95547E-03
 -1       859 2.31167E-03
 -1       860 2.51552E-03
 -1       861 2.43335E-03
 -1       862 2.18067E-03
 -1       863 1.83875E-03
 -1       864 1.79537E-03
 -1       865 1.62605E+00
 -1       866 1.62605E+00
 -1       867 1.93974E+00
 -1       868 1.93901E+00
 -1       869 1.61840E+00
 -1       870 1.19375E+00
 -1       871 1.12138E+00
 -1       872 8.41823E-01
 -1       873 5.98672E-01
 -1       874 4.67346E-01
 -1       875 3.69619E-01
 -1       876 2.84359E-01
 -1       877 2.23253E-01
 -1       878 1.78902E-01
 -1       879 1.39311E-01
 -1       880 1.07069E-01
 -1       881 8.41998E-02
 -1       882 6.62820E-02
 -1       883 5.05662E-02
 -1       884 3.70984E-02
 -1       885 2.61132E-02
 -1       886 1.79655E-02
 -1       887 1.18321E-02
 -1       888 7.27718E-03
 -1       889 4.00983E-03
 -1       890 2.11514E-03
 -1       891 2.03174E-03
 -1       892 2.24693E-03
 -1       893 2.18979E-03
 -1       894 1.96406E-03
 -1       895 1.65175E-03
 -1       896 1.45161E-03
 -1       897 5.64796E-01
 -1       898 5.50206E+00
 -1       899 2.71023E+00
 -1       900 3.52639E+00
 -1       901 2.04838E+00
 -1       902 5.86340E-01
 -1       903 2.79894E+00
 -1       904 6.01936E+00
 -1       905 1.28325E-03
 -1       906 1.71363E+00
 -1       907 5.15635E-01
 -1       908 6.32942E-01
 -1       909 1.70382E+00
 -1       910 6.10719E+00
 -1       911 2.14580E+00
 -1       912 6.93308E+00
 -1       913 2.32551E+00
 -1       914 3.77835E+00
 -1       915 8.03242E-01
 -1       916 1.14718E+00
 -1       917 1.61266E+00
 -1       918 5.50206E+00
 -1       919 8.08938E-01
 -1       920 1.18265E-03
 -1       921 2.32750E+00
 -1       922 1.48011E-03
 -1       923 1.07499E-03
 -1       924 5.30342E+00
 -1       925 8.92977E-01
 -1       926 1.72570E+00
 -1       927 5.23186E+00
 -1       928 1.45003E-03
 -1       929 1.22897E-03
 -1       930 1.93901E+00
 -1       931 3.23124E+00
 -1       932 1.57112E+00
 -1       933 8.86626E-01
 -1       934 1.97924E+00
 -1       935 1.35690E+00
 -1       936 9.48737E-01
 -1       937 6.61402E-01
 -1       938 4.59184E-01
 -1       939 3.17263E-01
 -1       940 2.29700E-01
 -1       941 1.73854E-01
 -1       942 1.29349E-01
 -1       943 9.45825E-02
 -1       944 6.78602E-02
 -1       945 4.73634E-02
 -1       946 3.20833E-02
 -1       947 2.19645E-02
 -1       948 1.45136E-02
 -1       949 9.14167E-03
 -1       950 5.43456E-03
 -1       951 2.90093E-03
 -1       952 1.36376E-03
 -1       953 1.77891E-03
 -1       954 1.87620E-03
 -1       955 1.77323E-03
 -1       956 1.56411E-03
 -1       957 1.03822E+00
 -1       958 5.70124E+00
 -1       959 2.08987E+00
 -1       960 1.14422E+00
 -1       961 8.62373E-01
 -1       962 6.98099E-01
 -1       963 5.09564E-01
 -1       964 3.98830E-01
 -1       965 3.01000E-01
 -1       966 2.23113E-01
 -1       967 1.70923E-01
 -1       968 1.33441E-01
 -1       969 1.07069E-01
 -1       970 8.41998E-02
 -1       971 6.42105E-02
 -1       972 4.75493E-02
 -1       973 3.41598E-02
 -1       974 2.37111E-02
 -1       975 1.59799E-02
 -1       976 1.05300E-02
 -1       977 6.53960E-03
 -1       978 3.69907E-03
 -1       979 2.11514E-03
 -1       980 1.30531E-03
 -1       981 1.61973E-03
 -1       982 1.67078E-03
 -1       983 1.55225E-03
 -1       984 6.02431E+00
 -1       985 1.70382E+00
 -1       986 4.03709E+00
 -1       987 3.50675E+00
 -1       988 1.02847E+00
 -1       989 1.93186E+00
 -1       990 1.87690E+00
 -1       991 4.03709E+00
 -1       992 3.23740E+00
 -1       993 1.54840E+00
 -1       994 2.04838E+00
 -1       995 2.16294E+00
 -1       996 3.81590E+00
 -1       997 8.08938E-01
 -1       998 1.51724E+00
 -1       999 1.41674E-03
 -1      1000 1.43038E-03
 -1      1001 1.00870E+00
 -1      1002 1.26697E-03
 -1      1003 1.29447E-03
 -1      1004 1.03620E+00
 -1      1005 2.33864E+00
 -1      1006 1.76863E+00
 -1      1007 1.67070E+00
 -1      1008 1.07075E+00
 -1      1009 6.76544E-01
 -1      1010 4.78244E-01
 -1      1011 3.55671E-01
 -1      1012 2.60693E-01
 -1      1013 1.88986E-01
 -1      1014 1.35741E-01
 -1      1015 9.66443E-02
 -1      1016 6.81778E-02
 -1      1017 4.98756E-02
 -1      1018 3.42504E-02
 -1      1019 2.39852E-02
 -1      1020 1.65560E-02
 -1      1021 1.11946E-02
 -1      1022 7.22695E-03
 -1      1023 4.40468E-03
 -1      1024 2.52897E-03
 -1      1025 1.25089E-03
 -1      1026 1.20575E-03
 -1      1027 1.37489E-03
 -1      1028 3.00682E+00
 -1      1029 1.44804E+00
 -1      1030 7.99608E-01
 -1      1031 5.69666E-01
 -1      1032 3.99634E-01
 -1      1033 2.96634E-01
 -1      1034 2.22879E-01
 -1      1035 1.70923E-01
 -1      1036 1.33441E-01
 -1      1037 1.01734E-01
 -1      1038 7.59606E-02
 -1      1039 5.55813E-02
 -1      1040 3.98137E-02
 -1      1041 2.78205E-02
 -1      1042 1.88673E-02
 -1      1043 1.25030E-02
 -1      1044 8.67437E-03
 -1      1045 5.82243E-03
 -1      1046 3.67717E-03
 -1      1047 2.11012E-03
 -1      1048 1.01849E-03
 -1      1049 1.43038E-03
 -1      1050 4.08792E+00
 -1      1051 1.02847E+00
 -1      1052 2.86330E+00
 -1      1053 3.00682E+00
 -1      1054 1.20665E-03
 -1      1055 1.69355E+00
 -1      1056 4.31009E+00
 -1      1057 1.79714E+00
 -1      1058 2.21402E+00
 -1      1059 3.28438E+00
 -1      1060 1.58235E+00
 -1      1061 2.32689E+00
 -1      1062 1.36381E+00
 -1      1063 2.41819E+00
 -1      1064 1.11145E+00
 -1      1065 1.43038E-03
 -1      1066 1.29447E-03
 -1      1067 1.19976E-03
 -1      1068 2.19052E+00
 -1      1069 1.68636E+00
 -1      1070 1.19232E+00
 -1      1071 8.15743E-01
 -1      1072 5.39224E-01
 -1      1073 3.47934E-01
 -1      1074 2.20121E-01
 -1      1075 1.44835E-01
 -1      1076 1.09515E-01
 -1      1077 8.14794E-02
 -1      1078 6.21055E-02
 -1      1079 4.23021E-02
 -1      1080 2.98068E-02
 -1      1081 2.08654E-02
 -1      1082 1.43950E-02
 -1      1083 9.86204E-03
 -1      1084 6.49455E-03
 -1      1085 4.09144E-03
 -1      1086 2.38874E-03
 -1      1087 1.68636E+00
 -1      1088 5.64234E-01
 -1      1089 4.07042E-01
 -1      1090 2.89403E-01
 -1      1091 2.03735E-01
 -1      1092 1.42441E-01
 -1      1093 9.90564E-02
 -1      1094 6.85947E-02
 -1      1095 4.66593E-02
 -1      1096 3.45249E-02
 -1      1097 2.49384E-02
 -1      1098 1.74699E-02
 -1      1099 1.21521E-02
 -1      1100 8.24454E-03
 -1      1101 5.33286E-03
 -1      1102 3.21507E-03
 -1      1103 1.63191E-03
 -1      1104 9.17476E-04
 -1      1105 1.61748E+00
 -1      1106 8.15743E-01
 -1      1107 1.26046E+00
 -1      1108 2.48407E+00
 -1      1109 1.24867E+01
 -1      1110 8.03341E+00
 -1      1111 2.78938E+00
 -1      1112 1.69060E+00
 -1      1113 1.21890E+00
 -1      1114 9.35442E-01
 -1      1115 7.32828E-01
 -1      1116 6.36361E-01
 -1      1117 6.82091E-01
 -1      1118 8.04644E-01
 -1      1119 9.33102E-01
 -1      1120 1.08815E+00
 -1      1121 1.30539E+00
 -1      1122 1.67234E+00
 -1      1123 2.69321E+00
 -1      1124 5.93430E+00
 -1      1125 1.10449E+01
 -1      1126 1.24867E+01
 -1      1127 8.24584E+00
 -1      1128 3.39734E+00
 -1      1129 2.34043E+00
 -1      1130 1.72592E+00
 -1      1131 1.72520E+00
 -1      1132 2.12837E+00
 -1      1133 2.82032E+00
 -1      1134 3.73778E+00
 -1      1135 4.24683E+00
 -1      1136 4.29173E+00
 -1      1137 4.56451E+00
 -1      1138 7.84162E+00
 -1      1139 1.15881E+01
 -1      1140 1.23303E+01
 -1      1141 1.19024E+01
 -1      1142 8.37402E+00
 -1      1143 4.76391E+00
 -1      1144 4.29487E+00
 -1      1145 4.33540E+00
 -1      1146 3.91788E+00
 -1      1147 3.06589E+00
 -1      1148 2.31639E+00
 -1      1149 1.68518E+00
 -1      1150 1.20838E+00
 -1      1151 9.11298E-01
 -1      1152 6.67816E-01
 -1      1153 4.80584E-01
 -1      1154 3.41732E-01
 -1      1155 2.40840E-01
 -1      1156 1.68339E-01
 -1      1157 1.19399E-01
 -1      1158 8.99828E-02
 -1      1159 7.05877E-02
 -1      1160 5.49269E-02
 -1      1161 4.23619E-02
 -1      1162 3.21956E-02
 -1      1163 2.40973E-02
 -1      1164 1.78802E-02
 -1      1165 1.38335E-02
 -1      1166 1.12831E-02
 -1      1167 9.02416E-03
 -1      1168 7.05865E-03
 -1      1169 5.36344E-03
 -1      1170 3.97277E-03
 -1      1171 2.93936E-03
 -1      1172 2.34402E-03
 -1      1173 1.92654E-03
 -1      1174 1.47604E-03
 -1      1175 8.58722E-04
 -1      1176 1.36958E+01
 -1      1177 8.46687E+00
 -1      1178 2.69964E+00
 -1      1179 1.76140E+00
 -1      1180 1.11182E+00
 -1      1181 6.95805E-01
 -1      1182 4.56853E-01
 -1      1183 4.22717E-01
 -1      1184 5.72612E-01
 -1      1185 7.78103E-01
 -1      1186 1.07838E+00
 -1      1187 1.50537E+00
 -1      1188 1.87452E+00
 -1      1189 2.08167E+00
 -1      1190 2.25906E+00
 -1      1191 2.37772E+00
 -1      1192 2.32680E+00
 -1      1193 2.08806E+00
 -1      1194 1.65766E+00
 -1      1195 1.18991E+00
 -1      1196 7.93922E-01
 -1      1197 5.15980E-01
 -1      1198 3.38858E-01
 -1      1199 2.63058E-01
 -1      1200 2.57271E-01
 -1      1201 2.53962E-01
 -1      1202 2.34906E-01
 -1      1203 1.98204E-01
 -1      1204 1.59992E-01
 -1      1205 1.25703E-01
 -1      1206 9.82446E-02
 -1      1207 7.86710E-02
 -1      1208 6.11609E-02
 -1      1209 4.56538E-02
 -1      1210 3.26964E-02
 -1      1211 2.41589E-02
 -1      1212 1.97683E-02
 -1      1213 1.64688E-02
 -1      1214 1.33307E-02
 -1      1215 1.08281E-02
 -1      1216 9.26938E-03
 -1      1217 8.08189E-03
 -1      1218 6.81443E-03
 -1      1219 5.55971E-03
 -1      1220 4.38969E-03
 -1      1221 3.35344E-03
 -1      1222 2.47763E-03
 -1      1223 1.84199E-03
 -1      1224 1.22158E-03
 -1      1225 5.25154E-04
 -1      1226 3.07041E-04
 -1      1227 4.07266E-04
 -1      1228 3.43143E-04
 -1      1229 1.83835E-04
 -1      1230 1.40814E-04
 -1      1231 2.28726E-04
 -1      1232 2.84516E-04
 -1      1233 3.10812E-04
 -1      1234 3.17066E-04
 -1      1235 3.13007E-04
 -1      1236 2.89324E-04
 -1      1237 2.35754E-04
 -1      1238 1.47540E-04
 -1      1239 1.89596E-04
 -1      1240 3.05513E-04
 -1      1241 3.25105E-04
 -1      1242 3.84001E-04
 -1      1243 2.45098E+01
 -1      1244 3.49193E+01
 -1      1245 4.55321E+01
 -1      1246 3.17163E+01
 -1      1247 1.49581E+01
 -1      1248 1.20157E+01
 -1      1249 1.18939E+01
 -1      1250 1.20336E+01
 -1      1251 1.24624E+01
 -1      1252 1.26298E+01
 -1      1253 2.00597E+01
 -1      1254 2.81520E+01
 -1      1255 2.88144E+01
 -1      1256 2.69621E+01
 -1      1257 2.56530E+01
 -1      1258 2.61960E+01
 -1      1259 3.71660E+01
 -1      1260 4.81359E+01
 -1      1261 3.42711E+01
 -1      1262 1.65585E+01
 -1      1263 1.29003E+01
 -1      1264 1.30900E+01
 -1      1265 1.31774E+01
 -1      1266 1.32648E+01
 -1      1267 1.91512E+01
 -1      1268 2.82213E+01
 -1      1269 3.14049E+01
 -1      1270 2.81945E+01
 -1      1271 2.48486E+01
 -1      1272 1.24867E+01
 -1      1273 4.70490E+00
 -1      1274 9.15818E+00
 -1      1275 2.20684E+00
 -1      1276 2.99759E+00
 -1      1277 4.12236E+00
 -1      1278 1.51449E+00
 -1      1279 1.82251E+00
 -1      1280 2.03072E+00
 -1      1281 1.13498E+00
 -1      1282 1.29865E+00
 -1      1283 1.43056E+00
 -1      1284 8.69444E-01
 -1      1285 9.89235E-01
 -1      1286 1.06898E+00
 -1      1287 6.85089E-01
 -1      1288 7.67911E-01
 -1      1289 8.21704E-01
 -1      1290 6.06531E-01
 -1      1291 6.20176E-01
 -1      1292 6.55259E-01
 -1      1293 7.07315E-01
 -1      1294 6.47940E-01
 -1      1295 6.31755E-01
 -1      1296 8.33114E-01
 -1      1297 7.69936E-01
 -1      1298 7.35785E-01
 -1      1299 9.63714E-01
 -1      1300 8.98434E-01
 -1      1301 8.63726E-01
 -1      1302 1.13391E+00
 -1      1303 1.04415E+00
 -1      1304 1.00948E+00
 -1      1305 1.36850E+00
 -1      1306 1.24103E+00
 -1      1307 1.19703E+00
 -1      1308 1.78630E+00
 -1      1309 1.54683E+00
 -1      1310 1.48247E+00
 -1      1311 2.91979E+00
 -1      1312 2.13840E+00
 -1      1313 2.01288E+00
 -1      1314 6.13636E+00
 -1      1315 3.67665E+00
 -1      1316 3.12184E+00
 -1      1317 1.36958E+01
 -1      1318 1.10449E+01
 -1      1319 8.78727E+00
 -1      1320 1.36958E+01
 -1      1321 8.24584E+00
 -1      1322 4.00499E+00
 -1      1323 3.39734E+00
 -1      1324 2.78969E+00
 -1      1325 3.39734E+00
 -1      1326 2.34043E+00
 -1      1327 1.89117E+00
 -1      1328 2.34043E+00
 -1      1329 1.64842E+00
 -1      1330 1.48317E+00
 -1      1331 1.64842E+00
 -1      1332 1.56067E+00
 -1      1333 1.72520E+00
 -1      1334 1.48317E+00
 -1      1335 2.06362E+00
 -1      1336 2.30225E+00
 -1      1337 1.89908E+00
 -1      1338 2.60462E+00
 -1      1339 3.05793E+00
 -1      1340 2.53986E+00
 -1      1341 3.29903E+00
 -1      1342 3.76319E+00
 -1      1343 3.08333E+00
 -1      1344 4.20193E+00
 -1      1345 4.24683E+00
 -1      1346 3.76319E+00
 -1      1347 4.29173E+00
 -1      1348 4.29173E+00
 -1      1349 4.24683E+00
 -1      1350 4.03692E+00
 -1      1351 4.30969E+00
 -1      1352 4.03692E+00
 -1      1353 5.13535E+00
 -1      1354 8.13969E+00
 -1      1355 4.60776E+00
 -1      1356 1.08460E+01
 -1      1357 1.15881E+01
 -1      1358 8.13969E+00
 -1      1359 1.23303E+01
 -1      1360 1.23303E+01
 -1      1361 1.15881E+01
 -1      1362 1.19024E+01
 -1      1363 1.14746E+01
 -1      1364 1.19024E+01
 -1      1365 8.74248E+00
 -1      1366 5.64195E+00
 -1      1367 8.74248E+00
 -1      1368 4.52666E+00
 -1      1369 4.01709E+00
 -1      1370 4.89512E+00
 -1      1371 4.25435E+00
 -1      1372 4.29487E+00
 -1      1373 4.01709E+00
 -1      1374 4.33540E+00
 -1      1375 4.33540E+00
 -1      1376 4.29487E+00
 -1      1377 3.92058E+00
 -1      1378 3.50306E+00
 -1      1379 3.92058E+00
 -1      1380 3.19912E+00
 -1      1381 2.76465E+00
 -1      1382 3.20182E+00
 -1      1383 2.55021E+00
 -1      1384 2.23518E+00
 -1      1385 2.68344E+00
 -1      1386 1.92330E+00
 -1      1387 1.60712E+00
 -1      1388 2.15712E+00
 -1      1389 1.35656E+00
 -1      1390 1.19595E+00
 -1      1391 1.59468E+00
 -1      1392 9.95488E-01
 -1      1393 8.59016E-01
 -1      1394 1.14366E+00
 -1      1395 7.09689E-01
 -1      1396 6.02678E-01
 -1      1397 7.93878E-01
 -1      1398 4.96160E-01
 -1      1399 4.15939E-01
 -1      1400 5.38034E-01
 -1      1401 3.52063E-01
 -1      1402 2.93433E-01
 -1      1403 3.67640E-01
 -1      1404 2.50791E-01
 -1      1405 2.08530E-01
 -1      1406 2.61123E-01
 -1      1407 1.77286E-01
 -1      1408 1.47046E-01
 -1      1409 1.87237E-01
 -1      1410 1.24295E-01
 -1      1411 1.05594E-01
 -1      1412 1.33242E-01
 -1      1413 8.99828E-02
 -1      1414 7.92678E-02
 -1      1415 9.48791E-02
 -1      1416 7.05877E-02
 -1      1417 6.19077E-02
 -1      1418 7.05877E-02
 -1      1419 5.49269E-02
 -1      1420 4.79462E-02
 -1      1421 5.49269E-02
 -1      1422 4.23619E-02
 -1      1423 3.67777E-02
 -1      1424 4.23619E-02
 -1      1425 3.21956E-02
 -1      1426 2.76136E-02
 -1      1427 3.21956E-02
 -1      1428 2.42482E-02
 -1      1429 2.07319E-02
 -1      1430 2.42482E-02
 -1      1431 1.83467E-02
 -1      1432 1.56459E-02
 -1      1433 1.84976E-02
 -1      1434 1.38335E-02
 -1      1435 1.24876E-02
 -1      1436 1.43000E-02
 -1      1437 1.12831E-02
 -1      1438 1.00786E-02
 -1      1439 1.12831E-02
 -1      1440 9.02416E-03
 -1      1441 7.96972E-03
 -1      1442 9.02416E-03
 -1      1443 7.09192E-03
 -1      1444 6.18085E-03
 -1      1445 7.09192E-03
 -1      1446 5.48598E-03
 -1      1447 4.70183E-03
 -1      1448 5.51924E-03
 -1      1449 4.08275E-03
 -1      1450 3.47622E-03
 -1      1451 4.20529E-03
 -1      1452 2.99441E-03
 -1      1453 2.56753E-03
 -1      1454 3.10439E-03
 -1      1455 2.34402E-03
 -1      1456 2.17554E-03
 -1      1457 2.39906E-03
 -1      1458 1.92654E-03
 -1      1459 1.67753E-03
 -1      1460 1.92654E-03
 -1      1461 1.47604E-03
 -1      1462 1.27455E-03
 -1      1463 1.47604E-03
 -1      1464 9.05509E-04
 -1      1465 4.89683E-04
 -1      1466 4.30788E-04
 -1      1467 9.05509E-04
 -1      1468 3.23790E+00
 -1      1469 8.46687E+00
 -1      1470 8.46687E+00
 -1      1471 2.16137E+00
 -1      1472 2.69964E+00
 -1      1473 2.69964E+00
 -1      1474 1.36143E+00
 -1      1475 1.76140E+00
 -1      1476 1.76140E+00
 -1      1477 8.62207E-01
 -1      1478 1.11182E+00
 -1      1479 1.11182E+00
 -1      1480 5.55530E-01
 -1      1481 7.21933E-01
 -1      1482 7.21933E-01
 -1      1483 4.80464E-01
 -1      1484 5.53014E-01
 -1      1485 5.79142E-01
 -1      1486 5.95859E-01
 -1      1487 5.57446E-01
 -1      1488 6.53607E-01
 -1      1489 8.18959E-01
 -1      1490 7.07477E-01
 -1      1491 8.42207E-01
 -1      1492 1.04061E+00
 -1      1493 9.46599E-01
 -1      1494 1.08146E+00
 -1      1495 1.39191E+00
 -1      1496 1.18565E+00
 -1      1497 1.35414E+00
 -1      1498 1.73994E+00
 -1      1499 1.51921E+00
 -1      1500 1.62648E+00
 -1      1501 1.93964E+00
 -1      1502 1.79121E+00
 -1      1503 1.80506E+00
 -1      1504 2.08167E+00
 -1      1505 2.02294E+00
 -1      1506 1.93964E+00
 -1      1507 2.25906E+00
 -1      1508 2.14040E+00
 -1      1509 2.08167E+00
 -1      1510 2.37772E+00
 -1      1511 2.37772E+00
 -1      1512 2.25906E+00
 -1      1513 2.27588E+00
 -1      1514 2.32680E+00
 -1      1515 2.32680E+00
 -1      1516 1.90024E+00
 -1      1517 2.08806E+00
 -1      1518 2.08806E+00
 -1      1519 1.41508E+00
 -1      1520 1.65766E+00
 -1      1521 1.65766E+00
 -1      1522 9.80910E-01
 -1      1523 1.20607E+00
 -1      1524 1.20607E+00
 -1      1525 6.29406E-01
 -1      1526 8.00237E-01
 -1      1527 8.16395E-01
 -1      1528 4.08870E-01
 -1      1529 5.15980E-01
 -1      1530 5.22296E-01
 -1      1531 2.68846E-01
 -1      1532 3.38858E-01
 -1      1533 3.38858E-01
 -1      1534 2.51278E-01
 -1      1535 2.57065E-01
 -1      1536 2.57065E-01
 -1      1537 2.57271E-01
 -1      1538 2.57271E-01
 -1      1539 2.51278E-01
 -1      1540 2.50653E-01
 -1      1541 2.53962E-01
 -1      1542 2.53962E-01
 -1      1543 2.19160E-01
 -1      1544 2.34906E-01
 -1      1545 2.34906E-01
 -1      1546 1.77248E-01
 -1      1547 1.98204E-01
 -1      1548 1.98204E-01
 -1      1549 1.43791E-01
 -1      1550 1.61047E-01
 -1      1551 1.61047E-01
 -1      1552 1.11967E-01
 -1      1553 1.29001E-01
 -1      1554 1.30055E-01
 -1      1555 8.78206E-02
 -1      1556 9.82446E-02
 -1      1557 1.01543E-01
 -1      1558 6.95213E-02
 -1      1559 7.86710E-02
 -1      1560 7.86710E-02
 -1      1561 5.28005E-02
 -1      1562 6.11609E-02
 -1      1563 6.11609E-02
 -1      1564 3.85072E-02
 -1      1565 4.56538E-02
 -1      1566 4.56538E-02
 -1      1567 2.72018E-02
 -1      1568 3.30126E-02
 -1      1569 3.30126E-02
 -1      1570 2.18035E-02
 -1      1571 2.45302E-02
 -1      1572 2.48464E-02
 -1      1573 1.84050E-02
 -1      1574 2.00690E-02
 -1      1575 2.04402E-02
 -1      1576 1.50751E-02
 -1      1577 1.67107E-02
 -1      1578 1.70113E-02
 -1      1579 1.20164E-02
 -1      1580 1.35188E-02
 -1      1581 1.37608E-02
 -1      1582 9.82786E-03
 -1      1583 1.08281E-02
 -1      1584 1.10162E-02
 -1      1585 8.71089E-03
 -1      1586 9.26938E-03
 -1      1587 9.26938E-03
 -1      1588 7.45290E-03
 -1      1589 8.08189E-03
 -1      1590 8.08189E-03
 -1      1591 6.17597E-03
 -1      1592 6.81443E-03
 -1      1593 6.81443E-03
 -1      1594 4.94345E-03
 -1      1595 5.55971E-03
 -1      1596 5.55971E-03
 -1      1597 3.83593E-03
 -1      1598 4.38969E-03
 -1      1599 4.38969E-03
 -1      1600 2.87095E-03
 -1      1601 3.35344E-03
 -1      1602 3.35344E-03
 -1      1603 2.08431E-03
 -1      1604 2.47763E-03
 -1      1605 2.47763E-03
 -1      1606 1.59967E-03
 -1      1607 1.84199E-03
 -1      1608 1.84199E-03
 -1      1609 8.79513E-04
 -1      1610 1.25760E-03
 -1      1611 1.25760E-03
 -1      1612 6.25380E-04
 -1      1613 5.80252E-04
 -1      1614 5.80252E-04
 -1      1615 5.16129E-04
 -1      1616 5.80252E-04
 -1      1617 7.53238E-04
 -1      1618 2.19565E-04
 -1      1619 3.14749E-04
 -1      1620 5.51859E-04
 -1      1621 2.53791E-04
 -1      1622 2.01628E-04
 -1      1623 3.32542E-04
 -1      1624 3.61141E-04
 -1      1625 3.25393E-04
 -1      1626 3.86206E-04
 -1      1627 4.23614E-04
 -1      1628 4.03573E-04
 -1      1629 5.00240E-04
 -1      1630 4.47830E-04
 -1      1631 4.41576E-04
 -1      1632 5.60633E-04
 -1      1633 4.48671E-04
 -1      1634 4.48671E-04
 -1      1635 5.79435E-04
 -1      1636 4.44612E-04
 -1      1637 4.48671E-04
 -1      1638 5.80276E-04
 -1      1639 4.10559E-04
 -1      1640 4.30183E-04
 -1      1641 5.65847E-04
 -1      1642 3.38038E-04
 -1      1643 3.71985E-04
 -1      1644 5.12843E-04
 -1      1645 2.14345E-04
 -1      1646 2.68613E-04
 -1      1647 4.04843E-04
 -1      1648 3.21983E-04
 -1      1649 2.25659E-04
 -1      1650 3.46732E-04
 -1      1651 6.26127E-04
 -1      1652 6.06534E-04
 -1      1653 6.42597E-04
 -1      1654 6.26127E-04
 -1      1655 6.26127E-04
 -1      1656 9.27149E-04
 -1      1657 7.31809E-04
 -1      1658 2.59319E+01
 -1      1659 2.61353E+01
 -1      1660 3.54765E+01
 -1      1661 2.48637E+01
 -1      1662 4.55321E+01
 -1      1663 4.55321E+01
 -1      1664 1.86193E+01
 -1      1665 3.24350E+01
 -1      1666 1.12070E+01
 -1      1667 1.41495E+01
 -1      1668 1.20157E+01
 -1      1669 1.20157E+01
 -1      1670 1.17722E+01
 -1      1671 1.18939E+01
 -1      1672 1.18078E+01
 -1      1673 1.15463E+01
 -1      1674 1.24624E+01
 -1      1675 1.22950E+01
 -1      1676 1.26298E+01
 -1      1677 1.26298E+01
 -1      1678 1.99411E+01
 -1      1679 1.25113E+01
 -1      1680 2.88145E+01
 -1      1681 2.81520E+01
 -1      1682 2.88144E+01
 -1      1683 2.88145E+01
 -1      1684 2.47584E+01
 -1      1685 2.66105E+01
 -1      1686 2.90551E+01
 -1      1687 2.85121E+01
 -1      1688 2.90551E+01
 -1      1689 2.90551E+01
 -1      1690 3.89291E+01
 -1      1691 2.79591E+01
 -1      1692 4.81359E+01
 -1      1693 4.81359E+01
 -1      1694 2.15127E+01
 -1      1695 3.53776E+01
 -1      1696 1.26209E+01
 -1      1697 1.64687E+01
 -1      1698 1.29003E+01
 -1      1699 1.27106E+01
 -1      1700 1.30900E+01
 -1      1701 1.30900E+01
 -1      1702 1.30046E+01
 -1      1703 1.29173E+01
 -1      1704 1.32648E+01
 -1      1705 1.32648E+01
 -1      1706 1.91006E+01
 -1      1707 1.32141E+01
 -1      1708 2.92087E+01
 -1      1709 2.60250E+01
 -1      1710 3.28953E+01
 -1      1711 3.28953E+01
 -1      1712 2.96848E+01
 -1      1713 3.28953E+01
 -1      1714 2.86719E+01
 -1      1715 2.88073E+01
 -1      1716 3.24350E+01
 -1      1717 3.00940E+01
 -1      1718 6.61399E-04
 -1      1719 8.34385E-04
 -1      1720 2.64892E+01
 -1      1721 3.54765E+01
 -1      1722 1.48682E+01
 -1      1723 1.12070E+01
 -1      1724 1.18939E+01
 -1      1725 1.15463E+01
 -1      1726 1.18078E+01
 -1      1727 1.24624E+01
 -1      1728 1.25113E+01
 -1      1729 2.06036E+01
 -1      1730 2.88145E+01
 -1      1731 2.66107E+01
 -1      1732 2.81605E+01
 -1      1733 3.19143E+01
 -1      1734 3.08182E+01
 -1      1735 3.89291E+01
 -1      1736 3.53776E+01
 -1      1737 1.75752E+01
 -1      1738 1.26209E+01
 -1      1739 1.29003E+01
 -1      1740 1.29173E+01
 -1      1741 1.30046E+01
 -1      1742 1.32141E+01
 -1      1743 2.00879E+01
 -1      1744 3.06990E+01
 -1      1745 3.43856E+01
 -1      1746 3.35081E+01
 -1      1747 9.15818E+00
 -1      1748 1.48994E+00
 -1      1749 1.87426E+00
 -1      1750 2.45956E+00
 -1      1751 4.16688E+00
 -1      1752 1.91878E+00
 -1      1753 8.81406E-01
 -1      1754 1.02715E+00
 -1      1755 6.85078E-01
 -1      1756 7.86610E-01
 -1      1757 7.44780E-01
 -1      1758 5.53130E-01
 -1      1759 6.18043E-01
 -1      1760 5.82949E-01
 -1      1761 5.96658E-01
 -1      1762 5.55249E-01
 -1      1763 5.18033E-01
 -1      1764 7.10953E-01
 -1      1765 6.48332E-01
 -1      1766 5.71827E-01
 -1      1767 8.21680E-01
 -1      1768 7.56360E-01
 -1      1769 6.68907E-01
 -1      1770 9.51948E-01
 -1      1771 8.71516E-01
 -1      1772 7.64150E-01
 -1      1773 1.11294E+00
 -1      1774 1.00583E+00
 -1      1775 8.67866E-01
 -1      1776 1.35801E+00
 -1      1777 1.17968E+00
 -1      1778 9.88483E-01
 -1      1779 1.80294E+00
 -1      1780 1.45084E+00
 -1      1781 1.14806E+00
 -1      1782 2.63811E+00
 -1      1783 1.88125E+00
 -1      1784 1.31921E+00
 -1      1785 7.84937E+00
 -1      1786 2.94081E+00
 -1      1787 1.70022E+00
 -1      1788 2.62041E+00
 -1      1789 4.91733E+00
 -1      1790 1.92960E+00
 -1      1791 2.46786E+00
 -1      1792 1.85037E+00
 -1      1793 3.25454E+00
 -1      1794 1.94522E+00
 -1      1795 1.49596E+00
 -1      1796 1.38433E+00
 -1      1797 1.14158E+00
 -1      1798 9.89115E-01
 -1      1799 1.37956E+00
 -1      1800 1.45706E+00
 -1      1801 1.11547E+00
 -1      1802 1.76968E+00
 -1      1803 2.10809E+00
 -1      1804 1.66607E+00
 -1      1805 2.45537E+00
 -1      1806 2.75773E+00
 -1      1807 2.32596E+00
 -1      1808 3.07851E+00
 -1      1809 3.31962E+00
 -1      1810 2.99402E+00
 -1      1811 3.53730E+00
 -1      1812 3.97605E+00
 -1      1813 3.53248E+00
 -1      1814 4.50260E+00
 -1      1815 4.54750E+00
 -1      1816 4.27671E+00
 -1      1817 5.34383E+00
 -1      1818 5.08901E+00
 -1      1819 5.59959E+00
 -1      1820 4.06754E+00
 -1      1821 4.89320E+00
 -1      1822 5.37445E+00
 -1      1823 5.34981E+00
 -1      1824 8.05608E+00
 -1      1825 4.80959E+00
 -1      1826 9.57119E+00
 -1      1827 1.03134E+01
 -1      1828 1.03134E+01
 -1      1829 9.88549E+00
 -1      1830 8.62436E+00
 -1      1831 5.89229E+00
 -1      1832 5.87359E+00
 -1      1833 4.75830E+00
 -1      1834 4.96206E+00
 -1      1835 5.19932E+00
 -1      1836 5.94053E+00
 -1      1837 4.46575E+00
 -1      1838 4.50628E+00
 -1      1839 5.41072E+00
 -1      1840 3.94437E+00
 -1      1841 3.52955E+00
 -1      1842 4.11525E+00
 -1      1843 3.38488E+00
 -1      1844 3.08094E+00
 -1      1845 3.40867E+00
 -1      1846 2.83327E+00
 -1      1847 2.61883E+00
 -1      1848 3.01633E+00
 -1      1849 2.30028E+00
 -1      1850 1.98840E+00
 -1      1851 2.45011E+00
 -1      1852 1.71971E+00
 -1      1853 1.46915E+00
 -1      1854 1.86287E+00
 -1      1855 1.24855E+00
 -1      1856 1.04809E+00
 -1      1857 1.37358E+00
 -1      1858 8.79293E-01
 -1      1859 7.29967E-01
 -1      1860 9.84183E-01
 -1      1861 6.05920E-01
 -1      1862 4.99402E-01
 -1      1863 6.91335E-01
 -1      1864 4.10519E-01
 -1      1865 3.46643E-01
 -1      1866 4.78406E-01
 -1      1867 2.83962E-01
 -1      1868 2.41321E-01
 -1      1869 3.26841E-01
 -1      1870 1.97584E-01
 -1      1871 1.66340E-01
 -1      1872 2.20423E-01
 -1      1873 1.36063E-01
 -1      1874 1.13312E-01
 -1      1875 1.46410E-01
 -1      1876 9.39884E-02
 -1      1877 7.83771E-02
 -1      1878 9.68102E-02
 -1      1879 6.74367E-02
 -1      1880 5.87567E-02
 -1      1881 6.65460E-02
 -1      1882 5.07811E-02
 -1      1883 4.38004E-02
 -1      1884 4.76301E-02
 -1      1885 3.82015E-02
 -1      1886 3.26173E-02
 -1      1887 3.40558E-02
 -1      1888 2.96769E-02
 -1      1889 2.50949E-02
 -1      1890 2.55165E-02
 -1      1891 2.26576E-02
 -1      1892 1.92921E-02
 -1      1893 2.01388E-02
 -1      1894 1.72983E-02
 -1      1895 1.49131E-02
 -1      1896 1.57077E-02
 -1      1897 1.32995E-02
 -1      1898 1.14871E-02
 -1      1899 1.21002E-02
 -1      1900 1.04175E-02
 -1      1901 9.21301E-03
 -1      1902 9.41701E-03
 -1      1903 8.40234E-03
 -1      1904 7.34790E-03
 -1      1905 7.53675E-03
 -1      1906 6.74276E-03
 -1      1907 5.86496E-03
 -1      1908 6.12094E-03
 -1      1909 5.29572E-03
 -1      1910 4.60085E-03
 -1      1911 4.94656E-03
 -1      1912 4.12169E-03
 -1      1913 3.50261E-03
 -1      1914 3.89817E-03
 -1      1915 3.08612E-03
 -1      1916 2.60431E-03
 -1      1917 3.00252E-03
 -1      1918 2.26640E-03
 -1      1919 2.04289E-03
 -1      1920 2.24814E-03
 -1      1921 1.81586E-03
 -1      1922 1.56685E-03
 -1      1923 1.68320E-03
 -1      1924 1.39026E-03
 -1      1925 1.18878E-03
 -1      1926 1.27959E-03
 -1      1927 1.10085E-03
 -1      1928 8.58051E-01
 -1      1929 1.10766E+00
 -1      1930 5.89184E-01
 -1      1931 7.29459E-01
 -1      1932 7.25303E-01
 -1      1933 5.49723E-01
 -1      1934 5.52240E-01
 -1      1935 5.59766E-01
 -1      1936 6.88684E-01
 -1      1937 6.11702E-01
 -1      1938 5.84800E-01
 -1      1939 8.82526E-01
 -1      1940 7.70908E-01
 -1      1941 7.29004E-01
 -1      1942 1.11793E+00
 -1      1943 9.90288E-01
 -1      1944 9.18990E-01
 -1      1945 1.38655E+00
 -1      1946 1.24151E+00
 -1      1947 1.15034E+00
 -1      1948 1.62648E+00
 -1      1949 1.49918E+00
 -1      1950 1.38655E+00
 -1      1951 1.80506E+00
 -1      1952 1.75378E+00
 -1      1953 1.62648E+00
 -1      1954 1.93964E+00
 -1      1955 1.85634E+00
 -1      1956 1.80506E+00
 -1      1957 1.96556E+00
 -1      1958 1.90683E+00
 -1      1959 1.82353E+00
 -1      1960 2.12628E+00
 -1      1961 2.00762E+00
 -1      1962 1.83278E+00
 -1      1963 2.02593E+00
 -1      1964 2.07685E+00
 -1      1965 1.82540E+00
 -1      1966 1.70531E+00
 -1      1967 1.89313E+00
 -1      1968 1.64318E+00
 -1      1969 1.31331E+00
 -1      1970 1.55589E+00
 -1      1971 1.36097E+00
 -1      1972 9.56549E-01
 -1      1973 1.16555E+00
 -1      1974 1.06379E+00
 -1      1975 6.42165E-01
 -1      1976 8.22838E-01
 -1      1977 7.82318E-01
 -1      1978 4.14061E-01
 -1      1979 5.27487E-01
 -1      1980 5.33930E-01
 -1      1981 2.45695E-01
 -1      1982 3.15707E-01
 -1      1983 3.20898E-01
 -1      1984 2.07703E-01
 -1      1985 2.19483E-01
 -1      1986 1.96333E-01
 -1      1987 2.17931E-01
 -1      1988 2.11938E-01
 -1      1989 1.74356E-01
 -1      1990 2.17184E-01
 -1      1991 2.20494E-01
 -1      1992 1.81154E-01
 -1      1993 1.92598E-01
 -1      1994 2.08345E-01
 -1      1995 1.74877E-01
 -1      1996 1.59536E-01
 -1      1997 1.80492E-01
 -1      1998 1.53930E-01
 -1      1999 1.32749E-01
 -1      2000 1.48950E-01
 -1      2001 1.31238E-01
 -1      2002 1.09259E-01
 -1      2003 1.24049E-01
 -1      2004 1.11953E-01
 -1      2005 8.54249E-02
 -1      2006 9.91468E-02
 -1      2007 9.31410E-02
 -1      2008 6.72350E-02
 -1      2009 7.63846E-02
 -1      2010 7.39889E-02
 -1      2011 5.17350E-02
 -1      2012 6.00954E-02
 -1      2013 5.78090E-02
 -1      2014 3.82846E-02
 -1      2015 4.54312E-02
 -1      2016 4.43657E-02
 -1      2017 2.75181E-02
 -1      2018 3.30126E-02
 -1      2019 3.27900E-02
 -1      2020 2.21748E-02
 -1      2021 2.48464E-02
 -1      2022 2.48464E-02
 -1      2023 1.87056E-02
 -1      2024 2.04402E-02
 -1      2025 2.04402E-02
 -1      2026 1.53171E-02
 -1      2027 1.70113E-02
 -1      2028 1.70113E-02
 -1      2029 1.22045E-02
 -1      2030 1.37608E-02
 -1      2031 1.37608E-02
 -1      2032 9.64545E-03
 -1      2033 1.08338E-02
 -1      2034 1.08338E-02
 -1      2035 8.12645E-03
 -1      2036 8.68493E-03
 -1      2037 8.50252E-03
 -1      2038 6.92337E-03
 -1      2039 7.55236E-03
 -1      2040 6.96792E-03
 -1      2041 5.70011E-03
 -1      2042 6.33858E-03
 -1      2043 5.80905E-03
 -1      2044 4.52022E-03
 -1      2045 5.13648E-03
 -1      2046 4.66063E-03
 -1      2047 3.49041E-03
 -1      2048 4.04416E-03
 -1      2049 3.62094E-03
 -1      2050 2.59314E-03
 -1      2051 3.07563E-03
 -1      2052 2.73010E-03
 -1      2053 1.89768E-03
 -1      2054 2.29100E-03
 -1      2055 2.01319E-03
 -1      2056 1.47317E-03
 -1      2057 1.71549E-03
 -1      2058 1.52886E-03
 -1      2059 1.04727E-03
 -1      2060 1.38933E-03
 -1      2061 1.26284E-03
 -1      2062 9.66120E-04
 -1      2063 3.93894E-04
 -1      2064 4.11831E-04
 -1      2065 8.02620E-04
 -1      2066 1.00400E-03
 -1      2067 8.63972E-04
 -1      2068 9.66120E-04
 -1      2069 5.28906E-04
 -1      2070 4.57305E-04
 -1      2071 5.36594E-04
 -1      2072 6.29240E-04
 -1      2073 5.86808E-04
 -1      2074 6.57906E-04
 -1      2075 6.73418E-04
 -1      2076 6.55457E-04
 -1      2077 7.42025E-04
 -1      2078 6.74259E-04
 -1      2079 6.73418E-04
 -1      2080 7.68242E-04
 -1      2081 6.77132E-04
 -1      2082 6.77132E-04
 -1      2083 7.71114E-04
 -1      2084 6.62702E-04
 -1      2085 6.77132E-04
 -1      2086 7.73987E-04
 -1      2087 6.06330E-04
 -1      2088 6.44904E-04
 -1      2089 7.56189E-04
 -1      2090 4.83784E-04
 -1      2091 5.53210E-04
 -1      2092 6.85270E-04
 -1      2093 4.21063E-04
 -1      2094 4.09749E-04
 -1      2095 5.58115E-04
 -1      2096 8.70014E-04
 -1      2097 5.85463E-04
 -1      2098 6.48480E-04
 -1      2099 1.23819E+00
 -1      2100 1.63816E+00
 -1      2101 1.40638E+00
 -1      2102 9.84420E-01
 -1      2103 3.54765E+01
 -1      2104 2.54210E+01
 -1      2105 9.40961E+00
 -1      2106 1.38794E+01
 -1      2107 3.00940E+01
 -1      2108 3.26306E+01
 -1      2109 1.74885E+01
 -1      2110 3.05856E+01
 -1      2111 1.30797E+00
 -1      2112 1.52381E+00
 -1      2113 1.36735E+00
 -1      2114 1.12040E+00
 -1      2115 9.58787E+00
 -1      2116 8.77919E+00
 -1      2117 1.11195E+01
 -1      2118 1.12413E+01
 -1      2119 1.11846E+01
 -1      2120 1.14104E+01
 -1      2121 1.14607E+01
 -1      2122 1.09735E+01
 -1      2123 1.11091E+01
 -1      2124 1.09417E+01
 -1      2125 9.31278E+00
 -1      2126 9.43133E+00
 -1      2127 2.01235E+01
 -1      2128 1.19126E+01
 -1      2129 2.43867E+01
 -1      2130 2.43867E+01
 -1      2131 2.39452E+01
 -1      2132 2.61491E+01
 -1      2133 3.24161E+01
 -1      2134 2.86624E+01
 -1      2135 3.24161E+01
 -1      2136 3.24161E+01
 -1      2137 2.95502E+01
 -1      2138 3.06462E+01
 -1      2139 3.89291E+01
 -1      2140 2.97222E+01
 -1      2141 1.98941E+01
 -1      2142 3.26525E+01
 -1      2143 1.11956E+01
 -1      2144 1.62396E+01
 -1      2145 1.19187E+01
 -1      2146 1.17290E+01
 -1      2147 1.20870E+01
 -1      2148 1.22598E+01
 -1      2149 1.00248E+01
 -1      2150 1.00755E+01
 -1      2151 1.89950E+01
 -1      2152 1.20705E+01
 -1      2153 2.70173E+01
 -1      2154 2.33307E+01
 -1      2155 3.43856E+01
 -1      2156 3.43856E+01
 -1      2157 3.07498E+01
 -1      2158 3.16273E+01
 -1      2159 2.57663E+01
 -1      2160 2.68345E+01
 -1      2161 2.93711E+01
 -1      2162 6.78131E+00
 -1      2163 8.29642E+00
 -1      2164 2.64689E+00
 -1      2165 7.03530E+00
 -1      2166 2.05300E+01
 -1      2167 7.79046E+00
 -1      2168 1.80241E+00
 -1      2169 1.01508E-03
 -1      2170 1.21688E-03
 -1      2171 1.01508E-03
 -1      2172 2.37379E+01
 -1      2173 2.40832E+01
 -1      2174 2.37379E+01
 -1      2175 3.26306E+01
 -1      2176 3.07498E+01
 -1      2177 3.26306E+01
 -1      2178 1.20300E+01
 -1      2179 3.16273E+01
 -1      2180 2.70173E+01
 -1      2181 1.53133E+01
 -1      2182 8.93191E+00
 -1      2183 1.10885E+01
 -1      2184 1.35145E+01
 -1      2185 2.34456E+01
 -1      2186 2.95502E+01
 -1      2187 3.11480E+01
 -1      2188 3.29179E+01
 -1      2189 2.82008E+01
 -1      2190 2.17213E+01
 -1      2191 1.56957E+01
 -1      2192 8.83269E+00
 -1      2193 7.91064E+00
 -1      2194 1.01074E+01
 -1      2195 1.08375E+01
 -1      2196 8.81347E+00
 -1      2197 1.07578E+01
 -1      2198 9.28005E+00
 -1      2199 1.02616E+01
 -1      2200 1.01719E+01
 -1      2201 6.52940E+00
 -1      2202 9.71869E+00
 -1      2203 1.17477E+01
 -1      2204 1.14876E+01
 -1      2205 1.08301E+01
 -1      2206 8.20160E+00
 -1      2207 9.57941E-04
 -1      2208 8.83634E+00
 -1      2209 4.54936E-01
 -1      2210 5.21972E-01
 -1      2211 6.33874E-01
 -1      2212 7.28670E-01
 -1      2213 5.05861E-01
 -1      2214 5.54630E-01
 -1      2215 5.02955E-01
 -1      2216 6.40709E-01
 -1      2217 5.95303E-01
 -1      2218 5.26432E-01
 -1      2219 7.22289E-01
 -1      2220 6.72453E-01
 -1      2221 5.98848E-01
 -1      2222 7.91781E-01
 -1      2223 7.37901E-01
 -1      2224 6.46204E-01
 -1      2225 8.58518E-01
 -1      2226 7.91781E-01
 -1      2227 6.61816E-01
 -1      2228 9.44297E-01
 -1      2229 8.51458E-01
 -1      2230 6.54756E-01
 -1      2231 1.03448E+00
 -1      2232 9.56167E-01
 -1      2233 6.59566E-01
 -1      2234 1.58307E+00
 -1      2235 1.28037E+00
 -1      2236 9.17330E-01
 -1      2237 1.43052E+00
 -1      2238 1.11302E+00
 -1      2239 1.00139E+00
 -1      2240 1.02725E+00
 -1      2241 1.26524E+00
 -1      2242 1.15116E+00
 -1      2243 1.46229E+00
 -1      2244 1.77491E+00
 -1      2245 1.37408E+00
 -1      2246 2.09982E+00
 -1      2247 2.44710E+00
 -1      2248 1.89605E+00
 -1      2249 2.93444E+00
 -1      2250 3.25522E+00
 -1      2251 2.70830E+00
 -1      2252 3.95086E+00
 -1      2253 4.16854E+00
 -1      2254 3.89129E+00
 -1      2255 5.20754E+00
 -1      2256 5.73409E+00
 -1      2257 5.62592E+00
 -1      2258 6.91502E+00
 -1      2259 7.71135E+00
 -1      2260 7.84585E+00
 -1      2261 1.53271E+01
 -1      2262 2.02181E+01
 -1      2263 5.75547E+00
 -1      2264 1.30072E-03
 -1      2265 7.60751E+00
 -1      2266 6.87394E+00
 -1      2267 5.56151E+00
 -1      2268 4.99961E+00
 -1      2269 7.75830E+00
 -1      2270 4.15889E+00
 -1      2271 4.01422E+00
 -1      2272 5.60515E+00
 -1      2273 3.36715E+00
 -1      2274 3.11947E+00
 -1      2275 4.11736E+00
 -1      2276 2.63628E+00
 -1      2277 2.31773E+00
 -1      2278 2.98710E+00
 -1      2279 1.97562E+00
 -1      2280 1.70693E+00
 -1      2281 2.16179E+00
 -1      2282 1.45431E+00
 -1      2283 1.23371E+00
 -1      2284 1.56706E+00
 -1      2285 1.04809E+00
 -1      2286 8.79290E-01
 -1      2287 1.12882E+00
 -1      2288 7.43695E-01
 -1      2289 6.19649E-01
 -1      2290 8.07604E-01
 -1      2291 5.21254E-01
 -1      2292 4.32370E-01
 -1      2293 5.73614E-01
 -1      2294 3.61424E-01
 -1      2295 2.98743E-01
 -1      2296 4.04272E-01
 -1      2297 2.47883E-01
 -1      2298 2.04146E-01
 -1      2299 2.82467E-01
 -1      2300 1.67882E-01
 -1      2301 1.37606E-01
 -1      2302 1.95343E-01
 -1      2303 1.11892E-01
 -1      2304 9.25680E-02
 -1      2305 1.33364E-01
 -1      2306 7.44489E-02
 -1      2307 6.35085E-02
 -1      2308 8.95305E-02
 -1      2309 5.08413E-02
 -1      2310 4.28657E-02
 -1      2311 5.87441E-02
 -1      2312 3.41085E-02
 -1      2313 2.85096E-02
 -1      2314 3.73196E-02
 -1      2315 2.41022E-02
 -1      2316 2.11617E-02
 -1      2317 2.41549E-02
 -1      2318 1.82440E-02
 -1      2319 1.58067E-02
 -1      2320 1.68296E-02
 -1      2321 1.47084E-02
 -1      2322 1.27145E-02
 -1      2323 1.28135E-02
 -1      2324 1.16707E-02
 -1      2325 1.00571E-02
 -1      2326 1.06714E-02
 -1      2327 9.10719E-03
 -1      2328 8.03760E-03
 -1      2329 8.67771E-03
 -1      2330 7.19923E-03
 -1      2331 6.38855E-03
 -1      2332 6.88940E-03
 -1      2333 5.81317E-03
 -1      2334 5.20803E-03
 -1      2335 5.47565E-03
 -1      2336 4.76183E-03
 -1      2337 4.19259E-03
 -1      2338 4.45406E-03
 -1      2339 3.80832E-03
 -1      2340 3.32916E-03
 -1      2341 3.62358E-03
 -1      2342 2.96778E-03
 -1      2343 2.55130E-03
 -1      2344 2.87793E-03
 -1      2345 2.26285E-03
 -1      2346 1.92495E-03
 -1      2347 2.22811E-03
 -1      2348 1.66702E-03
 -1      2349 1.43999E-03
 -1      2350 1.68174E-03
 -1      2351 1.30375E-03
 -1      2352 1.12717E-03
 -1      2353 9.82104E-04
 -1      2354 1.28757E-03
 -1      2355 6.05325E-01
 -1      2356 5.43345E-01
 -1      2357 5.03171E-01
 -1      2358 5.40116E-01
 -1      2359 5.23696E-01
 -1      2360 5.63956E-01
 -1      2361 6.92548E-01
 -1      2362 5.07361E-01
 -1      2363 7.47943E-01
 -1      2364 6.65719E-01
 -1      2365 6.24264E-01
 -1      2366 9.57575E-01
 -1      2367 8.49814E-01
 -1      2368 7.86529E-01
 -1      2369 1.18688E+00
 -1      2370 1.06330E+00
 -1      2371 9.94121E-01
 -1      2372 1.37935E+00
 -1      2373 1.26672E+00
 -1      2374 1.17968E+00
 -1      2375 1.55655E+00
 -1      2376 1.42925E+00
 -1      2377 1.30942E+00
 -1      2378 1.63947E+00
 -1      2379 1.58819E+00
 -1      2380 1.39096E+00
 -1      2381 1.58209E+00
 -1      2382 1.61490E+00
 -1      2383 1.39803E+00
 -1      2384 1.62742E+00
 -1      2385 1.58536E+00
 -1      2386 1.37673E+00
 -1      2387 1.59490E+00
 -1      2388 1.64433E+00
 -1      2389 1.39692E+00
 -1      2390 1.42263E+00
 -1      2391 1.55542E+00
 -1      2392 1.37435E+00
 -1      2393 1.20248E+00
 -1      2394 1.35190E+00
 -1      2395 1.26414E+00
 -1      2396 9.60609E-01
 -1      2397 1.10837E+00
 -1      2398 1.09930E+00
 -1      2399 6.98848E-01
 -1      2400 8.32558E-01
 -1      2401 8.77139E-01
 -1      2402 4.76502E-01
 -1      2403 5.91180E-01
 -1      2404 6.41420E-01
 -1      2405 2.88469E-01
 -1      2406 3.86823E-01
 -1      2407 4.44073E-01
 -1      2408 2.04002E-01
 -1      2409 2.30214E-01
 -1      2410 2.96138E-01
 -1      2411 1.86262E-01
 -1      2412 1.82027E-01
 -1      2413 2.15908E-01
 -1      2414 1.66932E-01
 -1      2415 1.64369E-01
 -1      2416 1.72040E-01
 -1      2417 1.59409E-01
 -1      2418 1.68248E-01
 -1      2419 1.51464E-01
 -1      2420 1.43111E-01
 -1      2421 1.55217E-01
 -1      2422 1.48589E-01
 -1      2423 1.25588E-01
 -1      2424 1.36174E-01
 -1      2425 1.37461E-01
 -1      2426 1.07839E-01
 -1      2427 1.16538E-01
 -1      2428 1.21474E-01
 -1      2429 8.89146E-02
 -1      2430 9.90266E-02
 -1      2431 1.03612E-01
 -1      2432 7.04544E-02
 -1      2433 7.94946E-02
 -1      2434 8.53801E-02
 -1      2435 5.44120E-02
 -1      2436 6.15516E-02
 -1      2437 6.70574E-02
 -1      2438 4.03223E-02
 -1      2439 4.66260E-02
 -1      2440 5.03686E-02
 -1      2441 2.86172E-02
 -1      2442 3.38891E-02
 -1      2443 3.61495E-02
 -1      2444 2.11726E-02
 -1      2445 2.38443E-02
 -1      2446 2.49434E-02
 -1      2447 1.65171E-02
 -1      2448 1.82517E-02
 -1      2449 1.72495E-02
 -1      2450 1.31523E-02
 -1      2451 1.48466E-02
 -1      2452 1.26580E-02
 -1      2453 1.09363E-02
 -1      2454 1.24926E-02
 -1      2455 1.03278E-02
 -1      2456 8.83377E-03
 -1      2457 1.02045E-02
 -1      2458 8.93631E-03
 -1      2459 7.13906E-03
 -1      2460 8.09958E-03
 -1      2461 7.47031E-03
 -1      2462 5.87141E-03
 -1      2463 6.44549E-03
 -1      2464 6.04255E-03
 -1      2465 4.84105E-03
 -1      2466 5.42584E-03
 -1      2467 4.90341E-03
 -1      2468 3.92177E-03
 -1      2469 4.48541E-03
 -1      2470 4.10220E-03
 -1      2471 3.06925E-03
 -1      2472 3.54530E-03
 -1      2473 3.37008E-03
 -1      2474 2.30680E-03
 -1      2475 2.72158E-03
 -1      2476 2.64595E-03
 -1      2477 1.71466E-03
 -1      2478 2.01679E-03
 -1      2479 2.00827E-03
 -1      2480 1.30072E-03
 -1      2481 1.48291E-03
 -1      2482 1.48651E-03
 -1      2483 8.01194E-04
 -1      2484 7.43292E-04
 -1      2485 7.52149E-04
 -1      2486 6.88737E-04
 -1      2487 8.95436E-04
 -1      2488 6.88737E-04
 -1      2489 1.07953E-03
 -1      2490 9.04292E-04
 -1      2491 8.50932E-04
 -1      2492 8.24715E-04
 -1      2493 9.10101E-04
 -1      2494 8.50932E-04
 -1      2495 8.50932E-04
 -1      2496 9.33622E-04
 -1      2497 8.51835E-04
 -1      2498 8.48963E-04
 -1      2499 9.31653E-04
 -1      2500 8.63560E-04
 -1      2501 8.63560E-04
 -1      2502 9.41408E-04
 -1      2503 8.45762E-04
 -1      2504 8.63560E-04
 -1      2505 9.53133E-04
 -1      2506 7.74186E-04
 -1      2507 8.27306E-04
 -1      2508 9.34677E-04
 -1      2509 6.25054E-04
 -1      2510 6.99089E-04
 -1      2511 8.41124E-04
 -1      2512 7.59276E-04
 -1      2513 5.94877E-04
 -1      2514 7.35850E-04
 -1      2515 9.28501E-04
 -1      2516 6.53942E+00
 -1      2517 7.56312E+00
 -1      2518 1.95265E+00
 -1      2519 1.25098E+00
 -1      2520 1.26326E+00
 -1      2521 1.36735E+00
 -1      2522 7.86843E+00
 -1      2523 1.14775E+01
 -1      2524 1.11656E+01
 -1      2525 6.54137E+00
 -1      2526 7.17180E+00
 -1      2527 2.64215E+01
 -1      2528 2.91798E+01
 -1      2529 8.65371E+00
 -1      2530 8.85747E+00
 -1      2531 1.25476E-03
 -1      2532 4.44402E-01
 -1      2533 4.42283E-01
 -1      2534 3.81306E-01
 -1      2535 4.27206E-01
 -1      2536 9.61606E+00
 -1      2537 9.32521E+00
 -1      2538 7.78016E+00
 -1      2539 6.12672E+00
 -1      2540 9.62026E+00
 -1      2541 9.83133E+00
 -1      2542 8.64944E+00
 -1      2543 9.16845E+00
 -1      2544 8.16225E+00
 -1      2545 5.36710E+00
 -1      2546 7.04488E+00
 -1      2547 8.53466E+00
 -1      2548 5.93482E+00
 -1      2549 1.54206E+01
 -1      2550 1.11574E+01
 -1      2551 8.25953E+00
 -1      2552 1.90842E+01
 -1      2553 1.73218E+01
 -1      2554 2.82008E+01
 -1      2555 2.34837E+01
 -1      2556 1.90842E+01
 -1      2557 3.29179E+01
 -1      2558 3.29179E+01
 -1      2559 2.93781E+01
 -1      2560 3.11480E+01
 -1      2561 2.47012E+01
 -1      2562 2.45291E+01
 -1      2563 1.52249E+01
 -1      2564 2.15015E+01
 -1      2565 1.64805E+01
 -1      2566 8.98744E+00
 -1      2567 1.26419E+01
 -1      2568 9.86298E+00
 -1      2569 9.52194E+00
 -1      2570 8.46447E+00
 -1      2571 6.41879E+00
 -1      2572 1.56098E+01
 -1      2573 1.12741E+01
 -1      2574 2.47818E+01
 -1      2575 1.74135E+01
 -1      2576 2.71155E+01
 -1      2577 3.03750E+01
 -1      2578 7.10651E+00
 -1      2579 6.23390E+00
 -1      2580 1.00949E+00
 -1      2581 1.12040E+00
 -1      2582 1.40122E+00
 -1      2583 6.61934E+00
 -1      2584 1.17413E+00
 -1      2585 9.06828E-01
 -1      2586 8.82688E-01
 -1      2587 1.11538E+01
 -1      2588 9.83837E+00
 -1      2589 7.23450E+00
 -1      2590 5.97337E+00
 -1      2591 1.96369E+01
 -1      2592 2.16653E+01
 -1      2593 2.26692E+01
 -1      2594 7.25537E+00
 -1      2595 9.86298E+00
 -1      2596 5.86276E+00
 -1      2597 5.84406E+00
 -1      2598 1.03207E+01
 -1      2599 1.07953E-03
 -1      2600 8.05453E+00
 -1      2601 1.40122E+00
 -1      2602 6.68469E-01
 -1      2603 7.98993E-01
 -1      2604 5.66738E-01
 -1      2605 5.07122E-01
 -1      2606 1.85350E+01
 -1      2607 3.03750E+01
 -1      2608 2.72849E+01
 -1      2609 2.54041E+01
 -1      2610 2.29566E+01
 -1      2611 5.50806E+00
 -1      2612 1.95760E+01
 -1      2613 6.63847E+00
 -1      2614 1.33743E+01
 -1      2615 8.76101E+00
 -1      2616 1.06978E+01
 -1      2617 2.45291E+01
 -1      2618 2.82008E+01
 -1      2619 1.27835E+01
 -1      2620 6.10589E+00
 -1      2621 6.33020E+00
 -1      2622 9.26353E+00
 -1      2623 8.39879E+00
 -1      2624 5.06906E+00
 -1      2625 3.11480E+01
 -1      2626 5.91422E-01
 -1      2627 5.59679E-01
 -1      2628 5.27215E-01
 -1      2629 4.86542E-01
 -1      2630 5.19789E-01
 -1      2631 6.05410E-01
 -1      2632 6.05410E-01
 -1      2633 6.01761E-01
 -1      2634 6.08821E-01
 -1      2635 5.52416E-01
 -1      2636 8.59525E-01
 -1      2637 6.13631E-01
 -1      2638 6.03130E-01
 -1      2639 1.08779E+00
 -1      2640 1.11366E+00
 -1      2641 1.30304E+00
 -1      2642 1.50010E+00
 -1      2643 1.23967E+00
 -1      2644 1.82927E+00
 -1      2645 2.15419E+00
 -1      2646 1.75824E+00
 -1      2647 2.66734E+00
 -1      2648 3.15469E+00
 -1      2649 2.60057E+00
 -1      2650 3.89378E+00
 -1      2651 4.58942E+00
 -1      2652 3.85282E+00
 -1      2653 5.82734E+00
 -1      2654 6.86634E+00
 -1      2655 5.82983E+00
 -1      2656 7.10796E+00
 -1      2657 8.28888E+00
 -1      2658 7.30937E+00
 -1      2659 8.42948E+00
 -1      2660 7.11705E+00
 -1      2661 7.05469E+00
 -1      2662 6.21396E+00
 -1      2663 7.72586E+00
 -1      2664 4.79868E+00
 -1      2665 4.15160E+00
 -1      2666 6.24821E+00
 -1      2667 3.42098E+00
 -1      2668 2.93779E+00
 -1      2669 4.10230E+00
 -1      2670 2.41129E+00
 -1      2671 2.06918E+00
 -1      2672 2.84518E+00
 -1      2673 1.70768E+00
 -1      2674 1.45506E+00
 -1      2675 1.95718E+00
 -1      2676 1.20874E+00
 -1      2677 1.02312E+00
 -1      2678 1.34936E+00
 -1      2679 8.49011E-01
 -1      2680 7.13416E-01
 -1      2681 9.28927E-01
 -1      2682 5.91764E-01
 -1      2683 4.93368E-01
 -1      2684 6.33170E-01
 -1      2685 4.10378E-01
 -1      2686 3.39432E-01
 -1      2687 4.28528E-01
 -1      2688 2.85719E-01
 -1      2689 2.34860E-01
 -1      2690 2.91825E-01
 -1      2691 2.01311E-01
 -1      2692 1.65047E-01
 -1      2693 2.04563E-01
 -1      2694 1.40180E-01
 -1      2695 1.14466E-01
 -1      2696 1.46148E-01
 -1      2697 9.61762E-02
 -1      2698 7.80570E-02
 -1      2699 1.02992E-01
 -1      2700 6.47252E-02
 -1      2701 5.20580E-02
 -1      2702 7.13709E-02
 -1      2703 4.24452E-02
 -1      2704 3.36879E-02
 -1      2705 4.84263E-02
 -1      2706 2.69266E-02
 -1      2707 2.25191E-02
 -1      2708 3.20522E-02
 -1      2709 1.74147E-02
 -1      2710 1.44970E-02
 -1      2711 2.01865E-02
 -1      2712 1.15681E-02
 -1      2713 1.04698E-02
 -1      2714 1.21532E-02
 -1      2715 9.59870E-03
 -1      2716 8.55492E-03
 -1      2717 8.35329E-03
 -1      2718 8.20269E-03
 -1      2719 7.25275E-03
 -1      2720 7.12997E-03
 -1      2721 6.80003E-03
 -1      2722 5.96166E-03
 -1      2723 6.32501E-03
 -1      2724 5.47565E-03
 -1      2725 4.90026E-03
 -1      2726 5.38628E-03
 -1      2727 4.42179E-03
 -1      2728 3.97560E-03
 -1      2729 4.42179E-03
 -1      2730 3.61778E-03
 -1      2731 3.23350E-03
 -1      2732 3.58551E-03
 -1      2733 2.92098E-03
 -1      2734 2.55961E-03
 -1      2735 2.91518E-03
 -1      2736 2.25307E-03
 -1      2737 1.96463E-03
 -1      2738 2.29612E-03
 -1      2739 1.69062E-03
 -1      2740 1.43269E-03
 -1      2741 1.71558E-03
 -1      2742 1.29056E-03
 -1      2743 1.15432E-03
 -1      2744 9.31491E-04
 -1      2745 1.29945E-03
 -1      2746 5.35530E-01
 -1      2747 4.95356E-01
 -1      2748 6.80551E-01
 -1      2749 6.20157E-01
 -1      2750 5.91817E-01
 -1      2751 4.14056E-01
 -1      2752 4.37896E-01
 -1      2753 4.25890E-01
 -1      2754 1.04205E+00
 -1      2755 9.36326E-01
 -1      2756 1.20066E+00
 -1      2757 1.12083E+00
 -1      2758 1.06303E+00
 -1      2759 1.30386E+00
 -1      2760 1.25395E+00
 -1      2761 1.19510E+00
 -1      2762 1.38918E+00
 -1      2763 1.35754E+00
 -1      2764 1.30207E+00
 -1      2765 1.39558E+00
 -1      2766 1.42015E+00
 -1      2767 1.38673E+00
 -1      2768 1.31754E+00
 -1      2769 1.31427E+00
 -1      2770 1.33639E+00
 -1      2771 1.39607E+00
 -1      2772 1.37916E+00
 -1      2773 1.31670E+00
 -1      2774 1.33441E+00
 -1      2775 1.37389E+00
 -1      2776 1.35614E+00
 -1      2777 1.19296E+00
 -1      2778 1.26368E+00
 -1      2779 1.26323E+00
 -1      2780 1.03555E+00
 -1      2781 1.12966E+00
 -1      2782 1.12920E+00
 -1      2783 8.31734E-01
 -1      2784 9.59785E-01
 -1      2785 9.90141E-01
 -1      2786 6.26977E-01
 -1      2787 7.34645E-01
 -1      2788 8.17291E-01
 -1      2789 4.44073E-01
 -1      2790 5.33752E-01
 -1      2791 6.26977E-01
 -1      2792 3.18814E-01
 -1      2793 3.77070E-01
 -1      2794 4.66749E-01
 -1      2795 2.50401E-01
 -1      2796 2.72376E-01
 -1      2797 3.53307E-01
 -1      2798 1.85140E-01
 -1      2799 2.07033E-01
 -1      2800 2.63501E-01
 -1      2801 1.71817E-01
 -1      2802 1.70501E-01
 -1      2803 2.05494E-01
 -1      2804 1.57531E-01
 -1      2805 1.61722E-01
 -1      2806 1.80759E-01
 -1      2807 1.38400E-01
 -1      2808 1.45336E-01
 -1      2809 1.58469E-01
 -1      2810 1.19332E-01
 -1      2811 1.28382E-01
 -1      2812 1.36257E-01
 -1      2813 9.99292E-02
 -1      2814 1.08741E-01
 -1      2815 1.15649E-01
 -1      2816 8.06119E-02
 -1      2817 9.00319E-02
 -1      2818 9.51609E-02
 -1      2819 6.24043E-02
 -1      2820 7.13071E-02
 -1      2821 7.59588E-02
 -1      2822 4.64446E-02
 -1      2823 5.42305E-02
 -1      2824 5.84802E-02
 -1      2825 3.31782E-02
 -1      2826 3.96114E-02
 -1      2827 4.34733E-02
 -1      2828 2.29162E-02
 -1      2829 2.76892E-02
 -1      2830 3.11510E-02
 -1      2831 1.57379E-02
 -1      2832 1.86588E-02
 -1      2833 2.14046E-02
 -1      2834 1.08734E-02
 -1      2835 1.25440E-02
 -1      2836 1.39532E-02
 -1      2837 8.25865E-03
 -1      2838 8.91835E-03
 -1      2839 8.80428E-03
 -1      2840 6.93264E-03
 -1      2841 7.66444E-03
 -1      2842 6.25499E-03
 -1      2843 6.01655E-03
 -1      2844 6.75074E-03
 -1      2845 5.47888E-03
 -1      2846 5.02092E-03
 -1      2847 5.71449E-03
 -1      2848 4.99492E-03
 -1      2849 4.21363E-03
 -1      2850 4.65920E-03
 -1      2851 4.33114E-03
 -1      2852 3.47867E-03
 -1      2853 3.83432E-03
 -1      2854 3.59011E-03
 -1      2855 2.82226E-03
 -1      2856 3.19873E-03
 -1      2857 2.93085E-03
 -1      2858 2.21599E-03
 -1      2859 2.56366E-03
 -1      2860 2.39230E-03
 -1      2861 1.66878E-03
 -1      2862 1.95879E-03
 -1      2863 1.87650E-03
 -1      2864 1.25907E-03
 -1      2865 1.49082E-03
 -1      2866 1.44134E-03
 -1      2867 1.08383E-03
 -1      2868 1.00099E-03
 -1      2869 1.00099E-03
 -1      2870 1.42867E+01
 -1      2871 1.78065E+01
 -1      2872 9.96531E-04
 -1      2873 9.73010E-04
 -1      2874 1.06390E-03
 -1      2875 1.04527E-03
 -1      2876 1.04527E-03
 -1      2877 1.22481E-03
 -1      2878 9.99023E-04
 -1      2879 1.00099E-03
 -1      2880 1.06836E-03
 -1      2881 5.18327E-01
 -1      2882 6.30230E-01
 -1      2883 1.01313E-03
 -1      2884 1.00141E-03
 -1      2885 1.07075E-03
 -1      2886 1.03275E-03
 -1      2887 1.03275E-03
 -1      2888 1.09276E-03
 -1      2889 1.01430E-03
 -1      2890 1.03275E-03
 -1      2891 1.11238E-03
 -1      2892 9.32289E-04
 -1      2893 1.00739E-03
 -1      2894 1.10546E-03
 -1      2895 1.40122E+00
 -1      2896 3.87455E+00
 -1      2897 4.28919E+00
 -1      2898 6.07034E-01
 -1      2899 5.91422E-01
 -1      2900 5.52253E-01
 -1      2901 5.50629E-01
 -1      2902 6.38263E+00
 -1      2903 4.83758E+00
 -1      2904 3.61871E+00
 -1      2905 1.75826E+01
 -1      2906 2.24316E+01
 -1      2907 4.05146E+00
 -1      2908 5.65601E+00
 -1      2909 5.04851E+00
 -1      2910 5.74515E+00
 -1      2911 6.85424E+00
 -1      2912 1.07038E+01
 -1      2913 5.28341E+00
 -1      2914 1.79804E+01
 -1      2915 1.35824E+01
 -1      2916 4.65105E+00
 -1      2917 4.08333E+00
 -1      2918 6.64258E+00
 -1      2919 7.09438E+00
 -1      2920 2.14273E+01
 -1      2921 2.31973E+01
 -1      2922 8.66138E+00
 -1      2923 6.03864E+00
 -1      2924 1.16515E+01
 -1      2925 9.75028E+00
 -1      2926 1.70959E+01
 -1      2927 1.26964E+01
 -1      2928 2.43845E+01
 -1      2929 1.96674E+01
 -1      2930 1.32796E+01
 -1      2931 8.62201E-01
 -1      2932 7.60330E-01
 -1      2933 7.56223E-01
 -1      2934 9.10127E-01
 -1      2935 7.29150E+00
 -1      2936 7.07623E+00
 -1      2937 5.77182E+00
 -1      2938 9.43522E-04
 -1      2939 9.52378E-04
 -1      2940 1.09336E-03
 -1      2941 1.02995E-03
 -1      2942 2.20076E+01
 -1      2943 2.42632E+01
 -1      2944 4.52841E-01
 -1      2945 4.52057E-01
 -1      2946 3.93504E-01
 -1      2947 6.01761E-01
 -1      2948 1.46639E+01
 -1      2949 1.48698E+01
 -1      2950 2.03200E+01
 -1      2951 1.42082E+01
 -1      2952 1.05288E+01
 -1      2953 9.88754E+00
 -1      2954 2.00098E+01
 -1      2955 1.20590E+01
 -1      2956 1.30633E+01
 -1      2957 5.27534E+00
 -1      2958 1.21244E+01
 -1      2959 1.53886E+01
 -1      2960 7.52675E-01
 -1      2961 7.40209E-01
 -1      2962 1.13194E+00
 -1      2963 1.11525E+01
 -1      2964 1.04240E+01
 -1      2965 6.84114E+00
 -1      2966 3.48503E-01
 -1      2967 3.61156E-01
 -1      2968 4.85525E-01
 -1      2969 3.73355E-01
 -1      2970 1.89175E+01
 -1      2971 1.38100E+00
 -1      2972 1.38100E+00
 -1      2973 1.24304E+00
 -1      2974 1.11172E+00
 -1      2975 5.05290E+00
 -1      2976 9.43594E-04
 -1      2977 9.73772E-04
 -1      2978 1.14003E-03
 -1      2979 1.16941E-03
 -1      2980 3.66943E-01
 -1      2981 4.60248E-01
 -1      2982 4.36169E-01
 -1      2983 1.20554E+00
 -1      2984 3.12515E+00
 -1      2985 4.75866E+00
 -1      2986 3.88447E+00
 -1      2987 3.77187E+00
 -1      2988 3.32199E+00
 -1      2989 3.35386E+00
 -1      2990 5.55827E-01
 -1      2991 4.58815E+00
 -1      2992 9.66316E+00
 -1      2993 1.77702E+01
 -1      2994 1.17766E+01
 -1      2995 9.67732E+00
 -1      2996 1.67528E+01
 -1      2997 7.52938E+00
 -1      2998 5.81553E-01
 -1      2999 5.49090E-01
 -1      3000 5.17496E-01
 -1      3001 5.14086E-01
 -1      3002 5.19435E-01
 -1      3003 1.11039E+01
 -1      3004 1.22912E+01
 -1      3005 9.02678E+00
 -1      3006 1.11538E+01
 -1      3007 1.24178E+00
 -1      3008 1.08653E+00
 -1      3009 1.27591E+00
 -1      3010 9.92711E-01
 -1      3011 1.30394E+01
 -1      3012 1.48698E+01
 -1      3013 1.56276E+00
 -1      3014 1.89194E+00
 -1      3015 2.32261E+00
 -1      3016 2.83576E+00
 -1      3017 2.12713E+00
 -1      3018 3.59417E+00
 -1      3019 4.33327E+00
 -1      3020 3.31621E+00
 -1      3021 5.66042E+00
 -1      3022 6.89833E+00
 -1      3023 5.40177E+00
 -1      3024 8.28888E+00
 -1      3025 7.23662E+00
 -1      3026 5.82133E+00
 -1      3027 4.64418E+00
 -1      3028 3.91356E+00
 -1      3029 5.63259E+00
 -1      3030 3.14143E+00
 -1      3031 2.61493E+00
 -1      3032 3.68331E+00
 -1      3033 2.13891E+00
 -1      3034 1.77741E+00
 -1      3035 2.43515E+00
 -1      3036 1.47007E+00
 -1      3037 1.22374E+00
 -1      3038 1.65179E+00
 -1      3039 1.01775E+00
 -1      3040 8.43646E-01
 -1      3041 1.13846E+00
 -1      3042 7.02008E-01
 -1      3043 5.80356E-01
 -1      3044 7.90831E-01
 -1      3045 4.81490E-01
 -1      3046 3.98499E-01
 -1      3047 5.50328E-01
 -1      3048 3.29026E-01
 -1      3049 2.75314E-01
 -1      3050 3.81988E-01
 -1      3051 2.26416E-01
 -1      3052 1.92867E-01
 -1      3053 2.63617E-01
 -1      3054 1.58496E-01
 -1      3055 1.33629E-01
 -1      3056 1.80348E-01
 -1      3057 1.09987E-01
 -1      3058 9.16977E-02
 -1      3059 1.22335E-01
 -1      3060 7.56828E-02
 -1      3061 6.23510E-02
 -1      3062 8.26778E-02
 -1      3063 5.10335E-02
 -1      3064 4.14207E-02
 -1      3065 5.53454E-02
 -1      3066 3.33683E-02
 -1      3067 2.66070E-02
 -1      3068 3.59755E-02
 -1      3069 2.14555E-02
 -1      3070 1.63511E-02
 -1      3071 2.27716E-02
 -1      3072 1.32217E-02
 -1      3073 1.02929E-02
 -1      3074 1.44907E-02
 -1      3075 8.07412E-03
 -1      3076 7.20303E-03
 -1      3077 9.14261E-03
 -1      3078 5.90877E-03
 -1      3079 5.55654E-03
 -1      3080 5.62960E-03
 -1      3081 5.48558E-03
 -1      3082 5.03286E-03
 -1      3083 4.26438E-03
 -1      3084 4.93967E-03
 -1      3085 4.45365E-03
 -1      3086 4.10023E-03
 -1      3087 4.24336E-03
 -1      3088 3.76490E-03
 -1      3089 3.79676E-03
 -1      3090 3.49571E-03
 -1      3091 3.13789E-03
 -1      3092 3.31727E-03
 -1      3093 2.85288E-03
 -1      3094 2.54036E-03
 -1      3095 2.76307E-03
 -1      3096 2.34264E-03
 -1      3097 2.03610E-03
 -1      3098 2.28034E-03
 -1      3099 1.89248E-03
 -1      3100 1.61847E-03
 -1      3101 1.93899E-03
 -1      3102 4.79361E+00
 -1      3103 4.99073E+00
 -1      3104 6.31392E-01
 -1      3105 5.46765E-01
 -1      3106 4.48974E-01
 -1      3107 3.67675E-01
 -1      3108 4.88549E-01
 -1      3109 1.25129E+00
 -1      3110 1.19800E+00
 -1      3111 1.14174E+00
 -1      3112 1.06297E+00
 -1      3113 1.19793E+00
 -1      3114 1.51518E+00
 -1      3115 1.48421E+00
 -1      3116 1.44057E+00
 -1      3117 1.52188E+00
 -1      3118 1.61935E+00
 -1      3119 1.49276E+00
 -1      3120 1.43114E+00
 -1      3121 1.61662E+00
 -1      3122 1.48597E+00
 -1      3123 1.50815E+00
 -1      3124 1.62259E+00
 -1      3125 1.26323E+00
 -1      3126 1.33396E+00
 -1      3127 1.48597E+00
 -1      3128 1.17408E+00
 -1      3129 1.23738E+00
 -1      3130 1.30811E+00
 -1      3131 1.02885E+00
 -1      3132 1.10461E+00
 -1      3133 1.21279E+00
 -1      3134 8.17291E-01
 -1      3135 9.14380E-01
 -1      3136 1.02885E+00
 -1      3137 6.36654E-01
 -1      3138 7.29879E-01
 -1      3139 8.26968E-01
 -1      3140 4.99209E-01
 -1      3141 5.66212E-01
 -1      3142 6.69114E-01
 -1      3143 3.74513E-01
 -1      3144 4.20952E-01
 -1      3145 5.20415E-01
 -1      3146 2.63501E-01
 -1      3147 3.06868E-01
 -1      3148 3.74513E-01
 -1      3149 2.26695E-01
 -1      3150 2.41335E-01
 -1      3151 2.84702E-01
 -1      3152 1.93406E-01
 -1      3153 2.03501E-01
 -1      3154 2.39342E-01
 -1      3155 1.61074E-01
 -1      3156 1.73268E-01
 -1      3157 1.96010E-01
 -1      3158 1.36455E-01
 -1      3159 1.46473E-01
 -1      3160 1.61272E-01
 -1      3161 1.12495E-01
 -1      3162 1.23086E-01
 -1      3163 1.33302E-01
 -1      3164 8.98854E-02
 -1      3165 9.97827E-02
 -1      3166 1.07220E-01
 -1      3167 6.93840E-02
 -1      3168 7.86888E-02
 -1      3169 8.33106E-02
 -1      3170 5.22912E-02
 -1      3171 6.04650E-02
 -1      3172 6.31950E-02
 -1      3173 3.82557E-02
 -1      3174 4.50889E-02
 -1      3175 4.70737E-02
 -1      3176 2.70812E-02
 -1      3177 3.25702E-02
 -1      3178 3.41858E-02
 -1      3179 1.84412E-02
 -1      3180 2.26987E-02
 -1      3181 2.41178E-02
 -1      3182 1.19473E-02
 -1      3183 1.51412E-02
 -1      3184 1.64353E-02
 -1      3185 7.56762E-03
 -1      3186 9.52272E-03
 -1      3187 1.07107E-02
 -1      3188 5.24062E-03
 -1      3189 5.83483E-03
 -1      3190 6.55326E-03
 -1      3191 4.16213E-03
 -1      3192 4.34403E-03
 -1      3193 3.92388E-03
 -1      3194 3.99639E-03
 -1      3195 4.29844E-03
 -1      3196 3.16360E-03
 -1      3197 3.60030E-03
 -1      3198 3.96202E-03
 -1      3199 3.26554E-03
 -1      3200 3.07198E-03
 -1      3201 3.45130E-03
 -1      3202 3.08217E-03
 -1      3203 2.57914E-03
 -1      3204 2.85908E-03
 -1      3205 2.72027E-03
 -1      3206 2.10690E-03
 -1      3207 2.36550E-03
 -1      3208 2.29373E-03
 -1      3209 1.67724E-03
 -1      3210 1.93444E-03
 -1      3211 1.90764E-03
 -1      3212 1.33825E-03
 -1      3213 1.51621E-03
 -1      3214 1.57415E-03
 -1      3215 1.29969E-03
 -1      3216 1.11233E-03
 -1      3217 1.11233E-03
 -1      3218 5.00035E+00
 -1      3219 3.61276E+00
 -1      3220 1.17067E-03
 -1      3221 1.15105E-03
 -1      3222 1.08400E-03
 -1      3223 1.08161E-03
 -1      3224 1.12558E-03
 -1      3225 1.16191E-03
 -1      3226 1.38911E-03
 -1      3227 1.39602E-03
 -1      3228 4.90067E+00
 -1      3229 6.00976E+00
 -1      3230 4.72561E-01
 -1      3231 4.86406E+00
 -1      3232 4.17047E+00
 -1      3233 3.43407E+00
 -1      3234 4.42064E+00
 -1      3235 3.63954E+00
 -1      3236 3.56063E+00
 -1      3237 2.59759E+00
 -1      3238 4.72561E-01
 -1      3239 8.67839E+00
 -1      3240 7.63350E+00
 -1      3241 1.26938E-03
 -1      3242 1.26938E-03
 -1      3243 1.32768E-03
 -1      3244 1.55303E-03
 -1      3245 1.21579E+01
 -1      3246 9.58640E+00
 -1      3247 7.55673E+00
 -1      3248 8.59798E+00
 -1      3249 1.13507E-03
 -1      3250 1.13061E-03
 -1      3251 1.17904E-03
 -1      3252 1.36303E+00
 -1      3253 1.30934E+00
 -1      3254 1.31224E+00
 -1      3255 1.49148E+00
 -1      3256 1.43535E+01
 -1      3257 7.94852E+00
 -1      3258 7.88616E+00
 -1      3259 7.45928E+00
 -1      3260 7.37505E+00
 -1      3261 6.28616E+00
 -1      3262 4.84602E+00
 -1      3263 1.43303E+01
 -1      3264 1.73520E+01
 -1      3265 4.34231E-01
 -1      3266 5.06228E-01
 -1      3267 5.41147E-01
 -1      3268 5.42771E-01
 -1      3269 3.14935E+00
 -1      3270 1.11039E+01
 -1      3271 8.73122E+00
 -1      3272 9.68635E+00
 -1      3273 3.09130E+00
 -1      3274 3.38115E+00
 -1      3275 4.10750E+00
 -1      3276 1.40962E+00
 -1      3277 1.25205E+01
 -1      3278 1.15180E+01
 -1      3279 1.22559E+01
 -1      3280 8.68520E+00
 -1      3281 8.85462E+00
 -1      3282 9.09624E+00
 -1      3283 8.28920E-01
 -1      3284 9.38899E-01
 -1      3285 2.59759E+00
 -1      3286 2.65568E+00
 -1      3287 3.12515E+00
 -1      3288 1.31155E-03
 -1      3289 1.06297E+00
 -1      3290 9.84252E-01
 -1      3291 9.10127E-01
 -1      3292 1.44696E-03
 -1      3293 1.73752E-03
 -1      3294 1.18335E-03
 -1      3295 1.29679E-03
 -1      3296 1.09046E-03
 -1      3297 1.21656E+01
 -1      3298 6.45841E+00
 -1      3299 3.04047E+00
 -1      3300 3.09302E+00
 -1      3301 2.78157E+00
 -1      3302 7.06586E-01
 -1      3303 8.92810E-01
 -1      3304 5.49415E-01
 -1      3305 1.48844E-03
 -1      3306 3.43618E-01
 -1      3307 3.65970E-01
 -1      3308 6.39027E+00
 -1      3309 3.88585E+00
 -1      3310 2.85057E+00
 -1      3311 2.68306E+00
 -1      3312 2.57098E+00
 -1      3313 5.81553E-01
 -1      3314 5.81553E-01
 -1      3315 6.10853E-01
 -1      3316 5.72071E-01
 -1      3317 7.32886E-01
 -1      3318 6.87834E-01
 -1      3319 8.12665E-01
 -1      3320 1.07829E+01
 -1      3321 1.24705E+01
 -1      3322 1.09050E+01
 -1      3323 4.10906E-01
 -1      3324 9.83762E+00
 -1      3325 1.13061E-03
 -1      3326 1.10112E-03
 -1      3327 1.19111E-03
 -1      3328 1.20177E-03
 -1      3329 5.36708E-01
 -1      3330 5.02223E-01
 -1      3331 5.98472E-01
 -1      3332 1.04763E+01
 -1      3333 9.95747E+00
 -1      3334 7.34211E+00
 -1      3335 3.66702E-01
 -1      3336 7.73007E+00
 -1      3337 1.02464E+01
 -1      3338 1.02464E+01
 -1      3339 8.50874E+00
 -1      3340 1.06896E+00
 -1      3341 2.65660E+00
 -1      3342 3.41501E+00
 -1      3343 4.44718E+00
 -1      3344 5.77432E+00
 -1      3345 3.78757E+00
 -1      3346 5.81048E+00
 -1      3347 4.63332E+00
 -1      3348 4.90607E+00
 -1      3349 3.62027E+00
 -1      3350 3.68336E+00
 -1      3351 2.91122E+00
 -1      3352 3.86124E+00
 -1      3353 2.37895E+00
 -1      3354 1.90293E+00
 -1      3355 2.37900E+00
 -1      3356 1.58416E+00
 -1      3357 1.27682E+00
 -1      3358 1.52796E+00
 -1      3359 1.10367E+00
 -1      3360 8.97682E-01
 -1      3361 1.03604E+00
 -1      3362 7.77593E-01
 -1      3363 6.35956E-01
 -1      3364 7.42806E-01
 -1      3365 5.49802E-01
 -1      3366 4.50936E-01
 -1      3367 5.36563E-01
 -1      3368 3.88152E-01
 -1      3369 3.18679E-01
 -1      3370 3.87626E-01
 -1      3371 2.72689E-01
 -1      3372 2.23791E-01
 -1      3373 2.78853E-01
 -1      3374 1.90113E-01
 -1      3375 1.55742E-01
 -1      3376 1.99186E-01
 -1      3377 1.31158E-01
 -1      3378 1.07515E-01
 -1      3379 1.40923E-01
 -1      3380 9.03828E-02
 -1      3381 7.43679E-02
 -1      3382 9.92055E-02
 -1      3383 6.21796E-02
 -1      3384 5.08622E-02
 -1      3385 6.98846E-02
 -1      3386 4.16091E-02
 -1      3387 3.35568E-02
 -1      3388 4.84434E-02
 -1      3389 2.69883E-02
 -1      3390 2.18368E-02
 -1      3391 3.26219E-02
 -1      3392 1.72224E-02
 -1      3393 1.40930E-02
 -1      3394 2.14390E-02
 -1      3395 1.08463E-02
 -1      3396 8.62757E-03
 -1      3397 1.35779E-02
 -1      3398 6.38845E-03
 -1      3399 5.09419E-03
 -1      3400 8.09215E-03
 -1      3401 3.64540E-03
 -1      3402 3.57445E-03
 -1      3403 4.40425E-03
 -1      3404 3.25255E-03
 -1      3405 3.15936E-03
 -1      3406 2.63357E-03
 -1      3407 3.26128E-03
 -1      3408 3.05099E-03
 -1      3409 2.41360E-03
 -1      3410 3.00991E-03
 -1      3411 2.74072E-03
 -1      3412 2.47443E-03
 -1      3413 2.61438E-03
 -1      3414 2.32937E-03
 -1      3415 2.30701E-03
 -1      3416 2.15841E-03
 -1      3417 1.96068E-03
 -1      3418 2.00971E-03
 -1      3419 1.93899E-03
 -1      3420 1.79537E-03
 -1      3421 1.73752E-03
 -1      3422 1.81706E-03
 -1      3423 1.61662E+00
 -1      3424 1.62605E+00
 -1      3425 1.62605E+00
 -1      3426 1.61935E+00
 -1      3427 1.62605E+00
 -1      3428 1.63685E+00
 -1      3429 1.78886E+00
 -1      3430 1.61064E+00
 -1      3431 1.63648E+00
 -1      3432 1.93937E+00
 -1      3433 1.38086E+00
 -1      3434 1.45033E+00
 -1      3435 1.77870E+00
 -1      3436 1.05406E+00
 -1      3437 1.16853E+00
 -1      3438 1.40607E+00
 -1      3439 9.30469E-01
 -1      3440 1.01788E+00
 -1      3441 1.15757E+00
 -1      3442 7.20248E-01
 -1      3443 7.90689E-01
 -1      3444 9.81602E-01
 -1      3445 5.20415E-01
 -1      3446 5.98672E-01
 -1      3447 7.20248E-01
 -1      3448 3.87107E-01
 -1      3449 4.54752E-01
 -1      3450 5.33009E-01
 -1      3451 3.16077E-01
 -1      3452 3.38244E-01
 -1      3453 4.18483E-01
 -1      3454 2.50253E-01
 -1      3455 2.73447E-01
 -1      3456 3.26989E-01
 -1      3457 1.99563E-01
 -1      3458 2.19700E-01
 -1      3459 2.53806E-01
 -1      3460 1.62786E-01
 -1      3461 1.77387E-01
 -1      3462 2.01077E-01
 -1      3463 1.29622E-01
 -1      3464 1.42991E-01
 -1      3465 1.59106E-01
 -1      3466 1.00788E-01
 -1      3467 1.13500E-01
 -1      3468 1.23190E-01
 -1      3469 7.81569E-02
 -1      3470 8.93535E-02
 -1      3471 9.56342E-02
 -1      3472 6.02790E-02
 -1      3473 6.91980E-02
 -1      3474 7.52409E-02
 -1      3475 4.52188E-02
 -1      3476 5.24211E-02
 -1      3477 5.84241E-02
 -1      3478 3.27994E-02
 -1      3479 3.84849E-02
 -1      3480 4.38323E-02
 -1      3481 2.29243E-02
 -1      3482 2.73068E-02
 -1      3483 3.16058E-02
 -1      3484 1.55504E-02
 -1      3485 1.88504E-02
 -1      3486 2.20393E-02
 -1      3487 1.00591E-02
 -1      3488 1.24837E-02
 -1      3489 1.48988E-02
 -1      3490 6.04882E-03
 -1      3491 7.78162E-03
 -1      3492 9.55463E-03
 -1      3493 3.51856E-03
 -1      3494 4.41515E-03
 -1      3495 5.64351E-03
 -1      3496 2.70752E-03
 -1      3497 2.57121E-03
 -1      3498 3.06249E-03
 -1      3499 2.63146E-03
 -1      3500 2.66583E-03
 -1      3501 2.07344E-03
 -1      3502 2.59005E-03
 -1      3503 2.73905E-03
 -1      3504 2.13934E-03
 -1      3505 2.34858E-03
 -1      3506 2.56148E-03
 -1      3507 2.21836E-03
 -1      3508 2.02208E-03
 -1      3509 2.23571E-03
 -1      3510 2.07692E-03
 -1      3511 1.69346E-03
 -1      3512 1.86592E-03
 -1      3513 1.80790E-03
 -1      3514 1.43237E-03
 -1      3515 1.59340E-03
 -1      3516 1.55168E-03
 -1      3517 1.31603E-03
 -1      3518 4.91576E-01
 -1      3519 4.46575E-01
 -1      3520 6.67636E-01
 -1      3521 1.35581E+00
 -1      3522 6.07539E+00
 -1      3523 5.81695E+00
 -1      3524 3.23471E+00
 -1      3525 2.62487E+00
 -1      3526 2.58219E+00
 -1      3527 2.56680E+00
 -1      3528 2.57622E+00
 -1      3529 2.73307E+00
 -1      3530 1.65128E+00
 -1      3531 1.59503E+00
 -1      3532 5.86340E-01
 -1      3533 4.88549E-01
 -1      3534 3.03275E+00
 -1      3535 3.40573E+00
 -1      3536 5.82319E+00
 -1      3537 6.65457E+00
 -1      3538 1.21978E-03
 -1      3539 1.24251E-03
 -1      3540 1.70505E+00
 -1      3541 2.13571E+00
 -1      3542 2.23451E+00
 -1      3543 3.76946E+00
 -1      3544 3.64279E+00
 -1      3545 4.29140E-01
 -1      3546 4.97401E-01
 -1      3547 5.24462E-01
 -1      3548 5.11851E-01
 -1      3549 4.87794E-01
 -1      3550 5.74289E-01
 -1      3551 6.09641E-01
 -1      3552 1.35948E+00
 -1      3553 1.70015E+00
 -1      3554 1.70873E+00
 -1      3555 1.23715E+00
 -1      3556 2.62183E+00
 -1      3557 7.10800E+00
 -1      3558 6.45847E+00
 -1      3559 2.34265E+00
 -1      3560 2.40074E+00
 -1      3561 2.42801E+00
 -1      3562 9.72679E+00
 -1      3563 7.45266E+00
 -1      3564 7.16376E+00
 -1      3565 3.11831E+00
 -1      3566 6.77548E+00
 -1      3567 5.45920E+00
 -1      3568 3.00292E+00
 -1      3569 2.94286E+00
 -1      3570 2.42312E+00
 -1      3571 3.18316E+00
 -1      3572 4.70269E+00
 -1      3573 4.89885E+00
 -1      3574 7.07047E-01
 -1      3575 6.94666E-01
 -1      3576 1.14443E+00
 -1      3577 1.06572E+00
 -1      3578 1.59778E+00
 -1      3579 4.59119E+00
 -1      3580 1.61935E+00
 -1      3581 1.61266E+00
 -1      3582 1.49148E+00
 -1      3583 5.75443E-01
 -1      3584 6.98340E+00
 -1      3585 6.07539E+00
 -1      3586 7.99133E-01
 -1      3587 6.97639E-01
 -1      3588 6.97639E-01
 -1      3589 1.13875E-03
 -1      3590 1.16948E-03
 -1      3591 1.23295E-03
 -1      3592 5.50206E+00
 -1      3593 2.42412E+00
 -1      3594 2.68495E+00
 -1      3595 2.21353E+00
 -1      3596 1.57989E-03
 -1      3597 1.45325E-03
 -1      3598 1.63774E-03
 -1      3599 8.86790E-01
 -1      3600 1.15198E-03
 -1      3601 1.08493E-03
 -1      3602 1.12882E-03
 -1      3603 7.01732E+00
 -1      3604 6.88408E+00
 -1      3605 5.40274E+00
 -1      3606 6.70690E+00
 -1      3607 7.51915E-01
 -1      3608 7.51915E-01
 -1      3609 8.48109E-01
 -1      3610 1.54800E+00
 -1      3611 1.48995E+00
 -1      3612 1.88704E+00
 -1      3613 1.66918E+00
 -1      3614 6.98154E+00
 -1      3615 6.98154E+00
 -1      3616 5.26764E+00
 -1      3617 5.02580E+00
 -1      3618 1.36664E-03
 -1      3619 1.32590E-03
 -1      3620 1.32590E-03
 -1      3621 1.32768E-03
 -1      3622 1.22897E-03
 -1      3623 1.15198E-03
 -1      3624 1.35454E-03
 -1      3625 1.04368E+01
 -1      3626 8.57703E+00
 -1      3627 7.57622E+00
 -1      3628 2.29734E+00
 -1      3629 2.26349E+00
 -1      3630 7.03971E+00
 -1      3631 2.99332E+00
 -1      3632 4.02549E+00
 -1      3633 1.38243E+00
 -1      3634 1.59476E+00
 -1      3635 7.09958E-01
 -1      3636 7.48739E-01
 -1      3637 8.89801E-01
 -1      3638 7.01130E-01
 -1      3639 2.44526E+00
 -1      3640 1.91299E+00
 -1      3641 1.60182E+00
 -1      3642 1.28304E+00
 -1      3643 1.66807E+00
 -1      3644 1.07896E+00
 -1      3645 9.05816E-01
 -1      3646 1.15282E+00
 -1      3647 7.62149E-01
 -1      3648 6.42060E-01
 -1      3649 8.05070E-01
 -1      3650 5.40950E-01
 -1      3651 4.54797E-01
 -1      3652 5.60293E-01
 -1      3653 3.83836E-01
 -1      3654 3.21053E-01
 -1      3655 3.88223E-01
 -1      3656 2.77271E-01
 -1      3657 2.31282E-01
 -1      3658 2.73482E-01
 -1      3659 2.03359E-01
 -1      3660 1.69681E-01
 -1      3661 2.01777E-01
 -1      3662 1.47428E-01
 -1      3663 1.22844E-01
 -1      3664 1.51602E-01
 -1      3665 1.05460E-01
 -1      3666 8.83277E-02
 -1      3667 1.11966E-01
 -1      3668 7.49665E-02
 -1      3669 6.27783E-02
 -1      3670 8.12213E-02
 -1      3671 5.25299E-02
 -1      3672 4.32769E-02
 -1      3673 5.76118E-02
 -1      3674 3.56368E-02
 -1      3675 2.90684E-02
 -1      3676 3.97233E-02
 -1      3677 2.40090E-02
 -1      3678 1.93946E-02
 -1      3679 2.70239E-02
 -1      3680 1.56691E-02
 -1      3681 1.24225E-02
 -1      3682 1.82391E-02
 -1      3683 9.73647E-03
 -1      3684 7.49735E-03
 -1      3685 1.18277E-02
 -1      3686 5.64380E-03
 -1      3687 4.19502E-03
 -1      3688 7.28812E-03
 -1      3689 2.92820E-03
 -1      3690 2.60630E-03
 -1      3691 4.16775E-03
 -1      3692 1.83771E-03
 -1      3693 1.93964E-03
 -1      3694 2.13234E-03
 -1      3695 2.14721E-03
 -1      3696 2.10613E-03
 -1      3697 1.57133E-03
 -1      3698 2.15478E-03
 -1      3699 2.02844E-03
 -1      3700 1.82756E-03
 -1      3701 1.97695E-03
 -1      3702 1.80599E-03
 -1      3703 1.82472E-03
 -1      3704 1.70143E-03
 -1      3705 1.67974E-03
 -1      3706 1.52211E-03
 -1      3707 1.66867E-03
 -1      3708 9.20732E-01
 -1      3709 8.12157E-01
 -1      3710 8.01509E-01
 -1      3711 2.21249E+00
 -1      3712 2.21249E+00
 -1      3713 5.90421E+00
 -1      3714 5.25622E+00
 -1      3715 6.83674E+00
 -1      3716 1.77870E+00
 -1      3717 1.93901E+00
 -1      3718 2.04240E+00
 -1      3719 2.04277E+00
 -1      3720 1.60563E+00
 -1      3721 1.64181E+00
 -1      3722 1.83049E+00
 -1      3723 9.93023E-01
 -1      3724 1.13280E+00
 -1      3725 1.61705E+00
 -1      3726 7.30523E-01
 -1      3727 8.52098E-01
 -1      3728 1.00330E+00
 -1      3729 5.82722E-01
 -1      3730 6.48385E-01
 -1      3731 7.80236E-01
 -1      3732 4.39591E-01
 -1      3733 4.88455E-01
 -1      3734 6.03831E-01
 -1      3735 3.41594E-01
 -1      3736 3.84225E-01
 -1      3737 4.54197E-01
 -1      3738 2.62127E-01
 -1      3739 2.92680E-01
 -1      3740 3.49915E-01
 -1      3741 2.01008E-01
 -1      3742 2.23183E-01
 -1      3743 2.62057E-01
 -1      3744 1.55117E-01
 -1      3745 1.74912E-01
 -1      3746 1.97018E-01
 -1      3747 1.20255E-01
 -1      3748 1.36376E-01
 -1      3749 1.52182E-01
 -1      3750 9.56342E-02
 -1      3751 1.07069E-01
 -1      3752 1.20255E-01
 -1      3753 7.52409E-02
 -1      3754 8.41998E-02
 -1      3755 9.56342E-02
 -1      3756 5.73884E-02
 -1      3757 6.52463E-02
 -1      3758 7.42052E-02
 -1      3759 4.23239E-02
 -1      3760 4.90578E-02
 -1      3761 5.58799E-02
 -1      3762 3.01365E-02
 -1      3763 3.56291E-02
 -1      3764 4.08546E-02
 -1      3765 2.08383E-02
 -1      3766 2.49121E-02
 -1      3767 2.89354E-02
 -1      3768 1.39060E-02
 -1      3769 1.69727E-02
 -1      3770 1.98455E-02
 -1      3771 8.90359E-03
 -1      3772 1.11810E-02
 -1      3773 1.32549E-02
 -1      3774 5.27472E-03
 -1      3775 6.90839E-03
 -1      3776 8.53480E-03
 -1      3777 2.90711E-03
 -1      3778 3.85445E-03
 -1      3779 5.11933E-03
 -1      3780 2.07344E-03
 -1      3781 2.11514E-03
 -1      3782 2.90711E-03
 -1      3783 1.77612E-03
 -1      3784 1.66853E-03
 -1      3785 1.71023E-03
 -1      3786 1.90476E-03
 -1      3787 1.93333E-03
 -1      3788 1.46252E-03
 -1      3789 1.81742E-03
 -1      3790 1.93029E-03
 -1      3791 1.64526E-03
 -1      3792 1.60200E-03
 -1      3793 1.75815E-03
 -1      3794 1.61151E-03
 -1      3795 6.02184E+00
 -1      3796 6.70937E+00
 -1      3797 2.32498E+00
 -1      3798 1.13431E+00
 -1      3799 1.23715E+00
 -1      3800 1.37102E+00
 -1      3801 4.67025E+00
 -1      3802 4.76958E+00
 -1      3803 4.50441E+00
 -1      3804 3.59354E+00
 -1      3805 3.16267E+00
 -1      3806 1.00636E+00
 -1      3807 9.08902E-01
 -1      3808 9.18707E-01
 -1      3809 1.08783E+00
 -1      3810 2.01571E+00
 -1      3811 2.59921E+00
 -1      3812 1.79527E+00
 -1      3813 2.31615E+00
 -1      3814 2.55407E+00
 -1      3815 2.36540E+00
 -1      3816 1.77895E+00
 -1      3817 1.32669E-03
 -1      3818 4.76958E+00
 -1      3819 4.76958E+00
 -1      3820 4.02431E+00
 -1      3821 3.07434E+00
 -1      3822 2.60832E+00
 -1      3823 4.46932E+00
 -1      3824 1.77226E+00
 -1      3825 1.82398E+00
 -1      3826 1.74013E+00
 -1      3827 1.58053E+00
 -1      3828 1.93795E+00
 -1      3829 2.04240E+00
 -1      3830 6.47870E+00
 -1      3831 1.75506E+00
 -1      3832 2.04838E+00
 -1      3833 1.59778E+00
 -1      3834 2.92163E+00
 -1      3835 2.24423E+00
 -1      3836 2.83485E+00
 -1      3837 4.03709E+00
 -1      3838 6.31716E+00
 -1      3839 1.55089E-03
 -1      3840 1.50114E-03
 -1      3841 4.91763E+00
 -1      3842 4.92010E+00
 -1      3843 1.45082E-03
 -1      3844 3.77192E+00
 -1      3845 4.26733E+00
 -1      3846 3.63416E+00
 -1      3847 3.79712E+00
 -1      3848 8.08938E-01
 -1      3849 6.97639E-01
 -1      3850 1.16024E+00
 -1      3851 1.27773E+00
 -1      3852 1.35000E-03
 -1      3853 1.43339E-03
 -1      3854 1.48449E-03
 -1      3855 1.30651E-03
 -1      3856 1.35682E-03
 -1      3857 1.42356E-03
 -1      3858 1.79036E+00
 -1      3859 7.59784E-01
 -1      3860 9.08820E-01
 -1      3861 7.97521E-01
 -1      3862 8.20822E-01
 -1      3863 1.70382E+00
 -1      3864 1.17098E-03
 -1      3865 1.22481E-03
 -1      3866 1.34867E-03
 -1      3867 1.26172E-03
 -1      3868 1.18473E-03
 -1      3869 1.28072E-03
 -1      3870 9.64587E-01
 -1      3871 9.19719E-01
 -1      3872 1.27672E+00
 -1      3873 2.18794E+00
 -1      3874 2.18794E+00
 -1      3875 1.79036E+00
 -1      3876 2.13883E+00
 -1      3877 2.46331E+00
 -1      3878 1.73623E+00
 -1      3879 1.82277E+00
 -1      3880 3.05850E+00
 -1      3881 2.02660E+00
 -1      3882 9.47664E-01
 -1      3883 9.50839E-01
 -1      3884 2.32651E+00
 -1      3885 1.82497E+00
 -1      3886 1.51380E+00
 -1      3887 1.21382E+00
 -1      3888 1.00974E+00
 -1      3889 1.37072E+00
 -1      3890 8.12640E-01
 -1      3891 6.68973E-01
 -1      3892 8.73645E-01
 -1      3893 5.69823E-01
 -1      3894 4.68714E-01
 -1      3895 5.77394E-01
 -1      3896 4.07427E-01
 -1      3897 3.36467E-01
 -1      3898 4.16958E-01
 -1      3899 2.88978E-01
 -1      3900 2.45197E-01
 -1      3901 3.08182E-01
 -1      3902 2.09343E-01
 -1      3903 1.81420E-01
 -1      3904 2.24839E-01
 -1      3905 1.54798E-01
 -1      3906 1.32545E-01
 -1      3907 1.62364E-01
 -1      3908 1.12997E-01
 -1      3909 9.56134E-02
 -1      3910 1.16193E-01
 -1      3911 8.13802E-02
 -1      3912 6.80190E-02
 -1      3913 8.24110E-02
 -1      3914 5.88679E-02
 -1      3915 4.86195E-02
 -1      3916 5.90267E-02
 -1      3917 4.08069E-02
 -1      3918 3.31668E-02
 -1      3919 4.20630E-02
 -1      3920 2.80343E-02
 -1      3921 2.29749E-02
 -1      3922 2.91178E-02
 -1      3923 1.92603E-02
 -1      3924 1.55348E-02
 -1      3925 2.02706E-02
 -1      3926 1.28541E-02
 -1      3927 1.01681E-02
 -1      3928 1.38753E-02
 -1      3929 8.18431E-03
 -1      3930 6.33076E-03
 -1      3931 9.21078E-03
 -1      3932 4.91962E-03
 -1      3933 3.65281E-03
 -1      3934 5.81582E-03
 -1      3935 2.71495E-03
 -1      3936 1.94636E-03
 -1      3937 3.46683E-03
 -1      3938 1.30732E-03
 -1      3939 1.51490E-03
 -1      3940 1.88993E-03
 -1      3941 1.49233E-03
 -1      3942 1.54098E-03
 -1      3943 1.22832E-03
 -1      3944 1.62555E-03
 -1      3945 1.57406E-03
 -1      3946 1.29032E-03
 -1      3947 3.52195E+00
 -1      3948 3.25678E+00
 -1      3949 1.07307E+00
 -1      3950 1.15521E+00
 -1      3951 6.54586E-01
 -1      3952 7.48854E-01
 -1      3953 1.12383E+00
 -1      3954 4.84248E-01
 -1      3955 5.39615E-01
 -1      3956 6.84637E-01
 -1      3957 3.50317E-01
 -1      3958 3.99232E-01
 -1      3959 4.84650E-01
 -1      3960 2.59874E-01
 -1      3961 2.98817E-01
 -1      3962 3.48134E-01
 -1      3963 1.96901E-01
 -1      3964 2.22996E-01
 -1      3965 2.59757E-01
 -1      3966 1.52182E-01
 -1      3967 1.70923E-01
 -1      3968 1.96901E-01
 -1      3969 1.20255E-01
 -1      3970 1.33441E-01
 -1      3971 1.52182E-01
 -1      3972 9.29668E-02
 -1      3973 1.04401E-01
 -1      3974 1.17588E-01
 -1      3975 7.00856E-02
 -1      3976 8.00802E-02
 -1      3977 8.88472E-02
 -1      3978 5.15653E-02
 -1      3979 5.98959E-02
 -1      3980 6.57710E-02
 -1      3981 3.69868E-02
 -1      3982 4.36815E-02
 -1      3983 4.76975E-02
 -1      3984 2.57658E-02
 -1      3985 3.09902E-02
 -1      3986 3.38171E-02
 -1      3987 1.74236E-02
 -1      3988 2.12892E-02
 -1      3989 2.33439E-02
 -1      3990 1.15165E-02
 -1      3991 1.42414E-02
 -1      3992 1.56851E-02
 -1      3993 7.60699E-03
 -1      3994 9.60218E-03
 -1      3995 1.05887E-02
 -1      3996 4.76075E-03
 -1      3997 6.18102E-03
 -1      3998 7.24840E-03
 -1      3999 2.89615E-03
 -1      4000 3.68812E-03
 -1      4001 4.74980E-03
 -1      4002 1.70772E-03
 -1      4003 2.11263E-03
 -1      4004 2.89365E-03
 -1      4005 1.31911E-03
 -1      4006 1.16190E-03
 -1      4007 1.56431E-03
 -1      4008 1.55058E-03
 -1      4009 1.52506E-03
 -1      4010 1.22443E-03
 -1      4011 1.54376E-03
 -1      4012 1.95488E+00
 -1      4013 3.95191E+00
 -1      4014 5.05612E+00
 -1      4015 9.18707E-01
 -1      4016 9.18707E-01
 -1      4017 1.02847E+00
 -1      4018 1.40343E+00
 -1      4019 3.32082E+00
 -1      4020 3.33960E+00
 -1      4021 2.60097E+00
 -1      4022 1.64294E+00
 -1      4023 4.23155E+00
 -1      4024 3.52195E+00
 -1      4025 3.52195E+00
 -1      4026 2.00376E+00
 -1      4027 2.47659E+00
 -1      4028 1.34338E-03
 -1      4029 1.21781E-03
 -1      4030 1.25056E-03
 -1      4031 1.38538E-03
 -1      4032 1.27796E+00
 -1      4033 1.41889E+00
 -1      4034 2.27843E+00
 -1      4035 1.57080E+00
 -1      4036 2.21426E+00
 -1      4037 5.62159E+00
 -1      4038 5.00567E+00
 -1      4039 3.77375E+00
 -1      4040 5.16720E+00
 -1      4041 1.42356E-03
 -1      4042 4.19901E+00
 -1      4043 2.65194E+00
 -1      4044 1.98004E+00
 -1      4045 2.40198E+00
 -1      4046 1.86563E+00
 -1      4047 1.99133E+00
 -1      4048 2.10566E+00
 -1      4049 2.18694E+00
 -1      4050 2.63181E+00
 -1      4051 2.47754E+00
 -1      4052 3.26089E+00
 -1      4053 3.00682E+00
 -1      4054 1.48994E-03
 -1      4055 1.81536E+00
 -1      4056 1.36477E+00
 -1      4057 1.87265E+00
 -1      4058 3.07139E+00
 -1      4059 3.20741E+00
 -1      4060 1.19614E+00
 -1      4061 1.08637E+00
 -1      4062 1.43038E-03
 -1      4063 1.29077E-03
 -1      4064 1.30541E+00
 -1      4065 1.63705E+00
 -1      4066 2.82472E+00
 -1      4067 3.22764E+00
 -1      4068 2.14755E+00
 -1      4069 9.60195E-01
 -1      4070 1.06008E+00
 -1      4071 1.23763E+00
 -1      4072 2.59509E+00
 -1      4073 1.34867E-03
 -1      4074 1.43038E-03
 -1      4075 1.43038E-03
 -1      4076 2.71251E+00
 -1      4077 2.09341E+00
 -1      4078 1.28072E-03
 -1      4079 1.36242E-03
 -1      4080 1.29447E-03
 -1      4081 2.38773E+00
 -1      4082 1.24711E-03
 -1      4083 1.31507E-03
 -1      4084 1.85388E+00
 -1      4085 2.20227E+00
 -1      4086 1.33468E-03
 -1      4087 1.67853E+00
 -1      4088 1.37855E+00
 -1      4089 1.13153E+00
 -1      4090 9.34431E-01
 -1      4091 1.43934E+00
 -1      4092 7.46143E-01
 -1      4093 6.46994E-01
 -1      4094 1.00403E+00
 -1      4095 5.08734E-01
 -1      4096 4.47448E-01
 -1      4097 6.77483E-01
 -1      4098 3.51802E-01
 -1      4099 3.04313E-01
 -1      4100 4.43579E-01
 -1      4101 2.40407E-01
 -1      4102 2.04554E-01
 -1      4103 2.84028E-01
 -1      4104 1.66910E-01
 -1      4105 1.40288E-01
 -1      4106 1.82478E-01
 -1      4107 1.22628E-01
 -1      4108 1.03080E-01
 -1      4109 1.27175E-01
 -1      4110 8.90618E-02
 -1      4111 7.48286E-02
 -1      4112 9.54971E-02
 -1      4113 6.51417E-02
 -1      4114 5.59906E-02
 -1      4115 7.17925E-02
 -1      4116 4.60889E-02
 -1      4117 3.82763E-02
 -1      4118 5.22038E-02
 -1      4119 3.20286E-02
 -1      4120 2.68960E-02
 -1      4121 3.60545E-02
 -1      4122 2.24253E-02
 -1      4123 1.87107E-02
 -1      4124 2.53361E-02
 -1      4125 1.54755E-02
 -1      4126 1.27948E-02
 -1      4127 1.76302E-02
 -1      4128 1.05283E-02
 -1      4129 8.54450E-03
 -1      4130 1.21285E-02
 -1      4131 6.86075E-03
 -1      4132 5.44962E-03
 -1      4133 8.17830E-03
 -1      4134 4.24806E-03
 -1      4135 3.31021E-03
 -1      4136 5.29300E-03
 -1      4137 2.45886E-03
 -1      4138 1.81981E-03
 -1      4139 3.24009E-03
 -1      4140 1.22532E-03
 -1      4141 1.20275E-03
 -1      4142 1.41281E+00
 -1      4143 1.58047E+00
 -1      4144 1.68974E+00
 -1      4145 3.79724E+00
 -1      4146 1.24298E+00
 -1      4147 1.56720E+00
 -1      4148 4.30434E-01
 -1      4149 4.81934E-01
 -1      4150 3.14960E-01
 -1      4151 3.51838E-01
 -1      4152 4.85638E-01
 -1      4153 2.30163E-01
 -1      4154 2.56141E-01
 -1      4155 3.48222E-01
 -1      4156 1.68588E-01
 -1      4157 1.87329E-01
 -1      4158 2.46569E-01
 -1      4159 1.22087E-01
 -1      4160 1.37941E-01
 -1      4161 1.73088E-01
 -1      4162 8.75085E-02
 -1      4163 1.00395E-01
 -1      4164 1.20749E-01
 -1      4165 6.20880E-02
 -1      4166 7.22776E-02
 -1      4167 8.38255E-02
 -1      4168 4.32365E-02
 -1      4169 5.11203E-02
 -1      4170 5.76270E-02
 -1      4171 3.11727E-02
 -1      4172 3.71693E-02
 -1      4173 4.05921E-02
 -1      4174 2.19029E-02
 -1      4175 2.63795E-02
 -1      4176 2.97317E-02
 -1      4177 1.49864E-02
 -1      4178 1.81686E-02
 -1      4179 2.12042E-02
 -1      4180 1.04132E-02
 -1      4181 1.23275E-02
 -1      4182 1.48110E-02
 -1      4183 7.03349E-03
 -1      4184 8.45946E-03
 -1      4185 1.01983E-02
 -1      4186 4.50502E-03
 -1      4187 5.57765E-03
 -1      4188 6.78870E-03
 -1      4189 2.66260E-03
 -1      4190 3.44612E-03
 -1      4191 4.27397E-03
 -1      4192 1.32520E-03
 -1      4193 1.87102E-03
 -1      4194 2.42349E-03
 -1      4195 1.17393E-03
 -1      4196 9.67984E-04
 -1      4197 1.27469E-03
 -1      4198 1.17393E-03
 -1      4199 3.68615E+00
 -1      4200 1.30541E+00
 -1      4201 2.01022E+00
 -1      4202 1.97218E+00
 -1      4203 2.85270E+00
 -1      4204 6.07688E-01
 -1      4205 6.92704E-01
 -1      4206 6.89988E-01
 -1      4207 9.15064E-01
 -1      4208 1.03004E+00
 -1      4209 1.03810E+00
 -1      4210 1.61336E+00
 -1      4211 1.33468E-03
 -1      4212 1.07382E+00
 -1      4213 1.65098E+00
 -1      4214 1.25011E-03
 -1      4215 1.02245E+00
 -1      4216 2.18532E+00
 -1      4217 2.59867E+00
 -1      4218 2.61042E+00
 -1      4219 1.77716E+00
 -1      4220 2.07738E+00
 -1      4221 2.08521E+00
 -1      4222 2.88422E+00
 -1      4223 1.79425E-03
 -1      4224 1.47341E+00
 -1      4225 1.05862E-03
 -1      4226 1.65192E+00
 -1      4227 1.53276E+00
 -1      4228 2.05077E+00
 -1      4229 3.28599E+00
 -1      4230 2.61042E+00
 -1      4231 1.00403E+00
 -1      4232 8.15743E-01
 -1      4233 6.89988E-01
 -1      4234 5.51729E-01
 -1      4235 4.73133E-01
 -1      4236 3.77488E-01
 -1      4237 3.18668E-01
 -1      4238 2.54762E-01
 -1      4239 2.11928E-01
 -1      4240 1.74285E-01
 -1      4241 1.43638E-01
 -1      4242 1.25978E-01
 -1      4243 1.04286E-01
 -1      4244 9.02679E-02
 -1      4245 7.50370E-02
 -1      4246 6.53501E-02
 -1      4247 5.43824E-02
 -1      4248 4.44807E-02
 -1      4249 3.84135E-02
 -1      4250 3.21658E-02
 -1      4251 2.73726E-02
 -1      4252 2.29019E-02
 -1      4253 1.91677E-02
 -1      4254 1.59325E-02
 -1      4255 1.32736E-02
 -1      4256 1.10071E-02
 -1      4257 9.05329E-03
 -1      4258 7.36955E-03
 -1      4259 5.91371E-03
 -1      4260 4.71215E-03
 -1      4261 3.65326E-03
 -1      4262 2.80191E-03
 -1      4263 1.47341E+00
 -1      4264 1.68636E+00
 -1      4265 1.22639E+00
 -1      4266 2.08521E+00
 -1      4267 1.41583E-03
 -1      4268 2.01032E-03
 -1      4269 1.88747E+00
 -3
 9999
