    1C
    1UUSER                                                              
    1UDATE              27.october.2022                                 
    1UTIME              00:15:53                                        
    1UHOST                                                              
    1UPGM               CalculiX                                        
    1UVERSION           Version 2.17                             
    1UCOMPILETIME       Thu Jul 23 21:43:50 CEST 2020                    
    1UDIR                                                               
    1UDBN                                                               
    1UMAT    1SOLIDMATERIAL                                             
    2C                          4259                                     1
 -1         1 6.92581E+01 1.72727E+01 0.00000E+00
 -1         2 7.31422E+01 1.10045E+01 0.00000E+00
 -1         3 1.50000E+02 0.00000E+00 0.00000E+00
 -1         4 1.50000E+02 5.00000E+01 0.00000E+00
 -1         5 0.00000E+00 0.00000E+00 0.00000E+00
 -1         6 0.00000E+00 5.00000E+01 0.00000E+00
 -1         7 0.00000E+00 4.70500E+01 0.00000E+00
 -1         8 0.00000E+00 4.41000E+01 0.00000E+00
 -1         9 0.00000E+00 4.11500E+01 0.00000E+00
 -1        10 0.00000E+00 3.82000E+01 0.00000E+00
 -1        11 0.00000E+00 3.52500E+01 0.00000E+00
 -1        12 0.00000E+00 3.23500E+01 0.00000E+00
 -1        13 0.00000E+00 2.94000E+01 0.00000E+00
 -1        14 0.00000E+00 2.64500E+01 0.00000E+00
 -1        15 0.00000E+00 2.35000E+01 0.00000E+00
 -1        16 0.00000E+00 2.05500E+01 0.00000E+00
 -1        17 0.00000E+00 1.76000E+01 0.00000E+00
 -1        18 0.00000E+00 1.47000E+01 0.00000E+00
 -1        19 0.00000E+00 1.17500E+01 0.00000E+00
 -1        20 0.00000E+00 8.80000E+00 0.00000E+00
 -1        21 0.00000E+00 5.85000E+00 0.00000E+00
 -1        22 0.00000E+00 2.90000E+00 0.00000E+00
 -1        23 3.15000E+00 5.00000E+01 0.00000E+00
 -1        24 6.15000E+00 5.00000E+01 0.00000E+00
 -1        25 9.15000E+00 5.00000E+01 0.00000E+00
 -1        26 1.21500E+01 5.00000E+01 0.00000E+00
 -1        27 1.51500E+01 5.00000E+01 0.00000E+00
 -1        28 1.81500E+01 5.00000E+01 0.00000E+00
 -1        29 2.11500E+01 5.00000E+01 0.00000E+00
 -1        30 2.41500E+01 5.00000E+01 0.00000E+00
 -1        31 2.71500E+01 5.00000E+01 0.00000E+00
 -1        32 3.01500E+01 5.00000E+01 0.00000E+00
 -1        33 3.31500E+01 5.00000E+01 0.00000E+00
 -1        34 3.61500E+01 5.00000E+01 0.00000E+00
 -1        35 3.91500E+01 5.00000E+01 0.00000E+00
 -1        36 4.21500E+01 5.00000E+01 0.00000E+00
 -1        37 4.51500E+01 5.00000E+01 0.00000E+00
 -1        38 4.81500E+01 5.00000E+01 0.00000E+00
 -1        39 5.11500E+01 5.00000E+01 0.00000E+00
 -1        40 5.41500E+01 5.00000E+01 0.00000E+00
 -1        41 5.71500E+01 5.00000E+01 0.00000E+00
 -1        42 6.01500E+01 5.00000E+01 0.00000E+00
 -1        43 6.31500E+01 5.00000E+01 0.00000E+00
 -1        44 6.61500E+01 5.00000E+01 0.00000E+00
 -1        45 6.91500E+01 5.00000E+01 0.00000E+00
 -1        46 7.21500E+01 5.00000E+01 0.00000E+00
 -1        47 7.51500E+01 5.00000E+01 0.00000E+00
 -1        48 7.81500E+01 5.00000E+01 0.00000E+00
 -1        49 8.11500E+01 5.00000E+01 0.00000E+00
 -1        50 8.41500E+01 5.00000E+01 0.00000E+00
 -1        51 8.71500E+01 5.00000E+01 0.00000E+00
 -1        52 9.01500E+01 5.00000E+01 0.00000E+00
 -1        53 9.31500E+01 5.00000E+01 0.00000E+00
 -1        54 9.61500E+01 5.00000E+01 0.00000E+00
 -1        55 9.91500E+01 5.00000E+01 0.00000E+00
 -1        56 1.02150E+02 5.00000E+01 0.00000E+00
 -1        57 1.05150E+02 5.00000E+01 0.00000E+00
 -1        58 1.08150E+02 5.00000E+01 0.00000E+00
 -1        59 1.11150E+02 5.00000E+01 0.00000E+00
 -1        60 1.14150E+02 5.00000E+01 0.00000E+00
 -1        61 1.17150E+02 5.00000E+01 0.00000E+00
 -1        62 1.20150E+02 5.00000E+01 0.00000E+00
 -1        63 1.23150E+02 5.00000E+01 0.00000E+00
 -1        64 1.26150E+02 5.00000E+01 0.00000E+00
 -1        65 1.29150E+02 5.00000E+01 0.00000E+00
 -1        66 1.32150E+02 5.00000E+01 0.00000E+00
 -1        67 1.35150E+02 5.00000E+01 0.00000E+00
 -1        68 1.38150E+02 5.00000E+01 0.00000E+00
 -1        69 1.41150E+02 5.00000E+01 0.00000E+00
 -1        70 1.44150E+02 5.00000E+01 0.00000E+00
 -1        71 1.47150E+02 5.00000E+01 0.00000E+00
 -1        72 3.00000E+00 0.00000E+00 0.00000E+00
 -1        73 6.00000E+00 0.00000E+00 0.00000E+00
 -1        74 9.00000E+00 0.00000E+00 0.00000E+00
 -1        75 1.20000E+01 0.00000E+00 0.00000E+00
 -1        76 1.50000E+01 0.00000E+00 0.00000E+00
 -1        77 1.80000E+01 0.00000E+00 0.00000E+00
 -1        78 2.10000E+01 0.00000E+00 0.00000E+00
 -1        79 2.40000E+01 0.00000E+00 0.00000E+00
 -1        80 2.70000E+01 0.00000E+00 0.00000E+00
 -1        81 3.00000E+01 0.00000E+00 0.00000E+00
 -1        82 3.30000E+01 0.00000E+00 0.00000E+00
 -1        83 3.60000E+01 0.00000E+00 0.00000E+00
 -1        84 3.90000E+01 0.00000E+00 0.00000E+00
 -1        85 4.20000E+01 0.00000E+00 0.00000E+00
 -1        86 4.50000E+01 0.00000E+00 0.00000E+00
 -1        87 4.80000E+01 0.00000E+00 0.00000E+00
 -1        88 5.10000E+01 0.00000E+00 0.00000E+00
 -1        89 5.38500E+01 0.00000E+00 0.00000E+00
 -1        90 5.68500E+01 0.00000E+00 0.00000E+00
 -1        91 5.94000E+01 0.00000E+00 0.00000E+00
 -1        92 6.16500E+01 0.00000E+00 0.00000E+00
 -1        93 6.37500E+01 0.00000E+00 0.00000E+00
 -1        94 6.58500E+01 0.00000E+00 0.00000E+00
 -1        95 6.81000E+01 0.00000E+00 0.00000E+00
 -1        96 7.03500E+01 0.00000E+00 0.00000E+00
 -1        97 7.27500E+01 0.00000E+00 0.00000E+00
 -1        98 7.54500E+01 0.00000E+00 0.00000E+00
 -1        99 7.83000E+01 0.00000E+00 0.00000E+00
 -1       100 8.13000E+01 0.00000E+00 0.00000E+00
 -1       101 8.43000E+01 0.00000E+00 0.00000E+00
 -1       102 8.73000E+01 0.00000E+00 0.00000E+00
 -1       103 9.03000E+01 0.00000E+00 0.00000E+00
 -1       104 9.33000E+01 0.00000E+00 0.00000E+00
 -1       105 9.63000E+01 0.00000E+00 0.00000E+00
 -1       106 9.91500E+01 0.00000E+00 0.00000E+00
 -1       107 1.02150E+02 0.00000E+00 0.00000E+00
 -1       108 1.05150E+02 0.00000E+00 0.00000E+00
 -1       109 1.08150E+02 0.00000E+00 0.00000E+00
 -1       110 1.11150E+02 0.00000E+00 0.00000E+00
 -1       111 1.14150E+02 0.00000E+00 0.00000E+00
 -1       112 1.17150E+02 0.00000E+00 0.00000E+00
 -1       113 1.20150E+02 0.00000E+00 0.00000E+00
 -1       114 1.23150E+02 0.00000E+00 0.00000E+00
 -1       115 1.26150E+02 0.00000E+00 0.00000E+00
 -1       116 1.29150E+02 0.00000E+00 0.00000E+00
 -1       117 1.32150E+02 0.00000E+00 0.00000E+00
 -1       118 1.35150E+02 0.00000E+00 0.00000E+00
 -1       119 1.38150E+02 0.00000E+00 0.00000E+00
 -1       120 1.41150E+02 0.00000E+00 0.00000E+00
 -1       121 1.44150E+02 0.00000E+00 0.00000E+00
 -1       122 1.47150E+02 0.00000E+00 0.00000E+00
 -1       123 1.50000E+02 2.95000E+00 0.00000E+00
 -1       124 1.50000E+02 5.90000E+00 0.00000E+00
 -1       125 1.50000E+02 8.85000E+00 0.00000E+00
 -1       126 1.50000E+02 1.18000E+01 0.00000E+00
 -1       127 1.50000E+02 1.47500E+01 0.00000E+00
 -1       128 1.50000E+02 1.76500E+01 0.00000E+00
 -1       129 1.50000E+02 2.06000E+01 0.00000E+00
 -1       130 1.50000E+02 2.35500E+01 0.00000E+00
 -1       131 1.50000E+02 2.65000E+01 0.00000E+00
 -1       132 1.50000E+02 2.94500E+01 0.00000E+00
 -1       133 1.50000E+02 3.24000E+01 0.00000E+00
 -1       134 1.50000E+02 3.53000E+01 0.00000E+00
 -1       135 1.50000E+02 3.82500E+01 0.00000E+00
 -1       136 1.50000E+02 4.12000E+01 0.00000E+00
 -1       137 1.50000E+02 4.41500E+01 0.00000E+00
 -1       138 1.50000E+02 4.71000E+01 0.00000E+00
 -1       139 7.29791E+01 9.50235E+00 0.00000E+00
 -1       140 7.24961E+01 8.06718E+00 0.00000E+00
 -1       141 7.16515E+01 6.68626E+00 0.00000E+00
 -1       142 7.06760E+01 5.67113E+00 0.00000E+00
 -1       143 6.94952E+01 4.85978E+00 0.00000E+00
 -1       144 6.80744E+01 4.27643E+00 0.00000E+00
 -1       145 6.65634E+01 4.01717E+00 0.00000E+00
 -1       146 6.50133E+01 4.09612E+00 0.00000E+00
 -1       147 6.36406E+01 4.46674E+00 0.00000E+00
 -1       148 6.23397E+01 5.12729E+00 0.00000E+00
 -1       149 6.11725E+01 6.07475E+00 0.00000E+00
 -1       150 6.02516E+01 7.22276E+00 0.00000E+00
 -1       151 5.95959E+01 8.52525E+00 0.00000E+00
 -1       152 5.92275E+01 9.91507E+00 0.00000E+00
 -1       153 5.91630E+01 1.15436E+01 0.00000E+00
 -1       154 5.94257E+01 1.29765E+01 0.00000E+00
 -1       155 6.00319E+01 1.44197E+01 0.00000E+00
 -1       156 6.08635E+01 1.56019E+01 0.00000E+00
 -1       157 6.19101E+01 1.65803E+01 0.00000E+00
 -1       158 6.32687E+01 1.73875E+01 0.00000E+00
 -1       159 6.48055E+01 1.78757E+01 0.00000E+00
 -1       160 6.63083E+01 1.80025E+01 0.00000E+00
 -1       161 6.78366E+01 1.77963E+01 0.00000E+00
 -1       162 7.05785E+01 1.64192E+01 0.00000E+00
 -1       163 7.16644E+01 1.53062E+01 0.00000E+00
 -1       164 7.24815E+01 1.39732E+01 0.00000E+00
 -1       165 7.29797E+01 1.25042E+01 0.00000E+00
 -1       166 2.59800E+00 4.55750E+01 0.00000E+00
 -1       167 2.59800E+00 4.26250E+01 0.00000E+00
 -1       168 2.59800E+00 3.96750E+01 0.00000E+00
 -1       169 2.59800E+00 3.67250E+01 0.00000E+00
 -1       170 2.59800E+00 3.38250E+01 0.00000E+00
 -1       171 2.59800E+00 3.08750E+01 0.00000E+00
 -1       172 2.59800E+00 2.79250E+01 0.00000E+00
 -1       173 2.59800E+00 2.49750E+01 0.00000E+00
 -1       174 2.59800E+00 2.20250E+01 0.00000E+00
 -1       175 2.59800E+00 1.90750E+01 0.00000E+00
 -1       176 2.59800E+00 1.61750E+01 0.00000E+00
 -1       177 2.59800E+00 1.32250E+01 0.00000E+00
 -1       178 2.59800E+00 1.02750E+01 0.00000E+00
 -1       179 2.59800E+00 7.32500E+00 0.00000E+00
 -1       180 2.59800E+00 4.37500E+00 0.00000E+00
 -1       181 4.65000E+00 4.74020E+01 0.00000E+00
 -1       182 7.65000E+00 4.74020E+01 0.00000E+00
 -1       183 1.06500E+01 4.74020E+01 0.00000E+00
 -1       184 1.36500E+01 4.74020E+01 0.00000E+00
 -1       185 1.66500E+01 4.74020E+01 0.00000E+00
 -1       186 1.96500E+01 4.74020E+01 0.00000E+00
 -1       187 2.26500E+01 4.74020E+01 0.00000E+00
 -1       188 2.56500E+01 4.74020E+01 0.00000E+00
 -1       189 2.86500E+01 4.74020E+01 0.00000E+00
 -1       190 3.16500E+01 4.74020E+01 0.00000E+00
 -1       191 3.46500E+01 4.74020E+01 0.00000E+00
 -1       192 3.76500E+01 4.74020E+01 0.00000E+00
 -1       193 4.06500E+01 4.74020E+01 0.00000E+00
 -1       194 4.36500E+01 4.74020E+01 0.00000E+00
 -1       195 4.66500E+01 4.74020E+01 0.00000E+00
 -1       196 4.96500E+01 4.74020E+01 0.00000E+00
 -1       197 5.26500E+01 4.74020E+01 0.00000E+00
 -1       198 5.56500E+01 4.74020E+01 0.00000E+00
 -1       199 5.86500E+01 4.74020E+01 0.00000E+00
 -1       200 6.16500E+01 4.74020E+01 0.00000E+00
 -1       201 6.46500E+01 4.74020E+01 0.00000E+00
 -1       202 6.76500E+01 4.74020E+01 0.00000E+00
 -1       203 7.06500E+01 4.74020E+01 0.00000E+00
 -1       204 7.36500E+01 4.74020E+01 0.00000E+00
 -1       205 7.66500E+01 4.74020E+01 0.00000E+00
 -1       206 7.96500E+01 4.74020E+01 0.00000E+00
 -1       207 8.26500E+01 4.74020E+01 0.00000E+00
 -1       208 8.56500E+01 4.74020E+01 0.00000E+00
 -1       209 8.86500E+01 4.74020E+01 0.00000E+00
 -1       210 9.16500E+01 4.74020E+01 0.00000E+00
 -1       211 9.46500E+01 4.74020E+01 0.00000E+00
 -1       212 9.76500E+01 4.74020E+01 0.00000E+00
 -1       213 1.00650E+02 4.74020E+01 0.00000E+00
 -1       214 1.03650E+02 4.74020E+01 0.00000E+00
 -1       215 1.06650E+02 4.74020E+01 0.00000E+00
 -1       216 1.09650E+02 4.74020E+01 0.00000E+00
 -1       217 1.12650E+02 4.74020E+01 0.00000E+00
 -1       218 1.15650E+02 4.74020E+01 0.00000E+00
 -1       219 1.18650E+02 4.74020E+01 0.00000E+00
 -1       220 1.21650E+02 4.74020E+01 0.00000E+00
 -1       221 1.24650E+02 4.74020E+01 0.00000E+00
 -1       222 1.27650E+02 4.74020E+01 0.00000E+00
 -1       223 1.30650E+02 4.74020E+01 0.00000E+00
 -1       224 1.33650E+02 4.74020E+01 0.00000E+00
 -1       225 1.36650E+02 4.74020E+01 0.00000E+00
 -1       226 1.39650E+02 4.74020E+01 0.00000E+00
 -1       227 1.42650E+02 4.74020E+01 0.00000E+00
 -1       228 1.45650E+02 4.74020E+01 0.00000E+00
 -1       229 4.50000E+00 2.59800E+00 0.00000E+00
 -1       230 7.50000E+00 2.59800E+00 0.00000E+00
 -1       231 1.05000E+01 2.59800E+00 0.00000E+00
 -1       232 1.35000E+01 2.59800E+00 0.00000E+00
 -1       233 1.65000E+01 2.59800E+00 0.00000E+00
 -1       234 1.95000E+01 2.59800E+00 0.00000E+00
 -1       235 2.25000E+01 2.59800E+00 0.00000E+00
 -1       236 2.55000E+01 2.59800E+00 0.00000E+00
 -1       237 2.85000E+01 2.59800E+00 0.00000E+00
 -1       238 3.15000E+01 2.59800E+00 0.00000E+00
 -1       239 3.45000E+01 2.59800E+00 0.00000E+00
 -1       240 3.75000E+01 2.59800E+00 0.00000E+00
 -1       241 4.05000E+01 2.59800E+00 0.00000E+00
 -1       242 4.35000E+01 2.59800E+00 0.00000E+00
 -1       243 4.65000E+01 2.59800E+00 0.00000E+00
 -1       244 4.95000E+01 2.59800E+00 0.00000E+00
 -1       245 5.23500E+01 2.59800E+00 0.00000E+00
 -1       246 5.53500E+01 2.59800E+00 0.00000E+00
 -1       247 5.79000E+01 2.59800E+00 0.00000E+00
 -1       248 6.01500E+01 2.59800E+00 0.00000E+00
 -1       249 6.48000E+01 1.71511E+00 0.00000E+00
 -1       250 6.70500E+01 1.71511E+00 0.00000E+00
 -1       251 6.93000E+01 1.71511E+00 0.00000E+00
 -1       252 7.17000E+01 1.71511E+00 0.00000E+00
 -1       253 7.44000E+01 1.71511E+00 0.00000E+00
 -1       254 7.72500E+01 1.71511E+00 0.00000E+00
 -1       255 8.02500E+01 1.71511E+00 0.00000E+00
 -1       256 8.32500E+01 1.71511E+00 0.00000E+00
 -1       257 8.62500E+01 1.71511E+00 0.00000E+00
 -1       258 8.92500E+01 1.71511E+00 0.00000E+00
 -1       259 9.22500E+01 1.71511E+00 0.00000E+00
 -1       260 9.52500E+01 1.71511E+00 0.00000E+00
 -1       261 9.81000E+01 1.71511E+00 0.00000E+00
 -1       262 1.01100E+02 1.71511E+00 0.00000E+00
 -1       263 1.04100E+02 1.71511E+00 0.00000E+00
 -1       264 1.07100E+02 1.71511E+00 0.00000E+00
 -1       265 1.10100E+02 1.71511E+00 0.00000E+00
 -1       266 1.13100E+02 1.71511E+00 0.00000E+00
 -1       267 1.16100E+02 1.71511E+00 0.00000E+00
 -1       268 1.19100E+02 1.71511E+00 0.00000E+00
 -1       269 1.22100E+02 1.71511E+00 0.00000E+00
 -1       270 1.25100E+02 1.71511E+00 0.00000E+00
 -1       271 1.28100E+02 1.71511E+00 0.00000E+00
 -1       272 1.31100E+02 1.71511E+00 0.00000E+00
 -1       273 1.34100E+02 1.71511E+00 0.00000E+00
 -1       274 1.37100E+02 1.71511E+00 0.00000E+00
 -1       275 1.40100E+02 1.71511E+00 0.00000E+00
 -1       276 1.43100E+02 1.71511E+00 0.00000E+00
 -1       277 1.46100E+02 1.71511E+00 0.00000E+00
 -1       278 1.48050E+02 2.33255E+00 0.00000E+00
 -1       279 1.48050E+02 5.28255E+00 0.00000E+00
 -1       280 1.48050E+02 8.23255E+00 0.00000E+00
 -1       281 1.48050E+02 1.11826E+01 0.00000E+00
 -1       282 1.48050E+02 1.41326E+01 0.00000E+00
 -1       283 1.48050E+02 1.70326E+01 0.00000E+00
 -1       284 1.48050E+02 1.99826E+01 0.00000E+00
 -1       285 1.48050E+02 2.29326E+01 0.00000E+00
 -1       286 1.48050E+02 2.58826E+01 0.00000E+00
 -1       287 1.48050E+02 2.88326E+01 0.00000E+00
 -1       288 1.48050E+02 3.17826E+01 0.00000E+00
 -1       289 1.48050E+02 3.46826E+01 0.00000E+00
 -1       290 1.48050E+02 3.76326E+01 0.00000E+00
 -1       291 1.48050E+02 4.05826E+01 0.00000E+00
 -1       292 1.48050E+02 4.35326E+01 0.00000E+00
 -1       293 7.43493E+01 1.01135E+01 0.00000E+00
 -1       294 7.40455E+01 8.34458E+00 0.00000E+00
 -1       295 7.33225E+01 6.61300E+00 0.00000E+00
 -1       296 7.20379E+01 5.33861E+00 0.00000E+00
 -1       297 7.07722E+01 4.26621E+00 0.00000E+00
 -1       298 6.92452E+01 3.44655E+00 0.00000E+00
 -1       299 6.75381E+01 2.86928E+00 0.00000E+00
 -1       300 6.57224E+01 2.76214E+00 0.00000E+00
 -1       301 6.40109E+01 3.11094E+00 0.00000E+00
 -1       302 6.23654E+01 3.56658E+00 0.00000E+00
 -1       303 6.09392E+01 4.59464E+00 0.00000E+00
 -1       304 5.97663E+01 5.89014E+00 0.00000E+00
 -1       305 5.87660E+01 7.29117E+00 0.00000E+00
 -1       306 5.82398E+01 8.90948E+00 0.00000E+00
 -1       307 5.78163E+01 1.06747E+01 0.00000E+00
 -1       308 5.81018E+01 1.24787E+01 0.00000E+00
 -1       309 5.84565E+01 1.42325E+01 0.00000E+00
 -1       310 5.94561E+01 1.57084E+01 0.00000E+00
 -1       311 6.05588E+01 1.69767E+01 0.00000E+00
 -1       312 6.18845E+01 1.81702E+01 0.00000E+00
 -1       313 6.36446E+01 1.88669E+01 0.00000E+00
 -1       314 6.54549E+01 1.91472E+01 0.00000E+00
 -1       315 6.72346E+01 1.91009E+01 0.00000E+00
 -1       316 6.90243E+01 1.88295E+01 0.00000E+00
 -1       317 7.06220E+01 1.79345E+01 0.00000E+00
 -1       318 7.19892E+01 1.67094E+01 0.00000E+00
 -1       319 7.31066E+01 1.52733E+01 0.00000E+00
 -1       320 7.38788E+01 1.36280E+01 0.00000E+00
 -1       321 7.42663E+01 1.18850E+01 0.00000E+00
 -1       322 6.25304E+01 2.24036E+00 0.00000E+00
 -1       323 1.47402E+02 4.56250E+01 0.00000E+00
 -1       324 5.19600E+00 4.11500E+01 0.00000E+00
 -1       325 5.19600E+00 4.41000E+01 0.00000E+00
 -1       326 5.19600E+00 3.52750E+01 0.00000E+00
 -1       327 5.19600E+00 3.23250E+01 0.00000E+00
 -1       328 5.19600E+00 2.93750E+01 0.00000E+00
 -1       329 5.19600E+00 2.64250E+01 0.00000E+00
 -1       330 5.19600E+00 2.34750E+01 0.00000E+00
 -1       331 5.19600E+00 2.05250E+01 0.00000E+00
 -1       332 5.19600E+00 1.76250E+01 0.00000E+00
 -1       333 5.19600E+00 1.46750E+01 0.00000E+00
 -1       334 5.19600E+00 1.17250E+01 0.00000E+00
 -1       335 5.19600E+00 8.77500E+00 0.00000E+00
 -1       336 5.19600E+00 5.82500E+00 0.00000E+00
 -1       337 7.52667E+01 6.81800E+00 0.00000E+00
 -1       338 9.15000E+00 4.48040E+01 0.00000E+00
 -1       339 1.21500E+01 4.48040E+01 0.00000E+00
 -1       340 1.51500E+01 4.48040E+01 0.00000E+00
 -1       341 1.81500E+01 4.48040E+01 0.00000E+00
 -1       342 2.11500E+01 4.48040E+01 0.00000E+00
 -1       343 2.41500E+01 4.48040E+01 0.00000E+00
 -1       344 2.71500E+01 4.48040E+01 0.00000E+00
 -1       345 3.01500E+01 4.48040E+01 0.00000E+00
 -1       346 3.31500E+01 4.48040E+01 0.00000E+00
 -1       347 3.61500E+01 4.48040E+01 0.00000E+00
 -1       348 3.91500E+01 4.48040E+01 0.00000E+00
 -1       349 4.21500E+01 4.48040E+01 0.00000E+00
 -1       350 4.51500E+01 4.48040E+01 0.00000E+00
 -1       351 4.81500E+01 4.48040E+01 0.00000E+00
 -1       352 5.11500E+01 4.48040E+01 0.00000E+00
 -1       353 5.41500E+01 4.48040E+01 0.00000E+00
 -1       354 5.71500E+01 4.48040E+01 0.00000E+00
 -1       355 6.01500E+01 4.48040E+01 0.00000E+00
 -1       356 6.31500E+01 4.48040E+01 0.00000E+00
 -1       357 6.61500E+01 4.48040E+01 0.00000E+00
 -1       358 6.91500E+01 4.48040E+01 0.00000E+00
 -1       359 7.21500E+01 4.48040E+01 0.00000E+00
 -1       360 7.51500E+01 4.48040E+01 0.00000E+00
 -1       361 7.81500E+01 4.48040E+01 0.00000E+00
 -1       362 8.11500E+01 4.48040E+01 0.00000E+00
 -1       363 8.41500E+01 4.48040E+01 0.00000E+00
 -1       364 8.71500E+01 4.48040E+01 0.00000E+00
 -1       365 9.01500E+01 4.48040E+01 0.00000E+00
 -1       366 9.31500E+01 4.48040E+01 0.00000E+00
 -1       367 9.61500E+01 4.48040E+01 0.00000E+00
 -1       368 9.91500E+01 4.48040E+01 0.00000E+00
 -1       369 1.02150E+02 4.48040E+01 0.00000E+00
 -1       370 1.05150E+02 4.48040E+01 0.00000E+00
 -1       371 1.08150E+02 4.48040E+01 0.00000E+00
 -1       372 1.11150E+02 4.48040E+01 0.00000E+00
 -1       373 1.14150E+02 4.48040E+01 0.00000E+00
 -1       374 1.17150E+02 4.48040E+01 0.00000E+00
 -1       375 1.20150E+02 4.48040E+01 0.00000E+00
 -1       376 1.23150E+02 4.48040E+01 0.00000E+00
 -1       377 1.26150E+02 4.48040E+01 0.00000E+00
 -1       378 1.29150E+02 4.48040E+01 0.00000E+00
 -1       379 1.32150E+02 4.48040E+01 0.00000E+00
 -1       380 1.35150E+02 4.48040E+01 0.00000E+00
 -1       381 1.38150E+02 4.48040E+01 0.00000E+00
 -1       382 1.41150E+02 4.48040E+01 0.00000E+00
 -1       383 1.44150E+02 4.48040E+01 0.00000E+00
 -1       384 1.20000E+01 5.19600E+00 0.00000E+00
 -1       385 9.00000E+00 5.19600E+00 0.00000E+00
 -1       386 1.50000E+01 5.19600E+00 0.00000E+00
 -1       387 1.80000E+01 5.19600E+00 0.00000E+00
 -1       388 2.10000E+01 5.19600E+00 0.00000E+00
 -1       389 2.40000E+01 5.19600E+00 0.00000E+00
 -1       390 2.70000E+01 5.19600E+00 0.00000E+00
 -1       391 3.00000E+01 5.19600E+00 0.00000E+00
 -1       392 3.30000E+01 5.19600E+00 0.00000E+00
 -1       393 3.60000E+01 5.19600E+00 0.00000E+00
 -1       394 3.90000E+01 5.19600E+00 0.00000E+00
 -1       395 4.20000E+01 5.19600E+00 0.00000E+00
 -1       396 4.50000E+01 5.19600E+00 0.00000E+00
 -1       397 4.80000E+01 5.19600E+00 0.00000E+00
 -1       398 5.08500E+01 5.19600E+00 0.00000E+00
 -1       399 5.38500E+01 5.19600E+00 0.00000E+00
 -1       400 7.30500E+01 3.76536E+00 0.00000E+00
 -1       401 7.58250E+01 3.93293E+00 0.00000E+00
 -1       402 7.88250E+01 3.93293E+00 0.00000E+00
 -1       403 8.18250E+01 3.93293E+00 0.00000E+00
 -1       404 8.48250E+01 3.93293E+00 0.00000E+00
 -1       405 8.78250E+01 3.93293E+00 0.00000E+00
 -1       406 9.08250E+01 3.93293E+00 0.00000E+00
 -1       407 9.38250E+01 3.93293E+00 0.00000E+00
 -1       408 9.66750E+01 3.93293E+00 0.00000E+00
 -1       409 9.96750E+01 3.93293E+00 0.00000E+00
 -1       410 1.02675E+02 3.93293E+00 0.00000E+00
 -1       411 1.05675E+02 3.93293E+00 0.00000E+00
 -1       412 1.08675E+02 3.93293E+00 0.00000E+00
 -1       413 1.11675E+02 3.93293E+00 0.00000E+00
 -1       414 1.14675E+02 3.93293E+00 0.00000E+00
 -1       415 1.17675E+02 3.93293E+00 0.00000E+00
 -1       416 1.20675E+02 3.93293E+00 0.00000E+00
 -1       417 1.23675E+02 3.93293E+00 0.00000E+00
 -1       418 1.26675E+02 3.93293E+00 0.00000E+00
 -1       419 1.29675E+02 3.93293E+00 0.00000E+00
 -1       420 1.32675E+02 3.93293E+00 0.00000E+00
 -1       421 1.35675E+02 3.93293E+00 0.00000E+00
 -1       422 1.38675E+02 3.93293E+00 0.00000E+00
 -1       423 1.41675E+02 3.93293E+00 0.00000E+00
 -1       424 1.44675E+02 3.93293E+00 0.00000E+00
 -1       425 1.46363E+02 4.60774E+00 0.00000E+00
 -1       426 1.45452E+02 9.70755E+00 0.00000E+00
 -1       427 1.45907E+02 7.15765E+00 0.00000E+00
 -1       428 1.45452E+02 1.26576E+01 0.00000E+00
 -1       429 1.45452E+02 1.55576E+01 0.00000E+00
 -1       430 1.45452E+02 1.85076E+01 0.00000E+00
 -1       431 1.45452E+02 2.14576E+01 0.00000E+00
 -1       432 1.45452E+02 2.44076E+01 0.00000E+00
 -1       433 1.45452E+02 2.73576E+01 0.00000E+00
 -1       434 1.45452E+02 3.03076E+01 0.00000E+00
 -1       435 1.45452E+02 3.32076E+01 0.00000E+00
 -1       436 1.45452E+02 3.61576E+01 0.00000E+00
 -1       437 1.45452E+02 3.91076E+01 0.00000E+00
 -1       438 1.45452E+02 4.20576E+01 0.00000E+00
 -1       439 7.37701E+01 4.87716E+00 0.00000E+00
 -1       440 7.57699E+01 1.10678E+01 0.00000E+00
 -1       441 5.19600E+00 3.82125E+01 0.00000E+00
 -1       442 5.80067E+01 5.69142E+00 0.00000E+00
 -1       443 5.71906E+01 7.67358E+00 0.00000E+00
 -1       444 5.67671E+01 9.43883E+00 0.00000E+00
 -1       445 5.64306E+01 1.18186E+01 0.00000E+00
 -1       446 5.67852E+01 1.35724E+01 0.00000E+00
 -1       447 5.78137E+01 1.57443E+01 0.00000E+00
 -1       448 5.89661E+01 1.72480E+01 0.00000E+00
 -1       449 6.02983E+01 1.85990E+01 0.00000E+00
 -1       450 6.21950E+01 1.99575E+01 0.00000E+00
 -1       451 6.43387E+01 2.03708E+01 0.00000E+00
 -1       452 6.63871E+01 2.07548E+01 0.00000E+00
 -1       453 6.83490E+01 2.04124E+01 0.00000E+00
 -1       454 7.06613E+01 1.98783E+01 0.00000E+00
 -1       455 7.22265E+01 1.83497E+01 0.00000E+00
 -1       456 7.37693E+01 1.69417E+01 0.00000E+00
 -1       457 7.47419E+01 1.50369E+01 0.00000E+00
 -1       458 7.53378E+01 1.30378E+01 0.00000E+00
 -1       459 7.58052E+01 8.95296E+00 0.00000E+00
 -1       460 5.88332E+01 4.24407E+00 0.00000E+00
 -1       461 5.63756E+01 4.92215E+00 0.00000E+00
 -1       462 7.79400E+00 3.08500E+01 0.00000E+00
 -1       463 7.79400E+00 3.38000E+01 0.00000E+00
 -1       464 7.79400E+00 2.49500E+01 0.00000E+00
 -1       465 7.79400E+00 2.20000E+01 0.00000E+00
 -1       466 7.79400E+00 1.91000E+01 0.00000E+00
 -1       467 7.79400E+00 1.61500E+01 0.00000E+00
 -1       468 7.79400E+00 1.32000E+01 0.00000E+00
 -1       469 7.79400E+00 1.02500E+01 0.00000E+00
 -1       470 8.39700E+00 7.72300E+00 0.00000E+00
 -1       471 1.06500E+01 4.22060E+01 0.00000E+00
 -1       472 7.69553E+01 7.52752E+00 0.00000E+00
 -1       473 1.36500E+01 4.22060E+01 0.00000E+00
 -1       474 1.66500E+01 4.22060E+01 0.00000E+00
 -1       475 1.96500E+01 4.22060E+01 0.00000E+00
 -1       476 2.26500E+01 4.22060E+01 0.00000E+00
 -1       477 2.56500E+01 4.22060E+01 0.00000E+00
 -1       478 2.86500E+01 4.22060E+01 0.00000E+00
 -1       479 3.16500E+01 4.22060E+01 0.00000E+00
 -1       480 3.46500E+01 4.22060E+01 0.00000E+00
 -1       481 3.76500E+01 4.22060E+01 0.00000E+00
 -1       482 4.06500E+01 4.22060E+01 0.00000E+00
 -1       483 4.36500E+01 4.22060E+01 0.00000E+00
 -1       484 4.66500E+01 4.22060E+01 0.00000E+00
 -1       485 4.96500E+01 4.22060E+01 0.00000E+00
 -1       486 5.26500E+01 4.22060E+01 0.00000E+00
 -1       487 5.56500E+01 4.22060E+01 0.00000E+00
 -1       488 5.86500E+01 4.22060E+01 0.00000E+00
 -1       489 6.16500E+01 4.22060E+01 0.00000E+00
 -1       490 6.46500E+01 4.22060E+01 0.00000E+00
 -1       491 6.76500E+01 4.22060E+01 0.00000E+00
 -1       492 7.06500E+01 4.22060E+01 0.00000E+00
 -1       493 7.36500E+01 4.22060E+01 0.00000E+00
 -1       494 7.66500E+01 4.22060E+01 0.00000E+00
 -1       495 7.96500E+01 4.22060E+01 0.00000E+00
 -1       496 8.26500E+01 4.22060E+01 0.00000E+00
 -1       497 8.56500E+01 4.22060E+01 0.00000E+00
 -1       498 8.86500E+01 4.22060E+01 0.00000E+00
 -1       499 9.16500E+01 4.22060E+01 0.00000E+00
 -1       500 9.46500E+01 4.22060E+01 0.00000E+00
 -1       501 9.76500E+01 4.22060E+01 0.00000E+00
 -1       502 1.00650E+02 4.22060E+01 0.00000E+00
 -1       503 1.03650E+02 4.22060E+01 0.00000E+00
 -1       504 1.06650E+02 4.22060E+01 0.00000E+00
 -1       505 1.09650E+02 4.22060E+01 0.00000E+00
 -1       506 1.12650E+02 4.22060E+01 0.00000E+00
 -1       507 1.15650E+02 4.22060E+01 0.00000E+00
 -1       508 1.18650E+02 4.22060E+01 0.00000E+00
 -1       509 1.21650E+02 4.22060E+01 0.00000E+00
 -1       510 1.24650E+02 4.22060E+01 0.00000E+00
 -1       511 1.27650E+02 4.22060E+01 0.00000E+00
 -1       512 1.30650E+02 4.22060E+01 0.00000E+00
 -1       513 1.33650E+02 4.22060E+01 0.00000E+00
 -1       514 1.36650E+02 4.22060E+01 0.00000E+00
 -1       515 1.39650E+02 4.22060E+01 0.00000E+00
 -1       516 1.42551E+02 4.21318E+01 0.00000E+00
 -1       517 1.65000E+01 7.79400E+00 0.00000E+00
 -1       518 1.95000E+01 7.79400E+00 0.00000E+00
 -1       519 2.25000E+01 7.79400E+00 0.00000E+00
 -1       520 2.55000E+01 7.79400E+00 0.00000E+00
 -1       521 2.85000E+01 7.79400E+00 0.00000E+00
 -1       522 3.15000E+01 7.79400E+00 0.00000E+00
 -1       523 3.45000E+01 7.79400E+00 0.00000E+00
 -1       524 3.75000E+01 7.79400E+00 0.00000E+00
 -1       525 4.05000E+01 7.79400E+00 0.00000E+00
 -1       526 4.35000E+01 7.79400E+00 0.00000E+00
 -1       527 4.65000E+01 7.79400E+00 0.00000E+00
 -1       528 4.93500E+01 7.79400E+00 0.00000E+00
 -1       529 5.23500E+01 7.79400E+00 0.00000E+00
 -1       530 5.49836E+01 1.04003E+01 0.00000E+00
 -1       531 8.63250E+01 6.53093E+00 0.00000E+00
 -1       532 8.93250E+01 6.53093E+00 0.00000E+00
 -1       533 9.23250E+01 6.53093E+00 0.00000E+00
 -1       534 9.51750E+01 6.53093E+00 0.00000E+00
 -1       535 9.81750E+01 6.53093E+00 0.00000E+00
 -1       536 1.01175E+02 6.53093E+00 0.00000E+00
 -1       537 1.04175E+02 6.53093E+00 0.00000E+00
 -1       538 1.07175E+02 6.53093E+00 0.00000E+00
 -1       539 1.10175E+02 6.53093E+00 0.00000E+00
 -1       540 1.13175E+02 6.53093E+00 0.00000E+00
 -1       541 1.16175E+02 6.53093E+00 0.00000E+00
 -1       542 1.19175E+02 6.53093E+00 0.00000E+00
 -1       543 1.22175E+02 6.53093E+00 0.00000E+00
 -1       544 1.25175E+02 6.53093E+00 0.00000E+00
 -1       545 1.28175E+02 6.53093E+00 0.00000E+00
 -1       546 1.31175E+02 6.53093E+00 0.00000E+00
 -1       547 1.34175E+02 6.53093E+00 0.00000E+00
 -1       548 1.37175E+02 6.53093E+00 0.00000E+00
 -1       549 1.40175E+02 6.53093E+00 0.00000E+00
 -1       550 1.44220E+02 6.48284E+00 0.00000E+00
 -1       551 1.42854E+02 1.41076E+01 0.00000E+00
 -1       552 1.42854E+02 1.70576E+01 0.00000E+00
 -1       553 1.42854E+02 1.11576E+01 0.00000E+00
 -1       554 1.42854E+02 2.00076E+01 0.00000E+00
 -1       555 1.42854E+02 2.29576E+01 0.00000E+00
 -1       556 1.42854E+02 2.59076E+01 0.00000E+00
 -1       557 1.42854E+02 2.88576E+01 0.00000E+00
 -1       558 1.42854E+02 3.17576E+01 0.00000E+00
 -1       559 1.42854E+02 3.47076E+01 0.00000E+00
 -1       560 1.42854E+02 3.76576E+01 0.00000E+00
 -1       561 1.42702E+02 3.98947E+01 0.00000E+00
 -1       562 6.98911E+01 2.18165E+01 0.00000E+00
 -1       563 8.33250E+01 6.53093E+00 0.00000E+00
 -1       564 8.03250E+01 6.53093E+00 0.00000E+00
 -1       565 7.25252E+01 2.02212E+01 0.00000E+00
 -1       566 1.13970E+01 7.72300E+00 0.00000E+00
 -1       567 7.79400E+00 2.79000E+01 0.00000E+00
 -1       568 1.39485E+01 7.75850E+00 0.00000E+00
 -1       569 5.55594E+01 6.90430E+00 0.00000E+00
 -1       570 7.71473E+01 1.24023E+01 0.00000E+00
 -1       571 5.68956E+01 1.76413E+01 0.00000E+00
 -1       572 5.52715E+01 8.65229E+00 0.00000E+00
 -1       573 7.92300E+00 4.16780E+01 0.00000E+00
 -1       574 5.47626E+01 1.30687E+01 0.00000E+00
 -1       575 5.82278E+01 1.89924E+01 0.00000E+00
 -1       576 6.03943E+01 2.04683E+01 0.00000E+00
 -1       577 6.29422E+01 2.18482E+01 0.00000E+00
 -1       578 7.65229E+01 1.44794E+01 0.00000E+00
 -1       579 6.76486E+01 2.21906E+01 0.00000E+00
 -1       580 7.40680E+01 1.88131E+01 0.00000E+00
 -1       581 7.57085E+01 1.67312E+01 0.00000E+00
 -1       582 6.49906E+01 2.22323E+01 0.00000E+00
 -1       583 7.75024E+01 1.00389E+01 0.00000E+00
 -1       584 5.57494E+01 1.53924E+01 0.00000E+00
 -1       585 7.79400E+00 3.67375E+01 0.00000E+00
 -1       586 7.67430E+01 5.66881E+00 0.00000E+00
 -1       587 6.11415E+01 2.23590E+01 0.00000E+00
 -1       588 1.43537E+02 8.82020E+00 0.00000E+00
 -1       589 7.17550E+01 2.21593E+01 0.00000E+00
 -1       590 1.03920E+01 2.05500E+01 0.00000E+00
 -1       591 1.03920E+01 2.35000E+01 0.00000E+00
 -1       592 1.03920E+01 1.46750E+01 0.00000E+00
 -1       593 1.03920E+01 1.17250E+01 0.00000E+00
 -1       594 1.08945E+01 9.72400E+00 0.00000E+00
 -1       595 9.08250E+01 9.12893E+00 0.00000E+00
 -1       596 9.36750E+01 9.12893E+00 0.00000E+00
 -1       597 7.90684E+01 8.38246E+00 0.00000E+00
 -1       598 1.21500E+01 3.96080E+01 0.00000E+00
 -1       599 1.51500E+01 3.96080E+01 0.00000E+00
 -1       600 1.81500E+01 3.96080E+01 0.00000E+00
 -1       601 2.11500E+01 3.96080E+01 0.00000E+00
 -1       602 2.41500E+01 3.96080E+01 0.00000E+00
 -1       603 2.71500E+01 3.96080E+01 0.00000E+00
 -1       604 3.01500E+01 3.96080E+01 0.00000E+00
 -1       605 3.31500E+01 3.96080E+01 0.00000E+00
 -1       606 3.61500E+01 3.96080E+01 0.00000E+00
 -1       607 3.91500E+01 3.96080E+01 0.00000E+00
 -1       608 4.21500E+01 3.96080E+01 0.00000E+00
 -1       609 4.51500E+01 3.96080E+01 0.00000E+00
 -1       610 4.81500E+01 3.96080E+01 0.00000E+00
 -1       611 5.11500E+01 3.96080E+01 0.00000E+00
 -1       612 5.41500E+01 3.96080E+01 0.00000E+00
 -1       613 5.71500E+01 3.96080E+01 0.00000E+00
 -1       614 6.01500E+01 3.96080E+01 0.00000E+00
 -1       615 6.31500E+01 3.96080E+01 0.00000E+00
 -1       616 6.61500E+01 3.96080E+01 0.00000E+00
 -1       617 6.91500E+01 3.96080E+01 0.00000E+00
 -1       618 7.21500E+01 3.96080E+01 0.00000E+00
 -1       619 7.51500E+01 3.96080E+01 0.00000E+00
 -1       620 7.81500E+01 3.96080E+01 0.00000E+00
 -1       621 8.11500E+01 3.96080E+01 0.00000E+00
 -1       622 8.41500E+01 3.96080E+01 0.00000E+00
 -1       623 8.71500E+01 3.96080E+01 0.00000E+00
 -1       624 9.01500E+01 3.96080E+01 0.00000E+00
 -1       625 9.31500E+01 3.96080E+01 0.00000E+00
 -1       626 9.61500E+01 3.96080E+01 0.00000E+00
 -1       627 9.91500E+01 3.96080E+01 0.00000E+00
 -1       628 1.02150E+02 3.96080E+01 0.00000E+00
 -1       629 1.05150E+02 3.96080E+01 0.00000E+00
 -1       630 1.08150E+02 3.96080E+01 0.00000E+00
 -1       631 1.11150E+02 3.96080E+01 0.00000E+00
 -1       632 1.14150E+02 3.96080E+01 0.00000E+00
 -1       633 1.17150E+02 3.96080E+01 0.00000E+00
 -1       634 1.20150E+02 3.96080E+01 0.00000E+00
 -1       635 1.23150E+02 3.96080E+01 0.00000E+00
 -1       636 1.26150E+02 3.96080E+01 0.00000E+00
 -1       637 1.29150E+02 3.96080E+01 0.00000E+00
 -1       638 1.32150E+02 3.96080E+01 0.00000E+00
 -1       639 1.35150E+02 3.96080E+01 0.00000E+00
 -1       640 1.38150E+02 3.96080E+01 0.00000E+00
 -1       641 1.40426E+02 3.97513E+01 0.00000E+00
 -1       642 2.40000E+01 1.03920E+01 0.00000E+00
 -1       643 1.80000E+01 1.03920E+01 0.00000E+00
 -1       644 2.70000E+01 1.03920E+01 0.00000E+00
 -1       645 3.00000E+01 1.03920E+01 0.00000E+00
 -1       646 3.30000E+01 1.03920E+01 0.00000E+00
 -1       647 3.60000E+01 1.03920E+01 0.00000E+00
 -1       648 3.90000E+01 1.03920E+01 0.00000E+00
 -1       649 4.20000E+01 1.03920E+01 0.00000E+00
 -1       650 4.50000E+01 1.03920E+01 0.00000E+00
 -1       651 4.78500E+01 1.03920E+01 0.00000E+00
 -1       652 5.08500E+01 1.03920E+01 0.00000E+00
 -1       653 7.62354E+01 1.88336E+01 0.00000E+00
 -1       654 8.78250E+01 9.12893E+00 0.00000E+00
 -1       655 9.66750E+01 9.12893E+00 0.00000E+00
 -1       656 9.96750E+01 9.12893E+00 0.00000E+00
 -1       657 1.02675E+02 9.12893E+00 0.00000E+00
 -1       658 1.05675E+02 9.12893E+00 0.00000E+00
 -1       659 1.08675E+02 9.12893E+00 0.00000E+00
 -1       660 1.11675E+02 9.12893E+00 0.00000E+00
 -1       661 1.14675E+02 9.12893E+00 0.00000E+00
 -1       662 1.17675E+02 9.12893E+00 0.00000E+00
 -1       663 1.20675E+02 9.12893E+00 0.00000E+00
 -1       664 1.23675E+02 9.12893E+00 0.00000E+00
 -1       665 1.26675E+02 9.12893E+00 0.00000E+00
 -1       666 1.29675E+02 9.12893E+00 0.00000E+00
 -1       667 1.32675E+02 9.12893E+00 0.00000E+00
 -1       668 1.35675E+02 9.12893E+00 0.00000E+00
 -1       669 1.38675E+02 9.12893E+00 0.00000E+00
 -1       670 1.40256E+02 1.55826E+01 0.00000E+00
 -1       671 1.40256E+02 1.26326E+01 0.00000E+00
 -1       672 1.40256E+02 1.85326E+01 0.00000E+00
 -1       673 1.40256E+02 2.44326E+01 0.00000E+00
 -1       674 1.40256E+02 2.73826E+01 0.00000E+00
 -1       675 1.40256E+02 3.02826E+01 0.00000E+00
 -1       676 1.40256E+02 3.32326E+01 0.00000E+00
 -1       677 1.40256E+02 3.61826E+01 0.00000E+00
 -1       678 8.48250E+01 9.12893E+00 0.00000E+00
 -1       679 8.18250E+01 9.12893E+00 0.00000E+00
 -1       680 5.44958E+01 1.74478E+01 0.00000E+00
 -1       681 1.40256E+02 2.14826E+01 0.00000E+00
 -1       682 1.03920E+01 1.76125E+01 0.00000E+00
 -1       683 5.82511E+01 2.12863E+01 0.00000E+00
 -1       684 6.63465E+01 2.39264E+01 0.00000E+00
 -1       685 5.62211E+01 1.96387E+01 0.00000E+00
 -1       686 1.03920E+01 3.23250E+01 0.00000E+00
 -1       687 2.10000E+01 1.03920E+01 0.00000E+00
 -1       688 7.78861E+01 1.62456E+01 0.00000E+00
 -1       689 5.29968E+01 1.15791E+01 0.00000E+00
 -1       690 5.33688E+01 1.50319E+01 0.00000E+00
 -1       691 7.90209E+01 1.14755E+01 0.00000E+00
 -1       692 7.44528E+01 2.07840E+01 0.00000E+00
 -1       693 6.36195E+01 2.38907E+01 0.00000E+00
 -1       694 6.91072E+01 2.40259E+01 0.00000E+00
 -1       695 7.84776E+01 1.39346E+01 0.00000E+00
 -1       696 1.03920E+01 3.52625E+01 0.00000E+00
 -1       697 1.03920E+01 2.64500E+01 0.00000E+00
 -1       698 1.34460E+01 9.75950E+00 0.00000E+00
 -1       699 1.03920E+01 2.93875E+01 0.00000E+00
 -1       700 6.18188E+01 2.44015E+01 0.00000E+00
 -1       701 9.78035E+00 3.93914E+01 0.00000E+00
 -1       702 5.48756E+01 7.52015E+00 0.00000E+00
 -1       703 1.40764E+02 1.01432E+01 0.00000E+00
 -1       704 7.09711E+01 2.43687E+01 0.00000E+00
 -1       705 7.36826E+01 2.27221E+01 0.00000E+00
 -1       706 5.16031E+01 1.35423E+01 0.00000E+00
 -1       707 5.89982E+01 2.31770E+01 0.00000E+00
 -1       708 1.57230E+01 1.00758E+01 0.00000E+00
 -1       709 1.29435E+01 1.17605E+01 0.00000E+00
 -1       710 9.81750E+01 1.17269E+01 0.00000E+00
 -1       711 9.22500E+01 1.17269E+01 0.00000E+00
 -1       712 8.01681E+01 1.55984E+01 0.00000E+00
 -1       713 1.66500E+01 3.70100E+01 0.00000E+00
 -1       714 1.96500E+01 3.70100E+01 0.00000E+00
 -1       715 2.26500E+01 3.70100E+01 0.00000E+00
 -1       716 2.56500E+01 3.70100E+01 0.00000E+00
 -1       717 2.86500E+01 3.70100E+01 0.00000E+00
 -1       718 3.16500E+01 3.70100E+01 0.00000E+00
 -1       719 3.46500E+01 3.70100E+01 0.00000E+00
 -1       720 3.76500E+01 3.70100E+01 0.00000E+00
 -1       721 4.06500E+01 3.70100E+01 0.00000E+00
 -1       722 4.36500E+01 3.70100E+01 0.00000E+00
 -1       723 4.66500E+01 3.70100E+01 0.00000E+00
 -1       724 4.96500E+01 3.70100E+01 0.00000E+00
 -1       725 5.26500E+01 3.70100E+01 0.00000E+00
 -1       726 5.56500E+01 3.70100E+01 0.00000E+00
 -1       727 5.86500E+01 3.70100E+01 0.00000E+00
 -1       728 6.16500E+01 3.70100E+01 0.00000E+00
 -1       729 6.46500E+01 3.70100E+01 0.00000E+00
 -1       730 6.76500E+01 3.70100E+01 0.00000E+00
 -1       731 7.06500E+01 3.70100E+01 0.00000E+00
 -1       732 7.36500E+01 3.70100E+01 0.00000E+00
 -1       733 7.66500E+01 3.70100E+01 0.00000E+00
 -1       734 7.96500E+01 3.70100E+01 0.00000E+00
 -1       735 8.26500E+01 3.70100E+01 0.00000E+00
 -1       736 8.56500E+01 3.70100E+01 0.00000E+00
 -1       737 8.86500E+01 3.70100E+01 0.00000E+00
 -1       738 9.16500E+01 3.70100E+01 0.00000E+00
 -1       739 9.46500E+01 3.70100E+01 0.00000E+00
 -1       740 9.76500E+01 3.70100E+01 0.00000E+00
 -1       741 1.00650E+02 3.70100E+01 0.00000E+00
 -1       742 1.03650E+02 3.70100E+01 0.00000E+00
 -1       743 1.06650E+02 3.70100E+01 0.00000E+00
 -1       744 1.09650E+02 3.70100E+01 0.00000E+00
 -1       745 1.12650E+02 3.70100E+01 0.00000E+00
 -1       746 1.15650E+02 3.70100E+01 0.00000E+00
 -1       747 1.18650E+02 3.70100E+01 0.00000E+00
 -1       748 1.21650E+02 3.70100E+01 0.00000E+00
 -1       749 1.24650E+02 3.70100E+01 0.00000E+00
 -1       750 1.27650E+02 3.70100E+01 0.00000E+00
 -1       751 1.30650E+02 3.70100E+01 0.00000E+00
 -1       752 1.33650E+02 3.70100E+01 0.00000E+00
 -1       753 1.36650E+02 3.70100E+01 0.00000E+00
 -1       754 2.55000E+01 1.29900E+01 0.00000E+00
 -1       755 3.45000E+01 1.29900E+01 0.00000E+00
 -1       756 3.75000E+01 1.29900E+01 0.00000E+00
 -1       757 4.05000E+01 1.29900E+01 0.00000E+00
 -1       758 4.35000E+01 1.29900E+01 0.00000E+00
 -1       759 4.63500E+01 1.29900E+01 0.00000E+00
 -1       760 4.96734E+01 1.22845E+01 0.00000E+00
 -1       761 5.56273E+01 2.24448E+01 0.00000E+00
 -1       762 1.38167E+02 1.16182E+01 0.00000E+00
 -1       763 2.25000E+01 1.29900E+01 0.00000E+00
 -1       764 1.01175E+02 1.17269E+01 0.00000E+00
 -1       765 1.04175E+02 1.17269E+01 0.00000E+00
 -1       766 1.07175E+02 1.17269E+01 0.00000E+00
 -1       767 1.10175E+02 1.17269E+01 0.00000E+00
 -1       768 1.13175E+02 1.17269E+01 0.00000E+00
 -1       769 1.16175E+02 1.17269E+01 0.00000E+00
 -1       770 1.19175E+02 1.17269E+01 0.00000E+00
 -1       771 1.22175E+02 1.17269E+01 0.00000E+00
 -1       772 1.25175E+02 1.17269E+01 0.00000E+00
 -1       773 1.28175E+02 1.17269E+01 0.00000E+00
 -1       774 1.31175E+02 1.17269E+01 0.00000E+00
 -1       775 1.34175E+02 1.17269E+01 0.00000E+00
 -1       776 1.37658E+02 3.17576E+01 0.00000E+00
 -1       777 8.07114E+01 1.31393E+01 0.00000E+00
 -1       778 1.38167E+02 1.45682E+01 0.00000E+00
 -1       779 1.37658E+02 2.88576E+01 0.00000E+00
 -1       780 1.37658E+02 2.59076E+01 0.00000E+00
 -1       781 1.37154E+02 3.43838E+01 0.00000E+00
 -1       782 1.12017E+01 3.69125E+01 0.00000E+00
 -1       783 8.63250E+01 1.17269E+01 0.00000E+00
 -1       784 8.33250E+01 1.17269E+01 0.00000E+00
 -1       785 2.85000E+01 1.29900E+01 0.00000E+00
 -1       786 7.94403E+01 9.51127E+00 0.00000E+00
 -1       787 9.52125E+01 1.17269E+01 0.00000E+00
 -1       788 8.92875E+01 1.17269E+01 0.00000E+00
 -1       789 3.15000E+01 1.29900E+01 0.00000E+00
 -1       790 1.39258E+01 3.69612E+01 0.00000E+00
 -1       791 1.29900E+01 2.20250E+01 0.00000E+00
 -1       792 5.20743E+01 1.71066E+01 0.00000E+00
 -1       793 1.38167E+02 1.75182E+01 0.00000E+00
 -1       794 7.86481E+01 1.85521E+01 0.00000E+00
 -1       795 7.69811E+01 2.13051E+01 0.00000E+00
 -1       796 5.36161E+01 1.99154E+01 0.00000E+00
 -1       797 6.49540E+01 2.61262E+01 0.00000E+00
 -1       798 1.95000E+01 1.29900E+01 0.00000E+00
 -1       799 6.77147E+01 2.62257E+01 0.00000E+00
 -1       800 1.29900E+01 2.49750E+01 0.00000E+00
 -1       801 6.95786E+01 2.65685E+01 0.00000E+00
 -1       802 6.31533E+01 2.66369E+01 0.00000E+00
 -1       803 7.28987E+01 2.49315E+01 0.00000E+00
 -1       804 8.12357E+01 1.09215E+01 0.00000E+00
 -1       805 1.37658E+02 2.29576E+01 0.00000E+00
 -1       806 1.29900E+01 3.37938E+01 0.00000E+00
 -1       807 1.29900E+01 1.90875E+01 0.00000E+00
 -1       808 1.29900E+01 1.61500E+01 0.00000E+00
 -1       809 7.62109E+01 2.32432E+01 0.00000E+00
 -1       810 5.03085E+01 1.56170E+01 0.00000E+00
 -1       811 1.29900E+01 3.08563E+01 0.00000E+00
 -1       812 1.37912E+02 2.02379E+01 0.00000E+00
 -1       813 1.65001E+01 1.29900E+01 0.00000E+00
 -1       814 1.02675E+02 1.43249E+01 0.00000E+00
 -1       815 1.29900E+01 2.79188E+01 0.00000E+00
 -1       816 9.96750E+01 1.43249E+01 0.00000E+00
 -1       817 2.11500E+01 3.44120E+01 0.00000E+00
 -1       818 2.41500E+01 3.44120E+01 0.00000E+00
 -1       819 2.71500E+01 3.44120E+01 0.00000E+00
 -1       820 3.01500E+01 3.44120E+01 0.00000E+00
 -1       821 3.31500E+01 3.44120E+01 0.00000E+00
 -1       822 3.61500E+01 3.44120E+01 0.00000E+00
 -1       823 3.91500E+01 3.44120E+01 0.00000E+00
 -1       824 4.21500E+01 3.44120E+01 0.00000E+00
 -1       825 4.51500E+01 3.44120E+01 0.00000E+00
 -1       826 4.81500E+01 3.44120E+01 0.00000E+00
 -1       827 5.11500E+01 3.44120E+01 0.00000E+00
 -1       828 5.41500E+01 3.44120E+01 0.00000E+00
 -1       829 5.71500E+01 3.44120E+01 0.00000E+00
 -1       830 6.01500E+01 3.44120E+01 0.00000E+00
 -1       831 6.31500E+01 3.44120E+01 0.00000E+00
 -1       832 6.61500E+01 3.44120E+01 0.00000E+00
 -1       833 6.91500E+01 3.44120E+01 0.00000E+00
 -1       834 7.21500E+01 3.44120E+01 0.00000E+00
 -1       835 7.51500E+01 3.44120E+01 0.00000E+00
 -1       836 7.81500E+01 3.44120E+01 0.00000E+00
 -1       837 8.11500E+01 3.44120E+01 0.00000E+00
 -1       838 8.41500E+01 3.44120E+01 0.00000E+00
 -1       839 8.71500E+01 3.44120E+01 0.00000E+00
 -1       840 9.01500E+01 3.44120E+01 0.00000E+00
 -1       841 9.31500E+01 3.44120E+01 0.00000E+00
 -1       842 9.61500E+01 3.44120E+01 0.00000E+00
 -1       843 9.91500E+01 3.44120E+01 0.00000E+00
 -1       844 1.02150E+02 3.44120E+01 0.00000E+00
 -1       845 1.05150E+02 3.44120E+01 0.00000E+00
 -1       846 1.08150E+02 3.44120E+01 0.00000E+00
 -1       847 1.11150E+02 3.44120E+01 0.00000E+00
 -1       848 1.14150E+02 3.44120E+01 0.00000E+00
 -1       849 1.17150E+02 3.44120E+01 0.00000E+00
 -1       850 1.20150E+02 3.44120E+01 0.00000E+00
 -1       851 1.23150E+02 3.44120E+01 0.00000E+00
 -1       852 1.26150E+02 3.44120E+01 0.00000E+00
 -1       853 1.29150E+02 3.44120E+01 0.00000E+00
 -1       854 1.32150E+02 3.44120E+01 0.00000E+00
 -1       855 1.34652E+02 3.43979E+01 0.00000E+00
 -1       856 4.20000E+01 1.55880E+01 0.00000E+00
 -1       857 3.90000E+01 1.55880E+01 0.00000E+00
 -1       858 5.67613E+01 2.53497E+01 0.00000E+00
 -1       859 3.60000E+01 1.55880E+01 0.00000E+00
 -1       860 4.48500E+01 1.55880E+01 0.00000E+00
 -1       861 4.82266E+01 1.45652E+01 0.00000E+00
 -1       862 2.10000E+01 1.55880E+01 0.00000E+00
 -1       863 8.48250E+01 1.42799E+01 0.00000E+00
 -1       864 2.40000E+01 1.55880E+01 0.00000E+00
 -1       865 1.05675E+02 1.43249E+01 0.00000E+00
 -1       866 1.08675E+02 1.43249E+01 0.00000E+00
 -1       867 1.11675E+02 1.43249E+01 0.00000E+00
 -1       868 1.14675E+02 1.43249E+01 0.00000E+00
 -1       869 1.17675E+02 1.43249E+01 0.00000E+00
 -1       870 1.20675E+02 1.43249E+01 0.00000E+00
 -1       871 1.23675E+02 1.43249E+01 0.00000E+00
 -1       872 1.26675E+02 1.43249E+01 0.00000E+00
 -1       873 1.29675E+02 1.43249E+01 0.00000E+00
 -1       874 1.32675E+02 1.43249E+01 0.00000E+00
 -1       875 7.95684E+01 2.09905E+01 0.00000E+00
 -1       876 8.22781E+01 1.47751E+01 0.00000E+00
 -1       877 1.35060E+02 3.03076E+01 0.00000E+00
 -1       878 1.35060E+02 2.73576E+01 0.00000E+00
 -1       879 3.30000E+01 1.55880E+01 0.00000E+00
 -1       880 2.70000E+01 1.55880E+01 0.00000E+00
 -1       881 8.12311E+01 1.80134E+01 0.00000E+00
 -1       882 3.00000E+01 1.55880E+01 0.00000E+00
 -1       883 5.95819E+01 2.65742E+01 0.00000E+00
 -1       884 1.34579E+01 3.53775E+01 0.00000E+00
 -1       885 5.26235E+01 2.27690E+01 0.00000E+00
 -1       886 6.62424E+01 2.87272E+01 0.00000E+00
 -1       887 1.80001E+01 1.55880E+01 0.00000E+00
 -1       888 1.81500E+01 3.44120E+01 0.00000E+00
 -1       889 5.05677E+01 1.97611E+01 0.00000E+00
 -1       890 1.35421E+02 1.59216E+01 0.00000E+00
 -1       891 9.07688E+01 1.43249E+01 0.00000E+00
 -1       892 7.15062E+01 2.71313E+01 0.00000E+00
 -1       893 6.44417E+01 2.92380E+01 0.00000E+00
 -1       894 7.54271E+01 2.54526E+01 0.00000E+00
 -1       895 5.37575E+01 2.56740E+01 0.00000E+00
 -1       896 8.77969E+01 1.43024E+01 0.00000E+00
 -1       897 1.58040E+01 3.48947E+01 0.00000E+00
 -1       898 1.35060E+02 2.44076E+01 0.00000E+00
 -1       899 1.34856E+02 3.23527E+01 0.00000E+00
 -1       900 7.87982E+01 2.29286E+01 0.00000E+00
 -1       901 1.35167E+02 1.86412E+01 0.00000E+00
 -1       902 4.88020E+01 1.82715E+01 0.00000E+00
 -1       903 9.67125E+01 1.43249E+01 0.00000E+00
 -1       904 9.37312E+01 1.43249E+01 0.00000E+00
 -1       905 1.53360E+01 3.33110E+01 0.00000E+00
 -1       906 1.55880E+01 2.05562E+01 0.00000E+00
 -1       907 6.81063E+01 2.90701E+01 0.00000E+00
 -1       908 1.55880E+01 2.35063E+01 0.00000E+00
 -1       909 1.67940E+01 1.80721E+01 0.00000E+00
 -1       910 1.07175E+02 1.69229E+01 0.00000E+00
 -1       911 1.55880E+01 2.93875E+01 0.00000E+00
 -1       912 1.01175E+02 1.69229E+01 0.00000E+00
 -1       913 2.26500E+01 3.18140E+01 0.00000E+00
 -1       914 2.56500E+01 3.18140E+01 0.00000E+00
 -1       915 2.86500E+01 3.18140E+01 0.00000E+00
 -1       916 3.16500E+01 3.18140E+01 0.00000E+00
 -1       917 3.46500E+01 3.18140E+01 0.00000E+00
 -1       918 3.76500E+01 3.18140E+01 0.00000E+00
 -1       919 4.06500E+01 3.18140E+01 0.00000E+00
 -1       920 4.36500E+01 3.18140E+01 0.00000E+00
 -1       921 4.66500E+01 3.18140E+01 0.00000E+00
 -1       922 4.96500E+01 3.18140E+01 0.00000E+00
 -1       923 5.26500E+01 3.18140E+01 0.00000E+00
 -1       924 5.56500E+01 3.18140E+01 0.00000E+00
 -1       925 5.86500E+01 3.18140E+01 0.00000E+00
 -1       926 6.16500E+01 3.18140E+01 0.00000E+00
 -1       927 6.76500E+01 3.18140E+01 0.00000E+00
 -1       928 7.06500E+01 3.18140E+01 0.00000E+00
 -1       929 7.36500E+01 3.18140E+01 0.00000E+00
 -1       930 7.66500E+01 3.18140E+01 0.00000E+00
 -1       931 7.96500E+01 3.18140E+01 0.00000E+00
 -1       932 8.26500E+01 3.18140E+01 0.00000E+00
 -1       933 8.56500E+01 3.18140E+01 0.00000E+00
 -1       934 8.86500E+01 3.18140E+01 0.00000E+00
 -1       935 9.16500E+01 3.18140E+01 0.00000E+00
 -1       936 9.46500E+01 3.18140E+01 0.00000E+00
 -1       937 9.76500E+01 3.18140E+01 0.00000E+00
 -1       938 1.00650E+02 3.18140E+01 0.00000E+00
 -1       939 1.03650E+02 3.18140E+01 0.00000E+00
 -1       940 1.06650E+02 3.18140E+01 0.00000E+00
 -1       941 1.09650E+02 3.18140E+01 0.00000E+00
 -1       942 1.12650E+02 3.18140E+01 0.00000E+00
 -1       943 1.15650E+02 3.18140E+01 0.00000E+00
 -1       944 1.18650E+02 3.18140E+01 0.00000E+00
 -1       945 1.21650E+02 3.18140E+01 0.00000E+00
 -1       946 1.24650E+02 3.18140E+01 0.00000E+00
 -1       947 1.27650E+02 3.18140E+01 0.00000E+00
 -1       948 1.30650E+02 3.18140E+01 0.00000E+00
 -1       949 4.05000E+01 1.81860E+01 0.00000E+00
 -1       950 4.33500E+01 1.81860E+01 0.00000E+00
 -1       951 2.55000E+01 1.81860E+01 0.00000E+00
 -1       952 1.04175E+02 1.69229E+01 0.00000E+00
 -1       953 1.32462E+02 2.88326E+01 0.00000E+00
 -1       954 2.25000E+01 1.81860E+01 0.00000E+00
 -1       955 1.10175E+02 1.69229E+01 0.00000E+00
 -1       956 1.13175E+02 1.69229E+01 0.00000E+00
 -1       957 1.16175E+02 1.69229E+01 0.00000E+00
 -1       958 1.19175E+02 1.69229E+01 0.00000E+00
 -1       959 1.22175E+02 1.69229E+01 0.00000E+00
 -1       960 1.25175E+02 1.69229E+01 0.00000E+00
 -1       961 1.28175E+02 1.69229E+01 0.00000E+00
 -1       962 1.31175E+02 1.69229E+01 0.00000E+00
 -1       963 8.40243E+01 1.71281E+01 0.00000E+00
 -1       964 5.71549E+01 2.83037E+01 0.00000E+00
 -1       965 3.45000E+01 1.81860E+01 0.00000E+00
 -1       966 1.96470E+01 1.81291E+01 0.00000E+00
 -1       967 1.35113E+02 2.15244E+01 0.00000E+00
 -1       968 1.96500E+01 3.18140E+01 0.00000E+00
 -1       969 1.55880E+01 2.64469E+01 0.00000E+00
 -1       970 4.94507E+01 2.27310E+01 0.00000E+00
 -1       971 6.08703E+01 2.91752E+01 0.00000E+00
 -1       972 8.26287E+01 2.07468E+01 0.00000E+00
 -1       973 3.75000E+01 1.81860E+01 0.00000E+00
 -1       974 1.33171E+02 1.77821E+01 0.00000E+00
 -1       975 1.32462E+02 2.58826E+01 0.00000E+00
 -1       976 9.82125E+01 1.69229E+01 0.00000E+00
 -1       977 6.60510E+01 3.14820E+01 0.00000E+00
 -1       978 7.80143E+01 2.51380E+01 0.00000E+00
 -1       979 8.92631E+01 1.69116E+01 0.00000E+00
 -1       980 1.32753E+02 3.20834E+01 0.00000E+00
 -1       981 2.85000E+01 1.81860E+01 0.00000E+00
 -1       982 3.15000E+01 1.81860E+01 0.00000E+00
 -1       983 8.18584E+01 2.26850E+01 0.00000E+00
 -1       984 4.76849E+01 2.12414E+01 0.00000E+00
 -1       985 5.05847E+01 2.56359E+01 0.00000E+00
 -1       986 1.84410E+01 2.06132E+01 0.00000E+00
 -1       987 8.66437E+01 1.70198E+01 0.00000E+00
 -1       988 7.40346E+01 2.76524E+01 0.00000E+00
 -1       989 1.74930E+01 3.25625E+01 0.00000E+00
 -1       990 9.22256E+01 1.69116E+01 0.00000E+00
 -1       991 6.98739E+01 2.91397E+01 0.00000E+00
 -1       992 5.38660E+01 2.90433E+01 0.00000E+00
 -1       993 2.71500E+01 2.92160E+01 0.00000E+00
 -1       994 3.01500E+01 2.92160E+01 0.00000E+00
 -1       995 3.31500E+01 2.92160E+01 0.00000E+00
 -1       996 3.61500E+01 2.92160E+01 0.00000E+00
 -1       997 3.91500E+01 2.92160E+01 0.00000E+00
 -1       998 4.21500E+01 2.92160E+01 0.00000E+00
 -1       999 4.51500E+01 2.92160E+01 0.00000E+00
 -1      1000 4.81500E+01 2.92160E+01 0.00000E+00
 -1      1001 7.51500E+01 2.92160E+01 0.00000E+00
 -1      1002 7.81500E+01 2.92160E+01 0.00000E+00
 -1      1003 8.11500E+01 2.92160E+01 0.00000E+00
 -1      1004 8.41500E+01 2.92160E+01 0.00000E+00
 -1      1005 8.71500E+01 2.92160E+01 0.00000E+00
 -1      1006 9.01500E+01 2.92160E+01 0.00000E+00
 -1      1007 9.31500E+01 2.92160E+01 0.00000E+00
 -1      1008 9.61500E+01 2.92160E+01 0.00000E+00
 -1      1009 9.91500E+01 2.92160E+01 0.00000E+00
 -1      1010 1.02150E+02 2.92160E+01 0.00000E+00
 -1      1011 1.05150E+02 2.92160E+01 0.00000E+00
 -1      1012 1.08150E+02 2.92160E+01 0.00000E+00
 -1      1013 1.11150E+02 2.92160E+01 0.00000E+00
 -1      1014 1.14150E+02 2.92160E+01 0.00000E+00
 -1      1015 1.17150E+02 2.92160E+01 0.00000E+00
 -1      1016 1.20150E+02 2.92160E+01 0.00000E+00
 -1      1017 1.23150E+02 2.92160E+01 0.00000E+00
 -1      1018 1.26150E+02 2.92160E+01 0.00000E+00
 -1      1019 1.29150E+02 2.92160E+01 0.00000E+00
 -1      1020 4.19250E+01 2.07840E+01 0.00000E+00
 -1      1021 1.88643E+01 2.38839E+01 0.00000E+00
 -1      1022 1.14675E+02 1.95209E+01 0.00000E+00
 -1      1023 1.17675E+02 1.95209E+01 0.00000E+00
 -1      1024 1.20675E+02 1.95209E+01 0.00000E+00
 -1      1025 2.41500E+01 2.92160E+01 0.00000E+00
 -1      1026 1.23675E+02 1.95209E+01 0.00000E+00
 -1      1027 1.26675E+02 1.95209E+01 0.00000E+00
 -1      1028 1.29675E+02 1.95209E+01 0.00000E+00
 -1      1029 7.25781E+01 2.94726E+01 0.00000E+00
 -1      1030 8.52481E+01 2.06386E+01 0.00000E+00
 -1      1031 1.11675E+02 1.95209E+01 0.00000E+00
 -1      1032 2.40000E+01 2.07840E+01 0.00000E+00
 -1      1033 1.77450E+01 2.86390E+01 0.00000E+00
 -1      1034 2.11500E+01 2.92160E+01 0.00000E+00
 -1      1035 1.08675E+02 1.95209E+01 0.00000E+00
 -1      1036 9.52191E+01 1.69173E+01 0.00000E+00
 -1      1037 9.07444E+01 1.95096E+01 0.00000E+00
 -1      1038 9.96937E+01 1.95209E+01 0.00000E+00
 -1      1039 1.31671E+02 2.03801E+01 0.00000E+00
 -1      1040 1.05675E+02 1.95209E+01 0.00000E+00
 -1      1041 5.17037E+01 2.87440E+01 0.00000E+00
 -1      1042 2.70000E+01 2.07840E+01 0.00000E+00
 -1      1043 3.89250E+01 2.07840E+01 0.00000E+00
 -1      1044 1.02684E+02 1.95209E+01 0.00000E+00
 -1      1045 3.30000E+01 2.07840E+01 0.00000E+00
 -1      1046 1.29150E+02 2.62660E+01 0.00000E+00
 -1      1047 8.44778E+01 2.25767E+01 0.00000E+00
 -1      1048 1.33392E+02 2.09522E+01 0.00000E+00
 -1      1049 4.68926E+01 2.39720E+01 0.00000E+00
 -1      1050 1.32132E+02 2.38952E+01 0.00000E+00
 -1      1051 2.12205E+01 2.06986E+01 0.00000E+00
 -1      1052 8.79962E+01 2.00741E+01 0.00000E+00
 -1      1053 8.10746E+01 2.48943E+01 0.00000E+00
 -1      1054 3.59625E+01 2.07840E+01 0.00000E+00
 -1      1055 4.44088E+01 2.23780E+01 0.00000E+00
 -1      1056 9.67003E+01 1.95153E+01 0.00000E+00
 -1      1057 8.11123E+01 2.70552E+01 0.00000E+00
 -1      1058 1.22175E+02 2.21189E+01 0.00000E+00
 -1      1059 3.16500E+01 2.66180E+01 0.00000E+00
 -1      1060 3.46500E+01 2.66180E+01 0.00000E+00
 -1      1061 3.76500E+01 2.66180E+01 0.00000E+00
 -1      1062 4.06500E+01 2.66180E+01 0.00000E+00
 -1      1063 4.36500E+01 2.66180E+01 0.00000E+00
 -1      1064 8.41123E+01 2.70552E+01 0.00000E+00
 -1      1065 8.71123E+01 2.70552E+01 0.00000E+00
 -1      1066 9.01123E+01 2.70552E+01 0.00000E+00
 -1      1067 9.31123E+01 2.70552E+01 0.00000E+00
 -1      1068 9.61123E+01 2.70552E+01 0.00000E+00
 -1      1069 9.91123E+01 2.70552E+01 0.00000E+00
 -1      1070 1.02112E+02 2.70552E+01 0.00000E+00
 -1      1071 1.05112E+02 2.70552E+01 0.00000E+00
 -1      1072 1.08112E+02 2.70552E+01 0.00000E+00
 -1      1073 1.11112E+02 2.70552E+01 0.00000E+00
 -1      1074 1.14112E+02 2.70552E+01 0.00000E+00
 -1      1075 1.17112E+02 2.70552E+01 0.00000E+00
 -1      1076 1.20112E+02 2.70552E+01 0.00000E+00
 -1      1077 1.23112E+02 2.70552E+01 0.00000E+00
 -1      1078 1.26112E+02 2.70552E+01 0.00000E+00
 -1      1079 2.23950E+01 2.55264E+01 0.00000E+00
 -1      1080 2.56500E+01 2.66180E+01 0.00000E+00
 -1      1081 1.16175E+02 2.21189E+01 0.00000E+00
 -1      1082 1.25175E+02 2.21189E+01 0.00000E+00
 -1      1083 1.28175E+02 2.21189E+01 0.00000E+00
 -1      1084 1.19175E+02 2.21189E+01 0.00000E+00
 -1      1085 3.00000E+01 2.07840E+01 0.00000E+00
 -1      1086 1.13175E+02 2.21189E+01 0.00000E+00
 -1      1087 1.10175E+02 2.21189E+01 0.00000E+00
 -1      1088 4.76712E+01 2.71725E+01 0.00000E+00
 -1      1089 2.86500E+01 2.66180E+01 0.00000E+00
 -1      1090 9.37223E+01 1.95124E+01 0.00000E+00
 -1      1091 4.04250E+01 2.33820E+01 0.00000E+00
 -1      1092 8.36940E+01 2.47861E+01 0.00000E+00
 -1      1093 9.81921E+01 2.21161E+01 0.00000E+00
 -1      1094 1.01183E+02 2.21161E+01 0.00000E+00
 -1      1095 1.07175E+02 2.21189E+01 0.00000E+00
 -1      1096 9.22309E+01 2.21090E+01 0.00000E+00
 -1      1097 8.94827E+01 2.26735E+01 0.00000E+00
 -1      1098 8.69803E+01 2.26251E+01 0.00000E+00
 -1      1099 3.15000E+01 2.33820E+01 0.00000E+00
 -1      1100 3.44625E+01 2.33820E+01 0.00000E+00
 -1      1101 2.63250E+01 2.37010E+01 0.00000E+00
 -1      1102 9.52089E+01 2.21118E+01 0.00000E+00
 -1      1103 1.26675E+02 2.47169E+01 0.00000E+00
 -1      1104 1.06612E+02 2.44572E+01 0.00000E+00
 -1      1105 1.04179E+02 2.21175E+01 0.00000E+00
 -1      1106 3.74437E+01 2.33820E+01 0.00000E+00
 -1      1107 0.00000E+00 4.85250E+01 0.00000E+00
 -1      1108 0.00000E+00 4.55750E+01 0.00000E+00
 -1      1109 0.00000E+00 4.26250E+01 0.00000E+00
 -1      1110 0.00000E+00 3.96750E+01 0.00000E+00
 -1      1111 0.00000E+00 3.67250E+01 0.00000E+00
 -1      1112 0.00000E+00 3.38000E+01 0.00000E+00
 -1      1113 0.00000E+00 3.08750E+01 0.00000E+00
 -1      1114 0.00000E+00 2.79250E+01 0.00000E+00
 -1      1115 0.00000E+00 2.49750E+01 0.00000E+00
 -1      1116 0.00000E+00 2.20250E+01 0.00000E+00
 -1      1117 0.00000E+00 1.90750E+01 0.00000E+00
 -1      1118 0.00000E+00 1.61500E+01 0.00000E+00
 -1      1119 0.00000E+00 1.32250E+01 0.00000E+00
 -1      1120 0.00000E+00 1.02750E+01 0.00000E+00
 -1      1121 0.00000E+00 7.32500E+00 0.00000E+00
 -1      1122 0.00000E+00 4.37500E+00 0.00000E+00
 -1      1123 0.00000E+00 1.45000E+00 0.00000E+00
 -1      1124 1.57500E+00 5.00000E+01 0.00000E+00
 -1      1125 4.65000E+00 5.00000E+01 0.00000E+00
 -1      1126 7.65000E+00 5.00000E+01 0.00000E+00
 -1      1127 1.06500E+01 5.00000E+01 0.00000E+00
 -1      1128 1.36500E+01 5.00000E+01 0.00000E+00
 -1      1129 1.66500E+01 5.00000E+01 0.00000E+00
 -1      1130 1.96500E+01 5.00000E+01 0.00000E+00
 -1      1131 2.26500E+01 5.00000E+01 0.00000E+00
 -1      1132 2.56500E+01 5.00000E+01 0.00000E+00
 -1      1133 2.86500E+01 5.00000E+01 0.00000E+00
 -1      1134 3.16500E+01 5.00000E+01 0.00000E+00
 -1      1135 3.46500E+01 5.00000E+01 0.00000E+00
 -1      1136 3.76500E+01 5.00000E+01 0.00000E+00
 -1      1137 4.06500E+01 5.00000E+01 0.00000E+00
 -1      1138 4.36500E+01 5.00000E+01 0.00000E+00
 -1      1139 4.66500E+01 5.00000E+01 0.00000E+00
 -1      1140 4.96500E+01 5.00000E+01 0.00000E+00
 -1      1141 5.26500E+01 5.00000E+01 0.00000E+00
 -1      1142 5.56500E+01 5.00000E+01 0.00000E+00
 -1      1143 5.86500E+01 5.00000E+01 0.00000E+00
 -1      1144 6.16500E+01 5.00000E+01 0.00000E+00
 -1      1145 6.46500E+01 5.00000E+01 0.00000E+00
 -1      1146 6.76500E+01 5.00000E+01 0.00000E+00
 -1      1147 7.06500E+01 5.00000E+01 0.00000E+00
 -1      1148 7.36500E+01 5.00000E+01 0.00000E+00
 -1      1149 7.66500E+01 5.00000E+01 0.00000E+00
 -1      1150 7.96500E+01 5.00000E+01 0.00000E+00
 -1      1151 8.26500E+01 5.00000E+01 0.00000E+00
 -1      1152 8.56500E+01 5.00000E+01 0.00000E+00
 -1      1153 8.86500E+01 5.00000E+01 0.00000E+00
 -1      1154 9.16500E+01 5.00000E+01 0.00000E+00
 -1      1155 9.46500E+01 5.00000E+01 0.00000E+00
 -1      1156 9.76500E+01 5.00000E+01 0.00000E+00
 -1      1157 1.00650E+02 5.00000E+01 0.00000E+00
 -1      1158 1.03650E+02 5.00000E+01 0.00000E+00
 -1      1159 1.06650E+02 5.00000E+01 0.00000E+00
 -1      1160 1.09650E+02 5.00000E+01 0.00000E+00
 -1      1161 1.12650E+02 5.00000E+01 0.00000E+00
 -1      1162 1.15650E+02 5.00000E+01 0.00000E+00
 -1      1163 1.18650E+02 5.00000E+01 0.00000E+00
 -1      1164 1.21650E+02 5.00000E+01 0.00000E+00
 -1      1165 1.24650E+02 5.00000E+01 0.00000E+00
 -1      1166 1.27650E+02 5.00000E+01 0.00000E+00
 -1      1167 1.30650E+02 5.00000E+01 0.00000E+00
 -1      1168 1.33650E+02 5.00000E+01 0.00000E+00
 -1      1169 1.36650E+02 5.00000E+01 0.00000E+00
 -1      1170 1.39650E+02 5.00000E+01 0.00000E+00
 -1      1171 1.42650E+02 5.00000E+01 0.00000E+00
 -1      1172 1.45650E+02 5.00000E+01 0.00000E+00
 -1      1173 1.48575E+02 5.00000E+01 0.00000E+00
 -1      1174 1.50000E+00 0.00000E+00 0.00000E+00
 -1      1175 4.50000E+00 0.00000E+00 0.00000E+00
 -1      1176 7.50000E+00 0.00000E+00 0.00000E+00
 -1      1177 1.05000E+01 0.00000E+00 0.00000E+00
 -1      1178 1.35000E+01 0.00000E+00 0.00000E+00
 -1      1179 1.65000E+01 0.00000E+00 0.00000E+00
 -1      1180 1.95000E+01 0.00000E+00 0.00000E+00
 -1      1181 2.25000E+01 0.00000E+00 0.00000E+00
 -1      1182 2.55000E+01 0.00000E+00 0.00000E+00
 -1      1183 2.85000E+01 0.00000E+00 0.00000E+00
 -1      1184 3.15000E+01 0.00000E+00 0.00000E+00
 -1      1185 3.45000E+01 0.00000E+00 0.00000E+00
 -1      1186 3.75000E+01 0.00000E+00 0.00000E+00
 -1      1187 4.05000E+01 0.00000E+00 0.00000E+00
 -1      1188 4.35000E+01 0.00000E+00 0.00000E+00
 -1      1189 4.65000E+01 0.00000E+00 0.00000E+00
 -1      1190 4.95000E+01 0.00000E+00 0.00000E+00
 -1      1191 5.24250E+01 0.00000E+00 0.00000E+00
 -1      1192 5.53500E+01 0.00000E+00 0.00000E+00
 -1      1193 5.81250E+01 0.00000E+00 0.00000E+00
 -1      1194 6.05250E+01 0.00000E+00 0.00000E+00
 -1      1195 6.27000E+01 0.00000E+00 0.00000E+00
 -1      1196 6.48000E+01 0.00000E+00 0.00000E+00
 -1      1197 6.69750E+01 0.00000E+00 0.00000E+00
 -1      1198 6.92250E+01 0.00000E+00 0.00000E+00
 -1      1199 7.15500E+01 0.00000E+00 0.00000E+00
 -1      1200 7.41000E+01 0.00000E+00 0.00000E+00
 -1      1201 7.68750E+01 0.00000E+00 0.00000E+00
 -1      1202 7.98000E+01 0.00000E+00 0.00000E+00
 -1      1203 8.28000E+01 0.00000E+00 0.00000E+00
 -1      1204 8.58000E+01 0.00000E+00 0.00000E+00
 -1      1205 8.88000E+01 0.00000E+00 0.00000E+00
 -1      1206 9.18000E+01 0.00000E+00 0.00000E+00
 -1      1207 9.48000E+01 0.00000E+00 0.00000E+00
 -1      1208 9.77250E+01 0.00000E+00 0.00000E+00
 -1      1209 1.00650E+02 0.00000E+00 0.00000E+00
 -1      1210 1.03650E+02 0.00000E+00 0.00000E+00
 -1      1211 1.06650E+02 0.00000E+00 0.00000E+00
 -1      1212 1.09650E+02 0.00000E+00 0.00000E+00
 -1      1213 1.12650E+02 0.00000E+00 0.00000E+00
 -1      1214 1.15650E+02 0.00000E+00 0.00000E+00
 -1      1215 1.18650E+02 0.00000E+00 0.00000E+00
 -1      1216 1.21650E+02 0.00000E+00 0.00000E+00
 -1      1217 1.24650E+02 0.00000E+00 0.00000E+00
 -1      1218 1.27650E+02 0.00000E+00 0.00000E+00
 -1      1219 1.30650E+02 0.00000E+00 0.00000E+00
 -1      1220 1.33650E+02 0.00000E+00 0.00000E+00
 -1      1221 1.36650E+02 0.00000E+00 0.00000E+00
 -1      1222 1.39650E+02 0.00000E+00 0.00000E+00
 -1      1223 1.42650E+02 0.00000E+00 0.00000E+00
 -1      1224 1.45650E+02 0.00000E+00 0.00000E+00
 -1      1225 1.48575E+02 0.00000E+00 0.00000E+00
 -1      1226 1.50000E+02 1.47500E+00 0.00000E+00
 -1      1227 1.50000E+02 4.42500E+00 0.00000E+00
 -1      1228 1.50000E+02 7.37500E+00 0.00000E+00
 -1      1229 1.50000E+02 1.03250E+01 0.00000E+00
 -1      1230 1.50000E+02 1.32750E+01 0.00000E+00
 -1      1231 1.50000E+02 1.62000E+01 0.00000E+00
 -1      1232 1.50000E+02 1.91250E+01 0.00000E+00
 -1      1233 1.50000E+02 2.20750E+01 0.00000E+00
 -1      1234 1.50000E+02 2.50250E+01 0.00000E+00
 -1      1235 1.50000E+02 2.79750E+01 0.00000E+00
 -1      1236 1.50000E+02 3.09250E+01 0.00000E+00
 -1      1237 1.50000E+02 3.38500E+01 0.00000E+00
 -1      1238 1.50000E+02 3.67750E+01 0.00000E+00
 -1      1239 1.50000E+02 3.97250E+01 0.00000E+00
 -1      1240 1.50000E+02 4.26750E+01 0.00000E+00
 -1      1241 1.50000E+02 4.56250E+01 0.00000E+00
 -1      1242 1.50000E+02 4.85500E+01 0.00000E+00
 -1      1243 7.31013E+01 1.02490E+01 0.00000E+00
 -1      1244 7.27765E+01 8.77166E+00 0.00000E+00
 -1      1245 7.21139E+01 7.35222E+00 0.00000E+00
 -1      1246 7.11894E+01 6.15411E+00 0.00000E+00
 -1      1247 7.01064E+01 5.23517E+00 0.00000E+00
 -1      1248 6.88008E+01 4.52902E+00 0.00000E+00
 -1      1249 6.73260E+01 4.10531E+00 0.00000E+00
 -1      1250 6.57861E+01 4.01355E+00 0.00000E+00
 -1      1251 6.43175E+01 4.24649E+00 0.00000E+00
 -1      1252 6.29729E+01 4.76303E+00 0.00000E+00
 -1      1253 6.17306E+01 5.56960E+00 0.00000E+00
 -1      1254 6.06818E+01 6.62449E+00 0.00000E+00
 -1      1255 5.98898E+01 7.85689E+00 0.00000E+00
 -1      1256 5.93759E+01 9.21068E+00 0.00000E+00
 -1      1257 5.91477E+01 1.07275E+01 0.00000E+00
 -1      1258 5.92570E+01 1.22669E+01 0.00000E+00
 -1      1259 5.96883E+01 1.37151E+01 0.00000E+00
 -1      1260 6.04171E+01 1.50323E+01 0.00000E+00
 -1      1261 6.13617E+01 1.61179E+01 0.00000E+00
 -1      1262 6.25665E+01 1.70223E+01 0.00000E+00
 -1      1263 6.40230E+01 1.76760E+01 0.00000E+00
 -1      1264 6.55535E+01 1.79797E+01 0.00000E+00
 -1      1265 6.70782E+01 1.79416E+01 0.00000E+00
 -1      1266 6.85616E+01 1.75731E+01 0.00000E+00
 -1      1267 6.99423E+01 1.68832E+01 0.00000E+00
 -1      1268 7.11525E+01 1.58930E+01 0.00000E+00
 -1      1269 7.21103E+01 1.46626E+01 0.00000E+00
 -1      1270 7.27714E+01 1.32525E+01 0.00000E+00
 -1      1271 7.31014E+01 1.17587E+01 0.00000E+00
 -1      1272 1.57500E+00 4.85250E+01 0.00000E+00
 -1      1273 1.29900E+00 4.48375E+01 0.00000E+00
 -1      1274 1.29900E+00 4.63125E+01 0.00000E+00
 -1      1275 1.29900E+00 4.18875E+01 0.00000E+00
 -1      1276 1.29900E+00 4.33625E+01 0.00000E+00
 -1      1277 2.59800E+00 4.41000E+01 0.00000E+00
 -1      1278 1.29900E+00 3.89375E+01 0.00000E+00
 -1      1279 1.29900E+00 4.04125E+01 0.00000E+00
 -1      1280 2.59800E+00 4.11500E+01 0.00000E+00
 -1      1281 1.29900E+00 3.59875E+01 0.00000E+00
 -1      1282 1.29900E+00 3.74625E+01 0.00000E+00
 -1      1283 2.59800E+00 3.82000E+01 0.00000E+00
 -1      1284 1.29900E+00 3.30875E+01 0.00000E+00
 -1      1285 1.29900E+00 3.45375E+01 0.00000E+00
 -1      1286 2.59800E+00 3.52750E+01 0.00000E+00
 -1      1287 1.29900E+00 3.01375E+01 0.00000E+00
 -1      1288 1.29900E+00 3.16125E+01 0.00000E+00
 -1      1289 2.59800E+00 3.23500E+01 0.00000E+00
 -1      1290 1.29900E+00 2.71875E+01 0.00000E+00
 -1      1291 1.29900E+00 2.86625E+01 0.00000E+00
 -1      1292 2.59800E+00 2.94000E+01 0.00000E+00
 -1      1293 1.29900E+00 2.42375E+01 0.00000E+00
 -1      1294 1.29900E+00 2.57125E+01 0.00000E+00
 -1      1295 2.59800E+00 2.64500E+01 0.00000E+00
 -1      1296 1.29900E+00 2.12875E+01 0.00000E+00
 -1      1297 1.29900E+00 2.27625E+01 0.00000E+00
 -1      1298 2.59800E+00 2.35000E+01 0.00000E+00
 -1      1299 1.29900E+00 1.83375E+01 0.00000E+00
 -1      1300 1.29900E+00 1.98125E+01 0.00000E+00
 -1      1301 2.59800E+00 2.05500E+01 0.00000E+00
 -1      1302 1.29900E+00 1.54375E+01 0.00000E+00
 -1      1303 1.29900E+00 1.68875E+01 0.00000E+00
 -1      1304 2.59800E+00 1.76250E+01 0.00000E+00
 -1      1305 1.29900E+00 1.24875E+01 0.00000E+00
 -1      1306 1.29900E+00 1.39625E+01 0.00000E+00
 -1      1307 2.59800E+00 1.47000E+01 0.00000E+00
 -1      1308 1.29900E+00 9.53750E+00 0.00000E+00
 -1      1309 1.29900E+00 1.10125E+01 0.00000E+00
 -1      1310 2.59800E+00 1.17500E+01 0.00000E+00
 -1      1311 1.29900E+00 6.58750E+00 0.00000E+00
 -1      1312 1.29900E+00 8.06250E+00 0.00000E+00
 -1      1313 2.59800E+00 8.80000E+00 0.00000E+00
 -1      1314 1.29900E+00 3.63750E+00 0.00000E+00
 -1      1315 1.29900E+00 5.11250E+00 0.00000E+00
 -1      1316 2.59800E+00 5.85000E+00 0.00000E+00
 -1      1317 1.50000E+00 1.45000E+00 0.00000E+00
 -1      1318 3.90000E+00 4.87010E+01 0.00000E+00
 -1      1319 5.40000E+00 4.87010E+01 0.00000E+00
 -1      1320 6.90000E+00 4.87010E+01 0.00000E+00
 -1      1321 8.40000E+00 4.87010E+01 0.00000E+00
 -1      1322 6.15000E+00 4.74020E+01 0.00000E+00
 -1      1323 9.90000E+00 4.87010E+01 0.00000E+00
 -1      1324 1.14000E+01 4.87010E+01 0.00000E+00
 -1      1325 9.15000E+00 4.74020E+01 0.00000E+00
 -1      1326 1.29000E+01 4.87010E+01 0.00000E+00
 -1      1327 1.44000E+01 4.87010E+01 0.00000E+00
 -1      1328 1.21500E+01 4.74020E+01 0.00000E+00
 -1      1329 1.59000E+01 4.87010E+01 0.00000E+00
 -1      1330 1.74000E+01 4.87010E+01 0.00000E+00
 -1      1331 1.51500E+01 4.74020E+01 0.00000E+00
 -1      1332 1.89000E+01 4.87010E+01 0.00000E+00
 -1      1333 2.04000E+01 4.87010E+01 0.00000E+00
 -1      1334 1.81500E+01 4.74020E+01 0.00000E+00
 -1      1335 2.19000E+01 4.87010E+01 0.00000E+00
 -1      1336 2.34000E+01 4.87010E+01 0.00000E+00
 -1      1337 2.11500E+01 4.74020E+01 0.00000E+00
 -1      1338 2.49000E+01 4.87010E+01 0.00000E+00
 -1      1339 2.64000E+01 4.87010E+01 0.00000E+00
 -1      1340 2.41500E+01 4.74020E+01 0.00000E+00
 -1      1341 2.79000E+01 4.87010E+01 0.00000E+00
 -1      1342 2.94000E+01 4.87010E+01 0.00000E+00
 -1      1343 2.71500E+01 4.74020E+01 0.00000E+00
 -1      1344 3.09000E+01 4.87010E+01 0.00000E+00
 -1      1345 3.24000E+01 4.87010E+01 0.00000E+00
 -1      1346 3.01500E+01 4.74020E+01 0.00000E+00
 -1      1347 3.39000E+01 4.87010E+01 0.00000E+00
 -1      1348 3.54000E+01 4.87010E+01 0.00000E+00
 -1      1349 3.31500E+01 4.74020E+01 0.00000E+00
 -1      1350 3.69000E+01 4.87010E+01 0.00000E+00
 -1      1351 3.84000E+01 4.87010E+01 0.00000E+00
 -1      1352 3.61500E+01 4.74020E+01 0.00000E+00
 -1      1353 3.99000E+01 4.87010E+01 0.00000E+00
 -1      1354 4.14000E+01 4.87010E+01 0.00000E+00
 -1      1355 3.91500E+01 4.74020E+01 0.00000E+00
 -1      1356 4.29000E+01 4.87010E+01 0.00000E+00
 -1      1357 4.44000E+01 4.87010E+01 0.00000E+00
 -1      1358 4.21500E+01 4.74020E+01 0.00000E+00
 -1      1359 4.59000E+01 4.87010E+01 0.00000E+00
 -1      1360 4.74000E+01 4.87010E+01 0.00000E+00
 -1      1361 4.51500E+01 4.74020E+01 0.00000E+00
 -1      1362 4.89000E+01 4.87010E+01 0.00000E+00
 -1      1363 5.04000E+01 4.87010E+01 0.00000E+00
 -1      1364 4.81500E+01 4.74020E+01 0.00000E+00
 -1      1365 5.19000E+01 4.87010E+01 0.00000E+00
 -1      1366 5.34000E+01 4.87010E+01 0.00000E+00
 -1      1367 5.11500E+01 4.74020E+01 0.00000E+00
 -1      1368 5.49000E+01 4.87010E+01 0.00000E+00
 -1      1369 5.64000E+01 4.87010E+01 0.00000E+00
 -1      1370 5.41500E+01 4.74020E+01 0.00000E+00
 -1      1371 5.79000E+01 4.87010E+01 0.00000E+00
 -1      1372 5.94000E+01 4.87010E+01 0.00000E+00
 -1      1373 5.71500E+01 4.74020E+01 0.00000E+00
 -1      1374 6.09000E+01 4.87010E+01 0.00000E+00
 -1      1375 6.24000E+01 4.87010E+01 0.00000E+00
 -1      1376 6.01500E+01 4.74020E+01 0.00000E+00
 -1      1377 6.39000E+01 4.87010E+01 0.00000E+00
 -1      1378 6.54000E+01 4.87010E+01 0.00000E+00
 -1      1379 6.31500E+01 4.74020E+01 0.00000E+00
 -1      1380 6.69000E+01 4.87010E+01 0.00000E+00
 -1      1381 6.84000E+01 4.87010E+01 0.00000E+00
 -1      1382 6.61500E+01 4.74020E+01 0.00000E+00
 -1      1383 6.99000E+01 4.87010E+01 0.00000E+00
 -1      1384 7.14000E+01 4.87010E+01 0.00000E+00
 -1      1385 6.91500E+01 4.74020E+01 0.00000E+00
 -1      1386 7.29000E+01 4.87010E+01 0.00000E+00
 -1      1387 7.44000E+01 4.87010E+01 0.00000E+00
 -1      1388 7.21500E+01 4.74020E+01 0.00000E+00
 -1      1389 7.59000E+01 4.87010E+01 0.00000E+00
 -1      1390 7.74000E+01 4.87010E+01 0.00000E+00
 -1      1391 7.51500E+01 4.74020E+01 0.00000E+00
 -1      1392 7.89000E+01 4.87010E+01 0.00000E+00
 -1      1393 8.04000E+01 4.87010E+01 0.00000E+00
 -1      1394 7.81500E+01 4.74020E+01 0.00000E+00
 -1      1395 8.19000E+01 4.87010E+01 0.00000E+00
 -1      1396 8.34000E+01 4.87010E+01 0.00000E+00
 -1      1397 8.11500E+01 4.74020E+01 0.00000E+00
 -1      1398 8.49000E+01 4.87010E+01 0.00000E+00
 -1      1399 8.64000E+01 4.87010E+01 0.00000E+00
 -1      1400 8.41500E+01 4.74020E+01 0.00000E+00
 -1      1401 8.79000E+01 4.87010E+01 0.00000E+00
 -1      1402 8.94000E+01 4.87010E+01 0.00000E+00
 -1      1403 8.71500E+01 4.74020E+01 0.00000E+00
 -1      1404 9.09000E+01 4.87010E+01 0.00000E+00
 -1      1405 9.24000E+01 4.87010E+01 0.00000E+00
 -1      1406 9.01500E+01 4.74020E+01 0.00000E+00
 -1      1407 9.39000E+01 4.87010E+01 0.00000E+00
 -1      1408 9.54000E+01 4.87010E+01 0.00000E+00
 -1      1409 9.31500E+01 4.74020E+01 0.00000E+00
 -1      1410 9.69000E+01 4.87010E+01 0.00000E+00
 -1      1411 9.84000E+01 4.87010E+01 0.00000E+00
 -1      1412 9.61500E+01 4.74020E+01 0.00000E+00
 -1      1413 9.99000E+01 4.87010E+01 0.00000E+00
 -1      1414 1.01400E+02 4.87010E+01 0.00000E+00
 -1      1415 9.91500E+01 4.74020E+01 0.00000E+00
 -1      1416 1.02900E+02 4.87010E+01 0.00000E+00
 -1      1417 1.04400E+02 4.87010E+01 0.00000E+00
 -1      1418 1.02150E+02 4.74020E+01 0.00000E+00
 -1      1419 1.05900E+02 4.87010E+01 0.00000E+00
 -1      1420 1.07400E+02 4.87010E+01 0.00000E+00
 -1      1421 1.05150E+02 4.74020E+01 0.00000E+00
 -1      1422 1.08900E+02 4.87010E+01 0.00000E+00
 -1      1423 1.10400E+02 4.87010E+01 0.00000E+00
 -1      1424 1.08150E+02 4.74020E+01 0.00000E+00
 -1      1425 1.11900E+02 4.87010E+01 0.00000E+00
 -1      1426 1.13400E+02 4.87010E+01 0.00000E+00
 -1      1427 1.11150E+02 4.74020E+01 0.00000E+00
 -1      1428 1.14900E+02 4.87010E+01 0.00000E+00
 -1      1429 1.16400E+02 4.87010E+01 0.00000E+00
 -1      1430 1.14150E+02 4.74020E+01 0.00000E+00
 -1      1431 1.17900E+02 4.87010E+01 0.00000E+00
 -1      1432 1.19400E+02 4.87010E+01 0.00000E+00
 -1      1433 1.17150E+02 4.74020E+01 0.00000E+00
 -1      1434 1.20900E+02 4.87010E+01 0.00000E+00
 -1      1435 1.22400E+02 4.87010E+01 0.00000E+00
 -1      1436 1.20150E+02 4.74020E+01 0.00000E+00
 -1      1437 1.23900E+02 4.87010E+01 0.00000E+00
 -1      1438 1.25400E+02 4.87010E+01 0.00000E+00
 -1      1439 1.23150E+02 4.74020E+01 0.00000E+00
 -1      1440 1.26900E+02 4.87010E+01 0.00000E+00
 -1      1441 1.28400E+02 4.87010E+01 0.00000E+00
 -1      1442 1.26150E+02 4.74020E+01 0.00000E+00
 -1      1443 1.29900E+02 4.87010E+01 0.00000E+00
 -1      1444 1.31400E+02 4.87010E+01 0.00000E+00
 -1      1445 1.29150E+02 4.74020E+01 0.00000E+00
 -1      1446 1.32900E+02 4.87010E+01 0.00000E+00
 -1      1447 1.34400E+02 4.87010E+01 0.00000E+00
 -1      1448 1.32150E+02 4.74020E+01 0.00000E+00
 -1      1449 1.35900E+02 4.87010E+01 0.00000E+00
 -1      1450 1.37400E+02 4.87010E+01 0.00000E+00
 -1      1451 1.35150E+02 4.74020E+01 0.00000E+00
 -1      1452 1.38900E+02 4.87010E+01 0.00000E+00
 -1      1453 1.40400E+02 4.87010E+01 0.00000E+00
 -1      1454 1.38150E+02 4.74020E+01 0.00000E+00
 -1      1455 1.41900E+02 4.87010E+01 0.00000E+00
 -1      1456 1.43400E+02 4.87010E+01 0.00000E+00
 -1      1457 1.41150E+02 4.74020E+01 0.00000E+00
 -1      1458 1.44900E+02 4.87010E+01 0.00000E+00
 -1      1459 1.46400E+02 4.87010E+01 0.00000E+00
 -1      1460 1.44150E+02 4.74020E+01 0.00000E+00
 -1      1461 1.48575E+02 4.85500E+01 0.00000E+00
 -1      1462 1.47825E+02 4.72510E+01 0.00000E+00
 -1      1463 5.25000E+00 1.29900E+00 0.00000E+00
 -1      1464 3.75000E+00 1.29900E+00 0.00000E+00
 -1      1465 8.25000E+00 1.29900E+00 0.00000E+00
 -1      1466 6.75000E+00 1.29900E+00 0.00000E+00
 -1      1467 6.00000E+00 2.59800E+00 0.00000E+00
 -1      1468 1.12500E+01 1.29900E+00 0.00000E+00
 -1      1469 9.75000E+00 1.29900E+00 0.00000E+00
 -1      1470 9.00000E+00 2.59800E+00 0.00000E+00
 -1      1471 1.42500E+01 1.29900E+00 0.00000E+00
 -1      1472 1.27500E+01 1.29900E+00 0.00000E+00
 -1      1473 1.20000E+01 2.59800E+00 0.00000E+00
 -1      1474 1.72500E+01 1.29900E+00 0.00000E+00
 -1      1475 1.57500E+01 1.29900E+00 0.00000E+00
 -1      1476 1.50000E+01 2.59800E+00 0.00000E+00
 -1      1477 2.02500E+01 1.29900E+00 0.00000E+00
 -1      1478 1.87500E+01 1.29900E+00 0.00000E+00
 -1      1479 1.80000E+01 2.59800E+00 0.00000E+00
 -1      1480 2.32500E+01 1.29900E+00 0.00000E+00
 -1      1481 2.17500E+01 1.29900E+00 0.00000E+00
 -1      1482 2.10000E+01 2.59800E+00 0.00000E+00
 -1      1483 2.62500E+01 1.29900E+00 0.00000E+00
 -1      1484 2.47500E+01 1.29900E+00 0.00000E+00
 -1      1485 2.40000E+01 2.59800E+00 0.00000E+00
 -1      1486 2.92500E+01 1.29900E+00 0.00000E+00
 -1      1487 2.77500E+01 1.29900E+00 0.00000E+00
 -1      1488 2.70000E+01 2.59800E+00 0.00000E+00
 -1      1489 3.22500E+01 1.29900E+00 0.00000E+00
 -1      1490 3.07500E+01 1.29900E+00 0.00000E+00
 -1      1491 3.00000E+01 2.59800E+00 0.00000E+00
 -1      1492 3.52500E+01 1.29900E+00 0.00000E+00
 -1      1493 3.37500E+01 1.29900E+00 0.00000E+00
 -1      1494 3.30000E+01 2.59800E+00 0.00000E+00
 -1      1495 3.82500E+01 1.29900E+00 0.00000E+00
 -1      1496 3.67500E+01 1.29900E+00 0.00000E+00
 -1      1497 3.60000E+01 2.59800E+00 0.00000E+00
 -1      1498 4.12500E+01 1.29900E+00 0.00000E+00
 -1      1499 3.97500E+01 1.29900E+00 0.00000E+00
 -1      1500 3.90000E+01 2.59800E+00 0.00000E+00
 -1      1501 4.42500E+01 1.29900E+00 0.00000E+00
 -1      1502 4.27500E+01 1.29900E+00 0.00000E+00
 -1      1503 4.20000E+01 2.59800E+00 0.00000E+00
 -1      1504 4.72500E+01 1.29900E+00 0.00000E+00
 -1      1505 4.57500E+01 1.29900E+00 0.00000E+00
 -1      1506 4.50000E+01 2.59800E+00 0.00000E+00
 -1      1507 5.02500E+01 1.29900E+00 0.00000E+00
 -1      1508 4.87500E+01 1.29900E+00 0.00000E+00
 -1      1509 4.80000E+01 2.59800E+00 0.00000E+00
 -1      1510 5.31000E+01 1.29900E+00 0.00000E+00
 -1      1511 5.16750E+01 1.29900E+00 0.00000E+00
 -1      1512 5.09250E+01 2.59800E+00 0.00000E+00
 -1      1513 5.61000E+01 1.29900E+00 0.00000E+00
 -1      1514 5.46000E+01 1.29900E+00 0.00000E+00
 -1      1515 5.38500E+01 2.59800E+00 0.00000E+00
 -1      1516 5.86500E+01 1.29900E+00 0.00000E+00
 -1      1517 5.73750E+01 1.29900E+00 0.00000E+00
 -1      1518 5.66250E+01 2.59800E+00 0.00000E+00
 -1      1519 6.09000E+01 1.29900E+00 0.00000E+00
 -1      1520 5.97750E+01 1.29900E+00 0.00000E+00
 -1      1521 5.90250E+01 2.59800E+00 0.00000E+00
 -1      1522 6.53250E+01 8.57554E-01 0.00000E+00
 -1      1523 6.42750E+01 8.57554E-01 0.00000E+00
 -1      1524 6.75750E+01 8.57554E-01 0.00000E+00
 -1      1525 6.64500E+01 8.57554E-01 0.00000E+00
 -1      1526 6.59250E+01 1.71511E+00 0.00000E+00
 -1      1527 6.98250E+01 8.57554E-01 0.00000E+00
 -1      1528 6.87000E+01 8.57554E-01 0.00000E+00
 -1      1529 6.81750E+01 1.71511E+00 0.00000E+00
 -1      1530 7.22250E+01 8.57554E-01 0.00000E+00
 -1      1531 7.10250E+01 8.57554E-01 0.00000E+00
 -1      1532 7.05000E+01 1.71511E+00 0.00000E+00
 -1      1533 7.49250E+01 8.57554E-01 0.00000E+00
 -1      1534 7.35750E+01 8.57554E-01 0.00000E+00
 -1      1535 7.30500E+01 1.71511E+00 0.00000E+00
 -1      1536 7.77750E+01 8.57554E-01 0.00000E+00
 -1      1537 7.63500E+01 8.57554E-01 0.00000E+00
 -1      1538 7.58250E+01 1.71511E+00 0.00000E+00
 -1      1539 8.07750E+01 8.57554E-01 0.00000E+00
 -1      1540 7.92750E+01 8.57554E-01 0.00000E+00
 -1      1541 7.87500E+01 1.71511E+00 0.00000E+00
 -1      1542 8.37750E+01 8.57554E-01 0.00000E+00
 -1      1543 8.22750E+01 8.57554E-01 0.00000E+00
 -1      1544 8.17500E+01 1.71511E+00 0.00000E+00
 -1      1545 8.67750E+01 8.57554E-01 0.00000E+00
 -1      1546 8.52750E+01 8.57554E-01 0.00000E+00
 -1      1547 8.47500E+01 1.71511E+00 0.00000E+00
 -1      1548 8.97750E+01 8.57554E-01 0.00000E+00
 -1      1549 8.82750E+01 8.57554E-01 0.00000E+00
 -1      1550 8.77500E+01 1.71511E+00 0.00000E+00
 -1      1551 9.27750E+01 8.57554E-01 0.00000E+00
 -1      1552 9.12750E+01 8.57554E-01 0.00000E+00
 -1      1553 9.07500E+01 1.71511E+00 0.00000E+00
 -1      1554 9.57750E+01 8.57554E-01 0.00000E+00
 -1      1555 9.42750E+01 8.57554E-01 0.00000E+00
 -1      1556 9.37500E+01 1.71511E+00 0.00000E+00
 -1      1557 9.86250E+01 8.57554E-01 0.00000E+00
 -1      1558 9.72000E+01 8.57554E-01 0.00000E+00
 -1      1559 9.66750E+01 1.71511E+00 0.00000E+00
 -1      1560 1.01625E+02 8.57554E-01 0.00000E+00
 -1      1561 1.00125E+02 8.57554E-01 0.00000E+00
 -1      1562 9.96000E+01 1.71511E+00 0.00000E+00
 -1      1563 1.04625E+02 8.57554E-01 0.00000E+00
 -1      1564 1.03125E+02 8.57554E-01 0.00000E+00
 -1      1565 1.02600E+02 1.71511E+00 0.00000E+00
 -1      1566 1.07625E+02 8.57554E-01 0.00000E+00
 -1      1567 1.06125E+02 8.57554E-01 0.00000E+00
 -1      1568 1.05600E+02 1.71511E+00 0.00000E+00
 -1      1569 1.10625E+02 8.57554E-01 0.00000E+00
 -1      1570 1.09125E+02 8.57554E-01 0.00000E+00
 -1      1571 1.08600E+02 1.71511E+00 0.00000E+00
 -1      1572 1.13625E+02 8.57554E-01 0.00000E+00
 -1      1573 1.12125E+02 8.57554E-01 0.00000E+00
 -1      1574 1.11600E+02 1.71511E+00 0.00000E+00
 -1      1575 1.16625E+02 8.57554E-01 0.00000E+00
 -1      1576 1.15125E+02 8.57554E-01 0.00000E+00
 -1      1577 1.14600E+02 1.71511E+00 0.00000E+00
 -1      1578 1.19625E+02 8.57554E-01 0.00000E+00
 -1      1579 1.18125E+02 8.57554E-01 0.00000E+00
 -1      1580 1.17600E+02 1.71511E+00 0.00000E+00
 -1      1581 1.22625E+02 8.57554E-01 0.00000E+00
 -1      1582 1.21125E+02 8.57554E-01 0.00000E+00
 -1      1583 1.20600E+02 1.71511E+00 0.00000E+00
 -1      1584 1.25625E+02 8.57554E-01 0.00000E+00
 -1      1585 1.24125E+02 8.57554E-01 0.00000E+00
 -1      1586 1.23600E+02 1.71511E+00 0.00000E+00
 -1      1587 1.28625E+02 8.57554E-01 0.00000E+00
 -1      1588 1.27125E+02 8.57554E-01 0.00000E+00
 -1      1589 1.26600E+02 1.71511E+00 0.00000E+00
 -1      1590 1.31625E+02 8.57554E-01 0.00000E+00
 -1      1591 1.30125E+02 8.57554E-01 0.00000E+00
 -1      1592 1.29600E+02 1.71511E+00 0.00000E+00
 -1      1593 1.34625E+02 8.57554E-01 0.00000E+00
 -1      1594 1.33125E+02 8.57554E-01 0.00000E+00
 -1      1595 1.32600E+02 1.71511E+00 0.00000E+00
 -1      1596 1.37625E+02 8.57554E-01 0.00000E+00
 -1      1597 1.36125E+02 8.57554E-01 0.00000E+00
 -1      1598 1.35600E+02 1.71511E+00 0.00000E+00
 -1      1599 1.40625E+02 8.57554E-01 0.00000E+00
 -1      1600 1.39125E+02 8.57554E-01 0.00000E+00
 -1      1601 1.38600E+02 1.71511E+00 0.00000E+00
 -1      1602 1.43625E+02 8.57554E-01 0.00000E+00
 -1      1603 1.42125E+02 8.57554E-01 0.00000E+00
 -1      1604 1.41600E+02 1.71511E+00 0.00000E+00
 -1      1605 1.46625E+02 8.57554E-01 0.00000E+00
 -1      1606 1.45125E+02 8.57554E-01 0.00000E+00
 -1      1607 1.44600E+02 1.71511E+00 0.00000E+00
 -1      1608 1.49025E+02 1.16628E+00 0.00000E+00
 -1      1609 1.47600E+02 1.16628E+00 0.00000E+00
 -1      1610 1.47075E+02 2.02383E+00 0.00000E+00
 -1      1611 1.49025E+02 2.64128E+00 0.00000E+00
 -1      1612 1.49025E+02 5.59128E+00 0.00000E+00
 -1      1613 1.49025E+02 4.11628E+00 0.00000E+00
 -1      1614 1.48050E+02 3.80755E+00 0.00000E+00
 -1      1615 1.49025E+02 8.54128E+00 0.00000E+00
 -1      1616 1.49025E+02 7.06628E+00 0.00000E+00
 -1      1617 1.48050E+02 6.75755E+00 0.00000E+00
 -1      1618 1.49025E+02 1.14913E+01 0.00000E+00
 -1      1619 1.49025E+02 1.00163E+01 0.00000E+00
 -1      1620 1.48050E+02 9.70755E+00 0.00000E+00
 -1      1621 1.49025E+02 1.44413E+01 0.00000E+00
 -1      1622 1.49025E+02 1.29663E+01 0.00000E+00
 -1      1623 1.48050E+02 1.26576E+01 0.00000E+00
 -1      1624 1.49025E+02 1.73413E+01 0.00000E+00
 -1      1625 1.49025E+02 1.58913E+01 0.00000E+00
 -1      1626 1.48050E+02 1.55826E+01 0.00000E+00
 -1      1627 1.49025E+02 2.02913E+01 0.00000E+00
 -1      1628 1.49025E+02 1.88163E+01 0.00000E+00
 -1      1629 1.48050E+02 1.85076E+01 0.00000E+00
 -1      1630 1.49025E+02 2.32413E+01 0.00000E+00
 -1      1631 1.49025E+02 2.17663E+01 0.00000E+00
 -1      1632 1.48050E+02 2.14576E+01 0.00000E+00
 -1      1633 1.49025E+02 2.61913E+01 0.00000E+00
 -1      1634 1.49025E+02 2.47163E+01 0.00000E+00
 -1      1635 1.48050E+02 2.44076E+01 0.00000E+00
 -1      1636 1.49025E+02 2.91413E+01 0.00000E+00
 -1      1637 1.49025E+02 2.76663E+01 0.00000E+00
 -1      1638 1.48050E+02 2.73576E+01 0.00000E+00
 -1      1639 1.49025E+02 3.20913E+01 0.00000E+00
 -1      1640 1.49025E+02 3.06163E+01 0.00000E+00
 -1      1641 1.48050E+02 3.03076E+01 0.00000E+00
 -1      1642 1.49025E+02 3.49913E+01 0.00000E+00
 -1      1643 1.49025E+02 3.35413E+01 0.00000E+00
 -1      1644 1.48050E+02 3.32326E+01 0.00000E+00
 -1      1645 1.49025E+02 3.79413E+01 0.00000E+00
 -1      1646 1.49025E+02 3.64663E+01 0.00000E+00
 -1      1647 1.48050E+02 3.61576E+01 0.00000E+00
 -1      1648 1.49025E+02 4.08913E+01 0.00000E+00
 -1      1649 1.49025E+02 3.94163E+01 0.00000E+00
 -1      1650 1.48050E+02 3.91076E+01 0.00000E+00
 -1      1651 1.49025E+02 4.38413E+01 0.00000E+00
 -1      1652 1.49025E+02 4.23663E+01 0.00000E+00
 -1      1653 1.48050E+02 4.20576E+01 0.00000E+00
 -1      1654 7.36642E+01 9.80794E+00 0.00000E+00
 -1      1655 7.37457E+01 1.05590E+01 0.00000E+00
 -1      1656 7.32708E+01 8.20588E+00 0.00000E+00
 -1      1657 7.35123E+01 8.92347E+00 0.00000E+00
 -1      1658 7.24870E+01 6.64963E+00 0.00000E+00
 -1      1659 7.29093E+01 7.34009E+00 0.00000E+00
 -1      1660 7.13570E+01 5.50487E+00 0.00000E+00
 -1      1661 7.18447E+01 6.01243E+00 0.00000E+00
 -1      1662 7.01337E+01 4.56299E+00 0.00000E+00
 -1      1663 7.07241E+01 4.96867E+00 0.00000E+00
 -1      1664 6.86598E+01 3.86149E+00 0.00000E+00
 -1      1665 6.93702E+01 4.15317E+00 0.00000E+00
 -1      1666 6.70507E+01 3.44323E+00 0.00000E+00
 -1      1667 6.78062E+01 3.57286E+00 0.00000E+00
 -1      1668 6.53678E+01 3.42913E+00 0.00000E+00
 -1      1669 6.61429E+01 3.38965E+00 0.00000E+00
 -1      1670 6.38258E+01 3.78884E+00 0.00000E+00
 -1      1671 6.45121E+01 3.60353E+00 0.00000E+00
 -1      1672 6.23526E+01 4.34694E+00 0.00000E+00
 -1      1673 6.30030E+01 4.01666E+00 0.00000E+00
 -1      1674 6.10559E+01 5.33470E+00 0.00000E+00
 -1      1675 6.16395E+01 4.86097E+00 0.00000E+00
 -1      1676 6.00090E+01 6.55645E+00 0.00000E+00
 -1      1677 6.04694E+01 5.98245E+00 0.00000E+00
 -1      1678 5.91810E+01 7.90821E+00 0.00000E+00
 -1      1679 5.95088E+01 7.25697E+00 0.00000E+00
 -1      1680 5.87336E+01 9.41227E+00 0.00000E+00
 -1      1681 5.89179E+01 8.71736E+00 0.00000E+00
 -1      1682 5.84897E+01 1.11092E+01 0.00000E+00
 -1      1683 5.85219E+01 1.02949E+01 0.00000E+00
 -1      1684 5.87638E+01 1.27276E+01 0.00000E+00
 -1      1685 5.86324E+01 1.20112E+01 0.00000E+00
 -1      1686 5.92442E+01 1.43261E+01 0.00000E+00
 -1      1687 5.89411E+01 1.36045E+01 0.00000E+00
 -1      1688 6.01598E+01 1.56551E+01 0.00000E+00
 -1      1689 5.97440E+01 1.50641E+01 0.00000E+00
 -1      1690 6.12345E+01 1.67785E+01 0.00000E+00
 -1      1691 6.07112E+01 1.62893E+01 0.00000E+00
 -1      1692 6.25766E+01 1.77789E+01 0.00000E+00
 -1      1693 6.18973E+01 1.73752E+01 0.00000E+00
 -1      1694 6.42251E+01 1.83713E+01 0.00000E+00
 -1      1695 6.34567E+01 1.81272E+01 0.00000E+00
 -1      1696 6.58816E+01 1.85749E+01 0.00000E+00
 -1      1697 6.51302E+01 1.85114E+01 0.00000E+00
 -1      1698 6.75356E+01 1.84486E+01 0.00000E+00
 -1      1699 6.67715E+01 1.85517E+01 0.00000E+00
 -1      1700 6.91412E+01 1.80511E+01 0.00000E+00
 -1      1701 6.84305E+01 1.83129E+01 0.00000E+00
 -1      1702 7.06002E+01 1.71769E+01 0.00000E+00
 -1      1703 6.99401E+01 1.76036E+01 0.00000E+00
 -1      1704 7.18268E+01 1.60078E+01 0.00000E+00
 -1      1705 7.12839E+01 1.65643E+01 0.00000E+00
 -1      1706 7.27941E+01 1.46232E+01 0.00000E+00
 -1      1707 7.23855E+01 1.52897E+01 0.00000E+00
 -1      1708 7.34292E+01 1.30661E+01 0.00000E+00
 -1      1709 7.31801E+01 1.38006E+01 0.00000E+00
 -1      1710 7.37042E+01 1.14447E+01 0.00000E+00
 -1      1711 7.36230E+01 1.21946E+01 0.00000E+00
 -1      1712 2.79900E+00 2.18750E+00 0.00000E+00
 -1      1713 6.20902E+01 1.12018E+00 0.00000E+00
 -1      1714 6.13402E+01 2.41918E+00 0.00000E+00
 -1      1715 6.31402E+01 1.12018E+00 0.00000E+00
 -1      1716 7.36840E+01 7.47879E+00 0.00000E+00
 -1      1717 7.43078E+01 1.09992E+01 0.00000E+00
 -1      1718 7.41974E+01 9.22905E+00 0.00000E+00
 -1      1719 1.48701E+02 4.63625E+01 0.00000E+00
 -1      1720 1.48701E+02 4.48875E+01 0.00000E+00
 -1      1721 1.47726E+02 4.45788E+01 0.00000E+00
 -1      1722 7.26802E+01 5.97581E+00 0.00000E+00
 -1      1723 7.14051E+01 4.80241E+00 0.00000E+00
 -1      1724 7.00087E+01 3.85638E+00 0.00000E+00
 -1      1725 6.83917E+01 3.15792E+00 0.00000E+00
 -1      1726 6.66302E+01 2.81571E+00 0.00000E+00
 -1      1727 6.48666E+01 2.93654E+00 0.00000E+00
 -1      1728 6.31882E+01 3.33876E+00 0.00000E+00
 -1      1729 6.16523E+01 4.08061E+00 0.00000E+00
 -1      1730 6.03528E+01 5.24239E+00 0.00000E+00
 -1      1731 5.92662E+01 6.59066E+00 0.00000E+00
 -1      1732 5.85029E+01 8.10032E+00 0.00000E+00
 -1      1733 5.80281E+01 9.79210E+00 0.00000E+00
 -1      1734 5.79591E+01 1.15767E+01 0.00000E+00
 -1      1735 5.82792E+01 1.33556E+01 0.00000E+00
 -1      1736 5.89563E+01 1.49705E+01 0.00000E+00
 -1      1737 6.00075E+01 1.63426E+01 0.00000E+00
 -1      1738 6.12216E+01 1.75735E+01 0.00000E+00
 -1      1739 6.27646E+01 1.85186E+01 0.00000E+00
 -1      1740 6.45498E+01 1.90071E+01 0.00000E+00
 -1      1741 6.63447E+01 1.91241E+01 0.00000E+00
 -1      1742 6.81294E+01 1.89652E+01 0.00000E+00
 -1      1743 6.98232E+01 1.83820E+01 0.00000E+00
 -1      1744 7.13056E+01 1.73220E+01 0.00000E+00
 -1      1745 7.25479E+01 1.59913E+01 0.00000E+00
 -1      1746 7.34927E+01 1.44507E+01 0.00000E+00
 -1      1747 7.40725E+01 1.27565E+01 0.00000E+00
 -1      1748 2.87400E+00 4.77875E+01 0.00000E+00
 -1      1749 6.36652E+01 1.97773E+00 0.00000E+00
 -1      1750 3.89700E+00 4.04125E+01 0.00000E+00
 -1      1751 3.89700E+00 4.18875E+01 0.00000E+00
 -1      1752 3.89700E+00 4.33625E+01 0.00000E+00
 -1      1753 3.89700E+00 4.48375E+01 0.00000E+00
 -1      1754 5.19600E+00 4.26250E+01 0.00000E+00
 -1      1755 3.89700E+00 3.45500E+01 0.00000E+00
 -1      1756 3.89700E+00 3.60000E+01 0.00000E+00
 -1      1757 3.89700E+00 3.16000E+01 0.00000E+00
 -1      1758 3.89700E+00 3.30750E+01 0.00000E+00
 -1      1759 5.19600E+00 3.38000E+01 0.00000E+00
 -1      1760 3.89700E+00 2.86500E+01 0.00000E+00
 -1      1761 3.89700E+00 3.01250E+01 0.00000E+00
 -1      1762 5.19600E+00 3.08500E+01 0.00000E+00
 -1      1763 3.89700E+00 2.57000E+01 0.00000E+00
 -1      1764 3.89700E+00 2.71750E+01 0.00000E+00
 -1      1765 5.19600E+00 2.79000E+01 0.00000E+00
 -1      1766 3.89700E+00 2.27500E+01 0.00000E+00
 -1      1767 3.89700E+00 2.42250E+01 0.00000E+00
 -1      1768 5.19600E+00 2.49500E+01 0.00000E+00
 -1      1769 3.89700E+00 1.98000E+01 0.00000E+00
 -1      1770 3.89700E+00 2.12750E+01 0.00000E+00
 -1      1771 5.19600E+00 2.20000E+01 0.00000E+00
 -1      1772 3.89700E+00 1.69000E+01 0.00000E+00
 -1      1773 3.89700E+00 1.83500E+01 0.00000E+00
 -1      1774 5.19600E+00 1.90750E+01 0.00000E+00
 -1      1775 3.89700E+00 1.39500E+01 0.00000E+00
 -1      1776 3.89700E+00 1.54250E+01 0.00000E+00
 -1      1777 5.19600E+00 1.61500E+01 0.00000E+00
 -1      1778 3.89700E+00 1.10000E+01 0.00000E+00
 -1      1779 3.89700E+00 1.24750E+01 0.00000E+00
 -1      1780 5.19600E+00 1.32000E+01 0.00000E+00
 -1      1781 3.89700E+00 8.05000E+00 0.00000E+00
 -1      1782 3.89700E+00 9.52500E+00 0.00000E+00
 -1      1783 5.19600E+00 1.02500E+01 0.00000E+00
 -1      1784 3.89700E+00 5.10000E+00 0.00000E+00
 -1      1785 3.89700E+00 6.57500E+00 0.00000E+00
 -1      1786 5.19600E+00 7.30000E+00 0.00000E+00
 -1      1787 7.42946E+01 6.71550E+00 0.00000E+00
 -1      1788 7.46561E+01 7.58129E+00 0.00000E+00
 -1      1789 6.24479E+01 2.90347E+00 0.00000E+00
 -1      1790 6.12577E+01 3.08229E+00 0.00000E+00
 -1      1791 3.62400E+00 4.64885E+01 0.00000E+00
 -1      1792 3.54900E+00 3.48650E+00 0.00000E+00
 -1      1793 8.40000E+00 4.61030E+01 0.00000E+00
 -1      1794 9.90000E+00 4.61030E+01 0.00000E+00
 -1      1795 1.14000E+01 4.61030E+01 0.00000E+00
 -1      1796 1.29000E+01 4.61030E+01 0.00000E+00
 -1      1797 1.06500E+01 4.48040E+01 0.00000E+00
 -1      1798 1.44000E+01 4.61030E+01 0.00000E+00
 -1      1799 1.59000E+01 4.61030E+01 0.00000E+00
 -1      1800 1.36500E+01 4.48040E+01 0.00000E+00
 -1      1801 1.74000E+01 4.61030E+01 0.00000E+00
 -1      1802 1.89000E+01 4.61030E+01 0.00000E+00
 -1      1803 1.66500E+01 4.48040E+01 0.00000E+00
 -1      1804 2.04000E+01 4.61030E+01 0.00000E+00
 -1      1805 2.19000E+01 4.61030E+01 0.00000E+00
 -1      1806 1.96500E+01 4.48040E+01 0.00000E+00
 -1      1807 2.34000E+01 4.61030E+01 0.00000E+00
 -1      1808 2.49000E+01 4.61030E+01 0.00000E+00
 -1      1809 2.26500E+01 4.48040E+01 0.00000E+00
 -1      1810 2.64000E+01 4.61030E+01 0.00000E+00
 -1      1811 2.79000E+01 4.61030E+01 0.00000E+00
 -1      1812 2.56500E+01 4.48040E+01 0.00000E+00
 -1      1813 2.94000E+01 4.61030E+01 0.00000E+00
 -1      1814 3.09000E+01 4.61030E+01 0.00000E+00
 -1      1815 2.86500E+01 4.48040E+01 0.00000E+00
 -1      1816 3.24000E+01 4.61030E+01 0.00000E+00
 -1      1817 3.39000E+01 4.61030E+01 0.00000E+00
 -1      1818 3.16500E+01 4.48040E+01 0.00000E+00
 -1      1819 3.54000E+01 4.61030E+01 0.00000E+00
 -1      1820 3.69000E+01 4.61030E+01 0.00000E+00
 -1      1821 3.46500E+01 4.48040E+01 0.00000E+00
 -1      1822 3.84000E+01 4.61030E+01 0.00000E+00
 -1      1823 3.99000E+01 4.61030E+01 0.00000E+00
 -1      1824 3.76500E+01 4.48040E+01 0.00000E+00
 -1      1825 4.14000E+01 4.61030E+01 0.00000E+00
 -1      1826 4.29000E+01 4.61030E+01 0.00000E+00
 -1      1827 4.06500E+01 4.48040E+01 0.00000E+00
 -1      1828 4.44000E+01 4.61030E+01 0.00000E+00
 -1      1829 4.59000E+01 4.61030E+01 0.00000E+00
 -1      1830 4.36500E+01 4.48040E+01 0.00000E+00
 -1      1831 4.74000E+01 4.61030E+01 0.00000E+00
 -1      1832 4.89000E+01 4.61030E+01 0.00000E+00
 -1      1833 4.66500E+01 4.48040E+01 0.00000E+00
 -1      1834 5.04000E+01 4.61030E+01 0.00000E+00
 -1      1835 5.19000E+01 4.61030E+01 0.00000E+00
 -1      1836 4.96500E+01 4.48040E+01 0.00000E+00
 -1      1837 5.34000E+01 4.61030E+01 0.00000E+00
 -1      1838 5.49000E+01 4.61030E+01 0.00000E+00
 -1      1839 5.26500E+01 4.48040E+01 0.00000E+00
 -1      1840 5.64000E+01 4.61030E+01 0.00000E+00
 -1      1841 5.79000E+01 4.61030E+01 0.00000E+00
 -1      1842 5.56500E+01 4.48040E+01 0.00000E+00
 -1      1843 5.94000E+01 4.61030E+01 0.00000E+00
 -1      1844 6.09000E+01 4.61030E+01 0.00000E+00
 -1      1845 5.86500E+01 4.48040E+01 0.00000E+00
 -1      1846 6.24000E+01 4.61030E+01 0.00000E+00
 -1      1847 6.39000E+01 4.61030E+01 0.00000E+00
 -1      1848 6.16500E+01 4.48040E+01 0.00000E+00
 -1      1849 6.54000E+01 4.61030E+01 0.00000E+00
 -1      1850 6.69000E+01 4.61030E+01 0.00000E+00
 -1      1851 6.46500E+01 4.48040E+01 0.00000E+00
 -1      1852 6.84000E+01 4.61030E+01 0.00000E+00
 -1      1853 6.99000E+01 4.61030E+01 0.00000E+00
 -1      1854 6.76500E+01 4.48040E+01 0.00000E+00
 -1      1855 7.14000E+01 4.61030E+01 0.00000E+00
 -1      1856 7.29000E+01 4.61030E+01 0.00000E+00
 -1      1857 7.06500E+01 4.48040E+01 0.00000E+00
 -1      1858 7.44000E+01 4.61030E+01 0.00000E+00
 -1      1859 7.59000E+01 4.61030E+01 0.00000E+00
 -1      1860 7.36500E+01 4.48040E+01 0.00000E+00
 -1      1861 7.74000E+01 4.61030E+01 0.00000E+00
 -1      1862 7.89000E+01 4.61030E+01 0.00000E+00
 -1      1863 7.66500E+01 4.48040E+01 0.00000E+00
 -1      1864 8.04000E+01 4.61030E+01 0.00000E+00
 -1      1865 8.19000E+01 4.61030E+01 0.00000E+00
 -1      1866 7.96500E+01 4.48040E+01 0.00000E+00
 -1      1867 8.34000E+01 4.61030E+01 0.00000E+00
 -1      1868 8.49000E+01 4.61030E+01 0.00000E+00
 -1      1869 8.26500E+01 4.48040E+01 0.00000E+00
 -1      1870 8.64000E+01 4.61030E+01 0.00000E+00
 -1      1871 8.79000E+01 4.61030E+01 0.00000E+00
 -1      1872 8.56500E+01 4.48040E+01 0.00000E+00
 -1      1873 8.94000E+01 4.61030E+01 0.00000E+00
 -1      1874 9.09000E+01 4.61030E+01 0.00000E+00
 -1      1875 8.86500E+01 4.48040E+01 0.00000E+00
 -1      1876 9.24000E+01 4.61030E+01 0.00000E+00
 -1      1877 9.39000E+01 4.61030E+01 0.00000E+00
 -1      1878 9.16500E+01 4.48040E+01 0.00000E+00
 -1      1879 9.54000E+01 4.61030E+01 0.00000E+00
 -1      1880 9.69000E+01 4.61030E+01 0.00000E+00
 -1      1881 9.46500E+01 4.48040E+01 0.00000E+00
 -1      1882 9.84000E+01 4.61030E+01 0.00000E+00
 -1      1883 9.99000E+01 4.61030E+01 0.00000E+00
 -1      1884 9.76500E+01 4.48040E+01 0.00000E+00
 -1      1885 1.01400E+02 4.61030E+01 0.00000E+00
 -1      1886 1.02900E+02 4.61030E+01 0.00000E+00
 -1      1887 1.00650E+02 4.48040E+01 0.00000E+00
 -1      1888 1.04400E+02 4.61030E+01 0.00000E+00
 -1      1889 1.05900E+02 4.61030E+01 0.00000E+00
 -1      1890 1.03650E+02 4.48040E+01 0.00000E+00
 -1      1891 1.07400E+02 4.61030E+01 0.00000E+00
 -1      1892 1.08900E+02 4.61030E+01 0.00000E+00
 -1      1893 1.06650E+02 4.48040E+01 0.00000E+00
 -1      1894 1.10400E+02 4.61030E+01 0.00000E+00
 -1      1895 1.11900E+02 4.61030E+01 0.00000E+00
 -1      1896 1.09650E+02 4.48040E+01 0.00000E+00
 -1      1897 1.13400E+02 4.61030E+01 0.00000E+00
 -1      1898 1.14900E+02 4.61030E+01 0.00000E+00
 -1      1899 1.12650E+02 4.48040E+01 0.00000E+00
 -1      1900 1.16400E+02 4.61030E+01 0.00000E+00
 -1      1901 1.17900E+02 4.61030E+01 0.00000E+00
 -1      1902 1.15650E+02 4.48040E+01 0.00000E+00
 -1      1903 1.19400E+02 4.61030E+01 0.00000E+00
 -1      1904 1.20900E+02 4.61030E+01 0.00000E+00
 -1      1905 1.18650E+02 4.48040E+01 0.00000E+00
 -1      1906 1.22400E+02 4.61030E+01 0.00000E+00
 -1      1907 1.23900E+02 4.61030E+01 0.00000E+00
 -1      1908 1.21650E+02 4.48040E+01 0.00000E+00
 -1      1909 1.25400E+02 4.61030E+01 0.00000E+00
 -1      1910 1.26900E+02 4.61030E+01 0.00000E+00
 -1      1911 1.24650E+02 4.48040E+01 0.00000E+00
 -1      1912 1.28400E+02 4.61030E+01 0.00000E+00
 -1      1913 1.29900E+02 4.61030E+01 0.00000E+00
 -1      1914 1.27650E+02 4.48040E+01 0.00000E+00
 -1      1915 1.31400E+02 4.61030E+01 0.00000E+00
 -1      1916 1.32900E+02 4.61030E+01 0.00000E+00
 -1      1917 1.30650E+02 4.48040E+01 0.00000E+00
 -1      1918 1.34400E+02 4.61030E+01 0.00000E+00
 -1      1919 1.35900E+02 4.61030E+01 0.00000E+00
 -1      1920 1.33650E+02 4.48040E+01 0.00000E+00
 -1      1921 1.37400E+02 4.61030E+01 0.00000E+00
 -1      1922 1.38900E+02 4.61030E+01 0.00000E+00
 -1      1923 1.36650E+02 4.48040E+01 0.00000E+00
 -1      1924 1.40400E+02 4.61030E+01 0.00000E+00
 -1      1925 1.41900E+02 4.61030E+01 0.00000E+00
 -1      1926 1.39650E+02 4.48040E+01 0.00000E+00
 -1      1927 1.43400E+02 4.61030E+01 0.00000E+00
 -1      1928 1.44900E+02 4.61030E+01 0.00000E+00
 -1      1929 1.42650E+02 4.48040E+01 0.00000E+00
 -1      1930 1.27500E+01 3.89700E+00 0.00000E+00
 -1      1931 1.12500E+01 3.89700E+00 0.00000E+00
 -1      1932 9.75000E+00 3.89700E+00 0.00000E+00
 -1      1933 8.25000E+00 3.89700E+00 0.00000E+00
 -1      1934 1.05000E+01 5.19600E+00 0.00000E+00
 -1      1935 1.57500E+01 3.89700E+00 0.00000E+00
 -1      1936 1.42500E+01 3.89700E+00 0.00000E+00
 -1      1937 1.35000E+01 5.19600E+00 0.00000E+00
 -1      1938 1.87500E+01 3.89700E+00 0.00000E+00
 -1      1939 1.72500E+01 3.89700E+00 0.00000E+00
 -1      1940 1.65000E+01 5.19600E+00 0.00000E+00
 -1      1941 2.17500E+01 3.89700E+00 0.00000E+00
 -1      1942 2.02500E+01 3.89700E+00 0.00000E+00
 -1      1943 1.95000E+01 5.19600E+00 0.00000E+00
 -1      1944 2.47500E+01 3.89700E+00 0.00000E+00
 -1      1945 2.32500E+01 3.89700E+00 0.00000E+00
 -1      1946 2.25000E+01 5.19600E+00 0.00000E+00
 -1      1947 2.77500E+01 3.89700E+00 0.00000E+00
 -1      1948 2.62500E+01 3.89700E+00 0.00000E+00
 -1      1949 2.55000E+01 5.19600E+00 0.00000E+00
 -1      1950 3.07500E+01 3.89700E+00 0.00000E+00
 -1      1951 2.92500E+01 3.89700E+00 0.00000E+00
 -1      1952 2.85000E+01 5.19600E+00 0.00000E+00
 -1      1953 3.37500E+01 3.89700E+00 0.00000E+00
 -1      1954 3.22500E+01 3.89700E+00 0.00000E+00
 -1      1955 3.15000E+01 5.19600E+00 0.00000E+00
 -1      1956 3.67500E+01 3.89700E+00 0.00000E+00
 -1      1957 3.52500E+01 3.89700E+00 0.00000E+00
 -1      1958 3.45000E+01 5.19600E+00 0.00000E+00
 -1      1959 3.97500E+01 3.89700E+00 0.00000E+00
 -1      1960 3.82500E+01 3.89700E+00 0.00000E+00
 -1      1961 3.75000E+01 5.19600E+00 0.00000E+00
 -1      1962 4.27500E+01 3.89700E+00 0.00000E+00
 -1      1963 4.12500E+01 3.89700E+00 0.00000E+00
 -1      1964 4.05000E+01 5.19600E+00 0.00000E+00
 -1      1965 4.57500E+01 3.89700E+00 0.00000E+00
 -1      1966 4.42500E+01 3.89700E+00 0.00000E+00
 -1      1967 4.35000E+01 5.19600E+00 0.00000E+00
 -1      1968 4.87500E+01 3.89700E+00 0.00000E+00
 -1      1969 4.72500E+01 3.89700E+00 0.00000E+00
 -1      1970 4.65000E+01 5.19600E+00 0.00000E+00
 -1      1971 5.16000E+01 3.89700E+00 0.00000E+00
 -1      1972 5.01750E+01 3.89700E+00 0.00000E+00
 -1      1973 4.94250E+01 5.19600E+00 0.00000E+00
 -1      1974 5.46000E+01 3.89700E+00 0.00000E+00
 -1      1975 5.31000E+01 3.89700E+00 0.00000E+00
 -1      1976 5.23500E+01 5.19600E+00 0.00000E+00
 -1      1977 6.84190E+01 2.29220E+00 0.00000E+00
 -1      1978 6.72940E+01 2.29220E+00 0.00000E+00
 -1      1979 6.63862E+01 2.23862E+00 0.00000E+00
 -1      1980 6.52612E+01 2.23862E+00 0.00000E+00
 -1      1981 7.37250E+01 2.74023E+00 0.00000E+00
 -1      1982 7.23750E+01 2.74023E+00 0.00000E+00
 -1      1983 7.65375E+01 2.82402E+00 0.00000E+00
 -1      1984 7.51125E+01 2.82402E+00 0.00000E+00
 -1      1985 7.95375E+01 2.82402E+00 0.00000E+00
 -1      1986 7.80375E+01 2.82402E+00 0.00000E+00
 -1      1987 7.73250E+01 3.93293E+00 0.00000E+00
 -1      1988 8.25375E+01 2.82402E+00 0.00000E+00
 -1      1989 8.10375E+01 2.82402E+00 0.00000E+00
 -1      1990 8.03250E+01 3.93293E+00 0.00000E+00
 -1      1991 8.55375E+01 2.82402E+00 0.00000E+00
 -1      1992 8.40375E+01 2.82402E+00 0.00000E+00
 -1      1993 8.33250E+01 3.93293E+00 0.00000E+00
 -1      1994 8.85375E+01 2.82402E+00 0.00000E+00
 -1      1995 8.70375E+01 2.82402E+00 0.00000E+00
 -1      1996 8.63250E+01 3.93293E+00 0.00000E+00
 -1      1997 9.15375E+01 2.82402E+00 0.00000E+00
 -1      1998 9.00375E+01 2.82402E+00 0.00000E+00
 -1      1999 8.93250E+01 3.93293E+00 0.00000E+00
 -1      2000 9.45375E+01 2.82402E+00 0.00000E+00
 -1      2001 9.30375E+01 2.82402E+00 0.00000E+00
 -1      2002 9.23250E+01 3.93293E+00 0.00000E+00
 -1      2003 9.73875E+01 2.82402E+00 0.00000E+00
 -1      2004 9.59625E+01 2.82402E+00 0.00000E+00
 -1      2005 9.52500E+01 3.93293E+00 0.00000E+00
 -1      2006 1.00387E+02 2.82402E+00 0.00000E+00
 -1      2007 9.88875E+01 2.82402E+00 0.00000E+00
 -1      2008 9.81750E+01 3.93293E+00 0.00000E+00
 -1      2009 1.03387E+02 2.82402E+00 0.00000E+00
 -1      2010 1.01887E+02 2.82402E+00 0.00000E+00
 -1      2011 1.01175E+02 3.93293E+00 0.00000E+00
 -1      2012 1.06387E+02 2.82402E+00 0.00000E+00
 -1      2013 1.04887E+02 2.82402E+00 0.00000E+00
 -1      2014 1.04175E+02 3.93293E+00 0.00000E+00
 -1      2015 1.09387E+02 2.82402E+00 0.00000E+00
 -1      2016 1.07887E+02 2.82402E+00 0.00000E+00
 -1      2017 1.07175E+02 3.93293E+00 0.00000E+00
 -1      2018 1.12387E+02 2.82402E+00 0.00000E+00
 -1      2019 1.10887E+02 2.82402E+00 0.00000E+00
 -1      2020 1.10175E+02 3.93293E+00 0.00000E+00
 -1      2021 1.15387E+02 2.82402E+00 0.00000E+00
 -1      2022 1.13887E+02 2.82402E+00 0.00000E+00
 -1      2023 1.13175E+02 3.93293E+00 0.00000E+00
 -1      2024 1.18387E+02 2.82402E+00 0.00000E+00
 -1      2025 1.16887E+02 2.82402E+00 0.00000E+00
 -1      2026 1.16175E+02 3.93293E+00 0.00000E+00
 -1      2027 1.21387E+02 2.82402E+00 0.00000E+00
 -1      2028 1.19887E+02 2.82402E+00 0.00000E+00
 -1      2029 1.19175E+02 3.93293E+00 0.00000E+00
 -1      2030 1.24387E+02 2.82402E+00 0.00000E+00
 -1      2031 1.22887E+02 2.82402E+00 0.00000E+00
 -1      2032 1.22175E+02 3.93293E+00 0.00000E+00
 -1      2033 1.27387E+02 2.82402E+00 0.00000E+00
 -1      2034 1.25887E+02 2.82402E+00 0.00000E+00
 -1      2035 1.25175E+02 3.93293E+00 0.00000E+00
 -1      2036 1.30387E+02 2.82402E+00 0.00000E+00
 -1      2037 1.28887E+02 2.82402E+00 0.00000E+00
 -1      2038 1.28175E+02 3.93293E+00 0.00000E+00
 -1      2039 1.33387E+02 2.82402E+00 0.00000E+00
 -1      2040 1.31887E+02 2.82402E+00 0.00000E+00
 -1      2041 1.31175E+02 3.93293E+00 0.00000E+00
 -1      2042 1.36387E+02 2.82402E+00 0.00000E+00
 -1      2043 1.34887E+02 2.82402E+00 0.00000E+00
 -1      2044 1.34175E+02 3.93293E+00 0.00000E+00
 -1      2045 1.39387E+02 2.82402E+00 0.00000E+00
 -1      2046 1.37887E+02 2.82402E+00 0.00000E+00
 -1      2047 1.37175E+02 3.93293E+00 0.00000E+00
 -1      2048 1.42387E+02 2.82402E+00 0.00000E+00
 -1      2049 1.40887E+02 2.82402E+00 0.00000E+00
 -1      2050 1.40175E+02 3.93293E+00 0.00000E+00
 -1      2051 1.45387E+02 2.82402E+00 0.00000E+00
 -1      2052 1.43887E+02 2.82402E+00 0.00000E+00
 -1      2053 1.43175E+02 3.93293E+00 0.00000E+00
 -1      2054 1.47206E+02 3.47015E+00 0.00000E+00
 -1      2055 1.46231E+02 3.16143E+00 0.00000E+00
 -1      2056 1.45519E+02 4.27034E+00 0.00000E+00
 -1      2057 1.47206E+02 4.94515E+00 0.00000E+00
 -1      2058 1.46751E+02 1.04451E+01 0.00000E+00
 -1      2059 1.46751E+02 8.97005E+00 0.00000E+00
 -1      2060 1.46979E+02 7.69510E+00 0.00000E+00
 -1      2061 1.46979E+02 6.22010E+00 0.00000E+00
 -1      2062 1.46135E+02 5.88270E+00 0.00000E+00
 -1      2063 1.45680E+02 8.43260E+00 0.00000E+00
 -1      2064 1.46751E+02 1.33951E+01 0.00000E+00
 -1      2065 1.46751E+02 1.19201E+01 0.00000E+00
 -1      2066 1.45452E+02 1.11826E+01 0.00000E+00
 -1      2067 1.46751E+02 1.62951E+01 0.00000E+00
 -1      2068 1.46751E+02 1.48451E+01 0.00000E+00
 -1      2069 1.45452E+02 1.41076E+01 0.00000E+00
 -1      2070 1.46751E+02 1.92451E+01 0.00000E+00
 -1      2071 1.46751E+02 1.77701E+01 0.00000E+00
 -1      2072 1.45452E+02 1.70326E+01 0.00000E+00
 -1      2073 1.46751E+02 2.21951E+01 0.00000E+00
 -1      2074 1.46751E+02 2.07201E+01 0.00000E+00
 -1      2075 1.45452E+02 1.99826E+01 0.00000E+00
 -1      2076 1.46751E+02 2.51451E+01 0.00000E+00
 -1      2077 1.46751E+02 2.36701E+01 0.00000E+00
 -1      2078 1.45452E+02 2.29326E+01 0.00000E+00
 -1      2079 1.46751E+02 2.80951E+01 0.00000E+00
 -1      2080 1.46751E+02 2.66201E+01 0.00000E+00
 -1      2081 1.45452E+02 2.58826E+01 0.00000E+00
 -1      2082 1.46751E+02 3.10451E+01 0.00000E+00
 -1      2083 1.46751E+02 2.95701E+01 0.00000E+00
 -1      2084 1.45452E+02 2.88326E+01 0.00000E+00
 -1      2085 1.46751E+02 3.39451E+01 0.00000E+00
 -1      2086 1.46751E+02 3.24951E+01 0.00000E+00
 -1      2087 1.45452E+02 3.17576E+01 0.00000E+00
 -1      2088 1.46751E+02 3.68951E+01 0.00000E+00
 -1      2089 1.46751E+02 3.54201E+01 0.00000E+00
 -1      2090 1.45452E+02 3.46826E+01 0.00000E+00
 -1      2091 1.46751E+02 3.98451E+01 0.00000E+00
 -1      2092 1.46751E+02 3.83701E+01 0.00000E+00
 -1      2093 1.45452E+02 3.76326E+01 0.00000E+00
 -1      2094 1.46751E+02 4.27951E+01 0.00000E+00
 -1      2095 1.46751E+02 4.13201E+01 0.00000E+00
 -1      2096 1.45452E+02 4.05826E+01 0.00000E+00
 -1      2097 7.29040E+01 5.10789E+00 0.00000E+00
 -1      2098 7.35463E+01 5.74508E+00 0.00000E+00
 -1      2099 1.46526E+02 4.65135E+01 0.00000E+00
 -1      2100 7.50596E+01 1.05906E+01 0.00000E+00
 -1      2101 7.50181E+01 1.14764E+01 0.00000E+00
 -1      2102 6.32707E+01 2.67565E+00 0.00000E+00
 -1      2103 3.89700E+00 3.74688E+01 0.00000E+00
 -1      2104 3.89700E+00 3.89437E+01 0.00000E+00
 -1      2105 5.19600E+00 3.96813E+01 0.00000E+00
 -1      2106 5.19600E+00 3.67438E+01 0.00000E+00
 -1      2107 7.19111E+01 4.01579E+00 0.00000E+00
 -1      2108 7.25440E+01 4.55199E+00 0.00000E+00
 -1      2109 6.92726E+01 2.58083E+00 0.00000E+00
 -1      2110 6.44055E+01 2.41303E+00 0.00000E+00
 -1      2111 6.05446E+01 3.59632E+00 0.00000E+00
 -1      2112 5.83864E+01 6.49130E+00 0.00000E+00
 -1      2113 5.88865E+01 5.79078E+00 0.00000E+00
 -1      2114 5.77152E+01 8.29153E+00 0.00000E+00
 -1      2115 5.79783E+01 7.48237E+00 0.00000E+00
 -1      2116 5.72917E+01 1.00568E+01 0.00000E+00
 -1      2117 5.75035E+01 9.17415E+00 0.00000E+00
 -1      2118 5.69789E+01 8.55620E+00 0.00000E+00
 -1      2119 5.72662E+01 1.21487E+01 0.00000E+00
 -1      2120 5.71235E+01 1.12467E+01 0.00000E+00
 -1      2121 5.76209E+01 1.39024E+01 0.00000E+00
 -1      2122 5.74435E+01 1.30256E+01 0.00000E+00
 -1      2123 5.66079E+01 1.26955E+01 0.00000E+00
 -1      2124 5.86349E+01 1.57264E+01 0.00000E+00
 -1      2125 5.81351E+01 1.49884E+01 0.00000E+00
 -1      2126 5.97625E+01 1.71123E+01 0.00000E+00
 -1      2127 5.92111E+01 1.64782E+01 0.00000E+00
 -1      2128 6.10914E+01 1.83846E+01 0.00000E+00
 -1      2129 6.04286E+01 1.77879E+01 0.00000E+00
 -1      2130 6.29198E+01 1.94122E+01 0.00000E+00
 -1      2131 6.20397E+01 1.90639E+01 0.00000E+00
 -1      2132 6.48968E+01 1.97590E+01 0.00000E+00
 -1      2133 6.39917E+01 1.96189E+01 0.00000E+00
 -1      2134 6.68109E+01 1.99279E+01 0.00000E+00
 -1      2135 6.59210E+01 1.99510E+01 0.00000E+00
 -1      2136 6.86866E+01 1.96209E+01 0.00000E+00
 -1      2137 6.77918E+01 1.97567E+01 0.00000E+00
 -1      2138 7.06417E+01 1.89064E+01 0.00000E+00
 -1      2139 6.98428E+01 1.93539E+01 0.00000E+00
 -1      2140 7.21079E+01 1.75296E+01 0.00000E+00
 -1      2141 7.14242E+01 1.81421E+01 0.00000E+00
 -1      2142 7.34380E+01 1.61075E+01 0.00000E+00
 -1      2143 7.28793E+01 1.68255E+01 0.00000E+00
 -1      2144 7.43103E+01 1.43325E+01 0.00000E+00
 -1      2145 7.39243E+01 1.51551E+01 0.00000E+00
 -1      2146 7.48020E+01 1.24614E+01 0.00000E+00
 -1      2147 7.46083E+01 1.33329E+01 0.00000E+00
 -1      2148 4.84800E+00 4.21150E+00 0.00000E+00
 -1      2149 7.49253E+01 8.64877E+00 0.00000E+00
 -1      2150 7.50772E+01 9.53324E+00 0.00000E+00
 -1      2151 4.92300E+00 4.57510E+01 0.00000E+00
 -1      2152 5.98862E+01 4.41936E+00 0.00000E+00
 -1      2153 5.94916E+01 3.42104E+00 0.00000E+00
 -1      2154 5.83666E+01 3.42104E+00 0.00000E+00
 -1      2155 5.92998E+01 5.06711E+00 0.00000E+00
 -1      2156 1.45776E+02 4.52145E+01 0.00000E+00
 -1      2157 7.55359E+01 7.88548E+00 0.00000E+00
 -1      2158 7.57875E+01 1.00104E+01 0.00000E+00
 -1      2159 7.45184E+01 5.84758E+00 0.00000E+00
 -1      2160 5.84199E+01 4.96775E+00 0.00000E+00
 -1      2161 6.42300E+00 4.57510E+01 0.00000E+00
 -1      2162 5.72995E+01 1.46584E+01 0.00000E+00
 -1      2163 7.17300E+00 4.44520E+01 0.00000E+00
 -1      2164 7.12361E+01 2.99066E+00 0.00000E+00
 -1      2165 7.00361E+01 2.99066E+00 0.00000E+00
 -1      2166 7.09800E+00 5.51050E+00 0.00000E+00
 -1      2167 6.34800E+00 4.21150E+00 0.00000E+00
 -1      2168 6.53629E+01 2.05628E+01 0.00000E+00
 -1      2169 5.58628E+01 3.76007E+00 0.00000E+00
 -1      2170 5.51128E+01 5.05907E+00 0.00000E+00
 -1      2171 5.65989E+01 1.06287E+01 0.00000E+00
 -1      2172 5.71378E+01 3.76007E+00 0.00000E+00
 -1      2173 7.34101E+01 4.32126E+00 0.00000E+00
 -1      2174 7.44375E+01 3.84915E+00 0.00000E+00
 -1      2175 7.14439E+01 1.91140E+01 0.00000E+00
 -1      2176 1.46100E+02 4.41683E+01 0.00000E+00
 -1      2177 7.55539E+01 1.20528E+01 0.00000E+00
 -1      2178 6.95051E+01 2.01454E+01 0.00000E+00
 -1      2179 7.50399E+01 1.40374E+01 0.00000E+00
 -1      2180 7.42556E+01 1.59893E+01 0.00000E+00
 -1      2181 7.29979E+01 1.76457E+01 0.00000E+00
 -1      2182 6.73681E+01 2.05836E+01 0.00000E+00
 -1      2183 6.32668E+01 2.01642E+01 0.00000E+00
 -1      2184 6.12467E+01 1.92783E+01 0.00000E+00
 -1      2185 5.96322E+01 1.79235E+01 0.00000E+00
 -1      2186 5.76044E+01 4.58311E+00 0.00000E+00
 -1      2187 5.75987E+01 6.68250E+00 0.00000E+00
 -1      2188 5.83899E+01 1.64962E+01 0.00000E+00
 -1      2189 1.44801E+02 4.34308E+01 0.00000E+00
 -1      2190 6.49500E+00 3.01125E+01 0.00000E+00
 -1      2191 6.49500E+00 3.15875E+01 0.00000E+00
 -1      2192 6.49500E+00 3.30625E+01 0.00000E+00
 -1      2193 6.49500E+00 3.45375E+01 0.00000E+00
 -1      2194 7.79400E+00 3.23250E+01 0.00000E+00
 -1      2195 6.49500E+00 2.42125E+01 0.00000E+00
 -1      2196 6.49500E+00 2.56875E+01 0.00000E+00
 -1      2197 6.49500E+00 2.12625E+01 0.00000E+00
 -1      2198 6.49500E+00 2.27375E+01 0.00000E+00
 -1      2199 7.79400E+00 2.34750E+01 0.00000E+00
 -1      2200 6.49500E+00 1.83625E+01 0.00000E+00
 -1      2201 6.49500E+00 1.98125E+01 0.00000E+00
 -1      2202 7.79400E+00 2.05500E+01 0.00000E+00
 -1      2203 6.49500E+00 1.54125E+01 0.00000E+00
 -1      2204 6.49500E+00 1.68875E+01 0.00000E+00
 -1      2205 7.79400E+00 1.76250E+01 0.00000E+00
 -1      2206 6.49500E+00 1.24625E+01 0.00000E+00
 -1      2207 6.49500E+00 1.39375E+01 0.00000E+00
 -1      2208 7.79400E+00 1.46750E+01 0.00000E+00
 -1      2209 6.49500E+00 9.51250E+00 0.00000E+00
 -1      2210 6.49500E+00 1.09875E+01 0.00000E+00
 -1      2211 7.79400E+00 1.17250E+01 0.00000E+00
 -1      2212 6.79650E+00 6.77400E+00 0.00000E+00
 -1      2213 6.79650E+00 8.24900E+00 0.00000E+00
 -1      2214 8.09550E+00 8.98650E+00 0.00000E+00
 -1      2215 8.69850E+00 6.45950E+00 0.00000E+00
 -1      2216 9.90000E+00 4.35050E+01 0.00000E+00
 -1      2217 1.14000E+01 4.35050E+01 0.00000E+00
 -1      2218 7.61110E+01 7.17276E+00 0.00000E+00
 -1      2219 7.63802E+01 8.24024E+00 0.00000E+00
 -1      2220 1.29000E+01 4.35050E+01 0.00000E+00
 -1      2221 1.44000E+01 4.35050E+01 0.00000E+00
 -1      2222 1.21500E+01 4.22060E+01 0.00000E+00
 -1      2223 1.59000E+01 4.35050E+01 0.00000E+00
 -1      2224 1.74000E+01 4.35050E+01 0.00000E+00
 -1      2225 1.51500E+01 4.22060E+01 0.00000E+00
 -1      2226 1.89000E+01 4.35050E+01 0.00000E+00
 -1      2227 2.04000E+01 4.35050E+01 0.00000E+00
 -1      2228 1.81500E+01 4.22060E+01 0.00000E+00
 -1      2229 2.19000E+01 4.35050E+01 0.00000E+00
 -1      2230 2.34000E+01 4.35050E+01 0.00000E+00
 -1      2231 2.11500E+01 4.22060E+01 0.00000E+00
 -1      2232 2.49000E+01 4.35050E+01 0.00000E+00
 -1      2233 2.64000E+01 4.35050E+01 0.00000E+00
 -1      2234 2.41500E+01 4.22060E+01 0.00000E+00
 -1      2235 2.79000E+01 4.35050E+01 0.00000E+00
 -1      2236 2.94000E+01 4.35050E+01 0.00000E+00
 -1      2237 2.71500E+01 4.22060E+01 0.00000E+00
 -1      2238 3.09000E+01 4.35050E+01 0.00000E+00
 -1      2239 3.24000E+01 4.35050E+01 0.00000E+00
 -1      2240 3.01500E+01 4.22060E+01 0.00000E+00
 -1      2241 3.39000E+01 4.35050E+01 0.00000E+00
 -1      2242 3.54000E+01 4.35050E+01 0.00000E+00
 -1      2243 3.31500E+01 4.22060E+01 0.00000E+00
 -1      2244 3.69000E+01 4.35050E+01 0.00000E+00
 -1      2245 3.84000E+01 4.35050E+01 0.00000E+00
 -1      2246 3.61500E+01 4.22060E+01 0.00000E+00
 -1      2247 3.99000E+01 4.35050E+01 0.00000E+00
 -1      2248 4.14000E+01 4.35050E+01 0.00000E+00
 -1      2249 3.91500E+01 4.22060E+01 0.00000E+00
 -1      2250 4.29000E+01 4.35050E+01 0.00000E+00
 -1      2251 4.44000E+01 4.35050E+01 0.00000E+00
 -1      2252 4.21500E+01 4.22060E+01 0.00000E+00
 -1      2253 4.59000E+01 4.35050E+01 0.00000E+00
 -1      2254 4.74000E+01 4.35050E+01 0.00000E+00
 -1      2255 4.51500E+01 4.22060E+01 0.00000E+00
 -1      2256 4.89000E+01 4.35050E+01 0.00000E+00
 -1      2257 5.04000E+01 4.35050E+01 0.00000E+00
 -1      2258 4.81500E+01 4.22060E+01 0.00000E+00
 -1      2259 5.19000E+01 4.35050E+01 0.00000E+00
 -1      2260 5.34000E+01 4.35050E+01 0.00000E+00
 -1      2261 5.11500E+01 4.22060E+01 0.00000E+00
 -1      2262 5.49000E+01 4.35050E+01 0.00000E+00
 -1      2263 5.64000E+01 4.35050E+01 0.00000E+00
 -1      2264 5.41500E+01 4.22060E+01 0.00000E+00
 -1      2265 5.79000E+01 4.35050E+01 0.00000E+00
 -1      2266 5.94000E+01 4.35050E+01 0.00000E+00
 -1      2267 5.71500E+01 4.22060E+01 0.00000E+00
 -1      2268 6.09000E+01 4.35050E+01 0.00000E+00
 -1      2269 6.24000E+01 4.35050E+01 0.00000E+00
 -1      2270 6.01500E+01 4.22060E+01 0.00000E+00
 -1      2271 6.39000E+01 4.35050E+01 0.00000E+00
 -1      2272 6.54000E+01 4.35050E+01 0.00000E+00
 -1      2273 6.31500E+01 4.22060E+01 0.00000E+00
 -1      2274 6.69000E+01 4.35050E+01 0.00000E+00
 -1      2275 6.84000E+01 4.35050E+01 0.00000E+00
 -1      2276 6.61500E+01 4.22060E+01 0.00000E+00
 -1      2277 6.99000E+01 4.35050E+01 0.00000E+00
 -1      2278 7.14000E+01 4.35050E+01 0.00000E+00
 -1      2279 6.91500E+01 4.22060E+01 0.00000E+00
 -1      2280 7.29000E+01 4.35050E+01 0.00000E+00
 -1      2281 7.44000E+01 4.35050E+01 0.00000E+00
 -1      2282 7.21500E+01 4.22060E+01 0.00000E+00
 -1      2283 7.59000E+01 4.35050E+01 0.00000E+00
 -1      2284 7.74000E+01 4.35050E+01 0.00000E+00
 -1      2285 7.51500E+01 4.22060E+01 0.00000E+00
 -1      2286 7.89000E+01 4.35050E+01 0.00000E+00
 -1      2287 8.04000E+01 4.35050E+01 0.00000E+00
 -1      2288 7.81500E+01 4.22060E+01 0.00000E+00
 -1      2289 8.19000E+01 4.35050E+01 0.00000E+00
 -1      2290 8.34000E+01 4.35050E+01 0.00000E+00
 -1      2291 8.11500E+01 4.22060E+01 0.00000E+00
 -1      2292 8.49000E+01 4.35050E+01 0.00000E+00
 -1      2293 8.64000E+01 4.35050E+01 0.00000E+00
 -1      2294 8.41500E+01 4.22060E+01 0.00000E+00
 -1      2295 8.79000E+01 4.35050E+01 0.00000E+00
 -1      2296 8.94000E+01 4.35050E+01 0.00000E+00
 -1      2297 8.71500E+01 4.22060E+01 0.00000E+00
 -1      2298 9.09000E+01 4.35050E+01 0.00000E+00
 -1      2299 9.24000E+01 4.35050E+01 0.00000E+00
 -1      2300 9.01500E+01 4.22060E+01 0.00000E+00
 -1      2301 9.39000E+01 4.35050E+01 0.00000E+00
 -1      2302 9.54000E+01 4.35050E+01 0.00000E+00
 -1      2303 9.31500E+01 4.22060E+01 0.00000E+00
 -1      2304 9.69000E+01 4.35050E+01 0.00000E+00
 -1      2305 9.84000E+01 4.35050E+01 0.00000E+00
 -1      2306 9.61500E+01 4.22060E+01 0.00000E+00
 -1      2307 9.99000E+01 4.35050E+01 0.00000E+00
 -1      2308 1.01400E+02 4.35050E+01 0.00000E+00
 -1      2309 9.91500E+01 4.22060E+01 0.00000E+00
 -1      2310 1.02900E+02 4.35050E+01 0.00000E+00
 -1      2311 1.04400E+02 4.35050E+01 0.00000E+00
 -1      2312 1.02150E+02 4.22060E+01 0.00000E+00
 -1      2313 1.05900E+02 4.35050E+01 0.00000E+00
 -1      2314 1.07400E+02 4.35050E+01 0.00000E+00
 -1      2315 1.05150E+02 4.22060E+01 0.00000E+00
 -1      2316 1.08900E+02 4.35050E+01 0.00000E+00
 -1      2317 1.10400E+02 4.35050E+01 0.00000E+00
 -1      2318 1.08150E+02 4.22060E+01 0.00000E+00
 -1      2319 1.11900E+02 4.35050E+01 0.00000E+00
 -1      2320 1.13400E+02 4.35050E+01 0.00000E+00
 -1      2321 1.11150E+02 4.22060E+01 0.00000E+00
 -1      2322 1.14900E+02 4.35050E+01 0.00000E+00
 -1      2323 1.16400E+02 4.35050E+01 0.00000E+00
 -1      2324 1.14150E+02 4.22060E+01 0.00000E+00
 -1      2325 1.17900E+02 4.35050E+01 0.00000E+00
 -1      2326 1.19400E+02 4.35050E+01 0.00000E+00
 -1      2327 1.17150E+02 4.22060E+01 0.00000E+00
 -1      2328 1.20900E+02 4.35050E+01 0.00000E+00
 -1      2329 1.22400E+02 4.35050E+01 0.00000E+00
 -1      2330 1.20150E+02 4.22060E+01 0.00000E+00
 -1      2331 1.23900E+02 4.35050E+01 0.00000E+00
 -1      2332 1.25400E+02 4.35050E+01 0.00000E+00
 -1      2333 1.23150E+02 4.22060E+01 0.00000E+00
 -1      2334 1.26900E+02 4.35050E+01 0.00000E+00
 -1      2335 1.28400E+02 4.35050E+01 0.00000E+00
 -1      2336 1.26150E+02 4.22060E+01 0.00000E+00
 -1      2337 1.29900E+02 4.35050E+01 0.00000E+00
 -1      2338 1.31400E+02 4.35050E+01 0.00000E+00
 -1      2339 1.29150E+02 4.22060E+01 0.00000E+00
 -1      2340 1.32900E+02 4.35050E+01 0.00000E+00
 -1      2341 1.34400E+02 4.35050E+01 0.00000E+00
 -1      2342 1.32150E+02 4.22060E+01 0.00000E+00
 -1      2343 1.35900E+02 4.35050E+01 0.00000E+00
 -1      2344 1.37400E+02 4.35050E+01 0.00000E+00
 -1      2345 1.35150E+02 4.22060E+01 0.00000E+00
 -1      2346 1.38900E+02 4.35050E+01 0.00000E+00
 -1      2347 1.40400E+02 4.35050E+01 0.00000E+00
 -1      2348 1.38150E+02 4.22060E+01 0.00000E+00
 -1      2349 1.41850E+02 4.34679E+01 0.00000E+00
 -1      2350 1.43350E+02 4.34679E+01 0.00000E+00
 -1      2351 1.44001E+02 4.20947E+01 0.00000E+00
 -1      2352 1.41100E+02 4.21689E+01 0.00000E+00
 -1      2353 1.72500E+01 6.49500E+00 0.00000E+00
 -1      2354 1.57500E+01 6.49500E+00 0.00000E+00
 -1      2355 2.02500E+01 6.49500E+00 0.00000E+00
 -1      2356 1.87500E+01 6.49500E+00 0.00000E+00
 -1      2357 1.80000E+01 7.79400E+00 0.00000E+00
 -1      2358 2.32500E+01 6.49500E+00 0.00000E+00
 -1      2359 2.17500E+01 6.49500E+00 0.00000E+00
 -1      2360 2.10000E+01 7.79400E+00 0.00000E+00
 -1      2361 2.62500E+01 6.49500E+00 0.00000E+00
 -1      2362 2.47500E+01 6.49500E+00 0.00000E+00
 -1      2363 2.40000E+01 7.79400E+00 0.00000E+00
 -1      2364 2.92500E+01 6.49500E+00 0.00000E+00
 -1      2365 2.77500E+01 6.49500E+00 0.00000E+00
 -1      2366 2.70000E+01 7.79400E+00 0.00000E+00
 -1      2367 3.22500E+01 6.49500E+00 0.00000E+00
 -1      2368 3.07500E+01 6.49500E+00 0.00000E+00
 -1      2369 3.00000E+01 7.79400E+00 0.00000E+00
 -1      2370 3.52500E+01 6.49500E+00 0.00000E+00
 -1      2371 3.37500E+01 6.49500E+00 0.00000E+00
 -1      2372 3.30000E+01 7.79400E+00 0.00000E+00
 -1      2373 3.82500E+01 6.49500E+00 0.00000E+00
 -1      2374 3.67500E+01 6.49500E+00 0.00000E+00
 -1      2375 3.60000E+01 7.79400E+00 0.00000E+00
 -1      2376 4.12500E+01 6.49500E+00 0.00000E+00
 -1      2377 3.97500E+01 6.49500E+00 0.00000E+00
 -1      2378 3.90000E+01 7.79400E+00 0.00000E+00
 -1      2379 4.42500E+01 6.49500E+00 0.00000E+00
 -1      2380 4.27500E+01 6.49500E+00 0.00000E+00
 -1      2381 4.20000E+01 7.79400E+00 0.00000E+00
 -1      2382 4.72500E+01 6.49500E+00 0.00000E+00
 -1      2383 4.57500E+01 6.49500E+00 0.00000E+00
 -1      2384 4.50000E+01 7.79400E+00 0.00000E+00
 -1      2385 5.01000E+01 6.49500E+00 0.00000E+00
 -1      2386 4.86750E+01 6.49500E+00 0.00000E+00
 -1      2387 4.79250E+01 7.79400E+00 0.00000E+00
 -1      2388 5.31000E+01 6.49500E+00 0.00000E+00
 -1      2389 5.16000E+01 6.49500E+00 0.00000E+00
 -1      2390 5.08500E+01 7.79400E+00 0.00000E+00
 -1      2391 5.57071E+01 1.11094E+01 0.00000E+00
 -1      2392 5.58754E+01 9.91955E+00 0.00000E+00
 -1      2393 8.70750E+01 5.23193E+00 0.00000E+00
 -1      2394 8.55750E+01 5.23193E+00 0.00000E+00
 -1      2395 9.00750E+01 5.23193E+00 0.00000E+00
 -1      2396 8.85750E+01 5.23193E+00 0.00000E+00
 -1      2397 8.78250E+01 6.53093E+00 0.00000E+00
 -1      2398 9.30750E+01 5.23193E+00 0.00000E+00
 -1      2399 9.15750E+01 5.23193E+00 0.00000E+00
 -1      2400 9.08250E+01 6.53093E+00 0.00000E+00
 -1      2401 9.59250E+01 5.23193E+00 0.00000E+00
 -1      2402 9.45000E+01 5.23193E+00 0.00000E+00
 -1      2403 9.37500E+01 6.53093E+00 0.00000E+00
 -1      2404 9.89250E+01 5.23193E+00 0.00000E+00
 -1      2405 9.74250E+01 5.23193E+00 0.00000E+00
 -1      2406 9.66750E+01 6.53093E+00 0.00000E+00
 -1      2407 1.01925E+02 5.23193E+00 0.00000E+00
 -1      2408 1.00425E+02 5.23193E+00 0.00000E+00
 -1      2409 9.96750E+01 6.53093E+00 0.00000E+00
 -1      2410 1.04925E+02 5.23193E+00 0.00000E+00
 -1      2411 1.03425E+02 5.23193E+00 0.00000E+00
 -1      2412 1.02675E+02 6.53093E+00 0.00000E+00
 -1      2413 1.07925E+02 5.23193E+00 0.00000E+00
 -1      2414 1.06425E+02 5.23193E+00 0.00000E+00
 -1      2415 1.05675E+02 6.53093E+00 0.00000E+00
 -1      2416 1.10925E+02 5.23193E+00 0.00000E+00
 -1      2417 1.09425E+02 5.23193E+00 0.00000E+00
 -1      2418 1.08675E+02 6.53093E+00 0.00000E+00
 -1      2419 1.13925E+02 5.23193E+00 0.00000E+00
 -1      2420 1.12425E+02 5.23193E+00 0.00000E+00
 -1      2421 1.11675E+02 6.53093E+00 0.00000E+00
 -1      2422 1.16925E+02 5.23193E+00 0.00000E+00
 -1      2423 1.15425E+02 5.23193E+00 0.00000E+00
 -1      2424 1.14675E+02 6.53093E+00 0.00000E+00
 -1      2425 1.19925E+02 5.23193E+00 0.00000E+00
 -1      2426 1.18425E+02 5.23193E+00 0.00000E+00
 -1      2427 1.17675E+02 6.53093E+00 0.00000E+00
 -1      2428 1.22925E+02 5.23193E+00 0.00000E+00
 -1      2429 1.21425E+02 5.23193E+00 0.00000E+00
 -1      2430 1.20675E+02 6.53093E+00 0.00000E+00
 -1      2431 1.25925E+02 5.23193E+00 0.00000E+00
 -1      2432 1.24425E+02 5.23193E+00 0.00000E+00
 -1      2433 1.23675E+02 6.53093E+00 0.00000E+00
 -1      2434 1.28925E+02 5.23193E+00 0.00000E+00
 -1      2435 1.27425E+02 5.23193E+00 0.00000E+00
 -1      2436 1.26675E+02 6.53093E+00 0.00000E+00
 -1      2437 1.31925E+02 5.23193E+00 0.00000E+00
 -1      2438 1.30425E+02 5.23193E+00 0.00000E+00
 -1      2439 1.29675E+02 6.53093E+00 0.00000E+00
 -1      2440 1.34925E+02 5.23193E+00 0.00000E+00
 -1      2441 1.33425E+02 5.23193E+00 0.00000E+00
 -1      2442 1.32675E+02 6.53093E+00 0.00000E+00
 -1      2443 1.37925E+02 5.23193E+00 0.00000E+00
 -1      2444 1.36425E+02 5.23193E+00 0.00000E+00
 -1      2445 1.35675E+02 6.53093E+00 0.00000E+00
 -1      2446 1.40925E+02 5.23193E+00 0.00000E+00
 -1      2447 1.39425E+02 5.23193E+00 0.00000E+00
 -1      2448 1.38675E+02 6.53093E+00 0.00000E+00
 -1      2449 1.45291E+02 5.54529E+00 0.00000E+00
 -1      2450 1.44447E+02 5.20788E+00 0.00000E+00
 -1      2451 1.45064E+02 6.82024E+00 0.00000E+00
 -1      2452 1.44153E+02 1.48326E+01 0.00000E+00
 -1      2453 1.44153E+02 1.33826E+01 0.00000E+00
 -1      2454 1.44153E+02 1.77826E+01 0.00000E+00
 -1      2455 1.44153E+02 1.63076E+01 0.00000E+00
 -1      2456 1.42854E+02 1.55826E+01 0.00000E+00
 -1      2457 1.44153E+02 1.19076E+01 0.00000E+00
 -1      2458 1.44153E+02 1.04326E+01 0.00000E+00
 -1      2459 1.42854E+02 1.26326E+01 0.00000E+00
 -1      2460 1.44153E+02 2.07326E+01 0.00000E+00
 -1      2461 1.44153E+02 1.92576E+01 0.00000E+00
 -1      2462 1.42854E+02 1.85326E+01 0.00000E+00
 -1      2463 1.44153E+02 2.36826E+01 0.00000E+00
 -1      2464 1.44153E+02 2.22076E+01 0.00000E+00
 -1      2465 1.42854E+02 2.14826E+01 0.00000E+00
 -1      2466 1.44153E+02 2.66326E+01 0.00000E+00
 -1      2467 1.44153E+02 2.51576E+01 0.00000E+00
 -1      2468 1.42854E+02 2.44326E+01 0.00000E+00
 -1      2469 1.44153E+02 2.95826E+01 0.00000E+00
 -1      2470 1.44153E+02 2.81076E+01 0.00000E+00
 -1      2471 1.42854E+02 2.73826E+01 0.00000E+00
 -1      2472 1.44153E+02 3.24826E+01 0.00000E+00
 -1      2473 1.44153E+02 3.10326E+01 0.00000E+00
 -1      2474 1.42854E+02 3.03076E+01 0.00000E+00
 -1      2475 1.44153E+02 3.54326E+01 0.00000E+00
 -1      2476 1.44153E+02 3.39576E+01 0.00000E+00
 -1      2477 1.42854E+02 3.32326E+01 0.00000E+00
 -1      2478 1.44153E+02 3.83826E+01 0.00000E+00
 -1      2479 1.44153E+02 3.69076E+01 0.00000E+00
 -1      2480 1.42854E+02 3.61826E+01 0.00000E+00
 -1      2481 1.44077E+02 4.09761E+01 0.00000E+00
 -1      2482 1.44077E+02 3.95011E+01 0.00000E+00
 -1      2483 1.42778E+02 3.87761E+01 0.00000E+00
 -1      2484 1.42627E+02 4.10132E+01 0.00000E+00
 -1      2485 5.71911E+01 5.30678E+00 0.00000E+00
 -1      2486 7.02762E+01 2.08474E+01 0.00000E+00
 -1      2487 6.91200E+01 2.11144E+01 0.00000E+00
 -1      2488 8.40750E+01 5.23193E+00 0.00000E+00
 -1      2489 8.25750E+01 5.23193E+00 0.00000E+00
 -1      2490 8.48250E+01 6.53093E+00 0.00000E+00
 -1      2491 8.10750E+01 5.23193E+00 0.00000E+00
 -1      2492 7.95750E+01 5.23193E+00 0.00000E+00
 -1      2493 8.18250E+01 6.53093E+00 0.00000E+00
 -1      2494 7.23758E+01 1.92854E+01 0.00000E+00
 -1      2495 7.15933E+01 2.00498E+01 0.00000E+00
 -1      2496 1.16985E+01 6.45950E+00 0.00000E+00
 -1      2497 1.01985E+01 6.45950E+00 0.00000E+00
 -1      2498 9.89700E+00 7.72300E+00 0.00000E+00
 -1      2499 6.49500E+00 2.71625E+01 0.00000E+00
 -1      2500 6.49500E+00 2.86375E+01 0.00000E+00
 -1      2501 7.79400E+00 2.93750E+01 0.00000E+00
 -1      2502 7.79400E+00 2.64250E+01 0.00000E+00
 -1      2503 1.44742E+01 6.47725E+00 0.00000E+00
 -1      2504 1.29742E+01 6.47725E+00 0.00000E+00
 -1      2505 1.26728E+01 7.74075E+00 0.00000E+00
 -1      2506 1.52242E+01 7.77625E+00 0.00000E+00
 -1      2507 5.67831E+01 6.29786E+00 0.00000E+00
 -1      2508 5.59675E+01 5.91323E+00 0.00000E+00
 -1      2509 5.63750E+01 7.28894E+00 0.00000E+00
 -1      2510 7.64586E+01 1.17350E+01 0.00000E+00
 -1      2511 7.62426E+01 1.27200E+01 0.00000E+00
 -1      2512 5.79308E+01 1.74447E+01 0.00000E+00
 -1      2513 5.73546E+01 1.66928E+01 0.00000E+00
 -1      2514 5.60193E+01 9.04556E+00 0.00000E+00
 -1      2515 5.62311E+01 8.16293E+00 0.00000E+00
 -1      2516 5.54155E+01 7.77830E+00 0.00000E+00
 -1      2517 5.51276E+01 9.52628E+00 0.00000E+00
 -1      2518 6.55950E+00 4.28890E+01 0.00000E+00
 -1      2519 8.53650E+00 4.32410E+01 0.00000E+00
 -1      2520 9.28650E+00 4.19420E+01 0.00000E+00
 -1      2521 6.55950E+00 4.14140E+01 0.00000E+00
 -1      2522 5.57739E+01 1.33205E+01 0.00000E+00
 -1      2523 5.55966E+01 1.24436E+01 0.00000E+00
 -1      2524 5.92631E+01 1.87957E+01 0.00000E+00
 -1      2525 5.85969E+01 1.81202E+01 0.00000E+00
 -1      2526 5.75617E+01 1.83168E+01 0.00000E+00
 -1      2527 6.12947E+01 2.02129E+01 0.00000E+00
 -1      2528 6.03463E+01 1.95336E+01 0.00000E+00
 -1      2529 5.47047E+01 6.05015E+00 0.00000E+00
 -1      2530 6.36404E+01 2.11095E+01 0.00000E+00
 -1      2531 6.25686E+01 2.09029E+01 0.00000E+00
 -1      2532 7.59304E+01 1.37586E+01 0.00000E+00
 -1      2533 7.56324E+01 1.47582E+01 0.00000E+00
 -1      2534 6.79988E+01 2.13015E+01 0.00000E+00
 -1      2535 6.70179E+01 2.14727E+01 0.00000E+00
 -1      2536 7.39187E+01 1.78774E+01 0.00000E+00
 -1      2537 7.31473E+01 1.85814E+01 0.00000E+00
 -1      2538 7.32966E+01 1.95171E+01 0.00000E+00
 -1      2539 7.52252E+01 1.58840E+01 0.00000E+00
 -1      2540 7.47389E+01 1.68364E+01 0.00000E+00
 -1      2541 6.56889E+01 2.14936E+01 0.00000E+00
 -1      2542 6.46646E+01 2.13015E+01 0.00000E+00
 -1      2543 6.39664E+01 2.20403E+01 0.00000E+00
 -1      2544 7.66538E+01 9.49595E+00 0.00000E+00
 -1      2545 7.66362E+01 1.05534E+01 0.00000E+00
 -1      2546 5.67816E+01 1.55684E+01 0.00000E+00
 -1      2547 5.62673E+01 1.44824E+01 0.00000E+00
 -1      2548 7.68351E+01 1.34409E+01 0.00000E+00
 -1      2549 7.79400E+00 3.52687E+01 0.00000E+00
 -1      2550 6.49500E+00 3.60062E+01 0.00000E+00
 -1      2551 6.49500E+00 3.74750E+01 0.00000E+00
 -1      2552 7.60048E+01 6.24341E+00 0.00000E+00
 -1      2553 7.68491E+01 6.59817E+00 0.00000E+00
 -1      2554 7.72288E+01 8.78323E+00 0.00000E+00
 -1      2555 6.20418E+01 2.21036E+01 0.00000E+00
 -1      2556 6.16682E+01 2.11583E+01 0.00000E+00
 -1      2557 6.07679E+01 2.14136E+01 0.00000E+00
 -1      2558 5.48731E+01 1.17345E+01 0.00000E+00
 -1      2559 7.47976E+01 4.40505E+00 0.00000E+00
 -1      2560 7.77840E+01 4.80087E+00 0.00000E+00
 -1      2561 7.62840E+01 4.80087E+00 0.00000E+00
 -1      2562 1.42947E+02 5.20788E+00 0.00000E+00
 -1      2563 1.42197E+02 6.50688E+00 0.00000E+00
 -1      2564 1.44494E+02 9.26388E+00 0.00000E+00
 -1      2565 1.44722E+02 7.98892E+00 0.00000E+00
 -1      2566 1.43878E+02 7.65152E+00 0.00000E+00
 -1      2567 1.43195E+02 9.98887E+00 0.00000E+00
 -1      2568 6.55950E+00 3.99453E+01 0.00000E+00
 -1      2569 7.12081E+01 2.10188E+01 0.00000E+00
 -1      2570 7.08230E+01 2.19879E+01 0.00000E+00
 -1      2571 7.21401E+01 2.11902E+01 0.00000E+00
 -1      2572 7.55459E+01 5.37547E+00 0.00000E+00
 -1      2573 7.85340E+01 6.09987E+00 0.00000E+00
 -1      2574 7.48883E+01 1.77721E+01 0.00000E+00
 -1      2575 5.63225E+01 1.65169E+01 0.00000E+00
 -1      2576 5.93111E+01 1.97303E+01 0.00000E+00
 -1      2577 6.63196E+01 2.22115E+01 0.00000E+00
 -1      2578 7.73249E+01 1.12206E+01 0.00000E+00
 -1      2579 5.52560E+01 1.42305E+01 0.00000E+00
 -1      2580 6.87698E+01 2.20036E+01 0.00000E+00
 -1      2581 7.61157E+01 1.56053E+01 0.00000E+00
 -1      2582 9.09300E+00 1.98250E+01 0.00000E+00
 -1      2583 9.09300E+00 2.12750E+01 0.00000E+00
 -1      2584 9.09300E+00 2.27500E+01 0.00000E+00
 -1      2585 9.09300E+00 2.42250E+01 0.00000E+00
 -1      2586 1.03920E+01 2.20250E+01 0.00000E+00
 -1      2587 9.09300E+00 1.39375E+01 0.00000E+00
 -1      2588 9.09300E+00 1.54125E+01 0.00000E+00
 -1      2589 9.09300E+00 1.09875E+01 0.00000E+00
 -1      2590 9.09300E+00 1.24625E+01 0.00000E+00
 -1      2591 1.03920E+01 1.32000E+01 0.00000E+00
 -1      2592 9.64575E+00 8.72350E+00 0.00000E+00
 -1      2593 9.34425E+00 9.98700E+00 0.00000E+00
 -1      2594 1.06433E+01 1.07245E+01 0.00000E+00
 -1      2595 1.11458E+01 8.72350E+00 0.00000E+00
 -1      2596 9.15750E+01 7.82993E+00 0.00000E+00
 -1      2597 9.00750E+01 7.82993E+00 0.00000E+00
 -1      2598 9.44250E+01 7.82993E+00 0.00000E+00
 -1      2599 9.30000E+01 7.82993E+00 0.00000E+00
 -1      2600 9.22500E+01 9.12893E+00 0.00000E+00
 -1      2601 7.80118E+01 7.95499E+00 0.00000E+00
 -1      2602 7.82854E+01 9.21070E+00 0.00000E+00
 -1      2603 1.14000E+01 4.09070E+01 0.00000E+00
 -1      2604 1.29000E+01 4.09070E+01 0.00000E+00
 -1      2605 1.44000E+01 4.09070E+01 0.00000E+00
 -1      2606 1.59000E+01 4.09070E+01 0.00000E+00
 -1      2607 1.36500E+01 3.96080E+01 0.00000E+00
 -1      2608 1.74000E+01 4.09070E+01 0.00000E+00
 -1      2609 1.89000E+01 4.09070E+01 0.00000E+00
 -1      2610 1.66500E+01 3.96080E+01 0.00000E+00
 -1      2611 2.04000E+01 4.09070E+01 0.00000E+00
 -1      2612 2.19000E+01 4.09070E+01 0.00000E+00
 -1      2613 1.96500E+01 3.96080E+01 0.00000E+00
 -1      2614 2.34000E+01 4.09070E+01 0.00000E+00
 -1      2615 2.49000E+01 4.09070E+01 0.00000E+00
 -1      2616 2.26500E+01 3.96080E+01 0.00000E+00
 -1      2617 2.64000E+01 4.09070E+01 0.00000E+00
 -1      2618 2.79000E+01 4.09070E+01 0.00000E+00
 -1      2619 2.56500E+01 3.96080E+01 0.00000E+00
 -1      2620 2.94000E+01 4.09070E+01 0.00000E+00
 -1      2621 3.09000E+01 4.09070E+01 0.00000E+00
 -1      2622 2.86500E+01 3.96080E+01 0.00000E+00
 -1      2623 3.24000E+01 4.09070E+01 0.00000E+00
 -1      2624 3.39000E+01 4.09070E+01 0.00000E+00
 -1      2625 3.16500E+01 3.96080E+01 0.00000E+00
 -1      2626 3.54000E+01 4.09070E+01 0.00000E+00
 -1      2627 3.69000E+01 4.09070E+01 0.00000E+00
 -1      2628 3.46500E+01 3.96080E+01 0.00000E+00
 -1      2629 3.84000E+01 4.09070E+01 0.00000E+00
 -1      2630 3.99000E+01 4.09070E+01 0.00000E+00
 -1      2631 3.76500E+01 3.96080E+01 0.00000E+00
 -1      2632 4.14000E+01 4.09070E+01 0.00000E+00
 -1      2633 4.29000E+01 4.09070E+01 0.00000E+00
 -1      2634 4.06500E+01 3.96080E+01 0.00000E+00
 -1      2635 4.44000E+01 4.09070E+01 0.00000E+00
 -1      2636 4.59000E+01 4.09070E+01 0.00000E+00
 -1      2637 4.36500E+01 3.96080E+01 0.00000E+00
 -1      2638 4.74000E+01 4.09070E+01 0.00000E+00
 -1      2639 4.89000E+01 4.09070E+01 0.00000E+00
 -1      2640 4.66500E+01 3.96080E+01 0.00000E+00
 -1      2641 5.04000E+01 4.09070E+01 0.00000E+00
 -1      2642 5.19000E+01 4.09070E+01 0.00000E+00
 -1      2643 4.96500E+01 3.96080E+01 0.00000E+00
 -1      2644 5.34000E+01 4.09070E+01 0.00000E+00
 -1      2645 5.49000E+01 4.09070E+01 0.00000E+00
 -1      2646 5.26500E+01 3.96080E+01 0.00000E+00
 -1      2647 5.64000E+01 4.09070E+01 0.00000E+00
 -1      2648 5.79000E+01 4.09070E+01 0.00000E+00
 -1      2649 5.56500E+01 3.96080E+01 0.00000E+00
 -1      2650 5.94000E+01 4.09070E+01 0.00000E+00
 -1      2651 6.09000E+01 4.09070E+01 0.00000E+00
 -1      2652 5.86500E+01 3.96080E+01 0.00000E+00
 -1      2653 6.24000E+01 4.09070E+01 0.00000E+00
 -1      2654 6.39000E+01 4.09070E+01 0.00000E+00
 -1      2655 6.16500E+01 3.96080E+01 0.00000E+00
 -1      2656 6.54000E+01 4.09070E+01 0.00000E+00
 -1      2657 6.69000E+01 4.09070E+01 0.00000E+00
 -1      2658 6.46500E+01 3.96080E+01 0.00000E+00
 -1      2659 6.84000E+01 4.09070E+01 0.00000E+00
 -1      2660 6.99000E+01 4.09070E+01 0.00000E+00
 -1      2661 6.76500E+01 3.96080E+01 0.00000E+00
 -1      2662 7.14000E+01 4.09070E+01 0.00000E+00
 -1      2663 7.29000E+01 4.09070E+01 0.00000E+00
 -1      2664 7.06500E+01 3.96080E+01 0.00000E+00
 -1      2665 7.44000E+01 4.09070E+01 0.00000E+00
 -1      2666 7.59000E+01 4.09070E+01 0.00000E+00
 -1      2667 7.36500E+01 3.96080E+01 0.00000E+00
 -1      2668 7.74000E+01 4.09070E+01 0.00000E+00
 -1      2669 7.89000E+01 4.09070E+01 0.00000E+00
 -1      2670 7.66500E+01 3.96080E+01 0.00000E+00
 -1      2671 8.04000E+01 4.09070E+01 0.00000E+00
 -1      2672 8.19000E+01 4.09070E+01 0.00000E+00
 -1      2673 7.96500E+01 3.96080E+01 0.00000E+00
 -1      2674 8.34000E+01 4.09070E+01 0.00000E+00
 -1      2675 8.49000E+01 4.09070E+01 0.00000E+00
 -1      2676 8.26500E+01 3.96080E+01 0.00000E+00
 -1      2677 8.64000E+01 4.09070E+01 0.00000E+00
 -1      2678 8.79000E+01 4.09070E+01 0.00000E+00
 -1      2679 8.56500E+01 3.96080E+01 0.00000E+00
 -1      2680 8.94000E+01 4.09070E+01 0.00000E+00
 -1      2681 9.09000E+01 4.09070E+01 0.00000E+00
 -1      2682 8.86500E+01 3.96080E+01 0.00000E+00
 -1      2683 9.24000E+01 4.09070E+01 0.00000E+00
 -1      2684 9.39000E+01 4.09070E+01 0.00000E+00
 -1      2685 9.16500E+01 3.96080E+01 0.00000E+00
 -1      2686 9.54000E+01 4.09070E+01 0.00000E+00
 -1      2687 9.69000E+01 4.09070E+01 0.00000E+00
 -1      2688 9.46500E+01 3.96080E+01 0.00000E+00
 -1      2689 9.84000E+01 4.09070E+01 0.00000E+00
 -1      2690 9.99000E+01 4.09070E+01 0.00000E+00
 -1      2691 9.76500E+01 3.96080E+01 0.00000E+00
 -1      2692 1.01400E+02 4.09070E+01 0.00000E+00
 -1      2693 1.02900E+02 4.09070E+01 0.00000E+00
 -1      2694 1.00650E+02 3.96080E+01 0.00000E+00
 -1      2695 1.04400E+02 4.09070E+01 0.00000E+00
 -1      2696 1.05900E+02 4.09070E+01 0.00000E+00
 -1      2697 1.03650E+02 3.96080E+01 0.00000E+00
 -1      2698 1.07400E+02 4.09070E+01 0.00000E+00
 -1      2699 1.08900E+02 4.09070E+01 0.00000E+00
 -1      2700 1.06650E+02 3.96080E+01 0.00000E+00
 -1      2701 1.10400E+02 4.09070E+01 0.00000E+00
 -1      2702 1.11900E+02 4.09070E+01 0.00000E+00
 -1      2703 1.09650E+02 3.96080E+01 0.00000E+00
 -1      2704 1.13400E+02 4.09070E+01 0.00000E+00
 -1      2705 1.14900E+02 4.09070E+01 0.00000E+00
 -1      2706 1.12650E+02 3.96080E+01 0.00000E+00
 -1      2707 1.16400E+02 4.09070E+01 0.00000E+00
 -1      2708 1.17900E+02 4.09070E+01 0.00000E+00
 -1      2709 1.15650E+02 3.96080E+01 0.00000E+00
 -1      2710 1.19400E+02 4.09070E+01 0.00000E+00
 -1      2711 1.20900E+02 4.09070E+01 0.00000E+00
 -1      2712 1.18650E+02 3.96080E+01 0.00000E+00
 -1      2713 1.22400E+02 4.09070E+01 0.00000E+00
 -1      2714 1.23900E+02 4.09070E+01 0.00000E+00
 -1      2715 1.21650E+02 3.96080E+01 0.00000E+00
 -1      2716 1.25400E+02 4.09070E+01 0.00000E+00
 -1      2717 1.26900E+02 4.09070E+01 0.00000E+00
 -1      2718 1.24650E+02 3.96080E+01 0.00000E+00
 -1      2719 1.28400E+02 4.09070E+01 0.00000E+00
 -1      2720 1.29900E+02 4.09070E+01 0.00000E+00
 -1      2721 1.27650E+02 3.96080E+01 0.00000E+00
 -1      2722 1.31400E+02 4.09070E+01 0.00000E+00
 -1      2723 1.32900E+02 4.09070E+01 0.00000E+00
 -1      2724 1.30650E+02 3.96080E+01 0.00000E+00
 -1      2725 1.34400E+02 4.09070E+01 0.00000E+00
 -1      2726 1.35900E+02 4.09070E+01 0.00000E+00
 -1      2727 1.33650E+02 3.96080E+01 0.00000E+00
 -1      2728 1.37400E+02 4.09070E+01 0.00000E+00
 -1      2729 1.38900E+02 4.09070E+01 0.00000E+00
 -1      2730 1.36650E+02 3.96080E+01 0.00000E+00
 -1      2731 1.40038E+02 4.09787E+01 0.00000E+00
 -1      2732 1.41489E+02 4.09416E+01 0.00000E+00
 -1      2733 1.41564E+02 3.98230E+01 0.00000E+00
 -1      2734 1.39288E+02 3.96797E+01 0.00000E+00
 -1      2735 2.47500E+01 9.09300E+00 0.00000E+00
 -1      2736 2.32500E+01 9.09300E+00 0.00000E+00
 -1      2737 1.87500E+01 9.09300E+00 0.00000E+00
 -1      2738 1.72500E+01 9.09300E+00 0.00000E+00
 -1      2739 2.77500E+01 9.09300E+00 0.00000E+00
 -1      2740 2.62500E+01 9.09300E+00 0.00000E+00
 -1      2741 2.55000E+01 1.03920E+01 0.00000E+00
 -1      2742 3.07500E+01 9.09300E+00 0.00000E+00
 -1      2743 2.92500E+01 9.09300E+00 0.00000E+00
 -1      2744 2.85000E+01 1.03920E+01 0.00000E+00
 -1      2745 3.37500E+01 9.09300E+00 0.00000E+00
 -1      2746 3.22500E+01 9.09300E+00 0.00000E+00
 -1      2747 3.15000E+01 1.03920E+01 0.00000E+00
 -1      2748 3.67500E+01 9.09300E+00 0.00000E+00
 -1      2749 3.52500E+01 9.09300E+00 0.00000E+00
 -1      2750 3.45000E+01 1.03920E+01 0.00000E+00
 -1      2751 3.97500E+01 9.09300E+00 0.00000E+00
 -1      2752 3.82500E+01 9.09300E+00 0.00000E+00
 -1      2753 3.75000E+01 1.03920E+01 0.00000E+00
 -1      2754 4.27500E+01 9.09300E+00 0.00000E+00
 -1      2755 4.12500E+01 9.09300E+00 0.00000E+00
 -1      2756 4.05000E+01 1.03920E+01 0.00000E+00
 -1      2757 4.57500E+01 9.09300E+00 0.00000E+00
 -1      2758 4.42500E+01 9.09300E+00 0.00000E+00
 -1      2759 4.35000E+01 1.03920E+01 0.00000E+00
 -1      2760 4.86000E+01 9.09300E+00 0.00000E+00
 -1      2761 4.71750E+01 9.09300E+00 0.00000E+00
 -1      2762 4.64250E+01 1.03920E+01 0.00000E+00
 -1      2763 5.16000E+01 9.09300E+00 0.00000E+00
 -1      2764 5.01000E+01 9.09300E+00 0.00000E+00
 -1      2765 4.93500E+01 1.03920E+01 0.00000E+00
 -1      2766 7.59720E+01 1.77824E+01 0.00000E+00
 -1      2767 7.51517E+01 1.88234E+01 0.00000E+00
 -1      2768 8.85750E+01 7.82993E+00 0.00000E+00
 -1      2769 8.70750E+01 7.82993E+00 0.00000E+00
 -1      2770 8.93250E+01 9.12893E+00 0.00000E+00
 -1      2771 9.74250E+01 7.82993E+00 0.00000E+00
 -1      2772 9.59250E+01 7.82993E+00 0.00000E+00
 -1      2773 9.51750E+01 9.12893E+00 0.00000E+00
 -1      2774 1.00425E+02 7.82993E+00 0.00000E+00
 -1      2775 9.89250E+01 7.82993E+00 0.00000E+00
 -1      2776 9.81750E+01 9.12893E+00 0.00000E+00
 -1      2777 1.03425E+02 7.82993E+00 0.00000E+00
 -1      2778 1.01925E+02 7.82993E+00 0.00000E+00
 -1      2779 1.01175E+02 9.12893E+00 0.00000E+00
 -1      2780 1.06425E+02 7.82993E+00 0.00000E+00
 -1      2781 1.04925E+02 7.82993E+00 0.00000E+00
 -1      2782 1.04175E+02 9.12893E+00 0.00000E+00
 -1      2783 1.09425E+02 7.82993E+00 0.00000E+00
 -1      2784 1.07925E+02 7.82993E+00 0.00000E+00
 -1      2785 1.07175E+02 9.12893E+00 0.00000E+00
 -1      2786 1.12425E+02 7.82993E+00 0.00000E+00
 -1      2787 1.10925E+02 7.82993E+00 0.00000E+00
 -1      2788 1.10175E+02 9.12893E+00 0.00000E+00
 -1      2789 1.15425E+02 7.82993E+00 0.00000E+00
 -1      2790 1.13925E+02 7.82993E+00 0.00000E+00
 -1      2791 1.13175E+02 9.12893E+00 0.00000E+00
 -1      2792 1.18425E+02 7.82993E+00 0.00000E+00
 -1      2793 1.16925E+02 7.82993E+00 0.00000E+00
 -1      2794 1.16175E+02 9.12893E+00 0.00000E+00
 -1      2795 1.21425E+02 7.82993E+00 0.00000E+00
 -1      2796 1.19925E+02 7.82993E+00 0.00000E+00
 -1      2797 1.19175E+02 9.12893E+00 0.00000E+00
 -1      2798 1.24425E+02 7.82993E+00 0.00000E+00
 -1      2799 1.22925E+02 7.82993E+00 0.00000E+00
 -1      2800 1.22175E+02 9.12893E+00 0.00000E+00
 -1      2801 1.27425E+02 7.82993E+00 0.00000E+00
 -1      2802 1.25925E+02 7.82993E+00 0.00000E+00
 -1      2803 1.25175E+02 9.12893E+00 0.00000E+00
 -1      2804 1.30425E+02 7.82993E+00 0.00000E+00
 -1      2805 1.28925E+02 7.82993E+00 0.00000E+00
 -1      2806 1.28175E+02 9.12893E+00 0.00000E+00
 -1      2807 1.33425E+02 7.82993E+00 0.00000E+00
 -1      2808 1.31925E+02 7.82993E+00 0.00000E+00
 -1      2809 1.31175E+02 9.12893E+00 0.00000E+00
 -1      2810 1.36425E+02 7.82993E+00 0.00000E+00
 -1      2811 1.34925E+02 7.82993E+00 0.00000E+00
 -1      2812 1.34175E+02 9.12893E+00 0.00000E+00
 -1      2813 1.39425E+02 7.82993E+00 0.00000E+00
 -1      2814 1.37925E+02 7.82993E+00 0.00000E+00
 -1      2815 1.37175E+02 9.12893E+00 0.00000E+00
 -1      2816 1.41856E+02 7.67556E+00 0.00000E+00
 -1      2817 7.85850E+00 3.92077E+01 0.00000E+00
 -1      2818 1.41555E+02 1.63201E+01 0.00000E+00
 -1      2819 1.41555E+02 1.48451E+01 0.00000E+00
 -1      2820 1.41555E+02 1.33701E+01 0.00000E+00
 -1      2821 1.41555E+02 1.18951E+01 0.00000E+00
 -1      2822 1.40256E+02 1.41076E+01 0.00000E+00
 -1      2823 1.41555E+02 1.92701E+01 0.00000E+00
 -1      2824 1.41555E+02 1.77951E+01 0.00000E+00
 -1      2825 1.40256E+02 1.70576E+01 0.00000E+00
 -1      2826 1.41555E+02 2.51701E+01 0.00000E+00
 -1      2827 1.41555E+02 2.36951E+01 0.00000E+00
 -1      2828 1.41555E+02 2.81201E+01 0.00000E+00
 -1      2829 1.41555E+02 2.66451E+01 0.00000E+00
 -1      2830 1.40256E+02 2.59076E+01 0.00000E+00
 -1      2831 1.41555E+02 3.10201E+01 0.00000E+00
 -1      2832 1.41555E+02 2.95701E+01 0.00000E+00
 -1      2833 1.40256E+02 2.88326E+01 0.00000E+00
 -1      2834 1.41555E+02 3.39701E+01 0.00000E+00
 -1      2835 1.41555E+02 3.24951E+01 0.00000E+00
 -1      2836 1.40256E+02 3.17576E+01 0.00000E+00
 -1      2837 1.41555E+02 3.69201E+01 0.00000E+00
 -1      2838 1.41555E+02 3.54451E+01 0.00000E+00
 -1      2839 1.40256E+02 3.47076E+01 0.00000E+00
 -1      2840 8.55750E+01 7.82993E+00 0.00000E+00
 -1      2841 8.40750E+01 7.82993E+00 0.00000E+00
 -1      2842 8.63250E+01 9.12893E+00 0.00000E+00
 -1      2843 8.25750E+01 7.82993E+00 0.00000E+00
 -1      2844 8.10750E+01 7.82993E+00 0.00000E+00
 -1      2845 8.33250E+01 9.12893E+00 0.00000E+00
 -1      2846 5.56957E+01 1.75446E+01 0.00000E+00
 -1      2847 5.51226E+01 1.64201E+01 0.00000E+00
 -1      2848 1.41555E+02 2.22201E+01 0.00000E+00
 -1      2849 1.41555E+02 2.07451E+01 0.00000E+00
 -1      2850 1.40256E+02 2.00076E+01 0.00000E+00
 -1      2851 1.40256E+02 2.29576E+01 0.00000E+00
 -1      2852 9.09300E+00 1.68813E+01 0.00000E+00
 -1      2853 9.09300E+00 1.83563E+01 0.00000E+00
 -1      2854 1.03920E+01 1.90812E+01 0.00000E+00
 -1      2855 1.03920E+01 1.61437E+01 0.00000E+00
 -1      2856 5.93227E+01 2.08773E+01 0.00000E+00
 -1      2857 5.82394E+01 2.01393E+01 0.00000E+00
 -1      2858 6.69975E+01 2.30585E+01 0.00000E+00
 -1      2859 6.56686E+01 2.30793E+01 0.00000E+00
 -1      2860 5.72245E+01 1.93155E+01 0.00000E+00
 -1      2861 5.65584E+01 1.86400E+01 0.00000E+00
 -1      2862 9.09300E+00 3.15875E+01 0.00000E+00
 -1      2863 9.09300E+00 3.30625E+01 0.00000E+00
 -1      2864 2.17500E+01 9.09300E+00 0.00000E+00
 -1      2865 2.02500E+01 9.09300E+00 0.00000E+00
 -1      2866 2.25000E+01 1.03920E+01 0.00000E+00
 -1      2867 7.72045E+01 1.53625E+01 0.00000E+00
 -1      2868 7.67973E+01 1.64884E+01 0.00000E+00
 -1      2869 5.38797E+01 1.23239E+01 0.00000E+00
 -1      2870 5.39902E+01 1.09897E+01 0.00000E+00
 -1      2871 5.45591E+01 1.52122E+01 0.00000E+00
 -1      2872 5.40657E+01 1.40503E+01 0.00000E+00
 -1      2873 7.82617E+01 1.07572E+01 0.00000E+00
 -1      2874 7.80841E+01 1.19389E+01 0.00000E+00
 -1      2875 7.42604E+01 1.97985E+01 0.00000E+00
 -1      2876 7.34890E+01 2.05026E+01 0.00000E+00
 -1      2877 6.43051E+01 2.30615E+01 0.00000E+00
 -1      2878 6.32808E+01 2.28695E+01 0.00000E+00
 -1      2879 6.94992E+01 2.29212E+01 0.00000E+00
 -1      2880 6.83779E+01 2.31083E+01 0.00000E+00
 -1      2881 7.78125E+01 1.31684E+01 0.00000E+00
 -1      2882 7.75003E+01 1.42070E+01 0.00000E+00
 -1      2883 9.09300E+00 3.45313E+01 0.00000E+00
 -1      2884 9.09300E+00 3.60000E+01 0.00000E+00
 -1      2885 1.03920E+01 3.37938E+01 0.00000E+00
 -1      2886 1.03920E+01 2.49750E+01 0.00000E+00
 -1      2887 9.09300E+00 2.57000E+01 0.00000E+00
 -1      2888 9.09300E+00 2.71750E+01 0.00000E+00
 -1      2889 1.24215E+01 8.74125E+00 0.00000E+00
 -1      2890 1.21702E+01 9.74175E+00 0.00000E+00
 -1      2891 1.36973E+01 8.75900E+00 0.00000E+00
 -1      2892 9.09300E+00 2.86437E+01 0.00000E+00
 -1      2893 9.09300E+00 3.01187E+01 0.00000E+00
 -1      2894 1.03920E+01 3.08563E+01 0.00000E+00
 -1      2895 1.03920E+01 2.79188E+01 0.00000E+00
 -1      2896 7.70608E+01 1.75396E+01 0.00000E+00
 -1      2897 6.23805E+01 2.31249E+01 0.00000E+00
 -1      2898 6.14801E+01 2.33802E+01 0.00000E+00
 -1      2899 6.27191E+01 2.41461E+01 0.00000E+00
 -1      2900 1.95000E+01 1.03920E+01 0.00000E+00
 -1      2901 7.53441E+01 1.98088E+01 0.00000E+00
 -1      2902 5.26734E+01 9.68653E+00 0.00000E+00
 -1      2903 5.19234E+01 1.09855E+01 0.00000E+00
 -1      2904 8.85168E+00 4.05347E+01 0.00000E+00
 -1      2905 1.02152E+01 4.07987E+01 0.00000E+00
 -1      2906 5.43628E+01 6.35808E+00 0.00000E+00
 -1      2907 5.36128E+01 7.65708E+00 0.00000E+00
 -1      2908 8.04467E+01 8.75570E+00 0.00000E+00
 -1      2909 7.96967E+01 7.45670E+00 0.00000E+00
 -1      2910 1.42151E+02 9.48172E+00 0.00000E+00
 -1      2911 1.40470E+02 8.33709E+00 0.00000E+00
 -1      2912 1.39720E+02 9.63609E+00 0.00000E+00
 -1      2913 1.41809E+02 1.06504E+01 0.00000E+00
 -1      2914 7.87493E+01 1.27050E+01 0.00000E+00
 -1      2915 6.49830E+01 2.39085E+01 0.00000E+00
 -1      2916 1.40510E+02 1.13879E+01 0.00000E+00
 -1      2917 7.04311E+01 2.30926E+01 0.00000E+00
 -1      2918 7.00392E+01 2.41973E+01 0.00000E+00
 -1      2919 7.13630E+01 2.32640E+01 0.00000E+00
 -1      2920 5.39323E+01 1.62399E+01 0.00000E+00
 -1      2921 1.41640E+02 3.87044E+01 0.00000E+00
 -1      2922 7.31039E+01 2.14716E+01 0.00000E+00
 -1      2923 7.27188E+01 2.24407E+01 0.00000E+00
 -1      2924 7.40677E+01 2.17530E+01 0.00000E+00
 -1      2925 5.31828E+01 1.33055E+01 0.00000E+00
 -1      2926 5.23000E+01 1.25607E+01 0.00000E+00
 -1      2927 5.24860E+01 1.42871E+01 0.00000E+00
 -1      2928 5.53585E+01 1.85433E+01 0.00000E+00
 -1      2929 7.86401E+01 7.02923E+00 0.00000E+00
 -1      2930 1.40341E+02 3.79669E+01 0.00000E+00
 -1      2931 1.09652E+01 3.94997E+01 0.00000E+00
 -1      2932 5.72361E+01 2.04625E+01 0.00000E+00
 -1      2933 6.77269E+01 2.39761E+01 0.00000E+00
 -1      2934 5.52175E+01 7.21223E+00 0.00000E+00
 -1      2935 5.36668E+01 9.09714E+00 0.00000E+00
 -1      2936 7.81819E+01 1.50901E+01 0.00000E+00
 -1      2937 5.38108E+01 8.22314E+00 0.00000E+00
 -1      2938 5.96963E+01 2.18226E+01 0.00000E+00
 -1      2939 5.86247E+01 2.22316E+01 0.00000E+00
 -1      2940 6.00699E+01 2.27680E+01 0.00000E+00
 -1      2941 1.61115E+01 8.93487E+00 0.00000E+00
 -1      2942 1.48357E+01 8.91712E+00 0.00000E+00
 -1      2943 1.45845E+01 9.91763E+00 0.00000E+00
 -1      2944 1.68615E+01 1.02339E+01 0.00000E+00
 -1      2945 1.39203E+02 3.78953E+01 0.00000E+00
 -1      2946 1.19190E+01 1.07423E+01 0.00000E+00
 -1      2947 1.16678E+01 1.17428E+01 0.00000E+00
 -1      2948 1.31947E+01 1.07600E+01 0.00000E+00
 -1      2949 1.16678E+01 1.32177E+01 0.00000E+00
 -1      2950 9.89250E+01 1.04279E+01 0.00000E+00
 -1      2951 9.74250E+01 1.04279E+01 0.00000E+00
 -1      2952 9.29625E+01 1.04279E+01 0.00000E+00
 -1      2953 9.15375E+01 1.04279E+01 0.00000E+00
 -1      2954 7.93229E+01 1.47665E+01 0.00000E+00
 -1      2955 7.90271E+01 1.59220E+01 0.00000E+00
 -1      2956 1.59000E+01 3.83090E+01 0.00000E+00
 -1      2957 1.74000E+01 3.83090E+01 0.00000E+00
 -1      2958 1.89000E+01 3.83090E+01 0.00000E+00
 -1      2959 2.04000E+01 3.83090E+01 0.00000E+00
 -1      2960 1.81500E+01 3.70100E+01 0.00000E+00
 -1      2961 2.19000E+01 3.83090E+01 0.00000E+00
 -1      2962 2.34000E+01 3.83090E+01 0.00000E+00
 -1      2963 2.11500E+01 3.70100E+01 0.00000E+00
 -1      2964 2.49000E+01 3.83090E+01 0.00000E+00
 -1      2965 2.64000E+01 3.83090E+01 0.00000E+00
 -1      2966 2.41500E+01 3.70100E+01 0.00000E+00
 -1      2967 2.79000E+01 3.83090E+01 0.00000E+00
 -1      2968 2.94000E+01 3.83090E+01 0.00000E+00
 -1      2969 2.71500E+01 3.70100E+01 0.00000E+00
 -1      2970 3.09000E+01 3.83090E+01 0.00000E+00
 -1      2971 3.24000E+01 3.83090E+01 0.00000E+00
 -1      2972 3.01500E+01 3.70100E+01 0.00000E+00
 -1      2973 3.39000E+01 3.83090E+01 0.00000E+00
 -1      2974 3.54000E+01 3.83090E+01 0.00000E+00
 -1      2975 3.31500E+01 3.70100E+01 0.00000E+00
 -1      2976 3.69000E+01 3.83090E+01 0.00000E+00
 -1      2977 3.84000E+01 3.83090E+01 0.00000E+00
 -1      2978 3.61500E+01 3.70100E+01 0.00000E+00
 -1      2979 3.99000E+01 3.83090E+01 0.00000E+00
 -1      2980 4.14000E+01 3.83090E+01 0.00000E+00
 -1      2981 3.91500E+01 3.70100E+01 0.00000E+00
 -1      2982 4.29000E+01 3.83090E+01 0.00000E+00
 -1      2983 4.44000E+01 3.83090E+01 0.00000E+00
 -1      2984 4.21500E+01 3.70100E+01 0.00000E+00
 -1      2985 4.59000E+01 3.83090E+01 0.00000E+00
 -1      2986 4.74000E+01 3.83090E+01 0.00000E+00
 -1      2987 4.51500E+01 3.70100E+01 0.00000E+00
 -1      2988 4.89000E+01 3.83090E+01 0.00000E+00
 -1      2989 5.04000E+01 3.83090E+01 0.00000E+00
 -1      2990 4.81500E+01 3.70100E+01 0.00000E+00
 -1      2991 5.19000E+01 3.83090E+01 0.00000E+00
 -1      2992 5.34000E+01 3.83090E+01 0.00000E+00
 -1      2993 5.11500E+01 3.70100E+01 0.00000E+00
 -1      2994 5.49000E+01 3.83090E+01 0.00000E+00
 -1      2995 5.64000E+01 3.83090E+01 0.00000E+00
 -1      2996 5.41500E+01 3.70100E+01 0.00000E+00
 -1      2997 5.79000E+01 3.83090E+01 0.00000E+00
 -1      2998 5.94000E+01 3.83090E+01 0.00000E+00
 -1      2999 5.71500E+01 3.70100E+01 0.00000E+00
 -1      3000 6.09000E+01 3.83090E+01 0.00000E+00
 -1      3001 6.24000E+01 3.83090E+01 0.00000E+00
 -1      3002 6.01500E+01 3.70100E+01 0.00000E+00
 -1      3003 6.39000E+01 3.83090E+01 0.00000E+00
 -1      3004 6.54000E+01 3.83090E+01 0.00000E+00
 -1      3005 6.31500E+01 3.70100E+01 0.00000E+00
 -1      3006 6.69000E+01 3.83090E+01 0.00000E+00
 -1      3007 6.84000E+01 3.83090E+01 0.00000E+00
 -1      3008 6.61500E+01 3.70100E+01 0.00000E+00
 -1      3009 6.99000E+01 3.83090E+01 0.00000E+00
 -1      3010 7.14000E+01 3.83090E+01 0.00000E+00
 -1      3011 6.91500E+01 3.70100E+01 0.00000E+00
 -1      3012 7.29000E+01 3.83090E+01 0.00000E+00
 -1      3013 7.44000E+01 3.83090E+01 0.00000E+00
 -1      3014 7.21500E+01 3.70100E+01 0.00000E+00
 -1      3015 7.59000E+01 3.83090E+01 0.00000E+00
 -1      3016 7.74000E+01 3.83090E+01 0.00000E+00
 -1      3017 7.51500E+01 3.70100E+01 0.00000E+00
 -1      3018 7.89000E+01 3.83090E+01 0.00000E+00
 -1      3019 8.04000E+01 3.83090E+01 0.00000E+00
 -1      3020 7.81500E+01 3.70100E+01 0.00000E+00
 -1      3021 8.19000E+01 3.83090E+01 0.00000E+00
 -1      3022 8.34000E+01 3.83090E+01 0.00000E+00
 -1      3023 8.11500E+01 3.70100E+01 0.00000E+00
 -1      3024 8.49000E+01 3.83090E+01 0.00000E+00
 -1      3025 8.64000E+01 3.83090E+01 0.00000E+00
 -1      3026 8.41500E+01 3.70100E+01 0.00000E+00
 -1      3027 8.79000E+01 3.83090E+01 0.00000E+00
 -1      3028 8.94000E+01 3.83090E+01 0.00000E+00
 -1      3029 8.71500E+01 3.70100E+01 0.00000E+00
 -1      3030 9.09000E+01 3.83090E+01 0.00000E+00
 -1      3031 9.24000E+01 3.83090E+01 0.00000E+00
 -1      3032 9.01500E+01 3.70100E+01 0.00000E+00
 -1      3033 9.39000E+01 3.83090E+01 0.00000E+00
 -1      3034 9.54000E+01 3.83090E+01 0.00000E+00
 -1      3035 9.31500E+01 3.70100E+01 0.00000E+00
 -1      3036 9.69000E+01 3.83090E+01 0.00000E+00
 -1      3037 9.84000E+01 3.83090E+01 0.00000E+00
 -1      3038 9.61500E+01 3.70100E+01 0.00000E+00
 -1      3039 9.99000E+01 3.83090E+01 0.00000E+00
 -1      3040 1.01400E+02 3.83090E+01 0.00000E+00
 -1      3041 9.91500E+01 3.70100E+01 0.00000E+00
 -1      3042 1.02900E+02 3.83090E+01 0.00000E+00
 -1      3043 1.04400E+02 3.83090E+01 0.00000E+00
 -1      3044 1.02150E+02 3.70100E+01 0.00000E+00
 -1      3045 1.05900E+02 3.83090E+01 0.00000E+00
 -1      3046 1.07400E+02 3.83090E+01 0.00000E+00
 -1      3047 1.05150E+02 3.70100E+01 0.00000E+00
 -1      3048 1.08900E+02 3.83090E+01 0.00000E+00
 -1      3049 1.10400E+02 3.83090E+01 0.00000E+00
 -1      3050 1.08150E+02 3.70100E+01 0.00000E+00
 -1      3051 1.11900E+02 3.83090E+01 0.00000E+00
 -1      3052 1.13400E+02 3.83090E+01 0.00000E+00
 -1      3053 1.11150E+02 3.70100E+01 0.00000E+00
 -1      3054 1.14900E+02 3.83090E+01 0.00000E+00
 -1      3055 1.16400E+02 3.83090E+01 0.00000E+00
 -1      3056 1.14150E+02 3.70100E+01 0.00000E+00
 -1      3057 1.17900E+02 3.83090E+01 0.00000E+00
 -1      3058 1.19400E+02 3.83090E+01 0.00000E+00
 -1      3059 1.17150E+02 3.70100E+01 0.00000E+00
 -1      3060 1.20900E+02 3.83090E+01 0.00000E+00
 -1      3061 1.22400E+02 3.83090E+01 0.00000E+00
 -1      3062 1.20150E+02 3.70100E+01 0.00000E+00
 -1      3063 1.23900E+02 3.83090E+01 0.00000E+00
 -1      3064 1.25400E+02 3.83090E+01 0.00000E+00
 -1      3065 1.23150E+02 3.70100E+01 0.00000E+00
 -1      3066 1.26900E+02 3.83090E+01 0.00000E+00
 -1      3067 1.28400E+02 3.83090E+01 0.00000E+00
 -1      3068 1.26150E+02 3.70100E+01 0.00000E+00
 -1      3069 1.29900E+02 3.83090E+01 0.00000E+00
 -1      3070 1.31400E+02 3.83090E+01 0.00000E+00
 -1      3071 1.29150E+02 3.70100E+01 0.00000E+00
 -1      3072 1.32900E+02 3.83090E+01 0.00000E+00
 -1      3073 1.34400E+02 3.83090E+01 0.00000E+00
 -1      3074 1.32150E+02 3.70100E+01 0.00000E+00
 -1      3075 1.35900E+02 3.83090E+01 0.00000E+00
 -1      3076 1.37400E+02 3.83090E+01 0.00000E+00
 -1      3077 1.35150E+02 3.70100E+01 0.00000E+00
 -1      3078 8.78718E+00 3.80644E+01 0.00000E+00
 -1      3079 1.38453E+02 3.65963E+01 0.00000E+00
 -1      3080 2.62500E+01 1.16910E+01 0.00000E+00
 -1      3081 2.47500E+01 1.16910E+01 0.00000E+00
 -1      3082 3.52500E+01 1.16910E+01 0.00000E+00
 -1      3083 3.37500E+01 1.16910E+01 0.00000E+00
 -1      3084 3.82500E+01 1.16910E+01 0.00000E+00
 -1      3085 3.67500E+01 1.16910E+01 0.00000E+00
 -1      3086 3.60000E+01 1.29900E+01 0.00000E+00
 -1      3087 4.12500E+01 1.16910E+01 0.00000E+00
 -1      3088 3.97500E+01 1.16910E+01 0.00000E+00
 -1      3089 3.90000E+01 1.29900E+01 0.00000E+00
 -1      3090 4.42500E+01 1.16910E+01 0.00000E+00
 -1      3091 4.27500E+01 1.16910E+01 0.00000E+00
 -1      3092 4.20000E+01 1.29900E+01 0.00000E+00
 -1      3093 4.71000E+01 1.16910E+01 0.00000E+00
 -1      3094 4.56750E+01 1.16910E+01 0.00000E+00
 -1      3095 4.49250E+01 1.29900E+01 0.00000E+00
 -1      3096 5.02617E+01 1.13383E+01 0.00000E+00
 -1      3097 4.87617E+01 1.13383E+01 0.00000E+00
 -1      3098 4.80117E+01 1.26373E+01 0.00000E+00
 -1      3099 5.13351E+01 1.19318E+01 0.00000E+00
 -1      3100 5.69392E+01 2.18655E+01 0.00000E+00
 -1      3101 5.59242E+01 2.10418E+01 0.00000E+00
 -1      3102 1.39465E+02 1.08807E+01 0.00000E+00
 -1      3103 1.38421E+02 1.03736E+01 0.00000E+00
 -1      3104 1.39211E+02 1.21254E+01 0.00000E+00
 -1      3105 2.32500E+01 1.16910E+01 0.00000E+00
 -1      3106 2.17500E+01 1.16910E+01 0.00000E+00
 -1      3107 2.40000E+01 1.29900E+01 0.00000E+00
 -1      3108 1.01925E+02 1.04279E+01 0.00000E+00
 -1      3109 1.00425E+02 1.04279E+01 0.00000E+00
 -1      3110 9.96750E+01 1.17269E+01 0.00000E+00
 -1      3111 1.04925E+02 1.04279E+01 0.00000E+00
 -1      3112 1.03425E+02 1.04279E+01 0.00000E+00
 -1      3113 1.02675E+02 1.17269E+01 0.00000E+00
 -1      3114 1.07925E+02 1.04279E+01 0.00000E+00
 -1      3115 1.06425E+02 1.04279E+01 0.00000E+00
 -1      3116 1.05675E+02 1.17269E+01 0.00000E+00
 -1      3117 1.10925E+02 1.04279E+01 0.00000E+00
 -1      3118 1.09425E+02 1.04279E+01 0.00000E+00
 -1      3119 1.08675E+02 1.17269E+01 0.00000E+00
 -1      3120 1.13925E+02 1.04279E+01 0.00000E+00
 -1      3121 1.12425E+02 1.04279E+01 0.00000E+00
 -1      3122 1.11675E+02 1.17269E+01 0.00000E+00
 -1      3123 1.16925E+02 1.04279E+01 0.00000E+00
 -1      3124 1.15425E+02 1.04279E+01 0.00000E+00
 -1      3125 1.14675E+02 1.17269E+01 0.00000E+00
 -1      3126 1.19925E+02 1.04279E+01 0.00000E+00
 -1      3127 1.18425E+02 1.04279E+01 0.00000E+00
 -1      3128 1.17675E+02 1.17269E+01 0.00000E+00
 -1      3129 1.22925E+02 1.04279E+01 0.00000E+00
 -1      3130 1.21425E+02 1.04279E+01 0.00000E+00
 -1      3131 1.20675E+02 1.17269E+01 0.00000E+00
 -1      3132 1.25925E+02 1.04279E+01 0.00000E+00
 -1      3133 1.24425E+02 1.04279E+01 0.00000E+00
 -1      3134 1.23675E+02 1.17269E+01 0.00000E+00
 -1      3135 1.28925E+02 1.04279E+01 0.00000E+00
 -1      3136 1.27425E+02 1.04279E+01 0.00000E+00
 -1      3137 1.26675E+02 1.17269E+01 0.00000E+00
 -1      3138 1.31925E+02 1.04279E+01 0.00000E+00
 -1      3139 1.30425E+02 1.04279E+01 0.00000E+00
 -1      3140 1.29675E+02 1.17269E+01 0.00000E+00
 -1      3141 1.34925E+02 1.04279E+01 0.00000E+00
 -1      3142 1.33425E+02 1.04279E+01 0.00000E+00
 -1      3143 1.32675E+02 1.17269E+01 0.00000E+00
 -1      3144 1.36921E+02 1.03736E+01 0.00000E+00
 -1      3145 1.38957E+02 3.24951E+01 0.00000E+00
 -1      3146 1.38957E+02 3.10201E+01 0.00000E+00
 -1      3147 7.98662E+01 1.23074E+01 0.00000E+00
 -1      3148 7.95945E+01 1.35370E+01 0.00000E+00
 -1      3149 8.04398E+01 1.43689E+01 0.00000E+00
 -1      3150 1.39211E+02 1.50754E+01 0.00000E+00
 -1      3151 1.39211E+02 1.36004E+01 0.00000E+00
 -1      3152 1.38167E+02 1.30932E+01 0.00000E+00
 -1      3153 1.38957E+02 2.95701E+01 0.00000E+00
 -1      3154 1.38957E+02 2.81201E+01 0.00000E+00
 -1      3155 1.37658E+02 3.03076E+01 0.00000E+00
 -1      3156 1.38957E+02 2.66451E+01 0.00000E+00
 -1      3157 1.38957E+02 2.51701E+01 0.00000E+00
 -1      3158 1.37658E+02 2.73826E+01 0.00000E+00
 -1      3159 1.38705E+02 3.52832E+01 0.00000E+00
 -1      3160 1.38705E+02 3.38082E+01 0.00000E+00
 -1      3161 1.37406E+02 3.30707E+01 0.00000E+00
 -1      3162 1.36902E+02 3.56969E+01 0.00000E+00
 -1      3163 1.04910E+01 3.81519E+01 0.00000E+00
 -1      3164 1.16758E+01 3.82602E+01 0.00000E+00
 -1      3165 8.70750E+01 1.04279E+01 0.00000E+00
 -1      3166 8.55750E+01 1.04279E+01 0.00000E+00
 -1      3167 8.40750E+01 1.04279E+01 0.00000E+00
 -1      3168 8.25750E+01 1.04279E+01 0.00000E+00
 -1      3169 8.48250E+01 1.17269E+01 0.00000E+00
 -1      3170 2.92500E+01 1.16910E+01 0.00000E+00
 -1      3171 2.77500E+01 1.16910E+01 0.00000E+00
 -1      3172 2.70000E+01 1.29900E+01 0.00000E+00
 -1      3173 7.84714E+01 9.77511E+00 0.00000E+00
 -1      3174 7.92306E+01 1.04934E+01 0.00000E+00
 -1      3175 9.59437E+01 1.04279E+01 0.00000E+00
 -1      3176 9.44437E+01 1.04279E+01 0.00000E+00
 -1      3177 9.37312E+01 1.17269E+01 0.00000E+00
 -1      3178 9.66937E+01 1.17269E+01 0.00000E+00
 -1      3179 9.00563E+01 1.04279E+01 0.00000E+00
 -1      3180 8.85563E+01 1.04279E+01 0.00000E+00
 -1      3181 8.78063E+01 1.17269E+01 0.00000E+00
 -1      3182 9.07688E+01 1.17269E+01 0.00000E+00
 -1      3183 3.22500E+01 1.16910E+01 0.00000E+00
 -1      3184 3.07500E+01 1.16910E+01 0.00000E+00
 -1      3185 3.30000E+01 1.29900E+01 0.00000E+00
 -1      3186 1.30379E+01 3.82846E+01 0.00000E+00
 -1      3187 1.45379E+01 3.82846E+01 0.00000E+00
 -1      3188 1.52879E+01 3.69856E+01 0.00000E+00
 -1      3189 1.25638E+01 3.69369E+01 0.00000E+00
 -1      3190 7.92544E+01 8.94687E+00 0.00000E+00
 -1      3191 1.16910E+01 2.12875E+01 0.00000E+00
 -1      3192 1.16910E+01 2.27625E+01 0.00000E+00
 -1      3193 5.32850E+01 1.72772E+01 0.00000E+00
 -1      3194 5.27216E+01 1.60693E+01 0.00000E+00
 -1      3195 1.39211E+02 1.80254E+01 0.00000E+00
 -1      3196 1.39211E+02 1.65504E+01 0.00000E+00
 -1      3197 1.38167E+02 1.60432E+01 0.00000E+00
 -1      3198 7.82671E+01 1.73988E+01 0.00000E+00
 -1      3199 7.74417E+01 1.86928E+01 0.00000E+00
 -1      3200 7.66083E+01 2.00694E+01 0.00000E+00
 -1      3201 7.57170E+01 2.10445E+01 0.00000E+00
 -1      3202 5.49186E+01 1.97771E+01 0.00000E+00
 -1      3203 5.40559E+01 1.86816E+01 0.00000E+00
 -1      3204 6.56502E+01 2.50263E+01 0.00000E+00
 -1      3205 6.42867E+01 2.50084E+01 0.00000E+00
 -1      3206 2.02500E+01 1.16910E+01 0.00000E+00
 -1      3207 1.87500E+01 1.16910E+01 0.00000E+00
 -1      3208 2.10000E+01 1.29900E+01 0.00000E+00
 -1      3209 6.84110E+01 2.51258E+01 0.00000E+00
 -1      3210 6.70306E+01 2.50760E+01 0.00000E+00
 -1      3211 6.63344E+01 2.61759E+01 0.00000E+00
 -1      3212 5.50735E+01 8.08622E+00 0.00000E+00
 -1      3213 1.16910E+01 2.42375E+01 0.00000E+00
 -1      3214 1.16910E+01 2.57125E+01 0.00000E+00
 -1      3215 1.29900E+01 2.35000E+01 0.00000E+00
 -1      3216 3.00000E+01 1.29900E+01 0.00000E+00
 -1      3217 7.94081E+01 1.70753E+01 0.00000E+00
 -1      3218 7.02749E+01 2.54686E+01 0.00000E+00
 -1      3219 6.93429E+01 2.52972E+01 0.00000E+00
 -1      3220 6.86467E+01 2.63971E+01 0.00000E+00
 -1      3221 6.33864E+01 2.52638E+01 0.00000E+00
 -1      3222 6.24860E+01 2.55192E+01 0.00000E+00
 -1      3223 6.40536E+01 2.63816E+01 0.00000E+00
 -1      3224 7.32906E+01 2.38268E+01 0.00000E+00
 -1      3225 7.23268E+01 2.35454E+01 0.00000E+00
 -1      3226 7.19349E+01 2.46501E+01 0.00000E+00
 -1      3227 9.49785E+00 3.68250E+01 0.00000E+00
 -1      3228 8.03380E+01 1.02164E+01 0.00000E+00
 -1      3229 8.01283E+01 1.11985E+01 0.00000E+00
 -1      3230 5.73128E+01 2.28109E+01 0.00000E+00
 -1      3231 5.06383E+01 1.29134E+01 0.00000E+00
 -1      3232 1.37658E+02 2.44326E+01 0.00000E+00
 -1      3233 1.38957E+02 2.36951E+01 0.00000E+00
 -1      3234 1.38957E+02 2.22201E+01 0.00000E+00
 -1      3235 6.04085E+01 2.37892E+01 0.00000E+00
 -1      3236 1.16910E+01 3.30594E+01 0.00000E+00
 -1      3237 1.16910E+01 3.45281E+01 0.00000E+00
 -1      3238 1.36171E+02 1.16726E+01 0.00000E+00
 -1      3239 8.09736E+01 1.20304E+01 0.00000E+00
 -1      3240 7.78146E+01 1.99286E+01 0.00000E+00
 -1      3241 1.16910E+01 1.83500E+01 0.00000E+00
 -1      3242 1.16910E+01 1.98188E+01 0.00000E+00
 -1      3243 1.29900E+01 2.05562E+01 0.00000E+00
 -1      3244 1.07968E+01 3.60875E+01 0.00000E+00
 -1      3245 1.16910E+01 1.54125E+01 0.00000E+00
 -1      3246 1.16910E+01 1.68813E+01 0.00000E+00
 -1      3247 1.29900E+01 1.76187E+01 0.00000E+00
 -1      3248 8.22803E+01 1.13242E+01 0.00000E+00
 -1      3249 8.15303E+01 1.00252E+01 0.00000E+00
 -1      3250 7.53318E+01 2.20136E+01 0.00000E+00
 -1      3251 7.49467E+01 2.29827E+01 0.00000E+00
 -1      3252 7.65960E+01 2.22741E+01 0.00000E+00
 -1      3253 5.18387E+01 1.53245E+01 0.00000E+00
 -1      3254 5.09558E+01 1.45797E+01 0.00000E+00
 -1      3255 5.11914E+01 1.63618E+01 0.00000E+00
 -1      3256 5.46217E+01 2.11801E+01 0.00000E+00
 -1      3257 1.16910E+01 3.01219E+01 0.00000E+00
 -1      3258 1.16910E+01 3.15906E+01 0.00000E+00
 -1      3259 1.29900E+01 3.23250E+01 0.00000E+00
 -1      3260 1.29668E+01 1.39552E+01 0.00000E+00
 -1      3261 1.39084E+02 2.08602E+01 0.00000E+00
 -1      3262 1.39084E+02 1.93852E+01 0.00000E+00
 -1      3263 1.38039E+02 1.88781E+01 0.00000E+00
 -1      3264 1.37785E+02 2.15977E+01 0.00000E+00
 -1      3265 5.28452E+01 1.85110E+01 0.00000E+00
 -1      3266 1.80000E+01 1.29900E+01 0.00000E+00
 -1      3267 1.72500E+01 1.16910E+01 0.00000E+00
 -1      3268 1.61115E+01 1.15329E+01 0.00000E+00
 -1      3269 1.43333E+01 1.09181E+01 0.00000E+00
 -1      3270 1.36171E+02 1.31476E+01 0.00000E+00
 -1      3271 1.03425E+02 1.30259E+01 0.00000E+00
 -1      3272 1.01925E+02 1.30259E+01 0.00000E+00
 -1      3273 1.16910E+01 2.71844E+01 0.00000E+00
 -1      3274 1.16910E+01 2.86531E+01 0.00000E+00
 -1      3275 1.29900E+01 2.93875E+01 0.00000E+00
 -1      3276 1.00425E+02 1.30259E+01 0.00000E+00
 -1      3277 9.89250E+01 1.30259E+01 0.00000E+00
 -1      3278 1.01175E+02 1.43249E+01 0.00000E+00
 -1      3279 8.06327E+01 9.32010E+00 0.00000E+00
 -1      3280 2.04000E+01 3.57110E+01 0.00000E+00
 -1      3281 2.19000E+01 3.57110E+01 0.00000E+00
 -1      3282 2.34000E+01 3.57110E+01 0.00000E+00
 -1      3283 2.49000E+01 3.57110E+01 0.00000E+00
 -1      3284 2.26500E+01 3.44120E+01 0.00000E+00
 -1      3285 2.64000E+01 3.57110E+01 0.00000E+00
 -1      3286 2.79000E+01 3.57110E+01 0.00000E+00
 -1      3287 2.56500E+01 3.44120E+01 0.00000E+00
 -1      3288 2.94000E+01 3.57110E+01 0.00000E+00
 -1      3289 3.09000E+01 3.57110E+01 0.00000E+00
 -1      3290 2.86500E+01 3.44120E+01 0.00000E+00
 -1      3291 3.24000E+01 3.57110E+01 0.00000E+00
 -1      3292 3.39000E+01 3.57110E+01 0.00000E+00
 -1      3293 3.16500E+01 3.44120E+01 0.00000E+00
 -1      3294 3.54000E+01 3.57110E+01 0.00000E+00
 -1      3295 3.69000E+01 3.57110E+01 0.00000E+00
 -1      3296 3.46500E+01 3.44120E+01 0.00000E+00
 -1      3297 3.84000E+01 3.57110E+01 0.00000E+00
 -1      3298 3.99000E+01 3.57110E+01 0.00000E+00
 -1      3299 3.76500E+01 3.44120E+01 0.00000E+00
 -1      3300 4.14000E+01 3.57110E+01 0.00000E+00
 -1      3301 4.29000E+01 3.57110E+01 0.00000E+00
 -1      3302 4.06500E+01 3.44120E+01 0.00000E+00
 -1      3303 4.44000E+01 3.57110E+01 0.00000E+00
 -1      3304 4.59000E+01 3.57110E+01 0.00000E+00
 -1      3305 4.36500E+01 3.44120E+01 0.00000E+00
 -1      3306 4.74000E+01 3.57110E+01 0.00000E+00
 -1      3307 4.89000E+01 3.57110E+01 0.00000E+00
 -1      3308 4.66500E+01 3.44120E+01 0.00000E+00
 -1      3309 5.04000E+01 3.57110E+01 0.00000E+00
 -1      3310 5.19000E+01 3.57110E+01 0.00000E+00
 -1      3311 4.96500E+01 3.44120E+01 0.00000E+00
 -1      3312 5.34000E+01 3.57110E+01 0.00000E+00
 -1      3313 5.49000E+01 3.57110E+01 0.00000E+00
 -1      3314 5.26500E+01 3.44120E+01 0.00000E+00
 -1      3315 5.64000E+01 3.57110E+01 0.00000E+00
 -1      3316 5.79000E+01 3.57110E+01 0.00000E+00
 -1      3317 5.56500E+01 3.44120E+01 0.00000E+00
 -1      3318 5.94000E+01 3.57110E+01 0.00000E+00
 -1      3319 6.09000E+01 3.57110E+01 0.00000E+00
 -1      3320 5.86500E+01 3.44120E+01 0.00000E+00
 -1      3321 6.24000E+01 3.57110E+01 0.00000E+00
 -1      3322 6.39000E+01 3.57110E+01 0.00000E+00
 -1      3323 6.16500E+01 3.44120E+01 0.00000E+00
 -1      3324 6.54000E+01 3.57110E+01 0.00000E+00
 -1      3325 6.69000E+01 3.57110E+01 0.00000E+00
 -1      3326 6.46500E+01 3.44120E+01 0.00000E+00
 -1      3327 6.84000E+01 3.57110E+01 0.00000E+00
 -1      3328 6.99000E+01 3.57110E+01 0.00000E+00
 -1      3329 6.76500E+01 3.44120E+01 0.00000E+00
 -1      3330 7.14000E+01 3.57110E+01 0.00000E+00
 -1      3331 7.29000E+01 3.57110E+01 0.00000E+00
 -1      3332 7.06500E+01 3.44120E+01 0.00000E+00
 -1      3333 7.44000E+01 3.57110E+01 0.00000E+00
 -1      3334 7.59000E+01 3.57110E+01 0.00000E+00
 -1      3335 7.36500E+01 3.44120E+01 0.00000E+00
 -1      3336 7.74000E+01 3.57110E+01 0.00000E+00
 -1      3337 7.89000E+01 3.57110E+01 0.00000E+00
 -1      3338 7.66500E+01 3.44120E+01 0.00000E+00
 -1      3339 8.04000E+01 3.57110E+01 0.00000E+00
 -1      3340 8.19000E+01 3.57110E+01 0.00000E+00
 -1      3341 7.96500E+01 3.44120E+01 0.00000E+00
 -1      3342 8.34000E+01 3.57110E+01 0.00000E+00
 -1      3343 8.49000E+01 3.57110E+01 0.00000E+00
 -1      3344 8.26500E+01 3.44120E+01 0.00000E+00
 -1      3345 8.64000E+01 3.57110E+01 0.00000E+00
 -1      3346 8.79000E+01 3.57110E+01 0.00000E+00
 -1      3347 8.56500E+01 3.44120E+01 0.00000E+00
 -1      3348 8.94000E+01 3.57110E+01 0.00000E+00
 -1      3349 9.09000E+01 3.57110E+01 0.00000E+00
 -1      3350 8.86500E+01 3.44120E+01 0.00000E+00
 -1      3351 9.24000E+01 3.57110E+01 0.00000E+00
 -1      3352 9.39000E+01 3.57110E+01 0.00000E+00
 -1      3353 9.16500E+01 3.44120E+01 0.00000E+00
 -1      3354 9.54000E+01 3.57110E+01 0.00000E+00
 -1      3355 9.69000E+01 3.57110E+01 0.00000E+00
 -1      3356 9.46500E+01 3.44120E+01 0.00000E+00
 -1      3357 9.84000E+01 3.57110E+01 0.00000E+00
 -1      3358 9.99000E+01 3.57110E+01 0.00000E+00
 -1      3359 9.76500E+01 3.44120E+01 0.00000E+00
 -1      3360 1.01400E+02 3.57110E+01 0.00000E+00
 -1      3361 1.02900E+02 3.57110E+01 0.00000E+00
 -1      3362 1.00650E+02 3.44120E+01 0.00000E+00
 -1      3363 1.04400E+02 3.57110E+01 0.00000E+00
 -1      3364 1.05900E+02 3.57110E+01 0.00000E+00
 -1      3365 1.03650E+02 3.44120E+01 0.00000E+00
 -1      3366 1.07400E+02 3.57110E+01 0.00000E+00
 -1      3367 1.08900E+02 3.57110E+01 0.00000E+00
 -1      3368 1.06650E+02 3.44120E+01 0.00000E+00
 -1      3369 1.10400E+02 3.57110E+01 0.00000E+00
 -1      3370 1.11900E+02 3.57110E+01 0.00000E+00
 -1      3371 1.09650E+02 3.44120E+01 0.00000E+00
 -1      3372 1.13400E+02 3.57110E+01 0.00000E+00
 -1      3373 1.14900E+02 3.57110E+01 0.00000E+00
 -1      3374 1.12650E+02 3.44120E+01 0.00000E+00
 -1      3375 1.16400E+02 3.57110E+01 0.00000E+00
 -1      3376 1.17900E+02 3.57110E+01 0.00000E+00
 -1      3377 1.15650E+02 3.44120E+01 0.00000E+00
 -1      3378 1.19400E+02 3.57110E+01 0.00000E+00
 -1      3379 1.20900E+02 3.57110E+01 0.00000E+00
 -1      3380 1.18650E+02 3.44120E+01 0.00000E+00
 -1      3381 1.22400E+02 3.57110E+01 0.00000E+00
 -1      3382 1.23900E+02 3.57110E+01 0.00000E+00
 -1      3383 1.21650E+02 3.44120E+01 0.00000E+00
 -1      3384 1.25400E+02 3.57110E+01 0.00000E+00
 -1      3385 1.26900E+02 3.57110E+01 0.00000E+00
 -1      3386 1.24650E+02 3.44120E+01 0.00000E+00
 -1      3387 1.28400E+02 3.57110E+01 0.00000E+00
 -1      3388 1.29900E+02 3.57110E+01 0.00000E+00
 -1      3389 1.27650E+02 3.44120E+01 0.00000E+00
 -1      3390 1.31400E+02 3.57110E+01 0.00000E+00
 -1      3391 1.32900E+02 3.57110E+01 0.00000E+00
 -1      3392 1.30650E+02 3.44120E+01 0.00000E+00
 -1      3393 1.34151E+02 3.57039E+01 0.00000E+00
 -1      3394 1.35651E+02 3.57039E+01 0.00000E+00
 -1      3395 1.35903E+02 3.43908E+01 0.00000E+00
 -1      3396 1.33401E+02 3.44049E+01 0.00000E+00
 -1      3397 4.27500E+01 1.42890E+01 0.00000E+00
 -1      3398 4.12500E+01 1.42890E+01 0.00000E+00
 -1      3399 3.97500E+01 1.42890E+01 0.00000E+00
 -1      3400 3.82500E+01 1.42890E+01 0.00000E+00
 -1      3401 4.05000E+01 1.55880E+01 0.00000E+00
 -1      3402 5.78798E+01 2.42633E+01 0.00000E+00
 -1      3403 5.61943E+01 2.38972E+01 0.00000E+00
 -1      3404 3.67500E+01 1.42890E+01 0.00000E+00
 -1      3405 3.52500E+01 1.42890E+01 0.00000E+00
 -1      3406 3.75000E+01 1.55880E+01 0.00000E+00
 -1      3407 4.56000E+01 1.42890E+01 0.00000E+00
 -1      3408 4.41750E+01 1.42890E+01 0.00000E+00
 -1      3409 4.34250E+01 1.55880E+01 0.00000E+00
 -1      3410 4.89500E+01 1.34248E+01 0.00000E+00
 -1      3411 4.72883E+01 1.37776E+01 0.00000E+00
 -1      3412 4.65383E+01 1.50766E+01 0.00000E+00
 -1      3413 4.99148E+01 1.40537E+01 0.00000E+00
 -1      3414 2.17500E+01 1.42890E+01 0.00000E+00
 -1      3415 2.02500E+01 1.42890E+01 0.00000E+00
 -1      3416 8.55750E+01 1.30034E+01 0.00000E+00
 -1      3417 8.40750E+01 1.30034E+01 0.00000E+00
 -1      3418 2.47500E+01 1.42890E+01 0.00000E+00
 -1      3419 2.32500E+01 1.42890E+01 0.00000E+00
 -1      3420 2.25000E+01 1.55880E+01 0.00000E+00
 -1      3421 1.06425E+02 1.30259E+01 0.00000E+00
 -1      3422 1.04925E+02 1.30259E+01 0.00000E+00
 -1      3423 1.04175E+02 1.43249E+01 0.00000E+00
 -1      3424 1.09425E+02 1.30259E+01 0.00000E+00
 -1      3425 1.07925E+02 1.30259E+01 0.00000E+00
 -1      3426 1.07175E+02 1.43249E+01 0.00000E+00
 -1      3427 1.12425E+02 1.30259E+01 0.00000E+00
 -1      3428 1.10925E+02 1.30259E+01 0.00000E+00
 -1      3429 1.10175E+02 1.43249E+01 0.00000E+00
 -1      3430 1.15425E+02 1.30259E+01 0.00000E+00
 -1      3431 1.13925E+02 1.30259E+01 0.00000E+00
 -1      3432 1.13175E+02 1.43249E+01 0.00000E+00
 -1      3433 1.18425E+02 1.30259E+01 0.00000E+00
 -1      3434 1.16925E+02 1.30259E+01 0.00000E+00
 -1      3435 1.16175E+02 1.43249E+01 0.00000E+00
 -1      3436 1.21425E+02 1.30259E+01 0.00000E+00
 -1      3437 1.19925E+02 1.30259E+01 0.00000E+00
 -1      3438 1.19175E+02 1.43249E+01 0.00000E+00
 -1      3439 1.24425E+02 1.30259E+01 0.00000E+00
 -1      3440 1.22925E+02 1.30259E+01 0.00000E+00
 -1      3441 1.22175E+02 1.43249E+01 0.00000E+00
 -1      3442 1.27425E+02 1.30259E+01 0.00000E+00
 -1      3443 1.25925E+02 1.30259E+01 0.00000E+00
 -1      3444 1.25175E+02 1.43249E+01 0.00000E+00
 -1      3445 1.30425E+02 1.30259E+01 0.00000E+00
 -1      3446 1.28925E+02 1.30259E+01 0.00000E+00
 -1      3447 1.28175E+02 1.43249E+01 0.00000E+00
 -1      3448 1.33425E+02 1.30259E+01 0.00000E+00
 -1      3449 1.31925E+02 1.30259E+01 0.00000E+00
 -1      3450 1.31175E+02 1.43249E+01 0.00000E+00
 -1      3451 8.20182E+01 1.24331E+01 0.00000E+00
 -1      3452 7.91082E+01 1.97713E+01 0.00000E+00
 -1      3453 7.82748E+01 2.11478E+01 0.00000E+00
 -1      3454 8.14948E+01 1.39572E+01 0.00000E+00
 -1      3455 8.12231E+01 1.51867E+01 0.00000E+00
 -1      3456 1.36359E+02 3.10326E+01 0.00000E+00
 -1      3457 1.36359E+02 2.95826E+01 0.00000E+00
 -1      3458 1.36359E+02 2.81076E+01 0.00000E+00
 -1      3459 1.36359E+02 2.66326E+01 0.00000E+00
 -1      3460 1.35060E+02 2.88326E+01 0.00000E+00
 -1      3461 3.37500E+01 1.42890E+01 0.00000E+00
 -1      3462 3.22500E+01 1.42890E+01 0.00000E+00
 -1      3463 3.45000E+01 1.55880E+01 0.00000E+00
 -1      3464 2.77500E+01 1.42890E+01 0.00000E+00
 -1      3465 2.62500E+01 1.42890E+01 0.00000E+00
 -1      3466 2.55000E+01 1.55880E+01 0.00000E+00
 -1      3467 8.06996E+01 1.68059E+01 0.00000E+00
 -1      3468 7.99396E+01 1.82828E+01 0.00000E+00
 -1      3469 3.07500E+01 1.42890E+01 0.00000E+00
 -1      3470 2.92500E+01 1.42890E+01 0.00000E+00
 -1      3471 2.85000E+01 1.55880E+01 0.00000E+00
 -1      3472 3.15000E+01 1.55880E+01 0.00000E+00
 -1      3473 6.07003E+01 2.54878E+01 0.00000E+00
 -1      3474 5.92901E+01 2.48756E+01 0.00000E+00
 -1      3475 5.81716E+01 2.59619E+01 0.00000E+00
 -1      3476 1.19250E+01 3.53200E+01 0.00000E+00
 -1      3477 1.23298E+01 3.61450E+01 0.00000E+00
 -1      3478 1.36919E+01 3.61694E+01 0.00000E+00
 -1      3479 1.32240E+01 3.45856E+01 0.00000E+00
 -1      3480 5.41254E+01 2.26069E+01 0.00000E+00
 -1      3481 5.31198E+01 2.13422E+01 0.00000E+00
 -1      3482 6.69786E+01 2.74765E+01 0.00000E+00
 -1      3483 6.55982E+01 2.74267E+01 0.00000E+00
 -1      3484 1.87500E+01 1.42890E+01 0.00000E+00
 -1      3485 1.72501E+01 1.42890E+01 0.00000E+00
 -1      3486 1.95000E+01 1.55880E+01 0.00000E+00
 -1      3487 1.74000E+01 3.57110E+01 0.00000E+00
 -1      3488 1.89000E+01 3.57110E+01 0.00000E+00
 -1      3489 1.96500E+01 3.44120E+01 0.00000E+00
 -1      3490 1.47218E+01 1.23753E+01 0.00000E+00
 -1      3491 5.20919E+01 1.98383E+01 0.00000E+00
 -1      3492 5.13210E+01 1.84339E+01 0.00000E+00
 -1      3493 1.36794E+02 1.52449E+01 0.00000E+00
 -1      3494 1.34798E+02 1.38243E+01 0.00000E+00
 -1      3495 1.34048E+02 1.51233E+01 0.00000E+00
 -1      3496 1.36794E+02 1.67199E+01 0.00000E+00
 -1      3497 1.47450E+01 1.45700E+01 0.00000E+00
 -1      3498 8.28016E+01 1.32510E+01 0.00000E+00
 -1      3499 1.54950E+01 1.58690E+01 0.00000E+00
 -1      3500 1.29900E+01 2.64469E+01 0.00000E+00
 -1      3501 9.15094E+01 1.30259E+01 0.00000E+00
 -1      3502 9.00281E+01 1.30259E+01 0.00000E+00
 -1      3503 7.12387E+01 2.57500E+01 0.00000E+00
 -1      3504 7.05424E+01 2.68499E+01 0.00000E+00
 -1      3505 7.22025E+01 2.60314E+01 0.00000E+00
 -1      3506 6.46979E+01 2.76821E+01 0.00000E+00
 -1      3507 6.37975E+01 2.79375E+01 0.00000E+00
 -1      3508 6.53421E+01 2.89826E+01 0.00000E+00
 -1      3509 7.45548E+01 2.40874E+01 0.00000E+00
 -1      3510 7.41629E+01 2.51920E+01 0.00000E+00
 -1      3511 7.58190E+01 2.43479E+01 0.00000E+00
 -1      3512 5.52594E+01 2.55118E+01 0.00000E+00
 -1      3513 5.46924E+01 2.40594E+01 0.00000E+00
 -1      3514 5.31905E+01 2.42215E+01 0.00000E+00
 -1      3515 8.85422E+01 1.30147E+01 0.00000E+00
 -1      3516 8.70609E+01 1.30147E+01 0.00000E+00
 -1      3517 8.63109E+01 1.42911E+01 0.00000E+00
 -1      3518 8.92828E+01 1.43137E+01 0.00000E+00
 -1      3519 1.48649E+01 3.59280E+01 0.00000E+00
 -1      3520 1.62270E+01 3.59524E+01 0.00000E+00
 -1      3521 1.69770E+01 3.46534E+01 0.00000E+00
 -1      3522 1.46309E+01 3.51361E+01 0.00000E+00
 -1      3523 4.92675E+01 1.50911E+01 0.00000E+00
 -1      3524 1.36359E+02 2.51576E+01 0.00000E+00
 -1      3525 1.36359E+02 2.36826E+01 0.00000E+00
 -1      3526 1.35060E+02 2.58826E+01 0.00000E+00
 -1      3527 1.36005E+02 3.33682E+01 0.00000E+00
 -1      3528 1.36257E+02 3.20551E+01 0.00000E+00
 -1      3529 1.34958E+02 3.13301E+01 0.00000E+00
 -1      3530 1.34754E+02 3.33753E+01 0.00000E+00
 -1      3531 8.35516E+01 1.45275E+01 0.00000E+00
 -1      3532 8.03998E+01 1.95020E+01 0.00000E+00
 -1      3533 8.17546E+01 1.63942E+01 0.00000E+00
 -1      3534 7.78897E+01 2.21169E+01 0.00000E+00
 -1      3535 7.75046E+01 2.30859E+01 0.00000E+00
 -1      3536 7.91833E+01 2.19596E+01 0.00000E+00
 -1      3537 1.36539E+02 1.94396E+01 0.00000E+00
 -1      3538 1.36667E+02 1.80797E+01 0.00000E+00
 -1      3539 1.35294E+02 1.72814E+01 0.00000E+00
 -1      3540 6.13676E+01 2.66055E+01 0.00000E+00
 -1      3541 5.04381E+01 1.76891E+01 0.00000E+00
 -1      3542 4.95553E+01 1.69443E+01 0.00000E+00
 -1      3543 4.96848E+01 1.90163E+01 0.00000E+00
 -1      3544 9.81937E+01 1.43249E+01 0.00000E+00
 -1      3545 9.74437E+01 1.30259E+01 0.00000E+00
 -1      3546 9.59625E+01 1.30259E+01 0.00000E+00
 -1      3547 9.44719E+01 1.30259E+01 0.00000E+00
 -1      3548 9.29906E+01 1.30259E+01 0.00000E+00
 -1      3549 9.22500E+01 1.43249E+01 0.00000E+00
 -1      3550 1.41630E+01 3.35524E+01 0.00000E+00
 -1      3551 1.43970E+01 3.43442E+01 0.00000E+00
 -1      3552 1.55700E+01 3.41029E+01 0.00000E+00
 -1      3553 1.41630E+01 3.20836E+01 0.00000E+00
 -1      3554 1.42890E+01 1.98219E+01 0.00000E+00
 -1      3555 1.42890E+01 2.12906E+01 0.00000E+00
 -1      3556 6.79105E+01 2.76479E+01 0.00000E+00
 -1      3557 6.71743E+01 2.88986E+01 0.00000E+00
 -1      3558 6.88424E+01 2.78193E+01 0.00000E+00
 -1      3559 5.15956E+01 2.12651E+01 0.00000E+00
 -1      3560 1.42890E+01 2.27656E+01 0.00000E+00
 -1      3561 1.42890E+01 2.42406E+01 0.00000E+00
 -1      3562 1.55880E+01 2.20313E+01 0.00000E+00
 -1      3563 1.48920E+01 1.71111E+01 0.00000E+00
 -1      3564 1.48920E+01 1.85798E+01 0.00000E+00
 -1      3565 1.61910E+01 1.93142E+01 0.00000E+00
 -1      3566 1.73971E+01 1.68301E+01 0.00000E+00
 -1      3567 1.07925E+02 1.56239E+01 0.00000E+00
 -1      3568 1.06425E+02 1.56239E+01 0.00000E+00
 -1      3569 1.42890E+01 2.86531E+01 0.00000E+00
 -1      3570 1.42890E+01 3.01219E+01 0.00000E+00
 -1      3571 1.01925E+02 1.56239E+01 0.00000E+00
 -1      3572 1.00425E+02 1.56239E+01 0.00000E+00
 -1      3573 2.19000E+01 3.31130E+01 0.00000E+00
 -1      3574 2.34000E+01 3.31130E+01 0.00000E+00
 -1      3575 2.49000E+01 3.31130E+01 0.00000E+00
 -1      3576 2.64000E+01 3.31130E+01 0.00000E+00
 -1      3577 2.41500E+01 3.18140E+01 0.00000E+00
 -1      3578 2.79000E+01 3.31130E+01 0.00000E+00
 -1      3579 2.94000E+01 3.31130E+01 0.00000E+00
 -1      3580 2.71500E+01 3.18140E+01 0.00000E+00
 -1      3581 3.09000E+01 3.31130E+01 0.00000E+00
 -1      3582 3.24000E+01 3.31130E+01 0.00000E+00
 -1      3583 3.01500E+01 3.18140E+01 0.00000E+00
 -1      3584 3.39000E+01 3.31130E+01 0.00000E+00
 -1      3585 3.54000E+01 3.31130E+01 0.00000E+00
 -1      3586 3.31500E+01 3.18140E+01 0.00000E+00
 -1      3587 3.69000E+01 3.31130E+01 0.00000E+00
 -1      3588 3.84000E+01 3.31130E+01 0.00000E+00
 -1      3589 3.61500E+01 3.18140E+01 0.00000E+00
 -1      3590 3.99000E+01 3.31130E+01 0.00000E+00
 -1      3591 4.14000E+01 3.31130E+01 0.00000E+00
 -1      3592 3.91500E+01 3.18140E+01 0.00000E+00
 -1      3593 4.29000E+01 3.31130E+01 0.00000E+00
 -1      3594 4.44000E+01 3.31130E+01 0.00000E+00
 -1      3595 4.21500E+01 3.18140E+01 0.00000E+00
 -1      3596 4.59000E+01 3.31130E+01 0.00000E+00
 -1      3597 4.74000E+01 3.31130E+01 0.00000E+00
 -1      3598 4.51500E+01 3.18140E+01 0.00000E+00
 -1      3599 4.89000E+01 3.31130E+01 0.00000E+00
 -1      3600 5.04000E+01 3.31130E+01 0.00000E+00
 -1      3601 4.81500E+01 3.18140E+01 0.00000E+00
 -1      3602 5.19000E+01 3.31130E+01 0.00000E+00
 -1      3603 5.34000E+01 3.31130E+01 0.00000E+00
 -1      3604 5.11500E+01 3.18140E+01 0.00000E+00
 -1      3605 5.49000E+01 3.31130E+01 0.00000E+00
 -1      3606 5.64000E+01 3.31130E+01 0.00000E+00
 -1      3607 5.41500E+01 3.18140E+01 0.00000E+00
 -1      3608 5.79000E+01 3.31130E+01 0.00000E+00
 -1      3609 5.94000E+01 3.31130E+01 0.00000E+00
 -1      3610 5.71500E+01 3.18140E+01 0.00000E+00
 -1      3611 6.09000E+01 3.31130E+01 0.00000E+00
 -1      3612 6.24000E+01 3.31130E+01 0.00000E+00
 -1      3613 6.01500E+01 3.18140E+01 0.00000E+00
 -1      3614 6.69000E+01 3.31130E+01 0.00000E+00
 -1      3615 6.84000E+01 3.31130E+01 0.00000E+00
 -1      3616 6.99000E+01 3.31130E+01 0.00000E+00
 -1      3617 7.14000E+01 3.31130E+01 0.00000E+00
 -1      3618 6.91500E+01 3.18140E+01 0.00000E+00
 -1      3619 7.29000E+01 3.31130E+01 0.00000E+00
 -1      3620 7.44000E+01 3.31130E+01 0.00000E+00
 -1      3621 7.21500E+01 3.18140E+01 0.00000E+00
 -1      3622 7.59000E+01 3.31130E+01 0.00000E+00
 -1      3623 7.74000E+01 3.31130E+01 0.00000E+00
 -1      3624 7.51500E+01 3.18140E+01 0.00000E+00
 -1      3625 7.89000E+01 3.31130E+01 0.00000E+00
 -1      3626 8.04000E+01 3.31130E+01 0.00000E+00
 -1      3627 7.81500E+01 3.18140E+01 0.00000E+00
 -1      3628 8.19000E+01 3.31130E+01 0.00000E+00
 -1      3629 8.34000E+01 3.31130E+01 0.00000E+00
 -1      3630 8.11500E+01 3.18140E+01 0.00000E+00
 -1      3631 8.49000E+01 3.31130E+01 0.00000E+00
 -1      3632 8.64000E+01 3.31130E+01 0.00000E+00
 -1      3633 8.41500E+01 3.18140E+01 0.00000E+00
 -1      3634 8.79000E+01 3.31130E+01 0.00000E+00
 -1      3635 8.94000E+01 3.31130E+01 0.00000E+00
 -1      3636 8.71500E+01 3.18140E+01 0.00000E+00
 -1      3637 9.09000E+01 3.31130E+01 0.00000E+00
 -1      3638 9.24000E+01 3.31130E+01 0.00000E+00
 -1      3639 9.01500E+01 3.18140E+01 0.00000E+00
 -1      3640 9.39000E+01 3.31130E+01 0.00000E+00
 -1      3641 9.54000E+01 3.31130E+01 0.00000E+00
 -1      3642 9.31500E+01 3.18140E+01 0.00000E+00
 -1      3643 9.69000E+01 3.31130E+01 0.00000E+00
 -1      3644 9.84000E+01 3.31130E+01 0.00000E+00
 -1      3645 9.61500E+01 3.18140E+01 0.00000E+00
 -1      3646 9.99000E+01 3.31130E+01 0.00000E+00
 -1      3647 1.01400E+02 3.31130E+01 0.00000E+00
 -1      3648 9.91500E+01 3.18140E+01 0.00000E+00
 -1      3649 1.02900E+02 3.31130E+01 0.00000E+00
 -1      3650 1.04400E+02 3.31130E+01 0.00000E+00
 -1      3651 1.02150E+02 3.18140E+01 0.00000E+00
 -1      3652 1.05900E+02 3.31130E+01 0.00000E+00
 -1      3653 1.07400E+02 3.31130E+01 0.00000E+00
 -1      3654 1.05150E+02 3.18140E+01 0.00000E+00
 -1      3655 1.08900E+02 3.31130E+01 0.00000E+00
 -1      3656 1.10400E+02 3.31130E+01 0.00000E+00
 -1      3657 1.08150E+02 3.18140E+01 0.00000E+00
 -1      3658 1.11900E+02 3.31130E+01 0.00000E+00
 -1      3659 1.13400E+02 3.31130E+01 0.00000E+00
 -1      3660 1.11150E+02 3.18140E+01 0.00000E+00
 -1      3661 1.14900E+02 3.31130E+01 0.00000E+00
 -1      3662 1.16400E+02 3.31130E+01 0.00000E+00
 -1      3663 1.14150E+02 3.18140E+01 0.00000E+00
 -1      3664 1.17900E+02 3.31130E+01 0.00000E+00
 -1      3665 1.19400E+02 3.31130E+01 0.00000E+00
 -1      3666 1.17150E+02 3.18140E+01 0.00000E+00
 -1      3667 1.20900E+02 3.31130E+01 0.00000E+00
 -1      3668 1.22400E+02 3.31130E+01 0.00000E+00
 -1      3669 1.20150E+02 3.18140E+01 0.00000E+00
 -1      3670 1.23900E+02 3.31130E+01 0.00000E+00
 -1      3671 1.25400E+02 3.31130E+01 0.00000E+00
 -1      3672 1.23150E+02 3.18140E+01 0.00000E+00
 -1      3673 1.26900E+02 3.31130E+01 0.00000E+00
 -1      3674 1.28400E+02 3.31130E+01 0.00000E+00
 -1      3675 1.26150E+02 3.18140E+01 0.00000E+00
 -1      3676 1.29900E+02 3.31130E+01 0.00000E+00
 -1      3677 1.31400E+02 3.31130E+01 0.00000E+00
 -1      3678 1.29150E+02 3.18140E+01 0.00000E+00
 -1      3679 4.12500E+01 1.68870E+01 0.00000E+00
 -1      3680 3.97500E+01 1.68870E+01 0.00000E+00
 -1      3681 4.41000E+01 1.68870E+01 0.00000E+00
 -1      3682 4.26750E+01 1.68870E+01 0.00000E+00
 -1      3683 4.19250E+01 1.81860E+01 0.00000E+00
 -1      3684 4.85143E+01 1.64183E+01 0.00000E+00
 -1      3685 2.62500E+01 1.68870E+01 0.00000E+00
 -1      3686 2.47500E+01 1.68870E+01 0.00000E+00
 -1      3687 1.04925E+02 1.56239E+01 0.00000E+00
 -1      3688 1.03425E+02 1.56239E+01 0.00000E+00
 -1      3689 1.02675E+02 1.69229E+01 0.00000E+00
 -1      3690 1.05675E+02 1.69229E+01 0.00000E+00
 -1      3691 1.54620E+01 3.13493E+01 0.00000E+00
 -1      3692 1.33761E+02 2.95701E+01 0.00000E+00
 -1      3693 1.33761E+02 2.80951E+01 0.00000E+00
 -1      3694 2.32500E+01 1.68870E+01 0.00000E+00
 -1      3695 2.17500E+01 1.68870E+01 0.00000E+00
 -1      3696 2.40000E+01 1.81860E+01 0.00000E+00
 -1      3697 1.10925E+02 1.56239E+01 0.00000E+00
 -1      3698 1.09425E+02 1.56239E+01 0.00000E+00
 -1      3699 1.08675E+02 1.69229E+01 0.00000E+00
 -1      3700 1.13925E+02 1.56239E+01 0.00000E+00
 -1      3701 1.12425E+02 1.56239E+01 0.00000E+00
 -1      3702 1.11675E+02 1.69229E+01 0.00000E+00
 -1      3703 1.16925E+02 1.56239E+01 0.00000E+00
 -1      3704 1.15425E+02 1.56239E+01 0.00000E+00
 -1      3705 1.14675E+02 1.69229E+01 0.00000E+00
 -1      3706 1.19925E+02 1.56239E+01 0.00000E+00
 -1      3707 1.18425E+02 1.56239E+01 0.00000E+00
 -1      3708 1.17675E+02 1.69229E+01 0.00000E+00
 -1      3709 1.22925E+02 1.56239E+01 0.00000E+00
 -1      3710 1.21425E+02 1.56239E+01 0.00000E+00
 -1      3711 1.20675E+02 1.69229E+01 0.00000E+00
 -1      3712 1.25925E+02 1.56239E+01 0.00000E+00
 -1      3713 1.24425E+02 1.56239E+01 0.00000E+00
 -1      3714 1.23675E+02 1.69229E+01 0.00000E+00
 -1      3715 1.28925E+02 1.56239E+01 0.00000E+00
 -1      3716 1.27425E+02 1.56239E+01 0.00000E+00
 -1      3717 1.26675E+02 1.69229E+01 0.00000E+00
 -1      3718 1.31925E+02 1.56239E+01 0.00000E+00
 -1      3719 1.30425E+02 1.56239E+01 0.00000E+00
 -1      3720 1.29675E+02 1.69229E+01 0.00000E+00
 -1      3721 8.31512E+01 1.59516E+01 0.00000E+00
 -1      3722 8.26277E+01 1.75708E+01 0.00000E+00
 -1      3723 5.83684E+01 2.74389E+01 0.00000E+00
 -1      3724 5.69581E+01 2.68267E+01 0.00000E+00
 -1      3725 8.44247E+01 1.57040E+01 0.00000E+00
 -1      3726 3.52500E+01 1.68870E+01 0.00000E+00
 -1      3727 3.37500E+01 1.68870E+01 0.00000E+00
 -1      3728 4.68260E+01 1.69298E+01 0.00000E+00
 -1      3729 2.03235E+01 1.68585E+01 0.00000E+00
 -1      3730 1.88236E+01 1.68585E+01 0.00000E+00
 -1      3731 1.82205E+01 1.81006E+01 0.00000E+00
 -1      3732 2.10735E+01 1.81575E+01 0.00000E+00
 -1      3733 1.36386E+02 2.22410E+01 0.00000E+00
 -1      3734 1.36513E+02 2.08811E+01 0.00000E+00
 -1      3735 1.35140E+02 2.00828E+01 0.00000E+00
 -1      3736 1.35087E+02 2.29660E+01 0.00000E+00
 -1      3737 1.89000E+01 3.31130E+01 0.00000E+00
 -1      3738 2.04000E+01 3.31130E+01 0.00000E+00
 -1      3739 2.11500E+01 3.18140E+01 0.00000E+00
 -1      3740 1.42890E+01 2.57109E+01 0.00000E+00
 -1      3741 1.42890E+01 2.71828E+01 0.00000E+00
 -1      3742 1.55880E+01 2.79172E+01 0.00000E+00
 -1      3743 1.55880E+01 2.49766E+01 0.00000E+00
 -1      3744 5.10371E+01 2.27500E+01 0.00000E+00
 -1      3745 5.00092E+01 2.12461E+01 0.00000E+00
 -1      3746 6.20118E+01 2.79061E+01 0.00000E+00
 -1      3747 6.02261E+01 2.78747E+01 0.00000E+00
 -1      3748 6.26560E+01 2.92066E+01 0.00000E+00
 -1      3749 8.19299E+01 1.93801E+01 0.00000E+00
 -1      3750 8.10985E+01 2.08686E+01 0.00000E+00
 -1      3751 3.82500E+01 1.68870E+01 0.00000E+00
 -1      3752 3.67500E+01 1.68870E+01 0.00000E+00
 -1      3753 3.60000E+01 1.81860E+01 0.00000E+00
 -1      3754 3.90000E+01 1.81860E+01 0.00000E+00
 -1      3755 1.34296E+02 1.68518E+01 0.00000E+00
 -1      3756 1.32923E+02 1.60535E+01 0.00000E+00
 -1      3757 1.32173E+02 1.73525E+01 0.00000E+00
 -1      3758 1.34169E+02 1.82117E+01 0.00000E+00
 -1      3759 1.32462E+02 2.73576E+01 0.00000E+00
 -1      3760 1.33761E+02 2.66201E+01 0.00000E+00
 -1      3761 1.33761E+02 2.51451E+01 0.00000E+00
 -1      3762 9.96937E+01 1.69229E+01 0.00000E+00
 -1      3763 9.89437E+01 1.56239E+01 0.00000E+00
 -1      3764 9.74625E+01 1.56239E+01 0.00000E+00
 -1      3765 6.61467E+01 3.01046E+01 0.00000E+00
 -1      3766 6.52464E+01 3.03600E+01 0.00000E+00
 -1      3767 7.71126E+01 2.41906E+01 0.00000E+00
 -1      3768 7.67207E+01 2.52953E+01 0.00000E+00
 -1      3769 7.84063E+01 2.40333E+01 0.00000E+00
 -1      3770 6.38505E+01 3.16480E+01 0.00000E+00
 -1      3771 6.46005E+01 3.29470E+01 0.00000E+00
 -1      3772 5.54562E+01 2.69888E+01 0.00000E+00
 -1      3773 9.00159E+01 1.56183E+01 0.00000E+00
 -1      3774 8.85300E+01 1.56070E+01 0.00000E+00
 -1      3775 6.61005E+01 3.29470E+01 0.00000E+00
 -1      3776 6.68505E+01 3.16480E+01 0.00000E+00
 -1      3777 1.32452E+02 3.32477E+01 0.00000E+00
 -1      3778 1.33702E+02 3.32406E+01 0.00000E+00
 -1      3779 1.33805E+02 3.22180E+01 0.00000E+00
 -1      3780 1.31702E+02 3.19487E+01 0.00000E+00
 -1      3781 2.77500E+01 1.68870E+01 0.00000E+00
 -1      3782 2.70000E+01 1.81860E+01 0.00000E+00
 -1      3783 2.92500E+01 1.68870E+01 0.00000E+00
 -1      3784 5.90126E+01 2.87395E+01 0.00000E+00
 -1      3785 4.60760E+01 1.82288E+01 0.00000E+00
 -1      3786 8.33265E+01 1.89374E+01 0.00000E+00
 -1      3787 3.30000E+01 1.81860E+01 0.00000E+00
 -1      3788 3.22500E+01 1.68870E+01 0.00000E+00
 -1      3789 3.07500E+01 1.68870E+01 0.00000E+00
 -1      3790 8.07134E+01 2.18377E+01 0.00000E+00
 -1      3791 8.03283E+01 2.28068E+01 0.00000E+00
 -1      3792 8.22435E+01 2.17159E+01 0.00000E+00
 -1      3793 1.33906E+02 3.11955E+01 0.00000E+00
 -1      3794 4.91263E+01 2.05013E+01 0.00000E+00
 -1      3795 4.82435E+01 1.97565E+01 0.00000E+00
 -1      3796 4.85678E+01 2.19862E+01 0.00000E+00
 -1      3797 5.21711E+01 2.56549E+01 0.00000E+00
 -1      3798 5.16041E+01 2.42025E+01 0.00000E+00
 -1      3799 5.00177E+01 2.41835E+01 0.00000E+00
 -1      3800 9.52219E+01 1.43249E+01 0.00000E+00
 -1      3801 1.76175E+01 1.93427E+01 0.00000E+00
 -1      3802 1.70145E+01 2.05847E+01 0.00000E+00
 -1      3803 1.90440E+01 1.93711E+01 0.00000E+00
 -1      3804 6.70787E+01 3.02760E+01 0.00000E+00
 -1      3805 8.72203E+01 1.56611E+01 0.00000E+00
 -1      3806 8.57344E+01 1.56499E+01 0.00000E+00
 -1      3807 8.53340E+01 1.70740E+01 0.00000E+00
 -1      3808 8.79534E+01 1.69657E+01 0.00000E+00
 -1      3809 7.47308E+01 2.65525E+01 0.00000E+00
 -1      3810 7.34666E+01 2.62919E+01 0.00000E+00
 -1      3811 7.27704E+01 2.73918E+01 0.00000E+00
 -1      3812 1.66485E+01 3.37286E+01 0.00000E+00
 -1      3813 1.78215E+01 3.34873E+01 0.00000E+00
 -1      3814 1.85715E+01 3.21883E+01 0.00000E+00
 -1      3815 1.64145E+01 3.29368E+01 0.00000E+00
 -1      3816 9.29784E+01 1.56183E+01 0.00000E+00
 -1      3817 9.14972E+01 1.56183E+01 0.00000E+00
 -1      3818 9.07444E+01 1.69116E+01 0.00000E+00
 -1      3819 1.32607E+02 3.04580E+01 0.00000E+00
 -1      3820 1.70145E+01 2.20597E+01 0.00000E+00
 -1      3821 1.65405E+01 3.09750E+01 0.00000E+00
 -1      3822 7.06900E+01 2.81355E+01 0.00000E+00
 -1      3823 6.97262E+01 2.78541E+01 0.00000E+00
 -1      3824 6.30459E+01 3.05260E+01 0.00000E+00
 -1      3825 5.55105E+01 2.86735E+01 0.00000E+00
 -1      3826 5.38117E+01 2.73586E+01 0.00000E+00
 -1      3827 1.31556E+02 3.03233E+01 0.00000E+00
 -1      3828 2.64000E+01 3.05150E+01 0.00000E+00
 -1      3829 2.79000E+01 3.05150E+01 0.00000E+00
 -1      3830 2.94000E+01 3.05150E+01 0.00000E+00
 -1      3831 3.09000E+01 3.05150E+01 0.00000E+00
 -1      3832 2.86500E+01 2.92160E+01 0.00000E+00
 -1      3833 3.24000E+01 3.05150E+01 0.00000E+00
 -1      3834 3.39000E+01 3.05150E+01 0.00000E+00
 -1      3835 3.16500E+01 2.92160E+01 0.00000E+00
 -1      3836 3.54000E+01 3.05150E+01 0.00000E+00
 -1      3837 3.69000E+01 3.05150E+01 0.00000E+00
 -1      3838 3.46500E+01 2.92160E+01 0.00000E+00
 -1      3839 3.84000E+01 3.05150E+01 0.00000E+00
 -1      3840 3.99000E+01 3.05150E+01 0.00000E+00
 -1      3841 3.76500E+01 2.92160E+01 0.00000E+00
 -1      3842 4.14000E+01 3.05150E+01 0.00000E+00
 -1      3843 4.29000E+01 3.05150E+01 0.00000E+00
 -1      3844 4.06500E+01 2.92160E+01 0.00000E+00
 -1      3845 4.44000E+01 3.05150E+01 0.00000E+00
 -1      3846 4.59000E+01 3.05150E+01 0.00000E+00
 -1      3847 4.36500E+01 2.92160E+01 0.00000E+00
 -1      3848 4.74000E+01 3.05150E+01 0.00000E+00
 -1      3849 4.89000E+01 3.05150E+01 0.00000E+00
 -1      3850 4.66500E+01 2.92160E+01 0.00000E+00
 -1      3851 5.32580E+01 3.04286E+01 0.00000E+00
 -1      3852 5.47580E+01 3.04286E+01 0.00000E+00
 -1      3853 5.64025E+01 3.00589E+01 0.00000E+00
 -1      3854 5.79025E+01 3.00589E+01 0.00000E+00
 -1      3855 5.97601E+01 3.04946E+01 0.00000E+00
 -1      3856 6.12601E+01 3.04946E+01 0.00000E+00
 -1      3857 7.44000E+01 3.05150E+01 0.00000E+00
 -1      3858 7.59000E+01 3.05150E+01 0.00000E+00
 -1      3859 7.74000E+01 3.05150E+01 0.00000E+00
 -1      3860 7.89000E+01 3.05150E+01 0.00000E+00
 -1      3861 7.66500E+01 2.92160E+01 0.00000E+00
 -1      3862 8.04000E+01 3.05150E+01 0.00000E+00
 -1      3863 8.19000E+01 3.05150E+01 0.00000E+00
 -1      3864 7.96500E+01 2.92160E+01 0.00000E+00
 -1      3865 8.34000E+01 3.05150E+01 0.00000E+00
 -1      3866 8.49000E+01 3.05150E+01 0.00000E+00
 -1      3867 8.26500E+01 2.92160E+01 0.00000E+00
 -1      3868 8.64000E+01 3.05150E+01 0.00000E+00
 -1      3869 8.79000E+01 3.05150E+01 0.00000E+00
 -1      3870 8.56500E+01 2.92160E+01 0.00000E+00
 -1      3871 8.94000E+01 3.05150E+01 0.00000E+00
 -1      3872 9.09000E+01 3.05150E+01 0.00000E+00
 -1      3873 8.86500E+01 2.92160E+01 0.00000E+00
 -1      3874 9.24000E+01 3.05150E+01 0.00000E+00
 -1      3875 9.39000E+01 3.05150E+01 0.00000E+00
 -1      3876 9.16500E+01 2.92160E+01 0.00000E+00
 -1      3877 9.54000E+01 3.05150E+01 0.00000E+00
 -1      3878 9.69000E+01 3.05150E+01 0.00000E+00
 -1      3879 9.46500E+01 2.92160E+01 0.00000E+00
 -1      3880 9.84000E+01 3.05150E+01 0.00000E+00
 -1      3881 9.99000E+01 3.05150E+01 0.00000E+00
 -1      3882 9.76500E+01 2.92160E+01 0.00000E+00
 -1      3883 1.01400E+02 3.05150E+01 0.00000E+00
 -1      3884 1.02900E+02 3.05150E+01 0.00000E+00
 -1      3885 1.00650E+02 2.92160E+01 0.00000E+00
 -1      3886 1.04400E+02 3.05150E+01 0.00000E+00
 -1      3887 1.05900E+02 3.05150E+01 0.00000E+00
 -1      3888 1.03650E+02 2.92160E+01 0.00000E+00
 -1      3889 1.07400E+02 3.05150E+01 0.00000E+00
 -1      3890 1.08900E+02 3.05150E+01 0.00000E+00
 -1      3891 1.06650E+02 2.92160E+01 0.00000E+00
 -1      3892 1.10400E+02 3.05150E+01 0.00000E+00
 -1      3893 1.11900E+02 3.05150E+01 0.00000E+00
 -1      3894 1.09650E+02 2.92160E+01 0.00000E+00
 -1      3895 1.13400E+02 3.05150E+01 0.00000E+00
 -1      3896 1.14900E+02 3.05150E+01 0.00000E+00
 -1      3897 1.12650E+02 2.92160E+01 0.00000E+00
 -1      3898 1.16400E+02 3.05150E+01 0.00000E+00
 -1      3899 1.17900E+02 3.05150E+01 0.00000E+00
 -1      3900 1.15650E+02 2.92160E+01 0.00000E+00
 -1      3901 1.19400E+02 3.05150E+01 0.00000E+00
 -1      3902 1.20900E+02 3.05150E+01 0.00000E+00
 -1      3903 1.18650E+02 2.92160E+01 0.00000E+00
 -1      3904 1.22400E+02 3.05150E+01 0.00000E+00
 -1      3905 1.23900E+02 3.05150E+01 0.00000E+00
 -1      3906 1.21650E+02 2.92160E+01 0.00000E+00
 -1      3907 1.25400E+02 3.05150E+01 0.00000E+00
 -1      3908 1.26900E+02 3.05150E+01 0.00000E+00
 -1      3909 1.24650E+02 2.92160E+01 0.00000E+00
 -1      3910 1.28400E+02 3.05150E+01 0.00000E+00
 -1      3911 1.29900E+02 3.05150E+01 0.00000E+00
 -1      3912 1.27650E+02 2.92160E+01 0.00000E+00
 -1      3913 4.26375E+01 1.94850E+01 0.00000E+00
 -1      3914 4.12125E+01 1.94850E+01 0.00000E+00
 -1      3915 1.86527E+01 2.22485E+01 0.00000E+00
 -1      3916 1.72262E+01 2.36951E+01 0.00000E+00
 -1      3917 6.87619E+01 3.04768E+01 0.00000E+00
 -1      3918 7.02619E+01 3.04768E+01 0.00000E+00
 -1      3919 1.15425E+02 1.82219E+01 0.00000E+00
 -1      3920 1.13925E+02 1.82219E+01 0.00000E+00
 -1      3921 1.18425E+02 1.82219E+01 0.00000E+00
 -1      3922 1.16925E+02 1.82219E+01 0.00000E+00
 -1      3923 1.16175E+02 1.95209E+01 0.00000E+00
 -1      3924 1.21425E+02 1.82219E+01 0.00000E+00
 -1      3925 1.19925E+02 1.82219E+01 0.00000E+00
 -1      3926 1.19175E+02 1.95209E+01 0.00000E+00
 -1      3927 2.34000E+01 3.05150E+01 0.00000E+00
 -1      3928 2.49000E+01 3.05150E+01 0.00000E+00
 -1      3929 2.56500E+01 2.92160E+01 0.00000E+00
 -1      3930 1.24425E+02 1.82219E+01 0.00000E+00
 -1      3931 1.22925E+02 1.82219E+01 0.00000E+00
 -1      3932 1.22175E+02 1.95209E+01 0.00000E+00
 -1      3933 1.27425E+02 1.82219E+01 0.00000E+00
 -1      3934 1.25925E+02 1.82219E+01 0.00000E+00
 -1      3935 1.25175E+02 1.95209E+01 0.00000E+00
 -1      3936 1.30425E+02 1.82219E+01 0.00000E+00
 -1      3937 1.28925E+02 1.82219E+01 0.00000E+00
 -1      3938 1.28175E+02 1.95209E+01 0.00000E+00
 -1      3939 6.89901E+01 2.91049E+01 0.00000E+00
 -1      3940 1.30806E+02 2.90243E+01 0.00000E+00
 -1      3941 7.12260E+01 2.93062E+01 0.00000E+00
 -1      3942 7.16141E+01 3.06433E+01 0.00000E+00
 -1      3943 7.31141E+01 3.06433E+01 0.00000E+00
 -1      3944 7.20422E+01 2.83020E+01 0.00000E+00
 -1      3945 8.46362E+01 1.88833E+01 0.00000E+00
 -1      3946 8.39384E+01 2.06927E+01 0.00000E+00
 -1      3947 8.59459E+01 1.88292E+01 0.00000E+00
 -1      3948 1.12425E+02 1.82219E+01 0.00000E+00
 -1      3949 1.10925E+02 1.82219E+01 0.00000E+00
 -1      3950 1.13175E+02 1.95209E+01 0.00000E+00
 -1      3951 2.47500E+01 1.94850E+01 0.00000E+00
 -1      3952 2.32500E+01 1.94850E+01 0.00000E+00
 -1      3953 1.76190E+01 3.06007E+01 0.00000E+00
 -1      3954 1.86975E+01 3.02265E+01 0.00000E+00
 -1      3955 1.66665E+01 2.90132E+01 0.00000E+00
 -1      3956 4.55175E+01 1.97137E+01 0.00000E+00
 -1      3957 2.04000E+01 3.05150E+01 0.00000E+00
 -1      3958 2.19000E+01 3.05150E+01 0.00000E+00
 -1      3959 2.26500E+01 2.92160E+01 0.00000E+00
 -1      3960 1.09425E+02 1.82219E+01 0.00000E+00
 -1      3961 1.07925E+02 1.82219E+01 0.00000E+00
 -1      3962 1.10175E+02 1.95209E+01 0.00000E+00
 -1      3963 9.59658E+01 1.56211E+01 0.00000E+00
 -1      3964 9.44752E+01 1.56211E+01 0.00000E+00
 -1      3965 9.37223E+01 1.69144E+01 0.00000E+00
 -1      3966 9.67158E+01 1.69201E+01 0.00000E+00
 -1      3967 9.14850E+01 1.82106E+01 0.00000E+00
 -1      3968 9.00037E+01 1.82106E+01 0.00000E+00
 -1      3969 1.00434E+02 1.82219E+01 0.00000E+00
 -1      3970 9.89531E+01 1.82219E+01 0.00000E+00
 -1      3971 1.32421E+02 1.90811E+01 0.00000E+00
 -1      3972 1.31423E+02 1.86515E+01 0.00000E+00
 -1      3973 1.30673E+02 1.99505E+01 0.00000E+00
 -1      3974 7.80822E+01 2.71770E+01 0.00000E+00
 -1      3975 7.67885E+01 2.73343E+01 0.00000E+00
 -1      3976 1.07175E+02 1.95209E+01 0.00000E+00
 -1      3977 1.06425E+02 1.82219E+01 0.00000E+00
 -1      3978 1.04925E+02 1.82219E+01 0.00000E+00
 -1      3979 6.78781E+01 3.04420E+01 0.00000E+00
 -1      3980 5.21769E+01 3.02790E+01 0.00000E+00
 -1      3981 5.27849E+01 2.88936E+01 0.00000E+00
 -1      3982 5.27306E+01 2.72090E+01 0.00000E+00
 -1      3983 5.06769E+01 3.02790E+01 0.00000E+00
 -1      3984 2.77500E+01 1.94850E+01 0.00000E+00
 -1      3985 2.62500E+01 1.94850E+01 0.00000E+00
 -1      3986 2.55000E+01 2.07840E+01 0.00000E+00
 -1      3987 4.04250E+01 2.07840E+01 0.00000E+00
 -1      3988 3.97125E+01 1.94850E+01 0.00000E+00
 -1      3989 3.82125E+01 1.94850E+01 0.00000E+00
 -1      3990 5.11442E+01 2.71900E+01 0.00000E+00
 -1      3991 1.72262E+01 2.51654E+01 0.00000E+00
 -1      3992 4.99269E+01 2.89800E+01 0.00000E+00
 -1      3993 1.03430E+02 1.82219E+01 0.00000E+00
 -1      3994 1.01930E+02 1.82219E+01 0.00000E+00
 -1      3995 1.01189E+02 1.95209E+01 0.00000E+00
 -1      3996 1.04180E+02 1.95209E+01 0.00000E+00
 -1      3997 1.66665E+01 2.75429E+01 0.00000E+00
 -1      3998 3.00000E+01 1.81860E+01 0.00000E+00
 -1      3999 3.37500E+01 1.94850E+01 0.00000E+00
 -1      4000 3.22500E+01 1.94850E+01 0.00000E+00
 -1      4001 1.30806E+02 2.75493E+01 0.00000E+00
 -1      4002 1.30806E+02 2.60743E+01 0.00000E+00
 -1      4003 1.29150E+02 2.77410E+01 0.00000E+00
 -1      4004 8.35532E+01 2.16618E+01 0.00000E+00
 -1      4005 8.31681E+01 2.26308E+01 0.00000E+00
 -1      4006 8.48629E+01 2.16076E+01 0.00000E+00
 -1      4007 7.33063E+01 2.85625E+01 0.00000E+00
 -1      4008 1.34279E+02 1.97967E+01 0.00000E+00
 -1      4009 1.33281E+02 1.93672E+01 0.00000E+00
 -1      4010 1.32531E+02 2.06662E+01 0.00000E+00
 -1      4011 1.34253E+02 2.12383E+01 0.00000E+00
 -1      4012 4.81716E+01 2.33515E+01 0.00000E+00
 -1      4013 4.72888E+01 2.26067E+01 0.00000E+00
 -1      4014 1.32297E+02 2.48889E+01 0.00000E+00
 -1      4015 1.33596E+02 2.41514E+01 0.00000E+00
 -1      4016 1.33622E+02 2.27098E+01 0.00000E+00
 -1      4017 1.30641E+02 2.50806E+01 0.00000E+00
 -1      4018 2.18602E+01 1.94423E+01 0.00000E+00
 -1      4019 2.04338E+01 1.94138E+01 0.00000E+00
 -1      4020 1.98307E+01 2.06559E+01 0.00000E+00
 -1      4021 2.26102E+01 2.07413E+01 0.00000E+00
 -1      4022 2.00424E+01 2.22913E+01 0.00000E+00
 -1      4023 8.86297E+01 1.84928E+01 0.00000E+00
 -1      4024 8.73200E+01 1.85470E+01 0.00000E+00
 -1      4025 8.66221E+01 2.03563E+01 0.00000E+00
 -1      4026 8.93703E+01 1.97918E+01 0.00000E+00
 -1      4027 8.14665E+01 2.37896E+01 0.00000E+00
 -1      4028 7.99364E+01 2.39115E+01 0.00000E+00
 -1      4029 7.95444E+01 2.50162E+01 0.00000E+00
 -1      4030 1.94475E+01 2.89275E+01 0.00000E+00
 -1      4031 7.38641E+01 2.93443E+01 0.00000E+00
 -1      4032 3.67313E+01 1.94850E+01 0.00000E+00
 -1      4033 3.52313E+01 1.94850E+01 0.00000E+00
 -1      4034 3.44813E+01 2.07840E+01 0.00000E+00
 -1      4035 3.74437E+01 2.07840E+01 0.00000E+00
 -1      4036 4.87386E+01 2.48040E+01 0.00000E+00
 -1      4037 4.60469E+01 2.18097E+01 0.00000E+00
 -1      4038 4.38794E+01 2.02820E+01 0.00000E+00
 -1      4039 4.31669E+01 2.15810E+01 0.00000E+00
 -1      4040 4.56507E+01 2.31750E+01 0.00000E+00
 -1      4041 9.81970E+01 1.95181E+01 0.00000E+00
 -1      4042 9.74564E+01 1.82191E+01 0.00000E+00
 -1      4043 9.59597E+01 1.82163E+01 0.00000E+00
 -1      4044 7.95633E+01 2.60966E+01 0.00000E+00
 -1      4045 7.96311E+01 2.81356E+01 0.00000E+00
 -1      4046 8.11311E+01 2.81356E+01 0.00000E+00
 -1      4047 8.10934E+01 2.59747E+01 0.00000E+00
 -1      4048 1.83047E+01 2.62615E+01 0.00000E+00
 -1      4049 1.22925E+02 2.08199E+01 0.00000E+00
 -1      4050 1.21425E+02 2.08199E+01 0.00000E+00
 -1      4051 3.09000E+01 2.79170E+01 0.00000E+00
 -1      4052 3.24000E+01 2.79170E+01 0.00000E+00
 -1      4053 3.39000E+01 2.79170E+01 0.00000E+00
 -1      4054 3.54000E+01 2.79170E+01 0.00000E+00
 -1      4055 3.31500E+01 2.66180E+01 0.00000E+00
 -1      4056 3.69000E+01 2.79170E+01 0.00000E+00
 -1      4057 3.84000E+01 2.79170E+01 0.00000E+00
 -1      4058 3.61500E+01 2.66180E+01 0.00000E+00
 -1      4059 3.99000E+01 2.79170E+01 0.00000E+00
 -1      4060 4.14000E+01 2.79170E+01 0.00000E+00
 -1      4061 3.91500E+01 2.66180E+01 0.00000E+00
 -1      4062 4.29000E+01 2.79170E+01 0.00000E+00
 -1      4063 4.44000E+01 2.79170E+01 0.00000E+00
 -1      4064 4.21500E+01 2.66180E+01 0.00000E+00
 -1      4065 8.26311E+01 2.81356E+01 0.00000E+00
 -1      4066 8.41311E+01 2.81356E+01 0.00000E+00
 -1      4067 8.26123E+01 2.70552E+01 0.00000E+00
 -1      4068 8.56311E+01 2.81356E+01 0.00000E+00
 -1      4069 8.71311E+01 2.81356E+01 0.00000E+00
 -1      4070 8.56123E+01 2.70552E+01 0.00000E+00
 -1      4071 8.86311E+01 2.81356E+01 0.00000E+00
 -1      4072 9.01311E+01 2.81356E+01 0.00000E+00
 -1      4073 8.86123E+01 2.70552E+01 0.00000E+00
 -1      4074 9.16311E+01 2.81356E+01 0.00000E+00
 -1      4075 9.31311E+01 2.81356E+01 0.00000E+00
 -1      4076 9.16123E+01 2.70552E+01 0.00000E+00
 -1      4077 9.46311E+01 2.81356E+01 0.00000E+00
 -1      4078 9.61311E+01 2.81356E+01 0.00000E+00
 -1      4079 9.46123E+01 2.70552E+01 0.00000E+00
 -1      4080 9.76311E+01 2.81356E+01 0.00000E+00
 -1      4081 9.91311E+01 2.81356E+01 0.00000E+00
 -1      4082 9.76123E+01 2.70552E+01 0.00000E+00
 -1      4083 1.00631E+02 2.81356E+01 0.00000E+00
 -1      4084 1.02131E+02 2.81356E+01 0.00000E+00
 -1      4085 1.00612E+02 2.70552E+01 0.00000E+00
 -1      4086 1.03631E+02 2.81356E+01 0.00000E+00
 -1      4087 1.05131E+02 2.81356E+01 0.00000E+00
 -1      4088 1.03612E+02 2.70552E+01 0.00000E+00
 -1      4089 1.06631E+02 2.81356E+01 0.00000E+00
 -1      4090 1.08131E+02 2.81356E+01 0.00000E+00
 -1      4091 1.06612E+02 2.70552E+01 0.00000E+00
 -1      4092 1.09631E+02 2.81356E+01 0.00000E+00
 -1      4093 1.11131E+02 2.81356E+01 0.00000E+00
 -1      4094 1.09612E+02 2.70552E+01 0.00000E+00
 -1      4095 1.12631E+02 2.81356E+01 0.00000E+00
 -1      4096 1.14131E+02 2.81356E+01 0.00000E+00
 -1      4097 1.12612E+02 2.70552E+01 0.00000E+00
 -1      4098 1.15631E+02 2.81356E+01 0.00000E+00
 -1      4099 1.17131E+02 2.81356E+01 0.00000E+00
 -1      4100 1.15612E+02 2.70552E+01 0.00000E+00
 -1      4101 1.18631E+02 2.81356E+01 0.00000E+00
 -1      4102 1.20131E+02 2.81356E+01 0.00000E+00
 -1      4103 1.18612E+02 2.70552E+01 0.00000E+00
 -1      4104 1.21631E+02 2.81356E+01 0.00000E+00
 -1      4105 1.23131E+02 2.81356E+01 0.00000E+00
 -1      4106 1.21612E+02 2.70552E+01 0.00000E+00
 -1      4107 1.24631E+02 2.81356E+01 0.00000E+00
 -1      4108 1.26131E+02 2.81356E+01 0.00000E+00
 -1      4109 1.24612E+02 2.70552E+01 0.00000E+00
 -1      4110 1.27650E+02 2.77410E+01 0.00000E+00
 -1      4111 2.00072E+01 2.65500E+01 0.00000E+00
 -1      4112 2.06297E+01 2.47051E+01 0.00000E+00
 -1      4113 2.17725E+01 2.73712E+01 0.00000E+00
 -1      4114 2.18078E+01 2.31125E+01 0.00000E+00
 -1      4115 2.49000E+01 2.79170E+01 0.00000E+00
 -1      4116 2.64000E+01 2.79170E+01 0.00000E+00
 -1      4117 1.16925E+02 2.08199E+01 0.00000E+00
 -1      4118 1.15425E+02 2.08199E+01 0.00000E+00
 -1      4119 1.25925E+02 2.08199E+01 0.00000E+00
 -1      4120 1.24425E+02 2.08199E+01 0.00000E+00
 -1      4121 1.23675E+02 2.21189E+01 0.00000E+00
 -1      4122 1.28925E+02 2.08199E+01 0.00000E+00
 -1      4123 1.27425E+02 2.08199E+01 0.00000E+00
 -1      4124 1.26675E+02 2.21189E+01 0.00000E+00
 -1      4125 7.52885E+01 2.73343E+01 0.00000E+00
 -1      4126 1.19925E+02 2.08199E+01 0.00000E+00
 -1      4127 1.18425E+02 2.08199E+01 0.00000E+00
 -1      4128 1.17675E+02 2.21189E+01 0.00000E+00
 -1      4129 1.20675E+02 2.21189E+01 0.00000E+00
 -1      4130 3.07500E+01 1.94850E+01 0.00000E+00
 -1      4131 2.92500E+01 1.94850E+01 0.00000E+00
 -1      4132 2.85000E+01 2.07840E+01 0.00000E+00
 -1      4133 1.13925E+02 2.08199E+01 0.00000E+00
 -1      4134 1.12425E+02 2.08199E+01 0.00000E+00
 -1      4135 1.14675E+02 2.21189E+01 0.00000E+00
 -1      4136 1.10925E+02 2.08199E+01 0.00000E+00
 -1      4137 1.09425E+02 2.08199E+01 0.00000E+00
 -1      4138 1.11675E+02 2.21189E+01 0.00000E+00
 -1      4139 4.91279E+01 2.64042E+01 0.00000E+00
 -1      4140 4.72819E+01 2.55723E+01 0.00000E+00
 -1      4141 3.15000E+01 2.07840E+01 0.00000E+00
 -1      4142 2.79000E+01 2.79170E+01 0.00000E+00
 -1      4143 2.94000E+01 2.79170E+01 0.00000E+00
 -1      4144 3.01500E+01 2.66180E+01 0.00000E+00
 -1      4145 2.32725E+01 2.73712E+01 0.00000E+00
 -1      4146 2.31975E+01 2.31552E+01 0.00000E+00
 -1      4147 1.29923E+02 2.12495E+01 0.00000E+00
 -1      4148 9.44707E+01 1.82148E+01 0.00000E+00
 -1      4149 9.29740E+01 1.82120E+01 0.00000E+00
 -1      4150 9.22334E+01 1.95110E+01 0.00000E+00
 -1      4151 9.52113E+01 1.95138E+01 0.00000E+00
 -1      4152 4.56606E+01 2.68953E+01 0.00000E+00
 -1      4153 4.64106E+01 2.81943E+01 0.00000E+00
 -1      4154 4.79106E+01 2.81943E+01 0.00000E+00
 -1      4155 4.11750E+01 2.20830E+01 0.00000E+00
 -1      4156 3.96750E+01 2.20830E+01 0.00000E+00
 -1      4157 8.27762E+01 2.37355E+01 0.00000E+00
 -1      4158 8.23843E+01 2.48402E+01 0.00000E+00
 -1      4159 8.40859E+01 2.36814E+01 0.00000E+00
 -1      4160 2.40225E+01 2.60722E+01 0.00000E+00
 -1      4161 7.45923E+01 2.84342E+01 0.00000E+00
 -1      4162 9.89429E+01 2.08185E+01 0.00000E+00
 -1      4163 9.74462E+01 2.08157E+01 0.00000E+00
 -1      4164 2.71500E+01 2.66180E+01 0.00000E+00
 -1      4165 4.24169E+01 2.28800E+01 0.00000E+00
 -1      4166 1.00438E+02 2.08185E+01 0.00000E+00
 -1      4167 9.96874E+01 2.21161E+01 0.00000E+00
 -1      4168 1.01934E+02 2.08185E+01 0.00000E+00
 -1      4169 1.08675E+02 2.21189E+01 0.00000E+00
 -1      4170 1.07925E+02 2.08199E+01 0.00000E+00
 -1      4171 1.06425E+02 2.08199E+01 0.00000E+00
 -1      4172 9.29766E+01 2.08107E+01 0.00000E+00
 -1      4173 9.14876E+01 2.08093E+01 0.00000E+00
 -1      4174 9.08568E+01 2.23913E+01 0.00000E+00
 -1      4175 9.01135E+01 2.10915E+01 0.00000E+00
 -1      4176 8.87395E+01 2.13738E+01 0.00000E+00
 -1      4177 8.74883E+01 2.13496E+01 0.00000E+00
 -1      4178 8.61142E+01 2.16318E+01 0.00000E+00
 -1      4179 8.57291E+01 2.26009E+01 0.00000E+00
 -1      4180 8.82315E+01 2.26493E+01 0.00000E+00
 -1      4181 4.52713E+01 2.52950E+01 0.00000E+00
 -1      4182 3.22500E+01 2.20830E+01 0.00000E+00
 -1      4183 3.07500E+01 2.20830E+01 0.00000E+00
 -1      4184 4.93673E+01 2.74260E+01 0.00000E+00
 -1      4185 3.52125E+01 2.20830E+01 0.00000E+00
 -1      4186 3.37313E+01 2.20830E+01 0.00000E+00
 -1      4187 3.29813E+01 2.33820E+01 0.00000E+00
 -1      4188 4.40294E+01 2.44980E+01 0.00000E+00
 -1      4189 2.51625E+01 2.22425E+01 0.00000E+00
 -1      4190 2.43600E+01 2.46137E+01 0.00000E+00
 -1      4191 2.59875E+01 2.51595E+01 0.00000E+00
 -1      4192 2.66625E+01 2.22425E+01 0.00000E+00
 -1      4193 8.24031E+01 2.59206E+01 0.00000E+00
 -1      4194 9.59546E+01 2.08136E+01 0.00000E+00
 -1      4195 9.44656E+01 2.08121E+01 0.00000E+00
 -1      4196 9.37199E+01 2.21104E+01 0.00000E+00
 -1      4197 3.30563E+01 2.50000E+01 0.00000E+00
 -1      4198 3.45563E+01 2.50000E+01 0.00000E+00
 -1      4199 1.27425E+02 2.34179E+01 0.00000E+00
 -1      4200 1.25925E+02 2.34179E+01 0.00000E+00
 -1      4201 1.27631E+02 2.66606E+01 0.00000E+00
 -1      4202 3.60563E+01 2.50000E+01 0.00000E+00
 -1      4203 3.90375E+01 2.50000E+01 0.00000E+00
 -1      4204 4.05375E+01 2.50000E+01 0.00000E+00
 -1      4205 4.20375E+01 2.50000E+01 0.00000E+00
 -1      4206 8.39031E+01 2.59206E+01 0.00000E+00
 -1      4207 8.55463E+01 2.48401E+01 0.00000E+00
 -1      4208 8.70463E+01 2.48401E+01 0.00000E+00
 -1      4209 8.82975E+01 2.48643E+01 0.00000E+00
 -1      4210 8.97975E+01 2.48643E+01 0.00000E+00
 -1      4211 9.11716E+01 2.45821E+01 0.00000E+00
 -1      4212 9.26716E+01 2.45821E+01 0.00000E+00
 -1      4213 9.41606E+01 2.45835E+01 0.00000E+00
 -1      4214 9.56606E+01 2.45835E+01 0.00000E+00
 -1      4215 9.71522E+01 2.45856E+01 0.00000E+00
 -1      4216 9.86522E+01 2.45856E+01 0.00000E+00
 -1      4217 1.00148E+02 2.45856E+01 0.00000E+00
 -1      4218 1.01648E+02 2.45856E+01 0.00000E+00
 -1      4219 1.05862E+02 2.57562E+01 0.00000E+00
 -1      4220 1.07362E+02 2.57562E+01 0.00000E+00
 -1      4221 1.09144E+02 2.45870E+01 0.00000E+00
 -1      4222 1.10644E+02 2.45870E+01 0.00000E+00
 -1      4223 1.12144E+02 2.45870E+01 0.00000E+00
 -1      4224 1.13644E+02 2.45870E+01 0.00000E+00
 -1      4225 1.15144E+02 2.45870E+01 0.00000E+00
 -1      4226 1.16644E+02 2.45870E+01 0.00000E+00
 -1      4227 1.18144E+02 2.45870E+01 0.00000E+00
 -1      4228 1.19644E+02 2.45870E+01 0.00000E+00
 -1      4229 1.21144E+02 2.45870E+01 0.00000E+00
 -1      4230 1.22644E+02 2.45870E+01 0.00000E+00
 -1      4231 3.00750E+01 2.50000E+01 0.00000E+00
 -1      4232 3.15750E+01 2.50000E+01 0.00000E+00
 -1      4233 2.74875E+01 2.51595E+01 0.00000E+00
 -1      4234 2.89125E+01 2.35415E+01 0.00000E+00
 -1      4235 1.31901E+02 2.21376E+01 0.00000E+00
 -1      4236 1.30153E+02 2.30071E+01 0.00000E+00
 -1      4237 1.24144E+02 2.45870E+01 0.00000E+00
 -1      4238 1.04927E+02 2.08192E+01 0.00000E+00
 -1      4239 1.03432E+02 2.08192E+01 0.00000E+00
 -1      4240 1.02681E+02 2.21168E+01 0.00000E+00
 -1      4241 1.05677E+02 2.21182E+01 0.00000E+00
 -1      4242 1.32762E+02 2.24237E+01 0.00000E+00
 -1      4243 9.67005E+01 2.21140E+01 0.00000E+00
 -1      4244 1.28663E+02 2.41925E+01 0.00000E+00
 -1      4245 3.81844E+01 2.20830E+01 0.00000E+00
 -1      4246 3.67031E+01 2.20830E+01 0.00000E+00
 -1      4247 3.59531E+01 2.33820E+01 0.00000E+00
 -1      4248 3.89344E+01 2.33820E+01 0.00000E+00
 -1      4249 1.27912E+02 2.54915E+01 0.00000E+00
 -1      4250 1.26394E+02 2.58860E+01 0.00000E+00
 -1      4251 3.75469E+01 2.50000E+01 0.00000E+00
 -1      4252 1.03146E+02 2.45863E+01 0.00000E+00
 -1      4253 1.04646E+02 2.45863E+01 0.00000E+00
 -1      4254 1.24894E+02 2.58860E+01 0.00000E+00
 -1      4255 2.81625E+01 2.22425E+01 0.00000E+00
 -1      4256 1.08394E+02 2.32880E+01 0.00000E+00
 -1      4257 8.53371E+01 2.37056E+01 0.00000E+00
 -1      4258 1.05396E+02 2.32873E+01 0.00000E+00
 -1      4259 1.06894E+02 2.32880E+01 0.00000E+00
 -3
    3C                          2047                                     1
 -1       166    8    0    1
 -2         6         7        23      1107      1272      1124
 -1       167    8    0    1
 -2         7         8       166      1108      1273      1274
 -1       168    8    0    1
 -2         8         9       167      1109      1275      1276
 -1       169    8    0    1
 -2         8       167       166      1276      1277      1273
 -1       170    8    0    1
 -2         9        10       168      1110      1278      1279
 -1       171    8    0    1
 -2         9       168       167      1279      1280      1275
 -1       172    8    0    1
 -2        10        11       169      1111      1281      1282
 -1       173    8    0    1
 -2        10       169       168      1282      1283      1278
 -1       174    8    0    1
 -2        11        12       170      1112      1284      1285
 -1       175    8    0    1
 -2        11       170       169      1285      1286      1281
 -1       176    8    0    1
 -2        12        13       171      1113      1287      1288
 -1       177    8    0    1
 -2        12       171       170      1288      1289      1284
 -1       178    8    0    1
 -2        13        14       172      1114      1290      1291
 -1       179    8    0    1
 -2        13       172       171      1291      1292      1287
 -1       180    8    0    1
 -2        14        15       173      1115      1293      1294
 -1       181    8    0    1
 -2        14       173       172      1294      1295      1290
 -1       182    8    0    1
 -2        15        16       174      1116      1296      1297
 -1       183    8    0    1
 -2        15       174       173      1297      1298      1293
 -1       184    8    0    1
 -2        16        17       175      1117      1299      1300
 -1       185    8    0    1
 -2        16       175       174      1300      1301      1296
 -1       186    8    0    1
 -2        17        18       176      1118      1302      1303
 -1       187    8    0    1
 -2        17       176       175      1303      1304      1299
 -1       188    8    0    1
 -2        18        19       177      1119      1305      1306
 -1       189    8    0    1
 -2        18       177       176      1306      1307      1302
 -1       190    8    0    1
 -2        19        20       178      1120      1308      1309
 -1       191    8    0    1
 -2        19       178       177      1309      1310      1305
 -1       192    8    0    1
 -2        20        21       179      1121      1311      1312
 -1       193    8    0    1
 -2        20       179       178      1312      1313      1308
 -1       194    8    0    1
 -2        21        22       180      1122      1314      1315
 -1       195    8    0    1
 -2        21       180       179      1315      1316      1311
 -1       196    8    0    1
 -2        22         5        72      1123      1174      1317
 -1       197    8    0    1
 -2        24        23       181      1125      1318      1319
 -1       198    8    0    1
 -2        25        24       182      1126      1320      1321
 -1       199    8    0    1
 -2        24       181       182      1319      1322      1320
 -1       200    8    0    1
 -2        26        25       183      1127      1323      1324
 -1       201    8    0    1
 -2        25       182       183      1321      1325      1323
 -1       202    8    0    1
 -2        27        26       184      1128      1326      1327
 -1       203    8    0    1
 -2        26       183       184      1324      1328      1326
 -1       204    8    0    1
 -2        28        27       185      1129      1329      1330
 -1       205    8    0    1
 -2        27       184       185      1327      1331      1329
 -1       206    8    0    1
 -2        29        28       186      1130      1332      1333
 -1       207    8    0    1
 -2        28       185       186      1330      1334      1332
 -1       208    8    0    1
 -2        30        29       187      1131      1335      1336
 -1       209    8    0    1
 -2        29       186       187      1333      1337      1335
 -1       210    8    0    1
 -2        31        30       188      1132      1338      1339
 -1       211    8    0    1
 -2        30       187       188      1336      1340      1338
 -1       212    8    0    1
 -2        32        31       189      1133      1341      1342
 -1       213    8    0    1
 -2        31       188       189      1339      1343      1341
 -1       214    8    0    1
 -2        33        32       190      1134      1344      1345
 -1       215    8    0    1
 -2        32       189       190      1342      1346      1344
 -1       216    8    0    1
 -2        34        33       191      1135      1347      1348
 -1       217    8    0    1
 -2        33       190       191      1345      1349      1347
 -1       218    8    0    1
 -2        35        34       192      1136      1350      1351
 -1       219    8    0    1
 -2        34       191       192      1348      1352      1350
 -1       220    8    0    1
 -2        36        35       193      1137      1353      1354
 -1       221    8    0    1
 -2        35       192       193      1351      1355      1353
 -1       222    8    0    1
 -2        37        36       194      1138      1356      1357
 -1       223    8    0    1
 -2        36       193       194      1354      1358      1356
 -1       224    8    0    1
 -2        38        37       195      1139      1359      1360
 -1       225    8    0    1
 -2        37       194       195      1357      1361      1359
 -1       226    8    0    1
 -2        39        38       196      1140      1362      1363
 -1       227    8    0    1
 -2        38       195       196      1360      1364      1362
 -1       228    8    0    1
 -2        40        39       197      1141      1365      1366
 -1       229    8    0    1
 -2        39       196       197      1363      1367      1365
 -1       230    8    0    1
 -2        41        40       198      1142      1368      1369
 -1       231    8    0    1
 -2        40       197       198      1366      1370      1368
 -1       232    8    0    1
 -2        42        41       199      1143      1371      1372
 -1       233    8    0    1
 -2        41       198       199      1369      1373      1371
 -1       234    8    0    1
 -2        43        42       200      1144      1374      1375
 -1       235    8    0    1
 -2        42       199       200      1372      1376      1374
 -1       236    8    0    1
 -2        44        43       201      1145      1377      1378
 -1       237    8    0    1
 -2        43       200       201      1375      1379      1377
 -1       238    8    0    1
 -2        45        44       202      1146      1380      1381
 -1       239    8    0    1
 -2        44       201       202      1378      1382      1380
 -1       240    8    0    1
 -2        46        45       203      1147      1383      1384
 -1       241    8    0    1
 -2        45       202       203      1381      1385      1383
 -1       242    8    0    1
 -2        47        46       204      1148      1386      1387
 -1       243    8    0    1
 -2        46       203       204      1384      1388      1386
 -1       244    8    0    1
 -2        48        47       205      1149      1389      1390
 -1       245    8    0    1
 -2        47       204       205      1387      1391      1389
 -1       246    8    0    1
 -2        49        48       206      1150      1392      1393
 -1       247    8    0    1
 -2        48       205       206      1390      1394      1392
 -1       248    8    0    1
 -2        50        49       207      1151      1395      1396
 -1       249    8    0    1
 -2        49       206       207      1393      1397      1395
 -1       250    8    0    1
 -2        51        50       208      1152      1398      1399
 -1       251    8    0    1
 -2        50       207       208      1396      1400      1398
 -1       252    8    0    1
 -2        52        51       209      1153      1401      1402
 -1       253    8    0    1
 -2        51       208       209      1399      1403      1401
 -1       254    8    0    1
 -2        53        52       210      1154      1404      1405
 -1       255    8    0    1
 -2        52       209       210      1402      1406      1404
 -1       256    8    0    1
 -2        54        53       211      1155      1407      1408
 -1       257    8    0    1
 -2        53       210       211      1405      1409      1407
 -1       258    8    0    1
 -2        55        54       212      1156      1410      1411
 -1       259    8    0    1
 -2        54       211       212      1408      1412      1410
 -1       260    8    0    1
 -2        56        55       213      1157      1413      1414
 -1       261    8    0    1
 -2        55       212       213      1411      1415      1413
 -1       262    8    0    1
 -2        57        56       214      1158      1416      1417
 -1       263    8    0    1
 -2        56       213       214      1414      1418      1416
 -1       264    8    0    1
 -2        58        57       215      1159      1419      1420
 -1       265    8    0    1
 -2        57       214       215      1417      1421      1419
 -1       266    8    0    1
 -2        59        58       216      1160      1422      1423
 -1       267    8    0    1
 -2        58       215       216      1420      1424      1422
 -1       268    8    0    1
 -2        60        59       217      1161      1425      1426
 -1       269    8    0    1
 -2        59       216       217      1423      1427      1425
 -1       270    8    0    1
 -2        61        60       218      1162      1428      1429
 -1       271    8    0    1
 -2        60       217       218      1426      1430      1428
 -1       272    8    0    1
 -2        62        61       219      1163      1431      1432
 -1       273    8    0    1
 -2        61       218       219      1429      1433      1431
 -1       274    8    0    1
 -2        63        62       220      1164      1434      1435
 -1       275    8    0    1
 -2        62       219       220      1432      1436      1434
 -1       276    8    0    1
 -2        64        63       221      1165      1437      1438
 -1       277    8    0    1
 -2        63       220       221      1435      1439      1437
 -1       278    8    0    1
 -2        65        64       222      1166      1440      1441
 -1       279    8    0    1
 -2        64       221       222      1438      1442      1440
 -1       280    8    0    1
 -2        66        65       223      1167      1443      1444
 -1       281    8    0    1
 -2        65       222       223      1441      1445      1443
 -1       282    8    0    1
 -2        67        66       224      1168      1446      1447
 -1       283    8    0    1
 -2        66       223       224      1444      1448      1446
 -1       284    8    0    1
 -2        68        67       225      1169      1449      1450
 -1       285    8    0    1
 -2        67       224       225      1447      1451      1449
 -1       286    8    0    1
 -2        69        68       226      1170      1452      1453
 -1       287    8    0    1
 -2        68       225       226      1450      1454      1452
 -1       288    8    0    1
 -2        70        69       227      1171      1455      1456
 -1       289    8    0    1
 -2        69       226       227      1453      1457      1455
 -1       290    8    0    1
 -2        71        70       228      1172      1458      1459
 -1       291    8    0    1
 -2        70       227       228      1456      1460      1458
 -1       292    8    0    1
 -2         4        71       138      1173      1461      1242
 -1       293    8    0    1
 -2       138        71       228      1461      1459      1462
 -1       294    8    0    1
 -2        72        73       229      1175      1463      1464
 -1       295    8    0    1
 -2        73        74       230      1176      1465      1466
 -1       296    8    0    1
 -2        73       230       229      1466      1467      1463
 -1       297    8    0    1
 -2        74        75       231      1177      1468      1469
 -1       298    8    0    1
 -2        74       231       230      1469      1470      1465
 -1       299    8    0    1
 -2        75        76       232      1178      1471      1472
 -1       300    8    0    1
 -2        75       232       231      1472      1473      1468
 -1       301    8    0    1
 -2        76        77       233      1179      1474      1475
 -1       302    8    0    1
 -2        76       233       232      1475      1476      1471
 -1       303    8    0    1
 -2        77        78       234      1180      1477      1478
 -1       304    8    0    1
 -2        77       234       233      1478      1479      1474
 -1       305    8    0    1
 -2        78        79       235      1181      1480      1481
 -1       306    8    0    1
 -2        78       235       234      1481      1482      1477
 -1       307    8    0    1
 -2        79        80       236      1182      1483      1484
 -1       308    8    0    1
 -2        79       236       235      1484      1485      1480
 -1       309    8    0    1
 -2        80        81       237      1183      1486      1487
 -1       310    8    0    1
 -2        80       237       236      1487      1488      1483
 -1       311    8    0    1
 -2        81        82       238      1184      1489      1490
 -1       312    8    0    1
 -2        81       238       237      1490      1491      1486
 -1       313    8    0    1
 -2        82        83       239      1185      1492      1493
 -1       314    8    0    1
 -2        82       239       238      1493      1494      1489
 -1       315    8    0    1
 -2        83        84       240      1186      1495      1496
 -1       316    8    0    1
 -2        83       240       239      1496      1497      1492
 -1       317    8    0    1
 -2        84        85       241      1187      1498      1499
 -1       318    8    0    1
 -2        84       241       240      1499      1500      1495
 -1       319    8    0    1
 -2        85        86       242      1188      1501      1502
 -1       320    8    0    1
 -2        85       242       241      1502      1503      1498
 -1       321    8    0    1
 -2        86        87       243      1189      1504      1505
 -1       322    8    0    1
 -2        86       243       242      1505      1506      1501
 -1       323    8    0    1
 -2        87        88       244      1190      1507      1508
 -1       324    8    0    1
 -2        87       244       243      1508      1509      1504
 -1       325    8    0    1
 -2        88        89       245      1191      1510      1511
 -1       326    8    0    1
 -2        88       245       244      1511      1512      1507
 -1       327    8    0    1
 -2        89        90       246      1192      1513      1514
 -1       328    8    0    1
 -2        89       246       245      1514      1515      1510
 -1       329    8    0    1
 -2        90        91       247      1193      1516      1517
 -1       330    8    0    1
 -2        90       247       246      1517      1518      1513
 -1       331    8    0    1
 -2        91        92       248      1194      1519      1520
 -1       332    8    0    1
 -2        91       248       247      1520      1521      1516
 -1       333    8    0    1
 -2        93        94       249      1196      1522      1523
 -1       334    8    0    1
 -2        94        95       250      1197      1524      1525
 -1       335    8    0    1
 -2        94       250       249      1525      1526      1522
 -1       336    8    0    1
 -2        95        96       251      1198      1527      1528
 -1       337    8    0    1
 -2        95       251       250      1528      1529      1524
 -1       338    8    0    1
 -2        96        97       252      1199      1530      1531
 -1       339    8    0    1
 -2        96       252       251      1531      1532      1527
 -1       340    8    0    1
 -2        97        98       253      1200      1533      1534
 -1       341    8    0    1
 -2        97       253       252      1534      1535      1530
 -1       342    8    0    1
 -2        98        99       254      1201      1536      1537
 -1       343    8    0    1
 -2        98       254       253      1537      1538      1533
 -1       344    8    0    1
 -2        99       100       255      1202      1539      1540
 -1       345    8    0    1
 -2        99       255       254      1540      1541      1536
 -1       346    8    0    1
 -2       100       101       256      1203      1542      1543
 -1       347    8    0    1
 -2       100       256       255      1543      1544      1539
 -1       348    8    0    1
 -2       101       102       257      1204      1545      1546
 -1       349    8    0    1
 -2       101       257       256      1546      1547      1542
 -1       350    8    0    1
 -2       102       103       258      1205      1548      1549
 -1       351    8    0    1
 -2       102       258       257      1549      1550      1545
 -1       352    8    0    1
 -2       103       104       259      1206      1551      1552
 -1       353    8    0    1
 -2       103       259       258      1552      1553      1548
 -1       354    8    0    1
 -2       104       105       260      1207      1554      1555
 -1       355    8    0    1
 -2       104       260       259      1555      1556      1551
 -1       356    8    0    1
 -2       105       106       261      1208      1557      1558
 -1       357    8    0    1
 -2       105       261       260      1558      1559      1554
 -1       358    8    0    1
 -2       106       107       262      1209      1560      1561
 -1       359    8    0    1
 -2       106       262       261      1561      1562      1557
 -1       360    8    0    1
 -2       107       108       263      1210      1563      1564
 -1       361    8    0    1
 -2       107       263       262      1564      1565      1560
 -1       362    8    0    1
 -2       108       109       264      1211      1566      1567
 -1       363    8    0    1
 -2       108       264       263      1567      1568      1563
 -1       364    8    0    1
 -2       109       110       265      1212      1569      1570
 -1       365    8    0    1
 -2       109       265       264      1570      1571      1566
 -1       366    8    0    1
 -2       110       111       266      1213      1572      1573
 -1       367    8    0    1
 -2       110       266       265      1573      1574      1569
 -1       368    8    0    1
 -2       111       112       267      1214      1575      1576
 -1       369    8    0    1
 -2       111       267       266      1576      1577      1572
 -1       370    8    0    1
 -2       112       113       268      1215      1578      1579
 -1       371    8    0    1
 -2       112       268       267      1579      1580      1575
 -1       372    8    0    1
 -2       113       114       269      1216      1581      1582
 -1       373    8    0    1
 -2       113       269       268      1582      1583      1578
 -1       374    8    0    1
 -2       114       115       270      1217      1584      1585
 -1       375    8    0    1
 -2       114       270       269      1585      1586      1581
 -1       376    8    0    1
 -2       115       116       271      1218      1587      1588
 -1       377    8    0    1
 -2       115       271       270      1588      1589      1584
 -1       378    8    0    1
 -2       116       117       272      1219      1590      1591
 -1       379    8    0    1
 -2       116       272       271      1591      1592      1587
 -1       380    8    0    1
 -2       117       118       273      1220      1593      1594
 -1       381    8    0    1
 -2       117       273       272      1594      1595      1590
 -1       382    8    0    1
 -2       118       119       274      1221      1596      1597
 -1       383    8    0    1
 -2       118       274       273      1597      1598      1593
 -1       384    8    0    1
 -2       119       120       275      1222      1599      1600
 -1       385    8    0    1
 -2       119       275       274      1600      1601      1596
 -1       386    8    0    1
 -2       120       121       276      1223      1602      1603
 -1       387    8    0    1
 -2       120       276       275      1603      1604      1599
 -1       388    8    0    1
 -2       121       122       277      1224      1605      1606
 -1       389    8    0    1
 -2       121       277       276      1606      1607      1602
 -1       390    8    0    1
 -2       122         3       278      1225      1608      1609
 -1       391    8    0    1
 -2       277       122       278      1605      1609      1610
 -1       392    8    0    1
 -2         3       123       278      1226      1611      1608
 -1       393    8    0    1
 -2       123       124       279      1227      1612      1613
 -1       394    8    0    1
 -2       123       279       278      1613      1614      1611
 -1       395    8    0    1
 -2       124       125       280      1228      1615      1616
 -1       396    8    0    1
 -2       124       280       279      1616      1617      1612
 -1       397    8    0    1
 -2       125       126       281      1229      1618      1619
 -1       398    8    0    1
 -2       125       281       280      1619      1620      1615
 -1       399    8    0    1
 -2       126       127       282      1230      1621      1622
 -1       400    8    0    1
 -2       126       282       281      1622      1623      1618
 -1       401    8    0    1
 -2       127       128       283      1231      1624      1625
 -1       402    8    0    1
 -2       127       283       282      1625      1626      1621
 -1       403    8    0    1
 -2       128       129       284      1232      1627      1628
 -1       404    8    0    1
 -2       128       284       283      1628      1629      1624
 -1       405    8    0    1
 -2       129       130       285      1233      1630      1631
 -1       406    8    0    1
 -2       129       285       284      1631      1632      1627
 -1       407    8    0    1
 -2       130       131       286      1234      1633      1634
 -1       408    8    0    1
 -2       130       286       285      1634      1635      1630
 -1       409    8    0    1
 -2       131       132       287      1235      1636      1637
 -1       410    8    0    1
 -2       131       287       286      1637      1638      1633
 -1       411    8    0    1
 -2       132       133       288      1236      1639      1640
 -1       412    8    0    1
 -2       132       288       287      1640      1641      1636
 -1       413    8    0    1
 -2       133       134       289      1237      1642      1643
 -1       414    8    0    1
 -2       133       289       288      1643      1644      1639
 -1       415    8    0    1
 -2       134       135       290      1238      1645      1646
 -1       416    8    0    1
 -2       134       290       289      1646      1647      1642
 -1       417    8    0    1
 -2       135       136       291      1239      1648      1649
 -1       418    8    0    1
 -2       135       291       290      1649      1650      1645
 -1       419    8    0    1
 -2       136       137       292      1240      1651      1652
 -1       420    8    0    1
 -2       136       292       291      1652      1653      1648
 -1       421    8    0    1
 -2         2       139       293      1243      1654      1655
 -1       422    8    0    1
 -2       139       140       294      1244      1656      1657
 -1       423    8    0    1
 -2       140       141       295      1245      1658      1659
 -1       424    8    0    1
 -2       141       142       296      1246      1660      1661
 -1       425    8    0    1
 -2       142       143       297      1247      1662      1663
 -1       426    8    0    1
 -2       143       144       298      1248      1664      1665
 -1       427    8    0    1
 -2       144       145       299      1249      1666      1667
 -1       428    8    0    1
 -2       145       146       300      1250      1668      1669
 -1       429    8    0    1
 -2       146       147       301      1251      1670      1671
 -1       430    8    0    1
 -2       147       148       302      1252      1672      1673
 -1       431    8    0    1
 -2       148       149       303      1253      1674      1675
 -1       432    8    0    1
 -2       149       150       304      1254      1676      1677
 -1       433    8    0    1
 -2       150       151       305      1255      1678      1679
 -1       434    8    0    1
 -2       151       152       306      1256      1680      1681
 -1       435    8    0    1
 -2       152       153       307      1257      1682      1683
 -1       436    8    0    1
 -2       153       154       308      1258      1684      1685
 -1       437    8    0    1
 -2       154       155       309      1259      1686      1687
 -1       438    8    0    1
 -2       155       156       310      1260      1688      1689
 -1       439    8    0    1
 -2       156       157       311      1261      1690      1691
 -1       440    8    0    1
 -2       157       158       312      1262      1692      1693
 -1       441    8    0    1
 -2       158       159       313      1263      1694      1695
 -1       442    8    0    1
 -2       159       160       314      1264      1696      1697
 -1       443    8    0    1
 -2       160       161       315      1265      1698      1699
 -1       444    8    0    1
 -2       161         1       316      1266      1700      1701
 -1       445    8    0    1
 -2         1       162       317      1267      1702      1703
 -1       446    8    0    1
 -2       162       163       318      1268      1704      1705
 -1       447    8    0    1
 -2       163       164       319      1269      1706      1707
 -1       448    8    0    1
 -2       164       165       320      1270      1708      1709
 -1       449    8    0    1
 -2       165         2       321      1271      1710      1711
 -1       450    8    0    1
 -2        22        72       180      1317      1712      1314
 -1       451    8    0    1
 -2       248        92       322      1519      1713      1714
 -1       452    8    0    1
 -2        92        93       322      1195      1715      1713
 -1       453    8    0    1
 -2       294       140       295      1656      1659      1716
 -1       454    8    0    1
 -2         2       293       321      1655      1717      1710
 -1       455    8    0    1
 -2       293       139       294      1654      1657      1718
 -1       456    8    0    1
 -2       137       138       323      1241      1719      1720
 -1       457    8    0    1
 -2       137       323       292      1720      1721      1651
 -1       458    8    0    1
 -2       141       296       295      1661      1722      1658
 -1       459    8    0    1
 -2       142       297       296      1663      1723      1660
 -1       460    8    0    1
 -2       143       298       297      1665      1724      1662
 -1       461    8    0    1
 -2       144       299       298      1667      1725      1664
 -1       462    8    0    1
 -2       145       300       299      1669      1726      1666
 -1       463    8    0    1
 -2       146       301       300      1671      1727      1668
 -1       464    8    0    1
 -2       147       302       301      1673      1728      1670
 -1       465    8    0    1
 -2       148       303       302      1675      1729      1672
 -1       466    8    0    1
 -2       149       304       303      1677      1730      1674
 -1       467    8    0    1
 -2       150       305       304      1679      1731      1676
 -1       468    8    0    1
 -2       151       306       305      1681      1732      1678
 -1       469    8    0    1
 -2       152       307       306      1683      1733      1680
 -1       470    8    0    1
 -2       153       308       307      1685      1734      1682
 -1       471    8    0    1
 -2       154       309       308      1687      1735      1684
 -1       472    8    0    1
 -2       155       310       309      1689      1736      1686
 -1       473    8    0    1
 -2       156       311       310      1691      1737      1688
 -1       474    8    0    1
 -2       157       312       311      1693      1738      1690
 -1       475    8    0    1
 -2       158       313       312      1695      1739      1692
 -1       476    8    0    1
 -2       159       314       313      1697      1740      1694
 -1       477    8    0    1
 -2       160       315       314      1699      1741      1696
 -1       478    8    0    1
 -2       161       316       315      1701      1742      1698
 -1       479    8    0    1
 -2         1       317       316      1703      1743      1700
 -1       480    8    0    1
 -2       162       318       317      1705      1744      1702
 -1       481    8    0    1
 -2       163       319       318      1707      1745      1704
 -1       482    8    0    1
 -2       164       320       319      1709      1746      1706
 -1       483    8    0    1
 -2       165       321       320      1711      1747      1708
 -1       484    8    0    1
 -2        23         7       166      1272      1274      1748
 -1       485    8    0    1
 -2       322        93       249      1715      1523      1749
 -1       486    8    0    1
 -2       167       168       324      1280      1750      1751
 -1       487    8    0    1
 -2       166       167       325      1277      1752      1753
 -1       488    8    0    1
 -2       167       324       325      1751      1754      1752
 -1       489    8    0    1
 -2       169       170       326      1286      1755      1756
 -1       490    8    0    1
 -2       170       171       327      1289      1757      1758
 -1       491    8    0    1
 -2       170       327       326      1758      1759      1755
 -1       492    8    0    1
 -2       171       172       328      1292      1760      1761
 -1       493    8    0    1
 -2       171       328       327      1761      1762      1757
 -1       494    8    0    1
 -2       172       173       329      1295      1763      1764
 -1       495    8    0    1
 -2       172       329       328      1764      1765      1760
 -1       496    8    0    1
 -2       173       174       330      1298      1766      1767
 -1       497    8    0    1
 -2       173       330       329      1767      1768      1763
 -1       498    8    0    1
 -2       174       175       331      1301      1769      1770
 -1       499    8    0    1
 -2       174       331       330      1770      1771      1766
 -1       500    8    0    1
 -2       175       176       332      1304      1772      1773
 -1       501    8    0    1
 -2       175       332       331      1773      1774      1769
 -1       502    8    0    1
 -2       176       177       333      1307      1775      1776
 -1       503    8    0    1
 -2       176       333       332      1776      1777      1772
 -1       504    8    0    1
 -2       177       178       334      1310      1778      1779
 -1       505    8    0    1
 -2       177       334       333      1779      1780      1775
 -1       506    8    0    1
 -2       178       179       335      1313      1781      1782
 -1       507    8    0    1
 -2       178       335       334      1782      1783      1778
 -1       508    8    0    1
 -2       179       180       336      1316      1784      1785
 -1       509    8    0    1
 -2       179       336       335      1785      1786      1781
 -1       510    8    0    1
 -2       294       295       337      1716      1787      1788
 -1       511    8    0    1
 -2       248       322       302      1714      1789      1790
 -1       512    8    0    1
 -2       181        23       166      1318      1748      1791
 -1       513    8    0    1
 -2        72       229       180      1464      1792      1712
 -1       514    8    0    1
 -2       183       182       338      1325      1793      1794
 -1       515    8    0    1
 -2       184       183       339      1328      1795      1796
 -1       516    8    0    1
 -2       183       338       339      1794      1797      1795
 -1       517    8    0    1
 -2       185       184       340      1331      1798      1799
 -1       518    8    0    1
 -2       184       339       340      1796      1800      1798
 -1       519    8    0    1
 -2       186       185       341      1334      1801      1802
 -1       520    8    0    1
 -2       185       340       341      1799      1803      1801
 -1       521    8    0    1
 -2       187       186       342      1337      1804      1805
 -1       522    8    0    1
 -2       186       341       342      1802      1806      1804
 -1       523    8    0    1
 -2       188       187       343      1340      1807      1808
 -1       524    8    0    1
 -2       187       342       343      1805      1809      1807
 -1       525    8    0    1
 -2       189       188       344      1343      1810      1811
 -1       526    8    0    1
 -2       188       343       344      1808      1812      1810
 -1       527    8    0    1
 -2       190       189       345      1346      1813      1814
 -1       528    8    0    1
 -2       189       344       345      1811      1815      1813
 -1       529    8    0    1
 -2       191       190       346      1349      1816      1817
 -1       530    8    0    1
 -2       190       345       346      1814      1818      1816
 -1       531    8    0    1
 -2       192       191       347      1352      1819      1820
 -1       532    8    0    1
 -2       191       346       347      1817      1821      1819
 -1       533    8    0    1
 -2       193       192       348      1355      1822      1823
 -1       534    8    0    1
 -2       192       347       348      1820      1824      1822
 -1       535    8    0    1
 -2       194       193       349      1358      1825      1826
 -1       536    8    0    1
 -2       193       348       349      1823      1827      1825
 -1       537    8    0    1
 -2       195       194       350      1361      1828      1829
 -1       538    8    0    1
 -2       194       349       350      1826      1830      1828
 -1       539    8    0    1
 -2       196       195       351      1364      1831      1832
 -1       540    8    0    1
 -2       195       350       351      1829      1833      1831
 -1       541    8    0    1
 -2       197       196       352      1367      1834      1835
 -1       542    8    0    1
 -2       196       351       352      1832      1836      1834
 -1       543    8    0    1
 -2       198       197       353      1370      1837      1838
 -1       544    8    0    1
 -2       197       352       353      1835      1839      1837
 -1       545    8    0    1
 -2       199       198       354      1373      1840      1841
 -1       546    8    0    1
 -2       198       353       354      1838      1842      1840
 -1       547    8    0    1
 -2       200       199       355      1376      1843      1844
 -1       548    8    0    1
 -2       199       354       355      1841      1845      1843
 -1       549    8    0    1
 -2       201       200       356      1379      1846      1847
 -1       550    8    0    1
 -2       200       355       356      1844      1848      1846
 -1       551    8    0    1
 -2       202       201       357      1382      1849      1850
 -1       552    8    0    1
 -2       201       356       357      1847      1851      1849
 -1       553    8    0    1
 -2       203       202       358      1385      1852      1853
 -1       554    8    0    1
 -2       202       357       358      1850      1854      1852
 -1       555    8    0    1
 -2       204       203       359      1388      1855      1856
 -1       556    8    0    1
 -2       203       358       359      1853      1857      1855
 -1       557    8    0    1
 -2       205       204       360      1391      1858      1859
 -1       558    8    0    1
 -2       204       359       360      1856      1860      1858
 -1       559    8    0    1
 -2       206       205       361      1394      1861      1862
 -1       560    8    0    1
 -2       205       360       361      1859      1863      1861
 -1       561    8    0    1
 -2       207       206       362      1397      1864      1865
 -1       562    8    0    1
 -2       206       361       362      1862      1866      1864
 -1       563    8    0    1
 -2       208       207       363      1400      1867      1868
 -1       564    8    0    1
 -2       207       362       363      1865      1869      1867
 -1       565    8    0    1
 -2       209       208       364      1403      1870      1871
 -1       566    8    0    1
 -2       208       363       364      1868      1872      1870
 -1       567    8    0    1
 -2       210       209       365      1406      1873      1874
 -1       568    8    0    1
 -2       209       364       365      1871      1875      1873
 -1       569    8    0    1
 -2       211       210       366      1409      1876      1877
 -1       570    8    0    1
 -2       210       365       366      1874      1878      1876
 -1       571    8    0    1
 -2       212       211       367      1412      1879      1880
 -1       572    8    0    1
 -2       211       366       367      1877      1881      1879
 -1       573    8    0    1
 -2       213       212       368      1415      1882      1883
 -1       574    8    0    1
 -2       212       367       368      1880      1884      1882
 -1       575    8    0    1
 -2       214       213       369      1418      1885      1886
 -1       576    8    0    1
 -2       213       368       369      1883      1887      1885
 -1       577    8    0    1
 -2       215       214       370      1421      1888      1889
 -1       578    8    0    1
 -2       214       369       370      1886      1890      1888
 -1       579    8    0    1
 -2       216       215       371      1424      1891      1892
 -1       580    8    0    1
 -2       215       370       371      1889      1893      1891
 -1       581    8    0    1
 -2       217       216       372      1427      1894      1895
 -1       582    8    0    1
 -2       216       371       372      1892      1896      1894
 -1       583    8    0    1
 -2       218       217       373      1430      1897      1898
 -1       584    8    0    1
 -2       217       372       373      1895      1899      1897
 -1       585    8    0    1
 -2       219       218       374      1433      1900      1901
 -1       586    8    0    1
 -2       218       373       374      1898      1902      1900
 -1       587    8    0    1
 -2       220       219       375      1436      1903      1904
 -1       588    8    0    1
 -2       219       374       375      1901      1905      1903
 -1       589    8    0    1
 -2       221       220       376      1439      1906      1907
 -1       590    8    0    1
 -2       220       375       376      1904      1908      1906
 -1       591    8    0    1
 -2       222       221       377      1442      1909      1910
 -1       592    8    0    1
 -2       221       376       377      1907      1911      1909
 -1       593    8    0    1
 -2       223       222       378      1445      1912      1913
 -1       594    8    0    1
 -2       222       377       378      1910      1914      1912
 -1       595    8    0    1
 -2       224       223       379      1448      1915      1916
 -1       596    8    0    1
 -2       223       378       379      1913      1917      1915
 -1       597    8    0    1
 -2       225       224       380      1451      1918      1919
 -1       598    8    0    1
 -2       224       379       380      1916      1920      1918
 -1       599    8    0    1
 -2       226       225       381      1454      1921      1922
 -1       600    8    0    1
 -2       225       380       381      1919      1923      1921
 -1       601    8    0    1
 -2       227       226       382      1457      1924      1925
 -1       602    8    0    1
 -2       226       381       382      1922      1926      1924
 -1       603    8    0    1
 -2       228       227       383      1460      1927      1928
 -1       604    8    0    1
 -2       227       382       383      1925      1929      1927
 -1       605    8    0    1
 -2       231       232       384      1473      1930      1931
 -1       606    8    0    1
 -2       230       231       385      1470      1932      1933
 -1       607    8    0    1
 -2       231       384       385      1931      1934      1932
 -1       608    8    0    1
 -2       232       233       386      1476      1935      1936
 -1       609    8    0    1
 -2       232       386       384      1936      1937      1930
 -1       610    8    0    1
 -2       233       234       387      1479      1938      1939
 -1       611    8    0    1
 -2       233       387       386      1939      1940      1935
 -1       612    8    0    1
 -2       234       235       388      1482      1941      1942
 -1       613    8    0    1
 -2       234       388       387      1942      1943      1938
 -1       614    8    0    1
 -2       235       236       389      1485      1944      1945
 -1       615    8    0    1
 -2       235       389       388      1945      1946      1941
 -1       616    8    0    1
 -2       236       237       390      1488      1947      1948
 -1       617    8    0    1
 -2       236       390       389      1948      1949      1944
 -1       618    8    0    1
 -2       237       238       391      1491      1950      1951
 -1       619    8    0    1
 -2       237       391       390      1951      1952      1947
 -1       620    8    0    1
 -2       238       239       392      1494      1953      1954
 -1       621    8    0    1
 -2       238       392       391      1954      1955      1950
 -1       622    8    0    1
 -2       239       240       393      1497      1956      1957
 -1       623    8    0    1
 -2       239       393       392      1957      1958      1953
 -1       624    8    0    1
 -2       240       241       394      1500      1959      1960
 -1       625    8    0    1
 -2       240       394       393      1960      1961      1956
 -1       626    8    0    1
 -2       241       242       395      1503      1962      1963
 -1       627    8    0    1
 -2       241       395       394      1963      1964      1959
 -1       628    8    0    1
 -2       242       243       396      1506      1965      1966
 -1       629    8    0    1
 -2       242       396       395      1966      1967      1962
 -1       630    8    0    1
 -2       243       244       397      1509      1968      1969
 -1       631    8    0    1
 -2       243       397       396      1969      1970      1965
 -1       632    8    0    1
 -2       244       245       398      1512      1971      1972
 -1       633    8    0    1
 -2       244       398       397      1972      1973      1968
 -1       634    8    0    1
 -2       245       246       399      1515      1974      1975
 -1       635    8    0    1
 -2       245       399       398      1975      1976      1971
 -1       636    8    0    1
 -2       250       251       299      1529      1977      1978
 -1       637    8    0    1
 -2       249       250       300      1526      1979      1980
 -1       638    8    0    1
 -2       252       253       400      1535      1981      1982
 -1       639    8    0    1
 -2       253       254       401      1538      1983      1984
 -1       640    8    0    1
 -2       254       255       402      1541      1985      1986
 -1       641    8    0    1
 -2       254       402       401      1986      1987      1983
 -1       642    8    0    1
 -2       255       256       403      1544      1988      1989
 -1       643    8    0    1
 -2       255       403       402      1989      1990      1985
 -1       644    8    0    1
 -2       256       257       404      1547      1991      1992
 -1       645    8    0    1
 -2       256       404       403      1992      1993      1988
 -1       646    8    0    1
 -2       257       258       405      1550      1994      1995
 -1       647    8    0    1
 -2       257       405       404      1995      1996      1991
 -1       648    8    0    1
 -2       258       259       406      1553      1997      1998
 -1       649    8    0    1
 -2       258       406       405      1998      1999      1994
 -1       650    8    0    1
 -2       259       260       407      1556      2000      2001
 -1       651    8    0    1
 -2       259       407       406      2001      2002      1997
 -1       652    8    0    1
 -2       260       261       408      1559      2003      2004
 -1       653    8    0    1
 -2       260       408       407      2004      2005      2000
 -1       654    8    0    1
 -2       261       262       409      1562      2006      2007
 -1       655    8    0    1
 -2       261       409       408      2007      2008      2003
 -1       656    8    0    1
 -2       262       263       410      1565      2009      2010
 -1       657    8    0    1
 -2       262       410       409      2010      2011      2006
 -1       658    8    0    1
 -2       263       264       411      1568      2012      2013
 -1       659    8    0    1
 -2       263       411       410      2013      2014      2009
 -1       660    8    0    1
 -2       264       265       412      1571      2015      2016
 -1       661    8    0    1
 -2       264       412       411      2016      2017      2012
 -1       662    8    0    1
 -2       265       266       413      1574      2018      2019
 -1       663    8    0    1
 -2       265       413       412      2019      2020      2015
 -1       664    8    0    1
 -2       266       267       414      1577      2021      2022
 -1       665    8    0    1
 -2       266       414       413      2022      2023      2018
 -1       666    8    0    1
 -2       267       268       415      1580      2024      2025
 -1       667    8    0    1
 -2       267       415       414      2025      2026      2021
 -1       668    8    0    1
 -2       268       269       416      1583      2027      2028
 -1       669    8    0    1
 -2       268       416       415      2028      2029      2024
 -1       670    8    0    1
 -2       269       270       417      1586      2030      2031
 -1       671    8    0    1
 -2       269       417       416      2031      2032      2027
 -1       672    8    0    1
 -2       270       271       418      1589      2033      2034
 -1       673    8    0    1
 -2       270       418       417      2034      2035      2030
 -1       674    8    0    1
 -2       271       272       419      1592      2036      2037
 -1       675    8    0    1
 -2       271       419       418      2037      2038      2033
 -1       676    8    0    1
 -2       272       273       420      1595      2039      2040
 -1       677    8    0    1
 -2       272       420       419      2040      2041      2036
 -1       678    8    0    1
 -2       273       274       421      1598      2042      2043
 -1       679    8    0    1
 -2       273       421       420      2043      2044      2039
 -1       680    8    0    1
 -2       274       275       422      1601      2045      2046
 -1       681    8    0    1
 -2       274       422       421      2046      2047      2042
 -1       682    8    0    1
 -2       275       276       423      1604      2048      2049
 -1       683    8    0    1
 -2       275       423       422      2049      2050      2045
 -1       684    8    0    1
 -2       276       277       424      1607      2051      2052
 -1       685    8    0    1
 -2       276       424       423      2052      2053      2048
 -1       686    8    0    1
 -2       277       278       425      1610      2054      2055
 -1       687    8    0    1
 -2       424       277       425      2051      2055      2056
 -1       688    8    0    1
 -2       278       279       425      1614      2057      2054
 -1       689    8    0    1
 -2       280       281       426      1620      2058      2059
 -1       690    8    0    1
 -2       279       280       427      1617      2060      2061
 -1       691    8    0    1
 -2       425       279       427      2057      2061      2062
 -1       692    8    0    1
 -2       280       426       427      2059      2063      2060
 -1       693    8    0    1
 -2       281       282       428      1623      2064      2065
 -1       694    8    0    1
 -2       281       428       426      2065      2066      2058
 -1       695    8    0    1
 -2       282       283       429      1626      2067      2068
 -1       696    8    0    1
 -2       282       429       428      2068      2069      2064
 -1       697    8    0    1
 -2       283       284       430      1629      2070      2071
 -1       698    8    0    1
 -2       283       430       429      2071      2072      2067
 -1       699    8    0    1
 -2       284       285       431      1632      2073      2074
 -1       700    8    0    1
 -2       284       431       430      2074      2075      2070
 -1       701    8    0    1
 -2       285       286       432      1635      2076      2077
 -1       702    8    0    1
 -2       285       432       431      2077      2078      2073
 -1       703    8    0    1
 -2       286       287       433      1638      2079      2080
 -1       704    8    0    1
 -2       286       433       432      2080      2081      2076
 -1       705    8    0    1
 -2       287       288       434      1641      2082      2083
 -1       706    8    0    1
 -2       287       434       433      2083      2084      2079
 -1       707    8    0    1
 -2       288       289       435      1644      2085      2086
 -1       708    8    0    1
 -2       288       435       434      2086      2087      2082
 -1       709    8    0    1
 -2       289       290       436      1647      2088      2089
 -1       710    8    0    1
 -2       289       436       435      2089      2090      2085
 -1       711    8    0    1
 -2       290       291       437      1650      2091      2092
 -1       712    8    0    1
 -2       290       437       436      2092      2093      2088
 -1       713    8    0    1
 -2       291       292       438      1653      2094      2095
 -1       714    8    0    1
 -2       291       438       437      2095      2096      2091
 -1       715    8    0    1
 -2       295       296       439      1722      2097      2098
 -1       716    8    0    1
 -2       323       138       228      1719      1462      2099
 -1       717    8    0    1
 -2       321       293       440      1717      2100      2101
 -1       718    8    0    1
 -2       300       250       299      1979      1978      1726
 -1       719    8    0    1
 -2       302       322       301      1789      2102      1728
 -1       720    8    0    1
 -2       168       169       441      1283      2103      2104
 -1       721    8    0    1
 -2       324       168       441      1750      2104      2105
 -1       722    8    0    1
 -2       169       326       441      1756      2106      2103
 -1       723    8    0    1
 -2       296       297       400      1723      2107      2108
 -1       724    8    0    1
 -2       298       299       251      1725      1977      2109
 -1       725    8    0    1
 -2       301       322       249      2102      1749      2110
 -1       726    8    0    1
 -2       300       301       249      1727      2110      1980
 -1       727    8    0    1
 -2       302       303       248      1729      2111      1790
 -1       728    8    0    1
 -2       304       305       442      1731      2112      2113
 -1       729    8    0    1
 -2       305       306       443      1732      2114      2115
 -1       730    8    0    1
 -2       306       307       444      1733      2116      2117
 -1       731    8    0    1
 -2       306       444       443      2117      2118      2114
 -1       732    8    0    1
 -2       307       308       445      1734      2119      2120
 -1       733    8    0    1
 -2       308       309       446      1735      2121      2122
 -1       734    8    0    1
 -2       308       446       445      2122      2123      2119
 -1       735    8    0    1
 -2       309       310       447      1736      2124      2125
 -1       736    8    0    1
 -2       310       311       448      1737      2126      2127
 -1       737    8    0    1
 -2       311       312       449      1738      2128      2129
 -1       738    8    0    1
 -2       312       313       450      1739      2130      2131
 -1       739    8    0    1
 -2       313       314       451      1740      2132      2133
 -1       740    8    0    1
 -2       314       315       452      1741      2134      2135
 -1       741    8    0    1
 -2       315       316       453      1742      2136      2137
 -1       742    8    0    1
 -2       316       317       454      1743      2138      2139
 -1       743    8    0    1
 -2       317       318       455      1744      2140      2141
 -1       744    8    0    1
 -2       318       319       456      1745      2142      2143
 -1       745    8    0    1
 -2       319       320       457      1746      2144      2145
 -1       746    8    0    1
 -2       320       321       458      1747      2146      2147
 -1       747    8    0    1
 -2       180       229       336      1792      2148      1784
 -1       748    8    0    1
 -2       293       294       459      1718      2149      2150
 -1       749    8    0    1
 -2       181       166       325      1791      1753      2151
 -1       750    8    0    1
 -2       248       303       460      2111      2152      2153
 -1       751    8    0    1
 -2       247       248       460      1521      2153      2154
 -1       752    8    0    1
 -2       303       304       460      1730      2155      2152
 -1       753    8    0    1
 -2       323       228       383      2099      1928      2156
 -1       754    8    0    1
 -2       294       337       459      1788      2157      2149
 -1       755    8    0    1
 -2       293       459       440      2150      2158      2100
 -1       756    8    0    1
 -2       337       295       439      1787      2098      2159
 -1       757    8    0    1
 -2       304       442       460      2113      2160      2155
 -1       758    8    0    1
 -2       182       181       325      1322      2151      2161
 -1       759    8    0    1
 -2       446       309       447      2121      2125      2162
 -1       760    8    0    1
 -2       338       182       325      1793      2161      2163
 -1       761    8    0    1
 -2       251       252       297      1532      2164      2165
 -1       762    8    0    1
 -2       230       385       336      1933      2166      2167
 -1       763    8    0    1
 -2       229       230       336      1467      2167      2148
 -1       764    8    0    1
 -2       451       314       452      2132      2135      2168
 -1       765    8    0    1
 -2       399       246       461      1974      2169      2170
 -1       766    8    0    1
 -2       307       445       444      2120      2171      2116
 -1       767    8    0    1
 -2       246       247       461      1518      2172      2169
 -1       768    8    0    1
 -2       296       400       439      2108      2173      2097
 -1       769    8    0    1
 -2       400       297       252      2107      2164      1982
 -1       770    8    0    1
 -2       253       401       400      1984      2174      1981
 -1       771    8    0    1
 -2       454       317       455      2138      2141      2175
 -1       772    8    0    1
 -2       292       323       383      1721      2156      2176
 -1       773    8    0    1
 -2       321       440       458      2101      2177      2146
 -1       774    8    0    1
 -2       453       316       454      2136      2139      2178
 -1       775    8    0    1
 -2       457       320       458      2144      2147      2179
 -1       776    8    0    1
 -2       456       319       457      2142      2145      2180
 -1       777    8    0    1
 -2       455       318       456      2140      2143      2181
 -1       778    8    0    1
 -2       452       315       453      2134      2137      2182
 -1       779    8    0    1
 -2       450       313       451      2130      2133      2183
 -1       780    8    0    1
 -2       449       312       450      2128      2131      2184
 -1       781    8    0    1
 -2       448       311       449      2126      2129      2185
 -1       782    8    0    1
 -2       461       247       460      2172      2154      2186
 -1       783    8    0    1
 -2       442       305       443      2112      2115      2187
 -1       784    8    0    1
 -2       447       310       448      2124      2127      2188
 -1       785    8    0    1
 -2       292       383       438      2176      2189      2094
 -1       786    8    0    1
 -2       327       328       462      1762      2190      2191
 -1       787    8    0    1
 -2       326       327       463      1759      2192      2193
 -1       788    8    0    1
 -2       327       462       463      2191      2194      2192
 -1       789    8    0    1
 -2       329       330       464      1768      2195      2196
 -1       790    8    0    1
 -2       330       331       465      1771      2197      2198
 -1       791    8    0    1
 -2       330       465       464      2198      2199      2195
 -1       792    8    0    1
 -2       331       332       466      1774      2200      2201
 -1       793    8    0    1
 -2       331       466       465      2201      2202      2197
 -1       794    8    0    1
 -2       332       333       467      1777      2203      2204
 -1       795    8    0    1
 -2       332       467       466      2204      2205      2200
 -1       796    8    0    1
 -2       333       334       468      1780      2206      2207
 -1       797    8    0    1
 -2       333       468       467      2207      2208      2203
 -1       798    8    0    1
 -2       334       335       469      1783      2209      2210
 -1       799    8    0    1
 -2       334       469       468      2210      2211      2206
 -1       800    8    0    1
 -2       335       336       470      1786      2212      2213
 -1       801    8    0    1
 -2       469       335       470      2209      2213      2214
 -1       802    8    0    1
 -2       336       385       470      2166      2215      2212
 -1       803    8    0    1
 -2       251       297       298      2165      1724      2109
 -1       804    8    0    1
 -2       339       338       471      1797      2216      2217
 -1       805    8    0    1
 -2       459       337       472      2157      2218      2219
 -1       806    8    0    1
 -2       340       339       473      1800      2220      2221
 -1       807    8    0    1
 -2       339       471       473      2217      2222      2220
 -1       808    8    0    1
 -2       341       340       474      1803      2223      2224
 -1       809    8    0    1
 -2       340       473       474      2221      2225      2223
 -1       810    8    0    1
 -2       342       341       475      1806      2226      2227
 -1       811    8    0    1
 -2       341       474       475      2224      2228      2226
 -1       812    8    0    1
 -2       343       342       476      1809      2229      2230
 -1       813    8    0    1
 -2       342       475       476      2227      2231      2229
 -1       814    8    0    1
 -2       344       343       477      1812      2232      2233
 -1       815    8    0    1
 -2       343       476       477      2230      2234      2232
 -1       816    8    0    1
 -2       345       344       478      1815      2235      2236
 -1       817    8    0    1
 -2       344       477       478      2233      2237      2235
 -1       818    8    0    1
 -2       346       345       479      1818      2238      2239
 -1       819    8    0    1
 -2       345       478       479      2236      2240      2238
 -1       820    8    0    1
 -2       347       346       480      1821      2241      2242
 -1       821    8    0    1
 -2       346       479       480      2239      2243      2241
 -1       822    8    0    1
 -2       348       347       481      1824      2244      2245
 -1       823    8    0    1
 -2       347       480       481      2242      2246      2244
 -1       824    8    0    1
 -2       349       348       482      1827      2247      2248
 -1       825    8    0    1
 -2       348       481       482      2245      2249      2247
 -1       826    8    0    1
 -2       350       349       483      1830      2250      2251
 -1       827    8    0    1
 -2       349       482       483      2248      2252      2250
 -1       828    8    0    1
 -2       351       350       484      1833      2253      2254
 -1       829    8    0    1
 -2       350       483       484      2251      2255      2253
 -1       830    8    0    1
 -2       352       351       485      1836      2256      2257
 -1       831    8    0    1
 -2       351       484       485      2254      2258      2256
 -1       832    8    0    1
 -2       353       352       486      1839      2259      2260
 -1       833    8    0    1
 -2       352       485       486      2257      2261      2259
 -1       834    8    0    1
 -2       354       353       487      1842      2262      2263
 -1       835    8    0    1
 -2       353       486       487      2260      2264      2262
 -1       836    8    0    1
 -2       355       354       488      1845      2265      2266
 -1       837    8    0    1
 -2       354       487       488      2263      2267      2265
 -1       838    8    0    1
 -2       356       355       489      1848      2268      2269
 -1       839    8    0    1
 -2       355       488       489      2266      2270      2268
 -1       840    8    0    1
 -2       357       356       490      1851      2271      2272
 -1       841    8    0    1
 -2       356       489       490      2269      2273      2271
 -1       842    8    0    1
 -2       358       357       491      1854      2274      2275
 -1       843    8    0    1
 -2       357       490       491      2272      2276      2274
 -1       844    8    0    1
 -2       359       358       492      1857      2277      2278
 -1       845    8    0    1
 -2       358       491       492      2275      2279      2277
 -1       846    8    0    1
 -2       360       359       493      1860      2280      2281
 -1       847    8    0    1
 -2       359       492       493      2278      2282      2280
 -1       848    8    0    1
 -2       361       360       494      1863      2283      2284
 -1       849    8    0    1
 -2       360       493       494      2281      2285      2283
 -1       850    8    0    1
 -2       362       361       495      1866      2286      2287
 -1       851    8    0    1
 -2       361       494       495      2284      2288      2286
 -1       852    8    0    1
 -2       363       362       496      1869      2289      2290
 -1       853    8    0    1
 -2       362       495       496      2287      2291      2289
 -1       854    8    0    1
 -2       364       363       497      1872      2292      2293
 -1       855    8    0    1
 -2       363       496       497      2290      2294      2292
 -1       856    8    0    1
 -2       365       364       498      1875      2295      2296
 -1       857    8    0    1
 -2       364       497       498      2293      2297      2295
 -1       858    8    0    1
 -2       366       365       499      1878      2298      2299
 -1       859    8    0    1
 -2       365       498       499      2296      2300      2298
 -1       860    8    0    1
 -2       367       366       500      1881      2301      2302
 -1       861    8    0    1
 -2       366       499       500      2299      2303      2301
 -1       862    8    0    1
 -2       368       367       501      1884      2304      2305
 -1       863    8    0    1
 -2       367       500       501      2302      2306      2304
 -1       864    8    0    1
 -2       369       368       502      1887      2307      2308
 -1       865    8    0    1
 -2       368       501       502      2305      2309      2307
 -1       866    8    0    1
 -2       370       369       503      1890      2310      2311
 -1       867    8    0    1
 -2       369       502       503      2308      2312      2310
 -1       868    8    0    1
 -2       371       370       504      1893      2313      2314
 -1       869    8    0    1
 -2       370       503       504      2311      2315      2313
 -1       870    8    0    1
 -2       372       371       505      1896      2316      2317
 -1       871    8    0    1
 -2       371       504       505      2314      2318      2316
 -1       872    8    0    1
 -2       373       372       506      1899      2319      2320
 -1       873    8    0    1
 -2       372       505       506      2317      2321      2319
 -1       874    8    0    1
 -2       374       373       507      1902      2322      2323
 -1       875    8    0    1
 -2       373       506       507      2320      2324      2322
 -1       876    8    0    1
 -2       375       374       508      1905      2325      2326
 -1       877    8    0    1
 -2       374       507       508      2323      2327      2325
 -1       878    8    0    1
 -2       376       375       509      1908      2328      2329
 -1       879    8    0    1
 -2       375       508       509      2326      2330      2328
 -1       880    8    0    1
 -2       377       376       510      1911      2331      2332
 -1       881    8    0    1
 -2       376       509       510      2329      2333      2331
 -1       882    8    0    1
 -2       378       377       511      1914      2334      2335
 -1       883    8    0    1
 -2       377       510       511      2332      2336      2334
 -1       884    8    0    1
 -2       379       378       512      1917      2337      2338
 -1       885    8    0    1
 -2       378       511       512      2335      2339      2337
 -1       886    8    0    1
 -2       380       379       513      1920      2340      2341
 -1       887    8    0    1
 -2       379       512       513      2338      2342      2340
 -1       888    8    0    1
 -2       381       380       514      1923      2343      2344
 -1       889    8    0    1
 -2       380       513       514      2341      2345      2343
 -1       890    8    0    1
 -2       382       381       515      1926      2346      2347
 -1       891    8    0    1
 -2       381       514       515      2344      2348      2346
 -1       892    8    0    1
 -2       383       382       516      1929      2349      2350
 -1       893    8    0    1
 -2       438       383       516      2189      2350      2351
 -1       894    8    0    1
 -2       382       515       516      2347      2352      2349
 -1       895    8    0    1
 -2       386       387       517      1940      2353      2354
 -1       896    8    0    1
 -2       387       388       518      1943      2355      2356
 -1       897    8    0    1
 -2       387       518       517      2356      2357      2353
 -1       898    8    0    1
 -2       388       389       519      1946      2358      2359
 -1       899    8    0    1
 -2       388       519       518      2359      2360      2355
 -1       900    8    0    1
 -2       389       390       520      1949      2361      2362
 -1       901    8    0    1
 -2       389       520       519      2362      2363      2358
 -1       902    8    0    1
 -2       390       391       521      1952      2364      2365
 -1       903    8    0    1
 -2       390       521       520      2365      2366      2361
 -1       904    8    0    1
 -2       391       392       522      1955      2367      2368
 -1       905    8    0    1
 -2       391       522       521      2368      2369      2364
 -1       906    8    0    1
 -2       392       393       523      1958      2370      2371
 -1       907    8    0    1
 -2       392       523       522      2371      2372      2367
 -1       908    8    0    1
 -2       393       394       524      1961      2373      2374
 -1       909    8    0    1
 -2       393       524       523      2374      2375      2370
 -1       910    8    0    1
 -2       394       395       525      1964      2376      2377
 -1       911    8    0    1
 -2       394       525       524      2377      2378      2373
 -1       912    8    0    1
 -2       395       396       526      1967      2379      2380
 -1       913    8    0    1
 -2       395       526       525      2380      2381      2376
 -1       914    8    0    1
 -2       396       397       527      1970      2382      2383
 -1       915    8    0    1
 -2       396       527       526      2383      2384      2379
 -1       916    8    0    1
 -2       397       398       528      1973      2385      2386
 -1       917    8    0    1
 -2       397       528       527      2386      2387      2382
 -1       918    8    0    1
 -2       398       399       529      1976      2388      2389
 -1       919    8    0    1
 -2       398       529       528      2389      2390      2385
 -1       920    8    0    1
 -2       444       445       530      2171      2391      2392
 -1       921    8    0    1
 -2       404       405       531      1996      2393      2394
 -1       922    8    0    1
 -2       405       406       532      1999      2395      2396
 -1       923    8    0    1
 -2       405       532       531      2396      2397      2393
 -1       924    8    0    1
 -2       406       407       533      2002      2398      2399
 -1       925    8    0    1
 -2       406       533       532      2399      2400      2395
 -1       926    8    0    1
 -2       407       408       534      2005      2401      2402
 -1       927    8    0    1
 -2       407       534       533      2402      2403      2398
 -1       928    8    0    1
 -2       408       409       535      2008      2404      2405
 -1       929    8    0    1
 -2       408       535       534      2405      2406      2401
 -1       930    8    0    1
 -2       409       410       536      2011      2407      2408
 -1       931    8    0    1
 -2       409       536       535      2408      2409      2404
 -1       932    8    0    1
 -2       410       411       537      2014      2410      2411
 -1       933    8    0    1
 -2       410       537       536      2411      2412      2407
 -1       934    8    0    1
 -2       411       412       538      2017      2413      2414
 -1       935    8    0    1
 -2       411       538       537      2414      2415      2410
 -1       936    8    0    1
 -2       412       413       539      2020      2416      2417
 -1       937    8    0    1
 -2       412       539       538      2417      2418      2413
 -1       938    8    0    1
 -2       413       414       540      2023      2419      2420
 -1       939    8    0    1
 -2       413       540       539      2420      2421      2416
 -1       940    8    0    1
 -2       414       415       541      2026      2422      2423
 -1       941    8    0    1
 -2       414       541       540      2423      2424      2419
 -1       942    8    0    1
 -2       415       416       542      2029      2425      2426
 -1       943    8    0    1
 -2       415       542       541      2426      2427      2422
 -1       944    8    0    1
 -2       416       417       543      2032      2428      2429
 -1       945    8    0    1
 -2       416       543       542      2429      2430      2425
 -1       946    8    0    1
 -2       417       418       544      2035      2431      2432
 -1       947    8    0    1
 -2       417       544       543      2432      2433      2428
 -1       948    8    0    1
 -2       418       419       545      2038      2434      2435
 -1       949    8    0    1
 -2       418       545       544      2435      2436      2431
 -1       950    8    0    1
 -2       419       420       546      2041      2437      2438
 -1       951    8    0    1
 -2       419       546       545      2438      2439      2434
 -1       952    8    0    1
 -2       420       421       547      2044      2440      2441
 -1       953    8    0    1
 -2       420       547       546      2441      2442      2437
 -1       954    8    0    1
 -2       421       422       548      2047      2443      2444
 -1       955    8    0    1
 -2       421       548       547      2444      2445      2440
 -1       956    8    0    1
 -2       422       423       549      2050      2446      2447
 -1       957    8    0    1
 -2       422       549       548      2447      2448      2443
 -1       958    8    0    1
 -2       424       425       550      2056      2449      2450
 -1       959    8    0    1
 -2       425       427       550      2062      2451      2449
 -1       960    8    0    1
 -2       428       429       551      2069      2452      2453
 -1       961    8    0    1
 -2       429       430       552      2072      2454      2455
 -1       962    8    0    1
 -2       429       552       551      2455      2456      2452
 -1       963    8    0    1
 -2       426       428       553      2066      2457      2458
 -1       964    8    0    1
 -2       428       551       553      2453      2459      2457
 -1       965    8    0    1
 -2       430       431       554      2075      2460      2461
 -1       966    8    0    1
 -2       430       554       552      2461      2462      2454
 -1       967    8    0    1
 -2       431       432       555      2078      2463      2464
 -1       968    8    0    1
 -2       431       555       554      2464      2465      2460
 -1       969    8    0    1
 -2       432       433       556      2081      2466      2467
 -1       970    8    0    1
 -2       432       556       555      2467      2468      2463
 -1       971    8    0    1
 -2       433       434       557      2084      2469      2470
 -1       972    8    0    1
 -2       433       557       556      2470      2471      2466
 -1       973    8    0    1
 -2       434       435       558      2087      2472      2473
 -1       974    8    0    1
 -2       434       558       557      2473      2474      2469
 -1       975    8    0    1
 -2       435       436       559      2090      2475      2476
 -1       976    8    0    1
 -2       435       559       558      2476      2477      2472
 -1       977    8    0    1
 -2       436       437       560      2093      2478      2479
 -1       978    8    0    1
 -2       436       560       559      2479      2480      2475
 -1       979    8    0    1
 -2       437       438       561      2096      2481      2482
 -1       980    8    0    1
 -2       560       437       561      2478      2482      2483
 -1       981    8    0    1
 -2       438       516       561      2351      2484      2481
 -1       982    8    0    1
 -2       460       442       461      2160      2485      2186
 -1       983    8    0    1
 -2       453       454       562      2178      2486      2487
 -1       984    8    0    1
 -2       403       404       563      1993      2488      2489
 -1       985    8    0    1
 -2       404       531       563      2394      2490      2488
 -1       986    8    0    1
 -2       402       403       564      1990      2491      2492
 -1       987    8    0    1
 -2       403       563       564      2489      2493      2491
 -1       988    8    0    1
 -2       454       455       565      2175      2494      2495
 -1       989    8    0    1
 -2       385       384       566      1934      2496      2497
 -1       990    8    0    1
 -2       385       566       470      2497      2498      2215
 -1       991    8    0    1
 -2       328       329       567      1765      2499      2500
 -1       992    8    0    1
 -2       462       328       567      2190      2500      2501
 -1       993    8    0    1
 -2       329       464       567      2196      2502      2499
 -1       994    8    0    1
 -2       384       386       568      1937      2503      2504
 -1       995    8    0    1
 -2       566       384       568      2496      2504      2505
 -1       996    8    0    1
 -2       386       517       568      2354      2506      2503
 -1       997    8    0    1
 -2       461       442       569      2485      2507      2508
 -1       998    8    0    1
 -2       442       443       569      2187      2509      2507
 -1       999    8    0    1
 -2       458       440       570      2177      2510      2511
 -1      1000    8    0    1
 -2       447       448       571      2188      2512      2513
 -1      1001    8    0    1
 -2       443       444       572      2118      2514      2515
 -1      1002    8    0    1
 -2       569       443       572      2509      2515      2516
 -1      1003    8    0    1
 -2       444       530       572      2392      2517      2514
 -1      1004    8    0    1
 -2       338       325       573      2163      2518      2519
 -1      1005    8    0    1
 -2       471       338       573      2216      2519      2520
 -1      1006    8    0    1
 -2       325       324       573      1754      2521      2518
 -1      1007    8    0    1
 -2       445       446       574      2123      2522      2523
 -1      1008    8    0    1
 -2       448       449       575      2185      2524      2525
 -1      1009    8    0    1
 -2       448       575       571      2525      2526      2512
 -1      1010    8    0    1
 -2       449       450       576      2184      2527      2528
 -1      1011    8    0    1
 -2       399       461       569      2170      2508      2529
 -1      1012    8    0    1
 -2       450       451       577      2183      2530      2531
 -1      1013    8    0    1
 -2       457       458       578      2179      2532      2533
 -1      1014    8    0    1
 -2       452       453       579      2182      2534      2535
 -1      1015    8    0    1
 -2       455       456       580      2181      2536      2537
 -1      1016    8    0    1
 -2       455       580       565      2537      2538      2494
 -1      1017    8    0    1
 -2       456       457       581      2180      2539      2540
 -1      1018    8    0    1
 -2       451       452       582      2168      2541      2542
 -1      1019    8    0    1
 -2       451       582       577      2542      2543      2530
 -1      1020    8    0    1
 -2       440       459       583      2158      2544      2545
 -1      1021    8    0    1
 -2       446       447       584      2162      2546      2547
 -1      1022    8    0    1
 -2       458       570       578      2511      2548      2532
 -1      1023    8    0    1
 -2       326       463       585      2193      2549      2550
 -1      1024    8    0    1
 -2       326       585       441      2550      2551      2106
 -1      1025    8    0    1
 -2       472       337       586      2218      2552      2553
 -1      1026    8    0    1
 -2       459       472       583      2219      2554      2544
 -1      1027    8    0    1
 -2       450       577       587      2531      2555      2556
 -1      1028    8    0    1
 -2       450       587       576      2556      2557      2527
 -1      1029    8    0    1
 -2       530       445       574      2391      2523      2558
 -1      1030    8    0    1
 -2       439       400       401      2173      2174      2559
 -1      1031    8    0    1
 -2       401       402       586      1987      2560      2561
 -1      1032    8    0    1
 -2       424       550       423      2450      2562      2053
 -1      1033    8    0    1
 -2       549       423       550      2446      2562      2563
 -1      1034    8    0    1
 -2       427       426       588      2063      2564      2565
 -1      1035    8    0    1
 -2       550       427       588      2451      2565      2566
 -1      1036    8    0    1
 -2       426       553       588      2458      2567      2564
 -1      1037    8    0    1
 -2       573       324       441      2521      2105      2568
 -1      1038    8    0    1
 -2       562       454       589      2486      2569      2570
 -1      1039    8    0    1
 -2       454       565       589      2495      2571      2569
 -1      1040    8    0    1
 -2       337       439       401      2159      2559      2572
 -1      1041    8    0    1
 -2       337       401       586      2572      2561      2552
 -1      1042    8    0    1
 -2       586       402       564      2560      2492      2573
 -1      1043    8    0    1
 -2       456       581       580      2540      2574      2536
 -1      1044    8    0    1
 -2       584       447       571      2546      2513      2575
 -1      1045    8    0    1
 -2       449       576       575      2528      2576      2524
 -1      1046    8    0    1
 -2       582       452       579      2541      2535      2577
 -1      1047    8    0    1
 -2       570       440       583      2510      2545      2578
 -1      1048    8    0    1
 -2       574       446       584      2522      2547      2579
 -1      1049    8    0    1
 -2       579       453       562      2534      2487      2580
 -1      1050    8    0    1
 -2       457       578       581      2533      2581      2539
 -1      1051    8    0    1
 -2       465       466       590      2202      2582      2583
 -1      1052    8    0    1
 -2       464       465       591      2199      2584      2585
 -1      1053    8    0    1
 -2       465       590       591      2583      2586      2584
 -1      1054    8    0    1
 -2       467       468       592      2208      2587      2588
 -1      1055    8    0    1
 -2       468       469       593      2211      2589      2590
 -1      1056    8    0    1
 -2       468       593       592      2590      2591      2587
 -1      1057    8    0    1
 -2       469       470       594      2214      2592      2593
 -1      1058    8    0    1
 -2       593       469       594      2589      2593      2594
 -1      1059    8    0    1
 -2       470       566       594      2498      2595      2592
 -1      1060    8    0    1
 -2       532       533       595      2400      2596      2597
 -1      1061    8    0    1
 -2       533       534       596      2403      2598      2599
 -1      1062    8    0    1
 -2       533       596       595      2599      2600      2596
 -1      1063    8    0    1
 -2       583       472       597      2554      2601      2602
 -1      1064    8    0    1
 -2       473       471       598      2222      2603      2604
 -1      1065    8    0    1
 -2       474       473       599      2225      2605      2606
 -1      1066    8    0    1
 -2       473       598       599      2604      2607      2605
 -1      1067    8    0    1
 -2       475       474       600      2228      2608      2609
 -1      1068    8    0    1
 -2       474       599       600      2606      2610      2608
 -1      1069    8    0    1
 -2       476       475       601      2231      2611      2612
 -1      1070    8    0    1
 -2       475       600       601      2609      2613      2611
 -1      1071    8    0    1
 -2       477       476       602      2234      2614      2615
 -1      1072    8    0    1
 -2       476       601       602      2612      2616      2614
 -1      1073    8    0    1
 -2       478       477       603      2237      2617      2618
 -1      1074    8    0    1
 -2       477       602       603      2615      2619      2617
 -1      1075    8    0    1
 -2       479       478       604      2240      2620      2621
 -1      1076    8    0    1
 -2       478       603       604      2618      2622      2620
 -1      1077    8    0    1
 -2       480       479       605      2243      2623      2624
 -1      1078    8    0    1
 -2       479       604       605      2621      2625      2623
 -1      1079    8    0    1
 -2       481       480       606      2246      2626      2627
 -1      1080    8    0    1
 -2       480       605       606      2624      2628      2626
 -1      1081    8    0    1
 -2       482       481       607      2249      2629      2630
 -1      1082    8    0    1
 -2       481       606       607      2627      2631      2629
 -1      1083    8    0    1
 -2       483       482       608      2252      2632      2633
 -1      1084    8    0    1
 -2       482       607       608      2630      2634      2632
 -1      1085    8    0    1
 -2       484       483       609      2255      2635      2636
 -1      1086    8    0    1
 -2       483       608       609      2633      2637      2635
 -1      1087    8    0    1
 -2       485       484       610      2258      2638      2639
 -1      1088    8    0    1
 -2       484       609       610      2636      2640      2638
 -1      1089    8    0    1
 -2       486       485       611      2261      2641      2642
 -1      1090    8    0    1
 -2       485       610       611      2639      2643      2641
 -1      1091    8    0    1
 -2       487       486       612      2264      2644      2645
 -1      1092    8    0    1
 -2       486       611       612      2642      2646      2644
 -1      1093    8    0    1
 -2       488       487       613      2267      2647      2648
 -1      1094    8    0    1
 -2       487       612       613      2645      2649      2647
 -1      1095    8    0    1
 -2       489       488       614      2270      2650      2651
 -1      1096    8    0    1
 -2       488       613       614      2648      2652      2650
 -1      1097    8    0    1
 -2       490       489       615      2273      2653      2654
 -1      1098    8    0    1
 -2       489       614       615      2651      2655      2653
 -1      1099    8    0    1
 -2       491       490       616      2276      2656      2657
 -1      1100    8    0    1
 -2       490       615       616      2654      2658      2656
 -1      1101    8    0    1
 -2       492       491       617      2279      2659      2660
 -1      1102    8    0    1
 -2       491       616       617      2657      2661      2659
 -1      1103    8    0    1
 -2       493       492       618      2282      2662      2663
 -1      1104    8    0    1
 -2       492       617       618      2660      2664      2662
 -1      1105    8    0    1
 -2       494       493       619      2285      2665      2666
 -1      1106    8    0    1
 -2       493       618       619      2663      2667      2665
 -1      1107    8    0    1
 -2       495       494       620      2288      2668      2669
 -1      1108    8    0    1
 -2       494       619       620      2666      2670      2668
 -1      1109    8    0    1
 -2       496       495       621      2291      2671      2672
 -1      1110    8    0    1
 -2       495       620       621      2669      2673      2671
 -1      1111    8    0    1
 -2       497       496       622      2294      2674      2675
 -1      1112    8    0    1
 -2       496       621       622      2672      2676      2674
 -1      1113    8    0    1
 -2       498       497       623      2297      2677      2678
 -1      1114    8    0    1
 -2       497       622       623      2675      2679      2677
 -1      1115    8    0    1
 -2       499       498       624      2300      2680      2681
 -1      1116    8    0    1
 -2       498       623       624      2678      2682      2680
 -1      1117    8    0    1
 -2       500       499       625      2303      2683      2684
 -1      1118    8    0    1
 -2       499       624       625      2681      2685      2683
 -1      1119    8    0    1
 -2       501       500       626      2306      2686      2687
 -1      1120    8    0    1
 -2       500       625       626      2684      2688      2686
 -1      1121    8    0    1
 -2       502       501       627      2309      2689      2690
 -1      1122    8    0    1
 -2       501       626       627      2687      2691      2689
 -1      1123    8    0    1
 -2       503       502       628      2312      2692      2693
 -1      1124    8    0    1
 -2       502       627       628      2690      2694      2692
 -1      1125    8    0    1
 -2       504       503       629      2315      2695      2696
 -1      1126    8    0    1
 -2       503       628       629      2693      2697      2695
 -1      1127    8    0    1
 -2       505       504       630      2318      2698      2699
 -1      1128    8    0    1
 -2       504       629       630      2696      2700      2698
 -1      1129    8    0    1
 -2       506       505       631      2321      2701      2702
 -1      1130    8    0    1
 -2       505       630       631      2699      2703      2701
 -1      1131    8    0    1
 -2       507       506       632      2324      2704      2705
 -1      1132    8    0    1
 -2       506       631       632      2702      2706      2704
 -1      1133    8    0    1
 -2       508       507       633      2327      2707      2708
 -1      1134    8    0    1
 -2       507       632       633      2705      2709      2707
 -1      1135    8    0    1
 -2       509       508       634      2330      2710      2711
 -1      1136    8    0    1
 -2       508       633       634      2708      2712      2710
 -1      1137    8    0    1
 -2       510       509       635      2333      2713      2714
 -1      1138    8    0    1
 -2       509       634       635      2711      2715      2713
 -1      1139    8    0    1
 -2       511       510       636      2336      2716      2717
 -1      1140    8    0    1
 -2       510       635       636      2714      2718      2716
 -1      1141    8    0    1
 -2       512       511       637      2339      2719      2720
 -1      1142    8    0    1
 -2       511       636       637      2717      2721      2719
 -1      1143    8    0    1
 -2       513       512       638      2342      2722      2723
 -1      1144    8    0    1
 -2       512       637       638      2720      2724      2722
 -1      1145    8    0    1
 -2       514       513       639      2345      2725      2726
 -1      1146    8    0    1
 -2       513       638       639      2723      2727      2725
 -1      1147    8    0    1
 -2       515       514       640      2348      2728      2729
 -1      1148    8    0    1
 -2       514       639       640      2726      2730      2728
 -1      1149    8    0    1
 -2       516       515       641      2352      2731      2732
 -1      1150    8    0    1
 -2       561       516       641      2484      2732      2733
 -1      1151    8    0    1
 -2       515       640       641      2729      2734      2731
 -1      1152    8    0    1
 -2       519       520       642      2363      2735      2736
 -1      1153    8    0    1
 -2       517       518       643      2357      2737      2738
 -1      1154    8    0    1
 -2       520       521       644      2366      2739      2740
 -1      1155    8    0    1
 -2       520       644       642      2740      2741      2735
 -1      1156    8    0    1
 -2       521       522       645      2369      2742      2743
 -1      1157    8    0    1
 -2       521       645       644      2743      2744      2739
 -1      1158    8    0    1
 -2       522       523       646      2372      2745      2746
 -1      1159    8    0    1
 -2       522       646       645      2746      2747      2742
 -1      1160    8    0    1
 -2       523       524       647      2375      2748      2749
 -1      1161    8    0    1
 -2       523       647       646      2749      2750      2745
 -1      1162    8    0    1
 -2       524       525       648      2378      2751      2752
 -1      1163    8    0    1
 -2       524       648       647      2752      2753      2748
 -1      1164    8    0    1
 -2       525       526       649      2381      2754      2755
 -1      1165    8    0    1
 -2       525       649       648      2755      2756      2751
 -1      1166    8    0    1
 -2       526       527       650      2384      2757      2758
 -1      1167    8    0    1
 -2       526       650       649      2758      2759      2754
 -1      1168    8    0    1
 -2       527       528       651      2387      2760      2761
 -1      1169    8    0    1
 -2       527       651       650      2761      2762      2757
 -1      1170    8    0    1
 -2       528       529       652      2390      2763      2764
 -1      1171    8    0    1
 -2       528       652       651      2764      2765      2760
 -1      1172    8    0    1
 -2       580       581       653      2574      2766      2767
 -1      1173    8    0    1
 -2       531       532       654      2397      2768      2769
 -1      1174    8    0    1
 -2       532       595       654      2597      2770      2768
 -1      1175    8    0    1
 -2       534       535       655      2406      2771      2772
 -1      1176    8    0    1
 -2       534       655       596      2772      2773      2598
 -1      1177    8    0    1
 -2       535       536       656      2409      2774      2775
 -1      1178    8    0    1
 -2       535       656       655      2775      2776      2771
 -1      1179    8    0    1
 -2       536       537       657      2412      2777      2778
 -1      1180    8    0    1
 -2       536       657       656      2778      2779      2774
 -1      1181    8    0    1
 -2       537       538       658      2415      2780      2781
 -1      1182    8    0    1
 -2       537       658       657      2781      2782      2777
 -1      1183    8    0    1
 -2       538       539       659      2418      2783      2784
 -1      1184    8    0    1
 -2       538       659       658      2784      2785      2780
 -1      1185    8    0    1
 -2       539       540       660      2421      2786      2787
 -1      1186    8    0    1
 -2       539       660       659      2787      2788      2783
 -1      1187    8    0    1
 -2       540       541       661      2424      2789      2790
 -1      1188    8    0    1
 -2       540       661       660      2790      2791      2786
 -1      1189    8    0    1
 -2       541       542       662      2427      2792      2793
 -1      1190    8    0    1
 -2       541       662       661      2793      2794      2789
 -1      1191    8    0    1
 -2       542       543       663      2430      2795      2796
 -1      1192    8    0    1
 -2       542       663       662      2796      2797      2792
 -1      1193    8    0    1
 -2       543       544       664      2433      2798      2799
 -1      1194    8    0    1
 -2       543       664       663      2799      2800      2795
 -1      1195    8    0    1
 -2       544       545       665      2436      2801      2802
 -1      1196    8    0    1
 -2       544       665       664      2802      2803      2798
 -1      1197    8    0    1
 -2       545       546       666      2439      2804      2805
 -1      1198    8    0    1
 -2       545       666       665      2805      2806      2801
 -1      1199    8    0    1
 -2       546       547       667      2442      2807      2808
 -1      1200    8    0    1
 -2       546       667       666      2808      2809      2804
 -1      1201    8    0    1
 -2       547       548       668      2445      2810      2811
 -1      1202    8    0    1
 -2       547       668       667      2811      2812      2807
 -1      1203    8    0    1
 -2       548       549       669      2448      2813      2814
 -1      1204    8    0    1
 -2       548       669       668      2814      2815      2810
 -1      1205    8    0    1
 -2       549       550       588      2563      2566      2816
 -1      1206    8    0    1
 -2       573       441       585      2568      2551      2817
 -1      1207    8    0    1
 -2       551       552       670      2456      2818      2819
 -1      1208    8    0    1
 -2       553       551       671      2459      2820      2821
 -1      1209    8    0    1
 -2       551       670       671      2819      2822      2820
 -1      1210    8    0    1
 -2       552       554       672      2462      2823      2824
 -1      1211    8    0    1
 -2       552       672       670      2824      2825      2818
 -1      1212    8    0    1
 -2       555       556       673      2468      2826      2827
 -1      1213    8    0    1
 -2       556       557       674      2471      2828      2829
 -1      1214    8    0    1
 -2       556       674       673      2829      2830      2826
 -1      1215    8    0    1
 -2       557       558       675      2474      2831      2832
 -1      1216    8    0    1
 -2       557       675       674      2832      2833      2828
 -1      1217    8    0    1
 -2       558       559       676      2477      2834      2835
 -1      1218    8    0    1
 -2       558       676       675      2835      2836      2831
 -1      1219    8    0    1
 -2       559       560       677      2480      2837      2838
 -1      1220    8    0    1
 -2       559       677       676      2838      2839      2834
 -1      1221    8    0    1
 -2       563       531       678      2490      2840      2841
 -1      1222    8    0    1
 -2       531       654       678      2769      2842      2840
 -1      1223    8    0    1
 -2       564       563       679      2493      2843      2844
 -1      1224    8    0    1
 -2       563       678       679      2841      2845      2843
 -1      1225    8    0    1
 -2       584       571       680      2575      2846      2847
 -1      1226    8    0    1
 -2       554       555       681      2465      2848      2849
 -1      1227    8    0    1
 -2       672       554       681      2823      2849      2850
 -1      1228    8    0    1
 -2       555       673       681      2827      2851      2848
 -1      1229    8    0    1
 -2       466       467       682      2205      2852      2853
 -1      1230    8    0    1
 -2       590       466       682      2582      2853      2854
 -1      1231    8    0    1
 -2       467       592       682      2588      2855      2852
 -1      1232    8    0    1
 -2       575       576       683      2576      2856      2857
 -1      1233    8    0    1
 -2       582       579       684      2577      2858      2859
 -1      1234    8    0    1
 -2       571       575       685      2526      2860      2861
 -1      1235    8    0    1
 -2       463       462       686      2194      2862      2863
 -1      1236    8    0    1
 -2       518       519       687      2360      2864      2865
 -1      1237    8    0    1
 -2       519       642       687      2736      2866      2864
 -1      1238    8    0    1
 -2       581       578       688      2581      2867      2868
 -1      1239    8    0    1
 -2       530       574       689      2558      2869      2870
 -1      1240    8    0    1
 -2       574       584       690      2579      2871      2872
 -1      1241    8    0    1
 -2       570       583       691      2578      2873      2874
 -1      1242    8    0    1
 -2       565       580       692      2538      2875      2876
 -1      1243    8    0    1
 -2       577       582       693      2543      2877      2878
 -1      1244    8    0    1
 -2       579       562       694      2580      2879      2880
 -1      1245    8    0    1
 -2       578       570       695      2548      2881      2882
 -1      1246    8    0    1
 -2       585       463       696      2549      2883      2884
 -1      1247    8    0    1
 -2       463       686       696      2863      2885      2883
 -1      1248    8    0    1
 -2       464       591       697      2585      2886      2887
 -1      1249    8    0    1
 -2       464       697       567      2887      2888      2502
 -1      1250    8    0    1
 -2       594       566       698      2595      2889      2890
 -1      1251    8    0    1
 -2       566       568       698      2505      2891      2889
 -1      1252    8    0    1
 -2       462       567       699      2501      2892      2893
 -1      1253    8    0    1
 -2       686       462       699      2862      2893      2894
 -1      1254    8    0    1
 -2       567       697       699      2888      2895      2892
 -1      1255    8    0    1
 -2       581       688       653      2868      2896      2766
 -1      1256    8    0    1
 -2       587       577       700      2555      2897      2898
 -1      1257    8    0    1
 -2       577       693       700      2878      2899      2897
 -1      1258    8    0    1
 -2       643       518       687      2737      2865      2900
 -1      1259    8    0    1
 -2       580       653       692      2767      2901      2875
 -1      1260    8    0    1
 -2       652       529       689      2763      2902      2903
 -1      1261    8    0    1
 -2       471       573       701      2520      2904      2905
 -1      1262    8    0    1
 -2       529       399       702      2388      2906      2907
 -1      1263    8    0    1
 -2       564       679       597      2844      2908      2909
 -1      1264    8    0    1
 -2       549       588       703      2816      2910      2911
 -1      1265    8    0    1
 -2       669       549       703      2813      2911      2912
 -1      1266    8    0    1
 -2       588       553       703      2567      2913      2910
 -1      1267    8    0    1
 -2       695       570       691      2881      2874      2914
 -1      1268    8    0    1
 -2       693       582       684      2877      2859      2915
 -1      1269    8    0    1
 -2       553       671       703      2821      2916      2913
 -1      1270    8    0    1
 -2       694       562       704      2879      2917      2918
 -1      1271    8    0    1
 -2       562       589       704      2570      2919      2917
 -1      1272    8    0    1
 -2       584       680       690      2847      2920      2871
 -1      1273    8    0    1
 -2       560       561       641      2483      2733      2921
 -1      1274    8    0    1
 -2       589       565       705      2571      2922      2923
 -1      1275    8    0    1
 -2       565       692       705      2876      2924      2922
 -1      1276    8    0    1
 -2       689       574       706      2869      2925      2926
 -1      1277    8    0    1
 -2       574       690       706      2872      2927      2925
 -1      1278    8    0    1
 -2       680       571       685      2846      2861      2928
 -1      1279    8    0    1
 -2       472       586       564      2553      2573      2929
 -1      1280    8    0    1
 -2       560       641       677      2921      2930      2837
 -1      1281    8    0    1
 -2       598       471       701      2603      2905      2931
 -1      1282    8    0    1
 -2       685       575       683      2860      2857      2932
 -1      1283    8    0    1
 -2       684       579       694      2858      2880      2933
 -1      1284    8    0    1
 -2       702       399       569      2906      2529      2934
 -1      1285    8    0    1
 -2       689       529       530      2902      2935      2870
 -1      1286    8    0    1
 -2       472       564       597      2929      2909      2601
 -1      1287    8    0    1
 -2       688       578       695      2867      2882      2936
 -1      1288    8    0    1
 -2       530       529       572      2935      2937      2517
 -1      1289    8    0    1
 -2       683       576       707      2856      2938      2939
 -1      1290    8    0    1
 -2       576       587       707      2557      2940      2938
 -1      1291    8    0    1
 -2       568       517       708      2506      2941      2942
 -1      1292    8    0    1
 -2       698       568       708      2891      2942      2943
 -1      1293    8    0    1
 -2       517       643       708      2738      2944      2941
 -1      1294    8    0    1
 -2       677       641       640      2930      2734      2945
 -1      1295    8    0    1
 -2       593       594       709      2594      2946      2947
 -1      1296    8    0    1
 -2       594       698       709      2890      2948      2946
 -1      1297    8    0    1
 -2       592       593       709      2591      2947      2949
 -1      1298    8    0    1
 -2       655       656       710      2776      2950      2951
 -1      1299    8    0    1
 -2       595       596       711      2600      2952      2953
 -1      1300    8    0    1
 -2       688       695       712      2936      2954      2955
 -1      1301    8    0    1
 -2       600       599       713      2610      2956      2957
 -1      1302    8    0    1
 -2       601       600       714      2613      2958      2959
 -1      1303    8    0    1
 -2       600       713       714      2957      2960      2958
 -1      1304    8    0    1
 -2       602       601       715      2616      2961      2962
 -1      1305    8    0    1
 -2       601       714       715      2959      2963      2961
 -1      1306    8    0    1
 -2       603       602       716      2619      2964      2965
 -1      1307    8    0    1
 -2       602       715       716      2962      2966      2964
 -1      1308    8    0    1
 -2       604       603       717      2622      2967      2968
 -1      1309    8    0    1
 -2       603       716       717      2965      2969      2967
 -1      1310    8    0    1
 -2       605       604       718      2625      2970      2971
 -1      1311    8    0    1
 -2       604       717       718      2968      2972      2970
 -1      1312    8    0    1
 -2       606       605       719      2628      2973      2974
 -1      1313    8    0    1
 -2       605       718       719      2971      2975      2973
 -1      1314    8    0    1
 -2       607       606       720      2631      2976      2977
 -1      1315    8    0    1
 -2       606       719       720      2974      2978      2976
 -1      1316    8    0    1
 -2       608       607       721      2634      2979      2980
 -1      1317    8    0    1
 -2       607       720       721      2977      2981      2979
 -1      1318    8    0    1
 -2       609       608       722      2637      2982      2983
 -1      1319    8    0    1
 -2       608       721       722      2980      2984      2982
 -1      1320    8    0    1
 -2       610       609       723      2640      2985      2986
 -1      1321    8    0    1
 -2       609       722       723      2983      2987      2985
 -1      1322    8    0    1
 -2       611       610       724      2643      2988      2989
 -1      1323    8    0    1
 -2       610       723       724      2986      2990      2988
 -1      1324    8    0    1
 -2       612       611       725      2646      2991      2992
 -1      1325    8    0    1
 -2       611       724       725      2989      2993      2991
 -1      1326    8    0    1
 -2       613       612       726      2649      2994      2995
 -1      1327    8    0    1
 -2       612       725       726      2992      2996      2994
 -1      1328    8    0    1
 -2       614       613       727      2652      2997      2998
 -1      1329    8    0    1
 -2       613       726       727      2995      2999      2997
 -1      1330    8    0    1
 -2       615       614       728      2655      3000      3001
 -1      1331    8    0    1
 -2       614       727       728      2998      3002      3000
 -1      1332    8    0    1
 -2       616       615       729      2658      3003      3004
 -1      1333    8    0    1
 -2       615       728       729      3001      3005      3003
 -1      1334    8    0    1
 -2       617       616       730      2661      3006      3007
 -1      1335    8    0    1
 -2       616       729       730      3004      3008      3006
 -1      1336    8    0    1
 -2       618       617       731      2664      3009      3010
 -1      1337    8    0    1
 -2       617       730       731      3007      3011      3009
 -1      1338    8    0    1
 -2       619       618       732      2667      3012      3013
 -1      1339    8    0    1
 -2       618       731       732      3010      3014      3012
 -1      1340    8    0    1
 -2       620       619       733      2670      3015      3016
 -1      1341    8    0    1
 -2       619       732       733      3013      3017      3015
 -1      1342    8    0    1
 -2       621       620       734      2673      3018      3019
 -1      1343    8    0    1
 -2       620       733       734      3016      3020      3018
 -1      1344    8    0    1
 -2       622       621       735      2676      3021      3022
 -1      1345    8    0    1
 -2       621       734       735      3019      3023      3021
 -1      1346    8    0    1
 -2       623       622       736      2679      3024      3025
 -1      1347    8    0    1
 -2       622       735       736      3022      3026      3024
 -1      1348    8    0    1
 -2       624       623       737      2682      3027      3028
 -1      1349    8    0    1
 -2       623       736       737      3025      3029      3027
 -1      1350    8    0    1
 -2       625       624       738      2685      3030      3031
 -1      1351    8    0    1
 -2       624       737       738      3028      3032      3030
 -1      1352    8    0    1
 -2       626       625       739      2688      3033      3034
 -1      1353    8    0    1
 -2       625       738       739      3031      3035      3033
 -1      1354    8    0    1
 -2       627       626       740      2691      3036      3037
 -1      1355    8    0    1
 -2       626       739       740      3034      3038      3036
 -1      1356    8    0    1
 -2       628       627       741      2694      3039      3040
 -1      1357    8    0    1
 -2       627       740       741      3037      3041      3039
 -1      1358    8    0    1
 -2       629       628       742      2697      3042      3043
 -1      1359    8    0    1
 -2       628       741       742      3040      3044      3042
 -1      1360    8    0    1
 -2       630       629       743      2700      3045      3046
 -1      1361    8    0    1
 -2       629       742       743      3043      3047      3045
 -1      1362    8    0    1
 -2       631       630       744      2703      3048      3049
 -1      1363    8    0    1
 -2       630       743       744      3046      3050      3048
 -1      1364    8    0    1
 -2       632       631       745      2706      3051      3052
 -1      1365    8    0    1
 -2       631       744       745      3049      3053      3051
 -1      1366    8    0    1
 -2       633       632       746      2709      3054      3055
 -1      1367    8    0    1
 -2       632       745       746      3052      3056      3054
 -1      1368    8    0    1
 -2       634       633       747      2712      3057      3058
 -1      1369    8    0    1
 -2       633       746       747      3055      3059      3057
 -1      1370    8    0    1
 -2       635       634       748      2715      3060      3061
 -1      1371    8    0    1
 -2       634       747       748      3058      3062      3060
 -1      1372    8    0    1
 -2       636       635       749      2718      3063      3064
 -1      1373    8    0    1
 -2       635       748       749      3061      3065      3063
 -1      1374    8    0    1
 -2       637       636       750      2721      3066      3067
 -1      1375    8    0    1
 -2       636       749       750      3064      3068      3066
 -1      1376    8    0    1
 -2       638       637       751      2724      3069      3070
 -1      1377    8    0    1
 -2       637       750       751      3067      3071      3069
 -1      1378    8    0    1
 -2       639       638       752      2727      3072      3073
 -1      1379    8    0    1
 -2       638       751       752      3070      3074      3072
 -1      1380    8    0    1
 -2       640       639       753      2730      3075      3076
 -1      1381    8    0    1
 -2       639       752       753      3073      3077      3075
 -1      1382    8    0    1
 -2       701       573       585      2904      2817      3078
 -1      1383    8    0    1
 -2       677       640       753      2945      3076      3079
 -1      1384    8    0    1
 -2       642       644       754      2741      3080      3081
 -1      1385    8    0    1
 -2       646       647       755      2750      3082      3083
 -1      1386    8    0    1
 -2       647       648       756      2753      3084      3085
 -1      1387    8    0    1
 -2       647       756       755      3085      3086      3082
 -1      1388    8    0    1
 -2       648       649       757      2756      3087      3088
 -1      1389    8    0    1
 -2       648       757       756      3088      3089      3084
 -1      1390    8    0    1
 -2       649       650       758      2759      3090      3091
 -1      1391    8    0    1
 -2       649       758       757      3091      3092      3087
 -1      1392    8    0    1
 -2       650       651       759      2762      3093      3094
 -1      1393    8    0    1
 -2       650       759       758      3094      3095      3090
 -1      1394    8    0    1
 -2       651       652       760      2765      3096      3097
 -1      1395    8    0    1
 -2       759       651       760      3093      3097      3098
 -1      1396    8    0    1
 -2       652       689       760      2903      3099      3096
 -1      1397    8    0    1
 -2       685       683       761      2932      3100      3101
 -1      1398    8    0    1
 -2       669       703       762      2912      3102      3103
 -1      1399    8    0    1
 -2       703       671       762      2916      3104      3102
 -1      1400    8    0    1
 -2       687       642       763      2866      3105      3106
 -1      1401    8    0    1
 -2       642       754       763      3081      3107      3105
 -1      1402    8    0    1
 -2       656       657       764      2779      3108      3109
 -1      1403    8    0    1
 -2       656       764       710      3109      3110      2950
 -1      1404    8    0    1
 -2       657       658       765      2782      3111      3112
 -1      1405    8    0    1
 -2       657       765       764      3112      3113      3108
 -1      1406    8    0    1
 -2       658       659       766      2785      3114      3115
 -1      1407    8    0    1
 -2       658       766       765      3115      3116      3111
 -1      1408    8    0    1
 -2       659       660       767      2788      3117      3118
 -1      1409    8    0    1
 -2       659       767       766      3118      3119      3114
 -1      1410    8    0    1
 -2       660       661       768      2791      3120      3121
 -1      1411    8    0    1
 -2       660       768       767      3121      3122      3117
 -1      1412    8    0    1
 -2       661       662       769      2794      3123      3124
 -1      1413    8    0    1
 -2       661       769       768      3124      3125      3120
 -1      1414    8    0    1
 -2       662       663       770      2797      3126      3127
 -1      1415    8    0    1
 -2       662       770       769      3127      3128      3123
 -1      1416    8    0    1
 -2       663       664       771      2800      3129      3130
 -1      1417    8    0    1
 -2       663       771       770      3130      3131      3126
 -1      1418    8    0    1
 -2       664       665       772      2803      3132      3133
 -1      1419    8    0    1
 -2       664       772       771      3133      3134      3129
 -1      1420    8    0    1
 -2       665       666       773      2806      3135      3136
 -1      1421    8    0    1
 -2       665       773       772      3136      3137      3132
 -1      1422    8    0    1
 -2       666       667       774      2809      3138      3139
 -1      1423    8    0    1
 -2       666       774       773      3139      3140      3135
 -1      1424    8    0    1
 -2       667       668       775      2812      3141      3142
 -1      1425    8    0    1
 -2       667       775       774      3142      3143      3138
 -1      1426    8    0    1
 -2       668       669       762      2815      3103      3144
 -1      1427    8    0    1
 -2       675       676       776      2836      3145      3146
 -1      1428    8    0    1
 -2       695       691       777      2914      3147      3148
 -1      1429    8    0    1
 -2       695       777       712      3148      3149      2954
 -1      1430    8    0    1
 -2       671       670       778      2822      3150      3151
 -1      1431    8    0    1
 -2       671       778       762      3151      3152      3104
 -1      1432    8    0    1
 -2       674       675       779      2833      3153      3154
 -1      1433    8    0    1
 -2       675       776       779      3146      3155      3153
 -1      1434    8    0    1
 -2       673       674       780      2830      3156      3157
 -1      1435    8    0    1
 -2       674       779       780      3154      3158      3156
 -1      1436    8    0    1
 -2       676       677       781      2839      3159      3160
 -1      1437    8    0    1
 -2       776       676       781      3145      3160      3161
 -1      1438    8    0    1
 -2       677       753       781      3079      3162      3159
 -1      1439    8    0    1
 -2       598       701       782      2931      3163      3164
 -1      1440    8    0    1
 -2       678       654       783      2842      3165      3166
 -1      1441    8    0    1
 -2       679       678       784      2845      3167      3168
 -1      1442    8    0    1
 -2       678       783       784      3166      3169      3167
 -1      1443    8    0    1
 -2       644       645       785      2744      3170      3171
 -1      1444    8    0    1
 -2       644       785       754      3171      3172      3080
 -1      1445    8    0    1
 -2       691       583       786      2873      3173      3174
 -1      1446    8    0    1
 -2       596       655       787      2773      3175      3176
 -1      1447    8    0    1
 -2       711       596       787      2952      3176      3177
 -1      1448    8    0    1
 -2       655       710       787      2951      3178      3175
 -1      1449    8    0    1
 -2       654       595       788      2770      3179      3180
 -1      1450    8    0    1
 -2       783       654       788      3165      3180      3181
 -1      1451    8    0    1
 -2       595       711       788      2953      3182      3179
 -1      1452    8    0    1
 -2       645       646       789      2747      3183      3184
 -1      1453    8    0    1
 -2       646       755       789      3083      3185      3183
 -1      1454    8    0    1
 -2       599       598       790      2607      3186      3187
 -1      1455    8    0    1
 -2       713       599       790      2956      3187      3188
 -1      1456    8    0    1
 -2       598       782       790      3164      3189      3186
 -1      1457    8    0    1
 -2       583       597       786      2602      3190      3173
 -1      1458    8    0    1
 -2       591       590       791      2586      3191      3192
 -1      1459    8    0    1
 -2       690       680       792      2920      3193      3194
 -1      1460    8    0    1
 -2       670       672       793      2825      3195      3196
 -1      1461    8    0    1
 -2       670       793       778      3196      3197      3150
 -1      1462    8    0    1
 -2       653       688       794      2896      3198      3199
 -1      1463    8    0    1
 -2       692       653       795      2901      3200      3201
 -1      1464    8    0    1
 -2       680       685       796      2928      3202      3203
 -1      1465    8    0    1
 -2       693       684       797      2915      3204      3205
 -1      1466    8    0    1
 -2       643       687       798      2900      3206      3207
 -1      1467    8    0    1
 -2       687       763       798      3106      3208      3206
 -1      1468    8    0    1
 -2       684       694       799      2933      3209      3210
 -1      1469    8    0    1
 -2       684       799       797      3210      3211      3204
 -1      1470    8    0    1
 -2       702       569       572      2934      2516      3212
 -1      1471    8    0    1
 -2       697       591       800      2886      3213      3214
 -1      1472    8    0    1
 -2       591       791       800      3192      3215      3213
 -1      1473    8    0    1
 -2       645       789       785      3184      3216      3170
 -1      1474    8    0    1
 -2       688       712       794      2955      3217      3198
 -1      1475    8    0    1
 -2       694       704       801      2918      3218      3219
 -1      1476    8    0    1
 -2       694       801       799      3219      3220      3209
 -1      1477    8    0    1
 -2       700       693       802      2899      3221      3222
 -1      1478    8    0    1
 -2       693       797       802      3205      3223      3221
 -1      1479    8    0    1
 -2       589       705       803      2923      3224      3225
 -1      1480    8    0    1
 -2       589       803       704      3225      3226      2919
 -1      1481    8    0    1
 -2       701       585       782      3078      3227      3163
 -1      1482    8    0    1
 -2       691       786       804      3174      3228      3229
 -1      1483    8    0    1
 -2       761       683       707      3100      2939      3230
 -1      1484    8    0    1
 -2       760       689       706      3099      2926      3231
 -1      1485    8    0    1
 -2       673       780       805      3157      3232      3233
 -1      1486    8    0    1
 -2       673       805       681      3233      3234      2851
 -1      1487    8    0    1
 -2       587       700       707      2898      3235      2940
 -1      1488    8    0    1
 -2       529       702       572      2907      3212      2937
 -1      1489    8    0    1
 -2       696       686       806      2885      3236      3237
 -1      1490    8    0    1
 -2       668       762       775      3144      3238      3141
 -1      1491    8    0    1
 -2       777       691       804      3147      3229      3239
 -1      1492    8    0    1
 -2       653       794       795      3199      3240      3200
 -1      1493    8    0    1
 -2       590       682       807      2854      3241      3242
 -1      1494    8    0    1
 -2       590       807       791      3242      3243      3191
 -1      1495    8    0    1
 -2       782       585       696      3227      2884      3244
 -1      1496    8    0    1
 -2       682       592       808      2855      3245      3246
 -1      1497    8    0    1
 -2       682       808       807      3246      3247      3241
 -1      1498    8    0    1
 -2       679       784       804      3168      3248      3249
 -1      1499    8    0    1
 -2       705       692       809      2924      3250      3251
 -1      1500    8    0    1
 -2       692       795       809      3201      3252      3250
 -1      1501    8    0    1
 -2       706       690       810      2927      3253      3254
 -1      1502    8    0    1
 -2       690       792       810      3194      3255      3253
 -1      1503    8    0    1
 -2       685       761       796      3101      3256      3202
 -1      1504    8    0    1
 -2       686       699       811      2894      3257      3258
 -1      1505    8    0    1
 -2       686       811       806      3258      3259      3236
 -1      1506    8    0    1
 -2       592       709       808      2949      3260      3245
 -1      1507    8    0    1
 -2       672       681       812      2850      3261      3262
 -1      1508    8    0    1
 -2       793       672       812      3195      3262      3263
 -1      1509    8    0    1
 -2       681       805       812      3234      3264      3261
 -1      1510    8    0    1
 -2       680       796       792      3203      3265      3193
 -1      1511    8    0    1
 -2       643       798       813      3207      3266      3267
 -1      1512    8    0    1
 -2       708       643       813      2944      3267      3268
 -1      1513    8    0    1
 -2       709       698       708      2948      2943      3269
 -1      1514    8    0    1
 -2       762       778       775      3152      3270      3238
 -1      1515    8    0    1
 -2       764       765       814      3113      3271      3272
 -1      1516    8    0    1
 -2       699       697       815      2895      3273      3274
 -1      1517    8    0    1
 -2       699       815       811      3274      3275      3257
 -1      1518    8    0    1
 -2       710       764       816      3110      3276      3277
 -1      1519    8    0    1
 -2       764       814       816      3272      3278      3276
 -1      1520    8    0    1
 -2       804       786       679      3228      3279      3249
 -1      1521    8    0    1
 -2       715       714       817      2963      3280      3281
 -1      1522    8    0    1
 -2       716       715       818      2966      3282      3283
 -1      1523    8    0    1
 -2       715       817       818      3281      3284      3282
 -1      1524    8    0    1
 -2       717       716       819      2969      3285      3286
 -1      1525    8    0    1
 -2       716       818       819      3283      3287      3285
 -1      1526    8    0    1
 -2       718       717       820      2972      3288      3289
 -1      1527    8    0    1
 -2       717       819       820      3286      3290      3288
 -1      1528    8    0    1
 -2       719       718       821      2975      3291      3292
 -1      1529    8    0    1
 -2       718       820       821      3289      3293      3291
 -1      1530    8    0    1
 -2       720       719       822      2978      3294      3295
 -1      1531    8    0    1
 -2       719       821       822      3292      3296      3294
 -1      1532    8    0    1
 -2       721       720       823      2981      3297      3298
 -1      1533    8    0    1
 -2       720       822       823      3295      3299      3297
 -1      1534    8    0    1
 -2       722       721       824      2984      3300      3301
 -1      1535    8    0    1
 -2       721       823       824      3298      3302      3300
 -1      1536    8    0    1
 -2       723       722       825      2987      3303      3304
 -1      1537    8    0    1
 -2       722       824       825      3301      3305      3303
 -1      1538    8    0    1
 -2       724       723       826      2990      3306      3307
 -1      1539    8    0    1
 -2       723       825       826      3304      3308      3306
 -1      1540    8    0    1
 -2       725       724       827      2993      3309      3310
 -1      1541    8    0    1
 -2       724       826       827      3307      3311      3309
 -1      1542    8    0    1
 -2       726       725       828      2996      3312      3313
 -1      1543    8    0    1
 -2       725       827       828      3310      3314      3312
 -1      1544    8    0    1
 -2       727       726       829      2999      3315      3316
 -1      1545    8    0    1
 -2       726       828       829      3313      3317      3315
 -1      1546    8    0    1
 -2       728       727       830      3002      3318      3319
 -1      1547    8    0    1
 -2       727       829       830      3316      3320      3318
 -1      1548    8    0    1
 -2       729       728       831      3005      3321      3322
 -1      1549    8    0    1
 -2       728       830       831      3319      3323      3321
 -1      1550    8    0    1
 -2       730       729       832      3008      3324      3325
 -1      1551    8    0    1
 -2       729       831       832      3322      3326      3324
 -1      1552    8    0    1
 -2       731       730       833      3011      3327      3328
 -1      1553    8    0    1
 -2       730       832       833      3325      3329      3327
 -1      1554    8    0    1
 -2       732       731       834      3014      3330      3331
 -1      1555    8    0    1
 -2       731       833       834      3328      3332      3330
 -1      1556    8    0    1
 -2       733       732       835      3017      3333      3334
 -1      1557    8    0    1
 -2       732       834       835      3331      3335      3333
 -1      1558    8    0    1
 -2       734       733       836      3020      3336      3337
 -1      1559    8    0    1
 -2       733       835       836      3334      3338      3336
 -1      1560    8    0    1
 -2       735       734       837      3023      3339      3340
 -1      1561    8    0    1
 -2       734       836       837      3337      3341      3339
 -1      1562    8    0    1
 -2       736       735       838      3026      3342      3343
 -1      1563    8    0    1
 -2       735       837       838      3340      3344      3342
 -1      1564    8    0    1
 -2       737       736       839      3029      3345      3346
 -1      1565    8    0    1
 -2       736       838       839      3343      3347      3345
 -1      1566    8    0    1
 -2       738       737       840      3032      3348      3349
 -1      1567    8    0    1
 -2       737       839       840      3346      3350      3348
 -1      1568    8    0    1
 -2       739       738       841      3035      3351      3352
 -1      1569    8    0    1
 -2       738       840       841      3349      3353      3351
 -1      1570    8    0    1
 -2       740       739       842      3038      3354      3355
 -1      1571    8    0    1
 -2       739       841       842      3352      3356      3354
 -1      1572    8    0    1
 -2       741       740       843      3041      3357      3358
 -1      1573    8    0    1
 -2       740       842       843      3355      3359      3357
 -1      1574    8    0    1
 -2       742       741       844      3044      3360      3361
 -1      1575    8    0    1
 -2       741       843       844      3358      3362      3360
 -1      1576    8    0    1
 -2       743       742       845      3047      3363      3364
 -1      1577    8    0    1
 -2       742       844       845      3361      3365      3363
 -1      1578    8    0    1
 -2       744       743       846      3050      3366      3367
 -1      1579    8    0    1
 -2       743       845       846      3364      3368      3366
 -1      1580    8    0    1
 -2       745       744       847      3053      3369      3370
 -1      1581    8    0    1
 -2       744       846       847      3367      3371      3369
 -1      1582    8    0    1
 -2       746       745       848      3056      3372      3373
 -1      1583    8    0    1
 -2       745       847       848      3370      3374      3372
 -1      1584    8    0    1
 -2       747       746       849      3059      3375      3376
 -1      1585    8    0    1
 -2       746       848       849      3373      3377      3375
 -1      1586    8    0    1
 -2       748       747       850      3062      3378      3379
 -1      1587    8    0    1
 -2       747       849       850      3376      3380      3378
 -1      1588    8    0    1
 -2       749       748       851      3065      3381      3382
 -1      1589    8    0    1
 -2       748       850       851      3379      3383      3381
 -1      1590    8    0    1
 -2       750       749       852      3068      3384      3385
 -1      1591    8    0    1
 -2       749       851       852      3382      3386      3384
 -1      1592    8    0    1
 -2       751       750       853      3071      3387      3388
 -1      1593    8    0    1
 -2       750       852       853      3385      3389      3387
 -1      1594    8    0    1
 -2       752       751       854      3074      3390      3391
 -1      1595    8    0    1
 -2       751       853       854      3388      3392      3390
 -1      1596    8    0    1
 -2       753       752       855      3077      3393      3394
 -1      1597    8    0    1
 -2       781       753       855      3162      3394      3395
 -1      1598    8    0    1
 -2       752       854       855      3391      3396      3393
 -1      1599    8    0    1
 -2       757       758       856      3092      3397      3398
 -1      1600    8    0    1
 -2       756       757       857      3089      3399      3400
 -1      1601    8    0    1
 -2       757       856       857      3398      3401      3399
 -1      1602    8    0    1
 -2       761       707       858      3230      3402      3403
 -1      1603    8    0    1
 -2       755       756       859      3086      3404      3405
 -1      1604    8    0    1
 -2       756       857       859      3400      3406      3404
 -1      1605    8    0    1
 -2       758       759       860      3095      3407      3408
 -1      1606    8    0    1
 -2       758       860       856      3408      3409      3397
 -1      1607    8    0    1
 -2       759       760       861      3098      3410      3411
 -1      1608    8    0    1
 -2       860       759       861      3407      3411      3412
 -1      1609    8    0    1
 -2       760       706       861      3231      3413      3410
 -1      1610    8    0    1
 -2       798       763       862      3208      3414      3415
 -1      1611    8    0    1
 -2       784       783       863      3169      3416      3417
 -1      1612    8    0    1
 -2       679       786       597      3279      3190      2908
 -1      1613    8    0    1
 -2       763       754       864      3107      3418      3419
 -1      1614    8    0    1
 -2       763       864       862      3419      3420      3414
 -1      1615    8    0    1
 -2       765       766       865      3116      3421      3422
 -1      1616    8    0    1
 -2       765       865       814      3422      3423      3271
 -1      1617    8    0    1
 -2       766       767       866      3119      3424      3425
 -1      1618    8    0    1
 -2       766       866       865      3425      3426      3421
 -1      1619    8    0    1
 -2       767       768       867      3122      3427      3428
 -1      1620    8    0    1
 -2       767       867       866      3428      3429      3424
 -1      1621    8    0    1
 -2       768       769       868      3125      3430      3431
 -1      1622    8    0    1
 -2       768       868       867      3431      3432      3427
 -1      1623    8    0    1
 -2       769       770       869      3128      3433      3434
 -1      1624    8    0    1
 -2       769       869       868      3434      3435      3430
 -1      1625    8    0    1
 -2       770       771       870      3131      3436      3437
 -1      1626    8    0    1
 -2       770       870       869      3437      3438      3433
 -1      1627    8    0    1
 -2       771       772       871      3134      3439      3440
 -1      1628    8    0    1
 -2       771       871       870      3440      3441      3436
 -1      1629    8    0    1
 -2       772       773       872      3137      3442      3443
 -1      1630    8    0    1
 -2       772       872       871      3443      3444      3439
 -1      1631    8    0    1
 -2       773       774       873      3140      3445      3446
 -1      1632    8    0    1
 -2       773       873       872      3446      3447      3442
 -1      1633    8    0    1
 -2       774       775       874      3143      3448      3449
 -1      1634    8    0    1
 -2       774       874       873      3449      3450      3445
 -1      1635    8    0    1
 -2       777       804       784      3239      3248      3451
 -1      1636    8    0    1
 -2       795       794       875      3240      3452      3453
 -1      1637    8    0    1
 -2       712       777       876      3149      3454      3455
 -1      1638    8    0    1
 -2       779       776       877      3155      3456      3457
 -1      1639    8    0    1
 -2       780       779       878      3158      3458      3459
 -1      1640    8    0    1
 -2       779       877       878      3457      3460      3458
 -1      1641    8    0    1
 -2       789       755       879      3185      3461      3462
 -1      1642    8    0    1
 -2       755       859       879      3405      3463      3461
 -1      1643    8    0    1
 -2       754       785       880      3172      3464      3465
 -1      1644    8    0    1
 -2       754       880       864      3465      3466      3418
 -1      1645    8    0    1
 -2       794       712       881      3217      3467      3468
 -1      1646    8    0    1
 -2       785       789       882      3216      3469      3470
 -1      1647    8    0    1
 -2       880       785       882      3464      3470      3471
 -1      1648    8    0    1
 -2       789       879       882      3462      3472      3469
 -1      1649    8    0    1
 -2       707       700       883      3235      3473      3474
 -1      1650    8    0    1
 -2       707       883       858      3474      3475      3402
 -1      1651    8    0    1
 -2       782       696       884      3244      3476      3477
 -1      1652    8    0    1
 -2       790       782       884      3189      3477      3478
 -1      1653    8    0    1
 -2       696       806       884      3237      3479      3476
 -1      1654    8    0    1
 -2       796       761       885      3256      3480      3481
 -1      1655    8    0    1
 -2       797       799       886      3211      3482      3483
 -1      1656    8    0    1
 -2       813       798       887      3266      3484      3485
 -1      1657    8    0    1
 -2       798       862       887      3415      3486      3484
 -1      1658    8    0    1
 -2       714       713       888      2960      3487      3488
 -1      1659    8    0    1
 -2       714       888       817      3488      3489      3280
 -1      1660    8    0    1
 -2       708       813       709      3268      3490      3269
 -1      1661    8    0    1
 -2       792       796       889      3265      3491      3492
 -1      1662    8    0    1
 -2       775       778       890      3270      3493      3494
 -1      1663    8    0    1
 -2       874       775       890      3448      3494      3495
 -1      1664    8    0    1
 -2       778       793       890      3197      3496      3493
 -1      1665    8    0    1
 -2       709       813       808      3490      3497      3260
 -1      1666    8    0    1
 -2       777       784       876      3451      3498      3454
 -1      1667    8    0    1
 -2       808       813       887      3497      3485      3499
 -1      1668    8    0    1
 -2       815       697       800      3273      3214      3500
 -1      1669    8    0    1
 -2       788       711       891      3182      3501      3502
 -1      1670    8    0    1
 -2       801       704       892      3218      3503      3504
 -1      1671    8    0    1
 -2       704       803       892      3226      3505      3503
 -1      1672    8    0    1
 -2       802       797       893      3223      3506      3507
 -1      1673    8    0    1
 -2       797       886       893      3483      3508      3506
 -1      1674    8    0    1
 -2       803       705       894      3224      3509      3510
 -1      1675    8    0    1
 -2       705       809       894      3251      3511      3509
 -1      1676    8    0    1
 -2       761       858       895      3403      3512      3513
 -1      1677    8    0    1
 -2       761       895       885      3513      3514      3480
 -1      1678    8    0    1
 -2       783       788       896      3181      3515      3516
 -1      1679    8    0    1
 -2       863       783       896      3416      3516      3517
 -1      1680    8    0    1
 -2       788       891       896      3502      3518      3515
 -1      1681    8    0    1
 -2       713       790       897      3188      3519      3520
 -1      1682    8    0    1
 -2       888       713       897      3487      3520      3521
 -1      1683    8    0    1
 -2       790       884       897      3478      3522      3519
 -1      1684    8    0    1
 -2       861       706       810      3413      3254      3523
 -1      1685    8    0    1
 -2       805       780       898      3232      3524      3525
 -1      1686    8    0    1
 -2       780       878       898      3459      3526      3524
 -1      1687    8    0    1
 -2       776       781       899      3161      3527      3528
 -1      1688    8    0    1
 -2       877       776       899      3456      3528      3529
 -1      1689    8    0    1
 -2       781       855       899      3395      3530      3527
 -1      1690    8    0    1
 -2       784       863       876      3417      3531      3498
 -1      1691    8    0    1
 -2       794       881       875      3468      3532      3452
 -1      1692    8    0    1
 -2       712       876       881      3455      3533      3467
 -1      1693    8    0    1
 -2       809       795       900      3252      3534      3535
 -1      1694    8    0    1
 -2       795       875       900      3453      3536      3534
 -1      1695    8    0    1
 -2       793       812       901      3263      3537      3538
 -1      1696    8    0    1
 -2       793       901       890      3538      3539      3496
 -1      1697    8    0    1
 -2       883       700       802      3473      3222      3540
 -1      1698    8    0    1
 -2       810       792       902      3255      3541      3542
 -1      1699    8    0    1
 -2       792       889       902      3492      3543      3541
 -1      1700    8    0    1
 -2       710       816       903      3277      3544      3545
 -1      1701    8    0    1
 -2       710       903       787      3545      3546      3178
 -1      1702    8    0    1
 -2       711       787       904      3177      3547      3548
 -1      1703    8    0    1
 -2       711       904       891      3548      3549      3501
 -1      1704    8    0    1
 -2       884       806       905      3479      3550      3551
 -1      1705    8    0    1
 -2       884       905       897      3551      3552      3522
 -1      1706    8    0    1
 -2       806       811       905      3259      3553      3550
 -1      1707    8    0    1
 -2       791       807       906      3243      3554      3555
 -1      1708    8    0    1
 -2       886       799       907      3482      3556      3557
 -1      1709    8    0    1
 -2       799       801       907      3220      3558      3556
 -1      1710    8    0    1
 -2       889       796       885      3491      3481      3559
 -1      1711    8    0    1
 -2       800       791       908      3215      3560      3561
 -1      1712    8    0    1
 -2       791       906       908      3555      3562      3560
 -1      1713    8    0    1
 -2       807       808       909      3247      3563      3564
 -1      1714    8    0    1
 -2       906       807       909      3554      3564      3565
 -1      1715    8    0    1
 -2       808       887       909      3499      3566      3563
 -1      1716    8    0    1
 -2       865       866       910      3426      3567      3568
 -1      1717    8    0    1
 -2       811       815       911      3275      3569      3570
 -1      1718    8    0    1
 -2       816       814       912      3278      3571      3572
 -1      1719    8    0    1
 -2       818       817       913      3284      3573      3574
 -1      1720    8    0    1
 -2       819       818       914      3287      3575      3576
 -1      1721    8    0    1
 -2       818       913       914      3574      3577      3575
 -1      1722    8    0    1
 -2       820       819       915      3290      3578      3579
 -1      1723    8    0    1
 -2       819       914       915      3576      3580      3578
 -1      1724    8    0    1
 -2       821       820       916      3293      3581      3582
 -1      1725    8    0    1
 -2       820       915       916      3579      3583      3581
 -1      1726    8    0    1
 -2       822       821       917      3296      3584      3585
 -1      1727    8    0    1
 -2       821       916       917      3582      3586      3584
 -1      1728    8    0    1
 -2       823       822       918      3299      3587      3588
 -1      1729    8    0    1
 -2       822       917       918      3585      3589      3587
 -1      1730    8    0    1
 -2       824       823       919      3302      3590      3591
 -1      1731    8    0    1
 -2       823       918       919      3588      3592      3590
 -1      1732    8    0    1
 -2       825       824       920      3305      3593      3594
 -1      1733    8    0    1
 -2       824       919       920      3591      3595      3593
 -1      1734    8    0    1
 -2       826       825       921      3308      3596      3597
 -1      1735    8    0    1
 -2       825       920       921      3594      3598      3596
 -1      1736    8    0    1
 -2       827       826       922      3311      3599      3600
 -1      1737    8    0    1
 -2       826       921       922      3597      3601      3599
 -1      1738    8    0    1
 -2       828       827       923      3314      3602      3603
 -1      1739    8    0    1
 -2       827       922       923      3600      3604      3602
 -1      1740    8    0    1
 -2       829       828       924      3317      3605      3606
 -1      1741    8    0    1
 -2       828       923       924      3603      3607      3605
 -1      1742    8    0    1
 -2       830       829       925      3320      3608      3609
 -1      1743    8    0    1
 -2       829       924       925      3606      3610      3608
 -1      1744    8    0    1
 -2       831       830       926      3323      3611      3612
 -1      1745    8    0    1
 -2       830       925       926      3609      3613      3611
 -1      1746    8    0    1
 -2       833       832       927      3329      3614      3615
 -1      1747    8    0    1
 -2       834       833       928      3332      3616      3617
 -1      1748    8    0    1
 -2       833       927       928      3615      3618      3616
 -1      1749    8    0    1
 -2       835       834       929      3335      3619      3620
 -1      1750    8    0    1
 -2       834       928       929      3617      3621      3619
 -1      1751    8    0    1
 -2       836       835       930      3338      3622      3623
 -1      1752    8    0    1
 -2       835       929       930      3620      3624      3622
 -1      1753    8    0    1
 -2       837       836       931      3341      3625      3626
 -1      1754    8    0    1
 -2       836       930       931      3623      3627      3625
 -1      1755    8    0    1
 -2       838       837       932      3344      3628      3629
 -1      1756    8    0    1
 -2       837       931       932      3626      3630      3628
 -1      1757    8    0    1
 -2       839       838       933      3347      3631      3632
 -1      1758    8    0    1
 -2       838       932       933      3629      3633      3631
 -1      1759    8    0    1
 -2       840       839       934      3350      3634      3635
 -1      1760    8    0    1
 -2       839       933       934      3632      3636      3634
 -1      1761    8    0    1
 -2       841       840       935      3353      3637      3638
 -1      1762    8    0    1
 -2       840       934       935      3635      3639      3637
 -1      1763    8    0    1
 -2       842       841       936      3356      3640      3641
 -1      1764    8    0    1
 -2       841       935       936      3638      3642      3640
 -1      1765    8    0    1
 -2       843       842       937      3359      3643      3644
 -1      1766    8    0    1
 -2       842       936       937      3641      3645      3643
 -1      1767    8    0    1
 -2       844       843       938      3362      3646      3647
 -1      1768    8    0    1
 -2       843       937       938      3644      3648      3646
 -1      1769    8    0    1
 -2       845       844       939      3365      3649      3650
 -1      1770    8    0    1
 -2       844       938       939      3647      3651      3649
 -1      1771    8    0    1
 -2       846       845       940      3368      3652      3653
 -1      1772    8    0    1
 -2       845       939       940      3650      3654      3652
 -1      1773    8    0    1
 -2       847       846       941      3371      3655      3656
 -1      1774    8    0    1
 -2       846       940       941      3653      3657      3655
 -1      1775    8    0    1
 -2       848       847       942      3374      3658      3659
 -1      1776    8    0    1
 -2       847       941       942      3656      3660      3658
 -1      1777    8    0    1
 -2       849       848       943      3377      3661      3662
 -1      1778    8    0    1
 -2       848       942       943      3659      3663      3661
 -1      1779    8    0    1
 -2       850       849       944      3380      3664      3665
 -1      1780    8    0    1
 -2       849       943       944      3662      3666      3664
 -1      1781    8    0    1
 -2       851       850       945      3383      3667      3668
 -1      1782    8    0    1
 -2       850       944       945      3665      3669      3667
 -1      1783    8    0    1
 -2       852       851       946      3386      3670      3671
 -1      1784    8    0    1
 -2       851       945       946      3668      3672      3670
 -1      1785    8    0    1
 -2       853       852       947      3389      3673      3674
 -1      1786    8    0    1
 -2       852       946       947      3671      3675      3673
 -1      1787    8    0    1
 -2       854       853       948      3392      3676      3677
 -1      1788    8    0    1
 -2       853       947       948      3674      3678      3676
 -1      1789    8    0    1
 -2       857       856       949      3401      3679      3680
 -1      1790    8    0    1
 -2       856       860       950      3409      3681      3682
 -1      1791    8    0    1
 -2       856       950       949      3682      3683      3679
 -1      1792    8    0    1
 -2       861       810       902      3523      3542      3684
 -1      1793    8    0    1
 -2       864       880       951      3466      3685      3686
 -1      1794    8    0    1
 -2       814       865       952      3423      3687      3688
 -1      1795    8    0    1
 -2       912       814       952      3571      3688      3689
 -1      1796    8    0    1
 -2       865       910       952      3568      3690      3687
 -1      1797    8    0    1
 -2       905       811       911      3553      3570      3691
 -1      1798    8    0    1
 -2       878       877       953      3460      3692      3693
 -1      1799    8    0    1
 -2       862       864       954      3420      3694      3695
 -1      1800    8    0    1
 -2       864       951       954      3686      3696      3694
 -1      1801    8    0    1
 -2       866       867       955      3429      3697      3698
 -1      1802    8    0    1
 -2       866       955       910      3698      3699      3567
 -1      1803    8    0    1
 -2       867       868       956      3432      3700      3701
 -1      1804    8    0    1
 -2       867       956       955      3701      3702      3697
 -1      1805    8    0    1
 -2       868       869       957      3435      3703      3704
 -1      1806    8    0    1
 -2       868       957       956      3704      3705      3700
 -1      1807    8    0    1
 -2       869       870       958      3438      3706      3707
 -1      1808    8    0    1
 -2       869       958       957      3707      3708      3703
 -1      1809    8    0    1
 -2       870       871       959      3441      3709      3710
 -1      1810    8    0    1
 -2       870       959       958      3710      3711      3706
 -1      1811    8    0    1
 -2       871       872       960      3444      3712      3713
 -1      1812    8    0    1
 -2       871       960       959      3713      3714      3709
 -1      1813    8    0    1
 -2       872       873       961      3447      3715      3716
 -1      1814    8    0    1
 -2       872       961       960      3716      3717      3712
 -1      1815    8    0    1
 -2       873       874       962      3450      3718      3719
 -1      1816    8    0    1
 -2       873       962       961      3719      3720      3715
 -1      1817    8    0    1
 -2       881       876       963      3533      3721      3722
 -1      1818    8    0    1
 -2       858       883       964      3475      3723      3724
 -1      1819    8    0    1
 -2       876       863       963      3531      3725      3721
 -1      1820    8    0    1
 -2       879       859       965      3463      3726      3727
 -1      1821    8    0    1
 -2       860       861       902      3412      3684      3728
 -1      1822    8    0    1
 -2       887       862       966      3486      3729      3730
 -1      1823    8    0    1
 -2       909       887       966      3566      3730      3731
 -1      1824    8    0    1
 -2       862       954       966      3695      3732      3729
 -1      1825    8    0    1
 -2       812       805       967      3264      3733      3734
 -1      1826    8    0    1
 -2       901       812       967      3537      3734      3735
 -1      1827    8    0    1
 -2       805       898       967      3525      3736      3733
 -1      1828    8    0    1
 -2       817       888       968      3489      3737      3738
 -1      1829    8    0    1
 -2       817       968       913      3738      3739      3573
 -1      1830    8    0    1
 -2       815       800       969      3500      3740      3741
 -1      1831    8    0    1
 -2       911       815       969      3569      3741      3742
 -1      1832    8    0    1
 -2       800       908       969      3561      3743      3740
 -1      1833    8    0    1
 -2       889       885       970      3559      3744      3745
 -1      1834    8    0    1
 -2       883       802       971      3540      3746      3747
 -1      1835    8    0    1
 -2       802       893       971      3507      3748      3746
 -1      1836    8    0    1
 -2       875       881       972      3532      3749      3750
 -1      1837    8    0    1
 -2       859       857       973      3406      3751      3752
 -1      1838    8    0    1
 -2       965       859       973      3726      3752      3753
 -1      1839    8    0    1
 -2       857       949       973      3680      3754      3751
 -1      1840    8    0    1
 -2       874       890       974      3495      3755      3756
 -1      1841    8    0    1
 -2       962       874       974      3718      3756      3757
 -1      1842    8    0    1
 -2       890       901       974      3539      3758      3755
 -1      1843    8    0    1
 -2       878       953       975      3693      3759      3760
 -1      1844    8    0    1
 -2       878       975       898      3760      3761      3526
 -1      1845    8    0    1
 -2       816       912       976      3572      3762      3763
 -1      1846    8    0    1
 -2       816       976       903      3763      3764      3544
 -1      1847    8    0    1
 -2       893       886       977      3508      3765      3766
 -1      1848    8    0    1
 -2       894       809       978      3511      3767      3768
 -1      1849    8    0    1
 -2       809       900       978      3535      3769      3767
 -1      1850    8    0    1
 -2       831       926       977      3612      3770      3771
 -1      1851    8    0    1
 -2       895       858       964      3512      3724      3772
 -1      1852    8    0    1
 -2       896       891       979      3518      3773      3774
 -1      1853    8    0    1
 -2       927       832       977      3614      3775      3776
 -1      1854    8    0    1
 -2       832       831       977      3326      3771      3775
 -1      1855    8    0    1
 -2       855       854       980      3396      3777      3778
 -1      1856    8    0    1
 -2       899       855       980      3530      3778      3779
 -1      1857    8    0    1
 -2       854       948       980      3677      3780      3777
 -1      1858    8    0    1
 -2       951       880       981      3685      3781      3782
 -1      1859    8    0    1
 -2       880       882       981      3471      3783      3781
 -1      1860    8    0    1
 -2       964       883       971      3723      3747      3784
 -1      1861    8    0    1
 -2       950       860       902      3681      3728      3785
 -1      1862    8    0    1
 -2       881       963       972      3722      3786      3749
 -1      1863    8    0    1
 -2       879       965       982      3727      3787      3788
 -1      1864    8    0    1
 -2       879       982       882      3788      3789      3472
 -1      1865    8    0    1
 -2       900       875       983      3536      3790      3791
 -1      1866    8    0    1
 -2       875       972       983      3750      3792      3790
 -1      1867    8    0    1
 -2       877       899       980      3529      3779      3793
 -1      1868    8    0    1
 -2       902       889       984      3543      3794      3795
 -1      1869    8    0    1
 -2       889       970       984      3745      3796      3794
 -1      1870    8    0    1
 -2       885       895       985      3514      3797      3798
 -1      1871    8    0    1
 -2       885       985       970      3798      3799      3744
 -1      1872    8    0    1
 -2       904       787       903      3547      3546      3800
 -1      1873    8    0    1
 -2       906       909       986      3565      3801      3802
 -1      1874    8    0    1
 -2       909       966       986      3731      3803      3801
 -1      1875    8    0    1
 -2       886       907       977      3557      3804      3765
 -1      1876    8    0    1
 -2       863       896       987      3517      3805      3806
 -1      1877    8    0    1
 -2       963       863       987      3725      3806      3807
 -1      1878    8    0    1
 -2       896       979       987      3774      3808      3805
 -1      1879    8    0    1
 -2       803       894       988      3510      3809      3810
 -1      1880    8    0    1
 -2       803       988       892      3810      3811      3505
 -1      1881    8    0    1
 -2       888       897       989      3521      3812      3813
 -1      1882    8    0    1
 -2       968       888       989      3737      3813      3814
 -1      1883    8    0    1
 -2       897       905       989      3552      3815      3812
 -1      1884    8    0    1
 -2       891       904       990      3549      3816      3817
 -1      1885    8    0    1
 -2       891       990       979      3817      3818      3773
 -1      1886    8    0    1
 -2       877       980       953      3793      3819      3692
 -1      1887    8    0    1
 -2       908       906       986      3562      3802      3820
 -1      1888    8    0    1
 -2       989       905       911      3815      3691      3821
 -1      1889    8    0    1
 -2       801       892       991      3504      3822      3823
 -1      1890    8    0    1
 -2       977       926       893      3770      3824      3766
 -1      1891    8    0    1
 -2       895       964       992      3772      3825      3826
 -1      1892    8    0    1
 -2       953       980       948      3819      3780      3827
 -1      1893    8    0    1
 -2       915       914       993      3580      3828      3829
 -1      1894    8    0    1
 -2       916       915       994      3583      3830      3831
 -1      1895    8    0    1
 -2       915       993       994      3829      3832      3830
 -1      1896    8    0    1
 -2       917       916       995      3586      3833      3834
 -1      1897    8    0    1
 -2       916       994       995      3831      3835      3833
 -1      1898    8    0    1
 -2       918       917       996      3589      3836      3837
 -1      1899    8    0    1
 -2       917       995       996      3834      3838      3836
 -1      1900    8    0    1
 -2       919       918       997      3592      3839      3840
 -1      1901    8    0    1
 -2       918       996       997      3837      3841      3839
 -1      1902    8    0    1
 -2       920       919       998      3595      3842      3843
 -1      1903    8    0    1
 -2       919       997       998      3840      3844      3842
 -1      1904    8    0    1
 -2       921       920       999      3598      3845      3846
 -1      1905    8    0    1
 -2       920       998       999      3843      3847      3845
 -1      1906    8    0    1
 -2       922       921      1000      3601      3848      3849
 -1      1907    8    0    1
 -2       921       999      1000      3846      3850      3848
 -1      1908    8    0    1
 -2       924       923       992      3607      3851      3852
 -1      1909    8    0    1
 -2       925       924       964      3610      3853      3854
 -1      1910    8    0    1
 -2       926       925       971      3613      3855      3856
 -1      1911    8    0    1
 -2       930       929      1001      3624      3857      3858
 -1      1912    8    0    1
 -2       931       930      1002      3627      3859      3860
 -1      1913    8    0    1
 -2       930      1001      1002      3858      3861      3859
 -1      1914    8    0    1
 -2       932       931      1003      3630      3862      3863
 -1      1915    8    0    1
 -2       931      1002      1003      3860      3864      3862
 -1      1916    8    0    1
 -2       933       932      1004      3633      3865      3866
 -1      1917    8    0    1
 -2       932      1003      1004      3863      3867      3865
 -1      1918    8    0    1
 -2       934       933      1005      3636      3868      3869
 -1      1919    8    0    1
 -2       933      1004      1005      3866      3870      3868
 -1      1920    8    0    1
 -2       935       934      1006      3639      3871      3872
 -1      1921    8    0    1
 -2       934      1005      1006      3869      3873      3871
 -1      1922    8    0    1
 -2       936       935      1007      3642      3874      3875
 -1      1923    8    0    1
 -2       935      1006      1007      3872      3876      3874
 -1      1924    8    0    1
 -2       937       936      1008      3645      3877      3878
 -1      1925    8    0    1
 -2       936      1007      1008      3875      3879      3877
 -1      1926    8    0    1
 -2       938       937      1009      3648      3880      3881
 -1      1927    8    0    1
 -2       937      1008      1009      3878      3882      3880
 -1      1928    8    0    1
 -2       939       938      1010      3651      3883      3884
 -1      1929    8    0    1
 -2       938      1009      1010      3881      3885      3883
 -1      1930    8    0    1
 -2       940       939      1011      3654      3886      3887
 -1      1931    8    0    1
 -2       939      1010      1011      3884      3888      3886
 -1      1932    8    0    1
 -2       941       940      1012      3657      3889      3890
 -1      1933    8    0    1
 -2       940      1011      1012      3887      3891      3889
 -1      1934    8    0    1
 -2       942       941      1013      3660      3892      3893
 -1      1935    8    0    1
 -2       941      1012      1013      3890      3894      3892
 -1      1936    8    0    1
 -2       943       942      1014      3663      3895      3896
 -1      1937    8    0    1
 -2       942      1013      1014      3893      3897      3895
 -1      1938    8    0    1
 -2       944       943      1015      3666      3898      3899
 -1      1939    8    0    1
 -2       943      1014      1015      3896      3900      3898
 -1      1940    8    0    1
 -2       945       944      1016      3669      3901      3902
 -1      1941    8    0    1
 -2       944      1015      1016      3899      3903      3901
 -1      1942    8    0    1
 -2       946       945      1017      3672      3904      3905
 -1      1943    8    0    1
 -2       945      1016      1017      3902      3906      3904
 -1      1944    8    0    1
 -2       947       946      1018      3675      3907      3908
 -1      1945    8    0    1
 -2       946      1017      1018      3905      3909      3907
 -1      1946    8    0    1
 -2       948       947      1019      3678      3910      3911
 -1      1947    8    0    1
 -2       947      1018      1019      3908      3912      3910
 -1      1948    8    0    1
 -2       949       950      1020      3683      3913      3914
 -1      1949    8    0    1
 -2       908       986      1021      3820      3915      3916
 -1      1950    8    0    1
 -2       928       927       991      3618      3917      3918
 -1      1951    8    0    1
 -2       956       957      1022      3705      3919      3920
 -1      1952    8    0    1
 -2       957       958      1023      3708      3921      3922
 -1      1953    8    0    1
 -2       957      1023      1022      3922      3923      3919
 -1      1954    8    0    1
 -2       958       959      1024      3711      3924      3925
 -1      1955    8    0    1
 -2       958      1024      1023      3925      3926      3921
 -1      1956    8    0    1
 -2       914       913      1025      3577      3927      3928
 -1      1957    8    0    1
 -2       914      1025       993      3928      3929      3828
 -1      1958    8    0    1
 -2       959       960      1026      3714      3930      3931
 -1      1959    8    0    1
 -2       959      1026      1024      3931      3932      3924
 -1      1960    8    0    1
 -2       960       961      1027      3717      3933      3934
 -1      1961    8    0    1
 -2       960      1027      1026      3934      3935      3930
 -1      1962    8    0    1
 -2       961       962      1028      3720      3936      3937
 -1      1963    8    0    1
 -2       961      1028      1027      3937      3938      3933
 -1      1964    8    0    1
 -2       801       991       907      3823      3939      3558
 -1      1965    8    0    1
 -2       893       926       971      3824      3856      3748
 -1      1966    8    0    1
 -2       953       948      1019      3827      3911      3940
 -1      1967    8    0    1
 -2       925       964       971      3854      3784      3855
 -1      1968    8    0    1
 -2       928       991      1029      3918      3941      3942
 -1      1969    8    0    1
 -2       929       928      1029      3621      3942      3943
 -1      1970    8    0    1
 -2       991       892      1029      3822      3944      3941
 -1      1971    8    0    1
 -2       972       963      1030      3786      3945      3946
 -1      1972    8    0    1
 -2       963       987      1030      3807      3947      3945
 -1      1973    8    0    1
 -2       955       956      1031      3702      3948      3949
 -1      1974    8    0    1
 -2       956      1022      1031      3920      3950      3948
 -1      1975    8    0    1
 -2       954       951      1032      3696      3951      3952
 -1      1976    8    0    1
 -2       968       989      1033      3814      3953      3954
 -1      1977    8    0    1
 -2       989       911      1033      3821      3955      3953
 -1      1978    8    0    1
 -2       950       902       984      3785      3795      3956
 -1      1979    8    0    1
 -2       913       968      1034      3739      3957      3958
 -1      1980    8    0    1
 -2       913      1034      1025      3958      3959      3927
 -1      1981    8    0    1
 -2       964       924       992      3853      3852      3825
 -1      1982    8    0    1
 -2       910       955      1035      3699      3960      3961
 -1      1983    8    0    1
 -2       955      1031      1035      3949      3962      3960
 -1      1984    8    0    1
 -2       904       903      1036      3800      3963      3964
 -1      1985    8    0    1
 -2       990       904      1036      3816      3964      3965
 -1      1986    8    0    1
 -2       903       976      1036      3764      3966      3963
 -1      1987    8    0    1
 -2       979       990      1037      3818      3967      3968
 -1      1988    8    0    1
 -2       976       912      1038      3762      3969      3970
 -1      1989    8    0    1
 -2       962       974      1039      3757      3971      3972
 -1      1990    8    0    1
 -2       962      1039      1028      3972      3973      3936
 -1      1991    8    0    1
 -2       894       978      1002      3768      3974      3975
 -1      1992    8    0    1
 -2       910      1035      1040      3961      3976      3977
 -1      1993    8    0    1
 -2       910      1040       952      3977      3978      3690
 -1      1994    8    0    1
 -2       927       977       907      3776      3804      3979
 -1      1995    8    0    1
 -2       992       923      1041      3851      3980      3981
 -1      1996    8    0    1
 -2       895       992      1041      3826      3981      3982
 -1      1997    8    0    1
 -2       923       922      1041      3604      3983      3980
 -1      1998    8    0    1
 -2       951       981      1042      3782      3984      3985
 -1      1999    8    0    1
 -2       951      1042      1032      3985      3986      3951
 -1      2000    8    0    1
 -2       949      1020      1043      3914      3987      3988
 -1      2001    8    0    1
 -2       949      1043       973      3988      3989      3754
 -1      2002    8    0    1
 -2       895      1041       985      3982      3990      3797
 -1      2003    8    0    1
 -2       908      1021       969      3916      3991      3743
 -1      2004    8    0    1
 -2      1041       922      1000      3983      3849      3992
 -1      2005    8    0    1
 -2       927       907       991      3979      3939      3917
 -1      2006    8    0    1
 -2       912       952      1044      3689      3993      3994
 -1      2007    8    0    1
 -2      1038       912      1044      3969      3994      3995
 -1      2008    8    0    1
 -2       952      1040      1044      3978      3996      3993
 -1      2009    8    0    1
 -2      1033       911       969      3955      3742      3997
 -1      2010    8    0    1
 -2       981       882       982      3783      3789      3998
 -1      2011    8    0    1
 -2       982       965      1045      3787      3999      4000
 -1      2012    8    0    1
 -2       975       953      1046      3759      4001      4002
 -1      2013    8    0    1
 -2       953      1019      1046      3940      4003      4001
 -1      2014    8    0    1
 -2       983       972      1047      3792      4004      4005
 -1      2015    8    0    1
 -2       972      1030      1047      3946      4006      4004
 -1      2016    8    0    1
 -2       892       988      1029      3811      4007      3944
 -1      2017    8    0    1
 -2       974       901      1048      3758      4008      4009
 -1      2018    8    0    1
 -2      1039       974      1048      3971      4009      4010
 -1      2019    8    0    1
 -2       901       967      1048      3735      4011      4008
 -1      2020    8    0    1
 -2       984       970      1049      3796      4012      4013
 -1      2021    8    0    1
 -2       898       975      1050      3761      4014      4015
 -1      2022    8    0    1
 -2       967       898      1050      3736      4015      4016
 -1      2023    8    0    1
 -2       975      1046      1050      4002      4017      4014
 -1      2024    8    0    1
 -2       966       954      1051      3732      4018      4019
 -1      2025    8    0    1
 -2       986       966      1051      3803      4019      4020
 -1      2026    8    0    1
 -2       954      1032      1051      3952      4021      4018
 -1      2027    8    0    1
 -2      1021       986      1051      3915      4020      4022
 -1      2028    8    0    1
 -2       987       979      1052      3808      4023      4024
 -1      2029    8    0    1
 -2      1030       987      1052      3947      4024      4025
 -1      2030    8    0    1
 -2       979      1037      1052      3968      4026      4023
 -1      2031    8    0    1
 -2       900       983      1053      3791      4027      4028
 -1      2032    8    0    1
 -2       900      1053       978      4028      4029      3769
 -1      2033    8    0    1
 -2       968      1033      1034      3954      4030      3957
 -1      2034    8    0    1
 -2      1001       929      1029      3857      3943      4031
 -1      2035    8    0    1
 -2       965       973      1054      3753      4032      4033
 -1      2036    8    0    1
 -2      1045       965      1054      3999      4033      4034
 -1      2037    8    0    1
 -2       973      1043      1054      3989      4035      4032
 -1      2038    8    0    1
 -2      1049       970       985      4012      3799      4036
 -1      2039    8    0    1
 -2       950       984      1055      3956      4037      4038
 -1      2040    8    0    1
 -2      1020       950      1055      3913      4038      4039
 -1      2041    8    0    1
 -2       984      1049      1055      4013      4040      4037
 -1      2042    8    0    1
 -2       976      1038      1056      3970      4041      4042
 -1      2043    8    0    1
 -2       976      1056      1036      4042      4043      3966
 -1      2044    8    0    1
 -2      1002       978      1057      3974      4044      4045
 -1      2045    8    0    1
 -2      1003      1002      1057      3864      4045      4046
 -1      2046    8    0    1
 -2       978      1053      1057      4029      4047      4044
 -1      2047    8    0    1
 -2      1033       969      1021      3997      3991      4048
 -1      2048    8    0    1
 -2      1024      1026      1058      3932      4049      4050
 -1      2049    8    0    1
 -2       995       994      1059      3835      4051      4052
 -1      2050    8    0    1
 -2       996       995      1060      3838      4053      4054
 -1      2051    8    0    1
 -2       995      1059      1060      4052      4055      4053
 -1      2052    8    0    1
 -2       997       996      1061      3841      4056      4057
 -1      2053    8    0    1
 -2       996      1060      1061      4054      4058      4056
 -1      2054    8    0    1
 -2       998       997      1062      3844      4059      4060
 -1      2055    8    0    1
 -2       997      1061      1062      4057      4061      4059
 -1      2056    8    0    1
 -2       999       998      1063      3847      4062      4063
 -1      2057    8    0    1
 -2       998      1062      1063      4060      4064      4062
 -1      2058    8    0    1
 -2      1004      1003      1064      3867      4065      4066
 -1      2059    8    0    1
 -2      1003      1057      1064      4046      4067      4065
 -1      2060    8    0    1
 -2      1005      1004      1065      3870      4068      4069
 -1      2061    8    0    1
 -2      1004      1064      1065      4066      4070      4068
 -1      2062    8    0    1
 -2      1006      1005      1066      3873      4071      4072
 -1      2063    8    0    1
 -2      1005      1065      1066      4069      4073      4071
 -1      2064    8    0    1
 -2      1007      1006      1067      3876      4074      4075
 -1      2065    8    0    1
 -2      1006      1066      1067      4072      4076      4074
 -1      2066    8    0    1
 -2      1008      1007      1068      3879      4077      4078
 -1      2067    8    0    1
 -2      1007      1067      1068      4075      4079      4077
 -1      2068    8    0    1
 -2      1009      1008      1069      3882      4080      4081
 -1      2069    8    0    1
 -2      1008      1068      1069      4078      4082      4080
 -1      2070    8    0    1
 -2      1010      1009      1070      3885      4083      4084
 -1      2071    8    0    1
 -2      1009      1069      1070      4081      4085      4083
 -1      2072    8    0    1
 -2      1011      1010      1071      3888      4086      4087
 -1      2073    8    0    1
 -2      1010      1070      1071      4084      4088      4086
 -1      2074    8    0    1
 -2      1012      1011      1072      3891      4089      4090
 -1      2075    8    0    1
 -2      1011      1071      1072      4087      4091      4089
 -1      2076    8    0    1
 -2      1013      1012      1073      3894      4092      4093
 -1      2077    8    0    1
 -2      1012      1072      1073      4090      4094      4092
 -1      2078    8    0    1
 -2      1014      1013      1074      3897      4095      4096
 -1      2079    8    0    1
 -2      1013      1073      1074      4093      4097      4095
 -1      2080    8    0    1
 -2      1015      1014      1075      3900      4098      4099
 -1      2081    8    0    1
 -2      1014      1074      1075      4096      4100      4098
 -1      2082    8    0    1
 -2      1016      1015      1076      3903      4101      4102
 -1      2083    8    0    1
 -2      1015      1075      1076      4099      4103      4101
 -1      2084    8    0    1
 -2      1017      1016      1077      3906      4104      4105
 -1      2085    8    0    1
 -2      1016      1076      1077      4102      4106      4104
 -1      2086    8    0    1
 -2      1018      1017      1078      3909      4107      4108
 -1      2087    8    0    1
 -2      1017      1077      1078      4105      4109      4107
 -1      2088    8    0    1
 -2      1019      1018      1046      3912      4110      4003
 -1      2089    8    0    1
 -2      1033      1021      1034      4048      4111      4030
 -1      2090    8    0    1
 -2      1034      1021      1079      4111      4112      4113
 -1      2091    8    0    1
 -2      1021      1051      1079      4022      4114      4112
 -1      2092    8    0    1
 -2       993      1025      1080      3929      4115      4116
 -1      2093    8    0    1
 -2      1022      1023      1081      3923      4117      4118
 -1      2094    8    0    1
 -2      1026      1027      1082      3935      4119      4120
 -1      2095    8    0    1
 -2      1026      1082      1058      4120      4121      4049
 -1      2096    8    0    1
 -2      1027      1028      1083      3938      4122      4123
 -1      2097    8    0    1
 -2      1027      1083      1082      4123      4124      4119
 -1      2098    8    0    1
 -2       894      1002      1001      3975      3861      4125
 -1      2099    8    0    1
 -2      1023      1024      1084      3926      4126      4127
 -1      2100    8    0    1
 -2      1081      1023      1084      4117      4127      4128
 -1      2101    8    0    1
 -2      1024      1058      1084      4050      4129      4126
 -1      2102    8    0    1
 -2       981       982      1085      3998      4130      4131
 -1      2103    8    0    1
 -2       981      1085      1042      4131      4132      3984
 -1      2104    8    0    1
 -2      1031      1022      1086      3950      4133      4134
 -1      2105    8    0    1
 -2      1022      1081      1086      4118      4135      4133
 -1      2106    8    0    1
 -2      1035      1031      1087      3962      4136      4137
 -1      2107    8    0    1
 -2      1031      1086      1087      4134      4138      4136
 -1      2108    8    0    1
 -2      1049       985      1088      4036      4139      4140
 -1      2109    8    0    1
 -2       982      1045      1085      4000      4141      4130
 -1      2110    8    0    1
 -2       994       993      1089      3832      4142      4143
 -1      2111    8    0    1
 -2       994      1089      1059      4143      4144      4051
 -1      2112    8    0    1
 -2      1025      1034      1079      3959      4113      4145
 -1      2113    8    0    1
 -2      1051      1032      1079      4021      4146      4114
 -1      2114    8    0    1
 -2      1028      1039      1083      3973      4147      4122
 -1      2115    8    0    1
 -2       990      1036      1090      3965      4148      4149
 -1      2116    8    0    1
 -2      1037       990      1090      3967      4149      4150
 -1      2117    8    0    1
 -2      1036      1056      1090      4043      4151      4148
 -1      2118    8    0    1
 -2       999      1063      1088      4063      4152      4153
 -1      2119    8    0    1
 -2      1000       999      1088      3850      4153      4154
 -1      2120    8    0    1
 -2      1043      1020      1091      3987      4155      4156
 -1      2121    8    0    1
 -2      1053       983      1092      4027      4157      4158
 -1      2122    8    0    1
 -2       983      1047      1092      4005      4159      4157
 -1      2123    8    0    1
 -2      1025      1079      1080      4145      4160      4115
 -1      2124    8    0    1
 -2       894      1001       988      4125      4161      3809
 -1      2125    8    0    1
 -2      1056      1038      1093      4041      4162      4163
 -1      2126    8    0    1
 -2       993      1080      1089      4116      4164      4142
 -1      2127    8    0    1
 -2       988      1001      1029      4161      4031      4007
 -1      2128    8    0    1
 -2      1091      1020      1055      4155      4039      4165
 -1      2129    8    0    1
 -2      1093      1038      1094      4162      4166      4167
 -1      2130    8    0    1
 -2      1038      1044      1094      3995      4168      4166
 -1      2131    8    0    1
 -2      1035      1087      1095      4137      4169      4170
 -1      2132    8    0    1
 -2      1035      1095      1040      4170      4171      3976
 -1      2133    8    0    1
 -2      1037      1090      1096      4150      4172      4173
 -1      2134    8    0    1
 -2      1037      1096      1097      4173      4174      4175
 -1      2135    8    0    1
 -2      1037      1097      1052      4175      4176      4026
 -1      2136    8    0    1
 -2      1030      1052      1098      4025      4177      4178
 -1      2137    8    0    1
 -2      1047      1030      1098      4006      4178      4179
 -1      2138    8    0    1
 -2      1052      1097      1098      4176      4180      4177
 -1      2139    8    0    1
 -2      1049      1088      1063      4140      4152      4181
 -1      2140    8    0    1
 -2      1085      1045      1099      4141      4182      4183
 -1      2141    8    0    1
 -2       985      1041      1000      3990      3992      4184
 -1      2142    8    0    1
 -2      1045      1054      1100      4034      4185      4186
 -1      2143    8    0    1
 -2      1045      1100      1099      4186      4187      4182
 -1      2144    8    0    1
 -2      1055      1049      1063      4040      4181      4188
 -1      2145    8    0    1
 -2      1079      1032      1101      4146      4189      4190
 -1      2146    8    0    1
 -2      1080      1079      1101      4160      4190      4191
 -1      2147    8    0    1
 -2      1032      1042      1101      3986      4192      4189
 -1      2148    8    0    1
 -2       985      1000      1088      4184      4154      4139
 -1      2149    8    0    1
 -2      1057      1053      1092      4047      4158      4193
 -1      2150    8    0    1
 -2      1090      1056      1102      4151      4194      4195
 -1      2151    8    0    1
 -2      1090      1102      1096      4195      4196      4172
 -1      2152    8    0    1
 -2      1060      1059      1100      4055      4197      4198
 -1      2153    8    0    1
 -2      1082      1083      1103      4124      4199      4200
 -1      2154    8    0    1
 -2      1018      1078      1046      4108      4201      4110
 -1      2155    8    0    1
 -2      1061      1060      1100      4058      4198      4202
 -1      2156    8    0    1
 -2      1062      1061      1091      4061      4203      4204
 -1      2157    8    0    1
 -2      1063      1062      1091      4064      4204      4205
 -1      2158    8    0    1
 -2      1064      1057      1092      4067      4193      4206
 -1      2159    8    0    1
 -2      1065      1064      1098      4070      4207      4208
 -1      2160    8    0    1
 -2      1066      1065      1097      4073      4209      4210
 -1      2161    8    0    1
 -2      1067      1066      1096      4076      4211      4212
 -1      2162    8    0    1
 -2      1068      1067      1102      4079      4213      4214
 -1      2163    8    0    1
 -2      1069      1068      1093      4082      4215      4216
 -1      2164    8    0    1
 -2      1070      1069      1094      4085      4217      4218
 -1      2165    8    0    1
 -2      1072      1071      1104      4091      4219      4220
 -1      2166    8    0    1
 -2      1073      1072      1087      4094      4221      4222
 -1      2167    8    0    1
 -2      1074      1073      1086      4097      4223      4224
 -1      2168    8    0    1
 -2      1075      1074      1081      4100      4225      4226
 -1      2169    8    0    1
 -2      1076      1075      1084      4103      4227      4228
 -1      2170    8    0    1
 -2      1077      1076      1058      4106      4229      4230
 -1      2171    8    0    1
 -2      1059      1089      1099      4144      4231      4232
 -1      2172    8    0    1
 -2      1089      1080      1101      4164      4191      4233
 -1      2173    8    0    1
 -2      1099      1089      1101      4231      4233      4234
 -1      2174    8    0    1
 -2      1083      1039      1050      4147      4235      4236
 -1      2175    8    0    1
 -2      1058      1082      1077      4121      4237      4230
 -1      2176    8    0    1
 -2      1044      1040      1105      3996      4238      4239
 -1      2177    8    0    1
 -2      1094      1044      1105      4168      4239      4240
 -1      2178    8    0    1
 -2      1040      1095      1105      4171      4241      4238
 -1      2179    8    0    1
 -2      1081      1074      1086      4225      4224      4135
 -1      2180    8    0    1
 -2      1086      1073      1087      4223      4222      4138
 -1      2181    8    0    1
 -2      1048       967      1050      4011      4016      4242
 -1      2182    8    0    1
 -2      1056      1093      1102      4163      4243      4194
 -1      2183    8    0    1
 -2      1050      1046      1083      4017      4244      4236
 -1      2184    8    0    1
 -2      1055      1063      1091      4188      4205      4165
 -1      2185    8    0    1
 -2      1054      1043      1106      4035      4245      4246
 -1      2186    8    0    1
 -2      1100      1054      1106      4185      4246      4247
 -1      2187    8    0    1
 -2      1043      1091      1106      4156      4248      4245
 -1      2188    8    0    1
 -2      1058      1076      1084      4229      4228      4129
 -1      2189    8    0    1
 -2      1093      1068      1102      4215      4214      4243
 -1      2190    8    0    1
 -2      1059      1099      1100      4232      4187      4197
 -1      2191    8    0    1
 -2      1083      1046      1103      4244      4249      4199
 -1      2192    8    0    1
 -2      1103      1046      1078      4249      4201      4250
 -1      2193    8    0    1
 -2      1096      1066      1097      4211      4210      4174
 -1      2194    8    0    1
 -2      1091      1061      1106      4203      4251      4248
 -1      2195    8    0    1
 -2      1096      1102      1067      4196      4213      4212
 -1      2196    8    0    1
 -2      1069      1093      1094      4216      4167      4217
 -1      2197    8    0    1
 -2      1070      1094      1105      4218      4240      4252
 -1      2198    8    0    1
 -2      1071      1070      1105      4088      4252      4253
 -1      2199    8    0    1
 -2      1075      1081      1084      4226      4128      4227
 -1      2200    8    0    1
 -2      1078      1077      1103      4109      4254      4250
 -1      2201    8    0    1
 -2      1050      1039      1048      4235      4010      4242
 -1      2202    8    0    1
 -2      1077      1082      1103      4237      4200      4254
 -1      2203    8    0    1
 -2      1085      1099      1101      4183      4234      4255
 -1      2204    8    0    1
 -2      1042      1085      1101      4132      4255      4192
 -1      2205    8    0    1
 -2      1106      1061      1100      4251      4202      4247
 -1      2206    8    0    1
 -2      1087      1072      1104      4221      4220      4256
 -1      2207    8    0    1
 -2      1092      1047      1098      4159      4179      4257
 -1      2208    8    0    1
 -2      1097      1065      1098      4209      4208      4180
 -1      2209    8    0    1
 -2      1071      1105      1104      4253      4258      4219
 -1      2210    8    0    1
 -2      1095      1087      1104      4169      4256      4259
 -1      2211    8    0    1
 -2      1105      1095      1104      4241      4259      4258
 -1      2212    8    0    1
 -2      1098      1064      1092      4207      4206      4257
 -3
    1PSTEP                         1           1           1          
  100CL  101 1.000000000        4259                     0    1           1
 -4  DISP        4    1
 -5  D1          1    2    1    0
 -5  D2          1    2    2    0
 -5  D3          1    2    3    0
 -5  ALL         1    2    0    0    1ALL
 -1         1 8.27965E-03 3.85592E-04-2.75084E-14
 -1         2 1.01365E-02 1.31855E-03-3.00508E-14
 -1         3 1.75143E-02 7.66939E-03-1.12828E-13
 -1         4 1.33655E-02 6.24109E-03-1.19124E-13
 -1         5 0.00000E+00 0.00000E+00 0.00000E+00
 -1         6 0.00000E+00 0.00000E+00 0.00000E+00
 -1         7 0.00000E+00 0.00000E+00 0.00000E+00
 -1         8 0.00000E+00 0.00000E+00 0.00000E+00
 -1         9 0.00000E+00 0.00000E+00 0.00000E+00
 -1        10 0.00000E+00 0.00000E+00 0.00000E+00
 -1        11 0.00000E+00 0.00000E+00 0.00000E+00
 -1        12 0.00000E+00 0.00000E+00 0.00000E+00
 -1        13 0.00000E+00 0.00000E+00 0.00000E+00
 -1        14 0.00000E+00 0.00000E+00 0.00000E+00
 -1        15 0.00000E+00 0.00000E+00 0.00000E+00
 -1        16 0.00000E+00 0.00000E+00 0.00000E+00
 -1        17 0.00000E+00 0.00000E+00 0.00000E+00
 -1        18 0.00000E+00 0.00000E+00 0.00000E+00
 -1        19 0.00000E+00 0.00000E+00 0.00000E+00
 -1        20 0.00000E+00 0.00000E+00 0.00000E+00
 -1        21 0.00000E+00 0.00000E+00 0.00000E+00
 -1        22 0.00000E+00 0.00000E+00 0.00000E+00
 -1        23 4.11690E-04-2.60875E-04 1.99764E-17
 -1        24 7.03959E-04-4.01271E-04-1.03128E-16
 -1        25 9.74330E-04-4.98887E-04-3.63191E-16
 -1        26 1.23914E-03-5.67991E-04-7.56241E-16
 -1        27 1.50301E-03-6.17778E-04-1.27557E-15
 -1        28 1.76801E-03-6.53706E-04-1.91745E-15
 -1        29 2.03503E-03-6.79580E-04-2.68187E-15
 -1        30 2.30433E-03-6.98215E-04-3.56692E-15
 -1        31 2.57576E-03-7.11764E-04-4.56902E-15
 -1        32 2.84886E-03-7.21883E-04-5.68414E-15
 -1        33 3.12289E-03-7.29804E-04-6.90675E-15
 -1        34 3.39683E-03-7.36347E-04-8.22997E-15
 -1        35 3.66936E-03-7.41865E-04-9.65399E-15
 -1        36 3.93886E-03-7.46132E-04-1.11785E-14
 -1        37 4.20345E-03-7.48185E-04-1.27997E-14
 -1        38 4.46112E-03-7.46146E-04-1.45176E-14
 -1        39 4.70997E-03-7.37094E-04-1.63313E-14
 -1        40 4.94860E-03-7.17078E-04-1.82434E-14
 -1        41 5.17650E-03-6.81356E-04-2.02522E-14
 -1        42 5.39445E-03-6.24924E-04-2.23568E-14
 -1        43 5.60468E-03-5.43280E-04-2.45582E-14
 -1        44 5.81071E-03-4.33269E-04-2.68613E-14
 -1        45 6.01682E-03-2.93747E-04-2.92689E-14
 -1        46 6.22731E-03-1.25831E-04-3.17861E-14
 -1        47 6.44574E-03 6.73412E-05-3.44069E-14
 -1        48 6.67440E-03 2.81274E-04-3.71242E-14
 -1        49 6.91419E-03 5.10941E-04-3.99363E-14
 -1        50 7.16472E-03 7.51545E-04-4.28447E-14
 -1        51 7.42474E-03 9.99031E-04-4.58455E-14
 -1        52 7.69256E-03 1.25031E-03-4.89412E-14
 -1        53 7.96638E-03 1.50327E-03-5.21100E-14
 -1        54 8.24459E-03 1.75659E-03-5.53437E-14
 -1        55 8.52582E-03 2.00955E-03-5.86429E-14
 -1        56 8.80904E-03 2.26185E-03-6.19904E-14
 -1        57 9.09352E-03 2.51342E-03-6.53797E-14
 -1        58 9.37873E-03 2.76432E-03-6.88005E-14
 -1        59 9.66435E-03 3.01467E-03-7.22492E-14
 -1        60 9.95016E-03 3.26458E-03-7.57367E-14
 -1        61 1.02361E-02 3.51418E-03-7.92579E-14
 -1        62 1.05220E-02 3.76354E-03-8.28146E-14
 -1        63 1.08079E-02 4.01274E-03-8.64060E-14
 -1        64 1.10937E-02 4.26184E-03-9.00346E-14
 -1        65 1.13796E-02 4.51087E-03-9.36795E-14
 -1        66 1.16654E-02 4.75985E-03-9.73210E-14
 -1        67 1.19511E-02 5.00881E-03-1.00957E-13
 -1        68 1.22369E-02 5.25775E-03-1.04599E-13
 -1        69 1.25226E-02 5.50669E-03-1.08260E-13
 -1        70 1.28084E-02 5.75564E-03-1.11930E-13
 -1        71 1.30941E-02 6.00458E-03-1.15617E-13
 -1        72 3.95546E-04 2.52328E-04 6.17656E-17
 -1        73 6.89850E-04 3.95448E-04 2.00001E-17
 -1        74 9.60566E-04 4.94540E-04-1.32906E-16
 -1        75 1.22533E-03 5.64395E-04-3.98888E-16
 -1        76 1.48898E-03 6.14338E-04-7.75652E-16
 -1        77 1.75374E-03 6.49801E-04-1.26577E-15
 -1        78 2.02068E-03 6.74457E-04-1.86905E-15
 -1        79 2.29034E-03 6.90899E-04-2.58117E-15
 -1        80 2.56304E-03 7.00975E-04-3.39700E-15
 -1        81 2.83918E-03 7.05980E-04-4.31754E-15
 -1        82 3.11949E-03 7.06796E-04-5.33834E-15
 -1        83 3.40539E-03 7.04070E-04-6.45616E-15
 -1        84 3.69969E-03 6.98555E-04-7.66733E-15
 -1        85 4.00753E-03 6.91822E-04-8.97619E-15
 -1        86 4.33810E-03 6.87910E-04-1.03838E-14
 -1        87 4.70702E-03 6.96986E-04-1.18830E-14
 -1        88 5.13858E-03 7.42947E-04-1.34774E-14
 -1        89 5.63517E-03 8.67579E-04-1.50724E-14
 -1        90 6.26742E-03 1.17259E-03-1.68338E-14
 -1        91 6.86224E-03 1.65462E-03-1.84051E-14
 -1        92 7.34589E-03 2.24897E-03-1.98586E-14
 -1        93 7.67363E-03 2.81698E-03-2.12875E-14
 -1        94 7.86291E-03 3.15641E-03-2.28010E-14
 -1        95 8.04483E-03 3.07510E-03-2.45411E-14
 -1        96 8.36844E-03 2.67178E-03-2.64036E-14
 -1        97 8.87686E-03 2.22447E-03-2.84856E-14
 -1        98 9.50738E-03 1.93354E-03-3.09075E-14
 -1        99 1.01107E-02 1.87645E-03-3.35228E-14
 -1       100 1.06363E-02 1.99083E-03-3.63400E-14
 -1       101 1.10689E-02 2.19349E-03-3.92180E-14
 -1       102 1.14398E-02 2.43308E-03-4.21578E-14
 -1       103 1.17734E-02 2.68582E-03-4.51488E-14
 -1       104 1.20854E-02 2.94184E-03-4.82069E-14
 -1       105 1.23853E-02 3.19750E-03-5.13345E-14
 -1       106 1.26640E-02 3.43908E-03-5.43813E-14
 -1       107 1.29537E-02 3.69192E-03-5.76345E-14
 -1       108 1.32414E-02 3.94354E-03-6.09338E-14
 -1       109 1.35280E-02 4.19423E-03-6.42645E-14
 -1       110 1.38141E-02 4.44428E-03-6.76337E-14
 -1       111 1.41000E-02 4.69390E-03-7.10448E-14
 -1       112 1.43857E-02 4.94324E-03-7.44655E-14
 -1       113 1.46714E-02 5.19240E-03-7.79049E-14
 -1       114 1.49571E-02 5.44145E-03-8.13811E-14
 -1       115 1.52428E-02 5.69045E-03-8.48741E-14
 -1       116 1.55286E-02 5.93940E-03-8.83872E-14
 -1       117 1.58143E-02 6.18834E-03-9.19075E-14
 -1       118 1.61000E-02 6.43727E-03-9.54248E-14
 -1       119 1.63857E-02 6.68619E-03-9.89397E-14
 -1       120 1.66714E-02 6.93511E-03-1.02464E-13
 -1       121 1.69571E-02 7.18402E-03-1.06014E-13
 -1       122 1.72428E-02 7.43293E-03-1.09534E-13
 -1       123 1.72695E-02 7.58511E-03-1.13093E-13
 -1       124 1.70247E-02 7.50082E-03-1.13412E-13
 -1       125 1.67800E-02 7.41654E-03-1.13794E-13
 -1       126 1.65352E-02 7.33225E-03-1.14165E-13
 -1       127 1.62905E-02 7.24797E-03-1.14529E-13
 -1       128 1.60499E-02 7.16513E-03-1.14860E-13
 -1       129 1.58051E-02 7.08087E-03-1.15188E-13
 -1       130 1.55604E-02 6.99661E-03-1.15567E-13
 -1       131 1.53156E-02 6.91236E-03-1.15950E-13
 -1       132 1.50709E-02 6.82811E-03-1.16350E-13
 -1       133 1.48261E-02 6.74386E-03-1.16748E-13
 -1       134 1.45854E-02 6.66104E-03-1.17143E-13
 -1       135 1.43406E-02 6.57678E-03-1.17530E-13
 -1       136 1.40958E-02 6.49251E-03-1.17919E-13
 -1       137 1.38510E-02 6.40823E-03-1.18306E-13
 -1       138 1.36062E-02 6.32395E-03-1.18730E-13
 -1       139 1.02149E-02 1.52752E-03-2.97534E-14
 -1       140 1.01725E-02 1.75155E-03-2.91867E-14
 -1       141 9.98080E-03 2.01893E-03-2.83092E-14
 -1       142 9.68369E-03 2.28440E-03-2.73772E-14
 -1       143 9.24619E-03 2.57275E-03-2.63158E-14
 -1       144 8.63903E-03 2.83539E-03-2.51120E-14
 -1       145 7.92628E-03 2.95088E-03-2.39135E-14
 -1       146 7.16742E-03 2.83190E-03-2.27666E-14
 -1       147 6.50877E-03 2.54097E-03-2.18183E-14
 -1       148 5.92552E-03 2.15831E-03-2.09799E-14
 -1       149 5.44347E-03 1.76593E-03-2.02837E-14
 -1       150 5.09437E-03 1.42654E-03-1.97839E-14
 -1       151 4.86265E-03 1.14216E-03-1.94820E-14
 -1       152 4.74168E-03 9.03156E-04-1.93786E-14
 -1       153 4.72818E-03 6.76054E-04-1.95014E-14
 -1       154 4.82339E-03 5.03409E-04-1.98264E-14
 -1       155 5.03216E-03 3.52227E-04-2.03895E-14
 -1       156 5.31464E-03 2.43121E-04-2.10845E-14
 -1       157 5.67014E-03 1.67991E-04-2.19157E-14
 -1       158 6.13282E-03 1.25483E-04-2.29704E-14
 -1       159 6.66384E-03 1.28935E-04-2.41465E-14
 -1       160 7.19378E-03 1.75228E-04-2.52884E-14
 -1       161 7.74761E-03 2.63150E-04-2.64431E-14
 -1       162 8.80079E-03 5.42898E-04-2.84760E-14
 -1       163 9.26211E-03 7.21336E-04-2.92481E-14
 -1       164 9.65184E-03 9.15577E-04-2.97940E-14
 -1       165 9.94828E-03 1.11691E-03-3.00656E-14
 -1       166 2.40529E-04-1.25553E-04-3.44065E-17
 -1       167 2.25332E-04-9.46398E-05-5.07339E-17
 -1       168 2.19525E-04-7.28006E-05-5.88010E-17
 -1       169 2.16677E-04-5.51412E-05-6.27651E-17
 -1       170 2.15161E-04-4.00155E-05-6.41068E-17
 -1       171 2.14309E-04-2.59835E-05-6.41136E-17
 -1       172 2.13881E-04-1.27412E-05-6.29752E-17
 -1       173 2.13758E-04 1.35312E-07-6.16200E-17
 -1       174 2.13906E-04 1.30100E-05-5.96413E-17
 -1       175 2.14358E-04 2.62499E-05-5.71544E-17
 -1       176 2.15215E-04 4.00397E-05-5.35935E-17
 -1       177 2.16779E-04 5.54357E-05-4.81555E-17
 -1       178 2.19657E-04 7.31609E-05-3.98512E-17
 -1       179 2.25498E-04 9.51068E-05-2.65731E-17
 -1       180 2.40820E-04 1.26270E-04-4.76710E-18
 -1       181 4.68940E-04-2.63693E-04-9.08934E-17
 -1       182 7.67294E-04-3.82472E-04-3.04705E-16
 -1       183 1.05135E-03-4.65644E-04-6.44843E-16
 -1       184 1.32893E-03-5.24853E-04-1.10979E-15
 -1       185 1.60370E-03-5.67188E-04-1.69590E-15
 -1       186 1.87766E-03-5.97427E-04-2.40143E-15
 -1       187 2.15189E-03-6.18994E-04-3.22539E-15
 -1       188 2.42684E-03-6.34459E-04-4.16570E-15
 -1       189 2.70254E-03-6.45797E-04-5.21866E-15
 -1       190 2.97875E-03-6.54517E-04-6.38050E-15
 -1       191 3.25494E-03-6.61717E-04-7.64575E-15
 -1       192 3.53035E-03-6.68064E-04-9.00993E-15
 -1       193 3.80399E-03-6.73709E-04-1.04750E-14
 -1       194 4.07466E-03-6.78141E-04-1.20379E-14
 -1       195 4.34104E-03-6.79991E-04-1.36985E-14
 -1       196 4.60182E-03-6.76852E-04-1.54552E-14
 -1       197 4.85590E-03-6.65171E-04-1.73091E-14
 -1       198 5.10263E-03-6.40354E-04-1.92592E-14
 -1       199 5.34216E-03-5.97155E-04-2.13065E-14
 -1       200 5.57554E-03-5.30378E-04-2.34516E-14
 -1       201 5.80478E-03-4.35794E-04-2.56974E-14
 -1       202 6.03261E-03-3.11009E-04-2.80441E-14
 -1       203 6.26202E-03-1.56006E-04-3.05002E-14
 -1       204 6.49575E-03 2.68521E-05-3.30626E-14
 -1       205 6.73587E-03 2.33353E-04-3.57243E-14
 -1       206 6.98349E-03 4.58302E-04-3.84806E-14
 -1       207 7.23882E-03 6.96422E-04-4.13307E-14
 -1       208 7.50135E-03 9.43047E-04-4.42742E-14
 -1       209 7.77009E-03 1.19450E-03-4.73078E-14
 -1       210 8.04386E-03 1.44818E-03-5.04273E-14
 -1       211 8.32150E-03 1.70242E-03-5.36134E-14
 -1       212 8.60197E-03 1.95630E-03-5.68623E-14
 -1       213 8.88442E-03 2.20941E-03-6.01677E-14
 -1       214 9.16820E-03 2.46163E-03-6.35194E-14
 -1       215 9.45285E-03 2.71303E-03-6.69110E-14
 -1       216 9.73803E-03 2.96374E-03-7.03374E-14
 -1       217 1.00235E-02 3.21391E-03-7.37982E-14
 -1       218 1.03092E-02 3.46367E-03-7.72900E-14
 -1       219 1.05950E-02 3.71315E-03-8.08164E-14
 -1       220 1.08807E-02 3.96242E-03-8.43763E-14
 -1       221 1.11665E-02 4.21156E-03-8.79691E-14
 -1       222 1.14523E-02 4.46061E-03-9.15842E-14
 -1       223 1.17381E-02 4.70961E-03-9.52088E-14
 -1       224 1.20239E-02 4.95857E-03-9.88375E-14
 -1       225 1.23096E-02 5.20752E-03-1.02470E-13
 -1       226 1.25954E-02 5.45646E-03-1.06117E-13
 -1       227 1.28811E-02 5.70539E-03-1.09773E-13
 -1       228 1.31668E-02 5.95434E-03-1.13441E-13
 -1       229 4.53706E-04 2.56730E-04-1.49925E-17
 -1       230 7.52678E-04 3.77392E-04-1.44480E-16
 -1       231 1.03716E-03 4.61738E-04-3.79671E-16
 -1       232 1.31494E-03 5.21423E-04-7.23275E-16
 -1       233 1.58986E-03 5.63611E-04-1.17665E-15
 -1       234 1.86410E-03 5.92988E-04-1.74013E-15
 -1       235 2.13894E-03 6.12771E-04-2.41429E-15
 -1       236 2.41519E-03 6.25222E-04-3.19359E-15
 -1       237 2.69343E-03 6.31901E-04-4.07568E-15
 -1       238 2.97429E-03 6.33824E-04-5.06015E-15
 -1       239 3.25862E-03 6.31597E-04-6.14233E-15
 -1       240 3.54782E-03 6.25621E-04-7.32043E-15
 -1       241 3.84414E-03 6.16518E-04-8.59381E-15
 -1       242 4.15116E-03 6.06131E-04-9.96255E-15
 -1       243 4.47431E-03 5.99845E-04-1.14245E-14
 -1       244 4.82119E-03 6.11767E-04-1.29790E-14
 -1       245 5.18180E-03 6.70312E-04-1.45388E-14
 -1       246 5.60518E-03 8.47373E-04-1.62653E-14
 -1       247 6.01093E-03 1.17550E-03-1.78035E-14
 -1       248 6.41114E-03 1.66081E-03-1.92256E-14
 -1       249 7.54545E-03 2.97152E-03-2.22881E-14
 -1       250 7.99387E-03 3.11233E-03-2.39725E-14
 -1       251 8.44043E-03 2.79438E-03-2.57672E-14
 -1       252 8.92164E-03 2.29447E-03-2.77929E-14
 -1       253 9.44373E-03 1.90345E-03-3.01721E-14
 -1       254 9.95104E-03 1.77569E-03-3.27598E-14
 -1       255 1.04199E-02 1.85642E-03-3.55529E-14
 -1       256 1.08282E-02 2.04834E-03-3.84100E-14
 -1       257 1.11910E-02 2.28669E-03-4.13299E-14
 -1       258 1.15234E-02 2.54122E-03-4.43031E-14
 -1       259 1.18366E-02 2.79953E-03-4.73403E-14
 -1       260 1.21382E-02 3.05714E-03-5.04471E-14
 -1       261 1.24182E-02 3.30011E-03-5.34602E-14
 -1       262 1.27091E-02 3.55398E-03-5.66961E-14
 -1       263 1.29976E-02 3.80628E-03-5.99808E-14
 -1       264 1.32848E-02 4.05742E-03-6.32966E-14
 -1       265 1.35712E-02 4.30775E-03-6.66416E-14
 -1       266 1.38573E-02 4.55754E-03-7.00332E-14
 -1       267 1.41432E-02 4.80698E-03-7.34534E-14
 -1       268 1.44290E-02 5.05620E-03-7.68874E-14
 -1       269 1.47148E-02 5.30529E-03-8.03522E-14
 -1       270 1.50005E-02 5.55430E-03-8.38406E-14
 -1       271 1.52862E-02 5.80327E-03-8.73483E-14
 -1       272 1.55720E-02 6.05221E-03-9.08633E-14
 -1       273 1.58577E-02 6.30114E-03-9.43857E-14
 -1       274 1.61434E-02 6.55007E-03-9.79049E-14
 -1       275 1.64291E-02 6.79898E-03-1.01423E-13
 -1       276 1.67148E-02 7.04790E-03-1.04950E-13
 -1       277 1.70005E-02 7.29681E-03-1.08464E-13
 -1       278 1.71350E-02 7.44096E-03-1.10789E-13
 -1       279 1.68903E-02 7.35667E-03-1.11093E-13
 -1       280 1.66455E-02 7.27239E-03-1.11435E-13
 -1       281 1.64008E-02 7.18811E-03-1.11793E-13
 -1       282 1.61560E-02 7.10383E-03-1.12142E-13
 -1       283 1.59154E-02 7.02098E-03-1.12476E-13
 -1       284 1.56707E-02 6.93671E-03-1.12818E-13
 -1       285 1.54259E-02 6.85245E-03-1.13172E-13
 -1       286 1.51812E-02 6.76819E-03-1.13542E-13
 -1       287 1.49364E-02 6.68394E-03-1.13927E-13
 -1       288 1.46916E-02 6.59968E-03-1.14322E-13
 -1       289 1.44509E-02 6.51685E-03-1.14701E-13
 -1       290 1.42061E-02 6.43259E-03-1.15082E-13
 -1       291 1.39613E-02 6.34832E-03-1.15466E-13
 -1       292 1.37165E-02 6.26405E-03-1.15859E-13
 -1       293 1.02272E-02 1.45964E-03-3.10531E-14
 -1       294 1.02179E-02 1.56636E-03-3.05984E-14
 -1       295 1.00188E-02 1.71783E-03-2.97758E-14
 -1       296 9.68104E-03 1.97899E-03-2.85133E-14
 -1       297 9.23831E-03 2.29761E-03-2.73112E-14
 -1       298 8.71730E-03 2.68787E-03-2.59466E-14
 -1       299 8.16912E-03 3.01058E-03-2.45096E-14
 -1       300 7.65176E-03 3.03882E-03-2.31111E-14
 -1       301 7.11342E-03 2.72275E-03-2.19111E-14
 -1       302 6.57979E-03 2.22869E-03-2.08187E-14
 -1       303 5.97731E-03 1.73293E-03-1.99781E-14
 -1       304 5.44058E-03 1.34686E-03-1.93528E-14
 -1       305 5.04895E-03 1.05906E-03-1.88619E-14
 -1       306 4.79245E-03 8.87218E-04-1.86952E-14
 -1       307 4.68724E-03 7.48833E-04-1.86136E-14
 -1       308 4.75142E-03 6.47454E-04-1.89729E-14
 -1       309 4.95765E-03 5.48047E-04-1.93834E-14
 -1       310 5.26486E-03 4.16230E-04-2.01809E-14
 -1       311 5.62556E-03 2.86677E-04-2.10475E-14
 -1       312 6.04577E-03 1.61077E-04-2.20809E-14
 -1       313 6.48272E-03 6.92739E-05-2.34015E-14
 -1       314 6.91913E-03 6.29814E-05-2.47635E-14
 -1       315 7.35856E-03 1.46862E-04-2.61149E-14
 -1       316 7.80338E-03 3.16330E-04-2.74974E-14
 -1       317 8.30761E-03 5.49249E-04-2.87016E-14
 -1       318 8.83667E-03 7.95286E-04-2.97109E-14
 -1       319 9.33225E-03 1.02509E-03-3.05124E-14
 -1       320 9.76010E-03 1.21064E-03-3.10078E-14
 -1       321 1.00678E-02 1.34811E-03-3.11644E-14
 -1       322 6.97551E-03 2.37064E-03-2.07625E-14
 -1       323 1.34811E-02 6.15049E-03-1.15350E-13
 -1       324 4.55448E-04-1.64898E-04-1.97979E-16
 -1       325 4.74438E-04-2.13099E-04-1.72629E-16
 -1       326 4.40348E-04-9.41284E-05-2.18311E-16
 -1       327 4.37337E-04-6.50405E-05-2.20096E-16
 -1       328 4.35685E-04-3.80645E-05-2.19080E-16
 -1       329 4.34959E-04-1.22276E-05-2.15810E-16
 -1       330 4.34987E-04 1.32460E-05-2.11047E-16
 -1       331 4.35773E-04 3.90801E-05-2.04386E-16
 -1       332 4.37455E-04 6.55940E-05-1.95146E-16
 -1       333 4.40527E-04 9.46858E-05-1.82431E-16
 -1       334 4.45914E-04 1.27359E-04-1.64663E-16
 -1       335 4.55786E-04 1.65931E-04-1.38517E-16
 -1       336 4.75175E-04 2.14670E-04-9.98923E-17
 -1       337 1.01473E-02 1.58642E-03-3.15376E-14
 -1       338 8.63649E-04-3.57816E-04-5.25279E-16
 -1       339 1.15011E-03-4.26916E-04-9.39471E-16
 -1       340 1.43298E-03-4.76609E-04-1.47297E-15
 -1       341 1.71373E-03-5.12116E-04-2.12332E-15
 -1       342 1.99347E-03-5.37343E-04-2.88905E-15
 -1       343 2.27287E-03-5.55253E-04-3.76956E-15
 -1       344 2.55232E-03-5.68127E-04-4.76214E-15
 -1       345 2.83193E-03-5.77735E-04-5.86373E-15
 -1       346 3.11159E-03-5.85421E-04-7.07072E-15
 -1       347 3.39100E-03-5.92126E-04-8.37816E-15
 -1       348 3.66968E-03-5.98341E-04-9.78397E-15
 -1       349 3.94697E-03-6.03995E-04-1.12888E-14
 -1       350 4.22204E-03-6.08265E-04-1.28916E-14
 -1       351 4.49393E-03-6.09361E-04-1.45909E-14
 -1       352 4.76163E-03-6.04326E-04-1.63861E-14
 -1       353 5.02430E-03-5.88970E-04-1.82783E-14
 -1       354 5.28148E-03-5.58066E-04-2.02672E-14
 -1       355 5.53339E-03-5.05911E-04-2.23532E-14
 -1       356 5.78111E-03-4.27234E-04-2.45412E-14
 -1       357 6.02651E-03-3.18270E-04-2.68297E-14
 -1       358 6.27198E-03-1.77636E-04-2.92238E-14
 -1       359 6.51990E-03-6.67863E-06-3.17289E-14
 -1       360 6.77218E-03 1.90868E-04-3.43337E-14
 -1       361 7.02992E-03 4.09750E-04-3.70350E-14
 -1       362 7.29338E-03 6.44251E-04-3.98298E-14
 -1       363 7.56219E-03 8.89101E-04-4.27182E-14
 -1       364 7.83556E-03 1.14002E-03-4.56970E-14
 -1       365 8.11257E-03 1.39389E-03-4.87607E-14
 -1       366 8.39234E-03 1.64869E-03-5.19001E-14
 -1       367 8.67411E-03 1.90325E-03-5.51022E-14
 -1       368 8.95728E-03 2.15701E-03-5.83663E-14
 -1       369 9.24140E-03 2.40980E-03-6.16810E-14
 -1       370 9.52616E-03 2.66166E-03-6.50389E-14
 -1       371 9.81132E-03 2.91272E-03-6.84333E-14
 -1       372 1.00967E-02 3.16315E-03-7.18674E-14
 -1       373 1.03823E-02 3.41310E-03-7.53401E-14
 -1       374 1.06680E-02 3.66270E-03-7.88363E-14
 -1       375 1.09537E-02 3.91206E-03-8.23637E-14
 -1       376 1.12394E-02 4.16125E-03-8.59257E-14
 -1       377 1.15252E-02 4.41034E-03-8.95150E-14
 -1       378 1.18109E-02 4.65936E-03-9.31214E-14
 -1       379 1.20966E-02 4.90833E-03-9.67332E-14
 -1       380 1.23824E-02 5.15728E-03-1.00356E-13
 -1       381 1.26681E-02 5.40622E-03-1.03986E-13
 -1       382 1.29538E-02 5.65515E-03-1.07625E-13
 -1       383 1.32395E-02 5.90409E-03-1.11274E-13
 -1       384 1.13600E-03 4.23363E-04-6.51179E-16
 -1       385 8.49317E-04 3.53572E-04-3.37478E-16
 -1       386 1.41911E-03 4.73227E-04-1.07081E-15
 -1       387 1.70015E-03 5.08271E-04-1.59875E-15
 -1       388 1.98029E-03 5.32227E-04-2.23450E-15
 -1       389 2.26038E-03 5.47806E-04-2.97669E-15
 -1       390 2.54097E-03 5.56929E-04-3.82262E-15
 -1       391 2.82245E-03 5.60908E-04-4.77075E-15
 -1       392 3.10506E-03 5.60587E-04-5.81799E-15
 -1       393 3.38896E-03 5.56516E-04-6.96147E-15
 -1       394 3.67412E-03 5.49250E-04-8.20015E-15
 -1       395 3.96016E-03 5.39998E-04-9.53409E-15
 -1       396 4.24600E-03 5.31986E-04-1.09605E-14
 -1       397 4.52940E-03 5.33297E-04-1.24800E-14
 -1       398 4.79359E-03 5.59809E-04-1.40046E-14
 -1       399 5.06578E-03 6.51017E-04-1.56935E-14
 -1       400 9.49726E-03 1.91979E-03-2.92224E-14
 -1       401 9.90668E-03 1.68972E-03-3.17210E-14
 -1       402 1.02656E-02 1.71150E-03-3.44770E-14
 -1       403 1.05977E-02 1.87457E-03-3.73040E-14
 -1       404 1.09155E-02 2.10157E-03-4.01955E-14
 -1       405 1.12240E-02 2.35301E-03-4.31453E-14
 -1       406 1.15253E-02 2.61160E-03-4.61537E-14
 -1       407 1.18214E-02 2.87054E-03-4.92305E-14
 -1       408 1.20991E-02 3.11483E-03-5.22116E-14
 -1       409 1.23890E-02 3.36987E-03-5.54128E-14
 -1       410 1.26772E-02 3.62303E-03-5.86753E-14
 -1       411 1.29645E-02 3.87477E-03-6.19767E-14
 -1       412 1.32510E-02 4.12550E-03-6.52978E-14
 -1       413 1.35373E-02 4.37554E-03-6.86620E-14
 -1       414 1.38233E-02 4.62514E-03-7.20641E-14
 -1       415 1.41091E-02 4.87446E-03-7.54945E-14
 -1       416 1.43949E-02 5.12361E-03-7.89510E-14
 -1       417 1.46807E-02 5.37265E-03-8.24297E-14
 -1       418 1.49665E-02 5.62164E-03-8.59270E-14
 -1       419 1.52522E-02 5.87060E-03-8.94383E-14
 -1       420 1.55379E-02 6.11953E-03-9.29573E-14
 -1       421 1.58237E-02 6.36846E-03-9.64762E-14
 -1       422 1.61094E-02 6.61738E-03-9.99941E-14
 -1       423 1.63951E-02 6.86630E-03-1.03510E-13
 -1       424 1.66808E-02 7.11521E-03-1.07023E-13
 -1       425 1.67855E-02 7.23594E-03-1.09061E-13
 -1       426 1.62757E-02 7.01469E-03-1.08572E-13
 -1       427 1.65306E-02 7.12532E-03-1.08812E-13
 -1       428 1.60310E-02 6.93041E-03-1.08911E-13
 -1       429 1.57904E-02 6.84756E-03-1.09241E-13
 -1       430 1.55456E-02 6.76329E-03-1.09575E-13
 -1       431 1.53009E-02 6.67902E-03-1.09916E-13
 -1       432 1.50561E-02 6.59476E-03-1.10269E-13
 -1       433 1.48113E-02 6.51050E-03-1.10631E-13
 -1       434 1.45666E-02 6.42623E-03-1.11007E-13
 -1       435 1.43259E-02 6.34340E-03-1.11379E-13
 -1       436 1.40811E-02 6.25914E-03-1.11752E-13
 -1       437 1.38363E-02 6.17487E-03-1.12126E-13
 -1       438 1.35915E-02 6.09060E-03-1.12505E-13
 -1       439 9.77872E-03 1.76517E-03-2.99845E-14
 -1       440 1.01766E-02 1.48017E-03-3.24430E-14
 -1       441 4.45568E-04-1.26593E-04-2.11714E-16
 -1       442 5.34822E-03 1.01233E-03-1.82292E-14
 -1       443 4.92816E-03 8.27002E-04-1.79394E-14
 -1       444 4.72704E-03 7.40927E-04-1.78638E-14
 -1       445 4.68582E-03 6.69878E-04-1.79033E-14
 -1       446 4.80939E-03 6.25100E-04-1.82937E-14
 -1       447 5.13918E-03 5.18243E-04-1.91465E-14
 -1       448 5.48255E-03 3.91162E-04-2.00328E-14
 -1       449 5.85601E-03 2.45409E-04-2.10461E-14
 -1       450 6.30149E-03 8.61431E-05-2.24831E-14
 -1       451 6.69970E-03 1.89180E-05-2.40625E-14
 -1       452 7.06481E-03 5.60457E-05-2.56352E-14
 -1       453 7.44288E-03 2.03140E-04-2.71269E-14
 -1       454 7.91571E-03 4.87725E-04-2.89482E-14
 -1       455 8.45363E-03 7.72119E-04-3.01029E-14
 -1       456 8.97388E-03 1.05728E-03-3.12884E-14
 -1       457 9.49723E-03 1.26488E-03-3.19426E-14
 -1       458 9.91639E-03 1.39728E-03-3.22608E-14
 -1       459 1.02655E-02 1.52704E-03-3.22517E-14
 -1       460 5.78390E-03 1.24026E-03-1.85832E-14
 -1       461 5.34850E-03 8.42778E-04-1.71500E-14
 -1       462 6.65594E-04-7.53447E-05-4.65380E-16
 -1       463 6.69615E-04-1.16108E-04-4.64489E-16
 -1       464 6.62852E-04 8.01574E-07-4.53996E-16
 -1       465 6.63562E-04 3.83434E-05-4.42642E-16
 -1       466 6.65708E-04 7.62298E-05-4.27575E-16
 -1       467 6.69815E-04 1.16926E-04-4.07043E-16
 -1       468 6.76840E-04 1.61290E-04-3.79362E-16
 -1       469 6.88720E-04 2.11387E-04-3.41835E-16
 -1       470 7.62871E-04 2.77225E-04-3.49120E-16
 -1       471 9.76500E-04-3.29155E-04-7.67788E-16
 -1       472 1.02701E-02 1.57417E-03-3.31513E-14
 -1       473 1.26245E-03-3.84433E-04-1.25015E-15
 -1       474 1.54751E-03-4.24769E-04-1.84768E-15
 -1       475 1.83167E-03-4.53688E-04-2.55887E-15
 -1       476 2.11526E-03-4.74203E-04-3.38144E-15
 -1       477 2.39858E-03-4.88750E-04-4.31503E-15
 -1       478 2.68190E-03-4.99268E-04-5.35721E-15
 -1       479 2.96535E-03-5.07279E-04-6.50545E-15
 -1       480 3.24899E-03-5.13938E-04-7.75638E-15
 -1       481 3.53276E-03-5.20020E-04-9.10592E-15
 -1       482 3.81646E-03-5.25856E-04-1.05527E-14
 -1       483 4.09969E-03-5.31186E-04-1.20963E-14
 -1       484 4.38181E-03-5.34933E-04-1.37369E-14
 -1       485 4.66195E-03-5.34934E-04-1.54747E-14
 -1       486 4.93904E-03-5.27698E-04-1.73090E-14
 -1       487 5.21205E-03-5.08331E-04-1.92390E-14
 -1       488 5.48035E-03-4.70833E-04-2.12662E-14
 -1       489 5.74413E-03-4.08887E-04-2.33947E-14
 -1       490 6.00459E-03-3.17092E-04-2.56246E-14
 -1       491 6.26384E-03-1.92302E-04-2.79605E-14
 -1       492 6.52438E-03-3.44992E-05-3.04038E-14
 -1       493 6.78830E-03 1.53209E-04-3.29532E-14
 -1       494 7.05685E-03 3.65452E-04-3.56011E-14
 -1       495 7.33022E-03 5.95918E-04-3.83423E-14
 -1       496 7.60782E-03 8.38582E-04-4.11757E-14
 -1       497 7.88866E-03 1.08849E-03-4.41014E-14
 -1       498 8.17170E-03 1.34203E-03-4.71119E-14
 -1       499 8.45609E-03 1.59684E-03-5.02023E-14
 -1       500 8.74122E-03 1.85159E-03-5.33626E-14
 -1       501 9.02672E-03 2.10559E-03-5.65835E-14
 -1       502 9.31237E-03 2.35862E-03-5.98592E-14
 -1       503 9.59807E-03 2.61070E-03-6.31818E-14
 -1       504 9.88378E-03 2.86194E-03-6.65461E-14
 -1       505 1.01695E-02 3.11252E-03-6.99500E-14
 -1       506 1.04552E-02 3.36258E-03-7.33952E-14
 -1       507 1.07409E-02 3.61227E-03-7.68711E-14
 -1       508 1.10266E-02 3.86169E-03-8.03713E-14
 -1       509 1.13123E-02 4.11094E-03-8.39012E-14
 -1       510 1.15980E-02 4.36005E-03-8.74644E-14
 -1       511 1.18837E-02 4.60909E-03-9.10476E-14
 -1       512 1.21694E-02 4.85808E-03-9.46454E-14
 -1       513 1.24552E-02 5.10704E-03-9.82531E-14
 -1       514 1.27409E-02 5.35598E-03-1.01870E-13
 -1       515 1.30266E-02 5.60491E-03-1.05493E-13
 -1       516 1.33090E-02 5.84775E-03-1.08994E-13
 -1       517 1.53362E-03 4.21522E-04-1.44343E-15
 -1       518 1.81787E-03 4.49742E-04-2.04320E-15
 -1       519 2.10143E-03 4.68774E-04-2.74883E-15
 -1       520 2.38457E-03 4.80804E-04-3.55851E-15
 -1       521 2.66733E-03 4.87463E-04-4.47060E-15
 -1       522 2.94952E-03 4.89948E-04-5.48274E-15
 -1       523 3.23058E-03 4.89187E-04-6.59212E-15
 -1       524 3.50929E-03 4.86102E-04-7.79633E-15
 -1       525 3.78337E-03 4.82069E-04-9.09525E-15
 -1       526 4.04887E-03 4.79759E-04-1.04870E-14
 -1       527 4.29921E-03 4.84555E-04-1.19723E-14
 -1       528 4.51403E-03 5.04866E-04-1.34653E-14
 -1       529 4.70437E-03 5.60138E-04-1.51205E-14
 -1       530 4.65801E-03 6.41770E-04-1.69061E-14
 -1       531 1.09370E-02 2.16738E-03-4.19577E-14
 -1       532 1.12063E-02 2.41794E-03-4.49391E-14
 -1       533 1.14840E-02 2.67310E-03-4.79821E-14
 -1       534 1.17520E-02 2.91591E-03-5.09340E-14
 -1       535 1.20363E-02 3.17045E-03-5.41013E-14
 -1       536 1.23216E-02 3.42359E-03-5.73329E-14
 -1       537 1.26073E-02 3.67546E-03-6.06131E-14
 -1       538 1.28931E-02 3.92636E-03-6.39239E-14
 -1       539 1.31790E-02 4.17654E-03-6.72633E-14
 -1       540 1.34648E-02 4.42625E-03-7.06445E-14
 -1       541 1.37507E-02 4.67564E-03-7.40585E-14
 -1       542 1.40365E-02 4.92484E-03-7.75035E-14
 -1       543 1.43222E-02 5.17392E-03-8.09740E-14
 -1       544 1.46080E-02 5.42292E-03-8.44636E-14
 -1       545 1.48938E-02 5.67189E-03-8.79655E-14
 -1       546 1.51795E-02 5.92083E-03-9.14812E-14
 -1       547 1.54652E-02 6.16976E-03-9.50021E-14
 -1       548 1.57510E-02 6.41869E-03-9.85155E-14
 -1       549 1.60367E-02 6.66761E-03-1.02035E-13
 -1       550 1.64259E-02 7.00458E-03-1.06768E-13
 -1       551 1.56632E-02 6.67343E-03-1.06023E-13
 -1       552 1.54185E-02 6.58915E-03-1.06347E-13
 -1       553 1.59080E-02 6.75771E-03-1.05688E-13
 -1       554 1.51737E-02 6.50488E-03-1.06676E-13
 -1       555 1.49290E-02 6.42061E-03-1.07015E-13
 -1       556 1.46842E-02 6.33634E-03-1.07363E-13
 -1       557 1.44395E-02 6.25208E-03-1.07716E-13
 -1       558 1.41988E-02 6.16924E-03-1.08075E-13
 -1       559 1.39540E-02 6.08498E-03-1.08443E-13
 -1       560 1.37092E-02 6.00071E-03-1.08807E-13
 -1       561 1.35091E-02 5.92423E-03-1.08900E-13
 -1       562 7.55322E-03 3.35204E-04-2.85109E-14
 -1       563 1.06828E-02 1.93108E-03-3.90346E-14
 -1       564 1.04519E-02 1.72935E-03-3.61768E-14
 -1       565 8.16014E-03 7.19456E-04-3.05550E-14
 -1       566 1.04873E-03 3.45876E-04-6.64199E-16
 -1       567 6.63489E-04-3.67563E-05-4.61687E-16
 -1       568 1.29149E-03 3.89115E-04-1.01555E-15
 -1       569 4.96639E-03 7.12257E-04-1.68827E-14
 -1       570 1.00592E-02 1.53234E-03-3.38442E-14
 -1       571 5.28535E-03 4.44809E-04-1.87585E-14
 -1       572 4.75961E-03 6.67585E-04-1.68969E-14
 -1       573 7.12738E-04-2.52109E-04-4.36815E-16
 -1       574 4.69615E-03 6.07541E-04-1.70373E-14
 -1       575 5.59690E-03 3.28337E-04-1.97264E-14
 -1       576 6.04054E-03 1.52152E-04-2.12924E-14
 -1       577 6.48510E-03 1.24275E-05-2.31958E-14
 -1       578 9.71837E-03 1.44629E-03-3.34939E-14
 -1       579 7.18591E-03 1.20531E-04-2.67533E-14
 -1       580 8.62474E-03 9.91538E-04-3.17497E-14
 -1       581 9.22627E-03 1.28559E-03-3.29928E-14
 -1       582 6.78942E-03 7.93425E-07-2.47275E-14
 -1       583 1.02708E-02 1.56961E-03-3.39227E-14
 -1       584 4.93271E-03 5.60440E-04-1.78460E-14
 -1       585 6.76529E-04-1.60307E-04-4.57506E-16
 -1       586 1.01544E-02 1.61208E-03-3.27537E-14
 -1       587 6.22188E-03 4.88060E-05-2.19760E-14
 -1       588 1.61669E-02 6.88115E-03-1.06228E-13
 -1       589 7.79751E-03 5.38765E-04-3.00906E-14
 -1       590 8.99295E-04 7.36062E-05-7.49838E-16
 -1       591 8.97228E-04 2.48439E-05-7.70773E-16
 -1       592 9.11369E-04 1.77201E-04-6.85616E-16
 -1       593 9.23797E-04 2.35485E-04-6.37447E-16
 -1       594 9.83683E-04 2.88280E-04-6.56146E-16
 -1       595 1.11617E-02 2.48935E-03-4.67428E-14
 -1       596 1.14151E-02 2.72551E-03-4.96630E-14
 -1       597 1.03684E-02 1.64673E-03-3.52005E-14
 -1       598 1.09775E-03-2.95271E-04-1.03137E-15
 -1       599 1.38335E-03-3.38100E-04-1.57725E-15
 -1       600 1.66965E-03-3.69603E-04-2.23456E-15
 -1       601 1.95608E-03-3.92222E-04-3.00213E-15
 -1       602 2.24252E-03-4.08214E-04-3.87864E-15
 -1       603 2.52908E-03-4.19499E-04-4.86304E-15
 -1       604 2.81596E-03-4.27649E-04-5.95304E-15
 -1       605 3.10338E-03-4.33921E-04-7.14590E-15
 -1       606 3.39160E-03-4.39275E-04-8.43845E-15
 -1       607 3.68080E-03-4.44354E-04-9.82900E-15
 -1       608 3.97104E-03-4.49402E-04-1.13147E-14
 -1       609 4.26210E-03-4.54087E-04-1.28966E-14
 -1       610 4.55339E-03-4.57207E-04-1.45751E-14
 -1       611 4.84379E-03-4.56310E-04-1.63514E-14
 -1       612 5.13183E-03-4.47313E-04-1.82234E-14
 -1       613 5.41597E-03-4.24367E-04-2.01914E-14
 -1       614 5.69524E-03-3.80272E-04-2.22586E-14
 -1       615 5.96993E-03-3.07701E-04-2.44306E-14
 -1       616 6.24180E-03-2.01040E-04-2.67069E-14
 -1       617 6.51368E-03-5.81786E-05-2.90876E-14
 -1       618 6.78836E-03 1.18806E-04-3.15795E-14
 -1       619 7.06763E-03 3.24346E-04-3.41731E-14
 -1       620 7.35176E-03 5.51134E-04-3.68645E-14
 -1       621 7.63982E-03 7.91962E-04-3.96471E-14
 -1       622 7.93027E-03 1.04094E-03-4.25193E-14
 -1       623 8.22162E-03 1.29390E-03-4.54800E-14
 -1       624 8.51278E-03 1.54825E-03-4.85219E-14
 -1       625 8.80314E-03 1.80256E-03-5.16398E-14
 -1       626 9.09247E-03 2.05618E-03-5.48201E-14
 -1       627 9.38080E-03 2.30890E-03-5.80554E-14
 -1       628 9.66830E-03 2.56075E-03-6.13411E-14
 -1       629 9.95516E-03 2.81183E-03-6.46742E-14
 -1       630 1.02416E-02 3.06231E-03-6.80520E-14
 -1       631 1.05277E-02 3.31232E-03-7.14671E-14
 -1       632 1.08136E-02 3.56198E-03-7.49156E-14
 -1       633 1.10994E-02 3.81140E-03-7.83919E-14
 -1       634 1.13851E-02 4.06065E-03-8.18957E-14
 -1       635 1.16708E-02 4.30978E-03-8.54306E-14
 -1       636 1.19565E-02 4.55882E-03-8.89904E-14
 -1       637 1.22422E-02 4.80782E-03-9.25706E-14
 -1       638 1.25279E-02 5.05678E-03-9.61658E-14
 -1       639 1.28136E-02 5.30573E-03-9.97658E-14
 -1       640 1.30994E-02 5.55466E-03-1.03375E-13
 -1       641 1.33042E-02 5.73945E-03-1.06134E-13
 -1       642 2.22661E-03 4.03565E-04-3.28468E-15
 -1       643 1.65532E-03 3.66808E-04-1.84173E-15
 -1       644 2.51114E-03 4.12927E-04-4.16039E-15
 -1       645 2.79432E-03 4.18353E-04-5.13664E-15
 -1       646 3.07527E-03 4.21136E-04-6.21114E-15
 -1       647 3.35246E-03 4.22609E-04-7.38151E-15
 -1       648 3.62331E-03 4.24506E-04-8.64639E-15
 -1       649 3.88361E-03 4.29528E-04-1.00048E-14
 -1       650 4.12680E-03 4.42157E-04-1.14559E-14
 -1       651 4.33283E-03 4.67447E-04-1.29181E-14
 -1       652 4.51040E-03 5.17572E-04-1.45409E-14
 -1       653 8.90520E-03 1.22208E-03-3.36801E-14
 -1       654 1.09086E-02 2.24601E-03-4.37264E-14
 -1       655 1.16901E-02 2.97608E-03-5.27973E-14
 -1       656 1.19699E-02 3.22707E-03-5.59949E-14
 -1       657 1.22525E-02 3.47782E-03-5.92501E-14
 -1       658 1.25366E-02 3.72814E-03-6.25458E-14
 -1       659 1.28215E-02 3.97805E-03-6.58747E-14
 -1       660 1.31069E-02 4.22762E-03-6.92372E-14
 -1       661 1.33924E-02 4.47696E-03-7.26317E-14
 -1       662 1.36781E-02 4.72613E-03-7.60567E-14
 -1       663 1.39639E-02 4.97521E-03-7.95187E-14
 -1       664 1.42496E-02 5.22421E-03-8.29983E-14
 -1       665 1.45353E-02 5.47318E-03-8.64975E-14
 -1       666 1.48211E-02 5.72213E-03-9.00029E-14
 -1       667 1.51068E-02 5.97107E-03-9.35171E-14
 -1       668 1.53925E-02 6.22000E-03-9.70361E-14
 -1       669 1.56783E-02 6.46892E-03-1.00557E-13
 -1       670 1.52934E-02 6.41572E-03-1.03122E-13
 -1       671 1.55382E-02 6.50000E-03-1.02799E-13
 -1       672 1.50487E-02 6.33144E-03-1.03440E-13
 -1       673 1.45592E-02 6.16290E-03-1.04104E-13
 -1       674 1.43144E-02 6.07864E-03-1.04444E-13
 -1       675 1.40738E-02 5.99580E-03-1.04784E-13
 -1       676 1.38290E-02 5.91153E-03-1.05140E-13
 -1       677 1.35842E-02 5.82727E-03-1.05499E-13
 -1       678 1.06786E-02 2.01432E-03-4.07708E-14
 -1       679 1.04847E-02 1.80492E-03-3.78789E-14
 -1       680 5.00735E-03 4.65085E-04-1.72739E-14
 -1       681 1.48039E-02 6.24717E-03-1.03769E-13
 -1       682 9.03751E-04 1.23874E-04-7.21970E-16
 -1       683 5.76193E-03 1.97231E-04-1.99443E-14
 -1       684 6.91653E-03 3.54731E-05-2.59081E-14
 -1       685 5.37953E-03 3.41861E-04-1.85127E-14
 -1       686 9.03591E-04-1.22491E-04-7.97376E-16
 -1       687 1.94123E-03 3.88786E-04-2.51105E-15
 -1       688 9.51465E-03 1.48219E-03-3.49282E-14
 -1       689 4.59195E-03 5.69659E-04-1.58671E-14
 -1       690 4.73629E-03 5.34177E-04-1.63986E-14
 -1       691 1.02137E-02 1.63858E-03-3.54840E-14
 -1       692 8.36377E-03 9.22941E-04-3.22837E-14
 -1       693 6.56116E-03-2.47694E-05-2.38693E-14
 -1       694 7.27168E-03 2.18381E-04-2.80831E-14
 -1       695 9.91079E-03 1.58439E-03-3.52354E-14
 -1       696 9.11084E-04-1.75991E-04-7.92166E-16
 -1       697 8.97217E-04-2.34035E-05-7.85779E-16
 -1       698 1.22597E-03 3.30390E-04-1.00600E-15
 -1       699 8.99231E-04-7.20628E-05-7.95025E-16
 -1       700 6.31516E-03-2.18152E-05-2.26232E-14
 -1       701 8.72371E-04-2.47470E-04-6.82556E-16
 -1       702 4.85546E-03 6.60629E-04-1.65457E-14
 -1       703 1.57931E-02 6.61331E-03-1.03124E-13
 -1       704 7.49438E-03 3.85275E-04-2.96373E-14
 -1       705 8.01617E-03 7.36249E-04-3.17928E-14
 -1       706 4.56203E-03 5.16865E-04-1.52531E-14
 -1       707 5.92744E-03 8.23179E-05-2.05919E-14
 -1       708 1.44054E-03 3.52203E-04-1.39219E-15
 -1       709 1.16441E-03 2.74863E-04-9.84696E-16
 -1       710 1.16209E-02 3.03510E-03-5.46657E-14
 -1       711 1.10882E-02 2.55237E-03-4.84757E-14
 -1       712 9.79096E-03 1.64769E-03-3.69839E-14
 -1       713 1.51023E-03-2.87536E-04-1.91983E-15
 -1       714 1.79760E-03-3.10954E-04-2.63260E-15
 -1       715 2.08582E-03-3.27660E-04-3.45328E-15
 -1       716 2.37462E-03-3.39299E-04-4.38122E-15
 -1       717 2.66404E-03-3.47313E-04-5.41392E-15
 -1       718 2.95431E-03-3.52913E-04-6.54940E-15
 -1       719 3.24583E-03-3.57093E-04-7.78538E-15
 -1       720 3.53909E-03-3.60653E-04-9.11751E-15
 -1       721 3.83457E-03-3.64191E-04-1.05462E-14
 -1       722 4.13258E-03-3.68014E-04-1.20703E-14
 -1       723 4.43305E-03-3.71922E-04-1.36901E-14
 -1       724 4.73523E-03-3.74790E-04-1.54063E-14
 -1       725 5.03753E-03-3.73953E-04-1.72187E-14
 -1       726 5.33765E-03-3.64520E-04-1.91295E-14
 -1       727 5.63327E-03-3.39074E-04-2.11377E-14
 -1       728 5.92308E-03-2.88382E-04-2.32467E-14
 -1       729 6.20791E-03-2.03483E-04-2.54617E-14
 -1       730 6.49074E-03-7.87776E-05-2.77838E-14
 -1       731 6.77548E-03 8.57365E-05-3.02142E-14
 -1       732 7.06512E-03 2.84510E-04-3.27531E-14
 -1       733 7.36047E-03 5.08633E-04-3.53949E-14
 -1       734 7.66025E-03 7.48872E-04-3.81280E-14
 -1       735 7.96209E-03 9.97788E-04-4.09522E-14
 -1       736 8.26369E-03 1.25044E-03-4.38601E-14
 -1       737 8.56345E-03 1.50404E-03-4.68548E-14
 -1       738 8.86060E-03 1.75731E-03-4.99285E-14
 -1       739 9.15501E-03 2.00981E-03-5.30715E-14
 -1       740 9.44698E-03 2.26148E-03-5.62731E-14
 -1       741 9.73698E-03 2.51245E-03-5.95216E-14
 -1       742 1.00255E-02 2.76286E-03-6.28159E-14
 -1       743 1.03130E-02 3.01285E-03-6.61667E-14
 -1       744 1.05997E-02 3.26253E-03-6.95543E-14
 -1       745 1.08860E-02 3.51199E-03-7.29767E-14
 -1       746 1.11720E-02 3.76128E-03-7.64255E-14
 -1       747 1.14579E-02 4.01045E-03-7.99061E-14
 -1       748 1.17436E-02 4.25954E-03-8.34143E-14
 -1       749 1.20294E-02 4.50858E-03-8.69516E-14
 -1       750 1.23150E-02 4.75757E-03-9.05119E-14
 -1       751 1.26007E-02 5.00653E-03-9.40893E-14
 -1       752 1.28864E-02 5.25548E-03-9.76748E-14
 -1       753 1.31721E-02 5.50441E-03-1.01266E-13
 -1       754 2.35538E-03 3.37285E-04-3.84269E-15
 -1       755 3.20211E-03 3.55879E-04-6.95753E-15
 -1       756 3.47546E-03 3.62359E-04-8.18771E-15
 -1       757 3.73994E-03 3.72872E-04-9.51228E-15
 -1       758 3.99104E-03 3.91268E-04-1.09309E-14
 -1       759 4.21139E-03 4.20875E-04-1.23606E-14
 -1       760 4.43200E-03 4.83349E-04-1.40680E-14
 -1       761 5.44491E-03 1.93329E-04-1.83621E-14
 -1       762 1.54233E-02 6.35561E-03-1.00230E-13
 -1       763 2.06911E-03 3.25851E-04-3.00303E-15
 -1       764 1.18996E-02 3.28296E-03-5.78943E-14
 -1       765 1.21814E-02 3.53159E-03-6.11696E-14
 -1       766 1.24649E-02 3.78053E-03-6.44834E-14
 -1       767 1.27494E-02 4.02956E-03-6.78328E-14
 -1       768 1.30345E-02 4.27859E-03-7.12118E-14
 -1       769 1.33200E-02 4.52760E-03-7.46198E-14
 -1       770 1.36056E-02 4.77659E-03-7.80638E-14
 -1       771 1.38912E-02 5.02555E-03-8.15343E-14
 -1       772 1.41770E-02 5.27450E-03-8.50243E-14
 -1       773 1.44627E-02 5.52344E-03-8.85277E-14
 -1       774 1.47484E-02 5.77237E-03-9.20345E-14
 -1       775 1.50341E-02 6.02130E-03-9.55519E-14
 -1       776 1.37040E-02 5.73809E-03-1.01859E-13
 -1       777 1.01258E-02 1.72104E-03-3.72465E-14
 -1       778 1.51786E-02 6.27132E-03-1.00549E-13
 -1       779 1.39446E-02 5.82093E-03-1.01530E-13
 -1       780 1.41894E-02 5.90520E-03-1.01196E-13
 -1       781 1.34381E-02 5.62125E-03-1.01562E-13
 -1       782 9.92893E-04-2.20354E-04-9.04733E-16
 -1       783 1.06082E-02 2.09700E-03-4.25135E-14
 -1       784 1.04048E-02 1.89020E-03-3.95926E-14
 -1       785 2.64033E-03 3.45095E-04-4.78286E-15
 -1       786 1.03527E-02 1.66348E-03-3.56677E-14
 -1       787 1.13505E-02 2.79204E-03-5.15430E-14
 -1       788 1.08384E-02 2.31910E-03-4.54654E-14
 -1       789 2.92304E-03 3.50768E-04-5.82132E-15
 -1       790 1.25038E-03-2.57852E-04-1.36677E-15
 -1       791 1.13762E-03 5.87873E-05-1.16031E-15
 -1       792 4.75570E-03 4.45750E-04-1.58207E-14
 -1       793 1.49338E-02 6.18704E-03-1.00867E-13
 -1       794 9.22723E-03 1.43914E-03-3.58570E-14
 -1       795 8.63883E-03 1.15385E-03-3.45873E-14
 -1       796 5.07567E-03 3.41217E-04-1.69449E-14
 -1       797 6.65949E-03-2.59955E-05-2.50405E-14
 -1       798 1.78229E-03 3.09228E-04-2.26553E-15
 -1       799 6.97886E-03 9.36082E-05-2.71650E-14
 -1       800 1.13635E-03 1.05551E-06-1.18580E-15
 -1       801 7.18103E-03 2.18392E-04-2.86792E-14
 -1       802 6.43102E-03-6.35578E-05-2.37526E-14
 -1       803 7.70583E-03 5.62594E-04-3.13121E-14
 -1       804 1.03499E-02 1.76378E-03-3.75110E-14
 -1       805 1.44342E-02 5.98947E-03-1.00862E-13
 -1       806 1.14902E-03-1.76542E-04-1.21127E-15
 -1       807 1.14170E-03 1.17258E-04-1.12607E-15
 -1       808 1.14912E-03 1.77994E-04-1.08198E-15
 -1       809 8.30737E-03 9.76379E-04-3.40662E-14
 -1       810 4.54454E-03 4.50668E-04-1.46998E-14
 -1       811 1.14171E-03-1.15446E-04-1.21169E-15
 -1       812 1.46840E-02 6.08825E-03-1.00861E-13
 -1       813 1.49575E-03 2.85723E-04-1.63097E-15
 -1       814 1.18264E-02 3.33715E-03-5.97968E-14
 -1       815 1.13767E-03-5.66568E-05-1.20298E-15
 -1       816 1.15466E-02 3.09139E-03-5.65444E-14
 -1       817 1.93018E-03-2.48622E-04-3.04166E-15
 -1       818 2.21997E-03-2.59865E-04-3.91340E-15
 -1       819 2.51080E-03-2.67317E-04-4.88950E-15
 -1       820 2.80274E-03-2.71981E-04-5.96849E-15
 -1       821 3.09617E-03-2.74718E-04-7.14718E-15
 -1       822 3.39172E-03-2.76288E-04-8.42231E-15
 -1       823 3.69020E-03-2.77400E-04-9.79207E-15
 -1       824 3.99246E-03-2.78749E-04-1.12586E-14
 -1       825 4.29918E-03-2.80947E-04-1.28195E-14
 -1       826 4.61041E-03-2.84244E-04-1.44768E-14
 -1       827 4.92515E-03-2.87900E-04-1.62307E-14
 -1       828 5.24098E-03-2.89059E-04-1.80801E-14
 -1       829 5.55434E-03-2.81527E-04-2.00290E-14
 -1       830 5.86176E-03-2.55060E-04-2.20759E-14
 -1       831 6.16190E-03-1.97051E-04-2.42281E-14
 -1       832 6.45686E-03-9.58901E-05-2.64893E-14
 -1       833 6.75169E-03 5.22634E-05-2.88581E-14
 -1       834 7.05155E-03 2.43413E-04-3.13398E-14
 -1       835 7.35857E-03 4.66307E-04-3.39269E-14
 -1       836 7.67134E-03 7.08217E-04-3.66152E-14
 -1       837 7.98637E-03 9.58940E-04-3.93933E-14
 -1       838 8.30009E-03 1.21221E-03-4.22555E-14
 -1       839 8.61006E-03 1.46513E-03-4.52007E-14
 -1       840 8.91522E-03 1.71682E-03-4.82300E-14
 -1       841 9.21560E-03 1.96736E-03-5.13343E-14
 -1       842 9.51182E-03 2.21710E-03-5.45005E-14
 -1       843 9.80473E-03 2.46640E-03-5.77190E-14
 -1       844 1.00952E-02 2.71548E-03-6.09812E-14
 -1       845 1.03839E-02 2.96448E-03-6.42955E-14
 -1       846 1.06715E-02 3.21347E-03-6.76547E-14
 -1       847 1.09582E-02 3.46245E-03-7.10504E-14
 -1       848 1.12445E-02 3.71144E-03-7.44742E-14
 -1       849 1.15305E-02 3.96043E-03-7.79307E-14
 -1       850 1.18164E-02 4.20941E-03-8.14178E-14
 -1       851 1.21021E-02 4.45838E-03-8.49313E-14
 -1       852 1.23878E-02 4.70733E-03-8.84699E-14
 -1       853 1.26735E-02 4.95628E-03-9.20285E-14
 -1       854 1.29592E-02 5.20523E-03-9.55992E-14
 -1       855 1.31986E-02 5.41324E-03-9.85774E-14
 -1       856 3.87080E-03 3.27460E-04-1.03954E-14
 -1       857 3.60649E-03 3.07107E-04-9.01148E-15
 -1       858 5.64768E-03 3.37053E-05-1.92879E-14
 -1       859 3.33400E-03 2.93981E-04-7.72101E-15
 -1       860 4.11229E-03 3.56626E-04-1.17944E-14
 -1       861 4.36224E-03 4.28087E-04-1.34757E-14
 -1       862 1.91359E-03 2.48890E-04-2.71492E-15
 -1       863 1.02776E-02 1.96014E-03-4.13015E-14
 -1       864 2.20104E-03 2.61190E-04-3.51776E-15
 -1       865 1.21086E-02 3.58433E-03-6.30948E-14
 -1       866 1.23923E-02 3.83229E-03-6.64260E-14
 -1       867 1.26769E-02 4.08070E-03-6.97929E-14
 -1       868 1.29620E-02 4.32934E-03-7.31887E-14
 -1       869 1.32474E-02 4.57812E-03-7.66156E-14
 -1       870 1.35330E-02 4.82697E-03-8.00749E-14
 -1       871 1.38186E-02 5.07586E-03-8.35537E-14
 -1       872 1.41043E-02 5.32477E-03-8.70508E-14
 -1       873 1.43900E-02 5.57369E-03-9.05566E-14
 -1       874 1.46758E-02 5.82261E-03-9.40669E-14
 -1       875 8.99852E-03 1.39363E-03-3.69314E-14
 -1       876 1.00438E-02 1.79117E-03-3.88985E-14
 -1       877 1.35769E-02 5.56394E-03-9.86089E-14
 -1       878 1.38217E-02 5.64821E-03-9.82839E-14
 -1       879 3.05558E-03 2.84982E-04-6.52515E-15
 -1       880 2.48785E-03 2.70311E-04-4.42212E-15
 -1       881 9.56019E-03 1.64176E-03-3.82165E-14
 -1       882 2.77306E-03 2.77716E-04-5.42459E-15
 -1       883 5.99987E-03-5.25366E-05-2.12403E-14
 -1       884 1.19878E-03-2.16023E-04-1.28980E-15
 -1       885 5.07438E-03 1.97216E-04-1.65538E-14
 -1       886 6.70218E-03-5.94236E-06-2.62138E-14
 -1       887 1.62643E-03 2.31977E-04-2.01352E-15
 -1       888 1.64172E-03-2.32457E-04-2.27597E-15
 -1       889 4.73377E-03 3.23273E-04-1.51565E-14
 -1       890 1.48048E-02 6.00483E-03-9.74626E-14
 -1       891 1.07482E-02 2.38392E-03-4.72275E-14
 -1       892 7.37821E-03 3.66290E-04-3.03129E-14
 -1       893 6.48722E-03-7.43137E-05-2.48869E-14
 -1       894 7.99168E-03 7.95066E-04-3.35557E-14
 -1       895 5.26997E-03 5.17629E-05-1.74207E-14
 -1       896 1.05042E-02 2.16457E-03-4.42316E-14
 -1       897 1.41944E-03-2.27303E-04-1.75033E-15
 -1       898 1.40664E-02 5.73248E-03-9.79604E-14
 -1       899 1.33878E-02 5.48859E-03-9.85910E-14
 -1       900 8.67498E-03 1.23313E-03-3.63891E-14
 -1       901 1.45550E-02 5.90604E-03-9.74560E-14
 -1       902 4.50856E-03 3.50604E-04-1.40662E-14
 -1       903 1.12742E-02 2.85111E-03-5.33889E-14
 -1       904 1.10060E-02 2.61342E-03-5.02694E-14
 -1       905 1.36911E-03-1.85818E-04-1.65719E-15
 -1       906 1.38330E-03 9.99215E-05-1.61772E-15
 -1       907 6.88931E-03 8.36340E-05-2.76901E-14
 -1       908 1.38028E-03 3.41177E-05-1.65700E-15
 -1       909 1.50305E-03 1.63521E-04-1.81749E-15
 -1       910 1.20349E-02 3.63589E-03-6.50203E-14
 -1       911 1.38358E-03-9.71226E-05-1.70278E-15
 -1       912 1.14700E-02 3.14462E-03-5.84333E-14
 -1       913 2.06656E-03-1.82527E-04-3.46100E-15
 -1       914 2.35767E-03-1.88796E-04-4.38032E-15
 -1       915 2.65012E-03-1.92231E-04-5.40217E-15
 -1       916 2.94409E-03-1.93414E-04-6.52403E-15
 -1       917 3.24016E-03-1.92876E-04-7.74264E-15
 -1       918 3.53927E-03-1.91171E-04-9.05535E-15
 -1       919 3.84268E-03-1.89011E-04-1.04627E-14
 -1       920 4.15180E-03-1.87391E-04-1.19656E-14
 -1       921 4.46782E-03-1.87591E-04-1.35641E-14
 -1       922 4.79110E-03-1.90770E-04-1.52579E-14
 -1       923 5.12030E-03-1.97157E-04-1.70480E-14
 -1       924 5.45187E-03-2.03541E-04-1.89347E-14
 -1       925 5.77990E-03-2.01443E-04-2.09210E-14
 -1       926 6.10008E-03-1.75407E-04-2.30088E-14
 -1       927 6.71766E-03 1.77339E-05-2.75112E-14
 -1       928 7.02835E-03 1.98210E-04-2.99334E-14
 -1       929 7.34791E-03 4.21158E-04-3.24666E-14
 -1       930 7.67545E-03 6.68198E-04-3.51057E-14
 -1       931 8.00595E-03 9.23935E-04-3.78422E-14
 -1       932 8.33388E-03 1.17965E-03-4.06597E-14
 -1       933 8.65557E-03 1.43230E-03-4.35605E-14
 -1       934 8.96963E-03 1.68192E-03-4.65450E-14
 -1       935 9.27637E-03 1.92956E-03-4.96048E-14
 -1       936 9.57693E-03 2.17634E-03-5.27353E-14
 -1       937 9.87272E-03 2.42302E-03-5.59243E-14
 -1       938 1.01650E-02 2.67000E-03-5.91628E-14
 -1       939 1.04549E-02 2.91742E-03-6.24437E-14
 -1       940 1.07432E-02 3.16527E-03-6.57697E-14
 -1       941 1.10304E-02 3.41348E-03-6.91365E-14
 -1       942 1.13170E-02 3.66196E-03-7.25368E-14
 -1       943 1.16031E-02 3.91062E-03-7.59686E-14
 -1       944 1.18891E-02 4.15940E-03-7.94321E-14
 -1       945 1.21748E-02 4.40825E-03-8.29266E-14
 -1       946 1.24606E-02 4.65714E-03-8.64435E-14
 -1       947 1.27463E-02 4.90606E-03-8.99828E-14
 -1       948 1.30320E-02 5.15498E-03-9.35378E-14
 -1       949 3.75203E-03 2.52360E-04-9.85097E-15
 -1       950 4.01141E-03 2.78332E-04-1.12175E-14
 -1       951 2.33705E-03 1.94843E-04-4.05573E-15
 -1       952 1.17516E-02 3.38943E-03-6.17060E-14
 -1       953 1.34519E-02 5.39051E-03-9.53650E-14
 -1       954 2.04888E-03 1.85808E-04-3.18879E-15
 -1       955 1.23191E-02 3.88335E-03-6.83721E-14
 -1       956 1.26040E-02 4.13142E-03-7.17545E-14
 -1       957 1.28893E-02 4.37986E-03-7.51682E-14
 -1       958 1.31747E-02 4.62851E-03-7.86135E-14
 -1       959 1.34603E-02 4.87729E-03-8.20849E-14
 -1       960 1.37460E-02 5.12613E-03-8.55726E-14
 -1       961 1.40317E-02 5.37502E-03-8.90744E-14
 -1       962 1.43174E-02 5.62393E-03-9.25847E-14
 -1       963 9.91568E-03 1.85006E-03-4.08016E-14
 -1       964 5.68129E-03-8.84713E-05-1.97304E-14
 -1       965 3.19446E-03 2.20011E-04-7.24680E-15
 -1       966 1.77530E-03 1.76360E-04-2.45661E-15
 -1       967 1.43107E-02 5.81926E-03-9.77050E-14
 -1       968 1.77702E-03-1.72756E-04-2.64558E-15
 -1       969 1.38038E-03-3.11939E-05-1.68508E-15
 -1       970 4.70641E-03 1.88766E-04-1.47149E-14
 -1       971 6.09570E-03-1.25795E-04-2.23032E-14
 -1       972 9.36591E-03 1.63525E-03-3.97911E-14
 -1       973 3.47511E-03 2.33208E-04-8.50191E-15
 -1       974 1.44362E-02 5.76498E-03-9.50174E-14
 -1       975 1.36967E-02 5.47478E-03-9.50531E-14
 -1       976 1.11943E-02 2.90545E-03-5.52447E-14
 -1       977 6.56791E-03-5.08874E-05-2.62483E-14
 -1       978 8.34877E-03 1.05480E-03-3.58556E-14
 -1       979 1.03881E-02 2.21645E-03-4.59552E-14
 -1       980 1.32099E-02 5.32179E-03-9.60611E-14
 -1       981 2.62461E-03 2.02590E-04-5.02245E-15
 -1       982 2.91070E-03 2.10454E-04-6.08693E-15
 -1       983 9.06403E-03 1.49591E-03-3.92285E-14
 -1       984 4.48229E-03 2.33514E-04-1.36496E-14
 -1       985 4.88908E-03 6.39470E-05-1.55256E-14
 -1       986 1.65445E-03 1.09275E-04-2.22856E-15
 -1       987 1.01511E-02 2.02854E-03-4.33494E-14
 -1       988 7.64858E-03 5.78464E-04-3.25093E-14
 -1       989 1.57231E-03-1.81719E-04-2.12488E-15
 -1       990 1.06497E-02 2.43674E-03-4.89741E-14
 -1       991 7.07924E-03 1.96263E-04-2.91150E-14
 -1       992 5.28490E-03-9.51439E-05-1.76721E-14
 -1       993 2.49803E-03-1.14629E-04-4.85213E-15
 -1       994 2.79144E-03-1.14229E-04-5.91700E-15
 -1       995 3.08659E-03-1.11784E-04-7.07819E-15
 -1       996 3.38429E-03-1.07481E-04-8.33522E-15
 -1       997 3.68589E-03-1.01669E-04-9.68526E-15
 -1       998 3.99325E-03-9.52005E-05-1.11290E-14
 -1       999 4.30861E-03-8.95479E-05-1.26683E-14
 -1      1000 4.63399E-03-8.72592E-05-1.43038E-14
 -1      1001 7.67533E-03 6.26027E-04-3.35986E-14
 -1      1002 8.02459E-03 8.91782E-04-3.62894E-14
 -1      1003 8.36934E-03 1.15297E-03-3.90688E-14
 -1      1004 8.70431E-03 1.40626E-03-4.19262E-14
 -1      1005 9.02768E-03 1.65333E-03-4.48681E-14
 -1      1006 9.34046E-03 1.89694E-03-4.78889E-14
 -1      1007 9.64470E-03 2.13953E-03-5.09784E-14
 -1      1008 9.94265E-03 2.38251E-03-5.41345E-14
 -1      1009 1.02362E-02 2.62653E-03-5.73461E-14
 -1      1010 1.05268E-02 2.87173E-03-6.05989E-14
 -1      1011 1.08154E-02 3.11799E-03-6.38969E-14
 -1      1012 1.11029E-02 3.36510E-03-6.72341E-14
 -1      1013 1.13895E-02 3.61285E-03-7.06114E-14
 -1      1014 1.16758E-02 3.86105E-03-7.40221E-14
 -1      1015 1.19617E-02 4.10953E-03-7.74641E-14
 -1      1016 1.22476E-02 4.35821E-03-8.09355E-14
 -1      1017 1.25333E-02 4.60700E-03-8.44343E-14
 -1      1018 1.28190E-02 4.85586E-03-8.79532E-14
 -1      1019 1.31047E-02 5.10475E-03-9.14902E-14
 -1      1020 3.90750E-03 1.91053E-04-1.06691E-14
 -1      1021 1.69174E-03 2.94743E-05-2.38283E-15
 -1      1022 1.25310E-02 4.18178E-03-7.37190E-14
 -1      1023 1.28165E-02 4.43016E-03-7.71517E-14
 -1      1024 1.31020E-02 4.67878E-03-8.06115E-14
 -1      1025 2.20603E-03-1.12805E-04-3.88852E-15
 -1      1026 1.33877E-02 4.92754E-03-8.40935E-14
 -1      1027 1.36733E-02 5.17638E-03-8.75910E-14
 -1      1028 1.39590E-02 5.42527E-03-9.11016E-14
 -1      1029 7.36365E-03 3.97516E-04-3.13917E-14
 -1      1030 9.64469E-03 1.82695E-03-4.23114E-14
 -1      1031 1.22458E-02 3.93379E-03-7.03171E-14
 -1      1032 2.18816E-03 1.19923E-04-3.68669E-15
 -1      1033 1.58759E-03-8.63488E-05-2.16909E-15
 -1      1034 1.91556E-03-1.08554E-04-3.02610E-15
 -1      1035 1.19609E-02 3.68643E-03-6.69477E-14
 -1      1036 1.09196E-02 2.66800E-03-5.20801E-14
 -1      1037 1.02791E-02 2.25893E-03-4.77026E-14
 -1      1038 1.11123E-02 2.95443E-03-5.70906E-14
 -1      1039 1.40778E-02 5.56631E-03-9.35338E-14
 -1      1040 1.16766E-02 3.44007E-03-6.36176E-14
 -1      1041 5.03527E-03-7.33738E-05-1.63412E-14
 -1      1042 2.47736E-03 1.26595E-04-4.61590E-15
 -1      1043 3.62078E-03 1.69242E-04-9.26501E-15
 -1      1044 1.13939E-02 3.19606E-03-6.03332E-14
 -1      1045 3.05442E-03 1.42174E-04-6.76764E-15
 -1      1046 1.33495E-02 5.18903E-03-9.11882E-14
 -1      1047 9.36125E-03 1.69954E-03-4.17295E-14
 -1      1048 1.41943E-02 5.69278E-03-9.56191E-14
 -1      1049 4.45229E-03 1.21486E-04-1.33720E-14
 -1      1050 1.38301E-02 5.50414E-03-9.44522E-14
 -1      1051 1.92072E-03 1.15386E-04-2.91365E-15
 -1      1052 9.96794E-03 2.04159E-03-4.49779E-14
 -1      1053 8.74383E-03 1.33315E-03-3.86725E-14
 -1      1054 3.33796E-03 1.53531E-04-7.96971E-15
 -1      1055 4.17113E-03 1.61145E-04-1.19858E-14
 -1      1056 1.08323E-02 2.71627E-03-5.38950E-14
 -1      1057 8.54686E-03 1.24056E-03-3.88769E-14
 -1      1058 1.30293E-02 4.72898E-03-8.26096E-14
 -1      1059 2.93344E-03-3.38668E-05-6.43101E-15
 -1      1060 3.22842E-03-2.76242E-05-7.63026E-15
 -1      1061 3.52604E-03-1.90147E-05-8.92397E-15
 -1      1062 3.82817E-03-8.04155E-06-1.03110E-14
 -1      1063 4.13744E-03 4.01093E-06-1.17914E-14
 -1      1064 8.88682E-03 1.49002E-03-4.17337E-14
 -1      1065 9.21192E-03 1.73164E-03-4.46732E-14
 -1      1066 9.52377E-03 1.96978E-03-4.76929E-14
 -1      1067 9.82648E-03 2.20796E-03-5.07791E-14
 -1      1068 1.01228E-02 2.44766E-03-5.39315E-14
 -1      1069 1.04149E-02 2.68938E-03-5.71356E-14
 -1      1070 1.07044E-02 2.93303E-03-6.03857E-14
 -1      1071 1.09923E-02 3.17827E-03-6.36764E-14
 -1      1072 1.12792E-02 3.42473E-03-6.70075E-14
 -1      1073 1.15656E-02 3.67207E-03-7.03808E-14
 -1      1074 1.18517E-02 3.92001E-03-7.37909E-14
 -1      1075 1.21375E-02 4.16834E-03-7.72269E-14
 -1      1076 1.24233E-02 4.41692E-03-8.06932E-14
 -1      1077 1.27090E-02 4.66565E-03-8.41817E-14
 -1      1078 1.29947E-02 4.91448E-03-8.76977E-14
 -1      1079 2.03153E-03-1.07548E-05-3.32622E-15
 -1      1080 2.34792E-03-3.98734E-05-4.32016E-15
 -1      1081 1.24581E-02 4.23188E-03-7.56882E-14
 -1      1082 1.33150E-02 4.97776E-03-8.61047E-14
 -1      1083 1.36007E-02 5.22662E-03-8.96151E-14
 -1      1084 1.27437E-02 4.48033E-03-7.91383E-14
 -1      1085 2.76631E-03 1.33645E-04-5.64369E-15
 -1      1086 1.21726E-02 3.98379E-03-7.22658E-14
 -1      1087 1.18872E-02 3.73624E-03-6.88739E-14
 -1      1088 4.57331E-03-4.52082E-06-1.39511E-14
 -1      1089 2.64007E-03-3.78513E-05-5.32655E-15
 -1      1090 1.05551E-02 2.48428E-03-5.07704E-14
 -1      1091 3.78442E-03 9.90633E-05-1.00762E-14
 -1      1092 9.05348E-03 1.55041E-03-4.11549E-14
 -1      1093 1.07486E-02 2.76171E-03-5.57261E-14
 -1      1094 1.10327E-02 3.00156E-03-5.89462E-14
 -1      1095 1.16019E-02 3.48958E-03-6.55217E-14
 -1      1096 1.01804E-02 2.29603E-03-4.94613E-14
 -1      1097 9.86066E-03 2.07005E-03-4.67012E-14
 -1      1098 9.61527E-03 1.88437E-03-4.41897E-14
 -1      1099 2.91310E-03 6.24458E-05-6.28366E-15
 -1      1100 3.20089E-03 7.11455E-05-7.44991E-15
 -1      1101 2.41139E-03 4.33746E-05-4.47745E-15
 -1      1102 1.04651E-02 2.52633E-03-5.25637E-14
 -1      1103 1.32423E-02 5.02797E-03-8.81254E-14
 -1      1104 1.13529E-02 3.37654E-03-6.51115E-14
 -1      1105 1.13173E-02 3.24460E-03-6.22152E-14
 -1      1106 3.49140E-03 8.30674E-05-8.71642E-15
 -1      1107 0.00000E+00 0.00000E+00 0.00000E+00
 -1      1108 0.00000E+00 0.00000E+00 0.00000E+00
 -1      1109 0.00000E+00 0.00000E+00 0.00000E+00
 -1      1110 0.00000E+00 0.00000E+00 0.00000E+00
 -1      1111 0.00000E+00 0.00000E+00 0.00000E+00
 -1      1112 0.00000E+00 0.00000E+00 0.00000E+00
 -1      1113 0.00000E+00 0.00000E+00 0.00000E+00
 -1      1114 0.00000E+00 0.00000E+00 0.00000E+00
 -1      1115 0.00000E+00 0.00000E+00 0.00000E+00
 -1      1116 0.00000E+00 0.00000E+00 0.00000E+00
 -1      1117 0.00000E+00 0.00000E+00 0.00000E+00
 -1      1118 0.00000E+00 0.00000E+00 0.00000E+00
 -1      1119 0.00000E+00 0.00000E+00 0.00000E+00
 -1      1120 0.00000E+00 0.00000E+00 0.00000E+00
 -1      1121 0.00000E+00 0.00000E+00 0.00000E+00
 -1      1122 0.00000E+00 0.00000E+00 0.00000E+00
 -1      1123 0.00000E+00 0.00000E+00 0.00000E+00
 -1      1124 2.11814E-04-1.48393E-04 7.63007E-18
 -1      1125 5.52073E-04-3.37686E-04-6.07153E-17
 -1      1126 8.34181E-04-4.59356E-04-2.49001E-16
 -1      1127 1.10406E-03-5.41315E-04-5.75996E-16
 -1      1128 1.36980E-03-5.98981E-04-1.03316E-15
 -1      1129 1.63494E-03-6.40310E-04-1.61398E-15
 -1      1130 1.90128E-03-6.70036E-04-2.31698E-15
 -1      1131 2.16959E-03-6.91389E-04-3.14084E-15
 -1      1132 2.44001E-03-7.06790E-04-4.08420E-15
 -1      1133 2.71226E-03-7.18108E-04-5.14232E-15
 -1      1134 2.98577E-03-7.26779E-04-6.31023E-15
 -1      1135 3.25967E-03-7.33840E-04-7.58351E-15
 -1      1136 3.53279E-03-7.39907E-04-8.95627E-15
 -1      1137 3.80369E-03-7.45089E-04-1.04309E-14
 -1      1138 4.07061E-03-7.48843E-04-1.20041E-14
 -1      1139 4.33165E-03-7.49784E-04-1.36730E-14
 -1      1140 4.58486E-03-7.45516E-04-1.54382E-14
 -1      1141 4.82861E-03-7.32541E-04-1.73009E-14
 -1      1142 5.06195E-03-7.06373E-04-1.92613E-14
 -1      1143 5.28500E-03-6.61919E-04-2.13193E-14
 -1      1144 5.49927E-03-5.94168E-04-2.34741E-14
 -1      1145 5.70760E-03-4.99057E-04-2.57254E-14
 -1      1146 5.91389E-03-3.74293E-04-2.80803E-14
 -1      1147 6.12240E-03-2.19861E-04-3.05437E-14
 -1      1148 6.33704E-03-3.80283E-05-3.31130E-14
 -1      1149 6.56072E-03 1.67158E-04-3.57812E-14
 -1      1150 6.79503E-03 3.90680E-04-3.85437E-14
 -1      1151 7.04021E-03 6.27414E-04-4.14019E-14
 -1      1152 7.29545E-03 8.72796E-04-4.43583E-14
 -1      1153 7.55929E-03 1.12320E-03-4.74078E-14
 -1      1154 7.83001E-03 1.37604E-03-5.05360E-14
 -1      1155 8.10592E-03 1.62964E-03-5.37371E-14
 -1      1156 8.38553E-03 1.88305E-03-5.70024E-14
 -1      1157 8.66767E-03 2.13582E-03-6.03249E-14
 -1      1158 8.95145E-03 2.38780E-03-6.36915E-14
 -1      1159 9.23624E-03 2.63904E-03-6.70956E-14
 -1      1160 9.52161E-03 2.88965E-03-7.05294E-14
 -1      1161 9.80730E-03 3.13975E-03-7.39999E-14
 -1      1162 1.00931E-02 3.38947E-03-7.75007E-14
 -1      1163 1.03790E-02 3.63893E-03-8.10390E-14
 -1      1164 1.06649E-02 3.88819E-03-8.46141E-14
 -1      1165 1.09508E-02 4.13733E-03-8.82232E-14
 -1      1166 1.12366E-02 4.38638E-03-9.18611E-14
 -1      1167 1.15225E-02 4.63537E-03-9.55062E-14
 -1      1168 1.18083E-02 4.88434E-03-9.91457E-14
 -1      1169 1.20940E-02 5.13328E-03-1.02780E-13
 -1      1170 1.23798E-02 5.38222E-03-1.06429E-13
 -1      1171 1.26655E-02 5.63116E-03-1.10095E-13
 -1      1172 1.29512E-02 5.88011E-03-1.13776E-13
 -1      1173 1.32298E-02 6.12284E-03-1.17374E-13
 -1      1174 2.03109E-04 1.43176E-04 2.77691E-17
 -1      1175 5.37296E-04 3.30547E-04 2.69153E-17
 -1      1176 8.20175E-04 4.54353E-04-6.90095E-17
 -1      1177 1.09021E-03 5.37504E-04-2.80049E-16
 -1      1178 1.35586E-03 5.95657E-04-6.02464E-16
 -1      1179 1.62082E-03 6.36869E-04-1.03605E-15
 -1      1180 1.88706E-03 6.65801E-04-1.58364E-15
 -1      1181 2.15559E-03 6.85506E-04-2.24138E-15
 -1      1182 2.42694E-03 6.98125E-04-3.00367E-15
 -1      1183 2.70155E-03 7.05158E-04-3.87174E-15
 -1      1184 2.98000E-03 7.07602E-04-4.84324E-15
 -1      1185 3.26343E-03 7.06071E-04-5.91168E-15
 -1      1186 3.55401E-03 7.00972E-04-7.07580E-15
 -1      1187 3.85571E-03 6.92876E-04-8.33629E-15
 -1      1188 4.17554E-03 6.83438E-04-9.69420E-15
 -1      1189 4.52535E-03 6.77731E-04-1.11466E-14
 -1      1190 4.92412E-03 6.89996E-04-1.26947E-14
 -1      1191 5.38621E-03 7.53321E-04-1.42921E-14
 -1      1192 5.94821E-03 9.39336E-04-1.59708E-14
 -1      1193 6.57337E-03 1.33332E-03-1.76420E-14
 -1      1194 7.12944E-03 1.90984E-03-1.91579E-14
 -1      1195 7.54619E-03 2.56094E-03-2.06014E-14
 -1      1196 7.79160E-03 3.08318E-03-2.20733E-14
 -1      1197 7.93630E-03 3.22731E-03-2.36991E-14
 -1      1198 8.16468E-03 2.91707E-03-2.54995E-14
 -1      1199 8.59115E-03 2.41152E-03-2.74694E-14
 -1      1200 9.18285E-03 1.99599E-03-2.97166E-14
 -1      1201 9.81198E-03 1.82567E-03-3.22308E-14
 -1      1202 1.03769E-02 1.87941E-03-3.49445E-14
 -1      1203 1.08525E-02 2.06256E-03-3.77947E-14
 -1      1204 1.12524E-02 2.29900E-03-4.06999E-14
 -1      1205 1.16044E-02 2.55320E-03-4.36628E-14
 -1      1206 1.19276E-02 2.81141E-03-4.66905E-14
 -1      1207 1.22342E-02 3.06895E-03-4.97790E-14
 -1      1208 1.25238E-02 3.31822E-03-5.28689E-14
 -1      1209 1.28083E-02 3.56568E-03-5.60165E-14
 -1      1210 1.30972E-02 3.81796E-03-5.92874E-14
 -1      1211 1.33845E-02 4.06909E-03-6.26021E-14
 -1      1212 1.36709E-02 4.31941E-03-6.59569E-14
 -1      1213 1.39570E-02 4.56920E-03-6.93477E-14
 -1      1214 1.42428E-02 4.81864E-03-7.27621E-14
 -1      1215 1.45286E-02 5.06787E-03-7.61866E-14
 -1      1216 1.48143E-02 5.31696E-03-7.96478E-14
 -1      1217 1.51000E-02 5.56597E-03-8.31332E-14
 -1      1218 1.53857E-02 5.81494E-03-8.66306E-14
 -1      1219 1.56714E-02 6.06388E-03-9.01523E-14
 -1      1220 1.59571E-02 6.31281E-03-9.36689E-14
 -1      1221 1.62428E-02 6.56173E-03-9.71756E-14
 -1      1222 1.65286E-02 6.81065E-03-1.00687E-13
 -1      1223 1.68143E-02 7.05957E-03-1.04236E-13
 -1      1224 1.71000E-02 7.30848E-03-1.07777E-13
 -1      1225 1.73786E-02 7.55116E-03-1.11187E-13
 -1      1226 1.73919E-02 7.62725E-03-1.12958E-13
 -1      1227 1.71471E-02 7.54297E-03-1.13247E-13
 -1      1228 1.69024E-02 7.45868E-03-1.13613E-13
 -1      1229 1.66576E-02 7.37439E-03-1.13990E-13
 -1      1230 1.64129E-02 7.29011E-03-1.14355E-13
 -1      1231 1.61702E-02 7.20655E-03-1.14704E-13
 -1      1232 1.59275E-02 7.12300E-03-1.15025E-13
 -1      1233 1.56828E-02 7.03874E-03-1.15377E-13
 -1      1234 1.54380E-02 6.95448E-03-1.15762E-13
 -1      1235 1.51932E-02 6.87023E-03-1.16159E-13
 -1      1236 1.49485E-02 6.78598E-03-1.16554E-13
 -1      1237 1.47057E-02 6.70245E-03-1.16947E-13
 -1      1238 1.44630E-02 6.61891E-03-1.17345E-13
 -1      1239 1.42182E-02 6.53464E-03-1.17734E-13
 -1      1240 1.39734E-02 6.45037E-03-1.18110E-13
 -1      1241 1.37286E-02 6.36609E-03-1.18514E-13
 -1      1242 1.34858E-02 6.28252E-03-1.18936E-13
 -1      1243 1.02468E-02 1.40764E-03-2.99432E-14
 -1      1244 1.02564E-02 1.59043E-03-2.95097E-14
 -1      1245 1.01170E-02 1.81424E-03-2.87867E-14
 -1      1246 9.83908E-03 2.08520E-03-2.78793E-14
 -1      1247 9.44967E-03 2.39656E-03-2.68950E-14
 -1      1248 8.92085E-03 2.73209E-03-2.57712E-14
 -1      1249 8.27070E-03 2.98064E-03-2.45675E-14
 -1      1250 7.55290E-03 2.99541E-03-2.33854E-14
 -1      1251 6.86175E-03 2.74941E-03-2.23272E-14
 -1      1252 6.24347E-03 2.35130E-03-2.14178E-14
 -1      1253 5.69346E-03 1.91025E-03-2.06362E-14
 -1      1254 5.25000E-03 1.52083E-03-2.00273E-14
 -1      1255 4.93137E-03 1.21588E-03-1.96160E-14
 -1      1256 4.73628E-03 9.80346E-04-1.94079E-14
 -1      1257 4.66368E-03 7.81775E-04-1.94086E-14
 -1      1258 4.72238E-03 6.14359E-04-1.96433E-14
 -1      1259 4.90130E-03 4.68834E-04-2.00942E-14
 -1      1260 5.18011E-03 3.37655E-04-2.07404E-14
 -1      1261 5.52330E-03 2.27864E-04-2.15153E-14
 -1      1262 5.94138E-03 1.40379E-04-2.24690E-14
 -1      1263 6.43009E-03 9.12802E-05-2.35974E-14
 -1      1264 6.93806E-03 1.00008E-04-2.47636E-14
 -1      1265 7.45205E-03 1.69511E-04-2.59213E-14
 -1      1266 7.97486E-03 2.95402E-04-2.70398E-14
 -1      1267 8.49792E-03 4.64761E-04-2.80539E-14
 -1      1268 9.00393E-03 6.61147E-04-2.89109E-14
 -1      1269 9.45900E-03 8.63081E-04-2.95646E-14
 -1      1270 9.83569E-03 1.05688E-03-2.99736E-14
 -1      1271 1.01034E-02 1.23589E-03-3.01011E-14
 -1      1272 1.66816E-04-1.10372E-04-1.11808E-17
 -1      1273 1.12591E-04-5.69688E-05-3.12386E-17
 -1      1274 1.17689E-04-6.75838E-05-2.55601E-17
 -1      1275 1.08444E-04-4.34842E-05-4.03594E-17
 -1      1276 1.10320E-04-4.95987E-05-3.77844E-17
 -1      1277 2.26415E-04-1.07629E-04-8.89859E-17
 -1      1278 1.06838E-04-3.36076E-05-4.47911E-17
 -1      1279 1.07697E-04-3.83281E-05-4.36120E-17
 -1      1280 2.19136E-04-8.24625E-05-1.04612E-16
 -1      1281 1.06041E-04-2.53627E-05-4.71628E-17
 -1      1282 1.06479E-04-2.93900E-05-4.66614E-17
 -1      1283 2.15845E-04-6.32921E-05-1.12865E-16
 -1      1284 1.05630E-04-1.81125E-05-4.79488E-17
 -1      1285 1.05865E-04-2.16757E-05-4.78811E-17
 -1      1286 2.14161E-04-4.72242E-05-1.16877E-16
 -1      1287 1.05402E-04-1.12754E-05-4.82334E-17
 -1      1288 1.05528E-04-1.46539E-05-4.83690E-17
 -1      1289 2.13227E-04-3.28076E-05-1.18381E-16
 -1      1290 1.05301E-04-4.74454E-06-4.74474E-17
 -1      1291 1.05354E-04-7.98862E-06-4.77456E-17
 -1      1292 2.12718E-04-1.92725E-05-1.17975E-16
 -1      1293 1.05292E-04 1.66265E-06-4.65800E-17
 -1      1294 1.05289E-04-1.53841E-06-4.68917E-17
 -1      1295 2.12500E-04-6.28005E-06-1.16281E-16
 -1      1296 1.05370E-04 8.11254E-06-4.51706E-17
 -1      1297 1.05310E-04 4.86883E-06-4.55500E-17
 -1      1298 2.12513E-04 6.53901E-06-1.13719E-16
 -1      1299 1.05556E-04 1.47793E-05-4.33410E-17
 -1      1300 1.05424E-04 1.14001E-05-4.38695E-17
 -1      1301 2.12755E-04 1.95300E-05-1.10006E-16
 -1      1302 1.05900E-04 2.17460E-05-4.05492E-17
 -1      1303 1.05660E-04 1.81818E-05-4.13759E-17
 -1      1304 2.13282E-04 3.29498E-05-1.04802E-16
 -1      1305 1.06535E-04 2.95388E-05-3.65647E-17
 -1      1306 1.06090E-04 2.55002E-05-3.78793E-17
 -1      1307 2.14238E-04 4.73681E-05-9.75917E-17
 -1      1308 1.07753E-04 3.85286E-05-3.09269E-17
 -1      1309 1.06893E-04 3.37863E-05-3.30817E-17
 -1      1310 2.15968E-04 6.36183E-05-8.76171E-17
 -1      1311 1.10382E-04 4.98461E-05-2.19958E-17
 -1      1312 1.08490E-04 4.37002E-05-2.58176E-17
 -1      1313 2.19248E-04 8.28803E-05-7.32108E-17
 -1      1314 1.17803E-04 6.79231E-05-7.26415E-18
 -1      1315 1.12649E-04 5.72609E-05-1.40404E-17
 -1      1316 2.26566E-04 1.08198E-04-5.11337E-17
 -1      1317 1.59232E-04 1.05696E-04 1.08691E-17
 -1      1318 4.21850E-04-2.61844E-04-6.93754E-17
 -1      1319 5.75071E-04-3.36972E-04-1.34075E-16
 -1      1320 7.22383E-04-3.97662E-04-2.35285E-16
 -1      1321 8.65676E-04-4.47067E-04-3.70025E-16
 -1      1322 6.12484E-04-3.31078E-04-2.17166E-16
 -1      1323 1.00583E-03-4.88276E-04-5.36409E-16
 -1      1324 1.14380E-03-5.22433E-04-7.34940E-16
 -1      1325 9.05921E-04-4.31997E-04-4.93556E-16
 -1      1326 1.28041E-03-5.51414E-04-9.65103E-16
 -1      1327 1.41618E-03-5.75704E-04-1.22657E-15
 -1      1328 1.18854E-03-5.01758E-04-8.96039E-16
 -1      1329 1.55154E-03-5.96379E-04-1.51799E-15
 -1      1330 1.68673E-03-6.13781E-04-1.84003E-15
 -1      1331 1.46564E-03-5.51042E-04-1.42140E-15
 -1      1332 1.82199E-03-6.28556E-04-2.19207E-15
 -1      1333 1.95742E-03-6.41004E-04-2.57383E-15
 -1      1334 1.74044E-03-5.86110E-04-2.06702E-15
 -1      1335 2.09313E-03-6.51554E-04-2.98569E-15
 -1      1336 2.22914E-03-6.60460E-04-3.42710E-15
 -1      1337 2.01473E-03-6.11050E-04-2.83129E-15
 -1      1338 2.36548E-03-6.68032E-04-3.89772E-15
 -1      1339 2.50213E-03-6.74480E-04-4.39712E-15
 -1      1340 2.28939E-03-6.28812E-04-3.71284E-15
 -1      1341 2.63907E-03-6.80036E-04-4.92473E-15
 -1      1342 2.77623E-03-6.84863E-04-5.47999E-15
 -1      1343 2.56471E-03-6.41634E-04-4.70895E-15
 -1      1344 2.91357E-03-6.89142E-04-6.06173E-15
 -1      1345 3.05097E-03-6.92983E-04-6.66992E-15
 -1      1346 2.84062E-03-6.51245E-04-5.81555E-15
 -1      1347 3.18835E-03-6.96523E-04-7.30401E-15
 -1      1348 3.32559E-03-6.99815E-04-7.96386E-15
 -1      1349 3.11673E-03-6.58952E-04-7.02799E-15
 -1      1350 3.46254E-03-7.02944E-04-8.64855E-15
 -1      1351 3.59907E-03-7.05895E-04-9.35778E-15
 -1      1352 3.39240E-03-6.65657E-04-8.34256E-15
 -1      1353 3.73499E-03-7.08688E-04-1.00929E-14
 -1      1354 3.87013E-03-7.11221E-04-1.08530E-14
 -1      1355 3.66677E-03-6.71809E-04-9.75798E-15
 -1      1356 4.00430E-03-7.13423E-04-1.16367E-14
 -1      1357 4.13730E-03-7.15087E-04-1.24448E-14
 -1      1358 3.93877E-03-6.77276E-04-1.12723E-14
 -1      1359 4.26894E-03-7.16015E-04-1.32773E-14
 -1      1360 4.39900E-03-7.15881E-04-1.41333E-14
 -1      1361 4.20715E-03-6.81166E-04-1.28834E-14
 -1      1362 4.52732E-03-7.14332E-04-1.50137E-14
 -1      1363 4.65373E-03-7.10913E-04-1.59185E-14
 -1      1364 4.47063E-03-6.81619E-04-1.45917E-14
 -1      1365 4.77809E-03-7.05108E-04-1.68473E-14
 -1      1366 4.90032E-03-6.96351E-04-1.78006E-14
 -1      1367 4.72800E-03-6.75631E-04-1.63965E-14
 -1      1368 5.02037E-03-6.83987E-04-1.87788E-14
 -1      1369 5.13827E-03-6.67386E-04-1.97806E-14
 -1      1370 4.97844E-03-6.59034E-04-1.82989E-14
 -1      1371 5.25411E-03-6.45830E-04-2.08067E-14
 -1      1372 5.36803E-03-6.18709E-04-2.18580E-14
 -1      1373 5.22168E-03-6.26727E-04-2.02977E-14
 -1      1374 5.48029E-03-5.85356E-04-2.29326E-14
 -1      1375 5.59116E-03-5.45282E-04-2.40327E-14
 -1      1376 5.45833E-03-5.73239E-04-2.23943E-14
 -1      1377 5.70101E-03-4.98012E-04-2.51569E-14
 -1      1378 5.81023E-03-4.43271E-04-2.63051E-14
 -1      1379 5.68989E-03-4.93598E-04-2.45888E-14
 -1      1380 5.91926E-03-3.80883E-04-2.74826E-14
 -1      1381 6.02852E-03-3.10849E-04-2.86859E-14
 -1      1382 5.91871E-03-3.84286E-04-2.68868E-14
 -1      1383 6.13846E-03-2.33335E-04-2.99156E-14
 -1      1384 6.24947E-03-1.48618E-04-3.11720E-14
 -1      1385 6.14761E-03-2.44022E-04-2.92894E-14
 -1      1386 6.36191E-03-5.71631E-05-3.24532E-14
 -1      1387 6.47609E-03 4.05354E-05-3.37612E-14
 -1      1388 6.37944E-03-7.40535E-05-3.17979E-14
 -1      1389 6.59224E-03 1.43819E-04-3.50939E-14
 -1      1390 6.71053E-03 2.52072E-04-3.64493E-14
 -1      1391 6.61657E-03 1.22132E-04-3.44084E-14
 -1      1392 6.83106E-03 3.64579E-04-3.78289E-14
 -1      1393 6.95387E-03 4.80703E-04-3.92310E-14
 -1      1394 6.86056E-03 3.39573E-04-3.71156E-14
 -1      1395 7.07892E-03 5.99786E-04-4.06587E-14
 -1      1396 7.20615E-03 7.21250E-04-4.21109E-14
 -1      1397 7.11208E-03 5.72789E-04-3.99188E-14
 -1      1398 7.33543E-03 8.44572E-04-4.35864E-14
 -1      1399 7.46663E-03 9.69275E-04-4.50848E-14
 -1      1400 7.37098E-03 8.16632E-04-4.28170E-14
 -1      1401 7.59958E-03 1.09499E-03-4.66047E-14
 -1      1402 7.73411E-03 1.22137E-03-4.81451E-14
 -1      1403 7.63652E-03 1.06684E-03-4.58055E-14
 -1      1404 7.87003E-03 1.34819E-03-4.97064E-14
 -1      1405 8.00717E-03 1.47520E-03-5.12847E-14
 -1      1406 7.90765E-03 1.32026E-03-4.88805E-14
 -1      1407 8.14538E-03 1.60229E-03-5.28807E-14
 -1      1408 8.28449E-03 1.72930E-03-5.44950E-14
 -1      1409 8.18322E-03 1.57479E-03-5.20314E-14
 -1      1410 8.42435E-03 1.85620E-03-5.61230E-14
 -1      1411 8.56486E-03 1.98291E-03-5.77644E-14
 -1      1412 8.46215E-03 1.82921E-03-5.52469E-14
 -1      1413 8.70589E-03 2.10943E-03-5.94206E-14
 -1      1414 8.84735E-03 2.23571E-03-6.10901E-14
 -1      1415 8.74349E-03 2.08290E-03-5.85235E-14
 -1      1416 8.98916E-03 2.36179E-03-6.27700E-14
 -1      1417 9.13124E-03 2.48764E-03-6.44574E-14
 -1      1418 9.02652E-03 2.33565E-03-6.18508E-14
 -1      1419 9.27354E-03 2.61331E-03-6.61561E-14
 -1      1420 9.41601E-03 2.73879E-03-6.78636E-14
 -1      1421 9.31067E-03 2.58749E-03-6.52227E-14
 -1      1422 9.55861E-03 2.86413E-03-6.95791E-14
 -1      1423 9.70130E-03 2.98931E-03-7.13027E-14
 -1      1424 9.59553E-03 2.83853E-03-6.86305E-14
 -1      1425 9.84407E-03 3.11437E-03-7.30352E-14
 -1      1426 9.98690E-03 3.23933E-03-7.47778E-14
 -1      1427 9.88084E-03 3.08895E-03-7.20746E-14
 -1      1428 1.01298E-02 3.36420E-03-7.65254E-14
 -1      1429 1.02726E-02 3.48899E-03-7.82796E-14
 -1      1430 1.01664E-02 3.33889E-03-7.55505E-14
 -1      1431 1.04155E-02 3.61372E-03-8.00464E-14
 -1      1432 1.05585E-02 3.73839E-03-8.18240E-14
 -1      1433 1.04521E-02 3.58849E-03-7.90591E-14
 -1      1434 1.07014E-02 3.86302E-03-8.36059E-14
 -1      1435 1.08443E-02 3.98762E-03-8.53970E-14
 -1      1436 1.07379E-02 3.83784E-03-8.26010E-14
 -1      1437 1.09872E-02 4.11218E-03-8.71980E-14
 -1      1438 1.11301E-02 4.23672E-03-8.90049E-14
 -1      1439 1.10236E-02 4.08703E-03-8.61766E-14
 -1      1440 1.12730E-02 4.36125E-03-9.08171E-14
 -1      1441 1.14159E-02 4.48576E-03-9.26334E-14
 -1      1442 1.13094E-02 4.33611E-03-8.97813E-14
 -1      1443 1.15588E-02 4.61025E-03-9.44504E-14
 -1      1444 1.17017E-02 4.73474E-03-9.62678E-14
 -1      1445 1.15952E-02 4.58513E-03-9.34015E-14
 -1      1446 1.18446E-02 4.85922E-03-9.80847E-14
 -1      1447 1.19875E-02 4.98370E-03-9.99004E-14
 -1      1448 1.18810E-02 4.83410E-03-9.70273E-14
 -1      1449 1.21304E-02 5.10817E-03-1.01720E-13
 -1      1450 1.22732E-02 5.23264E-03-1.03538E-13
 -1      1451 1.21667E-02 5.08305E-03-1.00659E-13
 -1      1452 1.24161E-02 5.35711E-03-1.05362E-13
 -1      1453 1.25590E-02 5.48158E-03-1.07189E-13
 -1      1454 1.24525E-02 5.33199E-03-1.04296E-13
 -1      1455 1.27019E-02 5.60604E-03-1.09020E-13
 -1      1456 1.28447E-02 5.73051E-03-1.10854E-13
 -1      1457 1.27382E-02 5.58093E-03-1.07947E-13
 -1      1458 1.29876E-02 5.85499E-03-1.12689E-13
 -1      1459 1.31304E-02 5.97946E-03-1.14529E-13
 -1      1460 1.30239E-02 5.82986E-03-1.11607E-13
 -1      1461 1.33501E-02 6.16426E-03-1.17179E-13
 -1      1462 1.33865E-02 6.13914E-03-1.16085E-13
 -1      1463 5.59974E-04 3.30423E-04-2.85687E-17
 -1      1464 4.06236E-04 2.53834E-04-3.65918E-19
 -1      1465 8.51301E-04 4.42431E-04-1.70409E-16
 -1      1466 7.07703E-04 3.92198E-04-8.55978E-17
 -1      1467 5.97524E-04 3.25184E-04-9.47186E-17
 -1      1468 1.12973E-03 5.18798E-04-4.21036E-16
 -1      1469 9.91641E-04 4.84233E-04-2.81757E-16
 -1      1470 8.91467E-04 4.27650E-04-2.77285E-16
 -1      1471 1.40220E-03 5.72418E-04-7.81520E-16
 -1      1472 1.26641E-03 5.48032E-04-5.87461E-16
 -1      1473 1.17442E-03 4.98251E-04-5.67200E-16
 -1      1474 1.67282E-03 6.10211E-04-1.25324E-15
 -1      1475 1.53759E-03 5.93032E-04-1.00355E-15
 -1      1476 1.45174E-03 5.47734E-04-9.66119E-16
 -1      1477 1.94375E-03 6.36416E-04-1.83709E-15
 -1      1478 1.80817E-03 6.24576E-04-1.53099E-15
 -1      1479 1.72679E-03 5.82336E-04-1.47518E-15
 -1      1480 2.21618E-03 6.53896E-04-2.52790E-15
 -1      1481 2.07973E-03 6.46107E-04-2.16938E-15
 -1      1482 2.00159E-03 6.06000E-04-2.09364E-15
 -1      1483 2.49080E-03 6.64650E-04-3.32475E-15
 -1      1484 2.35318E-03 6.60008E-04-2.91347E-15
 -1      1485 2.27731E-03 6.21410E-04-2.81959E-15
 -1      1486 2.76824E-03 6.70039E-04-4.22591E-15
 -1      1487 2.62913E-03 6.67934E-04-3.76232E-15
 -1      1488 2.55470E-03 6.30418E-04-3.64999E-15
 -1      1489 3.04927E-03 6.70914E-04-5.22774E-15
 -1      1490 2.90824E-03 6.70974E-04-4.71453E-15
 -1      1491 2.83444E-03 6.34242E-04-4.58323E-15
 -1      1492 3.33519E-03 6.67732E-04-6.32651E-15
 -1      1493 3.19150E-03 6.69764E-04-5.76519E-15
 -1      1494 3.11732E-03 6.33585E-04-5.61594E-15
 -1      1495 3.62824E-03 6.60740E-04-7.52171E-15
 -1      1496 3.48062E-03 6.64619E-04-6.91224E-15
 -1      1497 3.40453E-03 6.28754E-04-6.74580E-15
 -1      1498 3.93228E-03 6.50408E-04-8.81294E-15
 -1      1499 3.77854E-03 6.55820E-04-8.15496E-15
 -1      1500 3.69797E-03 6.19878E-04-7.97139E-15
 -1      1501 4.25357E-03 6.38531E-04-1.01988E-14
 -1      1502 4.09021E-03 6.44302E-04-9.49467E-15
 -1      1503 4.00056E-03 6.07445E-04-9.29217E-15
 -1      1504 4.60180E-03 6.31029E-04-1.16803E-14
 -1      1505 4.42348E-03 6.33425E-04-1.09281E-14
 -1      1506 4.31663E-03 5.93683E-04-1.07078E-14
 -1      1507 4.99076E-03 6.44815E-04-1.32542E-14
 -1      1508 4.79004E-03 6.33356E-04-1.24557E-14
 -1      1509 4.65207E-03 5.86016E-04-1.22169E-14
 -1      1510 5.41367E-03 7.15694E-04-1.48321E-14
 -1      1511 5.19454E-03 6.69434E-04-1.40332E-14
 -1      1512 5.00513E-03 6.04001E-04-1.37751E-14
 -1      1513 5.93031E-03 9.37316E-04-1.65777E-14
 -1      1514 5.66215E-03 7.99643E-04-1.56931E-14
 -1      1515 5.39365E-03 6.93300E-04-1.54168E-14
 -1      1516 6.42701E-03 1.34576E-03-1.81360E-14
 -1      1517 6.17337E-03 1.10808E-03-1.73474E-14
 -1      1518 5.80908E-03 9.27282E-04-1.70519E-14
 -1      1519 6.88824E-03 1.92759E-03-1.95778E-14
 -1      1520 6.65861E-03 1.60887E-03-1.88480E-14
 -1      1521 6.21985E-03 1.33829E-03-1.85344E-14
 -1      1522 7.74149E-03 3.15212E-03-2.25898E-14
 -1      1523 7.59612E-03 2.95943E-03-2.18288E-14
 -1      1524 8.03863E-03 3.16786E-03-2.43031E-14
 -1      1525 7.88844E-03 3.22934E-03-2.34328E-14
 -1      1526 7.77253E-03 3.17766E-03-2.31636E-14
 -1      1527 8.39895E-03 2.74458E-03-2.61231E-14
 -1      1528 8.20638E-03 2.98654E-03-2.51987E-14
 -1      1529 8.19941E-03 3.04231E-03-2.49012E-14
 -1      1530 8.88095E-03 2.21335E-03-2.81698E-14
 -1      1531 8.63260E-03 2.46441E-03-2.71333E-14
 -1      1532 8.66146E-03 2.52991E-03-2.68044E-14
 -1      1533 9.45178E-03 1.85382E-03-3.05633E-14
 -1      1534 9.16747E-03 1.99658E-03-2.93580E-14
 -1      1535 9.17443E-03 2.01554E-03-2.90009E-14
 -1      1536 1.00057E-02 1.77256E-03-3.31625E-14
 -1      1537 9.73718E-03 1.78212E-03-3.18543E-14
 -1      1538 9.69701E-03 1.75094E-03-3.14814E-14
 -1      1539 1.05060E-02 1.88965E-03-3.59663E-14
 -1      1540 1.02662E-02 1.81327E-03-3.45553E-14
 -1      1541 1.01846E-02 1.75259E-03-3.41683E-14
 -1      1542 1.09317E-02 2.10256E-03-3.88361E-14
 -1      1543 1.07271E-02 1.98876E-03-3.73928E-14
 -1      1544 1.06203E-02 1.91632E-03-3.69933E-14
 -1      1545 1.13039E-02 2.35089E-03-4.17562E-14
 -1      1546 1.11234E-02 2.22427E-03-4.02913E-14
 -1      1547 1.10051E-02 2.14933E-03-3.98801E-14
 -1      1548 1.16411E-02 2.60946E-03-4.47465E-14
 -1      1549 1.14760E-02 2.47966E-03-4.32433E-14
 -1      1550 1.13534E-02 2.40553E-03-4.28260E-14
 -1      1551 1.19566E-02 2.86903E-03-4.77942E-14
 -1      1552 1.18010E-02 2.73939E-03-4.62628E-14
 -1      1553 1.16773E-02 2.66682E-03-4.58335E-14
 -1      1554 1.22592E-02 3.12677E-03-5.09089E-14
 -1      1555 1.21091E-02 2.99820E-03-4.93430E-14
 -1      1556 1.19857E-02 2.92705E-03-4.89063E-14
 -1      1557 1.25396E-02 3.36948E-03-5.39405E-14
 -1      1558 1.24000E-02 3.24839E-03-5.24162E-14
 -1      1559 1.22771E-02 3.17828E-03-5.19661E-14
 -1      1560 1.28305E-02 3.62302E-03-5.71768E-14
 -1      1561 1.26855E-02 3.49648E-03-5.55533E-14
 -1      1562 1.25630E-02 3.42710E-03-5.50884E-14
 -1      1563 1.31190E-02 3.87503E-03-6.04636E-14
 -1      1564 1.29750E-02 3.74920E-03-5.88149E-14
 -1      1565 1.28529E-02 3.68031E-03-5.83436E-14
 -1      1566 1.34061E-02 4.12594E-03-6.37872E-14
 -1      1567 1.32627E-02 4.00060E-03-6.21208E-14
 -1      1568 1.31410E-02 3.93204E-03-6.16420E-14
 -1      1569 1.36925E-02 4.37611E-03-6.71545E-14
 -1      1570 1.35494E-02 4.25110E-03-6.54656E-14
 -1      1571 1.34279E-02 4.18274E-03-6.49759E-14
 -1      1572 1.39786E-02 4.62578E-03-7.05476E-14
 -1      1573 1.38356E-02 4.50099E-03-6.88472E-14
 -1      1574 1.37142E-02 4.43276E-03-6.83463E-14
 -1      1575 1.42644E-02 4.87515E-03-7.39632E-14
 -1      1576 1.41215E-02 4.75050E-03-7.22533E-14
 -1      1577 1.40002E-02 4.68234E-03-7.17482E-14
 -1      1578 1.45502E-02 5.12433E-03-7.74045E-14
 -1      1579 1.44073E-02 4.99976E-03-7.56816E-14
 -1      1580 1.42861E-02 4.93164E-03-7.51732E-14
 -1      1581 1.48359E-02 5.37339E-03-8.08768E-14
 -1      1582 1.46931E-02 5.24887E-03-7.91368E-14
 -1      1583 1.45719E-02 5.18078E-03-7.86260E-14
 -1      1584 1.51217E-02 5.62238E-03-8.43621E-14
 -1      1585 1.49788E-02 5.49789E-03-8.26178E-14
 -1      1586 1.48576E-02 5.42981E-03-8.21031E-14
 -1      1587 1.54074E-02 5.87134E-03-8.78695E-14
 -1      1588 1.52645E-02 5.74687E-03-8.61125E-14
 -1      1589 1.51434E-02 5.67880E-03-8.55962E-14
 -1      1590 1.56931E-02 6.12028E-03-9.13909E-14
 -1      1591 1.55502E-02 5.99581E-03-8.96271E-14
 -1      1592 1.54291E-02 5.92775E-03-8.91068E-14
 -1      1593 1.59788E-02 6.36921E-03-9.49019E-14
 -1      1594 1.58360E-02 6.24475E-03-9.31492E-14
 -1      1595 1.57148E-02 6.17668E-03-9.26237E-14
 -1      1596 1.62645E-02 6.61813E-03-9.84133E-14
 -1      1597 1.61217E-02 6.49367E-03-9.66579E-14
 -1      1598 1.60005E-02 6.42561E-03-9.61391E-14
 -1      1599 1.65503E-02 6.86705E-03-1.01934E-13
 -1      1600 1.64074E-02 6.74259E-03-1.00173E-13
 -1      1601 1.62862E-02 6.67453E-03-9.96554E-14
 -1      1602 1.68360E-02 7.11596E-03-1.05480E-13
 -1      1603 1.66931E-02 6.99150E-03-1.03706E-13
 -1      1604 1.65720E-02 6.92344E-03-1.03182E-13
 -1      1605 1.71217E-02 7.36487E-03-1.08994E-13
 -1      1606 1.69788E-02 7.24042E-03-1.07240E-13
 -1      1607 1.68577E-02 7.17235E-03-1.06708E-13
 -1      1608 1.73246E-02 7.55518E-03-1.11806E-13
 -1      1609 1.71889E-02 7.43695E-03-1.10157E-13
 -1      1610 1.70678E-02 7.36888E-03-1.09627E-13
 -1      1611 1.72023E-02 7.51303E-03-1.11945E-13
 -1      1612 1.69575E-02 7.42875E-03-1.12256E-13
 -1      1613 1.70799E-02 7.47089E-03-1.12095E-13
 -1      1614 1.70126E-02 7.39882E-03-1.10935E-13
 -1      1615 1.67128E-02 7.34446E-03-1.12626E-13
 -1      1616 1.68351E-02 7.38661E-03-1.12435E-13
 -1      1617 1.67679E-02 7.31453E-03-1.11266E-13
 -1      1618 1.64680E-02 7.26018E-03-1.12982E-13
 -1      1619 1.65904E-02 7.30232E-03-1.12808E-13
 -1      1620 1.65231E-02 7.23025E-03-1.11621E-13
 -1      1621 1.62233E-02 7.17590E-03-1.13340E-13
 -1      1622 1.63456E-02 7.21804E-03-1.13164E-13
 -1      1623 1.62784E-02 7.14597E-03-1.11977E-13
 -1      1624 1.59827E-02 7.09306E-03-1.13676E-13
 -1      1625 1.61030E-02 7.13448E-03-1.13509E-13
 -1      1626 1.60357E-02 7.06241E-03-1.12320E-13
 -1      1627 1.57379E-02 7.00879E-03-1.14004E-13
 -1      1628 1.58603E-02 7.05092E-03-1.13838E-13
 -1      1629 1.57930E-02 6.97885E-03-1.12651E-13
 -1      1630 1.54932E-02 6.92453E-03-1.14376E-13
 -1      1631 1.56155E-02 6.96666E-03-1.14187E-13
 -1      1632 1.55483E-02 6.89458E-03-1.12997E-13
 -1      1633 1.52484E-02 6.84028E-03-1.14754E-13
 -1      1634 1.53708E-02 6.88240E-03-1.14565E-13
 -1      1635 1.53035E-02 6.81032E-03-1.13366E-13
 -1      1636 1.50036E-02 6.75602E-03-1.15146E-13
 -1      1637 1.51260E-02 6.79815E-03-1.14946E-13
 -1      1638 1.50588E-02 6.72607E-03-1.13742E-13
 -1      1639 1.47588E-02 6.67177E-03-1.15533E-13
 -1      1640 1.48812E-02 6.71390E-03-1.15342E-13
 -1      1641 1.48140E-02 6.64181E-03-1.14127E-13
 -1      1642 1.45182E-02 6.58894E-03-1.15924E-13
 -1      1643 1.46385E-02 6.63036E-03-1.15729E-13
 -1      1644 1.45713E-02 6.55827E-03-1.14512E-13
 -1      1645 1.42734E-02 6.50468E-03-1.16312E-13
 -1      1646 1.43958E-02 6.54681E-03-1.16120E-13
 -1      1647 1.43285E-02 6.47472E-03-1.14897E-13
 -1      1648 1.40285E-02 6.42041E-03-1.16701E-13
 -1      1649 1.41510E-02 6.46255E-03-1.16507E-13
 -1      1650 1.40837E-02 6.39046E-03-1.15282E-13
 -1      1651 1.37837E-02 6.33614E-03-1.17079E-13
 -1      1652 1.39061E-02 6.37828E-03-1.16889E-13
 -1      1653 1.38389E-02 6.30619E-03-1.15664E-13
 -1      1654 1.02826E-02 1.45217E-03-3.04127E-14
 -1      1655 1.02469E-02 1.40202E-03-3.05625E-14
 -1      1656 1.02358E-02 1.57714E-03-2.99022E-14
 -1      1657 1.02792E-02 1.51603E-03-3.01886E-14
 -1      1658 9.99984E-03 1.76581E-03-2.90517E-14
 -1      1659 1.01319E-02 1.66647E-03-2.94927E-14
 -1      1660 9.64971E-03 2.05055E-03-2.79655E-14
 -1      1661 9.82560E-03 1.91813E-03-2.84288E-14
 -1      1662 9.18741E-03 2.40506E-03-2.68501E-14
 -1      1663 9.41287E-03 2.22884E-03-2.73793E-14
 -1      1664 8.64094E-03 2.80495E-03-2.55776E-14
 -1      1665 8.90255E-03 2.62115E-03-2.61804E-14
 -1      1666 8.05652E-03 3.08179E-03-2.42670E-14
 -1      1667 8.32162E-03 2.98542E-03-2.48693E-14
 -1      1668 7.47556E-03 3.02737E-03-2.29928E-14
 -1      1669 7.74656E-03 3.10002E-03-2.35678E-14
 -1      1670 6.89449E-03 2.66544E-03-2.19102E-14
 -1      1671 7.15767E-03 2.85679E-03-2.23857E-14
 -1      1672 6.33044E-03 2.15829E-03-2.09353E-14
 -1      1673 6.60086E-03 2.39804E-03-2.13524E-14
 -1      1674 5.74271E-03 1.67300E-03-2.01587E-14
 -1      1675 6.00139E-03 1.89013E-03-2.05033E-14
 -1      1676 5.25360E-03 1.30707E-03-1.95864E-14
 -1      1677 5.45970E-03 1.46419E-03-1.98346E-14
 -1      1678 4.90807E-03 1.04298E-03-1.91823E-14
 -1      1679 5.05295E-03 1.14797E-03-1.93312E-14
 -1      1680 4.70150E-03 8.76364E-04-1.90429E-14
 -1      1681 4.77703E-03 9.47313E-04-1.90922E-14
 -1      1682 4.64670E-03 7.41678E-04-1.90613E-14
 -1      1683 4.65073E-03 7.96967E-04-1.89993E-14
 -1      1684 4.75166E-03 6.32117E-04-1.94061E-14
 -1      1685 4.68651E-03 6.80211E-04-1.92431E-14
 -1      1686 4.99826E-03 5.21209E-04-1.98998E-14
 -1      1687 4.86753E-03 5.77286E-04-1.96206E-14
 -1      1688 5.32467E-03 3.83859E-04-2.06549E-14
 -1      1689 5.16553E-03 4.44226E-04-2.03094E-14
 -1      1690 5.70183E-03 2.51157E-04-2.15107E-14
 -1      1691 5.52287E-03 3.12530E-04-2.10976E-14
 -1      1692 6.14192E-03 1.27086E-04-2.25649E-14
 -1      1693 5.93736E-03 1.84188E-04-2.20381E-14
 -1      1694 6.59620E-03 4.88236E-05-2.38184E-14
 -1      1695 6.38419E-03 7.61241E-05-2.32340E-14
 -1      1696 7.04035E-03 5.90166E-05-2.50709E-14
 -1      1697 6.83768E-03 4.42135E-05-2.45006E-14
 -1      1698 7.49859E-03 1.58313E-04-2.63296E-14
 -1      1699 7.28371E-03 1.01102E-04-2.57482E-14
 -1      1700 7.96117E-03 3.37050E-04-2.75531E-14
 -1      1701 7.74259E-03 2.45340E-04-2.70165E-14
 -1      1702 8.47996E-03 5.70787E-04-2.86280E-14
 -1      1703 8.24046E-03 4.57432E-04-2.81445E-14
 -1      1704 9.00455E-03 8.10568E-04-2.95020E-14
 -1      1705 8.76780E-03 6.99186E-04-2.91174E-14
 -1      1706 9.48829E-03 1.02951E-03-3.01668E-14
 -1      1707 9.27092E-03 9.32776E-04-2.98925E-14
 -1      1708 9.88983E-03 1.20459E-03-3.05482E-14
 -1      1709 9.71698E-03 1.12971E-03-3.04097E-14
 -1      1710 1.01617E-02 1.33719E-03-3.06167E-14
 -1      1711 1.00538E-02 1.28078E-03-3.06260E-14
 -1      1712 2.78204E-04 1.72772E-04-1.08149E-17
 -1      1713 7.16888E-03 2.31139E-03-2.03469E-14
 -1      1714 6.71231E-03 1.98310E-03-2.00150E-14
 -1      1715 7.36262E-03 2.63680E-03-2.10653E-14
 -1      1716 1.01713E-02 1.57719E-03-3.02007E-14
 -1      1717 1.02147E-02 1.40905E-03-3.11209E-14
 -1      1718 1.02911E-02 1.48125E-03-3.08399E-14
 -1      1719 1.35436E-02 6.23722E-03-1.17034E-13
 -1      1720 1.36660E-02 6.27936E-03-1.16827E-13
 -1      1721 1.35988E-02 6.20727E-03-1.15601E-13
 -1      1722 9.87105E-03 1.76503E-03-2.91577E-14
 -1      1723 9.44862E-03 2.07313E-03-2.79368E-14
 -1      1724 8.94320E-03 2.48044E-03-2.66658E-14
 -1      1725 8.40639E-03 2.91044E-03-2.52729E-14
 -1      1726 7.90065E-03 3.14201E-03-2.38569E-14
 -1      1727 7.40899E-03 2.97707E-03-2.25534E-14
 -1      1728 6.88008E-03 2.50445E-03-2.13988E-14
 -1      1729 6.30574E-03 1.94015E-03-2.04257E-14
 -1      1730 5.70553E-03 1.46393E-03-1.96861E-14
 -1      1731 5.21151E-03 1.12403E-03-1.91205E-14
 -1      1732 4.86243E-03 9.18538E-04-1.87873E-14
 -1      1733 4.66959E-03 7.93409E-04-1.86596E-14
 -1      1734 4.65591E-03 7.16144E-04-1.87982E-14
 -1      1735 4.81590E-03 6.37470E-04-1.91886E-14
 -1      1736 5.10572E-03 5.32933E-04-1.97986E-14
 -1      1737 5.47075E-03 3.90532E-04-2.06378E-14
 -1      1738 5.88170E-03 2.38283E-04-2.15949E-14
 -1      1739 6.30696E-03 9.52539E-05-2.27773E-14
 -1      1740 6.72466E-03 2.03733E-05-2.41219E-14
 -1      1741 7.13530E-03 5.20061E-05-2.54801E-14
 -1      1742 7.55378E-03 1.90180E-04-2.68477E-14
 -1      1743 8.00766E-03 4.20357E-04-2.81378E-14
 -1      1744 8.53054E-03 6.91323E-04-2.92343E-14
 -1      1745 9.06740E-03 9.53236E-04-3.01275E-14
 -1      1746 9.56328E-03 1.16687E-03-3.07704E-14
 -1      1747 9.96256E-03 1.31353E-03-3.10966E-14
 -1      1748 2.85436E-04-1.76277E-04-5.95363E-17
 -1      1749 7.29292E-03 2.74336E-03-2.15542E-14
 -1      1750 3.32208E-04-1.16806E-04-1.64785E-16
 -1      1751 3.36385E-04-1.33048E-04-1.56776E-16
 -1      1752 3.42313E-04-1.52039E-04-1.46381E-16
 -1      1753 3.51917E-04-1.74050E-04-1.31283E-16
 -1      1754 4.58440E-04-1.88154E-04-2.27506E-16
 -1      1755 3.24483E-04-6.54418E-05-1.79286E-16
 -1      1756 3.25641E-04-7.67304E-05-1.77592E-16
 -1      1757 3.22960E-04-4.39786E-05-1.80615E-16
 -1      1758 3.23626E-04-5.44530E-05-1.80222E-16
 -1      1759 4.36383E-04-7.93893E-05-2.64803E-16
 -1      1760 3.22162E-04-2.39009E-05-1.79571E-16
 -1      1761 3.22499E-04-3.37928E-05-1.80452E-16
 -1      1762 4.34350E-04-5.14504E-05-2.65630E-16
 -1      1763 3.21865E-04-4.52317E-06-1.76562E-16
 -1      1764 3.21962E-04-1.41450E-05-1.78162E-16
 -1      1765 4.33312E-04-2.51049E-05-2.63448E-16
 -1      1766 3.21992E-04 1.47174E-05-1.72361E-16
 -1      1767 3.21875E-04 5.09631E-06-1.74814E-16
 -1      1768 4.33009E-04 5.03325E-07-2.58921E-16
 -1      1769 3.22571E-04 3.43654E-05-1.66384E-16
 -1      1770 3.22213E-04 2.44730E-05-1.69732E-16
 -1      1771 4.33370E-04 2.61103E-05-2.52362E-16
 -1      1772 3.23715E-04 5.46761E-05-1.57928E-16
 -1      1773 3.23044E-04 4.43806E-05-1.62563E-16
 -1      1774 4.34460E-04 5.22316E-05-2.42983E-16
 -1      1775 3.25785E-04 7.71584E-05-1.46327E-16
 -1      1776 3.24582E-04 6.56679E-05-1.52737E-16
 -1      1777 4.36530E-04 7.99409E-05-2.30135E-16
 -1      1778 3.29486E-04 1.02747E-04-1.30416E-16
 -1      1779 3.27324E-04 8.95358E-05-1.39320E-16
 -1      1780 4.40181E-04 1.10689E-04-2.12815E-16
 -1      1781 3.36588E-04 1.33812E-04-1.06916E-16
 -1      1782 3.32407E-04 1.17509E-04-1.20048E-16
 -1      1783 4.46672E-04 1.46116E-04-1.88611E-16
 -1      1784 3.52390E-04 1.75208E-04-7.18419E-17
 -1      1785 3.42654E-04 1.53003E-04-9.17100E-17
 -1      1786 4.58970E-04 1.89466E-04-1.53848E-16
 -1      1787 1.01035E-02 1.56626E-03-3.06705E-14
 -1      1788 1.02172E-02 1.52426E-03-3.10871E-14
 -1      1789 6.82960E-03 2.29660E-03-2.08265E-14
 -1      1790 6.53258E-03 1.90088E-03-2.00436E-14
 -1      1791 3.40224E-04-1.90957E-04-9.88521E-17
 -1      1792 3.32999E-04 1.87879E-04-3.91397E-17
 -1      1793 8.07678E-04-3.74423E-04-4.48047E-16
 -1      1794 9.53021E-04-4.15740E-04-6.21370E-16
 -1      1795 1.09593E-03-4.50595E-04-8.25200E-16
 -1      1796 1.23767E-03-4.79692E-04-1.05967E-15
 -1      1797 1.00434E-03-3.98417E-04-7.53439E-16
 -1      1798 1.37813E-03-5.04429E-04-1.32395E-15
 -1      1799 1.51786E-03-5.25107E-04-1.61828E-15
 -1      1800 1.29012E-03-4.56786E-04-1.22644E-15
 -1      1801 1.65705E-03-5.42664E-04-1.94190E-15
 -1      1802 1.79590E-03-5.57345E-04-2.29527E-15
 -1      1803 1.57257E-03-4.98346E-04-1.81733E-15
 -1      1804 1.93458E-03-5.69783E-04-2.67760E-15
 -1      1805 2.07316E-03-5.80186E-04-3.08892E-15
 -1      1806 1.85317E-03-5.27806E-04-2.52481E-15
 -1      1807 2.21178E-03-5.89007E-04-3.52955E-15
 -1      1808 2.35040E-03-5.96424E-04-3.99820E-15
 -1      1809 2.13292E-03-5.48627E-04-3.34751E-15
 -1      1810 2.48913E-03-6.02771E-04-4.49506E-15
 -1      1811 2.62790E-03-6.08193E-04-5.01990E-15
 -1      1812 2.41244E-03-5.63426E-04-4.28345E-15
 -1      1813 2.76677E-03-6.12947E-04-5.57192E-15
 -1      1814 2.90564E-03-6.17144E-04-6.14996E-15
 -1      1815 2.69199E-03-5.74220E-04-5.32995E-15
 -1      1816 3.04454E-03-6.20975E-04-6.75469E-15
 -1      1817 3.18332E-03-6.24512E-04-7.38460E-15
 -1      1818 2.97160E-03-5.82566E-04-6.48353E-15
 -1      1819 3.32203E-03-6.27887E-04-8.03958E-15
 -1      1820 3.46046E-03-6.31126E-04-8.72028E-15
 -1      1821 3.25108E-03-5.89621E-04-7.73993E-15
 -1      1822 3.59864E-03-6.34287E-04-9.42600E-15
 -1      1823 3.73633E-03-6.37337E-04-1.01563E-14
 -1      1824 3.53005E-03-5.96134E-04-9.09684E-15
 -1      1825 3.87356E-03-6.40239E-04-1.09105E-14
 -1      1826 4.01005E-03-6.42880E-04-1.16896E-14
 -1      1827 3.80797E-03-6.02354E-04-1.05522E-14
 -1      1828 4.14582E-03-6.45097E-04-1.24931E-14
 -1      1829 4.28058E-03-6.46675E-04-1.33207E-14
 -1      1830 4.08410E-03-6.07884E-04-1.21053E-14
 -1      1831 4.41435E-03-6.47291E-04-1.41719E-14
 -1      1832 4.54683E-03-6.46609E-04-1.50478E-14
 -1      1833 4.35756E-03-6.11458E-04-1.37554E-14
 -1      1834 4.67806E-03-6.44122E-04-1.59486E-14
 -1      1835 4.80782E-03-6.39368E-04-1.68728E-14
 -1      1836 4.62739E-03-6.10711E-04-1.55027E-14
 -1      1837 4.93610E-03-6.31668E-04-1.78209E-14
 -1      1838 5.06283E-03-6.20451E-04-1.87936E-14
 -1      1839 4.89265E-03-6.02024E-04-1.73464E-14
 -1      1840 5.18800E-03-6.04925E-04-1.97911E-14
 -1      1841 5.31173E-03-5.84473E-04-2.08125E-14
 -1      1842 5.15268E-03-5.80558E-04-1.92869E-14
 -1      1843 5.43399E-03-5.58294E-04-2.18584E-14
 -1      1844 5.55513E-03-5.25821E-04-2.29296E-14
 -1      1845 5.40733E-03-5.40637E-04-2.13253E-14
 -1      1846 5.67512E-03-4.86395E-04-2.40251E-14
 -1      1847 5.79450E-03-4.39612E-04-2.51453E-14
 -1      1848 5.65722E-03-4.76510E-04-2.34625E-14
 -1      1849 5.91325E-03-3.85097E-04-2.62925E-14
 -1      1850 6.03204E-03-3.22701E-04-2.74657E-14
 -1      1851 5.90382E-03-3.83410E-04-2.57014E-14
 -1      1852 6.15083E-03-2.52420E-04-2.86658E-14
 -1      1853 6.27029E-03-1.74401E-04-2.98929E-14
 -1      1854 6.14928E-03-2.58612E-04-2.80440E-14
 -1      1855 6.39040E-03-8.90120E-05-3.11442E-14
 -1      1856 6.51171E-03 3.34354E-06-3.24218E-14
 -1      1857 6.39601E-03-1.02095E-04-3.04935E-14
 -1      1858 6.63419E-03 1.02014E-04-3.37250E-14
 -1      1859 6.75818E-03 2.06429E-04-3.50537E-14
 -1      1860 6.64618E-03 8.34501E-05-3.30450E-14
 -1      1861 6.88369E-03 3.15794E-04-3.64066E-14
 -1      1862 7.01083E-03 4.29487E-04-3.77809E-14
 -1      1863 6.90130E-03 2.93285E-04-3.56980E-14
 -1      1864 7.13959E-03 5.46715E-04-3.91827E-14
 -1      1865 7.26992E-03 6.66900E-04-4.06056E-14
 -1      1866 7.16202E-03 5.21664E-04-3.84482E-14
 -1      1867 7.40181E-03 7.89357E-04-4.20504E-14
 -1      1868 7.53509E-03 9.13610E-04-4.35211E-14
 -1      1869 7.42824E-03 7.62887E-04-4.12900E-14
 -1      1870 7.66975E-03 1.03914E-03-4.50126E-14
 -1      1871 7.80555E-03 1.16559E-03-4.65252E-14
 -1      1872 7.69938E-03 1.01205E-03-4.42224E-14
 -1      1873 7.94251E-03 1.29262E-03-4.80595E-14
 -1      1874 8.08035E-03 1.41998E-03-4.96128E-14
 -1      1875 7.97456E-03 1.26543E-03-4.72425E-14
 -1      1876 8.21910E-03 1.54746E-03-5.11841E-14
 -1      1877 8.35851E-03 1.67493E-03-5.27732E-14
 -1      1878 8.25291E-03 1.52045E-03-5.03419E-14
 -1      1879 8.49861E-03 1.80229E-03-5.43783E-14
 -1      1880 8.63918E-03 1.92945E-03-5.59979E-14
 -1      1881 8.53361E-03 1.77558E-03-5.35134E-14
 -1      1882 8.78024E-03 2.05639E-03-5.76318E-14
 -1      1883 8.92163E-03 2.18307E-03-5.92792E-14
 -1      1884 8.81600E-03 2.03001E-03-5.67449E-14
 -1      1885 9.06337E-03 2.30951E-03-6.09389E-14
 -1      1886 9.20532E-03 2.43569E-03-6.26098E-14
 -1      1887 9.09958E-03 2.28344E-03-6.00327E-14
 -1      1888 9.34750E-03 2.56164E-03-6.42935E-14
 -1      1889 9.48983E-03 2.68737E-03-6.59848E-14
 -1      1890 9.38396E-03 2.53583E-03-6.33676E-14
 -1      1891 9.63231E-03 2.81292E-03-6.76852E-14
 -1      1892 9.77488E-03 2.93828E-03-6.93960E-14
 -1      1893 9.66886E-03 2.78731E-03-6.67451E-14
 -1      1894 9.91753E-03 3.06350E-03-7.11154E-14
 -1      1895 1.00602E-02 3.18858E-03-7.28445E-14
 -1      1896 9.95411E-03 3.03805E-03-7.01594E-14
 -1      1897 1.02030E-02 3.31356E-03-7.45788E-14
 -1      1898 1.03458E-02 3.43843E-03-7.63215E-14
 -1      1899 1.02396E-02 3.28822E-03-7.36099E-14
 -1      1900 1.04886E-02 3.56323E-03-7.80745E-14
 -1      1901 1.06315E-02 3.68796E-03-7.98337E-14
 -1      1902 1.05252E-02 3.53797E-03-7.70933E-14
 -1      1903 1.07743E-02 3.81264E-03-8.16014E-14
 -1      1904 1.09172E-02 3.93727E-03-8.33772E-14
 -1      1905 1.08108E-02 3.78744E-03-8.06061E-14
 -1      1906 1.10601E-02 4.06187E-03-8.51610E-14
 -1      1907 1.12030E-02 4.18643E-03-8.69526E-14
 -1      1908 1.10966E-02 4.03670E-03-8.41502E-14
 -1      1909 1.13459E-02 4.31097E-03-8.87501E-14
 -1      1910 1.14887E-02 4.43549E-03-9.05527E-14
 -1      1911 1.13823E-02 4.28583E-03-8.77248E-14
 -1      1912 1.16316E-02 4.56000E-03-9.23577E-14
 -1      1913 1.17745E-02 4.68449E-03-9.41651E-14
 -1      1914 1.16680E-02 4.53487E-03-9.13202E-14
 -1      1915 1.19174E-02 4.80898E-03-9.59773E-14
 -1      1916 1.20602E-02 4.93346E-03-9.77892E-14
 -1      1917 1.19538E-02 4.78386E-03-9.49297E-14
 -1      1918 1.22031E-02 5.05793E-03-9.96001E-14
 -1      1919 1.23460E-02 5.18240E-03-1.01417E-13
 -1      1920 1.22395E-02 5.03281E-03-9.85487E-14
 -1      1921 1.24889E-02 5.30687E-03-1.03234E-13
 -1      1922 1.26317E-02 5.43134E-03-1.05053E-13
 -1      1923 1.25252E-02 5.28175E-03-1.02173E-13
 -1      1924 1.27746E-02 5.55581E-03-1.06876E-13
 -1      1925 1.29175E-02 5.68027E-03-1.08701E-13
 -1      1926 1.28110E-02 5.53069E-03-1.05808E-13
 -1      1927 1.30603E-02 5.80474E-03-1.10528E-13
 -1      1928 1.32032E-02 5.92921E-03-1.12358E-13
 -1      1929 1.30967E-02 5.77962E-03-1.09451E-13
 -1      1930 1.22360E-03 4.76301E-04-7.19477E-16
 -1      1931 1.08171E-03 4.46943E-04-5.41735E-16
 -1      1932 9.38662E-04 4.11678E-04-3.91167E-16
 -1      1933 7.93133E-04 3.69754E-04-2.66714E-16
 -1      1934 9.90131E-04 3.94643E-04-5.11581E-16
 -1      1935 1.50408E-03 5.21740E-04-1.15641E-15
 -1      1936 1.36419E-03 5.01123E-04-9.24377E-16
 -1      1937 1.27614E-03 4.53488E-04-8.78285E-16
 -1      1938 1.78249E-03 5.53322E-04-1.70222E-15
 -1      1939 1.64343E-03 5.39061E-04-1.41579E-15
 -1      1940 1.55889E-03 4.94908E-04-1.35257E-15
 -1      1941 2.06040E-03 5.74627E-04-2.35567E-15
 -1      1942 1.92145E-03 5.65110E-04-2.01568E-15
 -1      1943 1.83989E-03 5.23525E-04-1.93414E-15
 -1      1944 2.33882E-03 5.88146E-04-3.11539E-15
 -1      1945 2.19951E-03 5.82250E-04-2.72247E-15
 -1      1946 2.12027E-03 5.42570E-04-2.62251E-15
 -1      1947 2.61844E-03 5.95585E-04-3.97925E-15
 -1      1948 2.47844E-03 5.92545E-04-3.53450E-15
 -1      1949 2.40082E-03 5.54327E-04-3.41621E-15
 -1      1950 2.89981E-03 5.98040E-04-4.94480E-15
 -1      1951 2.75885E-03 5.97379E-04-4.44943E-15
 -1      1952 2.68205E-03 5.60364E-04-4.31270E-15
 -1      1953 3.18357E-03 5.96114E-04-6.00794E-15
 -1      1954 3.04131E-03 5.97587E-04-5.46415E-15
 -1      1955 2.96432E-03 5.61680E-04-5.30984E-15
 -1      1956 3.47048E-03 5.90056E-04-7.16870E-15
 -1      1957 3.32647E-03 5.93574E-04-6.57649E-15
 -1      1958 3.24787E-03 5.58832E-04-6.40445E-15
 -1      1959 3.76160E-03 5.80045E-04-8.42410E-15
 -1      1960 3.61524E-03 5.85511E-04-7.78381E-15
 -1      1961 3.53279E-03 5.52122E-04-7.59482E-15
 -1      1962 4.05820E-03 5.66868E-04-9.77464E-15
 -1      1963 3.90876E-03 5.73776E-04-9.08789E-15
 -1      1964 3.81882E-03 5.41971E-04-8.88031E-15
 -1      1965 4.36165E-03 5.53602E-04-1.12192E-14
 -1      1966 4.20837E-03 5.60026E-04-1.04855E-14
 -1      1967 4.10505E-03 5.29768E-04-1.02610E-14
 -1      1968 4.67307E-03 5.49561E-04-1.27555E-14
 -1      1969 4.51538E-03 5.49771E-04-1.19758E-14
 -1      1970 4.38926E-03 5.19789E-04-1.17337E-14
 -1      1971 4.97778E-03 5.75718E-04-1.42977E-14
 -1      1972 4.82309E-03 5.57354E-04-1.35170E-14
 -1      1973 4.66090E-03 5.22765E-04-1.32576E-14
 -1      1974 5.31511E-03 6.87115E-04-1.60033E-14
 -1      1975 5.14252E-03 6.15837E-04-1.51390E-14
 -1      1976 4.92433E-03 5.61882E-04-1.48623E-14
 -1      1977 8.29862E-03 2.96895E-03-2.51786E-14
 -1      1978 8.04740E-03 3.13642E-03-2.42946E-14
 -1      1979 7.84950E-03 3.17748E-03-2.35888E-14
 -1      1980 7.59558E-03 3.09041E-03-2.27469E-14
 -1      1981 9.43920E-03 1.84482E-03-2.97206E-14
 -1      1982 9.19452E-03 2.04726E-03-2.85360E-14
 -1      1983 9.90317E-03 1.67154E-03-3.22611E-14
 -1      1984 9.68539E-03 1.72202E-03-3.09710E-14
 -1      1985 1.03200E-02 1.74061E-03-3.50340E-14
 -1      1986 1.01187E-02 1.68367E-03-3.36388E-14
 -1      1987 1.00916E-02 1.62632E-03-3.31116E-14
 -1      1988 1.06938E-02 1.93545E-03-3.78765E-14
 -1      1989 1.05105E-02 1.82802E-03-3.64471E-14
 -1      1990 1.04329E-02 1.74845E-03-3.59031E-14
 -1      1991 1.10392E-02 2.17989E-03-4.07773E-14
 -1      1992 1.08687E-02 2.05409E-03-3.93201E-14
 -1      1993 1.07545E-02 1.96422E-03-3.87593E-14
 -1      1994 1.13642E-02 2.43984E-03-4.37422E-14
 -1      1995 1.12033E-02 2.30902E-03-4.22518E-14
 -1      1996 1.10669E-02 2.21527E-03-4.16806E-14
 -1      1997 1.16750E-02 2.70206E-03-4.67688E-14
 -1      1998 1.15207E-02 2.57108E-03-4.52478E-14
 -1      1999 1.13721E-02 2.47665E-03-4.46616E-14
 -1      2000 1.19761E-02 2.96225E-03-4.98575E-14
 -1      2001 1.18263E-02 2.83255E-03-4.83049E-14
 -1      2002 1.16715E-02 2.73861E-03-4.77042E-14
 -1      2003 1.22565E-02 3.20678E-03-5.28553E-14
 -1      2004 1.21168E-02 3.08487E-03-5.13488E-14
 -1      2005 1.19590E-02 2.99170E-03-5.07339E-14
 -1      2006 1.25478E-02 3.46169E-03-5.60699E-14
 -1      2007 1.24024E-02 3.33455E-03-5.44560E-14
 -1      2008 1.22433E-02 3.24207E-03-5.38233E-14
 -1      2009 1.28367E-02 3.71462E-03-5.93351E-14
 -1      2010 1.26924E-02 3.58838E-03-5.76963E-14
 -1      2011 1.25326E-02 3.49646E-03-5.70517E-14
 -1      2012 1.31242E-02 3.96613E-03-6.26396E-14
 -1      2013 1.29806E-02 3.84053E-03-6.09834E-14
 -1      2014 1.28206E-02 3.74901E-03-6.03275E-14
 -1      2015 1.34109E-02 4.21668E-03-6.59841E-14
 -1      2016 1.32676E-02 4.09151E-03-6.43069E-14
 -1      2017 1.31076E-02 4.00025E-03-6.36414E-14
 -1      2018 1.36972E-02 4.46659E-03-6.93600E-14
 -1      2019 1.35541E-02 4.34170E-03-6.76689E-14
 -1      2020 1.33941E-02 4.25062E-03-6.69895E-14
 -1      2021 1.39832E-02 4.71610E-03-7.27637E-14
 -1      2022 1.38402E-02 4.59139E-03-7.10587E-14
 -1      2023 1.36802E-02 4.50042E-03-7.03725E-14
 -1      2024 1.42690E-02 4.96536E-03-7.62027E-14
 -1      2025 1.41261E-02 4.84075E-03-7.44801E-14
 -1      2026 1.39662E-02 4.74986E-03-7.37871E-14
 -1      2027 1.45548E-02 5.21447E-03-7.96609E-14
 -1      2028 1.44119E-02 5.08993E-03-7.79268E-14
 -1      2029 1.42520E-02 4.99907E-03-7.72298E-14
 -1      2030 1.48406E-02 5.46349E-03-8.31407E-14
 -1      2031 1.46977E-02 5.33899E-03-8.13982E-14
 -1      2032 1.45378E-02 5.24815E-03-8.06945E-14
 -1      2033 1.51263E-02 5.71246E-03-8.66418E-14
 -1      2034 1.49835E-02 5.58798E-03-8.48901E-14
 -1      2035 1.48236E-02 5.49716E-03-8.41817E-14
 -1      2036 1.54121E-02 5.96141E-03-9.01534E-14
 -1      2037 1.52692E-02 5.83694E-03-8.83952E-14
 -1      2038 1.51093E-02 5.74613E-03-8.76861E-14
 -1      2039 1.56978E-02 6.21034E-03-9.36689E-14
 -1      2040 1.55549E-02 6.08588E-03-9.19098E-14
 -1      2041 1.53951E-02 5.99507E-03-9.11967E-14
 -1      2042 1.59835E-02 6.45926E-03-9.71844E-14
 -1      2043 1.58407E-02 6.33480E-03-9.54295E-14
 -1      2044 1.56808E-02 6.24400E-03-9.47151E-14
 -1      2045 1.62692E-02 6.70818E-03-1.00706E-13
 -1      2046 1.61264E-02 6.58372E-03-9.89451E-14
 -1      2047 1.59665E-02 6.49292E-03-9.82341E-14
 -1      2048 1.65550E-02 6.95710E-03-1.04229E-13
 -1      2049 1.64121E-02 6.83264E-03-1.02466E-13
 -1      2050 1.62522E-02 6.74184E-03-1.01754E-13
 -1      2051 1.68407E-02 7.20601E-03-1.07739E-13
 -1      2052 1.66978E-02 7.08156E-03-1.05987E-13
 -1      2053 1.65380E-02 6.99076E-03-1.05269E-13
 -1      2054 1.69603E-02 7.33845E-03-1.09921E-13
 -1      2055 1.68930E-02 7.26638E-03-1.08755E-13
 -1      2056 1.67332E-02 7.17558E-03-1.08042E-13
 -1      2057 1.68379E-02 7.29631E-03-1.10077E-13
 -1      2058 1.63382E-02 7.10140E-03-1.10181E-13
 -1      2059 1.64606E-02 7.14354E-03-1.10009E-13
 -1      2060 1.65881E-02 7.19885E-03-1.10127E-13
 -1      2061 1.67104E-02 7.24100E-03-1.09956E-13
 -1      2062 1.66581E-02 7.18063E-03-1.08935E-13
 -1      2063 1.64032E-02 7.07001E-03-1.08692E-13
 -1      2064 1.60935E-02 7.01712E-03-1.10529E-13
 -1      2065 1.62159E-02 7.05926E-03-1.10356E-13
 -1      2066 1.61533E-02 6.97255E-03-1.08741E-13
 -1      2067 1.58529E-02 6.93427E-03-1.10863E-13
 -1      2068 1.59732E-02 6.97570E-03-1.10697E-13
 -1      2069 1.59107E-02 6.88899E-03-1.09078E-13
 -1      2070 1.56081E-02 6.85000E-03-1.11197E-13
 -1      2071 1.57305E-02 6.89214E-03-1.11031E-13
 -1      2072 1.56680E-02 6.80543E-03-1.09409E-13
 -1      2073 1.53634E-02 6.76574E-03-1.11549E-13
 -1      2074 1.54858E-02 6.80787E-03-1.11370E-13
 -1      2075 1.54232E-02 6.72116E-03-1.09748E-13
 -1      2076 1.51186E-02 6.68148E-03-1.11911E-13
 -1      2077 1.52410E-02 6.72361E-03-1.11728E-13
 -1      2078 1.51785E-02 6.63689E-03-1.10096E-13
 -1      2079 1.48739E-02 6.59722E-03-1.12282E-13
 -1      2080 1.49963E-02 6.63935E-03-1.12096E-13
 -1      2081 1.49337E-02 6.55263E-03-1.10455E-13
 -1      2082 1.46291E-02 6.51296E-03-1.12665E-13
 -1      2083 1.47515E-02 6.55509E-03-1.12475E-13
 -1      2084 1.46890E-02 6.46836E-03-1.10823E-13
 -1      2085 1.43884E-02 6.43013E-03-1.13039E-13
 -1      2086 1.45088E-02 6.47154E-03-1.12851E-13
 -1      2087 1.44462E-02 6.38482E-03-1.11196E-13
 -1      2088 1.41436E-02 6.34586E-03-1.13419E-13
 -1      2089 1.42660E-02 6.38799E-03-1.13228E-13
 -1      2090 1.42035E-02 6.30127E-03-1.11567E-13
 -1      2091 1.38988E-02 6.26159E-03-1.13801E-13
 -1      2092 1.40212E-02 6.30373E-03-1.13611E-13
 -1      2093 1.39587E-02 6.21700E-03-1.11942E-13
 -1      2094 1.36540E-02 6.17732E-03-1.14182E-13
 -1      2095 1.37764E-02 6.21946E-03-1.13993E-13
 -1      2096 1.37139E-02 6.13273E-03-1.12320E-13
 -1      2097 9.71422E-03 1.78305E-03-2.92655E-14
 -1      2098 9.90349E-03 1.66911E-03-2.98988E-14
 -1      2099 1.33240E-02 6.05241E-03-1.14396E-13
 -1      2100 1.02539E-02 1.45716E-03-3.17630E-14
 -1      2101 1.01705E-02 1.43936E-03-3.18184E-14
 -1      2102 7.06785E-03 2.58276E-03-2.13709E-14
 -1      2103 3.27092E-04-8.90298E-05-1.74787E-16
 -1      2104 3.29229E-04-1.02167E-04-1.70409E-16
 -1      2105 4.46313E-04-1.45182E-04-2.48580E-16
 -1      2106 4.39927E-04-1.10033E-04-2.59815E-16
 -1      2107 9.33832E-03 2.03164E-03-2.82867E-14
 -1      2108 9.55456E-03 1.87276E-03-2.88897E-14
 -1      2109 8.52470E-03 2.75870E-03-2.59042E-14
 -1      2110 7.38244E-03 2.91264E-03-2.21449E-14
 -1      2111 6.24786E-03 1.63728E-03-1.96319E-14
 -1      2112 5.18086E-03 9.67174E-04-1.85635E-14
 -1      2113 5.39507E-03 1.08791E-03-1.88056E-14
 -1      2114 4.81509E-03 8.16692E-04-1.83301E-14
 -1      2115 4.95618E-03 8.70087E-04-1.84112E-14
 -1      2116 4.65158E-03 7.42217E-04-1.82484E-14
 -1      2117 4.71049E-03 7.72845E-04-1.82883E-14
 -1      2118 4.77059E-03 7.46416E-04-1.79159E-14
 -1      2119 4.67694E-03 6.96001E-04-1.84465E-14
 -1      2120 4.63752E-03 7.10007E-04-1.82676E-14
 -1      2121 4.86419E-03 6.43022E-04-1.88502E-14
 -1      2122 4.75146E-03 6.71682E-04-1.86457E-14
 -1      2123 4.70372E-03 6.75186E-04-1.81116E-14
 -1      2124 5.21956E-03 5.26279E-04-1.96831E-14
 -1      2125 5.05158E-03 5.84749E-04-1.92862E-14
 -1      2126 5.59509E-03 3.79911E-04-2.05645E-14
 -1      2127 5.41146E-03 4.53695E-04-2.01348E-14
 -1      2128 5.99896E-03 2.13984E-04-2.15956E-14
 -1      2129 5.80328E-03 2.96242E-04-2.10812E-14
 -1      2130 6.43079E-03 5.33269E-05-2.29805E-14
 -1      2131 6.24283E-03 1.19816E-04-2.23213E-14
 -1      2132 6.81735E-03-5.73373E-06-2.44536E-14
 -1      2133 6.64313E-03 9.61862E-06-2.37748E-14
 -1      2134 7.18154E-03 5.31871E-05-2.59202E-14
 -1      2135 7.01359E-03 9.72482E-06-2.52414E-14
 -1      2136 7.56670E-03 2.30561E-04-2.73593E-14
 -1      2137 7.38488E-03 1.31290E-04-2.66662E-14
 -1      2138 8.03839E-03 5.22113E-04-2.88670E-14
 -1      2139 7.81758E-03 3.85027E-04-2.82618E-14
 -1      2140 8.58646E-03 8.18698E-04-2.99377E-14
 -1      2141 8.33256E-03 6.76535E-04-2.94336E-14
 -1      2142 9.12210E-03 1.09535E-03-3.09224E-14
 -1      2143 8.86841E-03 9.74312E-04-3.05206E-14
 -1      2144 9.63683E-03 1.28740E-03-3.14913E-14
 -1      2145 9.40867E-03 1.20571E-03-3.12406E-14
 -1      2146 1.00311E-02 1.39760E-03-3.17283E-14
 -1      2147 9.86496E-03 1.35561E-03-3.16480E-14
 -1      2148 4.52328E-04 2.34524E-04-8.75087E-17
 -1      2149 1.02870E-02 1.49289E-03-3.14420E-14
 -1      2150 1.02982E-02 1.47989E-03-3.16711E-14
 -1      2151 4.59196E-04-2.36807E-04-1.71358E-16
 -1      2152 5.90318E-03 1.39933E-03-1.92975E-14
 -1      2153 6.10455E-03 1.38142E-03-1.89292E-14
 -1      2154 5.91828E-03 1.14126E-03-1.82188E-14
 -1      2155 5.63340E-03 1.21330E-03-1.89906E-14
 -1      2156 1.33603E-02 6.02729E-03-1.13310E-13
 -1      2157 1.02636E-02 1.50973E-03-3.19181E-14
 -1      2158 1.02860E-02 1.49320E-03-3.23692E-14
 -1      2159 1.00020E-02 1.59386E-03-3.07813E-14
 -1      2160 5.55615E-03 1.05250E-03-1.84275E-14
 -1      2161 6.08198E-04-2.98295E-04-2.74479E-16
 -1      2162 4.94811E-03 6.19234E-04-1.87354E-14
 -1      2163 6.63864E-04-2.92612E-04-3.62273E-16
 -1      2164 9.01103E-03 2.25176E-03-2.75892E-14
 -1      2165 8.76569E-03 2.53985E-03-2.65813E-14
 -1      2166 6.57189E-04 2.91024E-04-2.31193E-16
 -1      2167 6.01453E-04 2.96558E-04-1.54973E-16
 -1      2168 6.89692E-03-1.15685E-05-2.48818E-14
 -1      2169 5.49171E-03 7.86557E-04-1.67325E-14
 -1      2170 5.19339E-03 6.80956E-04-1.64372E-14
 -1      2171 4.63608E-03 6.99885E-04-1.78962E-14
 -1      2172 5.66034E-03 9.30538E-04-1.75018E-14
 -1      2173 9.63438E-03 1.77205E-03-2.96255E-14
 -1      2174 9.70523E-03 1.70722E-03-3.04849E-14
 -1      2175 8.13446E-03 6.32924E-04-2.95573E-14
 -1      2176 1.34780E-02 6.08407E-03-1.13570E-13
 -1      2177 1.01014E-02 1.46098E-03-3.23699E-14
 -1      2178 7.64466E-03 3.15837E-04-2.80702E-14
 -1      2179 9.73751E-03 1.37352E-03-3.21193E-14
 -1      2180 9.23236E-03 1.20746E-03-3.16353E-14
 -1      2181 8.68401E-03 9.46793E-04-3.07195E-14
 -1      2182 7.23589E-03 8.37038E-05-2.64180E-14
 -1      2183 6.53255E-03 1.85280E-05-2.33020E-14
 -1      2184 6.12681E-03 1.61890E-04-2.17926E-14
 -1      2185 5.70604E-03 3.45286E-04-2.05662E-14
 -1      2186 5.55070E-03 9.48754E-04-1.78812E-14
 -1      2187 5.09380E-03 8.54058E-04-1.81019E-14
 -1      2188 5.32342E-03 4.99105E-04-1.96112E-14
 -1      2189 1.34155E-02 5.99734E-03-1.11896E-13
 -1      2190 5.47568E-04-5.54825E-05-3.76096E-16
 -1      2191 5.48622E-04-7.21843E-05-3.76557E-16
 -1      2192 5.50064E-04-8.94970E-05-3.75961E-16
 -1      2193 5.51964E-04-1.07466E-04-3.74239E-16
 -1      2194 6.65061E-04-9.56953E-05-5.09046E-16
 -1      2195 5.46150E-04 8.53981E-06-3.65241E-16
 -1      2196 5.46134E-04-7.25057E-06-3.69062E-16
 -1      2197 5.46911E-04 4.04259E-05-3.55198E-16
 -1      2198 5.46406E-04 2.44190E-05-3.60633E-16
 -1      2199 6.61018E-04 1.95602E-05-4.91415E-16
 -1      2200 5.48754E-04 7.28852E-05-3.41768E-16
 -1      2201 5.47682E-04 5.64792E-05-3.49276E-16
 -1      2202 6.62348E-04 5.72658E-05-4.77550E-16
 -1      2203 5.52165E-04 1.08151E-04-3.23106E-16
 -1      2204 5.50232E-04 9.01862E-05-3.33121E-16
 -1      2205 6.65227E-04 9.65383E-05-4.58590E-16
 -1      2206 5.58044E-04 1.47231E-04-2.97857E-16
 -1      2207 5.54732E-04 1.27142E-04-3.11437E-16
 -1      2208 6.70337E-04 1.39068E-04-4.32746E-16
 -1      2209 5.68341E-04 1.92493E-04-2.63380E-16
 -1      2210 5.62508E-04 1.68980E-04-2.82272E-16
 -1      2211 6.78980E-04 1.86364E-04-3.98309E-16
 -1      2212 6.14306E-04 2.52761E-04-2.38470E-16
 -1      2213 6.03500E-04 2.23505E-04-2.65535E-16
 -1      2214 7.20845E-04 2.44375E-04-3.81544E-16
 -1      2215 8.00453E-04 3.16648E-04-3.77804E-16
 -1      2216 9.15448E-04-3.46792E-04-6.80906E-16
 -1      2217 1.05958E-03-3.80266E-04-8.90089E-16
 -1      2218 1.02404E-02 1.52327E-03-3.23644E-14
 -1      2219 1.03027E-02 1.51907E-03-3.27245E-14
 -1      2220 1.20286E-03-4.08851E-04-1.12855E-15
 -1      2221 1.34569E-03-4.32966E-04-1.39647E-15
 -1      2222 1.11716E-03-3.61153E-04-1.03109E-15
 -1      2223 1.48787E-03-4.53482E-04-1.69333E-15
 -1      2224 1.62965E-03-4.70680E-04-2.01918E-15
 -1      2225 1.40351E-03-4.08387E-04-1.57010E-15
 -1      2226 1.77107E-03-4.85253E-04-2.37341E-15
 -1      2227 1.91222E-03-4.97423E-04-2.75626E-15
 -1      2228 1.68865E-03-4.42315E-04-2.22339E-15
 -1      2229 2.05321E-03-5.07713E-04-3.16747E-15
 -1      2230 2.19405E-03-5.16306E-04-3.60690E-15
 -1      2231 1.97285E-03-4.66379E-04-2.98924E-15
 -1      2232 2.33486E-03-5.23596E-04-4.07400E-15
 -1      2233 2.47560E-03-5.29738E-04-4.56886E-15
 -1      2234 2.25650E-03-4.83354E-04-3.86686E-15
 -1      2235 2.61637E-03-5.35032E-04-5.09099E-15
 -1      2236 2.75711E-03-5.39604E-04-5.63975E-15
 -1      2237 2.53992E-03-4.95442E-04-4.85446E-15
 -1      2238 2.89790E-03-5.43681E-04-6.21477E-15
 -1      2239 3.03864E-03-5.47361E-04-6.81600E-15
 -1      2240 2.82335E-03-5.04383E-04-5.94902E-15
 -1      2241 3.17943E-03-5.50808E-04-7.44253E-15
 -1      2242 3.32012E-03-5.54084E-04-8.09404E-15
 -1      2243 3.10690E-03-5.11526E-04-7.14760E-15
 -1      2244 3.46080E-03-5.57288E-04-8.76977E-15
 -1      2245 3.60129E-03-5.60438E-04-9.47144E-15
 -1      2246 3.39061E-03-5.17860E-04-8.44668E-15
 -1      2247 3.74168E-03-5.63550E-04-1.01969E-14
 -1      2248 3.88176E-03-5.66582E-04-1.09466E-14
 -1      2249 3.67434E-03-5.23972E-04-9.84456E-15
 -1      2250 4.02159E-03-5.69442E-04-1.17209E-14
 -1      2251 4.16092E-03-5.71999E-04-1.25194E-14
 -1      2252 3.95784E-03-5.29945E-04-1.13397E-14
 -1      2253 4.29982E-03-5.74022E-04-1.33429E-14
 -1      2254 4.43800E-03-5.75256E-04-1.41891E-14
 -1      2255 4.24061E-03-5.35162E-04-1.29318E-14
 -1      2256 4.57551E-03-5.75304E-04-1.50597E-14
 -1      2257 4.71207E-03-5.73755E-04-1.59560E-14
 -1      2258 4.52191E-03-5.38045E-04-1.46209E-14
 -1      2259 4.84768E-03-5.70035E-04-1.68757E-14
 -1      2260 4.98215E-03-5.63567E-04-1.78185E-14
 -1      2261 4.80072E-03-5.35772E-04-1.64067E-14
 -1      2262 5.11544E-03-5.53622E-04-1.87862E-14
 -1      2263 5.24750E-03-5.39495E-04-1.97787E-14
 -1      2264 5.07597E-03-5.24085E-04-1.82889E-14
 -1      2265 5.37827E-03-5.20376E-04-2.07954E-14
 -1      2266 5.50791E-03-4.95526E-04-2.18366E-14
 -1      2267 5.34675E-03-4.97375E-04-2.02679E-14
 -1      2268 5.63636E-03-4.64186E-04-2.29033E-14
 -1      2269 5.76400E-03-4.25725E-04-2.39945E-14
 -1      2270 5.61277E-03-4.49225E-04-2.23461E-14
 -1      2271 5.89079E-03-3.79596E-04-2.51116E-14
 -1      2272 6.01730E-03-3.25434E-04-2.62552E-14
 -1      2273 5.87469E-03-3.73469E-04-2.45254E-14
 -1      2274 6.14350E-03-2.63034E-04-2.74259E-14
 -1      2275 6.27005E-03-1.92398E-04-2.86231E-14
 -1      2276 6.13423E-03-2.65580E-04-2.68096E-14
 -1      2277 6.39689E-03-1.13719E-04-2.98460E-14
 -1      2278 6.52461E-03-2.73612E-05-3.10939E-14
 -1      2279 6.39382E-03-1.23879E-04-2.91990E-14
 -1      2280 6.65317E-03 6.61363E-05-3.23688E-14
 -1      2281 6.78296E-03 1.66143E-04-3.36687E-14
 -1      2282 6.65585E-03 4.99944E-05-3.16943E-14
 -1      2283 6.91391E-03 2.71905E-04-3.49929E-14
 -1      2284 7.04620E-03 3.82683E-04-3.63428E-14
 -1      2285 6.92206E-03 2.51551E-04-3.42916E-14
 -1      2286 7.17975E-03 4.97667E-04-3.77152E-14
 -1      2287 7.31454E-03 6.16149E-04-3.91122E-14
 -1      2288 7.19315E-03 4.74647E-04-3.69866E-14
 -1      2289 7.45053E-03 7.37394E-04-4.05324E-14
 -1      2290 7.58753E-03 8.60819E-04-4.19730E-14
 -1      2291 7.46885E-03 7.12859E-04-3.97753E-14
 -1      2292 7.72553E-03 9.85839E-04-4.34353E-14
 -1      2293 7.86430E-03 1.11203E-03-4.49221E-14
 -1      2294 7.74827E-03 9.60536E-04-4.26536E-14
 -1      2295 8.00386E-03 1.23897E-03-4.64303E-14
 -1      2296 8.14395E-03 1.36639E-03-4.79578E-14
 -1      2297 8.03037E-03 1.21334E-03-4.56211E-14
 -1      2298 8.28463E-03 1.49402E-03-4.95055E-14
 -1      2299 8.42565E-03 1.62171E-03-5.10698E-14
 -1      2300 8.31417E-03 1.46829E-03-4.86720E-14
 -1      2301 8.56709E-03 1.74931E-03-5.26504E-14
 -1      2302 8.70876E-03 1.87674E-03-5.42495E-14
 -1      2303 8.59896E-03 1.72360E-03-5.17951E-14
 -1      2304 8.85071E-03 2.00395E-03-5.58627E-14
 -1      2305 8.99280E-03 2.13090E-03-5.74888E-14
 -1      2306 8.88427E-03 1.97830E-03-5.49831E-14
 -1      2307 9.13508E-03 2.25758E-03-5.91294E-14
 -1      2308 9.27745E-03 2.38399E-03-6.07814E-14
 -1      2309 9.16980E-03 2.23202E-03-5.82309E-14
 -1      2310 9.41995E-03 2.51015E-03-6.24461E-14
 -1      2311 9.56250E-03 2.63607E-03-6.41219E-14
 -1      2312 9.45542E-03 2.48468E-03-6.15289E-14
 -1      2313 9.70514E-03 2.76178E-03-6.58074E-14
 -1      2314 9.84781E-03 2.88729E-03-6.75018E-14
 -1      2315 9.74108E-03 2.73638E-03-6.48730E-14
 -1      2316 9.99053E-03 3.01264E-03-6.92065E-14
 -1      2317 1.01333E-02 3.13783E-03-7.09213E-14
 -1      2318 1.00267E-02 2.98731E-03-6.82576E-14
 -1      2319 1.02761E-02 3.26290E-03-7.26439E-14
 -1      2320 1.04188E-02 3.38785E-03-7.43748E-14
 -1      2321 1.03124E-02 3.23762E-03-7.16811E-14
 -1      2322 1.05617E-02 3.51272E-03-7.61127E-14
 -1      2323 1.07045E-02 3.63751E-03-7.78598E-14
 -1      2324 1.05981E-02 3.48749E-03-7.51374E-14
 -1      2325 1.08473E-02 3.76223E-03-7.96150E-14
 -1      2326 1.09902E-02 3.88690E-03-8.13756E-14
 -1      2327 1.08838E-02 3.73703E-03-7.86251E-14
 -1      2328 1.11330E-02 4.01152E-03-8.31436E-14
 -1      2329 1.12759E-02 4.13611E-03-8.49207E-14
 -1      2330 1.11695E-02 3.98635E-03-8.21418E-14
 -1      2331 1.14187E-02 4.26067E-03-8.67045E-14
 -1      2332 1.15616E-02 4.38521E-03-8.84936E-14
 -1      2333 1.14552E-02 4.23552E-03-8.56876E-14
 -1      2334 1.17044E-02 4.50973E-03-9.02884E-14
 -1      2335 1.18473E-02 4.63424E-03-9.20870E-14
 -1      2336 1.17409E-02 4.48459E-03-8.92593E-14
 -1      2337 1.19902E-02 4.75873E-03-9.38859E-14
 -1      2338 1.21330E-02 4.88321E-03-9.56923E-14
 -1      2339 1.20266E-02 4.73360E-03-9.28501E-14
 -1      2340 1.22759E-02 5.00769E-03-9.75004E-14
 -1      2341 1.24188E-02 5.13216E-03-9.93068E-14
 -1      2342 1.23123E-02 4.98257E-03-9.64525E-14
 -1      2343 1.25616E-02 5.25663E-03-1.01116E-13
 -1      2344 1.27045E-02 5.38110E-03-1.02928E-13
 -1      2345 1.25980E-02 5.23151E-03-1.00065E-13
 -1      2346 1.28473E-02 5.50557E-03-1.04741E-13
 -1      2347 1.29902E-02 5.63003E-03-1.06559E-13
 -1      2348 1.28837E-02 5.48045E-03-1.03680E-13
 -1      2349 1.31314E-02 5.75145E-03-1.08315E-13
 -1      2350 1.32743E-02 5.87592E-03-1.10136E-13
 -1      2351 1.34503E-02 5.96917E-03-1.10754E-13
 -1      2352 1.31678E-02 5.72633E-03-1.07247E-13
 -1      2353 1.61600E-03 4.67196E-04-1.55424E-15
 -1      2354 1.47409E-03 4.50203E-04-1.28513E-15
 -1      2355 1.89888E-03 4.92946E-04-2.17144E-15
 -1      2356 1.75756E-03 4.81370E-04-1.84977E-15
 -1      2357 1.67490E-03 4.38838E-04-1.76169E-15
 -1      2358 2.18113E-03 5.09880E-04-2.89422E-15
 -1      2359 2.04005E-03 5.02393E-04-2.51983E-15
 -1      2360 1.95920E-03 4.61818E-04-2.41411E-15
 -1      2361 2.46324E-03 5.20075E-04-3.72152E-15
 -1      2362 2.32218E-03 5.15730E-04-3.29478E-15
 -1      2363 2.24284E-03 4.76775E-04-3.17128E-15
 -1      2364 2.74550E-03 5.24981E-04-4.65047E-15
 -1      2365 2.60433E-03 5.23127E-04-4.17319E-15
 -1      2366 2.52603E-03 4.85604E-04-4.03121E-15
 -1      2367 3.02793E-03 5.25554E-04-5.67850E-15
 -1      2368 2.88667E-03 5.25771E-04-5.15229E-15
 -1      2369 2.80873E-03 4.89671E-04-4.99218E-15
 -1      2370 3.31026E-03 5.22407E-04-6.80474E-15
 -1      2371 3.16907E-03 5.24429E-04-6.22962E-15
 -1      2372 3.09060E-03 4.89951E-04-6.05225E-15
 -1      2373 3.59171E-03 5.16056E-04-8.02529E-15
 -1      2374 3.45105E-03 5.19634E-04-7.40349E-15
 -1      2375 3.37073E-03 4.87218E-04-7.20855E-15
 -1      2376 3.87055E-03 5.07402E-04-9.34124E-15
 -1      2377 3.73139E-03 5.12030E-04-8.67149E-15
 -1      2378 3.64732E-03 4.82364E-04-8.46018E-15
 -1      2379 4.14346E-03 4.98732E-04-1.07512E-14
 -1      2380 4.00767E-03 5.03075E-04-1.00346E-14
 -1      2381 3.91707E-03 4.77002E-04-9.80577E-15
 -1      2382 4.40458E-03 4.95679E-04-1.22514E-14
 -1      2383 4.27539E-03 4.96449E-04-1.14899E-14
 -1      2384 4.17420E-03 4.74538E-04-1.12438E-14
 -1      2385 4.63400E-03 5.09313E-04-1.37606E-14
 -1      2386 4.52130E-03 5.00333E-04-1.29960E-14
 -1      2387 4.40402E-03 4.81582E-04-1.27330E-14
 -1      2388 4.84825E-03 5.64784E-04-1.54295E-14
 -1      2389 4.74360E-03 5.30625E-04-1.45847E-14
 -1      2390 4.60135E-03 5.09456E-04-1.43052E-14
 -1      2391 4.62747E-03 6.65393E-04-1.74173E-14
 -1      2392 4.65095E-03 6.70027E-04-1.73972E-14
 -1      2393 1.10737E-02 2.24872E-03-4.25694E-14
 -1      2394 1.09311E-02 2.12054E-03-4.10938E-14
 -1      2395 1.13606E-02 2.50837E-03-4.55669E-14
 -1      2396 1.12163E-02 2.37801E-03-4.40588E-14
 -1      2397 1.10706E-02 2.28503E-03-4.34596E-14
 -1      2398 1.16491E-02 2.76838E-03-4.86250E-14
 -1      2399 1.15045E-02 2.63848E-03-4.70888E-14
 -1      2400 1.13438E-02 2.54167E-03-4.64724E-14
 -1      2401 1.19231E-02 3.01352E-03-5.15916E-14
 -1      2402 1.17860E-02 2.89121E-03-5.01013E-14
 -1      2403 1.16169E-02 2.79265E-03-4.94707E-14
 -1      2404 1.22111E-02 3.26923E-03-5.47769E-14
 -1      2405 1.20671E-02 3.14167E-03-5.31769E-14
 -1      2406 1.18933E-02 3.04236E-03-5.25301E-14
 -1      2407 1.24985E-02 3.52287E-03-5.80157E-14
 -1      2408 1.23548E-02 3.39629E-03-5.63904E-14
 -1      2409 1.21784E-02 3.29671E-03-5.57285E-14
 -1      2410 1.27853E-02 3.77492E-03-6.12995E-14
 -1      2411 1.26419E-02 3.64907E-03-5.96527E-14
 -1      2412 1.24640E-02 3.54945E-03-5.89797E-14
 -1      2413 1.30717E-02 4.02585E-03-6.46213E-14
 -1      2414 1.29285E-02 3.90051E-03-6.29555E-14
 -1      2415 1.27500E-02 3.80093E-03-6.22723E-14
 -1      2416 1.33579E-02 4.27602E-03-6.79776E-14
 -1      2417 1.32148E-02 4.15102E-03-6.62943E-14
 -1      2418 1.30359E-02 4.05150E-03-6.56011E-14
 -1      2419 1.36439E-02 4.52570E-03-7.13624E-14
 -1      2420 1.35009E-02 4.40091E-03-6.96671E-14
 -1      2421 1.33218E-02 4.30145E-03-6.89623E-14
 -1      2422 1.39298E-02 4.77506E-03-7.47887E-14
 -1      2423 1.37869E-02 4.65041E-03-7.30728E-14
 -1      2424 1.36077E-02 4.55099E-03-7.23611E-14
 -1      2425 1.42157E-02 5.02423E-03-7.82385E-14
 -1      2426 1.40728E-02 4.89967E-03-7.65099E-14
 -1      2427 1.38935E-02 4.80027E-03-7.57888E-14
 -1      2428 1.45015E-02 5.27329E-03-8.17056E-14
 -1      2429 1.43586E-02 5.14877E-03-7.99686E-14
 -1      2430 1.41793E-02 5.04940E-03-7.92446E-14
 -1      2431 1.47872E-02 5.52229E-03-8.52010E-14
 -1      2432 1.46443E-02 5.39780E-03-8.34512E-14
 -1      2433 1.44651E-02 5.29843E-03-8.27209E-14
 -1      2434 1.50730E-02 5.77125E-03-8.87064E-14
 -1      2435 1.49301E-02 5.64677E-03-8.69534E-14
 -1      2436 1.47509E-02 5.54741E-03-8.62186E-14
 -1      2437 1.53587E-02 6.02018E-03-9.22171E-14
 -1      2438 1.52158E-02 5.89572E-03-9.04602E-14
 -1      2439 1.50366E-02 5.79636E-03-8.97242E-14
 -1      2440 1.56444E-02 6.26911E-03-9.57373E-14
 -1      2441 1.55016E-02 6.14465E-03-9.39779E-14
 -1      2442 1.53224E-02 6.04530E-03-9.32403E-14
 -1      2443 1.59302E-02 6.51804E-03-9.92559E-14
 -1      2444 1.57873E-02 6.39358E-03-9.74973E-14
 -1      2445 1.56081E-02 6.29423E-03-9.67592E-14
 -1      2446 1.62159E-02 6.76696E-03-1.02775E-13
 -1      2447 1.60730E-02 6.64250E-03-1.01015E-13
 -1      2448 1.58938E-02 6.54315E-03-1.00277E-13
 -1      2449 1.66057E-02 7.12026E-03-1.07913E-13
 -1      2450 1.65533E-02 7.05990E-03-1.06893E-13
 -1      2451 1.64783E-02 7.06495E-03-1.07790E-13
 -1      2452 1.57268E-02 6.76050E-03-1.07632E-13
 -1      2453 1.58471E-02 6.80192E-03-1.07466E-13
 -1      2454 1.54821E-02 6.67622E-03-1.07961E-13
 -1      2455 1.56044E-02 6.71836E-03-1.07797E-13
 -1      2456 1.55409E-02 6.63129E-03-1.06184E-13
 -1      2457 1.59695E-02 6.84406E-03-1.07298E-13
 -1      2458 1.60918E-02 6.88620E-03-1.07130E-13
 -1      2459 1.57856E-02 6.71557E-03-1.05854E-13
 -1      2460 1.52373E-02 6.59195E-03-1.08300E-13
 -1      2461 1.53597E-02 6.63408E-03-1.08130E-13
 -1      2462 1.52961E-02 6.54701E-03-1.06513E-13
 -1      2463 1.49926E-02 6.50768E-03-1.08647E-13
 -1      2464 1.51149E-02 6.54982E-03-1.08471E-13
 -1      2465 1.50514E-02 6.46274E-03-1.06848E-13
 -1      2466 1.47478E-02 6.42342E-03-1.08998E-13
 -1      2467 1.48702E-02 6.46555E-03-1.08820E-13
 -1      2468 1.48066E-02 6.37847E-03-1.07191E-13
 -1      2469 1.45030E-02 6.33916E-03-1.09364E-13
 -1      2470 1.46254E-02 6.38129E-03-1.09181E-13
 -1      2471 1.45619E-02 6.29421E-03-1.07542E-13
 -1      2472 1.42624E-02 6.25632E-03-1.09727E-13
 -1      2473 1.43827E-02 6.29774E-03-1.09546E-13
 -1      2474 1.43192E-02 6.21066E-03-1.07900E-13
 -1      2475 1.40176E-02 6.17206E-03-1.10097E-13
 -1      2476 1.41400E-02 6.21419E-03-1.09911E-13
 -1      2477 1.40764E-02 6.12711E-03-1.08262E-13
 -1      2478 1.37728E-02 6.08779E-03-1.10470E-13
 -1      2479 1.38952E-02 6.12992E-03-1.10283E-13
 -1      2480 1.38316E-02 6.04284E-03-1.08627E-13
 -1      2481 1.35503E-02 6.00741E-03-1.10703E-13
 -1      2482 1.36727E-02 6.04955E-03-1.10519E-13
 -1      2483 1.36092E-02 5.96247E-03-1.08858E-13
 -1      2484 1.34091E-02 5.88599E-03-1.08953E-13
 -1      2485 5.34724E-03 8.57307E-04-1.77085E-14
 -1      2486 7.68409E-03 3.94307E-04-2.87700E-14
 -1      2487 7.47424E-03 2.43736E-04-2.78588E-14
 -1      2488 1.07916E-02 1.99669E-03-3.96327E-14
 -1      2489 1.06527E-02 1.87773E-03-3.81885E-14
 -1      2490 1.08104E-02 2.03483E-03-4.05084E-14
 -1      2491 1.05184E-02 1.77036E-03-3.67593E-14
 -1      2492 1.03845E-02 1.67619E-03-3.53468E-14
 -1      2493 1.05719E-02 1.80411E-03-3.76170E-14
 -1      2494 8.25296E-03 7.61047E-04-3.03638E-14
 -1      2495 8.00262E-03 6.05642E-04-2.97822E-14
 -1      2496 1.08880E-03 3.86790E-04-6.91775E-16
 -1      2497 9.44718E-04 3.54497E-04-5.21596E-16
 -1      2498 9.02484E-04 3.16022E-04-5.26109E-16
 -1      2499 5.46355E-04-2.31329E-05-3.72152E-16
 -1      2500 5.46823E-04-3.91454E-05-3.74578E-16
 -1      2501 6.62243E-04-5.60337E-05-5.07718E-16
 -1      2502 6.60981E-04-1.79751E-05-5.01620E-16
 -1      2503 1.35329E-03 4.33525E-04-1.07725E-15
 -1      2504 1.21043E-03 4.09910E-04-8.57699E-16
 -1      2505 1.16800E-03 3.71284E-04-8.62252E-16
 -1      2506 1.41117E-03 4.08703E-04-1.25137E-15
 -1      2507 5.11859E-03 7.77282E-04-1.75674E-14
 -1      2508 5.12564E-03 7.18638E-04-1.70379E-14
 -1      2509 4.92462E-03 7.18493E-04-1.74263E-14
 -1      2510 1.01557E-02 1.51335E-03-3.31642E-14
 -1      2511 1.00194E-02 1.49532E-03-3.30715E-14
 -1      2512 5.40741E-03 4.61214E-04-1.94167E-14
 -1      2513 5.23529E-03 5.23358E-04-1.89782E-14
 -1      2514 4.70681E-03 6.80435E-04-1.73941E-14
 -1      2515 4.80186E-03 6.96426E-04-1.74309E-14
 -1      2516 4.82204E-03 6.52476E-04-1.69088E-14
 -1      2517 4.66321E-03 6.36833E-04-1.69187E-14
 -1      2518 5.88651E-04-2.38125E-04-3.30546E-16
 -1      2519 7.81519E-04-3.05115E-04-5.21379E-16
 -1      2520 8.40873E-04-2.93941E-04-6.29420E-16
 -1      2521 5.79039E-04-2.10320E-04-3.46565E-16
 -1      2522 4.72683E-03 6.49374E-04-1.76775E-14
 -1      2523 4.66156E-03 6.53782E-04-1.74848E-14
 -1      2524 5.76102E-03 3.12835E-04-2.04108E-14
 -1      2525 5.58260E-03 3.92277E-04-1.99092E-14
 -1      2526 5.46018E-03 4.15956E-04-1.92651E-14
 -1      2527 6.20647E-03 1.14593E-04-2.19188E-14
 -1      2528 6.00335E-03 2.08013E-04-2.12058E-14
 -1      2529 5.01032E-03 6.35027E-04-1.63068E-14
 -1      2530 6.61293E-03-1.39346E-05-2.36650E-14
 -1      2531 6.44168E-03 2.74264E-05-2.28755E-14
 -1      2532 9.83548E-03 1.45419E-03-3.28983E-14
 -1      2533 9.62042E-03 1.40219E-03-3.27353E-14
 -1      2534 7.28243E-03 1.27766E-04-2.69835E-14
 -1      2535 7.12450E-03 5.01495E-05-2.62327E-14
 -1      2536 8.76153E-03 1.05815E-03-3.15482E-14
 -1      2537 8.50419E-03 9.10027E-04-3.09525E-14
 -1      2538 8.35905E-03 8.70911E-04-3.11805E-14
 -1      2539 9.34997E-03 1.31806E-03-3.24913E-14
 -1      2540 9.08730E-03 1.21662E-03-3.21618E-14
 -1      2541 6.92135E-03-1.16858E-05-2.52182E-14
 -1      2542 6.77309E-03-2.63086E-05-2.44337E-14
 -1      2543 6.65738E-03-2.93496E-05-2.39900E-14
 -1      2544 1.03110E-02 1.52249E-03-3.31092E-14
 -1      2545 1.02640E-02 1.52581E-03-3.32020E-14
 -1      2546 5.03237E-03 5.88085E-04-1.85117E-14
 -1      2547 4.86071E-03 6.27920E-04-1.80889E-14
 -1      2548 9.92593E-03 1.51750E-03-3.36927E-14
 -1      2549 6.70084E-04-1.38175E-04-5.04642E-16
 -1      2550 5.54507E-04-1.26365E-04-3.71109E-16
 -1      2551 5.57714E-04-1.46361E-04-3.66054E-16
 -1      2552 1.01617E-02 1.54256E-03-3.21671E-14
 -1      2553 1.02421E-02 1.54719E-03-3.29762E-14
 -1      2554 1.03279E-02 1.54386E-03-3.35613E-14
 -1      2555 6.37740E-03 1.40743E-05-2.26163E-14
 -1      2556 6.30692E-03 5.88035E-05-2.22676E-14
 -1      2557 6.17364E-03 9.23175E-05-2.16696E-14
 -1      2558 4.62305E-03 6.32228E-04-1.69898E-14
 -1      2559 9.83181E-03 1.64886E-03-3.08702E-14
 -1      2560 1.02018E-02 1.60903E-03-3.36338E-14
 -1      2561 1.00500E-02 1.58982E-03-3.22598E-14
 -1      2562 1.64105E-02 6.93544E-03-1.05139E-13
 -1      2563 1.62313E-02 6.83610E-03-1.04402E-13
 -1      2564 1.62213E-02 6.94792E-03-1.07399E-13
 -1      2565 1.63488E-02 7.00323E-03-1.07522E-13
 -1      2566 1.62964E-02 6.94287E-03-1.06495E-13
 -1      2567 1.60375E-02 6.81943E-03-1.05956E-13
 -1      2568 5.71826E-04-1.85344E-04-3.58464E-16
 -1      2569 7.81066E-03 5.09531E-04-2.95583E-14
 -1      2570 7.64989E-03 4.24097E-04-2.93326E-14
 -1      2571 7.93669E-03 6.25310E-04-3.03575E-14
 -1      2572 1.00372E-02 1.57665E-03-3.16552E-14
 -1      2573 1.03280E-02 1.60953E-03-3.44746E-14
 -1      2574 8.91259E-03 1.17414E-03-3.23956E-14
 -1      2575 5.10476E-03 5.41437E-04-1.83220E-14
 -1      2576 5.85254E-03 2.52301E-04-2.05320E-14
 -1      2577 6.98582E-03 1.19958E-05-2.57655E-14
 -1      2578 1.02188E-02 1.55644E-03-3.39082E-14
 -1      2579 4.78037E-03 6.16654E-04-1.74587E-14
 -1      2580 7.34716E-03 1.93262E-04-2.76620E-14
 -1      2581 9.48527E-03 1.40509E-03-3.32680E-14
 -1      2582 7.79805E-04 7.67457E-05-6.18293E-16
 -1      2583 7.78541E-04 5.49796E-05-6.28376E-16
 -1      2584 7.77697E-04 3.31504E-05-6.37023E-16
 -1      2585 7.77283E-04 1.15531E-05-6.44775E-16
 -1      2586 8.96024E-04 4.92476E-05-8.01402E-16
 -1      2587 7.91182E-04 1.72033E-04-5.58147E-16
 -1      2588 7.87158E-04 1.46765E-04-5.76592E-16
 -1      2589 8.03041E-04 2.26967E-04-5.13166E-16
 -1      2590 7.96451E-04 1.98714E-04-5.37249E-16
 -1      2591 9.14455E-04 2.06624E-04-6.99012E-16
 -1      2592 8.69746E-04 2.86960E-04-5.24876E-16
 -1      2593 8.32384E-04 2.52629E-04-5.20824E-16
 -1      2594 9.50512E-04 2.62652E-04-6.82519E-16
 -1      2595 1.01290E-03 3.18493E-04-6.94703E-16
 -1      2596 1.13217E-02 2.57656E-03-4.73809E-14
 -1      2597 1.11876E-02 2.44972E-03-4.58588E-14
 -1      2598 1.15824E-02 2.81791E-03-5.03165E-14
 -1      2599 1.14511E-02 2.69708E-03-4.88422E-14
 -1      2600 1.12878E-02 2.60487E-03-4.82141E-14
 -1      2601 1.03481E-02 1.57410E-03-3.41934E-14
 -1      2602 1.03494E-02 1.59234E-03-3.45814E-14
 -1      2603 1.03377E-03-3.14792E-04-9.34636E-16
 -1      2604 1.17701E-03-3.41088E-04-1.17686E-15
 -1      2605 1.32022E-03-3.63717E-04-1.44776E-15
 -1      2606 1.46346E-03-3.82960E-04-1.74723E-15
 -1      2607 1.23840E-03-3.19872E-04-1.32738E-15
 -1      2608 1.60653E-03-3.99360E-04-2.07436E-15
 -1      2609 1.74949E-03-4.13154E-04-2.42967E-15
 -1      2610 1.52501E-03-3.56676E-04-1.92740E-15
 -1      2611 1.89231E-03-4.24829E-04-2.81304E-15
 -1      2612 2.03503E-03-4.34582E-04-3.22373E-15
 -1      2613 1.81183E-03-3.83266E-04-2.63874E-15
 -1      2614 2.17767E-03-4.42809E-04-3.66246E-15
 -1      2615 2.32026E-03-4.49680E-04-4.12819E-15
 -1      2616 2.09856E-03-4.02110E-04-3.46026E-15
 -1      2617 2.46285E-03-4.55507E-04-4.62095E-15
 -1      2618 2.60542E-03-4.60432E-04-5.14051E-15
 -1      2619 2.38525E-03-4.15348E-04-4.39037E-15
 -1      2620 2.74807E-03-4.64699E-04-5.68617E-15
 -1      2621 2.89074E-03-4.68424E-04-6.25800E-15
 -1      2622 2.67208E-03-4.24748E-04-5.42645E-15
 -1      2623 3.03354E-03-4.71791E-04-6.85572E-15
 -1      2624 3.17640E-03-4.74893E-04-7.47858E-15
 -1      2625 2.95930E-03-4.31739E-04-6.56719E-15
 -1      2626 3.31943E-03-4.77855E-04-8.12657E-15
 -1      2627 3.46253E-03-4.80744E-04-8.79886E-15
 -1      2628 3.24716E-03-4.37446E-04-7.80926E-15
 -1      2629 3.60581E-03-4.83616E-04-9.49509E-15
 -1      2630 3.74915E-03-4.86501E-04-1.02165E-14
 -1      2631 3.53593E-03-4.42699E-04-9.14945E-15
 -1      2632 3.89264E-03-4.89373E-04-1.09622E-14
 -1      2633 4.03611E-03-4.92194E-04-1.17313E-14
 -1      2634 3.82574E-03-4.47981E-04-1.05870E-14
 -1      2635 4.17964E-03-4.94834E-04-1.25248E-14
 -1      2636 4.32299E-03-4.97144E-04-1.33427E-14
 -1      2637 4.11657E-03-4.53305E-04-1.21214E-14
 -1      2638 4.46621E-03-4.98857E-04-1.41847E-14
 -1      2639 4.60901E-03-4.99662E-04-1.50504E-14
 -1      2640 4.40801E-03-4.57969E-04-1.37514E-14
 -1      2641 4.75139E-03-4.99123E-04-1.59406E-14
 -1      2642 4.89305E-03-4.96716E-04-1.68552E-14
 -1      2643 4.69922E-03-4.60210E-04-1.54786E-14
 -1      2644 5.03393E-03-4.91823E-04-1.77941E-14
 -1      2645 5.17379E-03-4.83692E-04-1.87567E-14
 -1      2646 4.98883E-03-4.56780E-04-1.73020E-14
 -1      2647 5.31252E-03-4.71551E-04-1.97436E-14
 -1      2648 5.45009E-03-4.54479E-04-2.07554E-14
 -1      2649 5.27522E-03-4.42633E-04-1.92227E-14
 -1      2650 5.58635E-03-4.31649E-04-2.17924E-14
 -1      2651 5.72155E-03-4.02132E-04-2.28545E-14
 -1      2652 5.55696E-03-4.11022E-04-2.12416E-14
 -1      2653 5.85559E-03-3.65209E-04-2.39417E-14
 -1      2654 5.98898E-03-3.20166E-04-2.50549E-14
 -1      2655 5.83363E-03-3.54322E-04-2.33609E-14
 -1      2656 6.12168E-03-2.66580E-04-2.61950E-14
 -1      2657 6.25440E-03-2.04189E-04-2.73629E-14
 -1      2658 6.10627E-03-2.65656E-04-2.55840E-14
 -1      2659 6.38711E-03-1.32994E-04-2.85555E-14
 -1      2660 6.52052E-03-5.32489E-05-2.97743E-14
 -1      2661 6.37737E-03-1.40895E-04-2.79133E-14
 -1      2662 6.65458E-03 3.46294E-05-3.10220E-14
 -1      2663 6.78982E-03 1.29931E-04-3.22938E-14
 -1      2664 6.65001E-03 1.99792E-05-3.03502E-14
 -1      2665 6.92614E-03 2.31944E-04-3.35906E-14
 -1      2666 7.06377E-03 3.39739E-04-3.49127E-14
 -1      2667 6.92667E-03 2.12882E-04-3.28922E-14
 -1      2668 7.20258E-03 4.52492E-04-3.62591E-14
 -1      2669 7.34254E-03 5.69279E-04-3.76290E-14
 -1      2670 7.20842E-03 4.30970E-04-3.55342E-14
 -1      2671 7.48353E-03 6.89328E-04-3.90216E-14
 -1      2672 7.62533E-03 8.11882E-04-4.04378E-14
 -1      2673 7.49481E-03 6.66628E-04-3.82712E-14
 -1      2674 7.76787E-03 9.36313E-04-4.18754E-14
 -1      2675 7.91086E-03 1.06209E-03-4.33335E-14
 -1      2676 7.78445E-03 9.13086E-04-4.10988E-14
 -1      2677 8.05430E-03 1.18876E-03-4.48156E-14
 -1      2678 8.19790E-03 1.31600E-03-4.63194E-14
 -1      2679 8.07571E-03 1.16524E-03-4.40145E-14
 -1      2680 8.34170E-03 1.44351E-03-4.78418E-14
 -1      2681 8.48548E-03 1.57113E-03-4.93837E-14
 -1      2682 8.36723E-03 1.41974E-03-4.70157E-14
 -1      2683 8.62932E-03 1.69868E-03-5.09426E-14
 -1      2684 8.77303E-03 1.82609E-03-5.25172E-14
 -1      2685 8.65814E-03 1.67463E-03-5.00930E-14
 -1      2686 8.91672E-03 1.95327E-03-5.41090E-14
 -1      2687 9.06026E-03 2.08023E-03-5.57160E-14
 -1      2688 8.94805E-03 1.92896E-03-5.32403E-14
 -1      2689 9.20374E-03 2.20691E-03-5.73379E-14
 -1      2690 9.34709E-03 2.33334E-03-5.89708E-14
 -1      2691 9.23689E-03 2.18235E-03-5.64481E-14
 -1      2692 9.49037E-03 2.45952E-03-6.06179E-14
 -1      2693 9.63355E-03 2.58546E-03-6.22755E-14
 -1      2694 9.52478E-03 2.43475E-03-5.97107E-14
 -1      2695 9.77668E-03 2.71120E-03-6.39436E-14
 -1      2696 9.91973E-03 2.83674E-03-6.56240E-14
 -1      2697 9.81192E-03 2.68628E-03-6.30188E-14
 -1      2698 1.00627E-02 2.96211E-03-6.73127E-14
 -1      2699 1.02057E-02 3.08734E-03-6.90131E-14
 -1      2700 1.00985E-02 2.93710E-03-6.63739E-14
 -1      2701 1.03486E-02 3.21243E-03-7.07232E-14
 -1      2702 1.04915E-02 3.33741E-03-7.24404E-14
 -1      2703 1.03847E-02 3.18735E-03-6.97678E-14
 -1      2704 1.06344E-02 3.46231E-03-7.41680E-14
 -1      2705 1.07773E-02 3.58712E-03-7.58992E-14
 -1      2706 1.06707E-02 3.43719E-03-7.31989E-14
 -1      2707 1.09202E-02 3.71186E-03-7.76387E-14
 -1      2708 1.10630E-02 3.83655E-03-7.93899E-14
 -1      2709 1.09565E-02 3.68673E-03-7.66597E-14
 -1      2710 1.12059E-02 3.96119E-03-8.11447E-14
 -1      2711 1.13487E-02 4.08580E-03-8.29069E-14
 -1      2712 1.12423E-02 3.93605E-03-8.01505E-14
 -1      2713 1.14916E-02 4.21037E-03-8.46767E-14
 -1      2714 1.16344E-02 4.33492E-03-8.64524E-14
 -1      2715 1.15280E-02 4.18524E-03-8.36696E-14
 -1      2716 1.17773E-02 4.45945E-03-8.82359E-14
 -1      2717 1.19201E-02 4.58397E-03-9.00231E-14
 -1      2718 1.18137E-02 4.43432E-03-8.72164E-14
 -1      2719 1.20630E-02 4.70847E-03-9.18154E-14
 -1      2720 1.22058E-02 4.83296E-03-9.36114E-14
 -1      2721 1.20994E-02 4.68333E-03-9.07851E-14
 -1      2722 1.23487E-02 4.95744E-03-9.54092E-14
 -1      2723 1.24916E-02 5.08191E-03-9.72118E-14
 -1      2724 1.23851E-02 4.93231E-03-9.43725E-14
 -1      2725 1.26344E-02 5.20639E-03-9.90147E-14
 -1      2726 1.27773E-02 5.33086E-03-1.00819E-13
 -1      2727 1.26708E-02 5.18126E-03-9.79664E-14
 -1      2728 1.29201E-02 5.45532E-03-1.02625E-13
 -1      2729 1.30630E-02 5.57979E-03-1.04433E-13
 -1      2730 1.29565E-02 5.43020E-03-1.01571E-13
 -1      2731 1.31654E-02 5.67218E-03-1.05815E-13
 -1      2732 1.33066E-02 5.79360E-03-1.07566E-13
 -1      2733 1.34067E-02 5.83184E-03-1.07520E-13
 -1      2734 1.32018E-02 5.64706E-03-1.04754E-13
 -1      2735 2.30538E-03 4.43325E-04-3.45331E-15
 -1      2736 2.16316E-03 4.37536E-04-3.04502E-15
 -1      2737 1.73548E-03 4.09803E-04-1.97548E-15
 -1      2738 1.59256E-03 3.96286E-04-1.67109E-15
 -1      2739 2.58920E-03 4.51059E-04-4.34578E-15
 -1      2740 2.44740E-03 4.47798E-04-3.88685E-15
 -1      2741 2.36866E-03 4.09686E-04-3.74035E-15
 -1      2742 2.87189E-03 4.54682E-04-5.33845E-15
 -1      2743 2.73071E-03 4.53333E-04-4.82980E-15
 -1      2744 2.65277E-03 4.16613E-04-4.66500E-15
 -1      2745 3.15266E-03 4.55261E-04-6.42987E-15
 -1      2746 3.01256E-03 4.55320E-04-5.87215E-15
 -1      2747 2.93506E-03 4.20209E-04-5.68965E-15
 -1      2748 3.42998E-03 4.53836E-04-7.61667E-15
 -1      2749 3.29183E-03 4.54784E-04-7.01155E-15
 -1      2750 3.21432E-03 4.21707E-04-6.81151E-15
 -1      2751 3.70112E-03 4.51818E-04-8.89839E-15
 -1      2752 3.56646E-03 4.52900E-04-8.24583E-15
 -1      2753 3.48845E-03 4.22515E-04-8.02898E-15
 -1      2754 3.96138E-03 4.51671E-04-1.02730E-14
 -1      2755 3.83287E-03 4.51532E-04-9.57367E-15
 -1      2756 3.75390E-03 4.24689E-04-9.33997E-15
 -1      2757 4.20306E-03 4.57944E-04-1.17397E-14
 -1      2758 4.08500E-03 4.54084E-04-1.09952E-14
 -1      2759 4.00496E-03 4.31636E-04-1.07440E-14
 -1      2760 4.40485E-03 4.77119E-04-1.32165E-14
 -1      2761 4.30801E-03 4.66152E-04-1.24682E-14
 -1      2762 4.22746E-03 4.48457E-04-1.22012E-14
 -1      2763 4.57295E-03 5.22326E-04-1.48536E-14
 -1      2764 4.49572E-03 4.97283E-04-1.40247E-14
 -1      2765 4.41602E-03 4.82858E-04-1.37419E-14
 -1      2766 9.04592E-03 1.28275E-03-3.33653E-14
 -1      2767 8.74873E-03 1.13602E-03-3.27363E-14
 -1      2768 1.10573E-02 2.32429E-03-4.43506E-14
 -1      2769 1.09307E-02 2.19965E-03-4.28581E-14
 -1      2770 1.10349E-02 2.36305E-03-4.52450E-14
 -1      2771 1.18622E-02 3.07167E-03-5.34704E-14
 -1      2772 1.17217E-02 2.94484E-03-5.18856E-14
 -1      2773 1.15519E-02 2.84939E-03-5.12439E-14
 -1      2774 1.21450E-02 3.32444E-03-5.66817E-14
 -1      2775 1.20033E-02 3.19817E-03-5.50687E-14
 -1      2776 1.18294E-02 3.10087E-03-5.44087E-14
 -1      2777 1.24294E-02 3.57616E-03-5.99409E-14
 -1      2778 1.22870E-02 3.45042E-03-5.83063E-14
 -1      2779 1.21108E-02 3.35211E-03-5.76324E-14
 -1      2780 1.27145E-02 3.82700E-03-6.32446E-14
 -1      2781 1.25719E-02 3.70168E-03-6.15871E-14
 -1      2782 1.23943E-02 3.60284E-03-6.09046E-14
 -1      2783 1.30000E-02 4.07717E-03-6.65816E-14
 -1      2784 1.28572E-02 3.95215E-03-6.49061E-14
 -1      2785 1.26789E-02 3.85304E-03-6.42157E-14
 -1      2786 1.32857E-02 4.32688E-03-6.99491E-14
 -1      2787 1.31429E-02 4.20207E-03-6.82624E-14
 -1      2788 1.29641E-02 4.10283E-03-6.75610E-14
 -1      2789 1.35715E-02 4.57627E-03-7.33563E-14
 -1      2790 1.34286E-02 4.45161E-03-7.16483E-14
 -1      2791 1.32496E-02 4.35230E-03-7.09397E-14
 -1      2792 1.38572E-02 4.82548E-03-7.67921E-14
 -1      2793 1.37144E-02 4.70090E-03-7.50710E-14
 -1      2794 1.35352E-02 4.60156E-03-7.43525E-14
 -1      2795 1.41430E-02 5.07456E-03-8.02519E-14
 -1      2796 1.40001E-02 4.95003E-03-7.85201E-14
 -1      2797 1.38210E-02 4.85068E-03-7.77960E-14
 -1      2798 1.44288E-02 5.32357E-03-8.37362E-14
 -1      2799 1.42859E-02 5.19907E-03-8.19914E-14
 -1      2800 1.41067E-02 5.09972E-03-8.12629E-14
 -1      2801 1.47145E-02 5.57254E-03-8.72353E-14
 -1      2802 1.45717E-02 5.44806E-03-8.54836E-14
 -1      2803 1.43925E-02 5.34870E-03-8.47494E-14
 -1      2804 1.50003E-02 5.82148E-03-9.07408E-14
 -1      2805 1.48574E-02 5.69701E-03-8.89888E-14
 -1      2806 1.46782E-02 5.59766E-03-8.82505E-14
 -1      2807 1.52860E-02 6.07042E-03-9.42596E-14
 -1      2808 1.51432E-02 5.94595E-03-9.24999E-14
 -1      2809 1.49639E-02 5.84660E-03-9.17606E-14
 -1      2810 1.55717E-02 6.31934E-03-9.77786E-14
 -1      2811 1.54289E-02 6.19488E-03-9.60187E-14
 -1      2812 1.52497E-02 6.09553E-03-9.52778E-14
 -1      2813 1.58575E-02 6.56827E-03-1.01299E-13
 -1      2814 1.57146E-02 6.44381E-03-9.95379E-14
 -1      2815 1.55354E-02 6.34446E-03-9.87989E-14
 -1      2816 1.61018E-02 6.77438E-03-1.04130E-13
 -1      2817 6.88514E-04-2.04218E-04-4.92607E-16
 -1      2818 1.53560E-02 6.50244E-03-1.04733E-13
 -1      2819 1.54783E-02 6.54457E-03-1.04571E-13
 -1      2820 1.56007E-02 6.58671E-03-1.04408E-13
 -1      2821 1.57231E-02 6.62885E-03-1.04242E-13
 -1      2822 1.54158E-02 6.45786E-03-1.02959E-13
 -1      2823 1.51112E-02 6.41816E-03-1.05060E-13
 -1      2824 1.52336E-02 6.46030E-03-1.04896E-13
 -1      2825 1.51711E-02 6.37358E-03-1.03283E-13
 -1      2826 1.46217E-02 6.24962E-03-1.05736E-13
 -1      2827 1.47441E-02 6.29176E-03-1.05567E-13
 -1      2828 1.43770E-02 6.16536E-03-1.06084E-13
 -1      2829 1.44993E-02 6.20749E-03-1.05908E-13
 -1      2830 1.44368E-02 6.12077E-03-1.04282E-13
 -1      2831 1.41363E-02 6.08252E-03-1.06434E-13
 -1      2832 1.42566E-02 6.12394E-03-1.06258E-13
 -1      2833 1.41941E-02 6.03722E-03-1.04623E-13
 -1      2834 1.38915E-02 5.99826E-03-1.06791E-13
 -1      2835 1.40139E-02 6.04039E-03-1.06613E-13
 -1      2836 1.39514E-02 5.95367E-03-1.04968E-13
 -1      2837 1.36467E-02 5.91399E-03-1.07154E-13
 -1      2838 1.37691E-02 5.95612E-03-1.06971E-13
 -1      2839 1.37066E-02 5.86940E-03-1.05322E-13
 -1      2840 1.08105E-02 2.07871E-03-4.13836E-14
 -1      2841 1.06967E-02 1.96025E-03-3.99227E-14
 -1      2842 1.07948E-02 2.12228E-03-4.22590E-14
 -1      2843 1.05928E-02 1.84971E-03-3.84767E-14
 -1      2844 1.04983E-02 1.74495E-03-3.70475E-14
 -1      2845 1.05865E-02 1.89686E-03-3.93388E-14
 -1      2846 5.14907E-03 4.88680E-04-1.80320E-14
 -1      2847 4.97745E-03 5.41208E-04-1.75824E-14
 -1      2848 1.48665E-02 6.33389E-03-1.05396E-13
 -1      2849 1.49888E-02 6.37602E-03-1.05227E-13
 -1      2850 1.49263E-02 6.28931E-03-1.03609E-13
 -1      2851 1.46816E-02 6.20504E-03-1.03942E-13
 -1      2852 7.84014E-04 1.22642E-04-5.92218E-16
 -1      2853 7.81618E-04 9.93260E-05-6.06069E-16
 -1      2854 8.99136E-04 9.88026E-05-7.75991E-16
 -1      2855 9.04889E-04 1.50668E-04-7.42543E-16
 -1      2856 5.92925E-03 1.84325E-04-2.06454E-14
 -1      2857 5.71943E-03 2.75544E-04-1.98664E-14
 -1      2858 7.03705E-03 4.52238E-05-2.63670E-14
 -1      2859 6.86417E-03-1.48681E-05-2.53517E-14
 -1      2860 5.50911E-03 3.59930E-04-1.91414E-14
 -1      2861 5.35698E-03 4.18008E-04-1.86626E-14
 -1      2862 7.81463E-04-9.82067E-05-6.63423E-16
 -1      2863 7.83805E-04-1.21574E-04-6.62529E-16
 -1      2864 2.02078E-03 4.30153E-04-2.66224E-15
 -1      2865 1.87821E-03 4.21029E-04-2.30584E-15
 -1      2866 2.08340E-03 3.98088E-04-2.91644E-15
 -1      2867 9.61791E-03 1.49283E-03-3.42320E-14
 -1      2868 9.37466E-03 1.41915E-03-3.39786E-14
 -1      2869 4.61061E-03 6.01128E-04-1.64672E-14
 -1      2870 4.59683E-03 6.00897E-04-1.64018E-14
 -1      2871 4.82225E-03 5.76671E-04-1.71364E-14
 -1      2872 4.70128E-03 5.89172E-04-1.67378E-14
 -1      2873 1.02753E-02 1.59769E-03-3.47267E-14
 -1      2874 1.01657E-02 1.59503E-03-3.46867E-14
 -1      2875 8.45839E-03 9.73883E-04-3.20483E-14
 -1      2876 8.23512E-03 8.34347E-04-3.14465E-14
 -1      2877 6.68337E-03-3.93266E-05-2.43323E-14
 -1      2878 6.55082E-03-3.13153E-05-2.35681E-14
 -1      2879 7.38127E-03 2.53055E-04-2.83369E-14
 -1      2880 7.21845E-03 1.43979E-04-2.74543E-14
 -1      2881 1.00067E-02 1.57428E-03-3.45629E-14
 -1      2882 9.83352E-03 1.54308E-03-3.43839E-14
 -1      2883 7.86899E-04-1.45740E-04-6.59940E-16
 -1      2884 7.90844E-04-1.70927E-04-6.55346E-16
 -1      2885 9.04644E-04-1.49385E-04-8.36570E-16
 -1      2886 8.95032E-04 7.16515E-07-8.19847E-16
 -1      2887 7.77268E-04-1.00133E-05-6.51023E-16
 -1      2888 7.77652E-04-3.16269E-05-6.56240E-16
 -1      2889 1.13457E-03 3.41421E-04-8.60070E-16
 -1      2890 1.10239E-03 3.12381E-04-8.55042E-16
 -1      2891 1.25636E-03 3.61416E-04-1.04470E-15
 -1      2892 7.78454E-04-5.33928E-05-6.59995E-16
 -1      2893 7.79698E-04-7.55761E-05-6.62434E-16
 -1      2894 8.99014E-04-9.73494E-05-8.38142E-16
 -1      2895 8.95987E-04-4.77652E-05-8.32166E-16
 -1      2896 9.21393E-03 1.38533E-03-3.43242E-14
 -1      2897 6.42379E-03-2.01053E-05-2.29468E-14
 -1      2898 6.29772E-03-2.24515E-06-2.23350E-14
 -1      2899 6.45205E-03-4.37623E-05-2.32755E-14
 -1      2900 1.79738E-03 3.80192E-04-2.19512E-15
 -1      2901 8.61467E-03 1.09252E-03-3.30060E-14
 -1      2902 4.59263E-03 5.54294E-04-1.55181E-14
 -1      2903 4.53264E-03 5.38941E-04-1.52200E-14
 -1      2904 7.88884E-04-2.52751E-04-5.93628E-16
 -1      2905 9.20096E-04-2.88673E-04-7.65000E-16
 -1      2906 4.94641E-03 6.15207E-04-1.61410E-14
 -1      2907 4.75994E-03 5.74662E-04-1.58465E-14
 -1      2908 1.04431E-02 1.70522E-03-3.65533E-14
 -1      2909 1.04250E-02 1.66206E-03-3.57073E-14
 -1      2910 1.59800E-02 6.74723E-03-1.04675E-13
 -1      2911 1.59149E-02 6.64046E-03-1.02579E-13
 -1      2912 1.57357E-02 6.54112E-03-1.01841E-13
 -1      2913 1.58505E-02 6.68551E-03-1.04404E-13
 -1      2914 1.01002E-02 1.62504E-03-3.53850E-14
 -1      2915 6.74572E-03-3.29152E-05-2.49111E-14
 -1      2916 1.56656E-02 6.55666E-03-1.02959E-13
 -1      2917 7.49765E-03 3.47366E-04-2.91132E-14
 -1      2918 7.36789E-03 2.82991E-04-2.88907E-14
 -1      2919 7.61421E-03 4.47311E-04-2.99008E-14
 -1      2920 4.85729E-03 5.27209E-04-1.68564E-14
 -1      2921 1.35067E-02 5.87008E-03-1.07474E-13
 -1      2922 8.04861E-03 7.33044E-04-3.12086E-14
 -1      2923 7.88454E-03 6.36590E-04-3.09708E-14
 -1      2924 8.15950E-03 8.32458E-04-3.20700E-14
 -1      2925 4.61802E-03 5.73570E-04-1.61550E-14
 -1      2926 4.55548E-03 5.49106E-04-1.55807E-14
 -1      2927 4.62783E-03 5.40557E-04-1.58426E-14
 -1      2928 5.19737E-03 4.31323E-04-1.79123E-14
 -1      2929 1.03637E-02 1.60586E-03-3.46763E-14
 -1      2930 1.34442E-02 5.78336E-03-1.05819E-13
 -1      2931 9.82143E-04-2.73747E-04-8.86769E-16
 -1      2932 5.59183E-03 2.85165E-04-1.92490E-14
 -1      2933 7.08616E-03 9.02659E-05-2.70189E-14
 -1      2934 4.88416E-03 6.46320E-04-1.67323E-14
 -1      2935 4.65210E-03 5.82214E-04-1.60262E-14
 -1      2936 9.73286E-03 1.55916E-03-3.51033E-14
 -1      2937 4.71701E-03 5.82283E-04-1.60197E-14
 -1      2938 6.02355E-03 1.19906E-04-2.09784E-14
 -1      2939 5.87493E-03 1.39532E-04-2.02985E-14
 -1      2940 6.09609E-03 6.18021E-05-2.13110E-14
 -1      2941 1.48532E-03 3.88437E-04-1.45164E-15
 -1      2942 1.36369E-03 3.73300E-04-1.23047E-15
 -1      2943 1.33146E-03 3.43944E-04-1.22373E-15
 -1      2944 1.54658E-03 3.61858E-04-1.64118E-15
 -1      2945 1.33418E-02 5.69097E-03-1.04441E-13
 -1      2946 1.07136E-03 2.84429E-04-8.46884E-16
 -1      2947 1.04145E-03 2.57503E-04-8.36015E-16
 -1      2948 1.19271E-03 3.03756E-04-1.03013E-15
 -1      2949 1.03411E-03 2.25335E-04-8.66752E-16
 -1      2950 1.17953E-02 3.12992E-03-5.53508E-14
 -1      2951 1.16563E-02 3.00512E-03-5.37547E-14
 -1      2952 1.12527E-02 2.63610E-03-4.90869E-14
 -1      2953 1.11284E-02 2.51942E-03-4.76259E-14
 -1      2954 9.85843E-03 1.63146E-03-3.61288E-14
 -1      2955 9.66447E-03 1.58625E-03-3.59691E-14
 -1      2956 1.44456E-03-3.14765E-04-1.78265E-15
 -1      2957 1.58812E-03-3.29481E-04-2.11083E-15
 -1      2958 1.73180E-03-3.42017E-04-2.46694E-15
 -1      2959 1.87562E-03-3.52568E-04-2.85011E-15
 -1      2960 1.65245E-03-3.01329E-04-2.29803E-15
 -1      2961 2.01948E-03-3.61467E-04-3.26070E-15
 -1      2962 2.16340E-03-3.68882E-04-3.69844E-15
 -1      2963 1.94062E-03-3.21073E-04-3.06406E-15
 -1      2964 2.30738E-03-3.75101E-04-4.16231E-15
 -1      2965 2.45143E-03-3.80269E-04-4.65325E-15
 -1      2966 2.22940E-03-3.34926E-04-3.93762E-15
 -1      2967 2.59559E-03-3.84622E-04-5.17057E-15
 -1      2968 2.73985E-03-3.88285E-04-5.71350E-15
 -1      2969 2.51869E-03-3.44472E-04-4.91751E-15
 -1      2970 2.88431E-03-3.91440E-04-6.28162E-15
 -1      2971 3.02895E-03-3.94200E-04-6.87598E-15
 -1      2972 2.80866E-03-3.51059E-04-6.00052E-15
 -1      2973 3.17388E-03-3.96696E-04-7.49556E-15
 -1      2974 3.31909E-03-3.99029E-04-8.13935E-15
 -1      2975 3.09964E-03-3.55803E-04-7.18510E-15
 -1      2976 3.46469E-03-4.01282E-04-8.80752E-15
 -1      2977 3.61064E-03-4.03540E-04-9.49899E-15
 -1      2978 3.39211E-03-3.59620E-04-8.46869E-15
 -1      2979 3.75708E-03-4.05830E-04-1.02155E-14
 -1      2980 3.90390E-03-4.08205E-04-1.09564E-14
 -1      2981 3.68660E-03-3.63235E-04-9.84834E-15
 -1      2982 4.05125E-03-4.10621E-04-1.17207E-14
 -1      2983 4.19894E-03-4.13064E-04-1.25094E-14
 -1      2984 3.98355E-03-3.67149E-04-1.13242E-14
 -1      2985 4.34707E-03-4.15391E-04-1.33221E-14
 -1      2986 4.49538E-03-4.17455E-04-1.41592E-14
 -1      2987 4.28313E-03-3.71493E-04-1.28962E-14
 -1      2988 4.64388E-03-4.18976E-04-1.50193E-14
 -1      2989 4.79222E-03-4.19585E-04-1.59038E-14
 -1      2990 4.58496E-03-3.75712E-04-1.45641E-14
 -1      2991 4.94032E-03-4.18821E-04-1.68136E-14
 -1      2992 5.08779E-03-4.15993E-04-1.77471E-14
 -1      2993 4.88781E-03-3.78027E-04-1.63280E-14
 -1      2994 5.23447E-03-4.10434E-04-1.87047E-14
 -1      2995 5.38005E-03-4.01110E-04-1.96869E-14
 -1      2996 5.18963E-03-3.74717E-04-1.81902E-14
 -1      2997 5.52432E-03-3.87179E-04-2.06935E-14
 -1      2998 5.66725E-03-3.67363E-04-2.17256E-14
 -1      2999 5.48784E-03-3.59527E-04-2.01491E-14
 -1      3000 5.80866E-03-3.40768E-04-2.27835E-14
 -1      3001 5.94892E-03-3.06209E-04-2.38663E-14
 -1      3002 5.78036E-03-3.23757E-04-2.22083E-14
 -1      3003 6.08798E-03-2.62973E-04-2.49757E-14
 -1      3004 6.22655E-03-2.10294E-04-2.61125E-14
 -1      3005 6.06684E-03-2.57746E-04-2.43705E-14
 -1      3006 6.36464E-03-1.47942E-04-2.72755E-14
 -1      3007 6.50320E-03-7.58814E-05-2.84651E-14
 -1      3008 6.34935E-03-1.53626E-04-2.66392E-14
 -1      3009 6.64222E-03 5.63150E-06-2.96814E-14
 -1      3010 6.78245E-03 9.58258E-05-3.09254E-14
 -1      3011 6.63181E-03-8.35330E-06-2.90158E-14
 -1      3012 6.92382E-03 1.94014E-04-3.21964E-14
 -1      3013 7.06669E-03 2.98996E-04-3.34907E-14
 -1      3014 6.91816E-03 1.75088E-04-3.14999E-14
 -1      3015 7.21089E-03 4.09887E-04-3.48105E-14
 -1      3016 7.35640E-03 5.25416E-04-3.61551E-14
 -1      3017 7.21046E-03 3.88855E-04-3.40899E-14
 -1      3018 7.50299E-03 6.44735E-04-3.75223E-14
 -1      3019 7.65036E-03 7.66810E-04-3.89130E-14
 -1      3020 7.50836E-03 6.23304E-04-3.67755E-14
 -1      3021 7.79835E-03 8.90966E-04-4.03256E-14
 -1      3022 7.94657E-03 1.01651E-03-4.17590E-14
 -1      3023 7.80976E-03 8.69736E-04-3.95545E-14
 -1      3024 8.09493E-03 1.14297E-03-4.32162E-14
 -1      3025 8.24309E-03 1.26996E-03-4.46941E-14
 -1      3026 8.11210E-03 1.12186E-03-4.24202E-14
 -1      3027 8.39105E-03 1.39719E-03-4.61930E-14
 -1      3028 8.53856E-03 1.52448E-03-4.77115E-14
 -1      3029 8.41326E-03 1.37588E-03-4.53731E-14
 -1      3030 8.68569E-03 1.65168E-03-4.92478E-14
 -1      3031 8.83228E-03 1.77872E-03-5.08024E-14
 -1      3032 8.71203E-03 1.62987E-03-4.84053E-14
 -1      3033 8.97845E-03 1.90554E-03-5.23741E-14
 -1      3034 9.12411E-03 2.03214E-03-5.39611E-14
 -1      3035 9.00798E-03 1.88310E-03-5.15114E-14
 -1      3036 9.26937E-03 2.15848E-03-5.55627E-14
 -1      3037 9.41421E-03 2.28460E-03-5.71788E-14
 -1      3038 9.30123E-03 2.13539E-03-5.46818E-14
 -1      3039 9.55872E-03 2.41050E-03-5.88070E-14
 -1      3040 9.70290E-03 2.53621E-03-6.04462E-14
 -1      3041 9.59222E-03 2.38683E-03-5.79080E-14
 -1      3042 9.84683E-03 2.66173E-03-6.20976E-14
 -1      3043 9.99053E-03 2.78710E-03-6.37614E-14
 -1      3044 9.88145E-03 2.63759E-03-6.11803E-14
 -1      3045 1.01341E-02 2.91232E-03-6.54354E-14
 -1      3046 1.02774E-02 3.03743E-03-6.71211E-14
 -1      3047 1.01694E-02 2.88783E-03-6.45018E-14
 -1      3048 1.04207E-02 3.16243E-03-6.88166E-14
 -1      3049 1.05638E-02 3.28734E-03-7.05212E-14
 -1      3050 1.04565E-02 3.13769E-03-6.78683E-14
 -1      3051 1.07069E-02 3.41217E-03-7.22326E-14
 -1      3052 1.08499E-02 3.53694E-03-7.39529E-14
 -1      3053 1.07430E-02 3.38727E-03-7.12712E-14
 -1      3054 1.09928E-02 3.66165E-03-7.56827E-14
 -1      3055 1.11358E-02 3.78632E-03-7.74167E-14
 -1      3056 1.10291E-02 3.63665E-03-7.47062E-14
 -1      3057 1.12787E-02 3.91095E-03-7.91585E-14
 -1      3058 1.14215E-02 4.03554E-03-8.09086E-14
 -1      3059 1.13150E-02 3.88588E-03-7.81720E-14
 -1      3060 1.15644E-02 4.16011E-03-8.26677E-14
 -1      3061 1.17073E-02 4.28466E-03-8.44303E-14
 -1      3062 1.16008E-02 4.13501E-03-8.16677E-14
 -1      3063 1.18501E-02 4.40919E-03-8.62009E-14
 -1      3064 1.19930E-02 4.53370E-03-8.79782E-14
 -1      3065 1.18865E-02 4.38407E-03-8.51899E-14
 -1      3066 1.21358E-02 4.65820E-03-8.97596E-14
 -1      3067 1.22787E-02 4.78270E-03-9.15455E-14
 -1      3068 1.21722E-02 4.63308E-03-8.87378E-14
 -1      3069 1.24215E-02 4.90718E-03-9.33369E-14
 -1      3070 1.25643E-02 5.03166E-03-9.51304E-14
 -1      3071 1.24579E-02 4.88205E-03-9.23048E-14
 -1      3072 1.27072E-02 5.15614E-03-9.69248E-14
 -1      3073 1.28500E-02 5.28061E-03-9.87206E-14
 -1      3074 1.27436E-02 5.13101E-03-9.58862E-14
 -1      3075 1.29929E-02 5.40507E-03-1.00522E-13
 -1      3076 1.31357E-02 5.52954E-03-1.02324E-13
 -1      3077 1.30293E-02 5.37995E-03-9.94746E-14
 -1      3078 7.69825E-04-2.02785E-04-6.06774E-16
 -1      3079 1.33782E-02 5.66584E-03-1.03387E-13
 -1      3080 2.43274E-03 3.75919E-04-4.03273E-15
 -1      3081 2.29004E-03 3.71370E-04-3.59199E-15
 -1      3082 3.27629E-03 3.89452E-04-7.19783E-15
 -1      3083 3.13805E-03 3.88000E-04-6.60946E-15
 -1      3084 3.54746E-03 3.93350E-04-8.44499E-15
 -1      3085 3.41288E-03 3.91251E-04-7.80947E-15
 -1      3086 3.33902E-03 3.58550E-04-7.58801E-15
 -1      3087 3.80810E-03 4.00781E-04-9.78563E-15
 -1      3088 3.67941E-03 3.96577E-04-9.10368E-15
 -1      3089 3.60782E-03 3.66309E-04-8.86511E-15
 -1      3090 4.05211E-03 4.15977E-04-1.12193E-14
 -1      3091 3.93270E-03 4.07396E-04-1.04911E-14
 -1      3092 3.86509E-03 3.79926E-04-1.02357E-14
 -1      3093 4.26044E-03 4.43511E-04-1.26653E-14
 -1      3094 4.15983E-03 4.28215E-04-1.19323E-14
 -1      3095 4.09931E-03 4.03507E-04-1.16607E-14
 -1      3096 4.45344E-03 4.98033E-04-1.43274E-14
 -1      3097 4.36946E-03 4.70713E-04-1.35121E-14
 -1      3098 4.31883E-03 4.49313E-04-1.32259E-14
 -1      3099 4.50368E-03 5.24012E-04-1.49780E-14
 -1      3100 5.62032E-03 2.07782E-04-1.91756E-14
 -1      3101 5.43954E-03 2.78255E-04-1.84677E-14
 -1      3102 1.56082E-02 6.48446E-03-1.01678E-13
 -1      3103 1.55508E-02 6.41226E-03-1.00396E-13
 -1      3104 1.54807E-02 6.42780E-03-1.01513E-13
 -1      3105 2.14708E-03 3.65644E-04-3.17605E-15
 -1      3106 2.00388E-03 3.58618E-04-2.78564E-15
 -1      3107 2.21169E-03 3.32902E-04-3.44130E-15
 -1      3108 1.20758E-02 3.37969E-03-5.85838E-14
 -1      3109 1.19351E-02 3.25476E-03-5.69606E-14
 -1      3110 1.17598E-02 3.15844E-03-5.62918E-14
 -1      3111 1.23588E-02 3.62945E-03-6.18698E-14
 -1      3112 1.22171E-02 3.50457E-03-6.02218E-14
 -1      3113 1.20402E-02 3.40695E-03-5.95404E-14
 -1      3114 1.26430E-02 3.87905E-03-6.51884E-14
 -1      3115 1.25008E-02 3.75427E-03-6.35238E-14
 -1      3116 1.23229E-02 3.65588E-03-6.28342E-14
 -1      3117 1.29280E-02 4.12846E-03-6.85442E-14
 -1      3118 1.27855E-02 4.00378E-03-6.68614E-14
 -1      3119 1.26070E-02 3.90495E-03-6.61625E-14
 -1      3120 1.32134E-02 4.37770E-03-7.19310E-14
 -1      3121 1.30707E-02 4.25310E-03-7.02340E-14
 -1      3122 1.28919E-02 4.15403E-03-6.95272E-14
 -1      3123 1.34990E-02 4.62683E-03-7.53516E-14
 -1      3124 1.33562E-02 4.50228E-03-7.36363E-14
 -1      3125 1.31772E-02 4.40307E-03-7.29226E-14
 -1      3126 1.37847E-02 4.87588E-03-7.87991E-14
 -1      3127 1.36418E-02 4.75136E-03-7.70727E-14
 -1      3128 1.34627E-02 4.65208E-03-7.63494E-14
 -1      3129 1.40704E-02 5.12487E-03-8.22724E-14
 -1      3130 1.39275E-02 5.00038E-03-8.05329E-14
 -1      3131 1.37484E-02 4.90106E-03-7.98048E-14
 -1      3132 1.43561E-02 5.37384E-03-8.57643E-14
 -1      3133 1.42133E-02 5.24936E-03-8.40175E-14
 -1      3134 1.40341E-02 5.15002E-03-8.32834E-14
 -1      3135 1.46419E-02 5.62278E-03-8.92673E-14
 -1      3136 1.44990E-02 5.49831E-03-8.75147E-14
 -1      3137 1.43198E-02 5.39897E-03-8.67790E-14
 -1      3138 1.49276E-02 5.87172E-03-9.27758E-14
 -1      3139 1.47847E-02 5.74725E-03-9.10203E-14
 -1      3140 1.46055E-02 5.64790E-03-9.02817E-14
 -1      3141 1.52133E-02 6.12065E-03-9.62968E-14
 -1      3142 1.50705E-02 5.99618E-03-9.45365E-14
 -1      3143 1.48913E-02 5.89684E-03-9.37930E-14
 -1      3144 1.54079E-02 6.28780E-03-9.86321E-14
 -1      3145 1.37665E-02 5.82481E-03-1.03502E-13
 -1      3146 1.38889E-02 5.86695E-03-1.03331E-13
 -1      3147 1.01893E-02 1.68333E-03-3.63855E-14
 -1      3148 1.00371E-02 1.66443E-03-3.62563E-14
 -1      3149 9.98033E-03 1.69848E-03-3.71332E-14
 -1      3150 1.52360E-02 6.34352E-03-1.01835E-13
 -1      3151 1.53584E-02 6.38566E-03-1.01673E-13
 -1      3152 1.53009E-02 6.31346E-03-1.00391E-13
 -1      3153 1.40092E-02 5.90836E-03-1.03162E-13
 -1      3154 1.41295E-02 5.94978E-03-1.02993E-13
 -1      3155 1.38243E-02 5.77951E-03-1.01701E-13
 -1      3156 1.42519E-02 5.99192E-03-1.02826E-13
 -1      3157 1.43743E-02 6.03405E-03-1.02656E-13
 -1      3158 1.40670E-02 5.86306E-03-1.01369E-13
 -1      3159 1.35111E-02 5.72426E-03-1.03532E-13
 -1      3160 1.36335E-02 5.76640E-03-1.03356E-13
 -1      3161 1.35710E-02 5.67967E-03-1.01718E-13
 -1      3162 1.33051E-02 5.56284E-03-1.01422E-13
 -1      3163 9.29562E-04-2.35957E-04-8.30282E-16
 -1      3164 1.04203E-03-2.58030E-04-1.00726E-15
 -1      3165 1.07650E-02 2.16560E-03-4.31386E-14
 -1      3166 1.06558E-02 2.05204E-03-4.16633E-14
 -1      3167 1.05557E-02 1.94499E-03-4.02001E-14
 -1      3168 1.04669E-02 1.84190E-03-3.87555E-14
 -1      3169 1.05102E-02 1.98854E-03-4.10639E-14
 -1      3170 2.71689E-03 3.82371E-04-4.98935E-15
 -1      3171 2.57504E-03 3.79556E-04-4.49853E-15
 -1      3172 2.49759E-03 3.42123E-04-4.33034E-15
 -1      3173 1.03364E-02 1.60324E-03-3.48162E-14
 -1      3174 1.03180E-02 1.64582E-03-3.56012E-14
 -1      3175 1.15205E-02 2.88220E-03-5.21901E-14
 -1      3176 1.13846E-02 2.75795E-03-5.06213E-14
 -1      3177 1.12190E-02 2.67050E-03-5.00196E-14
 -1      3178 1.14852E-02 2.91255E-03-5.31182E-14
 -1      3179 1.10028E-02 2.39990E-03-4.61217E-14
 -1      3180 1.08802E-02 2.28022E-03-4.46117E-14
 -1      3181 1.07246E-02 2.20410E-03-4.40010E-14
 -1      3182 1.09634E-02 2.43303E-03-4.69799E-14
 -1      3183 2.99859E-03 3.86399E-04-6.04552E-15
 -1      3184 2.85811E-03 3.84634E-04-5.50554E-15
 -1      3185 3.06273E-03 3.53345E-04-6.40564E-15
 -1      3186 1.17136E-03-2.78949E-04-1.23308E-15
 -1      3187 1.31432E-03-2.98624E-04-1.50857E-15
 -1      3188 1.37840E-03-2.74785E-04-1.66865E-15
 -1      3189 1.11915E-03-2.41211E-04-1.16264E-15
 -1      3190 1.03872E-02 1.63845E-03-3.54557E-14
 -1      3191 1.01600E-03 6.77689E-05-9.83371E-16
 -1      3192 1.01484E-03 4.08848E-05-9.96246E-16
 -1      3193 4.87624E-03 4.76292E-04-1.65627E-14
 -1      3194 4.74444E-03 5.06474E-04-1.61328E-14
 -1      3195 1.49913E-02 6.25924E-03-1.02158E-13
 -1      3196 1.51136E-02 6.30138E-03-1.01995E-13
 -1      3197 1.50562E-02 6.22918E-03-1.00710E-13
 -1      3198 9.36441E-03 1.48200E-03-3.54143E-14
 -1      3199 9.06353E-03 1.35525E-03-3.47851E-14
 -1      3200 8.74787E-03 1.20333E-03-3.41630E-14
 -1      3201 8.48678E-03 1.05492E-03-3.34568E-14
 -1      3202 5.23439E-03 3.62001E-04-1.77464E-14
 -1      3203 5.05469E-03 4.21114E-04-1.71360E-14
 -1      3204 6.78569E-03-1.91920E-05-2.55084E-14
 -1      3205 6.62528E-03-5.05446E-05-2.44862E-14
 -1      3206 1.86055E-03 3.49999E-04-2.42131E-15
 -1      3207 1.71711E-03 3.39630E-04-2.08239E-15
 -1      3208 1.92479E-03 3.19262E-04-2.65333E-15
 -1      3209 7.10901E-03 1.31336E-04-2.76596E-14
 -1      3210 6.94810E-03 4.16795E-05-2.65714E-14
 -1      3211 6.81890E-03 3.86794E-06-2.61238E-14
 -1      3212 4.77613E-03 6.34503E-04-1.67394E-14
 -1      3213 1.01427E-03 1.41796E-05-1.00724E-15
 -1      3214 1.01428E-03-1.24531E-05-1.01652E-15
 -1      3215 1.13486E-03 2.99551E-05-1.21269E-15
 -1      3216 2.78166E-03 3.48438E-04-5.31919E-15
 -1      3217 9.52295E-03 1.56869E-03-3.64380E-14
 -1      3218 7.31764E-03 2.81829E-04-2.91937E-14
 -1      3219 7.21316E-03 2.02330E-04-2.84216E-14
 -1      3220 7.07316E-03 1.35882E-04-2.79528E-14
 -1      3221 6.50825E-03-6.10675E-05-2.38489E-14
 -1      3222 6.39193E-03-6.32034E-05-2.32206E-14
 -1      3223 6.55078E-03-6.52469E-05-2.44246E-14
 -1      3224 7.83440E-03 6.42107E-04-3.15862E-14
 -1      3225 7.72430E-03 5.45623E-04-3.07379E-14
 -1      3226 7.58470E-03 4.64461E-04-3.05032E-14
 -1      3227 8.31113E-04-1.92520E-04-7.03471E-16
 -1      3228 1.03745E-02 1.70412E-03-3.66077E-14
 -1      3229 1.02994E-02 1.69756E-03-3.65161E-14
 -1      3230 5.70118E-03 1.44916E-04-1.94895E-14
 -1      3231 4.48045E-03 5.02827E-04-1.46778E-14
 -1      3232 1.43118E-02 5.94733E-03-1.01037E-13
 -1      3233 1.44967E-02 6.07618E-03-1.02491E-13
 -1      3234 1.46191E-02 6.11832E-03-1.02322E-13
 -1      3235 6.14647E-03 1.36733E-05-2.16265E-14
 -1      3236 1.02340E-03-1.49435E-04-1.03411E-15
 -1      3237 1.02750E-03-1.78719E-04-1.03093E-15
 -1      3238 1.52287E-02 6.18846E-03-9.78913E-14
 -1      3239 1.02639E-02 1.74470E-03-3.73969E-14
 -1      3240 8.92360E-03 1.31657E-03-3.52433E-14
 -1      3241 1.02027E-03 1.22545E-04-9.50845E-16
 -1      3242 1.01780E-03 9.49100E-05-9.68355E-16
 -1      3243 1.13746E-03 8.81413E-05-1.18228E-15
 -1      3244 9.49294E-04-1.98523E-04-8.87650E-16
 -1      3245 1.02776E-03 1.80047E-04-9.08927E-16
 -1      3246 1.02357E-03 1.50880E-04-9.31303E-16
 -1      3247 1.14306E-03 1.47855E-04-1.14214E-15
 -1      3248 1.03890E-02 1.82279E-03-3.85664E-14
 -1      3249 1.04375E-02 1.77625E-03-3.77154E-14
 -1      3250 8.30951E-03 9.58264E-04-3.32047E-14
 -1      3251 8.14719E-03 8.62529E-04-3.29528E-14
 -1      3252 8.45474E-03 1.07177E-03-3.43561E-14
 -1      3253 4.63620E-03 5.03987E-04-1.55621E-14
 -1      3254 4.54332E-03 4.92834E-04-1.49994E-14
 -1      3255 4.63829E-03 4.61650E-04-1.52798E-14
 -1      3256 5.27237E-03 2.82010E-04-1.76743E-14
 -1      3257 1.01774E-03-9.32291E-05-1.03311E-15
 -1      3258 1.02017E-03-1.20979E-04-1.03478E-15
 -1      3259 1.14300E-03-1.46218E-04-1.25145E-15
 -1      3260 1.15328E-03 2.26305E-04-1.07232E-15
 -1      3261 1.47440E-02 6.16771E-03-1.02320E-13
 -1      3262 1.48663E-02 6.20985E-03-1.02157E-13
 -1      3263 1.48089E-02 6.13765E-03-1.00869E-13
 -1      3264 1.45591E-02 6.03886E-03-1.00869E-13
 -1      3265 4.91194E-03 4.14976E-04-1.64047E-14
 -1      3266 1.63764E-03 2.99554E-04-1.96807E-15
 -1      3267 1.57368E-03 3.27170E-04-1.76995E-15
 -1      3268 1.46587E-03 3.20317E-04-1.54483E-15
 -1      3269 1.30020E-03 3.15300E-04-1.21393E-15
 -1      3270 1.51064E-02 6.14631E-03-9.80493E-14
 -1      3271 1.20039E-02 3.43390E-03-6.04976E-14
 -1      3272 1.18633E-02 3.31002E-03-5.88597E-14
 -1      3273 1.01484E-03-3.91395E-05-1.02396E-15
 -1      3274 1.01598E-03-6.59851E-05-1.02952E-15
 -1      3275 1.13750E-03-8.61640E-05-1.24747E-15
 -1      3276 1.17234E-02 3.18645E-03-5.72350E-14
 -1      3277 1.15844E-02 3.06320E-03-5.56261E-14
 -1      3278 1.16862E-02 3.21379E-03-5.81825E-14
 -1      3279 1.04320E-02 1.71864E-03-3.67916E-14
 -1      3280 1.86225E-03-2.81197E-04-2.87060E-15
 -1      3281 2.00680E-03-2.88728E-04-3.28038E-15
 -1      3282 2.15155E-03-2.95013E-04-3.71627E-15
 -1      3283 2.29649E-03-3.00182E-04-4.17856E-15
 -1      3284 2.07398E-03-2.55537E-04-3.49845E-15
 -1      3285 2.44162E-03-3.04435E-04-4.66744E-15
 -1      3286 2.58695E-03-3.07889E-04-5.18259E-15
 -1      3287 2.36453E-03-2.64670E-04-4.42147E-15
 -1      3288 2.73253E-03-3.10704E-04-5.72253E-15
 -1      3289 2.87838E-03-3.12990E-04-6.28763E-15
 -1      3290 2.65609E-03-2.70538E-04-5.44787E-15
 -1      3291 3.02459E-03-3.14869E-04-6.87819E-15
 -1      3292 3.17119E-03-3.16451E-04-7.49361E-15
 -1      3293 2.94889E-03-2.74087E-04-6.57556E-15
 -1      3294 3.31832E-03-3.17821E-04-8.13351E-15
 -1      3295 3.46600E-03-3.19095E-04-8.79680E-15
 -1      3296 3.24348E-03-2.76135E-04-7.80177E-15
 -1      3297 3.61439E-03-3.20322E-04-9.48413E-15
 -1      3298 3.76350E-03-3.21630E-04-1.01956E-14
 -1      3299 3.54061E-03-2.77428E-04-9.12423E-15
 -1      3300 3.91349E-03-3.23029E-04-1.09308E-14
 -1      3301 4.06431E-03-3.24634E-04-1.16902E-14
 -1      3302 3.84117E-03-2.78694E-04-1.05415E-14
 -1      3303 4.21611E-03-3.26404E-04-1.24740E-14
 -1      3304 4.36872E-03-3.28397E-04-1.32814E-14
 -1      3305 4.14600E-03-2.80647E-04-1.20555E-14
 -1      3306 4.52225E-03-3.30491E-04-1.41124E-14
 -1      3307 4.67633E-03-3.32564E-04-1.49675E-14
 -1      3308 4.45553E-03-2.83841E-04-1.36643E-14
 -1      3309 4.83098E-03-3.34358E-04-1.58470E-14
 -1      3310 4.98567E-03-3.35430E-04-1.67509E-14
 -1      3311 4.76931E-03-2.88213E-04-1.53699E-14
 -1      3312 5.14028E-03-3.35293E-04-1.76790E-14
 -1      3313 5.29418E-03-3.32995E-04-1.86313E-14
 -1      3314 5.08556E-03-2.92206E-04-1.71719E-14
 -1      3315 5.44710E-03-3.27784E-04-1.96081E-14
 -1      3316 5.59860E-03-3.18128E-04-2.06095E-14
 -1      3317 5.40104E-03-2.91432E-04-1.90702E-14
 -1      3318 5.74838E-03-3.03018E-04-2.16370E-14
 -1      3319 5.89646E-03-2.80623E-04-2.26898E-14
 -1      3320 5.71175E-03-2.77482E-04-2.10687E-14
 -1      3321 6.04263E-03-2.49890E-04-2.37686E-14
 -1      3322 6.18758E-03-2.09290E-04-2.48735E-14
 -1      3323 6.01482E-03-2.38140E-04-2.31695E-14
 -1      3324 6.33124E-03-1.58253E-04-2.60066E-14
 -1      3325 6.47493E-03-9.59157E-05-2.71662E-14
 -1      3326 6.31048E-03-1.60599E-04-2.53766E-14
 -1      3327 6.61860E-03-2.23725E-05-2.83523E-14
 -1      3328 6.76349E-03 6.17178E-05-2.95661E-14
 -1      3329 6.60315E-03-3.60548E-05-2.76915E-14
 -1      3330 6.90954E-03 1.55702E-04-3.08072E-14
 -1      3331 7.05749E-03 2.58014E-04-3.20756E-14
 -1      3332 6.89870E-03 1.35634E-04-3.01165E-14
 -1      3333 7.20710E-03 3.67641E-04-3.33696E-14
 -1      3334 7.35841E-03 4.82737E-04-3.46879E-14
 -1      3335 7.20141E-03 3.45673E-04-3.26504E-14
 -1      3336 7.51110E-03 6.02299E-04-3.60301E-14
 -1      3337 7.66473E-03 7.24811E-04-3.73967E-14
 -1      3338 7.51161E-03 5.81143E-04-3.52863E-14
 -1      3339 7.81902E-03 8.49509E-04-3.87860E-14
 -1      3340 7.97337E-03 9.75434E-04-4.01966E-14
 -1      3341 7.82638E-03 8.29891E-04-3.80186E-14
 -1      3342 8.12763E-03 1.10210E-03-4.16277E-14
 -1      3343 8.28128E-03 1.22905E-03-4.30812E-14
 -1      3344 8.14172E-03 1.08350E-03-4.08384E-14
 -1      3345 8.43430E-03 1.35600E-03-4.45565E-14
 -1      3346 8.58636E-03 1.48284E-03-4.60519E-14
 -1      3347 8.45434E-03 1.33754E-03-4.37415E-14
 -1      3348 8.73755E-03 1.60941E-03-4.75666E-14
 -1      3349 8.88770E-03 1.73576E-03-4.90998E-14
 -1      3350 8.76243E-03 1.59035E-03-4.67303E-14
 -1      3351 9.03694E-03 1.86180E-03-5.06513E-14
 -1      3352 9.18522E-03 1.98763E-03-5.22198E-14
 -1      3353 9.06550E-03 1.84172E-03-4.97943E-14
 -1      3354 9.33271E-03 2.11320E-03-5.38022E-14
 -1      3355 9.47941E-03 2.23861E-03-5.54003E-14
 -1      3356 9.36393E-03 2.09199E-03-5.29262E-14
 -1      3357 9.62546E-03 2.36384E-03-5.70111E-14
 -1      3358 9.77091E-03 2.48895E-03-5.86339E-14
 -1      3359 9.65853E-03 2.34159E-03-5.61175E-14
 -1      3360 9.91589E-03 2.61394E-03-6.02689E-14
 -1      3361 1.00604E-02 2.73885E-03-6.19149E-14
 -1      3362 9.95020E-03 2.59083E-03-5.93600E-14
 -1      3363 1.02046E-02 2.86368E-03-6.35735E-14
 -1      3364 1.03485E-02 2.98846E-03-6.52431E-14
 -1      3365 1.02398E-02 2.83991E-03-6.26483E-14
 -1      3366 1.04922E-02 3.11318E-03-6.69231E-14
 -1      3367 1.06357E-02 3.23787E-03-6.86147E-14
 -1      3368 1.05278E-02 3.08892E-03-6.59842E-14
 -1      3369 1.07790E-02 3.36252E-03-7.03135E-14
 -1      3370 1.09222E-02 3.48714E-03-7.20191E-14
 -1      3371 1.08150E-02 3.33793E-03-6.93582E-14
 -1      3372 1.10653E-02 3.61174E-03-7.37351E-14
 -1      3373 1.12083E-02 3.73631E-03-7.54594E-14
 -1      3374 1.11015E-02 3.58693E-03-7.27673E-14
 -1      3375 1.13513E-02 3.86087E-03-7.71892E-14
 -1      3376 1.14942E-02 3.98541E-03-7.89255E-14
 -1      3377 1.13876E-02 3.83592E-03-7.62086E-14
 -1      3378 1.16371E-02 4.10994E-03-8.06720E-14
 -1      3379 1.17800E-02 4.23446E-03-8.24262E-14
 -1      3380 1.16735E-02 4.08491E-03-7.96804E-14
 -1      3381 1.19229E-02 4.35897E-03-8.41845E-14
 -1      3382 1.20658E-02 4.48347E-03-8.59482E-14
 -1      3383 1.19593E-02 4.33389E-03-8.31822E-14
 -1      3384 1.22086E-02 4.60796E-03-8.77210E-14
 -1      3385 1.23515E-02 4.73245E-03-8.94972E-14
 -1      3386 1.22450E-02 4.58286E-03-8.67077E-14
 -1      3387 1.24943E-02 4.85693E-03-9.12763E-14
 -1      3388 1.26371E-02 4.98141E-03-9.30613E-14
 -1      3389 1.25307E-02 4.83181E-03-9.02534E-14
 -1      3390 1.27800E-02 5.10588E-03-9.48493E-14
 -1      3391 1.29228E-02 5.23035E-03-9.66374E-14
 -1      3392 1.28164E-02 5.08076E-03-9.38173E-14
 -1      3393 1.30425E-02 5.33436E-03-9.81314E-14
 -1      3394 1.31854E-02 5.45883E-03-9.99244E-14
 -1      3395 1.33184E-02 5.51725E-03-1.00074E-13
 -1      3396 1.30789E-02 5.30924E-03-9.70921E-14
 -1      3397 3.92736E-03 3.60608E-04-1.06896E-14
 -1      3398 3.80100E-03 3.49569E-04-9.97794E-15
 -1      3399 3.67110E-03 3.40746E-04-9.28969E-15
 -1      3400 3.53849E-03 3.34128E-04-8.62446E-15
 -1      3401 3.73815E-03 3.16270E-04-9.71814E-15
 -1      3402 5.80344E-03 5.95676E-05-1.99677E-14
 -1      3403 5.57007E-03 1.12199E-04-1.88527E-14
 -1      3404 3.40345E-03 3.28747E-04-7.98289E-15
 -1      3405 3.26653E-03 3.24577E-04-7.36496E-15
 -1      3406 3.47013E-03 2.99865E-04-8.38203E-15
 -1      3407 4.15621E-03 3.91561E-04-1.21041E-14
 -1      3408 4.04404E-03 3.74509E-04-1.13869E-14
 -1      3409 3.99001E-03 3.41458E-04-1.11105E-14
 -1      3410 4.38633E-03 4.59114E-04-1.37959E-14
 -1      3411 4.27746E-03 4.24801E-04-1.29383E-14
 -1      3412 4.23686E-03 3.92830E-04-1.26474E-14
 -1      3413 4.45949E-03 4.74580E-04-1.43756E-14
 -1      3414 1.99012E-03 2.87984E-04-2.89146E-15
 -1      3415 1.84636E-03 2.80287E-04-2.51944E-15
 -1      3416 1.04548E-02 2.02788E-03-4.19290E-14
 -1      3417 1.03526E-02 1.92729E-03-4.04668E-14
 -1      3418 2.27730E-03 2.99868E-04-3.71234E-15
 -1      3419 2.13379E-03 2.94468E-04-3.28914E-15
 -1      3420 2.05642E-03 2.56183E-04-3.13576E-15
 -1      3421 1.22867E-02 3.68213E-03-6.37980E-14
 -1      3422 1.21451E-02 3.55794E-03-6.21437E-14
 -1      3423 1.19673E-02 3.46044E-03-6.14534E-14
 -1      3424 1.25708E-02 3.93074E-03-6.71385E-14
 -1      3425 1.24286E-02 3.80640E-03-6.54640E-14
 -1      3426 1.22503E-02 3.70813E-03-6.47656E-14
 -1      3427 1.28557E-02 4.17953E-03-7.05118E-14
 -1      3428 1.27132E-02 4.05512E-03-6.88214E-14
 -1      3429 1.25345E-02 3.95639E-03-6.81153E-14
 -1      3430 1.31409E-02 4.42841E-03-7.39150E-14
 -1      3431 1.29983E-02 4.30396E-03-7.22089E-14
 -1      3432 1.28194E-02 4.20496E-03-7.14965E-14
 -1      3433 1.34265E-02 4.67732E-03-7.73486E-14
 -1      3434 1.32837E-02 4.55286E-03-7.56278E-14
 -1      3435 1.31046E-02 4.45370E-03-7.49066E-14
 -1      3436 1.37121E-02 4.92624E-03-8.08106E-14
 -1      3437 1.35693E-02 4.80178E-03-7.90771E-14
 -1      3438 1.33902E-02 4.70252E-03-7.83487E-14
 -1      3439 1.39978E-02 5.17517E-03-8.42933E-14
 -1      3440 1.38549E-02 5.05070E-03-8.25494E-14
 -1      3441 1.36758E-02 4.95140E-03-8.18179E-14
 -1      3442 1.42835E-02 5.42410E-03-8.77924E-14
 -1      3443 1.41406E-02 5.29963E-03-8.60420E-14
 -1      3444 1.39615E-02 5.20031E-03-8.53041E-14
 -1      3445 1.45692E-02 5.67303E-03-9.12959E-14
 -1      3446 1.44264E-02 5.54856E-03-8.95432E-14
 -1      3447 1.42472E-02 5.44922E-03-8.88047E-14
 -1      3448 1.48549E-02 5.92196E-03-9.48135E-14
 -1      3449 1.47121E-02 5.79749E-03-9.30528E-14
 -1      3450 1.45329E-02 5.69815E-03-9.23141E-14
 -1      3451 1.02806E-02 1.80492E-03-3.84309E-14
 -1      3452 9.10066E-03 1.42916E-03-3.64180E-14
 -1      3453 8.81440E-03 1.28877E-03-3.57784E-14
 -1      3454 1.00948E-02 1.76269E-03-3.80894E-14
 -1      3455 9.92974E-03 1.72954E-03-3.79559E-14
 -1      3456 1.36405E-02 5.65102E-03-1.00237E-13
 -1      3457 1.37608E-02 5.69244E-03-1.00074E-13
 -1      3458 1.38832E-02 5.73457E-03-9.99089E-14
 -1      3459 1.40056E-02 5.77670E-03-9.97451E-14
 -1      3460 1.36993E-02 5.60607E-03-9.84472E-14
 -1      3461 3.12800E-03 3.20969E-04-6.77006E-15
 -1      3462 2.98820E-03 3.17859E-04-6.19962E-15
 -1      3463 3.19474E-03 2.89211E-04-7.13974E-15
 -1      3464 2.56337E-03 3.08307E-04-4.63276E-15
 -1      3465 2.42053E-03 3.04445E-04-4.16006E-15
 -1      3466 2.34387E-03 2.66579E-04-3.98825E-15
 -1      3467 9.67658E-03 1.65829E-03-3.76219E-14
 -1      3468 9.39848E-03 1.55697E-03-3.70513E-14
 -1      3469 2.84737E-03 3.14805E-04-5.65319E-15
 -1      3470 2.70570E-03 3.11729E-04-5.13068E-15
 -1      3471 2.63014E-03 2.74505E-04-4.94093E-15
 -1      3472 2.91418E-03 2.81476E-04-5.99197E-15
 -1      3473 6.16986E-03-4.55259E-05-2.19601E-14
 -1      3474 5.99333E-03 3.07818E-06-2.09502E-14
 -1      3475 5.84049E-03-1.79003E-05-2.02806E-14
 -1      3476 1.05213E-03-1.97827E-04-1.06561E-15
 -1      3477 1.09344E-03-2.20587E-04-1.12794E-15
 -1      3478 1.22241E-03-2.37692E-04-1.36616E-15
 -1      3479 1.17172E-03-1.96797E-04-1.28876E-15
 -1      3480 5.26518E-03 2.06462E-04-1.74737E-14
 -1      3481 5.09078E-03 2.77722E-04-1.67782E-14
 -1      3482 6.83434E-03 2.52581E-05-2.67223E-14
 -1      3483 6.68588E-03-3.37034E-05-2.56584E-14
 -1      3484 1.70269E-03 2.71127E-04-2.17312E-15
 -1      3485 1.55916E-03 2.60364E-04-1.85245E-15
 -1      3486 1.76873E-03 2.41868E-04-2.38455E-15
 -1      3487 1.57402E-03-2.61572E-04-2.13229E-15
 -1      3488 1.71798E-03-2.72196E-04-2.48816E-15
 -1      3489 1.78453E-03-2.42044E-04-2.68127E-15
 -1      3490 1.32795E-03 2.83931E-04-1.32124E-15
 -1      3491 4.90296E-03 3.46204E-04-1.60644E-14
 -1      3492 4.75190E-03 3.95796E-04-1.55141E-14
 -1      3493 1.49917E-02 6.13808E-03-9.90091E-14
 -1      3494 1.49195E-02 6.01306E-03-9.65104E-14
 -1      3495 1.47403E-02 5.91372E-03-9.57690E-14
 -1      3496 1.48693E-02 6.09594E-03-9.91686E-14
 -1      3497 1.31908E-03 2.31475E-04-1.38117E-15
 -1      3498 1.02476E-02 1.84613E-03-3.92640E-14
 -1      3499 1.38512E-03 2.07523E-04-1.54800E-15
 -1      3500 1.13489E-03-2.78347E-05-1.23431E-15
 -1      3501 1.09216E-02 2.46639E-03-4.78688E-14
 -1      3502 1.07974E-02 2.35168E-03-4.63622E-14
 -1      3503 7.41973E-03 3.64774E-04-3.00133E-14
 -1      3504 7.27057E-03 2.78128E-04-2.95263E-14
 -1      3505 7.52245E-03 4.50458E-04-3.08448E-14
 -1      3506 6.57647E-03-6.39088E-05-2.49999E-14
 -1      3507 6.46826E-03-8.61256E-05-2.43523E-14
 -1      3508 6.59555E-03-5.68191E-05-2.55767E-14
 -1      3509 7.98350E-03 7.66532E-04-3.27055E-14
 -1      3510 7.83663E-03 6.76385E-04-3.24569E-14
 -1      3511 8.13044E-03 8.84399E-04-3.38421E-14
 -1      3512 5.46647E-03 4.50298E-05-1.83701E-14
 -1      3513 5.37519E-03 1.25075E-04-1.79215E-14
 -1      3514 5.18625E-03 1.27862E-04-1.70126E-14
 -1      3515 1.06779E-02 2.24007E-03-4.48673E-14
 -1      3516 1.05632E-02 2.13146E-03-4.33941E-14
 -1      3517 1.03935E-02 2.06083E-03-4.27806E-14
 -1      3518 1.06272E-02 2.27240E-03-4.57421E-14
 -1      3519 1.33279E-03-2.44578E-04-1.59120E-15
 -1      3520 1.46289E-03-2.58041E-04-1.87131E-15
 -1      3521 1.52889E-03-2.31446E-04-2.04163E-15
 -1      3522 1.30709E-03-2.23403E-04-1.54905E-15
 -1      3523 4.44332E-03 4.44085E-04-1.41062E-14
 -1      3524 1.41279E-02 5.81884E-03-9.95800E-14
 -1      3525 1.42503E-02 5.86097E-03-9.94169E-14
 -1      3526 1.39441E-02 5.69034E-03-9.81239E-14
 -1      3527 1.34129E-02 5.55492E-03-1.00081E-13
 -1      3528 1.35459E-02 5.61334E-03-1.00233E-13
 -1      3529 1.34824E-02 5.52627E-03-9.86049E-14
 -1      3530 1.32932E-02 5.45092E-03-9.85904E-14
 -1      3531 1.01682E-02 1.87775E-03-4.01143E-14
 -1      3532 9.28099E-03 1.53534E-03-3.75969E-14
 -1      3533 9.81741E-03 1.73243E-03-3.85799E-14
 -1      3534 8.64441E-03 1.20210E-03-3.55113E-14
 -1      3535 8.48322E-03 1.11324E-03-3.52469E-14
 -1      3536 8.82761E-03 1.32200E-03-3.66852E-14
 -1      3537 1.46195E-02 5.99714E-03-9.91622E-14
 -1      3538 1.47444E-02 6.04654E-03-9.91641E-14
 -1      3539 1.46799E-02 5.95543E-03-9.74629E-14
 -1      3540 6.22800E-03-7.87820E-05-2.25083E-14
 -1      3541 4.63363E-03 4.06224E-04-1.49567E-14
 -1      3542 4.52554E-03 4.09208E-04-1.44083E-14
 -1      3543 4.61645E-03 3.46345E-04-1.46313E-14
 -1      3544 1.14102E-02 2.97050E-03-5.49786E-14
 -1      3545 1.14483E-02 2.94207E-03-5.40483E-14
 -1      3546 1.13136E-02 2.82152E-03-5.24834E-14
 -1      3547 1.11799E-02 2.70131E-03-5.09239E-14
 -1      3548 1.10493E-02 2.58288E-03-4.93889E-14
 -1      3549 1.08773E-02 2.49715E-03-4.87588E-14
 -1      3550 1.25695E-03-1.82645E-04-1.46377E-15
 -1      3551 1.28181E-03-2.02769E-04-1.50643E-15
 -1      3552 1.39242E-03-2.07135E-04-1.74084E-15
 -1      3553 1.25279E-03-1.49969E-04-1.46496E-15
 -1      3554 1.26032E-03 1.10202E-04-1.39782E-15
 -1      3555 1.25815E-03 7.88505E-05-1.41795E-15
 -1      3556 6.92983E-03 7.47403E-05-2.74655E-14
 -1      3557 6.79433E-03 2.18682E-05-2.69784E-14
 -1      3558 7.02472E-03 1.32911E-04-2.82199E-14
 -1      3559 4.90719E-03 2.74079E-04-1.58749E-14
 -1      3560 1.25674E-03 4.76736E-05-1.43577E-15
 -1      3561 1.25607E-03 1.66711E-05-1.45059E-15
 -1      3562 1.37977E-03 6.71220E-05-1.67524E-15
 -1      3563 1.32366E-03 1.73982E-04-1.46173E-15
 -1      3564 1.31974E-03 1.40917E-04-1.48883E-15
 -1      3565 1.44114E-03 1.31454E-04-1.75326E-15
 -1      3566 1.56285E-03 1.97847E-04-1.95049E-15
 -1      3567 1.22136E-02 3.73391E-03-6.57332E-14
 -1      3568 1.20718E-02 3.61014E-03-6.40668E-14
 -1      3569 1.25829E-03-7.64224E-05-1.48102E-15
 -1      3570 1.26047E-03-1.07953E-04-1.48620E-15
 -1      3571 1.16486E-02 3.24052E-03-5.91288E-14
 -1      3572 1.15087E-02 3.11814E-03-5.75048E-14
 -1      3573 1.99690E-03-2.16705E-04-3.28464E-15
 -1      3574 2.14211E-03-2.21478E-04-3.71879E-15
 -1      3575 2.28763E-03-2.25333E-04-4.17911E-15
 -1      3576 2.43343E-03-2.28362E-04-4.66551E-15
 -1      3577 2.21105E-03-1.86570E-04-3.94116E-15
 -1      3578 2.57953E-03-2.30686E-04-5.17735E-15
 -1      3579 2.72596E-03-2.32391E-04-5.71455E-15
 -1      3580 2.50305E-03-1.91288E-04-4.91046E-15
 -1      3581 2.87277E-03-2.33569E-04-6.27637E-15
 -1      3582 3.02001E-03-2.34314E-04-6.86295E-15
 -1      3583 2.79641E-03-1.93474E-04-5.98130E-15
 -1      3584 3.16780E-03-2.34688E-04-7.47391E-15
 -1      3585 3.31623E-03-2.34806E-04-8.10906E-15
 -1      3586 3.09154E-03-1.93685E-04-7.15010E-15
 -1      3587 3.46545E-03-2.34709E-04-8.76827E-15
 -1      3588 3.61556E-03-2.34548E-04-9.45007E-15
 -1      3589 3.38923E-03-1.92458E-04-8.41571E-15
 -1      3590 3.76677E-03-2.34346E-04-1.01568E-14
 -1      3591 3.91915E-03-2.34315E-04-1.08863E-14
 -1      3592 3.69063E-03-1.90420E-04-9.77564E-15
 -1      3593 4.07292E-03-2.34467E-04-1.16405E-14
 -1      3594 4.22806E-03-2.35032E-04-1.24192E-14
 -1      3595 3.99715E-03-1.88452E-04-1.12305E-14
 -1      3596 4.38479E-03-2.36009E-04-1.32213E-14
 -1      3597 4.54292E-03-2.37606E-04-1.40467E-14
 -1      3598 4.31020E-03-1.87765E-04-1.27816E-14
 -1      3599 4.70260E-03-2.39765E-04-1.48960E-14
 -1      3600 4.86333E-03-2.42441E-04-1.57705E-14
 -1      3601 4.63067E-03-1.89801E-04-1.44276E-14
 -1      3602 5.02511E-03-2.45399E-04-1.66686E-14
 -1      3603 5.18711E-03-2.48139E-04-1.75904E-14
 -1      3604 4.95816E-03-1.95534E-04-1.61698E-14
 -1      3605 5.34917E-03-2.50190E-04-1.85371E-14
 -1      3606 5.51023E-03-2.50023E-04-1.95082E-14
 -1      3607 5.29003E-03-2.03956E-04-1.80074E-14
 -1      3608 5.66994E-03-2.46683E-04-2.05039E-14
 -1      3609 5.82763E-03-2.37851E-04-2.15260E-14
 -1      3610 5.62120E-03-2.09729E-04-1.99441E-14
 -1      3611 5.98290E-03-2.22235E-04-2.25741E-14
 -1      3612 6.13597E-03-1.96895E-04-2.36479E-14
 -1      3613 5.94537E-03-2.00015E-04-2.19812E-14
 -1      3614 6.58495E-03-4.97159E-05-2.70329E-14
 -1      3615 6.73457E-03 2.59676E-05-2.82159E-14
 -1      3616 6.88507E-03 1.14399E-04-2.94286E-14
 -1      3617 7.03801E-03 2.13714E-04-3.06682E-14
 -1      3618 6.86964E-03 9.20191E-05-2.87414E-14
 -1      3619 7.19304E-03 3.22708E-04-3.19328E-14
 -1      3620 7.35048E-03 4.38511E-04-3.32251E-14
 -1      3621 7.18290E-03 2.97879E-04-3.12180E-14
 -1      3622 7.50989E-03 5.59848E-04-3.45444E-14
 -1      3623 7.67058E-03 6.84354E-04-3.58872E-14
 -1      3624 7.50647E-03 5.37492E-04-3.38028E-14
 -1      3625 7.83217E-03 8.11081E-04-3.72523E-14
 -1      3626 7.99369E-03 9.38578E-04-3.86412E-14
 -1      3627 7.83672E-03 7.92391E-04-3.64883E-14
 -1      3628 8.15491E-03 1.06633E-03-4.00498E-14
 -1      3629 8.31501E-03 1.19378E-03-4.14797E-14
 -1      3630 8.16745E-03 1.05025E-03-3.92639E-14
 -1      3631 8.47400E-03 1.32071E-03-4.29320E-14
 -1      3632 8.63135E-03 1.44710E-03-4.44049E-14
 -1      3633 8.49349E-03 1.30545E-03-4.21229E-14
 -1      3634 8.78722E-03 1.57284E-03-4.58964E-14
 -1      3635 8.94140E-03 1.69815E-03-4.74086E-14
 -1      3636 8.81217E-03 1.55695E-03-4.50655E-14
 -1      3637 9.09411E-03 1.82297E-03-4.89404E-14
 -1      3638 9.24531E-03 1.94755E-03-5.04886E-14
 -1      3639 9.12302E-03 1.80565E-03-4.80879E-14
 -1      3640 9.39525E-03 2.07185E-03-5.20528E-14
 -1      3641 9.54397E-03 2.19606E-03-5.36324E-14
 -1      3642 9.42687E-03 2.05284E-03-5.11814E-14
 -1      3643 9.69169E-03 2.32014E-03-5.52265E-14
 -1      3644 9.83850E-03 2.44423E-03-5.68341E-14
 -1      3645 9.72510E-03 2.29955E-03-5.43382E-14
 -1      3646 9.98458E-03 2.56829E-03-5.84525E-14
 -1      3647 1.01300E-02 2.69241E-03-6.00854E-14
 -1      3648 1.00191E-02 2.54638E-03-5.75498E-14
 -1      3649 1.02749E-02 2.81653E-03-6.17285E-14
 -1      3650 1.04194E-02 2.94072E-03-6.33815E-14
 -1      3651 1.03102E-02 2.79359E-03-6.08097E-14
 -1      3652 1.05635E-02 3.06494E-03-6.50466E-14
 -1      3653 1.07073E-02 3.18921E-03-6.67223E-14
 -1      3654 1.05992E-02 3.04125E-03-6.41133E-14
 -1      3655 1.08509E-02 3.31352E-03-6.84082E-14
 -1      3656 1.09943E-02 3.43786E-03-7.01008E-14
 -1      3657 1.08869E-02 3.28930E-03-6.74597E-14
 -1      3658 1.11376E-02 3.56224E-03-7.18029E-14
 -1      3659 1.12808E-02 3.68663E-03-7.35143E-14
 -1      3660 1.11738E-02 3.53766E-03-7.08432E-14
 -1      3661 1.14238E-02 3.81105E-03-7.52322E-14
 -1      3662 1.15669E-02 3.93548E-03-7.69574E-14
 -1      3663 1.14601E-02 3.78625E-03-7.42594E-14
 -1      3664 1.17098E-02 4.05993E-03-7.86925E-14
 -1      3665 1.18527E-02 4.18438E-03-8.04352E-14
 -1      3666 1.17461E-02 4.03498E-03-7.77084E-14
 -1      3667 1.19956E-02 4.30884E-03-8.21819E-14
 -1      3668 1.21385E-02 4.43330E-03-8.39365E-14
 -1      3669 1.20320E-02 4.28381E-03-8.11860E-14
 -1      3670 1.22814E-02 4.55776E-03-8.56980E-14
 -1      3671 1.24242E-02 4.68223E-03-8.74647E-14
 -1      3672 1.23177E-02 4.53269E-03-8.46904E-14
 -1      3673 1.25671E-02 4.80670E-03-8.92349E-14
 -1      3674 1.27099E-02 4.93117E-03-9.10083E-14
 -1      3675 1.26034E-02 4.78160E-03-8.82184E-14
 -1      3676 1.28527E-02 5.05564E-03-9.27875E-14
 -1      3677 1.29956E-02 5.18010E-03-9.45698E-14
 -1      3678 1.28891E-02 5.03052E-03-9.17637E-14
 -1      3679 3.81014E-03 2.91564E-04-1.01503E-14
 -1      3680 3.67596E-03 2.80397E-04-9.45603E-15
 -1      3681 4.06017E-03 3.20348E-04-1.15329E-14
 -1      3682 3.93617E-03 3.04621E-04-1.08313E-14
 -1      3683 3.88066E-03 2.65280E-04-1.05502E-14
 -1      3684 4.42275E-03 4.00118E-04-1.37988E-14
 -1      3685 2.41151E-03 2.32999E-04-4.27006E-15
 -1      3686 2.26772E-03 2.28717E-04-3.81562E-15
 -1      3687 1.19303E-02 3.48661E-03-6.24109E-14
 -1      3688 1.17892E-02 3.36336E-03-6.07659E-14
 -1      3689 1.16107E-02 3.26664E-03-6.00777E-14
 -1      3690 1.18931E-02 3.51240E-03-6.33699E-14
 -1      3691 1.37390E-03-1.41752E-04-1.71999E-15
 -1      3692 1.35144E-02 5.47722E-03-9.69872E-14
 -1      3693 1.36368E-02 5.51936E-03-9.68274E-14
 -1      3694 2.12376E-03 2.23849E-04-3.38596E-15
 -1      3695 1.97972E-03 2.18278E-04-2.98141E-15
 -1      3696 2.19209E-03 1.90979E-04-3.64185E-15
 -1      3697 1.24980E-02 3.98190E-03-6.90907E-14
 -1      3698 1.23557E-02 3.85784E-03-6.74074E-14
 -1      3699 1.21769E-02 3.75945E-03-6.67008E-14
 -1      3700 1.27830E-02 4.23031E-03-7.24808E-14
 -1      3701 1.26404E-02 4.10606E-03-7.07828E-14
 -1      3702 1.24615E-02 4.00728E-03-7.00674E-14
 -1      3703 1.30683E-02 4.47894E-03-7.59015E-14
 -1      3704 1.29256E-02 4.35460E-03-7.41881E-14
 -1      3705 1.27466E-02 4.25557E-03-7.34669E-14
 -1      3706 1.33538E-02 4.72771E-03-7.93505E-14
 -1      3707 1.32111E-02 4.60331E-03-7.76222E-14
 -1      3708 1.30320E-02 4.50414E-03-7.68954E-14
 -1      3709 1.36395E-02 4.97655E-03-8.28238E-14
 -1      3710 1.34966E-02 4.85212E-03-8.10847E-14
 -1      3711 1.33175E-02 4.75287E-03-8.03508E-14
 -1      3712 1.39251E-02 5.22544E-03-8.63144E-14
 -1      3713 1.37823E-02 5.10099E-03-8.45674E-14
 -1      3714 1.36031E-02 5.00169E-03-8.38303E-14
 -1      3715 1.42108E-02 5.47435E-03-8.98182E-14
 -1      3716 1.40680E-02 5.34989E-03-8.80651E-14
 -1      3717 1.38888E-02 5.25057E-03-8.73252E-14
 -1      3718 1.44966E-02 5.72327E-03-9.33305E-14
 -1      3719 1.43537E-02 5.59881E-03-9.15725E-14
 -1      3720 1.41745E-02 5.49947E-03-9.08320E-14
 -1      3721 9.98215E-03 1.82777E-03-3.98681E-14
 -1      3722 9.74558E-03 1.75476E-03-3.95234E-14
 -1      3723 5.84874E-03-7.48521E-05-2.05096E-14
 -1      3724 5.68123E-03-3.37707E-05-1.95405E-14
 -1      3725 1.01080E-02 1.91217E-03-4.10742E-14
 -1      3726 3.26348E-03 2.57714E-04-7.51317E-15
 -1      3727 3.12347E-03 2.52682E-04-6.91232E-15
 -1      3728 4.29499E-03 3.59155E-04-1.29340E-14
 -1      3729 1.84292E-03 2.12882E-04-2.61913E-15
 -1      3730 1.69914E-03 2.05399E-04-2.26460E-15
 -1      3731 1.63758E-03 1.70943E-04-2.15953E-15
 -1      3732 1.91089E-03 1.81937E-04-2.84439E-15
 -1      3733 1.43724E-02 5.90436E-03-9.92894E-14
 -1      3734 1.44974E-02 5.95375E-03-9.92872E-14
 -1      3735 1.44328E-02 5.86264E-03-9.75829E-14
 -1      3736 1.41886E-02 5.77586E-03-9.78350E-14
 -1      3737 1.70761E-03-2.03880E-04-2.49528E-15
 -1      3738 1.85205E-03-2.10874E-04-2.87677E-15
 -1      3739 1.92043E-03-1.78682E-04-3.07492E-15
 -1      3740 1.25609E-03-1.42128E-05-1.46316E-15
 -1      3741 1.25683E-03-4.52121E-05-1.47327E-15
 -1      3742 1.37999E-03-6.42559E-05-1.73277E-15
 -1      3743 1.37837E-03 1.46774E-06-1.70949E-15
 -1      3744 4.89090E-03 2.01304E-04-1.56474E-14
 -1      3745 4.72904E-03 2.62217E-04-1.49639E-14
 -1      3746 6.26849E-03-1.05771E-04-2.30570E-14
 -1      3747 6.06296E-03-1.02754E-04-2.18011E-14
 -1      3748 6.29847E-03-1.21681E-04-2.36057E-14
 -1      3749 9.45675E-03 1.64718E-03-3.90264E-14
 -1      3750 9.18393E-03 1.52564E-03-3.83751E-14
 -1      3751 3.53986E-03 2.71192E-04-8.78487E-15
 -1      3752 3.40239E-03 2.63835E-04-8.13728E-15
 -1      3753 3.33448E-03 2.26265E-04-7.89038E-15
 -1      3754 3.61304E-03 2.42354E-04-9.19178E-15
 -1      3755 1.46205E-02 5.88490E-03-9.62434E-14
 -1      3756 1.45560E-02 5.79380E-03-9.45466E-14
 -1      3757 1.43768E-02 5.69446E-03-9.38031E-14
 -1      3758 1.44956E-02 5.83551E-03-9.62377E-14
 -1      3759 1.35743E-02 5.43264E-03-9.52125E-14
 -1      3760 1.37592E-02 5.56149E-03-9.66685E-14
 -1      3761 1.38816E-02 5.60362E-03-9.65101E-14
 -1      3762 1.13320E-02 3.02449E-03-5.68486E-14
 -1      3763 1.13713E-02 2.99798E-03-5.59129E-14
 -1      3764 1.12349E-02 2.87856E-03-5.43338E-14
 -1      3765 6.63465E-03-3.95966E-05-2.62652E-14
 -1      3766 6.53105E-03-7.67088E-05-2.55967E-14
 -1      3767 8.31585E-03 1.01898E-03-3.49866E-14
 -1      3768 8.16099E-03 9.26620E-04-3.47245E-14
 -1      3769 8.49905E-03 1.14716E-03-3.61477E-14
 -1      3770 6.33687E-03-1.36954E-04-2.46311E-14
 -1      3771 6.36280E-03-1.36626E-04-2.52634E-14
 -1      3772 5.49271E-03-2.35103E-05-1.85849E-14
 -1      3773 1.05731E-02 2.30067E-03-4.66099E-14
 -1      3774 1.04490E-02 2.19258E-03-4.51142E-14
 -1      3775 6.51261E-03-8.20036E-05-2.64040E-14
 -1      3776 6.64238E-03-2.91474E-05-2.69078E-14
 -1      3777 1.30845E-02 5.26351E-03-9.58351E-14
 -1      3778 1.32043E-02 5.36751E-03-9.73234E-14
 -1      3779 1.32988E-02 5.40519E-03-9.73332E-14
 -1      3780 1.31209E-02 5.23838E-03-9.48034E-14
 -1      3781 2.55500E-03 2.36936E-04-4.74966E-15
 -1      3782 2.48023E-03 1.99121E-04-4.55769E-15
 -1      3783 2.69807E-03 2.40638E-04-5.25417E-15
 -1      3784 5.90058E-03-1.20874E-04-2.10254E-14
 -1      3785 4.25653E-03 3.14085E-04-1.26293E-14
 -1      3786 9.64709E-03 1.75619E-03-4.03183E-14
 -1      3787 3.05229E-03 2.15115E-04-6.68374E-15
 -1      3788 2.98244E-03 2.48281E-04-6.33548E-15
 -1      3789 2.84060E-03 2.44383E-04-5.78269E-15
 -1      3790 9.02459E-03 1.45158E-03-3.80997E-14
 -1      3791 8.86820E-03 1.37352E-03-3.78228E-14
 -1      3792 9.21210E-03 1.57281E-03-3.95319E-14
 -1      3793 1.33934E-02 5.44286E-03-9.73385E-14
 -1      3794 4.61109E-03 2.83282E-04-1.44211E-14
 -1      3795 4.49859E-03 2.98474E-04-1.38861E-14
 -1      3796 4.59419E-03 2.17273E-04-1.42037E-14
 -1      3797 5.08254E-03 6.21074E-05-1.64871E-14
 -1      3798 4.99204E-03 1.33242E-04-1.60671E-14
 -1      3799 4.80484E-03 1.31307E-04-1.51463E-14
 -1      3800 1.11399E-02 2.73115E-03-5.18404E-14
 -1      3801 1.57688E-03 1.37540E-04-2.05360E-15
 -1      3802 1.51702E-03 1.05200E-04-1.94673E-15
 -1      3803 1.71319E-03 1.42767E-04-2.37699E-15
 -1      3804 6.72406E-03 5.31952E-07-2.69985E-14
 -1      3805 1.03356E-02 2.09929E-03-4.38144E-14
 -1      3806 1.02173E-02 1.99842E-03-4.23476E-14
 -1      3807 1.00368E-02 1.94198E-03-4.20908E-14
 -1      3808 1.02716E-02 2.12290E-03-4.46686E-14
 -1      3809 7.80394E-03 6.79200E-04-3.30614E-14
 -1      3810 7.66299E-03 5.65079E-04-3.19433E-14
 -1      3811 7.50412E-03 4.63431E-04-3.14337E-14
 -1      3812 1.49394E-03-2.06062E-04-1.97143E-15
 -1      3813 1.60537E-03-2.07563E-04-2.23712E-15
 -1      3814 1.67312E-03-1.78391E-04-2.41499E-15
 -1      3815 1.46893E-03-1.85107E-04-1.92134E-15
 -1      3816 1.08307E-02 2.52482E-03-4.96396E-14
 -1      3817 1.07008E-02 2.41138E-03-4.81172E-14
 -1      3818 1.05197E-02 2.32585E-03-4.74767E-14
 -1      3819 1.33309E-02 5.35615E-03-9.57161E-14
 -1      3820 1.51506E-03 7.03625E-05-1.97100E-15
 -1      3821 1.47559E-03-1.38636E-04-1.94713E-15
 -1      3822 7.21683E-03 2.65599E-04-2.97458E-14
 -1      3823 7.12226E-03 1.95201E-04-2.89366E-14
 -1      3824 6.29436E-03-1.37637E-04-2.39727E-14
 -1      3825 5.48822E-03-9.31819E-05-1.87162E-14
 -1      3826 5.29123E-03-2.49877E-05-1.75778E-14
 -1      3827 1.32419E-02 5.27274E-03-9.44541E-14
 -1      3828 2.42683E-03-1.52461E-04-4.64841E-15
 -1      3829 2.57327E-03-1.53469E-04-5.15694E-15
 -1      3830 2.72006E-03-1.53901E-04-5.69027E-15
 -1      3831 2.86727E-03-1.53813E-04-6.24799E-15
 -1      3832 2.64393E-03-1.14956E-04-5.40328E-15
 -1      3833 3.01496E-03-1.53233E-04-6.83065E-15
 -1      3834 3.16324E-03-1.52231E-04-7.43708E-15
 -1      3835 2.93834E-03-1.13458E-04-6.51520E-15
 -1      3836 3.31223E-03-1.50816E-04-8.06737E-15
 -1      3837 3.46211E-03-1.49113E-04-8.72176E-15
 -1      3838 3.23485E-03-1.09981E-04-7.72365E-15
 -1      3839 3.61307E-03-1.47121E-04-9.39931E-15
 -1      3840 3.76529E-03-1.45049E-04-1.01000E-14
 -1      3841 3.53458E-03-1.04771E-04-9.02686E-15
 -1      3842 3.91905E-03-1.42906E-04-1.08249E-14
 -1      3843 4.07451E-03-1.41044E-04-1.15734E-14
 -1      3844 3.83920E-03-9.83837E-05-1.04237E-14
 -1      3845 4.23203E-03-1.39502E-04-1.23463E-14
 -1      3846 4.39162E-03-1.38718E-04-1.31433E-14
 -1      3847 4.15085E-03-9.20342E-05-1.19157E-14
 -1      3848 4.55363E-03-1.38709E-04-1.39632E-14
 -1      3849 4.71787E-03-1.40084E-04-1.48068E-14
 -1      3850 4.47190E-03-8.78233E-05-1.35027E-14
 -1      3851 5.20808E-03-1.48775E-04-1.73907E-14
 -1      3852 5.37893E-03-1.55347E-04-1.83282E-14
 -1      3853 5.57340E-03-1.50240E-04-1.93654E-14
 -1      3854 5.74475E-03-1.56288E-04-2.03537E-14
 -1      3855 5.94186E-03-1.69913E-04-2.16397E-14
 -1      3856 6.10555E-03-1.61336E-04-2.26879E-14
 -1      3857 7.50112E-03 5.14248E-04-3.30615E-14
 -1      3858 7.67007E-03 6.43153E-04-3.43806E-14
 -1      3859 7.84049E-03 7.74197E-04-3.57243E-14
 -1      3860 8.01053E-03 9.05302E-04-3.70910E-14
 -1      3861 7.84373E-03 7.55568E-04-3.49596E-14
 -1      3862 8.18013E-03 1.03569E-03-3.84774E-14
 -1      3863 8.34778E-03 1.16463E-03-3.98854E-14
 -1      3864 8.19321E-03 1.02219E-03-3.76929E-14
 -1      3865 8.51373E-03 1.29206E-03-4.13161E-14
 -1      3866 8.67704E-03 1.41811E-03-4.27670E-14
 -1      3867 8.53498E-03 1.28051E-03-4.05105E-14
 -1      3868 8.83809E-03 1.54283E-03-4.42368E-14
 -1      3869 8.99659E-03 1.66673E-03-4.57271E-14
 -1      3870 8.86533E-03 1.53061E-03-4.34091E-14
 -1      3871 9.15288E-03 1.78982E-03-4.72382E-14
 -1      3872 9.30701E-03 1.91258E-03-4.87671E-14
 -1      3873 9.18404E-03 1.77559E-03-4.63912E-14
 -1      3874 9.45929E-03 2.03499E-03-5.03131E-14
 -1      3875 9.60991E-03 2.15742E-03-5.18737E-14
 -1      3876 9.49281E-03 2.01836E-03-4.94453E-14
 -1      3877 9.75912E-03 2.27981E-03-5.34522E-14
 -1      3878 9.90713E-03 2.40238E-03-5.50440E-14
 -1      3879 9.79398E-03 2.26095E-03-5.25683E-14
 -1      3880 1.00541E-02 2.52506E-03-5.66484E-14
 -1      3881 1.02003E-02 2.64798E-03-5.82651E-14
 -1      3882 1.00897E-02 2.50435E-03-5.57484E-14
 -1      3883 1.03458E-02 2.77106E-03-5.98929E-14
 -1      3884 1.04907E-02 2.89437E-03-6.15326E-14
 -1      3885 1.03817E-02 2.74894E-03-5.89791E-14
 -1      3886 1.06351E-02 3.01783E-03-6.31838E-14
 -1      3887 1.07792E-02 3.14148E-03-6.48433E-14
 -1      3888 1.06713E-02 2.99468E-03-6.22533E-14
 -1      3889 1.09230E-02 3.26527E-03-6.65139E-14
 -1      3890 1.10666E-02 3.38919E-03-6.81944E-14
 -1      3891 1.09593E-02 3.24141E-03-6.55718E-14
 -1      3892 1.12100E-02 3.51321E-03-6.98833E-14
 -1      3893 1.13533E-02 3.63733E-03-7.15818E-14
 -1      3894 1.12463E-02 3.48887E-03-6.89269E-14
 -1      3895 1.14964E-02 3.76153E-03-7.32920E-14
 -1      3896 1.16395E-02 3.88578E-03-7.50058E-14
 -1      3897 1.15327E-02 3.73688E-03-7.23238E-14
 -1      3898 1.17825E-02 4.01009E-03-7.67274E-14
 -1      3899 1.19254E-02 4.13443E-03-7.84582E-14
 -1      3900 1.18188E-02 3.98524E-03-7.57503E-14
 -1      3901 1.20683E-02 4.25881E-03-8.01956E-14
 -1      3902 1.22112E-02 4.38321E-03-8.19376E-14
 -1      3903 1.21047E-02 4.23384E-03-7.92077E-14
 -1      3904 1.23541E-02 4.50763E-03-8.36883E-14
 -1      3905 1.24970E-02 4.63206E-03-8.54464E-14
 -1      3906 1.23905E-02 4.48258E-03-8.26907E-14
 -1      3907 1.26398E-02 4.75650E-03-8.72080E-14
 -1      3908 1.27827E-02 4.88095E-03-8.89728E-14
 -1      3909 1.26762E-02 4.73141E-03-8.61993E-14
 -1      3910 1.29255E-02 5.00540E-03-9.07423E-14
 -1      3911 1.30683E-02 5.12986E-03-9.25158E-14
 -1      3912 1.29619E-02 4.98030E-03-8.97265E-14
 -1      3913 3.95997E-03 2.36929E-04-1.09704E-14
 -1      3914 3.82692E-03 2.23837E-04-1.02848E-14
 -1      3915 1.67118E-03 6.97441E-05-2.34209E-15
 -1      3916 1.53402E-03 3.21790E-05-2.04020E-15
 -1      3917 6.89082E-03 9.04405E-05-2.83432E-14
 -1      3918 7.04968E-03 1.88340E-04-2.95600E-14
 -1      3919 1.27102E-02 4.28077E-03-7.44530E-14
 -1      3920 1.25675E-02 4.15660E-03-7.27447E-14
 -1      3921 1.29956E-02 4.52930E-03-7.78900E-14
 -1      3922 1.28529E-02 4.40501E-03-7.61685E-14
 -1      3923 1.26737E-02 4.30591E-03-7.54396E-14
 -1      3924 1.32812E-02 4.77801E-03-8.13527E-14
 -1      3925 1.31384E-02 4.65364E-03-7.96189E-14
 -1      3926 1.29592E-02 4.55443E-03-7.88861E-14
 -1      3927 2.13499E-03-1.48531E-04-3.70752E-15
 -1      3928 2.28074E-03-1.50831E-04-4.16491E-15
 -1      3929 2.35104E-03-1.14309E-04-4.39014E-15
 -1      3930 1.35668E-02 5.02682E-03-8.48370E-14
 -1      3931 1.34240E-02 4.90241E-03-8.30923E-14
 -1      3932 1.32448E-02 4.80314E-03-8.23542E-14
 -1      3933 1.38525E-02 5.27569E-03-8.83367E-14
 -1      3934 1.37097E-02 5.15125E-03-8.65856E-14
 -1      3935 1.35305E-02 5.05195E-03-8.58461E-14
 -1      3936 1.41382E-02 5.52460E-03-9.18475E-14
 -1      3937 1.39953E-02 5.40014E-03-9.00921E-14
 -1      3938 1.38162E-02 5.30082E-03-8.93506E-14
 -1      3939 6.97975E-03 1.25144E-04-2.84317E-14
 -1      3940 1.32783E-02 5.24762E-03-9.34311E-14
 -1      3941 7.21494E-03 2.83651E-04-3.02748E-14
 -1      3942 7.18658E-03 2.84485E-04-3.06919E-14
 -1      3943 7.35054E-03 4.02890E-04-3.19606E-14
 -1      3944 7.36277E-03 3.73916E-04-3.08861E-14
 -1      3945 9.77729E-03 1.84580E-03-4.15797E-14
 -1      3946 9.50674E-03 1.73655E-03-4.10667E-14
 -1      3947 9.90415E-03 1.93604E-03-4.28563E-14
 -1      3948 1.24250E-02 4.03254E-03-7.10440E-14
 -1      3949 1.22825E-02 3.90858E-03-6.93514E-14
 -1      3950 1.23884E-02 4.05768E-03-7.20214E-14
 -1      3951 2.26148E-03 1.57542E-04-3.90344E-15
 -1      3952 2.11705E-03 1.53571E-04-3.46758E-15
 -1      3953 1.57770E-03-1.34339E-04-2.18682E-15
 -1      3954 1.68023E-03-1.28937E-04-2.43947E-15
 -1      3955 1.48382E-03-9.25930E-05-1.96657E-15
 -1      3956 4.23509E-03 2.62493E-04-1.24337E-14
 -1      3957 1.84470E-03-1.41661E-04-2.86967E-15
 -1      3958 1.98963E-03-1.45493E-04-3.27552E-15
 -1      3959 2.05954E-03-1.11331E-04-3.47826E-15
 -1      3960 1.21401E-02 3.78480E-03-6.76686E-14
 -1      3961 1.19979E-02 3.66120E-03-6.59941E-14
 -1      3962 1.21033E-02 3.80996E-03-6.86349E-14
 -1      3963 1.10984E-02 2.75909E-03-5.27515E-14
 -1      3964 1.09639E-02 2.64125E-03-5.11909E-14
 -1      3965 1.07849E-02 2.55149E-03-5.05378E-14
 -1      3966 1.10569E-02 2.78599E-03-5.36722E-14
 -1      3967 1.04674E-02 2.34920E-03-4.83549E-14
 -1      3968 1.03337E-02 2.23966E-03-4.68463E-14
 -1      3969 1.12918E-02 3.04945E-03-5.77755E-14
 -1      3970 1.11534E-02 2.93027E-03-5.61829E-14
 -1      3971 1.42570E-02 5.66564E-03-9.42806E-14
 -1      3972 1.41976E-02 5.59512E-03-9.30643E-14
 -1      3973 1.40184E-02 5.49578E-03-9.23228E-14
 -1      3974 8.16973E-03 9.69118E-04-3.61048E-14
 -1      3975 7.99847E-03 8.42789E-04-3.49468E-14
 -1      3976 1.18187E-02 3.56303E-03-6.52858E-14
 -1      3977 1.18559E-02 3.53786E-03-6.43278E-14
 -1      3978 1.17142E-02 3.41484E-03-6.26716E-14
 -1      3979 6.80016E-03 3.95486E-05-2.76370E-14
 -1      3980 5.08627E-03-1.38662E-04-1.67234E-14
 -1      3981 5.16502E-03-8.49794E-05-1.70280E-14
 -1      3982 5.16068E-03-1.16632E-05-1.69083E-14
 -1      3983 4.91691E-03-1.34092E-04-1.58278E-14
 -1      3984 2.55012E-03 1.64854E-04-4.85035E-15
 -1      3985 2.40587E-03 1.61263E-04-4.36437E-15
 -1      3986 2.33191E-03 1.23521E-04-4.17063E-15
 -1      3987 3.76338E-03 1.80286E-04-9.98249E-15
 -1      3988 3.68643E-03 2.12103E-04-9.58593E-15
 -1      3989 3.54579E-03 2.02303E-04-8.90989E-15
 -1      3990 4.97186E-03-4.72823E-06-1.59609E-14
 -1      3991 1.53385E-03-2.59498E-06-2.05795E-15
 -1      3992 4.83569E-03-7.93156E-05-1.53347E-14
 -1      3993 1.15731E-02 3.29262E-03-6.10318E-14
 -1      3994 1.14320E-02 3.17051E-03-5.93963E-14
 -1      3995 1.12531E-02 3.07485E-03-5.87195E-14
 -1      3996 1.15352E-02 3.31776E-03-6.19800E-14
 -1      3997 1.48194E-03-5.80464E-05-1.95717E-15
 -1      3998 2.76726E-03 2.06672E-04-5.57220E-15
 -1      3999 3.12397E-03 1.81659E-04-7.03624E-15
 -1      4000 2.98116E-03 1.76752E-04-6.45369E-15
 -1      4001 1.34007E-02 5.28976E-03-9.32762E-14
 -1      4002 1.35231E-02 5.33190E-03-9.31222E-14
 -1      4003 1.32271E-02 5.14689E-03-9.13428E-14
 -1      4004 9.35960E-03 1.67151E-03-4.07798E-14
 -1      4005 9.21267E-03 1.60311E-03-4.04945E-14
 -1      4006 9.50239E-03 1.76829E-03-4.20443E-14
 -1      4007 7.49451E-03 4.77792E-04-3.19798E-14
 -1      4008 1.43746E-02 5.79941E-03-9.65401E-14
 -1      4009 1.43152E-02 5.72888E-03-9.53213E-14
 -1      4010 1.41360E-02 5.62954E-03-9.45817E-14
 -1      4011 1.42525E-02 5.75602E-03-9.66670E-14
 -1      4012 4.58165E-03 1.58222E-04-1.40634E-14
 -1      4013 4.47153E-03 1.81064E-04-1.35406E-14
 -1      4014 1.37634E-02 5.48946E-03-9.47551E-14
 -1      4015 1.39483E-02 5.61830E-03-9.62078E-14
 -1      4016 1.40704E-02 5.66169E-03-9.60832E-14
 -1      4017 1.35898E-02 5.34658E-03-9.28233E-14
 -1      4018 1.98340E-03 1.50665E-04-3.08498E-15
 -1      4019 1.84637E-03 1.46784E-04-2.71513E-15
 -1      4020 1.78612E-03 1.12852E-04-2.59424E-15
 -1      4021 2.05329E-03 1.18057E-04-3.32247E-15
 -1      4022 1.80438E-03 7.15822E-05-2.67954E-15
 -1      4023 1.01826E-02 2.13302E-03-4.54880E-14
 -1      4024 1.00589E-02 2.03909E-03-4.41859E-14
 -1      4025 9.80865E-03 1.93717E-03-4.36590E-14
 -1      4026 1.01252E-02 2.15119E-03-4.63519E-14
 -1      4027 8.89733E-03 1.41920E-03-3.89730E-14
 -1      4028 8.70168E-03 1.28716E-03-3.75492E-14
 -1      4029 8.54253E-03 1.19918E-03-3.72765E-14
 -1      4030 1.74982E-03-9.78807E-05-2.61608E-15
 -1      4031 7.51146E-03 5.03334E-04-3.25169E-14
 -1      4032 3.40626E-03 1.94205E-04-8.26440E-15
 -1      4033 3.26454E-03 1.87375E-04-7.63490E-15
 -1      4034 3.19573E-03 1.47665E-04-7.38557E-15
 -1      4035 3.47883E-03 1.61213E-04-8.63404E-15
 -1      4036 4.66979E-03 9.91868E-05-1.44572E-14
 -1      4037 4.32756E-03 1.98603E-04-1.28327E-14
 -1      4038 4.08774E-03 2.26236E-04-1.16311E-14
 -1      4039 4.03658E-03 1.78729E-04-1.13456E-14
 -1      4040 4.31026E-03 1.45055E-04-1.26980E-14
 -1      4041 1.09724E-02 2.83486E-03-5.54995E-14
 -1      4042 1.10144E-02 2.81093E-03-5.45860E-14
 -1      4043 1.08762E-02 2.69274E-03-5.30022E-14
 -1      4044 8.44332E-03 1.15009E-03-3.73807E-14
 -1      4045 8.27672E-03 1.06546E-03-3.75983E-14
 -1      4046 8.45160E-03 1.19607E-03-3.89946E-14
 -1      4047 8.63805E-03 1.28798E-03-3.87964E-14
 -1      4048 1.63719E-03-2.93362E-05-2.31548E-15
 -1      4049 1.32085E-02 4.82825E-03-8.33578E-14
 -1      4050 1.30657E-02 4.70387E-03-8.16166E-14
 -1      4051 2.86195E-03-7.44262E-05-6.20362E-15
 -1      4052 3.00942E-03-7.25108E-05-6.78182E-15
 -1      4053 3.15741E-03-7.00335E-05-7.38373E-15
 -1      4054 3.30609E-03-6.70632E-05-8.00912E-15
 -1      4055 3.08029E-03-3.10413E-05-7.04777E-15
 -1      4056 3.45558E-03-6.35138E-05-8.65838E-15
 -1      4057 3.60617E-03-5.95497E-05-9.33104E-15
 -1      4058 3.37664E-03-2.35372E-05-8.29371E-15
 -1      4059 3.75811E-03-5.51250E-05-1.00270E-14
 -1      4060 3.91171E-03-5.05605E-05-1.07463E-14
 -1      4061 3.67654E-03-1.34764E-05-9.63457E-15
 -1      4062 4.06727E-03-4.58005E-05-1.14895E-14
 -1      4063 4.22519E-03-4.13996E-05-1.22567E-14
 -1      4064 3.98233E-03-1.51485E-06-1.10679E-14
 -1      4065 8.62330E-03 1.32342E-03-4.04168E-14
 -1      4066 8.79126E-03 1.44835E-03-4.18569E-14
 -1      4067 8.71531E-03 1.36749E-03-4.03192E-14
 -1      4068 8.95579E-03 1.57125E-03-4.33141E-14
 -1      4069 9.11697E-03 1.69292E-03-4.47945E-14
 -1      4070 9.04913E-03 1.61255E-03-4.32170E-14
 -1      4071 9.27504E-03 1.81352E-03-4.62934E-14
 -1      4072 9.43044E-03 1.93379E-03-4.78120E-14
 -1      4073 9.36807E-03 1.85158E-03-4.61955E-14
 -1      4074 9.58347E-03 2.05383E-03-4.93459E-14
 -1      4075 9.73460E-03 2.17408E-03-5.08979E-14
 -1      4076 9.67548E-03 2.08923E-03-4.92443E-14
 -1      4077 9.88402E-03 2.29448E-03-5.24668E-14
 -1      4078 1.00321E-02 2.41531E-03-5.40500E-14
 -1      4079 9.97494E-03 2.32784E-03-5.23636E-14
 -1      4080 1.01791E-02 2.53647E-03-5.56469E-14
 -1      4081 1.03252E-02 2.65809E-03-5.72549E-14
 -1      4082 1.02691E-02 2.56839E-03-5.55415E-14
 -1      4083 1.04706E-02 2.78006E-03-5.88720E-14
 -1      4084 1.06154E-02 2.90245E-03-6.05022E-14
 -1      4085 1.05598E-02 2.81102E-03-5.87660E-14
 -1      4086 1.07598E-02 3.02514E-03-6.21459E-14
 -1      4087 1.09038E-02 3.14816E-03-6.37983E-14
 -1      4088 1.08485E-02 3.05547E-03-6.20357E-14
 -1      4089 1.10475E-02 3.27143E-03-6.54618E-14
 -1      4090 1.11910E-02 3.39493E-03-6.71340E-14
 -1      4091 1.11359E-02 3.30136E-03-6.53491E-14
 -1      4092 1.13344E-02 3.51861E-03-6.88135E-14
 -1      4093 1.14776E-02 3.64246E-03-7.05041E-14
 -1      4094 1.14225E-02 3.54829E-03-6.87001E-14
 -1      4095 1.16207E-02 3.76643E-03-7.22070E-14
 -1      4096 1.17637E-02 3.89052E-03-7.39184E-14
 -1      4097 1.17087E-02 3.79596E-03-7.20905E-14
 -1      4098 1.19067E-02 4.01469E-03-7.56325E-14
 -1      4099 1.20496E-02 4.13893E-03-7.73560E-14
 -1      4100 1.19946E-02 4.04411E-03-7.55137E-14
 -1      4101 1.21926E-02 4.26322E-03-7.90873E-14
 -1      4102 1.23354E-02 4.38756E-03-8.08234E-14
 -1      4103 1.22804E-02 4.29259E-03-7.89669E-14
 -1      4104 1.24783E-02 4.51193E-03-8.25661E-14
 -1      4105 1.26212E-02 4.63632E-03-8.43157E-14
 -1      4106 1.25662E-02 4.54126E-03-8.24416E-14
 -1      4107 1.27640E-02 4.76073E-03-8.60722E-14
 -1      4108 1.29069E-02 4.88516E-03-8.78324E-14
 -1      4109 1.28519E-02 4.79005E-03-8.59442E-14
 -1      4110 1.30842E-02 5.02244E-03-8.95776E-14
 -1      4111 1.80077E-03-3.76076E-05-2.73486E-15
 -1      4112 1.85987E-03 1.01297E-05-2.87033E-15
 -1      4113 1.97183E-03-6.03346E-05-3.21244E-15
 -1      4114 1.97370E-03 5.32222E-05-3.15522E-15
 -1      4115 2.27583E-03-7.69270E-05-4.13661E-15
 -1      4116 2.42187E-03-7.70738E-05-4.61619E-15
 -1      4117 1.26373E-02 4.33100E-03-7.64277E-14
 -1      4118 1.24946E-02 4.20683E-03-7.47100E-14
 -1      4119 1.34942E-02 5.07706E-03-8.68528E-14
 -1      4120 1.33513E-02 4.95265E-03-8.51023E-14
 -1      4121 1.31721E-02 4.85335E-03-8.43598E-14
 -1      4122 1.37798E-02 5.32594E-03-9.03633E-14
 -1      4123 1.36370E-02 5.20149E-03-8.86064E-14
 -1      4124 1.34578E-02 5.10217E-03-8.78617E-14
 -1      4125 7.81469E-03 7.02637E-04-3.36113E-14
 -1      4126 1.29229E-02 4.57954E-03-7.98789E-14
 -1      4127 1.27801E-02 4.45524E-03-7.81504E-14
 -1      4128 1.26009E-02 4.35605E-03-7.74137E-14
 -1      4129 1.28865E-02 4.60462E-03-8.08759E-14
 -1      4130 2.83784E-03 1.72439E-04-5.89490E-15
 -1      4131 2.69416E-03 1.68555E-04-5.36035E-15
 -1      4132 2.62119E-03 1.30150E-04-5.14775E-15
 -1      4133 1.23519E-02 4.08275E-03-7.30008E-14
 -1      4134 1.22092E-02 3.95879E-03-7.12980E-14
 -1      4135 1.23153E-02 4.10775E-03-7.39804E-14
 -1      4136 1.20666E-02 3.83498E-03-6.96061E-14
 -1      4137 1.19240E-02 3.71136E-03-6.79209E-14
 -1      4138 1.20299E-02 3.85990E-03-7.05764E-14
 -1      4139 4.73341E-03 3.10150E-05-1.47578E-14
 -1      4140 4.51785E-03 6.11072E-05-1.36911E-14
 -1      4141 2.90987E-03 1.37819E-04-6.22255E-15
 -1      4142 2.56822E-03-7.67097E-05-5.12109E-15
 -1      4143 2.71491E-03-7.58277E-05-5.65014E-15
 -1      4144 2.78603E-03-3.61587E-05-5.89717E-15
 -1      4145 2.11705E-03-6.11341E-05-3.63822E-15
 -1      4146 2.10784E-03 5.40991E-05-3.54408E-15
 -1      4147 1.38392E-02 5.39645E-03-9.15779E-14
 -1      4148 1.07392E-02 2.57661E-03-5.14415E-14
 -1      4149 1.06027E-02 2.46159E-03-4.98878E-14
 -1      4150 1.04176E-02 2.37135E-03-4.92444E-14
 -1      4151 1.06939E-02 2.59978E-03-5.23413E-14
 -1      4152 4.35402E-03 1.92417E-06-1.28780E-14
 -1      4153 4.44281E-03-4.74762E-05-1.33331E-14
 -1      4154 4.60775E-03-4.55379E-05-1.41564E-14
 -1      4155 3.84697E-03 1.46338E-04-1.04002E-14
 -1      4156 3.70100E-03 1.35907E-04-9.69647E-15
 -1      4157 9.05317E-03 1.52587E-03-4.02125E-14
 -1      4158 8.89702E-03 1.44558E-03-3.99278E-14
 -1      4159 9.20392E-03 1.62913E-03-4.14663E-14
 -1      4160 2.18845E-03-2.52169E-05-3.84100E-15
 -1      4161 7.65390E-03 5.97499E-04-3.30827E-14
 -1      4162 1.09312E-02 2.85838E-03-5.64199E-14
 -1      4163 1.07903E-02 2.73942E-03-5.48229E-14
 -1      4164 2.49310E-03-3.92117E-05-4.84270E-15
 -1      4165 3.97751E-03 1.30022E-04-1.10402E-14
 -1      4166 1.10724E-02 2.97823E-03-5.80296E-14
 -1      4167 1.08909E-02 2.88131E-03-5.73399E-14
 -1      4168 1.12138E-02 3.09892E-03-5.96511E-14
 -1      4169 1.17445E-02 3.61275E-03-6.72057E-14
 -1      4170 1.17816E-02 3.58798E-03-6.62455E-14
 -1      4171 1.16392E-02 3.46488E-03-6.45809E-14
 -1      4172 1.03693E-02 2.39163E-03-5.01332E-14
 -1      4173 1.02288E-02 2.27885E-03-4.85981E-14
 -1      4174 1.00217E-02 2.18388E-03-4.80929E-14
 -1      4175 1.00716E-02 2.16782E-03-4.72207E-14
 -1      4176 9.91243E-03 2.05784E-03-4.58584E-14
 -1      4177 9.79254E-03 1.96719E-03-4.46064E-14
 -1      4178 9.62741E-03 1.85821E-03-4.32714E-14
 -1      4179 9.48861E-03 1.79494E-03-4.29758E-14
 -1      4180 9.73855E-03 1.97876E-03-4.54603E-14
 -1      4181 4.29786E-03 6.26580E-05-1.26023E-14
 -1      4182 2.98335E-03 1.02587E-04-6.55487E-15
 -1      4183 2.83847E-03 9.85347E-05-5.99046E-15
 -1      4184 4.76803E-03-1.26149E-05-1.49428E-14
 -1      4185 3.26934E-03 1.12827E-04-7.73914E-15
 -1      4186 3.12639E-03 1.07307E-04-7.13545E-15
 -1      4187 3.05641E-03 6.65995E-05-6.88449E-15
 -1      4188 4.15886E-03 8.49158E-05-1.19234E-14
 -1      4189 2.29821E-03 8.24013E-05-4.10682E-15
 -1      4190 2.22031E-03 1.54460E-05-3.91612E-15
 -1      4191 2.37851E-03 1.65632E-06-4.43306E-15
 -1      4192 2.44328E-03 8.51627E-05-4.58047E-15
 -1      4193 8.79560E-03 1.39924E-03-4.00314E-14
 -1      4194 1.06498E-02 2.62202E-03-5.32446E-14
 -1      4195 1.05096E-02 2.50606E-03-5.16808E-14
 -1      4196 1.03232E-02 2.41111E-03-5.10212E-14
 -1      4197 3.06724E-03 1.82411E-05-6.96538E-15
 -1      4198 3.21419E-03 2.24206E-05-7.57170E-15
 -1      4199 1.34215E-02 5.12729E-03-8.88737E-14
 -1      4200 1.32786E-02 5.00286E-03-8.71171E-14
 -1      4201 1.31721E-02 5.05175E-03-8.94472E-14
 -1      4202 3.36169E-03 2.74093E-05-8.20185E-15
 -1      4203 3.65687E-03 3.97321E-05-9.52435E-15
 -1      4204 3.80714E-03 4.69661E-05-1.02250E-14
 -1      4205 3.95911E-03 5.50236E-05-1.09485E-14
 -1      4206 8.96559E-03 1.52163E-03-4.14710E-14
 -1      4207 9.24819E-03 1.69480E-03-4.29821E-14
 -1      4208 9.40727E-03 1.81085E-03-4.44602E-14
 -1      4209 9.53486E-03 1.90613E-03-4.57093E-14
 -1      4210 9.68809E-03 2.02192E-03-4.72205E-14
 -1      4211 9.85160E-03 2.13741E-03-4.85983E-14
 -1      4212 1.00002E-02 2.25390E-03-5.01431E-14
 -1      4213 1.01460E-02 2.37020E-03-5.16912E-14
 -1      4214 1.02920E-02 2.48839E-03-5.32667E-14
 -1      4215 1.04361E-02 2.60666E-03-5.48468E-14
 -1      4216 1.05807E-02 2.72651E-03-5.64485E-14
 -1      4217 1.07243E-02 2.84670E-03-5.80578E-14
 -1      4218 1.08680E-02 2.96793E-03-5.96805E-14
 -1      4219 1.11727E-02 3.27752E-03-6.44078E-14
 -1      4220 1.13160E-02 3.40061E-03-6.60722E-14
 -1      4221 1.15834E-02 3.58074E-03-6.79575E-14
 -1      4222 1.17263E-02 3.70430E-03-6.96416E-14
 -1      4223 1.18692E-02 3.82806E-03-7.13349E-14
 -1      4224 1.20121E-02 3.95198E-03-7.30401E-14
 -1      4225 1.21550E-02 4.07601E-03-7.47508E-14
 -1      4226 1.22978E-02 4.20015E-03-7.64700E-14
 -1      4227 1.24407E-02 4.32436E-03-7.81936E-14
 -1      4228 1.25835E-02 4.44864E-03-7.99234E-14
 -1      4229 1.27263E-02 4.57296E-03-8.16625E-14
 -1      4230 1.28692E-02 4.69732E-03-8.34050E-14
 -1      4231 2.77617E-03 1.18209E-05-5.83036E-15
 -1      4232 2.92251E-03 1.47284E-05-6.38931E-15
 -1      4233 2.52436E-03 3.28202E-06-4.92622E-15
 -1      4234 2.66153E-03 5.22948E-05-5.37514E-15
 -1      4235 1.39539E-02 5.53522E-03-9.39967E-14
 -1      4236 1.37154E-02 5.36537E-03-9.20318E-14
 -1      4237 1.30120E-02 4.82171E-03-8.51522E-14
 -1      4238 1.14972E-02 3.34234E-03-6.29230E-14
 -1      4239 1.13555E-02 3.22045E-03-6.12837E-14
 -1      4240 1.11751E-02 3.12279E-03-6.05835E-14
 -1      4241 1.14596E-02 3.36685E-03-6.38736E-14
 -1      4242 1.40122E-02 5.59846E-03-9.50397E-14
 -1      4243 1.06072E-02 2.64373E-03-5.41502E-14
 -1      4244 1.34751E-02 5.20782E-03-9.04052E-14
 -1      4245 3.55647E-03 1.26951E-04-9.01940E-15
 -1      4246 3.41329E-03 1.19337E-04-8.36967E-15
 -1      4247 3.34555E-03 7.70106E-05-8.10036E-15
 -1      4248 3.63721E-03 9.11365E-05-9.41330E-15
 -1      4249 1.32959E-02 5.10849E-03-8.96579E-14
 -1      4250 1.31185E-02 4.97122E-03-8.79162E-14
 -1      4251 3.50886E-03 3.31602E-05-8.85174E-15
 -1      4252 1.10112E-02 3.08955E-03-6.13123E-14
 -1      4253 1.11545E-02 3.21183E-03-6.29595E-14
 -1      4254 1.29757E-02 4.84680E-03-8.61575E-14
 -1      4255 2.58835E-03 8.80471E-05-5.07870E-15
 -1      4256 1.16203E-02 3.55627E-03-6.70007E-14
 -1      4257 9.33602E-03 1.72326E-03-4.26842E-14
 -1      4258 1.13349E-02 3.31049E-03-6.36715E-14
 -1      4259 1.14775E-02 3.43311E-03-6.53313E-14
 -3
    1PSTEP                         2           1           1          
  100CL  101 1.000000000        4259                     0    1           1
 -4  STRESS      6    1
 -5  SXX         1    4    1    1
 -5  SYY         1    4    2    2
 -5  SZZ         1    4    3    3
 -5  SXY         1    4    1    2
 -5  SYZ         1    4    2    3
 -5  SZX         1    4    3    1
 -1         1 4.57254E+01 1.09972E+01 2.35420E+00-2.16149E+01-1.38228E-12 2.40558E-12
 -1         2-7.07789E-01-2.83728E+01-3.44573E+00-3.02594E-01 6.67022E-13-1.04056E-13
 -1         3 1.99998E+01-1.95536E-06 2.37398E-05-2.12044E-07-1.89004E-13-3.95545E-13
 -1         4 1.99998E+01-2.81893E-05 4.53504E-05 2.81265E-05-1.26975E-13 4.15873E-13
 -1         5 3.60427E+01 1.23910E+01 5.26035E+00 8.76206E+00 1.04181E-13 2.86410E-12
 -1         6 3.57741E+01 1.22707E+01 5.12821E+00-8.65039E+00-1.75415E-13 2.26497E-12
 -1         7 2.08312E+01 6.10327E+00-1.28433E-01-4.72598E+00-2.66454E-14 2.15567E-13
 -1         8 1.96789E+01 5.93712E+00 5.09656E-02-3.27418E+00-2.47302E-14-3.68531E-13
 -1         9 1.91399E+01 5.77276E+00 4.90527E-02-2.52602E+00-1.91531E-14-6.61379E-13
 -1        10 1.88938E+01 5.69183E+00 5.08242E-02-1.95119E+00-1.23226E-14-7.87656E-13
 -1        11 1.87700E+01 5.65021E+00 5.01390E-02-1.45686E+00-7.93072E-15-8.35030E-13
 -1        12 1.87050E+01 5.62812E+00 4.86636E-02-1.01666E+00 3.98986E-17-8.41798E-13
 -1        13 1.86706E+01 5.61641E+00 4.72425E-02-5.97859E-01-2.54397E-15-8.23029E-13
 -1        14 1.86564E+01 5.61153E+00 4.64804E-02-1.95008E-01 4.95434E-15-7.84313E-13
 -1        15 1.86575E+01 5.61185E+00 4.64787E-02 2.02725E-01 8.53256E-15-7.52812E-13
 -1        16 1.86739E+01 5.61735E+00 4.72495E-02 6.05574E-01 1.59715E-14-7.22480E-13
 -1        17 1.87103E+01 5.62956E+00 4.87004E-02 1.02462E+00 1.50192E-14-6.76462E-13
 -1        18 1.87771E+01 5.65221E+00 5.03542E-02 1.46513E+00 1.71694E-14-5.89912E-13
 -1        19 1.89031E+01 5.69454E+00 5.12646E-02 1.96118E+00 3.06630E-14-4.57639E-13
 -1        20 1.91491E+01 5.77589E+00 4.89200E-02 2.53858E+00 3.32772E-14-2.25649E-13
 -1        21 1.96918E+01 5.94265E+00 5.04012E-02 3.28943E+00 3.56104E-14 2.06632E-13
 -1        22 2.08116E+01 6.12404E+00-1.30763E-01 4.73331E+00 1.33782E-14 9.14782E-13
 -1        23 2.30486E+01-1.38017E+00-9.38714E-01-7.11077E-01-1.20008E-13 1.65913E-12
 -1        24 1.93863E+01-9.95011E-02-3.09953E-01 6.33771E-02-3.45756E-14 1.14311E-12
 -1        25 1.86993E+01-5.62762E-02-6.88683E-02 6.09371E-02-1.84902E-14 6.33403E-13
 -1        26 1.84982E+01-2.19614E-02-6.49546E-03 3.32948E-02-6.45588E-15 2.57775E-13
 -1        27 1.85100E+01-1.15311E-02 1.69080E-03 2.30333E-02 3.54144E-15 6.43270E-14
 -1        28 1.86219E+01-5.74513E-03 2.09494E-03 1.68541E-02 2.91547E-15 7.18002E-15
 -1        29 1.87737E+01-2.24970E-03 2.38082E-03 1.28086E-02-1.19745E-14-1.76463E-13
 -1        30 1.89294E+01 1.02018E-04 3.12051E-03 9.88175E-03 5.43773E-15-3.61463E-13
 -1        31 1.90638E+01 1.88657E-03 4.12652E-03 7.52656E-03-1.05667E-14-5.01943E-13
 -1        32 1.91565E+01 3.41510E-03 5.36087E-03 5.37353E-03-2.40292E-14-6.03246E-13
 -1        33 1.91880E+01 4.84047E-03 6.86327E-03 3.10104E-03 3.86652E-14-6.75166E-13
 -1        34 1.91380E+01 6.18374E-03 8.61310E-03 3.92733E-04 5.81241E-15-6.68244E-13
 -1        35 1.89853E+01 7.32829E-03 1.04266E-02-3.04194E-03-3.15990E-14-7.21532E-13
 -1        36 1.87094E+01 8.01225E-03 1.18836E-02-7.38647E-03 1.29611E-14-7.15292E-13
 -1        37 1.82960E+01 7.85128E-03 1.23116E-02-1.25798E-02-6.94789E-15-6.09996E-13
 -1        38 1.77434E+01 6.42324E-03 1.08856E-02-1.81553E-02-5.08616E-14-6.46267E-13
 -1        39 1.70716E+01 3.43061E-03 6.89731E-03-2.31371E-02-6.42772E-15-8.03291E-13
 -1        40 1.63289E+01-1.08755E-03 1.67357E-04-2.61197E-02 1.96148E-14-8.15365E-13
 -1        41 1.55929E+01-6.58281E-03-8.55588E-03-2.56305E-02 1.87322E-14-9.85355E-13
 -1        42 1.49618E+01-1.19964E-02-1.75014E-02-2.07421E-02 2.49269E-15-8.64172E-13
 -1        43 1.45349E+01-1.60160E-02-2.42987E-02-1.16861E-02-1.85776E-14-7.27628E-13
 -1        44 1.43871E+01-1.75419E-02-2.68869E-02-6.91507E-05-1.70537E-14-7.45586E-13
 -1        45 1.45466E+01-1.61444E-02-2.44507E-02 1.15660E-02 2.81036E-15-9.14760E-13
 -1        46 1.49871E+01-1.22539E-02-1.78111E-02 2.06810E-02-2.08888E-14-8.77979E-13
 -1        47 1.56357E+01-6.96980E-03-9.02689E-03 2.56756E-02-8.01068E-15-6.79842E-13
 -1        48 1.63953E+01-1.60336E-03-4.70779E-04 2.63218E-02-2.10690E-14-6.18441E-13
 -1        49 1.71696E+01 2.78813E-03 6.08204E-03 2.35539E-02 1.53912E-14-7.17783E-13
 -1        50 1.78832E+01 5.65928E-03 9.88024E-03 1.88572E-02-1.56573E-14-1.00234E-12
 -1        51 1.84898E+01 6.97734E-03 1.11022E-02 1.36559E-02 7.89212E-15-9.79904E-13
 -1        52 1.89718E+01 7.05169E-03 1.04598E-02 8.94957E-03-1.38025E-14-8.81881E-13
 -1        53 1.93328E+01 6.32407E-03 8.78716E-03 5.23535E-03 6.15323E-15-1.07997E-12
 -1        54 1.95893E+01 5.20953E-03 6.77379E-03 2.61189E-03 1.85483E-14-9.30052E-13
 -1        55 1.97625E+01 4.01639E-03 4.86662E-03 9.42340E-04-1.31405E-13-9.80475E-13
 -1        56 1.98738E+01 2.93094E-03 3.28612E-03-3.76855E-06-9.17346E-15-9.23881E-13
 -1        57 1.99416E+01 2.03852E-03 2.09193E-03-4.59002E-04 7.49105E-14-7.97541E-13
 -1        58 1.99805E+01 1.35644E-03 1.25247E-03-6.13992E-04 5.36618E-14-6.69631E-13
 -1        59 2.00009E+01 8.64343E-04 6.97854E-04-6.05718E-04-4.36467E-14-6.53293E-13
 -1        60 2.00102E+01 5.26263E-04 3.52250E-04-5.22825E-04-3.96978E-14-6.11000E-13
 -1        61 2.00133E+01 3.04053E-04 1.49719E-04-4.17187E-04-1.55840E-15-7.77371E-13
 -1        62 2.00131E+01 1.64134E-04 3.94517E-05-3.15735E-04 1.69194E-14-1.03762E-12
 -1        63 2.00114E+01 7.98962E-05-1.46103E-05-2.30027E-04-6.44674E-14-1.13311E-12
 -1        64 2.00091E+01 3.16984E-05-3.64737E-05-1.63043E-04 2.01830E-14-1.41623E-12
 -1        65 2.00069E+01 5.79602E-06-4.12953E-05-1.13546E-04 4.26346E-14-7.48621E-13
 -1        66 2.00049E+01-7.04970E-06-3.82664E-05-7.86187E-05 1.13528E-13-5.16320E-13
 -1        67 2.00033E+01-1.28716E-05-3.29429E-05-5.49415E-05 7.01501E-14 1.77456E-13
 -1        68 2.00019E+01-1.55396E-05-2.90805E-05-3.91824E-05-1.23072E-13 2.70566E-13
 -1        69 2.00009E+01-1.74838E-05-2.94548E-05-2.76531E-05-5.26304E-14-2.84075E-13
 -1        70 2.00001E+01-1.68508E-05-3.23707E-05-1.30169E-05 2.00177E-14-2.79844E-13
 -1        71 1.99998E+01-3.16979E-07-1.40660E-05 9.96029E-06 2.57707E-13 1.47054E-13
 -1        72 2.32622E+01-1.33989E+00-9.29616E-01 8.02901E-01 7.28133E-14 2.46780E-12
 -1        73 1.94372E+01-1.08324E-01-3.28976E-01-6.58016E-02 2.95363E-14 2.06995E-12
 -1        74 1.87059E+01-5.81536E-02-7.48453E-02-6.15422E-02 1.47402E-14 1.57835E-12
 -1        75 1.84878E+01-2.31662E-02-8.11112E-03-3.34218E-02 5.62202E-15 1.29330E-12
 -1        76 1.84938E+01-1.25347E-02 1.25084E-03-2.25870E-02-5.43619E-16 1.12386E-12
 -1        77 1.86100E+01-7.09638E-03 1.44771E-03-1.59331E-02 1.40753E-14 9.19414E-13
 -1        78 1.87814E+01-4.38490E-03 9.75668E-04-1.14802E-02-4.35676E-15 7.94004E-13
 -1        79 1.89827E+01-3.38344E-03 3.67261E-04-8.20908E-03-5.69477E-17 7.88943E-13
 -1        80 1.92081E+01-3.79865E-03-9.98723E-04-5.74691E-03 1.80339E-14 6.51045E-13
 -1        81 1.94703E+01-5.74294E-03-3.89515E-03-4.10527E-03-8.85972E-15 5.17450E-13
 -1        82 1.98045E+01-9.68195E-03-9.58939E-03-3.75299E-03-9.04572E-15 5.94955E-13
 -1        83 2.02801E+01-1.64457E-02-2.05402E-02-6.00695E-03 2.01225E-14 6.46819E-13
 -1        84 2.10215E+01-2.71601E-02-4.14109E-02-1.39806E-02-1.57188E-15 5.05567E-13
 -1        85 2.22431E+01-4.27384E-02-7.96365E-02-3.45896E-02 1.47959E-14 4.91935E-13
 -1        86 2.42987E+01-6.17985E-02-1.41098E-01-8.23033E-02 1.97277E-14 4.75377E-13
 -1        87 2.77241E+01-7.70715E-02-2.07452E-01-1.82386E-01 2.05712E-14 3.17135E-13
 -1        88 3.31367E+01-5.51130E-02-1.68848E-01-3.72811E-01-9.85323E-15 4.12406E-13
 -1        89 4.03292E+01 5.05924E-02 1.98225E-01-5.73960E-01-3.16665E-14 6.97831E-13
 -1        90 4.77427E+01 1.54659E-01 9.90366E-01-3.76647E-01 3.60077E-14 9.98746E-13
 -1        91 4.88440E+01 1.38555E-01 1.24523E+00 8.89515E-01-7.45341E-14 1.41731E-12
 -1        92 4.00940E+01 1.48578E-01-2.28987E-01 2.40655E+00 3.26458E-14 1.51462E-12
 -1        93 2.40270E+01 1.06226E-01-3.54859E+00 2.22110E+00 6.74460E-15 1.18056E-12
 -1        94 1.32199E+01-1.08109E-01-6.00287E+00 3.33388E-01 9.27591E-14 4.23876E-13
 -1        95 2.08871E+01-1.50463E-01-4.27767E+00-1.61093E+00 9.29257E-14-1.33105E-12
 -1        96 3.84393E+01-6.40405E-02-4.76724E-01-1.51788E+00 2.62884E-14-2.31087E-12
 -1        97 4.90841E+01 6.86877E-02 1.37891E+00-4.77640E-01 1.65319E-15-2.33474E-12
 -1        98 4.80313E+01 8.31554E-02 1.03687E+00 2.25941E-01-3.09188E-14-1.66276E-12
 -1        99 4.06390E+01 1.58218E-02 1.95503E-01 3.10468E-01 2.77608E-14-1.15752E-12
 -1       100 3.30427E+01-2.69098E-02-1.93216E-01 2.00086E-01 1.12606E-13-8.70679E-13
 -1       101 2.76884E+01-3.64006E-02-2.20118E-01 1.01708E-01-9.74748E-14 1.43219E-14
 -1       102 2.43728E+01-3.05911E-02-1.49109E-01 4.65634E-02 7.52081E-14 1.10807E-13
 -1       103 2.24314E+01-2.13796E-02-8.50045E-02 2.00298E-02-1.68812E-13 2.67845E-13
 -1       104 2.13264E+01-1.37590E-02-4.53377E-02 7.97167E-03 9.34680E-15 6.73043E-13
 -1       105 2.07104E+01-8.45930E-03-2.34509E-02 2.17631E-03 1.11134E-13 7.16519E-14
 -1       106 2.03824E+01-5.34314E-03-1.28993E-02 8.88135E-04-9.35040E-15-8.56509E-14
 -1       107 2.01927E+01-3.07891E-03-6.62702E-03-2.01994E-04-1.02653E-14 2.38917E-13
 -1       108 2.00928E+01-1.78867E-03-3.36538E-03-4.51307E-04-3.30092E-14-1.32173E-13
 -1       109 2.00417E+01-1.01851E-03-1.66360E-03-4.53089E-04 1.75311E-13-8.66531E-13
 -1       110 2.00167E+01-5.67858E-04-7.78990E-04-3.73572E-04-1.68262E-14-6.24789E-13
 -1       111 2.00054E+01-3.08473E-04-3.29194E-04-2.79903E-04-1.08264E-13-5.53962E-15
 -1       112 2.00008E+01-1.61989E-04-1.10291E-04-1.97260E-04 1.24342E-14 3.23638E-13
 -1       113 1.99993E+01-8.12474E-05-1.18307E-05-1.32568E-04 1.48610E-14-1.32460E-14
 -1       114 1.99992E+01-3.81720E-05 2.59027E-05-8.53074E-05-1.07725E-13 5.12159E-14
 -1       115 1.99994E+01-1.62449E-05 3.47226E-05-5.24042E-05 2.03171E-13 3.69885E-13
 -1       116 1.99997E+01-5.89097E-06 3.10741E-05-3.03660E-05-3.10863E-14-1.56244E-13
 -1       117 1.99999E+01-1.66343E-06 2.29969E-05-1.61337E-05-2.49393E-15 2.13368E-13
 -1       118 1.99999E+01-5.27597E-07 1.40233E-05-7.36432E-06-8.94874E-15 4.43929E-13
 -1       119 1.99999E+01-8.06380E-07 5.44263E-06-2.47183E-06-1.63758E-13-3.43113E-13
 -1       120 1.99998E+01-1.45160E-06-1.98628E-06-5.90797E-07 3.45349E-13-1.76160E-12
 -1       121 1.99997E+01-1.48542E-06-4.82791E-06-2.02998E-06-4.38133E-14-2.05042E-12
 -1       122 1.99998E+01 3.84972E-07 4.67959E-06-8.41665E-06-1.05678E-13-1.56952E-12
 -1       123 1.99998E+01-4.95846E-05 1.28872E-06-1.07503E-05-7.10134E-13 1.03504E-13
 -1       124 1.99998E+01-6.24795E-05-1.19199E-05-7.91923E-06-2.17487E-12 8.74499E-14
 -1       125 1.99998E+01 5.79054E-05-1.55450E-05-2.95988E-06-1.39559E-12-6.75351E-14
 -1       126 1.99998E+01 3.33585E-04-1.42495E-05 2.65779E-06-9.51579E-13-7.48248E-14
 -1       127 1.99998E+01 7.48712E-04-9.59422E-06 8.06745E-06-1.12035E-13 6.32383E-13
 -1       128 1.99998E+01 1.24760E-03-2.88206E-06 1.21372E-05 9.95587E-13 4.02152E-13
 -1       129 1.99998E+01 1.77684E-03 5.03082E-06 1.46099E-05 3.20085E-13-1.96910E-13
 -1       130 1.99998E+01 2.24657E-03 1.28751E-05 1.46992E-05-3.17406E-13 1.47282E-13
 -1       131 1.99998E+01 2.57548E-03 1.94662E-05 1.22620E-05-6.47191E-13 8.48930E-14
 -1       132 1.99998E+01 2.69634E-03 2.36599E-05 7.34775E-06-2.63420E-13-1.08350E-13
 -1       133 1.99998E+01 2.56791E-03 2.41959E-05 7.75341E-08-3.14410E-13-1.28089E-13
 -1       134 1.99998E+01 2.19602E-03 1.99890E-05-7.78454E-06-8.18834E-14-1.30670E-13
 -1       135 1.99998E+01 1.61366E-03 9.31702E-06-1.62998E-05-6.04058E-14 1.94532E-13
 -1       136 1.99998E+01 9.29639E-04-8.23244E-06-2.27179E-05 4.29719E-13 5.05088E-13
 -1       137 1.99998E+01 3.24691E-04-2.24404E-05-2.33051E-05-7.58132E-13-2.51889E-13
 -1       138 1.99998E+01 1.25284E-05-8.68495E-06 1.27221E-05-1.07281E-12 9.31159E-14
 -1       139-2.18956E+00-2.82287E+01-3.75708E+00-6.07062E+00 1.37771E-12 3.26506E-13
 -1       140-4.67532E+00-1.95140E+01-3.85470E+00-8.30639E+00 1.26121E-12 4.67265E-13
 -1       141-2.56516E+00-6.13262E+00-3.48625E+00-3.27480E+00 1.74527E-12 1.55986E-12
 -1       142 8.99383E+00 4.50614E+00-2.16904E+00 6.86273E+00 2.02716E-12 2.47258E-12
 -1       143 3.63248E+01 8.77763E+00 1.18932E+00 1.81692E+01 1.51124E-12 2.43561E-12
 -1       144 7.56482E+01 6.12346E+00 6.43190E+00 1.91270E+01 3.70148E-13 1.33815E-12
 -1       145 1.02493E+02 2.31910E+00 1.02857E+01 5.40201E+00-1.91513E-14-3.96350E-14
 -1       146 9.39192E+01 3.62966E+00 9.05622E+00-1.33483E+01 3.33157E-13-1.35048E-12
 -1       147 6.01372E+01 7.83897E+00 4.32341E+00-2.05377E+01 9.76885E-13-2.42906E-12
 -1       148 2.49893E+01 7.97084E+00-2.23693E-01-1.42111E+01 1.64835E-12-2.57649E-12
 -1       149 2.60562E+00 8.02252E-01-2.82798E+00-2.24533E+00 2.38243E-12-2.26053E-12
 -1       150-4.51358E+00-1.14967E+01-3.69052E+00 6.39009E+00 2.70473E-12-1.77885E-12
 -1       151-3.85504E+00-2.31212E+01-3.80783E+00 8.35273E+00 2.22325E-12-8.71421E-13
 -1       152-1.44446E+00-2.93694E+01-3.68394E+00 4.37283E+00 1.24700E-12-1.60816E-13
 -1       153-7.80841E-01-2.61866E+01-3.28799E+00-1.46091E+00-5.16698E-13-9.36109E-14
 -1       154-1.47049E+00-1.48237E+01-2.57103E+00-3.67681E+00-2.04270E-12-6.72615E-13
 -1       155 8.11661E-01 1.33145E-01-1.46705E+00 1.12330E+00-2.92921E-12-1.64052E-12
 -1       156 9.69386E+00 1.08693E+01-1.55723E-01 1.02959E+01-2.59365E-12-2.12919E-12
 -1       157 2.66148E+01 1.39543E+01 1.22559E+00 1.89549E+01-1.80617E-12-2.58438E-12
 -1       158 4.94960E+01 9.95580E+00 2.54644E+00 2.13448E+01-1.11536E-12-2.12297E-12
 -1       159 6.88185E+01 3.29564E+00 3.45283E+00 1.30589E+01-2.36696E-13-9.37000E-13
 -1       160 7.47434E+01 8.07329E-01 3.69755E+00-1.73771E+00 5.88592E-14-3.03091E-14
 -1       161 6.53529E+01 4.66320E+00 3.29740E+00-1.58235E+01-3.11237E-13 1.03823E-12
 -1       162 2.30126E+01 1.41477E+01 9.77958E-01-1.77884E+01-2.43155E-12 3.09508E-12
 -1       163 6.51308E+00 8.91679E+00-5.07880E-01-7.74554E+00-2.44005E-12 1.88538E-12
 -1       164-6.28926E-01-4.24349E+00-1.83462E+00 1.19669E+00-1.36535E-12 6.87977E-13
 -1       165-1.26131E+00-1.91576E+01-2.83546E+00 3.64572E+00-1.60039E-13 4.90025E-14
 -1       166 2.10236E+01 3.69532E+00-5.73684E-02-3.61046E+00-3.65475E-13-7.18592E-14
 -1       167 1.99955E+01 4.20900E+00-4.57585E-02-2.80951E+00-3.17959E-13-4.18422E-13
 -1       168 1.95089E+01 4.47783E+00-3.16074E-02-2.19486E+00-2.32655E-13-5.96788E-13
 -1       169 1.92645E+01 4.61521E+00-2.37414E-02-1.67643E+00-1.49467E-13-6.83226E-13
 -1       170 1.91321E+01 4.69664E+00-1.94943E-02-1.22047E+00-8.49192E-14-7.08476E-13
 -1       171 1.90569E+01 4.74778E+00-1.74094E-02-7.94061E-01-3.23629E-14-7.01611E-13
 -1       172 1.90190E+01 4.77615E+00-1.63975E-02-3.89731E-01 2.70585E-14-6.77941E-13
 -1       173 1.90081E+01 4.78558E+00-1.60906E-02 4.21359E-03 8.95176E-14-6.47574E-13
 -1       174 1.90212E+01 4.77700E+00-1.64011E-02 3.98055E-01 1.48309E-13-6.20060E-13
 -1       175 1.90613E+01 4.74903E+00-1.74244E-02 8.02199E-01 1.96288E-13-5.89975E-13
 -1       176 1.91369E+01 4.69876E+00-1.95270E-02 1.22113E+00 2.49786E-13-5.24423E-13
 -1       177 1.92735E+01 4.61520E+00-2.35956E-02 1.68435E+00 3.18731E-13-4.17517E-13
 -1       178 1.95220E+01 4.47450E+00-3.14859E-02 2.20690E+00 3.73605E-13-2.65498E-13
 -1       179 2.00102E+01 4.20378E+00-4.59876E-02 2.82234E+00 3.87934E-13 2.68535E-14
 -1       180 2.10435E+01 3.68015E+00-5.43430E-02 3.63194E+00 3.64027E-13 4.84311E-13
 -1       181 2.19859E+01 8.58471E-01 6.58337E-04-1.95882E+00-3.26062E-13 3.85685E-13
 -1       182 2.04610E+01 1.90249E-01-1.00216E-02-7.63689E-01-2.92729E-13 2.29579E-13
 -1       183 1.96848E+01 1.01573E-01 1.35073E-02-2.85315E-01-2.18438E-13 1.17571E-13
 -1       184 1.93434E+01 4.66431E-02 9.92163E-03-6.86511E-02-1.36412E-13 3.04964E-15
 -1       185 1.92097E+01 2.13425E-02 5.02510E-03 3.60764E-02-7.25120E-14-8.37698E-14
 -1       186 1.91877E+01 7.16687E-03 2.21256E-03 8.37126E-02-9.23142E-14-1.42454E-13
 -1       187 1.92202E+01-2.01494E-03 7.91242E-04 9.72576E-02-8.77774E-14-1.52655E-13
 -1       188 1.92708E+01-8.90340E-03 2.35405E-06 8.75577E-02-8.92766E-14-2.25031E-13
 -1       189 1.93142E+01-1.49449E-02-5.24363E-04 5.95637E-02-6.78337E-14-2.43685E-13
 -1       190 1.93303E+01-2.09648E-02-9.29258E-04 1.50181E-02-4.99764E-14-2.32831E-13
 -1       191 1.93013E+01-2.72963E-02-1.25104E-03-4.59684E-02-3.10549E-14-3.70927E-13
 -1       192 1.92111E+01-3.37015E-02-1.47930E-03-1.23488E-01 1.13006E-15-3.94983E-13
 -1       193 1.90446E+01-3.92178E-02-1.57437E-03-2.16164E-01 1.76496E-14-3.29910E-13
 -1       194 1.87908E+01-4.20669E-02-1.48292E-03-3.19218E-01 1.29049E-14-3.22076E-13
 -1       195 1.84455E+01-3.98093E-02-1.15777E-03-4.22632E-01-6.95303E-14-3.23450E-13
 -1       196 1.80165E+01-2.99454E-02-5.84332E-04-5.10274E-01-8.68438E-14-3.22495E-13
 -1       197 1.75278E+01-1.10324E-02 1.98070E-04-5.61156E-01-3.41956E-14-3.83590E-13
 -1       198 1.70222E+01 1.59495E-02 1.08897E-03-5.53787E-01-5.06869E-14-4.29036E-13
 -1       199 1.65583E+01 4.67084E-02 1.94853E-03-4.73339E-01-2.43288E-14-4.49605E-13
 -1       200 1.62014E+01 7.41172E-02 2.62620E-03-3.19357E-01 4.80531E-14-5.55829E-13
 -1       201 1.60088E+01 9.04779E-02 3.00531E-03-1.10057E-01-1.19355E-14-5.34730E-13
 -1       202 1.60148E+01 9.07663E-02 3.02155E-03 1.20296E-01-1.00284E-13-5.93278E-13
 -1       203 1.62199E+01 7.49952E-02 2.67433E-03 3.31118E-01 4.11546E-14-5.48782E-13
 -1       204 1.65916E+01 4.81936E-02 2.02872E-03 4.88179E-01 9.74928E-14-4.47691E-13
 -1       205 1.70740E+01 1.80480E-02 1.19965E-03 5.73284E-01 5.15099E-15-4.16482E-13
 -1       206 1.76033E+01-8.31236E-03 3.38020E-04 5.86893E-01-6.63376E-14-5.16520E-13
 -1       207 1.81223E+01-2.65899E-02-4.16711E-04 5.43843E-01-1.90550E-13-6.60064E-13
 -1       208 1.85897E+01-3.58117E-02-9.67067E-04 4.65625E-01 7.70613E-14-6.16448E-13
 -1       209 1.89826E+01-3.74442E-02-1.27715E-03 3.73168E-01 5.96909E-14-4.20723E-13
 -1       210 1.92942E+01-3.40347E-02-1.36697E-03 2.82441E-01-4.52775E-14-3.16621E-13
 -1       211 1.95291E+01-2.81054E-02-1.29157E-03 2.03104E-01 1.10055E-13-2.00994E-13
 -1       212 1.96985E+01-2.15662E-02-1.11667E-03 1.39274E-01-2.21521E-14-1.56085E-13
 -1       213 1.98155E+01-1.55780E-02-9.00738E-04 9.11865E-02-7.06520E-16-1.22422E-13
 -1       214 1.98932E+01-1.06728E-02-6.85940E-04 5.69095E-02 1.07804E-13-1.74154E-13
 -1       215 1.99426E+01-6.96057E-03-4.96961E-04 3.36510E-02 3.85737E-14-3.37879E-13
 -1       216 1.99727E+01-4.32086E-03-3.44201E-04 1.85877E-02 1.51613E-14-4.07755E-13
 -1       217 1.99900E+01-2.54097E-03-2.28478E-04 9.28324E-03-1.65678E-15-4.28824E-13
 -1       218 1.99993E+01-1.39817E-03-1.45366E-04 3.83044E-03-7.23695E-14-1.47980E-13
 -1       219 2.00037E+01-6.99538E-04-8.83834E-05 8.37110E-04-1.45792E-13-2.71694E-13
 -1       220 2.00053E+01-2.94942E-04-5.09473E-05-6.57837E-04-4.63372E-14-2.80362E-13
 -1       221 2.00053E+01-7.58670E-05-2.73477E-05-1.28650E-03-1.40503E-13-2.08261E-13
 -1       222 2.00047E+01 3.18411E-05-1.30773E-05-1.44589E-03 3.30525E-13-3.74732E-13
 -1       223 2.00038E+01 7.66537E-05-4.80654E-06-1.37328E-03 2.05006E-13-1.34816E-13
 -1       224 2.00028E+01 8.92556E-05-2.15748E-07-1.20159E-03 2.77168E-13-1.88202E-13
 -1       225 2.00019E+01 8.89567E-05 2.18407E-06-9.97187E-04 1.40287E-13-1.88647E-13
 -1       226 2.00011E+01 8.86172E-05 3.11048E-06-7.83831E-04-1.04931E-13 1.45350E-13
 -1       227 2.00005E+01 9.70864E-05 2.82040E-06-5.57359E-04 1.47774E-13 4.57440E-13
 -1       228 2.00001E+01 1.26257E-04 1.79926E-06-3.03521E-04 2.29349E-13 5.63794E-13
 -1       229 2.20489E+01 9.19425E-01 3.02451E-04 2.03770E+00 3.02952E-13 9.37892E-13
 -1       230 2.05031E+01 2.07486E-01-1.14060E-02 8.00748E-01 2.77934E-13 7.72842E-13
 -1       231 1.97065E+01 1.06923E-01 1.31671E-02 3.00575E-01 1.89319E-13 6.21750E-13
 -1       232 1.93561E+01 5.01530E-02 1.03385E-02 7.30103E-02 1.17400E-13 4.71445E-13
 -1       233 1.92253E+01 2.50814E-02 5.54021E-03-4.14743E-02 1.19986E-13 3.85125E-13
 -1       234 1.92201E+01 1.31408E-02 2.87167E-03-1.02787E-01 7.40768E-14 3.43616E-13
 -1       235 1.92894E+01 8.25808E-03 1.78511E-03-1.38609E-01 6.13193E-14 2.74544E-13
 -1       236 1.94088E+01 8.83137E-03 1.57285E-03-1.66521E-01 7.87732E-14 1.87003E-13
 -1       237 1.95719E+01 1.52214E-02 1.95057E-03-2.01738E-01 6.79955E-14 2.12758E-13
 -1       238 1.97887E+01 2.95146E-02 2.90357E-03-2.61909E-01-3.18005E-14 1.91016E-13
 -1       239 2.00870E+01 5.60253E-02 4.48743E-03-3.71829E-01-1.01100E-14 1.64594E-13
 -1       240 2.05173E+01 1.02281E-01 6.57674E-03-5.69422E-01 8.90533E-14 1.50214E-13
 -1       241 2.11589E+01 1.79943E-01 8.40035E-03-9.13072E-01 1.48141E-14 1.65060E-13
 -1       242 2.21233E+01 3.03191E-01 8.15950E-03-1.48671E+00 2.90740E-14 1.43206E-13
 -1       243 2.35470E+01 4.75937E-01 4.85796E-03-2.38611E+00 4.06489E-14 8.13789E-14
 -1       244 2.55513E+01 6.34006E-01 6.11603E-03-3.63836E+00-1.24288E-13 1.85199E-13
 -1       245 2.80508E+01 5.40337E-01 4.07168E-02-4.87667E+00-1.96716E-13 3.12706E-13
 -1       246 3.13013E+01-5.13746E-01 1.41316E-01-5.06191E+00-2.37990E-13 4.77489E-13
 -1       247 3.46559E+01-2.60517E+00 1.66294E-01-2.62810E+00-2.74780E-13 7.09615E-13
 -1       248 3.87562E+01-4.46078E+00 2.68074E-02 2.19727E+00-3.63806E-14 5.72140E-13
 -1       249 4.27297E+01 2.96176E+00-3.32621E-01 4.83213E+00 4.42202E-13 2.73601E-14
 -1       250 4.24147E+01 3.54209E+00-3.86861E-01-3.38384E+00 8.01359E-13-1.65638E-13
 -1       251 4.21599E+01-3.44154E-01-3.45412E-01-7.63105E+00 6.13870E-13-5.88168E-13
 -1       252 4.15281E+01-2.45225E+00 1.59812E-01-4.16828E+00 4.88151E-14-1.15003E-12
 -1       253 3.91718E+01-1.39724E+00 3.76847E-01 1.50579E+00-2.90878E-13-9.30224E-13
 -1       254 3.50850E+01-1.42136E-01 1.81065E-01 3.86618E+00-2.44183E-13-7.40137E-13
 -1       255 3.05442E+01 2.89965E-01-1.93686E-03 3.57812E+00-5.96562E-14-4.47940E-13
 -1       256 2.68516E+01 2.97433E-01-4.17303E-02 2.52653E+00-4.08681E-13-1.91312E-13
 -1       257 2.42414E+01 2.07753E-01-2.84730E-02 1.58867E+00-1.11149E-13-2.33823E-14
 -1       258 2.25403E+01 1.28158E-01-1.19124E-02 9.46301E-01-7.48351E-14 2.99896E-13
 -1       259 2.14845E+01 7.49149E-02-3.08508E-03 5.47336E-01-9.39110E-14 1.83073E-13
 -1       260 2.08509E+01 4.26613E-02 3.65487E-04 3.10428E-01 1.53658E-13 2.07665E-13
 -1       261 2.04916E+01 2.46361E-02 8.16640E-04 1.78345E-01 1.85507E-13 3.69560E-13
 -1       262 2.02701E+01 1.37038E-02 9.68889E-04 9.79209E-02-1.86713E-14 1.46962E-13
 -1       263 2.01451E+01 7.49894E-03 7.41345E-04 5.25563E-02 1.71351E-13 2.03992E-14
 -1       264 2.00758E+01 4.02747E-03 5.15707E-04 2.74116E-02 2.96381E-13-2.50979E-14
 -1       265 2.00383E+01 2.10469E-03 3.42264E-04 1.37429E-02-1.80814E-13 8.42133E-14
 -1       266 2.00187E+01 1.05650E-03 2.21235E-04 6.51047E-03-1.86946E-13 2.40678E-13
 -1       267 2.00088E+01 4.98067E-04 1.40242E-04 2.82826E-03 7.79632E-14-8.45323E-14
 -1       268 2.00040E+01 2.10648E-04 8.73342E-05 1.05852E-03 6.03519E-14-2.77612E-13
 -1       269 2.00018E+01 7.04584E-05 5.34129E-05 2.84431E-04-1.68764E-13-3.76329E-14
 -1       270 2.00009E+01 8.07369E-06 3.20395E-05 2.59793E-06-2.69864E-14 1.63962E-13
 -1       271 2.00005E+01-1.48233E-05 1.88017E-05-5.59341E-05 2.22140E-13-1.81655E-14
 -1       272 2.00003E+01-1.88259E-05 1.07216E-05-2.95224E-05-1.71869E-13-5.12022E-14
 -1       273 2.00002E+01-1.45406E-05 5.79921E-06 1.42676E-05-1.08022E-13 3.75192E-14
 -1       274 2.00001E+01-7.12895E-06 2.67817E-06 4.48450E-05 5.18230E-13 4.45180E-14
 -1       275 2.00000E+01 9.63907E-07 5.06253E-07 5.04718E-05 3.86498E-13-4.12249E-13
 -1       276 1.99999E+01 8.13417E-06-6.15398E-07 2.89951E-05 4.43035E-14-5.69878E-13
 -1       277 1.99998E+01 8.67343E-06 1.27314E-06-7.43284E-06-2.68284E-13-4.74033E-13
 -1       278 1.99998E+01-3.04920E-07 2.48028E-06-2.11367E-05-5.19494E-13-4.07039E-14
 -1       279 1.99998E+01 4.02230E-05-7.67070E-07 2.37606E-05-4.76961E-13-4.33338E-13
 -1       280 1.99998E+01 1.59756E-04-1.24571E-06 1.05064E-04-5.84160E-13 2.26344E-13
 -1       281 1.99998E+01 3.76655E-04-1.19301E-06 1.95013E-04-2.47283E-13 1.59610E-13
 -1       282 1.99998E+01 6.86424E-04-8.28812E-07 2.70257E-04 1.11081E-13 6.26917E-13
 -1       283 1.99998E+01 1.05387E-03-5.02340E-07 3.12881E-04-7.40533E-15 1.37406E-13
 -1       284 1.99998E+01 1.44534E-03-1.49355E-07 3.12190E-04-2.21353E-13-2.66909E-13
 -1       285 1.99998E+01 1.79792E-03 1.84837E-07 2.62252E-04 2.09391E-13-1.43573E-13
 -1       286 1.99998E+01 2.05451E-03 5.14423E-07 1.65949E-04 2.23012E-13-1.41571E-13
 -1       287 1.99998E+01 2.16704E-03 8.26944E-07 3.37241E-05-2.43201E-13 9.90254E-15
 -1       288 1.99998E+01 2.10532E-03 1.06748E-06-1.16913E-04-1.47228E-13-3.49033E-14
 -1       289 1.99998E+01 1.87076E-03 1.10947E-06-2.59135E-04 1.10526E-13 2.92265E-13
 -1       290 1.99998E+01 1.48318E-03 4.26530E-07-3.67668E-04 3.97008E-13 1.06346E-13
 -1       291 1.99998E+01 1.00864E-03-1.09289E-06-4.06484E-04 4.61155E-14 2.50338E-13
 -1       292 1.99998E+01 5.48037E-04-2.40239E-06-3.43207E-04-4.66149E-13-5.16450E-13
 -1       293-2.21283E+00-1.24876E+01-9.71743E-01-1.66387E+00 4.35294E-13 4.31460E-13
 -1       294 7.56364E-02-1.08556E+01-9.41876E-01 7.88657E-01 3.95128E-13-3.03368E-14
 -1       295 7.85837E+00-8.63436E+00-9.36932E-01 3.54359E+00 2.20213E-13 7.85282E-13
 -1       296 1.87797E+01-6.30151E+00-9.29662E-01 4.32289E+00 5.30576E-13 9.25621E-13
 -1       297 3.56291E+01-3.90793E+00-1.41933E-01 3.42101E+00 6.65440E-13 8.70748E-13
 -1       298 5.14201E+01 6.00418E-01 1.36153E+00 4.60929E-01 9.74806E-13 6.12621E-13
 -1       299 5.93385E+01 5.14633E+00 2.28887E+00-1.53433E+00 7.09099E-13-1.66533E-15
 -1       300 6.12986E+01 6.70645E+00 2.64056E+00 6.55295E-01 5.28078E-13-4.38455E-13
 -1       301 5.74809E+01 3.44143E+00 2.04651E+00 7.27189E-01 6.83037E-13-5.11369E-13
 -1       302 4.49109E+01-2.01457E+00 4.52621E-01-4.71098E-01 6.47551E-13-6.50646E-13
 -1       303 2.89050E+01-4.96680E+00-4.81339E-01-4.17190E+00 7.62446E-13-8.08575E-13
 -1       304 1.28968E+01-7.30425E+00-1.07753E+00-3.84675E+00 9.63674E-13-7.02410E-13
 -1       305 3.57857E+00-9.98934E+00-1.11158E+00-1.99309E+00 8.30613E-13-7.10910E-13
 -1       306-1.31808E+00-1.27634E+01-1.14041E+00 5.38159E-01 6.02296E-13-6.60000E-13
 -1       307-2.05299E+00-1.17736E+01-8.68760E-01 2.18138E+00 1.44267E-13-8.12544E-13
 -1       308 5.78119E-01-1.06281E+01-8.43070E-01 3.94680E+00-3.79058E-13-8.50625E-13
 -1       309 7.05137E+00-6.19597E+00-4.93894E-01 6.65440E+00-6.71685E-13-9.65337E-13
 -1       310 1.52326E+01-1.43121E+00-2.40952E-01 8.29108E+00-1.08885E-12-7.81541E-13
 -1       311 2.58667E+01 2.64273E+00 1.60671E-01 9.77072E+00-1.10525E-12-1.16782E-12
 -1       312 3.73265E+01 4.92725E+00 4.66897E-01 8.50558E+00-9.29527E-13-8.43214E-13
 -1       313 4.70715E+01 7.12595E+00 8.28752E-01 6.29736E+00-8.06702E-13-7.67442E-13
 -1       314 5.30416E+01 7.66703E+00 1.09527E+00 2.01355E+00-5.87169E-13-4.83738E-13
 -1       315 5.23143E+01 7.63777E+00 1.06602E+00-3.20915E+00-5.96495E-13-7.79932E-15
 -1       316 4.48855E+01 6.80423E+00 6.88332E-01-6.42010E+00-9.75747E-13 3.55826E-13
 -1       317 3.56019E+01 4.84884E+00 4.63602E-01-9.29878E+00-9.73346E-13 6.33160E-13
 -1       318 2.33734E+01 1.99013E+00 7.20143E-02-9.63719E+00-9.83186E-13 1.18824E-12
 -1       319 1.23197E+01-2.65633E+00-3.53743E-01-7.72310E+00-5.96578E-13 1.20202E-12
 -1       320 4.09146E+00-7.80953E+00-7.06601E-01-5.27635E+00-2.45193E-13 7.50441E-13
 -1       321-6.74454E-01-1.17871E+01-9.39565E-01-3.32203E+00 1.34365E-13 4.18651E-13
 -1       322 4.41292E+01-1.36281E+00 7.48825E-02 6.94987E+00 4.30711E-13 3.49859E-13
 -1       323 1.99999E+01 3.00853E-04 2.47543E-06-3.02890E-04 6.01430E-14-1.49310E-14
 -1       324 2.01471E+01 3.01545E+00-1.79546E-02-2.11042E+00-3.26413E-13-3.48900E-13
 -1       325 2.07630E+01 2.20874E+00-1.78836E-02-2.36350E+00-3.83858E-13-1.63777E-13
 -1       326 1.95796E+01 3.69152E+00-1.51164E-02-1.31797E+00-1.49948E-13-5.42840E-13
 -1       327 1.94541E+01 3.84848E+00-1.35974E-02-9.24987E-01-8.54344E-14-5.60315E-13
 -1       328 1.93839E+01 3.94016E+00-1.26700E-02-5.45492E-01 2.63903E-15-5.26756E-13
 -1       329 1.93527E+01 3.98308E+00-1.22546E-02-1.75436E-01 8.01969E-14-5.18566E-13
 -1       330 1.93538E+01 3.98359E+00-1.22622E-02 1.91101E-01 1.51313E-13-4.77007E-13
 -1       331 1.93876E+01 3.94112E+00-1.26906E-02 5.60489E-01 2.11884E-13-4.67955E-13
 -1       332 1.94592E+01 3.85057E+00-1.36727E-02 9.32640E-01 2.71714E-13-4.32063E-13
 -1       333 1.95870E+01 3.69181E+00-1.55007E-02 1.32498E+00 3.49323E-13-3.46814E-13
 -1       334 1.98022E+01 3.42896E+00-1.85055E-02 1.73021E+00 4.08578E-13-2.36120E-13
 -1       335 2.01626E+01 2.98185E+00-2.15698E-02 2.11353E+00 4.29929E-13-5.67255E-14
 -1       336 2.07831E+01 2.17155E+00-1.81235E-02 2.36038E+00 4.08979E-13 2.48883E-13
 -1       337 9.76086E+00-3.88784E+00 4.38790E-02 5.96538E+00 9.04554E-14 3.57395E-13
 -1       338 2.04653E+01 6.75250E-01 1.23757E-02-1.02573E+00-2.97910E-13-9.67002E-14
 -1       339 2.00423E+01 3.35049E-01 7.11858E-03-4.59691E-01-2.19690E-13-1.01867E-13
 -1       340 1.97847E+01 1.72411E-01 4.06622E-03-1.54326E-01-1.53085E-13-1.04428E-13
 -1       341 1.96436E+01 8.26044E-02 1.77941E-03 9.89914E-03-9.18948E-14-1.37497E-13
 -1       342 1.95785E+01 2.75258E-02 5.92997E-04 8.87590E-02-7.49688E-14-1.23560E-13
 -1       343 1.95571E+01-1.03401E-02-3.64989E-05 1.11612E-01-9.87396E-14-1.25755E-13
 -1       344 1.95553E+01-3.99836E-02-4.44511E-04 9.38443E-02-8.67892E-14-1.10857E-13
 -1       345 1.95548E+01-6.64728E-02-7.70568E-04 4.29595E-02-6.98268E-14-1.43058E-13
 -1       346 1.95406E+01-9.24706E-02-1.06185E-03-3.80300E-02-1.33737E-13-1.66569E-13
 -1       347 1.94996E+01-1.18443E-01-1.32056E-03-1.48100E-01-1.80863E-14-2.18722E-13
 -1       348 1.94199E+01-1.42292E-01-1.51797E-03-2.85667E-01 4.71463E-14-2.45473E-13
 -1       349 1.92904E+01-1.58913E-01-1.59816E-03-4.45627E-01 6.35096E-14-1.33901E-13
 -1       350 1.91025E+01-1.60288E-01-1.49006E-03-6.16144E-01-6.38196E-14-1.16766E-13
 -1       351 1.88527E+01-1.36848E-01-1.12548E-03-7.76076E-01-1.33800E-13-2.33695E-13
 -1       352 1.85463E+01-8.07205E-02-4.76333E-04-8.94675E-01-6.74749E-14-2.27162E-13
 -1       353 1.82017E+01 9.39462E-03 4.14438E-04-9.35585E-01-8.28600E-14-2.40097E-13
 -1       354 1.78534E+01 1.23533E-01 1.41446E-03-8.66296E-01-1.76323E-14-2.18887E-13
 -1       355 1.75492E+01 2.39246E-01 2.34611E-03-6.71411E-01-1.13711E-13-2.23645E-13
 -1       356 1.73409E+01 3.26746E-01 3.00788E-03-3.64369E-01-8.09778E-14-3.70773E-13
 -1       357 1.72696E+01 3.60110E-01 3.25705E-03 9.77925E-03-1.19012E-14-4.51276E-13
 -1       358 1.73510E+01 3.29107E-01 3.04075E-03 3.85213E-01 8.87774E-14-3.29163E-13
 -1       359 1.75703E+01 2.44039E-01 2.41213E-03 6.96169E-01 6.13601E-14-2.89699E-13
 -1       360 1.78876E+01 1.30769E-01 1.50216E-03 8.97632E-01 8.03833E-15-4.62793E-13
 -1       361 1.82519E+01 1.90605E-02 5.23611E-04 9.76115E-01-1.67123E-16-5.55179E-13
 -1       362 1.86164E+01-6.86295E-02-3.40020E-04 9.46958E-01-8.07198E-14-3.57777E-13
 -1       363 1.89475E+01-1.22366E-01-9.61881E-04 8.42591E-01 6.21644E-14-1.61095E-13
 -1       364 1.92270E+01-1.43544E-01-1.30143E-03 6.99186E-01 1.67246E-13-1.69869E-13
 -1       365 1.94501E+01-1.40223E-01-1.38994E-03 5.47127E-01-1.05586E-14-1.55821E-13
 -1       366 1.96201E+01-1.22287E-01-1.29849E-03 4.06870E-01 1.13778E-13-7.82612E-14
 -1       367 1.97450E+01-9.82652E-02-1.10547E-03 2.89052E-01 8.54545E-14-5.27360E-14
 -1       368 1.98338E+01-7.40360E-02-8.76165E-04 1.96795E-01-3.92867E-14 8.62977E-14
 -1       369 1.98950E+01-5.28486E-02-6.54604E-04 1.28530E-01 4.19084E-14-4.99262E-14
 -1       370 1.99361E+01-3.59606E-02-4.64582E-04 8.04008E-02-8.11070E-14-1.05222E-13
 -1       371 1.99629E+01-2.33917E-02-3.14590E-04 4.79109E-02 4.41217E-14-8.38455E-14
 -1       372 1.99798E+01-1.45407E-02-2.03568E-04 2.68677E-02-1.45212E-13-9.15314E-14
 -1       373 1.99902E+01-8.59991E-03-1.25685E-04 1.38010E-02 1.12471E-13 1.12558E-13
 -1       374 1.99962E+01-4.78678E-03-7.36021E-05 6.05633E-03-7.01779E-14 3.34911E-14
 -1       375 1.99994E+01-2.44679E-03-4.03188E-05 1.72009E-03-8.53961E-15 2.58206E-13
 -1       376 2.00010E+01-1.07991E-03-2.00180E-05-5.21877E-04-5.49810E-14 3.54533E-14
 -1       377 2.00017E+01-3.27909E-04-8.25438E-06-1.53425E-03-9.18301E-14 5.11657E-14
 -1       378 2.00017E+01 5.34898E-05-1.83929E-06-1.86280E-03 4.01222E-13-1.45653E-13
 -1       379 2.00015E+01 2.24604E-04 1.41128E-06-1.83657E-03 3.79457E-13 5.24729E-14
 -1       380 2.00012E+01 2.87952E-04 2.92476E-06-1.64214E-03 1.96445E-13 5.89157E-14
 -1       381 2.00008E+01 3.08712E-04 3.60812E-06-1.37516E-03 1.50397E-13 7.45165E-14
 -1       382 2.00005E+01 3.28487E-04 3.84465E-06-1.07440E-03 4.03980E-13 1.62992E-13
 -1       383 2.00002E+01 3.70296E-04 3.43021E-06-7.47674E-04 9.27058E-15 2.08164E-13
 -1       384 2.00613E+01 3.57783E-01 8.14037E-03 4.75440E-01 2.34147E-13 1.81193E-13
 -1       385 2.04808E+01 7.06656E-01 1.29486E-02 1.05350E+00 3.34838E-13 2.67274E-13
 -1       386 1.98073E+01 1.90540E-01 4.72307E-03 1.51758E-01 1.71947E-13 9.34052E-14
 -1       387 1.96748E+01 1.04148E-01 2.11059E-03-3.44752E-02 1.17995E-13 8.88088E-14
 -1       388 1.96281E+01 6.21513E-02 1.12512E-03-1.45025E-01 9.38456E-14 1.08722E-13
 -1       389 1.96397E+01 4.74361E-02 8.54585E-04-2.18583E-01 1.16067E-13 6.00936E-14
 -1       390 1.96920E+01 5.60372E-02 1.02667E-03-2.83129E-01 6.98967E-14 3.18290E-14
 -1       391 1.97750E+01 9.08247E-02 1.62383E-03-3.64537E-01 5.26055E-14 2.34239E-14
 -1       392 1.98840E+01 1.61171E-01 2.76283E-03-4.92639E-01 3.80633E-14-2.67926E-14
 -1       393 2.00152E+01 2.84310E-01 4.61216E-03-7.06740E-01 9.77278E-15-5.08821E-14
 -1       394 2.01583E+01 4.86769E-01 7.26981E-03-1.06086E+00 2.39533E-14 1.40275E-14
 -1       395 2.02838E+01 8.01503E-01 1.05685E-02-1.62638E+00 5.44460E-14-6.05652E-14
 -1       396 2.03222E+01 1.24724E+00 1.46620E-02-2.48465E+00 4.46826E-14-4.33047E-14
 -1       397 2.01508E+01 1.74961E+00 2.42722E-02-3.69032E+00-1.10277E-13 1.35350E-14
 -1       398 1.96832E+01 1.96470E+00 5.04807E-02-5.11921E+00-2.53422E-13 5.13001E-14
 -1       399 1.91729E+01 8.88870E-01 1.51737E-01-6.50599E+00-3.91097E-13 2.06370E-13
 -1       400 3.10921E+01-5.81564E+00-6.33145E-02 2.74451E+00-1.91513E-13 6.65787E-14
 -1       401 2.60752E+01-2.13707E+00 1.62608E-01 6.10542E+00-3.05408E-13-3.01495E-14
 -1       402 2.40642E+01 7.26040E-01 1.11853E-01 6.10254E+00-3.69878E-13 9.58972E-14
 -1       403 2.29754E+01 1.33094E+00 3.33956E-02 4.78327E+00-2.13163E-13 9.10076E-14
 -1       404 2.22151E+01 1.12044E+00 1.73453E-02 3.26597E+00-1.55689E-13-2.72528E-13
 -1       405 2.15657E+01 7.67016E-01 1.35027E-02 2.08711E+00-2.11734E-13-4.51192E-13
 -1       406 2.10530E+01 4.81798E-01 1.09099E-02 1.28040E+00-2.21546E-13-2.62517E-13
 -1       407 2.06811E+01 2.89799E-01 8.00827E-03 7.65055E-01 1.20382E-13-1.25572E-13
 -1       408 2.04360E+01 1.75130E-01 5.21549E-03 4.59787E-01 1.76568E-13 3.84376E-14
 -1       409 2.02654E+01 1.01227E-01 3.31243E-03 2.64351E-01 7.19305E-14 3.90802E-13
 -1       410 2.01581E+01 5.76942E-02 1.98026E-03 1.49158E-01 1.61842E-13 1.39294E-13
 -1       411 2.00923E+01 3.23672E-02 1.15006E-03 8.23780E-02 3.24008E-13 7.67903E-14
 -1       412 2.00530E+01 1.78082E-02 6.56448E-04 4.43349E-02-1.54000E-13 1.29770E-13
 -1       413 2.00300E+01 9.54842E-03 3.68164E-04 2.31056E-02-2.85335E-13 4.41063E-13
 -1       414 2.00168E+01 4.94093E-03 2.02197E-04 1.15620E-02 1.25390E-13 2.52955E-13
 -1       415 2.00094E+01 2.42894E-03 1.08082E-04 5.49525E-03 2.15554E-13-5.85706E-15
 -1       416 2.00054E+01 1.10266E-03 5.57158E-05 2.45228E-03-9.35952E-14 3.41305E-14
 -1       417 2.00032E+01 4.34621E-04 2.73227E-05 1.02606E-03-3.09575E-13-4.11248E-13
 -1       418 2.00019E+01 1.22628E-04 1.24834E-05 4.25731E-04 3.06297E-13-4.53262E-13
 -1       419 2.00012E+01-3.42177E-06 5.14521E-06 2.18133E-04 1.50244E-13-2.09296E-13
 -1       420 2.00008E+01-3.68113E-05 1.83255E-06 1.73776E-04-2.89341E-13-3.52720E-13
 -1       421 2.00005E+01-2.69797E-05 5.81719E-07 1.76218E-04 3.42317E-13-6.29077E-13
 -1       422 2.00002E+01 4.65392E-07 2.38197E-07 1.70089E-04 5.32463E-13-5.26635E-13
 -1       423 2.00000E+01 3.14538E-05 3.97666E-07 1.35343E-04 2.43773E-13-2.47315E-13
 -1       424 1.99999E+01 4.98044E-05 9.74018E-07 7.16973E-05-3.03578E-13 9.81616E-14
 -1       425 1.99999E+01 5.92315E-05 7.55917E-07 4.94280E-05-2.05866E-13-1.47089E-13
 -1       426 1.99999E+01 2.98160E-04 1.45336E-06 3.29999E-04-2.62687E-13 3.44378E-13
 -1       427 1.99999E+01 1.56996E-04 1.05259E-06 1.70327E-04 3.18799E-15-9.02283E-14
 -1       428 1.99999E+01 5.14966E-04 1.18268E-06 4.81004E-04-1.94618E-13 4.83763E-13
 -1       429 1.99999E+01 7.76087E-04 5.67496E-07 5.84383E-04 5.00129E-15 2.52969E-13
 -1       430 1.99998E+01 1.06265E-03-2.99586E-07 6.15614E-04-2.57616E-13 1.11791E-13
 -1       431 1.99997E+01 1.33405E-03-1.29158E-06 5.57226E-04-1.22409E-13 2.21238E-13
 -1       432 1.99996E+01 1.55241E-03-2.20044E-06 4.08886E-04 1.09967E-13-1.46303E-13
 -1       433 1.99996E+01 1.68424E-03-2.85354E-06 1.84615E-04 1.46528E-14-3.46997E-13
 -1       434 1.99996E+01 1.70532E-03-3.08350E-06-8.84810E-05-1.25725E-13 5.78444E-14
 -1       435 1.99996E+01 1.60765E-03-2.69795E-06-3.66483E-04 2.42274E-14 2.33317E-13
 -1       436 1.99996E+01 1.39272E-03-1.76139E-06-6.08997E-04 3.06998E-13 3.70514E-13
 -1       437 1.99997E+01 1.08538E-03-6.84311E-07-7.56464E-04 2.23571E-15-1.39396E-13
 -1       438 1.99999E+01 7.24251E-04 1.53298E-06-7.54104E-04-1.97716E-13-5.07517E-13
 -1       439 2.25093E+01-5.97062E+00-4.79533E-02 5.44704E+00-1.74166E-13 4.15043E-13
 -1       440 4.96144E-01-3.90563E+00 5.27918E-03-3.20870E+00 1.99445E-13 4.28713E-13
 -1       441 1.97850E+01 3.44002E+00-2.07030E-02-1.72793E+00-2.32701E-13-4.85755E-13
 -1       442 1.62181E+01-5.68524E+00-1.04512E-01-6.19704E+00 1.02418E-14-9.60829E-14
 -1       443 5.18568E+00-4.98360E+00-9.66256E-02-4.24654E+00-1.85685E-14-5.78260E-13
 -1       444 4.76764E-01-4.58021E+00-7.77738E-02-5.78340E-01 3.49824E-14-7.48790E-13
 -1       445 1.71603E+00-3.65602E+00 4.76444E-02 4.78382E+00-1.91999E-14-9.85351E-13
 -1       446 6.61917E+00-4.57753E+00 8.49123E-03 7.94578E+00-7.32747E-15-9.78884E-13
 -1       447 1.64683E+01-4.92333E+00 8.31249E-03 9.08876E+00-1.89654E-13-3.96886E-13
 -1       448 2.50104E+01-3.53474E+00 1.97935E-03 7.69696E+00-2.75405E-13-3.98140E-13
 -1       449 3.22729E+01-5.30861E-01 1.43563E-02 4.95569E+00-4.38816E-13-2.03226E-13
 -1       450 3.72748E+01 4.26013E+00-3.68647E-03 1.28284E+00-6.05009E-13-2.07265E-13
 -1       451 4.04123E+01 8.52826E+00 5.83432E-02 4.32723E-01-7.60197E-13-3.09835E-13
 -1       452 3.96516E+01 9.90507E+00-2.76816E-03-7.44051E-03-6.94694E-13-3.22489E-13
 -1       453 3.95018E+01 7.98704E+00 1.88954E-02-3.96589E-01-7.61183E-13-2.66967E-13
 -1       454 3.60298E+01 2.86274E+00-4.95449E-02-1.47871E+00-4.51986E-13-4.68334E-13
 -1       455 3.11647E+01-1.07375E+00 1.14042E-02-5.60858E+00-1.45904E-13-1.94483E-13
 -1       456 2.30189E+01-4.14141E+00 7.82518E-03-8.19777E+00 2.25250E-13 4.49800E-13
 -1       457 1.28338E+01-4.97038E+00-2.42454E-02-9.08259E+00 2.73337E-13 7.56426E-13
 -1       458 4.35020E+00-5.03705E+00-6.28442E-02-7.03284E+00 7.14290E-14 6.51521E-13
 -1       459 2.03628E+00-3.10174E+00 6.63651E-02 1.93077E+00-1.42594E-14-2.01228E-14
 -1       460 2.73636E+01-5.97380E+00-7.06281E-02-4.29770E+00-2.79221E-14 1.38986E-13
 -1       461 2.07176E+01-2.42840E+00 1.44062E-01-6.72244E+00-3.45779E-13 1.72237E-13
 -1       462 1.97262E+01 3.10277E+00-5.37227E-03-6.34371E-01-3.32458E-14-4.86349E-13
 -1       463 1.98236E+01 2.92864E+00-5.86766E-03-9.51616E-01-1.04198E-13-5.11956E-13
 -1       464 1.96561E+01 3.23093E+00-5.00613E-03 8.57403E-03 1.01120E-13-4.48081E-13
 -1       465 1.96742E+01 3.20147E+00-5.08757E-03 3.29033E-01 1.74086E-13-4.30749E-13
 -1       466 1.97284E+01 3.10810E+00-5.39700E-03 6.42852E-01 2.30147E-13-4.08335E-13
 -1       467 1.98280E+01 2.93365E+00-5.96790E-03 9.57089E-01 3.10577E-13-3.31469E-13
 -1       468 1.99867E+01 2.65099E+00-6.59792E-03 1.25121E+00 3.57370E-13-2.76293E-13
 -1       469 2.02129E+01 2.21101E+00-6.77268E-03 1.48259E+00 3.81430E-13-1.54604E-13
 -1       470 2.04396E+01 1.46812E+00-3.17714E-03 1.39854E+00 3.62138E-13 1.32640E-14
 -1       471 2.03465E+01 9.69431E-01 2.69884E-03-9.45033E-01-2.47881E-13-2.14234E-13
 -1       472 8.88508E+00-1.37474E-01 2.02936E-01 4.88498E+00-5.79051E-14 3.48221E-13
 -1       473 2.01717E+01 5.37638E-01 2.01142E-03-4.73328E-01-1.74534E-13-1.76847E-13
 -1       474 2.00223E+01 2.91097E-01 1.05663E-03-1.78552E-01-1.22535E-13-1.21613E-13
 -1       475 1.99186E+01 1.39178E-01 3.88029E-04-8.69588E-03-8.76659E-14-1.26125E-13
 -1       476 1.98556E+01 3.79354E-02 5.31030E-05 7.45590E-02-1.02473E-13-1.87979E-13
 -1       477 1.98222E+01-3.64400E-02-1.38863E-04 9.51770E-02-7.60847E-14-2.07613E-13
 -1       478 1.98075E+01-9.77917E-02-2.82569E-04 6.71020E-02-5.54176E-14-1.64957E-13
 -1       479 1.98019E+01-1.54287E-01-4.11460E-04-2.58488E-03-8.43235E-14-1.36116E-13
 -1       480 1.97970E+01-2.09674E-01-5.33155E-04-1.11050E-01-8.83532E-14-3.60255E-14
 -1       481 1.97845E+01-2.62994E-01-6.39603E-04-2.57082E-01 2.46713E-14 5.69171E-15
 -1       482 1.97548E+01-3.07610E-01-7.10897E-04-4.37901E-01 8.58147E-14-2.60490E-14
 -1       483 1.96966E+01-3.30520E-01-7.11284E-04-6.45169E-01-1.41159E-14-1.19625E-13
 -1       484 1.95976E+01-3.13341E-01-6.05577E-04-8.60557E-01-1.14594E-13-9.37323E-14
 -1       485 1.94466E+01-2.36508E-01-3.59069E-04-1.05229E+00-1.01775E-13-3.56863E-14
 -1       486 1.92402E+01-8.77307E-02 1.91963E-05-1.17539E+00-1.24360E-13-2.73528E-14
 -1       487 1.89902E+01 1.26860E-01 4.67711E-04-1.17906E+00-8.96661E-14-3.43597E-14
 -1       488 1.87290E+01 3.74288E-01 8.65628E-04-1.02279E+00-6.36452E-14-1.47601E-13
 -1       489 1.85075E+01 5.97082E-01 1.19286E-03-6.97392E-01-1.56944E-13-3.47455E-14
 -1       490 1.83805E+01 7.30973E-01 1.37147E-03-2.40326E-01-9.06413E-14-1.38841E-13
 -1       491 1.83837E+01 7.33402E-01 1.40195E-03 2.67452E-01 5.60467E-14-1.65815E-13
 -1       492 1.85175E+01 6.04522E-01 1.27836E-03 7.27738E-01 3.28572E-14-1.49707E-13
 -1       493 1.87465E+01 3.86808E-01 9.37430E-04 1.05977E+00-5.84666E-14-1.55230E-13
 -1       494 1.90167E+01 1.44341E-01 5.10544E-04 1.22595E+00-8.38625E-14-2.74880E-13
 -1       495 1.92776E+01-6.53782E-02 6.64733E-05 1.23528E+00 8.65163E-14-3.58824E-13
 -1       496 1.94969E+01-2.09414E-01-2.98777E-04 1.12812E+00 5.75359E-14-1.53068E-13
 -1       497 1.96631E+01-2.81818E-01-5.31756E-04 9.54987E-01 7.28950E-14-1.06188E-13
 -1       498 1.97795E+01-2.95226E-01-6.27422E-04 7.60331E-01 9.95745E-14-1.72947E-13
 -1       499 1.98567E+01-2.69776E-01-6.16469E-04 5.75056E-01 4.28864E-14-1.57773E-13
 -1       500 1.99061E+01-2.24805E-01-5.40671E-04 4.16031E-01 1.15996E-13-1.30015E-13
 -1       501 1.99374E+01-1.74767E-01-4.37232E-04 2.89220E-01 5.59054E-14-1.18226E-13
 -1       502 1.99576E+01-1.28450E-01-3.31574E-04 1.93688E-01-1.12858E-13-2.67910E-14
 -1       503 1.99709E+01-8.99810E-02-2.38165E-04 1.25006E-01-2.36684E-14 3.50980E-14
 -1       504 1.99800E+01-6.03571E-02-1.62955E-04 7.75885E-02 4.29319E-14-3.15694E-15
 -1       505 1.99864E+01-3.88372E-02-1.06483E-04 4.60427E-02 6.25782E-14 1.85943E-13
 -1       506 1.99910E+01-2.39451E-02-6.64171E-05 2.57975E-02 9.15195E-14 2.65655E-13
 -1       507 1.99942E+01-1.40748E-02-3.93628E-05 1.32807E-02-6.64245E-14 1.85415E-13
 -1       508 1.99965E+01-7.79607E-03-2.19015E-05 5.85979E-03 7.40824E-14 3.11952E-13
 -1       509 1.99980E+01-3.96624E-03-1.11507E-05 1.68316E-03-6.31498E-14 4.08591E-13
 -1       510 1.99990E+01-1.73678E-03-4.85692E-06-5.01133E-04-1.75086E-13 3.44986E-13
 -1       511 1.99996E+01-5.10619E-04-1.38510E-06-1.50954E-03 5.82595E-14 1.64478E-13
 -1       512 1.99999E+01 1.15087E-04 3.85228E-07-1.85541E-03 6.24636E-13 1.64693E-13
 -1       513 2.00000E+01 4.03539E-04 1.20652E-06-1.84833E-03 1.77925E-13 2.50326E-13
 -1       514 2.00001E+01 5.23053E-04 1.42847E-06-1.66402E-03 2.88752E-13 8.93365E-14
 -1       515 2.00001E+01 5.79381E-04 1.65122E-06-1.39592E-03 3.05870E-13 8.10244E-14
 -1       516 2.00000E+01 6.44495E-04 1.91448E-06-1.09466E-03-1.05269E-13-5.19761E-13
 -1       517 2.00404E+01 3.32101E-01 1.11518E-03 1.62360E-01 1.66698E-13-5.83374E-14
 -1       518 1.99402E+01 1.96269E-01 4.86312E-04-3.92522E-02 1.05881E-13-9.64338E-14
 -1       519 1.98797E+01 1.30089E-01 3.26109E-04-1.68656E-01 1.16266E-13-1.15365E-13
 -1       520 1.98470E+01 1.13856E-01 3.29586E-04-2.61399E-01 1.10584E-13-5.09689E-14
 -1       521 1.98260E+01 1.44798E-01 4.89315E-04-3.45733E-01 1.06734E-13-6.19943E-14
 -1       522 1.97968E+01 2.30778E-01 8.34897E-04-4.48136E-01 5.44418E-14-1.13408E-13
 -1       523 1.97297E+01 3.90275E-01 1.42935E-03-5.96447E-01 3.17720E-14-7.83664E-14
 -1       524 1.95753E+01 6.53011E-01 2.34005E-03-8.21311E-01 3.83211E-14-1.35546E-13
 -1       525 1.92477E+01 1.05736E+00 3.74068E-03-1.15451E+00 5.22759E-14-2.04295E-13
 -1       526 1.85991E+01 1.63495E+00 6.29695E-03-1.62254E+00 3.98406E-14-1.55505E-13
 -1       527 1.73945E+01 2.35565E+00 1.55556E-02-2.23399E+00-3.50775E-14-1.77747E-13
 -1       528 1.54452E+01 2.96908E+00 4.29317E-02-2.94689E+00-1.04736E-13-2.38226E-13
 -1       529 1.21509E+01 3.03250E+00 1.69532E-01-3.86118E+00-3.63215E-13-3.85490E-13
 -1       530 3.58842E+00 4.81475E-01 1.93306E-01 1.10326E+00-1.44501E-13-7.73437E-13
 -1       531 1.89290E+01 1.90651E+00 1.41288E-02 2.50947E+00-4.28058E-14-6.36210E-14
 -1       532 1.95759E+01 1.28981E+00 8.26965E-03 1.66759E+00-2.47098E-13-1.43022E-13
 -1       533 1.98794E+01 8.22592E-01 5.59764E-03 1.07119E+00-1.17902E-13-1.86492E-13
 -1       534 2.00001E+01 5.19678E-01 3.74988E-03 6.84084E-01 1.17678E-13-1.61752E-13
 -1       535 2.00425E+01 3.12979E-01 2.33630E-03 4.16676E-01-1.87692E-14-8.88228E-14
 -1       536 2.00483E+01 1.85203E-01 1.39838E-03 2.48427E-01 1.32963E-13 8.75024E-14
 -1       537 2.00412E+01 1.07770E-01 8.11976E-04 1.44954E-01 3.64021E-13 4.28089E-13
 -1       538 2.00312E+01 6.16004E-02 4.60762E-04 8.27106E-02 1.69164E-13 2.66272E-13
 -1       539 2.00223E+01 3.44780E-02 2.56978E-04 4.60709E-02-4.61404E-13 2.46057E-13
 -1       540 2.00154E+01 1.87972E-02 1.40392E-04 2.49967E-02-8.54198E-14 2.64341E-13
 -1       541 2.00104E+01 9.90301E-03 7.46100E-05 1.31911E-02 5.16347E-13 2.46391E-13
 -1       542 2.00070E+01 4.97977E-03 3.81605E-05 6.78210E-03 2.17880E-13 3.33356E-13
 -1       543 2.00047E+01 2.34170E-03 1.84734E-05 3.43482E-03 2.29621E-13-1.57412E-13
 -1       544 2.00032E+01 9.91543E-04 8.22798E-06 1.76981E-03 1.63784E-13-2.92686E-13
 -1       545 2.00022E+01 3.48321E-04 3.18598E-06 9.90696E-04-1.01370E-13-1.99032E-13
 -1       546 2.00014E+01 8.03510E-05 9.20054E-07 6.49713E-04-5.02422E-14 1.01591E-13
 -1       547 2.00009E+01 3.16641E-06 7.89304E-08 5.02829E-04 4.18571E-13-3.27011E-13
 -1       548 2.00006E+01 1.71792E-05 1.51305E-08 4.22429E-04 4.34807E-13-2.79071E-13
 -1       549 2.00003E+01 6.73165E-05 5.33273E-07 3.48253E-04 3.31109E-13 6.16642E-14
 -1       550 2.00000E+01 1.27699E-04 9.86772E-07 2.07785E-04-3.36929E-13-1.47424E-13
 -1       551 2.00000E+01 5.55976E-04 4.74842E-07 7.55627E-04-2.04265E-13 7.11056E-13
 -1       552 1.99999E+01 7.90393E-04 1.38611E-07 8.39961E-04 2.49585E-13-1.01836E-13
 -1       553 2.00001E+01 3.47445E-04 8.08993E-07 5.85171E-04 7.14758E-15 3.48160E-13
 -1       554 1.99997E+01 1.02079E-03-3.40304E-07 8.11578E-04 1.79547E-13 2.44914E-13
 -1       555 1.99995E+01 1.21840E-03-8.39352E-07 6.63275E-04-4.51068E-14 2.52947E-14
 -1       556 1.99994E+01 1.35892E-03-1.23423E-06 4.06541E-04-1.44539E-13-3.35165E-13
 -1       557 1.99993E+01 1.42436E-03-1.51498E-06 6.90427E-05-3.01329E-13-2.04127E-13
 -1       558 1.99993E+01 1.40444E-03-1.59896E-06-3.00741E-04-1.99121E-13 3.96382E-13
 -1       559 1.99993E+01 1.29389E-03-1.16141E-06-6.61674E-04-5.53812E-14 8.57364E-13
 -1       560 1.99995E+01 1.09088E-03-5.69329E-07-9.36832E-04-2.19573E-14-9.13632E-14
 -1       561 1.99997E+01 8.80716E-04 8.55789E-07-1.07102E-03 1.11978E-13-2.54049E-13
 -1       562 3.31209E+01 5.01260E+00-1.84676E-01 1.45956E+00-3.65957E-13-7.05970E-13
 -1       563 1.77083E+01 2.50930E+00 3.48947E-02 3.61596E+00-3.16856E-14-1.88708E-14
 -1       564 1.57556E+01 2.58230E+00 1.16378E-01 4.92192E+00-2.18374E-13 8.02899E-14
 -1       565 3.21478E+01-1.18802E+00-8.08658E-02-1.51956E+00-2.20865E-14-5.28882E-13
 -1       566 2.02987E+01 8.35700E-01 2.61692E-03 7.88958E-01 3.01995E-13 4.59672E-15
 -1       567 1.96728E+01 3.19912E+00-5.09079E-03-3.12820E-01 4.02346E-14-4.71708E-13
 -1       568 2.01596E+01 5.22262E-01 1.74012E-03 4.19790E-01 2.31855E-13-2.53993E-14
 -1       569 1.10340E+01-8.25730E-01 1.85933E-01-5.87039E+00-2.50099E-13-2.42265E-13
 -1       570 5.50240E+00-7.49317E-01 2.03752E-01-5.67525E+00 1.31402E-13 6.36810E-13
 -1       571 2.34012E+01-5.00635E+00 6.62275E-02 7.41000E+00 9.73943E-14-1.24456E-13
 -1       572 5.69491E+00-3.21858E-02 2.26658E-01-2.77853E+00-2.50459E-13-6.03059E-13
 -1       573 2.03966E+01 1.77217E+00-4.88310E-03-1.54948E+00-3.14539E-13-2.75260E-13
 -1       574 7.71331E+00-6.28667E-01 2.22927E-01 6.53509E+00 1.17857E-13-8.40716E-13
 -1       575 2.86328E+01-4.20218E+00-3.39213E-02 4.64410E+00 1.37772E-14-4.41105E-14
 -1       576 3.30672E+01 5.79610E-02-9.42043E-02 7.20291E-01-2.96922E-13 6.48093E-15
 -1       577 3.34034E+01 6.03379E+00-1.91797E-01-1.46288E+00-6.22696E-13 2.14051E-13
 -1       578 1.12045E+01-3.04836E+00 1.40795E-01-8.67416E+00 2.25403E-13 5.56361E-13
 -1       579 3.33444E+01 8.60904E+00-1.98471E-01 9.66818E-01-5.99798E-13-3.18391E-13
 -1       580 2.83503E+01-4.14523E+00 6.53190E-03-5.11223E+00 1.13187E-13-3.82347E-13
 -1       581 2.00586E+01-4.77513E+00 7.25208E-02-8.52322E+00 3.24449E-13 6.33305E-13
 -1       582 3.32969E+01 8.92455E+00-2.00647E-01-7.88520E-01-6.27956E-13-5.94282E-14
 -1       583 4.34479E+00 8.97996E-01 2.42495E-01-3.29729E-01 1.48270E-13 8.14487E-14
 -1       584 1.46185E+01-3.64138E+00 1.38210E-01 8.91024E+00 2.05072E-13-4.01075E-13
 -1       585 1.99785E+01 2.65866E+00-5.89525E-03-1.25666E+00-1.93420E-13-4.52539E-13
 -1       586 1.68921E+01-8.47334E-01 1.81037E-01 6.58961E+00-2.15224E-13 2.48461E-13
 -1       587 3.14149E+01 2.58196E+00-1.22805E-01-1.66092E+00-3.92832E-13 2.75360E-13
 -1       588 2.00001E+01 2.25235E-04 9.93181E-07 3.85626E-04 2.26208E-14-5.32823E-14
 -1       589 3.13313E+01 1.37230E+00-1.19351E-01 1.28007E+00-1.72997E-13-7.35984E-13
 -1       590 1.99495E+01 2.46107E+00-1.61053E-03 3.95584E-01 1.70669E-13-3.65954E-13
 -1       591 1.99181E+01 2.53098E+00-1.51110E-03 1.38982E-01 9.75704E-14-3.83413E-13
 -1       592 2.01158E+01 2.06480E+00-1.46300E-03 8.48954E-01 2.89428E-13-2.71965E-13
 -1       593 2.02351E+01 1.70791E+00 6.83224E-05 9.96666E-01 3.30232E-13-2.14205E-13
 -1       594 2.03142E+01 1.26895E+00 8.89980E-04 9.37020E-01 3.18959E-13-1.04241E-13
 -1       595 1.86805E+01 1.42383E+00 2.26566E-03 8.37257E-01-1.16722E-13-3.82611E-13
 -1       596 1.92744E+01 9.46526E-01 1.43287E-03 5.98194E-01-1.68843E-13-2.82687E-13
 -1       597 9.82919E+00 2.60466E+00 1.66814E-01 3.05393E+00-1.20255E-13-3.98015E-14
 -1       598 2.02888E+01 1.11514E+00 8.85886E-04-7.65301E-01-1.67848E-13-2.85312E-13
 -1       599 2.02390E+01 6.59802E-01 5.85426E-04-4.02399E-01-1.36434E-13-2.60680E-13
 -1       600 2.01688E+01 3.64855E-01 1.47291E-04-1.57043E-01-1.19624E-13-2.35731E-13
 -1       601 2.01079E+01 1.66621E-01 2.39906E-05-9.48497E-03-1.06964E-13-2.63721E-13
 -1       602 2.00660E+01 2.45607E-02-3.61905E-05 6.22977E-02-1.02995E-13-2.49148E-13
 -1       603 2.00452E+01-8.65078E-02-7.56788E-05 7.48311E-02-4.70844E-14-1.76309E-13
 -1       604 2.00450E+01-1.82922E-01-1.14132E-04 3.83166E-02-1.80334E-14-1.44200E-13
 -1       605 2.00640E+01-2.74509E-01-1.54322E-04-4.24369E-02-3.52805E-15-7.87372E-14
 -1       606 2.01001E+01-3.64670E-01-1.96116E-04-1.66442E-01-1.35062E-14 1.22587E-14
 -1       607 2.01483E+01-4.48958E-01-2.30756E-04-3.34172E-01-5.39454E-14-7.38854E-14
 -1       608 2.01993E+01-5.13106E-01-2.51136E-04-5.43916E-01-2.95148E-14-1.56396E-13
 -1       609 2.02368E+01-5.32071E-01-2.25010E-04-7.86468E-01-4.77360E-14-1.26904E-13
 -1       610 2.02383E+01-4.72690E-01-1.46444E-04-1.03852E+00-5.18099E-14-7.42289E-14
 -1       611 2.01792E+01-3.02792E-01 2.25183E-05-1.25691E+00-9.49371E-14-8.17681E-14
 -1       612 2.00436E+01-8.67721E-03 2.29976E-04-1.37849E+00-1.28555E-13-8.06181E-14
 -1       613 1.98399E+01 3.84075E-01 3.69744E-04-1.33279E+00-1.15093E-13 4.08043E-14
 -1       614 1.96109E+01 7.98634E-01 2.77542E-04-1.06972E+00-1.22220E-13 5.84832E-14
 -1       615 1.94270E+01 1.12140E+00 2.91253E-04-5.94060E-01-1.56076E-13 3.84546E-14
 -1       616 1.93573E+01 1.24538E+00 3.73446E-04 1.52691E-02-3.34048E-14 1.51129E-14
 -1       617 1.94294E+01 1.12920E+00 6.01650E-04 6.26248E-01 3.69259E-14-2.07930E-13
 -1       618 1.96153E+01 8.14797E-01 5.06183E-04 1.10727E+00-3.75689E-14-2.02981E-13
 -1       619 1.98470E+01 4.08141E-01 4.13430E-04 1.37949E+00-1.58678E-13-2.27526E-13
 -1       620 2.00538E+01 2.30531E-02 2.23376E-04 1.43766E+00-6.85126E-14-1.70774E-13
 -1       621 2.01929E+01-2.63685E-01 1.61274E-05 1.33160E+00 1.86804E-13-1.23210E-13
 -1       622 2.02559E+01-4.26693E-01-1.43970E-04 1.13150E+00 5.94792E-14-1.23526E-13
 -1       623 2.02579E+01-4.80222E-01-2.23677E-04 8.99881E-01 3.30171E-14-1.32694E-13
 -1       624 2.02232E+01-4.57178E-01-2.35467E-04 6.78975E-01 1.03008E-15-2.15706E-13
 -1       625 2.01734E+01-3.92047E-01-2.08124E-04 4.90632E-01 1.46597E-13-1.98638E-13
 -1       626 2.01234E+01-3.11918E-01-1.67318E-04 3.41715E-01 1.10646E-13-2.64839E-13
 -1       627 2.00811E+01-2.34085E-01-1.25551E-04 2.30291E-01 1.30121E-13-1.32854E-13
 -1       628 2.00492E+01-1.67372E-01-8.93140E-05 1.50438E-01-1.06348E-13-9.92994E-15
 -1       629 2.00270E+01-1.14710E-01-6.06215E-05 9.52163E-02-5.71101E-15 1.99439E-13
 -1       630 2.00129E+01-7.55997E-02-3.93908E-05 5.82042E-02 5.00107E-15 7.03905E-14
 -1       631 2.00045E+01-4.79423E-02-2.45388E-05 3.41140E-02 6.73918E-14-5.49662E-15
 -1       632 2.00001E+01-2.91911E-02-1.46402E-05 1.88892E-02-1.09865E-14 1.01620E-13
 -1       633 1.99981E+01-1.69593E-02-8.21690E-06 9.56748E-03 6.44585E-14 1.07881E-13
 -1       634 1.99975E+01-9.27504E-03-4.26259E-06 4.06862E-03 1.20168E-14 2.30022E-13
 -1       635 1.99976E+01-4.63479E-03-1.94083E-06 9.78134E-04-1.46131E-13 6.71079E-14
 -1       636 1.99980E+01-1.95580E-03-6.45558E-07-6.39141E-04-8.88970E-14 1.60322E-13
 -1       637 1.99984E+01-4.91707E-04 3.68467E-08-1.38459E-03 4.89091E-13 4.29829E-13
 -1       638 1.99988E+01 2.54185E-04 3.43458E-07-1.63349E-03 3.39188E-13 1.72324E-13
 -1       639 1.99992E+01 6.04031E-04 5.21231E-07-1.61188E-03-9.62024E-14 1.83051E-13
 -1       640 1.99994E+01 7.64410E-04 9.28554E-07-1.44747E-03 1.16920E-13-2.08143E-13
 -1       641 1.99996E+01 8.22889E-04 1.14808E-06-1.27726E-03 4.73715E-14-4.73372E-13
 -1       642 2.00179E+01 1.99849E-01 6.57591E-05-1.70224E-01 8.62283E-14-2.09310E-13
 -1       643 2.01683E+01 4.35903E-01-2.63744E-05 1.30243E-01 1.77232E-13-1.93198E-13
 -1       644 1.99396E+01 1.92676E-01 8.23106E-05-2.54565E-01 7.34860E-14-1.67753E-13
 -1       645 1.98365E+01 2.54842E-01 1.35037E-04-3.23595E-01 9.50292E-14-1.05194E-13
 -1       646 1.96759E+01 3.97691E-01 2.29483E-04-3.92670E-01 7.96307E-14-1.53793E-13
 -1       647 1.94049E+01 6.42818E-01 3.79342E-04-4.70452E-01 4.76020E-14-2.21015E-13
 -1       648 1.89378E+01 1.01853E+00 6.62975E-04-5.53759E-01 9.15784E-14-1.52334E-13
 -1       649 1.81384E+01 1.54820E+00 1.89741E-03-6.17459E-01 2.14796E-14-2.25195E-13
 -1       650 1.67981E+01 2.21930E+00 8.11634E-03-5.94159E-01 3.84649E-14-2.56404E-13
 -1       651 1.47584E+01 2.88791E+00 2.97866E-02-4.14498E-01-1.22380E-14-3.64920E-13
 -1       652 1.13279E+01 3.16339E+00 8.28696E-02 9.80086E-02-1.40264E-13-4.07847E-13
 -1       653 2.49200E+01-4.67780E+00 3.18746E-02-5.87245E+00 3.60392E-13-1.99370E-13
 -1       654 1.75939E+01 2.08911E+00 5.22355E-03 1.12300E+00 4.40304E-14-6.46188E-14
 -1       655 1.96245E+01 5.97062E-01 8.32938E-04 4.01175E-01-1.82850E-14-2.71288E-13
 -1       656 1.98129E+01 3.67891E-01 5.48017E-04 2.59265E-01 5.49381E-14-1.52553E-13
 -1       657 1.99115E+01 2.22071E-01 3.30549E-04 1.62271E-01 1.04207E-13-2.50081E-13
 -1       658 1.99617E+01 1.31469E-01 1.92129E-04 9.87747E-02 2.44742E-13-5.67963E-14
 -1       659 1.99862E+01 7.62561E-02 1.08926E-04 5.86124E-02-3.34085E-14 1.75945E-14
 -1       660 1.99975E+01 4.32165E-02 6.05673E-05 3.39717E-02-2.74531E-13-3.74003E-13
 -1       661 2.00021E+01 2.38219E-02 3.29019E-05 1.92874E-02 6.51678E-14-4.08297E-13
 -1       662 2.00035E+01 1.26863E-02 1.72889E-05 1.07891E-02 1.65282E-13-4.45860E-14
 -1       663 2.00036E+01 6.46261E-03 8.65636E-06 6.01875E-03 4.74558E-13 2.40517E-13
 -1       664 2.00030E+01 3.10240E-03 4.03911E-06 3.42625E-03 1.72408E-13 2.93927E-13
 -1       665 2.00024E+01 1.37301E-03 1.68920E-06 2.06242E-03 9.13611E-14 3.20757E-13
 -1       666 2.00018E+01 5.46887E-04 5.62972E-07 1.36261E-03-1.80757E-13 1.76189E-13
 -1       667 2.00012E+01 2.04016E-04 1.16463E-07 1.00086E-03 5.17664E-13-1.21329E-13
 -1       668 2.00008E+01 1.08138E-04-3.30646E-07 7.93943E-04 4.14712E-13 1.43819E-13
 -1       669 2.00005E+01 1.36800E-04 6.94428E-07 6.44196E-04 2.47650E-13 9.01091E-14
 -1       670 2.00000E+01 5.81453E-04-1.33324E-07 1.00824E-03 3.43799E-13 7.46720E-13
 -1       671 2.00002E+01 3.72307E-04 1.68223E-07 8.55781E-04 2.00129E-13 5.18351E-13
 -1       672 1.99997E+01 7.91827E-04-3.24879E-07 1.03128E-03 1.62916E-13-1.58785E-13
 -1       673 1.99992E+01 1.11567E-03-3.21426E-07 6.59276E-04 2.87288E-14-3.04234E-13
 -1       674 1.99990E+01 1.19952E-03-4.28205E-07 2.99121E-04-7.05757E-14-5.78945E-13
 -1       675 1.99989E+01 1.22281E-03-5.84903E-07-1.22055E-04-1.07538E-13 1.17376E-13
 -1       676 1.99989E+01 1.18172E-03-6.30572E-07-5.70247E-04-4.45300E-13 4.88756E-13
 -1       677 1.99991E+01 1.06842E-03-6.50338E-07-9.76961E-04-3.79131E-13 7.18443E-13
 -1       678 1.57420E+01 2.84721E+00 2.04661E-02 1.39648E+00 5.91027E-14 1.45143E-13
 -1       679 1.27420E+01 3.34526E+00 7.26562E-02 1.55220E+00-2.51207E-13-8.49477E-14
 -1       680 2.02239E+01-3.69296E+00 6.24394E-02 7.20985E+00 2.58179E-13-1.44261E-13
 -1       681 1.99995E+01 9.76018E-04-3.98111E-07 9.12100E-04-8.14995E-14 9.83688E-14
 -1       682 2.00138E+01 2.31107E+00-1.63185E-03 6.36986E-01 2.39838E-13-3.00530E-13
 -1       683 2.98477E+01-2.57784E+00-4.88905E-02 1.19324E+00-1.31276E-13 5.61079E-14
 -1       684 2.93497E+01 8.18223E+00-1.70335E-01 1.55432E-01-4.88644E-13-2.73618E-13
 -1       685 2.63557E+01-4.57581E+00 7.31206E-03 4.61518E+00 1.04895E-13-6.85476E-14
 -1       686 2.00147E+01 2.29908E+00-1.62781E-03-6.28789E-01-4.92562E-14-4.37710E-13
 -1       687 2.00907E+01 2.76418E-01 8.84364E-05-5.03581E-02 1.24399E-13-2.03985E-13
 -1       688 1.70778E+01-2.87066E+00 9.32297E-02-7.93628E+00 2.28460E-13 6.19546E-13
 -1       689 8.15712E+00 2.18651E+00 1.90550E-01 2.65368E+00-5.50328E-14-6.96984E-13
 -1       690 1.39039E+01-9.83248E-01 1.14182E-01 7.00608E+00 2.25254E-13-4.63733E-13
 -1       691 7.64969E+00 1.99092E+00 1.83304E-01-2.84311E+00-1.02293E-13 7.62404E-13
 -1       692 2.93417E+01-3.25516E+00-3.31197E-02-2.10868E+00 9.38648E-14-4.55195E-13
 -1       693 2.93987E+01 6.51759E+00-1.67655E-01-1.76217E+00-3.58318E-13 4.41973E-14
 -1       694 2.91700E+01 5.95694E+00-1.58110E-01 1.93751E+00-2.63602E-13-5.31656E-13
 -1       695 1.09346E+01-3.28676E-01 1.58756E-01-6.77826E+00-9.02681E-14 4.74822E-13
 -1       696 2.01086E+01 2.05221E+00-2.04728E-03-8.43025E-01-1.39865E-13-4.14072E-13
 -1       697 1.99190E+01 2.52723E+00-1.50695E-03-1.22930E-01 4.43431E-14-4.30612E-13
 -1       698 2.02589E+01 8.38971E-01 5.07944E-04 5.59707E-01 2.73469E-13-1.10027E-13
 -1       699 1.99511E+01 2.45190E+00-1.54667E-03-3.82017E-01-3.93695E-15-4.13253E-13
 -1       700 2.87550E+01 3.91531E+00-8.68846E-02-2.27037E+00-2.99528E-13 2.46487E-13
 -1       701 2.02604E+01 1.67548E+00-3.88479E-03-1.12390E+00-2.22120E-13-3.30294E-13
 -1       702 9.66447E+00 4.96976E-01 1.82431E-01-4.97464E+00-2.99594E-13-4.19012E-13
 -1       703 2.00003E+01 2.30883E-04 3.55547E-08 6.32772E-04 2.01646E-13 1.38113E-13
 -1       704 2.86718E+01 3.28914E+00-9.30943E-02 2.24321E+00-1.33667E-13-5.19066E-13
 -1       705 2.94211E+01-1.12394E+00-6.46247E-02 5.44426E-01-1.26392E-13-7.38354E-13
 -1       706 1.23581E+01 1.37463E+00 8.51398E-02 4.45042E+00 1.51424E-13-5.53498E-13
 -1       707 2.94255E+01-5.29552E-01-6.78992E-02-1.20119E+00-1.60564E-13 3.85896E-13
 -1       708 2.02128E+01 5.99476E-01-3.48464E-04 3.17434E-01 2.20026E-13-1.43128E-13
 -1       709 2.02848E+01 1.16612E+00 5.66072E-04 6.52250E-01 2.71311E-13-1.98462E-13
 -1       710 1.95216E+01 5.42514E-01 8.29409E-05 1.16517E-01 9.38762E-14-7.33487E-14
 -1       711 1.85588E+01 1.23923E+00 2.23014E-05 8.79939E-02-5.01711E-14-2.12476E-13
 -1       712 1.54098E+01-5.85068E-01 6.35964E-02-6.23894E+00 2.88101E-13 2.26793E-13
 -1       713 2.02923E+01 7.05383E-01 3.57857E-05-2.99867E-01-9.75327E-14-3.13731E-13
 -1       714 2.02753E+01 3.86811E-01-5.48266E-05-1.10156E-01-1.20751E-13-3.00238E-13
 -1       715 2.02512E+01 1.58427E-01-3.07043E-05 6.59378E-03-9.07649E-14-2.48866E-13
 -1       716 2.02366E+01-1.53432E-02-2.44721E-05 6.29680E-02-4.68544E-14-1.85537E-13
 -1       717 2.02417E+01-1.59035E-01-2.62463E-05 6.94680E-02 1.91175E-14-2.07296E-13
 -1       718 2.02740E+01-2.90016E-01-3.47690E-05 3.22646E-02 9.80253E-15-1.81883E-13
 -1       719 2.03392E+01-4.18694E-01-4.70816E-05-4.72678E-02 1.34469E-14-1.77533E-13
 -1       720 2.04408E+01-5.46945E-01-6.60220E-05-1.71993E-01-4.69374E-14-1.44132E-13
 -1       721 2.05766E+01-6.64922E-01-7.67323E-05-3.47138E-01-5.37075E-14-9.36348E-14
 -1       722 2.07348E+01-7.47356E-01-9.33384E-05-5.76016E-01-2.58138E-14-1.68529E-13
 -1       723 2.08903E+01-7.51840E-01-3.41850E-05-8.52422E-01-1.05168E-13-2.04782E-13
 -1       724 2.10036E+01-6.23857E-01 3.24152E-05-1.14958E+00-1.05853E-13-2.19665E-13
 -1       725 2.10290E+01-3.13651E-01 2.41994E-04-1.40844E+00-8.11010E-14-1.25829E-13
 -1       726 2.09353E+01 1.89395E-01 3.86225E-04-1.53675E+00-5.54685E-14-5.90957E-14
 -1       727 2.07347E+01 8.20321E-01 3.31538E-04-1.43063E+00-4.65858E-14-4.13944E-14
 -1       728 2.04982E+01 1.42439E+00-6.66617E-04-1.02879E+00-8.56413E-14 9.05872E-15
 -1       729 2.03378E+01 1.80130E+00-2.99205E-04-3.65601E-01-1.39490E-13 2.11127E-15
 -1       730 2.03374E+01 1.80678E+00 8.20410E-04 3.96895E-01-1.37695E-13 2.39127E-14
 -1       731 2.04947E+01 1.44141E+00 3.52753E-04 1.06217E+00 8.54273E-15-1.40201E-13
 -1       732 2.07278E+01 8.48588E-01 4.67307E-04 1.47229E+00-1.08707E-13-1.93605E-13
 -1       733 2.09254E+01 2.28149E-01 3.63133E-04 1.58909E+00-9.28429E-14-7.20677E-14
 -1       734 2.10152E+01-2.64892E-01 1.66530E-04 1.47469E+00 3.12891E-14-2.37346E-14
 -1       735 2.09849E+01-5.65541E-01-2.67416E-05 1.23219E+00 1.48982E-13-1.55594E-13
 -1       736 2.08650E+01-6.85492E-01-1.30303E-04 9.53556E-01 6.67803E-14-1.17308E-13
 -1       737 2.07006E+01-6.75121E-01-1.42783E-04 6.96719E-01-9.61596E-14-4.69670E-14
 -1       738 2.05303E+01-5.90478E-01-1.08649E-04 4.87251E-01-1.62237E-14-6.58627E-14
 -1       739 2.03785E+01-4.76418E-01-7.46253E-05 3.29390E-01 4.47285E-14-1.20414E-13
 -1       740 2.02561E+01-3.61863E-01-4.73947E-05 2.16667E-01 1.84072E-13-2.17425E-13
 -1       741 2.01646E+01-2.61849E-01-2.85338E-05 1.39207E-01 6.57105E-14-2.00085E-13
 -1       742 2.01003E+01-1.81834E-01-1.65318E-05 8.74749E-02 1.38786E-13 1.26073E-14
 -1       743 2.00574E+01-1.21693E-01-9.14329E-06 5.36766E-02-2.09912E-13-1.01500E-13
 -1       744 2.00303E+01-7.86257E-02-4.95037E-06 3.19982E-02-6.57432E-14 1.28225E-13
 -1       745 2.00141E+01-4.90114E-02-2.95432E-06 1.83401E-02-6.29708E-14-6.29393E-14
 -1       746 2.00049E+01-2.93740E-02-1.54756E-06 9.89409E-03 1.15373E-15-1.33918E-13
 -1       747 2.00002E+01-1.67894E-02-7.24013E-07 4.78652E-03 1.41724E-13-9.08432E-14
 -1       748 1.99981E+01-8.99811E-03-2.98377E-07 1.78943E-03-5.36862E-14-1.18888E-13
 -1       749 1.99974E+01-4.35224E-03-8.30252E-08 1.06850E-04 1.46078E-14 3.77428E-13
 -1       750 1.99975E+01-1.70044E-03 4.62584E-08-7.71774E-04 2.63529E-13 3.29413E-13
 -1       751 1.99979E+01-2.65348E-04 1.53483E-07-1.16880E-03 3.86031E-13 1.10852E-13
 -1       752 1.99983E+01 4.60999E-04-3.52287E-07-1.28475E-03 1.46001E-13 3.27071E-13
 -1       753 1.99988E+01 8.14090E-04-5.88594E-07-1.24266E-03-1.85052E-13 6.60994E-13
 -1       754 2.00828E+01 2.52635E-01-7.17727E-06-1.35255E-01 8.19964E-14-2.11875E-13
 -1       755 1.95134E+01 5.16318E-01-7.10243E-05-1.61548E-01 7.57904E-14-1.61919E-13
 -1       756 1.90900E+01 7.89940E-01-1.27167E-04-7.13402E-02 7.47676E-14-1.88368E-13
 -1       757 1.84265E+01 1.16629E+00-5.91463E-05 1.28999E-01 6.95073E-14-2.34672E-13
 -1       758 1.74016E+01 1.61812E+00 2.65545E-03 5.33467E-01 2.07819E-14-2.25432E-13
 -1       759 1.59748E+01 2.03061E+00 7.92324E-03 1.23430E+00 1.07841E-13-1.93614E-13
 -1       760 1.31709E+01 2.51801E+00 4.69513E-02 1.94537E+00 1.18018E-14-3.85083E-13
 -1       761 2.71308E+01-3.38830E+00-1.60306E-02 1.53018E+00 1.36372E-13 1.86436E-13
 -1       762 2.00004E+01 2.63353E-04 2.66783E-07 9.15999E-04 4.25309E-13 4.14792E-13
 -1       763 2.01720E+01 3.29065E-01 2.84544E-06-4.99445E-02 1.40237E-13-1.77509E-13
 -1       764 1.97358E+01 3.41673E-01 4.70628E-05 9.07612E-02 1.09939E-13-4.07089E-13
 -1       765 1.98584E+01 2.10106E-01 3.21614E-05 6.45153E-02 1.49467E-13-4.24883E-13
 -1       766 1.99270E+01 1.26278E-01 1.94659E-05 4.32698E-02-2.45800E-14-3.45150E-13
 -1       767 1.99644E+01 7.41259E-02 1.12648E-05 2.78773E-02-8.83997E-14-2.99956E-13
 -1       768 1.99841E+01 4.23985E-02 6.56570E-06 1.74868E-02-1.57693E-13-2.33030E-13
 -1       769 1.99941E+01 2.35427E-02 3.81024E-06 1.08245E-02 4.79222E-14-1.91247E-13
 -1       770 1.99988E+01 1.26230E-02 2.08023E-06 6.71880E-03 5.91922E-14-2.17826E-14
 -1       771 2.00008E+01 6.48736E-03 1.06465E-06 4.26749E-03 1.34346E-13 4.65540E-13
 -1       772 2.00014E+01 3.16841E-03 4.95839E-07 2.83729E-03 1.93783E-13 6.37407E-13
 -1       773 2.00014E+01 1.46470E-03 2.14286E-07 2.00967E-03 2.35172E-13 3.32305E-13
 -1       774 2.00011E+01 6.59846E-04 3.76021E-07 1.52235E-03 2.23153E-13 6.52181E-14
 -1       775 2.00008E+01 3.36461E-04 6.20943E-07 1.21837E-03 2.78749E-13 2.95164E-13
 -1       776 1.99985E+01 1.00939E-03 2.55077E-07-3.75482E-04 2.51907E-13 7.89405E-14
 -1       777 1.17119E+01 1.74618E+00 9.44614E-02-4.11959E+00 2.12556E-14 5.64063E-13
 -1       778 2.00002E+01 4.65165E-04 8.74607E-07 1.11825E-03 3.73928E-13 7.83099E-13
 -1       779 1.99985E+01 1.02042E-03 2.02923E-07 1.04927E-04 1.73478E-13-1.77433E-13
 -1       780 1.99988E+01 9.97225E-04-1.15160E-07 5.48633E-04-1.80830E-13-4.04869E-13
 -1       781 1.99985E+01 9.24631E-04 7.69296E-07-8.23112E-04 4.80342E-14 6.12750E-13
 -1       782 2.02174E+01 1.66787E+00-8.70714E-05-8.44201E-01-1.69873E-13-3.84447E-13
 -1       783 1.60293E+01 2.34596E+00 9.32280E-03-4.43813E-01 9.16239E-14 2.37634E-13
 -1       784 1.35478E+01 2.83470E+00 4.90146E-02-1.22850E+00-6.91326E-14 2.94027E-13
 -1       785 1.99609E+01 2.57033E-01-1.60594E-05-1.80144E-01 6.94726E-14-2.52342E-13
 -1       786 8.96745E+00 2.75887E+00 1.78564E-01 9.14751E-01-1.29214E-13-1.73229E-13
 -1       787 1.91602E+01 8.33938E-01 9.73293E-05 1.26294E-01-7.14167E-14-2.95417E-13
 -1       788 1.75801E+01 1.76310E+00 1.50897E-03-6.40661E-02 1.99021E-13 1.53169E-13
 -1       789 1.97838E+01 3.42357E-01-3.26125E-05-1.90522E-01 8.98636E-14-2.38354E-13
 -1       790 2.02811E+01 1.11203E+00 6.01070E-05-5.40484E-01-1.15537E-13-3.46261E-13
 -1       791 2.01261E+01 1.89945E+00-3.86763E-04 2.08115E-01 1.01546E-13-3.00824E-13
 -1       792 1.82944E+01-1.72768E+00 3.94133E-02 6.00653E+00 2.51184E-13-1.18804E-13
 -1       793 1.99998E+01 6.73179E-04 4.19131E-07 1.18134E-03-4.97937E-14-2.31300E-13
 -1       794 2.16955E+01-3.41466E+00 4.33268E-02-6.06298E+00 4.45722E-13-5.32820E-15
 -1       795 2.64633E+01-3.77804E+00 6.14921E-03-2.93185E+00 1.68819E-13-4.62487E-13
 -1       796 2.36171E+01-3.69743E+00 1.88582E-02 4.72101E+00 2.74969E-13-3.83912E-14
 -1       797 2.63253E+01 6.26275E+00-9.27641E-02-7.96387E-01-2.29587E-13 3.33246E-14
 -1       798 2.02380E+01 4.97085E-01 1.61721E-04 8.80575E-02 1.40365E-13-1.50425E-13
 -1       799 2.62541E+01 6.05522E+00-8.75199E-02 1.01478E+00-1.99393E-13-1.76936E-13
 -1       800 2.01179E+01 1.92927E+00-3.10447E-04 1.27293E-02 5.51520E-14-3.59412E-13
 -1       801 2.61592E+01 4.55226E+00-5.79691E-02 1.87422E+00-1.44424E-13-2.57288E-13
 -1       802 2.60746E+01 4.84916E+00-5.04595E-02-1.76004E+00-1.42742E-13 2.11557E-13
 -1       803 2.78440E+01 9.08822E-01-4.43588E-02 1.92666E+00-4.42060E-14-4.54905E-13
 -1       804 1.10987E+01 3.03215E+00 1.01218E-01-9.19015E-01-2.66383E-13 4.86240E-13
 -1       805 1.99991E+01 9.32381E-04 1.75555E-07 9.04224E-04-2.72189E-13-1.48889E-13
 -1       806 2.02125E+01 1.58233E+00 1.95228E-05-5.30676E-01-8.94098E-14-3.59826E-13
 -1       807 2.01581E+01 1.79254E+00-8.73449E-05 3.86096E-01 1.67406E-13-2.84064E-13
 -1       808 2.02154E+01 1.59309E+00-7.07966E-04 5.34575E-01 2.19655E-13-2.36468E-13
 -1       809 2.72662E+01-2.66257E+00-2.19575E-02-6.40415E-01 9.99934E-14-4.29672E-13
 -1       810 1.59254E+01 2.64902E-01 2.40312E-02 4.73714E+00 2.69462E-13-2.33929E-13
 -1       811 2.01672E+01 1.77223E+00-7.52265E-05-3.72323E-01-3.82826E-14-3.89143E-13
 -1       812 1.99995E+01 8.29442E-04 6.55373E-07 1.11057E-03 5.21984E-14 7.29065E-15
 -1       813 2.02822E+01 7.72682E-01 1.86763E-04 2.95005E-01 2.12583E-13-1.78913E-13
 -1       814 1.97586E+01 2.65073E-01-1.67319E-05-3.65570E-02 1.67593E-13 1.81804E-13
 -1       815 2.01323E+01 1.88657E+00-2.47482E-04-1.84280E-01 4.78900E-15-4.00576E-13
 -1       816 1.95836E+01 4.11235E-01-1.28270E-05-8.83054E-02 1.89531E-13 1.13119E-13
 -1       817 2.03607E+01 3.64033E-01-9.26755E-06-5.15639E-02-3.73598E-14-2.38691E-13
 -1       818 2.03647E+01 1.19766E-01-9.30149E-06 3.75125E-02-4.78647E-14-2.14582E-13
 -1       819 2.03770E+01-7.52805E-02-6.86122E-06 8.36746E-02-2.94782E-14-1.97452E-13
 -1       820 2.04134E+01-2.45034E-01-3.49591E-06 9.34353E-02 1.92239E-14-2.01827E-13
 -1       821 2.04881E+01-4.07678E-01-8.09351E-06 6.92795E-02-2.02273E-15-1.84734E-13
 -1       822 2.06140E+01-5.74099E-01-8.12965E-06 8.21833E-03 7.26974E-15-2.03703E-13
 -1       823 2.08006E+01-7.44492E-01-3.02157E-05-9.89786E-02-5.12293E-14-1.60973E-13
 -1       824 2.10489E+01-9.02206E-01-1.73868E-05-2.66749E-01-9.25313E-14-1.83830E-13
 -1       825 2.13439E+01-1.00708E+00-8.61210E-05-5.09466E-01-1.16610E-13-2.13805E-13
 -1       826 2.16474E+01-9.91345E-01 9.94686E-05-8.29639E-01-1.04374E-13-1.88056E-13
 -1       827 2.18932E+01-7.65969E-01 1.03563E-04-1.19930E+00 1.21940E-14-7.37866E-14
 -1       828 2.20038E+01-2.55643E-01 1.42008E-04-1.53161E+00-1.86838E-14-4.36381E-15
 -1       829 2.19258E+01 5.44972E-01 6.05615E-04-1.68257E+00-6.53151E-14 3.65429E-14
 -1       830 2.16882E+01 1.48807E+00-5.22620E-04-1.48960E+00-5.51270E-14 7.02538E-14
 -1       831 2.14217E+01 2.29812E+00 5.25153E-04-8.87396E-01-8.59573E-14 7.73408E-14
 -1       832 2.13093E+01 2.58237E+00-1.85175E-03 3.84961E-03-1.46093E-13 6.37532E-14
 -1       833 2.14173E+01 2.30012E+00 1.21510E-04 9.13619E-01-1.54603E-13-2.57165E-15
 -1       834 2.16742E+01 1.51914E+00 3.61087E-04 1.52309E+00-4.81909E-14-4.42481E-14
 -1       835 2.19030E+01 5.87401E-01 3.58054E-04 1.72383E+00-1.31918E-13-7.29874E-14
 -1       836 2.19715E+01-1.99285E-01 2.95942E-04 1.58462E+00-6.40688E-15-5.49528E-14
 -1       837 2.18502E+01-6.99023E-01-1.77791E-05 1.26551E+00 4.06950E-14 1.38682E-15
 -1       838 2.15904E+01-9.13615E-01-2.19965E-04 9.12027E-01 1.39896E-13-6.14196E-15
 -1       839 2.12703E+01-9.21756E-01-2.39943E-04 6.08120E-01 2.58110E-14-2.52741E-14
 -1       840 2.09542E+01-8.12976E-01-1.44697E-04 3.81651E-01 2.67356E-14 5.72930E-14
 -1       841 2.06802E+01-6.57694E-01-7.94605E-05 2.28733E-01-2.27050E-14 1.18781E-13
 -1       842 2.04630E+01-5.00268E-01-3.80201E-05 1.32498E-01-1.00959E-14 2.99933E-14
 -1       843 2.03019E+01-3.62786E-01-1.51378E-05 7.49719E-02 3.05366E-14-2.07440E-13
 -1       844 2.01887E+01-2.52936E-01-3.97068E-06 4.18658E-02 3.33386E-13-1.51579E-14
 -1       845 2.01126E+01-1.70403E-01 1.70744E-06 2.32706E-02 6.77163E-14 1.49553E-13
 -1       846 2.00636E+01-1.11217E-01 2.36363E-06 1.28960E-02-2.13940E-14 3.46580E-13
 -1       847 2.00333E+01-7.03165E-02 2.87109E-07 7.08613E-03-1.85965E-13 2.65825E-13
 -1       848 2.00155E+01-4.29925E-02 1.88086E-08 3.76663E-03-1.59729E-13 8.10753E-14
 -1       849 2.00055E+01-2.52822E-02 1.11285E-07 1.81013E-03 4.19967E-14-8.28863E-14
 -1       850 2.00004E+01-1.41419E-02 1.06808E-07 6.29667E-04 1.64954E-13 3.91727E-15
 -1       851 1.99981E+01-7.35308E-03-6.79798E-09-8.69031E-05 3.17050E-13 2.09811E-13
 -1       852 1.99973E+01-3.36309E-03-6.76760E-08-5.11062E-04 7.70876E-14 1.94176E-13
 -1       853 1.99973E+01-1.11557E-03 2.92917E-08-7.43832E-04 1.37653E-13 9.35773E-14
 -1       854 1.99977E+01 8.24286E-05-1.75146E-07-8.43127E-04 3.68514E-13 1.17196E-13
 -1       855 1.99981E+01 6.21212E-04-1.02775E-08-8.56624E-04 4.14359E-13 1.53606E-13
 -1       856 1.84023E+01 9.06979E-01-2.70526E-04 1.06290E+00 6.51893E-14-7.90903E-14
 -1       857 1.90089E+01 6.98980E-01-3.87812E-04 5.31537E-01 8.09396E-14-1.14698E-13
 -1       858 2.68144E+01-1.28752E+00-1.83708E-02-9.45492E-01-1.49319E-13 3.18878E-13
 -1       859 1.94471E+01 4.98503E-01-1.93448E-04 2.21518E-01 7.31695E-14-1.60445E-13
 -1       860 1.76204E+01 1.05324E+00 4.41508E-03 1.87312E+00 7.91511E-14-1.37701E-13
 -1       861 1.57738E+01 1.36306E+00 1.70029E-02 2.95207E+00 1.92179E-13-2.32755E-13
 -1       862 2.02823E+01 5.08612E-01-9.97148E-05 6.04516E-02 1.57168E-13-2.10388E-13
 -1       863 1.58555E+01 1.63832E+00 1.42893E-02-2.54481E+00 8.75619E-14-2.01208E-13
 -1       864 2.02180E+01 3.42520E-01-3.57166E-05-2.26355E-02 1.28948E-13-1.80911E-13
 -1       865 1.98640E+01 1.65953E-01-1.16326E-05-1.25307E-02 6.59292E-14 3.45822E-14
 -1       866 1.99258E+01 1.01108E-01-8.19034E-06-2.12301E-03 7.11829E-15-7.69972E-14
 -1       867 1.99612E+01 5.99203E-02-5.09077E-06 1.89211E-03-1.53619E-13-2.34125E-13
 -1       868 1.99808E+01 3.44944E-02-2.44225E-06 3.10676E-03-2.29825E-13-9.38293E-14
 -1       869 1.99913E+01 1.92447E-02-1.23438E-06 3.18754E-03-2.68057E-14 1.09616E-13
 -1       870 1.99966E+01 1.03684E-02-7.02536E-07 2.87701E-03-1.30096E-13 1.66899E-13
 -1       871 1.99991E+01 5.37737E-03-3.65212E-07 2.48336E-03-2.90297E-14 2.82040E-13
 -1       872 2.00001E+01 2.69026E-03-1.67388E-07 2.11455E-03 5.64871E-13 9.12380E-14
 -1       873 2.00005E+01 1.32805E-03 2.09142E-07 1.79685E-03 1.59942E-13 2.24874E-13
 -1       874 2.00005E+01 7.12574E-04 8.08619E-07 1.52858E-03 4.96258E-14 1.73319E-13
 -1       875 2.36970E+01-3.18375E+00 1.70291E-02-3.75884E+00 1.51069E-13-7.60250E-14
 -1       876 1.49258E+01 9.97980E-01 3.78628E-02-4.29826E+00 2.36297E-13-9.59502E-14
 -1       877 1.99981E+01 7.25086E-04-3.60148E-07-1.53274E-04 2.17227E-13 1.06275E-13
 -1       878 1.99982E+01 7.76837E-04 1.24466E-07 3.28219E-04 5.16557E-14-2.93510E-13
 -1       879 1.97540E+01 3.51201E-01-7.86415E-05 4.95570E-02 5.68328E-14-2.02329E-13
 -1       880 2.01159E+01 2.67139E-01-2.09778E-05-5.43030E-02 8.30275E-14-2.08681E-13
 -1       881 1.93043E+01-1.58270E+00 2.80740E-02-5.26977E+00 3.09581E-13 3.37987E-13
 -1       882 1.99672E+01 2.72219E-01-2.00388E-05-3.35626E-02 7.76817E-14-1.92169E-13
 -1       883 2.64393E+01 1.45698E+00-4.09086E-02-2.20250E+00-1.76735E-13 1.96443E-13
 -1       884 2.02560E+01 1.34889E+00-2.42498E-04-5.48588E-01-1.02776E-13-3.60312E-13
 -1       885 2.46315E+01-3.08831E+00 3.07329E-03 2.31048E+00 1.54891E-13 1.18082E-14
 -1       886 2.41498E+01 4.91531E+00-3.37085E-02 5.13288E-02-4.67586E-14-1.58138E-14
 -1       887 2.03125E+01 7.79713E-01 1.05095E-03 1.99541E-01 1.54729E-13-2.11973E-13
 -1       888 2.03448E+01 6.89148E-01 2.82568E-06-1.90750E-01-1.12133E-13-3.00974E-13
 -1       889 2.12356E+01-2.15362E+00 1.08965E-02 4.19292E+00 2.18582E-13-1.40074E-13
 -1       890 2.00001E+01 6.01682E-04-5.52572E-07 1.35958E-03-1.97319E-13 1.03677E-13
 -1       891 1.82020E+01 1.19688E+00 3.20491E-04-7.66199E-01 1.12158E-13-8.87082E-14
 -1       892 2.58941E+01 2.68369E+00-2.94608E-02 2.17618E+00-3.85525E-14-4.64786E-13
 -1       893 2.38847E+01 4.41092E+00-1.53415E-02-8.62304E-01-1.64268E-13 3.74292E-14
 -1       894 2.67221E+01-1.08017E+00-9.00810E-03 1.05467E+00-6.01292E-14-4.24816E-13
 -1       895 2.53793E+01-2.30157E+00-9.84522E-03 1.11815E-01 5.65435E-14 2.68228E-13
 -1       896 1.72286E+01 1.50126E+00 3.20446E-03-1.42510E+00 2.37580E-13-3.66207E-13
 -1       897 2.03082E+01 9.85350E-01-9.99226E-05-3.45987E-01-9.54694E-14-3.28165E-13
 -1       898 1.99986E+01 8.30646E-04 5.19681E-07 7.65668E-04 1.13416E-13-3.42927E-13
 -1       899 1.99980E+01 6.56035E-04-1.82177E-06-5.05068E-04 4.92698E-13 1.24216E-13
 -1       900 2.52100E+01-3.08106E+00-3.03308E-03-1.99929E+00-3.95994E-14-1.89099E-13
 -1       901 1.99996E+01 7.65559E-04-1.86723E-07 1.31955E-03 5.80744E-14 3.99696E-14
 -1       902 1.90913E+01-7.34005E-01 1.75332E-02 3.99134E+00 2.62217E-13-1.65985E-13
 -1       903 1.93048E+01 6.13961E-01-3.32555E-05-1.91986E-01-5.04314E-14-1.02520E-13
 -1       904 1.88650E+01 8.82260E-01-3.79010E-05-3.93820E-01-9.96927E-14-1.15927E-13
 -1       905 2.02969E+01 1.17218E+00-1.36436E-04-3.44077E-01-7.62697E-14-3.48551E-13
 -1       906 2.02669E+01 1.35501E+00-1.34092E-04 2.11395E-01 1.33378E-13-2.59411E-13
 -1       907 2.40162E+01 4.40058E+00-2.22403E-02 9.59235E-01 1.92858E-15-1.37138E-13
 -1       908 2.02649E+01 1.41101E+00 3.10476E-04 9.01098E-02 1.00208E-13-3.00424E-13
 -1       909 2.03094E+01 1.05930E+00-5.76040E-04 2.33775E-01 1.69758E-13-2.04824E-13
 -1       910 1.98993E+01 1.09168E-01-7.26425E-06-5.79325E-02-7.05203E-14 3.66042E-13
 -1       911 2.02859E+01 1.32767E+00 1.29961E-04-1.83989E-01-8.40772E-15-3.57715E-13
 -1       912 1.97143E+01 2.58269E-01 4.41172E-05-1.96369E-01 1.33371E-13 6.73081E-14
 -1       913 2.04273E+01 3.09631E-01 1.05948E-05 1.08480E-02-1.59729E-15-1.75151E-13
 -1       914 2.04493E+01 6.30418E-02 1.02557E-05 8.17266E-02-2.25054E-14-1.49704E-13
 -1       915 2.04829E+01-1.41644E-01 7.93146E-06 1.29293E-01 2.48858E-14-1.56537E-13
 -1       916 2.05491E+01-3.29050E-01 2.00037E-05 1.57541E-01 1.46914E-14-1.96567E-13
 -1       917 2.06686E+01-5.18901E-01 5.93437E-06 1.66019E-01-7.60178E-15-2.10997E-13
 -1       918 2.08629E+01-7.23996E-01 3.35285E-05 1.46765E-01 1.66786E-15-1.85364E-13
 -1       919 2.11502E+01-9.44380E-01-3.90924E-05 8.08556E-02-6.19243E-14-1.39725E-13
 -1       920 2.15381E+01-1.15614E+00 8.41049E-05-6.08145E-02-8.43581E-14-1.03172E-13
 -1       921 2.20104E+01-1.29870E+00 1.80401E-05-3.14210E-01-4.98839E-15 1.26120E-15
 -1       922 2.25096E+01-1.26969E+00-1.27911E-04-7.01304E-01 3.49355E-14 7.00588E-14
 -1       923 2.29343E+01-9.09044E-01-3.66261E-04-1.19305E+00 2.12237E-14 1.00209E-13
 -1       924 2.31538E+01-1.16474E-01 1.31324E-03-1.66381E+00-6.47637E-15 1.13842E-13
 -1       925 2.30505E+01 1.12462E+00-2.97114E-03-1.84248E+00-1.66447E-14 4.94338E-14
 -1       926 2.27422E+01 2.48777E+00-5.47323E-03-1.52307E+00-1.02758E-13-1.40614E-14
 -1       927 2.24702E+01 3.40000E+00-6.35499E-03 6.00755E-01-1.02857E-13 9.72282E-14
 -1       928 2.27408E+01 2.50075E+00-3.48398E-03 1.52107E+00-1.48232E-13 1.31912E-13
 -1       929 2.30284E+01 1.16727E+00-3.32833E-03 1.87174E+00-1.30887E-13 1.35951E-13
 -1       930 2.31038E+01-5.37999E-02-4.81911E-04 1.68827E+00-1.21762E-13 1.09933E-13
 -1       931 2.28787E+01-8.46243E-01-8.28078E-04 1.23796E+00 1.21592E-13 1.15753E-13
 -1       932 2.24364E+01-1.18542E+00-9.40026E-04 7.60639E-01 1.32063E-13 1.34643E-13
 -1       933 2.19142E+01-1.20585E+00-5.67220E-04 3.87543E-01 9.43888E-14 1.99932E-14
 -1       934 2.14158E+01-1.05614E+00-1.31829E-04 1.46201E-01 6.76900E-14 3.09483E-14
 -1       935 2.09956E+01-8.43616E-01 4.79445E-05 1.54099E-02 1.98511E-15 4.26150E-14
 -1       936 2.06715E+01-6.33648E-01 1.08260E-04-4.12513E-02-8.16240E-14 1.03197E-14
 -1       937 2.04361E+01-4.54672E-01 1.15117E-04-5.63628E-02 1.76608E-15-9.84270E-14
 -1       938 2.02732E+01-3.14609E-01 9.26793E-05-5.17018E-02 2.40487E-13-1.59514E-15
 -1       939 2.01649E+01-2.11114E-01 7.27151E-05-4.01462E-02 3.80809E-13-1.36124E-13
 -1       940 2.00953E+01-1.37906E-01 4.69080E-05-2.81293E-02 3.26394E-14-7.97852E-14
 -1       941 2.00521E+01-8.75778E-02 2.69543E-05-1.83258E-02-1.59829E-13-8.91422E-14
 -1       942 2.00263E+01-5.41073E-02 1.57594E-05-1.11949E-02-1.02636E-13 4.39331E-16
 -1       943 2.00114E+01-3.23712E-02 9.89655E-06-6.49854E-03-1.65336E-13 6.83123E-14
 -1       944 2.00034E+01-1.85987E-02 6.11958E-06-3.61524E-03 2.25579E-13 1.59842E-13
 -1       945 1.99994E+01-1.00992E-02 3.53602E-06-1.96921E-03 2.03258E-13 1.10702E-13
 -1       946 1.99977E+01-5.00232E-03 1.55017E-06-1.09794E-03 1.68729E-13 7.51344E-15
 -1       947 1.99972E+01-2.05624E-03 5.06036E-07-6.78341E-04 1.18721E-13 1.17826E-13
 -1       948 1.99974E+01-4.16129E-04 8.76626E-08-5.01270E-04 3.18651E-13 2.05785E-13
 -1       949 1.93299E+01 3.09100E-01 7.04574E-04 1.15114E+00 4.44421E-14-2.95050E-14
 -1       950 1.90139E+01 2.54461E-01 2.04756E-04 1.87481E+00 1.39447E-13-7.85014E-14
 -1       951 2.02570E+01 3.07070E-01-1.55906E-05 3.54058E-02 8.78748E-14-1.54520E-13
 -1       952 1.98278E+01 1.70995E-01 1.87639E-06-1.08155E-01 2.59950E-13 1.42000E-13
 -1       953 1.99977E+01 3.12423E-04 1.37011E-06 2.34542E-06 3.15800E-13-8.63137E-14
 -1       954 2.03186E+01 4.70614E-01-7.44335E-05 5.86259E-02 1.13842E-13-2.24142E-13
 -1       955 1.99430E+01 6.73741E-02-8.93203E-06-2.99146E-02 1.80216E-14 3.75309E-13
 -1       956 1.99689E+01 4.02250E-02-4.90660E-06-1.44755E-02-1.00537E-13 2.67700E-13
 -1       957 1.99837E+01 2.32729E-02-3.48388E-06-6.17557E-03-1.24977E-13 1.38896E-13
 -1       958 1.99918E+01 1.30353E-02-2.63810E-06-1.87209E-03-2.07494E-13 2.60276E-13
 -1       959 1.99962E+01 7.07056E-03-1.92012E-06 2.46810E-04 7.62557E-14 2.80943E-13
 -1       960 1.99983E+01 3.73726E-03-1.01162E-06 1.19255E-03 1.26046E-13 1.79602E-13
 -1       961 1.99993E+01 1.97095E-03-2.41266E-07 1.52325E-03 3.52210E-13 3.74909E-13
 -1       962 1.99997E+01 1.10806E-03-3.47913E-07 1.55020E-03 2.22854E-13 2.60420E-13
 -1       963 1.79664E+01 1.44831E-03 1.12144E-02-3.84997E+00 1.85247E-13 3.37685E-13
 -1       964 2.51203E+01-4.98205E-02-6.82442E-03-1.77815E+00-9.85579E-14 1.38133E-13
 -1       965 1.98313E+01 2.35722E-01-8.26290E-05 3.48255E-01 5.33973E-14-1.03988E-13
 -1       966 2.03358E+01 7.17032E-01-6.96493E-05 1.26606E-01 1.53507E-13-2.05757E-13
 -1       967 1.99990E+01 8.39180E-04-1.46859E-06 1.10676E-03 5.43176E-14-3.68455E-13
 -1       968 2.03969E+01 6.25231E-01-1.05979E-04-8.98500E-02-3.89038E-14-2.36354E-13
 -1       969 2.02707E+01 1.40055E+00 1.55327E-04-4.65344E-02 5.79525E-14-3.28807E-13
 -1       970 2.26100E+01-2.23258E+00-2.05822E-03 2.46203E+00 2.06787E-13 7.82647E-14
 -1       971 2.43925E+01 2.52936E+00-1.08664E-02-1.99555E+00-1.54893E-13-1.46146E-14
 -1       972 2.15236E+01-1.92063E+00 1.20208E-02-3.53028E+00 8.15051E-14 1.92482E-13
 -1       973 1.95986E+01 2.85287E-01-1.79277E-04 6.58065E-01 5.39513E-14-7.64006E-14
 -1       974 1.99997E+01 8.57568E-04-9.46558E-07 1.43897E-03 3.98078E-14 2.39482E-13
 -1       975 1.99980E+01 5.12825E-04-5.44269E-06 4.33578E-04 2.66698E-13-4.41904E-13
 -1       976 1.95437E+01 3.71209E-01 8.03282E-05-3.46320E-01-1.14170E-13 1.13236E-13
 -1       977 2.25733E+01 3.66252E+00-9.69292E-03-6.09021E-02-1.29867E-13-7.84676E-14
 -1       978 2.56374E+01-2.27182E+00-5.00157E-03-2.34676E-01-1.76359E-13-4.43509E-13
 -1       979 1.85057E+01 6.91666E-01 8.68148E-04-1.70358E+00 2.91683E-14 3.11597E-13
 -1       980 1.99977E+01 2.37521E-04-1.39896E-08-4.85939E-04 1.69635E-13 2.06877E-13
 -1       981 2.01575E+01 2.23037E-01-8.45323E-05 6.72152E-02 8.73166E-14-1.38684E-13
 -1       982 2.00167E+01 2.06396E-01 1.24299E-06 1.63302E-01 6.46010E-14-1.53248E-13
 -1       983 2.30261E+01-2.41807E+00-1.32602E-04-2.53319E+00-1.20514E-13 7.32935E-14
 -1       984 2.11315E+01-1.46843E+00 8.74635E-04 2.83008E+00 2.53539E-13-1.21101E-13
 -1       985 2.38063E+01-2.30683E+00-1.96623E-04 9.53484E-01 2.00501E-13 1.82798E-13
 -1       986 2.03477E+01 9.24449E-01 1.03794E-04 1.38064E-01 1.31522E-13-2.28233E-13
 -1       987 1.81581E+01 5.23181E-01 2.76803E-03-2.61955E+00 1.85234E-13 1.71116E-13
 -1       988 2.55148E+01 6.04532E-01-2.14385E-02 1.90728E+00-1.61476E-13-3.38648E-13
 -1       989 2.03522E+01 8.79017E-01-8.94462E-06-1.99764E-01-5.96432E-14-3.12086E-13
 -1       990 1.89449E+01 6.36107E-01 5.41277E-04-1.02515E+00-1.09224E-13 3.91730E-13
 -1       991 2.41891E+01 3.55810E+00-1.18067E-02 1.63006E+00-3.46628E-14-1.68418E-13
 -1       992 2.41712E+01-1.17373E+00 5.05032E-05-1.01919E+00 5.69688E-14 2.14226E-13
 -1       993 2.04952E+01 6.00608E-03 3.81754E-05 1.36949E-01-1.52782E-14-1.81405E-13
 -1       994 2.05397E+01-1.96046E-01-4.71293E-05 2.01837E-01-1.15246E-14-1.57740E-13
 -1       995 2.06262E+01-3.90001E-01 7.76025E-05 2.68702E-01-9.19968E-15-1.30971E-13
 -1       996 2.07832E+01-5.99802E-01 9.35634E-05 3.35365E-01 1.54780E-15-1.30673E-13
 -1       997 2.10459E+01-8.46917E-01 2.29084E-04 3.89554E-01 2.43790E-14-1.23352E-13
 -1       998 2.14418E+01-1.12796E+00 1.53710E-05 3.98217E-01-2.45114E-15-7.62381E-14
 -1       999 2.19986E+01-1.42298E+00 6.48940E-04 3.13553E-01 2.27773E-14 1.74589E-14
 -1      1000 2.27040E+01-1.63923E+00-6.64586E-04 4.65510E-02 3.55006E-14 1.15771E-13
 -1      1001 2.44818E+01 2.28510E-01-9.47985E-03 1.83095E+00-2.10335E-13-1.55299E-13
 -1      1002 2.41265E+01-1.03497E+00-3.72253E-03 1.15962E+00 7.60302E-15-6.63564E-14
 -1      1003 2.34275E+01-1.53599E+00 2.52993E-03 4.60515E-01 8.11665E-14-9.21759E-14
 -1      1004 2.26068E+01-1.54406E+00 1.25250E-03-1.98415E-02-3.51218E-14-3.43296E-13
 -1      1005 2.18703E+01-1.32142E+00 1.13858E-03-2.66385E-01 3.74769E-14-5.13424E-13
 -1      1006 2.12715E+01-1.02080E+00 3.12578E-04-3.44903E-01 1.35491E-13-7.07265E-13
 -1      1007 2.08339E+01-7.42831E-01 2.61752E-04-3.26110E-01-3.37741E-14-4.94619E-13
 -1      1008 2.05282E+01-5.17914E-01 3.70818E-05-2.67503E-01-2.78540E-14-2.46679E-13
 -1      1009 2.03245E+01-3.49617E-01-3.11183E-05-2.00183E-01 1.24944E-13 1.13919E-14
 -1      1010 2.01934E+01-2.30110E-01-5.14688E-05-1.40266E-01 3.27255E-13-1.75345E-13
 -1      1011 2.01114E+01-1.48204E-01 3.77495E-05-9.30821E-02 2.87636E-14-3.69769E-13
 -1      1012 2.00608E+01-9.33083E-02-5.95950E-05-5.92014E-02-1.63551E-13-6.30429E-13
 -1      1013 2.00314E+01-5.76651E-02-2.93298E-05-3.57763E-02-1.13186E-13-4.97392E-13
 -1      1014 2.00144E+01-3.47074E-02-2.25620E-05-2.07482E-02-5.47513E-14-5.07884E-13
 -1      1015 2.00051E+01-2.02180E-02-1.31836E-05-1.14218E-02 2.29668E-13-1.56112E-13
 -1      1016 2.00003E+01-1.12543E-02-6.60557E-06-5.91456E-03 3.09735E-13 6.58403E-15
 -1      1017 1.99981E+01-5.82656E-03-1.98885E-06-2.83377E-03 3.35125E-13 1.10819E-13
 -1      1018 1.99973E+01-2.61164E-03-1.03501E-06-1.20379E-03 5.12001E-14 2.23701E-13
 -1      1019 1.99973E+01-8.27215E-04-2.19596E-06-4.14290E-04 3.82804E-13 1.02057E-13
 -1      1020 2.00326E+01-3.01373E-01 1.27411E-03 1.51862E+00 1.51792E-13-7.27528E-14
 -1      1021 2.03759E+01 9.02862E-01-2.13668E-05 6.55816E-02 8.32194E-14-2.58723E-13
 -1      1022 1.99802E+01 2.07954E-02-7.72530E-06-2.10610E-02-7.59967E-14-2.99405E-14
 -1      1023 1.99888E+01 1.21192E-02-6.22514E-06-1.01037E-02-2.61840E-13 2.17425E-15
 -1      1024 1.99938E+01 6.85395E-03-5.30362E-06-4.11716E-03-5.99253E-14-1.52055E-13
 -1      1025 2.04690E+01 2.39843E-01 2.40935E-05 7.11114E-02 3.77519E-14-2.38172E-13
 -1      1026 1.99965E+01 3.80765E-03-3.99811E-06-1.00165E-03 2.30478E-13-8.48644E-14
 -1      1027 1.99980E+01 2.14217E-03-5.91930E-07 5.04776E-04 3.79852E-13-4.39100E-13
 -1      1028 1.99988E+01 1.30671E-03 1.31781E-06 1.12259E-03 1.97621E-13-4.08125E-13
 -1      1029 2.42912E+01 1.78773E+00-5.93766E-03 2.02546E+00-1.36613E-13 3.89107E-14
 -1      1030 2.05100E+01-1.05560E+00 9.73725E-04-2.88106E+00 1.61212E-13 2.22659E-13
 -1      1031 1.99657E+01 3.43820E-02 3.09936E-06-4.05319E-02 3.87987E-14 2.26764E-13
 -1      1032 2.03612E+01 3.83783E-01 1.44613E-04 8.31074E-02 6.76729E-14-1.39212E-13
 -1      1033 2.03624E+01 9.97177E-01-1.06398E-04-8.74658E-02 1.45989E-15-2.98665E-13
 -1      1034 2.04373E+01 5.36152E-01 9.87760E-06-3.85504E-03 2.62280E-14-2.50876E-13
 -1      1035 1.99418E+01 5.50599E-02 1.26067E-05-7.41737E-02 8.20388E-14 1.99445E-13
 -1      1036 1.92919E+01 5.06413E-01 1.41109E-04-6.01741E-01-6.35975E-14 3.26955E-13
 -1      1037 1.94906E+01 9.38754E-02 1.25130E-03-1.52722E+00-3.10982E-14 2.61431E-13
 -1      1038 1.97730E+01 1.61580E-01 2.10278E-04-3.75469E-01 1.84436E-13 6.62414E-14
 -1      1039 1.99989E+01 9.57070E-04-5.06255E-06 1.17780E-03 7.46740E-14-3.26904E-13
 -1      1040 1.99048E+01 8.32318E-02-4.34214E-05-1.30792E-01 2.76642E-15 3.15623E-13
 -1      1041 2.37675E+01-1.66120E+00 1.27163E-03-4.28561E-01 7.29007E-14 2.02611E-13
 -1      1042 2.03084E+01 2.17060E-01-4.83321E-04 1.13363E-01 7.36230E-14-1.17391E-13
 -1      1043 2.00068E+01-1.05977E-01 9.37706E-05 9.88682E-01 4.85973E-14-3.43419E-14
 -1      1044 1.98494E+01 1.20695E-01 6.92867E-05-2.24274E-01-2.58217E-14 4.89288E-14
 -1      1045 2.01489E+01 4.58755E-02-8.42970E-05 3.63640E-01 1.84948E-14-1.07409E-13
 -1      1046 1.99975E+01-1.22017E-04 4.90085E-06-1.43957E-04 2.15601E-13-1.32619E-13
 -1      1047 2.17106E+01-1.66481E+00-1.10777E-02-2.39672E+00 5.53559E-14 4.10913E-14
 -1      1048 1.99990E+01 8.68201E-04 1.18966E-06 1.15528E-03-1.44192E-13-1.57667E-13
 -1      1049 2.20191E+01-1.69736E+00 1.48705E-03 1.78027E+00 2.08806E-13 5.68979E-14
 -1      1050 1.99982E+01 6.84567E-04 1.66385E-07 7.12846E-04 3.42973E-14-1.76404E-13
 -1      1051 2.03726E+01 6.12867E-01-3.42164E-05 9.34470E-02 1.02351E-13-1.82051E-13
 -1      1052 1.97755E+01-3.18523E-01 2.42334E-03-2.18984E+00 6.12658E-14 3.89878E-13
 -1      1053 2.39710E+01-2.38268E+00-1.80959E-03-1.22056E+00-1.51382E-13-4.63695E-13
 -1      1054 2.00628E+01-1.10812E-02 1.62754E-04 6.14810E-01 4.42169E-14-9.40303E-14
 -1      1055 2.08662E+01-9.76561E-01 4.88600E-03 1.85062E+00 2.27535E-13-3.04997E-15
 -1      1056 1.96748E+01 1.94769E-01 4.80027E-04-6.14857E-01 1.25375E-13 2.06642E-13
 -1      1057 2.38828E+01-1.98761E+00 3.48290E-03-2.67984E-01-1.04710E-13-5.51280E-13
 -1      1058 1.99956E+01 2.01959E-03-1.57830E-06-4.33837E-03 2.19499E-13-4.60049E-13
 -1      1059 2.05269E+01-2.14944E-01 1.78186E-04 2.96543E-01 2.22528E-14-1.72816E-13
 -1      1060 2.06072E+01-4.00810E-01-1.03302E-03 4.28013E-01-4.19523E-14-1.60127E-13
 -1      1061 2.07928E+01-6.24456E-01 9.21698E-04 5.85282E-01-4.29668E-14-1.83316E-13
 -1      1062 2.10898E+01-9.15944E-01-3.24492E-03 7.56117E-01 4.81985E-14-1.76130E-13
 -1      1063 2.16151E+01-1.28285E+00 9.46839E-04 8.97223E-01 1.39167E-13-7.32393E-14
 -1      1064 2.27841E+01-1.80804E+00-4.96453E-04-7.07400E-01-2.37478E-14-7.56728E-13
 -1      1065 2.18766E+01-1.41197E+00-2.24260E-04-8.20779E-01-1.85444E-14-4.31774E-13
 -1      1066 2.12050E+01-1.00643E+00 1.92735E-03-7.47034E-01 9.17014E-14-5.00319E-13
 -1      1067 2.07457E+01-6.88300E-01 4.96662E-04-6.06383E-01 7.51627E-14-6.00353E-13
 -1      1068 2.04456E+01-4.50734E-01 4.33811E-04-4.52896E-01 6.98288E-14-5.45159E-13
 -1      1069 2.02594E+01-2.88260E-01 3.54250E-04-3.18933E-01 2.02967E-13-3.38648E-13
 -1      1070 2.01466E+01-1.81070E-01 2.29575E-04-2.14286E-01 1.07628E-13-3.98142E-13
 -1      1071 2.00802E+01-1.13017E-01-1.50623E-06-1.36786E-01 1.03089E-14-5.84437E-13
 -1      1072 2.00408E+01-6.76899E-02 2.87271E-05-8.51984E-02-1.76467E-13-2.16769E-13
 -1      1073 2.00199E+01-4.15226E-02 1.80733E-06-5.13188E-02 1.04355E-13-3.38306E-13
 -1      1074 2.00080E+01-2.43950E-02 3.25360E-05-2.93347E-02 5.15614E-14-3.57200E-13
 -1      1075 2.00017E+01-1.40089E-02 1.72508E-05-1.59486E-02 3.15089E-13-2.60650E-13
 -1      1076 1.99987E+01-7.68293E-03 9.28812E-06-8.10782E-03 4.18158E-13-1.89350E-13
 -1      1077 1.99975E+01-3.81257E-03 1.66689E-05-3.68452E-03 3.10786E-13-1.83213E-13
 -1      1078 1.99973E+01-1.63134E-03 3.25049E-06-1.33338E-03 1.38864E-13-2.82671E-13
 -1      1079 2.04422E+01 4.78276E-01-1.75273E-05 6.93923E-02 3.26878E-14-2.44667E-13
 -1      1080 2.04686E+01 1.75831E-01-6.27798E-05 1.21657E-01 6.15261E-14-2.56385E-13
 -1      1081 1.99902E+01 5.29527E-03-9.82803E-06-2.09134E-02-6.06676E-14 2.93311E-13
 -1      1082 1.99970E+01 1.35450E-03 5.26765E-06-1.21905E-03 4.93134E-13-5.22918E-13
 -1      1083 1.99979E+01 9.40112E-04 3.50696E-06 2.76723E-04 1.60574E-13-2.65701E-13
 -1      1084 1.99935E+01 3.26503E-03-4.14158E-06-1.02334E-02-7.69348E-14-9.14973E-14
 -1      1085 2.02393E+01 1.10568E-01 2.86360E-04 2.03540E-01 1.06364E-13-1.15492E-13
 -1      1086 1.99850E+01 8.30151E-03-1.02584E-05-3.95548E-02-4.77830E-14 2.48169E-13
 -1      1087 1.99772E+01 1.26934E-02 8.00404E-05-7.05797E-02-6.37161E-14 7.69615E-14
 -1      1088 2.26823E+01-1.81618E+00-4.61959E-03 7.13340E-01 1.14185E-13 5.60910E-14
 -1      1089 2.04880E+01-3.39374E-02-2.77254E-04 1.99366E-01 1.97735E-14-1.87601E-13
 -1      1090 1.95703E+01 1.91147E-01 1.29827E-03-9.82434E-01-1.28425E-13 1.40036E-13
 -1      1091 2.06096E+01-5.96094E-01 1.07351E-03 1.10841E+00 6.80786E-14-5.74395E-14
 -1      1092 2.27695E+01-1.96919E+00 9.43821E-03-1.49286E+00-5.13126E-14-3.54907E-13
 -1      1093 1.99555E+01-3.02091E-02-4.45255E-04-5.28835E-01 1.92280E-13-2.18178E-14
 -1      1094 1.99493E+01 4.50240E-03-3.23068E-04-3.34662E-01 1.45613E-14 8.11778E-14
 -1      1095 1.99684E+01 1.53477E-02 2.03227E-05-1.19825E-01 1.57137E-13-1.81342E-13
 -1      1096 2.01278E+01-2.92788E-01-7.11067E-04-1.19693E+00-7.33446E-14 3.28018E-14
 -1      1097 2.05440E+01-6.85373E-01-3.43546E-03-1.57551E+00 6.30395E-14-4.17351E-14
 -1      1098 2.10172E+01-1.12208E+00-4.06704E-03-2.01627E+00 1.23799E-13 9.99265E-14
 -1      1099 2.03689E+01-6.37038E-02 2.55484E-06 3.14358E-01 2.13325E-14-1.08789E-13
 -1      1100 2.03714E+01-1.90570E-01 8.76740E-04 5.03215E-01 2.08439E-14-9.31987E-14
 -1      1101 2.04186E+01 1.86918E-01 2.46609E-04 1.36811E-01 6.54664E-14-1.98539E-13
 -1      1102 1.99988E+01-1.14056E-01-5.77034E-04-8.09893E-01 3.80270E-14 3.12095E-14
 -1      1103 1.99972E+01-1.99970E-04-2.38717E-05-9.11702E-04 1.47981E-13-1.23070E-13
 -1      1104 2.00145E+01-3.66832E-02 3.86311E-04-1.30075E-01 1.15224E-13-1.24196E-13
 -1      1105 1.99573E+01 1.42253E-02-4.50595E-04-2.04967E-01-6.38270E-15-5.87862E-14
 -1      1106 2.04209E+01-3.52183E-01-2.46560E-03 7.61282E-01-1.39257E-14-4.51634E-14
 -1      1107 2.79803E+01 9.09218E+00 2.32677E+00-6.70056E+00-5.22915E-14 1.21392E-12
 -1      1108 2.05574E+01 6.23024E+00 2.09974E-01-3.90395E+00-2.53686E-14-1.01447E-14
 -1      1109 1.94394E+01 5.85444E+00 7.53198E-02-2.88753E+00-1.49880E-14-4.99666E-13
 -1      1110 1.90266E+01 5.72603E+00 6.01605E-02-2.23487E+00-9.33628E-15-7.09826E-13
 -1      1111 1.88371E+01 5.66833E+00 5.73215E-02-1.70198E+00-5.94316E-15-7.97626E-13
 -1      1112 1.87415E+01 5.63907E+00 5.53545E-02-1.23538E+00-2.25341E-15-8.22770E-13
 -1      1113 1.86914E+01 5.62348E+00 5.35574E-02-8.06413E-01-9.08995E-16-8.22713E-13
 -1      1114 1.86669E+01 5.61575E+00 5.22690E-02-3.96024E-01 8.74517E-16-7.88835E-13
 -1      1115 1.86603E+01 5.61365E+00 5.18327E-02 3.85636E-03 2.85741E-15-7.56403E-13
 -1      1116 1.86691E+01 5.61643E+00 5.22949E-02 4.03731E-01 5.32560E-15-7.21894E-13
 -1      1117 1.86956E+01 5.62478E+00 5.36059E-02 8.14197E-01 6.63445E-15-6.89291E-13
 -1      1118 1.87481E+01 5.64113E+00 5.56904E-02 1.24353E+00 8.62851E-15-6.19656E-13
 -1      1119 1.88455E+01 5.67102E+00 5.78526E-02 1.71106E+00 1.13000E-14-5.07743E-13
 -1      1120 1.90358E+01 5.72886E+00 6.03652E-02 2.24627E+00 1.55778E-14-3.27859E-13
 -1      1121 1.94508E+01 5.85775E+00 7.50592E-02 2.90170E+00 1.91791E-14 4.01242E-15
 -1      1122 2.05785E+01 6.23676E+00 2.10631E-01 3.92063E+00 2.23710E-14 6.26901E-13
 -1      1123 2.80527E+01 9.12619E+00 2.36769E+00 6.74386E+00 1.90403E-14 1.85968E-12
 -1      1124 2.88331E+01 3.61832E+00 1.27199E+00-4.21872E+00-1.98869E-13 1.96898E-12
 -1      1125 2.02465E+01-1.77816E-01-6.16560E-01-1.09721E-01-7.08461E-14 1.50921E-12
 -1      1126 1.88536E+01-9.63599E-02-2.36456E-01 6.27014E-02-2.80696E-14 8.77739E-13
 -1      1127 1.85212E+01-4.79674E-02-5.96021E-02 4.07738E-02-1.63133E-14 4.41869E-13
 -1      1128 1.84673E+01-2.43273E-02-1.50121E-02 2.71580E-02-7.75703E-15 1.54807E-13
 -1      1129 1.85486E+01-1.24830E-02-4.47296E-03 1.95358E-02 1.21149E-15 3.54924E-14
 -1      1130 1.86912E+01-5.58219E-03-4.50166E-04 1.46884E-02-1.47206E-14-7.06327E-14
 -1      1131 1.88517E+01-1.12045E-03 2.41691E-03 1.13029E-02-1.01611E-14-2.77970E-13
 -1      1132 1.90017E+01 2.11246E-03 4.98764E-03 8.68304E-03-5.60522E-15-4.36279E-13
 -1      1133 1.91195E+01 4.77735E-03 7.51846E-03 6.40609E-03-3.14793E-15-5.68403E-13
 -1      1134 1.91857E+01 7.24149E-03 1.02129E-02 4.14442E-03-7.22295E-16-6.58395E-13
 -1      1135 1.91806E+01 9.65515E-03 1.31620E-02 1.59121E-03 1.50061E-14-6.66878E-13
 -1      1136 1.90832E+01 1.19472E-02 1.62216E-02-1.54525E-03-2.09468E-15-7.08139E-13
 -1      1137 1.88722E+01 1.37914E-02 1.89041E-02-5.48875E-03-7.15465E-15-7.58539E-13
 -1      1138 1.85291E+01 1.45922E-02 2.03240E-02-1.02868E-02 3.31679E-15-6.64425E-13
 -1      1139 1.80443E+01 1.35534E-02 1.92759E-02-1.56650E-02-2.07800E-14-6.13285E-13
 -1      1140 1.74255E+01 9.88764E-03 1.45376E-02-2.09000E-02-1.96468E-14-7.31401E-13
 -1      1141 1.67062E+01 3.18471E-03 5.42098E-03-2.48105E-02 1.28791E-14-7.93490E-13
 -1      1142 1.59500E+01-6.15578E-03-7.57210E-03-2.59776E-02-5.94457E-15-9.23442E-13
 -1      1143 1.52476E+01-1.66537E-02-2.23459E-02-2.32235E-02 2.40569E-14-9.78998E-13
 -1      1144 1.47020E+01-2.59308E-02-3.54762E-02-1.62146E-02-1.50956E-14-7.56178E-13
 -1      1145 1.44047E+01-3.14478E-02-4.32990E-02-5.86855E-03-1.77124E-14-7.57013E-13
 -1      1146 1.44104E+01-3.15573E-02-4.34352E-02 5.75632E-03-5.66821E-16-8.16377E-13
 -1      1147 1.47199E+01-2.62626E-02-3.58899E-02 1.61423E-02-3.22849E-14-8.94597E-13
 -1      1148 1.52807E+01-1.72103E-02-2.30434E-02 2.32366E-02 5.86337E-16-7.99177E-13
 -1      1149 1.60033E+01-6.93678E-03-8.55843E-03 2.61267E-02-4.67002E-14-6.14619E-13
 -1      1150 1.67866E+01 2.18080E-03 4.13777E-03 2.51514E-02 9.50116E-15-6.34610E-13
 -1      1151 1.75422E+01 8.66425E-03 1.29465E-02 2.14981E-02-6.69690E-15-9.31779E-13
 -1      1152 1.82085E+01 1.21201E-02 1.73668E-02 1.66017E-02-1.24108E-14-9.54868E-13
 -1      1153 1.87542E+01 1.29725E-02 1.80948E-02 1.16643E-02 7.03571E-15-9.81236E-13
 -1      1154 1.91739E+01 1.20331E-02 1.63716E-02 7.43592E-03-1.59389E-14-9.66633E-13
 -1      1155 1.94791E+01 1.01379E-02 1.34360E-02 4.22419E-03 1.10616E-14-1.09955E-12
 -1      1156 1.96899E+01 7.94386E-03 1.02275E-02 2.02232E-03-4.06680E-14-1.00977E-12
 -1      1157 1.98284E+01 5.86946E-03 7.31364E-03 6.57417E-04-6.87838E-14-9.34366E-13
 -1      1158 1.99149E+01 4.12360E-03 4.94858E-03-9.47859E-05 3.36413E-14-8.63771E-13
 -1      1159 1.99658E+01 2.76777E-03 3.17759E-03-4.42265E-04 7.60802E-14-7.57405E-13
 -1      1160 1.99937E+01 1.77795E-03 1.93376E-03-5.48015E-04-1.45327E-14-6.82183E-13
 -1      1161 2.00073E+01 1.09151E-03 1.10721E-03-5.25742E-04-4.13843E-14-6.49707E-13
 -1      1162 2.00128E+01 6.36701E-04 5.85739E-04-4.47377E-04-2.88035E-15-6.77831E-13
 -1      1163 2.00137E+01 3.48192E-04 2.73879E-04-3.54144E-04-6.23872E-15-9.75196E-13
 -1      1164 2.00125E+01 1.73195E-04 9.85099E-05-2.66914E-04 3.06861E-15-1.01747E-12
 -1      1165 2.00103E+01 7.22644E-05 7.61372E-06-1.94257E-04-3.62355E-14-1.33769E-12
 -1      1166 2.00080E+01 1.75711E-05-3.37732E-05-1.38003E-04 5.46613E-14-1.13773E-12
 -1      1167 2.00059E+01-9.66349E-06-4.81183E-05-9.67347E-05 2.75175E-14-5.63312E-13
 -1      1168 2.00041E+01-2.16985E-05-4.94566E-05-6.77631E-05 1.05836E-13-1.03337E-13
 -1      1169 2.00025E+01-2.63692E-05-4.66803E-05-4.80292E-05-3.07832E-14 2.77054E-13
 -1      1170 2.00013E+01-2.87046E-05-4.57794E-05-3.41670E-05-8.60882E-14-7.91746E-14
 -1      1171 2.00004E+01-3.13649E-05-4.94427E-05-2.16798E-05-2.12796E-15-2.91868E-13
 -1      1172 1.99999E+01-3.88542E-05-4.80345E-05-4.63398E-07-3.29476E-14-3.67526E-13
 -1      1173 1.99998E+01 8.73171E-06 1.77740E-05 1.24875E-05 1.97801E-13 5.02622E-13
 -1      1174 2.91317E+01 3.72108E+00 1.36590E+00 4.34216E+00 1.30285E-13 2.68785E-12
 -1      1175 2.03835E+01-1.75526E-01-6.28703E-01 1.39247E-01 4.43881E-14 2.39769E-12
 -1      1176 1.88734E+01-9.82673E-02-2.49509E-01-6.27943E-02 2.62325E-14 1.83571E-12
 -1      1177 1.85158E+01-5.01274E-02-6.43595E-02-4.10290E-02 1.20589E-14 1.42240E-12
 -1      1178 1.84515E+01-2.58337E-02-1.67881E-02-2.69389E-02 9.91308E-15 1.22971E-12
 -1      1179 1.85318E+01-1.42295E-02-5.92404E-03-1.88837E-02 8.31475E-15 1.04138E-12
 -1      1180 1.86848E+01-8.24283E-03-2.89230E-03-1.36625E-02 4.68722E-15 8.50561E-13
 -1      1181 1.88749E+01-5.46391E-03-2.00009E-03-9.98438E-03 9.76064E-15 8.07828E-13
 -1      1182 1.90882E+01-5.06661E-03-2.85877E-03-7.27153E-03 3.63576E-15 7.53693E-13
 -1      1183 1.93279E+01-6.97182E-03-6.13559E-03-5.40931E-03 5.09662E-15 5.82204E-13
 -1      1184 1.96166E+01-1.16941E-02-1.31688E-02-4.70028E-03 1.24347E-15 5.71959E-13
 -1      1185 2.00040E+01-2.03731E-02-2.65198E-02-6.11147E-03-7.37301E-15 6.37619E-13
 -1      1186 2.05826E+01-3.48579E-02-5.09022E-02-1.19407E-02 1.86223E-14 6.10938E-13
 -1      1187 2.15152E+01-5.75906E-02-9.39754E-02-2.72458E-02 1.40755E-14 5.10175E-13
 -1      1188 2.30795E+01-9.04996E-02-1.64032E-01-6.25113E-02 9.15934E-16 4.68250E-13
 -1      1189 2.57245E+01-1.30680E-01-2.54164E-01-1.37380E-01 1.28578E-14 4.30350E-13
 -1      1190 3.00851E+01-1.52083E-01-2.89791E-01-2.78293E-01-5.85469E-15 3.22020E-13
 -1      1191 3.65295E+01-1.20285E-01-6.54828E-02-4.68530E-01-8.91865E-15 5.48728E-13
 -1      1192 4.44856E+01 1.05802E-01 6.78039E-01-5.08799E-01 6.02990E-15 8.94895E-13
 -1      1193 4.95927E+01 4.08822E-01 1.50298E+00 2.08397E-01-4.09256E-14 1.21270E-12
 -1      1194 4.56774E+01 6.15152E-01 9.30981E-01 1.64690E+00 7.49401E-16 1.54599E-12
 -1      1195 3.24147E+01 4.62922E-01-1.66126E+00 2.43075E+00 6.69464E-14 1.36802E-12
 -1      1196 1.70238E+01-4.49744E-01-5.28266E+00 1.33765E+00 6.68632E-14 9.87765E-13
 -1      1197 1.47903E+01-6.87254E-01-5.88697E+00-7.26492E-01 6.39488E-14-4.67570E-13
 -1      1198 2.94300E+01-3.75715E-02-2.42287E+00-1.67809E+00 1.73750E-14-1.97664E-12
 -1      1199 4.49055E+01 3.08975E-01 8.10239E-01-1.02698E+00 4.40654E-14-2.36589E-12
 -1      1200 4.95992E+01 2.40008E-01 1.47453E+00-1.51791E-01-2.84182E-14-2.02388E-12
 -1      1201 4.46457E+01-5.83802E-04 6.48872E-01 2.35679E-01 2.12660E-14-1.37787E-12
 -1      1202 3.67470E+01-8.70347E-02-5.01098E-02 2.55744E-01 3.68533E-14-9.02278E-13
 -1      1203 3.01929E+01-7.79369E-02-2.53703E-01 1.72359E-01 2.41300E-15-5.09148E-13
 -1      1204 2.58949E+01-5.42381E-02-2.14894E-01 9.76182E-02 3.67080E-14 1.61482E-13
 -1      1205 2.33133E+01-3.48127E-02-1.35621E-01 5.11188E-02-5.55294E-14 9.59094E-14
 -1      1206 2.18246E+01-2.15219E-02-7.64899E-02 2.56171E-02-4.85577E-14 5.45303E-13
 -1      1207 2.09857E+01-1.27711E-02-4.11499E-02 1.23500E-02-1.31760E-14 4.04652E-13
 -1      1208 2.05278E+01-8.64380E-03-2.27891E-02 5.09988E-03 3.63358E-14-2.97776E-13
 -1      1209 2.02763E+01-4.65636E-03-1.22127E-02 2.67078E-03-2.22175E-14 2.16951E-13
 -1      1210 2.01365E+01-2.69617E-03-6.42277E-03 1.04427E-03-1.33553E-14 1.60933E-13
 -1      1211 2.00637E+01-1.52951E-03-3.32606E-03 3.11181E-04 1.03820E-13-4.76378E-13
 -1      1212 2.00273E+01-8.48378E-04-1.67260E-03 2.90833E-06 1.77161E-14-8.48303E-13
 -1      1213 2.00100E+01-4.57472E-04-7.98026E-04-1.05297E-04 7.49378E-15-3.32875E-13
 -1      1214 2.00025E+01-2.37560E-04-3.46732E-04-1.24684E-04 9.14547E-15 2.72913E-13
 -1      1215 1.99998E+01-1.17022E-04-1.23749E-04-1.09131E-04-6.42533E-14 1.11930E-13
 -1      1216 1.99991E+01-5.32521E-05-2.14923E-05-8.36281E-05 1.79899E-14-1.80114E-13
 -1      1217 1.99992E+01-2.12064E-05 1.90447E-05-5.88355E-05-4.85121E-14 4.55458E-13
 -1      1218 1.99995E+01-6.39561E-06 2.96690E-05-3.85239E-05 3.20895E-14-3.46314E-14
 -1      1219 1.99998E+01-6.19379E-07 2.69773E-05-2.33528E-05 4.81124E-14-1.04030E-13
 -1      1220 1.99999E+01 6.34032E-07 1.91521E-05-1.27686E-05-1.64182E-14 5.82541E-13
 -1      1221 1.99999E+01-2.27871E-07 9.87709E-06-5.94078E-06-4.79954E-14 5.00544E-14
 -1      1222 1.99998E+01-1.89734E-06 8.20032E-07-2.19499E-06 1.06486E-13-9.05045E-13
 -1      1223 1.99997E+01-3.36914E-06-5.58685E-06-1.41533E-06 6.76794E-14-2.14962E-12
 -1      1224 1.99997E+01-1.13615E-06-2.14665E-06-3.78185E-06 6.97348E-14-1.85181E-12
 -1      1225 1.99998E+01-9.27814E-07 1.59573E-05-5.15302E-06-6.06672E-14-8.68515E-13
 -1      1226 1.99998E+01-1.75963E-05 1.33278E-05-4.95295E-06-5.99811E-13-2.19797E-13
 -1      1227 1.99998E+01-6.57533E-05-9.12426E-06-9.37281E-06-1.18838E-12 1.47232E-13
 -1      1228 1.99998E+01-1.97846E-05-1.89995E-05-7.15524E-06-2.19199E-12-7.32203E-14
 -1      1229 1.99998E+01 1.75361E-04-2.06260E-05-2.69528E-06-9.72208E-13-6.09038E-14
 -1      1230 1.99998E+01 5.22498E-04-1.67395E-05 2.55500E-06-7.83196E-13 2.45397E-13
 -1      1231 1.99998E+01 9.85186E-04-9.19128E-06 7.88193E-06 4.84762E-13 1.76294E-13
 -1      1232 1.99998E+01 1.50773E-03 8.08057E-07 1.21195E-05 1.12249E-12 1.52943E-13
 -1      1233 1.99998E+01 2.01794E-03 1.17931E-05 1.47340E-05-4.50931E-13-6.01170E-14
 -1      1234 1.99998E+01 2.42814E-03 2.19994E-05 1.50773E-05-4.07947E-13 8.76816E-14
 -1      1235 1.99998E+01 2.66249E-03 2.98098E-05 1.28475E-05-5.17970E-13-1.02440E-13
 -1      1236 1.99998E+01 2.66494E-03 3.34496E-05 7.98688E-06-2.04211E-13-4.54466E-14
 -1      1237 1.99998E+01 2.41545E-03 3.15085E-05 6.74904E-07-3.35361E-13-8.34336E-14
 -1      1238 1.99998E+01 1.93264E-03 2.16772E-05-7.60759E-06 4.43845E-14 4.48726E-14
 -1      1239 1.99998E+01 1.28383E-03 2.88537E-06-1.60888E-05 7.22095E-14 2.60134E-13
 -1      1240 1.99998E+01 6.02719E-04-2.34820E-05-2.52166E-05 1.65629E-13 6.07333E-14
 -1      1241 1.99998E+01 1.08670E-04-3.47831E-05-1.56896E-06-1.45826E-12 2.97651E-14
 -1      1242 1.99998E+01-2.80330E-05 2.11557E-05 7.32735E-06-6.86852E-13 1.63489E-13
 -1      1243-1.47194E+00-3.02816E+01-4.14511E+00-3.38801E+00 9.46909E-13 1.72751E-13
 -1      1244-3.77222E+00-2.57246E+01-4.40164E+00-8.00411E+00 1.53522E-12 4.92301E-13
 -1      1245-4.59414E+00-1.38731E+01-4.20389E+00-6.84367E+00 1.35492E-12 9.03833E-13
 -1      1246 1.78969E+00-1.04810E+00-3.28990E+00 9.80511E-01 2.04325E-12 2.13007E-12
 -1      1247 2.15233E+01 6.99009E+00-6.95602E-01 1.24371E+01 1.84719E-12 2.67342E-12
 -1      1248 5.66655E+01 8.21263E+00 4.21196E+00 2.00504E+01 8.89289E-13 1.91980E-12
 -1      1249 9.39720E+01 4.80052E+00 9.87714E+00 1.35505E+01 2.24626E-13 8.17790E-13
 -1      1250 1.04338E+02 3.40841E+00 1.14793E+01-4.42987E+00 1.47424E-13-7.20202E-13
 -1      1251 8.02127E+01 6.42953E+00 7.78284E+00-1.85006E+01 6.38267E-13-2.03038E-12
 -1      1252 4.24806E+01 8.73989E+00 2.25723E+00-1.81860E+01 1.29763E-12-2.56595E-12
 -1      1253 1.24745E+01 4.81158E+00-1.74646E+00-7.94655E+00 2.06479E-12-2.49933E-12
 -1      1254-2.10961E+00-5.86133E+00-3.69956E+00 3.07656E+00 2.67097E-12-2.14695E-12
 -1      1255-4.79248E+00-1.84926E+01-4.22960E+00 8.23870E+00 2.53575E-12-1.37007E-12
 -1      1256-2.79591E+00-2.80836E+01-4.29311E+00 6.99366E+00 1.80872E-12-5.29701E-13
 -1      1257-1.12714E+00-2.96337E+01-3.97261E+00 1.44170E+00 4.26381E-13-1.40471E-13
 -1      1258-1.22245E+00-2.20686E+01-3.39028E+00-3.15958E+00-1.37113E-12-3.95017E-13
 -1      1259-8.11857E-01-7.88152E+00-2.28604E+00-1.92814E+00-2.63034E-12-1.22347E-12
 -1      1260 4.69088E+00 5.78872E+00-8.90328E-01 5.39817E+00-2.86882E-12-1.98352E-12
 -1      1261 1.80238E+01 1.32865E+01 7.58937E-01 1.49424E+01-2.18714E-12-2.33102E-12
 -1      1262 3.87423E+01 1.29135E+01 2.34900E+00 2.09730E+01-1.56097E-12-2.56972E-12
 -1      1263 6.10903E+01 7.01791E+00 3.62965E+00 1.81647E+01-6.38045E-13-1.54743E-12
 -1      1264 7.43059E+01 2.11886E+00 4.29408E+00 5.94332E+00-5.56465E-14-4.84113E-13
 -1      1265 7.25887E+01 2.77300E+00 4.20459E+00-9.28656E+00-1.01641E-13 5.19362E-13
 -1      1266 5.71393E+01 8.50824E+00 3.45956E+00-1.95819E+01-7.88702E-13 1.68221E-12
 -1      1267 3.50261E+01 1.35198E+01 2.11652E+00-2.05705E+01-2.00595E-12 3.00693E-12
 -1      1268 1.44430E+01 1.23444E+01 3.79975E-01-1.29743E+01-2.60769E-12 2.63123E-12
 -1      1269 2.41186E+00 2.46685E+00-1.27031E+00-2.80590E+00-1.92291E-12 1.22269E-12
 -1      1270-1.23311E+00-1.25409E+01-2.63106E+00 3.10868E+00-7.24754E-13 3.22298E-13
 -1      1271-9.92102E-01-2.54200E+01-3.58993E+00 2.06014E+00 2.81331E-13-1.49186E-14
 -1      1272 2.22825E+01 1.83899E+00-7.26142E-01-2.79095E+00-7.71050E-14 9.15323E-13
 -1      1273 2.03679E+01 4.69182E+00-4.87248E-02-3.30689E+00-1.80883E-13-2.46594E-13
 -1      1274 2.08782E+01 4.81302E+00-1.13278E-01-4.16160E+00-2.44249E-13 1.32255E-14
 -1      1275 1.95352E+01 4.99440E+00-1.96949E-02-2.65454E+00-1.70239E-13-5.93560E-13
 -1      1276 1.98356E+01 5.09197E+00 2.84195E-04-3.04556E+00-1.98251E-13-4.50098E-13
 -1      1277 2.05333E+01 3.95414E+00-2.58980E-02-3.07519E+00-3.17822E-13-2.17798E-13
 -1      1278 1.91836E+01 5.08449E+00-3.70932E-03-2.07075E+00-1.23311E-13-7.46764E-13
 -1      1279 1.93347E+01 5.14029E+00 1.05712E-02-2.36366E+00-1.47049E-13-6.78492E-13
 -1      1280 1.97565E+01 4.36702E+00-2.43045E-02-2.49003E+00-2.65777E-13-4.98393E-13
 -1      1281 1.90057E+01 5.13046E+00 3.21760E-03-1.56571E+00-7.91181E-14-8.14515E-13
 -1      1282 1.90844E+01 5.16073E+00 1.25219E-02-1.81542E+00-9.35051E-14-7.89067E-13
 -1      1283 1.93911E+01 4.55597E+00-1.95888E-02-1.93214E+00-1.78622E-13-6.36022E-13
 -1      1284 1.89105E+01 5.15982E+00 6.52736E-03-1.11855E+00-3.92525E-14-8.31014E-13
 -1      1285 1.89536E+01 5.17638E+00 1.26922E-02-1.33971E+00-5.57141E-14-8.24479E-13
 -1      1286 1.92018E+01 4.66119E+00-1.60958E-02-1.44618E+00-1.14485E-13-6.87360E-13
 -1      1287 1.88579E+01 5.17954E+00 8.11915E-03-6.96082E-01-1.49390E-14-8.20195E-13
 -1      1288 1.88813E+01 5.18856E+00 1.19906E-02-9.05865E-01-1.88209E-14-8.31153E-13
 -1      1289 1.90971E+01 4.72646E+00-1.40046E-02-1.00599E+00-5.29169E-14-7.03267E-13
 -1      1290 1.88336E+01 5.19169E+00 9.19506E-03-2.92482E-01 2.26809E-14-7.85025E-13
 -1      1291 1.88436E+01 5.19558E+00 1.10386E-02-4.94011E-01 8.47673E-15-8.02034E-13
 -1      1292 1.90403E+01 4.76573E+00-1.29488E-02-5.91214E-01-6.57861E-15-6.82787E-13
 -1      1293 1.88302E+01 5.19716E+00 1.01127E-02 1.03463E-01 5.52166E-14-7.55332E-13
 -1      1294 1.88296E+01 5.19700E+00 1.01199E-02-9.54198E-02 4.61770E-14-7.73381E-13
 -1      1295 1.90158E+01 4.78446E+00-1.24870E-02-1.92538E-01 5.78595E-14-6.59854E-13
 -1      1296 1.88463E+01 5.19646E+00 1.10400E-02 5.02000E-01 9.44327E-14-7.23741E-13
 -1      1297 1.88352E+01 5.19225E+00 9.19425E-03 3.00482E-01 7.88031E-14-7.40717E-13
 -1      1298 1.90169E+01 4.78490E+00-1.24815E-02 2.00914E-01 1.07833E-13-6.28234E-13
 -1      1299 1.88861E+01 5.18982E+00 1.19625E-02 9.13860E-01 1.18822E-13-6.82850E-13
 -1      1300 1.88617E+01 5.18061E+00 8.10762E-03 7.03986E-01 1.12272E-13-7.10099E-13
 -1      1301 1.90435E+01 4.76686E+00-1.29474E-02 5.99425E-01 1.66710E-13-6.00582E-13
 -1      1302 1.89595E+01 5.17823E+00 1.27548E-02 1.34404E+00 1.48634E-13-6.07412E-13
 -1      1303 1.89155E+01 5.16126E+00 6.45717E-03 1.12283E+00 1.39721E-13-6.53330E-13
 -1      1304 1.91019E+01 4.72822E+00-1.39534E-02 1.01041E+00 2.13362E-13-5.52343E-13
 -1      1305 1.90940E+01 5.16195E+00 1.28707E-02 1.82445E+00 1.95923E-13-4.84890E-13
 -1      1306 1.90136E+01 5.13128E+00 3.28291E-03 1.57402E+00 1.74206E-13-5.55030E-13
 -1      1307 1.92084E+01 4.66251E+00-1.60284E-02 1.45056E+00 2.67742E-13-4.63470E-13
 -1      1308 1.93451E+01 5.14068E+00 1.05280E-02 2.37567E+00 2.30191E-13-2.86056E-13
 -1      1309 1.91941E+01 5.08435E+00-3.60284E-03 2.08123E+00 2.11456E-13-4.08798E-13
 -1      1310 1.94018E+01 4.55439E+00-1.94667E-02 1.94159E+00 3.28082E-13-3.36987E-13
 -1      1311 1.98502E+01 5.09298E+00 4.59366E-04 3.06009E+00 2.41966E-13 7.53980E-14
 -1      1312 1.95466E+01 4.99356E+00-2.00272E-02 2.66722E+00 2.20816E-13-1.42109E-13
 -1      1313 1.97711E+01 4.36412E+00-2.36639E-02 2.50314E+00 3.63747E-13-1.08004E-13
 -1      1314 2.09042E+01 4.84048E+00-9.91968E-02 4.18678E+00 2.31509E-13 6.61436E-13
 -1      1315 2.03863E+01 4.68898E+00-4.87715E-02 3.32503E+00 1.97287E-13 3.36772E-13
 -1      1316 2.05555E+01 3.94320E+00-2.51565E-02 3.09099E+00 3.51132E-13 2.92058E-13
 -1      1317 2.23802E+01 1.87391E+00-7.17802E-01 2.84966E+00 4.21052E-14 1.65856E-12
 -1      1318 2.20174E+01 1.31358E-01-4.00973E-01-1.28565E+00-2.02435E-13 9.99201E-13
 -1      1319 2.06949E+01 3.06774E-01-1.64870E-01-8.05616E-01-1.89654E-13 7.59268E-13
 -1      1320 2.00970E+01 1.53529E-01-7.36005E-02-4.01846E-01-1.56840E-13 6.53521E-13
 -1      1321 1.96276E+01 9.11857E-02-1.49962E-02-3.29674E-01-1.46484E-13 4.32765E-13
 -1      1322 2.09860E+01 3.69316E-01-1.04260E-01-1.27365E+00-3.36300E-13 3.14242E-13
 -1      1323 1.92700E+01 6.44896E-02 2.95159E-03-1.35095E-01-1.25218E-13 3.64701E-13
 -1      1324 1.91161E+01 4.11386E-02 1.31169E-02-1.17303E-01-1.07025E-13 1.95607E-13
 -1      1325 1.99347E+01 1.33892E-01-3.51672E-02-5.03606E-01-2.60764E-13 1.84228E-13
 -1      1326 1.89550E+01 3.13237E-02 1.31352E-02-2.82026E-02-7.60711E-14 1.20952E-13
 -1      1327 1.89354E+01 1.90027E-02 1.09246E-02-1.89411E-02-6.22015E-14 2.58821E-14
 -1      1328 1.94565E+01 5.52738E-02-8.46271E-03-1.70180E-01-1.80665E-13 6.77618E-14
 -1      1329 1.88774E+01 1.55092E-02 8.64056E-03 2.36454E-02-2.99376E-14-1.60739E-14
 -1      1330 1.89180E+01 8.30635E-03 6.24511E-03 2.79992E-02-2.71573E-14-4.92505E-14
 -1      1331 1.92450E+01 2.37468E-02-3.37995E-03-1.31418E-02-1.04844E-13-4.01311E-14
 -1      1332 1.89139E+01 6.86242E-03 4.49756E-03 4.70967E-02-5.16551E-14-6.88789E-14
 -1      1333 1.89795E+01 2.10726E-03 3.37492E-03 4.84391E-02-5.33154E-14-1.57396E-13
 -1      1334 1.91823E+01 8.83891E-03-1.96512E-03 6.18083E-02-8.77896E-14-1.14157E-13
 -1      1335 1.90010E+01 1.41093E-03 2.22890E-03 5.35636E-02-5.41770E-14-1.69337E-13
 -1      1336 1.90713E+01-2.02137E-03 1.85383E-03 5.28486E-02-4.54417E-14-2.51325E-13
 -1      1337 1.91968E+01 2.65098E-04-8.77762E-04 9.17836E-02-8.43160E-14-1.51070E-13
 -1      1338 1.91007E+01-2.51393E-03 1.09333E-03 4.84460E-02-3.88165E-14-2.87981E-13
 -1      1339 1.91621E+01-5.19830E-03 9.87095E-04 4.61268E-02-5.16763E-14-3.52475E-13
 -1      1340 1.92445E+01-5.58496E-03 1.77193E-04 9.33951E-02-8.82171E-14-1.86451E-13
 -1      1341 1.91869E+01-5.78387E-03 5.17507E-04 3.42090E-02-3.99025E-14-3.66531E-13
 -1      1342 1.92286E+01-8.03242E-03 4.35254E-04 3.04389E-02-4.31788E-14-4.20751E-13
 -1      1343 1.92961E+01-1.03483E-02 1.15575E-03 7.44008E-02-8.65438E-14-2.46850E-13
 -1      1344 1.92387E+01-8.90089E-03 2.52155E-04 1.16944E-02-4.59079E-14-4.18605E-13
 -1      1345 1.92508E+01-1.08531E-02 7.85338E-05 6.43845E-03-4.65188E-15-4.49994E-13
 -1      1346 1.93297E+01-1.48979E-02 2.08286E-03 3.80750E-02-5.93423E-14-2.51739E-13
 -1      1347 1.92375E+01-1.21121E-02 2.13094E-04-1.91149E-02 3.91896E-15-5.07484E-13
 -1      1348 1.92099E+01-1.37455E-02-1.12100E-04-2.59753E-02-1.03975E-14-5.25003E-13
 -1      1349 1.93268E+01-1.96669E-02 3.01110E-03-1.47145E-02-4.17604E-14-3.00333E-13
 -1      1350 1.91647E+01-1.53970E-02 3.73774E-04-5.83943E-02-5.60771E-15-5.16942E-13
 -1      1351 1.90872E+01-1.65062E-02-1.38356E-04-6.69244E-02-3.08852E-14-5.57763E-13
 -1      1352 1.92704E+01-2.46654E-02 3.95683E-03-8.40268E-02-7.45714E-15-3.91655E-13
 -1      1353 1.90026E+01-1.84013E-02 7.08713E-04-1.05644E-01-8.77553E-15-5.24830E-13
 -1      1354 1.88658E+01-1.85822E-02-1.03227E-05-1.15669E-01 1.49743E-14-5.28082E-13
 -1      1355 1.91448E+01-2.93828E-02 4.85722E-03-1.69306E-01 2.20397E-15-3.76538E-13
 -1      1356 1.87357E+01-2.03806E-02 1.15704E-03-1.58691E-01 1.49720E-14-4.83614E-13
 -1      1357 1.85332E+01-1.90615E-02 2.26188E-04-1.69580E-01-2.25080E-16-4.87145E-13
 -1      1358 1.89363E+01-3.26882E-02 5.54077E-03-2.67569E-01 1.58823E-14-3.16309E-13
 -1      1359 1.83554E+01-2.02351E-02 1.60104E-03-2.12716E-01-4.19571E-14-4.59319E-13
 -1      1360 1.80874E+01-1.68016E-02 4.72561E-04-2.23182E-01-7.04781E-14-4.95742E-13
 -1      1361 1.86364E+01-3.28636E-02 5.71954E-03-3.71493E-01-2.98602E-14-3.42043E-13
 -1      1362 1.78656E+01-1.67349E-02 1.87002E-03-2.59693E-01-7.86827E-14-4.89876E-13
 -1      1363 1.75425E+01-1.07763E-02 5.85882E-04-2.67758E-01-6.35722E-14-5.61596E-13
 -1      1364 1.82460E+01-2.79209E-02 5.02962E-03-4.68002E-01-7.46031E-14-3.21724E-13
 -1      1365 1.72892E+01-8.99149E-03 1.78723E-03-2.88896E-01 7.76435E-15-5.82111E-13
 -1      1366 1.69345E+01-6.33600E-04 4.26867E-04-2.92141E-01 6.45171E-15-5.80286E-13
 -1      1367 1.77802E+01-1.63078E-02 3.14497E-03-5.38402E-01-4.71586E-14-3.57200E-13
 -1      1368 1.66718E+01 2.90065E-03 1.25549E-03-2.88978E-01-2.91709E-14-6.39459E-13
 -1      1369 1.63225E+01 1.27154E-02-5.76905E-05-2.85183E-01-3.17650E-14-6.74792E-13
 -1      1370 1.72726E+01 2.10257E-03-3.30122E-05-5.61149E-01-6.36443E-14-4.36290E-13
 -1      1371 1.60810E+01 1.73475E-02 3.47344E-04-2.51591E-01 2.35003E-14-7.18290E-13
 -1      1372 1.57830E+01 2.68435E-02-7.62383E-04-2.39649E-01 7.63755E-15-6.91842E-13
 -1      1373 1.67750E+01 2.51416E-02-4.17723E-03-5.17670E-01-4.44499E-14-4.24917E-13
 -1      1374 1.55969E+01 3.12797E-02-6.77538E-04-1.75486E-01 3.38822E-14-7.05432E-13
 -1      1375 1.53961E+01 3.82592E-02-1.42043E-03-1.56213E-01-4.03800E-15-6.38765E-13
 -1      1376 1.63517E+01 4.82436E-02-8.45925E-03-3.99968E-01 1.56355E-14-5.36263E-13
 -1      1377 1.52955E+01 4.10101E-02-1.46012E-03-6.90791E-02-4.99861E-15-6.13648E-13
 -1      1378 1.52263E+01 4.36261E-02-1.71062E-03-4.54081E-02-1.83395E-14-6.13167E-13
 -1      1379 1.60674E+01 6.55641E-02-1.17369E-02-2.16855E-01 2.65499E-14-5.45061E-13
 -1      1380 1.52292E+01 4.36930E-02-1.72431E-03 5.04650E-02-4.41678E-14-6.45947E-13
 -1      1381 1.53045E+01 4.12222E-02-1.43422E-03 7.42080E-02-4.07638E-14-7.54822E-13
 -1      1382 1.59704E+01 7.21414E-02-1.29914E-02 5.08731E-03-6.61450E-14-5.52471E-13
 -1      1383 1.54114E+01 3.86107E-02-1.42531E-03 1.61976E-01 2.87366E-14-7.62118E-13
 -1      1384 1.56191E+01 3.17742E-02-6.39062E-04 1.81468E-01-2.22608E-15-7.19164E-13
 -1      1385 1.60793E+01 6.60239E-02-1.18181E-02 2.27789E-01-1.62067E-14-5.94633E-13
 -1      1386 1.58127E+01 2.74903E-02-7.62972E-04 2.46912E-01 3.12376E-14-6.48800E-13
 -1      1387 1.61196E+01 1.81280E-02 3.99213E-04 2.59226E-01 3.63451E-14-5.59315E-13
 -1      1388 1.63770E+01 4.91762E-02-8.62294E-03 4.13202E-01 5.32781E-14-4.89435E-13
 -1      1389 1.63704E+01 1.36640E-02-5.82547E-05 2.94757E-01 4.94635E-15-5.59093E-13
 -1      1390 1.67316E+01 3.96564E-03 1.32009E-03 2.99078E-01-4.51711E-15-4.98792E-13
 -1      1391 1.68166E+01 2.65589E-02-4.42408E-03 5.34775E-01 4.04477E-14-4.74155E-13
 -1      1392 1.70063E+01 6.22615E-04 4.19873E-04 3.04840E-01-2.79260E-14-5.59016E-13
 -1      1393 1.73768E+01-7.64318E-03 1.86221E-03 3.02278E-01-2.09566E-14-5.98402E-13
 -1      1394 1.73350E+01 4.01519E-03-3.61993E-04 5.83706E-01-2.54315E-14-3.97703E-13
 -1      1395 1.76455E+01-9.20417E-03 5.63035E-04 2.84405E-01-9.04762E-14-6.83341E-13
 -1      1396 1.79894E+01-1.51044E-02 1.95032E-03 2.77182E-01-1.15982E-13-8.12671E-13
 -1      1397 1.78694E+01-1.38850E-02 2.73622E-03 5.68000E-01-1.30366E-13-6.11356E-13
 -1      1398 1.82307E+01-1.49073E-02 4.20382E-04 2.44605E-01 2.00037E-14-8.18666E-13
 -1      1399 1.85255E+01-1.83312E-02 1.67698E-03 2.35145E-01 6.53559E-14-7.86997E-13
 -1      1400 1.83692E+01-2.49714E-02 4.54448E-03 5.06235E-01-9.31503E-14-6.79365E-13
 -1      1401 1.87276E+01-1.68481E-02 1.25971E-04 1.96591E-01-1.66690E-14-6.83828E-13
 -1      1402 1.89639E+01-1.82288E-02 1.21344E-03 1.86869E-01 1.67722E-14-6.26860E-13
 -1      1403 1.88024E+01-2.93790E-02 5.16494E-03 4.19928E-01 7.55030E-14-5.01996E-13
 -1      1404 1.91236E+01-1.60729E-02-1.83874E-04 1.49013E-01-2.14559E-14-5.83260E-13
 -1      1405 1.93023E+01-1.60577E-02 7.22417E-04 1.40300E-01-3.90313E-15-6.22570E-13
 -1      1406 1.91548E+01-2.86845E-02 4.93039E-03 3.27667E-01 3.40539E-14-4.11235E-13
 -1      1407 1.94223E+01-1.37598E-02-4.19419E-04 1.07189E-01 5.35717E-14-6.39710E-13
 -1      1408 1.95505E+01-1.29678E-02 3.10422E-04 1.00085E-01 7.69554E-14-5.57751E-13
 -1      1409 1.94264E+01-2.49212E-02 4.21689E-03 2.42270E-01 1.31019E-14-2.27100E-13
 -1      1410 1.96365E+01-1.08791E-02-5.47206E-04 7.34495E-02-1.61225E-14-5.33816E-13
 -1      1411 1.97241E+01-9.78076E-03 2.11319E-05 6.80637E-02-4.20885E-14-5.89713E-13
 -1      1412 1.96260E+01-1.98841E-02 3.33105E-03 1.70557E-01 2.39979E-14-1.99603E-13
 -1      1413 1.97832E+01-8.07248E-03-5.75468E-04 4.80064E-02-6.46296E-14-4.99091E-13
 -1      1414 1.98402E+01-6.96556E-03-1.47779E-04 4.41613E-02-1.13564E-14-5.20726E-13
 -1      1415 1.97664E+01-1.48231E-02 2.47218E-03 1.14617E-01 2.21598E-14-1.58230E-13
 -1      1416 1.98792E+01-5.67526E-03-5.32889E-04 2.98753E-02 1.61331E-14-5.38279E-13
 -1      1417 1.99145E+01-4.71341E-03-2.22214E-04 2.72718E-02 1.02511E-13-5.20741E-13
 -1      1418 1.98613E+01-1.04288E-02 1.74187E-03 7.35281E-02 6.24360E-15-1.43112E-13
 -1      1419 1.99391E+01-3.80052E-03-4.51576E-04 1.75890E-02 3.67873E-14-5.31871E-13
 -1      1420 1.99597E+01-3.03837E-03-2.34042E-04 1.59118E-02 3.85594E-14-5.11674E-13
 -1      1421 1.99227E+01-6.96218E-03 1.17247E-03 4.48766E-02 9.50570E-14-2.52194E-13
 -1      1422 1.99746E+01-2.42889E-03-3.57622E-04 9.65049E-03 7.28503E-14-5.06742E-13
 -1      1423 1.99857E+01-1.86371E-03-2.11086E-04 8.62340E-03 2.93447E-14-4.78050E-13
 -1      1424 1.99609E+01-4.41718E-03 7.56237E-04 2.58259E-02 3.22373E-14-4.56464E-13
 -1      1425 1.99942E+01-1.47886E-03-2.68084E-04 4.76413E-03 4.17177E-14-4.74586E-13
 -1      1426 1.99995E+01-1.08109E-03-1.73423E-04 4.16985E-03 9.27397E-15-4.43786E-13
 -1      1427 1.99835E+01-2.65596E-03 4.67355E-04 1.37333E-02 3.69010E-14-4.41629E-13
 -1      1428 2.00040E+01-8.52020E-04-1.91770E-04 1.91494E-03-9.57815E-14-3.51406E-13
 -1      1429 2.00060E+01-5.84181E-04-1.33459E-04 1.59496E-03-6.06358E-14-4.61726E-13
 -1      1430 1.99960E+01-1.49950E-03 2.75655E-04 6.42400E-03-9.36032E-14-2.50332E-13
 -1      1431 2.00080E+01-4.57158E-04-1.31538E-04 3.62682E-04-1.03373E-13-5.46682E-13
 -1      1432 2.00082E+01-2.83863E-04-9.76564E-05 2.08025E-04-1.32961E-13-7.11768E-13
 -1      1433 2.00023E+01-7.77665E-04 1.53629E-04 2.25028E-03-1.00684E-13-2.06091E-13
 -1      1434 2.00089E+01-2.20127E-04-8.66889E-05-4.02721E-04 5.52315E-15-6.44555E-13
 -1      1435 2.00083E+01-1.12212E-04-6.85266E-05-4.63253E-04-6.00380E-14-7.59771E-13
 -1      1436 2.00049E+01-3.50669E-04 7.91257E-05 3.95089E-05-8.88287E-14-2.66173E-13
 -1      1437 2.00082E+01-8.55027E-05-5.48249E-05-7.15858E-04-1.42157E-13-7.27772E-13
 -1      1438 2.00073E+01-2.08558E-05-4.63048E-05-7.26593E-04-4.14044E-14-7.76357E-13
 -1      1439 2.00055E+01-1.13689E-04 3.56690E-05-1.00075E-03-1.47878E-13-3.12702E-13
 -1      1440 2.00069E+01-1.43137E-05-3.30596E-05-7.86156E-04 1.57553E-13-8.31847E-13
 -1      1441 2.00058E+01 2.28886E-05-3.01232E-05-7.73323E-04 1.73432E-13-6.23320E-13
 -1      1442 2.00051E+01 6.86213E-06 1.16887E-05-1.38148E-03 1.26203E-13-1.88029E-13
 -1      1443 2.00053E+01 1.95756E-05-1.86903E-05-7.38256E-04 1.03550E-13-3.88520E-13
 -1      1444 2.00044E+01 4.01999E-05-1.87540E-05-7.16412E-04 1.05919E-13-3.16320E-13
 -1      1445 2.00043E+01 6.00299E-05-5.89015E-07-1.41708E-03 2.77935E-13-2.47822E-13
 -1      1446 2.00039E+01 3.30885E-05-9.52480E-06-6.41620E-04 2.19181E-13-3.50824E-13
 -1      1447 2.00031E+01 4.44066E-05-1.10603E-05-6.18029E-04 1.86716E-13-7.73895E-14
 -1      1448 2.00033E+01 7.72218E-05-6.22032E-06-1.29071E-03 2.05086E-13-1.33881E-13
 -1      1449 2.00026E+01 3.70217E-05-4.04624E-06-5.30706E-04 1.00389E-13-6.20296E-14
 -1      1450 2.00019E+01 4.38840E-05-6.31088E-06-5.08082E-04-1.58072E-14 8.86252E-15
 -1      1451 2.00023E+01 7.81199E-05-8.45680E-06-1.10072E-03 2.25770E-13-2.12148E-13
 -1      1452 2.00015E+01 3.84868E-05-1.57871E-06-4.17659E-04-1.54797E-13 1.95744E-13
 -1      1453 2.00010E+01 4.40921E-05-4.26781E-06-3.95627E-04-1.14464E-13-4.03623E-14
 -1      1454 2.00015E+01 7.54534E-05-9.44227E-06-8.91453E-04-3.02960E-15-4.54583E-14
 -1      1455 2.00007E+01 4.22156E-05-2.09309E-06-3.00109E-04 3.93947E-14 4.42109E-14
 -1      1456 2.00004E+01 4.78812E-05-4.29839E-06-2.75363E-04 1.72580E-13 5.86484E-14
 -1      1457 2.00008E+01 7.79188E-05-1.05704E-05-6.72385E-04-3.53298E-14 3.19068E-13
 -1      1458 2.00001E+01 5.71893E-05-2.86398E-06-1.67170E-04 5.52912E-14 9.32748E-14
 -1      1459 2.00000E+01 5.37349E-05-1.87699E-06-1.34907E-04 2.01001E-13 2.70607E-13
 -1      1460 2.00003E+01 9.28609E-05-1.07440E-05-4.34218E-04 2.00119E-13 4.32228E-13
 -1      1461 1.99998E+01 2.42270E-05 2.17063E-07-4.20319E-06-2.61583E-13 2.38368E-13
 -1      1462 1.99999E+01 9.65728E-05-6.18899E-06-1.37901E-04-1.83680E-13 3.90172E-13
 -1      1463 2.07577E+01 3.27443E-01-1.76280E-01 8.49378E-01 1.75207E-13 1.48947E-12
 -1      1464 2.21442E+01 1.87655E-01-4.00741E-01 1.36244E+00 1.76331E-13 1.68604E-12
 -1      1465 1.96584E+01 9.40387E-02-1.83673E-02 3.46285E-01 1.42761E-13 1.16755E-12
 -1      1466 2.01509E+01 1.60422E-01-8.03454E-02 4.19633E-01 1.50331E-13 1.38057E-12
 -1      1467 2.10425E+01 4.14043E-01-1.02766E-01 1.33567E+00 3.09815E-13 8.74679E-13
 -1      1468 1.91236E+01 4.32978E-02 1.27064E-02 1.24407E-01 9.10591E-14 9.38485E-13
 -1      1469 1.92871E+01 6.75899E-02 1.19432E-03 1.43204E-01 1.06148E-13 1.07672E-12
 -1      1470 1.99668E+01 1.40913E-01-3.70464E-02 5.30342E-01 2.41564E-13 7.16255E-13
 -1      1471 1.89350E+01 2.06907E-02 1.13930E-02 2.08183E-02 6.05514E-14 7.80962E-13
 -1      1472 1.89576E+01 3.29927E-02 1.31514E-02 3.07789E-02 7.03847E-14 8.72920E-13
 -1      1473 1.94714E+01 5.88920E-02-9.15169E-03 1.79985E-01 1.55889E-13 5.55927E-13
 -1      1474 1.89218E+01 1.04470E-02 6.90985E-03-3.08973E-02 5.81783E-14 6.43121E-13
 -1      1475 1.88782E+01 1.71986E-02 9.14978E-03-2.57443E-02 5.56256E-14 7.36513E-13
 -1      1476 1.92568E+01 2.64215E-02-3.76453E-03 1.26398E-02 1.18454E-13 4.25607E-13
 -1      1477 1.90026E+01 5.59154E-03 4.22741E-03-5.83202E-02 3.13961E-14 5.46086E-13
 -1      1478 1.89257E+01 9.47591E-03 5.10333E-03-5.56304E-02 5.57271E-14 6.15365E-13
 -1      1479 1.92029E+01 1.25170E-02-2.56254E-03-7.38049E-02 1.06525E-13 3.80142E-13
 -1      1480 1.91376E+01 3.88043E-03 3.05432E-03-7.43307E-02 2.46365E-14 5.13093E-13
 -1      1481 1.90422E+01 5.83170E-03 2.95298E-03-7.26925E-02 2.82544E-14 5.27672E-13
 -1      1482 1.92423E+01 6.57459E-03-1.87869E-03-1.21520E-01 6.17076E-14 3.09077E-13
 -1      1483 1.93115E+01 4.78455E-03 2.70985E-03-8.73822E-02 4.77234E-14 4.14737E-13
 -1      1484 1.92010E+01 5.09270E-03 2.00845E-03-8.55963E-02 3.85561E-14 4.75056E-13
 -1      1485 1.93397E+01 5.48131E-03-1.47827E-03-1.52740E-01 6.95683E-14 2.42413E-13
 -1      1486 1.95277E+01 8.61069E-03 2.84841E-03-1.05147E-01 2.39418E-14 3.46086E-13
 -1      1487 1.93960E+01 7.16352E-03 1.64046E-03-1.01880E-01 4.99572E-14 4.12278E-13
 -1      1488 1.94806E+01 8.86103E-03-1.54328E-03-1.83642E-01 7.90197E-14 2.14888E-13
 -1      1489 1.98096E+01 1.64711E-02 3.25447E-03-1.36890E-01-2.14911E-14 3.88085E-13
 -1      1490 1.96387E+01 1.27867E-02 1.46995E-03-1.30293E-01-1.75409E-14 3.38512E-13
 -1      1491 1.96667E+01 1.78816E-02-2.25048E-03-2.30481E-01 1.31438E-14 1.91440E-13
 -1      1492 2.02073E+01 3.05093E-02 3.48543E-03-1.96027E-01-5.01682E-15 3.87266E-13
 -1      1493 1.99620E+01 2.36957E-02 1.06084E-03-1.83195E-01-1.90212E-14 3.75155E-13
 -1      1494 1.99163E+01 3.54452E-02-3.86266E-03-3.14259E-01-2.05144E-14 1.92459E-13
 -1      1495 2.08103E+01 5.42492E-02 2.32124E-03-3.03568E-01 4.98473E-14 3.02696E-13
 -1      1496 2.04281E+01 4.30189E-02-5.46326E-04-2.79684E-01 6.54320E-14 3.66216E-13
 -1      1497 2.02673E+01 6.69234E-02-6.91355E-03-4.66035E-01 4.16550E-14 1.59871E-13
 -1      1498 2.17671E+01 9.26206E-02-2.91941E-03-4.92609E-01 1.48614E-14 3.23939E-13
 -1      1499 2.11424E+01 7.57440E-02-5.57074E-03-4.49684E-01-4.22926E-15 3.20913E-13
 -1      1500 2.07832E+01 1.21147E-01-1.24424E-02-7.33584E-01 4.88533E-14 1.67096E-13
 -1      1501 2.33085E+01 1.50007E-01-1.57538E-02-8.12045E-01 1.04118E-14 2.82066E-13
 -1      1502 2.22728E+01 1.28407E-01-1.80925E-02-7.37552E-01 1.48284E-14 3.19810E-13
 -1      1503 2.15597E+01 2.10317E-01-2.19807E-02-1.18788E+00 3.74353E-14 1.68478E-13
 -1      1504 2.57548E+01 2.21879E-01-3.27207E-02-1.31969E+00 2.69056E-14 1.90181E-13
 -1      1505 2.40671E+01 2.04972E-01-4.17326E-02-1.19790E+00 5.42934E-14 2.82205E-13
 -1      1506 2.27255E+01 3.43686E-01-3.56786E-02-1.92015E+00 3.85941E-14 9.12087E-14
 -1      1507 2.94220E+01 2.66765E-01-2.13403E-02-2.03317E+00-5.97473E-14 2.92794E-13
 -1      1508 2.68438E+01 2.82470E-01-6.78666E-02-1.85876E+00-2.96065E-14 2.61374E-13
 -1      1509 2.44261E+01 4.99913E-01-4.46558E-02-2.99895E+00-4.78402E-14 1.19300E-13
 -1      1510 3.40637E+01 1.40034E-01 9.43373E-02-2.71837E+00-1.22784E-13 4.79866E-13
 -1      1511 3.07915E+01 2.80187E-01-3.74822E-02-2.57024E+00-1.01788E-13 3.68455E-13
 -1      1512 2.67203E+01 5.30219E-01-1.56946E-02-4.26768E+00-1.71324E-13 2.44235E-13
 -1      1513 3.91103E+01-4.61528E-01 3.71650E-01-2.62099E+00-7.00273E-14 7.31026E-13
 -1      1514 3.58510E+01-6.04730E-02 1.56817E-01-2.79137E+00-1.35822E-13 5.77927E-13
 -1      1515 2.96587E+01 3.89283E-02 8.57179E-02-5.09657E+00-2.23016E-13 3.87785E-13
 -1      1516 4.13798E+01-1.38980E+00 4.62810E-01-6.45817E-01-1.65201E-13 9.80299E-13
 -1      1517 4.07777E+01-9.30772E-01 4.91427E-01-1.46754E+00-1.27301E-13 7.79463E-13
 -1      1518 3.30654E+01-1.46113E+00 2.30613E-01-4.03627E+00-2.47136E-13 6.05807E-13
 -1      1519 3.98600E+01-1.72068E+00-9.09154E-02 2.69397E+00 2.54970E-14 9.79161E-13
 -1      1520 4.30657E+01-1.79938E+00 5.11423E-01 1.63642E+00-6.94375E-14 9.60787E-13
 -1      1521 3.65291E+01-3.25912E+00 1.67847E-01-4.59830E-01-1.58817E-13 7.00238E-13
 -1      1522 2.86523E+01 1.53921E+00-2.85598E+00 2.28864E+00 2.92433E-13 2.68133E-13
 -1      1523 3.31129E+01 9.52694E-01-1.98304E+00 3.42855E+00 1.78968E-13 6.15286E-13
 -1      1524 3.18299E+01 1.09030E+00-2.26001E+00-2.71162E+00 4.71845E-13-6.72684E-13
 -1      1525 2.85500E+01 1.73271E+00-2.88713E+00-1.33260E+00 4.32432E-13 4.93217E-14
 -1      1526 4.25669E+01 3.53489E+00-3.70145E-01 8.63490E-01 6.38600E-13-5.21978E-14
 -1      1527 3.98202E+01-6.16830E-01-4.45201E-01-4.57460E+00 2.38587E-13-1.43008E-12
 -1      1528 3.21559E+01 5.03660E-01-1.92778E+00-4.53700E+00 3.46501E-13-9.65894E-13
 -1      1529 4.19091E+01 1.66685E+00-4.01185E-01-5.88481E+00 7.46403E-13-3.10529E-13
 -1      1530 4.46027E+01-9.46340E-01 7.03847E-01-1.96226E+00 3.42608E-16-1.72162E-12
 -1      1531 3.99495E+01-7.30523E-01-1.11994E-01-2.66817E+00 1.20650E-13-1.64757E-12
 -1      1532 4.15067E+01-1.96508E+00-3.29712E-01-6.24797E+00 3.28904E-13-9.00547E-13
 -1      1533 4.34216E+01-3.56271E-01 7.18053E-01 9.85658E-01-1.66769E-13-1.30870E-12
 -1      1534 4.38104E+01-7.40667E-01 6.98049E-01 3.65606E-01-1.35517E-13-1.57974E-12
 -1      1535 4.01952E+01-1.86313E+00 2.73682E-01-1.20361E+00-1.58082E-13-1.08910E-12
 -1      1536 3.79021E+01 1.22639E-01 2.23674E-01 2.06821E+00-1.17996E-13-9.83463E-13
 -1      1537 4.12082E+01-3.08464E-01 4.37679E-01 1.91593E+00-1.26441E-13-1.21586E-12
 -1      1538 3.72660E+01-6.98366E-01 3.31036E-01 2.88700E+00-2.47330E-13-8.62494E-13
 -1      1539 3.18708E+01 2.11133E-01-7.34968E-02 1.82522E+00 1.23426E-14-6.70769E-13
 -1      1540 3.54361E+01-2.17512E-02 4.41834E-02 1.89456E+00-3.31661E-14-8.00249E-13
 -1      1541 3.28433E+01 3.60030E-02 8.59056E-02 3.81254E+00-1.56229E-13-5.45924E-13
 -1      1542 2.73311E+01 1.55149E-01-1.20427E-01 1.25450E+00-2.93703E-13-1.10523E-13
 -1      1543 2.99346E+01 7.81579E-02-9.94088E-02 1.36360E+00-1.52621E-13-5.54445E-13
 -1      1544 2.86358E+01 2.45122E-01-4.76653E-02 3.07014E+00-2.33738E-13-3.09697E-13
 -1      1545 2.43468E+01 9.36824E-02-8.45164E-02 7.76071E-01 3.41914E-15 1.53905E-13
 -1      1546 2.60006E+01 8.60721E-02-9.04185E-02 8.63100E-01-7.84546E-14 5.35127E-14
 -1      1547 2.54578E+01 2.14623E-01-6.59828E-02 2.05410E+00-2.48926E-13-1.40582E-13
 -1      1548 2.25096E+01 5.31691E-02-4.65123E-02 4.57309E-01-1.42917E-13 2.60913E-13
 -1      1549 2.34944E+01 6.50451E-02-5.26137E-02 5.15436E-01-1.74166E-15 1.73403E-13
 -1      1550 2.33133E+01 1.40415E-01-4.66511E-02 1.26173E+00-6.11872E-14 1.81574E-13
 -1      1551 2.14192E+01 2.93414E-02-2.31460E-02 2.62399E-01-7.30232E-15 3.90816E-13
 -1      1552 2.19862E+01 4.30589E-02-2.52312E-02 2.98422E-01-1.75276E-13 2.31162E-13
 -1      1553 2.19557E+01 8.29670E-02-2.67981E-02 7.42427E-01-1.71575E-13 2.22427E-13
 -1      1554 2.07883E+01 1.60985E-02-1.07424E-02 1.47926E-01 1.22944E-13 1.58578E-13
 -1      1555 2.11067E+01 2.67251E-02-1.08715E-02 1.69358E-01 6.76312E-14 3.85915E-13
 -1      1556 2.11293E+01 4.70617E-02-1.42257E-02 4.26022E-01 7.23900E-14 1.86465E-13
 -1      1557 2.04417E+01 9.24178E-03-5.39842E-03 8.45748E-02 2.14668E-14 7.43198E-14
 -1      1558 2.06135E+01 1.65591E-02-4.31763E-03 9.66571E-02 1.93109E-13 2.12679E-13
 -1      1559 2.06473E+01 2.49353E-02-8.25337E-03 2.42507E-01 2.69638E-13 2.80436E-13
 -1      1560 2.02339E+01 4.67124E-03-2.57971E-03 4.59992E-02-5.59754E-14 1.43171E-13
 -1      1561 2.03334E+01 9.75753E-03-1.71498E-03 5.35773E-02-6.64356E-15 1.20701E-13
 -1      1562 2.03655E+01 1.47187E-02-4.09276E-03 1.37074E-01-9.47549E-15 2.19807E-13
 -1      1563 2.01203E+01 2.40897E-03-1.16363E-03 2.44868E-02 5.76752E-14-7.20971E-14
 -1      1564 2.01733E+01 5.80177E-03-4.39173E-04 2.87934E-02 1.21427E-13 1.05874E-13
 -1      1565 2.01985E+01 7.77854E-03-2.23501E-03 7.46042E-02 9.03617E-14 5.03183E-14
 -1      1566 2.00595E+01 1.20412E-03-4.89307E-04 1.26373E-02 2.55583E-13-4.53990E-13
 -1      1567 2.00869E+01 3.34671E-03 1.48911E-05 1.50609E-02 1.40170E-13-1.33042E-13
 -1      1568 2.01050E+01 4.09738E-03-1.19274E-03 3.96146E-02 2.26261E-13 4.06202E-14
 -1      1569 2.00279E+01 5.70269E-04-1.72224E-04 6.24451E-03-1.63575E-13-3.21373E-13
 -1      1570 2.00415E+01 1.89629E-03 1.54314E-04 7.58198E-03-1.24667E-14-5.07321E-13
 -1      1571 2.00539E+01 2.10234E-03-6.24851E-04 2.03607E-02 6.44400E-14-3.53177E-14
 -1      1572 2.00122E+01 2.45847E-04-3.02127E-05 2.89458E-03-1.94841E-13 8.81424E-14
 -1      1573 2.00186E+01 1.05162E-03 1.73457E-04 3.61334E-03-5.27154E-14-1.52413E-13
 -1      1574 2.00267E+01 1.03566E-03-3.15669E-04 1.00004E-02-1.71728E-13 1.90884E-13
 -1      1575 2.00048E+01 8.70658E-05 2.63276E-05 1.21170E-03 7.76478E-14 1.08908E-13
 -1      1576 2.00076E+01 5.67042E-04 1.50143E-04 1.58398E-03-4.12339E-14-3.89912E-14
 -1      1577 2.00127E+01 4.77504E-04-1.49701E-04 4.59671E-03-9.73936E-14 5.68370E-14
 -1      1578 2.00017E+01 1.50463E-05 4.25918E-05 4.19194E-04 4.73479E-14-1.23287E-13
 -1      1579 2.00026E+01 2.94273E-04 1.16225E-04 6.01951E-04 6.54962E-14 2.40524E-14
 -1      1580 2.00058E+01 1.95058E-04-6.34057E-05 1.90243E-03 9.17530E-14-1.36063E-13
 -1      1581 2.00005E+01-1.31032E-05 4.13427E-05 8.48866E-05-1.39154E-13-4.50810E-14
 -1      1582 2.00007E+01 1.44569E-04 8.42034E-05 1.67343E-04 9.48898E-15-4.44089E-14
 -1      1583 2.00026E+01 5.96578E-05-2.08770E-05 6.49087E-04 9.19537E-15-2.74728E-13
 -1      1584 2.00002E+01-2.03080E-05 3.37388E-05-2.67835E-05 1.42731E-13 2.86606E-13
 -1      1585 2.00001E+01 6.52448E-05 5.81472E-05 5.11889E-06-1.59286E-13 2.34334E-13
 -1      1586 2.00012E+01 6.60476E-07-1.75872E-06 1.31851E-04-3.20925E-13 1.52850E-13
 -1      1587 2.00001E+01-1.84653E-05 2.49171E-05-4.04844E-05 2.22512E-14-1.44736E-13
 -1      1588 2.00000E+01 2.53617E-05 3.85378E-05-3.21076E-05 2.26702E-13 6.32239E-14
 -1      1589 2.00007E+01-2.02294E-05 5.34230E-06-3.22578E-05 2.65645E-13 2.14215E-14
 -1      1590 2.00001E+01-1.34614E-05 1.69278E-05-1.95342E-05-4.07296E-14 2.87910E-14
 -1      1591 2.00000E+01 7.03681E-06 2.44678E-05-2.04747E-05 1.20353E-15-6.22199E-14
 -1      1592 2.00004E+01-2.32926E-05 6.63373E-06-4.49545E-05 2.70773E-14-4.27238E-14
 -1      1593 2.00001E+01-7.99527E-06 1.02840E-05 5.69459E-06-3.34031E-14 3.84529E-13
 -1      1594 2.00000E+01 1.80893E-07 1.46270E-05 2.63004E-06-1.16299E-13 2.32131E-13
 -1      1595 2.00003E+01-1.88523E-05 5.34452E-06-8.02706E-06-2.56036E-13-3.79323E-14
 -1      1596 2.00000E+01-3.19160E-06 4.80927E-06 2.18167E-05 1.58548E-13-1.75724E-13
 -1      1597 2.00000E+01-7.15672E-07 7.72265E-06 2.01362E-05 2.31068E-13 1.76321E-13
 -1      1598 2.00001E+01-1.18383E-05 3.02893E-06 3.01337E-05 3.05344E-13 2.30423E-13
 -1      1599 1.99999E+01 4.89376E-07 3.32192E-07 2.39969E-05 3.21071E-13-1.00706E-12
 -1      1600 1.99999E+01 1.40244E-06 2.72375E-06 2.52881E-05 9.14171E-14-4.96156E-13
 -1      1601 2.00000E+01-4.50068E-06 3.72969E-07 4.87018E-05 4.10832E-13-2.94118E-13
 -1      1602 1.99998E+01 2.47830E-06-1.82042E-06 1.18539E-05-1.17939E-13-1.28314E-12
 -1      1603 1.99998E+01 4.84033E-06-6.12504E-07 1.66134E-05 1.84349E-13-1.24507E-12
 -1      1604 1.99999E+01 2.13496E-06-1.96906E-06 4.08980E-05 2.39119E-13-5.16862E-13
 -1      1605 1.99998E+01 2.75371E-06 2.74356E-06-6.00627E-06-1.53783E-13-1.08140E-12
 -1      1606 1.99998E+01 5.72673E-06-7.41426E-07-9.20483E-07 1.52101E-14-1.27762E-12
 -1      1607 1.99998E+01 7.06357E-06-1.58134E-06 1.08086E-05-5.91599E-14-5.61177E-13
 -1      1608 1.99998E+01-2.27171E-06 1.22652E-05-9.19924E-06-3.54037E-13-2.16659E-13
 -1      1609 1.99998E+01 2.22808E-06 3.96661E-06-1.43700E-05-3.50489E-13-6.62968E-13
 -1      1610 1.99998E+01 5.88628E-06 2.85273E-06-1.44987E-05-4.75115E-13-1.97530E-13
 -1      1611 1.99998E+01-2.19057E-05 2.94290E-06-1.44574E-05-6.22692E-13-3.55739E-14
 -1      1612 1.99998E+01-5.12616E-06-4.92625E-06 1.20409E-05-1.23230E-12-1.44083E-13
 -1      1613 1.99998E+01-6.79786E-06 4.32080E-07 5.25210E-06-5.82629E-13-1.86067E-13
 -1      1614 1.99998E+01 1.44462E-05-8.91308E-07-1.31089E-06-4.50333E-13-2.79851E-13
 -1      1615 1.99998E+01 1.15894E-04-6.78370E-06 5.62723E-05-9.62598E-13 1.68641E-13
 -1      1616 1.99998E+01 5.26632E-05-3.63412E-06 4.48079E-05-1.36865E-12 1.86336E-13
 -1      1617 1.99998E+01 8.88343E-05-4.83259E-06 6.26681E-05-5.73477E-13-6.41558E-14
 -1      1618 1.99998E+01 3.61599E-04-6.21475E-06 1.02912E-04-4.88065E-13 9.10280E-14
 -1      1619 1.99998E+01 2.26226E-04-3.99216E-06 9.00459E-05-7.62743E-13 2.37807E-14
 -1      1620 1.99998E+01 2.53903E-04-6.42901E-06 1.49478E-04-4.91268E-13 2.04070E-13
 -1      1621 1.99998E+01 7.22323E-04-4.23226E-06 1.41483E-04 1.00644E-14 8.21164E-13
 -1      1622 1.99998E+01 5.21503E-04-3.14398E-06 1.30282E-04-4.00045E-13 1.84235E-13
 -1      1623 1.99998E+01 5.17508E-04-6.07484E-06 2.33066E-04 1.21876E-15 2.00149E-13
 -1      1624 1.99998E+01 1.15259E-03-1.49784E-06 1.62600E-04 5.32601E-13 2.65439E-13
 -1      1625 1.99998E+01 9.12943E-04-1.67892E-06 1.55518E-04 3.91460E-14 3.71015E-13
 -1      1626 1.99998E+01 8.61008E-04-4.05144E-06 2.92901E-04-6.87723E-14 5.00750E-13
 -1      1627 1.99998E+01 1.60946E-03 1.66923E-06 1.60942E-04 2.24265E-13-3.40756E-13
 -1      1628 1.99998E+01 1.35614E-03 6.21569E-08 1.59503E-04 3.30241E-13 1.58626E-13
 -1      1629 1.99998E+01 1.24777E-03-9.84920E-07 3.14660E-04-1.28339E-13 1.17180E-13
 -1      1630 1.99998E+01 2.01693E-03 4.82191E-06 1.33526E-04-3.77393E-14 1.01497E-14
 -1      1631 1.99998E+01 1.79300E-03 1.87094E-06 1.38846E-04 1.23173E-13-2.28454E-13
 -1      1632 1.99998E+01 1.62867E-03 2.53932E-06 2.89828E-04 5.51615E-14-3.67897E-13
 -1      1633 1.99998E+01 2.30639E-03 7.49087E-06 8.21928E-05-1.68822E-13-1.41504E-14
 -1      1634 1.99998E+01 2.15052E-03 3.46529E-06 9.41830E-05 2.98228E-14-7.14866E-14
 -1      1635 1.99998E+01 1.94213E-03 6.04824E-06 2.16821E-04 1.45731E-13-1.48673E-13
 -1      1636 1.99998E+01 2.42081E-03 9.25683E-06 1.25706E-05-2.45787E-13-8.67641E-14
 -1      1637 1.99998E+01 2.36486E-03 4.66575E-06 3.01161E-05-4.25816E-13 7.98388E-14
 -1      1638 1.99998E+01 2.13406E-03 9.01351E-06 1.02270E-04-1.90130E-14 1.23389E-14
 -1      1639 1.99998E+01 2.32511E-03 9.60739E-06-6.59695E-05-2.04823E-13-1.18313E-13
 -1      1640 1.99998E+01 2.38835E-03 5.29992E-06-4.51301E-05-2.63891E-13-4.76733E-14
 -1      1641 1.99998E+01 2.16396E-03 1.08794E-05-3.98902E-05-2.48958E-13-3.53482E-15
 -1      1642 1.99998E+01 2.02364E-03 8.13746E-06-1.39478E-04 7.83872E-14 6.10682E-14
 -1      1643 1.99998E+01 2.20185E-03 4.94194E-06-1.18938E-04-9.09756E-14 6.51065E-14
 -1      1644 1.99998E+01 2.01561E-03 1.12710E-05-1.87682E-04-9.25362E-15 5.33177E-14
 -1      1645 1.99998E+01 1.54348E-03 3.99973E-06-1.94668E-04 2.27837E-13 1.70070E-13
 -1      1646 1.99998E+01 1.82028E-03 3.23564E-06-1.77838E-04 2.03340E-13-8.54899E-14
 -1      1647 1.99998E+01 1.69982E-03 9.14441E-06-3.14735E-04 2.32992E-13 1.47995E-13
 -1      1648 1.99998E+01 9.72146E-04-3.04245E-06-2.12068E-04 2.31895E-13 3.43766E-13
 -1      1649 1.99998E+01 1.29406E-03-4.53357E-07-2.04916E-04-2.99263E-14 1.74748E-13
 -1      1650 1.99998E+01 1.25772E-03 4.25067E-06-3.90633E-04 2.40005E-13 1.79361E-13
 -1      1651 1.99998E+01 4.55929E-04-4.63500E-06-1.74833E-04-4.64474E-13-4.70983E-13
 -1      1652 1.99998E+01 7.29101E-04-5.89649E-06-1.81922E-04-9.96833E-14-4.11691E-14
 -1      1653 1.99998E+01 7.69817E-04-3.86048E-06-3.81612E-04-2.84696E-13-1.31310E-13
 -1      1654-1.64875E+00-1.95663E+01-1.96088E+00-3.41298E+00 8.22235E-13 3.54106E-13
 -1      1655-1.15459E+00-1.96692E+01-1.87290E+00-1.31237E+00 5.60385E-13 1.55098E-13
 -1      1656-1.27382E+00-1.46014E+01-1.88850E+00-3.39050E+00 8.93174E-13 2.21462E-13
 -1      1657-1.06013E+00-1.84911E+01-2.04043E+00-2.72931E+00 9.30200E-13 1.43607E-13
 -1      1658 3.88650E+00-7.07405E+00-1.68145E+00 1.60075E-01 9.41469E-13 1.12793E-12
 -1      1659 1.50324E+00-1.30195E+01-2.14062E+00-1.99522E+00 6.76459E-13 5.74790E-13
 -1      1660 1.45000E+01-3.63581E-01-1.14628E+00 5.41820E+00 1.30829E-12 1.64402E-12
 -1      1661 7.83952E+00-5.52465E+00-2.14021E+00 1.23581E+00 1.13043E-12 1.24145E-12
 -1      1662 3.53088E+01 2.78485E+00 5.84210E-01 1.03775E+01 1.10023E-12 1.66489E-12
 -1      1663 2.20031E+01 5.09236E-01-1.20056E+00 6.01967E+00 1.20060E-12 1.69553E-12
 -1      1664 6.13473E+01 3.58594E+00 3.42104E+00 9.73296E+00 6.40321E-13 9.52127E-13
 -1      1665 4.32561E+01 4.11089E+00 8.44840E-01 9.68635E+00 1.17528E-12 1.42331E-12
 -1      1666 7.81705E+01 3.36485E+00 5.34628E+00 2.51498E+00 3.49720E-13 2.81997E-14
 -1      1667 6.69262E+01 4.54432E+00 3.72379E+00 7.87398E+00 4.87832E-13 6.33715E-13
 -1      1668 7.60155E+01 4.44543E+00 5.06568E+00-5.24387E+00 4.27547E-13-8.35665E-13
 -1      1669 7.94743E+01 3.97234E+00 5.53058E+00 1.96974E+00 2.34257E-13-3.56770E-13
 -1      1670 5.85307E+01 4.62828E+00 2.69734E+00-9.62528E+00 7.82235E-13-1.41975E-12
 -1      1671 7.30120E+01 3.35930E+00 4.73970E+00-6.61692E+00 5.20445E-13-9.62785E-13
 -1      1672 3.55479E+01 2.10744E+00-1.12038E-01-7.71390E+00 1.07170E-12-1.56675E-12
 -1      1673 5.12874E+01 2.82063E+00 2.06952E+00-9.89438E+00 8.10463E-13-1.46727E-12
 -1      1674 1.56390E+01-2.00966E+00-1.75126E+00-4.05202E+00 1.46594E-12-1.53921E-12
 -1      1675 2.68019E+01 1.79677E+00-2.25156E-01-8.77450E+00 1.20348E-12-1.69020E-12
 -1      1676 3.85121E+00-8.70049E+00-2.31231E+00 7.95779E-01 1.79434E-12-1.25799E-12
 -1      1677 8.50595E+00-2.84590E+00-1.54137E+00-2.84960E+00 1.68865E-12-1.44795E-12
 -1      1678-2.38300E-01-1.56283E+01-2.23351E+00 2.99497E+00 1.52822E-12-8.36373E-13
 -1      1679 6.26981E-01-1.03829E+01-1.92454E+00 2.03385E+00 1.73861E-12-1.19343E-12
 -1      1680-1.30545E+00-2.01173E+01-2.10737E+00 2.64189E+00 9.35738E-13-3.71314E-13
 -1      1681-1.85158E+00-1.73608E+01-2.06756E+00 4.08001E+00 1.36519E-12-6.89671E-13
 -1      1682-9.96088E-01-1.82860E+01-1.71799E+00 7.77451E-01-1.35059E-13-4.69846E-13
 -1      1683-1.39266E+00-1.97152E+01-1.91912E+00 2.88518E+00 6.37157E-13-4.85778E-13
 -1      1684 1.80045E-01-1.23675E+01-1.37764E+00 2.96432E-01-1.16152E-12-6.89393E-13
 -1      1685-1.62826E-01-1.75018E+01-1.83820E+00 9.90116E-01-4.86278E-13-4.48197E-13
 -1      1686 4.66530E+00-3.08434E+00-7.17354E-01 3.84607E+00-1.75393E-12-1.21486E-12
 -1      1687 2.60044E+00-9.74195E+00-1.41324E+00 1.75677E+00-1.32139E-12-8.44658E-13
 -1      1688 1.27073E+01 4.79866E+00-5.07668E-02 8.92748E+00-1.85496E-12-1.43197E-12
 -1      1689 7.76444E+00-3.27834E-01-8.87853E-01 5.07477E+00-1.95044E-12-1.23657E-12
 -1      1690 2.57804E+01 8.38884E+00 6.37216E-01 1.38822E+01-1.45550E-12-1.79989E-12
 -1      1691 1.75553E+01 6.42164E+00-2.15228E-01 1.03749E+01-1.81100E-12-1.60005E-12
 -1      1692 4.23459E+01 7.59819E+00 1.29218E+00 1.45700E+01-1.08052E-12-1.46372E-12
 -1      1693 3.19256E+01 8.51936E+00 4.98478E-01 1.38161E+01-1.32405E-12-1.73372E-12
 -1      1694 5.67255E+01 5.30950E+00 1.82697E+00 9.82883E+00-5.47458E-13-8.65419E-13
 -1      1695 4.79093E+01 7.53289E+00 1.22798E+00 1.34929E+01-9.03888E-13-1.35580E-12
 -1      1696 6.28348E+01 3.89657E+00 1.97942E+00 6.59017E-01-2.49245E-13-2.98442E-13
 -1      1697 6.01616E+01 4.75862E+00 1.81148E+00 7.04317E+00-3.90799E-13-6.78957E-13
 -1      1698 5.81378E+01 5.34409E+00 1.70674E+00-9.08463E+00-4.35152E-13 5.06706E-13
 -1      1699 6.24666E+01 4.01829E+00 2.00413E+00-2.95442E+00-2.66370E-13-2.49245E-14
 -1      1700 4.50214E+01 7.81462E+00 1.06138E+00-1.36759E+01-1.10967E-12 1.31095E-12
 -1      1701 5.38415E+01 5.82684E+00 1.67171E+00-1.10887E+01-6.71858E-13 7.15983E-13
 -1      1702 2.91681E+01 8.71244E+00 3.86861E-01-1.37466E+01-1.63936E-12 1.87161E-12
 -1      1703 3.96236E+01 8.08009E+00 1.19583E+00-1.51420E+01-1.25799E-12 1.49925E-12
 -1      1704 1.46835E+01 5.24774E+00-4.14983E-01-9.08569E+00-1.72284E-12 1.59472E-12
 -1      1705 2.28947E+01 8.19421E+00 5.28431E-01-1.32327E+01-1.75437E-12 2.05636E-12
 -1      1706 5.51389E+00-3.05437E+00-1.12558E+00-3.58494E+00-1.01141E-12 9.45355E-13
 -1      1707 9.78712E+00 3.17424E+00-2.47836E-01-7.39948E+00-1.48792E-12 1.47404E-12
 -1      1708 1.17790E+00-1.27068E+01-1.64754E+00-8.42019E-01-2.15605E-13 3.67859E-13
 -1      1709 2.41167E+00-5.93676E+00-9.91399E-01-2.05404E+00-7.92255E-13 7.00107E-13
 -1      1710-6.07722E-01-1.91960E+01-1.92445E+00-1.50386E+00 3.99347E-13 1.00614E-13
 -1      1711-3.69916E-01-1.50830E+01-1.56103E+00-1.11433E-01 3.88578E-15 2.78721E-13
 -1      1712 2.29514E+01 1.98761E+00-2.68042E-02 2.77256E+00 2.14332E-13 1.38239E-12
 -1      1713 4.15140E+01-9.83684E-01-2.00850E-01 4.72143E+00 2.04364E-13 8.99947E-13
 -1      1714 4.17981E+01-2.92359E+00 2.30330E-01 4.77966E+00 1.82139E-13 4.62019E-13
 -1      1715 3.52617E+01-6.66544E-02-1.39530E+00 4.89237E+00 2.71616E-13 6.96221E-13
 -1      1716 3.24854E+00-1.06330E+01-1.37376E+00 1.96691E+00 3.31957E-13 3.54689E-13
 -1      1717-1.97488E+00-1.32376E+01-1.38942E+00-2.52022E+00 3.19467E-13 3.56326E-13
 -1      1718-1.72642E+00-1.27976E+01-1.43623E+00-5.98702E-01 4.11504E-13 2.80886E-13
 -1      1719 1.99998E+01 1.64201E-04-1.40478E-06-1.31022E-04-5.52902E-13 2.75829E-14
 -1      1720 1.99998E+01 3.22554E-04-7.76001E-06-1.68576E-04-4.55427E-13-2.11937E-13
 -1      1721 1.99999E+01 4.07063E-04-9.70945E-06-3.28069E-04-1.51445E-13-3.59379E-13
 -1      1722 1.25029E+01-8.15670E+00-1.32235E+00 3.61735E+00 3.61045E-13 8.83182E-13
 -1      1723 2.67942E+01-4.89987E+00-5.06355E-01 4.29554E+00 6.59917E-13 1.00453E-12
 -1      1724 4.32919E+01-2.01260E+00 3.34757E-01 2.16881E+00 8.79019E-13 7.84262E-13
 -1      1725 5.76244E+01 3.54363E+00 2.65337E+00-5.89538E-01 7.94087E-13 3.36176E-13
 -1      1726 6.26090E+01 7.38070E+00 3.49938E+00-5.15015E-01 6.61693E-13-2.53686E-13
 -1      1727 6.17157E+01 6.35058E+00 3.33000E+00 1.03076E+00 6.56142E-13-4.77285E-13
 -1      1728 5.23842E+01 1.07947E+00 1.69861E+00 7.78960E-02 6.31578E-13-6.06404E-13
 -1      1729 3.76907E+01-3.25456E+00 2.41119E-01-2.57241E+00 7.58060E-13-7.80487E-13
 -1      1730 2.06067E+01-6.25783E+00-8.92575E-01-4.18894E+00 9.07052E-13-8.15348E-13
 -1      1731 7.49916E+00-9.35518E+00-1.47306E+00-2.65158E+00 9.12603E-13-7.71494E-13
 -1      1732 4.97693E-01-1.22816E+01-1.54248E+00-5.32267E-01 7.50233E-13-7.38409E-13
 -1      1733-2.24175E+00-1.33295E+01-1.43179E+00 1.45152E+00 3.96017E-13-7.08211E-13
 -1      1734-1.23749E+00-1.22898E+01-1.27001E+00 3.04352E+00-1.26898E-13-8.75744E-13
 -1      1735 3.38152E+00-8.93121E+00-9.37134E-01 5.28992E+00-5.81535E-13-9.77551E-13
 -1      1736 1.09201E+01-4.27189E+00-5.30742E-01 7.29775E+00-9.12825E-13-8.96200E-13
 -1      1737 2.06202E+01 7.52696E-01 2.73002E-02 9.08802E+00-1.15952E-12-9.74332E-13
 -1      1738 3.23199E+01 4.23491E+00 6.31513E-01 9.43551E+00-9.95592E-13-1.08413E-12
 -1      1739 4.31293E+01 6.67915E+00 1.09222E+00 7.52257E+00-9.33108E-13-8.15237E-13
 -1      1740 5.14819E+01 8.09656E+00 1.54523E+00 4.33933E+00-6.87006E-13-6.41653E-13
 -1      1741 5.42217E+01 8.43622E+00 1.72126E+00-6.31665E-01-5.71543E-13-2.87104E-13
 -1      1742 4.98539E+01 7.94513E+00 1.42970E+00-4.99911E+00-8.04246E-13 2.24265E-13
 -1      1743 4.13228E+01 6.48316E+00 1.05567E+00-8.03027E+00-1.01627E-12 5.03264E-13
 -1      1744 3.00777E+01 3.86353E+00 5.51629E-01-9.74506E+00-1.03173E-12 1.00775E-12
 -1      1745 1.78754E+01-2.96484E-01-1.11788E-01-8.70118E+00-7.90590E-13 1.26199E-12
 -1      1746 7.93521E+00-5.62134E+00-6.95408E-01-6.42358E+00-4.43201E-13 9.81965E-13
 -1      1747 1.28144E+00-1.05878E+01-1.14313E+00-4.20835E+00-2.70894E-14 6.05627E-13
 -1      1748 2.28747E+01 1.98567E+00-2.35105E-02-2.72270E+00-2.48326E-13 7.28084E-13
 -1      1749 4.44892E+01 1.14617E+00 1.55196E-01 6.36064E+00 4.40425E-13 1.73805E-13
 -1      1750 1.98261E+01 3.71421E+00-3.55124E-02-2.15334E+00-2.73842E-13-4.28699E-13
 -1      1751 2.00612E+01 3.56347E+00-4.02697E-02-2.44543E+00-3.28711E-13-3.38733E-13
 -1      1752 2.03694E+01 3.18237E+00-4.58328E-02-2.58505E+00-3.39875E-13-2.30226E-13
 -1      1753 2.05924E+01 2.81065E+00-1.42558E-01-2.85337E+00-3.73396E-13-7.21506E-14
 -1      1754 2.04287E+01 2.69317E+00-4.28093E-03-2.22463E+00-3.54059E-13-2.54154E-13
 -1      1755 1.93502E+01 4.18871E+00-2.00405E-02-1.27170E+00-1.19607E-13-5.72943E-13
 -1      1756 1.94255E+01 4.14929E+00-1.68344E-02-1.49590E+00-1.54758E-13-5.58401E-13
 -1      1757 1.92518E+01 4.29464E+00-1.67418E-02-8.61243E-01-5.63245E-14-5.69867E-13
 -1      1758 1.92953E+01 4.27068E+00-1.42263E-02-1.07178E+00-8.80630E-14-5.78438E-13
 -1      1759 1.95214E+01 3.78271E+00-9.07381E-03-1.12085E+00-1.19446E-13-5.55965E-13
 -1      1760 1.91993E+01 4.35573E+00-1.47800E-02-4.68955E-01 1.37222E-14-5.49056E-13
 -1      1761 1.92217E+01 4.34268E+00-1.32437E-02-6.68909E-01-1.52997E-14-5.60642E-13
 -1      1762 1.94226E+01 3.90340E+00-9.22257E-03-7.34660E-01-3.79623E-14-5.46691E-13
 -1      1763 1.91795E+01 4.38257E+00-1.36511E-02-8.67183E-02 8.88311E-14-5.25514E-13
 -1      1764 1.91861E+01 4.37827E+00-1.31330E-02-2.81618E-01 4.93572E-14-5.44141E-13
 -1      1765 1.93713E+01 3.96912E+00-9.18313E-03-3.60153E-01 3.53910E-14-5.22955E-13
 -1      1766 1.91877E+01 4.37894E+00-1.31389E-02 2.93630E-01 1.50951E-13-4.91263E-13
 -1      1767 1.91800E+01 4.38285E+00-1.36576E-02 9.88057E-02 1.19152E-13-5.06397E-13
 -1      1768 1.93561E+01 3.99043E+00-9.14304E-03 7.84453E-03 1.13362E-13-5.04350E-13
 -1      1769 1.92257E+01 4.34378E+00-1.32638E-02 6.80506E-01 2.06508E-13-4.80786E-13
 -1      1770 1.92021E+01 4.35672E+00-1.48067E-02 4.80714E-01 1.81106E-13-4.94878E-13
 -1      1771 1.93737E+01 3.97002E+00-9.15861E-03 3.75515E-01 1.79088E-13-4.71428E-13
 -1      1772 1.93003E+01 4.27292E+00-1.42670E-02 1.07599E+00 2.66482E-13-4.24803E-13
 -1      1773 1.92564E+01 4.29629E+00-1.68305E-02 8.69232E-01 2.31840E-13-4.60489E-13
 -1      1774 1.94271E+01 3.90510E+00-9.15022E-03 7.45959E-01 2.34317E-13-4.53087E-13
 -1      1775 1.94330E+01 4.14953E+00-1.70339E-02 1.50349E+00 3.38706E-13-3.32588E-13
 -1      1776 1.93560E+01 4.19018E+00-2.02498E-02 1.27551E+00 2.94086E-13-3.85966E-13
 -1      1777 1.95277E+01 3.78421E+00-9.18902E-03 1.12793E+00 3.04862E-13-3.89081E-13
 -1      1778 1.96617E+01 3.93876E+00-2.45664E-02 1.96559E+00 3.95133E-13-2.14852E-13
 -1      1779 1.95297E+01 4.01314E+00-2.61830E-02 1.71059E+00 3.64180E-13-2.84620E-13
 -1      1780 1.97016E+01 3.58120E+00-8.71434E-03 1.52641E+00 3.75478E-13-2.90622E-13
 -1      1781 2.00712E+01 3.54904E+00-4.34659E-02 2.45145E+00 4.15792E-13 1.83464E-14
 -1      1782 1.98367E+01 3.71090E+00-3.51296E-02 2.16534E+00 3.96864E-13-1.22263E-13
 -1      1783 1.99928E+01 3.24903E+00-5.16360E-03 1.92368E+00 4.08837E-13-1.46660E-13
 -1      1784 2.06175E+01 2.79380E+00-1.38112E-01 2.86815E+00 3.86462E-13 4.10560E-13
 -1      1785 2.03897E+01 3.16348E+00-4.58075E-02 2.59760E+00 3.87369E-13 1.84866E-13
 -1      1786 2.04750E+01 2.67094E+00 4.52006E-03 2.23803E+00 4.16062E-13 1.08847E-13
 -1      1787 9.38031E+00-6.01723E+00-1.90284E-01 4.96386E+00 1.61093E-13 5.27606E-13
 -1      1788 4.86117E+00-6.92276E+00-3.89094E-01 3.30360E+00 2.33091E-13 1.49325E-13
 -1      1789 4.35549E+01-1.50971E+00 2.52318E-02 3.35219E+00 5.35724E-13-1.20903E-13
 -1      1790 4.10200E+01-3.87088E+00 8.81945E-02 7.59141E-01 3.20743E-13-1.70974E-14
 -1      1791 2.18099E+01 2.45904E+00 9.09029E-02-3.04825E+00-3.28567E-13 2.20213E-13
 -1      1792 2.18391E+01 2.47479E+00 8.92909E-02 3.08891E+00 3.14512E-13 7.44696E-13
 -1      1793 2.05321E+01 5.00606E-01 3.23792E-02-9.21476E-01-2.88942E-13 6.80910E-14
 -1      1794 2.01000E+01 3.51658E-01 7.45762E-03-6.29692E-01-2.48425E-13-1.52309E-15
 -1      1795 1.99048E+01 2.56496E-01 2.73603E-02-3.91915E-01-2.20849E-13 7.35176E-15
 -1      1796 1.97128E+01 1.76542E-01 1.02022E-02-2.54838E-01-1.78180E-13-4.36283E-14
 -1      1797 2.02066E+01 4.82743E-01-5.78160E-03-7.23567E-01-2.58291E-13-9.68513E-14
 -1      1798 1.95892E+01 1.30556E-01 1.65635E-02-1.22911E-01-1.38905E-13-4.58557E-14
 -1      1799 1.95087E+01 8.98639E-02 6.61876E-03-5.37711E-02-1.04877E-13-8.74422E-14
 -1      1800 1.98781E+01 2.41060E-01-5.68514E-03-2.99247E-01-1.95364E-13-1.08763E-13
 -1      1801 1.94411E+01 6.40752E-02 8.54337E-03 1.66463E-02-9.09817E-14-9.89191E-14
 -1      1802 1.94218E+01 4.06942E-02 3.52584E-03 4.96768E-02-8.83948E-14-1.32975E-13
 -1      1803 1.96913E+01 1.19444E-01-4.46600E-03-6.77251E-02-1.28126E-13-1.17730E-13
 -1      1804 1.93911E+01 2.46141E-02 4.01289E-03 8.28639E-02-8.31258E-14-1.24988E-13
 -1      1805 1.94018E+01 9.58039E-03 1.49553E-03 9.41757E-02-7.45924E-14-1.55194E-13
 -1      1806 1.95974E+01 5.03623E-02-3.20237E-03 5.21591E-02-8.79326E-14-1.17826E-13
 -1      1807 1.93924E+01-1.65099E-03 1.52508E-03 1.02958E-01-9.33645E-14-1.43000E-13
 -1      1808 1.94138E+01-1.26267E-02 2.24987E-05 9.94885E-02-8.78061E-14-1.67448E-13
 -1      1809 1.95607E+01 6.25216E-03-1.95162E-03 1.02153E-01-8.61499E-14-1.35424E-13
 -1      1810 1.94140E+01-2.14983E-02 8.79094E-05 9.05358E-02-9.48652E-14-1.64230E-13
 -1      1811 1.94325E+01-3.07592E-02-1.23829E-03 7.55760E-02-6.88783E-14-1.62435E-13
 -1      1812 1.95539E+01-2.57582E-02-8.71530E-04 1.04261E-01-1.05001E-13-1.16110E-13
 -1      1813 1.94333E+01-3.86821E-02-8.03287E-04 5.20906E-02-7.03073E-14-1.78918E-13
 -1      1814 1.94385E+01-4.75596E-02-2.43636E-03 2.69439E-02-5.68751E-14-1.75849E-13
 -1      1815 1.95565E+01-5.24456E-02 1.94293E-05 6.97459E-02-7.86106E-14-1.22458E-13
 -1      1816 1.94325E+01-5.52726E-02-1.39220E-03-9.84830E-03-9.32542E-14-2.14689E-13
 -1      1817 1.94153E+01-6.43376E-02-3.59856E-03-4.48953E-02-7.72186E-14-2.64829E-13
 -1      1818 1.95522E+01-7.75137E-02 7.74935E-04 3.75337E-03-1.04993E-13-1.74931E-13
 -1      1819 1.93962E+01-7.19441E-02-1.80100E-03-9.46313E-02-2.56561E-14-2.82927E-13
 -1      1820 1.93483E+01-8.09543E-02-4.65338E-03-1.39454E-01 1.48447E-14-3.25272E-13
 -1      1821 1.95272E+01-1.02435E-01 1.45477E-03-9.18012E-02-7.45105E-14-1.70310E-13
 -1      1822 1.93099E+01-8.77996E-02-2.08868E-03-2.01490E-01 2.82812E-14-3.20505E-13
 -1      1823 1.92242E+01-9.55317E-02-5.43063E-03-2.55151E-01 2.24033E-14-2.81211E-13
 -1      1824 1.94691E+01-1.26371E-01 2.09245E-03-2.15735E-01 1.60497E-14-2.65005E-13
 -1      1825 1.91610E+01-1.00063E-01-2.26839E-03-3.27227E-01 3.54250E-14-2.41937E-13
 -1      1826 1.90325E+01-1.04218E-01-5.67254E-03-3.86866E-01 2.91618E-14-2.16616E-13
 -1      1827 1.93662E+01-1.45784E-01 2.67331E-03-3.64849E-01 4.63091E-14-2.01983E-13
 -1      1828 1.89397E+01-1.04009E-01-2.30817E-03-4.63655E-01-2.61911E-14-2.24773E-13
 -1      1829 1.87670E+01-1.01428E-01-5.08513E-03-5.23430E-01-4.80640E-14-1.98008E-13
 -1      1830 1.92084E+01-1.54276E-01 3.11186E-03-5.30823E-01-9.76172E-15-1.42303E-13
 -1      1831 1.86424E+01-9.35870E-02-2.12061E-03-5.95391E-01-9.34066E-14-2.61501E-13
 -1      1832 1.84303E+01-8.10378E-02-3.44672E-03-6.45973E-01-9.06655E-14-2.62766E-13
 -1      1833 1.89889E+01-1.43333E-01 3.23273E-03-6.97262E-01-8.90494E-14-1.69016E-13
 -1      1834 1.82760E+01-6.31942E-02-1.56262E-03-6.99243E-01-7.97657E-14-2.56701E-13
 -1      1835 1.80371E+01-3.88175E-02-7.61891E-04-7.28510E-01-7.09257E-14-2.90711E-13
 -1      1836 1.87080E+01-1.04582E-01 2.78289E-03-8.38163E-01-1.06172E-13-2.33472E-13
 -1      1837 1.78621E+01-1.06061E-02-4.60859E-04-7.46760E-01-9.10090E-14-3.18708E-13
 -1      1838 1.76176E+01 2.43185E-02 2.60692E-03-7.42270E-01-5.35743E-14-3.20012E-13
 -1      1839 1.83770E+01-3.37509E-02 1.50560E-03-9.19671E-01-8.41341E-14-2.70871E-13
 -1      1840 1.74395E+01 5.98158E-02 1.30222E-03-7.10981E-01 1.24987E-15-3.29758E-13
 -1      1841 1.72172E+01 9.97109E-02 5.94066E-03-6.64095E-01-3.37766E-14-2.77699E-13
 -1      1842 1.80226E+01 6.47847E-02-6.90662E-04-9.06778E-01-2.94417E-14-2.42512E-13
 -1      1843 1.70607E+01 1.35585E-01 3.66321E-03-5.76499E-01-8.30434E-14-3.22415E-13
 -1      1844 1.68910E+01 1.71184E-01 8.37181E-03-4.86877E-01-4.55348E-14-3.67969E-13
 -1      1845 1.76870E+01 1.75277E-01-3.53068E-03-7.74852E-01-7.41759E-14-2.18582E-13
 -1      1846 1.67834E+01 1.98264E-01 6.23522E-03-3.49120E-01 3.53580E-15-4.57775E-13
 -1      1847 1.66924E+01 2.19545E-01 9.24896E-03-2.27295E-01-2.19855E-14-4.98933E-13
 -1      1848 1.74222E+01 2.72686E-01-6.28563E-03-5.22471E-01-1.18013E-13-2.73513E-13
 -1      1849 1.66554E+01 2.29851E-01 8.33281E-03-5.95695E-02-3.44438E-14-5.28541E-13
 -1      1850 1.66584E+01 2.30267E-01 8.45640E-03 7.45254E-02-7.20344E-14-5.43884E-13
 -1      1851 1.72772E+01 3.30513E-01-8.01434E-03-1.79045E-01-4.57594E-14-4.32130E-13
 -1      1852 1.67004E+01 2.20644E-01 9.19924E-03 2.42826E-01-3.26943E-14-4.66567E-13
 -1      1853 1.67979E+01 2.00209E-01 6.44075E-03 3.65551E-01 6.03406E-14-4.02862E-13
 -1      1854 1.72821E+01 3.31648E-01-8.03741E-03 1.99136E-01 4.75852E-14-3.79181E-13
 -1      1855 1.69109E+01 1.73832E-01 8.38664E-03 5.05055E-01 5.78873E-14-3.71812E-13
 -1      1856 1.70883E+01 1.39102E-01 3.95562E-03 5.96500E-01 1.12892E-13-3.78717E-13
 -1      1857 1.74374E+01 2.76130E-01-6.35335E-03 5.45156E-01 7.22616E-14-2.91471E-13
 -1      1858 1.72512E+01 1.03928E-01 6.00992E-03 6.87033E-01 5.63349E-14-4.32874E-13
 -1      1859 1.74830E+01 6.49099E-02 1.68048E-03 7.36669E-01-8.37590E-15-4.26992E-13
 -1      1860 1.77141E+01 1.81066E-01-3.65140E-03 8.02784E-01 4.55397E-14-3.90555E-13
 -1      1861 1.76690E+01 3.00993E-02 2.72051E-03 7.72070E-01-2.81762E-15-4.69173E-13
 -1      1862 1.79257E+01-3.93859E-03 7.80585E-06 7.80232E-01-1.34824E-14-5.29546E-13
 -1      1863 1.80640E+01 7.29256E-02-8.64091E-04 9.42600E-01-1.69928E-14-5.36236E-13
 -1      1864 1.81105E+01-3.14769E-02-6.13864E-04 7.67248E-01-8.32858E-14-5.30259E-13
 -1      1865 1.83648E+01-5.49536E-02-9.97828E-04 7.42571E-01-9.83061E-14-5.40998E-13
 -1      1866 1.84362E+01-2.32563E-02 1.29145E-03 9.65970E-01-5.61331E-14-4.74434E-13
 -1      1867 1.85312E+01-7.21493E-02-3.27723E-03 6.95689E-01-6.13236E-14-4.61985E-13
 -1      1868 1.87627E+01-8.38007E-02-1.46146E-03 6.50599E-01 4.20319E-14-3.62035E-13
 -1      1869 1.87893E+01-9.17443E-02 2.54056E-03 8.97460E-01 2.44926E-14-2.49539E-13
 -1      1870 1.89020E+01-9.10504E-02-4.91219E-03 5.86079E-01 1.34480E-13-3.54389E-13
 -1      1871 1.90987E+01-9.27772E-02-1.56497E-03 5.32643E-01 1.68408E-13-2.87910E-13
 -1      1872 1.90974E+01-1.28214E-01 2.97825E-03 7.71950E-01 8.62013E-14-1.84165E-13
 -1      1873 1.92089E+01-9.25101E-02-5.52062E-03 4.64196E-01 4.35112E-14-3.10701E-13
 -1      1874 1.93666E+01-8.76229E-02-1.46529E-03 4.11618E-01-2.87984E-14-2.78585E-13
 -1      1875 1.93493E+01-1.37073E-01 2.86740E-03 6.23026E-01 8.90737E-14-1.46770E-13
 -1      1876 1.94498E+01-8.28270E-02-5.33308E-03 3.48497E-01-6.45014E-15-2.64833E-13
 -1      1877 1.95699E+01-7.46176E-02-1.27053E-03 3.02365E-01 1.22315E-13-1.49225E-13
 -1      1878 1.95452E+01-1.26923E-01 2.47318E-03 4.76172E-01 3.92863E-14-1.44188E-13
 -1      1879 1.96306E+01-6.78730E-02-4.65726E-03 2.49387E-01 7.76326E-14-1.23301E-13
 -1      1880 1.97180E+01-5.88517E-02-1.04566E-03 2.12116E-01 1.95733E-14-7.57518E-14
 -1      1881 1.96912E+01-1.06672E-01 1.98786E-03 3.46851E-01 1.04943E-13-4.45658E-14
 -1      1882 1.97608E+01-5.19404E-02-3.77100E-03 1.70688E-01-3.77941E-14-2.66351E-15
 -1      1883 1.98218E+01-4.36495E-02-8.26486E-04 1.42466E-01 2.04071E-14-3.57825E-15
 -1      1884 1.97963E+01-8.33217E-02 1.52192E-03 2.41805E-01 6.04920E-15-2.80265E-14
 -1      1885 1.98511E+01-3.75626E-02-2.87336E-03 1.11869E-01 4.38937E-14-4.33824E-14
 -1      1886 1.98920E+01-3.07236E-02-6.31038E-04 9.16282E-02 1.23322E-13-4.15703E-14
 -1      1887 1.98697E+01-6.13219E-02 1.12458E-03 1.61685E-01-4.11325E-15 4.69435E-14
 -1      1888 1.99116E+01-2.58539E-02-2.07942E-03 7.01083E-02 3.55846E-14-1.58995E-13
 -1      1889 1.99379E+01-2.06298E-02-4.66886E-04 5.62720E-02 9.50032E-16-1.92818E-13
 -1      1890 1.99195E+01-4.28757E-02 8.08383E-04 1.03686E-01-7.02010E-15-1.37942E-13
 -1      1891 1.99506E+01-1.69977E-02-1.43738E-03 4.17880E-02 2.71224E-14-2.26580E-13
 -1      1892 1.99668E+01-1.32406E-02-3.35347E-04 3.27458E-02-1.44062E-14-2.70489E-13
 -1      1893 1.99523E+01-2.86108E-02 5.67841E-04 6.35744E-02-1.02425E-15-1.22326E-14
 -1      1894 1.99748E+01-1.06794E-02-9.51776E-04 2.33990E-02-1.23804E-13-2.80953E-13
 -1      1895 1.99843E+01-8.11154E-03-2.34097E-04 1.77502E-02-9.33984E-14-3.59371E-13
 -1      1896 1.99733E+01-1.82470E-02 3.90592E-04 3.69781E-02-5.94588E-14-1.44589E-13
 -1      1897 1.99891E+01-6.39058E-03-6.03835E-04 1.19729E-02 3.24686E-14-2.20155E-13
 -1      1898 1.99943E+01-4.71499E-03-1.58909E-04 8.61273E-03 1.10791E-13-1.21433E-14
 -1      1899 1.99863E+01-1.10996E-02 2.63197E-04 2.00566E-02 9.37441E-15-1.61932E-14
 -1      1900 1.99971E+01-3.60912E-03-3.65912E-04 5.20903E-03-4.31386E-14-5.14404E-14
 -1      1901 1.99997E+01-2.56414E-03-1.04877E-04 3.32492E-03-1.02835E-13-5.52256E-14
 -1      1902 1.99940E+01-6.39490E-03 1.73586E-04 9.74874E-03 1.05062E-14 1.03617E-13
 -1      1903 2.00012E+01-1.88448E-03-2.10055E-04 1.43517E-03-1.78511E-14 7.00234E-14
 -1      1904 2.00022E+01-1.26349E-03-6.72080E-05 4.61504E-04-1.18273E-14 8.22298E-14
 -1      1905 1.99983E+01-3.43408E-03 1.11805E-04 3.77641E-03-2.76617E-14 1.71472E-13
 -1      1906 2.00029E+01-8.65547E-04-1.12165E-04-5.02697E-04-7.65457E-14-4.02853E-14
 -1      1907 2.00031E+01-5.16915E-04-4.16791E-05-9.41382E-04-7.89723E-14-4.01792E-14
 -1      1908 2.00006E+01-1.65610E-03 7.00379E-05 5.32655E-04-6.65263E-14 9.83230E-14
 -1      1909 2.00034E+01-2.97113E-04-5.33538E-05-1.36571E-03-1.16190E-13-5.23992E-14
 -1      1910 2.00031E+01-1.15597E-04-2.48003E-05-1.50780E-03 1.57321E-13-1.31985E-13
 -1      1911 2.00015E+01-6.44383E-04 4.23648E-05-1.06557E-03-5.37233E-14 6.10236E-14
 -1      1912 2.00032E+01-3.27190E-06-1.97846E-05-1.63462E-03 3.90959E-13-2.80832E-13
 -1      1913 2.00027E+01 8.10686E-05-1.38204E-05-1.62451E-03 3.29514E-13-1.21149E-13
 -1      1914 2.00018E+01-1.06940E-04 2.44150E-05-1.71835E-03 1.87960E-13-8.31823E-14
 -1      1915 2.00026E+01 1.32325E-04-1.84560E-06-1.59913E-03 3.10429E-13-1.24005E-13
 -1      1916 2.00021E+01 1.64469E-04-6.64671E-06-1.51922E-03 3.23567E-13 5.46366E-14
 -1      1917 2.00017E+01 1.51955E-04 1.30354E-05-1.85926E-03 3.91422E-13-6.95768E-14
 -1      1918 2.00020E+01 1.84395E-04 6.81169E-06-1.42339E-03 2.74687E-13-3.92441E-14
 -1      1919 2.00015E+01 1.92786E-04-1.76715E-06-1.31625E-03 2.29479E-13-3.32007E-15
 -1      1920 2.00014E+01 2.59219E-04 6.00625E-06-1.74348E-03 2.64093E-13 7.97750E-14
 -1      1921 2.00014E+01 2.00456E-04 1.01350E-05-1.19117E-03 1.85672E-13-8.08777E-14
 -1      1922 2.00010E+01 2.03369E-04 1.76161E-06-1.07397E-03 1.46063E-13 6.14159E-14
 -1      1923 2.00010E+01 2.95576E-04 1.80029E-06-1.51031E-03 1.54873E-13 5.88594E-14
 -1      1924 2.00008E+01 2.11366E-04 1.02182E-05-9.35246E-04 1.15760E-13 1.68526E-13
 -1      1925 2.00005E+01 2.19951E-04 4.11946E-06-8.09241E-04 2.00540E-13 4.30513E-13
 -1      1926 2.00006E+01 3.12649E-04-6.02094E-07-1.22565E-03 2.13998E-13 3.96777E-14
 -1      1927 2.00004E+01 2.32445E-04 7.32206E-06-6.58272E-04 9.30353E-14 4.74994E-13
 -1      1928 2.00001E+01 2.47398E-04 2.51036E-06-5.22598E-04 1.07972E-13 3.60034E-13
 -1      1929 2.00003E+01 3.40690E-04-1.70036E-06-9.10989E-04 2.58179E-13 2.47771E-13
 -1      1930 1.97326E+01 1.86266E-01 1.10291E-02 2.63823E-01 1.71057E-13 3.29477E-13
 -1      1931 1.99248E+01 2.66699E-01 2.63913E-02 4.06482E-01 2.08659E-13 4.05038E-13
 -1      1932 2.01257E+01 3.69713E-01 8.23597E-03 6.55059E-01 2.60895E-13 4.42795E-13
 -1      1933 2.05565E+01 5.23668E-01 2.93952E-02 9.60278E-01 2.98372E-13 5.17350E-13
 -1      1934 2.02309E+01 5.10292E-01-3.12639E-03 7.47246E-01 2.90323E-13 2.31439E-13
 -1      1935 1.95299E+01 9.99691E-02 7.56181E-03 4.86471E-02 1.46969E-13 2.37459E-13
 -1      1936 1.96072E+01 1.39737E-01 1.67835E-02 1.23399E-01 1.40243E-13 2.91938E-13
 -1      1937 1.99016E+01 2.60017E-01-4.10978E-03 3.06948E-01 2.09622E-13 1.48060E-13
 -1      1938 1.94559E+01 5.62296E-02 5.04102E-03-7.25419E-02 8.87936E-14 2.29932E-13
 -1      1939 1.94658E+01 7.63081E-02 9.12464E-03-3.10529E-02 1.19378E-13 2.39421E-13
 -1      1940 1.97168E+01 1.37068E-01-4.70145E-03 5.44286E-02 1.47365E-13 6.78045E-14
 -1      1941 1.94649E+01 3.51214E-02 3.95611E-03-1.44616E-01 7.24450E-14 1.83853E-13
 -1      1942 1.94337E+01 4.39266E-02 4.66073E-03-1.19728E-01 7.63768E-14 2.16663E-13
 -1      1943 1.96348E+01 7.73514E-02-3.75707E-03-9.19966E-02 1.06887E-13 9.97976E-14
 -1      1944 1.95297E+01 3.01631E-02 4.03052E-03-1.95030E-01 1.02236E-13 1.21114E-13
 -1      1945 1.94708E+01 3.05193E-02 2.34852E-03-1.75924E-01 1.03159E-13 1.75284E-13
 -1      1946 1.96224E+01 5.08421E-02-2.68740E-03-1.82729E-01 1.03179E-13 9.63011E-14
 -1      1947 1.96383E+01 4.03038E-02 5.18660E-03-2.45313E-01 6.36302E-14 1.32199E-13
 -1      1948 1.95549E+01 3.22469E-02 1.20076E-03-2.22850E-01 6.94038E-14 1.17047E-13
 -1      1949 1.96571E+01 4.87459E-02-1.81025E-03-2.50699E-01 1.03573E-13 3.65117E-14
 -1      1950 1.97906E+01 6.86749E-02 7.66987E-03-3.17293E-01-9.44991E-16 1.15211E-13
 -1      1951 1.96776E+01 4.99471E-02 6.76647E-04-2.81251E-01 5.46876E-14 1.29533E-13
 -1      1952 1.97257E+01 7.07093E-02-1.08873E-03-3.22521E-01 6.12617E-14 2.14300E-14
 -1      1953 1.99984E+01 1.22876E-01 1.19337E-02-4.38434E-01 1.17363E-14 7.14522E-14
 -1      1954 1.98412E+01 8.86292E-02 4.37391E-04-3.74964E-01 7.83618E-15 1.02309E-13
 -1      1955 1.98215E+01 1.22987E-01-3.03697E-04-4.25797E-01 4.72333E-14 6.69354E-15
 -1      1956 2.02850E+01 2.16140E-01 1.84698E-02-6.47482E-01 4.37558E-14 6.61871E-14
 -1      1957 2.00573E+01 1.58237E-01 5.93266E-05-5.36130E-01 1.12692E-14 5.49933E-14
 -1      1958 1.99410E+01 2.19065E-01 9.43405E-04-5.94827E-01 2.49792E-14-5.56955E-14
 -1      1959 2.06840E+01 3.68109E-01 2.73974E-02-1.00048E+00 3.88569E-14 9.28780E-14
 -1      1960 2.03456E+01 2.74888E-01-1.29488E-03-8.10952E-01 6.02790E-14 1.14045E-13
 -1      1961 2.00791E+01 3.81240E-01 3.30801E-03-8.76001E-01 7.71692E-15 4.50291E-15
 -1      1962 2.12338E+01 6.01157E-01 3.77983E-02-1.57400E+00 4.12309E-14 7.56702E-14
 -1      1963 2.07290E+01 4.60459E-01-5.25104E-03-1.26495E+00 4.04728E-14 5.62827E-14
 -1      1964 2.02196E+01 6.40319E-01 7.84069E-03-1.33193E+00 5.36723E-14-4.94793E-14
 -1      1965 2.19627E+01 9.19533E-01 4.79778E-02-2.45353E+00 3.38549E-14 4.67525E-14
 -1      1966 2.12264E+01 7.33551E-01-1.36155E-02-1.98220E+00 5.33375E-14 5.54053E-14
 -1      1967 2.03196E+01 1.02448E+00 1.63633E-02-2.03958E+00 4.95264E-14-5.16242E-14
 -1      1968 2.28597E+01 1.23825E+00 5.97512E-02-3.67464E+00-1.46001E-13 1.15796E-13
 -1      1969 2.18446E+01 1.06925E+00-2.35356E-02-3.04051E+00-4.99115E-14 7.51018E-14
 -1      1970 2.02915E+01 1.51138E+00 3.28264E-02-3.07048E+00-3.28106E-14-2.80396E-14
 -1      1971 2.38725E+01 1.20063E+00 8.32667E-02-4.98609E+00-2.19826E-13 1.97528E-13
 -1      1972 2.25951E+01 1.27790E+00-1.58909E-02-4.39215E+00-2.03023E-13 1.38803E-13
 -1      1973 2.00308E+01 1.89657E+00 6.98630E-02-4.38558E+00-1.78632E-13 3.08113E-14
 -1      1974 2.51950E+01-6.87922E-02 1.42081E-01-5.83086E+00-3.10002E-13 3.11404E-13
 -1      1975 2.36367E+01 8.19272E-01 7.63219E-02-5.71332E+00-2.75217E-13 2.57266E-13
 -1      1976 1.94953E+01 1.49028E+00 1.12470E-01-5.84557E+00-3.37001E-13 1.39486E-13
 -1      1977 4.88619E+01 1.47792E+00 4.11330E-01-4.10402E+00 6.93112E-13-2.38309E-13
 -1      1978 5.02753E+01 4.49434E+00 8.06889E-01-2.86334E+00 7.67608E-13-1.16018E-13
 -1      1979 5.13175E+01 5.07771E+00 9.35770E-01-8.80103E-01 6.16396E-13-2.81289E-13
 -1      1980 5.12826E+01 4.24177E+00 8.20462E-01 2.26596E+00 4.96048E-13-1.86295E-13
 -1      1981 3.55802E+01-3.43073E+00 3.08612E-01 2.08746E+00-2.85605E-13-4.43215E-13
 -1      1982 3.74780E+01-4.10978E+00 2.80640E-01-6.65276E-01-7.47180E-14-5.69336E-13
 -1      1983 3.07662E+01-8.02014E-01 2.56846E-01 4.91419E+00-2.86160E-13-3.83384E-13
 -1      1984 3.26656E+01-2.16065E+00 1.92721E-01 3.75424E+00-2.94209E-13-4.48946E-13
 -1      1985 2.73927E+01 6.39306E-01 6.96444E-02 4.83627E+00-1.66575E-13-1.81730E-13
 -1      1986 2.94841E+01 1.92675E-02 1.00473E-01 5.00743E+00-2.55657E-13-2.87069E-13
 -1      1987 2.50189E+01-5.22289E-01 1.50946E-01 6.23173E+00-3.44919E-13 4.01762E-14
 -1      1988 2.49815E+01 8.21361E-01-1.71264E-02 3.63510E+00-3.30925E-13-7.21263E-14
 -1      1989 2.67971E+01 7.28522E-01 4.25154E-02 4.19567E+00-1.46690E-13-1.01780E-13
 -1      1990 2.35326E+01 9.76948E-01 5.20009E-02 5.49500E+00-2.51091E-13 1.30255E-13
 -1      1991 2.32731E+01 6.33330E-01-2.27203E-02 2.40552E+00-1.68372E-13-2.53275E-13
 -1      1992 2.46057E+01 7.24915E-01 3.33844E-02 2.91540E+00-2.24740E-13-2.39551E-13
 -1      1993 2.26127E+01 1.23005E+00 2.69086E-02 4.01153E+00-1.97293E-13-1.40091E-13
 -1      1994 2.20841E+01 4.17719E-01-1.10737E-02 1.49769E+00-1.28137E-13-9.35354E-14
 -1      1995 2.29706E+01 5.22820E-01 3.04790E-02 1.85831E+00-2.04690E-13-2.73462E-13
 -1      1996 2.18789E+01 9.36334E-01 9.95681E-03 2.66040E+00-1.93606E-13-3.67559E-13
 -1      1997 2.12892E+01 2.57133E-01-2.99866E-03 8.99783E-01-1.89541E-13 3.83374E-15
 -1      1998 2.18475E+01 3.36937E-01 2.64128E-02 1.12971E+00-1.76345E-13-1.32706E-16
 -1      1999 2.12851E+01 6.14610E-01 3.82251E-03 1.66987E+00-2.12221E-13-3.76700E-13
 -1      2000 2.07792E+01 1.53402E-01 8.61459E-04 5.28131E-01 8.03906E-14 9.75027E-14
 -1      2001 2.11169E+01 2.05670E-01 1.99655E-02 6.67556E-01 2.67945E-14 6.42382E-14
 -1      2002 2.08418E+01 3.77087E-01 1.30698E-03 1.01273E+00-5.72771E-14-1.55244E-13
 -1      2003 2.04726E+01 9.20690E-02 1.49751E-03 3.13058E-01 2.21036E-13 2.64665E-13
 -1      2004 2.06673E+01 1.24554E-01 1.39455E-02 3.92900E-01 1.43642E-13 1.37789E-13
 -1      2005 2.05378E+01 2.24404E-01-7.12305E-04 6.06238E-01 1.56015E-13-3.12697E-14
 -1      2006 2.02726E+01 5.26024E-02 1.20487E-03 1.77206E-01 4.83411E-14 3.57217E-13
 -1      2007 2.03924E+01 7.28887E-02 8.90899E-03 2.26338E-01 9.43555E-14 3.66085E-13
 -1      2008 2.03358E+01 1.33594E-01-3.08885E-04 3.57986E-01 9.50919E-14 2.14546E-13
 -1      2009 2.01544E+01 2.97596E-02 9.18579E-04 9.84673E-02 1.06165E-13 1.32293E-13
 -1      2010 2.02228E+01 4.20196E-02 5.57261E-03 1.26597E-01 1.37181E-13 1.76140E-13
 -1      2011 2.02018E+01 7.63011E-02-5.14024E-04 2.04322E-01 1.81199E-13 2.51379E-13
 -1      2012 2.00857E+01 1.65714E-02 6.37283E-04 5.34703E-02 2.70456E-13 5.56235E-14
 -1      2013 2.01239E+01 2.37820E-02 3.34931E-03 6.93172E-02 2.11945E-13 5.66763E-14
 -1      2014 2.01187E+01 4.29868E-02-4.90643E-04 1.14324E-01 1.75149E-13 7.59387E-14
 -1      2015 2.00466E+01 9.03429E-03 4.20507E-04 2.82075E-02-9.70192E-14 2.30505E-13
 -1      2016 2.00674E+01 1.32206E-02 1.97076E-03 3.69690E-02 5.89796E-14 9.20458E-14
 -1      2017 2.00686E+01 2.38105E-02-3.88598E-04 6.25075E-02 4.97764E-14 1.13860E-13
 -1      2018 2.00248E+01 4.78616E-03 2.68561E-04 1.43335E-02-2.76623E-13 3.77573E-13
 -1      2019 2.00359E+01 7.18142E-03 1.13769E-03 1.90597E-02-2.43142E-13 3.79795E-13
 -1      2020 2.00390E+01 1.29005E-02-2.78117E-04 3.32280E-02-2.08059E-13 2.46604E-13
 -1      2021 2.00131E+01 2.43564E-03 1.67224E-04 6.93125E-03 1.17040E-13 5.30317E-14
 -1      2022 2.00187E+01 3.78131E-03 6.43819E-04 9.39643E-03 3.45611E-14 3.17250E-13
 -1      2023 2.00219E+01 6.78282E-03-1.86455E-04 1.70529E-02-5.04094E-14 4.57717E-13
 -1      2024 2.00069E+01 1.16788E-03 1.01813E-04 3.13465E-03 1.18032E-13-1.01928E-13
 -1      2025 2.00096E+01 1.90567E-03 3.55950E-04 4.36042E-03 2.02989E-13-1.21265E-14
 -1      2026 2.00123E+01 3.41779E-03-1.19236E-04 8.37174E-03 1.65762E-13 1.38798E-14
 -1      2027 2.00037E+01 5.08563E-04 6.06946E-05 1.29463E-03-1.43656E-13-3.63300E-14
 -1      2028 2.00050E+01 8.99629E-04 1.91195E-04 1.86138E-03-3.74723E-14-1.77294E-13
 -1      2029 2.00069E+01 1.61555E-03-7.34980E-05 3.88861E-03 7.01891E-14 1.48410E-14
 -1      2030 2.00021E+01 1.83999E-04 3.54975E-05 4.77957E-04-2.44135E-13-5.66080E-14
 -1      2031 2.00026E+01 3.81267E-04 9.89731E-05 7.09453E-04-3.56876E-13-8.62017E-15
 -1      2032 2.00040E+01 6.86675E-04-4.39798E-05 1.69478E-03-2.55003E-13-7.04025E-14
 -1      2033 2.00012E+01 3.83457E-05 2.04863E-05 1.68014E-04 2.95754E-13-5.81817E-14
 -1      2034 2.00015E+01 1.30146E-04 4.88036E-05 2.40441E-04 2.72277E-13-4.58418E-14
 -1      2035 2.00024E+01 2.35323E-04-2.57224E-05 7.04144E-04 5.65320E-14-5.42999E-13
 -1      2036 2.00008E+01-1.53700E-05 1.18539E-05 8.69182E-05-1.72160E-14-1.83390E-13
 -1      2037 2.00009E+01 2.10019E-05 2.25337E-05 9.30255E-05 2.25721E-13-1.53025E-15
 -1      2038 2.00015E+01 3.73583E-05-1.48662E-05 3.12374E-04 2.19259E-13-1.92177E-13
 -1      2039 2.00005E+01-2.42941E-05 7.11828E-06 9.07098E-05-2.39156E-13-4.29696E-13
 -1      2040 2.00006E+01-1.57374E-05 9.48957E-06 7.72273E-05-2.59554E-13-2.66641E-13
 -1      2041 2.00010E+01-3.14939E-05-8.68136E-06 1.92721E-04-8.35576E-14-3.17852E-13
 -1      2042 2.00003E+01-1.31030E-05 4.65176E-06 1.08476E-04 4.60853E-13-2.73652E-13
 -1      2043 2.00003E+01-1.75092E-05 3.49058E-06 9.75402E-05 1.70068E-13-3.56683E-13
 -1      2044 2.00006E+01-3.81221E-05-5.34595E-06 1.74882E-04 1.38067E-14-4.71152E-13
 -1      2045 2.00001E+01 5.18022E-06 3.23872E-06 1.08108E-04 4.65821E-13-3.79412E-13
 -1      2046 2.00002E+01-3.84369E-06 1.01448E-06 1.09044E-04 5.30819E-13-2.14302E-13
 -1      2047 2.00003E+01-1.73986E-05-3.71006E-06 1.74505E-04 3.92916E-13-5.62902E-13
 -1      2048 2.00000E+01 2.36845E-05 2.44063E-06 7.89658E-05 1.48877E-13-4.15196E-13
 -1      2049 2.00000E+01 1.54216E-05 4.20504E-07 9.43922E-05 4.13357E-13-1.96227E-13
 -1      2050 2.00001E+01 1.15898E-05-3.15993E-06 1.54227E-04 4.37422E-13-5.02141E-13
 -1      2051 1.99999E+01 3.01956E-05 2.01323E-06 2.96093E-05-2.91989E-13-1.32758E-13
 -1      2052 1.99999E+01 2.83873E-05 1.27853E-07 5.22116E-05-1.48548E-14-1.98638E-13
 -1      2053 2.00000E+01 3.77257E-05-2.08905E-06 1.03951E-04-6.40194E-14-1.19064E-13
 -1      2054 1.99998E+01 2.98823E-05 2.25900E-06 1.29471E-05-3.48303E-13-1.78589E-13
 -1      2055 1.99998E+01 3.13504E-05 5.99928E-09 1.78063E-05-2.76431E-13-1.38854E-13
 -1      2056 1.99999E+01 5.77711E-05 2.45842E-06 6.07624E-05-2.32001E-13 8.53185E-14
 -1      2057 1.99998E+01 5.47749E-05 2.03021E-06 3.91293E-05-3.49792E-13-3.98568E-13
 -1      2058 1.99999E+01 3.44427E-04 2.34334E-06 2.68307E-04-3.34535E-13 4.04000E-13
 -1      2059 1.99999E+01 2.37600E-04 2.18244E-06 2.15299E-04-4.87024E-13 1.98894E-13
 -1      2060 1.99999E+01 1.66522E-04 2.64389E-06 1.41760E-04-3.44341E-13 1.20923E-13
 -1      2061 1.99999E+01 1.03445E-04 1.61884E-06 9.52677E-05-1.37254E-13-1.80371E-13
 -1      2062 1.99999E+01 1.00536E-04-2.23483E-06 1.07951E-04-1.36577E-13-2.86229E-13
 -1      2063 1.99999E+01 2.18387E-04-2.93729E-06 2.48839E-04-1.99417E-13 2.11477E-14
 -1      2064 1.99999E+01 6.04319E-04 1.45744E-06 3.79539E-04 6.73458E-14 4.19945E-13
 -1      2065 1.99999E+01 4.55090E-04 2.71778E-06 3.35664E-04-1.92912E-13 2.26912E-13
 -1      2066 1.99999E+01 3.96461E-04-2.76417E-06 4.07038E-04-2.86733E-13 5.20933E-13
 -1      2067 1.99998E+01 9.13108E-04-2.83915E-07 4.50301E-04-5.91993E-14 1.69951E-13
 -1      2068 1.99998E+01 7.37413E-04 1.99180E-06 4.26048E-04 2.82456E-14 5.36144E-13
 -1      2069 1.99999E+01 6.39159E-04-1.91717E-06 5.35614E-04-6.54833E-14 3.83065E-13
 -1      2070 1.99998E+01 1.24617E-03-2.29089E-06 4.62746E-04-2.78192E-13 6.20532E-14
 -1      2071 1.99998E+01 1.05950E-03 4.70152E-07 4.64528E-04-1.70265E-13 5.41165E-14
 -1      2072 1.99998E+01 9.19322E-04-6.64464E-08 6.04098E-04-1.07802E-13 8.46156E-14
 -1      2073 1.99997E+01 1.55276E-03-4.23742E-06 4.05569E-04 4.38673E-14 1.29184E-14
 -1      2074 1.99998E+01 1.38480E-03-1.50170E-06 4.36739E-04-1.25699E-13-9.15389E-14
 -1      2075 1.99998E+01 1.20585E-03 1.97104E-06 5.90869E-04-2.00426E-13 1.57262E-13
 -1      2076 1.99997E+01 1.78636E-03-5.79730E-06 2.80520E-04 1.70756E-13-1.57536E-13
 -1      2077 1.99997E+01 1.66423E-03-3.48785E-06 3.39187E-04 1.23766E-13-9.77122E-14
 -1      2078 1.99997E+01 1.45796E-03 3.86564E-06 4.87165E-04-8.34247E-15 1.04041E-14
 -1      2079 1.99997E+01 1.90699E-03-6.65022E-06 1.00271E-04-1.01979E-13-1.33042E-13
 -1      2080 1.99997E+01 1.85352E-03-5.08787E-06 1.80051E-04 1.58168E-13-1.44238E-13
 -1      2081 1.99996E+01 1.63880E-03 5.36731E-06 2.99869E-04 9.22983E-14-2.22695E-13
 -1      2082 1.99997E+01 1.88814E-03-6.47950E-06-1.12333E-04-8.35646E-14 7.57227E-14
 -1      2083 1.99997E+01 1.91751E-03-5.97529E-06-2.20641E-05-2.30571E-13-6.00578E-14
 -1      2084 1.99996E+01 1.71860E-03 6.26418E-06 4.96080E-05-1.56025E-13-2.28057E-13
 -1      2085 1.99997E+01 1.72681E-03-4.89243E-06-3.21611E-04 7.24353E-14 3.22419E-13
 -1      2086 1.99997E+01 1.83761E-03-6.07008E-06-2.36823E-04 3.99402E-14 7.50683E-14
 -1      2087 1.99996E+01 1.68007E-03 6.51594E-06-2.28062E-04-9.34303E-16 1.68658E-13
 -1      2088 1.99997E+01 1.43335E-03-2.27763E-06-4.94282E-04 3.66127E-13 2.20236E-13
 -1      2089 1.99997E+01 1.61615E-03-5.27100E-06-4.29930E-04 1.86098E-13 3.37781E-13
 -1      2090 1.99996E+01 1.52045E-03 5.87653E-06-4.90993E-04 1.51299E-13 3.85633E-13
 -1      2091 1.99998E+01 1.05152E-03 1.05922E-06-5.82786E-04 7.77719E-14 1.43283E-13
 -1      2092 1.99997E+01 1.27566E-03-3.77623E-06-5.59849E-04 2.17462E-13 3.15203E-14
 -1      2093 1.99997E+01 1.25256E-03 3.92160E-06-6.88407E-04 1.09137E-13 7.16810E-14
 -1      2094 1.99999E+01 6.48563E-04 5.08638E-06-5.42758E-04-3.54122E-13-4.38991E-13
 -1      2095 1.99998E+01 8.68839E-04-1.51723E-06-5.79403E-04-2.01503E-13-5.51031E-14
 -1      2096 1.99998E+01 9.09519E-04 2.01559E-06-7.63327E-04-1.15562E-13-2.45058E-13
 -1      2097 2.10993E+01-6.24821E+00-3.53346E-01 4.76868E+00 1.42997E-13 6.12232E-13
 -1      2098 1.48325E+01-7.11976E+00-6.05689E-01 4.56209E+00-1.62093E-14 6.01269E-13
 -1      2099 2.00000E+01 2.18602E-04 2.60125E-06-3.03654E-04 1.13371E-13 4.24001E-13
 -1      2100-6.77112E-01-7.73905E+00-3.33896E-01-2.18490E+00 3.12805E-13 3.45779E-13
 -1      2101 4.87756E-02-7.48964E+00-3.25645E-01-3.58095E+00 1.27176E-13 4.33320E-13
 -1      2102 4.99824E+01 3.87765E-01 7.78721E-01 3.19385E+00 5.71321E-13-5.38458E-14
 -1      2103 1.95165E+01 4.01560E+00-2.69472E-02-1.70402E+00-1.87687E-13-5.32492E-13
 -1      2104 1.96457E+01 3.94655E+00-2.45341E-02-1.95543E+00-2.38376E-13-4.88460E-13
 -1      2105 1.99711E+01 3.24708E+00-1.39184E-02-1.91943E+00-2.70269E-13-4.18750E-13
 -1      2106 1.96944E+01 3.58460E+00-7.20631E-03-1.52197E+00-1.85392E-13-5.13735E-13
 -1      2107 3.23191E+01-5.56474E+00-3.47479E-01 2.69962E+00 2.82996E-13 3.74811E-13
 -1      2108 2.49657E+01-6.51365E+00-6.52007E-01 3.22396E+00 1.58096E-13 4.75564E-13
 -1      2109 4.79697E+01 1.27151E-01 7.56453E-01-4.09417E+00 8.35221E-13-1.04361E-14
 -1      2110 5.00483E+01 3.65987E+00 8.55178E-01 3.50857E+00 6.01519E-13-2.55573E-13
 -1      2111 3.41173E+01-5.36805E+00-3.50367E-01-5.97984E-01 3.45723E-13-4.47420E-14
 -1      2112 9.79103E+00-7.48623E+00-6.09521E-01-4.15481E+00 3.87468E-13-3.77559E-13
 -1      2113 1.51923E+01-6.52667E+00-4.07571E-01-5.05681E+00 4.71623E-13-3.57547E-13
 -1      2114 1.84757E+00-8.44626E+00-5.65969E-01-1.74641E+00 2.82052E-13-6.65856E-13
 -1      2115 4.80142E+00-7.30894E+00-4.28939E-01-3.35369E+00 3.92908E-13-5.18308E-13
 -1      2116-8.21306E-01-7.79606E+00-3.71161E-01 9.63699E-01 8.64586E-14-7.19647E-13
 -1      2117-7.65287E-02-8.50017E+00-4.85889E-01-3.29820E-01 3.20077E-13-7.06768E-13
 -1      2118 2.45277E+00-5.26070E+00-3.10861E-01-2.42873E+00 8.01859E-14-6.98885E-13
 -1      2119 1.36796E+00-6.88446E+00-2.62257E-01 4.70389E+00-1.95399E-13-9.08718E-13
 -1      2120-3.11371E-02-7.30316E+00-2.90861E-01 3.26376E+00 7.85760E-14-8.98615E-13
 -1      2121 6.94446E+00-5.24037E+00-1.18262E-01 7.44437E+00-3.67151E-13-9.61287E-13
 -1      2122 3.66485E+00-7.28411E+00-3.74834E-01 5.87172E+00-1.80134E-13-9.30256E-13
 -1      2123 4.06853E+00-4.48616E+00-1.09188E-01 6.38005E+00-4.18554E-14-9.68059E-13
 -1      2124 1.60893E+01-3.17162E+00-5.88440E-03 8.76593E+00-6.41820E-13-5.65270E-13
 -1      2125 1.16899E+01-5.38424E+00-2.69772E-01 7.81507E+00-4.04787E-13-7.04957E-13
 -1      2126 2.53871E+01-4.42080E-01 1.26591E-01 8.67226E+00-7.14206E-13-7.64833E-13
 -1      2127 2.00806E+01-2.62263E+00-2.40722E-01 8.01606E+00-6.53366E-13-5.52947E-13
 -1      2128 3.43354E+01 2.18989E+00 1.60315E-01 6.72279E+00-6.70214E-13-5.03819E-13
 -1      2129 2.91028E+01 6.60593E-01-6.55799E-02 7.22855E+00-7.11209E-13-7.08322E-13
 -1      2130 4.16220E+01 5.75650E+00 3.31564E-01 3.92166E+00-7.39520E-13-4.62796E-13
 -1      2131 3.72256E+01 4.21884E+00 4.67119E-02 4.62063E+00-7.54397E-13-4.77951E-13
 -1      2132 4.60475E+01 8.08082E+00 4.04541E-01 1.48839E+00-6.72684E-13-3.57686E-13
 -1      2133 4.32995E+01 7.44880E+00 1.86784E-01 3.01870E+00-7.37854E-13-5.24913E-13
 -1      2134 4.53091E+01 8.48860E+00 2.68245E-01-1.13484E+00-6.32328E-13-1.73417E-13
 -1      2135 4.56389E+01 8.60791E+00 3.09420E-01 5.52456E-01-6.64024E-13-3.65388E-13
 -1      2136 4.17154E+01 7.06272E+00 9.35018E-02-3.11667E+00-8.20566E-13 3.18634E-14
 -1      2137 4.52358E+01 7.82126E+00 3.93954E-01-2.00657E+00-7.15483E-13-1.14464E-13
 -1      2138 3.58514E+01 3.35771E+00 2.41272E-02-5.03015E+00-6.45088E-13 2.40918E-14
 -1      2139 3.98070E+01 4.84452E+00 2.02047E-01-4.01723E+00-7.21576E-13-9.83102E-14
 -1      2140 2.72385E+01 1.24865E-01-1.17160E-01-7.50735E+00-5.07316E-13 4.58966E-13
 -1      2141 3.29371E+01 1.84853E+00 1.54116E-01-7.36816E+00-5.62939E-13 2.26374E-13
 -1      2142 1.77576E+01-3.51526E+00-2.61298E-01-8.03518E+00-1.71752E-13 8.05689E-13
 -1      2143 2.32271E+01-1.19739E+00 8.58202E-02-8.85254E+00-3.56937E-13 7.66720E-13
 -1      2144 8.40608E+00-6.20027E+00-3.89692E-01-7.15620E+00 1.11022E-14 7.17447E-13
 -1      2145 1.27518E+01-3.80279E+00-8.92090E-02-8.48817E+00-1.76414E-13 9.72514E-13
 -1      2146 1.83857E+00-8.04318E+00-4.41039E-01-5.01353E+00 1.14020E-13 5.19362E-13
 -1      2147 4.43745E+00-6.24006E+00-2.43759E-01-6.36389E+00-5.91749E-14 7.24198E-13
 -1      2148 2.15498E+01 1.75295E+00 7.78005E-02 2.36535E+00 3.48197E-13 5.92457E-13
 -1      2149 1.41259E+00-6.61253E+00-2.49982E-01 1.65095E+00 1.51101E-13-4.88498E-14
 -1      2150-1.21399E-01-7.27025E+00-3.47728E-01-6.92370E-02 1.77313E-13 2.73781E-13
 -1      2151 2.15186E+01 1.74277E+00 7.94386E-02-2.33709E+00-3.51472E-13 1.06755E-13
 -1      2152 2.79804E+01-5.80750E+00-3.00225E-01-3.97895E+00 3.81584E-13-2.75224E-13
 -1      2153 3.36985E+01-5.13852E+00 1.37364E-01-1.43284E+00-2.10387E-14 3.37064E-13
 -1      2154 3.15296E+01-4.23842E+00 2.01881E-01-3.39533E+00-1.79967E-13 4.79033E-13
 -1      2155 2.02513E+01-6.79309E+00-6.55236E-01-4.03083E+00 4.38760E-13-2.47496E-13
 -1      2156 2.00000E+01 3.40807E-04 4.50911E-06-5.15248E-04-4.91115E-14 1.50540E-13
 -1      2157 5.53242E+00-3.92465E+00-1.14375E-01 3.86268E+00 8.90121E-14 1.26843E-13
 -1      2158 9.46204E-01-3.98379E+00-1.46885E-01-6.54252E-01 1.41678E-13 2.63123E-13
 -1      2159 1.56202E+01-5.36008E+00-1.97222E-01 5.71948E+00-8.45990E-14 4.15140E-13
 -1      2160 2.17873E+01-6.02341E+00-1.72679E-01-5.38384E+00 3.56382E-14 6.66134E-15
 -1      2161 2.07464E+01 1.10864E+00-2.08085E-02-1.61576E+00-3.37477E-13 2.96378E-14
 -1      2162 1.13769E+01-5.09079E+00-6.65552E-02 8.59954E+00-9.96980E-14-7.57047E-13
 -1      2163 2.06340E+01 1.33021E+00-1.86203E-02-1.67798E+00-3.50543E-13-1.09242E-13
 -1      2164 3.99597E+01-3.85865E+00 1.81177E-01-1.34117E+00 3.10058E-13-2.36922E-13
 -1      2165 4.18413E+01-1.51620E+00 2.40296E-01-2.33587E+00 6.62748E-13 3.37508E-14
 -1      2166 2.06425E+01 1.32680E+00-2.22258E-02 1.68412E+00 3.74216E-13 2.69925E-13
 -1      2167 2.07660E+01 1.10542E+00-2.33850E-02 1.62785E+00 3.42056E-13 5.07027E-13
 -1      2168 4.08653E+01 9.70127E+00 3.64175E-01 2.18310E-01-7.32248E-13-2.89171E-13
 -1      2169 2.62371E+01-1.23991E+00 2.24268E-01-5.86021E+00-3.20244E-13 3.26232E-13
 -1      2170 1.97712E+01-7.98397E-01 7.64318E-02-6.72614E+00-3.43670E-13 1.72473E-13
 -1      2171 6.07603E-01-4.56510E+00-1.89741E-01 2.17736E+00 3.41394E-15-9.15490E-13
 -1      2172 2.78120E+01-2.84349E+00 1.49601E-01-4.83356E+00-3.21299E-13 4.55004E-13
 -1      2173 2.69149E+01-5.79205E+00-1.49680E-02 4.25348E+00-1.22624E-13 2.96804E-13
 -1      2174 2.82043E+01-3.96365E+00 2.37055E-02 4.48897E+00-2.71172E-13 3.64292E-15
 -1      2175 3.42914E+01 1.19750E+00 2.08199E-01-3.70229E+00-3.10994E-13-2.88825E-13
 -1      2176 2.00000E+01 4.64287E-04-1.10936E-06-5.48920E-04-2.48115E-13-9.55583E-14
 -1      2177 2.12203E+00-4.95920E+00-2.06154E-01-5.12677E+00 1.15019E-13 5.64659E-13
 -1      2178 3.83017E+01 5.70297E+00 1.82461E-01-9.43739E-01-6.12566E-13-3.08531E-13
 -1      2179 8.41520E+00-5.27309E+00-1.37677E-01-8.13017E+00 1.68865E-13 6.87006E-13
 -1      2180 1.80466E+01-4.64863E+00 2.75697E-04-8.78391E+00 2.32647E-13 7.04062E-13
 -1      2181 2.73489E+01-2.57735E+00 1.13362E-01-6.87885E+00 6.81677E-14 1.28952E-13
 -1      2182 4.03570E+01 9.40441E+00 3.35579E-01-2.03679E-01-7.04214E-13-3.35232E-13
 -1      2183 3.93914E+01 6.74792E+00 2.52341E-01 8.61167E-01-7.06879E-13-3.17524E-13
 -1      2184 3.54704E+01 2.09093E+00 2.07582E-01 3.25596E+00-5.41976E-13-2.15106E-13
 -1      2185 2.89497E+01-1.91443E+00 1.32740E-01 6.42072E+00-3.84914E-13-3.71814E-13
 -1      2186 2.35596E+01-4.19439E+00-2.98572E-02-5.61413E+00-2.04503E-13 1.64882E-13
 -1      2187 1.02647E+01-5.80526E+00-3.11090E-01-5.35392E+00 1.23790E-14-3.07920E-13
 -1      2188 2.08312E+01-4.33530E+00 3.03400E-03 8.39223E+00-2.73670E-13-3.91770E-13
 -1      2189 2.00000E+01 5.38475E-04 4.51870E-07-7.56989E-04-8.42568E-14-2.94905E-13
 -1      2190 1.95529E+01 3.51598E+00-1.10771E-02-5.92513E-01-1.47678E-14-5.03791E-13
 -1      2191 1.95890E+01 3.46971E+00-1.04043E-02-7.76919E-01-6.22574E-14-5.28610E-13
 -1      2192 1.96364E+01 3.38117E+00-1.26474E-02-9.41541E-01-8.95951E-14-5.41932E-13
 -1      2193 1.96982E+01 3.30020E+00-1.26867E-02-1.13113E+00-1.29812E-13-5.29363E-13
 -1      2194 1.97806E+01 3.03130E+00 9.06459E-05-7.93106E-01-6.54461E-14-5.03235E-13
 -1      2195 1.95038E+01 3.60299E+00-9.61893E-03 9.77039E-02 1.28453E-13-4.66356E-13
 -1      2196 1.95034E+01 3.60286E+00-9.52660E-03-8.13262E-02 9.05351E-14-4.90618E-13
 -1      2197 1.95299E+01 3.56658E+00-9.70342E-03 4.42454E-01 1.97853E-13-4.46983E-13
 -1      2198 1.95124E+01 3.58800E+00-1.00532E-02 2.62339E-01 1.61176E-13-4.56401E-13
 -1      2199 1.96694E+01 3.22732E+00-9.06879E-04 1.68824E-01 1.33312E-13-4.37569E-13
 -1      2200 1.95925E+01 3.47317E+00-1.05538E-02 7.84824E-01 2.53004E-13-4.26209E-13
 -1      2201 1.95558E+01 3.51883E+00-1.11387E-02 6.04209E-01 2.20773E-13-4.40807E-13
 -1      2202 1.97063E+01 3.16736E+00-4.79905E-04 4.85945E-01 2.00985E-13-4.20050E-13
 -1      2203 1.97043E+01 3.30303E+00-1.28234E-02 1.13665E+00 3.33686E-13-3.45067E-13
 -1      2204 1.96410E+01 3.38446E+00-1.28485E-02 9.48143E-01 2.87898E-13-3.92885E-13
 -1      2205 1.97842E+01 3.03715E+00 3.02489E-04 8.00146E-01 2.66218E-13-3.71821E-13
 -1      2206 1.98853E+01 3.02170E+00-1.79177E-02 1.48337E+00 3.89142E-13-2.53736E-13
 -1      2207 1.97851E+01 3.16001E+00-1.51825E-02 1.29280E+00 3.51274E-13-3.12842E-13
 -1      2208 1.99155E+01 2.81534E+00 2.03653E-03 1.10498E+00 3.27982E-13-3.05626E-13
 -1      2209 2.01653E+01 2.55743E+00-2.74655E-02 1.78742E+00 4.07010E-13-1.14020E-13
 -1      2210 2.00154E+01 2.80315E+00-1.64396E-02 1.61611E+00 3.92987E-13-1.98758E-13
 -1      2211 2.01117E+01 2.46538E+00 4.58970E-03 1.37148E+00 3.73177E-13-2.13578E-13
 -1      2212 2.05808E+01 1.76816E+00-1.91636E-02 1.82542E+00 3.84984E-13 1.25297E-13
 -1      2213 2.03367E+01 2.19408E+00-9.19846E-03 1.77408E+00 3.90242E-13-2.05738E-14
 -1      2214 2.03497E+01 1.87549E+00 7.23974E-03 1.45610E+00 3.69875E-13-6.81490E-14
 -1      2215 2.04351E+01 1.11011E+00 1.02651E-03 1.23282E+00 3.52053E-13 1.45766E-13
 -1      2216 2.04064E+01 8.53278E-01 1.31423E-02-1.00167E+00-2.64515E-13-1.57542E-13
 -1      2217 2.01931E+01 6.24162E-01-4.82099E-03-6.93758E-01-2.26055E-13-1.63559E-13
 -1      2218 9.07559E+00-2.04135E+00 5.69087E-02 5.44121E+00 9.62563E-14 3.33400E-13
 -1      2219 5.42909E+00-1.57448E+00 1.33962E-01 3.32700E+00-3.34593E-14 1.43219E-13
 -1      2220 2.01274E+01 4.65755E-01 1.62922E-02-4.78989E-01-1.95796E-13-1.41016E-13
 -1      2221 1.99841E+01 3.38820E-01-2.34681E-04-3.09390E-01-1.66583E-13-1.42388E-13
 -1      2222 2.02450E+01 7.41978E-01-1.70975E-03-6.97990E-01-2.18393E-13-2.02729E-13
 -1      2223 1.99200E+01 2.51579E-01 1.09401E-02-1.74870E-01-1.45094E-13-1.10314E-13
 -1      2224 1.98378E+01 1.76939E-01 2.66282E-04-8.15166E-02-1.02159E-13-1.29181E-13
 -1      2225 2.00796E+01 4.07024E-01-3.60936E-03-3.19172E-01-1.48859E-13-1.54645E-13
 -1      2226 1.97924E+01 1.23946E-01 6.49620E-03-4.93902E-03-8.01509E-14-1.30089E-13
 -1      2227 1.97516E+01 7.67434E-02 1.35848E-05 4.16538E-02-6.71342E-14-1.19524E-13
 -1      2228 1.99565E+01 2.09751E-01-3.55007E-03-8.92341E-02-1.09271E-13-1.11630E-13
 -1      2229 1.97244E+01 4.15354E-02 3.74378E-03 7.81617E-02-7.84500E-14-1.58700E-13
 -1      2230 1.97077E+01 8.77531E-03-4.52061E-04 9.37520E-02-8.33399E-14-1.73807E-13
 -1      2231 1.98773E+01 8.49555E-02-2.82272E-03 3.59944E-02-9.75147E-14-1.55448E-13
 -1      2232 1.96941E+01-1.71618E-02 2.10581E-03 1.01327E-01-9.16052E-14-1.78441E-13
 -1      2233 1.96886E+01-4.26477E-02-1.06924E-03 9.43996E-02-7.83129E-14-1.75949E-13
 -1      2234 1.98327E+01-1.46182E-03-1.98329E-03 8.71526E-02-9.29849E-14-2.13410E-13
 -1      2235 1.96838E+01-6.41457E-02 1.14630E-03 7.94182E-02-7.53580E-14-1.46714E-13
 -1      2236 1.96796E+01-8.65853E-02-1.82020E-03 5.42631E-02-6.28901E-14-1.58138E-13
 -1      2237 1.98115E+01-6.82466E-02-1.24911E-03 8.30085E-02-5.61127E-14-1.79511E-13
 -1      2238 1.96793E+01-1.06451E-01 6.00007E-04 1.98796E-02-8.12941E-14-1.27941E-13
 -1      2239 1.96684E+01-1.28168E-01-2.67011E-03-2.16477E-02-1.17517E-13-1.30209E-13
 -1      2240 1.98036E+01-1.26322E-01-6.50905E-04 3.39480E-02-7.03227E-14-1.46891E-13
 -1      2241 1.96687E+01-1.47645E-01 2.86670E-04-7.42508E-02-1.07445E-13-9.68380E-14
 -1      2242 1.96444E+01-1.69209E-01-3.54275E-03-1.31411E-01-4.29381E-14-1.00855E-13
 -1      2243 1.98002E+01-1.81560E-01-1.42494E-04-5.51789E-02-9.72017E-14-1.13605E-13
 -1      2244 1.96410E+01-1.87857E-01 5.59477E-05-2.01759E-01-4.99080E-15-1.05190E-13
 -1      2245 1.95974E+01-2.07797E-01-4.29338E-03-2.73599E-01 5.57651E-14-1.11765E-13
 -1      2246 1.97931E+01-2.35276E-01 3.48871E-04-1.82470E-01-3.42495E-14-1.67658E-14
 -1      2247 1.95854E+01-2.23149E-01-2.34981E-04-3.60386E-01 7.88087E-14-1.14363E-13
 -1      2248 1.95173E+01-2.37576E-01-4.68978E-03-4.44190E-01 8.00443E-14-6.81757E-14
 -1      2249 1.97735E+01-2.83602E-01 8.96926E-04-3.46085E-01 6.69526E-14-4.21499E-15
 -1      2250 1.94905E+01-2.44901E-01-7.07332E-04-5.43364E-01 2.84873E-14-1.18478E-13
 -1      2251 1.93947E+01-2.47518E-01-4.42564E-03-6.32968E-01-4.93330E-14-1.04573E-13
 -1      2252 1.97311E+01-3.16694E-01 1.54245E-03-5.40664E-01 2.30035E-14-9.32403E-14
 -1      2253 1.93459E+01-2.40205E-01-1.41935E-03-7.35638E-01-9.93934E-14-9.58972E-14
 -1      2254 1.92217E+01-2.23288E-01-3.19486E-03-8.20031E-01-1.20098E-13-1.43952E-13
 -1      2255 1.96538E+01-3.18914E-01 2.24124E-03-7.53076E-01-6.91401E-14-1.11518E-13
 -1      2256 1.91445E+01-1.94394E-01-2.28003E-03-9.10901E-01-1.25351E-13-1.33952E-13
 -1      2257 1.89958E+01-1.51299E-01-8.46900E-04-9.73953E-01-6.86509E-14-1.26101E-13
 -1      2258 1.95293E+01-2.71502E-01 2.79345E-03-9.58392E-01-1.05047E-13-5.67982E-14
 -1      2259 1.88877E+01-9.65967E-02-2.98722E-03-1.03160E+00-8.10678E-14-1.63978E-13
 -1      2260 1.87244E+01-2.57342E-02 2.39882E-03-1.05402E+00-1.01487E-13-1.47950E-13
 -1      2261 1.93496E+01-1.58931E-01 2.82026E-03-1.11812E+00-1.24084E-13-6.90753E-14
 -1      2262 1.85913E+01 5.23450E-02-3.03494E-03-1.05458E+00-5.56906E-14-1.59723E-13
 -1      2263 1.84299E+01 1.43462E-01 5.81663E-03-1.01881E+00-4.59514E-14-1.57059E-13
 -1      2264 1.91180E+01 2.13770E-02 1.85701E-03-1.18384E+00-1.06232E-13-1.39534E-14
 -1      2265 1.82893E+01 2.32916E-01-1.91153E-03-9.43604E-01-6.23891E-14-1.87790E-13
 -1      2266 1.81510E+01 3.26297E-01 8.31363E-03-8.40981E-01-7.94274E-14-2.03230E-13
 -1      2267 1.88564E+01 2.49614E-01-3.39684E-04-1.10895E+00-7.44485E-14-9.89234E-14
 -1      2268 1.80309E+01 4.06517E-01 6.06559E-04-6.86238E-01-1.35684E-13-1.45835E-13
 -1      2269 1.79376E+01 4.77646E-01 8.91241E-03-5.23490E-01-1.28820E-13-1.69722E-13
 -1      2270 1.86076E+01 4.80980E-01-3.36865E-03-8.67607E-01-1.19013E-13-1.22866E-13
 -1      2271 1.78684E+01 5.25733E-01 4.02098E-03-3.07174E-01-1.16874E-13-2.09207E-13
 -1      2272 1.78370E+01 5.52953E-01 7.32777E-03-1.08307E-01-6.90930E-14-2.61984E-13
 -1      2273 1.84270E+01 6.55949E-01-6.07919E-03-4.73471E-01-1.23273E-13-5.32550E-14
 -1      2274 1.78385E+01 5.53802E-01 7.18609E-03 1.31698E-01 4.76381E-14-3.11377E-13
 -1      2275 1.78753E+01 5.28523E-01 4.23950E-03 3.31244E-01 9.20323E-14-2.81650E-13
 -1      2276 1.83625E+01 7.22763E-01-7.15677E-03 1.34996E-02-4.21202E-15-1.96164E-13
 -1      2277 1.79476E+01 4.82196E-01 8.83123E-03 5.49091E-01 8.54694E-14-2.92261E-13
 -1      2278 1.80468E+01 4.13076E-01 9.05306E-04 7.13926E-01 5.34340E-14-2.10813E-13
 -1      2279 1.84335E+01 6.60860E-01-6.04918E-03 5.02065E-01 5.52418E-14-1.57782E-13
 -1      2280 1.81703E+01 3.34639E-01 8.26261E-03 8.71802E-01-2.88701E-15-2.79462E-13
 -1      2281 1.83155E+01 2.43265E-01-1.56976E-03 9.77934E-01 5.97168E-15-3.22305E-13
 -1      2282 1.86211E+01 4.90850E-01-3.37816E-03 9.01120E-01-2.17547E-14-1.69832E-13
 -1      2283 1.84603E+01 1.55548E-01 5.77578E-03 1.05784E+00-2.21853E-14-4.40922E-13
 -1      2284 1.86301E+01 6.64121E-02-2.65406E-03 1.09849E+00-1.67289E-14-4.11953E-13
 -1      2285 1.88780E+01 2.64460E-01-4.13054E-04 1.15075E+00-7.47433E-14-2.15148E-13
 -1      2286 1.87684E+01-9.96536E-03 2.36833E-03 1.10412E+00 6.34723E-14-4.26479E-13
 -1      2287 1.89420E+01-7.88654E-02-2.54856E-03 1.08792E+00 2.40668E-14-3.25220E-13
 -1      2288 1.91495E+01 4.11088E-02 1.74380E-03 1.23709E+00-8.22751E-15-2.98691E-13
 -1      2289 1.90563E+01-1.31918E-01-8.70583E-04 1.03787E+00-5.24808E-16-2.12857E-13
 -1      2290 1.92175E+01-1.73101E-01-1.78353E-03 9.82317E-01 8.44922E-14-9.86249E-14
 -1      2291 1.93930E+01-1.34414E-01 2.69905E-03 1.18586E+00 8.92974E-14-3.19298E-13
 -1      2292 1.93021E+01-2.00459E-01-3.22203E-03 9.00339E-01 5.21560E-14-1.51244E-13
 -1      2293 1.94414E+01-2.15607E-01-8.76438E-04 8.24606E-01 1.21382E-13-1.92171E-13
 -1      2294 1.95868E+01-2.42403E-01 2.68449E-03 1.04342E+00 2.64494E-14-6.11712E-14
 -1      2295 1.94986E+01-2.21620E-01-4.47011E-03 7.31903E-01 1.18876E-13-1.63624E-13
 -1      2296 1.96122E+01-2.17541E-01-1.43508E-04 6.51887E-01 5.99139E-14-1.61447E-13
 -1      2297 1.97276E+01-2.85691E-01 2.16634E-03 8.57798E-01 1.25402E-13-1.45342E-13
 -1      2298 1.96483E+01-2.09351E-01-4.76536E-03 5.63365E-01 3.04899E-15-1.27287E-13
 -1      2299 1.97367E+01-1.94051E-01 3.07521E-04 4.89669E-01 1.23622E-13-9.83160E-14
 -1      2300 1.98233E+01-2.80253E-01 1.53425E-03 6.66796E-01 1.93240E-14-1.57651E-13
 -1      2301 1.97583E+01-1.78600E-01-4.41558E-03 4.13566E-01 9.11856E-14-9.97161E-14
 -1      2302 1.98245E+01-1.58828E-01 5.03364E-04 3.51656E-01 1.09784E-13-6.84864E-14
 -1      2303 1.98855E+01-2.45600E-01 9.98738E-04 4.94189E-01 1.03385E-13-1.93856E-13
 -1      2304 1.98371E+01-1.41350E-01-3.72969E-03 2.90950E-01 7.28146E-14-8.65426E-14
 -1      2305 1.98849E+01-1.21671E-01 5.24411E-04 2.42404E-01 2.91126E-14 1.89604E-14
 -1      2306 1.99249E+01-1.98542E-01 6.23090E-04 3.51205E-01 7.27248E-14-1.59775E-13
 -1      2307 1.98924E+01-1.05379E-01-2.94236E-03 1.96708E-01-9.78143E-14-5.28002E-15
 -1      2308 1.99258E+01-8.82708E-02 4.52365E-04 1.60695E-01-8.87873E-14-5.13031E-14
 -1      2309 1.99498E+01-1.50698E-01 3.90452E-04 2.40183E-01-2.72071E-14-7.13385E-14
 -1      2310 1.99304E+01-7.46936E-02-2.19877E-03 1.27900E-01 9.94533E-15-9.93268E-14
 -1      2311 1.99532E+01-6.10818E-02 3.47143E-04 1.02415E-01-2.43352E-14-5.26548E-14
 -1      2312 1.99660E+01-1.08548E-01 2.57549E-04 1.58313E-01-8.74481E-14 9.09492E-15
 -1      2313 1.99562E+01-5.06122E-02-1.57000E-03 7.98359E-02-5.46920E-14-7.23570E-14
 -1      2314 1.99712E+01-4.04718E-02 2.43986E-04 6.25461E-02 6.16990E-14-1.85634E-14
 -1      2315 1.99768E+01-7.46782E-02 1.83814E-04 1.00511E-01-3.63736E-15-2.44501E-15
 -1      2316 1.99733E+01-3.28660E-02-1.07680E-03 4.75811E-02-3.74998E-17 1.65494E-15
 -1      2317 1.99829E+01-2.57021E-02 1.58905E-04 3.63113E-02-6.48120E-14 5.46863E-14
 -1      2318 1.99842E+01-4.92373E-02 1.40809E-04 6.12472E-02 6.26778E-14 1.24167E-13
 -1      2319 1.99845E+01-2.04437E-02-7.11296E-04 2.67534E-02 1.65022E-14 2.09650E-13
 -1      2320 1.99904E+01-1.56096E-02 9.59214E-05 1.96980E-02 7.05748E-14 2.31937E-13
 -1      2321 1.99894E+01-3.11297E-02 1.12082E-04 3.55266E-02 8.79353E-14 2.26195E-13
 -1      2322 1.99916E+01-1.21306E-02-4.52653E-04 1.38253E-02-6.65971E-15 1.12898E-13
 -1      2323 1.99951E+01-9.00420E-03 5.29838E-05 9.59821E-03-2.96322E-14 1.14860E-13
 -1      2324 1.99931E+01-1.88226E-02 8.97866E-05 1.92769E-02-7.04911E-15 1.32205E-13
 -1      2325 1.99959E+01-6.79679E-03-2.76835E-04 6.14477E-03 4.89254E-14 1.14094E-13
 -1      2326 1.99979E+01-4.85832E-03 2.57897E-05 3.74207E-03 5.49589E-14 1.99607E-13
 -1      2327 1.99957E+01-1.08037E-02 7.08773E-05 9.40159E-03-2.32324E-14 2.79124E-13
 -1      2328 1.99984E+01-3.51661E-03-1.61659E-04 1.82044E-03-1.11579E-13 1.63061E-13
 -1      2329 1.99994E+01-2.36805E-03 9.81865E-06 5.48918E-04-5.96055E-14 1.32422E-13
 -1      2330 1.99975E+01-5.79053E-03 5.44810E-05 3.66682E-03-1.67295E-14 3.68447E-13
 -1      2331 1.99998E+01-1.59071E-03-8.88936E-05-4.38499E-04-8.61434E-14 8.84057E-14
 -1      2332 2.00003E+01-9.45736E-04 1.29330E-06-1.03795E-03-1.11464E-13 1.41943E-13
 -1      2333 1.99986E+01-2.79082E-03 4.05340E-05 5.28539E-04-7.12188E-14 3.80129E-13
 -1      2334 2.00005E+01-5.21064E-04-4.46518E-05-1.47892E-03-1.21692E-14 4.35034E-14
 -1      2335 2.00006E+01-1.83284E-04-2.57797E-06-1.69841E-03 2.54091E-13-1.13622E-14
 -1      2336 1.99994E+01-1.08437E-03 2.90855E-05-1.04100E-03-9.05226E-14 2.63185E-13
 -1      2337 2.00008E+01 3.12844E-05-1.89364E-05-1.83525E-03 4.76956E-13 6.20794E-15
 -1      2338 2.00007E+01 1.91645E-04-3.67521E-06-1.85267E-03 5.13561E-13 7.79944E-14
 -1      2339 1.99998E+01-1.73365E-04 2.00475E-05-1.70175E-03 3.56034E-13 1.68429E-13
 -1      2340 2.00007E+01 2.89085E-04-4.86917E-06-1.83036E-03 2.42240E-13 7.41652E-14
 -1      2341 2.00006E+01 3.55522E-04-3.15529E-06-1.74811E-03 1.85450E-13 1.07487E-13
 -1      2342 2.00000E+01 2.73497E-04 1.32067E-05-1.86161E-03 3.81658E-13 1.84735E-13
 -1      2343 2.00006E+01 3.95221E-04 2.06866E-06-1.64802E-03 2.40171E-13 3.85948E-14
 -1      2344 2.00004E+01 4.20260E-04-1.88408E-06-1.51988E-03 2.33663E-13 1.36710E-13
 -1      2345 2.00001E+01 4.70685E-04 8.26084E-06-1.76097E-03 2.28168E-13 1.41210E-13
 -1      2346 2.00004E+01 4.41273E-04 5.25377E-06-1.38403E-03 1.56746E-13 1.79582E-13
 -1      2347 2.00003E+01 4.57569E-04 8.00820E-08-1.23276E-03 4.15509E-13 1.63253E-13
 -1      2348 2.00001E+01 5.53352E-04 4.78156E-06-1.53185E-03 2.88252E-13 1.21683E-13
 -1      2349 2.00002E+01 4.85438E-04 5.83862E-06-1.08569E-03 2.60681E-13-1.41920E-13
 -1      2350 2.00001E+01 5.13357E-04 2.98898E-06-9.18087E-04 1.64436E-14-1.90728E-13
 -1      2351 1.99999E+01 6.77362E-04-2.00158E-06-9.25371E-04-8.41332E-14-5.43698E-13
 -1      2352 2.00000E+01 6.10517E-04 1.56029E-06-1.24588E-03 1.08098E-13-2.22523E-13
 -1      2353 1.98645E+01 2.08599E-01 1.30884E-03 5.95407E-02 1.50792E-13-5.92760E-16
 -1      2354 1.99383E+01 2.76760E-01 9.32004E-03 1.65559E-01 1.66146E-13 1.51738E-14
 -1      2355 1.97893E+01 1.25250E-01 1.60773E-03-9.46999E-02 9.55761E-14 1.41843E-14
 -1      2356 1.98191E+01 1.61867E-01 6.25147E-03-3.09878E-02 1.10853E-13 1.76219E-14
 -1      2357 1.99764E+01 2.56574E-01-3.70568E-03 5.69432E-02 1.43347E-13-7.94294E-14
 -1      2358 1.97640E+01 8.79655E-02 2.14187E-03-1.95633E-01 1.03001E-13-5.78128E-15
 -1      2359 1.97616E+01 1.02468E-01 3.27954E-03-1.53036E-01 1.13279E-13 2.43802E-14
 -1      2360 1.98990E+01 1.59147E-01-2.87505E-03-1.06182E-01 1.09473E-13-1.18811E-13
 -1      2361 1.97734E+01 8.69978E-02 2.97965E-03-2.74035E-01 9.69979E-14-9.66722E-15
 -1      2362 1.97478E+01 8.27897E-02 1.18375E-03-2.37631E-01 1.12379E-13 4.99086E-15
 -1      2363 1.98561E+01 1.19298E-01-1.77006E-03-2.15941E-01 1.19894E-13-8.01572E-14
 -1      2364 1.98043E+01 1.22969E-01 4.31101E-03-3.56870E-01 7.50371E-14-2.96520E-14
 -1      2365 1.97608E+01 9.86829E-02-5.19797E-04-3.13165E-01 7.90704E-14-2.34306E-14
 -1      2366 1.98327E+01 1.27844E-01-5.10672E-04-3.03337E-01 1.11692E-13-5.95936E-14
 -1      2367 1.98439E+01 2.04899E-01 6.31436E-03-4.72102E-01 4.36571E-14-8.33369E-14
 -1      2368 1.97849E+01 1.54769E-01-2.28260E-03-4.06102E-01 6.27489E-14-4.77437E-14
 -1      2369 1.98115E+01 1.87573E-01 1.15545E-03-3.95539E-01 8.57408E-14-7.58857E-14
 -1      2370 1.98745E+01 3.50821E-01 9.07297E-03-6.52882E-01 1.25507E-14-6.04352E-14
 -1      2371 1.98020E+01 2.64238E-01-4.60257E-03-5.45664E-01 3.37876E-14-6.27494E-14
 -1      2372 1.97694E+01 3.12125E-01 3.76235E-03-5.19583E-01 3.99182E-14-1.07878E-13
 -1      2373 1.98645E+01 5.88533E-01 1.23863E-02-9.40628E-01 1.03025E-14-6.98640E-14
 -1      2374 1.97838E+01 4.49837E-01-8.16614E-03-7.67480E-01 1.62691E-14-6.75450E-14
 -1      2375 1.96694E+01 5.26435E-01 8.23014E-03-7.04677E-01 2.30716E-14-8.67653E-14
 -1      2376 1.97526E+01 9.52350E-01 1.55734E-02-1.38510E+00 5.70299E-14-1.37031E-13
 -1      2377 1.96797E+01 7.43512E-01-1.38963E-02-1.11564E+00 3.29853E-14-9.93546E-14
 -1      2378 1.94484E+01 8.65986E-01 1.60886E-02-9.82198E-01 5.31220E-14-1.96544E-13
 -1      2379 1.94257E+01 1.46423E+00 1.80244E-02-2.03716E+00 4.50837E-14-1.35110E-13
 -1      2380 1.93977E+01 1.17777E+00-2.26014E-02-1.64117E+00 6.25073E-14-1.19491E-13
 -1      2381 1.89970E+01 1.36833E+00 2.99140E-02-1.38167E+00 4.86512E-14-1.64062E-13
 -1      2382 1.86973E+01 2.07017E+00 2.40046E-02-2.92752E+00-7.03153E-14-1.05499E-13
 -1      2383 1.87840E+01 1.75108E+00-3.17141E-02-2.39311E+00 9.02056E-16-1.01984E-13
 -1      2384 1.81334E+01 2.03829E+00 5.43804E-02-1.92249E+00 1.10779E-14-1.73187E-13
 -1      2385 1.74446E+01 2.45768E+00 4.47646E-02-3.96158E+00-1.81136E-13-1.32793E-13
 -1      2386 1.76712E+01 2.29359E+00-3.25378E-02-3.37549E+00-9.45520E-14-1.17378E-13
 -1      2387 1.66461E+01 2.74349E+00 1.03342E-01-2.57979E+00-6.99566E-14-2.09346E-13
 -1      2388 1.54189E+01 1.75645E+00 1.11767E-01-5.10082E+00-4.07556E-13-1.05138E-13
 -1      2389 1.58477E+01 2.36233E+00 2.51436E-02-4.54964E+00-3.20088E-13-1.50852E-13
 -1      2390 1.42234E+01 3.02173E+00 1.92309E-01-3.38052E+00-2.29008E-13-3.08989E-13
 -1      2391 2.49893E+00-1.59344E+00 1.03592E-01 2.99046E+00-6.92224E-14-8.81129E-13
 -1      2392 2.24201E+00-1.82720E+00 1.53201E-01 1.44726E-01-7.28445E-14-7.61446E-13
 -1      2393 2.02210E+01 1.28506E+00-2.16627E-02 2.32139E+00-1.10700E-13-2.29019E-13
 -1      2394 2.05486E+01 1.54284E+00 3.57294E-02 2.88329E+00-9.08301E-14-1.60669E-13
 -1      2395 2.03030E+01 8.46298E-01-1.31671E-02 1.48461E+00-1.87067E-13-2.45914E-13
 -1      2396 2.05692E+01 1.06235E+00 2.88056E-02 1.88181E+00-2.12037E-13-2.02953E-13
 -1      2397 1.93351E+01 1.62235E+00 3.76910E-02 2.07633E+00-1.56724E-13-5.14614E-14
 -1      2398 2.02776E+01 5.30186E-01-6.21072E-03 9.21900E-01-1.18031E-14-2.79218E-13
 -1      2399 2.04744E+01 6.80839E-01 2.26502E-02 1.18222E+00-1.58121E-13-2.60227E-13
 -1      2400 1.97663E+01 1.06581E+00 1.97755E-02 1.35893E+00-1.36303E-13-1.66111E-13
 -1      2401 2.02194E+01 3.30165E-01-2.94823E-03 5.73641E-01 1.45222E-13-1.25614E-13
 -1      2402 2.03528E+01 4.25816E-01 1.66304E-02 7.31801E-01 1.66040E-13-1.86403E-13
 -1      2403 1.99534E+01 6.74155E-01 9.53531E-03 8.70551E-01 1.23408E-14-1.99886E-13
 -1      2404 2.01553E+01 1.96136E-01-1.57027E-03 3.40754E-01 2.34188E-17 1.34277E-13
 -1      2405 2.02481E+01 2.58531E-01 1.11468E-02 4.42948E-01 2.57108E-14 8.52183E-17
 -1      2406 2.00260E+01 4.16930E-01 5.09374E-03 5.45045E-01-6.22549E-16-1.31442E-13
 -1      2407 2.01047E+01 1.14780E-01-7.17825E-04 1.98576E-01 2.11735E-13 1.33832E-13
 -1      2408 2.01639E+01 1.52795E-01 7.21641E-03 2.59785E-01 1.64795E-13 1.76710E-13
 -1      2409 2.00457E+01 2.48723E-01 2.30935E-03 3.29129E-01 1.02986E-13-8.58235E-14
 -1      2410 2.00679E+01 6.60993E-02-3.07976E-04 1.13358E-01 3.57884E-13 1.89746E-13
 -1      2411 2.01046E+01 8.88297E-02 4.50289E-03 1.49322E-01 2.11110E-13 2.47778E-13
 -1      2412 2.00435E+01 1.45832E-01 9.23297E-04 1.94507E-01 1.90778E-13 3.52488E-13
 -1      2413 2.00429E+01 3.73778E-02-1.18549E-04 6.32475E-02-5.79667E-14 1.89136E-13
 -1      2414 2.00650E+01 5.07689E-02 2.73569E-03 8.39988E-02 2.68362E-13 1.63500E-13
 -1      2415 2.00346E+01 8.40662E-02 2.88493E-04 1.12477E-01 3.15521E-13 2.46379E-13
 -1      2416 2.00267E+01 2.06708E-02-3.40441E-05 3.43782E-02-3.39965E-13 2.32955E-13
 -1      2417 2.00397E+01 2.84444E-02 1.62747E-03 4.61097E-02-3.27961E-13 1.55305E-13
 -1      2418 2.00254E+01 4.75529E-02 2.61776E-05 6.35663E-02-1.32514E-13 3.66898E-13
 -1      2419 2.00165E+01 1.11083E-02 3.63109E-07 1.81316E-02-6.11056E-15 3.13985E-13
 -1      2420 2.00240E+01 1.55441E-02 9.48336E-04 2.46022E-02-1.25259E-13 3.55460E-13
 -1      2421 2.00178E+01 2.62889E-02-6.37540E-05 3.50421E-02-2.75947E-13 2.01553E-13
 -1      2422 2.00102E+01 5.74471E-03 1.18936E-05 9.24437E-03 3.32255E-13 7.20899E-14
 -1      2423 2.00144E+01 8.22181E-03 5.40281E-04 1.27034E-02 2.95247E-13 1.89568E-13
 -1      2424 2.00122E+01 1.41141E-02-8.07283E-05 1.88068E-02 2.33642E-13 2.30955E-13
 -1      2425 2.00063E+01 2.81504E-03 1.37345E-05 4.55347E-03 4.04673E-14 1.43818E-13
 -1      2426 2.00087E+01 4.15960E-03 2.99877E-04 6.32780E-03 1.73821E-13 7.90445E-14
 -1      2427 2.00083E+01 7.28803E-03-7.09882E-05 9.82306E-03 3.58561E-13 2.67705E-13
 -1      2428 2.00040E+01 1.27199E-03 1.20550E-05 2.19038E-03 1.73716E-14-4.14335E-13
 -1      2429 2.00053E+01 1.97376E-03 1.61306E-04 3.05016E-03 9.34019E-14 9.53947E-15
 -1      2430 2.00056E+01 3.56408E-03-5.45130E-05 5.01810E-03 2.39290E-13 2.34312E-13
 -1      2431 2.00026E+01 5.01485E-04 9.57953E-06 1.07298E-03 8.70035E-14-7.21215E-13
 -1      2432 2.00033E+01 8.46982E-04 8.34643E-05 1.45638E-03-3.04475E-14-6.36157E-13
 -1      2433 2.00038E+01 1.60711E-03-3.90108E-05 2.55434E-03 2.35390E-13-3.20779E-13
 -1      2434 2.00017E+01 1.49195E-04 7.38619E-06 5.89093E-04 6.69177E-14-2.49435E-13
 -1      2435 2.00021E+01 3.03140E-04 4.11062E-05 7.39322E-04 1.03104E-13-4.21336E-13
 -1      2436 2.00026E+01 6.33861E-04-2.67930E-05 1.35621E-03-3.47509E-14-2.36715E-13
 -1      2437 2.00011E+01 1.51408E-05 5.79922E-06 4.02075E-04-1.96061E-13-5.40763E-14
 -1      2438 2.00014E+01 7.00064E-05 1.89760E-05 4.50044E-04 2.06437E-14-8.00058E-14
 -1      2439 2.00017E+01 1.92554E-04-1.79906E-05 8.09270E-04-4.83924E-14-2.27092E-14
 -1      2440 2.00007E+01-1.04370E-05 4.82496E-06 3.33109E-04 2.88343E-13-4.52355E-13
 -1      2441 2.00009E+01-4.21541E-06 8.02163E-06 3.46543E-04-1.44202E-14-2.98207E-13
 -1      2442 2.00011E+01 2.84661E-05-1.19780E-05 5.72260E-04 1.61687E-13-2.04279E-13
 -1      2443 2.00004E+01 1.36632E-05 4.30467E-06 2.91750E-04 4.33014E-13-4.14521E-13
 -1      2444 2.00005E+01-1.77482E-06 3.03268E-06 3.03595E-04 3.86818E-13-4.75186E-13
 -1      2445 2.00007E+01 1.78928E-06-7.92181E-06 4.62183E-04 4.08323E-13-2.86510E-13
 -1      2446 2.00002E+01 5.38565E-05 3.32767E-06 2.36961E-04 2.18391E-13-1.66183E-13
 -1      2447 2.00003E+01 3.34530E-05 1.18205E-06 2.60172E-04 4.97059E-13-4.73879E-13
 -1      2448 2.00004E+01 3.71358E-05-5.00084E-06 3.85150E-04 4.57115E-13-2.91288E-13
 -1      2449 1.99999E+01 9.38266E-05 4.51867E-07 1.26437E-04-2.50699E-13-1.37641E-13
 -1      2450 2.00000E+01 8.63689E-05 9.91856E-07 1.36600E-04-4.07369E-13-4.11304E-14
 -1      2451 2.00000E+01 1.48719E-04 3.88674E-06 1.89434E-04-1.52033E-13-1.21365E-13
 -1      2452 1.99999E+01 6.64023E-04-1.28344E-06 6.69093E-04-1.35804E-13 5.71729E-13
 -1      2453 2.00000E+01 5.40107E-04 3.49672E-06 6.15524E-04-3.14268E-13 6.53240E-13
 -1      2454 1.99998E+01 9.21102E-04-3.49264E-06 7.25052E-04-3.76132E-14 6.31580E-15
 -1      2455 1.99999E+01 7.86840E-04 3.01986E-06 7.10219E-04 9.06605E-14 9.38985E-15
 -1      2456 1.99999E+01 6.73888E-04 2.28931E-07 8.02562E-04 9.59956E-14 4.13686E-13
 -1      2457 2.00000E+01 4.31472E-04 8.48877E-07 5.34968E-04-2.15209E-13 5.04336E-13
 -1      2458 2.00000E+01 3.26073E-04 2.50531E-06 4.55051E-04-4.88806E-14 3.85617E-13
 -1      2459 2.00000E+01 4.48203E-04-1.08528E-06 6.73729E-04-2.27824E-13 4.09214E-13
 -1      2460 1.99997E+01 1.16919E-03-5.30602E-06 6.80093E-04-1.88239E-14 2.62927E-13
 -1      2461 1.99998E+01 1.04292E-03 1.65248E-06 7.13016E-04-9.81944E-14 9.92172E-14
 -1      2462 1.99998E+01 9.10905E-04 1.77558E-06 8.31412E-04 1.84379E-13-1.99042E-15
 -1      2463 1.99996E+01 1.37533E-03-6.53103E-06 5.30724E-04-1.11796E-14-7.34588E-14
 -1      2464 1.99996E+01 1.27452E-03-2.04228E-07 6.11264E-04-6.04554E-14 2.44107E-13
 -1      2465 1.99996E+01 1.12887E-03 2.98755E-06 7.42967E-04 1.28212E-13 1.58177E-13
 -1      2466 1.99995E+01 1.51087E-03-7.00082E-06 2.89858E-04-9.10960E-14-4.08278E-13
 -1      2467 1.99995E+01 1.45107E-03-2.14167E-06 4.10293E-04-9.90583E-15-2.26520E-13
 -1      2468 1.99995E+01 1.30083E-03 3.83152E-06 5.39511E-04-1.18218E-13-1.74920E-13
 -1      2469 1.99994E+01 1.55492E-03-6.56045E-06-1.50117E-05-2.21357E-13-9.84414E-15
 -1      2470 1.99994E+01 1.54724E-03-3.89202E-06 1.30820E-04-1.86876E-13-3.29721E-13
 -1      2471 1.99993E+01 1.40548E-03 4.27228E-06 2.40797E-04-2.33722E-13-3.41358E-13
 -1      2472 1.99994E+01 1.49835E-03-4.89880E-06-3.37664E-04-1.18574E-13 2.61176E-13
 -1      2473 1.99994E+01 1.54582E-03-5.37429E-06-1.89748E-04-2.30022E-13 2.60097E-13
 -1      2474 1.99993E+01 1.42834E-03 4.37550E-06-1.15091E-04-3.11385E-13 1.32529E-13
 -1      2475 1.99995E+01 1.33954E-03-1.68413E-06-6.37818E-04 1.41076E-13 7.05678E-13
 -1      2476 1.99994E+01 1.44035E-03-6.33078E-06-5.08285E-04-8.20429E-14 5.71267E-13
 -1      2477 1.99993E+01 1.36219E-03 4.20150E-06-4.82933E-04-5.05154E-14 5.69094E-13
 -1      2478 1.99996E+01 1.08804E-03 1.86122E-07-8.44535E-04 1.99727E-14-1.87474E-13
 -1      2479 1.99996E+01 1.23091E-03-6.40253E-06-7.68613E-04 1.57892E-13 2.08811E-13
 -1      2480 1.99994E+01 1.20310E-03 4.28763E-06-8.07285E-04-7.51809E-14 5.16961E-13
 -1      2481 1.99998E+01 8.06419E-04 1.35916E-06-9.12399E-04-1.26641E-14-2.44181E-13
 -1      2482 1.99997E+01 9.76066E-04-4.73486E-06-9.12233E-04 2.89664E-14-1.63078E-13
 -1      2483 1.99996E+01 9.91108E-04 1.43779E-06-1.00840E-03 7.95209E-14-2.89181E-13
 -1      2484 1.99999E+01 7.63501E-04 3.15464E-06-1.08277E-03-3.20411E-14-3.46839E-13
 -1      2485 1.87851E+01-3.88853E+00 1.36181E-01-6.20073E+00-1.80744E-13 3.87190E-14
 -1      2486 3.45716E+01 4.01432E+00-1.39826E-01 6.44375E-02-4.32321E-13-5.54279E-13
 -1      2487 3.61498E+01 6.41514E+00-1.12032E-01 3.98080E-01-5.67685E-13-4.95881E-13
 -1      2488 1.99173E+01 1.76295E+00-2.17232E-02 3.48333E+00-1.42267E-13-1.77359E-13
 -1      2489 2.02896E+01 1.91784E+00 5.34599E-02 4.17458E+00-1.12856E-13-8.13984E-14
 -1      2490 1.84693E+01 2.25733E+00 7.03970E-02 3.04908E+00-4.90372E-14-5.71750E-14
 -1      2491 1.93110E+01 1.97134E+00 4.59867E-02 4.92933E+00-1.59740E-13 8.27602E-14
 -1      2492 1.97086E+01 1.41216E+00 7.09453E-02 5.60457E+00-3.14151E-13 5.00017E-14
 -1      2493 1.69221E+01 2.56658E+00 1.21037E-01 4.24183E+00-7.72056E-14 1.48631E-14
 -1      2494 3.18868E+01-1.14570E+00-1.36666E-02-3.42468E+00-8.30030E-14-3.75533E-13
 -1      2495 3.36783E+01 7.23568E-01-1.69645E-01-1.54157E+00-2.07612E-13-5.05374E-13
 -1      2496 2.01749E+01 5.87443E-01-1.63132E-03 6.28252E-01 2.69531E-13 9.91707E-14
 -1      2497 2.03804E+01 7.85363E-01 8.11278E-03 9.28738E-01 3.19455E-13 1.40221E-13
 -1      2498 2.03700E+01 1.16607E+00 6.26687E-03 1.09248E+00 3.30367E-13 1.12065E-14
 -1      2499 1.95111E+01 3.58656E+00-1.00883E-02-2.46346E-01 6.24747E-14-4.98516E-13
 -1      2500 1.95276E+01 3.56517E+00-9.56686E-03-4.26923E-01 2.00644E-14-5.00790E-13
 -1      2501 1.97041E+01 3.16323E+00-6.66050E-04-4.73566E-01 4.31648E-15-4.78114E-13
 -1      2502 1.96687E+01 3.22596E+00-9.64151E-04-1.52070E-01 6.53653E-14-4.69718E-13
 -1      2503 1.99908E+01 3.45184E-01 1.22970E-03 2.81521E-01 2.02473E-13 3.52629E-14
 -1      2504 2.01222E+01 4.58360E-01 1.11375E-02 4.58616E-01 2.28696E-13 7.63741E-14
 -1      2505 2.02207E+01 6.81053E-01 1.55062E-03 6.01346E-01 2.62738E-13 4.00071E-16
 -1      2506 2.00860E+01 4.20863E-01-3.00773E-03 2.87764E-01 2.02159E-13-3.32251E-14
 -1      2507 1.32100E+01-3.19298E+00 3.97660E-02-6.07627E+00-1.47271E-13-1.15435E-13
 -1      2508 1.57826E+01-1.81116E+00 1.27003E-01-6.42310E+00-2.53242E-13-1.67089E-14
 -1      2509 8.39489E+00-2.65633E+00 1.55318E-01-4.96261E+00-1.80911E-13-4.09339E-13
 -1      2510 3.05246E+00-2.12852E+00 1.37407E-01-4.36377E+00 1.95274E-13 5.45564E-13
 -1      2511 4.92559E+00-2.81771E+00 8.55647E-02-6.50059E+00 8.12128E-14 6.18949E-13
 -1      2512 2.40370E+01-4.39794E+00-6.09121E-03 7.59660E+00-6.59750E-14-2.34146E-13
 -1      2513 2.01722E+01-4.86469E+00 5.92262E-02 8.17547E+00-4.82114E-14-2.12656E-13
 -1      2514 3.08484E+00-2.04409E+00 1.03316E-01-1.54376E+00-1.23804E-13-6.47260E-13
 -1      2515 5.31495E+00-2.27464E+00 1.13248E-01-3.56070E+00-1.43802E-13-6.05738E-13
 -1      2516 8.19947E+00-6.74078E-01 1.20383E-01-4.43466E+00-2.29178E-13-4.47309E-13
 -1      2517 4.48644E+00 5.45519E-02 1.08693E-01-7.95807E-01-2.08587E-13-6.77014E-13
 -1      2518 2.05523E+01 1.95493E+00-1.37407E-02-1.89894E+00-3.35357E-13-2.31655E-13
 -1      2519 2.04152E+01 1.21392E+00-7.22952E-03-1.28818E+00-3.03579E-13-1.88878E-13
 -1      2520 2.03858E+01 1.37934E+00 8.14125E-03-1.23800E+00-2.81369E-13-2.31972E-13
 -1      2521 2.02915E+01 2.38430E+00-4.96735E-03-1.84330E+00-3.21566E-13-3.07688E-13
 -1      2522 7.08887E+00-2.51506E+00 1.12293E-01 7.36760E+00 7.08045E-14-9.03194E-13
 -1      2523 4.97264E+00-1.90904E+00 2.21750E-01 5.56755E+00 6.28941E-14-8.79852E-13
 -1      2524 3.00770E+01-2.57211E+00-1.03347E-01 4.87633E+00-2.11969E-13-1.02918E-13
 -1      2525 2.69053E+01-3.86310E+00-2.48397E-02 6.04959E+00-6.07292E-14-2.29317E-13
 -1      2526 2.61757E+01-4.59750E+00 7.45122E-02 6.01468E+00 8.03524E-14-1.09052E-13
 -1      2527 3.47482E+01 2.04094E+00-1.66378E-01 1.06933E+00-4.27450E-13-8.40439E-14
 -1      2528 3.28902E+01-1.69271E-01-9.67923E-03 2.68842E+00-3.53786E-13-6.42819E-14
 -1      2529 1.54780E+01 2.81060E-01 2.62684E-01-6.07903E+00-3.04673E-13-4.78506E-14
 -1      2530 3.67009E+01 7.21623E+00-1.05869E-01-3.81626E-01-7.12652E-13-1.03251E-13
 -1      2531 3.52690E+01 5.19108E+00-1.40434E-01-2.14422E-01-6.08069E-13-5.14866E-14
 -1      2532 7.92085E+00-3.84407E+00 8.45781E-02-7.78011E+00 1.54265E-13 5.35794E-13
 -1      2533 1.18099E+01-4.06288E+00 1.59981E-02-8.96545E+00 2.71894E-13 5.75373E-13
 -1      2534 3.62527E+01 8.21101E+00-1.48087E-01 4.89135E-01-6.75182E-13-3.80584E-13
 -1      2535 3.62510E+01 9.15048E+00-1.77920E-01 3.29003E-01-6.22835E-13-3.72487E-13
 -1      2536 2.58590E+01-4.03523E+00 3.81242E-02-6.51368E+00 1.81466E-13 3.76921E-14
 -1      2537 2.94205E+01-2.78113E+00-8.15837E-02-5.43411E+00-3.08642E-14-2.85189E-13
 -1      2538 3.05402E+01-2.61546E+00 4.59036E-02-3.30401E+00 3.44030E-14-4.64073E-13
 -1      2539 1.67184E+01-4.73806E+00 7.80455E-02-8.71066E+00 3.27571E-13 6.74407E-13
 -1      2540 2.11913E+01-4.60317E+00-5.84194E-02-8.44326E+00 2.83051E-13 5.36612E-13
 -1      2541 3.62107E+01 9.33855E+00-1.86603E-01-2.62453E-01-6.70686E-13-1.95507E-13
 -1      2542 3.66599E+01 8.60821E+00-1.35010E-01-3.97633E-01-6.97997E-13-1.83326E-13
 -1      2543 3.37138E+01 7.62832E+00-7.41357E-02-1.15775E+00-6.33882E-13 7.00412E-14
 -1      2544 3.20992E+00-9.91682E-01 1.77813E-01 8.72458E-01 6.06182E-14 5.47895E-14
 -1      2545 2.45209E+00-1.36719E+00 1.47243E-01-1.90283E+00 1.93436E-13 2.99039E-13
 -1      2546 1.53556E+01-4.39421E+00 2.82430E-02 9.10588E+00 1.74860E-14-3.75200E-13
 -1      2547 1.07190E+01-3.89012E+00 1.16212E-01 8.37826E+00 1.02307E-13-7.34218E-13
 -1      2548 8.29470E+00-2.04037E+00 1.51157E-01-7.21410E+00 1.26205E-13 5.70544E-13
 -1      2549 1.99068E+01 2.81096E+00 1.04871E-03-1.09898E+00-1.50944E-13-4.83055E-13
 -1      2550 1.97785E+01 3.15898E+00-1.46468E-02-1.28606E+00-1.63637E-13-5.02496E-13
 -1      2551 1.98753E+01 3.03824E+00-1.64133E-02-1.48527E+00-2.15160E-13-4.76600E-13
 -1      2552 1.38321E+01-2.24713E+00 2.27730E-01 6.20330E+00-4.48530E-14 3.52385E-13
 -1      2553 1.29103E+01-6.60912E-01 1.62381E-01 5.97044E+00-8.44047E-14 2.21045E-13
 -1      2554 6.29649E+00 2.10717E-01 1.85634E-01 2.30654E+00 1.10884E-14 1.96898E-13
 -1      2555 3.23770E+01 4.24190E+00-1.67133E-01-1.63948E+00-4.89969E-13 2.87326E-13
 -1      2556 3.42407E+01 3.31894E+00-5.19512E-02-3.53741E-01-4.58453E-13 4.95992E-14
 -1      2557 3.23756E+01 1.44952E+00-5.87796E-02-4.22480E-01-3.49609E-13 1.02612E-13
 -1      2558 5.47752E+00-2.43199E-01 1.95325E-01 3.98556E+00-5.02376E-15-8.43325E-13
 -1      2559 2.46643E+01-3.95311E+00 1.93952E-01 5.68187E+00-2.08333E-13 1.58880E-13
 -1      2560 2.05275E+01 2.27789E-01 1.85629E-01 6.27023E+00-3.74450E-13 2.05946E-13
 -1      2561 2.12719E+01-1.82604E+00 3.20071E-02 6.39214E+00-2.20823E-13 1.86767E-13
 -1      2562 2.00000E+01 7.92072E-05 1.70654E-06 1.76371E-04-1.08118E-13-1.35267E-13
 -1      2563 2.00001E+01 9.81340E-05-1.55038E-06 2.82032E-04-1.02818E-13-7.67820E-14
 -1      2564 2.00000E+01 2.66837E-04 3.43802E-06 3.57861E-04-8.30299E-14-5.39732E-15
 -1      2565 2.00000E+01 1.91987E-04 8.40852E-07 2.75439E-04-1.71154E-14-1.63979E-13
 -1      2566 2.00000E+01 1.73287E-04-2.23448E-07 2.93399E-04-1.70911E-13-1.44642E-13
 -1      2567 2.00001E+01 2.83560E-04-1.46733E-06 4.84286E-04 1.50319E-13 1.73315E-13
 -1      2568 2.01126E+01 2.61920E+00-1.22431E-02-1.67949E+00-2.74526E-13-3.80180E-13
 -1      2569 3.36464E+01 2.02206E+00-6.69503E-02-5.20402E-03-2.80498E-13-5.70932E-13
 -1      2570 3.21870E+01 3.12404E+00-1.67396E-01 1.44042E+00-2.68785E-13-7.19480E-13
 -1      2571 3.19230E+01 2.18691E-01-4.57978E-02-1.61326E-01-1.07511E-13-5.87919E-13
 -1      2572 1.80532E+01-3.04485E+00 8.10606E-02 6.24861E+00-1.26010E-13 2.38087E-13
 -1      2573 1.60250E+01 1.07057E+00 1.18431E-01 5.84392E+00-2.74336E-13 4.73233E-14
 -1      2574 2.44369E+01-4.58470E+00 8.46989E-02-6.89838E+00 2.42778E-13 1.71085E-13
 -1      2575 1.91414E+01-4.47266E+00 1.10129E-01 8.30956E+00 1.52156E-13-2.35201E-13
 -1      2576 3.12465E+01-2.05548E+00 3.86381E-02 2.69452E+00-1.65729E-13-9.52016E-15
 -1      2577 3.36851E+01 9.02814E+00-9.07428E-02 1.00145E-01-5.74041E-13-1.74378E-13
 -1      2578 4.72061E+00-8.66279E-02 1.77697E-01-3.03487E+00 1.98799E-13 4.26825E-13
 -1      2579 1.10278E+01-2.31824E+00 1.48455E-01 7.77777E+00 1.61288E-13-7.29472E-13
 -1      2580 3.35807E+01 6.94198E+00-8.07922E-02 1.26256E+00-4.85223E-13-4.91884E-13
 -1      2581 1.57017E+01-3.97821E+00 1.25305E-01-8.75554E+00 2.63983E-13 6.30329E-13
 -1      2582 1.98350E+01 2.77647E+00-6.35282E-03 5.15481E-01 1.99048E-13-3.88057E-13
 -1      2583 1.98101E+01 2.82467E+00-5.64740E-03 3.65413E-01 1.75020E-13-4.02740E-13
 -1      2584 1.97933E+01 2.85949E+00-5.67160E-03 2.30776E-01 1.39240E-13-4.09958E-13
 -1      2585 1.97853E+01 2.87478E+00-5.33302E-03 7.66724E-02 9.93104E-14-4.07888E-13
 -1      2586 1.99391E+01 2.51041E+00 3.66830E-03 2.67569E-01 1.41443E-13-3.80168E-13
 -1      2587 2.00365E+01 2.34145E+00-1.12597E-02 1.04001E+00 3.27468E-13-2.81812E-13
 -1      2588 1.99695E+01 2.48937E+00-7.09250E-03 9.07231E-01 3.03687E-13-2.97205E-13
 -1      2589 2.02087E+01 1.93949E+00-1.08949E-02 1.22706E+00 3.54211E-13-1.86053E-13
 -1      2590 2.01217E+01 2.16576E+00-4.51282E-03 1.13177E+00 3.40458E-13-2.45727E-13
 -1      2591 2.01909E+01 1.90746E+00 8.10706E-03 9.28457E-01 3.06793E-13-2.41227E-13
 -1      2592 2.03590E+01 1.36079E+00-8.07853E-03 1.15792E+00 3.37720E-13-4.74730E-14
 -1      2593 2.02798E+01 1.73512E+00 2.56458E-03 1.21338E+00 3.44364E-13-1.24502E-13
 -1      2594 2.02759E+01 1.49787E+00 2.50526E-03 9.68156E-01 3.25192E-13-1.59760E-13
 -1      2595 2.02993E+01 1.05689E+00-3.53907E-04 8.64255E-01 3.12624E-13-5.64937E-14
 -1      2596 1.92416E+01 1.09570E+00-1.83883E-02 9.68930E-01-8.78356E-14-2.41726E-13
 -1      2597 1.90899E+01 1.36219E+00 2.55056E-03 1.23490E+00-1.72802E-13-3.22747E-13
 -1      2598 1.96164E+01 7.13408E-01-1.14592E-02 6.49430E-01-4.62028E-14-1.73963E-13
 -1      2599 1.95601E+01 8.94142E-01 4.71069E-03 8.29287E-01-1.39866E-13-1.96439E-13
 -1      2600 1.90376E+01 1.20612E+00 2.35484E-02 7.15276E-01-1.53710E-13-3.33839E-13
 -1      2601 9.33743E+00 1.36740E+00 2.10118E-01 3.87727E+00-1.13520E-13 2.25681E-13
 -1      2602 7.10769E+00 1.77805E+00 2.14692E-01 1.42251E+00 1.89709E-14-7.02494E-14
 -1      2603 2.03193E+01 1.05629E+00 5.66890E-03-8.60163E-01-2.07225E-13-2.40443E-13
 -1      2604 2.02268E+01 8.08666E-01-5.57069E-03-6.18692E-01-1.69484E-13-2.31942E-13
 -1      2605 2.02159E+01 6.17619E-01 8.55364E-03-4.44132E-01-1.47263E-13-2.10178E-13
 -1      2606 2.01308E+01 4.61341E-01-3.53460E-03-2.88917E-01-1.19000E-13-2.04934E-13
 -1      2607 2.02613E+01 8.82714E-01 7.17435E-04-5.77911E-01-1.58814E-13-2.69246E-13
 -1      2608 2.01061E+01 3.43457E-01 6.85037E-03-1.73398E-01-1.16630E-13-1.68112E-13
 -1      2609 2.00449E+01 2.42255E-01-2.18859E-03-8.16531E-02-1.08121E-13-1.92216E-13
 -1      2610 2.01960E+01 5.07745E-01-1.75005E-03-2.74800E-01-1.27193E-13-2.36711E-13
 -1      2611 2.00217E+01 1.64544E-01 4.92814E-03-1.33417E-02-9.77287E-14-1.94678E-13
 -1      2612 1.99829E+01 9.51648E-02-1.47194E-03 3.33995E-02-1.04983E-13-2.01573E-13
 -1      2613 2.01301E+01 2.62399E-01-2.22640E-03-7.95352E-02-1.18743E-13-2.54607E-13
 -1      2614 1.99672E+01 4.00044E-02 3.52069E-03 6.53109E-02-9.55457E-14-1.99749E-13
 -1      2615 1.99448E+01-1.15193E-02-1.23445E-03 7.92214E-02-7.56282E-14-2.11262E-13
 -1      2616 2.00798E+01 9.28605E-02-2.13594E-03 2.92240E-02-1.07274E-13-2.64087E-13
 -1      2617 1.99385E+01-5.45653E-02 2.64787E-03 8.27268E-02-6.11691E-14-1.75584E-13
 -1      2618 1.99264E+01-9.70278E-02-1.34632E-03 7.11015E-02-4.77337E-14-1.63176E-13
 -1      2619 2.00498E+01-3.31587E-02-1.88824E-03 7.08044E-02-6.88601E-14-2.12908E-13
 -1      2620 1.99300E+01-1.34461E-01 2.19877E-03 5.10081E-02-3.20316E-14-1.66544E-13
 -1      2621 1.99228E+01-1.73362E-01-1.71621E-03 1.76923E-02-3.60661E-14-1.54055E-13
 -1      2622 2.00403E+01-1.36493E-01-1.66111E-03 5.85045E-02-3.54011E-14-1.56781E-13
 -1      2623 1.99360E+01-2.08949E-01 2.04814E-03-2.38281E-02-3.49134E-14-1.23103E-13
 -1      2624 1.99292E+01-2.47059E-01-2.26836E-03-7.71921E-02-4.79841E-14-6.32181E-14
 -1      2625 2.00506E+01-2.30218E-01-1.48447E-03-2.31125E-04-1.71123E-14-1.07293E-13
 -1      2626 1.99510E+01-2.81945E-01 2.04325E-03-1.39770E-01-5.69684E-14-3.01099E-15
 -1      2627 1.99402E+01-3.19018E-01-2.90579E-03-2.12462E-01-1.25326E-15 7.55490E-15
 -1      2628 2.00788E+01-3.20880E-01-1.30072E-03-1.02585E-01-3.87946E-15-3.57347E-14
 -1      2629 1.99683E+01-3.51205E-01 1.98873E-03-2.96314E-01-5.71285E-15-1.82421E-14
 -1      2630 1.99488E+01-3.83242E-01-3.46643E-03-3.86963E-01 2.82730E-14-5.23754E-14
 -1      2631 2.01217E+01-4.07835E-01-9.91070E-04-2.48422E-01-4.23375E-14-1.55022E-14
 -1      2632 1.99779E+01-4.06878E-01 1.63766E-03-4.91050E-01 1.91296E-14-1.13753E-13
 -1      2633 1.99448E+01-4.25476E-01-3.68646E-03-5.95634E-01-1.69114E-14-1.32520E-13
 -1      2634 2.01726E+01-4.81557E-01-4.02161E-04-4.37314E-01-3.88458E-14-1.40314E-13
 -1      2635 1.99659E+01-4.30612E-01 7.45176E-04-7.15054E-01-1.14354E-14-1.47947E-13
 -1      2636 1.99143E+01-4.23312E-01-3.20090E-03-8.24605E-01-7.13552E-14-1.19155E-13
 -1      2637 2.02189E+01-5.22241E-01 5.88727E-04-6.64077E-01-2.84717E-14-1.31856E-13
 -1      2638 1.99147E+01-3.97128E-01-8.49333E-04-9.47455E-01-8.87042E-14-1.01676E-13
 -1      2639 1.98408E+01-3.49902E-01-1.63435E-03-1.04615E+00-7.07351E-14-5.45455E-14
 -1      2640 2.02413E+01-5.00718E-01 1.96655E-03-9.12776E-01-6.49363E-14-1.02014E-13
 -1      2641 1.98068E+01-2.80411E-01-3.00261E-03-1.15098E+00-9.09481E-14-5.58098E-14
 -1      2642 1.97108E+01-1.83313E-01 1.16173E-03-1.21592E+00-9.79348E-14-1.14018E-14
 -1      2643 2.02153E+01-3.84596E-01 3.39509E-03-1.15041E+00-7.72294E-14-8.90621E-14
 -1      2644 1.96336E+01-6.60964E-02-5.14107E-03-1.27217E+00-1.06309E-13-4.96727E-16
 -1      2645 1.95221E+01 7.85586E-02 4.74943E-03-1.27682E+00-1.20002E-13 5.68407E-15
 -1      2646 2.01194E+01-1.51637E-01 4.15483E-03-1.32365E+00-9.50065E-14-8.92494E-14
 -1      2647 1.94064E+01 2.32680E-01-6.25793E-03-1.25120E+00-1.20632E-13 2.18572E-14
 -1      2648 1.92939E+01 4.03305E-01 7.90887E-03-1.17361E+00-8.27103E-14-2.79385E-14
 -1      2649 1.99480E+01 1.91155E-01 3.29882E-03-1.36480E+00-1.29730E-13 1.07642E-14
 -1      2650 1.91640E+01 5.64284E-01-5.35196E-03-1.04339E+00-1.05635E-13-4.21623E-14
 -1      2651 1.90712E+01 7.20462E-01 9.09565E-03-8.77568E-01-1.45473E-13-1.02499E-14
 -1      2652 1.97260E+01 5.92054E-01 3.94163E-04-1.21191E+00-1.05520E-13 4.64902E-14
 -1      2653 1.89669E+01 8.44940E-01-1.90505E-03-6.46307E-01-1.49452E-13-1.70122E-15
 -1      2654 1.89147E+01 9.39658E-01 7.35203E-03-4.10949E-01-1.13454E-13-6.39099E-14
 -1      2655 1.95119E+01 9.56357E-01-3.68777E-03-8.40780E-01-1.38870E-13 1.47700E-14
 -1      2656 1.88750E+01 9.87354E-01 3.01043E-03-1.16605E-01-3.30919E-14-8.58162E-14
 -1      2657 1.88768E+01 9.88974E-01 3.21326E-03 1.45518E-01-1.86580E-15-6.49658E-14
 -1      2658 1.93795E+01 1.17656E+00-6.50903E-03-2.92777E-01-8.69465E-14 1.58548E-14
 -1      2659 1.89173E+01 9.44335E-01 7.30640E-03 4.40674E-01 1.22594E-14-1.02573E-13
 -1      2660 1.89733E+01 8.53027E-01-1.50709E-03 6.77656E-01 2.53339E-14-1.54620E-13
 -1      2661 1.93806E+01 1.18061E+00-6.28475E-03 3.24055E-01-2.76501E-14-8.03025E-14
 -1      2662 1.90783E+01 7.31802E-01 9.05248E-03 9.11532E-01 4.23988E-15-1.34234E-13
 -1      2663 1.91752E+01 5.79095E-01-4.97316E-03 1.08077E+00-3.14877E-14-9.32505E-14
 -1      2664 1.95152E+01 9.68361E-01-3.41166E-03 8.75445E-01 3.44962E-14-2.59589E-13
 -1      2665 1.93061E+01 4.21214E-01 7.79530E-03 1.21546E+00-1.31692E-13-1.67871E-13
 -1      2666 1.94234E+01 2.53921E-01-5.95768E-03 1.29811E+00-1.29598E-13-2.33424E-13
 -1      2667 1.97316E+01 6.12092E-01 4.76090E-04 1.25389E+00-1.23893E-13-1.73974E-13
 -1      2668 1.95404E+01 1.02805E-01 4.58454E-03 1.32985E+00-1.00059E-13-2.22122E-13
 -1      2669 1.96576E+01-3.86028E-02-4.84368E-03 1.33182E+00-1.28650E-14-2.85885E-13
 -1      2670 1.99565E+01 2.19014E-01 3.28153E-03 1.41760E+00-1.25701E-13-2.25521E-13
 -1      2671 1.97363E+01-1.52918E-01 9.82816E-04 1.28321E+00 1.18677E-13-2.50523E-13
 -1      2672 1.98391E+01-2.46886E-01-2.68712E-03 1.22635E+00 1.51858E-13-1.95756E-13
 -1      2673 2.01313E+01-1.16260E-01 4.11923E-03 1.39046E+00 6.53981E-14-1.49383E-13
 -1      2674 1.98747E+01-3.13658E-01-1.82653E-03 1.13055E+00 7.45725E-14-1.43436E-13
 -1      2675 1.99565E+01-3.58020E-01-5.24579E-04 1.04123E+00 7.04233E-14-8.73897E-14
 -1      2676 2.02310E+01-3.42052E-01 3.38967E-03 1.23414E+00 1.43577E-13-1.37633E-13
 -1      2677 1.99575E+01-3.81870E-01-3.41329E-03 9.28534E-01 5.82882E-14-1.16257E-13
 -1      2678 2.00180E+01-3.86821E-01 1.05283E-03 8.29353E-01 9.22137E-14-1.72002E-13
 -1      2679 2.02608E+01-4.51758E-01 2.00578E-03 1.01590E+00 1.38211E-14-9.19159E-14
 -1      2680 1.99980E+01-3.80017E-01-3.91914E-03 7.20780E-01 2.49584E-14-2.05466E-13
 -1      2681 2.00407E+01-3.59994E-01 1.89940E-03 6.27069E-01 4.60721E-15-1.50785E-13
 -1      2682 2.02419E+01-4.68227E-01 7.05821E-04 7.88288E-01 3.06462E-14-2.00540E-13
 -1      2683 2.00120E+01-3.35864E-01-3.71405E-03 5.33851E-01 8.79547E-14-1.98221E-13
 -1      2684 2.00412E+01-3.04007E-01 2.13916E-03 4.53774E-01 1.79783E-13-1.35870E-13
 -1      2685 2.01978E+01-4.24903E-01-1.81049E-04 5.83125E-01 5.43290E-14-2.00584E-13
 -1      2686 2.00122E+01-2.73281E-01-3.15540E-03 3.79722E-01 1.06931E-13-1.79966E-13
 -1      2687 2.00320E+01-2.39023E-01 1.98894E-03 3.16009E-01 1.09311E-13-2.20035E-13
 -1      2688 2.01471E+01-3.52603E-01-6.26945E-04 4.14462E-01 1.12056E-13-2.63520E-13
 -1      2689 2.00073E+01-2.08713E-01-2.49445E-03 2.60452E-01 7.35020E-14-1.26562E-13
 -1      2690 2.00208E+01-1.77568E-01 1.65050E-03 2.12476E-01 4.85259E-15-4.62270E-14
 -1      2691 2.01008E+01-2.73658E-01-7.44396E-04 2.84509E-01 1.44974E-13-2.31612E-13
 -1      2692 2.00018E+01-1.51356E-01-1.87216E-03 1.72626E-01-5.80407E-14 5.00374E-14
 -1      2693 2.00111E+01-1.25763E-01 1.26452E-03 1.38094E-01-7.23808E-14 6.96077E-14
 -1      2694 2.00639E+01-2.01275E-01-6.73661E-04 1.89172E-01-9.30267E-15-3.93406E-14
 -1      2695 1.99978E+01-1.04959E-01-1.34977E-03 1.10559E-01-7.01257E-14 8.10478E-14
 -1      2696 2.00043E+01-8.53761E-02 9.10490E-04 8.66563E-02 5.64522E-15 9.13866E-14
 -1      2697 2.00372E+01-1.41432E-01-5.25154E-04 1.21932E-01-4.03519E-14 3.53694E-14
 -1      2698 1.99956E+01-6.98768E-02-9.41533E-04 6.82469E-02 9.89827E-14 1.20662E-13
 -1      2699 2.00001E+01-5.56963E-02 6.22223E-04 5.22797E-02 1.04095E-13 1.46973E-13
 -1      2700 2.00194E+01-9.54012E-02-3.67021E-04 7.60667E-02 2.57249E-14 2.09618E-13
 -1      2701 1.99949E+01-4.47199E-02-6.38047E-04 4.03467E-02 1.28763E-13 1.28535E-13
 -1      2702 1.99981E+01-3.49130E-02 4.05470E-04 3.00416E-02 1.15164E-13 1.56373E-13
 -1      2703 2.00084E+01-6.19055E-02-2.33054E-04 4.57128E-02 8.66447E-15-1.01677E-13
 -1      2704 1.99951E+01-2.74710E-02-4.20778E-04 2.25441E-02 1.67571E-14 1.24919E-13
 -1      2705 1.99973E+01-2.09607E-02 2.52083E-04 1.61249E-02-2.91137E-14 2.24602E-13
 -1      2706 2.00022E+01-3.86253E-02-1.33615E-04 2.62016E-02-3.25938E-15 8.84522E-14
 -1      2707 1.99958E+01-1.61124E-02-2.70018E-04 1.15706E-02-1.05053E-14 1.78722E-13
 -1      2708 1.99974E+01-1.19549E-02 1.49015E-04 7.72644E-03 5.06661E-14 2.59746E-13
 -1      2709 1.99991E+01-2.30876E-02-6.66043E-05 1.40323E-02 5.43815E-14 1.25875E-13
 -1      2710 1.99967E+01-8.91695E-03-1.68269E-04 5.06842E-03 1.36783E-14 2.99254E-13
 -1      2711 1.99978E+01-6.36454E-03 8.28958E-05 2.87449E-03-3.65877E-14 3.31338E-13
 -1      2712 1.99978E+01-1.31054E-02-2.54960E-05 6.69344E-03 5.05274E-14 2.38355E-13
 -1      2713 1.99976E+01-4.53760E-03-1.01343E-04 1.40283E-03-4.29322E-14 2.96024E-13
 -1      2714 1.99983E+01-3.03710E-03 4.24077E-05 2.30960E-04-1.25979E-13 2.52584E-13
 -1      2715 1.99976E+01-6.93321E-03-2.80622E-06 2.44640E-03-1.00522E-13 1.51831E-13
 -1      2716 1.99984E+01-1.98879E-03-5.84440E-05-5.21543E-04-1.62767E-13 3.44409E-13
 -1      2717 1.99987E+01-1.15120E-03 1.88867E-05-1.08341E-03-4.31221E-14 2.25195E-13
 -1      2718 1.99978E+01-3.27188E-03 7.96419E-06 1.23444E-04-8.66109E-14 5.72251E-14
 -1      2719 1.99989E+01-5.83494E-04-3.17215E-05-1.41536E-03 2.17876E-13 2.90492E-13
 -1      2720 1.99991E+01-1.45944E-04 6.12511E-06-1.62823E-03 5.42991E-13 2.96216E-13
 -1      2721 1.99982E+01-1.20282E-03 1.16820E-05-1.03842E-03 1.62795E-13 3.27008E-13
 -1      2722 1.99993E+01 1.39276E-04-1.56734E-05-1.72452E-03 5.24284E-13 1.81030E-13
 -1      2723 1.99994E+01 3.48971E-04-8.05320E-08-1.74735E-03 2.86688E-13 2.79862E-13
 -1      2724 1.99987E+01-1.01962E-04 1.16364E-05-1.52369E-03 4.81998E-13 3.16505E-13
 -1      2725 1.99996E+01 4.80100E-04-6.52592E-06-1.71806E-03 4.91595E-14 2.76109E-13
 -1      2726 1.99996E+01 5.72255E-04-2.62498E-06-1.64253E-03 8.92853E-14 1.18284E-13
 -1      2727 1.99990E+01 4.41727E-04 9.99321E-06-1.63041E-03 9.41372E-14 1.72655E-13
 -1      2728 1.99998E+01 6.31339E-04-1.80468E-06-1.54958E-03 1.63104E-13-1.05558E-13
 -1      2729 1.99997E+01 6.73785E-04-3.34531E-06-1.42555E-03 2.24156E-13-1.62527E-13
 -1      2730 1.99993E+01 6.91999E-04 8.21759E-06-1.53398E-03-6.04413E-15-1.62749E-14
 -1      2731 1.99998E+01 6.98507E-04 1.46356E-06-1.33194E-03 1.24728E-13-2.65976E-13
 -1      2732 1.99998E+01 7.35899E-04-3.16807E-07-1.18539E-03-1.47340E-13-5.48839E-13
 -1      2733 1.99997E+01 8.50108E-04 2.39458E-06-1.17051E-03 8.36981E-14-4.58688E-13
 -1      2734 1.99995E+01 8.01944E-04 6.94031E-06-1.36315E-03 1.43486E-13-3.47879E-13
 -1      2735 1.99338E+01 1.55026E-01 4.83732E-04-2.16664E-01 9.21445E-14-1.31904E-13
 -1      2736 1.99535E+01 1.70205E-01 1.88344E-03-1.66865E-01 1.01598E-13-1.68400E-13
 -1      2737 2.00556E+01 3.08837E-01-1.25404E-03 4.34729E-02 1.38267E-13-1.52311E-13
 -1      2738 2.01122E+01 3.96059E-01 4.98881E-03 1.51630E-01 1.66832E-13-1.17226E-13
 -1      2739 1.98830E+01 1.69079E-01 1.03260E-03-3.00427E-01 1.03484E-13-1.19519E-13
 -1      2740 1.98949E+01 1.54700E-01-6.22565E-05-2.56799E-01 9.76559E-14-1.18222E-13
 -1      2741 1.99770E+01 1.95480E-01 1.46082E-05-2.13408E-01 8.77451E-14-1.93106E-13
 -1      2742 1.98146E+01 2.44770E-01 1.31955E-03-3.85162E-01 8.30086E-14-1.19329E-13
 -1      2743 1.98291E+01 1.97562E-01-2.12182E-03-3.35014E-01 1.17673E-13-7.73134E-14
 -1      2744 1.98912E+01 2.24654E-01 1.72909E-03-2.89300E-01 8.49457E-14-1.29423E-13
 -1      2745 1.96963E+01 3.96688E-01 1.11337E-03-4.91963E-01 6.35465E-14-1.31796E-13
 -1      2746 1.97292E+01 3.08053E-01-4.64347E-03-4.22790E-01 6.22850E-14-1.22148E-13
 -1      2747 1.97667E+01 3.29643E-01 4.40788E-03-3.57767E-01 8.57675E-14-1.20451E-13
 -1      2748 1.94752E+01 6.49559E-01-1.65230E-04-6.39566E-01 3.63802E-14-1.64156E-13
 -1      2749 1.95524E+01 5.05986E-01-8.05974E-03-5.38983E-01 4.18756E-14-1.14729E-13
 -1      2750 1.95630E+01 5.27635E-01 8.74418E-03-4.30941E-01 6.12961E-14-1.99086E-13
 -1      2751 1.90620E+01 1.03490E+00-3.47586E-03-8.40648E-01 6.29141E-14-1.68736E-13
 -1      2752 1.92291E+01 8.20404E-01-1.28750E-02-6.98325E-01 8.33282E-14-1.32954E-13
 -1      2753 1.92141E+01 8.44750E-01 1.58615E-02-5.11897E-01 7.59055E-14-2.11235E-13
 -1      2754 1.83097E+01 1.57732E+00-9.83009E-03-1.09320E+00 1.44121E-14-1.67697E-13
 -1      2755 1.86448E+01 1.28253E+00-1.93159E-02-9.05683E-01 4.23342E-14-1.99151E-13
 -1      2756 1.86144E+01 1.30847E+00 2.77215E-02-5.87016E-01 6.21473E-14-1.81507E-13
 -1      2757 1.69899E+01 2.25971E+00-1.42974E-02-1.36695E+00 6.72205E-15-1.91760E-13
 -1      2758 1.76155E+01 1.90411E+00-2.60937E-02-1.14567E+00 2.81598E-14-1.77042E-13
 -1      2759 1.75995E+01 1.92639E+00 4.81386E-02-6.13117E-01 2.47925E-14-2.52087E-13
 -1      2760 1.49217E+01 2.87524E+00-5.71939E-03-1.60368E+00-6.18837E-14-2.83475E-13
 -1      2761 1.59129E+01 2.58135E+00-3.13702E-02-1.38530E+00-2.86498E-14-2.72426E-13
 -1      2762 1.59655E+01 2.62892E+00 8.50737E-02-5.06140E-01 1.25577E-14-3.17344E-13
 -1      2763 1.13520E+01 3.01920E+00 6.90428E-02-1.76921E+00-2.25078E-13-3.99430E-13
 -1      2764 1.31470E+01 3.07263E+00-8.26565E-04-1.54962E+00-1.10028E-13-2.94174E-13
 -1      2765 1.33658E+01 3.14074E+00 1.47408E-01-1.92611E-01-6.82024E-14-3.68594E-13
 -1      2766 2.28026E+01-4.52916E+00 1.58852E-01-7.07767E+00 3.84970E-13 2.28671E-13
 -1      2767 2.62349E+01-4.63478E+00-1.23556E-01-5.59064E+00 2.38629E-13-2.96027E-13
 -1      2768 1.85170E+01 1.65305E+00-2.79049E-02 1.42359E+00-1.24158E-13-1.36439E-13
 -1      2769 1.81856E+01 1.99343E+00-6.42285E-04 1.78043E+00 1.97065E-15-2.33151E-14
 -1      2770 1.82496E+01 1.79186E+00 4.13756E-02 9.79090E-01-4.60374E-15-2.93983E-13
 -1      2771 1.98217E+01 4.41630E-01-7.17177E-03 4.13171E-01-2.79778E-15-1.59634E-13
 -1      2772 1.98047E+01 5.67632E-01 4.68018E-03 5.39638E-01 5.03835E-14-1.72641E-13
 -1      2773 1.94840E+01 7.81817E-01 1.32625E-02 4.96843E-01-6.72286E-14-2.97556E-13
 -1      2774 1.99244E+01 2.67746E-01-4.27206E-03 2.55924E-01 6.49254E-14-3.18065E-14
 -1      2775 1.99254E+01 3.47798E-01 3.81325E-03 3.37373E-01 7.78792E-14-1.18708E-13
 -1      2776 1.97366E+01 4.88017E-01 7.34493E-03 3.27941E-01-3.41323E-15-2.53352E-13
 -1      2777 1.99732E+01 1.59327E-01-2.50612E-03 1.54609E-01 2.50643E-13 1.62509E-13
 -1      2778 1.99799E+01 2.09094E-01 2.83103E-03 2.05556E-01 9.00827E-14 2.48454E-14
 -1      2779 1.98712E+01 2.97767E-01 3.93728E-03 2.09015E-01 9.01492E-14-9.79545E-14
 -1      2780 1.99949E+01 9.30658E-02-1.44701E-03 9.11972E-02 2.47148E-13 1.51717E-13
 -1      2781 2.00021E+01 1.23410E-01 1.95806E-03 1.22298E-01 3.86614E-13 2.20970E-13
 -1      2782 1.99409E+01 1.78104E-01 2.04177E-03 1.29297E-01 1.80901E-13-2.53276E-13
 -1      2783 2.00035E+01 5.32621E-02-8.20860E-04 5.25319E-02-2.50248E-13 2.06150E-13
 -1      2784 2.00095E+01 7.14449E-02 1.29167E-03 7.10853E-02 7.58244E-14 2.37695E-13
 -1      2785 1.99759E+01 1.04461E-01 1.02385E-03 7.78750E-02 6.60617E-14 7.49438E-14
 -1      2786 2.00061E+01 2.97566E-02-4.55914E-04 2.95507E-02-2.21284E-13-2.88454E-14
 -1      2787 2.00105E+01 4.04615E-02 8.22486E-04 4.03605E-02-3.64956E-13-2.23816E-14
 -1      2788 1.99926E+01 5.99766E-02 4.91567E-04 4.57654E-02-8.65831E-14-1.83259E-13
 -1      2789 2.00061E+01 1.61369E-02-2.46601E-04 1.62513E-02 3.05325E-13-4.64767E-14
 -1      2790 2.00092E+01 2.23146E-02 5.08163E-04 2.23884E-02 3.41119E-14-9.29228E-14
 -1      2791 2.00000E+01 3.35938E-02 2.21028E-04 2.63013E-02-1.30319E-13-4.35757E-13
 -1      2792 2.00052E+01 8.42315E-03-1.28761E-04 8.77630E-03 1.88220E-13 1.82184E-13
 -1      2793 2.00073E+01 1.19031E-02 3.05270E-04 1.21587E-02 3.48140E-13 2.04028E-13
 -1      2794 2.00028E+01 1.82581E-02 8.80726E-05 1.48397E-02 1.12524E-13-2.16336E-13
 -1      2795 2.00042E+01 4.17823E-03-6.39185E-05 4.71134E-03 3.51358E-13 8.78253E-14
 -1      2796 2.00055E+01 6.07932E-03 1.78400E-04 6.51112E-03 3.49177E-13 2.88233E-13
 -1      2797 2.00035E+01 9.55286E-03 2.58976E-05 8.28739E-03 2.98151E-13 2.75227E-14
 -1      2798 2.00031E+01 1.93003E-03-2.92486E-05 2.58277E-03 2.30503E-13 1.43601E-13
 -1      2799 2.00040E+01 2.92650E-03 1.01356E-04 3.50090E-03 2.04924E-13 3.80466E-15
 -1      2800 2.00032E+01 4.75551E-03-7.70830E-07 4.65638E-03 4.16005E-13 2.89628E-13
 -1      2801 2.00023E+01 8.03619E-04-1.13973E-05 1.51368E-03-7.47084E-14 1.00069E-13
 -1      2802 2.00029E+01 1.29490E-03 5.58924E-05 1.95970E-03 1.80759E-13 2.03242E-13
 -1      2803 2.00026E+01 2.21324E-03-1.03476E-05 2.70831E-03 1.12685E-13 2.80488E-13
 -1      2804 2.00016E+01 2.88996E-04-2.68279E-06 9.96020E-04-8.64793E-14 1.52464E-13
 -1      2805 2.00020E+01 5.06848E-04 2.98386E-05 1.20306E-03-1.45504E-13 1.34452E-13
 -1      2806 2.00020E+01 9.40346E-04-1.22010E-05 1.69395E-03-3.08398E-14 3.98024E-13
 -1      2807 2.00011E+01 9.62212E-05 1.36929E-06 7.44151E-04 5.95319E-13-4.77885E-14
 -1      2808 2.00014E+01 1.71476E-04 1.53350E-05 8.40933E-04 2.74311E-13 9.67641E-14
 -1      2809 2.00015E+01 3.60865E-04-1.09651E-05 1.17279E-03 1.18576E-13-4.74320E-14
 -1      2810 2.00007E+01 6.40732E-05 3.19110E-06 6.02955E-04 3.96350E-13 4.83109E-14
 -1      2811 2.00009E+01 6.86017E-05 7.27706E-06 6.57467E-04 4.96969E-13 7.08058E-14
 -1      2812 2.00010E+01 1.46801E-04-8.74499E-06 8.94188E-04 4.53207E-13 3.82792E-14
 -1      2813 2.00004E+01 1.03554E-04 4.02929E-06 4.91743E-04 3.47622E-13 2.09606E-13
 -1      2814 2.00005E+01 7.82726E-05 3.14371E-06 5.39032E-04 3.90514E-13-1.48533E-14
 -1      2815 2.00006E+01 1.18098E-04-3.65724E-06 7.20816E-04 3.62888E-13 6.13147E-14
 -1      2816 2.00002E+01 1.45360E-04 1.22321E-06 3.74692E-04 8.90461E-14 2.19863E-13
 -1      2817 2.01759E+01 2.27036E+00-1.77595E-03-1.42874E+00-2.52134E-13-3.68251E-13
 -1      2818 1.99999E+01 6.78760E-04-4.50567E-06 9.20148E-04 2.91625E-13 3.51971E-13
 -1      2819 2.00000E+01 5.71724E-04 3.72170E-06 8.80404E-04 1.76881E-13 7.37550E-13
 -1      2820 2.00001E+01 4.59556E-04-2.50987E-06 8.04411E-04-7.46724E-15 4.43302E-13
 -1      2821 2.00002E+01 3.62642E-04 2.95210E-06 7.18636E-04 2.78629E-14 2.97389E-13
 -1      2822 2.00001E+01 4.78662E-04 6.72512E-07 9.37877E-04 3.06897E-13 6.93261E-13
 -1      2823 1.99997E+01 8.97595E-04-5.72427E-06 9.16542E-04 1.94554E-13 1.13202E-13
 -1      2824 1.99998E+01 7.93406E-04 3.41114E-06 9.34600E-04 3.01779E-13-1.63502E-13
 -1      2825 1.99999E+01 6.92697E-04 2.44689E-06 1.02570E-03 2.64674E-13 1.93427E-13
 -1      2826 1.99993E+01 1.22881E-03-5.78229E-06 5.28443E-04-8.00678E-15-1.82706E-13
 -1      2827 1.99994E+01 1.16678E-03 1.10333E-06 6.61493E-04-4.33347E-14-1.66196E-13
 -1      2828 1.99991E+01 1.30506E-03-4.89335E-06 1.80507E-04-1.68461E-13-4.21637E-13
 -1      2829 1.99992E+01 1.27738E-03-3.75458E-07 3.53813E-04-7.50843E-14-3.52993E-13
 -1      2830 1.99991E+01 1.16459E-03 2.88887E-06 4.83461E-04-8.71519E-15-3.65394E-13
 -1      2831 1.99991E+01 1.30886E-03-3.52162E-06-2.13636E-04-1.69706E-13 3.01668E-13
 -1      2832 1.99991E+01 1.31988E-03-2.02840E-06-2.49416E-05-2.30125E-13-4.97418E-14
 -1      2833 1.99990E+01 1.21647E-03 2.44868E-06 9.06306E-05-9.47383E-14-2.94895E-13
 -1      2834 1.99991E+01 1.23501E-03-1.32945E-06-6.15855E-04-2.24455E-13 5.97940E-13
 -1      2835 1.99991E+01 1.28715E-03-3.72086E-06-4.32406E-04-2.36480E-13 4.42453E-13
 -1      2836 1.99989E+01 1.20643E-03 1.86949E-06-3.46357E-04-3.06432E-13 2.87447E-13
 -1      2837 1.99993E+01 1.08399E-03 4.01808E-06-9.57141E-04-2.62675E-13 3.19529E-13
 -1      2838 1.99992E+01 1.17236E-03-5.77848E-06-8.13392E-04-2.17600E-13 7.74220E-13
 -1      2839 1.99990E+01 1.12631E-03 9.72950E-07-7.75524E-04-4.22257E-13 6.98172E-13
 -1      2840 1.72215E+01 2.33029E+00-3.43174E-02 2.00519E+00 1.79743E-14 7.18991E-14
 -1      2841 1.65943E+01 2.65824E+00 7.80318E-03 2.43885E+00 2.82240E-14 1.55397E-13
 -1      2842 1.68605E+01 2.52861E+00 7.42299E-02 1.26180E+00 4.44399E-14 1.15639E-13
 -1      2843 1.50476E+01 2.89924E+00-6.67186E-03 2.71711E+00-7.10196E-14 2.62013E-14
 -1      2844 1.40561E+01 2.85104E+00 7.13927E-02 3.17008E+00-1.50211E-13 8.32945E-14
 -1      2845 1.45111E+01 3.18400E+00 1.25926E-01 1.49248E+00-8.84115E-14 5.50966E-14
 -1      2846 2.14596E+01-4.49570E+00-4.40889E-02 7.39159E+00 1.67158E-13-1.73694E-13
 -1      2847 1.76714E+01-3.51225E+00 1.56657E-01 7.96348E+00 2.47885E-13-2.01741E-13
 -1      2848 1.99995E+01 1.08814E-03-6.13386E-06 7.82706E-04 2.41905E-14 4.40153E-14
 -1      2849 1.99996E+01 9.99681E-04 2.43266E-06 8.61340E-04 7.13575E-14 2.68281E-13
 -1      2850 1.99996E+01 8.92197E-04 3.10941E-06 9.77673E-04-1.13814E-13 1.76279E-14
 -1      2851 1.99993E+01 1.05410E-03 3.17652E-06 7.91248E-04 4.98404E-15-1.93392E-13
 -1      2852 1.99149E+01 2.61125E+00-7.81283E-03 7.91743E-01 2.83329E-13-3.12304E-13
 -1      2853 1.98701E+01 2.70169E+00-6.14451E-03 6.43656E-01 2.35561E-13-3.55510E-13
 -1      2854 1.99880E+01 2.40263E+00 4.41485E-03 5.17315E-01 1.95433E-13-3.38544E-13
 -1      2855 2.00723E+01 2.20929E+00 6.34585E-03 7.44926E-01 2.63363E-13-2.83294E-13
 -1      2856 3.11794E+01-1.40589E+00-1.46860E-01 9.80716E-01-2.30684E-13 2.91850E-14
 -1      2857 2.94273E+01-3.23058E+00 3.74700E-03 2.77523E+00-8.85125E-14 2.00395E-14
 -1      2858 3.12811E+01 8.43589E+00-1.91732E-01 6.27794E-01-5.46785E-13-2.43250E-13
 -1      2859 3.12650E+01 8.56072E+00-2.00110E-01-3.85902E-01-5.66380E-13-1.72189E-13
 -1      2860 2.72077E+01-4.52938E+00-1.16206E-01 4.73724E+00 2.52715E-14-7.47458E-14
 -1      2861 2.50175E+01-4.61186E+00 9.61035E-02 5.87914E+00 1.12035E-13-1.27474E-13
 -1      2862 1.98695E+01 2.69332E+00-6.04182E-03-6.35175E-01-3.49106E-14-4.61528E-13
 -1      2863 1.99129E+01 2.60338E+00-7.65283E-03-7.85249E-01-8.02247E-14-4.75267E-13
 -1      2864 1.99871E+01 1.98677E-01-3.06172E-04-1.10802E-01 1.20980E-13-1.78088E-13
 -1      2865 2.00231E+01 2.45744E-01 3.93500E-03-4.07717E-02 1.21852E-13-1.43183E-13
 -1      2866 2.00492E+01 2.36079E-01-1.10134E-03-1.12332E-01 1.09957E-13-2.16404E-13
 -1      2867 1.44215E+01-2.79209E+00 1.89622E-01-8.21493E+00 1.89945E-13 6.52964E-13
 -1      2868 1.81497E+01-3.98297E+00-5.56231E-02-8.32409E+00 2.54158E-13 6.36019E-13
 -1      2869 7.68981E+00 7.39149E-01 1.44791E-01 4.58322E+00 2.15661E-14-7.62196E-13
 -1      2870 5.95456E+00 1.39821E+00 2.24450E-01 1.87571E+00-8.53597E-14-7.39186E-13
 -1      2871 1.40506E+01-2.34317E+00 7.49272E-02 8.02447E+00 2.15022E-13-4.59688E-13
 -1      2872 1.08876E+01-7.58675E-01 1.62121E-01 6.77146E+00 1.71876E-13-6.95777E-13
 -1      2873 5.93003E+00 1.44962E+00 1.76842E-01-1.61157E+00 4.98802E-14 3.61489E-13
 -1      2874 6.52576E+00 6.35568E-01 1.79147E-01-4.28263E+00 4.69624E-14 6.84036E-13
 -1      2875 2.90347E+01-3.54054E+00 5.26050E-02-3.43793E+00 7.07351E-14-4.84363E-13
 -1      2876 3.04258E+01-2.34627E+00-1.52257E-01-1.86728E+00 3.67571E-14-5.23651E-13
 -1      2877 3.12315E+01 7.63169E+00-2.14860E-01-1.20146E+00-5.09148E-13-2.85327E-14
 -1      2878 3.13741E+01 6.27959E+00-1.89084E-01-1.68588E+00-4.98573E-13 1.51254E-13
 -1      2879 3.11151E+01 5.52432E+00-1.77614E-01 1.77294E+00-3.20244E-13-6.14647E-13
 -1      2880 3.11180E+01 7.16637E+00-2.12300E-01 1.38445E+00-4.82947E-13-4.37907E-13
 -1      2881 8.31245E+00-4.62172E-01 1.96376E-01-6.17634E+00-2.42445E-14 5.37681E-13
 -1      2882 1.08824E+01-1.74074E+00 8.30892E-02-7.76724E+00 3.30014E-14 5.07649E-13
 -1      2883 1.99695E+01 2.48349E+00-5.59903E-03-9.04030E-01-1.22331E-13-4.58878E-13
 -1      2884 2.00342E+01 2.33562E+00-9.59558E-03-1.03617E+00-1.71802E-13-4.24711E-13
 -1      2885 2.00683E+01 2.19515E+00 4.44030E-03-7.38616E-01-9.63497E-14-4.30611E-13
 -1      2886 1.99237E+01 2.54243E+00 3.37649E-03 8.10936E-03 7.48962E-14-3.96436E-13
 -1      2887 1.97853E+01 2.87280E+00-5.53020E-03-6.01825E-02 7.77462E-14-4.36760E-13
 -1      2888 1.97936E+01 2.85674E+00-5.42233E-03-2.14859E-01 3.54046E-14-4.55357E-13
 -1      2889 2.02781E+01 8.40636E-01 1.79641E-03 6.74485E-01 2.81471E-13-5.82420E-14
 -1      2890 2.02883E+01 1.06113E+00 4.19159E-03 7.49116E-01 2.94294E-13-1.02213E-13
 -1      2891 2.02059E+01 6.77434E-01-1.56525E-03 4.87473E-01 2.52968E-13-6.69509E-14
 -1      2892 1.98101E+01 2.81891E+00-5.70934E-03-3.50472E-01 2.00322E-14-4.34850E-13
 -1      2893 1.98351E+01 2.76959E+00-6.10889E-03-5.04549E-01-1.79196E-14-4.48580E-13
 -1      2894 1.99889E+01 2.39139E+00 4.17726E-03-5.06101E-01-2.33338E-14-4.27487E-13
 -1      2895 1.99404E+01 2.50337E+00 3.54065E-03-2.52650E-01 1.06698E-14-4.28479E-13
 -1      2896 2.11529E+01-3.85908E+00 1.15148E-01-7.04846E+00 3.95572E-13 2.37373E-13
 -1      2897 3.09597E+01 4.79138E+00-1.61240E-01-1.87120E+00-4.54803E-13 2.53547E-13
 -1      2898 3.01587E+01 3.37935E+00-6.22334E-02-1.99867E+00-3.82569E-13 2.51500E-13
 -1      2899 2.90839E+01 5.25269E+00-1.00819E-01-2.04460E+00-3.04576E-13 1.78815E-13
 -1      2900 2.01214E+01 3.52936E-01-1.80626E-03 3.59997E-02 1.46824E-13-1.98746E-13
 -1      2901 2.73615E+01-4.04949E+00 3.30000E-02-3.98140E+00 1.54578E-13-3.42490E-13
 -1      2902 9.61408E+00 2.54906E+00 1.44063E-01-6.54090E-01-1.83024E-13-5.09898E-13
 -1      2903 9.84332E+00 2.72764E+00 1.81644E-01 1.30168E+00-1.05931E-13-5.47756E-13
 -1      2904 2.03062E+01 1.72854E+00-8.02990E-03-1.32157E+00-2.74096E-13-2.99577E-13
 -1      2905 2.02913E+01 1.32310E+00-6.03904E-03-1.04296E+00-2.43332E-13-2.65868E-13
 -1      2906 1.43700E+01 7.33563E-01 1.53588E-01-5.78987E+00-3.26045E-13-9.95315E-14
 -1      2907 1.10198E+01 1.88015E+00 1.97921E-01-4.36505E+00-3.46820E-13-4.28879E-13
 -1      2908 1.14689E+01 3.04793E+00 1.67887E-01 2.28984E+00-1.94955E-13-7.60503E-14
 -1      2909 1.27979E+01 2.51371E+00 9.63026E-02 4.05000E+00-1.75963E-13 1.20876E-13
 -1      2910 2.00002E+01 2.30201E-04 1.29864E-06 5.08713E-04 1.49373E-13 1.81382E-13
 -1      2911 2.00003E+01 1.45393E-04 1.35125E-07 4.91121E-04 2.65457E-13 3.40651E-13
 -1      2912 2.00004E+01 1.82102E-04-1.23159E-06 6.38313E-04 1.76523E-13 1.35331E-13
 -1      2913 2.00002E+01 2.90754E-04 8.75577E-07 6.06546E-04 1.89679E-13 2.07674E-13
 -1      2914 9.20500E+00 8.24594E-01 1.93371E-01-4.85880E+00-7.75144E-14 7.16205E-13
 -1      2915 2.95533E+01 7.47634E+00-1.28520E-01-8.65306E-01-4.17139E-13-1.47254E-13
 -1      2916 2.00002E+01 3.02220E-04-4.13703E-07 7.44898E-04 1.92479E-13 2.06717E-13
 -1      2917 3.08405E+01 3.99672E+00-1.43395E-01 1.85525E+00-2.19255E-13-6.72712E-13
 -1      2918 2.90108E+01 4.64497E+00-8.72381E-02 2.14305E+00-2.00603E-13-4.93390E-13
 -1      2919 2.99894E+01 2.41984E+00-1.04461E-01 1.73358E+00-1.56236E-13-7.11237E-13
 -1      2920 1.71140E+01-2.39342E+00 1.20034E-01 7.22979E+00 2.37227E-13-2.47198E-13
 -1      2921 1.99995E+01 9.47984E-04-5.29320E-06-1.10384E-03 5.48015E-14-2.31264E-13
 -1      2922 3.08635E+01-1.12426E+00-3.69893E-02-4.19442E-01-9.37028E-14-6.23945E-13
 -1      2923 3.02072E+01 4.69646E-02-1.51776E-01 9.40176E-01-1.46105E-13-7.95836E-13
 -1      2924 2.95053E+01-2.11591E+00-2.02231E-02-7.91504E-01-2.83558E-14-5.51420E-13
 -1      2925 1.03083E+01 4.51362E-01 1.75203E-01 5.45247E+00 1.09038E-13-6.59597E-13
 -1      2926 1.02451E+01 1.74779E+00 1.02217E-01 3.74795E+00 2.10144E-14-6.32647E-13
 -1      2927 1.30087E+01 2.12807E-01 8.82040E-02 5.62189E+00 2.07922E-13-5.50393E-13
 -1      2928 2.34310E+01-4.22074E+00 7.44763E-02 6.01506E+00 1.89612E-13-1.52878E-13
 -1      2929 1.27892E+01 1.57938E+00 2.51353E-01 4.79499E+00-1.82861E-13 1.93512E-13
 -1      2930 1.99994E+01 9.49331E-04-8.53379E-07-1.13799E-03-8.02831E-14 1.46700E-13
 -1      2931 2.02786E+01 1.40826E+00 4.79859E-03-9.45097E-01-1.99856E-13-3.03002E-13
 -1      2932 2.83586E+01-3.63294E+00 2.93195E-02 2.83554E+00-3.88266E-14-1.72778E-15
 -1      2933 2.94316E+01 7.17538E+00-1.20307E-01 1.12541E+00-3.88439E-13-4.01963E-13
 -1      2934 1.02908E+01-2.46842E-01 1.31981E-01-5.34482E+00-2.62651E-13-3.70620E-13
 -1      2935 7.79831E+00 1.97708E+00 1.69800E-01-1.55714E+00-2.53964E-13-5.31741E-13
 -1      2936 1.40995E+01-1.60704E+00 1.62240E-01-7.43851E+00 2.60486E-14 5.18044E-13
 -1      2937 9.44338E+00 1.78069E+00 2.99890E-01-3.39960E+00-2.98761E-13-4.99101E-13
 -1      2938 3.12095E+01-2.61138E-01-6.46193E-02-3.13574E-01-2.37241E-13 1.23054E-13
 -1      2939 2.97405E+01-1.42200E+00 5.73792E-03 1.12564E-02-1.39045E-13 2.13232E-13
 -1      2940 3.01752E+01 8.58935E-01-2.04715E-01-1.40766E+00-3.08475E-13 2.64552E-13
 -1      2941 2.01266E+01 4.65721E-01-4.75680E-04 2.38025E-01 1.87245E-13-9.75956E-14
 -1      2942 2.01908E+01 5.71893E-01 4.41362E-03 3.73015E-01 2.21669E-13-8.90586E-14
 -1      2943 2.02290E+01 7.07781E-01-4.33262E-03 4.36624E-01 2.47914E-13-1.25435E-13
 -1      2944 2.01813E+01 5.18033E-01-2.59965E-03 2.18961E-01 2.03888E-13-1.62606E-13
 -1      2945 1.99993E+01 9.03324E-04-4.35475E-06-1.20789E-03-8.97936E-14 2.59651E-13
 -1      2946 2.02937E+01 1.21593E+00-1.49475E-03 7.89765E-01 2.92640E-13-1.58857E-13
 -1      2947 2.02520E+01 1.43174E+00-2.69288E-03 8.22571E-01 3.04219E-13-2.10557E-13
 -1      2948 2.02768E+01 1.01112E+00 4.35171E-03 6.05764E-01 2.69575E-13-1.48101E-13
 -1      2949 2.02114E+01 1.61320E+00-2.76571E-04 7.67818E-01 2.75485E-13-2.38662E-13
 -1      2950 1.96553E+01 4.48931E-01-5.60636E-03 1.92667E-01 5.01187E-14-2.11050E-13
 -1      2951 1.95591E+01 5.67151E-01-3.03642E-03 2.53015E-01 5.44371E-14-2.34522E-13
 -1      2952 1.88813E+01 1.08413E+00-1.25916E-02 3.56264E-01-1.40042E-13-1.65774E-13
 -1      2953 1.85728E+01 1.31223E+00-1.39427E-02 4.42959E-01-1.38326E-13-1.67093E-13
 -1      2954 1.33758E+01-3.65122E-01 1.54833E-01-6.42633E+00 6.05349E-14 3.25254E-13
 -1      2955 1.58960E+01-1.82857E+00-4.48733E-02-7.11895E+00 1.85858E-13 4.29462E-13
 -1      2956 2.02706E+01 6.93541E-01 4.02868E-03-3.54953E-01-1.13714E-13-2.90527E-13
 -1      2957 2.02295E+01 5.24307E-01-3.65981E-03-2.28253E-01-9.98739E-14-2.87024E-13
 -1      2958 2.02289E+01 3.87289E-01 4.47862E-03-1.37273E-01-1.21242E-13-2.72736E-13
 -1      2959 2.01913E+01 2.68501E-01-2.58454E-03-5.94016E-02-1.21731E-13-2.85001E-13
 -1      2960 2.02805E+01 5.42796E-01-7.69730E-04-2.01286E-01-1.08795E-13-3.06562E-13
 -1      2961 2.01860E+01 1.72064E-01 3.83679E-03-4.66611E-03-1.03976E-13-2.78267E-13
 -1      2962 2.01590E+01 8.51593E-02-1.71452E-03 3.50037E-02-1.09626E-13-2.75773E-13
 -1      2963 2.02579E+01 2.70462E-01-1.36011E-03-4.88826E-02-1.18901E-13-2.74931E-13
 -1      2964 2.01570E+01 1.24771E-02 3.25930E-03 5.98594E-02-8.07883E-14-2.13151E-13
 -1      2965 2.01417E+01-5.59946E-02-1.23828E-03 6.95055E-02-3.92475E-14-2.02936E-13
 -1      2966 2.02380E+01 6.92442E-02-1.76310E-03 3.70961E-02-5.60331E-14-1.94451E-13
 -1      2967 2.01487E+01-1.15936E-01 2.96241E-03 6.96759E-02-1.13371E-14-1.86626E-13
 -1      2968 2.01442E+01-1.75430E-01-1.10916E-03 5.45200E-02-2.55041E-15-1.67741E-13
 -1      2969 2.02328E+01-8.96221E-02-2.06345E-03 6.81515E-02-2.27032E-14-2.12561E-13
 -1      2970 2.01645E+01-2.30009E-01 2.96511E-03 3.29359E-02-1.52334E-14-1.37145E-13
 -1      2971 2.01697E+01-2.86658E-01-1.28096E-03-4.44517E-03-9.34862E-15-1.38504E-13
 -1      2972 2.02510E+01-2.27172E-01-2.35762E-03 5.26331E-02 1.00071E-14-1.71719E-13
 -1      2973 2.02067E+01-3.40002E-01 3.20424E-03-4.72288E-02 6.64349E-15-1.33273E-13
 -1      2974 2.02201E+01-3.96426E-01-1.71990E-03-1.06229E-01 1.96404E-14-9.82240E-14
 -1      2975 2.02992E+01-3.57300E-01-2.64796E-03-5.69225E-03 4.22919E-15-2.07254E-13
 -1      2976 2.02756E+01-4.48867E-01 3.52557E-03-1.71642E-01-3.16880E-14-8.15692E-14
 -1      2977 2.02944E+01-5.03158E-01-2.36328E-03-2.52553E-01-6.29416E-14-1.10056E-13
 -1      2978 2.03822E+01-4.86055E-01-2.83194E-03-1.07610E-01-1.14429E-14-1.64087E-13
 -1      2979 2.03673E+01-5.50017E-01 3.67330E-03-3.42945E-01-6.69762E-14-9.15059E-14
 -1      2980 2.03870E+01-5.94256E-01-3.05589E-03-4.45233E-01-3.35551E-14-1.28721E-13
 -1      2981 2.05009E+01-6.09248E-01-2.69889E-03-2.57278E-01-6.28641E-14-1.02074E-13
 -1      2982 2.04706E+01-6.24554E-01 3.25518E-03-5.61646E-01-2.21534E-14-1.36452E-13
 -1      2983 2.04840E+01-6.43696E-01-3.46799E-03-6.81348E-01-4.34461E-14-1.30416E-13
 -1      2984 2.06494E+01-7.08974E-01-1.95684E-03-4.59210E-01-2.01689E-14-1.22243E-13
 -1      2985 2.05644E+01-6.39847E-01 1.87155E-03-8.19727E-01-7.30857E-14-1.42745E-13
 -1      2986 2.05620E+01-6.12568E-01-3.05461E-03-9.46031E-01-6.42180E-14-1.37838E-13
 -1      2987 2.08096E+01-7.51089E-01-3.41543E-04-7.12385E-01-7.58203E-14-2.04610E-13
 -1      2988 2.06175E+01-5.53000E-01-8.19130E-04-1.09196E+00-8.49509E-14-1.31583E-13
 -1      2989 2.05899E+01-4.56559E-01-1.18413E-03-1.20399E+00-1.22676E-13-1.86412E-13
 -1      2990 2.09495E+01-6.86807E-01 2.20461E-03-1.00087E+00-1.03061E-13-1.95490E-13
 -1      2991 2.05954E+01-3.22938E-01-4.53406E-03-1.32768E+00-1.14044E-13-1.43431E-13
 -1      2992 2.05376E+01-1.44442E-01 2.41985E-03-1.39359E+00-1.29014E-13-1.67408E-13
 -1      2993 2.10252E+01-4.64609E-01 5.00938E-03-1.28237E+00-9.60760E-14-1.96721E-13
 -1      2994 2.04763E+01 6.49289E-02-8.25495E-03-1.45017E+00-9.70571E-14-1.11292E-13
 -1      2995 2.03936E+01 3.13370E-01 6.89980E-03-1.43299E+00-8.93713E-14-1.22020E-14
 -1      2996 2.09955E+01-5.53170E-02 6.80839E-03-1.48085E+00-6.97626E-14-1.10972E-13
 -1      2997 2.02731E+01 5.70288E-01-1.01069E-02-1.37411E+00-7.63862E-14-2.61706E-14
 -1      2998 2.01832E+01 8.40397E-01 1.00453E-02-1.24579E+00-5.28154E-14 1.26299E-14
 -1      2999 2.08472E+01 5.11276E-01 5.58764E-03-1.49668E+00-6.08412E-14-1.40866E-14
 -1      3000 2.00447E+01 1.08274E+00-8.56397E-03-1.04434E+00-1.00452E-13 5.81404E-14
 -1      3001 1.99743E+01 1.29745E+00 9.38050E-03-8.05183E-01-1.31277E-13 7.06041E-14
 -1      3002 2.06216E+01 1.12485E+00 8.06613E-04-1.24401E+00-4.96888E-14-6.46344E-14
 -1      3003 1.98812E+01 1.44742E+00-2.47589E-03-4.80684E-01-1.57262E-13 5.28978E-14
 -1      3004 1.98545E+01 1.52996E+00 4.65465E-03-1.70712E-01-9.62216E-14 1.52330E-14
 -1      3005 2.04131E+01 1.60795E+00-5.69227E-03-7.06722E-01-1.26065E-13 1.18632E-14
 -1      3006 1.98543E+01 1.53245E+00 5.00105E-03 2.01487E-01-1.00076E-13-1.15405E-14
 -1      3007 1.98818E+01 1.45429E+00-1.82631E-03 5.12377E-01-4.54622E-14-1.26675E-13
 -1      3008 2.03297E+01 1.79970E+00-5.74940E-03 1.58775E-02-1.44412E-13 4.20264E-15
 -1      3009 1.99736E+01 1.30921E+00 9.78376E-03 8.38235E-01 4.92312E-14-2.16078E-13
 -1      3010 2.00453E+01 1.09976E+00-7.84778E-03 1.08010E+00-1.86194E-14-2.53616E-13
 -1      3011 2.04115E+01 1.62084E+00-3.93916E-03 7.39148E-01-6.85222E-14-2.01424E-14
 -1      3012 2.01819E+01 8.62178E-01 1.00530E-02 1.28547E+00-1.12769E-13-2.63506E-13
 -1      3013 2.02734E+01 5.96829E-01-9.80592E-03 1.41831E+00-1.21026E-13-1.56650E-13
 -1      3014 2.06164E+01 1.14754E+00 1.32958E-03 1.28140E+00-3.54228E-14-2.15648E-13
 -1      3015 2.03920E+01 3.44368E-01 6.69480E-03 1.48262E+00-8.76208E-14-1.36036E-13
 -1      3016 2.04766E+01 1.00560E-01-8.05714E-03 1.50600E+00-5.78985E-14-2.15932E-14
 -1      3017 2.08391E+01 5.44894E-01 5.71651E-03 1.54354E+00-1.11349E-13-1.53485E-13
 -1      3018 2.05356E+01-1.04572E-01 2.14540E-03 1.45637E+00-2.28766E-14-5.06405E-14
 -1      3019 2.05955E+01-2.78646E-01-4.36671E-03 1.39814E+00 8.94758E-14-7.35484E-14
 -1      3020 2.09839E+01-1.15869E-02 6.78620E-03 1.54005E+00-2.49121E-14 7.55564E-15
 -1      3021 2.05871E+01-4.08222E-01-1.47831E-03 1.28274E+00 1.59851E-13-1.22664E-13
 -1      3022 2.06170E+01-5.00588E-01-6.62986E-04 1.17974E+00 1.21047E-13-1.11483E-13
 -1      3023 2.10094E+01-4.10886E-01 5.07148E-03 1.35667E+00 6.18189E-14-1.27172E-13
 -1      3024 2.05578E+01-5.56695E-01-3.37621E-03 1.04322E+00 4.24665E-14-8.99362E-14
 -1      3025 2.05622E+01-5.80636E-01 1.97181E-03 9.26887E-01 1.86162E-14-7.26758E-14
 -1      3026 2.09281E+01-6.24327E-01 2.27076E-03 1.09269E+00 1.41407E-13-1.87018E-13
 -1      3027 2.04770E+01-5.81878E-01-3.79954E-03 7.98569E-01-5.99170E-14-1.18680E-13
 -1      3028 2.04652E+01-5.60567E-01 3.31898E-03 6.89318E-01-2.34508E-14-1.92648E-13
 -1      3029 2.07807E+01-6.81491E-01-1.64852E-04 8.23280E-01-4.34927E-14-4.53666E-14
 -1      3030 2.03753E+01-5.29151E-01-3.37918E-03 5.83028E-01-2.05395E-14-1.70828E-13
 -1      3031 2.03560E+01-4.84761E-01 3.63745E-03 4.90886E-01 8.10389E-14-1.43918E-13
 -1      3032 2.06102E+01-6.35246E-01-1.67227E-03 5.89658E-01-7.00606E-14-5.02423E-14
 -1      3033 2.02752E+01-4.39265E-01-2.65066E-03 4.09740E-01 4.56048E-14-1.52336E-13
 -1      3034 2.02550E+01-3.88145E-01 3.32101E-03 3.37433E-01 6.53958E-14-2.06008E-13
 -1      3035 2.04481E+01-5.36238E-01-2.29399E-03 4.06179E-01 5.00940E-14-1.03964E-13
 -1      3036 2.01895E+01-3.41052E-01-1.92784E-03 2.78885E-01 1.61519E-13-2.18679E-13
 -1      3037 2.01721E+01-2.93021E-01 2.72272E-03 2.25041E-01 1.90732E-13-1.91127E-13
 -1      3038 2.03113E+01-4.21687E-01-2.29313E-03 2.71315E-01 1.04366E-13-2.01094E-13
 -1      3039 2.01228E+01-2.51156E-01-1.33870E-03 1.84495E-01 1.39562E-13-1.59354E-13
 -1      3040 2.01096E+01-2.10835E-01 2.07248E-03 1.45999E-01-4.69930E-14-9.77416E-14
 -1      3041 2.02054E+01-3.13910E-01-1.96514E-03 1.76669E-01 1.31519E-13-1.93135E-13
 -1      3042 2.00748E+01-1.76931E-01-9.04350E-04 1.18785E-01-4.89036E-14-2.86445E-14
 -1      3043 2.00656E+01-1.45546E-01 1.49085E-03 9.21681E-02 5.30149E-14 1.07196E-13
 -1      3044 2.01287E+01-2.23360E-01-1.52482E-03 1.12448E-01 7.68364E-14-1.49814E-14
 -1      3045 2.00423E+01-1.19846E-01-6.02038E-04 7.43543E-02-8.57168E-14 7.20396E-14
 -1      3046 2.00365E+01-9.67573E-02 1.02421E-03 5.64801E-02-1.25128E-13-1.43177E-15
 -1      3047 2.00762E+01-1.52810E-01-1.09831E-03 6.99688E-02-1.15902E-15-1.18248E-13
 -1      3048 2.00216E+01-7.82490E-02-3.98577E-04 4.50703E-02-7.16079E-14 3.43841E-14
 -1      3049 2.00183E+01-6.20189E-02 6.75704E-04 3.33904E-02 9.58573E-15-4.79571E-15
 -1      3050 2.00421E+01-1.00836E-01-7.43250E-04 4.24333E-02-1.63528E-13-1.19240E-14
 -1      3051 2.00093E+01-4.92475E-02-2.63353E-04 2.62353E-02 2.70343E-14-5.86965E-14
 -1      3052 2.00076E+01-3.82799E-02 4.28727E-04 1.88089E-02-2.14498E-14-5.59117E-14
 -1      3053 2.00211E+01-6.42317E-02-4.76371E-04 2.49048E-02-4.22548E-14 6.69040E-14
 -1      3054 2.00025E+01-2.97968E-02-1.73574E-04 1.44211E-02 4.91983E-15-5.08213E-14
 -1      3055 2.00018E+01-2.26486E-02 2.61653E-04 9.83532E-03 2.56677E-14-8.34800E-14
 -1      3056 2.00089E+01-3.94270E-02-2.87914E-04 1.39469E-02-6.30115E-14-7.09326E-14
 -1      3057 1.99991E+01-1.72124E-02-1.13926E-04 7.21431E-03 9.92747E-14-1.95319E-15
 -1      3058 1.99990E+01-1.27150E-02 1.52882E-04 4.47793E-03 1.03707E-13 3.14028E-14
 -1      3059 2.00023E+01-2.32033E-02-1.62977E-04 7.23201E-03 8.91145E-14-4.70497E-14
 -1      3060 1.99977E+01-9.35528E-03-7.41222E-05 2.96605E-03-6.87530E-14 8.18968E-14
 -1      3061 1.99979E+01-6.62847E-03 8.46145E-05 1.40348E-03-1.88712E-13 7.56478E-14
 -1      3062 1.99990E+01-1.29483E-02-8.46758E-05 3.21998E-03 3.41838E-14-2.32472E-13
 -1      3063 1.99974E+01-4.63233E-03-4.74859E-05 5.74942E-04-1.05084E-13 1.77381E-13
 -1      3064 1.99977E+01-3.04692E-03 4.33961E-05-2.62437E-04-2.41435E-14 2.42930E-13
 -1      3065 1.99977E+01-6.69258E-03-3.83952E-05 9.06172E-04-1.12602E-14 1.23591E-13
 -1      3066 1.99977E+01-1.91432E-03-2.97160E-05-6.79191E-04 1.01552E-13 2.18049E-13
 -1      3067 1.99980E+01-1.03797E-03 1.96494E-05-1.08176E-03 3.92767E-13 2.94845E-13
 -1      3068 1.99975E+01-3.02509E-03-1.27896E-05-3.57827E-04 1.35226E-13 4.38703E-13
 -1      3069 1.99981E+01-4.30772E-04-1.80019E-05-1.25672E-03 4.50602E-13 2.58885E-13
 -1      3070 1.99983E+01 2.39439E-05 6.76041E-06-1.40719E-03 3.06138E-13 1.10202E-13
 -1      3071 1.99977E+01-9.73683E-04 1.56322E-07-9.85310E-04 3.40410E-13 1.73741E-13
 -1      3072 1.99986E+01 3.27050E-04-1.06545E-05-1.44455E-03 2.35405E-13 2.07808E-13
 -1      3073 1.99987E+01 5.47120E-04 5.58127E-07-1.45464E-03 8.55702E-14 2.29876E-13
 -1      3074 1.99981E+01 1.10362E-04 5.92046E-06-1.23519E-03 2.17266E-13 1.71650E-13
 -1      3075 1.99990E+01 6.90540E-04-5.95892E-06-1.41492E-03-1.54138E-13 3.97410E-13
 -1      3076 1.99991E+01 7.93992E-04-2.66144E-06-1.34705E-03-5.57321E-14 2.83865E-13
 -1      3077 1.99986E+01 6.50595E-04 7.61657E-06-1.26973E-03 1.90883E-14 5.41348E-13
 -1      3078 2.01393E+01 2.17503E+00-7.70690E-05-1.21013E+00-2.03027E-13-3.92189E-13
 -1      3079 1.99990E+01 9.47844E-04 4.28455E-06-1.11332E-03-2.66796E-13 6.66468E-13
 -1      3080 2.00092E+01 2.18897E-01-1.28021E-03-1.94305E-01 6.00174E-14-1.90574E-13
 -1      3081 2.00522E+01 2.30705E-01 9.33064E-04-1.51445E-01 8.47684E-14-2.15671E-13
 -1      3082 1.94419E+01 5.70487E-01-6.02849E-03-3.08447E-01 4.66340E-14-1.93034E-13
 -1      3083 1.95836E+01 4.55498E-01-4.38546E-03-2.81533E-01 6.85160E-14-1.61840E-13
 -1      3084 1.89828E+01 8.86397E-01-1.15758E-02-2.98645E-01 6.86007E-14-1.84230E-13
 -1      3085 1.92278E+01 7.14808E-01-6.70736E-03-2.79250E-01 7.46949E-14-2.08682E-13
 -1      3086 1.93344E+01 6.64566E-01 1.18111E-02-1.19619E-01 9.10060E-14-1.76922E-13
 -1      3087 1.82288E+01 1.32331E+00-2.06881E-02-2.19595E-01 5.55589E-14-2.39100E-13
 -1      3088 1.86493E+01 1.09309E+00-9.15918E-03-2.26847E-01 9.09358E-14-1.91485E-13
 -1      3089 1.88128E+01 9.97397E-01 1.91215E-02 2.28236E-02 6.25131E-14-2.12151E-13
 -1      3090 1.70165E+01 1.86215E+00-2.96319E-02 1.03305E-02 1.85811E-14-2.59041E-13
 -1      3091 1.77175E+01 1.59004E+00-1.00262E-02-6.71701E-02 1.09609E-14-2.38820E-13
 -1      3092 1.80018E+01 1.42194E+00 3.04525E-02 3.18790E-01 4.31507E-14-2.43845E-13
 -1      3093 1.52831E+01 2.38274E+00-2.02037E-02 4.88571E-01 5.80976E-14-3.14738E-13
 -1      3094 1.62872E+01 2.12420E+00-1.11108E-02 2.82245E-01 8.07752E-14-2.58578E-13
 -1      3095 1.67956E+01 1.88114E+00 5.01397E-02 8.68488E-01 6.48281E-14-1.89006E-13
 -1      3096 1.23076E+01 2.74746E+00 4.60621E-02 1.12321E+00-8.65384E-14-4.33605E-13
 -1      3097 1.38505E+01 2.69909E+00 1.26504E-02 6.92411E-01 1.82146E-15-3.83579E-13
 -1      3098 1.47522E+01 2.33506E+00 8.21752E-02 1.57403E+00 6.90949E-14-2.74523E-13
 -1      3099 1.09397E+01 2.40086E+00 1.30545E-01 2.29573E+00-2.58231E-14-5.51288E-13
 -1      3100 2.82926E+01-3.19905E+00-1.15024E-01 1.47222E+00 3.18200E-14 1.26923E-13
 -1      3101 2.69366E+01-3.76425E+00 7.54713E-02 2.94236E+00 1.43626E-13 1.04396E-13
 -1      3102 2.00004E+01 2.47939E-04 1.38791E-06 7.72162E-04 2.81114E-13 1.75595E-13
 -1      3103 2.00004E+01 2.02221E-04 5.10500E-07 7.77372E-04 3.10808E-13 1.86425E-14
 -1      3104 2.00003E+01 3.15108E-04-3.62362E-06 8.82096E-04 3.66815E-13 5.98174E-13
 -1      3105 2.00940E+01 2.59289E-01-1.57655E-03-1.10075E-01 1.07554E-13-1.89844E-13
 -1      3106 2.01355E+01 3.10039E-01 2.39928E-03-4.78388E-02 1.23286E-13-1.84708E-13
 -1      3107 2.01272E+01 2.90602E-01 5.74932E-04-9.45200E-02 1.21528E-13-2.02530E-13
 -1      3108 1.98168E+01 2.77236E-01-3.60360E-03 1.29154E-01 1.03794E-13-3.36746E-13
 -1      3109 1.97673E+01 3.54733E-01-1.06618E-03 1.72079E-01 8.22488E-14-2.84033E-13
 -1      3110 1.96477E+01 4.48450E-01 7.06791E-03 1.03752E-01 5.79271E-14-2.82729E-13
 -1      3111 1.99062E+01 1.67587E-01-2.24506E-03 8.30907E-02 1.63001E-13-3.74598E-13
 -1      3112 1.98815E+01 2.16951E-01-2.05139E-04 1.12019E-01 1.27674E-13-4.63073E-13
 -1      3113 1.98078E+01 2.79515E-01 4.10631E-03 7.74003E-02 1.41796E-13-3.67178E-13
 -1      3114 1.99544E+01 9.91541E-02-1.36558E-03 5.17149E-02 1.53732E-15-2.26600E-13
 -1      3115 1.99428E+01 1.29877E-01 1.16952E-04 7.04279E-02 1.08432E-13-2.11321E-13
 -1      3116 1.98986E+01 1.70192E-01 2.33164E-03 5.35949E-02 2.10859E-14-3.22178E-13
 -1      3117 1.99798E+01 5.73255E-02-8.11348E-04 3.13266E-02-1.35692E-13-3.19768E-13
 -1      3118 1.99746E+01 7.60492E-02 1.99596E-04 4.30236E-02-1.25490E-14-2.45390E-13
 -1      3119 1.99488E+01 1.01276E-01 1.29464E-03 3.53133E-02-2.50539E-14-3.37624E-13
 -1      3120 1.99925E+01 3.22807E-02-4.69973E-04 1.85872E-02-8.28624E-14-3.37234E-13
 -1      3121 1.99906E+01 4.34513E-02 1.87466E-04 2.56748E-02-2.17070E-13-3.76974E-13
 -1      3122 1.99759E+01 5.88225E-02 7.01833E-04 2.24853E-02-1.17775E-13-2.25315E-13
 -1      3123 1.99985E+01 1.76194E-02-2.64535E-04 1.08994E-02 1.24596E-13-1.89640E-13
 -1      3124 1.99981E+01 2.41289E-02 1.46413E-04 1.50683E-02 6.22859E-14-3.19653E-13
 -1      3125 1.99900E+01 3.32501E-02 3.68932E-04 1.40197E-02-7.52612E-14-1.84510E-13
 -1      3126 2.00011E+01 9.25704E-03-1.43968E-04 6.40630E-03 2.44430E-13 1.00514E-13
 -1      3127 2.00012E+01 1.29479E-02 1.04087E-04 8.78704E-03 1.26899E-13-7.02014E-14
 -1      3128 1.99969E+01 1.82127E-02 1.85507E-04 8.68316E-03 5.98437E-14-1.40796E-13
 -1      3129 2.00019E+01 4.63608E-03-7.50406E-05 3.85766E-03 2.39254E-13 4.54283E-13
 -1      3130 2.00022E+01 6.65954E-03 6.97985E-05 5.17750E-03 3.66581E-13 3.94211E-13
 -1      3131 2.00000E+01 9.60855E-03 8.72289E-05 5.43816E-03 6.84583E-14 1.58878E-13
 -1      3132 2.00019E+01 2.18661E-03-3.68126E-05 2.44875E-03 1.01051E-13 3.25177E-13
 -1      3133 2.00023E+01 3.24718E-03 4.49194E-05 3.16048E-03 1.08059E-13 4.33328E-13
 -1      3134 2.00011E+01 4.84414E-03 3.64453E-05 3.51970E-03 2.02840E-13 5.95216E-13
 -1      3135 2.00016E+01 9.64131E-04-1.64491E-05 1.68063E-03-7.62971E-15 2.13545E-13
 -1      3136 2.00019E+01 1.48408E-03 2.80556E-05 2.05773E-03 1.04369E-13 2.87221E-13
 -1      3137 2.00014E+01 2.31624E-03 1.15197E-05 2.40493E-03 1.84380E-13 5.17369E-13
 -1      3138 2.00012E+01 4.14296E-04-5.72392E-06 1.25479E-03 3.58111E-13-2.45500E-13
 -1      3139 2.00015E+01 6.40121E-04 1.71692E-05 1.45758E-03 3.15224E-14-3.60333E-14
 -1      3140 2.00012E+01 1.05554E-03 3.13240E-07 1.75571E-03 2.49603E-13 2.47950E-13
 -1      3141 2.00008E+01 2.17820E-04-6.08873E-07 9.95091E-04 3.69698E-13 9.67968E-14
 -1      3142 2.00010E+01 2.90109E-04 9.62911E-06 1.11613E-03 3.97222E-13-2.72691E-13
 -1      3143 2.00009E+01 4.89920E-04-5.62929E-06 1.36513E-03 2.45291E-13 5.26832E-14
 -1      3144 2.00006E+01 1.86616E-04 3.23980E-06 8.61071E-04 4.70908E-13 1.16643E-13
 -1      3145 1.99987E+01 1.09684E-03-1.14536E-06-4.71802E-04-1.55037E-13 2.20148E-13
 -1      3146 1.99987E+01 1.11611E-03-5.57712E-07-2.49618E-04 7.06935E-14 4.83352E-14
 -1      3147 9.71653E+00 1.89062E+00 1.33464E-01-3.50877E+00-5.52405E-14 7.98250E-13
 -1      3148 1.11881E+01 6.80622E-01 7.57337E-02-5.43762E+00-3.11209E-14 5.09315E-13
 -1      3149 1.36433E+01 6.11023E-01 1.30080E-01-5.21397E+00 1.46348E-13 2.71144E-13
 -1      3150 2.00001E+01 5.16626E-04-6.71907E-06 1.06055E-03 4.21950E-13 8.22854E-13
 -1      3151 2.00002E+01 4.23960E-04 4.02530E-06 9.85693E-04 3.68032E-13 7.30967E-13
 -1      3152 2.00003E+01 3.70498E-04 9.05838E-07 1.01796E-03 4.11246E-13 6.98826E-13
 -1      3153 1.99987E+01 1.12002E-03-1.87991E-06-9.00745E-06 4.25698E-14-1.75646E-15
 -1      3154 1.99988E+01 1.11098E-03 5.93251E-07 2.01060E-04 6.95866E-14-3.69688E-13
 -1      3155 1.99985E+01 1.00880E-03-6.87410E-07-1.34829E-04 2.00193E-13-3.02363E-14
 -1      3156 1.99989E+01 1.09390E-03-3.55602E-06 4.21620E-04-1.38631E-13-4.57674E-13
 -1      3157 1.99990E+01 1.05778E-03 1.40528E-06 6.03130E-04-1.10381E-13-3.85718E-13
 -1      3158 1.99986E+01 1.00714E-03 4.09615E-07 3.30035E-04 3.78419E-14-3.24820E-13
 -1      3159 1.99988E+01 1.00382E-03-2.28230E-07-8.98846E-04-2.74515E-13 8.16184E-13
 -1      3160 1.99987E+01 1.05507E-03-6.79405E-07-6.98416E-04-1.93690E-13 5.64915E-13
 -1      3161 1.99985E+01 9.57312E-04-1.99617E-06-5.97856E-04 2.01838E-13 2.71901E-13
 -1      3162 1.99986E+01 8.53573E-04-3.44754E-06-1.02853E-03-1.51550E-13 6.98604E-13
 -1      3163 2.02425E+01 1.67331E+00-7.48827E-04-9.83868E-01-1.85746E-13-3.60314E-13
 -1      3164 2.02483E+01 1.39067E+00-3.33628E-03-8.07573E-01-1.65744E-13-3.45212E-13
 -1      3165 1.67164E+01 2.21183E+00-2.01060E-02 3.82243E-01 3.64036E-14 1.30036E-13
 -1      3166 1.57516E+01 2.53198E+00-3.07007E-02 4.11902E-01 8.55739E-14 1.59667E-13
 -1      3167 1.45241E+01 2.82448E+00-3.18242E-03 1.74597E-01-3.58611E-14 1.30045E-13
 -1      3168 1.30279E+01 2.98949E+00 1.95850E-02 6.94402E-02-1.99746E-13 8.02275E-14
 -1      3169 1.50196E+01 2.63875E+00 8.68721E-02-8.09493E-01-1.09947E-14 2.40178E-13
 -1      3170 1.98942E+01 2.52469E-01-1.66554E-03-2.50112E-01 6.60997E-14-1.89386E-13
 -1      3171 1.99491E+01 2.26779E-01-6.37936E-04-2.17419E-01 5.26442E-14-1.99223E-13
 -1      3172 2.00252E+01 2.55914E-01 1.77107E-03-1.59168E-01 6.45253E-14-2.24801E-13
 -1      3173 6.88667E+00 1.84950E+00 2.22635E-01 3.37963E-01 4.71064E-14-1.67921E-14
 -1      3174 8.23895E+00 2.36881E+00 1.86049E-01-8.50498E-01-1.20965E-13 3.04978E-13
 -1      3175 1.93717E+01 7.07638E-01-8.57280E-03 2.72010E-01-3.65888E-14-2.24159E-13
 -1      3176 1.91910E+01 8.82003E-01-6.83139E-03 3.50392E-01-9.01158E-14-2.65823E-13
 -1      3177 1.89147E+01 1.05547E+00 1.96327E-02 1.09841E-01-7.73112E-14-3.72553E-13
 -1      3178 1.93735E+01 6.99578E-01 1.19833E-02 1.22407E-01 5.09840E-14-1.00044E-13
 -1      3179 1.80746E+01 1.58451E+00-1.73262E-02 4.11576E-01 2.10742E-14-7.78887E-14
 -1      3180 1.75059E+01 1.88765E+00-2.41642E-02 4.92917E-01 1.36106E-13 2.86739E-14
 -1      3181 1.69480E+01 2.10328E+00 5.28972E-02-2.39268E-01 1.62240E-13 1.65547E-13
 -1      3182 1.81596E+01 1.53188E+00 3.16562E-02 1.90859E-02 5.57110E-14-3.01690E-14
 -1      3183 1.97207E+01 3.65132E-01-3.04909E-03-2.87745E-01 9.13356E-14-1.89762E-13
 -1      3184 1.98049E+01 2.98445E-01-2.37742E-03-2.58906E-01 8.99716E-14-1.81988E-13
 -1      3185 1.96670E+01 4.35734E-01 6.95327E-03-1.77850E-01 8.30408E-14-2.03498E-13
 -1      3186 2.02852E+01 1.11944E+00 1.79679E-03-6.54240E-01-1.37451E-13-3.20802E-13
 -1      3187 2.02571E+01 8.77482E-01-4.11125E-03-4.73355E-01-1.31595E-13-3.14494E-13
 -1      3188 2.02871E+01 9.08445E-01 1.07100E-03-4.17732E-01-1.07407E-13-3.25360E-13
 -1      3189 2.02525E+01 1.39107E+00 2.31621E-03-6.90317E-01-1.45893E-13-3.61492E-13
 -1      3190 9.43827E+00 2.58337E+00 1.59050E-01 1.94531E+00-1.02869E-13-1.80800E-13
 -1      3191 2.00327E+01 2.17155E+00-4.60751E-03 2.97739E-01 1.43922E-13-3.30684E-13
 -1      3192 2.00206E+01 2.20836E+00-3.19317E-03 1.76864E-01 9.87469E-14-3.47809E-13
 -1      3193 1.89898E+01-2.80902E+00-3.61897E-02 6.66767E+00 2.42896E-13-1.20411E-13
 -1      3194 1.61950E+01-1.31765E+00 9.46945E-02 6.47563E+00 2.26742E-13-2.06613E-13
 -1      3195 1.99998E+01 7.23165E-04-7.42536E-06 1.10156E-03 9.13662E-14-2.46302E-13
 -1      3196 1.99999E+01 6.33358E-04 4.35624E-06 1.09351E-03 1.46652E-13 2.36862E-13
 -1      3197 2.00000E+01 5.81961E-04 4.45670E-06 1.15761E-03 1.38001E-13 3.79088E-13
 -1      3198 1.96599E+01-2.99484E+00 1.63798E-01-6.92092E+00 3.57200E-13 2.66336E-13
 -1      3199 2.29276E+01-4.23939E+00-1.04756E-01-6.05147E+00 4.20872E-13-1.47604E-13
 -1      3200 2.59623E+01-4.04729E+00 1.09296E-01-4.23425E+00 2.18704E-13-3.37966E-13
 -1      3201 2.76489E+01-3.64083E+00-8.91219E-02-2.56927E+00 1.69531E-13-4.33872E-13
 -1      3202 2.46807E+01-4.30688E+00-1.01348E-01 4.74837E+00 2.17180E-13-2.44874E-14
 -1      3203 2.21314E+01-3.53330E+00 1.16530E-01 5.86524E+00 2.64809E-13-1.04706E-13
 -1      3204 2.77581E+01 7.20470E+00-1.40804E-01-3.08310E-01-3.49540E-13-1.44398E-13
 -1      3205 2.78344E+01 6.45174E+00-1.29688E-01-1.29470E+00-3.01328E-13 3.40214E-14
 -1      3206 2.01635E+01 3.79299E-01-2.33316E-03 1.86658E-02 1.22200E-13-1.80244E-13
 -1      3207 2.02099E+01 4.75932E-01 3.96401E-03 1.11365E-01 1.57459E-13-1.74106E-13
 -1      3208 2.02031E+01 4.11859E-01 1.07353E-04 1.64519E-02 1.42619E-13-1.67662E-13
 -1      3209 2.76923E+01 6.08473E+00-1.17700E-01 1.48732E+00-2.09097E-13-3.11896E-13
 -1      3210 2.77114E+01 7.05264E+00-1.46134E-01 5.69652E-01-3.44960E-13-2.23265E-13
 -1      3211 2.63924E+01 6.23203E+00-7.02889E-02 1.20667E-01-2.38108E-13-7.30765E-14
 -1      3212 7.89013E+00 1.62361E-01 2.45246E-01-3.86268E+00-2.76446E-13-5.08482E-13
 -1      3213 2.00147E+01 2.22264E+00-3.77984E-03 7.23999E-02 7.55149E-14-3.67377E-13
 -1      3214 2.00157E+01 2.22112E+00-3.47028E-03-5.16358E-02 4.91066E-14-3.82582E-13
 -1      3215 2.01278E+01 1.92869E+00 4.94712E-03 1.10734E-01 7.91941E-14-3.39449E-13
 -1      3216 1.98816E+01 3.02840E-01 3.77838E-03-1.86688E-01 8.95888E-14-2.72680E-13
 -1      3217 1.86227E+01-1.99378E+00 1.08407E-01-6.27486E+00 3.59962E-13 1.64993E-13
 -1      3218 2.74045E+01 3.98795E+00-8.15707E-02 2.04625E+00-1.63758E-13-3.21389E-13
 -1      3219 2.76342E+01 5.12086E+00-1.26718E-01 1.85762E+00-1.68837E-13-3.15286E-13
 -1      3220 2.62898E+01 5.35304E+00-3.82930E-02 1.50421E+00-1.62530E-13-1.76938E-13
 -1      3221 2.76852E+01 5.53930E+00-1.27846E-01-1.70515E+00-2.21739E-13 1.49738E-13
 -1      3222 2.73788E+01 4.56146E+00-4.11010E-02-2.00633E+00-1.98244E-13 2.64776E-13
 -1      3223 2.62459E+01 5.58168E+00-5.21208E-02-1.30768E+00-1.64112E-13 1.38594E-13
 -1      3224 2.86657E+01-4.13825E-02-4.40089E-02 1.20031E+00-8.89844E-14-6.78478E-13
 -1      3225 2.95517E+01 1.12165E+00-7.38566E-02 1.60312E+00-1.39319E-13-6.91787E-13
 -1      3226 2.82575E+01 2.09695E+00-6.63591E-02 2.11624E+00-9.25857E-14-5.11001E-13
 -1      3227 2.01024E+01 2.14989E+00-2.97512E-03-1.05140E+00-1.85388E-13-4.09528E-13
 -1      3228 9.87482E+00 2.92319E+00 9.94545E-02-1.94341E-02-2.45222E-13 1.88086E-13
 -1      3229 9.48482E+00 2.53366E+00 1.47054E-01-1.88876E+00-2.15154E-13 6.74544E-13
 -1      3230 2.83396E+01-2.10720E+00-3.21956E-02 1.88407E-01 1.54642E-14 3.05117E-13
 -1      3231 1.26348E+01 1.93064E+00 3.25071E-02 3.12603E+00 9.34999E-14-4.46011E-13
 -1      3232 1.99989E+01 9.68288E-04 2.06510E-06 7.31553E-04-2.23157E-13-4.20266E-13
 -1      3233 1.99991E+01 1.01624E-03-4.95241E-06 7.78149E-04-1.09678E-13-2.22316E-13
 -1      3234 1.99993E+01 9.55851E-04 2.34892E-06 9.07932E-04-1.68836E-13 4.07477E-14
 -1      3235 2.92991E+01 1.73411E+00-5.59206E-02-1.80041E+00-2.83093E-13 3.09405E-13
 -1      3236 2.01177E+01 1.93285E+00-1.93552E-03-5.84620E-01-6.77607E-14-3.97541E-13
 -1      3237 2.01545E+01 1.80758E+00-4.62367E-03-6.80869E-01-1.13733E-13-3.93308E-13
 -1      3238 2.00006E+01 2.86455E-04-3.02516E-07 1.06350E-03 3.51631E-13 4.77783E-13
 -1      3239 1.14320E+01 2.37987E+00 1.20401E-01-2.52094E+00-1.10283E-13 6.20809E-13
 -1      3240 2.42971E+01-3.70302E+00 4.62199E-02-4.51675E+00 3.21347E-13-2.08731E-13
 -1      3241 2.00786E+01 2.04053E+00-5.90500E-03 5.06018E-01 2.06646E-13-2.89667E-13
 -1      3242 2.00537E+01 2.12095E+00-2.66233E-03 3.93727E-01 1.63522E-13-3.24534E-13
 -1      3243 2.01474E+01 1.86426E+00 5.74663E-03 2.98398E-01 1.35125E-13-2.96456E-13
 -1      3244 2.01643E+01 1.86904E+00 1.90861E-03-8.46640E-01-1.55106E-13-3.99489E-13
 -1      3245 2.01501E+01 1.82191E+00-7.86311E-03 6.85145E-01 2.57181E-13-2.60272E-13
 -1      3246 2.01117E+01 1.94961E+00-3.00260E-03 5.89603E-01 2.24560E-13-2.63344E-13
 -1      3247 2.01915E+01 1.71543E+00 6.60844E-03 4.60636E-01 1.93407E-13-2.51768E-13
 -1      3248 1.24897E+01 2.99132E+00 1.32320E-01-1.06935E+00-1.55598E-13 3.45710E-13
 -1      3249 1.17530E+01 3.10129E+00 2.54094E-02 3.39823E-01-3.01602E-13 1.38597E-13
 -1      3250 2.83389E+01-2.90239E+00 3.10466E-03-1.29122E+00 1.48808E-13-4.36137E-13
 -1      3251 2.82226E+01-1.94738E+00-7.08715E-02-4.17953E-02-2.43208E-15-5.85861E-13
 -1      3252 2.68752E+01-3.20788E+00-1.28636E-02-1.78651E+00 1.38771E-13-4.29866E-13
 -1      3253 1.50290E+01-3.15605E-01 8.44946E-02 5.83014E+00 2.34385E-13-3.39492E-13
 -1      3254 1.41346E+01 7.79695E-01 4.31126E-02 4.66578E+00 2.06668E-13-4.13523E-13
 -1      3255 1.70924E+01-6.61148E-01 5.95302E-02 5.27856E+00 2.73557E-13-1.76338E-13
 -1      3256 2.55603E+01-3.59644E+00 3.12890E-02 3.15823E+00 2.19134E-13 1.00427E-13
 -1      3257 2.00576E+01 2.10433E+00-3.26530E-03-3.80560E-01-1.25433E-14-3.99430E-13
 -1      3258 2.00834E+01 2.02575E+00-5.14144E-03-4.95167E-01-4.39494E-14-4.10547E-13
 -1      3259 2.01971E+01 1.69099E+00 5.03888E-03-4.54169E-01-6.70257E-14-3.71696E-13
 -1      3260 2.02581E+01 1.41590E+00 8.18969E-03 6.08352E-01 2.47235E-13-2.27550E-13
 -1      3261 1.99994E+01 8.93132E-04-6.51894E-06 1.00643E-03-5.44204E-14 1.22606E-13
 -1      3262 1.99996E+01 8.14334E-04 3.39182E-06 1.07026E-03 2.90004E-14-4.82669E-14
 -1      3263 1.99997E+01 7.63427E-04 5.25331E-06 1.15264E-03-1.81630E-14-2.27428E-13
 -1      3264 1.99993E+01 8.90688E-04 4.51092E-06 1.01384E-03-1.45927E-13 2.74692E-14
 -1      3265 2.10336E+01-2.76040E+00 6.02866E-02 5.50640E+00 2.38948E-13-1.16176E-13
 -1      3266 2.02525E+01 6.38653E-01 2.73231E-05 1.87962E-01 1.76071E-13-1.60822E-13
 -1      3267 2.02239E+01 6.01009E-01-2.09108E-03 2.15826E-01 2.02467E-13-1.77763E-13
 -1      3268 2.02571E+01 7.05356E-01 7.02666E-03 3.11039E-01 2.23525E-13-1.54777E-13
 -1      3269 2.02523E+01 8.66770E-01-1.37655E-03 4.79402E-01 2.44368E-13-1.54775E-13
 -1      3270 2.00005E+01 3.85791E-04-4.41242E-06 1.16666E-03 3.07864E-13 6.91545E-13
 -1      3271 1.98034E+01 2.36788E-01-1.87046E-03 1.60842E-02 1.92534E-13-1.92015E-13
 -1      3272 1.97393E+01 2.98941E-01-3.12303E-03 2.37008E-02 1.72611E-13-1.72756E-13
 -1      3273 2.00235E+01 2.19978E+00-3.41210E-03-1.57010E-01 2.40933E-14-4.07634E-13
 -1      3274 2.00376E+01 2.16122E+00-3.97761E-03-2.79319E-01-5.08143E-15-4.06966E-13
 -1      3275 2.01557E+01 1.84392E+00 5.28243E-03-2.79008E-01-1.73141E-14-3.99499E-13
 -1      3276 1.96515E+01 3.76261E-01-2.60576E-03 4.83299E-03 1.62614E-13-1.89095E-13
 -1      3277 1.95389E+01 4.68136E-01-5.73314E-03 8.10313E-03 1.57325E-13 4.92645E-14
 -1      3278 1.96855E+01 3.43277E-01 5.33295E-03-6.09102E-02 1.70682E-13 1.61870E-13
 -1      3279 1.10190E+01 3.12867E+00 1.50929E-01 1.17459E+00-2.62165E-13-2.09499E-13
 -1      3280 2.03228E+01 3.83609E-01 3.08708E-03-8.33335E-02-7.26034E-14-2.77393E-13
 -1      3281 2.03055E+01 2.55071E-01-2.09947E-03-2.22545E-02-6.22629E-14-2.34451E-13
 -1      3282 2.03130E+01 1.46420E-01 2.98855E-03 1.95321E-02-6.20414E-14-2.11185E-13
 -1      3283 2.03014E+01 4.74560E-02-1.26846E-03 5.09007E-02-3.83748E-14-1.99223E-13
 -1      3284 2.03584E+01 2.40286E-01-9.61589E-04-4.97694E-03-4.60783E-14-2.07912E-13
 -1      3285 2.03121E+01-3.87766E-02 2.91392E-03 7.07507E-02-5.03697E-14-1.96940E-13
 -1      3286 2.03110E+01-1.20888E-01-7.05213E-04 7.76004E-02-2.33050E-15-2.02166E-13
 -1      3287 2.03649E+01 1.99755E-02-1.77023E-03 6.22513E-02-4.10475E-14-2.07601E-13
 -1      3288 2.03332E+01-1.95779E-01 3.06328E-03 7.87117E-02 1.72693E-14-2.01109E-13
 -1      3289 2.03459E+01-2.70811E-01-4.52003E-04 6.42199E-02 1.66479E-14-1.85157E-13
 -1      3290 2.03876E+01-1.63115E-01-2.54942E-03 8.99841E-02 3.79900E-15-1.97674E-13
 -1      3291 2.03874E+01-3.42217E-01 3.49591E-03 4.76926E-02 1.59666E-14-2.09170E-13
 -1      3292 2.04163E+01-4.16676E-01-5.46807E-04 1.26875E-02 6.38864E-15-1.93748E-13
 -1      3293 2.04412E+01-3.30097E-01-3.34863E-03 8.27753E-02-3.07317E-16-1.88487E-13
 -1      3294 2.04839E+01-4.88760E-01 4.18839E-03-2.30947E-02 4.20086E-15-1.77788E-13
 -1      3295 2.05301E+01-5.64858E-01-1.04510E-03-7.99852E-02-5.76500E-15-1.66909E-13
 -1      3296 2.05395E+01-4.95549E-01-4.15367E-03 4.04197E-02 3.23325E-15-2.02421E-13
 -1      3297 2.06289E+01-6.36710E-01 4.96951E-03-1.39542E-01-5.33793E-14-1.40412E-13
 -1      3298 2.06907E+01-7.10301E-01-1.96216E-03-2.21165E-01-6.09366E-14-1.25029E-13
 -1      3299 2.06940E+01-6.64831E-01-4.78686E-03-4.31573E-02-2.23063E-14-1.81071E-13
 -1      3300 2.08210E+01-7.73538E-01 5.51089E-03-3.11166E-01-7.57017E-14-1.59272E-13
 -1      3301 2.08925E+01-8.31370E-01-3.16517E-03-4.19871E-01-5.67506E-14-1.90409E-13
 -1      3302 2.09107E+01-8.29446E-01-4.90534E-03-1.79896E-01-7.21198E-14-1.46748E-13
 -1      3303 2.10461E+01-8.67861E-01 5.15552E-03-5.46279E-01-8.39382E-14-2.12113E-13
 -1      3304 2.11158E+01-8.85422E-01-4.19559E-03-6.80314E-01-1.21884E-13-2.15618E-13
 -1      3305 2.11839E+01-9.60266E-01-3.96675E-03-3.84512E-01-1.04147E-13-2.07776E-13
 -1      3306 2.12716E+01-8.66502E-01 3.29132E-03-8.42536E-01-1.17782E-13-1.97664E-13
 -1      3307 2.13224E+01-8.09295E-01-4.09793E-03-9.90310E-01-1.15146E-13-1.78273E-13
 -1      3308 2.14885E+01-1.00295E+00-1.48993E-03-6.66155E-01-8.50281E-14-2.00473E-13
 -1      3309 2.14441E+01-6.99826E-01-9.23760E-04-1.17182E+00-4.28286E-14-1.62963E-13
 -1      3310 2.14580E+01-5.31444E-01-1.74736E-03-1.30537E+00 3.28232E-15-8.91376E-14
 -1      3311 2.17730E+01-8.77809E-01 3.03635E-03-1.01327E+00-7.62594E-14-1.37957E-13
 -1      3312 2.15034E+01-3.04781E-01-6.87156E-03-1.46232E+00-3.98796E-14-2.70227E-14
 -1      3313 2.14701E+01-9.59429E-03 3.46798E-03-1.53575E+00-6.00074E-14-6.65060E-15
 -1      3314 2.19626E+01-5.05152E-01 7.36800E-03-1.36922E+00 1.41735E-14-4.55764E-14
 -1      3315 2.14095E+01 3.30516E-01-1.27733E-02-1.59788E+00-7.00256E-14-8.32288E-15
 -1      3316 2.13369E+01 7.20325E-01 9.88518E-03-1.55504E+00-7.81824E-14 1.57084E-14
 -1      3317 2.19869E+01 1.57138E-01 1.10235E-02-1.61923E+00-5.16857E-14 3.90031E-15
 -1      3318 2.11908E+01 1.10925E+00-1.51247E-02-1.44872E+00-7.93113E-14 2.50232E-14
 -1      3319 2.11053E+01 1.49477E+00 1.19179E-02-1.25396E+00-6.05553E-14-1.67520E-14
 -1      3320 2.18277E+01 1.02683E+00 7.86914E-03-1.60623E+00-6.74718E-14 8.45214E-14
 -1      3321 2.09493E+01 1.82254E+00-1.04653E-02-9.53263E-01-1.01742E-13 2.36440E-14
 -1      3322 2.08846E+01 2.06724E+00 6.63303E-03-6.18327E-01-1.21195E-13-2.43100E-14
 -1      3323 2.15677E+01 1.88587E+00-1.18324E-03-1.20825E+00-4.49636E-14 5.37969E-14
 -1      3324 2.08299E+01 2.18903E+00 1.03531E-03-1.76851E-01-9.25128E-14 2.08754E-14
 -1      3325 2.08218E+01 2.18987E+00-1.19603E-03 2.04142E-01-1.08691E-13 6.94497E-14
 -1      3326 2.13667E+01 2.44034E+00-4.55396E-03-4.36420E-01-1.21925E-13 6.51512E-14
 -1      3327 2.08883E+01 2.07653E+00 1.04378E-02 6.49309E-01-1.64988E-13 4.48101E-14
 -1      3328 2.09428E+01 1.83468E+00-1.02359E-02 9.81809E-01-1.04558E-13-4.41485E-14
 -1      3329 2.13620E+01 2.45244E+00-3.42900E-03 4.66900E-01-1.54405E-13 1.52072E-14
 -1      3330 2.10963E+01 1.51920E+00 1.29522E-02 1.28782E+00-9.97878E-15-1.13638E-13
 -1      3331 2.11799E+01 1.13884E+00-1.46597E-02 1.48637E+00-4.28550E-14-1.41758E-13
 -1      3332 2.15572E+01 1.91479E+00 1.96367E-03 1.23734E+00-7.93483E-14-4.95426E-15
 -1      3333 2.13221E+01 7.54887E-01 9.58929E-03 1.59687E+00-1.43345E-13-1.43080E-13
 -1      3334 2.13937E+01 3.71139E-01-1.26494E-02 1.64469E+00-1.35572E-13-1.36636E-13
 -1      3335 2.18103E+01 1.06385E+00 8.56892E-03 1.64287E+00-1.13194E-13-6.33602E-14
 -1      3336 2.14486E+01 3.73785E-02 3.21256E-03 1.58822E+00-8.45673E-14-1.00244E-13
 -1      3337 2.14801E+01-2.52222E-01-6.84042E-03 1.52190E+00 3.99556E-14-6.39398E-14
 -1      3338 2.19602E+01 2.05495E-01 1.08897E-02 1.66630E+00-6.38428E-14-6.19221E-14
 -1      3339 2.14294E+01-4.73974E-01-2.06643E-03 1.37194E+00 1.33245E-14-4.97211E-14
 -1      3340 2.14131E+01-6.36954E-01-9.05083E-04 1.24622E+00 7.23446E-14-5.74765E-14
 -1      3341 2.19257E+01-4.42278E-01 8.00042E-03 1.42908E+00 9.29850E-15-4.72481E-14
 -1      3342 2.12842E+01-7.41574E-01-4.53656E-03 1.07294E+00 1.34435E-13-1.05186E-13
 -1      3343 2.12302E+01-7.94476E-01 3.15177E-03 9.34055E-01 1.16791E-13-9.56916E-14
 -1      3344 2.17236E+01-8.05411E-01 2.90724E-03 1.08744E+00 8.66612E-14 1.43326E-14
 -1      3345 2.10659E+01-8.09843E-01-4.62482E-03 7.80462E-01 5.76556E-15-9.58835E-14
 -1      3346 2.09918E+01-7.89232E-01 5.04440E-03 6.55683E-01-3.13921E-14-5.41811E-14
 -1      3347 2.14243E+01-9.20945E-01-1.33757E-03 7.56680E-01 9.20579E-14-1.77876E-14
 -1      3348 2.08275E+01-7.50788E-01-3.56373E-03 5.37982E-01-3.37539E-14 6.24582E-15
 -1      3349 2.07498E+01-6.92100E-01 5.33585E-03 4.38276E-01 1.14820E-15 3.48347E-14
 -1      3350 2.11011E+01-8.72520E-01-3.70558E-03 4.91332E-01 2.81937E-14-4.27873E-14
 -1      3351 2.06066E+01-6.29625E-01-2.29312E-03 3.56429E-01-2.69617E-14 2.70026E-14
 -1      3352 2.05364E+01-5.58849E-01 4.69691E-03 2.82565E-01 4.64797E-14 2.33031E-14
 -1      3353 2.08046E+01-7.40842E-01-4.52230E-03 3.02326E-01 1.30856E-15 9.60743E-14
 -1      3354 2.04227E+01-4.92271E-01-1.26625E-03 2.29418E-01-1.23881E-14-4.52490E-14
 -1      3355 2.03654E+01-4.24799E-01 3.72065E-03 1.77400E-01 7.62371E-14-1.16027E-13
 -1      3356 2.05601E+01-5.83818E-01-4.29388E-03 1.78629E-01-1.19287E-14 1.12275E-13
 -1      3357 2.02810E+01-3.64880E-01-5.95000E-04 1.44530E-01 9.38854E-14-2.13571E-13
 -1      3358 2.02377E+01-3.07856E-01 2.74704E-03 1.09173E-01 4.20989E-14-2.51791E-13
 -1      3359 2.03731E+01-4.35365E-01-3.58299E-03 1.02467E-01-2.63008E-15-1.22594E-13
 -1      3360 2.01783E+01-2.58963E-01-2.17717E-04 8.95527E-02 1.59283E-13-1.02792E-13
 -1      3361 2.01477E+01-2.14361E-01 1.92586E-03 6.61166E-02 2.15139E-13-1.88901E-14
 -1      3362 2.02382E+01-3.10686E-01-2.74564E-03 5.76605E-02 2.26772E-13-5.70848E-14
 -1      3363 2.01077E+01-1.77052E-01-3.74653E-05 5.46782E-02 1.49597E-13 2.09405E-14
 -1      3364 2.00872E+01-1.44072E-01 1.29630E-03 3.94254E-02-7.24774E-14 3.60108E-15
 -1      3365 2.01456E+01-2.13634E-01-1.97482E-03 3.21358E-02 1.86385E-13 6.15127E-15
 -1      3366 2.00614E+01-1.17006E-01 2.85819E-05 3.28328E-02-1.23932E-13 1.28222E-13
 -1      3367 2.00484E+01-9.36596E-02 8.43699E-04 2.30462E-02-4.05553E-14 2.19273E-13
 -1      3368 2.00847E+01-1.42105E-01-1.34656E-03 1.78462E-02-3.71999E-15 2.43210E-13
 -1      3369 2.00324E+01-7.48040E-02 3.87920E-05 1.92633E-02-1.19277E-13 1.67092E-13
 -1      3370 2.00246E+01-5.88783E-02 5.30802E-04 1.30720E-02-1.30939E-13 5.72328E-14
 -1      3371 2.00463E+01-9.15928E-02-8.84306E-04 9.85889E-03-9.02689E-14 2.93535E-13
 -1      3372 2.00151E+01-4.62091E-02 2.93168E-05 1.08969E-02-1.31303E-13 3.11420E-14
 -1      3373 2.00107E+01-3.57035E-02 3.24132E-04 7.03420E-03-6.91985E-14-1.61762E-14
 -1      3374 2.00231E+01-5.71498E-02-5.53656E-04 5.35542E-03-1.54884E-13 1.72387E-13
 -1      3375 2.00054E+01-2.74642E-02 1.53370E-05 5.77355E-03 3.69246E-14-7.30570E-14
 -1      3376 2.00032E+01-2.07481E-02 1.91584E-04 3.40675E-03 1.38538E-13-7.49875E-14
 -1      3377 2.00098E+01-3.44217E-02-3.31673E-04 2.74789E-03-1.03162E-13 3.99222E-14
 -1      3378 2.00004E+01-1.55591E-02 4.01699E-06 2.67604E-03 7.73921E-14-9.97296E-14
 -1      3379 1.99994E+01-1.14011E-02 1.08791E-04 1.26174E-03 1.04305E-13-8.16874E-14
 -1      3380 2.00026E+01-1.98647E-02-1.88696E-04 1.19570E-03 9.80415E-14-1.21071E-13
 -1      3381 1.99981E+01-8.24164E-03-3.10968E-06 8.44740E-04 1.82857E-13 9.27476E-14
 -1      3382 1.99978E+01-5.75620E-03 5.84811E-05 3.08835E-05 1.97714E-13 3.63734E-13
 -1      3383 1.99990E+01-1.08216E-02-1.00418E-04 2.56012E-04 2.58730E-13 1.11067E-13
 -1      3384 1.99974E+01-3.90465E-03-6.48337E-06-1.96296E-04 7.01097E-14 3.58165E-13
 -1      3385 1.99974E+01-2.47858E-03 2.89498E-05-6.36832E-04 1.55266E-13 3.96574E-13
 -1      3386 1.99976E+01-5.38832E-03-4.84958E-05-3.09045E-04 2.02305E-13 1.91639E-13
 -1      3387 1.99974E+01-1.44156E-03-7.35234E-06-7.47236E-04 1.68695E-13 2.04289E-13
 -1      3388 1.99976E+01-6.62107E-04 1.25972E-05-9.59406E-04 3.30488E-13 1.25618E-13
 -1      3389 1.99973E+01-2.24615E-03-1.91843E-05-6.34208E-04 6.06445E-14 6.12672E-14
 -1      3390 1.99978E+01-1.13878E-04-7.40185E-06-9.95703E-04 4.54158E-13 7.82234E-14
 -1      3391 1.99980E+01 2.86000E-04 3.41360E-06-1.06933E-03 2.61844E-13 2.06776E-13
 -1      3392 1.99975E+01-5.07217E-04-2.91035E-06-7.98628E-04 3.12930E-13 7.84122E-14
 -1      3393 1.99982E+01 5.19858E-04-7.44589E-06-1.06009E-03 2.41697E-13 2.74186E-13
 -1      3394 1.99984E+01 7.28218E-04-1.16995E-07-1.05378E-03 1.06413E-13 4.64348E-13
 -1      3395 1.99983E+01 7.84269E-04 6.41356E-06-8.47272E-04 2.36656E-13 3.58718E-13
 -1      3396 1.99979E+01 3.60912E-04 5.65736E-06-8.57083E-04 3.95901E-13 1.46610E-13
 -1      3397 1.78465E+01 1.20913E+00-2.88532E-02 8.23687E-01 4.82448E-14-1.62032E-13
 -1      3398 1.83913E+01 1.06128E+00 2.41978E-03 5.82613E-01 5.53926E-14-1.69722E-13
 -1      3399 1.86809E+01 8.96608E-01-2.00346E-02 3.47462E-01 6.06999E-14-1.58211E-13
 -1      3400 1.90346E+01 7.57676E-01-1.00887E-04 2.22570E-01 8.06133E-14-1.47192E-13
 -1      3401 1.87451E+01 8.20625E-01 1.37542E-02 7.83687E-01 6.14793E-14-9.55252E-14
 -1      3402 2.79736E+01-1.02439E+00-8.83665E-02-9.75679E-01-1.24709E-13 4.05526E-13
 -1      3403 2.69966E+01-2.27695E+00-1.65172E-02 2.71334E-01-1.71460E-14 2.52996E-13
 -1      3404 1.92452E+01 6.22229E-01-1.22930E-02 8.57402E-02 6.57913E-14-1.45332E-13
 -1      3405 1.94707E+01 5.14879E-01-8.21207E-04 2.54905E-02 7.75193E-14-1.43629E-13
 -1      3406 1.92570E+01 6.09661E-01 1.00564E-02 3.69264E-01 8.18015E-14-1.33256E-13
 -1      3407 1.67568E+01 1.44068E+00-3.64355E-02 1.62141E+00 6.48973E-14-1.66233E-13
 -1      3408 1.74950E+01 1.32515E+00 1.04946E-03 1.19651E+00 4.67664E-14-1.95334E-13
 -1      3409 1.80834E+01 9.80027E-01 1.97113E-02 1.44603E+00 7.90873E-14-1.01506E-13
 -1      3410 1.44404E+01 1.88858E+00 1.19150E-02 2.51575E+00 1.04285E-13-2.90828E-13
 -1      3411 1.57795E+01 1.73041E+00-2.70337E-03 2.02888E+00 1.34382E-13-1.84465E-13
 -1      3412 1.68158E+01 1.31603E+00 7.11433E-02 2.38927E+00 1.25265E-13-1.70470E-13
 -1      3413 1.42816E+01 1.39446E+00 8.97323E-02 3.64350E+00 1.88416E-13-3.93848E-13
 -1      3414 2.02244E+01 4.11814E-01-2.92619E-03 6.07775E-03 1.47939E-13-2.03826E-13
 -1      3415 2.02625E+01 5.09970E-01 2.02882E-03 7.59053E-02 1.45918E-13-1.82238E-13
 -1      3416 1.58856E+01 2.04238E+00 1.74699E-02-1.44391E+00 6.23672E-14 1.21335E-14
 -1      3417 1.46198E+01 2.15447E+00-1.30191E-02-1.95190E+00 3.24176E-14 9.58018E-14
 -1      3418 2.01472E+01 2.91346E-01-2.65608E-03-7.78660E-02 1.13914E-13-1.95738E-13
 -1      3419 2.01969E+01 3.41839E-01 1.53691E-03-3.50588E-02 1.39934E-13-1.82298E-13
 -1      3420 2.02514E+01 4.25747E-01 1.11689E-03 1.67222E-02 1.42953E-13-1.85735E-13
 -1      3421 1.98924E+01 1.45279E-01-1.26225E-03 1.65921E-02-5.47456E-14-1.47510E-13
 -1      3422 1.98568E+01 1.85913E-01-1.63932E-03 2.41293E-02 1.22609E-13-1.79302E-13
 -1      3423 1.98200E+01 2.18619E-01 3.29643E-03-2.38208E-02 1.44820E-13 8.47030E-14
 -1      3424 1.99433E+01 8.69309E-02-8.16525E-04 1.35680E-02-5.40040E-14-2.21288E-13
 -1      3425 1.99240E+01 1.12747E-01-8.34909E-04 1.95815E-02-3.35733E-14-2.16081E-13
 -1      3426 1.99001E+01 1.35353E-01 1.98163E-03-6.98769E-03-2.67389E-14-3.81947E-15
 -1      3427 1.99717E+01 5.06622E-02-5.08584E-04 1.00692E-02-1.70584E-13-2.02910E-13
 -1      3428 1.99615E+01 6.66467E-02-4.08450E-04 1.43734E-02-1.63853E-13-2.99821E-13
 -1      3429 1.99465E+01 8.15576E-02 1.16288E-03 2.92955E-05-2.93439E-14-2.07388E-13
 -1      3430 1.99869E+01 2.86862E-02-3.05268E-04 7.16546E-03-1.12044E-13-8.03801E-15
 -1      3431 1.99818E+01 3.83262E-02-1.89591E-04 1.00445E-02-1.88487E-13-7.02884E-14
 -1      3432 1.99727E+01 4.77894E-02 6.66309E-04 2.55600E-03-2.03197E-13-1.32980E-13
 -1      3433 1.99948E+01 1.57242E-02-1.77045E-04 5.05242E-03 5.74315E-15 8.86649E-14
 -1      3434 1.99924E+01 2.13786E-02-8.08891E-05 6.89032E-03-3.27800E-15 7.13989E-15
 -1      3435 1.99870E+01 2.71807E-02 3.69787E-04 3.16582E-03-1.21214E-13-3.00167E-15
 -1      3436 1.99986E+01 8.30210E-03-9.89984E-05 3.61735E-03-8.86025E-14 2.74377E-13
 -1      3437 1.99976E+01 1.15173E-02-2.89823E-05 4.75094E-03-2.37904E-14 7.03732E-14
 -1      3438 1.99944E+01 1.49661E-02 1.97926E-04 3.03513E-03-5.25302E-14 1.29941E-13
 -1      3439 2.00002E+01 4.20118E-03-5.29985E-05 2.67753E-03 1.14925E-13 4.85987E-13
 -1      3440 1.99999E+01 5.96128E-03-5.81523E-06 3.36124E-03 6.75301E-15 3.21441E-13
 -1      3441 1.99981E+01 7.94931E-03 1.00897E-04 2.67779E-03-9.49213E-14 2.67932E-13
 -1      3442 2.00007E+01 2.03876E-03-2.68930E-05 2.06585E-03 4.28971E-13 3.34140E-13
 -1      3443 2.00008E+01 2.95467E-03 3.40364E-06 2.47603E-03 3.27921E-13 4.34686E-13
 -1      3444 1.99997E+01 4.06657E-03 4.79328E-05 2.29566E-03 2.06744E-13 1.70296E-13
 -1      3445 2.00008E+01 9.74841E-04-1.20541E-05 1.65718E-03 1.68006E-13 2.05057E-13
 -1      3446 2.00009E+01 1.41575E-03 6.41570E-06 1.90825E-03 2.66013E-13 3.04274E-13
 -1      3447 2.00003E+01 2.01946E-03 2.00215E-05 1.95259E-03 4.19892E-13 2.01002E-13
 -1      3448 2.00007E+01 5.18069E-04 7.28987E-07 1.36837E-03 1.34444E-13 2.67903E-13
 -1      3449 2.00008E+01 6.95587E-04 7.85525E-06 1.52722E-03 1.50683E-13 2.92520E-13
 -1      3450 2.00005E+01 1.01337E-03 4.19425E-06 1.65967E-03 1.25868E-13 2.39507E-13
 -1      3451 1.25313E+01 2.31912E+00 4.19577E-02-2.61481E+00-1.72059E-14 4.48010E-13
 -1      3452 2.29650E+01-3.17337E+00 1.14260E-01-4.81427E+00 3.04329E-13-1.17033E-14
 -1      3453 2.48773E+01-3.60783E+00-6.48854E-02-3.39592E+00 1.60919E-13-2.71317E-13
 -1      3454 1.34067E+01 1.38891E+00 8.49243E-02-4.16322E+00 1.38247E-13 1.36356E-13
 -1      3455 1.49580E+01 1.04014E-01-4.05740E-02-5.27631E+00 3.01141E-13 4.66988E-14
 -1      3456 1.99983E+01 8.75985E-04 1.98536E-06-2.63381E-04 2.99651E-13 1.56015E-13
 -1      3457 1.99983E+01 8.79070E-04 1.97812E-06-2.84104E-05 1.72006E-13-6.97524E-14
 -1      3458 1.99984E+01 9.01087E-04 1.70898E-07 2.18250E-04 1.37933E-13-2.42131E-13
 -1      3459 1.99985E+01 8.90636E-04 9.18667E-07 4.35528E-04-2.23387E-14-2.67757E-13
 -1      3460 1.99981E+01 7.34857E-04-4.22862E-06 8.97228E-05 7.37985E-14-1.08383E-13
 -1      3461 1.96194E+01 4.20398E-01-7.36837E-03-4.96875E-02 7.18511E-14-1.63819E-13
 -1      3462 1.97635E+01 3.51639E-01-6.28705E-04-7.28016E-02 5.52403E-14-1.86278E-13
 -1      3463 1.96194E+01 4.31875E-01 6.89701E-03 1.31060E-01 7.11422E-14-1.92751E-13
 -1      3464 2.00334E+01 2.55525E-01-3.08724E-03-1.15244E-01 7.34089E-14-2.18258E-13
 -1      3465 2.00996E+01 2.64738E-01 7.62088E-04-9.43697E-02 8.19004E-14-1.96235E-13
 -1      3466 2.01697E+01 3.05724E-01 1.59005E-03-4.05999E-02 1.06747E-13-2.00599E-13
 -1      3467 1.75531E+01-9.99895E-01 1.10831E-01-5.72507E+00 3.90261E-13 2.54831E-13
 -1      3468 2.01510E+01-2.62992E+00-8.92174E-02-5.71122E+00 3.41227E-13 1.92193E-13
 -1      3469 1.98671E+01 2.98632E-01-4.50626E-03-1.08486E-01 8.16016E-14-2.06695E-13
 -1      3470 1.99619E+01 2.68827E-01-2.52240E-05-1.07607E-01 9.56651E-14-2.17242E-13
 -1      3471 2.00477E+01 2.71923E-01 2.72989E-03-4.61581E-02 8.74916E-14-2.16804E-13
 -1      3472 1.98719E+01 3.15849E-01 4.43604E-03 5.03424E-03 5.19046E-14-1.91238E-13
 -1      3473 2.74375E+01 2.50377E+00-1.39582E-01-2.19261E+00-2.08798E-13 2.48798E-13
 -1      3474 2.79450E+01 7.34465E-01-4.92524E-03-1.74566E+00-1.62675E-13 3.89036E-13
 -1      3475 2.67832E+01 8.01597E-02 4.20354E-03-1.63802E+00-1.67819E-13 2.72194E-13
 -1      3476 2.01877E+01 1.69550E+00 3.12303E-04-6.94998E-01-1.19018E-13-3.85312E-13
 -1      3477 2.02310E+01 1.50003E+00-3.40536E-03-6.91996E-01-1.39072E-13-3.74049E-13
 -1      3478 2.02631E+01 1.23299E+00-1.32676E-03-5.44998E-01-1.15461E-13-3.58724E-13
 -1      3479 2.02344E+01 1.46916E+00 7.11988E-04-5.39904E-01-9.28267E-14-3.59182E-13
 -1      3480 2.56489E+01-3.31057E+00-7.46542E-02 1.98914E+00 1.20495E-13 9.32501E-14
 -1      3481 2.43207E+01-3.26315E+00 8.26888E-02 3.41599E+00 2.13593E-13-1.30208E-14
 -1      3482 2.51687E+01 5.50573E+00-6.14192E-02 5.23853E-01-1.43253E-13-1.53176E-13
 -1      3483 2.52017E+01 5.57749E+00-6.89183E-02-3.63341E-01-1.59719E-13-1.85822E-14
 -1      3484 2.02703E+01 6.29967E-01-4.05966E-03 1.43590E-01 1.45121E-13-1.82874E-13
 -1      3485 2.03028E+01 7.85561E-01 4.44045E-03 2.46506E-01 1.75451E-13-1.97725E-13
 -1      3486 2.02975E+01 6.45668E-01 1.43653E-03 1.27613E-01 1.51491E-13-2.19560E-13
 -1      3487 2.03216E+01 7.04624E-01 2.41588E-03-2.47317E-01-1.16135E-13-3.03979E-13
 -1      3488 2.03093E+01 5.30168E-01-2.78615E-03-1.51153E-01-1.14739E-13-3.07959E-13
 -1      3489 2.03511E+01 5.23936E-01-2.86104E-04-1.18676E-01-7.52701E-14-2.75803E-13
 -1      3490 2.02717E+01 9.53517E-01-5.74132E-03 4.60908E-01 2.49326E-13-1.88760E-13
 -1      3491 2.21541E+01-3.02447E+00-7.16539E-02 4.52754E+00 2.32932E-13-7.95891E-14
 -1      3492 1.98961E+01-1.89479E+00 5.26226E-02 5.06332E+00 2.18304E-13-9.84872E-14
 -1      3493 2.00002E+01 5.29225E-04 3.58191E-06 1.24131E-03 2.78937E-14 4.55596E-13
 -1      3494 2.00005E+01 4.86823E-04 3.13936E-06 1.30872E-03 5.92728E-14 4.09785E-13
 -1      3495 2.00002E+01 6.42650E-04-1.01669E-05 1.43688E-03-8.71568E-14 7.90602E-14
 -1      3496 1.99999E+01 6.20447E-04-8.41137E-06 1.25897E-03-1.25208E-13-4.67709E-15
 -1      3497 2.02606E+01 1.16347E+00-2.46010E-03 4.24518E-01 2.08640E-13-2.16981E-13
 -1      3498 1.41525E+01 1.97496E+00 6.63881E-02-2.76781E+00 1.14294E-13 1.30632E-13
 -1      3499 2.02705E+01 1.16070E+00-1.15753E-03 3.61412E-01 1.96050E-13-2.17450E-13
 -1      3500 2.01307E+01 1.92225E+00 4.97036E-03-8.58605E-02 3.12803E-14-3.71193E-13
 -1      3501 1.83495E+01 1.23072E+00-3.78510E-03-3.24972E-01 9.87973E-14-1.91317E-13
 -1      3502 1.78315E+01 1.42981E+00-2.81480E-02-4.43574E-01 1.84308E-13 5.59907E-14
 -1      3503 2.72577E+01 2.93442E+00-7.20462E-02 2.19372E+00-1.18718E-13-3.73805E-13
 -1      3504 2.60721E+01 3.66797E+00-1.80116E-02 2.05914E+00-1.03261E-13-3.49800E-13
 -1      3505 2.68790E+01 1.84752E+00-3.88086E-02 2.04094E+00-3.57180E-14-4.02688E-13
 -1      3506 2.50658E+01 5.21917E+00-6.67046E-02-7.87551E-01-1.59591E-13 4.53439E-14
 -1      3507 2.49602E+01 4.73277E+00-5.09735E-03-1.27581E+00-1.69656E-13 1.08856E-13
 -1      3508 2.40572E+01 4.65258E+00-1.78673E-02-4.27961E-01-7.72715E-14 4.24496E-14
 -1      3509 2.80421E+01-1.13053E+00-3.27714E-02 7.79763E-01-9.78800E-14-5.71411E-13
 -1      3510 2.72552E+01-1.27820E-01-3.42112E-02 1.51064E+00-4.97553E-14-4.45328E-13
 -1      3511 2.70115E+01-1.85863E+00-2.10855E-02 1.77059E-01-3.93479E-14-4.50199E-13
 -1      3512 2.60041E+01-1.86821E+00-5.32859E-02-3.82767E-01-7.06323E-14 2.62441E-13
 -1      3513 2.62800E+01-2.71645E+00 2.37108E-02 7.35997E-01 5.07060E-14 1.65742E-13
 -1      3514 2.50222E+01-2.71139E+00-1.36033E-02 1.23054E+00 7.87950E-14 9.58426E-14
 -1      3515 1.73571E+01 1.65977E+00 2.22437E-04-7.20611E-01 1.92417E-13-1.07262E-13
 -1      3516 1.65398E+01 1.84720E+00-3.79846E-02-9.73756E-01 1.82671E-13-4.91569E-14
 -1      3517 1.66308E+01 1.59972E+00 3.25109E-02-1.95585E+00 1.64761E-13-2.90384E-13
 -1      3518 1.77920E+01 1.37800E+00 2.73664E-02-1.07890E+00 1.50284E-13-2.29455E-13
 -1      3519 2.02945E+01 1.04984E+00 3.69929E-04-4.42110E-01-1.02208E-13-3.32543E-13
 -1      3520 2.02971E+01 8.41620E-01-2.55571E-03-3.23996E-01-9.75614E-14-3.21971E-13
 -1      3521 2.03258E+01 8.39839E-01 9.26314E-04-2.67068E-01-1.05869E-13-3.19574E-13
 -1      3522 2.02832E+01 1.17102E+00 1.70843E-03-4.46626E-01-1.00931E-13-3.41732E-13
 -1      3523 1.57313E+01 7.37743E-01-2.96376E-02 3.85124E+00 2.39925E-13-2.39923E-13
 -1      3524 1.99987E+01 9.09867E-04-1.64285E-06 6.54524E-04-1.78948E-14-3.87628E-13
 -1      3525 1.99988E+01 8.78439E-04 2.02257E-07 8.31583E-04-1.30472E-13-3.10794E-13
 -1      3526 1.99984E+01 7.96450E-04-1.42281E-06 5.49482E-04 1.14640E-13-3.08446E-13
 -1      3527 1.99983E+01 8.02991E-04 4.33369E-07-6.65423E-04 3.86895E-13 2.66884E-13
 -1      3528 1.99983E+01 8.45187E-04 1.84919E-06-4.45931E-04 3.82446E-13 1.29735E-13
 -1      3529 1.99980E+01 6.75908E-04-5.64439E-06-3.31727E-04 3.54116E-13 1.47836E-13
 -1      3530 1.99981E+01 6.23173E-04-6.05466E-06-6.72420E-04 4.45494E-13 1.13313E-13
 -1      3531 1.53603E+01 1.31987E+00 1.05472E-02-3.39041E+00 1.49629E-13-1.13735E-13
 -1      3532 2.16652E+01-2.45514E+00 5.44295E-02-4.56989E+00 1.95195E-13 1.04675E-13
 -1      3533 1.71554E+01-2.44932E-01 7.76156E-02-4.88779E+00 3.03042E-13 1.76362E-13
 -1      3534 2.58846E+01-3.34885E+00 4.15955E-02-2.41866E+00 7.27907E-14-3.63872E-13
 -1      3535 2.62162E+01-2.89033E+00-1.41508E-02-1.32319E+00 1.96488E-14-2.78291E-13
 -1      3536 2.44086E+01-3.17651E+00-2.40268E-02-2.90341E+00 7.55160E-14-1.64174E-13
 -1      3537 1.99995E+01 7.80213E-04-6.39904E-06 1.20710E-03 1.46394E-13-3.11202E-14
 -1      3538 1.99997E+01 7.12519E-04 2.51747E-06 1.25297E-03-3.63920E-14-1.44108E-13
 -1      3539 1.99998E+01 7.01943E-04 7.08230E-06 1.34498E-03-1.59045E-13-1.63704E-14
 -1      3540 2.63470E+01 3.15002E+00-3.53408E-02-2.06324E+00-1.70735E-13 1.86923E-13
 -1      3541 1.87623E+01-1.22777E+00 2.26161E-02 4.96177E+00 2.59178E-13-1.45280E-13
 -1      3542 1.76143E+01-2.53272E-01 3.88446E-02 4.39338E+00 2.65099E-13-1.94466E-13
 -1      3543 2.02037E+01-1.38610E+00 4.35843E-02 4.01459E+00 2.21396E-13-1.23942E-13
 -1      3544 1.94672E+01 5.20955E-01 8.37838E-03-1.37322E-01 4.07417E-14 2.56151E-14
 -1      3545 1.94000E+01 5.79651E-01-3.42517E-03-3.20499E-02-4.20183E-14-2.31523E-14
 -1      3546 1.92095E+01 7.07477E-01-1.02375E-02-4.31319E-02-8.25526E-14-2.06600E-13
 -1      3547 1.89923E+01 8.62905E-01-4.12343E-03-1.24410E-01-7.66664E-14-2.82035E-13
 -1      3548 1.86742E+01 1.03206E+00-1.73902E-02-1.70211E-01 1.73366E-14-1.86474E-13
 -1      3549 1.85875E+01 1.05996E+00 1.90342E-02-5.70510E-01 1.92950E-14-1.09018E-13
 -1      3550 2.02527E+01 1.37349E+00-1.13396E-03-4.34743E-01-8.64988E-14-3.45124E-13
 -1      3551 2.02759E+01 1.26067E+00-2.64591E-04-4.43856E-01-9.36199E-14-3.50833E-13
 -1      3552 2.02985E+01 1.07785E+00-1.57393E-03-3.43412E-01-9.44158E-14-3.45156E-13
 -1      3553 2.02354E+01 1.46742E+00-1.09922E-03-3.65005E-01-5.46882E-14-3.65601E-13
 -1      3554 2.02063E+01 1.56212E+00-4.66149E-03 2.96832E-01 1.52188E-13-2.73541E-13
 -1      3555 2.01978E+01 1.61926E+00-1.99680E-03 2.13890E-01 1.08952E-13-2.77241E-13
 -1      3556 2.50874E+01 5.10759E+00-7.85833E-02 9.55061E-01-1.00475E-13-2.17314E-13
 -1      3557 2.41427E+01 4.69331E+00-5.80120E-03 5.40673E-01-2.37206E-14-4.82591E-14
 -1      3558 2.50650E+01 4.52893E+00-3.42037E-02 1.40317E+00-1.01412E-13-2.72515E-13
 -1      3559 2.30399E+01-2.70122E+00 2.49563E-02 3.34750E+00 2.10786E-13-7.90670E-14
 -1      3560 2.01903E+01 1.64755E+00-3.46461E-03 1.44435E-01 1.00470E-13-2.97073E-13
 -1      3561 2.01892E+01 1.66301E+00-2.47070E-03 5.42666E-02 7.73870E-14-3.41177E-13
 -1      3562 2.02708E+01 1.39670E+00 4.68534E-03 1.52083E-01 1.08990E-13-2.76740E-13
 -1      3563 2.02580E+01 1.31200E+00-3.68938E-03 3.71210E-01 1.92793E-13-2.18235E-13
 -1      3564 2.02402E+01 1.41238E+00-8.21089E-04 3.12157E-01 1.63585E-13-2.44324E-13
 -1      3565 2.02913E+01 1.21179E+00 1.27755E-03 2.24949E-01 1.61920E-13-2.30799E-13
 -1      3566 2.03073E+01 9.22802E-01-5.36807E-05 2.19300E-01 1.62626E-13-2.08086E-13
 -1      3567 1.99109E+01 1.05976E-01-3.13385E-04-2.92833E-02-8.50601E-15 1.64236E-13
 -1      3568 1.98777E+01 1.34129E-01-2.01478E-03-3.69353E-02 3.43674E-14 2.16863E-13
 -1      3569 2.02076E+01 1.59843E+00-2.33950E-03-1.86297E-01 1.58825E-15-3.85243E-13
 -1      3570 2.02213E+01 1.54235E+00-3.06445E-03-2.72742E-01-2.84417E-14-3.84032E-13
 -1      3571 1.97324E+01 2.65132E-01-1.04845E-04-1.14475E-01 1.36734E-13 3.20638E-13
 -1      3572 1.96385E+01 3.24497E-01-5.67524E-03-1.47055E-01 1.52031E-13 2.23565E-13
 -1      3573 2.03975E+01 3.42304E-01 2.10101E-03-2.20201E-02-2.35628E-14-2.10581E-13
 -1      3574 2.03963E+01 2.10873E-01-1.22780E-03 2.45661E-02-3.09230E-14-1.95598E-13
 -1      3575 2.04111E+01 9.64716E-02 2.19872E-03 5.75607E-02-3.74150E-14-2.00556E-13
 -1      3576 2.04149E+01-8.68444E-03-3.86352E-04 8.37583E-02-2.60151E-14-1.86538E-13
 -1      3577 2.04342E+01 1.84871E-01-9.20508E-04 4.74417E-02-1.91660E-14-1.49193E-13
 -1      3578 2.04350E+01-1.03618E-01 2.44839E-03 1.03987E-01-9.65380E-16-1.90839E-13
 -1      3579 2.04512E+01-1.95057E-01 2.62054E-04 1.13053E-01 2.47667E-14-1.87222E-13
 -1      3580 2.04594E+01-4.18375E-02-2.06587E-03 1.06351E-01 2.24422E-15-1.53090E-13
 -1      3581 2.04875E+01-2.81809E-01 2.97693E-03 1.22433E-01 2.44818E-14-1.88030E-13
 -1      3582 2.05229E+01-3.69829E-01 6.29070E-04 1.15755E-01 2.44256E-15-1.71850E-13
 -1      3583 2.05065E+01-2.38966E-01-3.22618E-03 1.44165E-01 1.29353E-14-1.54229E-13
 -1      3584 2.05863E+01-4.56811E-01 3.85901E-03 1.13765E-01-5.18815E-15-1.81277E-13
 -1      3585 2.06466E+01-5.48586E-01 5.68086E-04 9.01027E-02 3.44690E-15-2.00082E-13
 -1      3586 2.05960E+01-4.28968E-01-4.56485E-03 1.62658E-01-2.30339E-15-2.11685E-13
 -1      3587 2.07485E+01-6.40305E-01 5.17125E-03 7.24862E-02-1.23591E-14-1.73098E-13
 -1      3588 2.08373E+01-7.38104E-01-1.12424E-04 2.73436E-02-1.95935E-14-1.70251E-13
 -1      3589 2.07491E+01-6.28205E-01-6.05568E-03 1.57795E-01-1.52995E-14-1.99023E-13
 -1      3590 2.09874E+01-8.32576E-01 6.68151E-03-1.51665E-02-5.40203E-14-1.62876E-13
 -1      3591 2.11043E+01-9.29920E-01-1.57127E-03-8.93409E-02-7.99805E-14-1.51267E-13
 -1      3592 2.09862E+01-8.42449E-01-7.29520E-03 1.16302E-01-2.35289E-14-1.65679E-13
 -1      3593 2.13066E+01-1.01429E+00 8.05319E-03-1.70809E-01-9.21985E-14-1.56505E-13
 -1      3594 2.14435E+01-1.09125E+00-3.75293E-03-2.82276E-01-1.07789E-13-1.60343E-13
 -1      3595 2.13213E+01-1.06034E+00-8.07506E-03 1.40516E-02-7.67810E-14-1.19347E-13
 -1      3596 2.16884E+01-1.13727E+00 8.03431E-03-4.18162E-01-5.01477E-14-1.01114E-13
 -1      3597 2.18274E+01-1.15552E+00-5.92760E-03-5.70322E-01-2.96543E-14-9.08549E-14
 -1      3598 2.17530E+01-1.23650E+00-6.65887E-03-1.81872E-01-3.35262E-14-4.33452E-14
 -1      3599 2.20850E+01-1.11983E+00 5.49115E-03-7.67908E-01-4.52617E-14-4.93311E-14
 -1      3600 2.21971E+01-1.02319E+00-6.77828E-03-9.51375E-01-2.77664E-16 2.96514E-14
 -1      3601 2.22469E+01-1.29138E+00-3.64040E-03-5.01204E-01 3.83710E-15 2.38972E-14
 -1      3602 2.24081E+01-8.41560E-01-3.75795E-04-1.19109E+00 2.01063E-14 3.27400E-14
 -1      3603 2.24606E+01-5.74836E-01-4.44489E-03-1.36213E+00 1.40211E-14 4.33736E-14
 -1      3604 2.27269E+01-1.08527E+00 5.72059E-03-9.45860E-01 3.03233E-14 6.87402E-14
 -1      3605 2.25581E+01-2.13321E-01-9.75640E-03-1.58330E+00-7.59527E-15 4.76366E-14
 -1      3606 2.25351E+01 2.53511E-01 5.50170E-03-1.67512E+00-3.47171E-14 9.81376E-14
 -1      3607 2.30630E+01-5.15782E-01 7.03526E-03-1.42983E+00 1.18571E-14 1.20295E-13
 -1      3608 2.24558E+01 7.78853E-01-2.15875E-02-1.73984E+00-2.31581E-14 5.99477E-14
 -1      3609 2.23856E+01 1.35938E+00 1.40994E-02-1.65952E+00-4.46444E-14 9.10392E-14
 -1      3610 2.31316E+01 5.42362E-01 1.74986E-02-1.77975E+00-1.43670E-14 9.30133E-14
 -1      3611 2.21913E+01 1.92025E+00-2.18873E-02-1.48309E+00-5.40824E-14 5.67906E-14
 -1      3612 2.20903E+01 2.44404E+00 1.11967E-02-1.19880E+00-6.07318E-14 6.85549E-14
 -1      3613 2.29387E+01 1.77698E+00 1.22045E-03-1.69996E+00-5.90132E-14 2.66128E-14
 -1      3614 2.18955E+01 3.00964E+00 7.77957E-03 2.94878E-01-1.86042E-13 7.52957E-14
 -1      3615 2.19235E+01 2.81029E+00-1.53491E-02 7.52043E-01-1.46184E-13 5.74864E-14
 -1      3616 2.20895E+01 2.44717E+00 1.38971E-02 1.21459E+00-8.53566E-14 7.13893E-14
 -1      3617 2.21776E+01 1.94347E+00-2.21676E-02 1.50481E+00-7.62615E-14 5.18140E-14
 -1      3618 2.26300E+01 2.98760E+00 4.92677E-03 1.08838E+00-1.35986E-13 1.11123E-13
 -1      3619 2.23589E+01 1.39609E+00 1.25371E-02 1.69648E+00-1.37728E-13 3.22589E-14
 -1      3620 2.24360E+01 8.19791E-01-2.04038E-02 1.77829E+00-1.11866E-13 1.12319E-14
 -1      3621 2.29232E+01 1.85993E+00 1.21339E-02 1.72413E+00-1.43025E-13 1.29219E-13
 -1      3622 2.25020E+01 3.02213E-01 4.47278E-03 1.70974E+00-8.08722E-14 1.63498E-16
 -1      3623 2.25160E+01-1.54683E-01-1.09250E-02 1.62416E+00-2.80440E-14 3.31284E-14
 -1      3624 2.31043E+01 5.69875E-01 1.40468E-02 1.79968E+00-1.05318E-13 9.52537E-14
 -1      3625 2.24181E+01-5.10597E-01-3.58159E-03 1.41550E+00 7.80092E-14-4.68061E-15
 -1      3626 2.23577E+01-7.74750E-01-1.05421E-03 1.24788E+00 1.34505E-13 3.01421E-14
 -1      3627 2.30112E+01-4.39659E-01 1.03785E-02 1.46944E+00-8.22085E-15 1.01834E-13
 -1      3628 2.21372E+01-9.46794E-01-7.23991E-03 1.01443E+00 9.57979E-14 4.52345E-14
 -1      3629 2.20186E+01-1.03771E+00 5.28078E-03 8.38901E-01 1.12549E-13 7.80916E-14
 -1      3630 2.26575E+01-1.01690E+00 1.62369E-03 9.94800E-01 1.26205E-13 1.16492E-13
 -1      3631 2.17502E+01-1.07008E+00-6.56184E-03 6.48445E-01 1.27163E-13 1.92433E-14
 -1      3632 2.16032E+01-1.04799E+00 7.73349E-03 5.03520E-01 1.09045E-13 2.50933E-14
 -1      3633 2.21615E+01-1.20345E+00-4.49654E-03 5.67220E-01 6.52634E-14 7.10290E-14
 -1      3634 2.13448E+01-9.98720E-01-4.21182E-03 3.74442E-01 5.09597E-14 5.72885E-14
 -1      3635 2.11973E+01-9.20056E-01 7.73134E-03 2.70316E-01 7.35703E-14 7.71723E-14
 -1      3636 2.16448E+01-1.14016E+00-6.89167E-03 2.61057E-01 1.00301E-13-4.75756E-14
 -1      3637 2.09790E+01-8.35248E-01-1.92838E-03 1.95229E-01-5.98572E-15 4.47666E-14
 -1      3638 2.08489E+01-7.39682E-01 6.39409E-03 1.27700E-01-3.14099E-15 2.46052E-14
 -1      3639 2.11848E+01-9.58934E-01-7.38855E-03 7.67166E-02 8.65397E-15 6.60341E-14
 -1      3640 2.06807E+01-6.49562E-01-3.31699E-04 9.06450E-02-7.40159E-14 7.67700E-14
 -1      3641 2.05760E+01-5.59538E-01 4.75034E-03 4.99779E-02-9.19786E-15 4.62924E-14
 -1      3642 2.08155E+01-7.45993E-01-6.47970E-03-1.51842E-02-2.96553E-14 2.55909E-14
 -1      3643 2.04542E+01-4.79208E-01 4.97089E-04 3.54866E-02-3.43112E-14-2.31841E-14
 -1      3644 2.03755E+01-4.04080E-01 3.29319E-03 1.24324E-02-7.64550E-15-6.45118E-14
 -1      3645 2.05397E+01-5.49776E-01-5.14295E-03-4.98936E-02-4.38066E-14-9.78726E-14
 -1      3646 2.02914E+01-3.39157E-01 8.01501E-04 9.65793E-03 1.56054E-13-1.16125E-14
 -1      3647 2.02354E+01-2.81039E-01 2.17056E-03-2.80109E-03 3.33838E-13 5.40460E-14
 -1      3648 2.03444E+01-3.88648E-01-3.80366E-03-5.44149E-02 9.90273E-14-4.51148E-14
 -1      3649 2.01797E+01-2.31863E-01 8.07223E-04-5.56018E-04 4.20794E-13-6.22637E-14
 -1      3650 2.01417E+01-1.89234E-01 1.37938E-03-7.06340E-03 2.55982E-13 4.95738E-14
 -1      3651 2.02119E+01-2.65588E-01-2.66664E-03-4.59508E-02 3.16934E-13-1.08785E-13
 -1      3652 2.01060E+01-1.53753E-01 6.74966E-04-3.39136E-03 4.72561E-14 4.28122E-14
 -1      3653 2.00813E+01-1.23737E-01 8.52073E-04-6.77284E-03 3.91050E-15 1.33650E-13
 -1      3654 2.01253E+01-1.76288E-01-1.79825E-03-3.40085E-02 2.02149E-13-1.44761E-13
 -1      3655 2.00593E+01-9.90150E-02 4.99902E-04-3.34909E-03-5.93553E-14 1.77820E-13
 -1      3656 2.00439E+01-7.85336E-02 5.07491E-04-5.11113E-03-1.55709E-13 1.43137E-13
 -1      3657 2.00707E+01-1.13903E-01-1.18086E-03-2.30998E-02-8.08126E-14-7.71884E-14
 -1      3658 2.00307E+01-6.18937E-02 3.47394E-04-2.44154E-03-1.88806E-13 2.28996E-13
 -1      3659 2.00216E+01-4.83508E-02 2.96177E-04-3.42332E-03-1.40942E-13 8.29537E-14
 -1      3660 2.00373E+01-7.15239E-02-7.33014E-04-1.46246E-02-1.54990E-13-9.19118E-14
 -1      3661 2.00140E+01-3.74587E-02 2.24247E-04-1.59345E-03-1.87518E-13 1.27631E-13
 -1      3662 2.00089E+01-2.87332E-02 1.69484E-04-2.18521E-03-8.91968E-14 5.95511E-14
 -1      3663 2.00178E+01-4.36445E-02-4.44912E-04-8.74664E-03-1.35347E-13 3.44523E-14
 -1      3664 2.00048E+01-2.17985E-02 1.36684E-04-1.02782E-03 8.64554E-14 5.55675E-15
 -1      3665 2.00021E+01-1.63288E-02 9.40302E-05-1.41194E-03 1.91915E-13 4.57494E-14
 -1      3666 2.00068E+01-2.57118E-02-2.59206E-04-4.98814E-03 2.31023E-14 6.30115E-14
 -1      3667 2.00001E+01-1.20388E-02 7.78292E-05-7.32411E-04 1.91466E-13 8.99048E-14
 -1      3668 1.99988E+01-8.70815E-03 4.99863E-05-9.91595E-04 2.55053E-13 1.52007E-13
 -1      3669 2.00011E+01-1.44685E-02-1.43849E-04-2.74818E-03 2.27481E-13 1.42607E-13
 -1      3670 1.99980E+01-6.13633E-03 4.04834E-05-6.19058E-04 2.15570E-13 1.21662E-13
 -1      3671 1.99975E+01-4.17607E-03 2.44917E-05-7.91457E-04 9.30778E-14 1.36208E-13
 -1      3672 1.99984E+01-7.60710E-03-7.48044E-05-1.50805E-03 2.22479E-13 6.38323E-14
 -1      3673 1.99973E+01-2.69169E-03 1.84880E-05-6.01891E-04 8.17884E-14 1.55779E-13
 -1      3674 1.99973E+01-1.58259E-03 1.04720E-05-7.10078E-04 1.39689E-13 1.64999E-13
 -1      3675 1.99974E+01-3.55262E-03-3.59788E-05-8.72930E-04 1.14409E-13 5.13873E-14
 -1      3676 1.99974E+01-7.64179E-04 5.21635E-06-6.20340E-04 2.76584E-13 2.04010E-13
 -1      3677 1.99975E+01-1.66659E-04 3.22812E-06-6.74251E-04 3.02568E-13 1.41403E-13
 -1      3678 1.99973E+01-1.23929E-03-1.35535E-05-5.82542E-04 2.25999E-13 9.93007E-14
 -1      3679 1.88445E+01 5.70537E-01-1.76083E-02 1.11736E+00 4.58856E-14-7.51866E-14
 -1      3680 1.91684E+01 5.30825E-01 9.45582E-03 8.38555E-01 6.86408E-14-8.33132E-14
 -1      3681 1.82433E+01 5.99139E-01-3.77616E-02 1.85973E+00 1.34237E-13-6.80662E-14
 -1      3682 1.87366E+01 6.04329E-01 1.55585E-02 1.44906E+00 1.04103E-13-5.29929E-14
 -1      3683 1.91895E+01 2.73184E-01-1.73613E-03 1.49117E+00 7.27764E-14-6.41192E-14
 -1      3684 1.73135E+01 2.31363E-01-1.23004E-02 3.61858E+00 2.23939E-13-2.22444E-13
 -1      3685 2.01819E+01 2.79471E-01-3.49637E-03-7.81269E-03 8.54180E-14-1.77690E-13
 -1      3686 2.02385E+01 3.30625E-01 1.42022E-03 7.04867E-03 1.09901E-13-1.64447E-13
 -1      3687 1.98432E+01 1.70223E-01-3.08963E-04-5.90999E-02 2.03581E-13 1.34668E-13
 -1      3688 1.97867E+01 2.12042E-01-3.43015E-03-7.52194E-02 2.31189E-13 2.36663E-13
 -1      3689 1.97797E+01 2.17801E-01 3.21102E-03-1.50252E-01 2.40702E-13 1.00123E-13
 -1      3690 1.98692E+01 1.42164E-01 2.12484E-03-8.18908E-02 5.58667E-14 2.76231E-13
 -1      3691 2.02956E+01 1.26342E+00 3.41487E-03-2.67939E-01-3.75825E-14-3.55801E-13
 -1      3692 1.99979E+01 5.23899E-04 4.01524E-06-7.22815E-05 2.05219E-13-2.65038E-14
 -1      3693 1.99980E+01 5.51366E-04 1.74429E-06 1.55766E-04 1.55265E-13-2.56407E-13
 -1      3694 2.02648E+01 3.99764E-01-3.11630E-03 1.94102E-02 1.13255E-13-2.02179E-13
 -1      3695 2.03016E+01 4.95358E-01 1.31787E-03 6.05165E-02 1.30552E-13-2.05337E-13
 -1      3696 2.02901E+01 3.89657E-01 1.52575E-03 4.50286E-02 1.02754E-13-1.93578E-13
 -1      3697 1.99511E+01 6.40302E-02-2.50165E-04-1.35678E-02-6.63450E-14 1.16563E-13
 -1      3698 1.99321E+01 8.23292E-02-1.15582E-03-1.69978E-02 1.00521E-14 1.39611E-13
 -1      3699 1.99247E+01 8.95465E-02 1.33539E-03-4.32731E-02 1.50079E-15 3.11075E-13
 -1      3700 1.99743E+01 3.75317E-02-1.74393E-04-5.43587E-03-1.97487E-13 4.16520E-14
 -1      3701 1.99637E+01 4.90235E-02-6.49830E-04-6.84519E-03-1.44734E-13 5.10430E-14
 -1      3702 1.99581E+01 5.45752E-02 8.24532E-04-2.18297E-02-6.15203E-14 3.59926E-13
 -1      3703 1.99871E+01 2.13325E-02-1.13507E-04-1.36082E-03-1.15446E-13 7.13784E-14
 -1      3704 1.99815E+01 2.83149E-02-3.57719E-04-1.83400E-03-1.82739E-13-5.86736E-14
 -1      3705 1.99775E+01 3.21859E-02 4.85799E-04-1.01178E-02-9.39497E-14 2.17710E-13
 -1      3706 1.99940E+01 1.17312E-02-7.01622E-05 5.69932E-04-1.44226E-13 2.05173E-13
 -1      3707 1.99912E+01 1.58413E-02-1.90552E-04 5.00518E-04-1.19785E-13 1.78195E-13
 -1      3708 1.99885E+01 1.83998E-02 2.78774E-04-3.91137E-03-1.62565E-13 1.66785E-13
 -1      3709 1.99975E+01 6.23502E-03-4.12815E-05 1.39621E-03 1.63510E-15 2.29302E-13
 -1      3710 1.99962E+01 8.56736E-03-9.78304E-05 1.48360E-03-5.06726E-14 1.96839E-13
 -1      3711 1.99944E+01 1.01841E-02 1.53816E-04-7.52355E-04-4.02341E-14 3.22768E-13
 -1      3712 1.99992E+01 3.21775E-03-2.30045E-05 1.66575E-03 3.43868E-13 6.72697E-14
 -1      3713 1.99986E+01 4.48314E-03-4.72566E-05 1.80186E-03 3.78290E-14 1.67388E-13
 -1      3714 1.99974E+01 5.46982E-03 8.11015E-05 7.51161E-04 1.07389E-13 1.83656E-13
 -1      3715 1.99999E+01 1.64974E-03-1.22184E-05 1.66212E-03 2.32960E-13 2.96692E-13
 -1      3716 1.99997E+01 2.29717E-03-2.03598E-05 1.80433E-03 5.10236E-13 1.94764E-13
 -1      3717 1.99989E+01 2.88522E-03 4.07021E-05 1.37413E-03 2.56412E-13 3.14729E-13
 -1      3718 2.00001E+01 9.08746E-04-3.56013E-06 1.53775E-03 1.81087E-13 8.84600E-14
 -1      3719 2.00001E+01 1.20433E-03-4.43031E-06 1.66648E-03 2.42330E-13 2.35519E-13
 -1      3720 1.99996E+01 1.53984E-03 1.53798E-05 1.54373E-03 2.99297E-13 3.99754E-13
 -1      3721 1.65373E+01 5.13835E-01 3.71137E-02-4.06077E+00 1.90751E-13 1.18542E-13
 -1      3722 1.83818E+01-8.53367E-01-6.53416E-02-4.57138E+00 2.35762E-13 4.32758E-13
 -1      3723 2.56444E+01 5.34209E-01-9.62216E-02-1.89371E+00-1.38686E-13 8.26247E-14
 -1      3724 2.60823E+01-5.24894E-01 5.18048E-02-1.42628E+00-1.19769E-13 1.77480E-13
 -1      3725 1.69918E+01 8.74428E-01 6.10013E-02-3.19820E+00 1.55494E-13 3.10351E-14
 -1      3726 1.96250E+01 3.47582E-01-9.68571E-03 2.91356E-01 8.43638E-14-1.54651E-13
 -1      3727 1.97910E+01 3.04733E-01 2.80504E-03 1.97684E-01 7.14864E-14-1.79420E-13
 -1      3728 1.81833E+01 2.55634E-01 1.36524E-02 2.92117E+00 1.89134E-13-1.36082E-13
 -1      3729 2.03051E+01 6.06442E-01-3.34357E-03 9.45964E-02 1.55901E-13-2.12659E-13
 -1      3730 2.03224E+01 7.53075E-01 3.25492E-04 1.64676E-01 1.53157E-13-2.04418E-13
 -1      3731 2.03228E+01 8.97337E-01 2.59192E-03 1.79709E-01 1.62448E-13-1.95846E-13
 -1      3732 2.03295E+01 5.95154E-01 1.69135E-03 9.05370E-02 1.33604E-13-2.28288E-13
 -1      3733 1.99990E+01 8.76241E-04-3.97481E-06 9.99172E-04-1.74432E-13-2.42662E-13
 -1      3734 1.99993E+01 8.28732E-04 1.29945E-06 1.10895E-03 2.73129E-14-1.73574E-13
 -1      3735 1.99993E+01 8.14099E-04 5.29718E-06 1.21839E-03 1.50225E-13-7.44854E-14
 -1      3736 1.99988E+01 8.36065E-04 2.27783E-07 9.38132E-04 1.98287E-14-2.33980E-13
 -1      3737 2.03731E+01 6.62468E-01 1.77753E-03-1.41083E-01-6.70696E-14-2.52226E-13
 -1      3738 2.03774E+01 4.90376E-01-1.82364E-03-7.12447E-02-4.07354E-14-2.35854E-13
 -1      3739 2.04097E+01 4.66824E-01 3.58805E-06-3.78568E-02-1.82555E-14-2.10741E-13
 -1      3740 2.01901E+01 1.65686E+00-3.28845E-03-2.20396E-02 6.00969E-14-3.41314E-13
 -1      3741 2.01969E+01 1.63659E+00-2.96171E-03-1.12517E-01 3.37191E-14-3.70064E-13
 -1      3742 2.02828E+01 1.37650E+00 4.81805E-03-1.15832E-01 2.67097E-14-3.39080E-13
 -1      3743 2.02756E+01 1.41879E+00 5.85071E-03 2.24926E-02 7.49439E-14-3.15812E-13
 -1      3744 2.34830E+01-2.72301E+00-4.19126E-02 2.42852E+00 1.95007E-13 5.73690E-14
 -1      3745 2.20401E+01-2.17406E+00 2.92544E-02 3.30207E+00 2.18556E-13-7.07847E-14
 -1      3746 2.51503E+01 3.54727E+00-7.71095E-02-1.85190E+00-1.77702E-13 8.91657E-14
 -1      3747 2.54762E+01 2.17031E+00 3.39504E-02-2.11253E+00-2.06016E-13 5.15716E-14
 -1      3748 2.41499E+01 3.46511E+00-2.85486E-02-1.45873E+00-1.73993E-13 1.39428E-14
 -1      3749 2.06139E+01-1.69534E+00 7.36061E-02-4.35461E+00 1.95993E-13 2.66683E-13
 -1      3750 2.24198E+01-2.62006E+00-4.58599E-02-3.67616E+00 8.92762E-14 7.13509E-14
 -1      3751 1.92840E+01 4.63088E-01-1.43475E-02 6.04153E-01 6.43877E-14-1.23951E-13
 -1      3752 1.95210E+01 4.09422E-01 5.03920E-03 4.37989E-01 7.20426E-14-1.31993E-13
 -1      3753 1.97240E+01 2.64546E-01 3.18684E-03 4.96866E-01 5.42780E-14-6.34083E-14
 -1      3754 1.94723E+01 3.00484E-01 2.61739E-03 8.94487E-01 5.63845E-14-4.79460E-14
 -1      3755 1.99999E+01 7.25449E-04 3.09414E-06 1.39894E-03-6.12478E-14 9.60708E-14
 -1      3756 2.00001E+01 8.03274E-04 3.91044E-06 1.49923E-03 3.63489E-14 7.63250E-14
 -1      3757 1.99997E+01 9.82680E-04-2.77558E-06 1.48450E-03 1.08390E-13 1.79683E-13
 -1      3758 1.99996E+01 7.97893E-04-8.41304E-06 1.37231E-03-2.38350E-14 1.11385E-13
 -1      3759 1.99979E+01 3.94584E-04-1.23807E-06 2.28431E-04 2.90073E-13-3.63658E-13
 -1      3760 1.99981E+01 6.58926E-04 3.32349E-06 3.79802E-04 1.72611E-13-4.09432E-13
 -1      3761 1.99983E+01 6.85055E-04-2.68453E-06 5.93116E-04 2.94436E-13-3.75092E-13
 -1      3762 1.96417E+01 3.19625E-01 4.70483E-03-2.68047E-01-2.67662E-14 1.45039E-16
 -1      3763 1.95579E+01 3.97713E-01 5.08924E-04-2.14513E-01-3.52687E-14 1.27686E-13
 -1      3764 1.94081E+01 4.75502E-01-9.21272E-03-2.76604E-01-4.60475E-14 1.32433E-13
 -1      3765 2.33372E+01 4.18859E+00-5.08195E-02 3.69479E-03-6.52811E-14 1.48041E-14
 -1      3766 2.32486E+01 4.09604E+00 7.04444E-03-4.47470E-01-1.54536E-13 9.04441E-16
 -1      3767 2.64449E+01-2.46222E+00-1.36769E-02-4.65122E-01-2.05404E-14-3.57846E-13
 -1      3768 2.62154E+01-1.67896E+00 5.82684E-03 4.30730E-01-1.09782E-13-4.24251E-13
 -1      3769 2.54378E+01-2.70439E+00-2.02814E-02-1.12623E+00-1.23035E-13-2.73092E-13
 -1      3770 2.26556E+01 3.13585E+00-1.04450E-02-8.24060E-01-1.29356E-13-1.24053E-13
 -1      3771 2.19833E+01 2.96407E+00-1.13460E-02-5.01587E-01-1.07653E-13 8.71764E-15
 -1      3772 2.53616E+01-1.21441E+00-2.77804E-03-8.69610E-01-2.03010E-14 2.47401E-13
 -1      3773 1.83430E+01 9.79862E-01 1.09021E-02-1.22130E+00 3.89480E-14 1.06671E-13
 -1      3774 1.78274E+01 1.04046E+00-2.57873E-02-1.58263E+00 1.58350E-13-5.42006E-14
 -1      3775 2.19442E+01 3.08162E+00-7.77891E-03-4.51872E-02-1.78808E-13 3.14180E-14
 -1      3776 2.25663E+01 3.55382E+00 1.18482E-02 3.02654E-01-9.65309E-14-1.86535E-14
 -1      3777 1.99977E+01 1.43023E-04-3.19134E-06-6.52890E-04 1.98959E-13 1.23899E-13
 -1      3778 1.99979E+01 4.36681E-04 3.09608E-07-6.69957E-04 3.55345E-13 8.83139E-14
 -1      3779 1.99979E+01 4.66012E-04 5.19964E-06-4.97394E-04 3.20156E-13 1.94728E-13
 -1      3780 1.99975E+01-9.42783E-05 1.82605E-07-4.89486E-04 2.02887E-13 1.84165E-13
 -1      3781 2.01370E+01 2.51578E-01 1.46925E-03 6.47820E-03 9.44204E-14-1.78258E-13
 -1      3782 2.02104E+01 2.65864E-01 1.54215E-03 4.85994E-02 8.69302E-14-1.46308E-13
 -1      3783 2.00559E+01 2.38581E-01-4.44042E-03 1.95334E-02 7.79215E-14-1.68990E-13
 -1      3784 2.48134E+01 1.25914E+00 1.27249E-03-1.93711E+00-1.28844E-13 3.47960E-14
 -1      3785 1.90366E+01-1.54695E-01 2.48939E-02 2.85858E+00 2.18334E-13-1.06263E-13
 -1      3786 1.98319E+01-9.65970E-01 4.55019E-02-3.78325E+00 1.70296E-13 3.10524E-13
 -1      3787 1.99313E+01 2.24208E-01 2.91799E-03 2.51532E-01 5.81831E-14-1.42922E-13
 -1      3788 1.98757E+01 2.65681E-01-6.42391E-03 1.10798E-01 6.11607E-14-1.93986E-13
 -1      3789 1.99911E+01 2.47275E-01 1.80743E-03 6.45129E-02 6.53185E-14-1.68759E-13
 -1      3790 2.34021E+01-2.70250E+00 4.63292E-02-3.08268E+00-1.02366E-14-4.93585E-14
 -1      3791 2.40515E+01-2.75806E+00-9.56109E-03-2.29155E+00-6.00159E-14-4.86798E-14
 -1      3792 2.22563E+01-2.19783E+00-7.70233E-03-3.04893E+00-8.69339E-14 8.24419E-14
 -1      3793 1.99979E+01 4.93910E-04 1.12961E-06-3.26747E-04 1.76460E-13 2.26274E-13
 -1      3794 2.12012E+01-1.81853E+00 4.74376E-04 3.47538E+00 2.23593E-13-1.58374E-13
 -1      3795 2.00813E+01-1.16722E+00-2.72810E-02 3.38063E+00 2.39726E-13-1.36250E-13
 -1      3796 2.19415E+01-1.82927E+00 2.57992E-02 2.60105E+00 2.30350E-13-5.41277E-14
 -1      3797 2.45018E+01-2.32313E+00-2.45510E-02 5.67345E-01 1.53855E-13 2.39465E-13
 -1      3798 2.42908E+01-2.60773E+00 3.93048E-02 1.56471E+00 2.13520E-13 8.85524E-14
 -1      3799 2.32321E+01-2.34134E+00-1.74996E-02 1.75119E+00 2.32567E-13 1.24015E-13
 -1      3800 1.91210E+01 7.61081E-01 1.27701E-02-2.87479E-01-9.17821E-14-1.64646E-13
 -1      3801 2.03266E+01 9.97587E-01-8.89016E-05 1.85282E-01 1.56733E-13-2.18938E-13
 -1      3802 2.03083E+01 1.13782E+00 3.13455E-04 1.72918E-01 1.40119E-13-2.48215E-13
 -1      3803 2.03365E+01 8.18750E-01-2.42004E-03 1.31819E-01 1.39508E-13-2.07858E-13
 -1      3804 2.32937E+01 4.03685E+00-1.81604E-02 4.35645E-01-2.30285E-14-4.30524E-14
 -1      3805 1.77028E+01 1.06461E+00 2.74096E-02-2.00611E+00 2.39646E-13-1.54098E-13
 -1      3806 1.70106E+01 1.02675E+00-1.36620E-02-2.60405E+00 1.58042E-13-9.75808E-14
 -1      3807 1.80009E+01 2.23768E-01-2.66173E-02-3.20792E+00 1.78279E-13 2.34124E-13
 -1      3808 1.83246E+01 6.03743E-01-3.67662E-03-2.14254E+00 1.14632E-13 2.32206E-13
 -1      3809 2.61932E+01-1.85206E-01 4.36471E-03 1.50078E+00-9.21216E-14-3.45625E-13
 -1      3810 2.66876E+01 7.25111E-01-2.77347E-02 1.90161E+00-7.49817E-14-3.40807E-13
 -1      3811 2.57382E+01 1.64877E+00-9.11785E-03 2.07604E+00-9.04901E-14-4.62828E-13
 -1      3812 2.03311E+01 9.34372E-01 9.66223E-04-2.71911E-01-8.19493E-14-3.26097E-13
 -1      3813 2.03446E+01 7.81354E-01-1.88592E-03-1.94257E-01-8.23611E-14-2.99929E-13
 -1      3814 2.03719E+01 7.53254E-01-2.02334E-04-1.41592E-01-5.01146E-14-2.65893E-13
 -1      3815 2.03223E+01 1.02526E+00-3.26346E-04-2.68430E-01-6.96043E-14-3.49321E-13
 -1      3816 1.88946E+01 7.80370E-01 5.01625E-03-7.03289E-01-1.52653E-13 1.22959E-13
 -1      3817 1.85381E+01 8.74880E-01-2.14485E-02-9.11902E-01-1.88719E-14 1.07685E-13
 -1      3818 1.87473E+01 6.74786E-01 7.31173E-03-1.34891E+00-2.98519E-14 3.14557E-13
 -1      3819 1.99977E+01 2.38528E-04-6.17834E-06-2.55659E-04 2.28331E-13 1.33750E-13
 -1      3820 2.03062E+01 1.15946E+00-2.23319E-03 1.20161E-01 1.17393E-13-2.69910E-13
 -1      3821 2.03206E+01 1.10111E+00-1.10891E-03-1.98010E-01-3.34206E-14-3.40463E-13
 -1      3822 2.50319E+01 3.17094E+00-1.87716E-02 1.89190E+00-1.26010E-14-3.70454E-13
 -1      3823 2.51279E+01 3.95968E+00-6.35584E-02 1.71547E+00-1.04666E-13-3.07684E-13
 -1      3824 2.32834E+01 3.40199E+00-3.02866E-02-1.20787E+00-1.61958E-13-2.18972E-14
 -1      3825 2.46253E+01-6.97827E-01-2.03285E-02-1.37058E+00-2.36005E-14 2.15213E-13
 -1      3826 2.48291E+01-1.67519E+00 1.55330E-02-4.96809E-01 7.74476E-14 3.17636E-13
 -1      3827 1.99975E+01-3.12679E-05 5.18616E-06-2.60483E-04 3.22976E-13 2.04726E-13
 -1      3828 2.04756E+01 3.70892E-02 1.33934E-03 1.07596E-01-1.80337E-14-1.61276E-13
 -1      3829 2.04922E+01-6.76775E-02 8.13494E-04 1.34814E-01 1.06427E-14-1.67821E-13
 -1      3830 2.05161E+01-1.65940E-01 1.80721E-03 1.63253E-01 1.11356E-14-1.66483E-13
 -1      3831 2.05495E+01-2.61453E-01 1.63503E-03 1.82161E-01 6.51269E-15-1.88260E-13
 -1      3832 2.05097E+01-9.77567E-02-2.49539E-03 1.69435E-01-1.60977E-14-1.74870E-13
 -1      3833 2.05944E+01-3.55850E-01 2.63467E-03 2.09660E-01-2.94496E-15-1.94511E-13
 -1      3834 2.06545E+01-4.53295E-01 2.23665E-03 2.20734E-01-1.81663E-14-1.94999E-13
 -1      3835 2.05713E+01-2.97534E-01-4.11505E-03 2.34981E-01-7.47999E-15-1.39654E-13
 -1      3836 2.07355E+01-5.53767E-01 4.00508E-03 2.45871E-01-6.29664E-15-1.81520E-13
 -1      3837 2.08318E+01-6.62193E-01 2.22868E-03 2.45746E-01 9.11931E-15-1.76727E-13
 -1      3838 2.06885E+01-5.00932E-01-5.71281E-03 3.01811E-01-6.86547E-15-1.32093E-13
 -1      3839 2.09676E+01-7.75608E-01 6.23430E-03 2.61353E-01 2.14856E-14-1.71847E-13
 -1      3840 2.11078E+01-8.98816E-01 1.43243E-03 2.40479E-01-7.99458E-15-1.22800E-13
 -1      3841 2.08919E+01-7.32366E-01-8.15078E-03 3.63531E-01 1.24080E-14-1.40707E-13
 -1      3842 2.13137E+01-1.02138E+00 8.81845E-03 2.30650E-01-2.39344E-14-9.32384E-14
 -1      3843 2.14990E+01-1.15119E+00-9.40706E-04 1.75113E-01-3.29880E-14-7.08540E-14
 -1      3844 2.12155E+01-9.98762E-01-1.00381E-02 3.95900E-01 7.04043E-15-7.72857E-14
 -1      3845 2.17915E+01-1.26989E+00 1.15228E-02 1.14722E-01-2.42969E-14-2.67671E-14
 -1      3846 2.20134E+01-1.37610E+00-4.11355E-03 1.64970E-03-1.65941E-14 1.56193E-14
 -1      3847 2.16881E+01-1.29327E+00-1.25823E-02 3.63334E-01 2.42251E-14-3.40179E-14
 -1      3848 2.23788E+01-1.44531E+00 1.19455E-02-1.34625E-01 1.37689E-14 5.75836E-14
 -1      3849 2.26087E+01-1.47934E+00-9.45377E-03-3.14342E-01 6.14587E-14 7.01405E-14
 -1      3850 2.23224E+01-1.53196E+00-5.96311E-03 1.85198E-01 1.63422E-14 8.39320E-14
 -1      3851 2.35521E+01-1.04334E+00-3.55788E-04-1.10231E+00 2.87548E-14 1.28433E-13
 -1      3852 2.36567E+01-6.71228E-01-1.32839E-02-1.32644E+00 2.41736E-14 1.13087E-13
 -1      3853 2.40933E+01-9.43128E-02-6.33471E-03-1.70370E+00-6.47676E-14 1.23215E-13
 -1      3854 2.40801E+01 6.60483E-01 1.51826E-02-1.83159E+00-8.02613E-14 1.13133E-13
 -1      3855 2.36611E+01 1.72386E+00-4.09000E-02-1.88927E+00-5.95552E-14-1.95954E-14
 -1      3856 2.35822E+01 2.58832E+00 2.16617E-02-1.74906E+00-1.23995E-13 2.16928E-14
 -1      3857 2.37644E+01 7.44330E-01 3.46097E-03 1.84143E+00-1.52810E-13 6.58274E-14
 -1      3858 2.37647E+01 3.40905E-02-2.00609E-02 1.73206E+00-1.78539E-13 3.55431E-14
 -1      3859 2.36099E+01-5.11899E-01-1.81345E-03 1.41702E+00-8.26971E-14 6.45346E-14
 -1      3860 2.34916E+01-9.30455E-01-4.09493E-04 1.19270E+00 5.79619E-14 1.26789E-13
 -1      3861 2.43419E+01-4.00086E-01 1.50419E-02 1.50783E+00-9.43371E-14-1.35772E-13
 -1      3862 2.31374E+01-1.19498E+00-1.03554E-02 8.46192E-01 4.85313E-14 5.32919E-14
 -1      3863 2.29382E+01-1.32881E+00 1.19368E-02 6.25534E-01 1.54188E-13 5.22683E-14
 -1      3864 2.37380E+01-1.32940E+00-2.10381E-02 7.87008E-01 1.52105E-14-1.30078E-14
 -1      3865 2.25217E+01-1.38269E+00-8.89739E-03 3.66619E-01 6.30131E-14-5.48483E-14
 -1      3866 2.22787E+01-1.34459E+00 1.33082E-02 2.00848E-01-2.65261E-15-1.18834E-13
 -1      3867 2.29790E+01-1.57891E+00-1.59011E-02 1.99677E-01 5.58491E-14-2.26649E-13
 -1      3868 2.19003E+01-1.27768E+00-4.12656E-03 5.83681E-02 3.80086E-14-2.21448E-13
 -1      3869 2.16616E+01-1.16560E+00 1.12493E-02-4.59601E-02 8.74613E-14-2.88681E-13
 -1      3870 2.22020E+01-1.45701E+00-1.36187E-02-1.51786E-01-5.27528E-14-4.25624E-13
 -1      3871 2.13559E+01-1.04812E+00-6.82677E-04-1.01878E-01 8.76044E-14-3.11637E-13
 -1      3872 2.11507E+01-9.18314E-01 8.10611E-03-1.54622E-01 7.02283E-14-2.30007E-13
 -1      3873 2.15415E+01-1.18249E+00-9.19258E-03-3.12611E-01 1.29985E-13-6.36452E-13
 -1      3874 2.09266E+01-7.97410E-01 1.48328E-03-1.57356E-01-2.36694E-14-1.77125E-13
 -1      3875 2.07656E+01-6.81111E-01 5.27107E-03-1.77069E-01-3.67651E-14-2.28529E-13
 -1      3876 2.10318E+01-8.86778E-01-6.23172E-03-3.37592E-01 1.65349E-14-6.01710E-13
 -1      3877 2.06099E+01-5.76903E-01 2.18322E-03-1.56000E-01-1.12605E-13-1.95909E-13
 -1      3878 2.04914E+01-4.83453E-01 3.13831E-03-1.57825E-01-1.76701E-14-2.29680E-13
 -1      3879 2.06670E+01-6.31997E-01-3.81995E-03-2.97358E-01-5.81494E-14-3.68530E-13
 -1      3880 2.03881E+01-4.01560E-01 2.21686E-03-1.29517E-01 1.09996E-13-1.41071E-13
 -1      3881 2.03051E+01-3.31610E-01 1.74266E-03-1.23537E-01 1.78857E-13-1.79666E-14
 -1      3882 2.04175E+01-4.33701E-01-2.26419E-03-2.33416E-01 9.06366E-14-1.65617E-13
 -1      3883 2.02389E+01-2.71128E-01 1.88418E-03-9.68847E-02 2.77038E-13-8.14501E-14
 -1      3884 2.01831E+01-2.21154E-01 9.09425E-04-8.88579E-02 3.15342E-13-1.47247E-13
 -1      3885 2.02535E+01-2.89264E-01-1.29003E-03-1.69477E-01 1.75184E-13 1.59744E-14
 -1      3886 2.01419E+01-1.78240E-01 1.48672E-03-6.72924E-02 2.06897E-13-1.83800E-13
 -1      3887 2.01058E+01-1.43844E-01 4.94274E-04-5.98262E-02 6.62608E-14-1.36722E-13
 -1      3888 2.01491E+01-1.88379E-01-6.90875E-04-1.16052E-01 1.94377E-13-2.92789E-13
 -1      3889 2.00807E+01-1.14610E-01 1.01598E-03-4.41442E-02-6.22309E-14-3.01040E-13
 -1      3890 2.00580E+01-9.12863E-02 1.90752E-04-3.83631E-02-1.49265E-13-3.23450E-13
 -1      3891 2.00842E+01-1.20504E-01-4.38399E-04-7.56369E-02-1.21058E-13-5.43430E-13
 -1      3892 2.00434E+01-7.17502E-02 7.15011E-04-2.73045E-02-2.05516E-13-2.83792E-13
 -1      3893 2.00297E+01-5.65687E-02 6.43454E-05-2.33083E-02-1.02368E-13-2.73041E-13
 -1      3894 2.00451E+01-7.50436E-02-2.11954E-04-4.69336E-02-1.22256E-13-4.91910E-13
 -1      3895 2.00213E+01-4.38147E-02 4.58194E-04-1.61262E-02-4.94101E-14-2.74597E-13
 -1      3896 2.00134E+01-3.40414E-02 1.27509E-05-1.35428E-02-1.25805E-13-2.09188E-13
 -1      3897 2.00224E+01-4.58683E-02-9.37801E-05-2.79515E-02-1.04252E-13-5.73074E-13
 -1      3898 2.00089E+01-2.59007E-02 2.88475E-04-9.04609E-03-2.24281E-14-1.05324E-13
 -1      3899 2.00045E+01-1.97544E-02-6.45406E-06-7.49008E-03 2.52979E-13-9.20390E-15
 -1      3900 2.00095E+01-2.72345E-02-3.90547E-05-1.58718E-02 5.52816E-14-3.32439E-13
 -1      3901 2.00022E+01-1.46806E-02 1.73409E-04-4.80812E-03 2.83702E-13 1.34478E-13
 -1      3902 1.99999E+01-1.09043E-02-1.22367E-05-3.93713E-03 2.18714E-13 6.33553E-14
 -1      3903 2.00025E+01-1.55851E-02-1.15573E-05-8.53322E-03 3.41006E-13-7.13423E-14
 -1      3904 1.99989E+01-7.81690E-03 9.98630E-05-2.41888E-03 2.53020E-13 1.07184E-13
 -1      3905 1.99979E+01-5.55411E-03-1.11675E-05-1.97003E-03 3.04671E-13 4.48499E-14
 -1      3906 1.99991E+01-8.43820E-03 3.61770E-06-4.29377E-03 2.60748E-13 3.92520E-14
 -1      3907 1.99976E+01-3.72807E-03 5.38591E-05-1.15758E-03 9.65737E-14 6.60222E-14
 -1      3908 1.99973E+01-2.42169E-03-1.09926E-05-9.47934E-04 1.10094E-13 1.16511E-13
 -1      3909 1.99977E+01-4.15243E-03 1.03337E-05-1.97274E-03 2.60614E-13 2.29326E-13
 -1      3910 1.99973E+01-1.38366E-03 2.75296E-05-5.45006E-04 2.49138E-13 1.30963E-13
 -1      3911 1.99973E+01-6.45388E-04-2.91507E-06-4.65439E-04 3.22196E-13 2.23135E-13
 -1      3912 1.99973E+01-1.67566E-03 2.61952E-06-7.88624E-04 2.55531E-13 1.40593E-13
 -1      3913 1.95872E+01-3.46231E-02 1.20315E-02 1.70707E+00 1.18232E-13-8.73868E-14
 -1      3914 1.97153E+01 2.76094E-02 1.93321E-02 1.33979E+00 8.96553E-14-4.93451E-14
 -1      3915 2.03659E+01 9.23982E-01 3.93064E-03 1.04270E-01 1.08040E-13-2.49882E-13
 -1      3916 2.03174E+01 1.14685E+00-2.13116E-03 7.47519E-02 1.03187E-13-2.71477E-13
 -1      3917 2.33108E+01 3.54228E+00-3.25310E-03 1.09177E+00-6.17978E-14 1.30436E-14
 -1      3918 2.34131E+01 2.95515E+00-3.58937E-02 1.55990E+00-1.49906E-13 2.76357E-14
 -1      3919 1.99817E+01 2.25906E-02 7.76862E-05-1.35255E-02-1.14482E-13 9.16939E-14
 -1      3920 1.99735E+01 2.92217E-02-6.66729E-04-1.82144E-02-7.86429E-14 1.27789E-13
 -1      3921 1.99902E+01 1.28904E-02 3.43224E-05-5.93766E-03-2.84637E-13 1.75731E-13
 -1      3922 1.99856E+01 1.69555E-02-3.84216E-04-8.39768E-03-1.49023E-13 1.41295E-13
 -1      3923 1.99852E+01 1.67030E-02 2.74219E-04-1.53174E-02-1.17566E-13-3.22029E-14
 -1      3924 1.99949E+01 7.13629E-03 1.40304E-05-1.91129E-03 3.93345E-14 1.55415E-13
 -1      3925 1.99925E+01 9.52473E-03-2.17318E-04-3.13793E-03-1.54223E-13 1.09674E-13
 -1      3926 1.99917E+01 9.62672E-03 1.61479E-04-6.95636E-03-2.08228E-13-7.97742E-14
 -1      3927 2.04504E+01 2.77614E-01 1.15065E-03 3.96226E-02 2.08685E-14-1.98458E-13
 -1      3928 2.04602E+01 1.50469E-01-8.01803E-05 7.71223E-02 4.86426E-15-1.72504E-13
 -1      3929 2.04772E+01 1.21337E-01-1.13039E-03 1.04210E-01 1.01008E-14-2.05336E-13
 -1      3930 1.99974E+01 3.86717E-03 4.70531E-06 1.04948E-04 1.60947E-13 7.46365E-14
 -1      3931 1.99961E+01 5.20818E-03-1.18567E-04-4.53845E-04 1.93395E-13 2.12613E-13
 -1      3932 1.99954E+01 5.40798E-03 9.05277E-05-2.47334E-03 1.01119E-13-8.50893E-14
 -1      3933 1.99986E+01 2.10699E-03 2.08076E-06 1.01760E-03 3.77549E-13-2.95634E-14
 -1      3934 1.99981E+01 2.81646E-03-6.05050E-05 8.09776E-04 2.58064E-13-1.09176E-14
 -1      3935 1.99974E+01 3.01046E-03 4.84099E-05-2.02163E-04 3.03551E-13-2.32318E-13
 -1      3936 1.99993E+01 1.21361E-03-4.23829E-06 1.33167E-03 1.55406E-13 2.04995E-14
 -1      3937 1.99990E+01 1.57922E-03-2.55182E-05 1.30469E-03 2.72292E-13-2.52163E-14
 -1      3938 1.99985E+01 1.73979E-03 2.57625E-05 8.42152E-04 3.14984E-13-4.75289E-13
 -1      3939 2.41573E+01 4.05346E+00 1.45105E-02 1.32177E+00-3.55879E-14-1.80442E-13
 -1      3940 1.99975E+01-2.48795E-04-5.57254E-06-2.09849E-04 3.56318E-13 5.21993E-14
 -1      3941 2.42870E+01 2.70296E+00 1.09102E-02 1.87271E+00-6.85459E-14-5.55771E-14
 -1      3942 2.35066E+01 2.21295E+00 4.30902E-03 1.77004E+00-1.75083E-13 1.18841E-13
 -1      3943 2.36091E+01 1.40975E+00-3.47466E-02 1.93012E+00-1.14877E-13 1.41168E-13
 -1      3944 2.50511E+01 2.15361E+00-4.17580E-02 2.07460E+00-7.62385E-14-2.66877E-13
 -1      3945 1.93359E+01-5.37519E-01 1.93394E-02-3.39128E+00 1.62442E-13 2.92506E-13
 -1      3946 2.09196E+01-1.54855E+00-3.64369E-02-3.19955E+00 1.46845E-13 2.26898E-13
 -1      3947 1.93870E+01-2.32304E-01 3.56386E-02-2.80867E+00 1.60489E-13 2.87037E-13
 -1      3948 1.99670E+01 3.82905E-02 1.64219E-04-2.73451E-02-3.90008E-15 2.40029E-13
 -1      3949 1.99526E+01 4.87540E-02-1.10226E-03-3.60120E-02 5.00379E-14 3.07432E-13
 -1      3950 1.99741E+01 2.79968E-02 4.45347E-04-3.03186E-02-1.59970E-14 1.18091E-13
 -1      3951 2.03056E+01 3.39035E-01-2.71481E-03 6.06596E-02 7.73836E-14-1.55750E-13
 -1      3952 2.03407E+01 4.31680E-01 1.37840E-03 7.09498E-02 9.78520E-14-1.67284E-13
 -1      3953 2.03609E+01 9.47788E-01 2.41266E-03-1.47263E-01-3.14817E-14-3.06548E-13
 -1      3954 2.03803E+01 8.08068E-01-1.22939E-03-9.16222E-02-3.01615E-14-2.85182E-13
 -1      3955 2.03221E+01 1.15827E+00-1.15634E-03-1.31963E-01-6.96798E-15-3.18919E-13
 -1      3956 1.99867E+01-5.33785E-01 1.66097E-02 2.40335E+00 2.09236E-13-1.04830E-13
 -1      3957 2.04184E+01 5.81860E-01 8.70992E-04-4.70241E-02-5.83264E-15-2.47979E-13
 -1      3958 2.04308E+01 4.20186E-01-1.00587E-03 4.62169E-03 2.36432E-14-2.18522E-13
 -1      3959 2.04509E+01 3.87812E-01 2.60336E-04 3.50043E-02 3.77654E-14-2.48066E-13
 -1      3960 1.99419E+01 6.28666E-02 3.25411E-04-5.17497E-02 9.08663E-14 2.29539E-13
 -1      3961 1.99177E+01 7.85423E-02-1.80551E-03-6.72785E-02-2.06834E-14 2.12840E-13
 -1      3962 1.99557E+01 4.55542E-02 7.69601E-04-5.66644E-02 5.97288E-14 2.57112E-13
 -1      3963 1.92907E+01 5.72209E-01 2.00365E-03-3.92538E-01-8.34836E-16 8.87753E-14
 -1      3964 1.90540E+01 6.66722E-01-1.45569E-02-5.09145E-01-8.98076E-14 1.28878E-13
 -1      3965 1.91410E+01 5.80536E-01 8.08755E-03-8.04227E-01-7.85617E-14 4.16950E-13
 -1      3966 1.94357E+01 4.45803E-01 6.47881E-03-4.68471E-01-8.85038E-14 2.33988E-13
 -1      3967 1.92317E+01 3.94812E-01 1.55637E-02-1.27225E+00-6.84758E-14 3.24653E-13
 -1      3968 1.90059E+01 3.65093E-01-6.75142E-03-1.62120E+00 1.91467E-14 3.18562E-13
 -1      3969 1.97433E+01 2.18025E-01 2.66575E-03-2.85263E-01 1.29809E-13-1.01007E-13
 -1      3970 1.96486E+01 2.52253E-01-6.76014E-03-3.65291E-01 5.01399E-14 1.71515E-14
 -1      3971 1.99993E+01 9.17905E-04-2.80736E-06 1.30192E-03 3.14970E-14-8.48806E-15
 -1      3972 1.99993E+01 1.04896E-03 1.59594E-06 1.36914E-03 1.23971E-13-4.98198E-14
 -1      3973 1.99988E+01 1.10741E-03-1.18629E-05 1.14241E-03 1.33795E-13-4.31678E-13
 -1      3974 2.48854E+01-1.57567E+00 3.02207E-03 5.19809E-01-8.99975E-14-3.71981E-13
 -1      3975 2.53273E+01-1.09880E+00-2.75624E-02 1.06346E+00 2.45474E-15-2.65286E-13
 -1      3976 1.99260E+01 7.02823E-02 1.02023E-03-1.01237E-01 5.88865E-14 2.56394E-13
 -1      3977 1.99013E+01 9.91926E-02 6.57432E-04-9.38878E-02-8.36424E-14 3.35263E-13
 -1      3978 1.98618E+01 1.21400E-01-2.90057E-03-1.21466E-01 4.48825E-14 2.72911E-13
 -1      3979 2.32035E+01 3.81956E+00-4.54778E-02 7.46773E-01-7.24160E-15-1.16337E-14
 -1      3980 2.33428E+01-1.28567E+00-9.22904E-03-8.19813E-01 3.16777E-14 1.07666E-13
 -1      3981 2.39790E+01-1.39095E+00 1.13569E-02-7.43302E-01 6.45794E-14 2.22644E-13
 -1      3982 2.45575E+01-1.94459E+00 6.59800E-03-1.41241E-01 1.01977E-13 2.85958E-13
 -1      3983 2.31378E+01-1.44811E+00 8.48007E-03-5.69962E-01 5.85706E-14 8.86362E-14
 -1      3984 2.02296E+01 2.10626E-01-4.06873E-03 9.09971E-02 7.98134E-14-1.26544E-13
 -1      3985 2.02841E+01 2.68657E-01 1.67271E-03 7.49685E-02 8.58629E-14-1.41487E-13
 -1      3986 2.03368E+01 3.04542E-01 2.31391E-03 9.79912E-02 6.26148E-14-1.27959E-13
 -1      3987 2.00040E+01-2.14136E-01-7.43296E-03 1.24417E+00 1.02440E-13-6.01316E-14
 -1      3988 1.96669E+01 7.74152E-02-8.10139E-03 1.07268E+00 4.33709E-14-1.30530E-14
 -1      3989 1.98148E+01 1.11085E-01 1.07700E-02 8.25743E-01 5.31813E-14-5.89638E-14
 -1      3990 2.37992E+01-2.01660E+00-1.28540E-02 2.66099E-01 1.19229E-13 2.41232E-13
 -1      3991 2.03222E+01 1.14491E+00-1.51007E-03 1.65972E-02 6.88896E-14-2.93632E-13
 -1      3992 2.32048E+01-1.67150E+00-7.13220E-03-1.74527E-01 5.24336E-14 1.38212E-13
 -1      3993 1.98380E+01 1.50655E-01 1.36623E-03-1.65691E-01 1.18689E-13 2.93389E-14
 -1      3994 1.97752E+01 1.80221E-01-4.49399E-03-2.13373E-01 8.41488E-14-1.23422E-13
 -1      3995 1.98162E+01 1.42978E-01 1.85651E-03-2.96691E-01 9.81485E-14 2.63323E-14
 -1      3996 1.98809E+01 1.03001E-01 1.27868E-03-1.75742E-01-4.48354E-14 2.14082E-13
 -1      3997 2.03140E+01 1.19140E+00-2.85387E-03-6.75633E-02 3.93357E-14-3.12379E-13
 -1      3998 2.00917E+01 2.16662E-01 2.04185E-03 1.12291E-01 7.98655E-14-1.55517E-13
 -1      3999 1.99835E+01 1.26444E-01-6.32920E-03 3.59114E-01 3.06584E-14-1.00708E-13
 -1      4000 2.00861E+01 1.37184E-01 4.17415E-03 2.64216E-01 4.94025E-14-1.20532E-13
 -1      4001 1.99976E+01 7.44756E-05 7.22125E-06-3.54442E-05 3.50261E-13-2.40563E-13
 -1      4002 1.99978E+01 2.25761E-04 1.17533E-05 1.65526E-04 2.58314E-13-2.55062E-13
 -1      4003 1.99974E+01-5.41231E-04-2.45545E-05-2.97640E-04 3.46633E-13-2.40554E-13
 -1      4004 2.16637E+01-1.72459E+00 2.69428E-02-2.89561E+00 4.42363E-14 1.03311E-13
 -1      4005 2.22979E+01-2.04503E+00-2.45953E-02-2.46910E+00-2.55120E-14 4.67161E-14
 -1      4006 2.11616E+01-1.37171E+00 6.22680E-03-2.63122E+00 9.98225E-14 1.38319E-13
 -1      4007 2.48963E+01 1.24631E+00-7.62456E-03 1.97177E+00-1.72517E-13-2.04674E-13
 -1      4008 1.99993E+01 8.13706E-04-1.07276E-06 1.23659E-03-3.61041E-14 3.87344E-15
 -1      4009 1.99993E+01 8.71186E-04 4.18136E-06 1.30096E-03-7.94777E-14 1.06569E-13
 -1      4010 1.99989E+01 9.24742E-04 1.98291E-06 1.16029E-03-8.03981E-14-2.21885E-13
 -1      4011 1.99990E+01 8.47114E-04-4.70078E-06 1.12821E-03-3.23046E-16-3.28478E-13
 -1      4012 2.23167E+01-1.93779E+00 1.01269E-02 2.12272E+00 2.11335E-13 9.59866E-14
 -1      4013 2.15401E+01-1.63281E+00-3.20279E-02 2.29607E+00 2.49971E-13 2.73327E-15
 -1      4014 1.99981E+01 5.77140E-04-1.61901E-05 5.68919E-04 1.25987E-13-3.63089E-13
 -1      4015 1.99984E+01 7.65142E-04 6.04184E-06 7.45044E-04 1.24951E-13-2.93674E-13
 -1      4016 1.99987E+01 7.77400E-04-5.18113E-07 9.13914E-04 1.55568E-13-2.75315E-13
 -1      4017 1.99978E+01 3.02848E-04 1.77965E-07 2.78736E-04 1.06989E-13-1.02298E-13
 -1      4018 2.03400E+01 5.36279E-01-3.24566E-03 7.57963E-02 1.13480E-13-2.00548E-13
 -1      4019 2.03549E+01 6.68316E-01 1.05697E-03 1.09427E-01 1.32291E-13-2.00711E-13
 -1      4020 2.03605E+01 7.67972E-01 7.71622E-04 1.11848E-01 1.17548E-13-1.98591E-13
 -1      4021 2.03668E+01 5.02026E-01 1.38350E-03 8.51913E-02 8.62481E-14-1.54667E-13
 -1      4022 2.03743E+01 7.49834E-01-2.24330E-03 8.37149E-02 9.38875E-14-2.25730E-13
 -1      4023 1.91724E+01 2.20528E-01 2.53491E-02-1.96699E+00 6.21520E-14 4.14174E-13
 -1      4024 1.90072E+01 8.04912E-02 3.86386E-03-2.42130E+00 1.27135E-13 3.49269E-13
 -1      4025 2.00529E+01-7.03322E-01-2.54250E-02-2.52932E+00 8.62533E-14 2.56368E-13
 -1      4026 1.95869E+01-1.25960E-01-1.47464E-02-1.85126E+00 5.13500E-14 3.65425E-13
 -1      4027 2.35041E+01-2.44425E+00-1.78092E-02-1.89779E+00-9.78604E-14-9.11517E-14
 -1      4028 2.46115E+01-2.68715E+00 1.55265E-02-1.59319E+00-9.32655E-14-2.54508E-13
 -1      4029 2.48228E+01-2.34036E+00 1.10691E-02-7.45470E-01-1.69111E-13-4.55405E-13
 -1      4030 2.04003E+01 7.66193E-01 1.01751E-03-4.51003E-02 2.53184E-15-2.63791E-13
 -1      4031 2.44639E+01 1.02767E+00 1.93290E-02 1.94779E+00-1.79089E-13-5.14970E-14
 -1      4032 1.98240E+01 1.17752E-01-8.00516E-03 6.40336E-01 6.14031E-14-8.40787E-14
 -1      4033 1.99525E+01 1.27795E-01 6.60429E-03 4.83099E-01 4.37773E-14-7.72362E-14
 -1      4034 2.01039E+01 1.70121E-02-6.32046E-04 4.84669E-01 2.13694E-14-9.30964E-14
 -1      4035 2.00285E+01-6.05643E-02-2.51207E-03 7.95622E-01 5.87651E-14-7.93865E-14
 -1      4036 2.29130E+01-2.05491E+00 3.93617E-04 1.42338E+00 2.01423E-13 9.61494E-14
 -1      4037 2.10038E+01-1.14497E+00 2.81218E-02 2.33973E+00 2.51662E-13-5.11077E-14
 -1      4038 1.99020E+01-4.28073E-01-1.94795E-02 1.93367E+00 1.92986E-13-9.18742E-14
 -1      4039 2.04191E+01-6.56716E-01-5.68225E-03 1.70853E+00 2.00473E-13-2.97973E-14
 -1      4040 2.14414E+01-1.27574E+00 1.96906E-02 1.79286E+00 2.19948E-13 3.80926E-14
 -1      4041 1.97291E+01 1.80496E-01 2.09365E-03-4.90364E-01 1.25121E-13 1.79497E-13
 -1      4042 1.96099E+01 2.96221E-01 4.91418E-03-4.79825E-01 3.68775E-15 1.28439E-13
 -1      4043 1.94705E+01 3.29534E-01-9.67688E-03-6.14404E-01 1.66789E-14 2.26787E-13
 -1      4044 2.46836E+01-2.16590E+00-2.28769E-02-2.69667E-01-1.29042E-13-5.16200E-13
 -1      4045 2.40890E+01-1.52350E+00 1.17400E-02 4.76803E-01-1.94783E-14-3.06638E-13
 -1      4046 2.37252E+01-1.71195E+00 3.28784E-02 1.27974E-01 2.43558E-14-2.83200E-13
 -1      4047 2.39367E+01-2.14098E+00 1.51344E-02-7.25983E-01-1.57750E-13-5.54644E-13
 -1      4048 2.03710E+01 9.59929E-01 1.57387E-03-8.35447E-03 4.81792E-14-2.89026E-13
 -1      4049 1.99962E+01 3.11672E-03 7.62096E-05-2.61013E-03 2.03046E-13-3.66790E-13
 -1      4050 1.99944E+01 3.94501E-03-2.33838E-04-4.29245E-03 5.25116E-14-3.29152E-13
 -1      4051 2.05358E+01-2.04780E-01 8.01810E-04 2.46762E-01 7.02457E-15-1.37876E-13
 -1      4052 2.05825E+01-2.96307E-01 3.78874E-03 2.86952E-01 1.70203E-14-1.24633E-13
 -1      4053 2.06255E+01-3.95815E-01 1.41566E-03 3.44066E-01-2.39024E-14-1.09965E-13
 -1      4054 2.07078E+01-4.95534E-01 4.47776E-03 3.84049E-01-3.18005E-14-1.34514E-13
 -1      4055 2.05536E+01-3.14261E-01-5.80449E-03 3.60741E-01 3.57787E-18-1.60640E-13
 -1      4056 2.07943E+01-6.06867E-01 3.27573E-03 4.55705E-01-2.88206E-14-1.37777E-13
 -1      4057 2.09297E+01-7.31521E-01 4.93902E-03 4.93544E-01-6.27630E-15-1.64276E-13
 -1      4058 2.06819E+01-5.07518E-01-2.63379E-03 5.09248E-01-4.80739E-14-1.65672E-13
 -1      4059 2.10895E+01-8.73599E-01 5.93166E-03 5.63651E-01 3.35799E-14-1.43142E-13
 -1      4060 2.12874E+01-1.02405E+00 3.57638E-03 5.80587E-01 1.78476E-14-1.38046E-13
 -1      4061 2.09154E+01-7.75810E-01-1.00551E-02 6.65287E-01 6.24300E-15-2.02553E-13
 -1      4062 2.15470E+01-1.17891E+00 1.19192E-02 6.31534E-01 3.86039E-14-9.85489E-14
 -1      4063 2.17991E+01-1.36794E+00-5.51108E-03 6.15912E-01 7.83629E-14-5.42431E-14
 -1      4064 2.13233E+01-1.09303E+00-5.09074E-03 8.36157E-01 8.64003E-14-1.06190E-13
 -1      4065 2.31201E+01-1.68809E+00 1.14359E-03-1.15279E-01 3.92394E-15-4.44587E-13
 -1      4066 2.27431E+01-1.62081E+00 2.82088E-02-3.21887E-01-1.17927E-14-5.35555E-13
 -1      4067 2.32081E+01-1.95836E+00-4.86420E-02-5.25755E-01-1.16912E-13-6.82290E-13
 -1      4068 2.22525E+01-1.48533E+00 4.90600E-03-4.26729E-01-7.20183E-14-4.38828E-13
 -1      4069 2.18891E+01-1.34221E+00 1.25063E-02-5.26221E-01-4.74052E-14-5.12841E-13
 -1      4070 2.22550E+01-1.66544E+00-3.58820E-02-7.79637E-01 1.08715E-14-5.46226E-13
 -1      4071 2.15414E+01-1.15548E+00 8.32585E-03-5.15279E-01 9.18006E-14-6.05739E-13
 -1      4072 2.12393E+01-1.00190E+00 5.28279E-03-5.33496E-01 1.17755E-13-6.82291E-13
 -1      4073 2.14528E+01-1.24066E+00-3.17889E-02-7.91986E-01 4.07866E-14-4.60188E-13
 -1      4074 2.10128E+01-8.42695E-01 7.36567E-03-4.82213E-01 1.11182E-13-6.85883E-13
 -1      4075 2.07848E+01-7.11123E-01 5.82315E-04-4.59573E-01 7.79830E-14-5.55704E-13
 -1      4076 2.09256E+01-8.69724E-01-1.86864E-02-6.75860E-01 7.94629E-14-5.32259E-13
 -1      4077 2.06435E+01-5.85528E-01 6.11685E-03-3.94052E-01 2.19603E-14-5.50830E-13
 -1      4078 2.04804E+01-4.84928E-01-1.69453E-03-3.56252E-01 7.21695E-14-3.49791E-13
 -1      4079 2.05632E+01-5.78466E-01-1.08799E-02-5.25890E-01 3.94424E-14-6.49538E-13
 -1      4080 2.03964E+01-3.93911E-01 4.38295E-03-2.95874E-01 1.84488E-13-2.72785E-13
 -1      4081 2.02859E+01-3.21413E-01-2.30284E-03-2.57148E-01 1.78390E-13-1.66956E-13
 -1      4082 2.03354E+01-3.72465E-01-5.16695E-03-3.81657E-01 1.61308E-13-4.07334E-13
 -1      4083 2.02374E+01-2.58552E-01 2.98773E-03-2.08741E-01 6.56666E-14-1.40816E-13
 -1      4084 2.01652E+01-2.08437E-01-2.17909E-03-1.75866E-01 2.20812E-13-2.68258E-13
 -1      4085 2.01947E+01-2.34780E-01-2.05878E-03-2.62880E-01 1.44566E-13-3.58972E-13
 -1      4086 2.01379E+01-1.66393E-01 1.97045E-03-1.40047E-01 1.80828E-13-4.74957E-13
 -1      4087 2.00933E+01-1.32231E-01-1.20715E-03-1.14591E-01-7.56293E-15-5.39972E-13
 -1      4088 2.01098E+01-1.45241E-01-4.00765E-04-1.73235E-01 7.58214E-14-5.10379E-13
 -1      4089 2.00760E+01-1.05563E-01 7.71877E-04-9.03010E-02-1.12662E-13-4.70929E-13
 -1      4090 2.00488E+01-8.22578E-02-1.13349E-03-7.18300E-02-1.98346E-13-5.31203E-13
 -1      4091 2.00587E+01-8.95686E-02-2.82875E-04-1.09802E-01-1.03740E-13-4.24867E-13
 -1      4092 2.00408E+01-6.53452E-02 6.76461E-04-5.54102E-02-4.10081E-14-5.66942E-13
 -1      4093 2.00240E+01-5.09101E-02-9.08275E-04-4.32478E-02 3.16878E-16-5.05598E-13
 -1      4094 2.00306E+01-5.41462E-02 2.28731E-04-6.68350E-02 1.94322E-15-2.79125E-13
 -1      4095 2.00200E+01-3.96367E-02 4.78583E-04-3.27118E-02-1.47845E-14-5.62418E-13
 -1      4096 2.00101E+01-3.04901E-02-6.02774E-04-2.49029E-02 3.98884E-14-4.32969E-13
 -1      4097 2.00139E+01-3.20666E-02 2.51185E-04-3.93730E-02 3.01807E-14-4.87581E-13
 -1      4098 2.00083E+01-2.34830E-02 2.77954E-04-1.84400E-02 1.64671E-13-3.07386E-13
 -1      4099 2.00027E+01-1.77329E-02-3.86173E-04-1.36185E-02 2.89619E-13-1.38986E-13
 -1      4100 2.00050E+01-1.86184E-02 2.23143E-04-2.20348E-02 2.05890E-13-2.57014E-13
 -1      4101 2.00020E+01-1.34130E-02 1.60544E-04-9.82410E-03 3.30568E-13-1.61347E-13
 -1      4102 1.99991E+01-9.86391E-03-2.37791E-04-6.98439E-03 3.81023E-13-7.13772E-14
 -1      4103 2.00004E+01-1.04515E-02 1.64336E-04-1.16525E-02 3.80009E-13-2.92786E-13
 -1      4104 1.99990E+01-7.25832E-03 8.52487E-05-4.84622E-03 2.74526E-13-7.12045E-14
 -1      4105 1.99976E+01-5.10803E-03-1.31479E-04-3.26518E-03 2.63931E-13-9.57945E-14
 -1      4106 1.99982E+01-5.52768E-03 1.08625E-04-5.68512E-03 3.45552E-13-7.96622E-14
 -1      4107 1.99976E+01-3.54870E-03 3.29746E-05-2.14370E-03 3.16858E-13-1.20959E-13
 -1      4108 1.99972E+01-2.24678E-03-5.82097E-05-1.28612E-03 1.29357E-13-8.03287E-14
 -1      4109 1.99975E+01-2.56496E-03 7.36849E-05-2.39869E-03 2.67188E-13-2.70663E-13
 -1      4110 1.99974E+01-1.27750E-03 3.65824E-06-7.36589E-04 1.29854E-13-9.57704E-14
 -1      4111 2.04095E+01 7.24742E-01 4.44402E-05 2.60353E-02 4.15574E-14-2.62088E-13
 -1      4112 2.04073E+01 6.90793E-01 2.86663E-04 6.08388E-02 5.07168E-14-2.35917E-13
 -1      4113 2.04389E+01 5.07841E-01-1.01281E-03 3.06917E-02 2.88602E-14-2.63920E-13
 -1      4114 2.04102E+01 5.56561E-01 1.99465E-03 8.41178E-02 6.18723E-14-2.03413E-13
 -1      4115 2.04712E+01 2.06582E-01-9.72881E-05 9.53654E-02 4.45608E-14-2.48353E-13
 -1      4116 2.04849E+01 9.25550E-02 1.09018E-03 1.30687E-01 2.19608E-14-2.26395E-13
 -1      4117 1.99898E+01 9.37687E-03 2.66202E-04-1.52467E-02-1.42301E-13 3.37158E-14
 -1      4118 1.99842E+01 1.16681E-02-6.83728E-04-2.10897E-02-4.40258E-14 6.61777E-14
 -1      4119 1.99975E+01 1.83379E-03 3.36721E-05-3.64081E-04 4.46821E-13-5.56047E-13
 -1      4120 1.99966E+01 2.29211E-03-1.29194E-04-1.17830E-03 4.47098E-13-4.02255E-13
 -1      4121 1.99965E+01 1.75456E-03 8.35621E-05-2.61115E-03 3.90014E-13-4.99183E-13
 -1      4122 1.99983E+01 1.20831E-03 1.97203E-05 7.10106E-04 2.33043E-13-3.44370E-13
 -1      4123 1.99979E+01 1.41797E-03-5.21889E-05 3.49222E-04 2.74681E-13-4.68689E-13
 -1      4124 1.99975E+01 1.11679E-03 2.77735E-05-4.26871E-04 2.98714E-13-4.10423E-13
 -1      4125 2.55652E+01-3.43986E-01-1.37649E-02 1.46568E+00-9.47159E-14-3.14132E-13
 -1      4126 1.99938E+01 5.43285E-03 1.45170E-04-7.04114E-03-8.18885E-14-1.57840E-13
 -1      4127 1.99906E+01 6.85516E-03-4.06335E-04-1.02519E-02-1.59799E-13-5.26050E-14
 -1      4128 1.99924E+01 4.51571E-03 2.16690E-04-1.50528E-02-7.71925E-14 1.06120E-13
 -1      4129 1.99949E+01 2.79595E-03 1.46918E-04-6.97702E-03 5.67637E-14-2.65530E-13
 -1      4130 2.01212E+01 1.50780E-01-4.26056E-03 1.85600E-01 7.74700E-14-1.24823E-13
 -1      4131 2.02007E+01 1.77343E-01 3.55706E-03 1.38022E-01 9.39674E-14-1.22760E-13
 -1      4132 2.02735E+01 1.56108E-01-2.01770E-03 1.56329E-01 9.14965E-14-1.14353E-13
 -1      4133 1.99831E+01 1.57234E-02 4.77329E-04-2.98084E-02-3.94907E-14 8.14208E-14
 -1      4134 1.99738E+01 1.91756E-02-1.08367E-03-4.01070E-02-2.55955E-15 1.63587E-13
 -1      4135 1.99884E+01 7.12201E-03 2.93577E-04-2.93711E-02-4.39188E-14 3.51246E-13
 -1      4136 1.99725E+01 2.47427E-02 6.96512E-04-5.47884E-02 1.96014E-14 6.83703E-14
 -1      4137 1.99583E+01 3.01914E-02-1.38485E-03-7.28410E-02 3.34420E-14 6.92377E-14
 -1      4138 1.99821E+01 1.06045E-02 3.13295E-04-5.37843E-02-6.76167E-14 9.99954E-14
 -1      4139 2.32065E+01-2.02765E+00 1.99693E-03 8.37322E-01 1.20521E-13 1.30754E-13
 -1      4140 2.23476E+01-1.79358E+00-1.55268E-02 1.25591E+00 1.28985E-13 3.87967E-14
 -1      4141 2.01923E+01 8.02813E-02 2.07329E-04 2.79136E-01 6.78369E-14-1.31770E-13
 -1      4142 2.04934E+01-1.19830E-02 5.44785E-04 1.67351E-01 4.56110E-15-1.86271E-13
 -1      4143 2.05190E+01-1.10346E-01 2.57708E-03 2.04054E-01 6.77960E-15-1.62003E-13
 -1      4144 2.04957E+01-1.33283E-01-5.46584E-03 2.45348E-01 1.89572E-14-1.75769E-13
 -1      4145 2.04561E+01 3.60686E-01 1.50076E-04 7.07473E-02 3.66884E-14-2.67468E-13
 -1      4146 2.04044E+01 4.30011E-01-1.08261E-03 8.16231E-02 5.35039E-14-1.85138E-13
 -1      4147 1.99984E+01 9.83448E-04 8.62702E-07 7.60258E-04 1.29918E-13-2.85454E-13
 -1      4148 1.94343E+01 3.69554E-01 8.94722E-03-7.91540E-01-9.80518E-14 2.80936E-13
 -1      4149 1.92445E+01 3.85453E-01-1.16970E-02-1.01118E+00-1.05430E-13 2.71463E-13
 -1      4150 1.95223E+01 1.43995E-01-2.02379E-03-1.24413E+00-1.05556E-13 1.53311E-13
 -1      4151 1.96255E+01 1.94561E-01 1.55332E-03-7.91219E-01-1.18487E-15 1.72776E-13
 -1      4152 2.21103E+01-1.54274E+00-4.65094E-03 8.09841E-01 1.35336E-13-2.32505E-14
 -1      4153 2.23651E+01-1.58881E+00 1.52823E-02 5.08706E-01 1.04349E-13 1.98569E-14
 -1      4154 2.27112E+01-1.74014E+00-5.04417E-03 3.69827E-01 6.98471E-14 1.07522E-13
 -1      4155 2.02919E+01-4.59812E-01-1.23563E-02 1.30924E+00 1.21235E-13-6.49530E-14
 -1      4156 2.03204E+01-3.25831E-01 1.28836E-02 1.05825E+00 5.44461E-14-4.01729E-14
 -1      4157 2.29321E+01-2.12486E+00 2.69257E-02-1.96345E+00-6.82310E-14-7.75456E-14
 -1      4158 2.33163E+01-2.22553E+00-2.53266E-02-1.37686E+00-1.10841E-13-4.54573E-13
 -1      4159 2.22023E+01-1.81634E+00-1.18302E-02-1.96038E+00 2.73856E-14-1.02987E-13
 -1      4160 2.04519E+01 3.20834E-01-1.46360E-03 9.34251E-02 5.50405E-14-2.49654E-13
 -1      4161 2.49285E+01 3.72525E-01-5.25655E-02 1.85533E+00-2.03899E-13-2.44171E-13
 -1      4162 1.98700E+01 8.06374E-02 6.61090E-03-4.47300E-01 1.26527E-13 2.39034E-15
 -1      4163 1.98041E+01 6.91284E-02-7.15935E-03-5.68611E-01 1.36241E-13 7.93313E-14
 -1      4164 2.04732E+01 7.38522E-02-4.25374E-04 1.60979E-01 4.21604E-14-2.39231E-13
 -1      4165 2.07296E+01-7.86807E-01-1.77695E-04 1.46564E+00 1.41450E-13-2.82897E-14
 -1      4166 1.98526E+01 7.26948E-02-5.58871E-03-3.53518E-01 1.54642E-13 5.93860E-14
 -1      4167 1.99457E+01-1.46271E-02-3.02268E-03-4.25482E-01 8.14506E-14-3.96800E-14
 -1      4168 1.99030E+01 7.19186E-02 3.98265E-03-2.75954E-01 1.75799E-14 1.41629E-13
 -1      4169 1.99745E+01 1.60471E-02 1.09084E-03-9.35822E-02 3.03288E-14-3.44609E-14
 -1      4170 1.99553E+01 3.84298E-02 1.06298E-03-9.69048E-02 9.52526E-14 7.64221E-14
 -1      4171 1.99344E+01 4.46347E-02-1.97823E-03-1.26316E-01 1.16446E-13 7.21842E-14
 -1      4172 1.98652E+01-1.90313E-02 1.64780E-02-1.08172E+00-1.41181E-13 3.29722E-14
 -1      4173 1.98158E+01-1.01825E-01 4.60427E-04-1.35197E+00-8.89963E-14 8.68320E-14
 -1      4174 2.02585E+01-5.18052E-01-3.13711E-02-1.38834E+00 6.25281E-15 3.15529E-14
 -1      4175 2.00330E+01-2.64880E-01 1.65739E-02-1.56685E+00 5.59112E-14 1.18296E-13
 -1      4176 2.01757E+01-4.88403E-01 5.44967E-03-1.86233E+00 6.62667E-14 1.20544E-13
 -1      4177 2.04304E+01-6.85644E-01 2.06620E-02-2.09962E+00 3.62081E-14 1.99817E-13
 -1      4178 2.07868E+01-1.03108E+00 1.71138E-02-2.39404E+00 1.06882E-13 1.20010E-13
 -1      4179 2.13216E+01-1.37689E+00-1.13607E-02-2.20785E+00 8.57263E-14 1.06605E-13
 -1      4180 2.06936E+01-9.44606E-01-4.22413E-02-1.78681E+00 7.58859E-14 1.34246E-15
 -1      4181 2.18466E+01-1.46195E+00 1.33157E-02 1.30264E+00 1.80729E-13-2.08282E-14
 -1      4182 2.02550E+01-1.86071E-02-4.44057E-03 3.40271E-01 1.62931E-14-9.59948E-14
 -1      4183 2.03099E+01 3.37447E-02 4.99573E-03 2.59506E-01 8.04567E-14-1.14536E-13
 -1      4184 2.32524E+01-1.91640E+00 9.60935E-03 4.65077E-01 7.42306E-14 1.62693E-13
 -1      4185 2.02125E+01-1.10312E-01-4.23920E-03 5.59664E-01 2.74980E-14-8.93025E-14
 -1      4186 2.02662E+01-5.97426E-02 6.03360E-03 4.35840E-01 1.68632E-14-8.90200E-14
 -1      4187 2.03594E+01-1.32567E-01-4.42098E-03 4.03464E-01 1.61886E-14-8.59211E-14
 -1      4188 2.12671E+01-1.17282E+00-1.10053E-02 1.35952E+00 1.86171E-13-2.99838E-14
 -1      4189 2.03873E+01 2.86547E-01-8.25206E-04 1.10751E-01 5.59819E-14-1.60811E-13
 -1      4190 2.04330E+01 3.28277E-01 7.73009E-04 1.05393E-01 5.21155E-14-2.11241E-13
 -1      4191 2.04440E+01 1.83508E-01 3.09107E-04 1.31487E-01 7.71168E-14-2.27884E-13
 -1      4192 2.03665E+01 2.06712E-01 1.49470E-03 1.27399E-01 5.21551E-14-1.47639E-13
 -1      4193 2.33661E+01-2.00248E+00 1.12964E-02-9.02457E-01-1.44298E-13-5.48761E-13
 -1      4194 1.98459E+01 6.30725E-02 1.05813E-02-7.06043E-01 7.16585E-14 7.30521E-14
 -1      4195 1.97727E+01 2.40405E-02-7.58620E-03-8.89136E-01-7.20442E-14 5.95178E-14
 -1      4196 2.00242E+01-2.14698E-01-1.53478E-02-9.93756E-01-4.12561E-14 5.47698E-14
 -1      4197 2.04620E+01-2.07752E-01 1.57067E-03 3.93240E-01 1.21189E-14-1.53723E-13
 -1      4198 2.04974E+01-2.97618E-01 1.38415E-03 4.71020E-01-1.13328E-14-1.58850E-13
 -1      4199 1.99976E+01 4.38506E-04 2.09057E-05-3.24649E-04 9.47147E-14-1.42243E-13
 -1      4200 1.99971E+01 4.83649E-04-3.29333E-05-1.10192E-03 2.55701E-13-3.26580E-13
 -1      4201 1.99974E+01-8.54677E-04 1.25008E-05-7.21668E-04 9.73725E-14-1.96409E-13
 -1      4202 2.05740E+01-4.05538E-01 1.25379E-03 5.60199E-01-7.35539E-15-1.41440E-13
 -1      4203 2.07266E+01-6.15882E-01 3.14880E-03 8.21017E-01 7.08255E-15-1.27596E-13
 -1      4204 2.08725E+01-7.64575E-01 2.47495E-03 9.38078E-01 5.21514E-14-9.99206E-14
 -1      4205 2.11199E+01-9.45049E-01 5.38698E-03 1.04020E+00 1.33045E-13-5.78446E-14
 -1      4206 2.28627E+01-1.84543E+00 3.93525E-02-1.09632E+00-4.57091E-14-6.03546E-13
 -1      4207 2.19952E+01-1.49937E+00 1.50899E-02-1.40193E+00 1.09681E-13-3.26737E-13
 -1      4208 2.15537E+01-1.25519E+00 2.18938E-02-1.39251E+00 1.25695E-13-2.25487E-13
 -1      4209 2.12995E+01-1.03125E+00 2.73046E-02-1.21570E+00 5.71957E-14-2.27053E-13
 -1      4210 2.09572E+01-8.44330E-01 1.74931E-02-1.15385E+00 4.05835E-14-2.23325E-13
 -1      4211 2.07271E+01-6.39060E-01 2.02914E-02-1.00228E+00 5.34893E-14-1.50144E-13
 -1      4212 2.04904E+01-5.03624E-01 6.99249E-03-9.09775E-01 3.80116E-14-2.37676E-13
 -1      4213 2.04123E+01-3.87121E-01 1.52607E-02-7.30199E-01 3.68968E-14-2.65156E-13
 -1      4214 2.02543E+01-2.97936E-01 2.33594E-03-6.41809E-01 5.49874E-14-2.56267E-13
 -1      4215 2.02225E+01-2.29076E-01 9.60829E-03-5.06693E-01 1.66041E-13-1.72395E-13
 -1      4216 2.01243E+01-1.72553E-01-1.62066E-04-4.33174E-01 1.95650E-13-1.42975E-13
 -1      4217 2.01153E+01-1.33400E-01 5.70908E-03-3.37847E-01 6.42456E-14-1.13534E-13
 -1      4218 2.00558E+01-9.85518E-02-1.19451E-03-2.81843E-01 5.24979E-14-9.13680E-14
 -1      4219 2.00486E+01-7.42253E-02 7.36032E-04-1.34346E-01 1.07522E-13-3.64040E-13
 -1      4220 2.00285E+01-5.41429E-02-1.03067E-04-1.07657E-01 2.53098E-15-6.39869E-15
 -1      4221 2.00083E+01-2.52731E-02 5.45405E-04-8.07941E-02-1.45171E-13 6.79130E-14
 -1      4222 1.99990E+01-1.77047E-02-7.21877E-04-6.36840E-02 1.56840E-14 4.17275E-14
 -1      4223 2.00026E+01-1.48831E-02 5.48905E-04-4.72960E-02 1.70788E-14 7.74599E-14
 -1      4224 1.99964E+01-1.02189E-02-5.91601E-04-3.59202E-02-1.52885E-14 5.56572E-16
 -1      4225 1.99990E+01-8.52241E-03 2.84437E-04-2.62152E-02-1.26563E-14 1.13245E-13
 -1      4226 1.99957E+01-5.69830E-03-3.95374E-04-1.93273E-02 1.19769E-13-3.72778E-14
 -1      4227 1.99975E+01-4.75421E-03 1.41622E-04-1.37182E-02 8.74839E-14-1.67538E-13
 -1      4228 1.99959E+01-3.02121E-03-2.50573E-04-9.69202E-03 2.00280E-13-2.26329E-13
 -1      4229 1.99971E+01-2.47162E-03 6.94681E-05-6.56844E-03 3.24130E-13-2.67075E-13
 -1      4230 1.99964E+01-1.39138E-03-1.43030E-04-4.32544E-03 3.04024E-13-2.96927E-13
 -1      4231 2.04345E+01-5.49527E-02-4.92676E-04 2.54396E-01 8.59976E-15-1.57834E-13
 -1      4232 2.04619E+01-1.31122E-01 5.72584E-03 3.10773E-01 4.82860E-15-1.63538E-13
 -1      4233 2.04568E+01 8.22544E-02 2.53032E-03 1.68700E-01 5.65521E-14-2.05780E-13
 -1      4234 2.03868E+01 5.61569E-02-1.71150E-03 2.18344E-01 6.01582E-14-1.77345E-13
 -1      4235 1.99986E+01 8.08055E-04 8.53920E-07 9.40292E-04-4.17464E-15-1.27167E-13
 -1      4236 1.99981E+01 7.86842E-04 9.37438E-06 5.22497E-04 9.03205E-15-1.66913E-13
 -1      4237 1.99971E+01-1.02532E-03 2.47304E-05-2.62066E-03 3.72062E-13-2.77084E-13
 -1      4238 1.99309E+01 5.45595E-02 1.59318E-03-1.66444E-01 3.96326E-14 1.24115E-13
 -1      4239 1.98974E+01 6.13381E-02-3.69025E-03-2.14058E-01-4.62579E-14 1.32644E-13
 -1      4240 1.99521E+01 9.68618E-03-7.56447E-04-2.65321E-01-3.19798E-14 9.29275E-14
 -1      4241 1.99617E+01 1.41251E-02-8.03789E-04-1.59362E-01 9.86004E-14-2.51653E-13
 -1      4242 1.99986E+01 7.83077E-04 6.31802E-07 9.24448E-04-2.56244E-15-1.41545E-13
 -1      4243 1.99601E+01-7.75821E-02-7.22005E-03-6.61522E-01 1.60091E-13 9.80360E-15
 -1      4244 1.99977E+01 2.94897E-04-1.32075E-05 3.84126E-05 1.08762E-13-5.26587E-14
 -1      4245 2.02183E+01-2.43399E-01-4.96525E-03 8.73914E-01 2.26903E-14-4.63449E-14
 -1      4246 2.02575E+01-1.65883E-01 8.68064E-03 6.89938E-01 2.27435E-14-6.37502E-14
 -1      4247 2.03861E+01-2.62235E-01-3.20892E-04 6.31843E-01 1.32356E-14-6.06547E-14
 -1      4248 2.04954E+01-4.78307E-01-7.68396E-03 9.27024E-01 1.50128E-14-6.29834E-14
 -1      4249 1.99974E+01-1.49976E-04 1.57251E-05-5.02610E-04 9.55452E-14 5.42242E-14
 -1      4250 1.99972E+01-1.00064E-03-4.46121E-05-1.14893E-03 1.45814E-13-1.73266E-13
 -1      4251 2.06209E+01-4.92742E-01 1.03549E-03 6.79454E-01-3.39086E-14-1.23295E-13
 -1      4252 2.00567E+01-7.76468E-02 3.03029E-03-2.17564E-01 3.92978E-14-2.14932E-13
 -1      4253 2.00249E+01-5.61062E-02-5.37350E-04-1.75915E-01 3.29815E-14-2.70936E-13
 -1      4254 1.99973E+01-1.80568E-03 1.30949E-05-2.22533E-03 2.86872E-13-2.51239E-13
 -1      4255 2.03309E+01 1.36247E-01-2.28772E-03 1.68315E-01 8.08541E-14-1.48618E-13
 -1      4256 1.99919E+01-1.05906E-02-5.27333E-04-9.92716E-02-2.93167E-14 2.79114E-14
 -1      4257 2.17948E+01-1.60148E+00-3.26129E-02-1.81921E+00 5.91302E-14-1.41085E-14
 -1      4258 1.99899E+01-1.44572E-02 2.92187E-05-1.66188E-01 7.68821E-14-2.03223E-13
 -1      4259 1.99913E+01-1.01913E-02 2.93921E-04-1.25958E-01 9.26441E-14-1.71432E-13
 -3
    1PSTEP                         3           1           1          
  100CL  101 1.000000000        4259                     0    1           1
 -4  TOSTRAIN    6    1
 -5  EXX         1    4    1    1
 -5  EYY         1    4    2    2
 -5  EZZ         1    4    3    3
 -5  EXY         1    4    1    2
 -5  EYZ         1    4    2    3
 -5  EZX         1    4    3    1
 -1         1 1.98667E-04-1.63175E-05-6.98218E-05-1.33806E-04-8.55652E-18 1.48934E-17
 -1         2 4.20846E-05-1.29175E-04 2.51354E-05-1.87320E-06 4.12907E-18-6.44380E-19
 -1         3 9.52371E-05-2.85712E-05-2.85710E-05-1.31265E-12-1.17003E-18-2.44861E-18
 -1         4 9.52370E-05-2.85713E-05-2.85708E-05 1.74116E-10-7.86036E-19 2.57445E-18
 -1         5 1.46416E-04 2.58487E-10-4.41417E-05 5.42413E-05 6.45016E-19 1.77301E-17
 -1         6 1.45497E-04 2.57773E-10-4.42154E-05-5.35500E-05-1.08558E-18 1.40205E-17
 -1         7 9.06608E-05-5.12223E-07-3.90894E-05-2.92560E-05-1.64642E-19 1.33437E-18
 -1         8 8.51546E-05 8.65150E-08-3.63516E-05-2.02687E-05-1.53075E-19-2.28133E-18
 -1         9 8.28257E-05 7.64700E-08-3.53560E-05-1.56373E-05-1.18558E-19-4.09427E-18
 -1        10 8.17669E-05 4.01397E-08-3.48804E-05-1.20788E-05-7.62594E-20-4.87595E-18
 -1        11 8.12378E-05 1.98036E-08-3.46473E-05-9.01863E-06-4.90981E-20-5.16922E-18
 -1        12 8.09616E-05 9.65795E-09-3.45298E-05-6.29364E-06 2.48154E-22-5.21113E-18
 -1        13 8.08166E-05 5.06204E-09-3.44707E-05-3.70103E-06-1.57495E-20-5.09494E-18
 -1        14 8.07572E-05 3.15905E-09-3.44472E-05-1.20719E-06 3.06700E-20-4.85529E-18
 -1        15 8.07620E-05 3.09474E-09-3.44492E-05 1.25497E-06 5.28217E-20-4.66027E-18
 -1        16 8.08308E-05 4.86815E-09-3.44767E-05 3.74879E-06 9.88729E-20-4.47250E-18
 -1        17 8.09848E-05 8.86926E-09-3.45393E-05 6.34287E-06 9.29834E-20-4.18762E-18
 -1        18 8.12683E-05 1.89153E-08-3.46593E-05 9.06986E-06 1.06279E-19-3.65183E-18
 -1        19 8.18067E-05 3.91141E-08-3.48954E-05 1.21406E-05 1.89802E-19-2.83300E-18
 -1        20 8.28651E-05 7.84606E-08-3.53742E-05 1.57150E-05 2.05922E-19-1.39688E-18
 -1        21 8.52091E-05 9.51554E-08-3.63807E-05 2.03632E-05 2.20520E-19 1.27917E-18
 -1        22 9.05411E-05-3.81980E-07-3.91022E-05 2.93015E-05 8.25857E-20 5.66302E-18
 -1        23 1.13068E-04-3.81578E-05-3.54250E-05-4.40190E-06-7.42901E-19 1.02708E-17
 -1        24 9.29006E-05-2.77257E-05-2.90285E-05 3.92334E-07-2.14068E-19 7.07638E-18
 -1        25 8.92230E-05-2.68829E-05-2.69608E-05 3.77230E-07-1.14460E-19 3.92106E-18
 -1        26 8.81274E-05-2.65213E-05-2.64256E-05 2.06111E-07-3.99652E-20 1.59577E-18
 -1        27 8.81571E-05-2.65002E-05-2.64184E-05 1.42587E-07 2.19252E-20 3.98238E-19
 -1        28 8.86809E-05-2.66331E-05-2.65845E-05 1.04335E-07 1.80472E-20 4.44361E-20
 -1        29 8.93984E-05-2.68337E-05-2.68050E-05 7.92910E-08-7.41279E-20-1.09239E-18
 -1        30 9.01353E-05-2.70459E-05-2.70273E-05 6.11727E-08 3.36619E-20-2.23763E-18
 -1        31 9.07714E-05-2.72309E-05-2.72171E-05 4.65930E-08-6.54126E-20-3.10727E-18
 -1        32 9.12089E-05-2.73578E-05-2.73458E-05 3.32647E-08-1.48752E-19-3.73438E-18
 -1        33 9.13548E-05-2.73982E-05-2.73857E-05 1.91969E-08 2.39357E-19-4.17960E-18
 -1        34 9.11124E-05-2.73229E-05-2.73079E-05 2.43120E-09 3.59807E-20-4.13675E-18
 -1        35 9.03806E-05-2.71018E-05-2.70826E-05-1.88311E-08-1.95612E-19-4.46662E-18
 -1        36 8.90641E-05-2.67066E-05-2.66826E-05-4.57258E-08 8.02349E-20-4.42801E-18
 -1        37 8.70951E-05-2.61174E-05-2.60898E-05-7.78752E-08-4.30117E-20-3.77618E-18
 -1        38 8.44679E-05-2.53327E-05-2.53051E-05-1.12390E-07-3.14859E-19-4.00070E-18
 -1        39 8.12787E-05-2.43816E-05-2.43601E-05-1.43230E-07-3.97899E-20-4.97276E-18
 -1        40 7.77578E-05-2.33324E-05-2.33246E-05-1.61693E-07 1.21425E-19-5.04750E-18
 -1        41 7.42733E-05-2.22946E-05-2.23068E-05-1.58665E-07 1.15962E-19-6.09982E-18
 -1        42 7.12888E-05-2.14061E-05-2.14402E-05-1.28403E-07 1.54323E-20-5.34965E-18
 -1        43 6.92715E-05-2.08057E-05-2.08570E-05-7.23423E-08-1.15005E-19-4.50437E-18
 -1        44 6.85732E-05-2.05981E-05-2.06559E-05-4.28075E-10-1.05571E-19-4.61553E-18
 -1        45 6.93276E-05-2.08228E-05-2.08743E-05 7.15993E-08 1.73973E-20-5.66279E-18
 -1        46 7.14102E-05-2.14431E-05-2.14775E-05 1.28025E-07-1.29312E-19-5.43510E-18
 -1        47 7.44787E-05-2.23571E-05-2.23698E-05 1.58944E-07-4.95903E-20-4.20851E-18
 -1        48 7.80757E-05-2.34288E-05-2.34218E-05 1.62945E-07-1.30428E-19-3.82846E-18
 -1        49 8.17474E-05-2.45234E-05-2.45030E-05 1.45810E-07 9.52792E-20-4.44342E-18
 -1        50 8.51357E-05-2.55345E-05-2.55084E-05 1.16735E-07-9.69259E-20-6.20495E-18
 -1        51 8.80208E-05-2.63966E-05-2.63711E-05 8.45364E-08 4.88566E-20-6.06608E-18
 -1        52 9.03169E-05-2.70839E-05-2.70628E-05 5.54021E-08-8.54444E-20-5.45926E-18
 -1        53 9.20396E-05-2.76008E-05-2.75855E-05 3.24093E-08 3.80925E-20-6.68556E-18
 -1        54 9.32651E-05-2.79695E-05-2.79598E-05 1.61688E-08 1.14823E-19-5.75746E-18
 -1        55 9.40943E-05-2.82199E-05-2.82147E-05 5.83353E-09-8.13460E-19-6.06961E-18
 -1        56 9.46282E-05-2.83819E-05-2.83797E-05-2.33291E-11-5.67882E-20-5.71926E-18
 -1        57 9.49542E-05-2.84813E-05-2.84810E-05-2.84144E-09 4.63731E-19-4.93716E-18
 -1        58 9.51413E-05-2.85388E-05-2.85395E-05-3.80090E-09 3.32192E-19-4.14534E-18
 -1        59 9.52401E-05-2.85696E-05-2.85706E-05-3.74968E-09-2.70194E-19-4.04419E-18
 -1        60 9.52855E-05-2.85840E-05-2.85851E-05-3.23653E-09-2.45748E-19-3.78238E-18
 -1        61 9.53007E-05-2.85892E-05-2.85901E-05-2.58259E-09-9.64720E-21-4.81230E-18
 -1        62 9.53000E-05-2.85894E-05-2.85901E-05-1.95455E-09 1.04739E-19-6.42336E-18
 -1        63 9.52921E-05-2.85872E-05-2.85878E-05-1.42398E-09-3.99084E-19-7.01450E-18
 -1        64 9.52816E-05-2.85843E-05-2.85847E-05-1.00931E-09 1.24942E-19-8.76716E-18
 -1        65 9.52711E-05-2.85812E-05-2.85815E-05-7.02905E-10 2.63928E-19-4.63432E-18
 -1        66 9.52617E-05-2.85785E-05-2.85787E-05-4.86687E-10 7.02793E-19-3.19626E-18
 -1        67 9.52538E-05-2.85761E-05-2.85762E-05-3.40114E-10 4.34263E-19 1.09854E-18
 -1        68 9.52473E-05-2.85742E-05-2.85743E-05-2.42558E-10-7.61875E-19 1.67493E-18
 -1        69 9.52423E-05-2.85727E-05-2.85728E-05-1.71186E-10-3.25807E-19-1.75856E-18
 -1        70 9.52388E-05-2.85717E-05-2.85718E-05-8.05809E-11 1.23919E-19-1.73237E-18
 -1        71 9.52371E-05-2.85711E-05-2.85712E-05 6.16590E-11 1.59533E-18 9.10335E-19
 -1        72 1.14015E-04-3.82841E-05-3.57443E-05 4.97034E-06 4.50754E-19 1.52769E-17
 -1        73 9.31830E-05-2.78133E-05-2.91793E-05-4.07343E-07 1.82840E-19 1.28140E-17
 -1        74 8.92656E-05-2.68927E-05-2.69960E-05-3.80975E-07 9.12496E-20 9.77071E-18
 -1        75 8.80816E-05-2.65098E-05-2.64166E-05-2.06897E-07 3.48061E-20 8.00618E-18
 -1        76 8.80816E-05-2.64811E-05-2.63958E-05-1.39824E-07-3.36580E-21 6.95722E-18
 -1        77 8.86271E-05-2.66216E-05-2.65687E-05-9.86337E-08 8.71342E-20 5.69162E-18
 -1        78 8.94401E-05-2.68528E-05-2.68197E-05-7.10679E-08-2.69696E-20 4.91525E-18
 -1        79 9.03981E-05-2.71348E-05-2.71115E-05-5.08181E-08-3.52793E-22 4.88393E-18
 -1        80 9.14741E-05-2.74568E-05-2.74395E-05-3.55761E-08 1.11638E-19 4.03028E-18
 -1        81 9.27294E-05-2.78365E-05-2.78250E-05-2.54136E-08-5.48468E-20 3.20326E-18
 -1        82 9.43345E-05-2.83245E-05-2.83239E-05-2.32328E-08-5.59981E-20 3.68305E-18
 -1        83 9.66245E-05-2.90205E-05-2.90458E-05-3.71859E-08 1.24568E-19 4.00412E-18
 -1        84 1.00200E-04-3.01009E-05-3.01891E-05-8.65466E-08-9.73095E-21 3.12971E-18
 -1        85 1.06094E-04-3.18656E-05-3.20940E-05-2.14126E-07 9.15871E-20 3.04536E-18
 -1        86 1.15998E-04-3.48051E-05-3.52960E-05-5.09496E-07 1.22122E-19 2.94259E-18
 -1        87 1.32426E-04-3.96765E-05-4.04836E-05-1.12906E-06 1.27339E-19 1.96342E-18
 -1        88 1.58114E-04-4.73594E-05-4.80635E-05-2.30787E-06-6.09930E-20 2.55338E-18
 -1        89 1.91688E-04-5.76553E-05-5.67414E-05-3.55308E-06-1.96029E-19 4.32019E-18
 -1        90 2.25710E-04-6.88821E-05-6.37087E-05-2.33162E-06 2.22981E-19 6.18284E-18
 -1        91 2.30614E-04-7.08962E-05-6.40454E-05 5.50652E-06-4.61501E-19 8.77399E-18
 -1        92 1.91038E-04-5.62424E-05-5.85797E-05 1.48977E-05 2.02064E-19 9.37623E-18
 -1        93 1.19332E-04-2.87491E-05-5.13741E-05 1.37497E-05 4.20869E-20 7.30862E-18
 -1        94 7.16820E-05-1.08249E-05-4.73163E-05 2.06383E-06 5.74394E-19 2.62395E-18
 -1        95 1.05788E-04-2.44442E-05-4.99936E-05-9.97243E-06 5.74871E-19-8.24078E-18
 -1        96 1.83817E-04-5.45373E-05-5.70920E-05-9.39637E-06 1.62726E-19-1.43055E-17
 -1        97 2.31666E-04-7.17630E-05-6.36521E-05-2.95682E-06 1.03100E-20-1.44544E-17
 -1        98 2.27121E-04-6.97015E-05-6.37975E-05 1.39868E-06-1.91390E-19-1.02931E-17
 -1        99 1.93217E-04-5.82596E-05-5.71473E-05 1.92194E-06 1.71847E-19-7.16569E-18
 -1       100 1.57661E-04-4.70559E-05-4.80855E-05 1.23863E-06 6.97073E-19-5.38978E-18
 -1       101 1.32216E-04-3.94137E-05-4.05510E-05 6.29618E-07-6.03405E-19 8.87267E-20
 -1       102 1.16318E-04-3.47509E-05-3.54846E-05 2.88250E-07 4.65582E-19 6.85911E-19
 -1       103 1.06968E-04-3.20252E-05-3.24191E-05 1.23994E-07-1.04502E-18 1.65807E-18
 -1       104 1.01639E-04-3.04670E-05-3.06625E-05 4.93484E-08 5.78634E-20 4.16644E-18
 -1       105 9.86664E-05-2.95930E-05-2.96858E-05 1.34724E-08 6.87969E-19 4.43566E-19
 -1       106 9.70850E-05-2.91247E-05-2.91715E-05 5.49798E-09-5.78844E-20-5.30219E-19
 -1       107 9.61696E-05-2.88519E-05-2.88739E-05-1.25044E-09-6.35478E-20 1.47901E-18
 -1       108 9.56873E-05-2.87077E-05-2.87175E-05-2.79380E-09-2.04343E-19-8.18214E-19
 -1       109 9.54404E-05-2.86335E-05-2.86374E-05-2.80484E-09 1.08526E-18-5.36424E-18
 -1       110 9.53196E-05-2.85969E-05-2.85982E-05-2.31259E-09-1.04162E-19-3.86774E-18
 -1       111 9.52645E-05-2.85801E-05-2.85802E-05-1.73273E-09-6.70204E-19-3.42941E-20
 -1       112 9.52421E-05-2.85731E-05-2.85728E-05-1.22113E-09 7.69735E-20 2.00347E-18
 -1       113 9.52349E-05-2.85708E-05-2.85704E-05-8.20660E-10 9.19968E-20-8.19994E-20
 -1       114 9.52341E-05-2.85704E-05-2.85700E-05-5.28093E-10-6.66867E-19 3.17051E-19
 -1       115 9.52353E-05-2.85707E-05-2.85704E-05-3.24407E-10 1.25772E-18 2.28977E-18
 -1       116 9.52366E-05-2.85711E-05-2.85708E-05-1.87980E-10-1.92439E-19-9.67226E-19
 -1       117 9.52374E-05-2.85713E-05-2.85711E-05-9.98751E-11-1.54386E-20 1.32085E-18
 -1       118 9.52376E-05-2.85713E-05-2.85712E-05-4.55886E-11-5.53969E-20 2.74813E-18
 -1       119 9.52374E-05-2.85712E-05-2.85712E-05-1.53018E-11-1.01374E-18-2.12403E-18
 -1       120 9.52370E-05-2.85711E-05-2.85711E-05-3.65731E-12 2.13787E-18-1.09051E-17
 -1       121 9.52368E-05-2.85710E-05-2.85711E-05-1.25666E-11-2.71225E-19-1.26931E-17
 -1       122 9.52369E-05-2.85711E-05-2.85711E-05-5.21031E-11-6.54198E-19-9.71608E-18
 -1       123 9.52372E-05-2.85714E-05-2.85711E-05-6.65497E-11-4.39607E-18 6.40738E-19
 -1       124 9.52372E-05-2.85714E-05-2.85711E-05-4.90238E-11-1.34635E-17 5.41356E-19
 -1       125 9.52371E-05-2.85708E-05-2.85713E-05-1.83230E-11-8.63938E-18-4.18075E-19
 -1       126 9.52367E-05-2.85695E-05-2.85717E-05 1.64530E-11-5.89073E-18-4.63201E-19
 -1       127 9.52361E-05-2.85676E-05-2.85723E-05 4.99414E-11-6.93551E-19 3.91475E-18
 -1       128 9.52354E-05-2.85652E-05-2.85729E-05 7.51347E-11 6.16316E-18 2.48951E-18
 -1       129 9.52346E-05-2.85627E-05-2.85737E-05 9.04421E-11 1.98148E-18-1.21897E-18
 -1       130 9.52339E-05-2.85605E-05-2.85743E-05 9.09950E-11-1.96490E-18 9.11747E-19
 -1       131 9.52335E-05-2.85589E-05-2.85747E-05 7.59076E-11-4.00642E-18 5.25528E-19
 -1       132 9.52333E-05-2.85584E-05-2.85749E-05 4.54861E-11-1.63069E-18-6.70735E-19
 -1       133 9.52335E-05-2.85590E-05-2.85747E-05 4.79973E-13-1.94635E-18-7.92934E-19
 -1       134 9.52340E-05-2.85607E-05-2.85742E-05-4.81900E-11-5.06897E-19-8.08909E-19
 -1       135 9.52348E-05-2.85635E-05-2.85734E-05-1.00903E-10-3.73941E-19 1.20425E-18
 -1       136 9.52358E-05-2.85667E-05-2.85725E-05-1.40635E-10 2.66017E-18 3.12674E-18
 -1       137 9.52367E-05-2.85696E-05-2.85717E-05-1.44270E-10-4.69320E-18-1.55931E-18
 -1       138 9.52371E-05-2.85711E-05-2.85712E-05 7.87557E-11-6.64120E-18 5.76432E-19
 -1       139 3.52674E-05-1.25927E-04 2.55637E-05-3.75801E-05 8.52862E-18 2.02118E-18
 -1       140 1.11205E-05-8.07383E-05 1.62005E-05-5.14205E-05 7.80731E-18 2.89283E-18
 -1       141 1.52619E-06-2.05581E-05-4.17581E-06-2.02726E-05 1.08043E-17 9.65745E-18
 -1       142 3.94890E-05 1.17081E-05-2.96144E-05 4.24836E-05 1.25475E-17 1.53084E-17
 -1       143 1.58737E-04-1.17934E-05-5.87687E-05 1.12476E-04 9.35633E-18 1.50763E-17
 -1       144 3.42293E-04-8.80980E-05-8.61886E-05 1.18405E-04 2.29249E-18 8.28398E-18
 -1       145 4.70057E-04-1.50070E-04-1.00753E-04 3.34410E-05-1.17791E-19-2.45640E-19
 -1       146 4.29112E-04-1.29824E-04-9.62307E-05-8.26325E-05 2.06219E-18-8.36149E-18
 -1       147 2.68993E-04-5.47582E-05-7.65212E-05-1.27138E-04 6.04697E-18-1.50374E-17
 -1       148 1.07929E-04 2.57693E-06-4.81511E-05-8.79734E-05 1.02063E-17-1.59505E-17
 -1       149 1.53016E-05 4.13790E-06-1.83349E-05-1.38997E-05 1.47456E-17-1.39917E-17
 -1       150 2.02807E-07-4.30261E-05 5.29794E-06 3.95577E-05 1.67420E-17-1.10110E-17
 -1       151 2.01127E-05-9.91539E-05 2.04049E-05 5.17074E-05 1.37632E-17-5.39449E-18
 -1       152 4.03407E-05-1.32528E-04 2.64773E-05 2.70699E-05 7.71938E-18-9.95317E-19
 -1       153 3.83882E-05-1.18885E-04 2.28677E-05-9.04375E-06-3.19797E-18-5.79437E-19
 -1       154 1.78474E-05-6.48157E-05 1.10345E-05-2.27612E-05-1.26470E-17-4.16433E-18
 -1       155 5.77063E-06 1.57030E-06-8.33568E-06 6.95379E-06-1.81341E-17-1.01557E-17
 -1       156 3.08561E-05 3.81327E-05-3.01175E-05 6.37366E-05-1.60576E-17-1.31803E-17
 -1       157 1.05052E-04 2.66769E-05-5.21197E-05 1.17340E-04-1.11821E-17-1.59996E-17
 -1       158 2.17835E-04-2.69378E-05-7.28053E-05 1.32134E-04-6.90395E-18-1.31404E-17
 -1       159 3.18066E-04-8.75512E-05-8.65781E-05 8.08411E-05-1.46518E-18-5.80091E-18
 -1       160 3.49486E-04-1.08214E-04-9.03223E-05-1.07572E-05 3.64330E-19-1.87512E-19
 -1       161 2.99832E-04-7.58661E-05-8.43211E-05-9.79551E-05-1.92663E-18 6.42750E-18
 -1       162 8.79758E-05 3.30977E-05-4.84292E-05-1.10119E-04-1.50518E-17 1.91599E-17
 -1       163 1.90019E-05 3.38820E-05-2.44611E-05-4.79486E-05-1.51056E-17 1.16704E-17
 -1       164 5.68813E-06-1.66877E-05-1.77569E-06 7.40807E-06-8.44873E-18 4.25782E-18
 -1       165 2.54124E-05-8.53741E-05 1.56677E-05 2.25687E-05-9.89758E-19 3.03238E-19
 -1       166 9.49152E-05-1.23550E-05-3.55859E-05-2.23505E-05-2.26250E-18-4.44957E-19
 -1       167 8.92690E-05-8.45673E-06-3.47957E-05-1.73922E-05-1.96831E-18-2.59023E-18
 -1       168 8.65479E-05-6.50174E-06-3.44173E-05-1.35872E-05-1.44024E-18-3.69437E-18
 -1       169 8.51764E-05-5.50960E-06-3.42269E-05-1.03779E-05-9.25276E-19-4.22946E-18
 -1       170 8.44238E-05-4.93883E-06-3.41340E-05-7.55532E-06-5.25691E-19-4.38580E-18
 -1       171 8.39894E-05-4.59078E-06-3.40896E-05-4.91561E-06-2.00342E-19-4.34329E-18
 -1       172 8.37671E-05-4.40302E-06-3.40712E-05-2.41262E-06 1.67505E-19-4.19677E-18
 -1       173 8.37011E-05-4.34293E-06-3.40676E-05 2.60842E-08 5.54156E-19-4.00879E-18
 -1       174 8.37761E-05-4.40203E-06-3.40755E-05 2.46415E-06 9.18105E-19-3.83847E-18
 -1       175 8.40085E-05-4.59104E-06-3.40977E-05 4.96599E-06 1.21512E-18-3.65224E-18
 -1       176 8.44435E-05-4.93548E-06-3.41439E-05 7.55937E-06 1.54629E-18-3.24644E-18
 -1       177 8.52189E-05-5.52266E-06-3.42390E-05 1.04269E-05 1.97309E-18-2.58462E-18
 -1       178 8.66150E-05-6.53652E-06-3.44307E-05 1.36617E-05 2.31279E-18-1.64355E-18
 -1       179 8.93470E-05-8.50233E-06-3.48104E-05 1.74716E-05 2.40149E-18 1.66217E-19
 -1       180 9.50277E-05-1.24601E-05-3.55783E-05 2.24835E-05 2.25348E-18 2.99805E-18
 -1       181 1.03467E-04-2.73214E-05-3.26316E-05-1.21260E-05-2.01851E-18 2.38763E-18
 -1       182 9.71757E-05-2.83097E-05-2.95495E-05-4.72760E-06-1.81215E-18 1.42121E-18
 -1       183 9.35728E-05-2.76568E-05-2.82019E-05-1.76623E-06-1.35224E-18 7.27826E-19
 -1       184 9.20308E-05-2.74256E-05-2.76529E-05-4.24983E-07-8.44457E-19 1.88895E-20
 -1       185 9.14370E-05-2.73479E-05-2.74490E-05 2.23330E-07-4.48886E-19-5.18578E-19
 -1       186 9.13568E-05-2.73801E-05-2.74108E-05 5.18221E-07-5.71469E-19-8.81859E-19
 -1       187 9.15265E-05-2.74681E-05-2.74508E-05 6.02071E-07-5.43384E-19-9.45009E-19
 -1       188 9.17785E-05-2.75721E-05-2.75170E-05 5.42024E-07-5.52665E-19-1.39305E-18
 -1       189 9.19945E-05-2.76621E-05-2.75729E-05 3.68727E-07-4.19921E-19-1.50853E-18
 -1       190 9.20801E-05-2.77131E-05-2.75891E-05 9.29694E-08-3.09377E-19-1.44133E-18
 -1       191 9.19519E-05-2.77015E-05-2.75403E-05-2.84566E-07-1.92246E-19-2.29622E-18
 -1       192 9.15314E-05-2.76027E-05-2.74033E-05-7.64447E-07 6.99464E-21-2.44513E-18
 -1       193 9.07469E-05-2.73911E-05-2.71581E-05-1.33816E-06 1.09263E-19-2.04230E-18
 -1       194 8.95423E-05-2.70422E-05-2.67910E-05-1.97611E-06 7.98874E-20-1.99381E-18
 -1       195 8.78943E-05-2.65386E-05-2.62994E-05-2.61629E-06-4.30427E-19-2.00231E-18
 -1       196 8.58363E-05-2.58796E-05-2.56978E-05-3.15884E-06-5.37605E-19-1.99640E-18
 -1       197 8.34812E-05-2.50925E-05-2.50230E-05-3.47382E-06-2.11687E-19-2.37460E-18
 -1       198 8.10339E-05-2.42431E-05-2.43351E-05-3.42820E-06-3.13778E-19-2.65594E-18
 -1       199 7.87797E-05-2.34351E-05-2.37122E-05-2.93020E-06-1.50610E-19-2.78327E-18
 -1       200 7.70399E-05-2.27957E-05-2.32382E-05-1.97697E-06 2.97467E-19-3.44084E-18
 -1       201 7.60990E-05-2.24432E-05-2.29847E-05-6.81307E-07-7.38805E-20-3.31023E-18
 -1       202 7.61268E-05-2.24503E-05-2.29935E-05 7.44692E-07-6.20811E-19-3.67267E-18
 -1       203 7.71266E-05-2.28180E-05-2.32657E-05 2.04978E-06 2.54770E-19-3.39722E-18
 -1       204 7.89359E-05-2.34757E-05-2.37615E-05 3.02206E-06 6.03526E-19-2.77142E-18
 -1       205 8.12774E-05-2.43072E-05-2.44115E-05 3.54890E-06 3.18862E-20-2.57822E-18
 -1       206 8.38367E-05-2.51877E-05-2.51341E-05 3.63315E-06-4.10661E-19-3.19750E-18
 -1       207 8.63353E-05-2.60151E-05-2.58530E-05 3.36665E-06-1.17960E-18-4.08611E-18
 -1       208 8.85749E-05-2.67259E-05-2.65102E-05 2.88244E-06 4.77045E-19-3.81610E-18
 -1       209 9.04485E-05-2.72944E-05-2.70706E-05 2.31009E-06 3.69513E-19-2.60447E-18
 -1       210 9.19276E-05-2.77232E-05-2.75210E-05 1.74844E-06-2.80288E-19-1.96004E-18
 -1       211 9.30379E-05-2.80308E-05-2.78648E-05 1.25731E-06 6.81292E-19-1.24425E-18
 -1       212 9.38347E-05-2.82418E-05-2.81152E-05 8.62170E-07-1.37132E-19-9.66238E-19
 -1       213 9.43831E-05-2.83807E-05-2.82899E-05 5.64488E-07-4.37372E-21-7.57850E-19
 -1       214 9.47455E-05-2.84686E-05-2.84068E-05 3.52297E-07 6.67356E-19-1.07809E-18
 -1       215 9.49754E-05-2.85219E-05-2.84818E-05 2.08316E-07 2.38789E-19-2.09163E-18
 -1       216 9.51146E-05-2.85525E-05-2.85279E-05 1.15067E-07 9.38553E-20-2.52420E-18
 -1       217 9.51945E-05-2.85689E-05-2.85546E-05 5.74677E-08-1.02561E-20-2.65462E-18
 -1       218 9.52369E-05-2.85769E-05-2.85691E-05 2.37123E-08-4.48002E-19-9.16068E-19
 -1       219 9.52567E-05-2.85799E-05-2.85761E-05 5.18211E-09-9.02521E-19-1.68192E-18
 -1       220 9.52636E-05-2.85803E-05-2.85788E-05-4.07232E-09-2.86849E-19-1.73558E-18
 -1       221 9.52637E-05-2.85794E-05-2.85791E-05-7.96405E-09-8.69783E-19-1.28923E-18
 -1       222 9.52604E-05-2.85780E-05-2.85782E-05-8.95072E-09 2.04611E-18-2.31977E-18
 -1       223 9.52559E-05-2.85764E-05-2.85769E-05-8.50126E-09 1.26909E-18-8.34576E-19
 -1       224 9.52512E-05-2.85750E-05-2.85755E-05-7.43843E-09 1.71580E-18-1.16506E-18
 -1       225 9.52469E-05-2.85737E-05-2.85742E-05-6.17306E-09 8.68445E-19-1.16781E-18
 -1       226 9.52433E-05-2.85726E-05-2.85731E-05-4.85229E-09-6.49570E-19 8.99787E-19
 -1       227 9.52405E-05-2.85717E-05-2.85723E-05-3.45032E-09 9.14789E-19 2.83177E-18
 -1       228 9.52383E-05-2.85710E-05-2.85717E-05-1.87894E-09 1.41978E-18 3.49015E-18
 -1       229 1.03681E-04-2.71207E-05-3.28105E-05 1.26144E-05 1.87541E-18 5.80596E-18
 -1       230 9.73539E-05-2.82859E-05-2.96409E-05 4.95701E-06 1.72048E-18 4.78425E-18
 -1       231 9.36687E-05-2.76617E-05-2.82421E-05 1.86070E-06 1.17199E-18 3.84892E-18
 -1       232 9.20854E-05-2.74275E-05-2.76739E-05 4.51969E-07 7.26766E-19 2.91846E-18
 -1       233 9.15054E-05-2.73532E-05-2.74742E-05-2.56746E-07 7.42772E-19 2.38410E-18
 -1       234 9.15013E-05-2.73988E-05-2.74623E-05-6.36299E-07 4.58572E-19 2.12715E-18
 -1       235 9.18400E-05-2.75195E-05-2.75596E-05-8.58055E-07 3.79596E-19 1.69956E-18
 -1       236 9.24079E-05-2.76870E-05-2.77319E-05-1.03084E-06 4.87644E-19 1.15764E-18
 -1       237 9.31749E-05-2.78901E-05-2.79723E-05-1.24885E-06 4.20924E-19 1.31707E-18
 -1       238 9.41854E-05-2.81331E-05-2.82979E-05-1.62134E-06-1.96862E-19 1.18248E-18
 -1       239 9.55659E-05-2.84353E-05-2.87544E-05-2.30180E-06-6.25779E-20 1.01892E-18
 -1       240 9.75461E-05-2.88328E-05-2.94253E-05-3.52500E-06 5.51284E-19 9.29897E-19
 -1       241 1.00487E-04-2.93821E-05-3.04440E-05-5.65235E-06 9.17178E-20 1.02180E-18
 -1       242 1.04904E-04-3.01726E-05-3.19990E-05-9.20346E-06 1.79981E-19 8.86507E-19
 -1       243 1.11442E-04-3.13792E-05-3.42954E-05-1.47712E-05 2.51622E-19 5.03774E-19
 -1       244 1.20758E-04-3.34915E-05-3.73784E-05-2.25232E-05-7.69417E-19 1.14650E-18
 -1       245 1.32745E-04-3.75577E-05-4.06506E-05-3.01889E-05-1.21778E-18 1.93571E-18
 -1       246 1.49586E-04-4.73645E-05-4.33093E-05-3.13356E-05-1.47325E-18 2.95590E-18
 -1       247 1.68512E-04-6.21516E-05-4.49949E-05-1.62692E-05-1.70095E-18 4.39286E-18
 -1       248 1.90888E-04-7.66462E-05-4.88659E-05 1.36021E-05-2.24940E-19 3.54176E-18
 -1       249 1.99719E-04-4.64637E-05-6.68575E-05 2.99132E-05 2.73719E-18 1.69248E-19
 -1       250 1.97467E-04-4.31726E-05-6.74947E-05-2.09476E-05 4.96150E-18-1.02523E-18
 -1       251 2.01747E-04-6.13739E-05-6.13817E-05-4.72398E-05 3.80000E-18-3.64116E-18
 -1       252 2.01028E-04-7.12316E-05-5.50617E-05-2.58037E-05 3.02020E-19-7.11936E-18
 -1       253 1.87990E-04-6.31515E-05-5.21691E-05 9.32156E-06-1.80090E-18-5.75851E-18
 -1       254 1.67016E-04-5.10570E-05-4.90562E-05 2.39335E-05-1.51153E-18-4.58176E-18
 -1       255 1.45037E-04-4.22511E-05-4.40581E-05 2.21503E-05-3.69300E-19-2.77305E-18
 -1       256 1.27499E-04-3.68834E-05-3.89830E-05 1.56404E-05-2.52994E-18-1.18428E-18
 -1       257 1.15179E-04-3.36006E-05-3.50630E-05 9.83462E-06-6.88049E-19-1.44710E-19
 -1       258 1.07168E-04-3.15731E-05-3.24402E-05 5.85805E-06-4.63254E-19 1.85649E-18
 -1       259 1.02204E-04-3.03310E-05-3.08138E-05 3.38827E-06-5.81359E-19 1.13331E-18
 -1       260 9.92285E-05-2.95844E-05-2.98462E-05 1.92170E-06 9.51218E-19 1.28554E-18
 -1       261 9.75428E-05-2.91576E-05-2.93051E-05 1.10404E-06 1.14837E-18 2.28775E-18
 -1       262 9.65034E-05-2.88934E-05-2.89723E-05 6.06177E-07-1.15584E-19 9.09762E-19
 -1       263 9.59171E-05-2.87440E-05-2.87858E-05 3.25348E-07 1.06074E-18 1.26281E-19
 -1       264 9.55924E-05-2.86612E-05-2.86830E-05 1.69691E-07 1.83474E-18-1.55367E-19
 -1       265 9.54170E-05-2.86166E-05-2.86275E-05 8.50749E-08-1.11932E-18 5.21320E-19
 -1       266 9.53252E-05-2.85934E-05-2.85986E-05 4.03029E-08-1.15728E-18 1.48991E-18
 -1       267 9.52789E-05-2.85818E-05-2.85840E-05 1.75083E-08 4.82629E-19-5.23295E-19
 -1       268 9.52567E-05-2.85763E-05-2.85770E-05 6.55274E-09 3.73607E-19-1.71855E-18
 -1       269 9.52466E-05-2.85738E-05-2.85739E-05 1.76076E-09-1.04473E-18-2.32966E-19
 -1       270 9.52424E-05-2.85727E-05-2.85726E-05 1.60824E-11-1.67059E-19 1.01500E-18
 -1       271 9.52406E-05-2.85723E-05-2.85721E-05-3.46259E-10 1.37515E-18-1.12453E-19
 -1       272 9.52397E-05-2.85720E-05-2.85718E-05-1.82757E-10-1.06395E-18-3.16966E-19
 -1       273 9.52391E-05-2.85718E-05-2.85717E-05 8.83232E-11-6.68709E-19 2.32262E-19
 -1       274 9.52385E-05-2.85716E-05-2.85715E-05 2.77612E-10 3.20809E-18 2.75588E-19
 -1       275 9.52379E-05-2.85714E-05-2.85714E-05 3.12444E-10 2.39261E-18-2.55202E-18
 -1       276 9.52374E-05-2.85712E-05-2.85712E-05 1.79494E-10 2.74260E-19-3.52782E-18
 -1       277 9.52372E-05-2.85711E-05-2.85712E-05-4.60128E-11-1.66080E-18-2.93449E-18
 -1       278 9.52372E-05-2.85712E-05-2.85711E-05-1.30846E-10-3.21591E-18-2.51976E-19
 -1       279 9.52372E-05-2.85710E-05-2.85712E-05 1.47089E-10-2.95262E-18-2.68257E-18
 -1       280 9.52370E-05-2.85704E-05-2.85714E-05 6.50399E-10-3.61623E-18 1.40118E-18
 -1       281 9.52367E-05-2.85694E-05-2.85717E-05 1.20722E-09-1.53080E-18 9.88064E-19
 -1       282 9.52363E-05-2.85679E-05-2.85722E-05 1.67302E-09 6.87646E-19 3.88092E-18
 -1       283 9.52357E-05-2.85661E-05-2.85727E-05 1.93688E-09-4.58425E-20 8.50608E-19
 -1       284 9.52350E-05-2.85643E-05-2.85732E-05 1.93260E-09-1.37028E-18-1.65229E-18
 -1       285 9.52345E-05-2.85626E-05-2.85737E-05 1.62346E-09 1.29623E-18-8.88782E-19
 -1       286 9.52340E-05-2.85613E-05-2.85740E-05 1.02731E-09 1.38055E-18-8.76389E-19
 -1       287 9.52339E-05-2.85608E-05-2.85742E-05 2.08768E-10-1.50553E-18 6.13015E-20
 -1       288 9.52339E-05-2.85611E-05-2.85741E-05-7.23746E-10-9.11414E-19-2.16068E-19
 -1       289 9.52343E-05-2.85622E-05-2.85738E-05-1.60417E-09 6.84208E-19 1.80926E-18
 -1       290 9.52349E-05-2.85640E-05-2.85732E-05-2.27604E-09 2.45767E-18 6.58334E-19
 -1       291 9.52357E-05-2.85663E-05-2.85726E-05-2.51633E-09 2.85477E-19 1.54971E-18
 -1       292 9.52365E-05-2.85686E-05-2.85720E-05-2.12462E-09-2.88569E-18-3.19707E-18
 -1       293 8.69038E-06-5.49155E-05 1.63733E-05-1.03002E-05 2.69473E-18 2.67133E-18
 -1       294 1.72137E-05-5.04558E-05 1.09148E-05 4.88217E-06 2.44602E-18-1.87830E-19
 -1       295 5.10941E-05-5.10038E-05-3.35303E-06 2.19365E-05 1.36478E-18 4.86128E-18
 -1       296 9.97576E-05-5.55073E-05-2.22530E-05 2.67607E-05 3.28352E-18 5.73039E-18
 -1       297 1.75448E-04-6.93051E-05-4.59918E-05 2.11777E-05 4.11891E-18 5.38967E-18
 -1       298 2.42055E-04-7.25433E-05-6.78316E-05 2.85337E-06 6.03453E-18 3.79471E-18
 -1       299 2.71943E-04-6.35328E-05-8.12218E-05-9.49826E-06 4.39038E-18-9.74088E-21
 -1       300 2.78545E-04-5.94061E-05-8.45760E-05 4.05659E-06 3.26828E-18-2.71411E-18
 -1       301 2.65879E-04-6.86514E-05-7.72866E-05 4.50165E-06 4.22818E-18-3.16621E-18
 -1       302 2.16093E-04-7.43982E-05-5.91251E-05-2.91632E-06 4.00880E-18-4.02722E-18
 -1       303 1.45426E-04-6.42567E-05-3.64895E-05-2.58260E-05 4.71903E-18-5.00512E-18
 -1       304 7.33873E-05-5.16668E-05-1.31205E-05-2.38132E-05 5.96650E-18-4.34814E-18
 -1       305 3.28992E-05-5.10925E-05 3.86502E-06-1.23382E-05 5.14255E-18-4.40102E-18
 -1       306 1.35861E-05-5.72661E-05 1.46859E-05 3.33146E-06 3.72885E-18-4.08545E-18
 -1       307 8.28438E-06-5.18909E-05 1.56153E-05 1.35038E-05 8.92879E-19-5.02989E-18
 -1       308 1.91403E-05-5.02315E-05 1.03425E-05 2.44326E-05-2.34692E-18-5.26579E-18
 -1       309 4.31349E-05-3.88725E-05-3.57388E-06 4.11939E-05-4.15808E-18-5.97589E-18
 -1       310 7.49248E-05-2.82319E-05-2.08636E-05 5.13257E-05-6.74048E-18-4.83868E-18
 -1       311 1.19170E-04-2.45975E-05-3.99627E-05 6.04854E-05-6.84212E-18-7.22921E-18
 -1       312 1.70039E-04-3.05275E-05-5.81392E-05 5.26536E-05-5.75411E-18-5.21942E-18
 -1       313 2.12786E-04-3.44958E-05-7.34784E-05 3.89837E-05-4.99368E-18-4.75080E-18
 -1       314 2.40061E-04-4.08287E-05-8.15110E-05 1.24648E-05-3.63430E-18-2.99463E-18
 -1       315 2.36682E-04-3.98872E-05-8.05695E-05-1.98662E-05-3.69285E-18-4.82809E-20
 -1       316 2.03037E-04-3.27043E-05-7.05647E-05-3.97435E-05-6.04024E-18 2.20292E-18
 -1       317 1.61944E-04-2.84325E-05-5.55792E-05-5.75638E-05-6.02547E-18 3.91964E-18
 -1       318 1.08356E-04-2.40167E-05-3.58907E-05-5.96588E-05-6.08551E-18 7.35690E-18
 -1       319 6.29651E-05-2.97433E-05-1.54892E-05-4.78097E-05-3.69391E-18 7.44076E-18
 -1       320 3.16490E-05-4.20238E-05 1.94677E-06-3.26631E-05-1.51809E-18 4.64568E-18
 -1       321 1.49693E-05-5.38235E-05 1.33282E-05-2.05649E-05 8.32422E-19 2.59171E-18
 -1       322 2.11979E-04-6.96383E-05-6.07383E-05 4.30230E-05 2.66582E-18 2.16597E-18
 -1       323 9.52372E-05-2.85699E-05-2.85717E-05-1.87503E-09 3.72314E-19-9.24301E-20
 -1       324 9.16563E-05-1.43966E-05-3.31748E-05-1.30645E-05-2.02065E-18-2.15984E-18
 -1       325 9.57417E-05-1.91181E-05-3.29020E-05-1.46312E-05-2.37627E-18-1.01385E-18
 -1       326 8.79844E-05-1.03707E-05-3.33165E-05-8.15886E-06-9.28251E-19-3.36043E-18
 -1       327 8.71601E-05-9.44604E-06-3.33541E-05-5.72611E-06-5.28879E-19-3.46862E-18
 -1       328 8.66937E-05-8.91053E-06-3.33804E-05-3.37685E-06 1.63369E-20-3.26087E-18
 -1       329 8.64829E-05-8.66208E-06-3.33951E-05-1.08603E-06 4.96457E-19-3.21018E-18
 -1       330 8.64876E-05-8.66129E-06-3.33975E-05 1.18301E-06 9.36700E-19-2.95290E-18
 -1       331 8.67096E-05-8.91115E-06-3.33871E-05 3.46970E-06 1.31166E-18-2.89687E-18
 -1       332 8.71814E-05-9.44323E-06-3.33647E-05 5.77349E-06 1.68204E-18-2.67469E-18
 -1       333 8.80195E-05-1.03792E-05-3.33292E-05 8.20223E-06 2.16248E-18-2.14695E-18
 -1       334 8.94239E-05-1.19340E-05-3.32754E-05 1.07108E-05 2.52929E-18-1.46171E-18
 -1       335 9.17834E-05-1.45736E-05-3.31662E-05 1.30837E-05 2.66147E-18-3.51122E-19
 -1       336 9.58906E-05-1.93235E-05-3.28786E-05 1.46119E-05 2.53176E-18 1.54069E-18
 -1       337 5.19717E-05-3.25203E-05-8.18108E-06 3.69286E-05 5.60206E-19 2.21277E-18
 -1       338 9.64714E-05-2.60383E-05-3.01418E-05-6.34977E-06-1.84420E-18-5.98620E-19
 -1       339 9.49507E-05-2.70466E-05-2.90766E-05-2.84571E-06-1.35999E-18-6.30605E-19
 -1       340 9.39609E-05-2.74487E-05-2.84908E-05-9.55349E-07-9.47667E-19-6.46457E-19
 -1       341 9.34204E-05-2.76715E-05-2.81718E-05 6.12804E-08-5.68874E-19-8.51175E-19
 -1       342 9.31907E-05-2.78390E-05-2.80058E-05 5.49460E-07-4.64093E-19-7.64894E-19
 -1       343 9.31438E-05-2.79879E-05-2.79241E-05 6.90934E-07-6.11245E-19-7.78484E-19
 -1       344 9.31783E-05-2.81259E-05-2.78812E-05 5.80941E-07-5.37266E-19-6.86258E-19
 -1       345 9.32141E-05-2.82509E-05-2.78441E-05 2.65940E-07-4.32261E-19-8.85599E-19
 -1       346 9.31840E-05-2.83539E-05-2.77881E-05-2.35424E-07-8.27899E-19-1.03114E-18
 -1       347 9.30264E-05-2.84187E-05-2.76937E-05-9.16809E-07-1.11963E-19-1.35399E-18
 -1       348 9.26810E-05-2.84181E-05-2.75466E-05-1.76842E-06 2.91857E-19-1.51959E-18
 -1       349 9.20882E-05-2.83121E-05-2.73383E-05-2.75864E-06 3.93155E-19-8.28911E-19
 -1       350 9.11956E-05-2.80505E-05-2.70674E-05-3.81422E-06-3.95075E-19-7.22840E-19
 -1       351 8.99720E-05-2.75825E-05-2.67423E-05-4.80428E-06-8.28287E-19-1.44669E-18
 -1       352 8.84315E-05-2.68784E-05-2.63816E-05-5.53846E-06-4.17702E-19-1.40624E-18
 -1       353 8.66607E-05-2.59583E-05-2.60139E-05-5.79172E-06-5.12943E-19-1.48632E-18
 -1       354 8.48378E-05-2.49187E-05-2.56746E-05-5.36279E-06-1.09152E-19-1.35501E-18
 -1       355 8.32226E-05-2.39344E-05-2.54009E-05-4.15635E-06-7.03927E-19-1.38447E-18
 -1       356 8.21048E-05-2.32211E-05-2.52252E-05-2.25562E-06-5.01290E-19-2.29526E-18
 -1       357 8.17169E-05-2.29607E-05-2.51697E-05 6.05382E-08-7.36737E-20-2.79361E-18
 -1       358 8.21493E-05-2.32243E-05-2.52428E-05 2.38465E-06 5.49572E-19-2.03768E-18
 -1       359 8.33161E-05-2.39418E-05-2.54376E-05 4.30962E-06 3.79847E-19-1.79338E-18
 -1       360 8.49900E-05-2.49331E-05-2.57334E-05 5.55677E-06 4.97603E-20-2.86491E-18
 -1       361 8.68860E-05-2.59842E-05-2.60989E-05 6.04262E-06-1.03444E-21-3.43682E-18
 -1       362 8.87482E-05-2.69212E-05-2.64985E-05 5.86212E-06-4.99694E-19-2.21481E-18
 -1       363 9.04022E-05-2.76491E-05-2.68976E-05 5.21604E-06 3.84828E-19-9.97256E-19
 -1       364 9.17641E-05-2.81488E-05-2.72683E-05 4.32829E-06 1.03533E-18-1.05157E-18
 -1       365 9.28217E-05-2.84516E-05-2.75921E-05 3.38697E-06-6.53630E-20-9.64606E-19
 -1       366 9.36058E-05-2.86092E-05-2.78603E-05 2.51872E-06 7.04339E-19-4.84474E-19
 -1       367 9.41659E-05-2.86735E-05-2.80721E-05 1.78937E-06 5.29004E-19-3.26461E-19
 -1       368 9.45536E-05-2.86853E-05-2.82324E-05 1.21825E-06-2.43204E-19 5.34224E-19
 -1       369 9.48146E-05-2.86722E-05-2.83491E-05 7.95663E-07 2.59433E-19-3.09067E-19
 -1       370 9.49859E-05-2.86507E-05-2.84310E-05 4.97719E-07-5.02091E-19-6.51375E-19
 -1       371 9.50953E-05-2.86294E-05-2.84865E-05 2.96591E-07 2.73134E-19-5.19043E-19
 -1       372 9.51631E-05-2.86116E-05-2.85228E-05 1.66324E-07-8.98931E-19-5.66623E-19
 -1       373 9.52037E-05-2.85981E-05-2.85457E-05 8.54349E-08 6.96249E-19 6.96786E-19
 -1       374 9.52268E-05-2.85886E-05-2.85595E-05 3.74915E-08-4.34435E-19 2.07326E-19
 -1       375 9.52390E-05-2.85822E-05-2.85673E-05 1.06482E-08-5.28643E-20 1.59842E-18
 -1       376 9.52447E-05-2.85780E-05-2.85715E-05-3.23067E-09-3.40358E-19 2.19473E-19
 -1       377 9.52465E-05-2.85754E-05-2.85734E-05-9.49777E-09-5.68472E-19 3.16740E-19
 -1       378 9.52462E-05-2.85736E-05-2.85740E-05-1.15316E-08 2.48375E-18-9.01661E-19
 -1       379 9.52449E-05-2.85725E-05-2.85739E-05-1.13692E-08 2.34902E-18 3.24832E-19
 -1       380 9.52432E-05-2.85717E-05-2.85735E-05-1.01656E-08 1.21609E-18 3.64716E-19
 -1       381 9.52415E-05-2.85711E-05-2.85730E-05-8.51291E-09 9.31029E-19 4.61293E-19
 -1       382 9.52398E-05-2.85705E-05-2.85725E-05-6.65107E-09 2.50083E-18 1.00900E-18
 -1       383 9.52383E-05-2.85699E-05-2.85722E-05-4.62846E-09 5.73893E-20 1.28863E-18
 -1       384 9.50071E-05-2.69668E-05-2.91313E-05 2.94320E-06 1.44948E-18 1.12167E-18
 -1       385 9.64994E-05-2.59117E-05-3.02061E-05 6.52169E-06 2.07281E-18 1.65455E-18
 -1       386 9.40417E-05-2.73956E-05-2.85459E-05 9.39457E-07 1.06444E-18 5.78224E-19
 -1       387 9.35377E-05-2.76139E-05-2.82456E-05-2.13418E-07 7.30443E-19 5.49768E-19
 -1       388 9.33768E-05-2.77458E-05-2.81236E-05-8.97775E-07 5.80949E-19 6.73041E-19
 -1       389 9.34535E-05-2.78321E-05-2.81204E-05-1.35314E-06 7.18511E-19 3.72008E-19
 -1       390 9.36897E-05-2.78660E-05-2.82065E-05-1.75270E-06 4.32694E-19 1.97037E-19
 -1       391 9.40346E-05-2.78198E-05-2.83720E-05-2.25666E-06 3.25654E-19 1.45005E-19
 -1       392 9.44516E-05-2.76422E-05-2.86228E-05-3.04967E-06 2.35630E-19-1.65859E-19
 -1       393 9.48976E-05-2.72458E-05-2.89773E-05-4.37506E-06 6.05008E-20-3.14984E-19
 -1       394 9.52864E-05-2.64901E-05-2.94584E-05-6.56720E-06 1.48290E-19 8.68362E-20
 -1       395 9.54293E-05-2.51752E-05-3.00715E-05-1.00681E-05 3.37051E-19-3.74928E-19
 -1       396 9.49698E-05-2.31135E-05-3.07437E-05-1.53812E-05 2.76606E-19-2.68075E-19
 -1       397 9.34220E-05-2.04900E-05-3.11707E-05-2.28448E-05-6.82657E-19 8.37934E-20
 -1       398 9.08506E-05-1.88352E-05-3.06851E-05-3.16903E-05-1.56880E-18 3.17571E-19
 -1       399 8.98129E-05-2.33739E-05-2.79371E-05-4.02752E-05-2.42114E-18 1.27756E-18
 -1       400 1.56456E-04-7.20203E-05-3.64107E-05 1.69898E-05-1.18489E-18 4.12373E-19
 -1       401 1.26988E-04-4.76592E-05-3.34230E-05 3.77954E-05-1.89068E-18-1.86612E-19
 -1       402 1.13395E-04-3.10800E-05-3.48821E-05 3.77776E-05-2.28969E-18 5.93638E-19
 -1       403 1.07457E-04-2.65319E-05-3.45643E-05 2.96107E-05-1.31959E-18 5.63381E-19
 -1       404 1.04161E-04-2.64252E-05-3.32538E-05 2.02179E-05-9.63778E-19-1.68707E-18
 -1       405 1.01579E-04-2.71750E-05-3.18396E-05 1.29202E-05-1.31072E-18-2.79309E-18
 -1       406 9.95485E-05-2.77970E-05-3.07120E-05 7.92630E-06-1.37147E-18-1.62510E-18
 -1       407 9.80560E-05-2.81759E-05-2.99203E-05 4.73605E-06 7.45212E-19-7.77349E-19
 -1       408 9.70565E-05-2.83677E-05-2.94196E-05 2.84630E-06 1.09304E-18 2.37948E-19
 -1       409 9.63527E-05-2.84733E-05-2.90795E-05 1.63646E-06 4.45281E-19 2.41925E-18
 -1       410 9.59058E-05-2.85254E-05-2.88703E-05 9.23360E-07 1.00188E-18 8.62296E-19
 -1       411 9.56298E-05-2.85508E-05-2.87441E-05 5.09959E-07 2.00577E-18 4.75368E-19
 -1       412 9.54639E-05-2.85632E-05-2.86694E-05 2.74454E-07-9.53337E-19 8.03337E-19
 -1       413 9.53666E-05-2.85693E-05-2.86261E-05 1.43034E-07-1.76636E-18 2.73039E-18
 -1       414 9.53108E-05-2.85722E-05-2.86015E-05 7.15743E-08 7.76222E-19 1.56591E-18
 -1       415 9.52795E-05-2.85735E-05-2.85879E-05 3.40182E-08 1.33438E-18-3.62580E-20
 -1       416 9.52621E-05-2.85740E-05-2.85804E-05 1.51808E-08-5.79399E-19 2.11284E-19
 -1       417 9.52525E-05-2.85739E-05-2.85764E-05 6.35183E-09-1.91642E-18-2.54582E-18
 -1       418 9.52471E-05-2.85736E-05-2.85743E-05 2.63548E-09 1.89612E-18-2.80591E-18
 -1       419 9.52439E-05-2.85732E-05-2.85731E-05 1.35034E-09 9.30084E-19-1.29564E-18
 -1       420 9.52418E-05-2.85727E-05-2.85725E-05 1.07575E-09-1.79116E-18-2.18350E-18
 -1       421 9.52403E-05-2.85722E-05-2.85721E-05 1.09087E-09 2.11911E-18-3.89428E-18
 -1       422 9.52392E-05-2.85718E-05-2.85718E-05 1.05293E-09 3.29620E-18-3.26012E-18
 -1       423 9.52383E-05-2.85713E-05-2.85715E-05 8.37838E-10 1.50907E-18-1.53100E-18
 -1       424 9.52376E-05-2.85711E-05-2.85714E-05 4.43840E-10-1.87929E-18 6.07667E-19
 -1       425 9.52374E-05-2.85710E-05-2.85713E-05 3.05983E-10-1.27441E-18-9.10550E-19
 -1       426 9.52374E-05-2.85699E-05-2.85718E-05 2.04285E-09-1.62616E-18 2.13187E-18
 -1       427 9.52374E-05-2.85706E-05-2.85715E-05 1.05440E-09 1.97352E-20-5.58556E-19
 -1       428 9.52369E-05-2.85689E-05-2.85720E-05 2.97765E-09-1.20478E-18 2.99472E-18
 -1       429 9.52363E-05-2.85675E-05-2.85723E-05 3.61761E-09 3.09604E-20 1.56600E-18
 -1       430 9.52356E-05-2.85661E-05-2.85727E-05 3.81094E-09-1.59476E-18 6.92037E-19
 -1       431 9.52348E-05-2.85647E-05-2.85729E-05 3.44950E-09-7.57768E-19 1.36957E-18
 -1       432 9.52342E-05-2.85635E-05-2.85732E-05 2.53120E-09 6.80746E-19-9.05687E-19
 -1       433 9.52338E-05-2.85628E-05-2.85733E-05 1.14286E-09 9.07075E-20-2.14808E-18
 -1       434 9.52336E-05-2.85627E-05-2.85733E-05-5.47740E-10-7.78295E-19 3.58085E-19
 -1       435 9.52338E-05-2.85632E-05-2.85731E-05-2.26871E-09 1.49979E-19 1.44434E-18
 -1       436 9.52344E-05-2.85643E-05-2.85729E-05-3.76998E-09 1.90046E-18 2.29366E-18
 -1       437 9.52353E-05-2.85659E-05-2.85726E-05-4.68287E-09 1.38401E-20-8.62927E-19
 -1       438 9.52366E-05-2.85678E-05-2.85723E-05-4.66826E-09-1.22396E-18-3.14177E-18
 -1       439 1.15785E-04-6.05191E-05-2.38550E-05 3.37198E-05-1.07870E-18 2.56933E-18
 -1       440 7.93452E-06-1.93146E-05 4.89583E-06-1.98634E-05 1.23450E-18 2.65418E-18
 -1       441 8.93294E-05-1.18536E-05-3.32771E-05-1.06967E-05-1.44053E-18-3.00705E-18
 -1       442 8.55000E-05-5.00920E-05-1.55446E-05-3.83627E-05 6.35275E-20-5.94617E-19
 -1       443 3.19512E-05-3.10015E-05-7.48800E-07-2.62881E-05-1.14985E-19-3.58009E-18
 -1       444 8.92457E-06-2.23805E-05 5.49172E-06-3.58020E-06 2.16496E-19-4.63518E-18
 -1       445 1.33264E-05-1.99291E-05 2.99829E-06 2.96141E-05-1.19008E-19-6.09980E-18
 -1       446 3.80471E-05-3.12658E-05-2.87620E-06 4.91882E-05-4.49986E-20-6.05989E-18
 -1       447 8.54418E-05-4.69824E-05-1.64532E-05 5.62638E-05-1.17420E-18-2.45700E-18
 -1       448 1.24144E-04-5.25640E-05-3.06701E-05 4.76478E-05-1.70497E-18-2.46412E-18
 -1       449 1.54418E-04-4.86525E-05-4.52773E-05 3.06781E-05-2.71643E-18-1.25848E-18
 -1       450 1.71418E-04-3.29581E-05-5.93532E-05 7.94139E-06-3.74526E-18-1.28283E-18
 -1       451 1.80173E-04-1.72045E-05-6.96373E-05 2.67876E-06-4.70569E-18-1.91784E-18
 -1       452 1.74671E-04-9.47421E-06-7.08084E-05-4.60603E-08-4.30092E-18-1.99635E-18
 -1       453 1.76667E-04-1.84246E-05-6.77513E-05-2.45507E-06-4.71226E-18-1.65277E-18
 -1       454 1.67552E-04-3.77683E-05-5.57967E-05-9.15390E-06-2.79791E-18-2.89897E-18
 -1       455 1.49921E-04-4.96505E-05-4.29328E-05-3.47198E-05-9.03361E-19-1.20395E-18
 -1       456 1.15519E-04-5.26163E-05-2.69306E-05-5.07481E-05 1.39443E-18 2.78451E-18
 -1       457 6.82485E-05-4.19679E-05-1.13489E-05-5.62256E-05 1.69205E-18 4.68261E-18
 -1       458 2.80008E-05-3.01108E-05 6.81968E-07-4.35366E-05 4.42151E-19 4.03325E-18
 -1       459 1.40328E-05-1.77740E-05 1.83812E-06 1.19524E-05-8.83032E-20-1.24196E-19
 -1       460 1.38938E-04-6.74366E-05-3.08932E-05-2.66048E-05-1.73324E-19 8.60347E-19
 -1       461 1.01919E-04-4.13662E-05-2.54414E-05-4.16151E-05-2.14066E-18 1.06626E-18
 -1       462 8.95095E-05-1.33975E-05-3.26384E-05-3.92706E-06-2.05807E-19-3.01073E-18
 -1       463 9.02228E-05-1.43652E-05-3.25312E-05-5.89095E-06-6.45038E-19-3.16926E-18
 -1       464 8.89921E-05-1.26876E-05-3.27196E-05 5.30773E-08 6.25981E-19-2.77383E-18
 -1       465 8.91204E-05-1.28536E-05-3.27038E-05 2.03687E-06 1.07768E-18-2.66654E-18
 -1       466 8.95122E-05-1.33752E-05-3.26492E-05 3.97956E-06 1.42472E-18-2.52779E-18
 -1       467 9.02369E-05-1.43475E-05-3.25451E-05 5.92484E-06 1.92262E-18-2.05195E-18
 -1       468 9.13971E-05-1.59193E-05-3.23710E-05 7.74560E-06 2.21229E-18-1.71039E-18
 -1       469 9.31029E-05-1.83373E-05-3.20664E-05 9.17791E-06 2.36123E-18-9.57067E-19
 -1       470 9.52386E-05-2.22038E-05-3.13119E-05 8.65765E-06 2.24180E-18 8.21130E-20
 -1       471 9.54993E-05-2.44539E-05-3.04385E-05-5.85020E-06-1.53450E-18-1.32621E-18
 -1       472 4.22164E-05-1.36375E-05-1.15302E-05 3.02403E-05-3.58560E-19 2.15559E-18
 -1       473 9.52847E-05-2.62594E-05-2.95752E-05-2.93013E-06-1.08045E-18-1.09477E-18
 -1       474 9.49270E-05-2.72186E-05-2.90141E-05-1.10532E-06-7.58551E-19-7.52843E-19
 -1       475 9.46509E-05-2.77929E-05-2.86521E-05-5.38316E-08-5.42693E-19-7.80772E-19
 -1       476 9.44961E-05-2.81845E-05-2.84191E-05 4.61556E-07-6.34355E-19-1.16368E-18
 -1       477 9.44437E-05-2.84908E-05-2.82660E-05 5.89191E-07-4.71001E-19-1.28522E-18
 -1       478 9.44614E-05-2.87617E-05-2.81580E-05 4.15393E-07-3.43061E-19-1.02117E-18
 -1       479 9.45156E-05-2.90225E-05-2.80699E-05-1.60017E-08-5.22003E-19-8.42622E-19
 -1       480 9.45717E-05-2.92791E-05-2.79844E-05-6.87454E-07-5.46949E-19-2.23015E-19
 -1       481 9.45883E-05-2.95149E-05-2.78908E-05-1.59146E-06 1.52728E-19 3.52345E-20
 -1       482 9.45108E-05-2.96849E-05-2.77850E-05-2.71081E-06 5.31233E-19-1.61256E-19
 -1       483 9.42667E-05-2.97110E-05-2.76693E-05-3.99390E-06-8.73835E-20-7.40537E-19
 -1       484 9.37702E-05-2.94877E-05-2.75518E-05-5.32726E-06-7.09389E-19-5.80247E-19
 -1       485 9.29412E-05-2.89066E-05-2.74447E-05-6.51418E-06-6.30038E-19-2.20915E-19
 -1       486 9.17454E-05-2.79038E-05-2.73606E-05-7.27624E-06-7.69845E-19-1.69326E-19
 -1       487 9.02474E-05-2.65254E-05-2.73078E-05-7.29896E-06-5.55076E-19-2.12703E-19
 -1       488 8.86496E-05-2.49746E-05-2.72862E-05-6.33156E-06-3.93995E-19-9.13722E-19
 -1       489 8.72763E-05-2.35977E-05-2.72866E-05-4.31719E-06-9.71558E-19-2.15091E-19
 -1       490 8.64798E-05-2.27789E-05-2.72955E-05-1.48773E-06-5.61114E-19-8.59493E-19
 -1       491 8.64918E-05-2.27721E-05-2.73035E-05 1.65565E-06 3.46957E-19-1.02648E-18
 -1       492 8.73131E-05-2.35767E-05-2.73111E-05 4.50504E-06 2.03402E-19-9.26757E-19
 -1       493 8.87151E-05-2.49401E-05-2.73288E-05 6.56045E-06-3.61936E-19-9.60947E-19
 -1       494 9.03487E-05-2.64801E-05-2.73705E-05 7.58918E-06-5.19148E-19-1.70164E-18
 -1       495 9.18914E-05-2.78508E-05-2.74457E-05 7.64699E-06 5.35577E-19-2.22129E-18
 -1       496 9.31421E-05-2.88495E-05-2.75550E-05 6.98363E-06 3.56174E-19-9.47563E-19
 -1       497 9.40372E-05-2.94314E-05-2.76901E-05 5.91182E-06 4.51254E-19-6.57354E-19
 -1       498 9.46109E-05-2.96614E-05-2.78377E-05 4.70681E-06 6.16414E-19-1.07062E-18
 -1       499 9.49418E-05-2.96504E-05-2.79842E-05 3.55987E-06 2.65487E-19-9.76689E-19
 -1       500 9.51128E-05-2.95070E-05-2.81187E-05 2.57543E-06 7.18073E-19-8.04853E-19
 -1       501 9.51905E-05-2.93136E-05-2.82345E-05 1.79041E-06 3.46081E-19-7.31873E-19
 -1       502 9.52201E-05-2.91220E-05-2.83289E-05 1.19902E-06-6.98642E-19-1.65849E-19
 -1       503 9.52285E-05-2.89580E-05-2.84025E-05 7.73847E-07-1.46519E-19 2.17273E-19
 -1       504 9.52294E-05-2.88301E-05-2.84574E-05 4.80310E-07 2.65769E-19-1.95430E-20
 -1       505 9.52291E-05-2.87368E-05-2.84971E-05 2.85026E-07 3.87389E-19 1.15107E-18
 -1       506 9.52294E-05-2.86725E-05-2.85247E-05 1.59699E-07 5.66549E-19 1.64453E-18
 -1       507 9.52307E-05-2.86301E-05-2.85432E-05 8.22139E-08-4.11199E-19 1.14780E-18
 -1       508 9.52324E-05-2.86035E-05-2.85553E-05 3.62749E-08 4.58605E-19 1.93113E-18
 -1       509 9.52341E-05-2.85874E-05-2.85629E-05 1.04196E-08-3.90928E-19 2.52937E-18
 -1       510 9.52356E-05-2.85782E-05-2.85675E-05-3.10225E-09-1.08386E-18 2.13563E-18
 -1       511 9.52367E-05-2.85732E-05-2.85701E-05-9.34476E-09 3.60654E-19 1.01820E-18
 -1       512 9.52374E-05-2.85707E-05-2.85714E-05-1.14859E-08 3.86679E-18 1.01953E-18
 -1       513 9.52377E-05-2.85696E-05-2.85721E-05-1.14420E-08 1.10144E-18 1.54963E-18
 -1       514 9.52377E-05-2.85691E-05-2.85723E-05-1.03011E-08 1.78751E-18 5.53036E-19
 -1       515 9.52375E-05-2.85688E-05-2.85723E-05-8.64141E-09 1.89348E-18 5.01580E-19
 -1       516 9.52371E-05-2.85683E-05-2.85723E-05-6.77646E-09-6.51666E-19-3.21757E-18
 -1       517 9.49547E-05-2.70494E-05-2.90983E-05 1.00509E-06 1.03194E-18-3.61136E-19
 -1       518 9.46725E-05-2.75521E-05-2.87641E-05-2.42990E-07 6.55454E-19-5.96971E-19
 -1       519 9.44791E-05-2.77806E-05-2.85839E-05-1.04406E-06 7.19743E-19-7.14166E-19
 -1       520 9.43464E-05-2.78112E-05-2.85139E-05-1.61818E-06 6.84570E-19-3.15522E-19
 -1       521 9.42021E-05-2.76341E-05-2.85274E-05-2.14025E-06 6.60732E-19-3.83775E-19
 -1       522 9.39394E-05-2.71833E-05-2.86068E-05-2.77418E-06 3.37020E-19-7.02050E-19
 -1       523 9.33912E-05-2.63288E-05-2.87360E-05-3.69229E-06 1.96684E-19-4.85125E-19
 -1       524 9.22796E-05-2.48585E-05-2.88865E-05-5.08430E-06 2.37224E-19-8.39094E-19
 -1       525 9.01398E-05-2.24670E-05-2.89894E-05-7.14695E-06 3.23617E-19-1.26469E-18
 -1       526 8.62226E-05-1.87937E-05-2.88758E-05-1.00443E-05 2.46630E-19-9.62650E-19
 -1       527 7.94433E-05-1.36541E-05-2.81404E-05-1.38295E-05-2.17155E-19-1.10034E-18
 -1       528 6.92455E-05-7.98736E-06-2.61016E-05-1.82426E-05-6.48371E-19-1.47473E-18
 -1       529 5.32870E-05-3.16012E-06-2.08832E-05-2.39025E-05-2.24850E-18-2.38638E-18
 -1       530 1.61237E-05-3.10972E-06-4.89363E-06 6.82970E-06-8.94546E-19-4.78796E-18
 -1       531 8.73943E-05-1.79830E-05-2.96977E-05 1.55348E-05-2.64997E-19-3.93840E-19
 -1       532 9.13644E-05-2.18355E-05-2.97688E-05 1.03232E-05-1.52966E-18-8.85372E-19
 -1       533 9.34806E-05-2.44900E-05-2.95476E-05 6.63119E-06-7.29864E-19-1.15448E-18
 -1       534 9.44906E-05-2.61022E-05-2.92960E-05 4.23480E-06 7.28487E-19-1.00132E-18
 -1       535 9.49899E-05-2.71451E-05-2.90681E-05 2.57942E-06-1.16191E-19-5.49856E-19
 -1       536 9.52018E-05-2.77606E-05-2.88984E-05 1.53788E-06 8.23106E-19 5.41681E-19
 -1       537 9.52790E-05-2.81182E-05-2.87803E-05 8.97335E-07 2.25346E-18 2.65008E-18
 -1       538 9.52980E-05-2.83233E-05-2.87018E-05 5.12018E-07 1.04721E-18 1.64835E-18
 -1       539 9.52944E-05-2.84394E-05-2.86513E-05 2.85201E-07-2.85631E-18 1.52321E-18
 -1       540 9.52842E-05-2.85041E-05-2.86196E-05 1.54742E-07-5.28789E-19 1.63640E-18
 -1       541 9.52734E-05-2.85393E-05-2.86001E-05 8.16590E-08 3.19644E-18 1.52528E-18
 -1       542 9.52644E-05-2.85578E-05-2.85884E-05 4.19844E-08 1.34878E-18 2.06363E-18
 -1       543 9.52573E-05-2.85671E-05-2.85814E-05 2.12631E-08 1.42146E-18-9.74453E-19
 -1       544 9.52519E-05-2.85713E-05-2.85774E-05 1.09560E-08 1.01390E-18-1.81186E-18
 -1       545 9.52479E-05-2.85729E-05-2.85750E-05 6.13288E-09-6.27528E-19-1.23210E-18
 -1       546 9.52449E-05-2.85731E-05-2.85736E-05 4.02204E-09-3.11023E-19 6.28897E-19
 -1       547 9.52425E-05-2.85727E-05-2.85728E-05 3.11275E-09 2.59115E-18-2.02435E-18
 -1       548 9.52407E-05-2.85721E-05-2.85723E-05 2.61503E-09 2.69166E-18-1.72758E-18
 -1       549 9.52393E-05-2.85715E-05-2.85719E-05 2.15585E-09 2.04972E-18 3.81731E-19
 -1       550 9.52379E-05-2.85708E-05-2.85716E-05 1.28629E-09-2.08575E-18-9.12625E-19
 -1       551 9.52373E-05-2.85688E-05-2.85722E-05 4.67769E-09-1.26450E-18 4.40178E-18
 -1       552 9.52363E-05-2.85675E-05-2.85724E-05 5.19976E-09 1.54505E-18-6.30415E-19
 -1       553 9.52380E-05-2.85699E-05-2.85720E-05 3.62249E-09 4.42469E-20 2.15527E-18
 -1       554 9.52352E-05-2.85661E-05-2.85724E-05 5.02405E-09 1.11148E-18 1.51613E-18
 -1       555 9.52341E-05-2.85649E-05-2.85725E-05 4.10599E-09-2.79233E-19 1.56586E-19
 -1       556 9.52332E-05-2.85641E-05-2.85725E-05 2.51668E-09-8.94763E-19-2.07483E-18
 -1       557 9.52327E-05-2.85636E-05-2.85725E-05 4.27407E-10-1.86537E-18-1.26364E-18
 -1       558 9.52326E-05-2.85637E-05-2.85724E-05-1.86173E-09-1.23265E-18 2.45380E-18
 -1       559 9.52331E-05-2.85643E-05-2.85723E-05-4.09608E-09-3.42836E-19 5.30749E-18
 -1       560 9.52342E-05-2.85655E-05-2.85723E-05-5.79943E-09-1.35926E-19-5.65582E-19
 -1       561 9.52355E-05-2.85668E-05-2.85723E-05-6.63011E-09 6.93199E-19-1.57269E-18
 -1       562 1.50821E-04-2.31822E-05-5.53558E-05 9.03535E-06-2.26544E-18-4.37032E-18
 -1       563 8.06908E-05-1.33984E-05-2.87162E-05 2.23845E-05-1.96146E-19-1.16814E-19
 -1       564 7.11713E-05-1.03776E-05-2.56428E-05 3.04690E-05-1.35182E-18 4.96957E-19
 -1       565 1.54897E-04-5.14671E-05-4.46133E-05-9.40681E-06-1.36756E-19-3.27384E-18
 -1       566 9.54630E-05-2.50224E-05-3.01796E-05 4.88402E-06 1.86949E-18 2.84565E-20
 -1       567 8.91173E-05-1.28629E-05-3.26985E-05-1.93650E-06 2.49071E-19-2.92010E-18
 -1       568 9.52495E-05-2.63149E-05-2.95372E-05 2.59870E-06 1.43529E-18-1.57234E-19
 -1       569 5.34568E-05-1.99605E-05-1.36978E-05-3.63405E-05-1.54811E-18-1.49935E-18
 -1       570 2.69813E-05-1.17198E-05-5.81987E-06-3.51325E-05 8.13469E-19 3.94230E-18
 -1       571 1.18492E-04-5.73647E-05-2.59630E-05 4.58715E-05 6.02823E-19-7.70403E-19
 -1       572 2.68408E-05-8.61265E-06-7.01029E-06-1.72004E-05-1.55039E-18-3.73309E-18
 -1       573 9.46022E-05-2.06922E-05-3.16930E-05-9.59200E-06-1.94715E-18-1.70399E-18
 -1       574 3.73097E-05-1.43311E-05-9.05936E-06 4.04553E-05 7.29613E-19-5.20433E-18
 -1       575 1.42398E-04-6.08659E-05-3.50624E-05 2.87492E-05 8.53121E-20-2.73062E-19
 -1       576 1.57515E-04-4.68283E-05-4.77702E-05 4.45895E-06-1.83817E-18 3.99694E-20
 -1       577 1.50718E-04-1.87127E-05-5.72521E-05-9.05592E-06-3.85458E-18 1.32508E-18
 -1       578 5.75086E-05-3.07236E-05-1.09812E-05-5.36972E-05 1.39533E-18 3.44419E-18
 -1       579 1.46768E-04-6.35593E-06-6.08786E-05 5.98506E-06-3.71297E-18-1.97097E-18
 -1       580 1.40914E-04-6.02489E-05-3.45476E-05-3.16472E-05 7.00761E-19-2.36698E-18
 -1       581 1.02235E-04-5.14974E-05-2.14881E-05-5.27628E-05 2.00863E-18 3.92047E-18
 -1       582 1.46094E-04-4.78252E-06-6.12718E-05-4.88131E-06-3.88767E-18-3.67930E-19
 -1       583 1.90602E-05-2.27709E-06-6.33496E-06-2.04118E-06 9.17860E-19 5.04302E-19
 -1       584 7.46165E-05-3.84210E-05-1.50235E-05 5.51586E-05 1.26933E-18-2.48276E-18
 -1       585 9.13462E-05-1.58720E-05-3.23669E-05-7.77932E-06-1.19736E-18-2.80143E-18
 -1       586 8.13906E-05-2.84252E-05-2.20591E-05 4.07928E-05-1.33265E-18 1.53805E-18
 -1       587 1.46081E-04-3.24079E-05-4.91517E-05-1.02819E-05-2.43188E-18 1.70468E-18
 -1       588 9.52380E-05-2.85704E-05-2.85718E-05 2.38721E-09 1.40034E-19-3.29843E-19
 -1       589 1.47407E-04-3.80537E-05-4.72877E-05 7.92422E-06-1.07089E-18-4.55619E-18
 -1       590 9.14840E-05-1.67776E-05-3.20227E-05 2.44885E-06 1.05652E-18-2.26543E-18
 -1       591 9.12345E-05-1.63999E-05-3.20773E-05 8.60366E-07 6.04007E-19-2.37351E-18
 -1       592 9.28418E-05-1.89024E-05-3.16935E-05 5.25543E-06 1.79170E-18-1.68359E-18
 -1       593 9.39177E-05-2.07745E-05-3.13468E-05 6.16984E-06 2.04430E-18-1.32603E-18
 -1       594 9.49204E-05-2.29790E-05-3.08289E-05 5.80060E-06 1.97451E-18-6.45302E-19
 -1       595 8.69176E-05-1.99096E-05-2.87097E-05 5.18302E-06-7.22566E-19-2.36854E-18
 -1       596 9.04289E-05-2.30297E-05-2.88803E-05 3.70310E-06-1.04522E-18-1.74997E-18
 -1       597 4.28464E-05-1.87684E-06-1.69683E-05 1.89053E-05-7.44449E-19-2.46222E-19
 -1       598 9.50190E-05-2.36751E-05-3.05728E-05-4.73758E-06-1.03906E-18-1.76621E-18
 -1       599 9.54328E-05-2.57718E-05-2.98526E-05-2.49104E-06-8.44595E-19-1.61374E-18
 -1       600 9.55207E-05-2.70754E-05-2.93332E-05-9.72172E-07-7.40532E-19-1.45929E-18
 -1       601 9.55140E-05-2.79322E-05-2.89635E-05-5.87165E-08-6.62159E-19-1.63256E-18
 -1       602 9.55174E-05-2.85487E-05-2.87010E-05 3.85652E-07-6.37588E-19-1.54234E-18
 -1       603 9.55771E-05-2.90478E-05-2.85128E-05 4.63240E-07-2.91475E-19-1.09144E-18
 -1       604 9.57138E-05-2.95066E-05-2.83749E-05 2.37198E-07-1.11636E-19-8.92668E-19
 -1       605 9.59354E-05-2.99699E-05-2.82715E-05-2.62705E-07-2.18403E-20-4.87421E-19
 -1       606 9.62359E-05-3.04506E-05-2.81944E-05-1.03036E-06-8.36095E-20 7.58871E-20
 -1       607 9.65860E-05-3.09209E-05-2.81430E-05-2.06869E-06-3.33948E-19-4.57386E-19
 -1       608 9.69203E-05-3.12991E-05-2.81243E-05-3.36710E-06-1.82710E-19-9.68169E-19
 -1       609 9.71262E-05-3.14431E-05-2.81507E-05-4.86861E-06-2.95509E-19-7.85597E-19
 -1       610 9.70485E-05-3.11626E-05-2.82373E-05-6.42895E-06-3.20728E-19-4.59512E-19
 -1       611 9.65238E-05-3.02693E-05-2.83947E-05-7.78084E-06-5.87706E-19-5.06184E-19
 -1       612 9.54578E-05-2.86754E-05-2.86202E-05-8.53350E-06-7.95814E-19-4.99065E-19
 -1       613 9.39266E-05-2.65143E-05-2.88897E-05-8.25060E-06-7.12478E-19 2.52598E-19
 -1       614 9.22438E-05-2.42129E-05-2.91551E-05-6.62210E-06-7.56599E-19 3.62038E-19
 -1       615 9.09072E-05-2.24133E-05-2.93535E-05-3.67751E-06-9.66186E-19 2.38053E-19
 -1       616 9.03978E-05-2.17234E-05-2.94306E-05 9.45227E-08-2.06791E-19 9.35559E-20
 -1       617 9.09068E-05-2.23800E-05-2.93665E-05 3.87678E-06 2.28589E-19-1.28719E-18
 -1       618 9.22415E-05-2.41426E-05-2.91835E-05 6.85450E-06-2.32569E-19-1.25655E-18
 -1       619 9.39257E-05-2.64099E-05-2.89339E-05 8.53972E-06-9.82289E-19-1.40849E-18
 -1       620 9.54611E-05-2.85389E-05-2.86802E-05 8.89980E-06-4.24126E-19-1.05717E-18
 -1       621 9.65335E-05-3.01027E-05-2.84703E-05 8.24324E-06 1.15640E-18-7.62730E-19
 -1       622 9.70662E-05-3.09686E-05-2.83281E-05 7.00455E-06 3.68205E-19-7.64684E-19
 -1       623 9.71527E-05-3.12264E-05-2.82549E-05 5.57069E-06 2.04392E-19-8.21442E-19
 -1       624 9.69543E-05-3.10670E-05-2.82383E-05 4.20318E-06 6.37668E-21-1.33532E-18
 -1       625 9.66240E-05-3.06857E-05-2.82600E-05 3.03725E-06 9.07507E-19-1.22967E-18
 -1       626 9.62716E-05-3.02328E-05-2.83029E-05 2.11538E-06 6.84952E-19-1.63948E-18
 -1       627 9.59591E-05-2.98019E-05-2.83535E-05 1.42561E-06 8.05511E-19-8.22428E-19
 -1       628 9.57115E-05-2.94386E-05-2.84030E-05 9.31284E-07-6.58348E-19-6.14711E-20
 -1       629 9.55308E-05-2.91562E-05-2.84465E-05 5.89434E-07-3.53540E-20 1.23462E-18
 -1       630 9.54075E-05-2.89498E-05-2.84820E-05 3.60311E-07 3.09590E-20 4.35751E-19
 -1       631 9.53283E-05-2.88062E-05-2.85096E-05 2.11182E-07 4.17187E-19-3.40267E-20
 -1       632 9.52804E-05-2.87106E-05-2.85300E-05 1.16933E-07-6.80117E-20 6.29078E-19
 -1       633 9.52534E-05-2.86495E-05-2.85445E-05 5.92272E-08 3.99029E-19 6.67833E-19
 -1       634 9.52394E-05-2.86120E-05-2.85546E-05 2.51867E-08 7.43899E-20 1.42394E-18
 -1       635 9.52332E-05-2.85900E-05-2.85614E-05 6.05511E-09-9.04619E-19 4.15430E-19
 -1       636 9.52311E-05-2.85778E-05-2.85657E-05-3.95659E-09-5.50314E-19 9.92467E-19
 -1       637 9.52312E-05-2.85715E-05-2.85685E-05-8.57126E-09 3.02771E-18 2.66085E-18
 -1       638 9.52322E-05-2.85686E-05-2.85701E-05-1.01121E-08 2.09974E-18 1.06677E-18
 -1       639 9.52333E-05-2.85674E-05-2.85711E-05-9.97830E-09-5.95539E-19 1.13317E-18
 -1       640 9.52343E-05-2.85670E-05-2.85717E-05-8.96054E-09 7.23788E-19-1.28850E-18
 -1       641 9.52351E-05-2.85670E-05-2.85720E-05-7.90687E-09 2.93252E-19-2.93040E-18
 -1       642 9.50376E-05-2.76454E-05-2.88821E-05-1.05377E-06 5.33794E-19-1.29573E-18
 -1       643 9.54168E-05-2.67361E-05-2.94347E-05 8.06268E-07 1.09715E-18-1.19599E-18
 -1       644 9.46752E-05-2.75678E-05-2.87600E-05-1.57588E-06 4.54913E-19-1.03847E-18
 -1       645 9.40951E-05-2.71245E-05-2.87012E-05-2.00321E-06 5.88276E-19-6.51198E-19
 -1       646 9.31263E-05-2.62150E-05-2.86755E-05-2.43082E-06 4.92952E-19-9.52053E-19
 -1       647 9.14856E-05-2.46608E-05-2.86378E-05-2.91232E-06 2.94679E-19-1.36819E-18
 -1       648 8.87241E-05-2.22048E-05-2.85059E-05-3.42803E-06 5.66913E-19-9.43017E-19
 -1       649 8.41589E-05-1.85423E-05-2.81147E-05-3.82237E-06 1.32968E-19-1.39406E-18
 -1       650 7.68089E-05-1.34408E-05-2.71291E-05-3.67813E-06 2.38119E-19-1.58726E-18
 -1       651 6.61101E-05-7.37408E-06-2.50672E-05-2.56594E-06-7.57681E-20-2.25903E-18
 -1       652 4.93046E-05-1.23729E-06-2.03072E-05 6.06720E-07-8.68315E-19-2.52477E-18
 -1       653 1.25304E-04-5.79208E-05-2.87656E-05-3.63533E-05 2.23090E-18-1.23417E-18
 -1       654 8.07887E-05-1.51935E-05-2.80937E-05 6.95192E-06 2.72569E-19-4.00020E-19
 -1       655 9.25960E-05-2.51931E-05-2.88840E-05 2.48346E-06-1.13192E-19-1.67940E-18
 -1       656 9.38206E-05-2.65530E-05-2.88270E-05 1.60497E-06 3.40093E-19-9.44374E-19
 -1       657 9.44991E-05-2.73880E-05-2.87607E-05 1.00453E-06 6.45093E-19-1.54812E-18
 -1       658 9.48676E-05-2.78910E-05-2.87036E-05 6.11463E-07 1.51507E-18-3.51596E-19
 -1       659 9.50634E-05-2.81888E-05-2.86602E-05 3.62838E-07-2.06814E-19 1.08918E-19
 -1       660 9.51643E-05-2.83621E-05-2.86293E-05 2.10301E-07-1.69948E-18-2.31526E-18
 -1       661 9.52140E-05-2.84610E-05-2.86083E-05 1.19398E-07 4.03420E-19-2.52756E-18
 -1       662 9.52368E-05-2.85161E-05-2.85945E-05 6.67894E-08 1.02317E-18-2.76009E-19
 -1       663 9.52458E-05-2.85458E-05-2.85857E-05 3.72589E-08 2.93774E-18 1.48891E-18
 -1       664 9.52481E-05-2.85610E-05-2.85802E-05 2.12101E-08 1.06729E-18 1.81955E-18
 -1       665 9.52475E-05-2.85683E-05-2.85768E-05 1.27674E-08 5.65569E-19 1.98564E-18
 -1       666 9.52457E-05-2.85713E-05-2.85747E-05 8.43520E-09-1.11897E-18 1.09069E-18
 -1       667 9.52437E-05-2.85722E-05-2.85735E-05 6.19578E-09 3.20459E-18-7.51086E-19
 -1       668 9.52418E-05-2.85721E-05-2.85727E-05 4.91488E-09 2.56727E-18 8.90306E-19
 -1       669 9.52401E-05-2.85714E-05-2.85723E-05 3.98788E-09 1.53307E-18 5.57818E-19
 -1       670 9.52373E-05-2.85687E-05-2.85723E-05 6.24149E-09 2.12828E-18 4.62255E-18
 -1       671 9.52386E-05-2.85700E-05-2.85723E-05 5.29769E-09 1.23889E-18 3.20884E-18
 -1       672 9.52357E-05-2.85673E-05-2.85722E-05 6.38412E-09 1.00853E-18-9.82957E-19
 -1       673 9.52327E-05-2.85650E-05-2.85719E-05 4.08123E-09 1.77845E-19-1.88335E-18
 -1       674 9.52316E-05-2.85643E-05-2.85717E-05 1.85170E-09-4.36897E-19-3.58394E-18
 -1       675 9.52311E-05-2.85640E-05-2.85716E-05-7.55579E-10-6.65709E-19 7.26613E-19
 -1       676 9.52314E-05-2.85643E-05-2.85716E-05-3.53010E-09-2.75662E-18 3.02563E-18
 -1       677 9.52324E-05-2.85651E-05-2.85717E-05-6.04785E-09-2.34700E-18 4.44751E-18
 -1       678 7.08650E-05-8.95959E-06-2.64585E-05 8.64488E-06 3.65868E-19 8.98505E-19
 -1       679 5.57935E-05-2.37687E-06-2.26358E-05 9.60885E-06-1.55510E-18-5.25862E-19
 -1       680 1.01491E-04-4.65660E-05-2.33182E-05 4.46324E-05 1.59819E-18-8.93090E-19
 -1       681 9.52341E-05-2.85660E-05-2.85721E-05 5.64633E-09-5.04521E-19 6.08950E-19
 -1       682 9.20047E-05-1.75837E-05-3.19005E-05 3.94325E-06 1.48471E-18-1.86042E-18
 -1       683 1.45885E-04-5.48452E-05-3.91898E-05 7.38673E-06-8.12682E-19 3.47284E-19
 -1       684 1.28315E-04-2.72186E-06-5.44282E-05 9.62197E-07-3.02502E-18-1.69383E-18
 -1       685 1.32030E-04-5.94511E-05-3.10793E-05 2.85702E-05 6.49357E-19-4.24337E-19
 -1       686 9.20258E-05-1.76420E-05-3.18845E-05-3.89250E-06-3.04920E-19-2.70963E-18
 -1       687 9.52750E-05-2.73848E-05-2.90955E-05-3.11741E-07 7.70086E-19-1.26276E-18
 -1       688 8.52908E-05-3.81999E-05-1.98520E-05-4.91293E-05 1.41431E-18 3.83534E-18
 -1       689 3.54476E-05-1.51328E-06-1.38692E-05 1.64275E-05-3.40684E-19-4.31463E-18
 -1       690 6.74506E-05-2.47080E-05-1.79144E-05 4.33710E-05 1.39441E-18-2.87062E-18
 -1       691 3.33210E-05-1.70940E-06-1.28994E-05-1.76002E-05-6.33263E-19 4.71972E-18
 -1       692 1.44420E-04-5.73702E-05-3.74242E-05-1.30537E-05 5.81118E-19-2.81784E-18
 -1       693 1.30923E-04-1.07225E-05-5.21074E-05-1.09087E-05-2.21817E-18 2.73565E-19
 -1       694 1.30621E-04-1.30793E-05-5.09343E-05 1.19941E-05-1.63181E-18-3.29116E-18
 -1       695 5.23123E-05-1.74128E-05-1.43953E-05-4.19606E-05-5.58989E-19 2.93947E-18
 -1       696 9.28263E-05-1.89512E-05-3.16680E-05-5.21872E-06-8.65831E-19-2.56330E-18
 -1       697 9.12443E-05-1.64191E-05-3.20732E-05-7.60997E-07 2.74505E-19-2.66569E-18
 -1       698 9.52718E-05-2.49469E-05-3.01374E-05 3.46485E-06 1.69290E-18-6.81122E-19
 -1       699 9.15046E-05-1.68236E-05-3.20116E-05-2.36486E-06-2.43717E-20-2.55823E-18
 -1       700 1.31460E-04-2.23102E-05-4.70857E-05-1.40547E-05-1.85421E-18 1.52588E-18
 -1       701 9.40902E-05-2.09594E-05-3.13555E-05-6.95747E-06-1.37503E-18-2.04468E-18
 -1       702 4.50507E-05-1.17004E-05-1.36476E-05-3.07954E-05-1.85484E-18-2.59404E-18
 -1       703 9.52390E-05-2.85707E-05-2.85721E-05 3.91716E-09 1.24829E-18 8.54987E-19
 -1       704 1.31966E-04-2.51641E-05-4.61017E-05 1.38865E-05-8.27472E-19-3.21323E-18
 -1       705 1.41799E-04-4.72899E-05-4.07323E-05 3.37026E-06-7.82420E-19-4.57075E-18
 -1       706 5.67626E-05-1.12302E-05-1.92127E-05 2.75502E-05 9.37371E-19-3.42641E-18
 -1       707 1.40975E-04-4.44611E-05-4.16033E-05-7.43593E-06-9.94006E-19 2.38895E-18
 -1       708 9.53954E-05-2.60202E-05-2.97334E-05 1.96507E-06 1.36207E-18-8.86033E-19
 -1       709 9.49274E-05-2.34261E-05-3.06414E-05 4.03774E-06 1.67954E-18-1.22858E-18
 -1       710 9.21846E-05-2.53046E-05-2.86626E-05 7.21293E-07 5.81138E-19-4.54063E-19
 -1       711 8.66047E-05-2.06115E-05-2.82827E-05 5.44724E-07-3.10582E-19-1.31533E-18
 -1       712 7.41249E-05-2.48909E-05-2.08753E-05-3.86220E-05 1.78348E-18 1.40402E-18
 -1       713 9.56221E-05-2.56300E-05-2.99965E-05-1.85632E-06-6.03774E-19-1.94214E-18
 -1       714 9.59967E-05-2.71227E-05-2.95176E-05-6.81918E-07-7.47505E-19-1.85862E-18
 -1       715 9.62080E-05-2.81758E-05-2.91568E-05 4.08186E-08-5.61878E-19-1.54060E-18
 -1       716 9.63869E-05-2.89825E-05-2.88877E-05 3.89802E-07-2.90051E-19-1.14856E-18
 -1       717 9.66164E-05-2.96740E-05-2.86897E-05 4.30040E-07 1.18346E-19-1.28326E-18
 -1       718 9.69570E-05-3.03438E-05-2.85487E-05 1.99733E-07 6.06823E-20-1.12594E-18
 -1       719 9.74517E-05-3.10498E-05-2.84581E-05-2.92610E-07 8.32424E-20-1.09901E-18
 -1       720 9.81186E-05-3.18056E-05-2.84201E-05-1.06472E-06-2.90564E-19-8.92247E-19
 -1       721 9.89336E-05-3.25613E-05-2.84456E-05-2.14895E-06-3.32475E-19-5.79644E-19
 -1       722 9.98048E-05-3.31798E-05-2.85539E-05-3.56582E-06-1.59800E-19-1.04328E-18
 -1       723 1.00552E-04-3.34234E-05-2.87694E-05-5.27690E-06-6.51038E-19-1.26770E-18
 -1       724 1.00908E-04-3.29759E-05-2.91138E-05-7.11642E-06-6.55280E-19-1.35983E-18
 -1       725 1.00586E-04-3.15353E-05-2.95922E-05-8.71894E-06-5.02053E-19-7.78942E-19
 -1       726 9.94206E-05-2.90062E-05-3.01762E-05-9.51321E-06-3.43376E-19-3.65832E-19
 -1       727 9.75643E-05-2.57152E-05-3.07913E-05-8.85629E-06-2.88387E-19-2.56250E-19
 -1       728 9.55764E-05-2.24993E-05-3.13211E-05-6.36873E-06-5.30161E-19 5.60781E-20
 -1       729 9.42738E-05-2.04760E-05-3.16287E-05-2.26324E-06-8.63511E-19 1.30682E-20
 -1       730 9.42627E-05-2.04510E-05-3.16307E-05 2.45697E-06-8.52401E-19 1.48030E-19
 -1       731 9.55343E-05-2.24148E-05-3.13357E-05 6.57534E-06 5.28831E-20-8.67909E-19
 -1       732 9.74909E-05-2.55709E-05-3.08212E-05 9.11418E-06-6.72948E-19-1.19851E-18
 -1       733 9.93181E-05-2.88075E-05-3.02176E-05 9.83720E-06-5.74742E-19-4.46133E-19
 -1       734 1.00451E-04-3.12834E-05-2.96426E-05 9.12904E-06 1.93695E-19-1.46928E-19
 -1       735 1.00736E-04-3.26715E-05-2.91707E-05 7.62781E-06 9.22269E-19-9.63200E-19
 -1       736 1.00337E-04-3.30713E-05-2.88286E-05 5.90297E-06 4.13402E-19-7.26192E-19
 -1       737 9.95391E-05-3.27870E-05-2.86086E-05 4.31302E-06-5.95273E-19-2.90748E-19
 -1       738 9.86069E-05-3.21406E-05-2.84859E-05 3.01631E-06-1.00432E-19-4.07721E-19
 -1       739 9.77209E-05-3.13806E-05-2.84318E-05 2.03908E-06 2.76891E-19-7.45420E-19
 -1       740 9.69746E-05-3.06604E-05-2.84205E-05 1.34127E-06 1.13949E-18-1.34597E-18
 -1       741 9.63960E-05-3.00534E-05-2.84326E-05 8.61759E-07 4.06779E-19-1.23862E-18
 -1       742 9.59753E-05-2.95805E-05-2.84550E-05 5.41511E-07 8.59149E-19 7.80452E-20
 -1       743 9.56854E-05-2.92329E-05-2.84796E-05 3.32284E-07-1.29946E-18-6.28335E-19
 -1       744 9.54948E-05-2.89891E-05-2.85024E-05 1.98084E-07-4.06982E-19 7.93773E-19
 -1       745 9.53751E-05-2.88249E-05-2.85215E-05 1.13534E-07-3.89819E-19-3.89624E-19
 -1       746 9.53035E-05-2.87183E-05-2.85365E-05 6.12491E-08 7.14215E-21-8.29014E-19
 -1       747 9.52631E-05-2.86517E-05-2.85478E-05 2.96308E-08 8.77341E-19-5.62363E-19
 -1       748 9.52419E-05-2.86116E-05-2.85559E-05 1.10774E-08-3.32343E-19-7.35976E-19
 -1       749 9.52321E-05-2.85885E-05-2.85615E-05 6.61455E-10 9.04290E-20 2.33646E-18
 -1       750 9.52286E-05-2.85759E-05-2.85654E-05-4.77765E-09 1.63137E-18 2.03922E-18
 -1       751 9.52283E-05-2.85696E-05-2.85680E-05-7.23541E-09 2.38972E-18 6.86227E-19
 -1       752 9.52295E-05-2.85668E-05-2.85697E-05-7.95322E-09 9.03815E-19 2.02473E-18
 -1       753 9.52311E-05-2.85658E-05-2.85708E-05-7.69266E-09-1.14556E-18 4.09187E-18
 -1       754 9.52715E-05-2.74867E-05-2.90506E-05-8.37295E-07 5.07597E-19-1.31160E-18
 -1       755 9.21832E-05-2.54175E-05-2.86142E-05-1.00006E-06 4.69179E-19-1.00236E-18
 -1       756 8.97767E-05-2.35097E-05-2.84006E-05-4.41630E-07 4.62848E-19-1.16608E-18
 -1       757 8.60792E-05-2.07697E-05-2.79900E-05 7.98563E-07 4.30280E-19-1.45273E-18
 -1       758 8.05494E-05-1.71579E-05-2.71584E-05 3.30242E-06 1.28646E-19-1.39553E-18
 -1       759 7.31582E-05-1.31628E-05-2.56843E-05 7.64089E-06 6.67595E-19-1.19857E-18
 -1       760 5.90542E-05-6.89208E-06-2.21891E-05 1.20428E-05 7.30400E-20-2.38384E-18
 -1       761 1.34057E-04-5.48701E-05-3.39942E-05 9.47253E-06 8.44213E-19 1.15413E-18
 -1       762 9.52398E-05-2.85708E-05-2.85724E-05 5.67047E-09 2.63287E-18 2.56776E-18
 -1       763 9.55870E-05-2.72502E-05-2.92872E-05-3.09180E-07 8.68133E-19-1.09887E-18
 -1       764 9.34920E-05-2.65671E-05-2.86819E-05 5.61855E-07 6.80577E-19-2.52008E-18
 -1       765 9.42635E-05-2.73687E-05-2.86691E-05 3.99380E-07 9.25273E-19-2.63023E-18
 -1       766 9.47098E-05-2.78658E-05-2.86474E-05 2.67861E-07-1.52162E-19-2.13664E-18
 -1       767 9.49625E-05-2.81676E-05-2.86264E-05 1.72573E-07-5.47236E-19-1.85687E-18
 -1       768 9.51020E-05-2.83469E-05-2.86093E-05 1.08252E-07-9.76194E-19-1.44257E-18
 -1       769 9.51765E-05-2.84509E-05-2.85966E-05 6.70089E-08 2.96661E-19-1.18391E-18
 -1       770 9.52145E-05-2.85096E-05-2.85878E-05 4.15926E-08 3.66428E-19-1.34845E-19
 -1       771 9.52326E-05-2.85417E-05-2.85818E-05 2.64178E-08 8.31668E-19 2.88191E-18
 -1       772 9.52402E-05-2.85583E-05-2.85779E-05 1.75641E-08 1.19961E-18 3.94585E-18
 -1       773 9.52425E-05-2.85664E-05-2.85755E-05 1.24408E-08 1.45583E-18 2.05712E-18
 -1       774 9.52425E-05-2.85699E-05-2.85740E-05 9.42410E-09 1.38142E-18 4.03731E-19
 -1       775 9.52415E-05-2.85710E-05-2.85731E-05 7.54230E-09 1.72559E-18 1.82721E-18
 -1       776 9.52295E-05-2.85645E-05-2.85707E-05-2.32442E-09 1.55942E-18 4.88679E-19
 -1       777 5.31416E-05-8.55111E-06-1.87760E-05-2.55022E-05 1.31588E-19 3.49187E-18
 -1       778 9.52383E-05-2.85695E-05-2.85724E-05 6.92251E-09 2.31479E-18 4.84775E-18
 -1       779 9.52297E-05-2.85645E-05-2.85708E-05 6.49550E-10 1.07391E-18-1.09839E-18
 -1       780 9.52307E-05-2.85649E-05-2.85711E-05 3.39630E-09-1.11943E-18-2.50633E-18
 -1       781 9.52298E-05-2.85649E-05-2.85706E-05-5.09546E-09 2.97355E-19 3.79322E-18
 -1       782 9.38907E-05-2.09396E-05-3.12651E-05-5.22601E-06-1.05160E-18-2.37991E-18
 -1       783 7.29651E-05-1.17410E-05-2.62059E-05-2.74741E-06 5.67195E-19 1.47108E-18
 -1       784 6.03938E-05-5.92548E-06-2.31702E-05-7.60501E-06-4.27977E-19 1.82014E-18
 -1       785 9.46847E-05-2.72916E-05-2.88828E-05-1.11518E-06 4.30068E-19-1.56212E-18
 -1       786 3.85058E-05 7.17538E-08-1.59016E-05 5.66275E-06-7.99895E-19-1.07240E-18
 -1       787 9.00475E-05-2.34007E-05-2.85626E-05 7.81818E-07-4.42105E-19-1.82877E-18
 -1       788 8.11937E-05-1.67208E-05-2.76259E-05-3.96600E-07 1.23204E-18 9.48193E-19
 -1       789 9.37196E-05-2.66323E-05-2.87518E-05-1.17942E-06 5.56299E-19-1.47553E-18
 -1       790 9.49878E-05-2.36777E-05-3.05613E-05-3.34585E-06-7.15227E-19-2.14352E-18
 -1       791 9.31255E-05-1.97060E-05-3.14669E-05 1.28833E-06 6.28621E-19-1.86225E-18
 -1       792 8.95280E-05-3.44182E-05-2.34791E-05 3.71833E-05 1.55495E-18-7.35476E-19
 -1       793 9.52364E-05-2.85680E-05-2.85722E-05 7.31306E-09-3.08246E-19-1.43186E-18
 -1       794 1.08128E-04-4.73157E-05-2.59091E-05-3.75328E-05 2.75918E-18-3.29747E-20
 -1       795 1.31404E-04-5.58042E-05-3.23783E-05-1.81495E-05 1.04507E-18-2.86300E-18
 -1       796 1.17717E-04-5.13725E-05-2.83669E-05 2.92253E-05 1.70219E-18-2.37649E-19
 -1       797 1.16544E-04-7.65241E-06-4.69960E-05-4.93001E-06-1.42127E-18 2.06295E-19
 -1       798 9.56612E-05-2.65446E-05-2.96208E-05 5.45118E-07 8.68924E-19-9.31201E-19
 -1       799 1.16494E-04-8.54650E-06-4.65730E-05 6.28197E-06-1.23427E-18-1.09531E-18
 -1       800 9.30437E-05-1.95524E-05-3.14974E-05 7.88002E-08 3.41417E-19-2.22493E-18
 -1       801 1.18147E-04-1.56101E-05-4.41496E-05 1.16023E-05-8.94109E-19-1.59274E-18
 -1       802 1.17310E-04-1.40862E-05-4.44171E-05-1.08955E-05-8.83601E-19 1.30965E-18
 -1       803 1.31355E-04-3.53860E-05-4.12867E-05 1.19269E-05-2.73605E-19-2.81608E-18
 -1       804 4.83749E-05-1.56112E-06-1.97050E-05-5.68914E-06-1.64903E-18 3.01005E-18
 -1       805 9.52324E-05-2.85657E-05-2.85714E-05 5.59758E-09-1.68498E-18-9.21691E-19
 -1       806 9.39896E-05-2.13402E-05-3.11354E-05-3.28514E-06-5.53489E-19-2.22750E-18
 -1       807 9.34302E-05-2.02612E-05-3.13584E-05 2.39012E-06 1.03632E-18-1.75849E-18
 -1       808 9.39892E-05-2.12921E-05-3.11584E-05 3.30927E-06 1.35977E-18-1.46385E-18
 -1       809 1.33674E-04-5.15992E-05-3.52525E-05-3.96447E-06 6.18997E-19-2.65986E-18
 -1       810 7.54224E-05-2.15235E-05-2.30146E-05 2.93252E-05 1.66811E-18-1.44808E-18
 -1       811 9.35026E-05-2.03710E-05-3.13424E-05-2.30485E-06-2.36988E-19-2.40898E-18
 -1       812 9.52343E-05-2.85667E-05-2.85718E-05 6.87495E-09 3.23133E-19 4.51326E-20
 -1       813 9.54778E-05-2.52954E-05-3.00775E-05 1.82622E-06 1.31599E-18-1.10756E-18
 -1       814 9.37099E-05-2.69643E-05-2.86053E-05-2.26305E-07 1.03748E-18 1.12546E-18
 -1       815 9.31734E-05-1.97764E-05-3.14567E-05-1.14078E-06 2.96460E-20-2.47976E-18
 -1       816 9.26677E-05-2.60183E-05-2.85641E-05-5.46653E-07 1.17329E-18 7.00259E-19
 -1       817 9.64357E-05-2.73532E-05-2.96068E-05-3.19205E-07-2.31275E-19-1.47761E-18
 -1       818 9.68036E-05-2.85221E-05-2.92635E-05 2.32220E-07-2.96305E-19-1.32837E-18
 -1       819 9.71409E-05-2.94685E-05-2.90025E-05 5.17986E-07-1.82484E-19-1.22232E-18
 -1       820 9.75566E-05-3.03288E-05-2.88119E-05 5.78409E-07 1.19005E-19-1.24940E-18
 -1       821 9.81447E-05-3.12100E-05-2.86863E-05 4.28873E-07-1.25217E-20-1.14359E-18
 -1       822 9.89823E-05-3.21824E-05-2.86285E-05 5.08754E-08 4.50029E-20-1.26102E-18
 -1       823 1.00114E-04-3.32604E-05-2.86518E-05-6.12725E-07-3.17134E-19-9.96500E-19
 -1       824 1.01522E-04-3.43660E-05-2.87810E-05-1.65130E-06-5.72813E-19-1.13799E-18
 -1       825 1.03076E-04-3.52867E-05-2.90530E-05-3.15384E-06-7.21869E-19-1.32355E-18
 -1       826 1.04499E-04-3.56456E-05-2.95081E-05-5.13586E-06-6.46124E-19-1.16416E-18
 -1       827 1.05348E-04-3.49237E-05-3.01813E-05-7.42425E-06 7.54858E-20-4.56774E-19
 -1       828 1.05145E-04-3.26515E-05-3.10681E-05-9.48140E-06-1.15660E-19-2.70142E-20
 -1       829 1.03629E-04-2.87283E-05-3.20982E-05-1.04159E-05-4.04332E-19 2.26219E-19
 -1       830 1.01152E-04-2.38963E-05-3.31114E-05-9.22136E-06-3.41258E-19 4.34903E-19
 -1       831 9.87244E-05-1.96598E-05-3.38830E-05-5.49340E-06-5.32115E-19 4.78776E-19
 -1       832 9.77864E-05-1.81422E-05-3.41398E-05 2.38309E-08-9.04386E-19 3.94663E-19
 -1       833 9.87013E-05-1.96434E-05-3.38815E-05 5.65574E-06-9.57064E-19-1.59216E-20
 -1       834 1.01040E-04-2.37297E-05-3.31317E-05 9.42862E-06-2.98326E-19-2.73918E-19
 -1       835 1.03460E-04-2.84934E-05-3.21274E-05 1.06713E-05-8.16638E-19-4.51828E-19
 -1       836 1.04910E-04-3.23372E-05-3.11017E-05 9.80955E-06-3.96621E-20-3.40184E-19
 -1       837 1.05047E-04-3.45433E-05-3.02161E-05 7.83411E-06 2.51922E-19 8.58458E-21
 -1       838 1.04117E-04-3.51937E-05-2.95393E-05 5.64588E-06 8.66024E-19-3.80215E-20
 -1       839 1.02604E-04-3.47752E-05-2.90705E-05 3.76455E-06 1.59782E-19-1.56459E-19
 -1       840 1.00944E-04-3.38057E-05-2.87739E-05 2.36260E-06 1.65506E-19 3.54671E-19
 -1       841 9.94167E-05-3.26749E-05-2.86039E-05 1.41597E-06-1.40555E-19 7.35309E-19
 -1       842 9.81575E-05-3.16150E-05-2.85184E-05 8.20226E-07-6.24985E-20 1.85673E-19
 -1       843 9.71941E-05-3.07303E-05-2.84845E-05 4.64112E-07 1.89036E-19-1.28415E-18
 -1       844 9.64978E-05-3.00454E-05-2.84796E-05 2.59170E-07 2.06382E-18-9.38344E-20
 -1       845 9.60176E-05-2.95437E-05-2.84888E-05 1.44056E-07 4.19196E-19 9.25805E-19
 -1       846 9.56998E-05-2.91919E-05-2.85034E-05 7.98322E-08-1.32439E-19 2.14549E-18
 -1       847 9.54973E-05-2.89539E-05-2.85186E-05 4.38665E-08-1.15121E-18 1.64559E-18
 -1       848 9.53733E-05-2.87983E-05-2.85322E-05 2.33172E-08-9.88798E-19 5.01895E-19
 -1       849 9.53006E-05-2.86997E-05-2.85432E-05 1.12056E-08 2.59980E-19-5.13106E-19
 -1       850 9.52602E-05-2.86394E-05-2.85518E-05 3.89794E-09 1.02114E-18 2.42497E-20
 -1       851 9.52394E-05-2.86037E-05-2.85582E-05-5.37972E-10 1.96269E-18 1.29883E-18
 -1       852 9.52300E-05-2.85836E-05-2.85628E-05-3.16372E-09 4.77209E-19 1.20204E-18
 -1       853 9.52269E-05-2.85729E-05-2.85660E-05-4.60467E-09 8.52136E-19 5.79288E-19
 -1       854 9.52270E-05-2.85677E-05-2.85683E-05-5.21936E-09 2.28128E-18 7.25496E-19
 -1       855 9.52282E-05-2.85658E-05-2.85696E-05-5.30291E-09 2.56508E-18 9.50892E-19
 -1       856 8.63348E-05-2.19697E-05-2.75860E-05 6.57983E-06 4.03558E-19-4.89606E-19
 -1       857 8.95207E-05-2.38266E-05-2.81560E-05 3.29047E-06 5.01055E-19-7.10036E-19
 -1       858 1.29553E-04-4.44111E-05-3.65545E-05-5.85305E-06-9.24366E-19 1.97401E-18
 -1       859 9.18934E-05-2.54075E-05-2.84946E-05 1.37130E-06 4.52955E-19-9.93234E-19
 -1       860 8.23956E-05-2.01628E-05-2.66556E-05 1.15955E-05 4.89972E-19-8.52429E-19
 -1       861 7.31420E-05-1.60676E-05-2.44003E-05 1.82747E-05 1.18971E-18-1.44084E-18
 -1       862 9.58559E-05-2.65526E-05-2.97018E-05 3.74224E-07 9.72947E-19-1.30240E-18
 -1       863 7.31413E-05-1.48695E-05-2.49231E-05-1.57536E-05 5.42050E-19-1.24558E-18
 -1       864 9.57872E-05-2.72518E-05-2.93724E-05-1.40125E-07 7.98251E-19-1.11993E-18
 -1       865 9.43533E-05-2.75868E-05-2.86142E-05-7.75709E-08 4.08133E-19 2.14080E-19
 -1       866 9.47405E-05-2.79840E-05-2.86100E-05-1.31424E-08 4.40656E-20-4.76649E-19
 -1       867 9.49679E-05-2.82307E-05-2.86017E-05 1.17131E-08-9.50978E-19-1.44934E-18
 -1       868 9.50976E-05-2.83798E-05-2.85933E-05 1.92323E-08-1.42273E-18-5.80848E-19
 -1       869 9.51692E-05-2.84674E-05-2.85865E-05 1.97324E-08-1.65940E-19 6.78573E-19
 -1       870 9.52071E-05-2.85172E-05-2.85814E-05 1.78101E-08-8.05354E-19 1.03318E-18
 -1       871 9.52262E-05-2.85445E-05-2.85778E-05 1.53732E-08-1.79708E-19 1.74596E-18
 -1       872 9.52350E-05-2.85588E-05-2.85755E-05 1.30901E-08 3.49682E-18 5.64806E-19
 -1       873 9.52384E-05-2.85658E-05-2.85740E-05 1.11234E-08 9.90119E-19 1.39208E-18
 -1       874 9.52393E-05-2.85687E-05-2.85731E-05 9.46262E-09 3.07207E-19 1.07293E-18
 -1       875 1.17367E-04-4.90378E-05-2.92235E-05-2.32690E-05 9.35198E-19-4.70640E-19
 -1       876 6.95956E-05-1.66244E-05-2.25680E-05-2.66083E-05 1.46279E-18-5.93975E-19
 -1       877 9.52278E-05-2.85652E-05-2.85697E-05-9.48841E-10 1.34474E-18 6.57895E-19
 -1       878 9.52285E-05-2.85652E-05-2.85700E-05 2.03183E-09 3.19773E-19-1.81697E-18
 -1       879 9.35648E-05-2.65474E-05-2.87220E-05 3.06782E-07 3.51823E-19-1.25252E-18
 -1       880 9.54083E-05-2.74649E-05-2.91187E-05-3.36161E-07 5.13980E-19-1.29184E-18
 -1       881 9.41459E-05-3.51543E-05-2.51828E-05-3.26224E-05 1.91645E-18 2.09230E-18
 -1       882 9.46933E-05-2.72283E-05-2.89136E-05-2.07769E-07 4.80887E-19-1.18962E-18
 -1       883 1.23878E-04-3.07740E-05-4.00466E-05-1.36345E-05-1.09409E-18 1.21609E-18
 -1       884 9.45304E-05-2.25135E-05-3.08652E-05-3.39602E-06-6.36233E-19-2.23050E-18
 -1       885 1.21700E-04-4.98985E-05-3.07614E-05 1.43030E-05 9.58849E-19 7.30855E-20
 -1       886 1.08025E-04-1.10453E-05-4.16820E-05 3.17750E-07-2.89500E-19-9.78964E-20
 -1       887 9.56110E-05-2.53065E-05-3.01268E-05 1.23525E-06 9.57845E-19-1.31221E-18
 -1       888 9.58957E-05-2.57824E-05-3.00485E-05-1.18083E-06-6.94154E-19-1.86318E-18
 -1       889 1.04183E-04-4.06074E-05-2.72080E-05 2.59562E-05 1.35315E-18-8.67130E-19
 -1       890 9.52377E-05-2.85687E-05-2.85724E-05 8.41643E-09-1.22150E-18 6.41812E-19
 -1       891 8.49657E-05-2.03038E-05-2.77111E-05-4.74313E-06 6.94310E-19-5.49144E-19
 -1       892 1.19513E-04-2.41700E-05-4.09656E-05 1.34716E-05-2.38638E-19-2.87725E-18
 -1       893 1.07457E-04-1.30947E-05-4.04953E-05-5.33807E-06-1.01689E-18 2.31711E-19
 -1       894 1.28804E-04-4.33053E-05-3.66743E-05 6.52894E-06-3.72225E-19-2.62980E-18
 -1       895 1.24156E-04-4.72020E-05-3.30151E-05 6.92190E-07 3.50026E-19 1.66046E-18
 -1       896 7.98918E-05-1.74680E-05-2.67417E-05-8.82206E-06 1.47073E-18-2.26700E-18
 -1       897 9.52980E-05-2.43194E-05-3.04198E-05-2.14183E-06-5.91001E-19-2.03150E-18
 -1       898 9.52301E-05-2.85654E-05-2.85706E-05 4.73985E-09 7.02102E-19-2.12288E-18
 -1       899 9.52278E-05-2.85655E-05-2.85696E-05-3.12661E-09 3.05004E-18 7.68954E-19
 -1       900 1.24453E-04-5.06816E-05-3.16272E-05-1.23766E-05-2.45144E-19-1.17062E-18
 -1       901 9.52350E-05-2.85672E-05-2.85719E-05 8.16862E-09 3.59508E-19 2.47431E-19
 -1       902 9.19344E-05-3.07936E-05-2.61412E-05 2.47083E-05 1.62326E-18-1.02752E-18
 -1       903 9.10506E-05-2.46546E-05-2.84555E-05-1.18849E-06-3.12194E-19-6.34650E-19
 -1       904 8.85730E-05-2.27487E-05-2.82105E-05-2.43794E-06-6.17148E-19-7.17644E-19
 -1       905 9.49775E-05-2.34136E-05-3.06708E-05-2.13000E-06-4.72146E-19-2.15770E-18
 -1       906 9.45736E-05-2.25001E-05-3.08891E-05 1.30863E-06 8.25673E-19-1.60588E-18
 -1       907 1.08108E-04-1.33220E-05-4.07013E-05 5.93812E-06 1.19379E-20-8.48944E-19
 -1       908 9.44835E-05-2.22312E-05-3.09641E-05 5.57823E-07 6.20333E-19-1.85977E-18
 -1       909 9.51989E-05-2.39683E-05-3.05294E-05 1.44718E-06 1.05088E-18-1.26796E-18
 -1       910 9.46028E-05-2.79078E-05-2.85836E-05-3.58629E-07-4.36554E-19 2.26597E-18
 -1       911 9.47027E-05-2.26578E-05-3.08759E-05-1.13898E-06-5.20475E-20-2.21442E-18
 -1       912 9.35085E-05-2.69335E-05-2.85320E-05-1.21562E-06 8.25628E-19 4.16669E-19
 -1       913 9.68304E-05-2.77074E-05-2.96241E-05 6.71542E-08-9.88800E-21-1.08427E-18
 -1       914 9.72874E-05-2.89130E-05-2.93032E-05 5.05927E-07-1.39319E-19-9.26737E-19
 -1       915 9.77399E-05-2.99358E-05-2.90589E-05 8.00388E-07 1.54055E-19-9.69038E-19
 -1       916 9.83227E-05-3.09227E-05-2.88856E-05 9.75255E-07 9.09471E-20-1.21684E-18
 -1       917 9.91632E-05-3.19975E-05-2.87853E-05 1.02774E-06-4.70585E-20-1.30617E-18
 -1       918 1.00382E-04-3.32519E-05-2.87698E-05 9.08547E-07 1.03249E-20-1.14749E-18
 -1       919 1.02064E-04-3.47115E-05-2.88656E-05 5.00535E-07-3.83341E-19-8.64966E-19
 -1       920 1.04214E-04-3.62743E-05-2.91167E-05-3.76471E-07-5.22217E-19-6.38681E-19
 -1       921 1.06667E-04-3.76278E-05-2.95881E-05-1.94511E-06-3.08799E-20 7.80796E-21
 -1       922 1.09003E-04-3.82025E-05-3.03433E-05-4.34140E-06 2.16268E-19 4.33697E-19
 -1       923 1.10510E-04-3.70916E-05-3.14664E-05-7.38552E-06 1.31385E-19 6.20344E-19
 -1       924 1.10421E-04-3.36334E-05-3.29042E-05-1.02998E-05-4.00934E-20 7.04737E-19
 -1       925 1.08162E-04-2.75698E-05-3.45501E-05-1.14059E-05-1.03035E-19 3.06024E-19
 -1       926 1.04750E-04-2.06346E-05-3.60689E-05-9.42856E-06-6.36125E-19-8.70455E-20
 -1       927 1.02153E-04-1.59008E-05-3.69878E-05 3.71896E-06-6.36735E-19 6.01888E-19
 -1       928 1.04722E-04-2.05735E-05-3.60760E-05 9.41618E-06-9.17628E-19 8.16591E-19
 -1       929 1.07996E-04-2.73346E-05-3.45811E-05 1.15869E-05-8.10251E-19 8.41597E-19
 -1       930 1.10096E-04-3.32610E-05-3.29309E-05 1.04512E-05-7.53763E-19 6.80538E-19
 -1       931 1.10156E-04-3.67125E-05-3.14789E-05 7.66355E-06 7.52713E-19 7.16569E-19
 -1       932 1.08535E-04-3.76956E-05-3.03631E-05 4.70872E-06 8.17532E-19 8.33506E-19
 -1       933 1.06077E-04-3.70474E-05-2.95861E-05 2.39908E-06 5.84311E-19 1.23767E-19
 -1       934 1.03489E-04-3.56230E-05-2.90858E-05 9.05052E-07 4.19032E-19 1.91585E-19
 -1       935 1.01184E-04-3.40110E-05-2.87883E-05 9.53945E-08 1.22896E-20 2.63807E-19
 -1       936 9.93406E-05-3.25482E-05-2.86249E-05-2.55365E-07-5.05292E-19 6.38835E-20
 -1       937 9.79643E-05-3.13597E-05-2.85444E-05-3.48913E-07 1.09330E-20-6.09310E-19
 -1       938 9.69885E-05-3.04600E-05-2.85119E-05-3.20059E-07 1.48873E-18-9.87457E-21
 -1       939 9.63246E-05-2.98123E-05-2.85050E-05-2.48524E-07 2.35739E-18-8.42673E-19
 -1       940 9.58889E-05-2.93644E-05-2.85104E-05-1.74134E-07 2.02054E-19-4.93909E-19
 -1       941 9.56112E-05-2.90629E-05-2.85206E-05-1.13445E-07-9.89415E-19-5.51833E-19
 -1       942 9.54404E-05-2.88666E-05-2.85316E-05-6.93019E-08-6.35368E-19 2.71965E-21
 -1       943 9.53388E-05-2.87419E-05-2.85415E-05-4.02291E-08-1.02351E-18 4.22885E-19
 -1       944 9.52809E-05-2.86649E-05-2.85497E-05-2.23801E-08 1.39644E-18 9.89496E-19
 -1       945 9.52496E-05-2.86187E-05-2.85561E-05-1.21904E-08 1.25826E-18 6.85300E-19
 -1       946 9.52342E-05-2.85919E-05-2.85610E-05-6.79675E-09 1.04451E-18 4.65118E-20
 -1       947 9.52278E-05-2.85772E-05-2.85645E-05-4.19925E-09 7.34940E-19 7.29400E-19
 -1       948 9.52262E-05-2.85697E-05-2.85671E-05-3.10310E-09 1.97260E-18 1.27391E-18
 -1       949 9.16046E-05-2.61433E-05-2.80524E-05 7.12608E-06 2.75117E-19-1.82651E-19
 -1       950 9.01785E-05-2.59513E-05-2.75252E-05 1.16060E-05 8.63242E-19-4.85963E-19
 -1       951 9.60231E-05-2.74763E-05-2.93773E-05 2.19179E-07 5.43987E-19-9.56552E-19
 -1       952 9.41736E-05-2.75111E-05-2.85696E-05-6.69528E-07 1.60921E-18 8.79046E-19
 -1       953 9.52267E-05-2.85667E-05-2.85686E-05 1.45192E-11 1.95495E-18-5.34323E-19
 -1       954 9.60828E-05-2.67854E-05-2.96992E-05 3.62922E-07 7.04737E-19-1.38755E-18
 -1       955 9.48707E-05-2.81692E-05-2.85864E-05-1.85185E-07 1.11562E-19 2.32334E-18
 -1       956 9.50326E-05-2.83355E-05-2.85845E-05-8.96102E-08-6.22375E-19 1.65719E-18
 -1       957 9.51272E-05-2.84373E-05-2.85814E-05-3.82297E-08-7.73668E-19 8.59832E-19
 -1       958 9.51806E-05-2.84977E-05-2.85784E-05-1.15891E-08-1.28449E-18 1.61123E-18
 -1       959 9.52097E-05-2.85323E-05-2.85760E-05 1.52787E-09 4.72059E-19 1.73917E-18
 -1       960 9.52247E-05-2.85512E-05-2.85744E-05 7.38247E-09 7.80286E-19 1.11182E-18
 -1       961 9.52321E-05-2.85611E-05-2.85733E-05 9.42964E-09 2.18035E-18 2.32087E-18
 -1       962 9.52353E-05-2.85658E-05-2.85726E-05 9.59648E-09 1.37957E-18 1.61212E-18
 -1       963 8.55363E-05-2.56754E-05-2.56150E-05-2.38332E-05 1.14676E-18 2.09044E-18
 -1       964 1.19701E-04-3.61136E-05-3.58474E-05-1.10076E-05-6.10128E-19 8.55108E-19
 -1       965 9.40979E-05-2.72078E-05-2.86675E-05 2.15587E-06 3.30555E-19-6.43735E-19
 -1       966 9.58130E-05-2.56366E-05-3.00758E-05 7.83751E-07 9.50281E-19-1.27374E-18
 -1       967 9.52323E-05-2.85661E-05-2.85713E-05 6.85138E-09 3.36252E-19-2.28091E-18
 -1       968 9.62350E-05-2.61610E-05-3.00321E-05-5.56214E-07-2.40833E-19-1.46315E-18
 -1       969 9.45262E-05-2.22891E-05-3.09582E-05-2.88070E-07 3.58754E-19-2.03547E-18
 -1       970 1.10859E-04-4.29284E-05-2.91205E-05 1.52411E-05 1.28011E-18 4.84493E-19
 -1       971 1.12557E-04-2.27864E-05-3.85116E-05-1.23534E-05-9.58869E-19-9.04718E-20
 -1       972 1.05220E-04-3.99110E-05-2.79470E-05-2.18541E-05 5.04559E-19 1.19155E-18
 -1       973 9.29195E-05-2.66393E-05-2.84064E-05 4.07373E-06 3.33985E-19-4.72956E-19
 -1       974 9.52352E-05-2.85669E-05-2.85722E-05 8.90790E-09 2.46429E-19 1.48251E-18
 -1       975 9.52278E-05-2.85661E-05-2.85693E-05 2.68405E-09 1.65099E-18-2.73559E-18
 -1       976 9.25349E-05-2.61520E-05-2.84495E-05-2.14388E-06-7.06766E-19 7.00987E-19
 -1       977 1.02274E-04-1.47932E-05-3.75259E-05-3.77013E-07-8.03941E-19-4.85752E-19
 -1       978 1.25336E-04-4.74359E-05-3.34032E-05-1.45276E-06-1.09175E-18-2.74553E-18
 -1       979 8.71330E-05-2.31443E-05-2.74207E-05-1.05460E-05 1.80567E-19 1.92893E-18
 -1       980 9.52267E-05-2.85670E-05-2.85684E-05-3.00819E-09 1.05012E-18 1.28066E-18
 -1       981 9.56697E-05-2.77343E-05-2.91155E-05 4.16094E-07 5.40531E-19-8.58523E-19
 -1       982 9.50226E-05-2.76124E-05-2.88901E-05 1.01091E-06 3.99911E-19-9.48677E-19
 -1       983 1.13102E-04-4.44088E-05-2.94406E-05-1.56817E-05-7.46033E-19 4.53720E-19
 -1       984 1.02723E-04-3.71817E-05-2.80860E-05 1.75196E-05 1.56953E-18-7.49674E-19
 -1       985 1.16659E-04-4.49936E-05-3.07144E-05 5.90252E-06 1.24120E-18 1.13160E-18
 -1       986 9.55730E-05-2.46661E-05-3.03883E-05 8.54679E-07 8.14184E-19-1.41287E-18
 -1       987 8.57158E-05-2.34528E-05-2.66744E-05-1.62163E-05 1.14669E-18 1.05929E-18
 -1       988 1.20666E-04-3.35404E-05-3.74155E-05 1.18070E-05-9.99609E-19-2.09639E-18
 -1       989 9.56593E-05-2.48887E-05-3.03303E-05-1.23663E-06-3.69220E-19-1.93196E-18
 -1       990 8.93041E-05-2.40358E-05-2.79702E-05-6.34614E-06-6.76146E-19 2.42500E-18
 -1       991 1.10120E-04-1.75956E-05-3.96950E-05 1.00909E-05-2.14587E-19-1.04259E-18
 -1       992 1.16778E-04-4.01195E-05-3.28533E-05-6.30925E-06 3.52670E-19 1.32616E-18
 -1       993 9.75873E-05-2.92502E-05-2.92872E-05 8.47778E-07-9.45796E-20-1.12299E-18
 -1       994 9.80883E-05-3.02759E-05-2.90626E-05 1.24947E-06-7.13427E-20-9.76486E-19
 -1       995 9.87771E-05-3.13233E-05-2.89085E-05 1.66339E-06-5.69501E-20-8.10771E-19
 -1       996 9.98241E-05-3.25466E-05-2.88329E-05 2.07607E-06 9.58139E-21-8.08929E-19
 -1       997 1.01428E-04-3.40989E-05-2.88546E-05 2.41152E-06 1.50917E-19-7.63606E-19
 -1       998 1.03715E-04-3.60024E-05-2.90197E-05 2.46515E-06-1.51736E-20-4.71950E-19
 -1       999 1.06787E-04-3.82037E-05-2.93907E-05 1.94104E-06 1.41003E-19 1.08079E-19
 -1      1000 1.10457E-04-4.02392E-05-3.00957E-05 2.88173E-07 2.19768E-19 7.16681E-19
 -1      1001 1.16267E-04-3.38723E-05-3.53456E-05 1.13344E-05-1.30207E-18-9.61372E-19
 -1      1002 1.16372E-04-3.93895E-05-3.30057E-05 7.17858E-06 4.70635E-20-4.10773E-19
 -1      1003 1.13750E-04-4.07856E-05-3.12615E-05 2.85081E-06 5.02459E-19-5.70614E-19
 -1      1004 1.09855E-04-3.96498E-05-3.00836E-05-1.22828E-07-2.17420E-19-2.12517E-18
 -1      1005 1.06031E-04-3.75374E-05-2.93502E-05-1.64905E-06 2.31999E-19-3.17834E-18
 -1      1006 1.02751E-04-3.52492E-05-2.89280E-05-2.13511E-06 8.38752E-19-4.37831E-18
 -1      1007 1.00270E-04-3.33004E-05-2.87003E-05-2.01878E-06-2.09078E-19-3.06192E-18
 -1      1008 9.84932E-05-3.17923E-05-2.85860E-05-1.65597E-06-1.72430E-19-1.52706E-18
 -1      1009 9.72830E-05-3.06998E-05-2.85357E-05-1.23923E-06 7.73462E-19 7.05217E-20
 -1      1010 9.64876E-05-2.99433E-05-2.85192E-05-8.68313E-07 2.02586E-18-1.08547E-18
 -1      1011 9.59801E-05-2.94363E-05-2.85186E-05-5.76223E-07 1.78061E-19-2.28904E-18
 -1      1012 9.56612E-05-2.91026E-05-2.85253E-05-3.66485E-07-1.01246E-18-3.90265E-18
 -1      1013 9.54702E-05-2.88909E-05-2.85341E-05-2.21473E-07-7.00673E-19-3.07909E-18
 -1      1014 9.53563E-05-2.87572E-05-2.85425E-05-1.28441E-07-3.38936E-19-3.14404E-18
 -1      1015 9.52911E-05-2.86749E-05-2.85498E-05-7.07062E-08 1.42175E-18-9.66408E-19
 -1      1016 9.52555E-05-2.86254E-05-2.85558E-05-3.66140E-08 1.91741E-18 4.07583E-20
 -1      1017 9.52373E-05-2.85964E-05-2.85604E-05-1.75424E-08 2.07458E-18 6.86025E-19
 -1      1018 9.52290E-05-2.85800E-05-2.85639E-05-7.45205E-09 3.16953E-19 1.38482E-18
 -1      1019 9.52265E-05-2.85715E-05-2.85664E-05-2.56465E-09 2.36974E-18 6.31779E-19
 -1      1020 9.58220E-05-3.00549E-05-2.81814E-05 9.40100E-06 9.39666E-19-4.50378E-19
 -1      1021 9.57382E-05-2.48090E-05-3.03983E-05 4.05981E-07 5.15168E-19-1.60162E-18
 -1      1022 9.51140E-05-2.84441E-05-2.85728E-05-1.30378E-07-4.70456E-19-1.85346E-19
 -1      1023 9.51676E-05-2.84978E-05-2.85728E-05-6.25464E-08-1.62092E-18 1.34597E-20
 -1      1024 9.51987E-05-2.85299E-05-2.85724E-05-2.54872E-08-3.70966E-19-9.41290E-19
 -1      1025 9.71290E-05-2.80994E-05-2.95840E-05 4.40213E-07 2.33702E-19-1.47440E-18
 -1      1026 9.52161E-05-2.85483E-05-2.85719E-05-6.20069E-09 1.42677E-18-5.25351E-19
 -1      1027 9.52255E-05-2.85584E-05-2.85716E-05 3.12480E-09 2.35146E-18-2.71824E-18
 -1      1028 9.52304E-05-2.85635E-05-2.85716E-05 6.94940E-09 1.22337E-18-2.52649E-18
 -1      1029 1.13127E-04-2.61802E-05-3.72838E-05 1.25386E-05-8.45704E-19 2.40873E-19
 -1      1030 9.91734E-05-3.43281E-05-2.77874E-05-1.78351E-05 9.97978E-19 1.37837E-18
 -1      1031 9.50256E-05-2.83587E-05-2.85715E-05-2.50912E-07 2.40182E-19 1.40378E-18
 -1      1032 9.64098E-05-2.72602E-05-2.96351E-05 5.14475E-07 4.18928E-19-8.61791E-19
 -1      1033 9.55393E-05-2.43405E-05-3.05141E-05-5.41455E-07 9.03759E-21-1.84888E-18
 -1      1034 9.65544E-05-2.66430E-05-2.99620E-05-2.38645E-08 1.62363E-19-1.55304E-18
 -1      1035 9.48822E-05-2.82261E-05-2.85669E-05-4.59171E-07 5.07859E-19 1.23466E-18
 -1      1036 9.11425E-05-2.51486E-05-2.82826E-05-3.72506E-06-3.93699E-19 2.02401E-18
 -1      1037 9.26766E-05-2.73985E-05-2.79719E-05-9.45423E-06-1.92513E-19 1.61839E-18
 -1      1038 9.39258E-05-2.74780E-05-2.84769E-05-2.32433E-06 1.14175E-18 4.10066E-19
 -1      1039 9.52314E-05-2.85653E-05-2.85712E-05 7.29113E-09 4.62268E-19-2.02369E-18
 -1      1040 9.46658E-05-2.80390E-05-2.85545E-05-8.09668E-07 1.71256E-20 1.95386E-18
 -1      1041 1.15550E-04-4.18659E-05-3.15744E-05-2.65299E-06 4.51290E-19 1.25426E-18
 -1      1042 9.63975E-05-2.79777E-05-2.93244E-05 7.01770E-07 4.55761E-19-7.26705E-19
 -1      1043 9.54216E-05-2.90859E-05-2.84292E-05 6.12041E-06 3.00840E-19-2.12592E-19
 -1      1044 9.43484E-05-2.77816E-05-2.85284E-05-1.38836E-06-1.59849E-19 3.02893E-19
 -1      1045 9.58816E-05-2.85655E-05-2.88500E-05 2.25111E-06 1.14491E-19-6.64914E-19
 -1      1046 9.52262E-05-2.85684E-05-2.85676E-05-8.91162E-10 1.33467E-18-8.20975E-19
 -1      1047 1.05778E-04-3.89270E-05-2.86895E-05-1.48368E-05 3.42679E-19 2.54372E-19
 -1      1048 9.52319E-05-2.85658E-05-2.85712E-05 7.15171E-09-8.92620E-19-9.76031E-19
 -1      1049 1.07275E-04-3.95406E-05-2.90239E-05 1.10207E-05 1.29261E-18 3.52225E-19
 -1      1050 9.52287E-05-2.85657E-05-2.85699E-05 4.41286E-09 2.12317E-19-1.09202E-18
 -1      1051 9.61369E-05-2.61852E-05-2.99794E-05 5.78482E-07 6.33603E-19-1.12699E-18
 -1      1052 9.46206E-05-2.97710E-05-2.77841E-05-1.35562E-05 3.79263E-19 2.41353E-18
 -1      1053 1.17554E-04-4.55878E-05-3.08491E-05-7.55586E-06-9.37129E-19-2.87049E-18
 -1      1054 9.55526E-05-2.87141E-05-2.86445E-05 3.80597E-06 2.73724E-19-5.82093E-19
 -1      1055 1.00751E-04-3.44662E-05-2.83906E-05 1.14562E-05 1.40855E-18-1.88787E-20
 -1      1056 9.34106E-05-2.71801E-05-2.83828E-05-3.80626E-06 7.76133E-19 1.27921E-18
 -1      1057 1.16562E-04-4.35881E-05-3.12623E-05-1.65895E-06-6.48209E-19-3.41268E-18
 -1      1058 9.52144E-05-2.85556E-05-2.85681E-05-2.68565E-08 1.35880E-18-2.84792E-18
 -1      1059 9.80539E-05-3.03479E-05-2.90162E-05 1.83574E-06 1.37756E-19-1.06982E-18
 -1      1060 9.87037E-05-3.13460E-05-2.88712E-05 2.64960E-06-2.59705E-19-9.91263E-19
 -1      1061 9.99042E-05-3.26789E-05-2.88076E-05 3.62317E-06-2.65986E-19-1.13481E-18
 -1      1062 1.01741E-04-3.44853E-05-2.88352E-05 4.68073E-06 2.98374E-19-1.09033E-18
 -1      1063 1.04761E-04-3.69889E-05-2.90416E-05 5.55424E-06 8.61512E-19-4.53385E-19
 -1      1064 1.11079E-04-4.11577E-05-2.99682E-05-4.37914E-06-1.47011E-19-4.68450E-18
 -1      1065 1.06192E-04-3.79756E-05-2.92362E-05-5.08102E-06-1.14799E-19-2.67289E-18
 -1      1066 1.02411E-04-3.50882E-05-2.88459E-05-4.62449E-06 5.67675E-19-3.09721E-18
 -1      1067 9.97715E-05-3.29150E-05-2.86510E-05-3.75380E-06 4.65293E-19-3.71647E-18
 -1      1068 9.80033E-05-3.13550E-05-2.85620E-05-2.80364E-06 4.32273E-19-3.37479E-18
 -1      1069 9.68848E-05-3.03152E-05-2.85286E-05-1.97435E-06 1.25646E-18-2.09639E-18
 -1      1070 9.61948E-05-2.96435E-05-2.85212E-05-1.32653E-06 6.66268E-19-2.46469E-18
 -1      1071 9.57816E-05-2.92242E-05-2.85246E-05-8.46770E-07 6.38168E-20-3.61794E-18
 -1      1072 9.55288E-05-2.89520E-05-2.85328E-05-5.27419E-07-1.09241E-18-1.34190E-18
 -1      1073 9.53923E-05-2.87976E-05-2.85406E-05-3.17688E-07 6.46005E-19-2.09427E-18
 -1      1074 9.53108E-05-2.86990E-05-2.85478E-05-1.81596E-07 3.19190E-19-2.21124E-18
 -1      1075 9.52664E-05-2.86407E-05-2.85538E-05-9.87296E-08 1.95055E-18-1.61355E-18
 -1      1076 9.52431E-05-2.86062E-05-2.85586E-05-5.01913E-08 2.58860E-18-1.17217E-18
 -1      1077 9.52317E-05-2.85860E-05-2.85623E-05-2.28089E-08 1.92391E-18-1.13417E-18
 -1      1078 9.52274E-05-2.85753E-05-2.85652E-05-8.25423E-09 8.59633E-19-1.74987E-18
 -1      1079 9.66607E-05-2.69256E-05-2.98865E-05 4.29572E-07 2.02353E-19-1.51461E-18
 -1      1080 9.72183E-05-2.84034E-05-2.94923E-05 7.53117E-07 3.80876E-19-1.58714E-18
 -1      1081 9.51837E-05-2.85321E-05-2.85650E-05-1.29464E-07-3.75561E-19 1.81574E-18
 -1      1082 9.52218E-05-2.85607E-05-2.85690E-05-7.54650E-09 3.05273E-18-3.23711E-18
 -1      1083 9.52267E-05-2.85639E-05-2.85697E-05 1.71305E-09 9.94028E-19-1.64481E-18
 -1      1084 9.52026E-05-2.85466E-05-2.85668E-05-6.33499E-08-4.76263E-19-5.66412E-19
 -1      1085 9.62191E-05-2.83871E-05-2.90698E-05 1.26001E-06 6.58444E-19-7.14952E-19
 -1      1086 9.51549E-05-2.85105E-05-2.85619E-05-2.44863E-07-2.95799E-19 1.53628E-18
 -1      1087 9.51114E-05-2.84786E-05-2.85566E-05-4.36922E-07-3.94433E-19 4.76428E-19
 -1      1088 1.10612E-04-4.10452E-05-2.98308E-05 4.41591E-06 7.06862E-19 3.47230E-19
 -1      1089 9.76108E-05-2.94298E-05-2.92214E-05 1.23417E-06 1.22408E-19-1.16134E-18
 -1      1090 9.29171E-05-2.70492E-05-2.82245E-05-6.08174E-06-7.95014E-19 8.66890E-19
 -1      1091 9.89910E-05-3.22824E-05-2.85856E-05 6.86161E-06 4.21439E-19-3.55577E-19
 -1      1092 1.11226E-04-4.19184E-05-2.96698E-05-9.24152E-06-3.17650E-19-2.19704E-18
 -1      1093 9.50701E-05-2.86511E-05-2.84669E-05-3.27374E-06 1.19030E-18-1.35062E-19
 -1      1094 9.49905E-05-2.84770E-05-2.85069E-05-2.07171E-06 9.01416E-20 5.02529E-19
 -1      1095 9.50655E-05-2.84532E-05-2.85481E-05-7.41777E-07 9.72755E-19-1.12260E-18
 -1      1096 9.62659E-05-3.01472E-05-2.83391E-05-7.40958E-06-4.54037E-19 2.03062E-19
 -1      1097 9.88124E-05-3.26073E-05-2.83858E-05-9.75314E-06 3.90247E-19-2.58361E-19
 -1      1098 1.01691E-04-3.53620E-05-2.84410E-05-1.24817E-05 7.66377E-19 6.18594E-19
 -1      1099 9.70859E-05-2.94018E-05-2.90075E-05 1.94603E-06 1.32059E-19-6.73458E-19
 -1      1100 9.72778E-05-3.00108E-05-2.88256E-05 3.11514E-06 1.29034E-19-5.76945E-19
 -1      1101 9.69639E-05-2.82797E-05-2.94352E-05 8.46924E-07 4.05269E-19-1.22905E-18
 -1      1102 9.53959E-05-2.91120E-05-2.84095E-05-5.01362E-06 2.35406E-19 1.93202E-19
 -1      1103 9.52250E-05-2.85683E-05-2.85672E-05-5.64387E-09 9.16072E-19-7.61861E-19
 -1      1104 9.53589E-05-2.87674E-05-2.85379E-05-8.05226E-07 7.13294E-19-7.68831E-19
 -1      1105 9.50150E-05-2.84420E-05-2.85329E-05-1.26884E-06-3.95119E-20-3.63915E-19
 -1      1106 9.77488E-05-3.08462E-05-2.86813E-05 4.71270E-06-8.62063E-20-2.79583E-19
 -1      1107 1.16927E-04 2.57773E-10-4.18808E-05-4.14797E-05-3.22720E-19 7.51403E-18
 -1      1108 8.86922E-05 7.19663E-11-3.72682E-05-2.41673E-05-1.57336E-19-6.27334E-20
 -1      1109 8.40977E-05 4.14542E-11-3.57754E-05-1.78752E-05-9.27501E-20-3.09318E-18
 -1      1110 8.23368E-05 3.20035E-11-3.50744E-05-1.38349E-05-5.78100E-20-4.39414E-18
 -1      1111 8.15209E-05 2.73036E-11-3.47348E-05-1.05361E-05-3.67930E-20-4.93768E-18
 -1      1112 8.11104E-05 2.45735E-11-3.45658E-05-7.64757E-06-1.39363E-20-5.09332E-18
 -1      1113 8.08964E-05 2.29050E-11-3.44804E-05-4.99208E-06-5.63145E-21-5.09299E-18
 -1      1114 8.07928E-05 2.19938E-11-3.44406E-05-2.45158E-06 5.41142E-21-4.88328E-18
 -1      1115 8.07651E-05 2.17020E-11-3.44303E-05 2.38727E-08 1.76917E-20-4.68250E-18
 -1      1116 8.08024E-05 2.19913E-11-3.44446E-05 2.49929E-06 3.29681E-20-4.46886E-18
 -1      1117 8.09149E-05 2.29100E-11-3.44882E-05 5.04027E-06 4.10745E-20-4.26705E-18
 -1      1118 8.11382E-05 2.45808E-11-3.45765E-05 7.69805E-06 5.34094E-20-3.83595E-18
 -1      1119 8.15566E-05 2.73800E-11-3.47482E-05 1.05923E-05 6.99596E-20-3.14317E-18
 -1      1120 8.23764E-05 3.21509E-11-3.50907E-05 1.39055E-05 9.63235E-20-2.02960E-18
 -1      1121 8.41472E-05 4.16674E-11-3.57976E-05 1.79629E-05 1.18743E-19 2.48154E-20
 -1      1122 8.87824E-05 7.22860E-11-3.73045E-05 2.42705E-05 1.38384E-19 3.88095E-18
 -1      1123 1.17165E-04 2.58487E-10-4.18380E-05 4.17477E-05 1.17314E-19 1.15120E-17
 -1      1124 1.30314E-04-2.57771E-05-4.03020E-05-2.61159E-05-1.23074E-18 1.21888E-17
 -1      1125 9.75468E-05-2.88895E-05-3.16056E-05-6.79224E-07-4.38710E-19 9.34288E-18
 -1      1126 9.02546E-05-2.70548E-05-2.79221E-05 3.88152E-07-1.73748E-19 5.43360E-18
 -1      1127 8.83496E-05-2.66021E-05-2.66741E-05 2.52409E-07-1.00982E-19 2.73533E-18
 -1      1128 8.79956E-05-2.64762E-05-2.64186E-05 1.68121E-07-4.80178E-20 9.58391E-19
 -1      1129 8.83510E-05-2.65511E-05-2.65015E-05 1.20936E-07 7.49922E-21 2.19726E-19
 -1      1130 8.90142E-05-2.67276E-05-2.66959E-05 9.09281E-08-9.11284E-20-4.37254E-19
 -1      1131 8.97682E-05-2.69398E-05-2.69179E-05 6.99704E-08-6.29022E-20-1.72076E-18
 -1      1132 9.04743E-05-2.71424E-05-2.71246E-05 5.37522E-08-3.46990E-20-2.70077E-18
 -1      1133 9.10278E-05-2.73016E-05-2.72846E-05 3.96567E-08-1.94871E-20-3.51869E-18
 -1      1134 9.13355E-05-2.73882E-05-2.73698E-05 2.56559E-08-4.47091E-21-4.07578E-18
 -1      1135 9.13035E-05-2.73737E-05-2.73520E-05 9.85034E-09 9.28957E-20-4.12829E-18
 -1      1136 9.08323E-05-2.72281E-05-2.72016E-05-9.56586E-09-1.29669E-20-4.38372E-18
 -1      1137 8.98211E-05-2.69217E-05-2.68900E-05-3.39780E-08-4.42897E-20-4.69572E-18
 -1      1138 8.81840E-05-2.64297E-05-2.63942E-05-6.36803E-08 2.05314E-20-4.11310E-18
 -1      1139 8.58784E-05-2.57406E-05-2.57052E-05-9.69740E-08-1.28641E-19-3.79655E-18
 -1      1140 8.29439E-05-2.48673E-05-2.48385E-05-1.29381E-07-1.21624E-19-4.52771E-18
 -1      1141 7.95410E-05-2.38586E-05-2.38447E-05-1.53589E-07 7.97276E-20-4.91205E-18
 -1      1142 7.59719E-05-2.28042E-05-2.28130E-05-1.60814E-07-3.68000E-20-5.71655E-18
 -1      1143 7.26632E-05-2.18296E-05-2.18649E-05-1.43765E-07 1.48926E-19-6.06047E-18
 -1      1144 7.00971E-05-2.10756E-05-2.11347E-05-1.00376E-07-9.34466E-20-4.68111E-18
 -1      1145 6.87007E-05-2.06661E-05-2.07394E-05-3.63291E-08-1.09649E-19-4.68628E-18
 -1      1146 6.87279E-05-2.06745E-05-2.07480E-05 3.56343E-08-3.50725E-21-5.05376E-18
 -1      1147 7.01835E-05-2.11022E-05-2.11618E-05 9.99283E-08-1.99858E-19-5.53798E-18
 -1      1148 7.28227E-05-2.18786E-05-2.19147E-05 1.43845E-07 3.63132E-21-4.94725E-18
 -1      1149 7.62281E-05-2.28826E-05-2.28926E-05 1.61737E-07-2.89096E-19-3.80477E-18
 -1      1150 7.99272E-05-2.39764E-05-2.39643E-05 1.55699E-07 5.88166E-20-3.92857E-18
 -1      1151 8.35035E-05-2.50375E-05-2.50110E-05 1.33084E-07-4.14566E-20-5.76819E-18
 -1      1152 8.66649E-05-2.59792E-05-2.59467E-05 1.02773E-07-7.68294E-20-5.91110E-18
 -1      1153 8.92615E-05-2.67558E-05-2.67241E-05 7.22075E-08 4.35544E-20-6.07430E-18
 -1      1154 9.12639E-05-2.73574E-05-2.73306E-05 4.60319E-08-9.86694E-20-5.98392E-18
 -1      1155 9.27242E-05-2.77983E-05-2.77779E-05 2.61498E-08 6.84773E-20-6.80675E-18
 -1      1156 9.37356E-05-2.81053E-05-2.80911E-05 1.25192E-08-2.51753E-19-6.25095E-18
 -1      1157 9.44022E-05-2.83088E-05-2.82999E-05 4.06972E-09-4.25804E-19-5.78417E-18
 -1      1158 9.48197E-05-2.84372E-05-2.84321E-05-5.86770E-10 2.08254E-19-5.34715E-18
 -1      1159 9.50666E-05-2.85139E-05-2.85114E-05-2.73783E-09 4.70973E-19-4.68870E-18
 -1      1160 9.52026E-05-2.85567E-05-2.85557E-05-3.39248E-09-8.99642E-20-4.22304E-18
 -1      1161 9.52699E-05-2.85783E-05-2.85782E-05-3.25459E-09-2.56188E-19-4.02200E-18
 -1      1162 9.52971E-05-2.85875E-05-2.85878E-05-2.76948E-09-1.78307E-20-4.19610E-18
 -1      1163 9.53024E-05-2.85897E-05-2.85902E-05-2.19232E-09-3.86207E-20-6.03693E-18
 -1      1164 9.52970E-05-2.85885E-05-2.85890E-05-1.65233E-09 1.89962E-20-6.29860E-18
 -1      1165 9.52872E-05-2.85858E-05-2.85862E-05-1.20255E-09-2.24315E-19-8.28095E-18
 -1      1166 9.52764E-05-2.85828E-05-2.85831E-05-8.54305E-10 3.38380E-19-7.04308E-18
 -1      1167 9.52663E-05-2.85798E-05-2.85801E-05-5.98834E-10 1.70347E-19-3.48717E-18
 -1      1168 9.52575E-05-2.85773E-05-2.85774E-05-4.19486E-10 6.55178E-19-6.39706E-19
 -1      1169 9.52503E-05-2.85751E-05-2.85752E-05-2.97324E-10-1.90563E-19 1.71510E-18
 -1      1170 9.52446E-05-2.85734E-05-2.85735E-05-2.11510E-10-5.32927E-19-4.90129E-19
 -1      1171 9.52403E-05-2.85721E-05-2.85722E-05-1.34208E-10-1.31731E-20-1.80680E-18
 -1      1172 9.52377E-05-2.85714E-05-2.85714E-05-2.86865E-12-2.03962E-19-2.27516E-18
 -1      1173 9.52370E-05-2.85711E-05-2.85710E-05 7.73037E-11 1.22449E-18 3.11147E-18
 -1      1174 1.31455E-04-2.58486E-05-4.04283E-05 2.68801E-05 8.06587E-19 1.66387E-17
 -1      1175 9.82133E-05-2.90570E-05-3.18624E-05 8.62007E-07 2.74836E-19 1.48428E-17
 -1      1176 9.03700E-05-2.70735E-05-2.80097E-05-3.88727E-07 1.62419E-19 1.13639E-17
 -1      1177 8.83341E-05-2.65979E-05-2.66860E-05-2.53989E-07 7.46448E-20 8.80541E-18
 -1      1178 8.79251E-05-2.64583E-05-2.64023E-05-1.66764E-07 6.13669E-20 7.61244E-18
 -1      1179 8.82753E-05-2.65333E-05-2.64818E-05-1.16899E-07 5.14721E-20 6.44666E-18
 -1      1180 8.89909E-05-2.67276E-05-2.66945E-05-8.45772E-08 2.90175E-20 5.26537E-18
 -1      1181 8.98914E-05-2.69874E-05-2.69659E-05-6.18081E-08 6.04239E-20 5.00083E-18
 -1      1182 9.09075E-05-2.72889E-05-2.72752E-05-4.50142E-08 2.25072E-20 4.66572E-18
 -1      1183 9.20561E-05-2.76357E-05-2.76305E-05-3.34862E-08 3.15503E-20 3.60413E-18
 -1      1184 9.34477E-05-2.80605E-05-2.80697E-05-2.90970E-08 7.69609E-21 3.54070E-18
 -1      1185 9.53242E-05-2.86363E-05-2.86743E-05-3.78329E-08-4.56389E-20 3.94716E-18
 -1      1186 9.81348E-05-2.94970E-05-2.95963E-05-7.39189E-08 1.15283E-19 3.78199E-18
 -1      1187 1.02670E-04-3.08760E-05-3.11012E-05-1.68664E-07 8.71286E-20 3.15827E-18
 -1      1188 1.10266E-04-3.31673E-05-3.36225E-05-3.86975E-07 5.67777E-21 2.89860E-18
 -1      1189 1.23047E-04-3.70084E-05-3.77729E-05-8.50447E-07 7.95946E-20 2.66424E-18
 -1      1190 1.43893E-04-4.32889E-05-4.41414E-05-1.72277E-06-3.62239E-20 1.99349E-18
 -1      1191 1.74215E-04-5.26642E-05-5.23250E-05-2.90042E-06-5.52027E-20 3.39660E-18
 -1      1192 2.10716E-04-6.40157E-05-6.04733E-05-3.14971E-06 3.73224E-20 5.54044E-18
 -1      1193 2.33424E-04-7.10470E-05-6.42736E-05 1.29008E-06-2.53316E-19 7.50704E-18
 -1      1194 2.15303E-04-6.36541E-05-6.16990E-05 1.01951E-05 4.63221E-21 9.56978E-18
 -1      1195 1.56067E-04-4.17290E-05-5.48787E-05 1.50475E-05 4.14517E-19 8.47033E-18
 -1      1196 8.92547E-05-1.89146E-05-4.88327E-05 8.28072E-06 4.14093E-19 6.11558E-18
 -1      1197 7.98219E-05-1.59917E-05-4.81804E-05-4.49733E-06 3.95564E-19-2.89431E-18
 -1      1198 1.43658E-04-3.87605E-05-5.35267E-05-1.03882E-05 1.07679E-19-1.22405E-17
 -1      1199 2.12237E-04-6.38368E-05-6.07338E-05-6.35752E-06 2.72784E-19-1.46469E-17
 -1      1200 2.33737E-04-7.18195E-05-6.41772E-05-9.39658E-07-1.75852E-19-1.25291E-17
 -1      1201 2.11672E-04-6.47092E-05-6.06888E-05 1.45896E-06 1.31641E-19-8.52983E-18
 -1      1202 1.75182E-04-5.28386E-05-5.26100E-05 1.58318E-06 2.28136E-19-5.58534E-18
 -1      1203 1.44250E-04-4.31415E-05-4.42295E-05 1.06698E-06 1.49223E-20-3.15181E-18
 -1      1204 1.23693E-04-3.69440E-05-3.79385E-05 6.04303E-07 2.27240E-19 9.99499E-19
 -1      1205 1.11259E-04-3.32768E-05-3.39008E-05 3.16450E-07-3.43753E-19 5.93717E-19
 -1      1206 1.04067E-04-3.11712E-05-3.15115E-05 1.58582E-07-3.00597E-19 3.37572E-18
 -1      1207 1.00009E-04-2.99816E-05-3.01573E-05 7.64525E-08-8.15666E-20 2.50499E-18
 -1      1208 9.77965E-05-2.93341E-05-2.94217E-05 3.15707E-08 2.24937E-19-1.84337E-18
 -1      1209 9.65778E-05-2.89708E-05-2.90176E-05 1.65334E-08-1.37539E-19 1.34303E-18
 -1      1210 9.59011E-05-2.87701E-05-2.87931E-05 6.46453E-09-8.26755E-20 9.96251E-19
 -1      1211 9.55486E-05-2.86650E-05-2.86761E-05 1.92636E-09 6.42694E-19-2.94901E-18
 -1      1212 9.53717E-05-2.86121E-05-2.86172E-05 1.80040E-11 1.09671E-19-5.25140E-18
 -1      1213 9.52876E-05-2.85868E-05-2.85889E-05-6.51838E-10 4.63901E-20-2.06066E-18
 -1      1214 9.52510E-05-2.85757E-05-2.85764E-05-7.71852E-10 5.66149E-20 1.68946E-18
 -1      1215 9.52374E-05-2.85715E-05-2.85715E-05-6.75574E-10-3.97758E-19 6.92897E-19
 -1      1216 9.52340E-05-2.85704E-05-2.85702E-05-5.17698E-10 1.11366E-19-1.11499E-18
 -1      1217 9.52345E-05-2.85705E-05-2.85702E-05-3.64220E-10-3.00313E-19 2.81950E-18
 -1      1218 9.52359E-05-2.85709E-05-2.85706E-05-2.38481E-10 1.98649E-19-2.14385E-19
 -1      1219 9.52370E-05-2.85712E-05-2.85710E-05-1.44565E-10 2.97839E-19-6.43997E-19
 -1      1220 9.52375E-05-2.85713E-05-2.85712E-05-7.90439E-11-1.01636E-19 3.60621E-18
 -1      1221 9.52375E-05-2.85713E-05-2.85712E-05-3.67763E-11-2.97114E-19 3.09861E-19
 -1      1222 9.52372E-05-2.85712E-05-2.85712E-05-1.35880E-11 6.59201E-19-5.60266E-18
 -1      1223 9.52369E-05-2.85711E-05-2.85711E-05-8.76156E-12 4.18968E-19-1.33072E-17
 -1      1224 9.52368E-05-2.85711E-05-2.85711E-05-2.34115E-11 4.31692E-19-1.14636E-17
 -1      1225 9.52370E-05-2.85711E-05-2.85710E-05-3.18996E-11-3.75559E-19-5.37652E-18
 -1      1226 9.52371E-05-2.85712E-05-2.85710E-05-3.06611E-11-3.71311E-18-1.36065E-18
 -1      1227 9.52372E-05-2.85714E-05-2.85711E-05-5.80222E-11-7.35665E-18 9.11435E-19
 -1      1228 9.52372E-05-2.85712E-05-2.85712E-05-4.42943E-11-1.35695E-17-4.53269E-19
 -1      1229 9.52369E-05-2.85703E-05-2.85715E-05-1.66851E-11-6.01843E-18-3.77023E-19
 -1      1230 9.52364E-05-2.85686E-05-2.85720E-05 1.58166E-11-4.84835E-18 1.51912E-18
 -1      1231 9.52357E-05-2.85664E-05-2.85726E-05 4.87929E-11 3.00091E-18 1.09134E-18
 -1      1232 9.52350E-05-2.85640E-05-2.85733E-05 7.50256E-11 6.94877E-18 9.46789E-19
 -1      1233 9.52343E-05-2.85616E-05-2.85740E-05 9.12104E-11-2.79148E-18-3.72153E-19
 -1      1234 9.52337E-05-2.85596E-05-2.85745E-05 9.33357E-11-2.52539E-18 5.42791E-19
 -1      1235 9.52334E-05-2.85585E-05-2.85748E-05 7.95319E-11-3.20648E-18-6.34155E-19
 -1      1236 9.52334E-05-2.85585E-05-2.85748E-05 4.94426E-11-1.26416E-18-2.81336E-19
 -1      1237 9.52337E-05-2.85597E-05-2.85745E-05 4.17798E-12-2.07604E-18-5.16493E-19
 -1      1238 9.52344E-05-2.85620E-05-2.85738E-05-4.70946E-11 2.74761E-19 2.77783E-19
 -1      1239 9.52353E-05-2.85650E-05-2.85730E-05-9.95972E-11 4.47011E-19 1.61035E-18
 -1      1240 9.52363E-05-2.85682E-05-2.85721E-05-1.56103E-10 1.02532E-18 3.75968E-19
 -1      1241 9.52369E-05-2.85705E-05-2.85714E-05-9.71259E-12-9.02730E-18 1.84260E-19
 -1      1242 9.52372E-05-2.85713E-05-2.85710E-05 4.53598E-11-4.25194E-18 1.01207E-18
 -1      1243 4.21717E-05-1.36174E-04 2.56235E-05-2.09734E-05 5.86189E-18 1.06948E-18
 -1      1244 2.50745E-05-1.10821E-04 2.11781E-05-4.95492E-05 9.50286E-18 3.04773E-18
 -1      1245 3.94735E-06-5.34936E-05 6.36321E-06-4.23656E-05 8.38732E-18 5.59719E-18
 -1      1246 1.47195E-05-2.84780E-06-1.67256E-05 6.06983E-06 1.26496E-17 1.31849E-17
 -1      1247 9.34999E-05 3.53224E-06-4.40458E-05 7.69913E-05 1.14349E-17 1.65544E-17
 -1      1248 2.52086E-04-4.78600E-05-7.26261E-05 1.24121E-04 5.50571E-18 1.18890E-17
 -1      1249 4.26518E-04-1.25496E-04-9.40697E-05 8.38840E-05 1.39083E-18 5.06187E-18
 -1      1250 4.75579E-04-1.49222E-04-9.92599E-05-2.74230E-05 9.12890E-19-4.45751E-18
 -1      1251 3.61662E-04-9.50911E-05-8.67135E-05-1.14527E-04 3.95099E-18-1.25666E-17
 -1      1252 1.86578E-04-2.22927E-05-6.24234E-05-1.12580E-04 8.02987E-18-1.58836E-17
 -1      1253 5.50237E-05 7.58650E-06-3.30109E-05-4.91929E-05 1.27834E-17-1.54770E-17
 -1      1254 3.61264E-06-1.96123E-05-6.22989E-06 1.90454E-05 1.65290E-17-1.32899E-17
 -1      1255 9.63897E-06-7.51714E-05 1.31235E-05 5.10015E-05 1.56972E-17-8.48092E-18
 -1      1256 3.29385E-05-1.23604E-04 2.36701E-05 4.32941E-05 1.11963E-17-3.27908E-18
 -1      1257 4.26417E-05-1.33827E-04 2.50268E-05 8.92479E-06 2.63978E-18-8.69321E-19
 -1      1258 3.05487E-05-9.84991E-05 1.71288E-05-1.95593E-05-8.48727E-18-2.44538E-18
 -1      1259 1.06591E-05-3.31055E-05 1.53321E-06-1.19361E-05-1.62834E-17-7.57502E-18
 -1      1260 1.53398E-05 2.21360E-05-1.92105E-05 3.34172E-05-1.77606E-17-1.22803E-17
 -1      1261 6.57629E-05 3.64363E-05-4.11150E-05 9.25007E-05-1.35407E-17-1.44301E-17
 -1      1262 1.62683E-04 2.79104E-06-6.26082E-05 1.29833E-04-9.66380E-18-1.59073E-17
 -1      1263 2.75696E-04-5.90385E-05-8.00135E-05 1.12448E-04-3.94866E-18-9.57740E-18
 -1      1264 3.44676E-04-1.02196E-04-8.87303E-05 3.67920E-05-3.44531E-19-2.99723E-18
 -1      1265 3.35693E-04-9.65000E-05-8.76378E-05-5.74882E-05-6.29213E-19 3.21534E-18
 -1      1266 2.54995E-04-4.60544E-05-7.73081E-05-1.21222E-04-4.88230E-18 1.04143E-17
 -1      1267 1.44453E-04 1.13193E-05-5.92727E-05-1.27341E-04-1.24175E-17 1.86161E-17
 -1      1268 5.05986E-05 3.76070E-05-3.64583E-05-8.03170E-05-1.61411E-17 1.62884E-17
 -1      1269 9.77572E-06 1.01161E-05-1.30187E-05-1.73698E-05-1.19042E-17 7.56739E-18
 -1      1270 1.58023E-05-5.41984E-05 7.14834E-06 1.92442E-05-4.48419E-18 1.99392E-18
 -1      1271 3.67185E-05-1.14502E-04 2.06367E-05 1.27532E-05 1.74235E-18-9.25383E-20
 -1      1272 1.04517E-04-2.20377E-05-3.79171E-05-1.72773E-05-4.76880E-19 5.66623E-18
 -1      1273 9.03568E-05-6.68534E-06-3.60316E-05-2.04712E-05-1.11978E-18-1.52657E-18
 -1      1274 9.27059E-05-6.74500E-06-3.72411E-05-2.57623E-05-1.51195E-18 8.17916E-20
 -1      1275 8.59182E-05-4.09647E-06-3.51361E-05-1.64329E-05-1.05384E-18-3.67440E-18
 -1      1276 8.71806E-05-4.08951E-06-3.56095E-05-1.88535E-05-1.22724E-18-2.78631E-18
 -1      1277 9.21659E-05-1.04671E-05-3.51054E-05-1.90369E-05-1.96747E-18-1.34832E-18
 -1      1278 8.40920E-05-3.18794E-06-3.46863E-05-1.28189E-05-7.63322E-19-4.62281E-18
 -1      1279 8.47114E-05-3.15847E-06-3.49139E-05-1.46322E-05-9.10322E-19-4.20017E-18
 -1      1280 8.78745E-05-7.39344E-06-3.45778E-05-1.54145E-05-1.64527E-18-3.08529E-18
 -1      1281 8.31694E-05-2.72481E-06-3.44649E-05-9.69248E-06-4.89797E-19-5.04223E-18
 -1      1282 8.34879E-05-2.70646E-06-3.45763E-05-1.12383E-05-5.78815E-19-4.88467E-18
 -1      1283 8.58579E-05-5.97845E-06-3.43034E-05-1.19609E-05-1.10576E-18-3.93730E-18
 -1      1284 8.26694E-05-2.45369E-06-3.43551E-05-6.92434E-06-2.42989E-19-5.14438E-18
 -1      1285 8.28425E-05-2.44533E-06-3.44110E-05-8.29342E-06-3.44901E-19-5.10390E-18
 -1      1286 8.48011E-05-5.21194E-06-3.41666E-05-8.95253E-06-7.08722E-19-4.25504E-18
 -1      1287 8.23887E-05-2.28701E-06-3.43006E-05-4.30908E-06-9.24788E-20-5.07741E-18
 -1      1288 8.24818E-05-2.28306E-06-3.43285E-05-5.60773E-06-1.16510E-19-5.14522E-18
 -1      1289 8.42065E-05-4.75458E-06-3.41003E-05-6.22756E-06-3.27580E-19-4.35354E-18
 -1      1290 8.22540E-05-2.19597E-06-3.42781E-05-1.81060E-06 1.40405E-19-4.85967E-18
 -1      1291 8.22934E-05-2.19435E-06-3.42891E-05-3.05816E-06 5.24697E-20-4.96496E-18
 -1      1292 8.38784E-05-4.48798E-06-3.40703E-05-3.65989E-06-4.07246E-20-4.22673E-18
 -1      1293 8.22285E-05-2.16632E-06-3.42766E-05 6.40485E-07 3.41817E-19-4.67585E-18
 -1      1294 8.22262E-05-2.16632E-06-3.42756E-05-5.90694E-07 2.85859E-19-4.78759E-18
 -1      1295 8.37343E-05-4.36443E-06-3.40598E-05-1.19190E-06 3.58177E-19-4.08479E-18
 -1      1296 8.23050E-05-2.19404E-06-3.42942E-05 3.10762E-06 5.84585E-19-4.48030E-18
 -1      1297 8.22610E-05-2.19565E-06-3.42812E-05 1.86013E-06 4.87829E-19-4.58540E-18
 -1      1298 8.37388E-05-4.36386E-06-3.40620E-05 1.24376E-06 6.67536E-19-3.88902E-18
 -1      1299 8.25029E-05-2.28388E-06-3.43373E-05 5.65723E-06 7.35562E-19-4.22716E-18
 -1      1300 8.24053E-05-2.28735E-06-3.43076E-05 4.35801E-06 6.95022E-19-4.39584E-18
 -1      1301 8.38922E-05-4.48722E-06-3.40765E-05 3.71073E-06 1.03201E-18-3.71787E-18
 -1      1302 8.28677E-05-2.44500E-06-3.44217E-05 8.32027E-06 9.20103E-19-3.76014E-18
 -1      1303 8.26915E-05-2.45397E-06-3.43647E-05 6.95083E-06 8.64940E-19-4.04441E-18
 -1      1304 8.42269E-05-4.75318E-06-3.41095E-05 6.25493E-06 1.32082E-18-3.41929E-18
 -1      1305 8.35312E-05-2.71482E-06-3.45900E-05 1.12942E-05 1.21283E-18-3.00170E-18
 -1      1306 8.32058E-05-2.73227E-06-3.44770E-05 9.74392E-06 1.07843E-18-3.43588E-18
 -1      1307 8.48305E-05-5.21516E-06-3.41776E-05 8.97965E-06 1.65745E-18-2.86909E-18
 -1      1308 8.47608E-05-3.17153E-06-3.49296E-05 1.47066E-05 1.42497E-18-1.77078E-18
 -1      1309 8.41423E-05-3.20384E-06-3.47007E-05 1.28838E-05 1.30896E-18-2.53066E-18
 -1      1310 8.59112E-05-6.00151E-06-3.43159E-05 1.20193E-05 2.03099E-18-2.08611E-18
 -1      1311 8.72484E-05-4.10579E-06-3.56309E-05 1.89434E-05 1.49798E-18 4.66821E-19
 -1      1312 8.59741E-05-4.11629E-06-3.51528E-05 1.65114E-05 1.36698E-18-8.79750E-19
 -1      1313 8.79476E-05-7.42912E-06-3.45916E-05 1.54956E-05 2.25176E-18-6.68574E-19
 -1      1314 9.27705E-05-6.67153E-06-3.72505E-05 2.59181E-05 1.43318E-18 4.09477E-18
 -1      1315 9.04488E-05-6.72515E-06-3.60541E-05 2.05835E-05 1.22132E-18 2.08476E-18
 -1      1316 9.22861E-05-1.05519E-05-3.51179E-05 1.91347E-05 2.17365E-18 1.80778E-18
 -1      1317 1.04921E-04-2.20229E-05-3.80669E-05 1.76407E-05 2.60674E-19 1.02675E-17
 -1      1318 1.05230E-04-3.02552E-05-3.35505E-05-7.95881E-06-1.25319E-18 6.18567E-18
 -1      1319 9.83444E-05-2.78678E-05-3.07875E-05-4.98715E-06-1.17415E-18 4.70019E-18
 -1      1320 9.55858E-05-2.78737E-05-2.92798E-05-2.48762E-06-9.70885E-19 4.04559E-18
 -1      1321 9.33561E-05-2.75838E-05-2.82412E-05-2.04084E-06-9.06802E-19 2.67901E-18
 -1      1322 9.95545E-05-2.80724E-05-3.10040E-05-7.88451E-06-2.08190E-18 1.94526E-18
 -1      1323 9.16655E-05-2.72257E-05-2.76066E-05-8.36304E-07-7.75161E-19 2.25763E-18
 -1      1324 9.09514E-05-2.71315E-05-2.73050E-05-7.26163E-07-6.62545E-19 1.21091E-18
 -1      1325 9.47863E-05-2.77904E-05-2.88369E-05-3.11756E-06-1.61429E-18 1.14048E-18
 -1      1326 9.01982E-05-2.69481E-05-2.70607E-05-1.74587E-07-4.70921E-19 7.48777E-19
 -1      1327 9.01257E-05-2.69756E-05-2.70256E-05-1.17254E-07-3.85063E-19 1.60222E-19
 -1      1328 9.25833E-05-2.75197E-05-2.79143E-05-1.05349E-06-1.11839E-18 4.19493E-19
 -1      1329 8.98577E-05-2.69062E-05-2.69487E-05 1.46376E-07-1.85328E-19-9.94999E-20
 -1      1330 9.00651E-05-2.69951E-05-2.70079E-05 1.73329E-07-1.68118E-19-3.04879E-19
 -1      1331 9.16138E-05-2.73750E-05-2.75429E-05-8.13538E-08-6.49039E-19-2.48432E-19
 -1      1332 9.00501E-05-2.69936E-05-2.70083E-05 2.91551E-07-3.19770E-19-4.26402E-19
 -1      1333 9.03708E-05-2.71084E-05-2.71005E-05 2.99861E-07-3.30049E-19-9.74359E-19
 -1      1334 9.13345E-05-2.73584E-05-2.74253E-05 3.82623E-07-5.43464E-19-7.06687E-19
 -1      1335 9.04759E-05-2.71408E-05-2.71357E-05 3.31584E-07-3.35381E-19-1.04828E-18
 -1      1336 9.08161E-05-2.72570E-05-2.72330E-05 3.27158E-07-2.81306E-19-1.55582E-18
 -1      1337 9.14141E-05-2.74215E-05-2.74285E-05 5.68184E-07-5.21958E-19-9.35199E-19
 -1      1338 9.09578E-05-2.73003E-05-2.72779E-05 2.99904E-07-2.40293E-19-1.78274E-18
 -1      1339 9.12541E-05-2.74006E-05-2.73623E-05 2.85547E-07-3.19901E-19-2.18198E-18
 -1      1340 9.16482E-05-2.75190E-05-2.74833E-05 5.78160E-07-5.46106E-19-1.15422E-18
 -1      1341 9.13735E-05-2.74381E-05-2.73991E-05 2.11770E-07-2.47016E-19-2.26900E-18
 -1      1342 9.15755E-05-2.75083E-05-2.74558E-05 1.88431E-07-2.67297E-19-2.60465E-18
 -1      1343 9.18994E-05-2.76168E-05-2.75456E-05 4.60577E-07-5.35746E-19-1.52812E-18
 -1      1344 9.16253E-05-2.75266E-05-2.74700E-05 7.23937E-08-2.84191E-19-2.59136E-18
 -1      1345 9.16860E-05-2.75530E-05-2.74853E-05 3.98571E-08-2.87958E-20-2.78568E-18
 -1      1346 9.20644E-05-2.76878E-05-2.75826E-05 2.35703E-07-3.67355E-19-1.55839E-18
 -1      1347 9.16240E-05-2.75401E-05-2.74638E-05-1.18330E-07 2.42612E-20-3.14157E-18
 -1      1348 9.14956E-05-2.75080E-05-2.74236E-05-1.60799E-07-6.43654E-20-3.25002E-18
 -1      1349 9.20560E-05-2.77076E-05-2.75672E-05-9.10897E-08-2.58517E-19-1.85920E-18
 -1      1350 9.12820E-05-2.74520E-05-2.73544E-05-3.61489E-07-3.47151E-20-3.20012E-18
 -1      1351 9.09154E-05-2.73459E-05-2.72446E-05-4.14294E-07-1.91195E-19-3.45282E-18
 -1      1352 9.17934E-05-2.76522E-05-2.74751E-05-5.20166E-07-4.61683E-20-2.42453E-18
 -1      1353 9.05136E-05-2.72351E-05-2.71168E-05-6.53984E-07-5.43226E-20-3.24895E-18
 -1      1354 8.98635E-05-2.70396E-05-2.69246E-05-7.16049E-07 9.27005E-20-3.26908E-18
 -1      1355 9.12006E-05-2.74965E-05-2.72846E-05-1.04808E-06 1.36452E-20-2.33095E-18
 -1      1356 8.92449E-05-2.68639E-05-2.67306E-05-9.82376E-07 9.26806E-20-2.99380E-18
 -1      1357 8.82802E-05-2.65671E-05-2.64477E-05-1.04978E-06-1.39297E-21-3.01567E-18
 -1      1358 9.02116E-05-2.72154E-05-2.69788E-05-1.65638E-06 9.83170E-20-1.95810E-18
 -1      1359 8.74332E-05-2.63206E-05-2.61854E-05-1.31681E-06-2.59738E-19-2.84341E-18
 -1      1360 8.61536E-05-2.59198E-05-2.58128E-05-1.38160E-06-4.36293E-19-3.06888E-18
 -1      1361 8.87836E-05-2.67881E-05-2.65493E-05-2.29972E-06-1.84848E-19-2.11740E-18
 -1      1362 8.50956E-05-2.56047E-05-2.54895E-05-1.60762E-06-4.87082E-19-3.03255E-18
 -1      1363 8.35501E-05-2.51128E-05-2.50425E-05-1.65755E-06-3.93541E-19-3.47654E-18
 -1      1364 8.69184E-05-2.62058E-05-2.60019E-05-2.89716E-06-4.61827E-19-1.99162E-18
 -1      1365 8.23397E-05-2.47442E-05-2.46775E-05-1.78841E-06 4.80652E-20-3.60354E-18
 -1      1366 8.06406E-05-2.41957E-05-2.41892E-05-1.80849E-06 3.99392E-20-3.59225E-18
 -1      1367 8.46866E-05-2.54825E-05-2.53621E-05-3.33296E-06-2.91934E-19-2.21123E-18
 -1      1368 7.93835E-05-2.38048E-05-2.38150E-05-1.78891E-06-1.80583E-19-3.95856E-18
 -1      1369 7.77081E-05-2.32572E-05-2.33363E-05-1.76542E-06-1.96641E-19-4.17726E-18
 -1      1370 8.22475E-05-2.46651E-05-2.46783E-05-3.47378E-06-3.93989E-19-2.70085E-18
 -1      1371 7.65507E-05-2.28907E-05-2.29959E-05-1.55747E-06 1.45475E-19-4.44653E-18
 -1      1372 7.51199E-05-2.24182E-05-2.25891E-05-1.48354E-06 4.72800E-20-4.28286E-18
 -1      1373 7.98508E-05-2.38385E-05-2.40200E-05-3.20462E-06-2.75173E-19-2.63043E-18
 -1      1374 7.42271E-05-2.21313E-05-2.23291E-05-1.08634E-06 2.09747E-19-4.36697E-18
 -1      1375 7.32622E-05-2.18102E-05-2.20559E-05-9.67036E-07-2.49941E-20-3.95427E-18
 -1      1376 7.78085E-05-2.31178E-05-2.34688E-05-2.47599E-06 9.67901E-20-3.31972E-18
 -1      1377 7.27794E-05-2.16534E-05-2.19163E-05-4.27632E-07-3.09465E-20-3.79878E-18
 -1      1378 7.24463E-05-2.15417E-05-2.18223E-05-2.81098E-07-1.13536E-19-3.79579E-18
 -1      1379 7.64344E-05-2.26244E-05-2.31030E-05-1.34243E-06 1.64361E-19-3.37419E-18
 -1      1380 7.24602E-05-2.15455E-05-2.18267E-05 3.12402E-07-2.73420E-19-3.99872E-18
 -1      1381 7.28219E-05-2.16653E-05-2.19293E-05 4.59383E-07-2.52350E-19-4.67270E-18
 -1      1382 7.59651E-05-2.24528E-05-2.29798E-05 3.14928E-08-4.09468E-19-3.42006E-18
 -1      1383 7.33344E-05-2.18303E-05-2.20782E-05 1.00271E-06 1.77890E-19-4.71787E-18
 -1      1384 7.43324E-05-2.21609E-05-2.23615E-05 1.12337E-06-1.37841E-20-4.45197E-18
 -1      1385 7.64905E-05-2.26391E-05-2.31210E-05 1.41012E-06-1.00320E-19-3.68106E-18
 -1      1386 7.52603E-05-2.24576E-05-2.26325E-05 1.52850E-06 1.93375E-19-4.01639E-18
 -1      1387 7.67335E-05-2.29422E-05-2.30520E-05 1.60473E-06 2.24993E-19-3.46241E-18
 -1      1388 7.79277E-05-2.31492E-05-2.35070E-05 2.55792E-06 3.29820E-19-3.02984E-18
 -1      1389 7.79350E-05-2.33212E-05-2.34061E-05 1.82468E-06 3.06197E-20-3.46103E-18
 -1      1390 7.96667E-05-2.38853E-05-2.39017E-05 1.85143E-06-2.79645E-20-3.08777E-18
 -1      1391 8.00472E-05-2.38909E-05-2.40827E-05 3.31051E-06 2.50393E-19-2.93525E-18
 -1      1392 8.09807E-05-2.42923E-05-2.42936E-05 1.88710E-06-1.72875E-19-3.46059E-18
 -1      1393 8.27549E-05-2.48631E-05-2.48042E-05 1.87124E-06-1.29731E-19-3.70439E-18
 -1      1394 8.25425E-05-2.47447E-05-2.47718E-05 3.61342E-06-1.57433E-19-2.46197E-18
 -1      1395 8.40383E-05-2.52524E-05-2.51920E-05 1.76060E-06-5.60092E-19-4.23019E-18
 -1      1396 8.56827E-05-2.57739E-05-2.56683E-05 1.71589E-06-7.17982E-19-5.03082E-18
 -1      1397 8.51083E-05-2.55977E-05-2.54948E-05 3.51619E-06-8.07025E-19-3.78459E-18
 -1      1398 8.68334E-05-2.61154E-05-2.60205E-05 1.51422E-06 1.23832E-19-5.06794E-18
 -1      1399 8.82404E-05-2.65547E-05-2.64308E-05 1.45566E-06 4.04584E-19-4.87190E-18
 -1      1400 8.75017E-05-2.63672E-05-2.61844E-05 3.13384E-06-5.76646E-19-4.20559E-18
 -1      1401 8.92029E-05-2.68341E-05-2.67290E-05 1.21699E-06-1.03186E-19-4.23323E-18
 -1      1402 9.03288E-05-2.71799E-05-2.70595E-05 1.15681E-06 1.03828E-19-3.88055E-18
 -1      1403 8.95697E-05-2.70078E-05-2.67940E-05 2.59955E-06 4.67397E-19-3.10759E-18
 -1      1404 9.10881E-05-2.73957E-05-2.72974E-05 9.22460E-07-1.32819E-19-3.61066E-18
 -1      1405 9.19378E-05-2.76523E-05-2.75484E-05 8.68522E-07-2.41603E-20-3.85400E-18
 -1      1406 9.12472E-05-2.75076E-05-2.72995E-05 2.02841E-06 2.10810E-19-2.54574E-18
 -1      1407 9.25073E-05-2.78110E-05-2.77284E-05 6.63553E-07 3.31633E-19-3.96011E-18
 -1      1408 9.31156E-05-2.79915E-05-2.79093E-05 6.19577E-07 4.76393E-19-3.45274E-18
 -1      1409 9.25362E-05-2.78767E-05-2.76963E-05 1.49977E-06 8.11084E-20-1.40586E-18
 -1      1410 9.35235E-05-2.81032E-05-2.80392E-05 4.54688E-07-9.98043E-20-3.30458E-18
 -1      1411 9.39381E-05-2.82239E-05-2.81632E-05 4.21347E-07-2.60545E-19-3.65060E-18
 -1      1412 9.34807E-05-2.81366E-05-2.79929E-05 1.05583E-06 1.48560E-19-1.23564E-18
 -1      1413 9.42182E-05-2.82994E-05-2.82530E-05 2.97182E-07-4.00088E-19-3.08961E-18
 -1      1414 9.44873E-05-2.83761E-05-2.83339E-05 2.73380E-07-7.03004E-20-3.22354E-18
 -1      1415 9.41435E-05-2.83119E-05-2.82048E-05 7.09532E-07 1.37181E-19-9.79517E-19
 -1      1416 9.46718E-05-2.84252E-05-2.83933E-05 1.84942E-07 9.98705E-20-3.33220E-18
 -1      1417 9.48378E-05-2.84714E-05-2.84436E-05 1.68825E-07 6.34591E-19-3.22363E-18
 -1      1418 9.45899E-05-2.84254E-05-2.83500E-05 4.55174E-07 3.86508E-20-8.85930E-19
 -1      1419 9.49543E-05-2.85019E-05-2.84812E-05 1.08884E-07 2.27730E-19-3.29253E-18
 -1      1420 9.50508E-05-2.85280E-05-2.85106E-05 9.85014E-08 2.38701E-19-3.16750E-18
 -1      1421 9.48785E-05-2.84959E-05-2.84455E-05 2.77808E-07 5.88448E-19-1.56120E-18
 -1      1422 9.51210E-05-2.85462E-05-2.85333E-05 5.97411E-08 4.50978E-19-3.13698E-18
 -1      1423 9.51729E-05-2.85596E-05-2.85493E-05 5.33829E-08 1.81658E-19-2.95936E-18
 -1      1424 9.50572E-05-2.85377E-05-2.85057E-05 1.59875E-07 1.99564E-19-2.82573E-18
 -1      1425 9.52128E-05-2.85698E-05-2.85623E-05 2.94923E-08 2.58253E-19-2.93791E-18
 -1      1426 9.52376E-05-2.85756E-05-2.85700E-05 2.58134E-08 5.74104E-20-2.74725E-18
 -1      1427 9.51625E-05-2.85611E-05-2.85418E-05 8.50158E-08 2.28435E-19-2.73389E-18
 -1      1428 9.52585E-05-2.85809E-05-2.85768E-05 1.18544E-08-5.92933E-19-2.17537E-18
 -1      1429 9.52676E-05-2.85826E-05-2.85798E-05 9.87357E-09-3.75365E-19-2.85831E-18
 -1      1430 9.52206E-05-2.85732E-05-2.85622E-05 3.97676E-08-5.79449E-19-1.54968E-18
 -1      1431 9.52771E-05-2.85849E-05-2.85829E-05 2.24517E-09-6.39929E-19-3.38422E-18
 -1      1432 9.52779E-05-2.85844E-05-2.85833E-05 1.28778E-09-8.23094E-19-4.40618E-18
 -1      1433 9.52497E-05-2.85786E-05-2.85728E-05 1.39303E-08-6.23281E-19-1.27580E-18
 -1      1434 9.52810E-05-2.85851E-05-2.85843E-05-2.49304E-09 3.41909E-20-3.99011E-18
 -1      1435 9.52778E-05-2.85837E-05-2.85834E-05-2.86776E-09-3.71664E-19-4.70334E-18
 -1      1436 9.52618E-05-2.85802E-05-2.85776E-05 2.44579E-10-5.49891E-19-1.64774E-18
 -1      1437 9.52774E-05-2.85835E-05-2.85833E-05-4.43150E-09-8.80023E-19-4.50526E-18
 -1      1438 9.52727E-05-2.85818E-05-2.85820E-05-4.49796E-09-2.56313E-19-4.80602E-18
 -1      1439 9.52645E-05-2.85799E-05-2.85790E-05-6.19511E-09-9.15434E-19-1.93578E-18
 -1      1440 9.52708E-05-2.85813E-05-2.85814E-05-4.86668E-09 9.75326E-19-5.14953E-18
 -1      1441 9.52659E-05-2.85796E-05-2.85800E-05-4.78724E-09 1.07362E-18-3.85865E-18
 -1      1442 9.52624E-05-2.85787E-05-2.85787E-05-8.55199E-09 7.81258E-19-1.16399E-18
 -1      1443 9.52635E-05-2.85789E-05-2.85792E-05-4.57016E-09 6.41021E-19-2.40513E-18
 -1      1444 9.52590E-05-2.85775E-05-2.85779E-05-4.43493E-09 6.55689E-19-1.95817E-18
 -1      1445 9.52583E-05-2.85772E-05-2.85776E-05-8.77238E-09 1.72055E-18-1.53414E-18
 -1      1446 9.52565E-05-2.85768E-05-2.85771E-05-3.97193E-09 1.35684E-18-2.17177E-18
 -1      1447 9.52527E-05-2.85756E-05-2.85759E-05-3.82590E-09 1.15586E-18-4.79078E-19
 -1      1448 9.52535E-05-2.85757E-05-2.85762E-05-7.99009E-09 1.26958E-18-8.28785E-19
 -1      1449 9.52504E-05-2.85750E-05-2.85752E-05-3.28532E-09 6.21457E-19-3.83993E-19
 -1      1450 9.52473E-05-2.85740E-05-2.85743E-05-3.14527E-09-9.78542E-20 5.48632E-20
 -1      1451 9.52490E-05-2.85743E-05-2.85749E-05-6.81401E-09 1.39763E-18-1.31330E-18
 -1      1452 9.52454E-05-2.85734E-05-2.85737E-05-2.58551E-09-9.58265E-19 1.21175E-18
 -1      1453 9.52429E-05-2.85727E-05-2.85730E-05-2.44912E-09-7.08588E-19-2.49862E-19
 -1      1454 9.52450E-05-2.85732E-05-2.85737E-05-5.51852E-09-1.87547E-20-2.81408E-19
 -1      1455 9.52415E-05-2.85723E-05-2.85725E-05-1.85782E-09 2.43872E-19 2.73686E-19
 -1      1456 9.52398E-05-2.85717E-05-2.85720E-05-1.70463E-09 1.06835E-18 3.63062E-19
 -1      1457 9.52418E-05-2.85722E-05-2.85727E-05-4.16238E-09-2.18708E-19 1.97518E-18
 -1      1458 9.52387E-05-2.85714E-05-2.85717E-05-1.03486E-09 3.42279E-19 5.77416E-19
 -1      1459 9.52378E-05-2.85711E-05-2.85715E-05-8.35137E-10 1.24429E-18 1.67519E-18
 -1      1460 9.52393E-05-2.85714E-05-2.85720E-05-2.68801E-09 1.23883E-18 2.67570E-18
 -1      1461 9.52372E-05-2.85710E-05-2.85712E-05-2.60197E-11-1.61932E-18 1.47561E-18
 -1      1462 9.52375E-05-2.85708E-05-2.85715E-05-8.53675E-10-1.13707E-18 2.41535E-18
 -1      1463 9.86302E-05-2.78428E-05-3.09611E-05 5.25805E-06 1.08463E-18 9.22048E-18
 -1      1464 1.05753E-04-3.01684E-05-3.38109E-05 8.43413E-06 1.09140E-18 1.04376E-17
 -1      1465 9.35033E-05-2.76094E-05-2.83052E-05 2.14367E-06 8.83773E-19 7.22773E-18
 -1      1466 9.58422E-05-2.79083E-05-2.93988E-05 2.59773E-06 9.30625E-19 8.54641E-18
 -1      1467 9.97579E-05-2.79423E-05-3.11416E-05 8.26843E-06 1.91789E-18 5.41461E-18
 -1      1468 9.09847E-05-2.71314E-05-2.73208E-05 7.70136E-07 5.63714E-19 5.80967E-18
 -1      1469 9.17450E-05-2.72328E-05-2.76438E-05 8.86502E-07 6.57099E-19 6.66536E-18
 -1      1470 9.49316E-05-2.78001E-05-2.89017E-05 3.28307E-06 1.49538E-18 4.43398E-18
 -1      1471 9.01210E-05-2.69678E-05-2.70254E-05 1.28875E-07 3.74852E-19 4.83455E-18
 -1      1472 9.02082E-05-2.69439E-05-2.70668E-05 1.90536E-07 4.35719E-19 5.40378E-18
 -1      1473 9.26498E-05-2.75228E-05-2.79440E-05 1.11419E-06 9.65035E-19 3.44143E-18
 -1      1474 9.00791E-05-2.69913E-05-2.70132E-05-1.91269E-07 3.60153E-19 3.98123E-18
 -1      1475 8.98587E-05-2.69001E-05-2.69499E-05-1.59369E-07 3.44352E-19 4.55938E-18
 -1      1476 9.16665E-05-2.73785E-05-2.75653E-05 7.82467E-08 7.33286E-19 2.63470E-18
 -1      1477 9.04744E-05-2.71259E-05-2.71344E-05-3.61030E-07 1.94359E-19 3.38052E-18
 -1      1478 9.01016E-05-2.69989E-05-2.70260E-05-3.44378E-07 3.44978E-19 3.80939E-18
 -1      1479 9.14282E-05-2.73694E-05-2.74628E-05-4.56887E-07 6.59442E-19 2.35326E-18
 -1      1480 9.11217E-05-2.73254E-05-2.73305E-05-4.60143E-07 1.52512E-19 3.17629E-18
 -1      1481 9.06644E-05-2.71795E-05-2.71973E-05-4.50001E-07 1.74910E-19 3.26653E-18
 -1      1482 9.16235E-05-2.74551E-05-2.75074E-05-7.52269E-07 3.81999E-19 1.91333E-18
 -1      1483 9.19489E-05-2.75690E-05-2.75818E-05-5.40937E-07 2.95431E-19 2.56742E-18
 -1      1484 9.14232E-05-2.74086E-05-2.74277E-05-5.29882E-07 2.38680E-19 2.94082E-18
 -1      1485 9.20883E-05-2.76000E-05-2.76431E-05-9.45536E-07 4.30659E-19 1.50065E-18
 -1      1486 9.29727E-05-2.78598E-05-2.78954E-05-6.50909E-07 1.48211E-19 2.14244E-18
 -1      1487 9.23492E-05-2.76768E-05-2.77110E-05-6.30683E-07 3.09258E-19 2.55220E-18
 -1      1488 9.27543E-05-2.77850E-05-2.78494E-05-1.13683E-06 4.89168E-19 1.33026E-18
 -1      1489 9.43033E-05-2.82257E-05-2.83075E-05-8.47414E-07-1.33044E-19 2.40243E-18
 -1      1490 9.34973E-05-2.79965E-05-2.80666E-05-8.06577E-07-1.08586E-19 2.09555E-18
 -1      1491 9.36287E-05-2.80069E-05-2.81316E-05-1.42678E-06 8.13681E-20 1.18510E-18
 -1      1492 9.61769E-05-2.87273E-05-2.88946E-05-1.21350E-06-3.10524E-20 2.39736E-18
 -1      1493 9.50219E-05-2.84059E-05-2.85460E-05-1.13407E-06-1.17751E-19 2.32239E-18
 -1      1494 9.47945E-05-2.82776E-05-2.85209E-05-1.94542E-06-1.26995E-19 1.19141E-18
 -1      1495 9.90159E-05-2.94740E-05-2.97955E-05-1.87923E-06 3.08578E-19 1.87384E-18
 -1      1496 9.72159E-05-2.89773E-05-2.92470E-05-1.73138E-06 4.05054E-19 2.26705E-18
 -1      1497 9.64253E-05-2.86247E-05-2.90818E-05-2.88498E-06 2.57869E-19 9.89682E-19
 -1      1498 1.03525E-04-3.06506E-05-3.12420E-05-3.04948E-06 9.19891E-20 2.00538E-18
 -1      1499 1.00578E-04-2.98347E-05-3.03381E-05-2.78376E-06-2.61786E-20 1.98660E-18
 -1      1500 9.88125E-05-2.90957E-05-2.99227E-05-4.54124E-06 3.02430E-19 1.03441E-18
 -1      1501 1.10801E-04-3.25611E-05-3.35872E-05-5.02695E-06 6.44539E-20 1.74616E-18
 -1      1502 1.05903E-04-3.11810E-05-3.20879E-05-4.56580E-06 9.17972E-20 1.97981E-18
 -1      1503 1.02396E-04-2.97666E-05-3.12046E-05-7.35353E-06 2.31769E-19 1.04295E-18
 -1      1504 1.22372E-04-3.56892E-05-3.72653E-05-8.16950E-06 1.66548E-19 1.17748E-18
 -1      1505 1.14372E-04-3.33459E-05-3.48732E-05-7.41557E-06 3.36100E-19 1.74690E-18
 -1      1506 1.07777E-04-3.07774E-05-3.31259E-05-1.18867E-05 2.38916E-19 5.64617E-19
 -1      1507 1.39754E-04-4.07306E-05-4.25141E-05-1.25863E-05-3.69875E-19 1.81265E-18
 -1      1508 1.27521E-04-3.69062E-05-3.90749E-05-1.15066E-05-1.83290E-19 1.61826E-18
 -1      1509 1.15664E-04-3.24501E-05-3.58212E-05-1.85650E-05-2.96144E-19 7.38560E-19
 -1      1510 1.61874E-04-4.81304E-05-4.84133E-05-1.68280E-05-7.60093E-19 2.97054E-18
 -1      1511 1.46279E-04-4.26001E-05-4.45666E-05-1.59110E-05-6.30146E-19 2.28106E-18
 -1      1512 1.26504E-04-3.56246E-05-3.90040E-05-2.64189E-05-1.06059E-18 1.51185E-18
 -1      1513 1.86368E-04-5.86006E-05-5.34428E-05-1.62251E-05-4.33575E-19 4.52543E-18
 -1      1514 1.70581E-04-5.17277E-05-5.03826E-05-1.72799E-05-8.40945E-19 3.57787E-18
 -1      1515 1.41054E-04-4.23066E-05-4.20170E-05-3.15502E-05-1.38056E-18 2.40054E-18
 -1      1516 1.98371E-04-6.63933E-05-5.49248E-05-3.99791E-06-1.02258E-18 6.06857E-18
 -1      1517 1.94807E-04-6.33881E-05-5.45840E-05-9.08474E-06-7.87952E-19 4.82520E-18
 -1      1518 1.59212E-04-5.45235E-05-4.40508E-05-2.49864E-05-1.52974E-18 3.75021E-18
 -1      1519 1.92398E-04-6.50067E-05-5.49177E-05 1.66770E-05 1.57786E-19 6.06137E-18
 -1      1520 2.06915E-04-7.08215E-05-5.65165E-05 1.01302E-05-4.29975E-19 5.94744E-18
 -1      1521 1.78364E-04-6.79438E-05-4.67292E-05-2.84656E-06-9.82770E-19 4.33485E-18
 -1      1522 1.38321E-04-2.95223E-05-5.67306E-05 1.41678E-05 1.81011E-18 1.65976E-18
 -1      1523 1.59153E-04-3.99346E-05-5.81082E-05 2.12244E-05 1.10792E-18 3.80741E-18
 -1      1524 1.53242E-04-3.70508E-05-5.77908E-05-1.67862E-05 2.92057E-18-4.16486E-18
 -1      1525 1.37602E-04-2.84103E-05-5.70093E-05-8.24944E-06 2.67747E-18 3.05302E-19
 -1      1526 1.98178E-04-4.34482E-05-6.76223E-05 5.34541E-06 3.95226E-18-3.23143E-19
 -1      1527 1.91137E-04-5.91873E-05-5.81248E-05-2.83190E-05 1.47680E-18-8.85319E-18
 -1      1528 1.55158E-04-4.07846E-05-5.58364E-05-2.80862E-05 2.14426E-18-5.98090E-18
 -1      1529 1.97759E-04-5.13597E-05-6.41618E-05-3.64298E-05 4.61972E-18-1.92234E-18
 -1      1530 2.12740E-04-6.92300E-05-5.90146E-05-1.21473E-05 2.13743E-21-1.06582E-17
 -1      1531 1.91439E-04-6.03893E-05-5.65604E-05-1.65173E-05 7.46871E-19-1.01991E-17
 -1      1532 2.00929E-04-6.81818E-05-5.80580E-05-3.86779E-05 2.03563E-18-5.57496E-18
 -1      1533 2.06253E-04-6.47532E-05-5.81027E-05 6.10169E-06-1.03243E-18-8.10139E-18
 -1      1534 2.08682E-04-6.71105E-05-5.82042E-05 2.26327E-06-8.38986E-19-9.77900E-18
 -1      1535 1.93676E-04-6.66847E-05-5.34568E-05-7.45090E-06-9.78641E-19-6.74217E-18
 -1      1536 1.79992E-04-5.38814E-05-5.32560E-05 1.28032E-05-7.30460E-19-6.08805E-18
 -1      1537 1.96045E-04-6.09630E-05-5.63440E-05 1.18605E-05-7.82553E-19-7.52652E-18
 -1      1538 1.77982E-04-5.70356E-05-5.06631E-05 1.78719E-05-1.53101E-18-5.33925E-18
 -1      1539 1.51569E-04-4.44193E-05-4.61813E-05 1.12990E-05 7.64083E-20-4.15216E-18
 -1      1540 1.68711E-04-5.07896E-05-5.03815E-05 1.17282E-05-2.05317E-19-4.95387E-18
 -1      1541 1.56222E-04-4.68703E-05-4.65613E-05 2.36014E-05-9.67153E-19-3.37956E-18
 -1      1542 1.30099E-04-3.81336E-05-3.98395E-05 7.76597E-06-1.81814E-18-6.84085E-19
 -1      1543 1.42576E-04-4.22495E-05-4.33487E-05 8.44133E-06-9.44826E-19-3.43218E-18
 -1      1544 1.36079E-04-3.96729E-05-4.14854E-05 1.90056E-05-1.44697E-18-1.91705E-18
 -1      1545 1.15924E-04-3.42143E-05-3.53175E-05 4.80425E-06 2.11626E-20 9.52859E-19
 -1      1546 1.23819E-04-3.66047E-05-3.76972E-05 5.34300E-06-4.85681E-19 3.31190E-19
 -1      1547 1.21015E-04-3.52519E-05-3.69890E-05 1.27158E-05-1.54091E-18-8.70220E-19
 -1      1548 1.07179E-04-3.18370E-05-3.24541E-05 2.83096E-06-8.84713E-19 1.61513E-18
 -1      1549 1.11860E-04-3.31785E-05-3.39069E-05 3.19079E-06-1.07732E-20 1.07346E-18
 -1      1550 1.10882E-04-3.25694E-05-3.37275E-05 7.81069E-06-3.78783E-19 1.12405E-18
 -1      1551 1.01987E-04-3.04261E-05-3.07510E-05 1.62438E-06-4.52104E-20 2.41932E-18
 -1      1552 1.04671E-04-3.11678E-05-3.15906E-05 1.84737E-06-1.08504E-18 1.43101E-18
 -1      1553 1.04471E-04-3.09319E-05-3.16114E-05 4.59598E-06-1.06213E-18 1.37693E-18
 -1      1554 9.89845E-05-2.96056E-05-2.97718E-05 9.15730E-07 7.61079E-19 9.81675E-19
 -1      1555 1.00486E-04-3.00097E-05-3.02424E-05 1.04841E-06 4.18673E-19 2.38900E-18
 -1      1556 1.00569E-04-2.99402E-05-3.03196E-05 2.63728E-06 4.48127E-19 1.15431E-18
 -1      1557 9.73361E-05-2.91507E-05-2.92414E-05 5.23558E-07 1.32885E-19 4.60075E-19
 -1      1558 9.81418E-05-2.93628E-05-2.94920E-05 5.98353E-07 1.19543E-18 1.31659E-18
 -1      1559 9.82965E-05-2.93656E-05-2.95710E-05 1.50123E-06 1.66919E-18 1.73603E-18
 -1      1560 9.63490E-05-2.88797E-05-2.89246E-05 2.84757E-07-3.46513E-19 8.86299E-19
 -1      1561 9.68141E-05-2.89988E-05-2.90698E-05 3.31669E-07-4.11274E-20 7.47199E-19
 -1      1562 9.69632E-05-2.90176E-05-2.91340E-05 8.48553E-07-5.86636E-20 1.36071E-18
 -1      1563 9.58092E-05-2.87302E-05-2.87523E-05 1.51585E-07 3.57038E-19-4.46315E-19
 -1      1564 9.60559E-05-2.87908E-05-2.88294E-05 1.78245E-07 7.51694E-19 6.55407E-19
 -1      1565 9.61752E-05-2.88147E-05-2.88767E-05 4.61835E-07 5.59381E-19 3.11493E-19
 -1      1566 9.55202E-05-2.86499E-05-2.86604E-05 7.82310E-08 1.58218E-18-2.81042E-18
 -1      1567 9.56472E-05-2.86797E-05-2.87003E-05 9.32343E-08 8.67717E-19-8.23593E-19
 -1      1568 9.57341E-05-2.87002E-05-2.87330E-05 2.45233E-07 1.40066E-18 2.51459E-19
 -1      1569 9.53704E-05-2.86083E-05-2.86129E-05 3.86565E-08-1.01261E-18-1.98945E-18
 -1      1570 9.54330E-05-2.86220E-05-2.86328E-05 4.69361E-08-7.71747E-20-3.14056E-18
 -1      1571 9.54927E-05-2.86375E-05-2.86544E-05 1.26042E-07 3.98914E-19-2.18632E-19
 -1      1572 9.52959E-05-2.85876E-05-2.85893E-05 1.79189E-08-1.20616E-18 5.45643E-19
 -1      1573 9.53248E-05-2.85932E-05-2.85986E-05 2.23683E-08-3.26334E-19-9.43512E-19
 -1      1574 9.53643E-05-2.86042E-05-2.86126E-05 6.19072E-08-1.06308E-18 1.18166E-18
 -1      1575 9.52610E-05-2.85780E-05-2.85783E-05 7.50099E-09 4.80677E-19 6.74191E-19
 -1      1576 9.52730E-05-2.85797E-05-2.85823E-05 9.80559E-09-2.55257E-19-2.41375E-19
 -1      1577 9.52982E-05-2.85871E-05-2.85910E-05 2.84558E-08-6.02913E-19 3.51848E-19
 -1      1578 9.52460E-05-2.85738E-05-2.85736E-05 2.59501E-09 2.93106E-19-7.63208E-19
 -1      1579 9.52501E-05-2.85740E-05-2.85751E-05 3.72636E-09 4.05453E-19 1.48896E-19
 -1      1580 9.52657E-05-2.85788E-05-2.85804E-05 1.17769E-08 5.67995E-19-8.42297E-19
 -1      1581 9.52405E-05-2.85723E-05-2.85719E-05 5.25489E-10-8.61432E-19-2.79073E-19
 -1      1582 9.52412E-05-2.85719E-05-2.85723E-05 1.03593E-09 5.87413E-20-2.74912E-19
 -1      1583 9.52506E-05-2.85749E-05-2.85754E-05 4.01816E-09 5.69238E-20-1.70070E-18
 -1      1584 9.52389E-05-2.85718E-05-2.85715E-05-1.65803E-10 8.83575E-19 1.77423E-18
 -1      1585 9.52384E-05-2.85714E-05-2.85714E-05 3.16884E-11-9.86057E-19 1.45064E-18
 -1      1586 9.52440E-05-2.85732E-05-2.85732E-05 8.16220E-10-1.98668E-18 9.46215E-19
 -1      1587 9.52386E-05-2.85717E-05-2.85714E-05-2.50618E-10 1.37746E-19-8.95982E-19
 -1      1588 9.52380E-05-2.85714E-05-2.85713E-05-1.98762E-10 1.40340E-18 3.91386E-19
 -1      1589 9.52413E-05-2.85725E-05-2.85723E-05-1.99691E-10 1.64447E-18 1.32609E-19
 -1      1590 9.52386E-05-2.85717E-05-2.85715E-05-1.20926E-10-2.52136E-19 1.78230E-19
 -1      1591 9.52382E-05-2.85715E-05-2.85714E-05-1.26748E-10 7.45040E-21-3.85171E-19
 -1      1592 9.52401E-05-2.85721E-05-2.85720E-05-2.78290E-10 1.67622E-19-2.64481E-19
 -1      1593 9.52383E-05-2.85716E-05-2.85714E-05 3.52522E-11-2.06781E-19 2.38042E-18
 -1      1594 9.52383E-05-2.85715E-05-2.85714E-05 1.62812E-11-7.19949E-19 1.43700E-18
 -1      1595 9.52394E-05-2.85719E-05-2.85718E-05-4.96914E-11-1.58498E-18-2.34819E-19
 -1      1596 9.52379E-05-2.85714E-05-2.85714E-05 1.35056E-10 9.81490E-19-1.08782E-18
 -1      1597 9.52380E-05-2.85714E-05-2.85714E-05 1.24652E-10 1.43042E-18 1.09151E-18
 -1      1598 9.52388E-05-2.85717E-05-2.85716E-05 1.86542E-10 1.89023E-18 1.42643E-18
 -1      1599 9.52375E-05-2.85712E-05-2.85712E-05 1.48552E-10 1.98758E-18-6.23417E-18
 -1      1600 9.52376E-05-2.85713E-05-2.85713E-05 1.56546E-10 5.65915E-19-3.07144E-18
 -1      1601 9.52382E-05-2.85715E-05-2.85714E-05 3.01488E-10 2.54324E-18-1.82073E-18
 -1      1602 9.52371E-05-2.85711E-05-2.85712E-05 7.33816E-11-7.30101E-19-7.94325E-18
 -1      1603 9.52372E-05-2.85711E-05-2.85712E-05 1.02845E-10 1.14121E-18-7.70760E-18
 -1      1604 9.52376E-05-2.85713E-05-2.85713E-05 2.53178E-10 1.48026E-18-3.19962E-18
 -1      1605 9.52371E-05-2.85711E-05-2.85711E-05-3.71817E-11-9.51991E-19-6.69441E-18
 -1      1606 9.52370E-05-2.85711E-05-2.85711E-05-5.69823E-12 9.41581E-20-7.90907E-18
 -1      1607 9.52373E-05-2.85711E-05-2.85712E-05 6.69103E-11-3.66228E-19-3.47395E-18
 -1      1608 9.52371E-05-2.85712E-05-2.85711E-05-5.69476E-11-2.19166E-18-1.34122E-18
 -1      1609 9.52370E-05-2.85711E-05-2.85711E-05-8.89571E-11-2.16969E-18-4.10409E-18
 -1      1610 9.52372E-05-2.85711E-05-2.85712E-05-8.97541E-11-2.94119E-18-1.22280E-18
 -1      1611 9.52372E-05-2.85713E-05-2.85711E-05-8.94983E-11-3.85476E-18-2.20219E-19
 -1      1612 9.52372E-05-2.85712E-05-2.85712E-05 7.45392E-11-7.62853E-18-8.91945E-19
 -1      1613 9.52372E-05-2.85712E-05-2.85711E-05 3.25130E-11-3.60675E-18-1.15184E-18
 -1      1614 9.52372E-05-2.85711E-05-2.85712E-05-8.11504E-12-2.78778E-18-1.73241E-18
 -1      1615 9.52370E-05-2.85706E-05-2.85714E-05 3.48352E-10-5.95894E-18 1.04397E-18
 -1      1616 9.52371E-05-2.85709E-05-2.85713E-05 2.77382E-10-8.47259E-18 1.15351E-18
 -1      1617 9.52371E-05-2.85707E-05-2.85713E-05 3.87945E-10-3.55010E-18-3.97155E-19
 -1      1618 9.52367E-05-2.85694E-05-2.85717E-05 6.37077E-10-3.02135E-18 5.63507E-19
 -1      1619 9.52369E-05-2.85701E-05-2.85715E-05 5.57427E-10-4.72174E-18 1.47214E-19
 -1      1620 9.52369E-05-2.85700E-05-2.85716E-05 9.25340E-10-3.04118E-18 1.26329E-18
 -1      1621 9.52361E-05-2.85677E-05-2.85722E-05 8.75849E-10 6.23031E-20 5.08340E-18
 -1      1622 9.52365E-05-2.85687E-05-2.85719E-05 8.06505E-10-2.47647E-18 1.14050E-18
 -1      1623 9.52365E-05-2.85687E-05-2.85719E-05 1.44279E-09 7.54467E-21 1.23902E-18
 -1      1624 9.52355E-05-2.85657E-05-2.85728E-05 1.00657E-09 3.29705E-18 1.64319E-18
 -1      1625 9.52359E-05-2.85668E-05-2.85725E-05 9.62730E-10 2.42333E-19 2.29676E-18
 -1      1626 9.52360E-05-2.85671E-05-2.85724E-05 1.81320E-09-4.25733E-19 3.09988E-18
 -1      1627 9.52348E-05-2.85635E-05-2.85734E-05 9.96305E-10 1.38830E-18-2.10944E-18
 -1      1628 9.52352E-05-2.85647E-05-2.85731E-05 9.87399E-10 2.04435E-18 9.81970E-19
 -1      1629 9.52354E-05-2.85652E-05-2.85729E-05 1.94790E-09-7.94479E-19 7.25398E-19
 -1      1630 9.52342E-05-2.85615E-05-2.85740E-05 8.26588E-10-2.33624E-19 6.28315E-20
 -1      1631 9.52345E-05-2.85626E-05-2.85737E-05 8.59523E-10 7.62502E-19-1.41424E-18
 -1      1632 9.52348E-05-2.85634E-05-2.85734E-05 1.79417E-09 3.41476E-19-2.27745E-18
 -1      1633 9.52338E-05-2.85601E-05-2.85744E-05 5.08812E-10-1.04509E-18-8.75977E-20
 -1      1634 9.52340E-05-2.85609E-05-2.85742E-05 5.83037E-10 1.84617E-19-4.42536E-19
 -1      1635 9.52343E-05-2.85619E-05-2.85739E-05 1.34223E-09 9.02143E-19-9.20357E-19
 -1      1636 9.52336E-05-2.85596E-05-2.85745E-05 7.78181E-11-1.52154E-18-5.37111E-19
 -1      1637 9.52336E-05-2.85599E-05-2.85745E-05 1.86433E-10-2.63601E-18 4.94240E-19
 -1      1638 9.52339E-05-2.85610E-05-2.85741E-05 6.33099E-10-1.17699E-19 7.63835E-20
 -1      1639 9.52337E-05-2.85601E-05-2.85744E-05-4.08383E-10-1.26795E-18-7.32414E-19
 -1      1640 9.52336E-05-2.85597E-05-2.85745E-05-2.79377E-10-1.63361E-18-2.95120E-19
 -1      1641 9.52339E-05-2.85608E-05-2.85741E-05-2.46940E-10-1.54117E-18-2.18822E-20
 -1      1642 9.52342E-05-2.85615E-05-2.85740E-05-8.63436E-10 4.85254E-19 3.78041E-19
 -1      1643 9.52339E-05-2.85606E-05-2.85742E-05-7.36282E-10-5.63182E-19 4.03040E-19
 -1      1644 9.52341E-05-2.85615E-05-2.85739E-05-1.16184E-09-5.72843E-20 3.30062E-19
 -1      1645 9.52349E-05-2.85638E-05-2.85733E-05-1.20509E-09 1.41042E-18 1.05281E-18
 -1      1646 9.52344E-05-2.85625E-05-2.85737E-05-1.10090E-09 1.25877E-18-5.29223E-19
 -1      1647 9.52346E-05-2.85630E-05-2.85735E-05-1.94836E-09 1.44233E-18 9.16160E-19
 -1      1648 9.52358E-05-2.85665E-05-2.85726E-05-1.31280E-09 1.43554E-18 2.12808E-18
 -1      1649 9.52353E-05-2.85650E-05-2.85730E-05-1.26853E-09-1.85258E-19 1.08177E-18
 -1      1650 9.52353E-05-2.85652E-05-2.85729E-05-2.41821E-09 1.48574E-18 1.11033E-18
 -1      1651 9.52366E-05-2.85690E-05-2.85718E-05-1.08230E-09-2.87532E-18-2.91561E-18
 -1      1652 9.52362E-05-2.85677E-05-2.85722E-05-1.12618E-09-6.17087E-19-2.54857E-19
 -1      1653 9.52361E-05-2.85675E-05-2.85723E-05-2.36236E-09-1.76241E-18-8.12868E-19
 -1      1654 2.29020E-05-8.80165E-05 2.09698E-05-2.11279E-05 5.08998E-18 2.19212E-18
 -1      1655 2.52764E-05-8.93380E-05 2.08297E-05-8.12420E-06 3.46818E-18 9.60535E-19
 -1      1656 1.74912E-05-6.50130E-05 1.36861E-05-2.09888E-05 5.52943E-18 1.37103E-18
 -1      1657 2.42825E-05-8.36235E-05 1.82140E-05-1.68957E-05 5.75855E-18 8.88538E-19
 -1      1658 3.10150E-05-3.68360E-05-3.45326E-06 9.90942E-07 5.82928E-18 6.98379E-18
 -1      1659 2.88156E-05-6.10870E-05 6.25833E-06-1.23513E-05 4.18773E-18 3.55817E-18
 -1      1660 7.12045E-05-2.08080E-05-2.56533E-05 3.35412E-05 8.09933E-18 1.01763E-17
 -1      1661 4.82808E-05-3.44497E-05-1.34984E-05 7.65023E-06 6.99819E-18 7.68428E-18
 -1      1662 1.63324E-04-3.80146E-05-5.16376E-05 6.42417E-05 6.81269E-18 1.03033E-17
 -1      1663 1.05764E-04-2.72930E-05-3.78774E-05 3.72646E-05 7.43356E-18 1.04998E-17
 -1      1664 2.82120E-04-7.54504E-05-7.64712E-05 6.02517E-05 3.96454E-18 5.89535E-18
 -1      1665 1.98902E-04-4.34256E-05-6.36441E-05 5.99631E-05 7.27601E-18 8.80914E-18
 -1      1666 3.59796E-04-1.03287E-04-9.10206E-05 1.55689E-05 2.16544E-18 1.74489E-19
 -1      1667 3.06884E-04-7.92889E-05-8.43684E-05 4.87437E-05 3.01925E-18 3.92684E-18
 -1      1668 3.48391E-04-9.46615E-05-9.08218E-05-3.24620E-05 2.64528E-18-5.17368E-18
 -1      1669 3.64873E-04-1.02520E-04-9.28733E-05 1.21936E-05 1.45012E-18-2.20874E-18
 -1      1670 2.68252E-04-6.54292E-05-7.73827E-05-5.95851E-05 4.84217E-18-8.78881E-18
 -1      1671 3.36106E-04-9.50772E-05-8.65319E-05-4.09619E-05 3.22105E-18-5.96142E-18
 -1      1672 1.66425E-04-4.05873E-05-5.43269E-05-4.77527E-05 6.63396E-18-9.70022E-18
 -1      1673 2.37240E-04-6.27926E-05-6.74424E-05-6.12509E-05 5.01698E-18-9.08358E-18
 -1      1674 7.98443E-05-2.94095E-05-2.78098E-05-2.50839E-05 9.07511E-18-9.52743E-18
 -1      1675 1.25383E-04-2.94107E-05-4.19274E-05-5.43183E-05 7.45050E-18-1.04642E-17
 -1      1676 3.40717E-05-4.36293E-05-4.08346E-06 4.92625E-06 1.11063E-17-7.78762E-18
 -1      1677 4.67720E-05-2.35013E-05-1.54256E-05-1.76404E-05 1.04524E-17-8.96161E-18
 -1      1678 2.43822E-05-7.08895E-05 1.20309E-05 1.85403E-05 9.46136E-18-5.17767E-18
 -1      1679 2.05677E-05-4.75887E-05 4.77254E-06 1.25905E-05 1.07616E-17-7.38782E-18
 -1      1680 2.55332E-05-9.09214E-05 2.05689E-05 1.63546E-05 5.79296E-18-2.29864E-18
 -1      1681 1.89378E-05-7.70718E-05 1.76008E-05 2.52572E-05 8.45169E-18-4.26947E-18
 -1      1682 2.38339E-05-8.31991E-05 1.93650E-05 4.81279E-06-8.36022E-19-2.90829E-18
 -1      1683 2.42744E-05-8.91506E-05 2.10154E-05 1.78607E-05 3.94400E-18-3.00781E-18
 -1      1684 2.04933E-05-5.71822E-05 1.08505E-05 1.83505E-06-7.19216E-18-4.26772E-18
 -1      1685 2.68532E-05-8.04832E-05 1.64818E-05 6.12929E-06-3.00866E-18-2.77467E-18
 -1      1686 2.76467E-05-2.03273E-05-5.67447E-06 2.38090E-05-1.08573E-17-7.52081E-18
 -1      1687 2.83190E-05-4.80862E-05 3.47243E-06 1.08752E-05-8.18149E-18-5.22895E-18
 -1      1688 5.37284E-05 4.76995E-06-2.52503E-05 5.52654E-05-1.14824E-17-8.86505E-18
 -1      1689 3.87102E-05-1.13848E-05-1.48516E-05 3.14153E-05-1.20753E-17-7.65548E-18
 -1      1690 1.09869E-04 2.20745E-06-4.57788E-05 8.59374E-05-9.01074E-18-1.11410E-17
 -1      1691 7.47306E-05 5.80766E-06-3.52777E-05 6.42256E-05-1.12105E-17-9.90520E-18
 -1      1692 1.88946E-04-2.61582E-05-6.51954E-05 9.01952E-05-6.68902E-18-9.05986E-18
 -1      1693 1.39144E-04-5.75170E-06-5.54048E-05 8.55285E-05-8.19716E-18-1.07319E-17
 -1      1694 2.59926E-04-5.83630E-05-7.99215E-05 6.08452E-05-3.38887E-18-5.35748E-18
 -1      1695 2.15624E-04-3.43253E-05-7.33557E-05 8.35272E-05-5.59486E-18-8.39240E-18
 -1      1696 2.90819E-04-7.40367E-05-8.59047E-05 4.07963E-06-1.54329E-18-1.84743E-18
 -1      1697 2.77098E-04-6.58728E-05-8.41170E-05 4.36006E-05-2.41934E-18-4.20298E-18
 -1      1698 2.66774E-04-6.00441E-05-8.25611E-05-5.62382E-05-2.69356E-18 3.13741E-18
 -1      1699 2.88857E-04-7.29664E-05-8.54350E-05-1.82892E-05-1.64875E-18-1.54160E-19
 -1      1700 2.01708E-04-2.86201E-05-7.04258E-05-8.46606E-05-6.86923E-18 8.11627E-18
 -1      1701 2.45676E-04-5.15577E-05-7.72799E-05-6.86444E-05-4.15896E-18 4.43252E-18
 -1      1702 1.25897E-04-7.33603E-07-5.22729E-05-8.50980E-05-1.01491E-17 1.15874E-17
 -1      1703 1.75432E-04-1.98368E-05-6.24537E-05-9.37360E-05-7.78720E-18 9.28179E-18
 -1      1704 6.30175E-05 4.60564E-06-3.04493E-05-5.62448E-05-1.06641E-17 9.87302E-18
 -1      1705 9.65616E-05 5.55838E-06-4.18964E-05-8.19167E-05-1.08590E-17 1.27318E-17
 -1      1706 3.22280E-05-2.08136E-05-8.87352E-06-2.21925E-05-6.25788E-18 5.85173E-18
 -1      1707 4.24248E-05 1.48789E-06-1.96964E-05-4.58063E-05-9.21233E-18 9.12424E-18
 -1      1708 2.61152E-05-5.98375E-05 8.62438E-06-5.21250E-06-1.33408E-18 2.27725E-18
 -1      1709 2.13815E-05-3.02992E-05 3.14899E-07-1.27155E-05-4.90432E-18 4.33384E-18
 -1      1710 2.72781E-05-8.77919E-05 1.91269E-05-9.30960E-06 2.47122E-18 6.22781E-19
 -1      1711 2.20157E-05-6.90652E-05 1.46421E-05-6.89824E-07 2.37169E-20 1.72562E-18
 -1      1712 1.06491E-04-2.32845E-05-3.57547E-05 1.71634E-05 1.32688E-18 8.55800E-18
 -1      1713 1.99378E-04-6.37030E-05-5.88569E-05 2.92279E-05 1.26483E-18 5.57051E-18
 -1      1714 2.02886E-04-7.39624E-05-5.44382E-05 2.95883E-05 1.12751E-18 2.86001E-18
 -1      1715 1.70001E-04-4.86980E-05-5.69229E-05 3.02861E-05 1.68051E-18 4.30886E-18
 -1      1716 3.26217E-05-5.33114E-05 4.00748E-06 1.21761E-05 2.05533E-18 2.19593E-18
 -1      1717 1.14915E-05-5.82299E-05 1.51158E-05-1.56014E-05 1.97761E-18 2.20610E-18
 -1      1718 1.21131E-05-5.64230E-05 1.39094E-05-3.70625E-06 2.54724E-18 1.73811E-18
 -1      1719 9.52371E-05-2.85704E-05-2.85714E-05-8.11089E-10-3.42273E-18 1.70751E-19
 -1      1720 9.52369E-05-2.85697E-05-2.85717E-05-1.04357E-09-2.81931E-18-1.31199E-18
 -1      1721 9.52368E-05-2.85693E-05-2.85718E-05-2.03090E-09-9.37514E-19-2.22473E-18
 -1      1722 7.30793E-05-5.48137E-05-1.25058E-05 2.23931E-05 2.23447E-18 5.46802E-18
 -1      1723 1.35315E-04-6.08869E-05-3.36889E-05 2.65915E-05 4.08524E-18 6.21892E-18
 -1      1724 2.08549E-04-7.19076E-05-5.73763E-05 1.34260E-05 5.44134E-18 4.85350E-18
 -1      1725 2.65549E-04-6.92366E-05-7.47478E-05-3.64952E-06 4.91703E-18 2.08201E-18
 -1      1726 2.82595E-04-5.92943E-05-8.33216E-05-3.18819E-06 4.09540E-18-1.57061E-18
 -1      1727 2.80055E-04-6.26815E-05-8.13803E-05 6.38088E-06 4.06152E-18-2.95445E-18
 -1      1728 2.45480E-04-7.21208E-05-6.82880E-05 4.82213E-07 3.90990E-18-3.75236E-18
 -1      1729 1.83784E-04-6.96862E-05-4.80463E-05-1.59245E-05 4.69256E-18-4.82978E-18
 -1      1730 1.08342E-04-5.79623E-05-2.47488E-05-2.59315E-05 5.61583E-18-5.04747E-18
 -1      1731 5.11792E-05-5.31572E-05-4.36312E-06-1.64146E-05 5.64971E-18-4.77600E-18
 -1      1732 2.21187E-05-5.69915E-05 9.48907E-06-3.29499E-06 4.64428E-18-4.57101E-18
 -1      1733 1.04126E-05-5.82258E-05 1.54266E-05 8.98562E-06 2.45153E-18-4.38340E-18
 -1      1734 1.34784E-05-5.49408E-05 1.32770E-05 1.88408E-05-7.85200E-19-5.42143E-18
 -1      1735 3.02001E-05-4.60215E-05 3.46558E-06 3.27471E-05-3.59904E-18-6.05142E-18
 -1      1736 5.88612E-05-3.51842E-05-1.20247E-05 4.51765E-05-5.64971E-18-5.54807E-18
 -1      1737 9.70770E-05-2.59121E-05-3.04027E-05 5.62592E-05-7.17945E-18-6.03172E-18
 -1      1738 1.46952E-04-2.69071E-05-4.92139E-05 5.84103E-05-6.16344E-18-6.71104E-18
 -1      1739 1.94275E-04-3.13681E-05-6.59538E-05 4.65683E-05-5.77647E-18-5.04578E-18
 -1      1740 2.31378E-04-3.71980E-05-7.77539E-05 2.68625E-05-4.25295E-18-3.97216E-18
 -1      1741 2.43688E-04-3.97461E-05-8.13149E-05-3.91031E-06-3.53890E-18-1.77718E-18
 -1      1742 2.24007E-04-3.54283E-05-7.57619E-05-3.09469E-05-4.97886E-18 1.38829E-18
 -1      1743 1.86006E-04-2.96685E-05-6.32673E-05-4.97112E-05-6.29139E-18 3.11623E-18
 -1      1744 1.36920E-04-2.53584E-05-4.58607E-05-6.03266E-05-6.38705E-18 6.23840E-18
 -1      1745 8.57040E-05-2.67883E-05-2.56450E-05-5.38645E-05-4.89416E-18 7.81218E-18
 -1      1746 4.68107E-05-3.71109E-05-6.61700E-06-3.97650E-05-2.74269E-18 6.07916E-18
 -1      1747 2.28606E-05-5.06158E-05 7.85136E-06-2.60517E-05-1.67713E-19 3.74918E-18
 -1      1748 1.06124E-04-2.31890E-05-3.56268E-05-1.68548E-05-1.53718E-18 4.50706E-18
 -1      1749 2.09994E-04-5.83198E-05-6.44544E-05 3.93754E-05 2.72745E-18 1.07573E-18
 -1      1750 8.91545E-05-1.05855E-05-3.37981E-05-1.33302E-05-1.69522E-18-2.65383E-18
 -1      1751 9.04965E-05-1.16325E-05-3.39413E-05-1.51384E-05-2.03488E-18-2.09694E-18
 -1      1752 9.25163E-05-1.38795E-05-3.38636E-05-1.60027E-05-2.10399E-18-1.42521E-18
 -1      1753 9.42475E-05-1.58300E-05-3.41118E-05-1.76637E-05-2.31154E-18-4.46598E-19
 -1      1754 9.34381E-05-1.63531E-05-3.30516E-05-1.37715E-05-2.19179E-18-1.57331E-18
 -1      1755 8.61886E-05-7.66830E-06-3.37224E-05-7.87245E-06-7.40429E-19-3.54680E-18
 -1      1756 8.65987E-05-7.96809E-06-3.37584E-05-9.26032E-06-9.58027E-19-3.45675E-18
 -1      1757 8.55640E-05-7.02801E-06-3.37175E-05-5.33151E-06-3.48673E-19-3.52773E-18
 -1      1758 8.58019E-05-7.20788E-06-3.37335E-05-6.63484E-06-5.45151E-19-3.58081E-18
 -1      1759 8.75682E-05-9.86188E-06-3.33348E-05-6.93858E-06-7.39423E-19-3.44169E-18
 -1      1760 8.52240E-05-6.66492E-06-3.37204E-05-2.90306E-06 8.49465E-20-3.39893E-18
 -1      1761 8.53469E-05-6.76118E-06-3.37264E-05-4.14086E-06-9.47122E-20-3.47062E-18
 -1      1762 8.69253E-05-9.14576E-06-3.33667E-05-4.54789E-06-2.35004E-19-3.38427E-18
 -1      1763 8.50896E-05-6.51040E-06-3.37251E-05-5.36827E-07 5.49907E-19-3.25318E-18
 -1      1764 8.51264E-05-6.54102E-06-3.37259E-05-1.74335E-06 3.05544E-19-3.36849E-18
 -1      1765 8.65874E-05-8.75963E-06-3.33872E-05-2.22952E-06 2.19087E-19-3.23734E-18
 -1      1766 8.51333E-05-6.54018E-06-3.37292E-05 1.81771E-06 9.34462E-19-3.04114E-18
 -1      1767 8.50917E-05-6.50978E-06-3.37263E-05 6.11654E-07 7.37605E-19-3.13482E-18
 -1      1768 8.64845E-05-8.63649E-06-3.33958E-05 4.85614E-08 7.01763E-19-3.12216E-18
 -1      1769 8.53646E-05-6.76169E-06-3.37339E-05 4.21266E-06 1.27838E-18-2.97629E-18
 -1      1770 8.52359E-05-6.66413E-06-3.37260E-05 2.97585E-06 1.12113E-18-3.06356E-18
 -1      1771 8.65973E-05-8.75876E-06-3.33918E-05 2.32462E-06 1.10864E-18-2.91836E-18
 -1      1772 8.58224E-05-7.20423E-06-3.37440E-05 6.66087E-06 1.64965E-18-2.62973E-18
 -1      1773 8.55836E-05-7.02656E-06-3.37268E-05 5.38096E-06 1.43520E-18-2.85066E-18
 -1      1774 8.69446E-05-9.14428E-06-3.33753E-05 4.61784E-06 1.45053E-18-2.80482E-18
 -1      1775 8.66345E-05-7.97742E-06-3.37704E-05 9.30729E-06 2.09675E-18-2.05889E-18
 -1      1776 8.62145E-05-7.66932E-06-3.37339E-05 7.89604E-06 1.82053E-18-2.38931E-18
 -1      1777 8.75963E-05-9.86358E-06-3.33465E-05 6.98239E-06 1.88724E-18-2.40859E-18
 -1      1778 8.80354E-05-9.29702E-06-3.38319E-05 1.21679E-05 2.44606E-18-1.33003E-18
 -1      1779 8.73027E-05-8.75193E-06-3.37572E-05 1.05893E-05 2.25444E-18-1.76191E-18
 -1      1780 8.87134E-05-1.10793E-05-3.33026E-05 9.44921E-06 2.32439E-18-1.79911E-18
 -1      1781 9.05692E-05-1.17108E-05-3.39502E-05 1.51756E-05 2.57397E-18 1.13582E-19
 -1      1782 8.92095E-05-1.06170E-05-3.38068E-05 1.34045E-05 2.45678E-18-7.56824E-19
 -1      1783 9.05699E-05-1.30823E-05-3.32273E-05 1.19085E-05 2.53090E-18-9.07900E-19
 -1      1784 9.43847E-05-1.59524E-05-3.41024E-05 1.77552E-05 2.39237E-18 2.54152E-18
 -1      1785 9.26399E-05-1.39985E-05-3.38655E-05 1.60804E-05 2.39801E-18 1.14439E-18
 -1      1786 9.36777E-05-1.65376E-05-3.30441E-05 1.38545E-05 2.57562E-18 6.73788E-19
 -1      1787 5.35360E-05-4.17821E-05-5.71052E-06 3.07287E-05 9.97381E-19 3.26616E-18
 -1      1788 3.35939E-05-3.93542E-05 1.09231E-06 2.04508E-05 1.44292E-18 9.24960E-19
 -1      1789 2.09525E-04-6.94465E-05-5.99445E-05 2.07516E-05 3.31629E-18-7.47930E-19
 -1      1790 2.00737E-04-7.71587E-05-5.26501E-05 4.69944E-06 1.98608E-18-1.05032E-19
 -1      1791 1.00214E-04-1.95771E-05-3.42370E-05-1.88701E-05-2.03404E-18 1.36330E-18
 -1      1792 1.00333E-04-1.95415E-05-3.43089E-05 1.91219E-05 1.94698E-18 4.60998E-18
 -1      1793 9.70105E-05-2.69940E-05-2.98925E-05-5.70437E-06-1.78872E-18 4.21520E-19
 -1      1794 9.52013E-05-2.70504E-05-2.91812E-05-3.89809E-06-1.53788E-18-9.42324E-21
 -1      1795 9.43793E-05-2.72531E-05-2.86716E-05-2.42614E-06-1.36718E-18 4.55082E-20
 -1      1796 9.36036E-05-2.73350E-05-2.83647E-05-1.57757E-06-1.10302E-18-2.70081E-19
 -1      1797 9.55404E-05-2.65595E-05-2.95837E-05-4.47922E-06-1.59893E-18-5.99559E-19
 -1      1798 9.30718E-05-2.73866E-05-2.80922E-05-7.60875E-07-8.59891E-19-2.83862E-19
 -1      1799 9.27607E-05-2.74511E-05-2.79664E-05-3.32869E-07-6.49244E-19-5.41310E-19
 -1      1800 9.43216E-05-2.72413E-05-2.87688E-05-1.85248E-06-1.20940E-18-6.73292E-19
 -1      1801 9.24731E-05-2.74801E-05-2.78239E-05 1.03049E-07-5.63221E-19-6.12355E-19
 -1      1802 9.24214E-05-2.75566E-05-2.77867E-05 3.07523E-07-5.47206E-19-8.23176E-19
 -1      1803 9.36037E-05-2.75552E-05-2.83223E-05-4.19251E-07-7.93159E-19-7.28804E-19
 -1      1804 9.22975E-05-2.75900E-05-2.77176E-05 5.12967E-07-5.14589E-19-7.73735E-19
 -1      1805 9.23738E-05-2.76734E-05-2.77235E-05 5.82992E-07-4.61762E-19-9.60726E-19
 -1      1806 9.32536E-05-2.77519E-05-2.80835E-05 3.22890E-07-5.44345E-19-7.29401E-19
 -1      1807 9.23449E-05-2.77135E-05-2.76938E-05 6.37357E-07-5.77971E-19-8.85240E-19
 -1      1808 9.24648E-05-2.77942E-05-2.77159E-05 6.15881E-07-5.43561E-19-1.03659E-18
 -1      1809 9.31402E-05-2.79113E-05-2.79621E-05 6.32375E-07-5.33309E-19-8.38341E-19
 -1      1810 9.24781E-05-2.78367E-05-2.77031E-05 5.60460E-07-5.87260E-19-1.01666E-18
 -1      1811 9.25816E-05-2.79055E-05-2.77227E-05 4.67851E-07-4.26389E-19-1.00555E-18
 -1      1812 9.31520E-05-2.80556E-05-2.79015E-05 6.45425E-07-6.50006E-19-7.18775E-19
 -1      1813 9.25959E-05-2.79449E-05-2.77104E-05 3.22466E-07-4.35234E-19-1.10759E-18
 -1      1814 9.26356E-05-2.79922E-05-2.77129E-05 1.66795E-07-3.52083E-19-1.08859E-18
 -1      1815 9.32011E-05-2.81876E-05-2.78628E-05 4.31760E-07-4.86637E-19-7.58073E-19
 -1      1816 9.26169E-05-2.80220E-05-2.76885E-05-6.09657E-08-5.77289E-19-1.32903E-18
 -1      1817 9.25507E-05-2.80373E-05-2.76613E-05-2.77923E-07-4.78020E-19-1.63942E-18
 -1      1818 9.32152E-05-2.83019E-05-2.78173E-05 2.32352E-08-6.49958E-19-1.08290E-18
 -1      1819 9.24681E-05-2.80488E-05-2.76146E-05-5.85813E-07-1.58825E-19-1.75145E-18
 -1      1820 9.22568E-05-2.80192E-05-2.75469E-05-8.63284E-07 9.18931E-20-2.01359E-18
 -1      1821 9.31310E-05-2.83859E-05-2.77428E-05-5.68293E-07-4.61257E-19-1.05430E-18
 -1      1822 9.20805E-05-2.80007E-05-2.74701E-05-1.24732E-06 1.75073E-19-1.98408E-18
 -1      1823 9.16882E-05-2.79103E-05-2.73526E-05-1.57951E-06 1.38688E-19-1.74083E-18
 -1      1824 9.28876E-05-2.84178E-05-2.76225E-05-1.33550E-06 9.93560E-20-1.64050E-18
 -1      1825 9.13890E-05-2.78461E-05-2.72407E-05-2.02569E-06 2.19300E-19-1.49771E-18
 -1      1826 9.07877E-05-2.76774E-05-2.70674E-05-2.39488E-06 1.80527E-19-1.34096E-18
 -1      1827 9.24246E-05-2.83641E-05-2.74450E-05-2.25859E-06 2.86676E-19-1.25037E-18
 -1      1828 9.03407E-05-2.75486E-05-2.69191E-05-2.87025E-06-1.62131E-19-1.39146E-18
 -1      1829 8.95189E-05-2.72858E-05-2.66894E-05-3.24028E-06-2.97540E-19-1.22577E-18
 -1      1830 9.16845E-05-2.81797E-05-2.72053E-05-3.28605E-06-6.04297E-20-8.80922E-19
 -1      1831 8.89098E-05-2.70746E-05-2.65083E-05-3.68575E-06-5.78231E-19-1.61882E-18
 -1      1832 8.78842E-05-2.67100E-05-2.62297E-05-3.99888E-06-5.61265E-19-1.62665E-18
 -1      1833 9.06235E-05-2.78142E-05-2.69069E-05-4.31638E-06-5.51259E-19-1.04629E-18
 -1      1834 8.71209E-05-2.64072E-05-2.60257E-05-4.32865E-06-4.93787E-19-1.58910E-18
 -1      1835 8.59476E-05-2.59511E-05-2.57155E-05-4.50983E-06-4.39063E-19-1.79964E-18
 -1      1836 8.92309E-05-2.72276E-05-2.65630E-05-5.18863E-06-6.57254E-19-1.44530E-18
 -1      1837 8.50736E-05-2.55672E-05-2.55044E-05-4.62280E-06-5.63389E-19-1.97295E-18
 -1      1838 8.38549E-05-2.50559E-05-2.51903E-05-4.59500E-06-3.31651E-19-1.98103E-18
 -1      1839 8.75554E-05-2.64157E-05-2.61974E-05-5.69320E-06-5.20829E-19-1.67682E-18
 -1      1840 8.29578E-05-2.46306E-05-2.49928E-05-4.40131E-06 7.73248E-21-2.04136E-18
 -1      1841 8.18357E-05-2.41296E-05-2.47101E-05-4.11107E-06-2.09093E-19-1.71909E-18
 -1      1842 8.57301E-05-2.54370E-05-2.58423E-05-5.61339E-06-1.82258E-19-1.50126E-18
 -1      1843 8.10426E-05-2.37320E-05-2.45487E-05-3.56880E-06-5.14076E-19-1.99590E-18
 -1      1844 8.01767E-05-2.33268E-05-2.43347E-05-3.01400E-06-2.81883E-19-2.27790E-18
 -1      1845 8.39783E-05-2.44274E-05-2.55343E-05-4.79670E-06-4.59185E-19-1.35313E-18
 -1      1846 7.96288E-05-2.30411E-05-2.42298E-05-2.16122E-06 2.18839E-20-2.83384E-18
 -1      1847 7.91607E-05-2.28140E-05-2.41159E-05-1.40706E-06-1.36094E-19-3.08863E-18
 -1      1848 8.25822E-05-2.35813E-05-2.53083E-05-3.23435E-06-7.30554E-19-1.69318E-18
 -1      1849 7.89709E-05-2.27107E-05-2.40820E-05-3.68764E-07-2.13221E-19-3.27192E-18
 -1      1850 7.89849E-05-2.27133E-05-2.40865E-05 4.61348E-07-4.45930E-19-3.36690E-18
 -1      1851 8.18115E-05-2.30963E-05-2.51920E-05-1.10838E-06-2.83273E-19-2.67509E-18
 -1      1852 7.91973E-05-2.28201E-05-2.41291E-05 1.50321E-06-2.02391E-19-2.88827E-18
 -1      1853 7.96949E-05-2.30529E-05-2.42524E-05 2.26293E-06 3.73542E-19-2.49391E-18
 -1      1854 8.18333E-05-2.30979E-05-2.52007E-05 1.23275E-06 2.94576E-19-2.34731E-18
 -1      1855 8.02678E-05-2.33426E-05-2.43668E-05 3.12653E-06 3.58351E-19-2.30169E-18
 -1      1856 8.11685E-05-2.37551E-05-2.45917E-05 3.69262E-06 6.98855E-19-2.34444E-18
 -1      1857 8.26500E-05-2.35866E-05-2.53353E-05 3.37477E-06 4.47334E-19-1.80434E-18
 -1      1858 8.19913E-05-2.41582E-05-2.47644E-05 4.25306E-06 3.48739E-19-2.67969E-18
 -1      1859 8.31572E-05-2.46690E-05-2.50604E-05 4.56033E-06-5.18477E-20-2.64329E-18
 -1      1860 8.40992E-05-2.44384E-05-2.55818E-05 4.96962E-06 2.81910E-19-2.41772E-18
 -1      1861 8.40912E-05-2.51020E-05-2.52715E-05 4.77948E-06-1.74423E-20-2.90440E-18
 -1      1862 8.53660E-05-2.56269E-05-2.56024E-05 4.83001E-06-8.34629E-20-3.27814E-18
 -1      1863 8.59162E-05-2.54572E-05-2.59140E-05 5.83514E-06-1.05194E-19-3.31956E-18
 -1      1864 8.62861E-05-2.60211E-05-2.58300E-05 4.74963E-06-5.15578E-19-3.28256E-18
 -1      1865 8.75311E-05-2.64956E-05-2.61616E-05 4.59687E-06-6.08561E-19-3.34904E-18
 -1      1866 8.78230E-05-2.64501E-05-2.62981E-05 5.97981E-06-3.47491E-19-2.93697E-18
 -1      1867 8.83516E-05-2.68120E-05-2.63857E-05 4.30665E-06-3.79620E-19-2.85991E-18
 -1      1868 8.94679E-05-2.72008E-05-2.66911E-05 4.02752E-06 2.60195E-19-2.24117E-18
 -1      1869 8.96005E-05-2.72824E-05-2.66987E-05 5.55571E-06 1.51621E-19-1.54476E-18
 -1      1870 9.01467E-05-2.74294E-05-2.68962E-05 3.62811E-06 8.32496E-19-2.19384E-18
 -1      1871 9.10810E-05-2.77234E-05-2.71588E-05 3.29732E-06 1.04252E-18-1.78230E-18
 -1      1872 9.11187E-05-2.78967E-05-2.70846E-05 4.77874E-06 5.33628E-19-1.14007E-18
 -1      1873 9.16110E-05-2.78739E-05-2.73354E-05 2.87360E-06 2.69353E-19-1.92339E-18
 -1      1874 9.23490E-05-2.80817E-05-2.75483E-05 2.54811E-06-1.78276E-19-1.72457E-18
 -1      1875 9.23313E-05-2.82987E-05-2.74324E-05 3.85683E-06 5.51409E-19-9.08575E-19
 -1      1876 9.27442E-05-2.81723E-05-2.76926E-05 2.15736E-06-3.99313E-20-1.63944E-18
 -1      1877 9.32986E-05-2.83106E-05-2.78565E-05 1.87178E-06 7.57186E-19-9.23771E-19
 -1      1878 9.32500E-05-2.85296E-05-2.77286E-05 2.94773E-06 2.43202E-19-8.92595E-19
 -1      1879 9.35826E-05-2.83603E-05-2.79689E-05 1.54382E-06 4.80582E-19-7.63289E-19
 -1      1880 9.39808E-05-2.84473E-05-2.80895E-05 1.31310E-06 1.21168E-19-4.68940E-19
 -1      1881 9.39172E-05-2.86411E-05-2.79684E-05 2.14717E-06 6.49645E-19-2.75883E-19
 -1      1882 9.41786E-05-2.84717E-05-2.81735E-05 1.05664E-06-2.33962E-19-1.64885E-20
 -1      1883 9.44530E-05-2.85235E-05-2.82584E-05 8.81930E-07 1.26329E-19-2.21513E-20
 -1      1884 9.43852E-05-2.86794E-05-2.81542E-05 1.49689E-06 3.74481E-20-1.73497E-19
 -1      1885 9.45870E-05-2.85335E-05-2.83188E-05 6.92523E-07 2.71724E-19-2.68558E-19
 -1      1886 9.47686E-05-2.85626E-05-2.83763E-05 5.67222E-07 7.63422E-19-2.57340E-19
 -1      1887 9.47038E-05-2.86789E-05-2.82924E-05 1.00091E-06-2.54631E-20 2.90603E-19
 -1      1888 9.48570E-05-2.85653E-05-2.84181E-05 4.34004E-07 2.20286E-19-9.84258E-19
 -1      1889 9.49725E-05-2.85803E-05-2.84555E-05 3.48350E-07 5.88125E-21-1.19364E-18
 -1      1890 9.49148E-05-2.86617E-05-2.83913E-05 6.41867E-07-4.34576E-20-8.53929E-19
 -1      1891 9.50292E-05-2.85798E-05-2.84834E-05 2.58688E-07 1.67900E-19-1.40264E-18
 -1      1892 9.50994E-05-2.85866E-05-2.85067E-05 2.02712E-07-8.91814E-20-1.67446E-18
 -1      1893 9.50510E-05-2.86403E-05-2.84597E-05 3.93556E-07-6.34075E-21-7.57253E-20
 -1      1894 9.51347E-05-2.85849E-05-2.85247E-05 1.44851E-07-7.66407E-19-1.73924E-18
 -1      1895 9.51751E-05-2.85872E-05-2.85385E-05 1.09882E-07-5.78181E-19-2.22468E-18
 -1      1896 9.51364E-05-2.86207E-05-2.85054E-05 2.28912E-07-3.68079E-19-8.95075E-19
 -1      1897 9.51964E-05-2.85855E-05-2.85497E-05 7.41180E-08 2.00996E-19-1.36287E-18
 -1      1898 9.52179E-05-2.85855E-05-2.85573E-05 5.33169E-08 6.85846E-19-7.51731E-20
 -1      1899 9.51883E-05-2.86051E-05-2.85347E-05 1.24160E-07 5.80319E-20-1.00243E-19
 -1      1900 9.52301E-05-2.85840E-05-2.85639E-05 3.22464E-08-2.67048E-19-3.18441E-19
 -1      1901 9.52403E-05-2.85830E-05-2.85678E-05 2.05828E-08-6.36596E-19-3.41873E-19
 -1      1902 9.52184E-05-2.85936E-05-2.85529E-05 6.03494E-08 6.50383E-20 6.41437E-19
 -1      1903 9.52468E-05-2.85818E-05-2.85715E-05 8.88437E-09-1.10507E-19 4.33478E-19
 -1      1904 9.52505E-05-2.85805E-05-2.85731E-05 2.85693E-09-7.32164E-20 5.09042E-19
 -1      1905 9.52349E-05-2.85856E-05-2.85636E-05 2.33778E-08-1.71239E-19 1.06149E-18
 -1      1906 9.52535E-05-2.85796E-05-2.85749E-05-3.11194E-09-4.73854E-19-2.49385E-19
 -1      1907 9.52537E-05-2.85783E-05-2.85753E-05-5.82760E-09-4.88876E-19-2.48728E-19
 -1      1908 9.52431E-05-2.85802E-05-2.85695E-05 3.29739E-09-4.11829E-19 6.08666E-19
 -1      1909 9.52547E-05-2.85776E-05-2.85761E-05-8.45442E-09-7.19270E-19-3.24376E-19
 -1      1910 9.52532E-05-2.85764E-05-2.85759E-05-9.33401E-09 9.73890E-19-8.17050E-19
 -1      1911 9.52463E-05-2.85768E-05-2.85725E-05-6.59640E-09-3.32573E-19 3.77765E-19
 -1      1912 9.52531E-05-2.85759E-05-2.85760E-05-1.01191E-08 2.42022E-18-1.73849E-18
 -1      1913 9.52510E-05-2.85749E-05-2.85755E-05-1.00565E-08 2.03985E-18-7.49967E-19
 -1      1914 9.52467E-05-2.85745E-05-2.85737E-05-1.06374E-08 1.16356E-18-5.14938E-19
 -1      1915 9.52503E-05-2.85745E-05-2.85754E-05-9.89939E-09 1.92170E-18-7.67651E-19
 -1      1916 9.52481E-05-2.85737E-05-2.85748E-05-9.40472E-09 2.00304E-18 3.38227E-19
 -1      1917 9.52458E-05-2.85731E-05-2.85740E-05-1.15097E-08 2.42309E-18-4.30714E-19
 -1      1918 9.52472E-05-2.85734E-05-2.85745E-05-8.81147E-09 1.70044E-18-2.42940E-19
 -1      1919 9.52451E-05-2.85727E-05-2.85739E-05-8.14821E-09 1.42058E-18-2.05528E-20
 -1      1920 9.52442E-05-2.85721E-05-2.85737E-05-1.07930E-08 1.63486E-18 4.93845E-19
 -1      1921 9.52442E-05-2.85724E-05-2.85736E-05-7.37393E-09 1.14940E-18-5.00671E-19
 -1      1922 9.52424E-05-2.85719E-05-2.85731E-05-6.64836E-09 9.04202E-19 3.80194E-19
 -1      1923 9.52424E-05-2.85714E-05-2.85733E-05-9.34954E-09 9.58739E-19 3.64367E-19
 -1      1924 9.52416E-05-2.85716E-05-2.85728E-05-5.78962E-09 7.16607E-19 1.04326E-18
 -1      1925 9.52402E-05-2.85711E-05-2.85724E-05-5.00959E-09 1.24144E-18 2.66508E-18
 -1      1926 9.52406E-05-2.85708E-05-2.85728E-05-7.58734E-09 1.32475E-18 2.45624E-19
 -1      1927 9.52394E-05-2.85708E-05-2.85722E-05-4.07502E-09 5.75933E-19 2.94044E-18
 -1      1928 9.52384E-05-2.85704E-05-2.85720E-05-3.23513E-09 6.68400E-19 2.22878E-18
 -1      1929 9.52390E-05-2.85702E-05-2.85723E-05-5.63946E-09 1.59825E-18 1.53382E-18
 -1      1930 9.36829E-05-2.73182E-05-2.84030E-05 1.63319E-06 1.05892E-18 2.03962E-18
 -1      1931 9.44614E-05-2.72317E-05-2.87193E-05 2.51632E-06 1.29169E-18 2.50736E-18
 -1      1932 9.52965E-05-2.70022E-05-2.92399E-05 4.05513E-06 1.61507E-18 2.74112E-18
 -1      1933 9.70982E-05-2.69148E-05-2.99746E-05 5.94458E-06 1.84701E-18 3.20264E-18
 -1      1934 9.56132E-05-2.64669E-05-2.96452E-05 4.62581E-06 1.79723E-18 1.43271E-18
 -1      1935 9.28459E-05-2.74346E-05-2.80067E-05 3.01149E-07 9.09813E-19 1.46999E-18
 -1      1936 9.31442E-05-2.73689E-05-2.81300E-05 7.63897E-07 8.68169E-19 1.80723E-18
 -1      1937 9.44040E-05-2.71868E-05-2.88219E-05 1.90015E-06 1.29766E-18 9.16566E-19
 -1      1938 9.25596E-05-2.75336E-05-2.78505E-05-4.49069E-07 5.49678E-19 1.42339E-18
 -1      1939 9.25722E-05-2.74579E-05-2.78738E-05-1.92232E-07 7.39006E-19 1.48213E-18
 -1      1940 9.37004E-05-2.75074E-05-2.83850E-05 3.36939E-07 9.12258E-19 4.19741E-19
 -1      1941 9.26340E-05-2.76454E-05-2.78383E-05-8.95244E-07 4.48468E-19 1.13814E-18
 -1      1942 9.24722E-05-2.75600E-05-2.78030E-05-7.41175E-07 4.72810E-19 1.34125E-18
 -1      1943 9.33937E-05-2.76759E-05-2.81780E-05-5.69502E-07 6.61685E-19 6.17794E-19
 -1      1944 9.29499E-05-2.77617E-05-2.79235E-05-1.20733E-06 6.32891E-19 7.49754E-19
 -1      1945 9.26710E-05-2.76734E-05-2.78478E-05-1.08905E-06 6.38602E-19 1.08509E-18
 -1      1946 9.33711E-05-2.77860E-05-2.81174E-05-1.13118E-06 6.38725E-19 5.96149E-19
 -1      1947 9.34507E-05-2.78702E-05-2.80876E-05-1.51860E-06 3.93900E-19 8.18378E-19
 -1      1948 9.30709E-05-2.77838E-05-2.79759E-05-1.37955E-06 4.29643E-19 7.24579E-19
 -1      1949 9.35381E-05-2.78468E-05-2.81598E-05-1.55195E-06 6.41166E-19 2.26025E-19
 -1      1950 9.41320E-05-2.79562E-05-2.83339E-05-1.96420E-06-5.84982E-21 7.13210E-19
 -1      1951 9.36307E-05-2.78740E-05-2.81790E-05-1.74108E-06 3.38542E-19 8.01873E-19
 -1      1952 9.38325E-05-2.78413E-05-2.82858E-05-1.99656E-06 3.79238E-19 1.32662E-19
 -1      1953 9.50380E-05-2.80011E-05-2.86879E-05-2.71412E-06 7.26529E-20 4.42323E-19
 -1      1954 9.43547E-05-2.79232E-05-2.84691E-05-2.32120E-06 4.85059E-20 6.33342E-19
 -1      1955 9.42128E-05-2.77303E-05-2.84936E-05-2.63589E-06 2.92395E-19 4.14351E-20
 -1      1956 9.62599E-05-2.79757E-05-2.91993E-05-4.00822E-06 2.70875E-19 4.09729E-19
 -1      1957 9.52850E-05-2.78999E-05-2.88791E-05-3.31890E-06 6.97677E-20 3.40436E-19
 -1      1958 9.46429E-05-2.74453E-05-2.87956E-05-3.68226E-06 1.54633E-19-3.44780E-19
 -1      1959 9.79301E-05-2.78348E-05-2.99439E-05-6.19347E-06 2.40571E-19 5.74960E-19
 -1      1960 9.64928E-05-2.77542E-05-2.94640E-05-5.02018E-06 3.73164E-19 7.05992E-19
 -1      1961 9.50654E-05-2.68737E-05-2.92133E-05-5.42286E-06 4.77780E-20 2.78776E-20
 -1      1962 1.00201E-04-2.75254E-05-3.10129E-05-9.74380E-06 2.55261E-19 4.68437E-19
 -1      1963 9.80594E-05-2.74127E-05-3.02957E-05-7.83065E-06 2.50556E-19 3.48418E-19
 -1      1964 9.53579E-05-2.58472E-05-2.97626E-05-8.24527E-06 3.32262E-19-3.06300E-19
 -1      1965 1.03202E-04-2.70651E-05-3.24605E-05-1.51885E-05 2.09548E-19 2.89414E-19
 -1      1966 1.00049E-04-2.68108E-05-3.14361E-05-1.22708E-05 3.30158E-19 3.42989E-19
 -1      1967 9.52729E-05-2.41728E-05-3.04136E-05-1.26259E-05 3.06599E-19-3.19578E-19
 -1      1968 1.07002E-04-2.68457E-05-3.41412E-05-2.27478E-05-9.03811E-19 7.16855E-19
 -1      1969 1.02528E-04-2.60813E-05-3.28462E-05-1.88222E-05-3.08982E-19 4.64918E-19
 -1      1970 9.44201E-05-2.18377E-05-3.09906E-05-1.90077E-05-2.03122E-19-1.73577E-19
 -1      1971 1.11844E-04-2.85053E-05-3.54222E-05-3.08663E-05-1.36082E-18 1.22278E-18
 -1      1972 1.05793E-04-2.61708E-05-3.41799E-05-2.71895E-05-1.25680E-18 8.59262E-19
 -1      1973 9.25754E-05-1.96839E-05-3.09921E-05-2.71489E-05-1.10581E-18 1.90735E-19
 -1      1974 1.19872E-04-3.65234E-05-3.52180E-05-3.60958E-05-1.91906E-18 1.92785E-18
 -1      1975 1.11276E-04-2.99744E-05-3.45737E-05-3.53682E-05-1.70375E-18 1.59263E-18
 -1      1976 9.05452E-05-2.09145E-05-2.94438E-05-3.61868E-05-2.08619E-18 8.63550E-19
 -1      1977 2.29977E-04-6.33526E-05-6.99553E-05-2.54059E-05 4.29192E-18-1.47511E-18
 -1      1978 2.31833E-04-5.15729E-05-7.44000E-05-1.77254E-05 4.75185E-18-7.17013E-19
 -1      1979 2.35778E-04-5.04679E-05-7.61085E-05-5.44826E-06 3.81588E-18-1.74134E-18
 -1      1980 2.36971E-04-5.42340E-05-7.54136E-05 1.40274E-05 3.06795E-18-1.15324E-18
 -1      1981 1.73890E-04-6.76066E-05-4.44583E-05 1.29223E-05-1.76818E-18-2.74365E-18
 -1      1982 1.83937E-04-7.35113E-05-4.63325E-05-4.11838E-06-4.62904E-19-3.52450E-18
 -1      1983 1.47285E-04-4.81378E-05-4.15829E-05 3.04212E-05-1.77136E-18-2.37331E-18
 -1      1984 1.58362E-04-5.72292E-05-4.26607E-05 2.32405E-05-1.82133E-18-2.77912E-18
 -1      1985 1.29429E-04-3.61876E-05-3.97141E-05 2.99388E-05-1.03118E-18-1.12491E-18
 -1      1986 1.40229E-04-4.21719E-05-4.16692E-05 3.09984E-05-1.58273E-18-1.77713E-18
 -1      1987 1.19668E-04-3.84441E-05-3.42764E-05 3.85774E-05-2.13495E-18 2.48710E-19
 -1      1988 1.17811E-04-3.17522E-05-3.69428E-05 2.25030E-05-2.04858E-18-4.46413E-19
 -1      1989 1.26504E-04-3.48732E-05-3.91199E-05 2.59732E-05-9.08089E-19-6.29981E-19
 -1      1990 1.10590E-04-2.90402E-05-3.47661E-05 3.40166E-05-1.55438E-18 8.06329E-19
 -1      1991 1.09952E-04-3.01990E-05-3.42603E-05 1.48913E-05-1.04227E-18-1.56788E-18
 -1      1992 1.16087E-04-3.17467E-05-3.60276E-05 1.80477E-05-1.39125E-18-1.48289E-18
 -1      1993 1.05884E-04-2.64849E-05-3.39330E-05 2.48333E-05-1.22133E-18-8.67229E-19
 -1      1994 1.04582E-04-2.95438E-05-3.21982E-05 9.27142E-06-7.93207E-19-5.79030E-19
 -1      1995 1.08593E-04-3.03691E-05-3.34169E-05 1.15038E-05-1.26708E-18-1.69287E-18
 -1      1996 1.02833E-04-2.68110E-05-3.25457E-05 1.64691E-05-1.19851E-18-2.27536E-18
 -1      1997 1.01014E-04-2.91845E-05-3.07948E-05 5.57008E-06-1.17335E-18 2.37302E-20
 -1      1998 1.03517E-04-2.96440E-05-3.15663E-05 6.99343E-06-1.09165E-18-8.13946E-22
 -1      1999 1.00474E-04-2.74861E-05-3.12672E-05 1.03373E-05-1.31375E-18-2.33195E-18
 -1      2000 9.87282E-05-2.89553E-05-2.98996E-05 3.26938E-06 4.97658E-19 6.03584E-19
 -1      2001 1.00234E-04-2.92161E-05-3.03657E-05 4.13249E-06 1.65866E-19 3.97667E-19
 -1      2002 9.87062E-05-2.79802E-05-3.03065E-05 6.26930E-06-3.54583E-19-9.61042E-19
 -1      2003 9.73549E-05-2.88103E-05-2.93710E-05 1.93798E-06 1.36832E-18 1.63840E-18
 -1      2004 9.82179E-05-2.89515E-05-2.96363E-05 2.43224E-06 8.89219E-19 8.52980E-19
 -1      2005 9.74793E-05-2.82701E-05-2.96636E-05 3.75290E-06 9.65796E-19-1.93580E-19
 -1      2006 9.64595E-05-2.87121E-05-2.90303E-05 1.09699E-06 2.99254E-19 2.21134E-18
 -1      2007 9.69900E-05-2.87977E-05-2.91938E-05 1.40114E-06 5.84109E-19 2.26624E-18
 -1      2008 9.66468E-05-2.84145E-05-2.92435E-05 2.21611E-06 5.88655E-19 1.32814E-18
 -1      2009 9.59297E-05-2.86517E-05-2.88302E-05 6.09559E-07 6.57212E-19 8.18958E-19
 -1      2010 9.62310E-05-2.86976E-05-2.89232E-05 7.83696E-07 8.49217E-19 1.09039E-18
 -1      2011 9.60908E-05-2.84957E-05-2.89712E-05 1.26485E-06 1.12171E-18 1.55615E-18
 -1      2012 9.56215E-05-2.86158E-05-2.87145E-05 3.31007E-07 1.67425E-18 3.44335E-19
 -1      2013 9.57891E-05-2.86399E-05-2.87664E-05 4.29107E-07 1.31204E-18 3.50853E-19
 -1      2014 9.57428E-05-2.85356E-05-2.88048E-05 7.07722E-07 1.08426E-18 4.70097E-19
 -1      2015 9.54463E-05-2.85955E-05-2.86488E-05 1.74618E-07-6.00596E-19 1.42694E-18
 -1      2016 9.55373E-05-2.86076E-05-2.86772E-05 2.28856E-07 3.65112E-19 5.69808E-19
 -1      2017 9.55311E-05-2.85554E-05-2.87052E-05 3.86951E-07 3.08140E-19 7.04850E-19
 -1      2018 9.53491E-05-2.85845E-05-2.86124E-05 8.87314E-08-1.71243E-18 2.33736E-18
 -1      2019 9.53970E-05-2.85901E-05-2.86275E-05 1.17989E-07-1.50516E-18 2.35111E-18
 -1      2020 9.54056E-05-2.85653E-05-2.86468E-05 2.05697E-07-1.28798E-18 1.52659E-18
 -1      2021 9.52965E-05-2.85787E-05-2.85928E-05 4.29077E-08 7.24532E-19 3.28291E-19
 -1      2022 9.53209E-05-2.85811E-05-2.86005E-05 5.81684E-08 2.13949E-19 1.96393E-18
 -1      2023 9.53329E-05-2.85701E-05-2.86133E-05 1.05566E-07-3.12058E-19 2.83349E-18
 -1      2024 9.52689E-05-2.85758E-05-2.85824E-05 1.94050E-08 7.30671E-19-6.30986E-19
 -1      2025 9.52807E-05-2.85766E-05-2.85862E-05 2.69931E-08 1.25660E-18-7.50693E-20
 -1      2026 9.52918E-05-2.85725E-05-2.85944E-05 5.18250E-08 1.02615E-18 8.59225E-20
 -1      2027 9.52548E-05-2.85743E-05-2.85771E-05 8.01435E-09-8.89297E-19-2.24900E-19
 -1      2028 9.52602E-05-2.85745E-05-2.85789E-05 1.15228E-08-2.31971E-19-1.09753E-18
 -1      2029 9.52688E-05-2.85735E-05-2.85840E-05 2.40724E-08 4.34504E-19 9.18728E-20
 -1      2030 9.52476E-05-2.85736E-05-2.85745E-05 2.95878E-09-1.51131E-18-3.50430E-19
 -1      2031 9.52500E-05-2.85735E-05-2.85753E-05 4.39185E-09-2.20923E-18-5.33630E-20
 -1      2032 9.52562E-05-2.85738E-05-2.85783E-05 1.04915E-08-1.57859E-18-4.35825E-19
 -1      2033 9.52439E-05-2.85731E-05-2.85732E-05 1.04009E-09 1.83086E-18-3.60172E-19
 -1      2034 9.52449E-05-2.85730E-05-2.85735E-05 1.48844E-09 1.68553E-18-2.83783E-19
 -1      2035 9.52492E-05-2.85737E-05-2.85753E-05 4.35899E-09 3.49960E-19-3.36142E-18
 -1      2036 9.52418E-05-2.85726E-05-2.85725E-05 5.38065E-10-1.06575E-19-1.13527E-18
 -1      2037 9.52423E-05-2.85727E-05-2.85726E-05 5.75872E-10 1.39732E-18-9.47295E-21
 -1      2038 9.52452E-05-2.85734E-05-2.85737E-05 1.93374E-09 1.35732E-18-1.18967E-18
 -1      2039 9.52405E-05-2.85723E-05-2.85721E-05 5.61537E-10-1.48049E-18-2.66003E-18
 -1      2040 9.52408E-05-2.85723E-05-2.85722E-05 4.78074E-10-1.60676E-18-1.65064E-18
 -1      2041 9.52427E-05-2.85729E-05-2.85728E-05 1.19304E-09-5.17261E-19-1.96765E-18
 -1      2042 9.52394E-05-2.85719E-05-2.85718E-05 6.71519E-10 2.85290E-18-1.69404E-18
 -1      2043 9.52397E-05-2.85720E-05-2.85719E-05 6.03820E-10 1.05280E-18-2.20803E-18
 -1      2044 9.52410E-05-2.85725E-05-2.85723E-05 1.08260E-09 8.54699E-20-2.91666E-18
 -1      2045 9.52385E-05-2.85715E-05-2.85716E-05 6.69237E-10 2.88365E-18-2.34874E-18
 -1      2046 9.52388E-05-2.85717E-05-2.85716E-05 6.75036E-10 3.28603E-18-1.32663E-18
 -1      2047 9.52397E-05-2.85720E-05-2.85719E-05 1.08027E-09 2.43233E-18-3.48463E-18
 -1      2048 9.52378E-05-2.85713E-05-2.85714E-05 4.88836E-10 9.21620E-19-2.57026E-18
 -1      2049 9.52381E-05-2.85714E-05-2.85715E-05 5.84333E-10 2.55888E-18-1.21474E-18
 -1      2050 9.52387E-05-2.85716E-05-2.85716E-05 9.54738E-10 2.70785E-18-3.10849E-18
 -1      2051 9.52374E-05-2.85711E-05-2.85713E-05 1.83296E-10-1.80755E-18-8.21838E-19
 -1      2052 9.52375E-05-2.85711E-05-2.85713E-05 3.23215E-10-9.19582E-20-1.22967E-18
 -1      2053 9.52379E-05-2.85712E-05-2.85715E-05 6.43505E-10-3.96310E-19-7.37063E-19
 -1      2054 9.52373E-05-2.85710E-05-2.85712E-05 8.01488E-11-2.15616E-18-1.10555E-18
 -1      2055 9.52373E-05-2.85710E-05-2.85712E-05 1.10229E-10-1.71124E-18-8.59573E-19
 -1      2056 9.52375E-05-2.85710E-05-2.85713E-05 3.76148E-10-1.43620E-18 5.28162E-19
 -1      2057 9.52373E-05-2.85710E-05-2.85713E-05 2.42229E-10-2.16538E-18-2.46733E-18
 -1      2058 9.52370E-05-2.85696E-05-2.85717E-05 1.66095E-09-2.07093E-18 2.50095E-18
 -1      2059 9.52372E-05-2.85701E-05-2.85716E-05 1.33281E-09-3.01491E-18 1.23125E-18
 -1      2060 9.52372E-05-2.85705E-05-2.85715E-05 8.77561E-10-2.13163E-18 7.48574E-19
 -1      2061 9.52373E-05-2.85707E-05-2.85714E-05 5.89753E-10-8.49665E-19-1.11658E-18
 -1      2062 9.52374E-05-2.85708E-05-2.85714E-05 6.68266E-10-8.45478E-19-1.77189E-18
 -1      2063 9.52374E-05-2.85703E-05-2.85716E-05 1.54043E-09-1.23449E-18 1.30914E-19
 -1      2064 9.52366E-05-2.85684E-05-2.85721E-05 2.34953E-09 4.16903E-19 2.59966E-18
 -1      2065 9.52368E-05-2.85691E-05-2.85719E-05 2.07792E-09-1.19422E-18 1.40469E-18
 -1      2066 9.52372E-05-2.85694E-05-2.85719E-05 2.51976E-09-1.77501E-18 3.22482E-18
 -1      2067 9.52360E-05-2.85668E-05-2.85725E-05 2.78758E-09-3.66472E-19 1.05208E-18
 -1      2068 9.52363E-05-2.85677E-05-2.85723E-05 2.63744E-09 1.74853E-19 3.31899E-18
 -1      2069 9.52366E-05-2.85682E-05-2.85722E-05 3.31570E-09-4.05373E-19 2.37136E-18
 -1      2070 9.52353E-05-2.85652E-05-2.85729E-05 2.86462E-09-1.72214E-18 3.84139E-19
 -1      2071 9.52357E-05-2.85661E-05-2.85727E-05 2.87565E-09-1.05402E-18 3.35007E-19
 -1      2072 9.52360E-05-2.85668E-05-2.85725E-05 3.73965E-09-6.67347E-19 5.23811E-19
 -1      2073 9.52346E-05-2.85637E-05-2.85733E-05 2.51067E-09 2.71559E-19 7.99710E-20
 -1      2074 9.52350E-05-2.85645E-05-2.85731E-05 2.70363E-09-7.78134E-19-5.66669E-19
 -1      2075 9.52352E-05-2.85653E-05-2.85728E-05 3.65776E-09-1.24074E-18 9.73525E-19
 -1      2076 9.52341E-05-2.85625E-05-2.85736E-05 1.73655E-09 1.05706E-18-9.75221E-19
 -1      2077 9.52344E-05-2.85631E-05-2.85734E-05 2.09973E-09 7.66169E-19-6.04885E-19
 -1      2078 9.52345E-05-2.85640E-05-2.85730E-05 3.01578E-09-5.16439E-20 6.44063E-20
 -1      2079 9.52338E-05-2.85619E-05-2.85737E-05 6.20726E-10-6.31298E-19-8.23590E-19
 -1      2080 9.52339E-05-2.85621E-05-2.85736E-05 1.11460E-09 9.79137E-19-8.92903E-19
 -1      2081 9.52340E-05-2.85631E-05-2.85732E-05 1.85633E-09 5.71370E-19-1.37859E-18
 -1      2082 9.52338E-05-2.85619E-05-2.85737E-05-6.95394E-10-5.17305E-19 4.68760E-19
 -1      2083 9.52338E-05-2.85618E-05-2.85737E-05-1.36587E-10-1.42734E-18-3.71787E-19
 -1      2084 9.52337E-05-2.85627E-05-2.85733E-05 3.07097E-10-9.65871E-19-1.41178E-18
 -1      2085 9.52341E-05-2.85627E-05-2.85734E-05-1.99093E-09 4.48409E-19 1.99593E-18
 -1      2086 9.52339E-05-2.85622E-05-2.85736E-05-1.46605E-09 2.47249E-19 4.64709E-19
 -1      2087 9.52337E-05-2.85628E-05-2.85732E-05-1.41181E-09-5.78378E-21 1.04407E-18
 -1      2088 9.52347E-05-2.85642E-05-2.85731E-05-3.05984E-09 2.26650E-18 1.36336E-18
 -1      2089 9.52343E-05-2.85633E-05-2.85733E-05-2.66147E-09 1.15204E-18 2.09103E-18
 -1      2090 9.52341E-05-2.85636E-05-2.85730E-05-3.03948E-09 9.36612E-19 2.38725E-18
 -1      2091 9.52356E-05-2.85661E-05-2.85726E-05-3.60772E-09 4.81445E-19 8.86987E-19
 -1      2092 9.52351E-05-2.85650E-05-2.85729E-05-3.46573E-09 1.34619E-18 1.95126E-19
 -1      2093 9.52348E-05-2.85650E-05-2.85728E-05-4.26157E-09 6.75612E-19 4.43739E-19
 -1      2094 9.52366E-05-2.85682E-05-2.85722E-05-3.35993E-09-2.19218E-18-2.71756E-18
 -1      2095 9.52360E-05-2.85670E-05-2.85724E-05-3.58678E-09-1.24740E-18-3.41115E-19
 -1      2096 9.52359E-05-2.85668E-05-2.85725E-05-4.72536E-09-7.15384E-19-1.51703E-18
 -1      2097 1.09904E-04-5.93905E-05-2.28985E-05 2.95204E-05 8.85149E-19 3.79026E-18
 -1      2098 8.16674E-05-5.42277E-05-1.39025E-05 2.82415E-05-1.00373E-19 3.72197E-18
 -1      2099 9.52378E-05-2.85704E-05-2.85717E-05-1.87976E-09 7.01819E-19 2.62477E-18
 -1      2100 8.30844E-06-3.54083E-05 1.04331E-05-1.35256E-05 1.93632E-18 2.14130E-18
 -1      2101 1.13970E-05-3.52694E-05 9.07912E-06-2.21678E-05 7.87529E-19 2.68255E-18
 -1      2102 2.36345E-04-7.06694E-05-6.82492E-05 1.97714E-05 3.53721E-18-3.33731E-19
 -1      2103 8.72376E-05-8.72032E-06-3.37456E-05-1.05487E-05-1.16187E-18-3.29633E-18
 -1      2104 8.79481E-05-9.23712E-06-3.38200E-05-1.21050E-05-1.47566E-18-3.02378E-18
 -1      2105 9.04815E-05-1.30479E-05-3.32350E-05-1.18822E-05-1.67309E-18-2.59225E-18
 -1      2106 8.86725E-05-1.10551E-05-3.32901E-05-9.42174E-06-1.14766E-18-3.18025E-18
 -1      2107 1.62347E-04-7.21726E-05-3.98752E-05 1.67119E-05 1.75166E-18 2.32129E-18
 -1      2108 1.29121E-04-6.57512E-05-2.94648E-05 1.99578E-05 9.78323E-19 2.94429E-18
 -1      2109 2.27165E-04-6.90033E-05-6.51076E-05-2.53449E-05 5.17071E-18-6.35275E-20
 -1      2110 2.31875E-04-5.52913E-05-7.26537E-05 2.17197E-05 3.72440E-18-1.58310E-18
 -1      2111 1.70633E-04-7.38006E-05-4.27388E-05-3.70181E-06 2.14045E-18-2.76980E-19
 -1      2112 5.81893E-05-4.87652E-05-6.19505E-06-2.57202E-05 2.39922E-18-2.33739E-18
 -1      2113 8.22504E-05-5.22005E-05-1.43203E-05-3.13041E-05 2.91972E-18-2.21351E-18
 -1      2114 2.16726E-05-4.20511E-05 6.73161E-06-1.08111E-05 1.74616E-18-4.12293E-18
 -1      2115 3.39180E-05-4.10509E-05 1.53961E-06-2.07610E-05 2.43268E-18-3.20856E-18
 -1      2116 7.75648E-06-3.54206E-05 1.05431E-05 5.96576E-06 5.35166E-19-4.45497E-18
 -1      2117 1.24728E-05-3.96735E-05 9.93867E-06-2.04174E-06 1.98163E-18-4.37493E-18
 -1      2118 1.96392E-05-2.81108E-05 2.53104E-06-1.50350E-05 4.95938E-19-4.32664E-18
 -1      2119 1.67237E-05-3.43627E-05 6.63187E-06 2.91193E-05-1.20956E-18-5.62515E-18
 -1      2120 1.07003E-05-3.43170E-05 9.09252E-06 2.02042E-05 4.86620E-19-5.56289E-18
 -1      2121 4.07240E-05-3.47059E-05-2.99756E-06 4.60842E-05-2.27259E-18-5.95083E-18
 -1      2122 2.83930E-05-3.93863E-05 3.38545E-06 3.63487E-05-1.11554E-18-5.75855E-18
 -1      2123 2.59387E-05-2.70189E-05 7.66604E-08 3.94956E-05-2.58769E-19-5.99276E-18
 -1      2124 8.11552E-05-3.80793E-05-1.84819E-05 5.42653E-05-3.97089E-18-3.49888E-18
 -1      2125 6.37433E-05-4.19537E-05-1.02927E-05 4.83790E-05-2.50552E-18-4.36413E-18
 -1      2126 1.21341E-04-3.85532E-05-3.50329E-05 5.36854E-05-4.42151E-18-4.73364E-18
 -1      2127 9.97124E-05-4.08314E-05-2.60863E-05 4.96232E-05-4.04458E-18-3.42328E-18
 -1      2128 1.60144E-04-3.88515E-05-5.14155E-05 4.16173E-05-4.14877E-18-3.11835E-18
 -1      2129 1.37735E-04-3.83360E-05-4.28314E-05 4.47481E-05-4.40330E-18-4.38424E-18
 -1      2130 1.89503E-04-3.25218E-05-6.61047E-05 2.42769E-05-4.57758E-18-2.86467E-18
 -1      2131 1.71171E-04-3.31564E-05-5.89839E-05 2.86039E-05-4.67012E-18-2.95869E-18
 -1      2132 2.07152E-04-2.78800E-05-7.53998E-05 9.21382E-06-4.16359E-18-2.21457E-18
 -1      2133 1.95280E-04-2.66527E-05-7.16081E-05 1.86872E-05-4.56720E-18-3.24922E-18
 -1      2134 2.03248E-04-2.46886E-05-7.55766E-05-7.02520E-06-3.91499E-18-1.07361E-18
 -1      2135 2.04589E-04-2.46504E-05-7.60221E-05 3.41996E-06-4.10980E-18-2.26190E-18
 -1      2136 1.88422E-04-2.60950E-05-6.92378E-05-1.92936E-05-5.07944E-18 1.97782E-19
 -1      2137 2.03673E-04-2.79413E-05-7.39199E-05-1.24216E-05-4.42956E-18-7.08755E-19
 -1      2138 1.65890E-04-3.52616E-05-5.58981E-05-3.11390E-05-3.99352E-18 1.48654E-19
 -1      2139 1.82348E-04-3.40866E-05-6.28257E-05-2.48686E-05-4.46704E-18-6.08593E-19
 -1      2140 1.29696E-04-3.81501E-05-3.96484E-05-4.64741E-05-3.14122E-18 2.84137E-18
 -1      2141 1.53982E-04-3.84706E-05-4.89599E-05-4.56124E-05-3.48448E-18 1.40142E-18
 -1      2142 8.99552E-05-4.17341E-05-2.15905E-05-4.97416E-05-1.06260E-18 4.98691E-18
 -1      2143 1.12193E-04-3.90061E-05-3.10624E-05-5.48014E-05-2.20949E-18 4.74593E-18
 -1      2144 4.94432E-05-4.09771E-05-5.00683E-06-4.43003E-05 6.94567E-20 4.44139E-18
 -1      2145 6.62828E-05-3.61979E-05-1.32091E-05-5.25458E-05-1.09183E-18 6.02039E-18
 -1      2146 2.08754E-05-4.02973E-05 6.76355E-06-3.10362E-05 7.05578E-19 3.21491E-18
 -1      2147 3.03933E-05-3.57056E-05 1.41440E-06-3.93955E-05-3.66765E-19 4.48335E-18
 -1      2148 1.00003E-04-2.25492E-05-3.29192E-05 1.46427E-05 2.15549E-18 3.66760E-18
 -1      2149 1.65302E-05-3.31491E-05 6.23809E-06 1.02201E-05 9.35124E-19-3.02391E-19
 -1      2150 1.03047E-05-3.39501E-05 8.90366E-06-4.28610E-07 1.09757E-18 1.69534E-18
 -1      2151 9.98664E-05-2.25554E-05-3.28523E-05-1.44677E-05-2.17574E-18 6.60845E-19
 -1      2152 1.41965E-04-6.71978E-05-3.31051E-05-2.46316E-05 2.36068E-18-1.70381E-18
 -1      2153 1.67614E-04-7.28061E-05-4.01459E-05-8.86999E-06-1.30443E-19 2.08656E-18
 -1      2154 1.55907E-04-6.55136E-05-3.80261E-05-2.10187E-05-1.11406E-18 2.96546E-18
 -1      2155 1.07075E-04-6.03424E-05-2.23462E-05-2.49527E-05 2.71728E-18-1.53228E-18
 -1      2156 9.52378E-05-2.85699E-05-2.85719E-05-3.18963E-09-3.04023E-19 9.31913E-19
 -1      2157 3.21149E-05-2.64289E-05-2.84146E-06 2.39118E-05 5.50995E-19 7.85200E-19
 -1      2158 1.04067E-05-2.01123E-05 3.63995E-06-4.05013E-06 8.76970E-19 1.62842E-18
 -1      2159 8.23208E-05-4.75570E-05-1.55964E-05 3.54063E-05-5.23890E-19 2.57011E-18
 -1      2160 1.12601E-04-5.95610E-05-2.33422E-05-3.33285E-05 2.19805E-19 4.11605E-20
 -1      2161 9.72385E-05-2.43288E-05-3.13206E-05-1.00023E-05-2.08918E-18 1.83475E-19
 -1      2162 6.15433E-05-4.03995E-05-9.29706E-06 5.32353E-05-6.16640E-19-4.68642E-18
 -1      2163 9.63833E-05-2.31162E-05-3.14661E-05-1.03875E-05-2.17002E-18-6.76250E-19
 -1      2164 1.95538E-04-7.57186E-05-5.07101E-05-8.30251E-06 1.91916E-18-1.46748E-18
 -1      2165 2.01067E-04-6.73365E-05-5.64630E-05-1.44602E-05 4.10250E-18 2.10064E-19
 -1      2166 9.64338E-05-2.31394E-05-3.14905E-05 1.04255E-05 2.31658E-18 1.67096E-18
 -1      2167 9.73398E-05-2.43684E-05-3.13562E-05 1.00772E-05 2.11742E-18 3.13873E-18
 -1      2168 1.80218E-04-1.27028E-05-7.05038E-05 1.35144E-06-4.53332E-18-1.79010E-18
 -1      2169 1.26390E-04-4.37063E-05-3.46424E-05-3.62775E-05-1.98206E-18 2.01954E-18
 -1      2170 9.51800E-05-3.21557E-05-2.67401E-05-4.16380E-05-2.12775E-18 1.06790E-18
 -1      2171 9.68598E-06-2.23355E-05 4.75004E-06 1.34789E-05 2.09641E-20-5.66750E-18
 -1      2172 1.36286E-04-5.34856E-05-3.49569E-05-2.99220E-05-1.98926E-18 2.81670E-18
 -1      2173 1.36462E-04-6.60096E-05-3.02467E-05 2.63311E-05-7.58518E-19 1.83743E-18
 -1      2174 1.39935E-04-5.92002E-05-3.45166E-05 2.77889E-05-1.67797E-18 2.26581E-20
 -1      2175 1.61284E-04-4.35828E-05-4.97070E-05-2.29189E-05-1.92509E-18-1.78809E-18
 -1      2176 9.52373E-05-2.85692E-05-2.85721E-05-3.39807E-09-1.53595E-18-5.91551E-19
 -1      2177 1.74840E-05-2.63522E-05 3.07142E-06-3.17372E-05 7.11508E-19 3.49486E-18
 -1      2178 1.73981E-04-2.78204E-05-6.19950E-05-5.84219E-06-3.79217E-18-1.90964E-18
 -1      2179 4.78021E-05-3.69350E-05-5.14433E-06-5.03296E-05 1.04566E-18 4.25295E-18
 -1      2180 9.25766E-05-4.79176E-05-1.91386E-05-5.43766E-05 1.43996E-18 4.35809E-18
 -1      2181 1.33753E-04-5.15049E-05-3.48482E-05-4.25834E-05 4.22034E-19 7.98540E-19
 -1      2182 1.78262E-04-1.33494E-05-6.94897E-05-1.26087E-06-4.35926E-18-2.07544E-18
 -1      2183 1.77578E-04-2.45010E-05-6.47117E-05 5.33103E-06-4.37535E-18-1.96596E-18
 -1      2184 1.65623E-04-4.10117E-05-5.26705E-05 2.01560E-05-3.35518E-18-1.33154E-18
 -1      2185 1.40401E-04-5.06626E-05-3.79897E-05 3.97473E-05-2.38270E-18-2.30097E-18
 -1      2186 1.18223E-04-5.35871E-05-2.78067E-05-3.47541E-05-1.26631E-18 1.02078E-18
 -1      2187 5.76173E-05-4.18636E-05-7.85205E-06-3.31433E-05 7.70800E-20-1.90604E-18
 -1      2188 1.05385E-04-5.04074E-05-2.35511E-05 5.19519E-05-1.69449E-18-2.42548E-18
 -1      2189 9.52374E-05-2.85689E-05-2.85722E-05-4.68612E-09-5.21590E-19-1.82560E-18
 -1      2190 8.81018E-05-1.11741E-05-3.30082E-05-3.66794E-06-9.14192E-20-3.11870E-18
 -1      2191 8.83391E-05-1.14470E-05-3.29906E-05-4.80950E-06-3.85403E-19-3.27235E-18
 -1      2192 8.86947E-05-1.19332E-05-3.29425E-05-5.82859E-06-5.54636E-19-3.35483E-18
 -1      2193 8.91044E-05-1.24069E-05-3.29152E-05-7.00222E-06-8.03597E-19-3.27702E-18
 -1      2194 8.98626E-05-1.38233E-05-3.25879E-05-4.90971E-06-4.05142E-19-3.11526E-18
 -1      2195 8.77418E-05-1.06917E-05-3.30555E-05 6.04834E-07 7.95188E-19-2.88697E-18
 -1      2196 8.77400E-05-1.06919E-05-3.30543E-05-5.03448E-07 5.60456E-19-3.03716E-18
 -1      2197 8.79184E-05-1.09023E-05-3.30412E-05 2.73900E-06 1.22480E-18-2.76703E-18
 -1      2198 8.78049E-05-1.07748E-05-3.30485E-05 1.62400E-06 9.97755E-19-2.82533E-18
 -1      2199 8.90546E-05-1.27296E-05-3.27139E-05 1.04510E-06 8.25266E-19-2.70876E-18
 -1      2200 8.83510E-05-1.14353E-05-3.30012E-05 4.85843E-06 1.56622E-18-2.63844E-18
 -1      2201 8.81117E-05-1.11646E-05-3.30168E-05 3.74034E-06 1.36669E-18-2.72880E-18
 -1      2202 8.93152E-05-1.30684E-05-3.26789E-05 3.00823E-06 1.24419E-18-2.60031E-18
 -1      2203 8.91297E-05-1.24020E-05-3.29287E-05 7.03638E-06 2.06568E-18-2.13614E-18
 -1      2204 8.87120E-05-1.19237E-05-3.29547E-05 5.86945E-06 1.78223E-18-2.43214E-18
 -1      2205 8.98711E-05-1.38009E-05-3.26004E-05 4.95328E-06 1.64802E-18-2.30175E-18
 -1      2206 9.04006E-05-1.39929E-05-3.28096E-05 9.18274E-06 2.40897E-18-1.57076E-18
 -1      2207 8.97223E-05-1.31951E-05-3.28511E-05 8.00304E-06 2.17456E-18-1.93665E-18
 -1      2208 9.08108E-05-1.50472E-05-3.24629E-05 6.84034E-06 2.03037E-18-1.89197E-18
 -1      2209 9.24108E-05-1.65900E-05-3.25918E-05 1.10650E-05 2.51958E-18-7.05843E-19
 -1      2210 9.13304E-05-1.52216E-05-3.26762E-05 1.00045E-05 2.43278E-18-1.23039E-18
 -1      2211 9.22413E-05-1.69976E-05-3.22311E-05 8.49012E-06 2.31014E-18-1.32215E-18
 -1      2212 9.55051E-05-2.09539E-05-3.20183E-05 1.13002E-05 2.38323E-18 7.75631E-19
 -1      2213 9.37200E-05-1.85912E-05-3.22306E-05 1.09824E-05 2.41577E-18-1.27346E-19
 -1      2214 9.42136E-05-2.01504E-05-3.17158E-05 9.01398E-06 2.28970E-18-4.21865E-19
 -1      2215 9.57227E-05-2.39082E-05-3.07740E-05 7.63172E-06 2.17938E-18 9.02358E-19
 -1      2216 9.59355E-05-2.51075E-05-3.03084E-05-6.20080E-06-1.63747E-18-9.75262E-19
 -1      2217 9.52727E-05-2.58682E-05-2.97619E-05-4.29469E-06-1.39939E-18-1.01251E-18
 -1      2218 4.60520E-05-2.27671E-05-9.77792E-06 3.36837E-05 5.96099E-19 2.06422E-18
 -1      2219 2.79107E-05-1.54447E-05-4.86867E-06 2.05957E-05-2.07311E-19 8.87691E-19
 -1      2220 9.51562E-05-2.65589E-05-2.93412E-05-2.96517E-06-1.21207E-18-8.72958E-19
 -1      2221 9.46785E-05-2.69349E-05-2.90338E-05-1.91527E-06-1.03123E-18-8.81454E-19
 -1      2222 9.53472E-05-2.53857E-05-2.99895E-05-4.32089E-06-1.35196E-18-1.25499E-18
 -1      2223 9.44821E-05-2.72748E-05-2.87644E-05-1.08253E-06-8.98200E-19-6.82895E-19
 -1      2224 9.42128E-05-2.74976E-05-2.85913E-05-5.04627E-07-6.32416E-19-7.99691E-19
 -1      2225 9.50407E-05-2.67417E-05-2.92838E-05-1.97583E-06-9.21507E-19-9.57323E-19
 -1      2226 9.40633E-05-2.76939E-05-2.84210E-05-3.05749E-08-4.96171E-19-8.05314E-19
 -1      2227 9.39458E-05-2.78512E-05-2.83262E-05 2.57857E-07-4.15592E-19-7.39913E-19
 -1      2228 9.47363E-05-2.75054E-05-2.88258E-05-5.52401E-07-6.76441E-19-6.91042E-19
 -1      2229 9.38608E-05-2.79852E-05-2.82192E-05 4.83858E-07-4.85643E-19-9.82426E-19
 -1      2230 9.38344E-05-2.81115E-05-2.81686E-05 5.80369E-07-5.15913E-19-1.07595E-18
 -1      2231 9.45363E-05-2.79875E-05-2.85309E-05 2.22822E-07-6.03663E-19-9.62296E-19
 -1      2232 9.38029E-05-2.82192E-05-2.80999E-05 6.27260E-07-5.67080E-19-1.10464E-18
 -1      2233 9.38177E-05-2.83281E-05-2.80708E-05 5.84378E-07-4.84794E-19-1.08921E-18
 -1      2234 9.44463E-05-2.83365E-05-2.83398E-05 5.39516E-07-5.75621E-19-1.32111E-18
 -1      2235 9.38225E-05-2.84268E-05-2.80226E-05 4.91636E-07-4.66502E-19-9.08231E-19
 -1      2236 9.38387E-05-2.85234E-05-2.79987E-05 3.35915E-07-3.89320E-19-9.78953E-19
 -1      2237 9.44398E-05-2.86253E-05-2.82106E-05 5.13862E-07-3.47364E-19-1.11126E-18
 -1      2238 9.38623E-05-2.86211E-05-2.79584E-05 1.23064E-07-5.03249E-19-7.92013E-19
 -1      2239 9.38461E-05-2.87043E-05-2.79274E-05-1.34010E-07-7.27489E-19-8.06058E-19
 -1      2240 9.44842E-05-2.88915E-05-2.81135E-05 2.10154E-07-4.35331E-19-9.09327E-19
 -1      2241 9.38710E-05-2.88016E-05-2.78858E-05-4.59648E-07-6.65138E-19-5.99473E-19
 -1      2242 9.37915E-05-2.88641E-05-2.78386E-05-8.13500E-07-2.65808E-19-6.24343E-19
 -1      2243 9.45463E-05-2.91504E-05-2.80273E-05-3.41583E-07-6.01725E-19-7.03271E-19
 -1      2244 9.37969E-05-2.89532E-05-2.77900E-05-1.24898E-06-3.08935E-20-6.51175E-19
 -1      2245 9.36238E-05-2.89796E-05-2.77198E-05-1.69371E-06 3.45213E-19-6.91879E-19
 -1      2246 9.45886E-05-2.93967E-05-2.79381E-05-1.12957E-06-2.12021E-19-1.03789E-19
 -1      2247 9.35827E-05-2.90413E-05-2.76614E-05-2.23096E-06 4.87863E-19-7.07961E-19
 -1      2248 9.32858E-05-2.90065E-05-2.75649E-05-2.74975E-06 4.95511E-19-4.22040E-19
 -1      2249 9.45636E-05-2.95997E-05-2.78385E-05-2.14243E-06 4.14468E-19-2.60928E-20
 -1      2250 9.31627E-05-2.90087E-05-2.74971E-05-3.36368E-06 1.76350E-19-7.33434E-19
 -1      2251 9.27157E-05-2.88791E-05-2.73742E-05-3.91838E-06-3.05397E-19-6.47358E-19
 -1      2252 9.44079E-05-2.96976E-05-2.77276E-05-3.34697E-06 1.42402E-19-5.77202E-19
 -1      2253 9.24685E-05-2.87788E-05-2.73006E-05-4.55395E-06-6.15294E-19-5.93650E-19
 -1      2254 9.18556E-05-2.85183E-05-2.71558E-05-5.07638E-06-7.43462E-19-8.91130E-19
 -1      2255 9.40418E-05-2.95986E-05-2.76105E-05-4.66190E-06-4.28011E-19-6.90352E-19
 -1      2256 9.14452E-05-2.82717E-05-2.70824E-05-5.63891E-06-7.75984E-19-8.29225E-19
 -1      2257 9.06737E-05-2.78562E-05-2.69248E-05-6.02923E-06-4.24982E-19-7.80623E-19
 -1      2258 9.33804E-05-2.91958E-05-2.74978E-05-5.93290E-06-6.50289E-19-3.51608E-19
 -1      2259 9.00836E-05-2.74381E-05-2.68586E-05-6.38611E-06-5.01848E-19-1.01510E-18
 -1      2260 8.91974E-05-2.68752E-05-2.67010E-05-6.52490E-06-6.28253E-19-9.15880E-19
 -1      2261 9.23638E-05-2.84031E-05-2.74018E-05-6.92167E-06-7.68136E-19-4.27609E-19
 -1      2262 8.84595E-05-2.63054E-05-2.66482E-05-6.52835E-06-3.44752E-19-9.88759E-19
 -1      2263 8.75481E-05-2.56536E-05-2.65056E-05-6.30694E-06-2.84460E-19-9.72266E-19
 -1      2264 9.10048E-05-2.72123E-05-2.73331E-05-7.32850E-06-6.57628E-19-8.63785E-20
 -1      2265 8.67619E-05-2.50157E-05-2.64694E-05-5.84136E-06-3.86218E-19-1.16251E-18
 -1      2266 8.59552E-05-2.43881E-05-2.63565E-05-5.20607E-06-4.91694E-19-1.25809E-18
 -1      2267 8.94361E-05-2.57486E-05-2.72959E-05-6.86495E-06-4.60872E-19-6.12382E-19
 -1      2268 8.52800E-05-2.38235E-05-2.63363E-05-4.24814E-06-8.39946E-19-9.02788E-19
 -1      2269 8.47223E-05-2.33634E-05-2.62651E-05-3.24065E-06-7.97457E-19-1.05066E-18
 -1      2270 8.79253E-05-2.42871E-05-2.72854E-05-5.37090E-06-7.36749E-19-7.60597E-19
 -1      2271 8.43309E-05-2.30286E-05-2.62582E-05-1.90155E-06-7.23508E-19-1.29509E-18
 -1      2272 8.41375E-05-2.28587E-05-2.62364E-05-6.70470E-07-4.27719E-19-1.62181E-18
 -1      2273 8.68190E-05-2.31920E-05-2.72902E-05-2.93101E-06-7.63120E-19-3.29674E-19
 -1      2274 8.41437E-05-2.28566E-05-2.62404E-05 8.15276E-07 2.94905E-19-1.92757E-18
 -1      2275 8.43593E-05-2.30254E-05-2.62710E-05 2.05056E-06 5.69719E-19-1.74355E-18
 -1      2276 8.64184E-05-2.27803E-05-2.72988E-05 8.35690E-08-2.60727E-20-1.21435E-18
 -1      2277 8.47634E-05-2.33559E-05-2.62862E-05 3.39914E-06 5.29098E-19-1.80923E-18
 -1      2278 8.53456E-05-2.38154E-05-2.63669E-05 4.41954E-06 3.30783E-19-1.30503E-18
 -1      2279 8.68430E-05-2.31780E-05-2.73064E-05 3.10802E-06 3.41973E-19-9.76747E-19
 -1      2280 8.60355E-05-2.43759E-05-2.63963E-05 5.39687E-06-1.78737E-20-1.73000E-18
 -1      2281 8.68715E-05-2.50044E-05-2.65200E-05 6.05388E-06 3.69684E-20-1.99522E-18
 -1      2282 8.79756E-05-2.42594E-05-2.73189E-05 5.57836E-06-1.34672E-19-1.05134E-18
 -1      2283 8.76758E-05-2.56394E-05-2.65666E-05 6.54853E-06-1.37337E-19-2.72952E-18
 -1      2284 8.86238E-05-2.62944E-05-2.67220E-05 6.80018E-06-1.03560E-19-2.55019E-18
 -1      2285 8.95183E-05-2.57087E-05-2.73484E-05 7.12367E-06-4.62697E-19-1.33187E-18
 -1      2286 8.93842E-05-2.68628E-05-2.67865E-05 6.83500E-06 3.92924E-19-2.64011E-18
 -1      2287 9.03161E-05-2.74318E-05-2.69594E-05 6.73474E-06 1.48985E-19-2.01327E-18
 -1      2288 9.11269E-05-2.71632E-05-2.74068E-05 7.65820E-06-5.09322E-20-1.84904E-18
 -1      2289 9.09339E-05-2.78502E-05-2.70389E-05 6.42488E-06-3.24917E-21-1.31769E-18
 -1      2290 9.17619E-05-2.82754E-05-2.72148E-05 6.08101E-06 5.23048E-19-6.10535E-19
 -1      2291 9.25356E-05-2.83482E-05-2.74994E-05 7.34103E-06 5.52793E-19-1.97661E-18
 -1      2292 9.22056E-05-2.85243E-05-2.73034E-05 5.57353E-06 3.22871E-19-9.36271E-19
 -1      2293 9.28874E-05-2.87989E-05-2.74696E-05 5.10470E-06 7.51416E-19-1.18963E-18
 -1      2294 9.36127E-05-2.91392E-05-2.76220E-05 6.45927E-06 1.63734E-19-3.78679E-19
 -1      2295 9.31733E-05-2.89041E-05-2.75598E-05 4.53083E-06 7.35898E-19-1.01291E-18
 -1      2296 9.37025E-05-2.90532E-05-2.77074E-05 4.03549E-06 3.70895E-19-9.99434E-19
 -1      2297 9.43461E-05-2.95458E-05-2.77639E-05 5.31018E-06 7.76299E-19-8.99737E-19
 -1      2298 9.38691E-05-2.90591E-05-2.77926E-05 3.48750E-06 1.88746E-20-7.87968E-19
 -1      2299 9.42611E-05-2.91198E-05-2.79166E-05 3.03128E-06 7.65280E-19-6.08623E-19
 -1      2300 9.47950E-05-2.96558E-05-2.79114E-05 4.12779E-06 1.19625E-19-9.75936E-19
 -1      2301 9.43487E-05-2.90704E-05-2.79921E-05 2.56017E-06 5.64482E-19-6.17290E-19
 -1      2302 9.46284E-05-2.90777E-05-2.80914E-05 2.17692E-06 6.79616E-19-4.23964E-19
 -1      2303 9.50421E-05-2.95787E-05-2.80522E-05 3.05927E-06 6.40001E-19-1.20006E-18
 -1      2304 9.46697E-05-2.90065E-05-2.81546E-05 1.80112E-06 4.50757E-19-5.35740E-19
 -1      2305 9.48631E-05-2.89871E-05-2.82307E-05 1.50060E-06 1.80220E-19 1.17374E-19
 -1      2306 9.51630E-05-2.94104E-05-2.81775E-05 2.17413E-06 4.50201E-19-9.89085E-19
 -1      2307 9.48803E-05-2.89153E-05-2.82811E-05 1.21771E-06-6.05518E-19-3.26859E-20
 -1      2308 9.50104E-05-2.88865E-05-2.83372E-05 9.94776E-07-5.49635E-19-3.17591E-19
 -1      2309 9.52139E-05-2.92179E-05-2.82826E-05 1.48685E-06-1.68425E-19-4.41619E-19
 -1      2310 9.50166E-05-2.88246E-05-2.83758E-05 7.91764E-07 6.15664E-20-6.14880E-19
 -1      2311 9.51019E-05-2.87959E-05-2.84156E-05 6.33995E-07-1.50647E-19-3.25958E-19
 -1      2312 9.52309E-05-2.90401E-05-2.83666E-05 9.80033E-07-5.41345E-19 5.63019E-20
 -1      2313 9.51040E-05-2.87476E-05-2.84440E-05 4.94222E-07-3.38570E-19-4.47924E-19
 -1      2314 9.51585E-05-2.87234E-05-2.84713E-05 3.87190E-07 3.81946E-19-1.14917E-19
 -1      2315 9.52339E-05-2.88941E-05-2.84307E-05 6.22209E-07-2.25170E-20-1.51359E-20
 -1      2316 9.51595E-05-2.86883E-05-2.84915E-05 2.94549E-07-2.32231E-22 1.02448E-20
 -1      2317 9.51933E-05-2.86697E-05-2.85096E-05 2.24784E-07-4.01217E-19 3.38534E-19
 -1      2318 9.52330E-05-2.87835E-05-2.84779E-05 3.79150E-07 3.88006E-19 7.68651E-19
 -1      2319 9.51944E-05-2.86456E-05-2.85234E-05 1.65616E-07 1.02156E-19 1.29783E-18
 -1      2320 9.52146E-05-2.86322E-05-2.85350E-05 1.21940E-07 4.36891E-19 1.43580E-18
 -1      2321 9.52320E-05-2.87047E-05-2.85113E-05 2.19927E-07 5.44361E-19 1.40026E-18
 -1      2322 9.52159E-05-2.86165E-05-2.85442E-05 8.55853E-08-4.12268E-20 6.98895E-19
 -1      2323 9.52274E-05-2.86073E-05-2.85513E-05 5.94175E-08-1.83437E-19 7.11040E-19
 -1      2324 9.52321E-05-2.86514E-05-2.85343E-05 1.19333E-07-4.36374E-20 8.18410E-19
 -1      2325 9.52287E-05-2.85975E-05-2.85572E-05 3.80390E-08 3.02872E-19 7.06294E-19
 -1      2326 9.52348E-05-2.85916E-05-2.85613E-05 2.31652E-08 3.40222E-19 1.23566E-18
 -1      2327 9.52330E-05-2.86168E-05-2.85495E-05 5.82003E-08-1.43820E-19 1.72791E-18
 -1      2328 9.52360E-05-2.85857E-05-2.85650E-05 1.12694E-08-6.90725E-19 1.00943E-18
 -1      2329 9.52388E-05-2.85819E-05-2.85672E-05 3.39807E-09-3.68987E-19 8.19752E-19
 -1      2330 9.52342E-05-2.85955E-05-2.85593E-05 2.26994E-08-1.03563E-19 2.28086E-18
 -1      2331 9.52397E-05-2.85787E-05-2.85694E-05-2.71452E-09-5.33269E-19 5.47273E-19
 -1      2332 9.52407E-05-2.85763E-05-2.85705E-05-6.42542E-09-6.90017E-19 8.78693E-19
 -1      2333 9.52355E-05-2.85828E-05-2.85653E-05 3.27191E-09-4.40878E-19 2.35318E-18
 -1      2334 9.52414E-05-2.85746E-05-2.85716E-05-9.15520E-09-7.53332E-20 2.69307E-19
 -1      2335 9.52413E-05-2.85732E-05-2.85721E-05-1.05139E-08 1.57294E-18-7.03372E-20
 -1      2336 9.52366E-05-2.85757E-05-2.85688E-05-6.44428E-09-5.60378E-19 1.62924E-18
 -1      2337 9.52417E-05-2.85723E-05-2.85726E-05-1.13611E-08 2.95259E-18 3.84301E-20
 -1      2338 9.52411E-05-2.85715E-05-2.85727E-05-1.14689E-08 3.17919E-18 4.82823E-19
 -1      2339 9.52373E-05-2.85720E-05-2.85708E-05-1.05346E-08 2.20402E-18 1.04265E-18
 -1      2340 9.52413E-05-2.85711E-05-2.85729E-05-1.13308E-08 1.49958E-18 4.59118E-19
 -1      2341 9.52404E-05-2.85706E-05-2.85728E-05-1.08216E-08 1.14803E-18 6.65394E-19
 -1      2342 9.52377E-05-2.85702E-05-2.85718E-05-1.15242E-08 2.36264E-18 1.14360E-18
 -1      2343 9.52405E-05-2.85704E-05-2.85729E-05-1.02021E-08 1.48677E-18 2.38920E-19
 -1      2344 9.52396E-05-2.85701E-05-2.85727E-05-9.40875E-09 1.44649E-18 8.46301E-19
 -1      2345 9.52378E-05-2.85693E-05-2.85722E-05-1.09012E-08 1.41247E-18 8.74156E-19
 -1      2346 9.52395E-05-2.85699E-05-2.85726E-05-8.56779E-09 9.70332E-19 1.11170E-18
 -1      2347 9.52387E-05-2.85696E-05-2.85725E-05-7.63136E-09 2.57220E-18 1.01062E-18
 -1      2348 9.52377E-05-2.85689E-05-2.85723E-05-9.48289E-09 1.78442E-18 7.53276E-19
 -1      2349 9.52385E-05-2.85694E-05-2.85724E-05-6.72091E-09 1.61374E-18-8.78551E-19
 -1      2350 9.52377E-05-2.85691E-05-2.85723E-05-5.68340E-09 1.01794E-19-1.18070E-18
 -1      2351 9.52368E-05-2.85681E-05-2.85723E-05-5.72849E-09-5.20825E-19-3.36575E-18
 -1      2352 9.52373E-05-2.85686E-05-2.85723E-05-7.71259E-09 6.69175E-19-1.37753E-18
 -1      2353 9.42929E-05-2.73864E-05-2.86696E-05 3.68585E-07 9.33477E-19-3.66917E-21
 -1      2354 9.45358E-05-2.71788E-05-2.88343E-05 1.02489E-06 1.02852E-18 9.39330E-20
 -1      2355 9.40537E-05-2.76764E-05-2.84418E-05-5.86237E-07 5.91661E-19 8.78070E-20
 -1      2356 9.41367E-05-2.75512E-05-2.85145E-05-1.91829E-07 6.86235E-19 1.09088E-19
 -1      2357 9.47643E-05-2.73106E-05-2.89219E-05 3.52505E-07 8.87384E-19-4.91706E-19
 -1      2358 9.39858E-05-2.78185E-05-2.83498E-05-1.21106E-06 6.37622E-19-3.57889E-20
 -1      2359 9.39516E-05-2.77475E-05-2.83616E-05-9.47367E-07 7.01249E-19 1.50925E-19
 -1      2360 9.45339E-05-2.76652E-05-2.86682E-05-6.57315E-07 6.77693E-19-7.35498E-19
 -1      2361 9.40304E-05-2.78377E-05-2.83578E-05-1.69641E-06 6.00463E-19-5.98447E-20
 -1      2362 9.39173E-05-2.78186E-05-2.83238E-05-1.47105E-06 6.95682E-19 3.08958E-20
 -1      2363 9.43848E-05-2.77952E-05-2.85447E-05-1.33678E-06 7.42199E-19-4.96211E-19
 -1      2364 9.41242E-05-2.77124E-05-2.84470E-05-2.20920E-06 4.64517E-19-1.83560E-19
 -1      2365 9.39589E-05-2.77591E-05-2.83732E-05-1.93864E-06 4.89483E-19-1.45046E-19
 -1      2366 9.42593E-05-2.77229E-05-2.85174E-05-1.87780E-06 6.91427E-19-3.68913E-19
 -1      2367 9.41929E-05-2.73817E-05-2.86110E-05-2.92254E-06 2.70258E-19-5.15895E-19
 -1      2368 9.39961E-05-2.75239E-05-2.84961E-05-2.51397E-06 3.88445E-19-2.95556E-19
 -1      2369 9.40710E-05-2.74106E-05-2.85646E-05-2.44857E-06 5.30776E-19-4.69769E-19
 -1      2370 9.41264E-05-2.67345E-05-2.88501E-05-4.04165E-06 7.76954E-20-3.74124E-19
 -1      2371 9.39242E-05-2.70237E-05-2.86879E-05-3.37792E-06 2.09162E-19-3.88451E-19
 -1      2372 9.36886E-05-2.67610E-05-2.86699E-05-3.21647E-06 2.47111E-19-6.67817E-19
 -1      2373 9.37345E-05-2.55930E-05-2.91597E-05-5.82293E-06 6.37723E-20-4.32493E-19
 -1      2374 9.35774E-05-2.61088E-05-2.89440E-05-4.75107E-06 1.00713E-19-4.18135E-19
 -1      2375 9.29000E-05-2.56041E-05-2.88120E-05-4.36228E-06 1.42825E-19-5.37119E-19
 -1      2376 9.26772E-05-2.37052E-05-2.95043E-05-8.57446E-06 3.53034E-19-8.48289E-19
 -1      2377 9.26704E-05-2.45534E-05-2.92421E-05-6.90634E-06 2.04201E-19-6.15052E-19
 -1      2378 9.13515E-05-2.36827E-05-2.89440E-05-6.08027E-06 3.28851E-19-1.21670E-18
 -1      2379 9.03859E-05-2.08042E-05-2.97570E-05-1.26110E-05 2.79097E-19-8.36393E-19
 -1      2380 9.07197E-05-2.20703E-05-2.95011E-05-1.01596E-05 3.86948E-19-7.39703E-19
 -1      2381 8.84642E-05-2.06654E-05-2.89508E-05-8.55319E-06 3.01173E-19-1.01562E-18
 -1      2382 8.60431E-05-1.68868E-05-2.95535E-05-1.81227E-05-4.35296E-19-6.53076E-19
 -1      2383 8.69915E-05-1.84505E-05-2.94869E-05-1.48145E-05 5.59174E-21-6.31327E-19
 -1      2384 8.33599E-05-1.62764E-05-2.85577E-05-1.19011E-05 6.85799E-20-1.07211E-18
 -1      2385 7.94945E-05-1.32815E-05-2.82186E-05-2.45240E-05-1.12133E-18-8.22032E-19
 -1      2386 8.09184E-05-1.42762E-05-2.86761E-05-2.08959E-05-5.85313E-19-7.26622E-19
 -1      2387 7.52005E-05-1.08636E-05-2.72074E-05-1.59702E-05-4.33075E-19-1.29595E-18
 -1      2388 7.07542E-05-1.38225E-05-2.40039E-05-3.15765E-05-2.52297E-18-6.50839E-19
 -1      2389 7.20548E-05-1.14264E-05-2.58947E-05-2.81645E-05-1.98151E-18-9.33854E-19
 -1      2390 6.31392E-05-6.20474E-06-2.37202E-05-2.09270E-05-1.41769E-18-1.91276E-18
 -1      2391 1.40280E-05-1.13057E-05-8.00265E-07 1.85123E-05-4.28599E-19-5.45447E-18
 -1      2392 1.30676E-05-1.21227E-05 1.36952E-07 8.95926E-07-4.50939E-19-4.71374E-18
 -1      2393 9.44854E-05-2.27368E-05-3.08260E-05 1.43705E-05-6.85283E-19-1.41773E-18
 -1      2394 9.55955E-05-2.20594E-05-3.13891E-05 1.78489E-05-5.62311E-19-9.94619E-19
 -1      2395 9.54908E-05-2.49555E-05-3.02760E-05 9.19044E-06-1.15803E-18-1.52232E-18
 -1      2396 9.63900E-05-2.43670E-05-3.07651E-05 1.16493E-05-1.31261E-18-1.25638E-18
 -1      2397 8.97004E-05-1.99499E-05-2.97597E-05 1.28535E-05-9.70197E-19-3.18570E-19
 -1      2398 9.58114E-05-2.64344E-05-2.97550E-05 5.70700E-06-7.30632E-20-1.72850E-18
 -1      2399 9.64920E-05-2.60394E-05-3.01139E-05 7.31852E-06-9.78839E-19-1.61093E-18
 -1      2400 9.25742E-05-2.31905E-05-2.96659E-05 8.41245E-06-8.43774E-19-1.02830E-18
 -1      2401 9.58155E-05-2.73085E-05-2.93706E-05 3.55111E-06 8.99006E-19-7.77608E-19
 -1      2402 9.62858E-05-2.70714E-05-2.96045E-05 4.53020E-06 1.02786E-18-1.15393E-18
 -1      2403 9.40393E-05-2.53082E-05-2.94225E-05 5.38913E-06 7.64017E-20-1.23739E-18
 -1      2404 9.56999E-05-2.78571E-05-2.90810E-05 2.10943E-06 1.38966E-22 8.31236E-19
 -1      2405 9.60342E-05-2.77107E-05-2.92421E-05 2.74206E-06 1.59163E-19 5.27741E-22
 -1      2406 9.47589E-05-2.66304E-05-2.91799E-05 3.37409E-06-3.85466E-21-8.13688E-19
 -1      2407 9.55737E-05-2.81734E-05-2.88884E-05 1.22928E-06 1.31074E-18 8.28484E-19
 -1      2408 9.57898E-05-2.80882E-05-2.89894E-05 1.60819E-06 1.02016E-18 1.09392E-18
 -1      2409 9.50971E-05-2.74556E-05-2.89810E-05 2.03747E-06 6.37533E-19-5.31289E-19
 -1      2410 9.54676E-05-2.83533E-05-2.87644E-05 7.01740E-07 2.21548E-18 1.17462E-18
 -1      2411 9.56026E-05-2.83042E-05-2.88262E-05 9.24377E-07 1.30687E-18 1.53386E-18
 -1      2412 9.52354E-05-2.79404E-05-2.88375E-05 1.20409E-06 1.18101E-18 2.18207E-18
 -1      2413 9.53894E-05-2.84546E-05-2.86867E-05 3.91532E-07-3.58842E-19 1.17084E-18
 -1      2414 9.54714E-05-2.84265E-05-2.87238E-05 5.19993E-07 1.66129E-18 1.01215E-18
 -1      2415 9.52825E-05-2.82210E-05-2.87396E-05 6.96285E-07 1.95323E-18 1.52520E-18
 -1      2416 9.53358E-05-2.85111E-05-2.86393E-05 2.12817E-07-2.10454E-18 1.44210E-18
 -1      2417 9.53843E-05-2.84950E-05-2.86611E-05 2.85441E-07-2.03024E-18 9.61414E-19
 -1      2418 9.52911E-05-2.83813E-05-2.86755E-05 3.93505E-07-8.20325E-19 2.27127E-18
 -1      2419 9.53006E-05-2.85421E-05-2.86108E-05 1.12243E-07-3.78273E-20 1.94372E-18
 -1      2420 9.53287E-05-2.85330E-05-2.86234E-05 1.52299E-07-7.75414E-19 2.20046E-18
 -1      2421 9.52854E-05-2.84716E-05-2.86347E-05 2.16927E-07-1.70825E-18 1.24771E-18
 -1      2422 9.52783E-05-2.85586E-05-2.85941E-05 5.72271E-08 2.05682E-18 4.46271E-19
 -1      2423 9.52942E-05-2.85536E-05-2.86012E-05 7.86399E-08 1.82772E-18 1.17352E-18
 -1      2424 9.52761E-05-2.85215E-05-2.86094E-05 1.16423E-07 1.44636E-18 1.42972E-18
 -1      2425 9.52643E-05-2.85671E-05-2.85845E-05 2.81882E-08 2.50512E-19 8.90303E-19
 -1      2426 9.52732E-05-2.85645E-05-2.85884E-05 3.91721E-08 1.07604E-18 4.89323E-19
 -1      2427 9.52671E-05-2.85484E-05-2.85940E-05 6.08094E-08 2.21966E-18 1.65722E-18
 -1      2428 9.52555E-05-2.85712E-05-2.85790E-05 1.35595E-08 1.07538E-19-2.56493E-18
 -1      2429 9.52604E-05-2.85699E-05-2.85811E-05 1.88820E-08 5.78202E-19 5.90538E-20
 -1      2430 9.52597E-05-2.85624E-05-2.85848E-05 3.10644E-08 1.48132E-18 1.45050E-18
 -1      2431 9.52498E-05-2.85728E-05-2.85758E-05 6.64223E-09 5.38593E-19-4.46466E-18
 -1      2432 9.52527E-05-2.85723E-05-2.85770E-05 9.01566E-09-1.88485E-19-3.93812E-18
 -1      2433 9.52539E-05-2.85691E-05-2.85793E-05 1.58126E-08 1.45718E-18-1.98577E-18
 -1      2434 9.52461E-05-2.85732E-05-2.85741E-05 3.64676E-09 4.14252E-19-1.54412E-18
 -1      2435 9.52478E-05-2.85731E-05-2.85747E-05 4.57675E-09 6.38261E-19-2.60827E-18
 -1      2436 9.52495E-05-2.85720E-05-2.85761E-05 8.39560E-09-2.15125E-19-1.46538E-18
 -1      2437 9.52434E-05-2.85730E-05-2.85730E-05 2.48904E-09-1.21371E-18-3.34758E-19
 -1      2438 9.52445E-05-2.85731E-05-2.85734E-05 2.78598E-09 1.27794E-19-4.95274E-19
 -1      2439 9.52461E-05-2.85730E-05-2.85743E-05 5.00977E-09-2.99572E-19-1.40581E-19
 -1      2440 9.52415E-05-2.85725E-05-2.85724E-05 2.06211E-09 1.78498E-18-2.80029E-18
 -1      2441 9.52423E-05-2.85727E-05-2.85726E-05 2.14527E-09-8.92678E-20-1.84605E-18
 -1      2442 9.52435E-05-2.85729E-05-2.85732E-05 3.54256E-09 1.00092E-18-1.26458E-18
 -1      2443 9.52400E-05-2.85719E-05-2.85720E-05 1.80607E-09 2.68056E-18-2.56608E-18
 -1      2444 9.52406E-05-2.85722E-05-2.85722E-05 1.87940E-09 2.39458E-18-2.94163E-18
 -1      2445 9.52415E-05-2.85724E-05-2.85725E-05 2.86113E-09 2.52771E-18-1.77364E-18
 -1      2446 9.52388E-05-2.85714E-05-2.85717E-05 1.46690E-09 1.35195E-18-1.02875E-18
 -1      2447 9.52393E-05-2.85716E-05-2.85718E-05 1.61059E-09 3.07703E-18-2.93354E-18
 -1      2448 9.52399E-05-2.85718E-05-2.85721E-05 2.38426E-09 2.82976E-18-1.80321E-18
 -1      2449 9.52376E-05-2.85709E-05-2.85715E-05 7.82704E-10-1.55195E-18-8.52066E-19
 -1      2450 9.52377E-05-2.85710E-05-2.85715E-05 8.45616E-10-2.52181E-18-2.54617E-19
 -1      2451 9.52377E-05-2.85707E-05-2.85716E-05 1.17268E-09-9.41156E-19-7.51305E-19
 -1      2452 9.52368E-05-2.85682E-05-2.85723E-05 4.14200E-09-8.40694E-19 3.53928E-18
 -1      2453 9.52371E-05-2.85688E-05-2.85721E-05 3.81038E-09-1.94547E-18 4.04387E-18
 -1      2454 9.52359E-05-2.85668E-05-2.85725E-05 4.48842E-09-2.32844E-19 3.90978E-20
 -1      2455 9.52364E-05-2.85675E-05-2.85724E-05 4.39660E-09 5.61232E-19 5.81276E-20
 -1      2456 9.52368E-05-2.85681E-05-2.85723E-05 4.96824E-09 5.94259E-19 2.56091E-18
 -1      2457 9.52375E-05-2.85694E-05-2.85720E-05 3.31171E-09-1.33225E-18 3.12208E-18
 -1      2458 9.52377E-05-2.85699E-05-2.85719E-05 2.81698E-09-3.02594E-19 2.38715E-18
 -1      2459 9.52376E-05-2.85693E-05-2.85721E-05 4.17070E-09-1.41034E-18 2.53323E-18
 -1      2460 9.52350E-05-2.85654E-05-2.85727E-05 4.21010E-09-1.16529E-19 1.62764E-18
 -1      2461 9.52354E-05-2.85661E-05-2.85726E-05 4.41391E-09-6.07870E-19 6.14202E-19
 -1      2462 9.52357E-05-2.85668E-05-2.85724E-05 5.14683E-09 1.14139E-18-1.23216E-20
 -1      2463 9.52341E-05-2.85643E-05-2.85728E-05 3.28544E-09-6.92068E-20-4.54745E-19
 -1      2464 9.52345E-05-2.85648E-05-2.85727E-05 3.78402E-09-3.74248E-19 1.51114E-18
 -1      2465 9.52346E-05-2.85655E-05-2.85725E-05 4.59932E-09 7.93691E-19 9.79193E-19
 -1      2466 9.52335E-05-2.85635E-05-2.85729E-05 1.79436E-09-5.63927E-19-2.52744E-18
 -1      2467 9.52338E-05-2.85638E-05-2.85728E-05 2.53991E-09-6.13218E-20-1.40226E-18
 -1      2468 9.52337E-05-2.85645E-05-2.85725E-05 3.33983E-09-7.31829E-19-1.08284E-18
 -1      2469 9.52331E-05-2.85632E-05-2.85729E-05-9.29297E-11-1.37030E-18-6.09399E-20
 -1      2470 9.52332E-05-2.85633E-05-2.85729E-05 8.09839E-10-1.15685E-18-2.04113E-18
 -1      2471 9.52330E-05-2.85638E-05-2.85725E-05 1.49065E-09-1.44685E-18-2.11317E-18
 -1      2472 9.52332E-05-2.85635E-05-2.85728E-05-2.09030E-09-7.34027E-19 1.61681E-18
 -1      2473 9.52331E-05-2.85632E-05-2.85728E-05-1.17463E-09-1.42394E-18 1.61012E-18
 -1      2474 9.52327E-05-2.85636E-05-2.85724E-05-7.12466E-10-1.92762E-18 8.20416E-19
 -1      2475 9.52338E-05-2.85643E-05-2.85726E-05-3.94840E-09 8.73330E-19 4.36848E-18
 -1      2476 9.52334E-05-2.85638E-05-2.85727E-05-3.14652E-09-5.07885E-19 3.53641E-18
 -1      2477 9.52329E-05-2.85640E-05-2.85724E-05-2.98959E-09-3.12714E-19 3.52296E-18
 -1      2478 9.52348E-05-2.85657E-05-2.85725E-05-5.22807E-09 1.23641E-19-1.16056E-18
 -1      2479 9.52343E-05-2.85649E-05-2.85726E-05-4.75808E-09 9.77430E-19 1.29264E-18
 -1      2480 9.52337E-05-2.85649E-05-2.85723E-05-4.99748E-09-4.65406E-19 3.20023E-18
 -1      2481 9.52361E-05-2.85673E-05-2.85723E-05-5.64819E-09-7.83969E-20-1.51160E-18
 -1      2482 9.52354E-05-2.85664E-05-2.85724E-05-5.64716E-09 1.79316E-19-1.00953E-18
 -1      2483 9.52348E-05-2.85662E-05-2.85723E-05-6.24247E-09 4.92272E-19-1.79017E-18
 -1      2484 9.52363E-05-2.85676E-05-2.85723E-05-6.70289E-09-1.98350E-19-2.14710E-18
 -1      2485 9.48135E-05-4.55472E-05-2.06324E-05-3.83855E-05-1.11893E-18 2.39604E-19
 -1      2486 1.59092E-04-3.00725E-05-5.57886E-05 3.98899E-07-2.67620E-18-3.43112E-18
 -1      2487 1.63137E-04-2.09342E-05-6.13405E-05 2.46430E-06-3.51455E-18-3.06965E-18
 -1      2488 9.23567E-05-2.00272E-05-3.10752E-05 2.15635E-05-8.80709E-19-1.09793E-18
 -1      2489 9.38008E-05-1.99289E-05-3.14703E-05 2.58427E-05-6.98624E-19-5.03918E-19
 -1      2490 8.46239E-05-1.57362E-05-2.92743E-05 1.88753E-05-3.03572E-19-3.53939E-19
 -1      2491 8.90750E-05-1.82654E-05-3.01843E-05 3.05149E-05-9.88805E-19 5.12349E-19
 -1      2492 9.17315E-05-2.15319E-05-2.98346E-05 3.46949E-05-1.94473E-18 3.09591E-19
 -1      2493 7.67422E-05-1.21256E-05-2.72647E-05 2.62590E-05-4.77899E-19 9.19560E-20
 -1      2494 1.53498E-04-5.09887E-05-4.39809E-05-2.12004E-05-5.13831E-19-2.32468E-18
 -1      2495 1.59581E-04-4.44239E-05-4.99533E-05-9.54308E-06-1.28521E-18-3.12809E-18
 -1      2496 9.52343E-05-2.60217E-05-2.96683E-05 3.88918E-06 1.66852E-18 6.13914E-19
 -1      2497 9.59160E-05-2.53866E-05-3.01982E-05 5.74933E-06 1.97757E-18 8.68033E-19
 -1      2498 9.53251E-05-2.35562E-05-3.07360E-05 6.76299E-06 2.04512E-18 6.93735E-20
 -1      2499 8.78007E-05-1.07797E-05-3.30447E-05-1.52500E-06 3.86748E-19-3.08606E-18
 -1      2500 8.79093E-05-1.09060E-05-3.30353E-05-2.64285E-06 1.24208E-19-3.10012E-18
 -1      2501 8.93113E-05-1.30848E-05-3.26709E-05-2.93160E-06 2.67208E-20-2.95975E-18
 -1      2502 8.90532E-05-1.27350E-05-3.27112E-05-9.41388E-07 4.04642E-19-2.90778E-18
 -1      2503 9.46996E-05-2.69164E-05-2.90456E-05 1.74275E-06 1.25341E-18 2.18294E-19
 -1      2504 9.51495E-05-2.65793E-05-2.93478E-05 2.83905E-06 1.41573E-18 4.72792E-19
 -1      2505 9.53138E-05-2.56458E-05-2.98522E-05 3.72262E-06 1.62647E-18 2.47658E-21
 -1      2506 9.50508E-05-2.66859E-05-2.93099E-05 1.78140E-06 1.25146E-18-2.05680E-19
 -1      2507 6.74094E-05-3.41330E-05-1.41207E-05-3.76150E-05-9.11407E-19-7.14261E-19
 -1      2508 7.75613E-05-3.13526E-05-1.93545E-05-3.97620E-05-1.56765E-18-1.02915E-19
 -1      2509 4.35485E-05-2.48638E-05-7.45834E-06-3.07209E-05-1.11999E-18-2.53369E-18
 -1      2510 1.73800E-05-1.46928E-05-6.65595E-07-2.70138E-05 1.20872E-18 3.37754E-18
 -1      2511 2.73583E-05-2.05764E-05-2.60382E-06-4.02418E-05 5.02926E-19 3.83198E-18
 -1      2512 1.20753E-04-5.52725E-05-2.80848E-05 4.70266E-05-4.08693E-19-1.44949E-18
 -1      2513 1.02923E-04-5.20672E-05-2.15859E-05 5.06100E-05-2.98791E-19-1.31645E-18
 -1      2514 1.74623E-05-1.42883E-05-9.94802E-07-9.55659E-06-7.66459E-19-4.00689E-18
 -1      2515 2.83970E-05-1.85862E-05-3.80402E-06-2.20424E-05-8.90655E-19-3.74981E-18
 -1      2516 3.98361E-05-1.50954E-05-1.01773E-05-2.74527E-05-1.41878E-18-2.76874E-18
 -1      2517 2.11308E-05-6.30471E-06-5.96955E-06-4.92642E-06-1.29125E-18-4.19112E-18
 -1      2518 9.50948E-05-2.00316E-05-3.22186E-05-1.17553E-05-2.07602E-18-1.43408E-18
 -1      2519 9.54915E-05-2.33737E-05-3.09332E-05-7.97442E-06-1.87930E-18-1.16925E-18
 -1      2520 9.50933E-05-2.25660E-05-3.10543E-05-7.66380E-06-1.74181E-18-1.43603E-18
 -1      2521 9.32272E-05-1.76270E-05-3.24177E-05-1.14109E-05-1.99065E-18-1.90473E-18
 -1      2522 3.71890E-05-2.22639E-05-5.99928E-06 4.56090E-05 4.38551E-19-5.59126E-18
 -1      2523 2.60897E-05-1.65112E-05-3.32062E-06 3.44658E-05 3.89529E-19-5.44642E-18
 -1      2524 1.47046E-04-5.50677E-05-3.97848E-05 3.01868E-05-1.31205E-18-6.36969E-19
 -1      2525 1.33675E-04-5.67964E-05-3.30358E-05 3.74498E-05-3.76083E-19-1.41963E-18
 -1      2526 1.31108E-04-5.93932E-05-3.04712E-05 3.72337E-05 4.97738E-19-6.75085E-19
 -1      2527 1.62790E-04-3.96838E-05-5.33482E-05 6.61968E-06-2.64613E-18-5.19655E-19
 -1      2528 1.56876E-04-4.77782E-05-4.67902E-05 1.66426E-05-2.19022E-18-3.98105E-19
 -1      2529 7.29278E-05-2.11482E-05-2.12620E-05-3.76321E-05-1.88613E-18-2.96250E-19
 -1      2530 1.64608E-04-1.79156E-05-6.32429E-05-2.36245E-06-4.41156E-18-6.39086E-19
 -1      2531 1.60732E-04-2.54642E-05-5.84688E-05-1.32737E-06-3.76379E-18-3.18696E-19
 -1      2532 4.30890E-05-2.97414E-05-5.42123E-06-4.81626E-05 9.55241E-19 3.31677E-18
 -1      2533 6.20189E-05-3.62412E-05-1.09910E-05-5.55004E-05 1.68305E-18 3.56188E-18
 -1      2534 1.61113E-04-1.24779E-05-6.42247E-05 3.02798E-06-4.18011E-18-2.35602E-18
 -1      2535 1.59806E-04-7.95933E-06-6.57066E-05 2.03669E-06-3.85527E-18-2.30589E-18
 -1      2536 1.28848E-04-5.62112E-05-3.09952E-05-4.03228E-05 1.12338E-18 2.33358E-19
 -1      2537 1.44187E-04-5.51562E-05-3.84447E-05-3.36397E-05-1.91324E-19-1.76522E-18
 -1      2538 1.49100E-04-5.61490E-05-3.96739E-05-2.04534E-05 2.12923E-19-2.87271E-18
 -1      2539 8.62686E-05-4.65571E-05-1.67431E-05-5.39231E-05 2.02822E-18 4.17492E-18
 -1      2540 1.07570E-04-5.21097E-05-2.39755E-05-5.22678E-05 1.75188E-18 3.32188E-18
 -1      2541 1.59358E-04-6.99371E-06-6.59589E-05-1.62471E-06-4.15173E-18-1.21028E-18
 -1      2542 1.62466E-04-1.11869E-05-6.53116E-05-2.46154E-06-4.32072E-18-1.13502E-18
 -1      2543 1.49750E-04-1.17313E-05-5.94132E-05-7.16704E-06-3.92430E-18 4.33469E-19
 -1      2544 1.64480E-05-9.56191E-06-2.32219E-06 5.40093E-06 3.75341E-19 3.40084E-19
 -1      2545 1.34194E-05-1.02238E-05-8.48690E-07-1.17794E-05 1.19744E-18 1.85077E-18
 -1      2546 7.93588E-05-4.29017E-05-1.55246E-05 5.63697E-05 1.08420E-19-2.32278E-18
 -1      2547 5.64340E-05-3.40032E-05-9.20210E-06 5.18654E-05 6.33581E-19-4.54518E-18
 -1      2548 4.21975E-05-2.17815E-05-8.21497E-06-4.46587E-05 7.81600E-19 3.53192E-18
 -1      2549 9.07773E-05-1.50543E-05-3.24490E-05-6.80322E-06-9.34413E-19-2.99034E-18
 -1      2550 8.96915E-05-1.31913E-05-3.28376E-05-7.96132E-06-1.01299E-18-3.11069E-18
 -1      2551 9.03276E-05-1.39021E-05-3.28118E-05-9.19453E-06-1.33194E-18-2.95039E-18
 -1      2552 6.87521E-05-3.07861E-05-1.54656E-05 3.84014E-05-2.77827E-19 2.18153E-18
 -1      2553 6.21897E-05-2.18224E-05-1.67259E-05 3.69599E-05-5.22619E-19 1.36796E-18
 -1      2554 2.94171E-05-8.25676E-06-8.41204E-06 1.42786E-05 6.85038E-20 1.21846E-18
 -1      2555 1.48355E-04-2.58147E-05-5.31086E-05-1.01491E-05-3.03301E-18 1.77866E-18
 -1      2556 1.58384E-04-3.30366E-05-5.39040E-05-2.18982E-06-2.83798E-18 3.07049E-19
 -1      2557 1.52183E-04-3.92644E-05-4.86015E-05-2.61536E-06-2.16428E-18 6.35486E-19
 -1      2558 2.61518E-05-9.26215E-06-6.54748E-06 2.46725E-05-3.11285E-20-5.22026E-18
 -1      2559 1.22819E-04-5.43361E-05-2.86638E-05 3.51735E-05-1.28961E-18 9.83723E-19
 -1      2560 9.71594E-05-2.85055E-05-2.87665E-05 3.88157E-05-2.31791E-18 1.27500E-18
 -1      2561 1.03857E-04-3.91295E-05-2.76273E-05 3.95704E-05-1.36711E-18 1.15620E-18
 -1      2562 9.52381E-05-2.85711E-05-2.85716E-05 1.09182E-09-6.69303E-19-8.37368E-19
 -1      2563 9.52385E-05-2.85711E-05-2.85717E-05 1.74591E-09-6.36492E-19-4.75317E-19
 -1      2564 9.52377E-05-2.85702E-05-2.85718E-05 2.21533E-09-5.13994E-19-3.34120E-20
 -1      2565 9.52377E-05-2.85705E-05-2.85717E-05 1.70510E-09-1.05953E-19-1.01511E-18
 -1      2566 9.52379E-05-2.85706E-05-2.85717E-05 1.81628E-09-1.05802E-18-8.95400E-19
 -1      2567 9.52380E-05-2.85702E-05-2.85719E-05 2.99796E-09 9.30546E-19 1.07290E-18
 -1      2568 9.20499E-05-1.62424E-05-3.25322E-05-1.03968E-05-1.69945E-18-2.35350E-18
 -1      2569 1.57428E-04-3.83417E-05-5.12737E-05-3.22154E-08-1.73621E-18-3.53467E-18
 -1      2570 1.49048E-04-3.08659E-05-5.12415E-05 8.91688E-06-1.66389E-18-4.45381E-18
 -1      2571 1.51767E-04-4.44975E-05-4.61348E-05-9.98685E-07-6.65609E-19-3.63928E-18
 -1      2572 9.02015E-05-4.04053E-05-2.10545E-05 3.86818E-05-7.80117E-19 1.47426E-18
 -1      2573 7.46112E-05-1.79642E-05-2.38583E-05 3.61767E-05-1.69830E-18 2.92862E-19
 -1      2574 1.22795E-04-5.68627E-05-2.79569E-05-4.27042E-05 1.50306E-18 1.05900E-18
 -1      2575 9.73817E-05-4.88005E-05-2.04309E-05 5.14401E-05 9.41689E-19-1.45592E-18
 -1      2576 1.51674E-04-5.44811E-05-4.15175E-05 1.66804E-05-1.02592E-18-5.90805E-20
 -1      2577 1.47638E-04-5.00083E-06-6.14511E-05 6.19943E-07-3.55330E-18-1.07946E-18
 -1      2578 2.23490E-05-7.41010E-06-5.77380E-06-1.87873E-05 1.23058E-18 2.64232E-18
 -1      2579 5.56130E-05-2.70053E-05-1.17353E-05 4.81481E-05 9.98228E-19-4.51574E-18
 -1      2580 1.50106E-04-1.48000E-05-5.82743E-05 7.81582E-06-3.00379E-18-3.04508E-18
 -1      2581 8.02742E-05-4.15539E-05-1.61512E-05-5.42010E-05 1.63393E-18 3.90217E-18
 -1      2582 9.04953E-05-1.51054E-05-3.23324E-05 3.19108E-06 1.23220E-18-2.40226E-18
 -1      2583 9.03067E-05-1.48413E-05-3.23623E-05 2.26208E-06 1.08346E-18-2.49315E-18
 -1      2584 9.01771E-05-1.46514E-05-3.23882E-05 1.42861E-06 8.61961E-19-2.53783E-18
 -1      2585 9.01164E-05-1.45676E-05-3.23969E-05 4.74639E-07 6.14779E-19-2.52502E-18
 -1      2586 9.13567E-05-1.65354E-05-3.20533E-05 1.65638E-06 8.75602E-19-2.35342E-18
 -1      2587 9.20832E-05-1.74578E-05-3.20222E-05 6.43817E-06 2.02718E-18-1.74456E-18
 -1      2588 9.15467E-05-1.66636E-05-3.21179E-05 5.61619E-06 1.87996E-18-1.83984E-18
 -1      2589 9.34767E-05-1.96183E-05-3.16921E-05 7.59607E-06 2.19274E-18-1.15175E-18
 -1      2590 9.27300E-05-1.84257E-05-3.18607E-05 7.00621E-06 2.10760E-18-1.52117E-18
 -1      2591 9.34105E-05-1.97726E-05-3.15305E-05 5.74759E-06 1.89919E-18-1.49331E-18
 -1      2592 9.50151E-05-2.25928E-05-3.10667E-05 7.16805E-06 2.09065E-18-2.93880E-19
 -1      2593 9.40879E-05-2.07123E-05-3.14376E-05 7.51143E-06 2.13178E-18-7.70724E-19
 -1      2594 9.44084E-05-2.18364E-05-3.10934E-05 5.99335E-06 2.01309E-18-9.88992E-19
 -1      2595 9.51538E-05-2.39656E-05-3.05105E-05 5.35015E-06 1.93529E-18-3.49721E-19
 -1      2596 9.00877E-05-2.22441E-05-2.91409E-05 5.99814E-06-5.43742E-19-1.49640E-18
 -1      2597 8.89548E-05-2.07883E-05-2.92052E-05 7.64459E-06-1.06972E-18-1.99796E-18
 -1      2598 9.24089E-05-2.46099E-05-2.90972E-05 4.02028E-06-2.86018E-19-1.07692E-18
 -1      2599 9.18593E-05-2.36919E-05-2.91979E-05 5.13368E-06-8.65836E-19-1.21605E-18
 -1      2600 8.88984E-05-2.14867E-05-2.88074E-05 4.42790E-06-9.51535E-19-2.06662E-18
 -1      2601 4.22104E-05-7.12792E-06-1.42921E-05 2.40021E-05-7.02720E-19 1.39718E-18
 -1      2602 3.09993E-05-1.99362E-06-1.16716E-05 8.80604E-06 1.17446E-19-4.34740E-19
 -1      2603 9.52417E-05-2.40058E-05-3.05096E-05-5.32482E-06-1.28282E-18-1.48846E-18
 -1      2604 9.51707E-05-2.50366E-05-3.00772E-05-3.83000E-06-1.04919E-18-1.43583E-18
 -1      2605 9.53718E-05-2.59511E-05-2.97215E-05-2.74939E-06-9.11626E-19-1.30110E-18
 -1      2606 9.52071E-05-2.65564E-05-2.94342E-05-1.78853E-06-7.36666E-19-1.26864E-18
 -1      2607 9.52202E-05-2.47423E-05-3.02023E-05-3.57755E-06-9.83133E-19-1.66676E-18
 -1      2608 9.52429E-05-2.70973E-05-2.91810E-05-1.07341E-06-7.21996E-19-1.04069E-18
 -1      2609 9.51087E-05-2.74788E-05-2.89920E-05-5.05472E-07-6.69322E-19-1.18991E-18
 -1      2610 9.54486E-05-2.64311E-05-2.95851E-05-1.70114E-06-7.87386E-19-1.46536E-18
 -1      2611 9.50995E-05-2.78260E-05-2.88141E-05-8.25913E-08-6.04987E-19-1.20515E-18
 -1      2612 9.50227E-05-2.80917E-05-2.86899E-05 2.06759E-07-6.49895E-19-1.24783E-18
 -1      2613 9.54860E-05-2.75046E-05-2.91427E-05-4.92361E-07-7.35077E-19-1.57614E-18
 -1      2614 9.50198E-05-2.83391E-05-2.85650E-05 4.04305E-07-5.91473E-19-1.23654E-18
 -1      2615 9.49933E-05-2.85456E-05-2.84820E-05 4.90418E-07-4.68175E-19-1.30781E-18
 -1      2616 9.54886E-05-2.82402E-05-2.88283E-05 1.80910E-07-6.64079E-19-1.63482E-18
 -1      2617 9.50196E-05-2.87472E-05-2.83931E-05 5.12119E-07-3.78666E-19-1.08695E-18
 -1      2618 9.50280E-05-2.89264E-05-2.83341E-05 4.40152E-07-2.95494E-19-1.01014E-18
 -1      2619 9.55252E-05-2.87977E-05-2.86042E-05 4.38313E-07-4.26277E-19-1.31800E-18
 -1      2620 9.50935E-05-2.91148E-05-2.82688E-05 3.15765E-07-1.98291E-19-1.03099E-18
 -1      2621 9.51205E-05-2.92842E-05-2.82216E-05 1.09524E-07-2.23267E-19-9.53672E-19
 -1      2622 9.56276E-05-2.92767E-05-2.84420E-05 3.62171E-07-2.19150E-19-9.70551E-19
 -1      2623 9.52288E-05-2.94779E-05-2.81717E-05-1.47507E-07-2.16131E-19-7.62066E-19
 -1      2624 9.52569E-05-2.96435E-05-2.81281E-05-4.77856E-07-2.97044E-19-3.91350E-19
 -1      2625 9.58099E-05-2.97378E-05-2.83219E-05-1.43077E-09-1.05934E-19-6.64194E-19
 -1      2626 9.54047E-05-2.98470E-05-2.80890E-05-8.65244E-07-3.52662E-19-1.86397E-20
 -1      2627 9.54131E-05-3.00010E-05-2.80441E-05-1.31524E-06-7.75792E-21 4.67684E-20
 -1      2628 9.60735E-05-3.02101E-05-2.82318E-05-6.35050E-07-2.40156E-20-2.21215E-19
 -1      2629 9.55858E-05-3.02013E-05-2.80149E-05-1.83432E-06-3.53651E-20-1.12928E-19
 -1      2630 9.55467E-05-3.03183E-05-2.79673E-05-2.39548E-06 1.75023E-19-3.24229E-19
 -1      2631 9.64018E-05-3.06860E-05-2.81674E-05-1.53785E-06-2.62089E-19-9.59659E-20
 -1      2632 9.57117E-05-3.04797E-05-2.79508E-05-3.03983E-06 1.18421E-19-7.04182E-19
 -1      2633 9.55884E-05-3.05134E-05-2.79023E-05-3.68726E-06-1.04690E-19-8.20365E-19
 -1      2634 9.67486E-05-3.11106E-05-2.81320E-05-2.70718E-06-2.40474E-19-8.68608E-19
 -1      2635 9.56899E-05-3.05743E-05-2.79040E-05-4.42652E-06-7.07901E-20-9.15860E-19
 -1      2636 9.54391E-05-3.04601E-05-2.78594E-05-5.10470E-06-4.41724E-19-7.37629E-19
 -1      2637 9.70259E-05-3.13719E-05-2.81353E-05-4.11095E-06-1.76253E-19-8.16253E-19
 -1      2638 9.54004E-05-3.03394E-05-2.78863E-05-5.86520E-06-5.49122E-19-6.29424E-19
 -1      2639 9.49823E-05-3.00079E-05-2.78520E-05-6.47617E-06-4.37884E-19-3.37663E-19
 -1      2640 9.70996E-05-3.13033E-05-2.81915E-05-5.65052E-06-4.01987E-19-6.31515E-19
 -1      2641 9.47230E-05-2.96264E-05-2.79091E-05-7.12514E-06-5.63012E-19-3.45489E-19
 -1      2642 9.41212E-05-2.90329E-05-2.78909E-05-7.52713E-06-6.06263E-19-7.05826E-20
 -1      2643 9.68081E-05-3.07153E-05-2.83135E-05-7.12159E-06-4.78087E-19-5.51337E-19
 -1      2644 9.35949E-05-2.83554E-05-2.79780E-05-7.87531E-06-6.58102E-19-3.07484E-21
 -1      2645 9.28432E-05-2.75214E-05-2.79783E-05-7.90414E-06-7.42872E-19 3.51866E-20
 -1      2646 9.60173E-05-2.94700E-05-2.85056E-05-8.19402E-06-5.88136E-19-5.52497E-19
 -1      2647 9.20879E-05-2.66065E-05-2.80856E-05-7.74553E-06-7.46769E-19 1.35306E-19
 -1      2648 9.12881E-05-2.56535E-05-2.81012E-05-7.26520E-06-5.12016E-19-1.72953E-19
 -1      2649 9.47126E-05-2.75916E-05-2.87545E-05-8.44876E-06-8.03089E-19 6.66354E-20
 -1      2650 9.04585E-05-2.46824E-05-2.82087E-05-6.45911E-06-6.53931E-19-2.61004E-19
 -1      2651 8.97729E-05-2.38268E-05-2.82305E-05-5.43256E-06-9.00547E-19-6.34514E-20
 -1      2652 9.30869E-05-2.53612E-05-2.90239E-05-7.50232E-06-6.53218E-19 2.87796E-19
 -1      2653 8.91141E-05-2.30693E-05-2.83117E-05-4.00094E-06-9.25178E-19-1.05308E-20
 -1      2654 8.87170E-05-2.25569E-05-2.83283E-05-2.54397E-06-7.02336E-19-3.95633E-19
 -1      2655 9.15526E-05-2.33147E-05-2.92579E-05-5.20483E-06-8.59674E-19 9.14332E-20
 -1      2656 8.84662E-05-2.22669E-05-2.83605E-05-7.21842E-07-2.04855E-19-5.31243E-19
 -1      2657 8.84720E-05-2.22620E-05-2.83643E-05 9.00825E-07-1.15491E-20-4.02170E-19
 -1      2658 9.06116E-05-2.20730E-05-2.93967E-05-1.81243E-06-5.38240E-19 9.81489E-20
 -1      2659 8.87229E-05-2.25383E-05-2.83390E-05 2.72798E-06 7.58913E-20-6.34978E-19
 -1      2660 8.91324E-05-2.30405E-05-2.83304E-05 4.19501E-06 1.56829E-19-9.57168E-19
 -1      2661 9.06111E-05-2.20557E-05-2.94031E-05 2.00605E-06-1.71167E-19-4.97111E-19
 -1      2662 8.97905E-05-2.37828E-05-2.82570E-05 5.64282E-06 2.62481E-20-8.30974E-19
 -1      2663 9.04903E-05-2.46284E-05-2.82441E-05 6.69051E-06-1.94924E-19-5.77265E-19
 -1      2664 9.15510E-05-2.32627E-05-2.92785E-05 5.41942E-06 2.13548E-19-1.60698E-18
 -1      2665 9.13209E-05-2.55855E-05-2.81447E-05 7.52428E-06-8.15239E-19-1.03920E-18
 -1      2666 9.21383E-05-2.65301E-05-2.81389E-05 8.03594E-06-8.02273E-19-1.44500E-18
 -1      2667 9.30850E-05-2.52740E-05-2.90602E-05 7.76220E-06-7.66956E-19-1.07698E-18
 -1      2668 9.28959E-05-2.74318E-05-2.80398E-05 8.23238E-06-6.19415E-19-1.37504E-18
 -1      2669 9.36699E-05-2.82593E-05-2.80503E-05 8.24458E-06-7.96407E-20-1.76977E-18
 -1      2670 9.47135E-05-2.74711E-05-2.88066E-05 8.77563E-06-7.78151E-19-1.39608E-18
 -1      2671 9.41995E-05-2.89243E-05-2.79716E-05 7.94366E-06 7.34669E-19-1.55085E-18
 -1      2672 9.48286E-05-2.95134E-05-2.80017E-05 7.59172E-06 9.40072E-19-1.21182E-18
 -1      2673 9.60236E-05-2.93185E-05-2.85733E-05 8.60762E-06 4.04845E-19-9.24751E-19
 -1      2674 9.50920E-05-2.98834E-05-2.79530E-05 6.99863E-06 4.61639E-19-8.87937E-19
 -1      2675 9.55429E-05-3.02133E-05-2.80003E-05 6.44574E-06 4.35954E-19-5.40984E-19
 -1      2676 9.68219E-05-3.05351E-05-2.83967E-05 7.63992E-06 8.88807E-19-8.52012E-19
 -1      2677 9.55860E-05-3.03242E-05-2.79814E-05 5.74807E-06 3.60831E-19-7.19684E-19
 -1      2678 9.58750E-05-3.04407E-05-2.80396E-05 5.13409E-06 5.70847E-19-1.06477E-18
 -1      2679 9.71225E-05-3.10981E-05-2.82891E-05 6.28892E-06 8.55591E-20-5.69003E-19
 -1      2680 9.57772E-05-3.03726E-05-2.80444E-05 4.46197E-06 1.54505E-19-1.27193E-18
 -1      2681 9.59434E-05-3.03465E-05-2.81062E-05 3.88186E-06 2.85208E-20-9.33433E-19
 -1      2682 9.70577E-05-3.11476E-05-2.82447E-05 4.87988E-06 1.89715E-19-1.24144E-18
 -1      2683 9.57802E-05-3.01826E-05-2.81264E-05 3.30479E-06 5.44481E-19-1.22708E-18
 -1      2684 9.58654E-05-3.00810E-05-2.81858E-05 2.80908E-06 1.11294E-18-8.41103E-19
 -1      2685 9.67874E-05-3.08771E-05-2.82479E-05 3.60982E-06 3.36322E-19-1.24171E-18
 -1      2686 9.56911E-05-2.98857E-05-2.82135E-05 2.35066E-06 6.61951E-19-1.11408E-18
 -1      2687 9.57291E-05-2.97582E-05-2.82662E-05 1.95625E-06 6.76685E-19-1.36212E-18
 -1      2688 9.64432E-05-3.04597E-05-2.82808E-05 2.56572E-06 6.93683E-19-1.63132E-18
 -1      2689 9.55745E-05-2.95721E-05-2.82955E-05 1.61232E-06 4.55013E-19-7.83476E-19
 -1      2690 9.55882E-05-2.94490E-05-2.83395E-05 1.31533E-06 3.00399E-20-2.86167E-19
 -1      2691 9.61101E-05-3.00175E-05-2.83280E-05 1.76125E-06 8.97460E-19-1.43379E-18
 -1      2692 9.54658E-05-2.92921E-05-2.83668E-05 1.06864E-06-3.59300E-19 3.09755E-19
 -1      2693 9.54689E-05-2.91880E-05-2.84016E-05 8.54871E-07-4.48072E-19 4.30905E-19
 -1      2694 9.58309E-05-2.96202E-05-2.83784E-05 1.17107E-06-5.75878E-20-2.43537E-19
 -1      2695 9.53796E-05-2.90662E-05-2.84248E-05 6.84416E-07-4.34112E-19 5.01725E-19
 -1      2696 9.53792E-05-2.89854E-05-2.84513E-05 5.36444E-07 3.49466E-20 5.65727E-19
 -1      2697 9.56180E-05-2.92973E-05-2.84250E-05 7.54814E-07-2.49798E-19 2.18953E-19
 -1      2698 9.53183E-05-2.88965E-05-2.84698E-05 4.22481E-07 6.12750E-19 7.46954E-19
 -1      2699 9.53175E-05-2.88378E-05-2.84891E-05 3.23636E-07 6.44395E-19 9.09836E-19
 -1      2700 9.54672E-05-2.90529E-05-2.84646E-05 4.70889E-07 1.59249E-19 1.29764E-18
 -1      2701 9.52784E-05-2.87761E-05-2.85032E-05 2.49766E-07 7.97103E-19 7.95693E-19
 -1      2702 9.52781E-05-2.87355E-05-2.85168E-05 1.85972E-07 7.12919E-19 9.68022E-19
 -1      2703 9.53668E-05-2.88779E-05-2.84961E-05 2.82984E-07 5.36372E-20-6.29430E-19
 -1      2704 9.52546E-05-2.86946E-05-2.85272E-05 1.39559E-07 1.03735E-19 7.73311E-19
 -1      2705 9.52549E-05-2.86678E-05-2.85365E-05 9.98208E-08-1.80228E-19 1.39040E-18
 -1      2706 9.53039E-05-2.87583E-05-2.85200E-05 1.62201E-07-2.01771E-20 5.47562E-19
 -1      2707 9.52417E-05-2.86418E-05-2.85438E-05 7.16274E-08-6.50328E-20 1.10637E-18
 -1      2708 9.52424E-05-2.86248E-05-2.85499E-05 4.78304E-08 3.13647E-19 1.60795E-18
 -1      2709 9.52669E-05-2.86800E-05-2.85375E-05 8.68669E-08 3.36648E-19 7.79225E-19
 -1      2710 9.52356E-05-2.86090E-05-2.85548E-05 3.13759E-08 8.46754E-20 1.85253E-18
 -1      2711 9.52364E-05-2.85986E-05-2.85587E-05 1.77944E-08-2.26495E-19 2.05114E-18
 -1      2712 9.52466E-05-2.86307E-05-2.85497E-05 4.14356E-08 3.12789E-19 1.47553E-18
 -1      2713 9.52334E-05-2.85895E-05-2.85620E-05 8.68418E-09-2.65771E-19 1.83253E-18
 -1      2714 9.52341E-05-2.85835E-05-2.85644E-05 1.42975E-09-7.79872E-19 1.56362E-18
 -1      2715 9.52366E-05-2.86010E-05-2.85581E-05 1.51444E-08-6.22278E-19 9.39908E-19
 -1      2716 9.52332E-05-2.85785E-05-2.85665E-05-3.22860E-09-1.00761E-18 2.13206E-18
 -1      2717 9.52337E-05-2.85751E-05-2.85679E-05-6.70681E-09-2.66946E-19 1.39407E-18
 -1      2718 9.52324E-05-2.85839E-05-2.85636E-05 7.64175E-10-5.36163E-19 3.54251E-19
 -1      2719 9.52338E-05-2.85726E-05-2.85692E-05-8.76178E-09 1.34876E-18 1.79829E-18
 -1      2720 9.52342E-05-2.85709E-05-2.85700E-05-1.00795E-08 3.36137E-18 1.83372E-18
 -1      2721 9.52314E-05-2.85747E-05-2.85671E-05-6.42831E-09 1.00778E-18 2.02433E-18
 -1      2722 9.52347E-05-2.85698E-05-2.85707E-05-1.06756E-08 3.24557E-18 1.12066E-18
 -1      2723 9.52349E-05-2.85689E-05-2.85711E-05-1.08169E-08 1.77474E-18 1.73248E-18
 -1      2724 9.52319E-05-2.85700E-05-2.85693E-05-9.43239E-09 2.98380E-18 1.95932E-18
 -1      2725 9.52355E-05-2.85685E-05-2.85716E-05-1.06356E-08 3.04320E-19 1.70924E-18
 -1      2726 9.52355E-05-2.85682E-05-2.85717E-05-1.01680E-08 5.52719E-19 7.32231E-19
 -1      2727 9.52329E-05-2.85680E-05-2.85706E-05-1.00930E-08 5.82754E-19 1.06881E-18
 -1      2728 9.52360E-05-2.85681E-05-2.85720E-05-9.59263E-09 1.00969E-18-6.53456E-19
 -1      2729 9.52359E-05-2.85679E-05-2.85720E-05-8.82484E-09 1.38763E-18-1.00612E-18
 -1      2730 9.52339E-05-2.85672E-05-2.85714E-05-9.49608E-09-3.74160E-20-1.00750E-19
 -1      2731 9.52363E-05-2.85679E-05-2.85722E-05-8.24537E-09 7.72124E-19-1.64652E-18
 -1      2732 9.52361E-05-2.85676E-05-2.85722E-05-7.33812E-09-9.12106E-19-3.39758E-18
 -1      2733 9.52353E-05-2.85669E-05-2.85722E-05-7.24602E-09 5.18131E-19-2.83950E-18
 -1      2734 9.52347E-05-2.85670E-05-2.85719E-05-8.43855E-09 8.88249E-19-2.15354E-18
 -1      2735 9.47007E-05-2.77393E-05-2.86960E-05-1.34125E-06 5.70419E-19-8.16548E-19
 -1      2736 9.47708E-05-2.76972E-05-2.87392E-05-1.03297E-06 6.28939E-19-1.04248E-18
 -1      2737 9.50632E-05-2.71783E-05-2.90980E-05 2.69118E-07 8.55938E-19-9.42880E-19
 -1      2738 9.51995E-05-2.68528E-05-2.92738E-05 9.38663E-07 1.03277E-18-7.25683E-19
 -1      2739 9.44380E-05-2.76006E-05-2.86409E-05-1.85979E-06 6.40612E-19-7.39878E-19
 -1      2740 9.45166E-05-2.76845E-05-2.86425E-05-1.58971E-06 6.04537E-19-7.31851E-19
 -1      2741 9.48494E-05-2.76078E-05-2.88178E-05-1.32110E-06 5.43184E-19-1.19542E-18
 -1      2742 9.40035E-05-2.71428E-05-2.86499E-05-2.38434E-06 5.13862E-19-7.38705E-19
 -1      2743 9.41452E-05-2.73835E-05-2.86197E-05-2.07390E-06 7.28451E-19-4.78607E-19
 -1      2744 9.43964E-05-2.73486E-05-2.87286E-05-1.79091E-06 5.25854E-19-8.01192E-19
 -1      2745 9.32237E-05-2.62502E-05-2.86990E-05-3.04549E-06 3.93383E-19-8.15878E-19
 -1      2746 9.35150E-05-2.67110E-05-2.86467E-05-2.61727E-06 3.85573E-19-7.56152E-19
 -1      2747 9.36499E-05-2.66747E-05-2.86881E-05-2.21475E-06 5.30941E-19-7.45647E-19
 -1      2748 9.18112E-05-2.47283E-05-2.87504E-05-3.95922E-06 2.25210E-19-1.01620E-18
 -1      2749 9.23953E-05-2.55110E-05-2.86932E-05-3.33656E-06 2.59229E-19-7.10224E-19
 -1      2750 9.23909E-05-2.54471E-05-2.86593E-05-2.66773E-06 3.79452E-19-1.23244E-18
 -1      2751 8.92979E-05-2.22984E-05-2.87264E-05-5.20401E-06 3.89473E-19-1.04456E-18
 -1      2752 9.04133E-05-2.35450E-05-2.87034E-05-4.32296E-06 5.15841E-19-8.23045E-19
 -1      2753 9.02662E-05-2.34487E-05-2.85800E-05-3.16889E-06 4.69892E-19-1.30765E-18
 -1      2754 8.49495E-05-1.86315E-05-2.84568E-05-6.76745E-06 8.92098E-20-1.03812E-18
 -1      2755 8.69802E-05-2.05006E-05-2.85596E-05-5.60661E-06 2.62071E-19-1.23284E-18
 -1      2756 8.67313E-05-2.04008E-05-2.83293E-05-3.63391E-06 3.84722E-19-1.12361E-18
 -1      2757 7.76963E-05-1.34903E-05-2.75675E-05-8.46206E-06 4.16171E-20-1.18709E-18
 -1      2758 8.12003E-05-1.60605E-05-2.80094E-05-7.09224E-06 1.74320E-19-1.09597E-18
 -1      2759 8.09865E-05-1.60377E-05-2.76649E-05-3.79548E-06 1.53474E-19-1.56054E-18
 -1      2760 6.69563E-05-7.61689E-06-2.54514E-05-9.92755E-06-3.83104E-19-1.75484E-18
 -1      2761 7.21329E-05-1.03957E-05-2.65697E-05-8.57569E-06-1.77367E-19-1.68644E-18
 -1      2762 7.21493E-05-1.04108E-05-2.61584E-05-3.13325E-06 7.77451E-20-1.96451E-18
 -1      2763 4.96452E-05-1.93858E-06-2.02015E-05-1.09522E-05-1.39336E-18-2.47270E-18
 -1      2764 5.82167E-05-4.14876E-06-2.31749E-05-9.59287E-06-6.81160E-19-1.82112E-18
 -1      2765 5.89493E-05-4.34869E-06-2.28788E-05-1.19235E-06-4.22219E-19-2.28175E-18
 -1      2766 1.14827E-04-5.43695E-05-2.53484E-05-4.38141E-05 2.38313E-18 1.41564E-18
 -1      2767 1.31726E-04-5.93723E-05-3.14457E-05-3.46087E-05 1.47723E-18-1.83266E-18
 -1      2768 8.58544E-05-1.85413E-05-2.89472E-05 8.81268E-06-7.68595E-19-8.44623E-19
 -1      2769 8.37512E-05-1.64859E-05-2.88302E-05 1.10217E-05 1.22026E-20-1.44326E-19
 -1      2770 8.42838E-05-1.75973E-05-2.84336E-05 6.06103E-06-2.85013E-20-1.81989E-18
 -1      2771 9.37685E-05-2.62035E-05-2.89818E-05 2.55772E-06-1.73203E-20-9.88212E-19
 -1      2772 9.34904E-05-2.55961E-05-2.90810E-05 3.34062E-06 3.11900E-19-1.06873E-18
 -1      2773 9.16450E-05-2.41303E-05-2.88880E-05 3.07569E-06-4.16176E-19-1.84201E-18
 -1      2774 9.45017E-05-2.71823E-05-2.88663E-05 1.58429E-06 4.01919E-19-1.96898E-19
 -1      2775 9.43807E-05-2.68142E-05-2.89436E-05 2.08850E-06 4.82110E-19-7.34861E-19
 -1      2776 9.32760E-05-2.58817E-05-2.88573E-05 2.03011E-06-2.11303E-20-1.56837E-18
 -1      2777 9.48863E-05-2.77708E-05-2.87726E-05 9.57101E-07 1.55160E-18 1.00601E-18
 -1      2778 9.48395E-05-2.75510E-05-2.88279E-05 1.27249E-06 5.57655E-19 1.53805E-19
 -1      2779 9.41935E-05-2.69750E-05-2.87940E-05 1.29390E-06 5.58067E-19-6.06385E-19
 -1      2780 9.50828E-05-2.81189E-05-2.87039E-05 5.64554E-07 1.52996E-18 9.39199E-19
 -1      2781 9.50690E-05-2.79896E-05-2.87414E-05 7.57081E-07 2.39333E-18 1.36791E-18
 -1      2782 9.46994E-05-2.76418E-05-2.87317E-05 8.00407E-07 1.11986E-18-1.56790E-18
 -1      2783 9.51798E-05-2.83216E-05-2.86564E-05 3.25198E-07-1.54915E-18 1.27617E-18
 -1      2784 9.51794E-05-2.82466E-05-2.86809E-05 4.40052E-07 4.69389E-19 1.47145E-18
 -1      2785 9.49726E-05-2.80410E-05-2.86814E-05 4.82083E-07 4.08954E-19 4.63938E-19
 -1      2786 9.52252E-05-2.84378E-05-2.86248E-05 1.82933E-07-1.36985E-18-1.78567E-19
 -1      2787 9.52293E-05-2.83950E-05-2.86404E-05 2.49851E-07-2.25925E-18-1.38552E-19
 -1      2788 9.51166E-05-2.82760E-05-2.86442E-05 2.83310E-07-5.35991E-19-1.13446E-18
 -1      2789 9.52446E-05-2.85030E-05-2.86044E-05 1.00603E-07 1.89011E-18-2.87713E-19
 -1      2790 9.52494E-05-2.84791E-05-2.86141E-05 1.38595E-07 2.11169E-19-5.75236E-19
 -1      2791 9.51900E-05-2.84118E-05-2.86184E-05 1.62817E-07-8.06736E-19-2.69755E-18
 -1      2792 9.52512E-05-2.85386E-05-2.85916E-05 5.43295E-08 1.16517E-18 1.12781E-18
 -1      2793 9.52555E-05-2.85256E-05-2.85974E-05 7.52680E-08 2.15515E-18 1.26303E-18
 -1      2794 9.52254E-05-2.84887E-05-2.86011E-05 9.18646E-08 6.96577E-19-1.33922E-18
 -1      2795 9.52520E-05-2.85574E-05-2.85836E-05 2.91654E-08 2.17508E-18 5.43681E-19
 -1      2796 9.52554E-05-2.85506E-05-2.85872E-05 4.03069E-08 2.16157E-18 1.78430E-18
 -1      2797 9.52410E-05-2.85310E-05-2.85899E-05 5.13029E-08 1.84570E-18 1.70379E-19
 -1      2798 9.52503E-05-2.85667E-05-2.85788E-05 1.59886E-08 1.42692E-18 8.88960E-19
 -1      2799 9.52530E-05-2.85634E-05-2.85809E-05 2.16723E-08 1.26858E-18 2.35527E-20
 -1      2800 9.52466E-05-2.85534E-05-2.85828E-05 2.88252E-08 2.57527E-18 1.79294E-18
 -1      2801 9.52479E-05-2.85709E-05-2.85759E-05 9.37040E-09-4.62480E-19 6.19472E-19
 -1      2802 9.52499E-05-2.85695E-05-2.85771E-05 1.21314E-08 1.11899E-18 1.25817E-18
 -1      2803 9.52475E-05-2.85646E-05-2.85784E-05 1.67657E-08 6.97571E-19 1.73636E-18
 -1      2804 9.52454E-05-2.85724E-05-2.85742E-05 6.16584E-09-5.35348E-19 9.43826E-19
 -1      2805 9.52469E-05-2.85719E-05-2.85749E-05 7.44750E-09-9.00738E-19 8.32320E-19
 -1      2806 9.52464E-05-2.85698E-05-2.85757E-05 1.04864E-08-1.90913E-19 2.46396E-18
 -1      2807 9.52432E-05-2.85725E-05-2.85731E-05 4.60665E-09 3.68531E-18-2.95834E-19
 -1      2808 9.52444E-05-2.85726E-05-2.85736E-05 5.20577E-09 1.69812E-18 5.99016E-19
 -1      2809 9.52445E-05-2.85718E-05-2.85741E-05 7.26014E-09 7.34043E-19-2.93627E-19
 -1      2810 9.52413E-05-2.85721E-05-2.85725E-05 3.73258E-09 2.45359E-18 2.99068E-19
 -1      2811 9.52422E-05-2.85724E-05-2.85728E-05 4.07003E-09 3.07648E-18 4.38322E-19
 -1      2812 9.52426E-05-2.85721E-05-2.85731E-05 5.53545E-09 2.80556E-18 2.36966E-19
 -1      2813 9.52398E-05-2.85715E-05-2.85721E-05 3.04413E-09 2.15195E-18 1.29756E-18
 -1      2814 9.52405E-05-2.85718E-05-2.85723E-05 3.33687E-09 2.41747E-18-9.19492E-20
 -1      2815 9.52409E-05-2.85717E-05-2.85725E-05 4.46219E-09 2.24645E-18 3.79567E-19
 -1      2816 9.52387E-05-2.85710E-05-2.85719E-05 2.31952E-09 5.51238E-19 1.36106E-18
 -1      2817 9.28347E-05-1.80089E-05-3.20745E-05-8.84459E-06-1.56083E-18-2.27966E-18
 -1      2818 9.52367E-05-2.85681E-05-2.85723E-05 5.69615E-09 1.80530E-18 2.17887E-18
 -1      2819 9.52374E-05-2.85687E-05-2.85723E-05 5.45012E-09 1.09498E-18 4.56578E-18
 -1      2820 9.52379E-05-2.85694E-05-2.85722E-05 4.97968E-09-4.62258E-20 2.74425E-18
 -1      2821 9.52383E-05-2.85699E-05-2.85722E-05 4.44870E-09 1.72485E-19 1.84098E-18
 -1      2822 9.52380E-05-2.85693E-05-2.85723E-05 5.80590E-09 1.89984E-18 4.29162E-18
 -1      2823 9.52354E-05-2.85667E-05-2.85723E-05 5.67383E-09 1.20438E-18 7.00773E-19
 -1      2824 9.52361E-05-2.85674E-05-2.85723E-05 5.78562E-09 1.86816E-18-1.01216E-18
 -1      2825 9.52365E-05-2.85680E-05-2.85722E-05 6.34954E-09 1.63846E-18 1.19740E-18
 -1      2826 9.52329E-05-2.85645E-05-2.85722E-05 3.27132E-09-4.95658E-20-1.13104E-18
 -1      2827 9.52334E-05-2.85650E-05-2.85722E-05 4.09496E-09-2.68262E-19-1.02883E-18
 -1      2828 9.52321E-05-2.85640E-05-2.85721E-05 1.11742E-09-1.04286E-18-2.61013E-18
 -1      2829 9.52325E-05-2.85642E-05-2.85721E-05 2.19027E-09-4.64808E-19-2.18519E-18
 -1      2830 9.52322E-05-2.85646E-05-2.85718E-05 2.99285E-09-5.39512E-20-2.26197E-18
 -1      2831 9.52319E-05-2.85639E-05-2.85720E-05-1.32251E-09-1.05056E-18 1.86747E-18
 -1      2832 9.52319E-05-2.85639E-05-2.85720E-05-1.54401E-10-1.42459E-18-3.07926E-19
 -1      2833 9.52314E-05-2.85642E-05-2.85717E-05 5.61047E-10-5.86475E-19-1.82554E-18
 -1      2834 9.52323E-05-2.85643E-05-2.85720E-05-3.81244E-09-1.38948E-18 3.70153E-18
 -1      2835 9.52320E-05-2.85640E-05-2.85720E-05-2.67680E-09-1.46393E-18 2.73899E-18
 -1      2836 9.52313E-05-2.85642E-05-2.85716E-05-2.14412E-09-1.89696E-18 1.77944E-18
 -1      2837 9.52334E-05-2.85653E-05-2.85720E-05-5.92516E-09-1.62608E-18 1.97803E-18
 -1      2838 9.52327E-05-2.85647E-05-2.85720E-05-5.03528E-09-1.34705E-18 4.79279E-18
 -1      2839 9.52319E-05-2.85647E-05-2.85717E-05-4.80086E-09-2.61397E-18 4.32202E-18
 -1      2840 7.87274E-05-1.34566E-05-2.80946E-05 1.24131E-05 1.11267E-19 4.45083E-19
 -1      2841 7.52120E-05-1.10590E-05-2.74665E-05 1.50977E-05 1.74740E-19 9.61978E-19
 -1      2842 7.65699E-05-1.21515E-05-2.73453E-05 7.81111E-06 2.75095E-19 7.15855E-19
 -1      2843 6.75229E-05-7.68108E-06-2.56701E-05 1.68202E-05-4.39637E-19 1.62180E-19
 -1      2844 6.27587E-05-6.60569E-06-2.38130E-05 1.96243E-05-9.29887E-19 5.15525E-19
 -1      2845 6.43720E-05-5.74810E-06-2.46791E-05 9.23917E-06-5.47322E-19 3.41063E-19
 -1      2846 1.08674E-04-5.20016E-05-2.44441E-05 4.57575E-05 1.03486E-18-1.07526E-18
 -1      2847 8.89432E-05-4.21936E-05-1.94814E-05 4.92977E-05 1.53440E-18-1.24884E-18
 -1      2848 9.52340E-05-2.85655E-05-2.85723E-05 4.84532E-09 1.49751E-19 2.72476E-19
 -1      2849 9.52347E-05-2.85661E-05-2.85723E-05 5.33210E-09 4.41737E-19 1.66079E-18
 -1      2850 9.52349E-05-2.85666E-05-2.85721E-05 6.05226E-09-7.04565E-19 1.09125E-19
 -1      2851 9.52334E-05-2.85655E-05-2.85720E-05 4.89820E-09 3.08536E-20-1.19719E-18
 -1      2852 9.11137E-05-1.60041E-05-3.22174E-05 4.90126E-06 1.75394E-18-1.93331E-18
 -1      2853 9.07690E-05-1.55120E-05-3.22747E-05 3.98454E-06 1.45824E-18-2.20078E-18
 -1      2854 9.17425E-05-1.71195E-05-3.19656E-05 3.20243E-06 1.20982E-18-2.09575E-18
 -1      2855 9.24173E-05-1.81634E-05-3.18006E-05 4.61145E-06 1.63034E-18-1.75372E-18
 -1      2856 1.50692E-04-5.10269E-05-4.32329E-05 6.07110E-06-1.42812E-18 1.80418E-19
 -1      2857 1.44740E-04-5.74281E-05-3.74061E-05 1.71800E-05-5.47951E-19 1.23879E-19
 -1      2858 1.37180E-04-4.24248E-06-5.76516E-05 3.88634E-06-3.38496E-18-1.50576E-18
 -1      2859 1.36937E-04-3.61312E-06-5.78468E-05-2.38892E-06-3.50629E-18-1.06594E-18
 -1      2860 1.36197E-04-6.02706E-05-3.29510E-05 2.93258E-05 1.56278E-19-4.62692E-19
 -1      2861 1.25582E-04-5.78379E-05-2.86934E-05 3.63947E-05 6.93614E-19-7.89091E-19
 -1      2862 9.07777E-05-1.55510E-05-3.22614E-05-3.93204E-06-2.16113E-19-2.85708E-18
 -1      2863 9.11151E-05-1.60390E-05-3.22025E-05-4.86107E-06-4.96629E-19-2.94213E-18
 -1      2864 9.48935E-05-2.76065E-05-2.88383E-05-6.85919E-07 7.48922E-19-1.10245E-18
 -1      2865 9.49916E-05-2.74399E-05-2.89368E-05-2.52396E-07 7.54324E-19-8.86370E-19
 -1      2866 9.51366E-05-2.75159E-05-2.89842E-05-6.95390E-07 6.80688E-19-1.33964E-18
 -1      2867 7.23916E-05-3.41687E-05-1.57105E-05-5.08543E-05 1.17589E-18 4.04215E-18
 -1      2868 9.21966E-05-4.48152E-05-2.05031E-05-5.15301E-05 1.57326E-18 3.93733E-18
 -1      2869 3.53554E-05-7.67254E-06-1.13519E-05 2.83723E-05 1.33672E-19-4.71840E-18
 -1      2870 2.60370E-05-2.16901E-06-9.43514E-06 1.16115E-05-5.28429E-19-4.57610E-18
 -1      2871 7.01482E-05-3.13373E-05-1.63682E-05 4.96753E-05 1.33111E-18-2.84571E-18
 -1      2872 5.26977E-05-1.93980E-05-1.36978E-05 4.19186E-05 1.06387E-18-4.30716E-18
 -1      2873 2.59147E-05-1.82117E-06-9.70025E-06-9.97641E-06 3.08796E-19 2.23786E-18
 -1      2874 2.99112E-05-6.55192E-06-9.37739E-06-2.65115E-05 2.90638E-19 4.23474E-18
 -1      2875 1.43243E-04-5.84129E-05-3.61697E-05-2.12824E-05 4.37916E-19-2.99860E-18
 -1      2876 1.48454E-04-5.44207E-05-4.08387E-05-1.15594E-05 2.27554E-19-3.24149E-18
 -1      2877 1.38126E-04-7.96808E-06-5.65420E-05-7.43760E-06-3.15202E-18-1.76606E-19
 -1      2878 1.40700E-04-1.46472E-05-5.46914E-05-1.04364E-05-3.08659E-18 9.36395E-19
 -1      2879 1.40529E-04-1.78901E-05-5.31878E-05 1.09754E-05-1.98227E-18-3.80498E-18
 -1      2880 1.38247E-04-1.00255E-05-5.57029E-05 8.57044E-06-2.98939E-18-2.71088E-18
 -1      2881 3.99628E-05-1.43563E-05-1.02796E-05-3.82345E-05-1.50137E-19 3.32884E-18
 -1      2882 5.41892E-05-2.39543E-05-1.26639E-05-4.80829E-05 2.04347E-19 3.14249E-18
 -1      2883 9.15530E-05-1.66937E-05-3.21024E-05-5.59638E-06-7.57289E-19-2.84067E-18
 -1      2884 9.20783E-05-1.74847E-05-3.20026E-05-6.41436E-06-1.06354E-18-2.62916E-18
 -1      2885 9.24211E-05-1.82223E-05-3.17838E-05-4.57239E-06-5.96452E-19-2.66568E-18
 -1      2886 9.12377E-05-1.63604E-05-3.20783E-05 5.02008E-08 4.63643E-19-2.45413E-18
 -1      2887 9.01194E-05-1.45767E-05-3.23950E-05-3.72558E-07 4.81286E-19-2.70375E-18
 -1      2888 9.01820E-05-1.46653E-05-3.23835E-05-1.33008E-06 2.19171E-19-2.81888E-18
 -1      2889 9.53587E-05-2.49682E-05-3.01610E-05 4.17539E-06 1.74244E-18-3.60544E-19
 -1      2890 9.50893E-05-2.39364E-05-3.04793E-05 4.63739E-06 1.82182E-18-6.32746E-19
 -1      2891 9.52531E-05-2.56375E-05-2.98408E-05 3.01769E-06 1.56599E-18-4.14458E-19
 -1      2892 9.03148E-05-1.48686E-05-3.23543E-05-2.16959E-06 1.24009E-19-2.69193E-18
 -1      2893 9.05048E-05-1.51385E-05-3.23215E-05-3.12340E-06-1.10931E-19-2.77692E-18
 -1      2894 9.17629E-05-1.71739E-05-3.19519E-05-3.13301E-06-1.44447E-19-2.64635E-18
 -1      2895 9.13730E-05-1.65706E-05-3.20457E-05-1.56403E-06 6.60509E-20-2.65249E-18
 -1      2896 1.06076E-04-4.87595E-05-2.41571E-05-4.36333E-05 2.44867E-18 1.46955E-18
 -1      2897 1.40813E-04-2.11817E-05-5.18407E-05-1.15836E-05-2.81533E-18 1.56982E-18
 -1      2898 1.38874E-04-2.69028E-05-4.82079E-05-1.23727E-05-2.36830E-18 1.55701E-18
 -1      2899 1.31135E-04-1.63916E-05-4.95323E-05-1.26570E-05-1.88539E-18 1.10686E-18
 -1      2900 9.53148E-05-2.70617E-05-2.92577E-05 2.22855E-07 9.08912E-19-1.23033E-18
 -1      2901 1.36031E-04-5.84182E-05-3.31457E-05-2.46468E-05 9.56883E-19-2.12012E-18
 -1      2902 4.19340E-05-1.80180E-06-1.66899E-05-4.04913E-06-1.13301E-18-3.15636E-18
 -1      2903 4.27168E-05-1.33263E-06-1.70935E-05 8.05801E-06-6.55749E-19-3.39088E-18
 -1      2904 9.42382E-05-2.07662E-05-3.15164E-05-8.18117E-06-1.69679E-18-1.85453E-18
 -1      2905 9.47435E-05-2.26784E-05-3.09064E-05-6.45641E-06-1.50634E-18-1.64585E-18
 -1      2906 6.71612E-05-1.72548E-05-2.08451E-05-3.58420E-05-2.01859E-18-6.16005E-19
 -1      2907 4.95065E-05-7.07220E-06-1.74860E-05-2.70217E-05-2.14702E-18-2.65502E-18
 -1      2908 5.00198E-05-2.11003E-06-1.99389E-05 1.41752E-05-1.20689E-18-4.70739E-19
 -1      2909 5.72139E-05-6.45030E-06-2.14152E-05 2.50714E-05-1.08928E-18 7.47930E-19
 -1      2910 9.52385E-05-2.85706E-05-2.85720E-05 3.14918E-09 9.24691E-19 1.12284E-18
 -1      2911 9.52392E-05-2.85711E-05-2.85720E-05 3.04028E-09 1.64331E-18 2.10879E-18
 -1      2912 9.52395E-05-2.85711E-05-2.85722E-05 3.95146E-09 1.09276E-18 8.37762E-19
 -1      2913 9.52385E-05-2.85703E-05-2.85721E-05 3.75481E-09 1.17420E-18 1.28560E-18
 -1      2914 4.23791E-05-9.49960E-06-1.34072E-05-3.00783E-05-4.80056E-19 4.43369E-18
 -1      2915 1.30233E-04-6.43375E-06-5.35114E-05-5.35666E-06-2.58229E-18-9.11593E-19
 -1      2916 9.52388E-05-2.85703E-05-2.85722E-05 4.61127E-09 1.19153E-18 1.27968E-18
 -1      2917 1.41355E-04-2.48210E-05-5.04503E-05 1.14849E-05-1.35705E-18-4.16428E-18
 -1      2918 1.31636E-04-1.92005E-05-4.84951E-05 1.32665E-05-1.24175E-18-3.05424E-18
 -1      2919 1.39499E-04-3.11697E-05-4.67964E-05 1.07317E-05-9.66994E-19-4.40298E-18
 -1      2920 8.47430E-05-3.60173E-05-2.04578E-05 4.47559E-05 1.46833E-18-1.53027E-18
 -1      2921 9.52346E-05-2.85662E-05-2.85722E-05-6.83331E-09 3.39247E-19-1.43164E-18
 -1      2922 1.48628E-04-4.93915E-05-4.26608E-05-2.59655E-06-5.80032E-19-3.86215E-18
 -1      2923 1.43994E-04-4.27127E-05-4.39430E-05 5.82014E-06-9.04525E-19-4.92666E-18
 -1      2924 1.43553E-04-5.21974E-05-3.92240E-05-4.89979E-06-1.75521E-19-3.41360E-18
 -1      2925 4.81923E-05-1.28272E-05-1.45367E-05 3.37534E-05 6.75085E-19-4.08323E-18
 -1      2926 4.61434E-05-6.45907E-06-1.66460E-05 2.32016E-05 1.30099E-19-3.91626E-18
 -1      2927 6.15163E-05-1.76965E-05-1.84679E-05 3.48022E-05 1.28715E-18-3.40714E-18
 -1      2928 1.17499E-04-5.36780E-05-2.70885E-05 3.72361E-05 1.17383E-18-9.46400E-19
 -1      2929 5.82855E-05-1.11085E-05-1.93296E-05 2.96833E-05-1.13201E-18 1.19813E-18
 -1      2930 9.52337E-05-2.85660E-05-2.85719E-05-7.04470E-09-4.96991E-19 9.08140E-19
 -1      2931 9.45461E-05-2.22703E-05-3.09584E-05-5.85060E-06-1.23721E-18-1.87572E-18
 -1      2932 1.40189E-04-5.78538E-05-3.51827E-05 1.75533E-05-2.40425E-19-1.06409E-20
 -1      2933 1.30072E-04-7.70481E-06-5.28686E-05 6.96684E-06-2.40451E-18-2.48832E-18
 -1      2934 4.91679E-05-1.60651E-05-1.37200E-05-3.30870E-05-1.62599E-18-2.29440E-18
 -1      2935 3.40679E-05-1.96835E-06-1.31563E-05-9.63943E-06-1.57215E-18-3.29199E-18
 -1      2936 6.92045E-05-2.80265E-05-1.70738E-05-4.60479E-05 1.61148E-19 3.20676E-18
 -1      2937 4.19962E-05-5.43947E-06-1.46063E-05-2.10451E-05-1.84955E-18-3.08998E-18
 -1      2938 1.49082E-04-4.57362E-05-4.45197E-05-1.94118E-06-1.46865E-18 7.61694E-19
 -1      2939 1.43645E-04-4.92660E-05-4.04277E-05 6.96824E-08-8.60771E-19 1.32005E-18
 -1      2940 1.42757E-04-3.87248E-05-4.53093E-05-8.71407E-06-1.90964E-18 1.63784E-18
 -1      2941 9.51763E-05-2.65339E-05-2.94199E-05 1.47349E-06 1.15914E-18-6.04164E-19
 -1      2942 9.53235E-05-2.61270E-05-2.96400E-05 2.30914E-06 1.37224E-18-5.51315E-19
 -1      2943 9.53238E-05-2.55220E-05-2.99304E-05 2.70291E-06 1.53471E-18-7.76503E-19
 -1      2944 9.53650E-05-2.63599E-05-2.95828E-05 1.35548E-06 1.26217E-18-1.00661E-18
 -1      2945 9.52333E-05-2.85661E-05-2.85717E-05-7.47740E-09-5.55865E-19 1.60736E-18
 -1      2946 9.49016E-05-2.31987E-05-3.07351E-05 4.88902E-06 1.81158E-18-9.83398E-19
 -1      2947 9.43968E-05-2.21098E-05-3.09897E-05 5.09211E-06 1.88326E-18-1.30345E-18
 -1      2948 9.51055E-05-2.41582E-05-3.03906E-05 3.74996E-06 1.66880E-18-9.16817E-19
 -1      2949 9.39407E-05-2.11912E-05-3.11794E-05 4.75316E-06 1.70538E-18-1.47743E-18
 -1      2950 9.29634E-05-2.59332E-05-2.87470E-05 1.19270E-06 3.10259E-19-1.30650E-18
 -1      2951 9.23326E-05-2.52365E-05-2.87662E-05 1.56629E-06 3.36993E-19-1.45180E-18
 -1      2952 8.83802E-05-2.17928E-05-2.85820E-05 2.20545E-06-8.66923E-19-1.02622E-18
 -1      2953 8.65871E-05-2.02639E-05-2.84736E-05 2.74212E-06-8.56302E-19-1.03439E-18
 -1      2954 6.39948E-05-2.10682E-05-1.78494E-05-3.97821E-05 3.74680E-19 2.01340E-18
 -1      2955 7.83716E-05-3.13519E-05-2.03100E-05-4.40697E-05 1.15054E-18 2.65857E-18
 -1      2956 9.55303E-05-2.56612E-05-2.99296E-05-2.19733E-06-7.03943E-19-1.79850E-18
 -1      2957 9.55871E-05-2.63973E-05-2.96657E-05-1.41299E-06-6.18267E-19-1.77682E-18
 -1      2958 9.57686E-05-2.70607E-05-2.94304E-05-8.49785E-07-7.50543E-19-1.68836E-18
 -1      2959 9.57692E-05-2.75625E-05-2.92406E-05-3.67724E-07-7.53575E-19-1.76429E-18
 -1      2960 9.57995E-05-2.63863E-05-2.97512E-05-1.24606E-06-6.73493E-19-1.89777E-18
 -1      2961 9.58725E-05-2.80233E-05-2.90647E-05-2.88854E-08-6.43664E-19-1.72261E-18
 -1      2962 9.58761E-05-2.83906E-05-2.89284E-05 2.16689E-07-6.78636E-19-1.70717E-18
 -1      2963 9.60816E-05-2.76500E-05-2.93327E-05-3.02607E-07-7.36054E-19-1.70195E-18
 -1      2964 9.59634E-05-2.87410E-05-2.87981E-05 3.70558E-07-5.00118E-19-1.31950E-18
 -1      2965 9.59945E-05-2.90387E-05-2.86997E-05 4.30272E-07-2.42961E-19-1.25627E-18
 -1      2966 9.62748E-05-2.85791E-05-2.90187E-05 2.29643E-07-3.46871E-19-1.20375E-18
 -1      2967 9.61074E-05-2.93401E-05-2.86041E-05 4.31327E-07-7.01819E-20-1.15530E-18
 -1      2968 9.61769E-05-2.96112E-05-2.85321E-05 3.37505E-07-1.57882E-20-1.03840E-18
 -1      2969 9.64779E-05-2.93279E-05-2.87859E-05 4.21890E-07-1.40544E-19-1.31585E-18
 -1      2970 9.63456E-05-2.99059E-05-2.84637E-05 2.03889E-07-9.43019E-20-8.48995E-19
 -1      2971 9.64577E-05-3.01771E-05-2.84105E-05-2.75177E-08-5.78724E-20-8.57405E-19
 -1      2972 9.67614E-05-3.00085E-05-2.86168E-05 3.25824E-07 6.19489E-20-1.06302E-18
 -1      2973 9.67035E-05-3.04903E-05-2.83657E-05-2.92369E-07 4.11265E-20-8.25024E-19
 -1      2974 9.68550E-05-3.07711E-05-2.83277E-05-6.57605E-07 1.21583E-19-6.08053E-19
 -1      2975 9.71771E-05-3.06965E-05-2.85011E-05-3.52378E-08 2.61808E-20-1.28300E-18
 -1      2976 9.71866E-05-3.11076E-05-2.83071E-05-1.06255E-06-1.96164E-19-5.04953E-19
 -1      2977 9.73624E-05-3.13847E-05-2.82845E-05-1.56342E-06-3.89638E-19-6.81299E-19
 -1      2978 9.77563E-05-3.14279E-05-2.84365E-05-6.66156E-07-7.08374E-20-1.01578E-18
 -1      2979 9.77674E-05-3.17205E-05-2.82928E-05-2.12300E-06-4.14615E-19-5.66465E-19
 -1      2980 9.79341E-05-3.19497E-05-2.82899E-05-2.75620E-06-2.07722E-19-7.96843E-19
 -1      2981 9.84978E-05-3.21844E-05-2.84296E-05-1.59267E-06-3.89159E-19-6.31884E-19
 -1      2982 9.83666E-05-3.22224E-05-2.83360E-05-3.47686E-06-1.37140E-19-8.44701E-19
 -1      2983 9.84672E-05-3.23231E-05-2.83598E-05-4.21787E-06-2.68952E-19-8.07338E-19
 -1      2984 9.93459E-05-3.28724E-05-2.84956E-05-2.84273E-06-1.24855E-19-7.56743E-19
 -1      2985 9.88373E-05-3.24273E-05-2.84548E-05-5.07450E-06-4.52435E-19-8.83661E-19
 -1      2986 9.87937E-05-3.22869E-05-2.85137E-05-5.85638E-06-3.97540E-19-8.53281E-19
 -1      2987 1.00167E-04-3.33042E-05-2.86567E-05-4.41000E-06-4.69363E-19-1.26663E-18
 -1      2988 9.89700E-05-3.20858E-05-2.86675E-05-6.75978E-06-5.25887E-19-8.14562E-19
 -1      2989 9.87009E-05-3.15865E-05-2.87675E-05-7.45329E-06-7.59425E-19-1.15398E-18
 -1      2990 1.00738E-04-3.32016E-05-2.89363E-05-6.19588E-06-6.37999E-19-1.21018E-18
 -1      2991 9.85410E-05-3.09533E-05-2.89822E-05-8.21900E-06-7.05990E-19-8.87908E-19
 -1      2992 9.80010E-05-3.00307E-05-2.91216E-05-8.62700E-06-7.98661E-19-1.03634E-18
 -1      2993 1.00777E-04-3.22556E-05-2.93485E-05-7.93848E-06-5.94757E-19-1.21780E-18
 -1      2994 9.74252E-05-2.89309E-05-2.93839E-05-8.97726E-06-6.00828E-19-6.88948E-19
 -1      2995 9.66547E-05-2.76513E-05-2.95485E-05-8.87091E-06-5.53251E-19-7.55365E-20
 -1      2996 1.00048E-04-3.02667E-05-2.98822E-05-9.16717E-06-4.31863E-19-6.86973E-19
 -1      2997 9.57384E-05-2.62315E-05-2.98244E-05-8.50639E-06-4.72865E-19-1.62009E-19
 -1      2998 9.48958E-05-2.48457E-05-2.99859E-05-7.71205E-06-3.26953E-19 7.81833E-20
 -1      2999 9.85342E-05-2.73551E-05-3.04855E-05-9.26514E-06-3.76634E-19-8.72039E-20
 -1      3000 9.39165E-05-2.34672E-05-3.02229E-05-6.46498E-06-6.21845E-19 3.59916E-19
 -1      3001 9.32487E-05-2.23697E-05-3.03435E-05-4.98447E-06-8.12664E-19 4.37074E-19
 -1      3002 9.65901E-05-2.41042E-05-3.10625E-05-7.70100E-06-3.07597E-19-4.00120E-19
 -1      3003 9.26083E-05-2.15057E-05-3.04813E-05-2.97566E-06-9.73529E-19 3.27464E-19
 -1      3004 9.23530E-05-2.10847E-05-3.05271E-05-1.05679E-06-5.95657E-19 9.42998E-20
 -1      3005 9.49161E-05-2.14965E-05-3.14857E-05-4.37495E-06-7.80403E-19 7.34394E-20
 -1      3006 9.23481E-05-2.10731E-05-3.05287E-05 1.24730E-06-6.19517E-19-7.14421E-20
 -1      3007 9.26005E-05-2.14749E-05-3.04889E-05 3.17186E-06-2.81433E-19-7.84180E-19
 -1      3008 9.42454E-05-2.04643E-05-3.16408E-05 9.82890E-08-8.93979E-19 2.60157E-20
 -1      3009 9.32280E-05-2.23133E-05-3.03574E-05 5.18908E-06 3.04765E-19-1.33763E-18
 -1      3010 9.38938E-05-2.33880E-05-3.02446E-05 6.68633E-06-1.15263E-19-1.57000E-18
 -1      3011 9.48879E-05-2.14354E-05-3.14936E-05 4.57568E-06-4.24186E-19-1.24691E-19
 -1      3012 9.48582E-05-2.47400E-05-3.00151E-05 7.95765E-06-6.98094E-19-1.63123E-18
 -1      3013 9.57014E-05-2.61060E-05-2.98613E-05 8.78003E-06-7.49208E-19-9.69737E-19
 -1      3014 9.65321E-05-2.39894E-05-3.10850E-05 7.93245E-06-2.19284E-19-1.33496E-18
 -1      3015 9.66030E-05-2.75011E-05-2.95914E-05 9.17813E-06-5.42414E-19-8.42127E-19
 -1      3016 9.73753E-05-2.87619E-05-2.94343E-05 9.32287E-06-3.58420E-19-1.33671E-19
 -1      3017 9.84471E-05-2.71836E-05-3.05213E-05 9.55526E-06-6.89303E-19-9.50143E-19
 -1      3018 9.79349E-05-2.98376E-05-2.91770E-05 9.01559E-06-1.41617E-19-3.13488E-19
 -1      3019 9.84779E-05-3.07427E-05-2.90448E-05 8.65513E-06 5.53898E-19-4.55299E-19
 -1      3020 9.99300E-05-3.00418E-05-2.99281E-05 9.53366E-06-1.54217E-19 4.67738E-20
 -1      3021 9.86193E-05-3.13520E-05-2.88341E-05 7.94077E-06 9.89555E-19-7.59349E-19
 -1      3022 9.88921E-05-3.18356E-05-2.87408E-05 7.30313E-06 7.49336E-19-6.90136E-19
 -1      3023 1.00624E-04-3.19773E-05-2.94023E-05 8.39845E-06 3.82689E-19-7.87257E-19
 -1      3024 9.86945E-05-3.20144E-05-2.85891E-05 6.45800E-06 2.62888E-19-5.56748E-19
 -1      3025 9.87421E-05-3.21424E-05-2.85358E-05 5.73787E-06 1.15243E-19-4.49898E-19
 -1      3026 1.00546E-04-3.28735E-05-2.89946E-05 6.76426E-06 8.75378E-19-1.15773E-18
 -1      3027 9.83464E-05-3.20183E-05-2.84398E-05 4.94352E-06-3.70915E-19-7.34683E-19
 -1      3028 9.82492E-05-3.19100E-05-2.84193E-05 4.26721E-06-1.45171E-19-1.19258E-18
 -1      3029 9.99296E-05-3.29317E-05-2.87140E-05 5.09649E-06-2.69241E-19-2.80841E-19
 -1      3030 9.77860E-05-3.16225E-05-2.83677E-05 3.60922E-06-1.27149E-19-1.05751E-18
 -1      3031 9.76208E-05-3.13936E-05-2.83702E-05 3.03882E-06 5.01669E-19-8.90920E-19
 -1      3032 9.90538E-05-3.24658E-05-2.85437E-05 3.65027E-06-4.33708E-19-3.11023E-19
 -1      3033 9.71799E-05-3.10525E-05-2.83497E-05 2.53649E-06 2.82316E-19-9.43035E-19
 -1      3034 9.70024E-05-3.07888E-05-2.83655E-05 2.08887E-06 4.04831E-19-1.27529E-18
 -1      3035 9.81410E-05-3.17618E-05-2.84564E-05 2.51444E-06 3.10106E-19-6.43586E-19
 -1      3036 9.66304E-05-3.04634E-05-2.83641E-05 1.72643E-06 9.99880E-19-1.35373E-18
 -1      3037 9.64724E-05-3.02165E-05-2.83857E-05 1.39311E-06 1.18072E-18-1.18316E-18
 -1      3038 9.73261E-05-3.10209E-05-2.84246E-05 1.67957E-06 6.46073E-19-1.24487E-18
 -1      3039 9.61838E-05-2.99410E-05-2.83945E-05 1.14211E-06 8.63953E-19-9.86477E-19
 -1      3040 9.60582E-05-2.97349E-05-2.84169E-05 9.03805E-07-2.90909E-19-6.05067E-19
 -1      3041 9.66673E-05-3.03568E-05-2.84257E-05 1.09366E-06 8.14164E-19-1.19560E-18
 -1      3042 9.58481E-05-2.95195E-05-2.84298E-05 7.35333E-07-3.02736E-19-1.77323E-19
 -1      3043 9.57562E-05-2.93603E-05-2.84501E-05 5.70564E-07 3.28187E-19 6.63593E-19
 -1      3044 9.61721E-05-2.98167E-05-2.84434E-05 6.96109E-07 4.75654E-19-9.27422E-20
 -1      3045 9.56114E-05-2.92016E-05-2.84635E-05 4.60288E-07-5.30628E-19 4.45959E-19
 -1      3046 9.55485E-05-2.90857E-05-2.84804E-05 3.49638E-07-7.74603E-19-8.86337E-21
 -1      3047 9.58209E-05-2.94064E-05-2.84672E-05 4.33140E-07-7.17471E-21-7.32014E-19
 -1      3048 9.54532E-05-2.89743E-05-2.84924E-05 2.79006E-07-4.43287E-19 2.12854E-19
 -1      3049 9.54127E-05-2.88938E-05-2.85057E-05 2.06703E-07 5.93402E-20-2.96877E-20
 -1      3050 9.55838E-05-2.91107E-05-2.84911E-05 2.62683E-07-1.01231E-18-7.38153E-20
 -1      3051 9.53529E-05-2.88188E-05-2.85156E-05 1.62409E-07 1.67355E-19-3.63359E-19
 -1      3052 9.53284E-05-2.87652E-05-2.85256E-05 1.16436E-07-1.32784E-19-3.46120E-19
 -1      3053 9.54311E-05-2.89068E-05-2.85121E-05 1.54173E-07-2.61577E-19 4.14167E-19
 -1      3054 9.52926E-05-2.87166E-05-2.85332E-05 8.92732E-08 3.04561E-20-3.14608E-19
 -1      3055 9.52787E-05-2.86823E-05-2.85404E-05 6.08853E-08 1.58895E-19-5.16781E-19
 -1      3056 9.53371E-05-2.87715E-05-2.85292E-05 8.63381E-08-3.90071E-19-4.39107E-19
 -1      3057 9.52585E-05-2.86519E-05-2.85461E-05 4.46600E-08 6.14557E-19-1.20911E-20
 -1      3058 9.52513E-05-2.86308E-05-2.85511E-05 2.77205E-08 6.41996E-19 1.94398E-19
 -1      3059 9.52822E-05-2.86849E-05-2.85423E-05 4.47696E-08 5.51661E-19-2.91260E-19
 -1      3060 9.52408E-05-2.86126E-05-2.85552E-05 1.83613E-08-4.25614E-19 5.06980E-19
 -1      3061 9.52375E-05-2.86001E-05-2.85586E-05 8.68821E-09-1.16822E-18 4.68296E-19
 -1      3062 9.52520E-05-2.86316E-05-2.85519E-05 1.99332E-08 2.11614E-19-1.43911E-18
 -1      3063 9.52326E-05-2.85898E-05-2.85614E-05 3.55916E-09-6.50521E-19 1.09807E-18
 -1      3064 9.52315E-05-2.85827E-05-2.85636E-05-1.62461E-09-1.49460E-19 1.50385E-18
 -1      3065 9.52369E-05-2.86000E-05-2.85588E-05 5.60964E-09-6.97062E-20 7.65084E-19
 -1      3066 9.52298E-05-2.85772E-05-2.85655E-05-4.20451E-09 6.28653E-19 1.34983E-18
 -1      3067 9.52298E-05-2.85735E-05-2.85669E-05-6.69664E-09 2.43141E-18 1.82523E-18
 -1      3068 9.52304E-05-2.85822E-05-2.85635E-05-2.21512E-09 8.37110E-19 2.71578E-18
 -1      3069 9.52297E-05-2.85707E-05-2.85682E-05-7.77968E-09 2.78944E-18 1.60262E-18
 -1      3070 9.52301E-05-2.85690E-05-2.85691E-05-8.71119E-09 1.89514E-18 6.82202E-19
 -1      3071 9.52285E-05-2.85728E-05-2.85667E-05-6.09954E-09 2.10730E-18 1.07554E-18
 -1      3072 9.52308E-05-2.85678E-05-2.85699E-05-8.94243E-09 1.45727E-18 1.28643E-18
 -1      3073 9.52313E-05-2.85670E-05-2.85704E-05-9.00490E-09 5.29720E-19 1.42304E-18
 -1      3074 9.52290E-05-2.85682E-05-2.85689E-05-7.64638E-09 1.34498E-18 1.06260E-18
 -1      3075 9.52321E-05-2.85666E-05-2.85710E-05-8.75902E-09-9.54190E-19 2.46016E-18
 -1      3076 9.52326E-05-2.85663E-05-2.85713E-05-8.33887E-09-3.45008E-19 1.75726E-18
 -1      3077 9.52304E-05-2.85663E-05-2.85703E-05-7.86021E-09 1.18166E-19 3.35120E-18
 -1      3078 9.27945E-05-1.84131E-05-3.18780E-05-7.49129E-06-1.25683E-18-2.42783E-18
 -1      3079 9.52318E-05-2.85654E-05-2.85713E-05-6.89197E-09-1.65160E-18 4.12575E-18
 -1      3080 9.49708E-05-2.75403E-05-2.89033E-05-1.20284E-06 3.71536E-19-1.17974E-18
 -1      3081 9.51559E-05-2.75488E-05-2.89712E-05-9.37516E-07 5.24757E-19-1.33511E-18
 -1      3082 9.17739E-05-2.50489E-05-2.86178E-05-1.90944E-06 2.88686E-19-1.19497E-18
 -1      3083 9.26108E-05-2.58013E-05-2.86482E-05-1.74282E-06 4.24147E-19-1.00186E-18
 -1      3084 8.91447E-05-2.28809E-05-2.84397E-05-1.84876E-06 4.24673E-19-1.14047E-18
 -1      3085 9.05493E-05-2.40548E-05-2.85213E-05-1.72869E-06 4.62398E-19-1.29184E-18
 -1      3086 9.11025E-05-2.44729E-05-2.85138E-05-7.40497E-07 5.63371E-19-1.09524E-18
 -1      3087 8.49429E-05-1.97101E-05-2.80301E-05-1.35940E-06 3.43933E-19-1.48014E-18
 -1      3088 8.72576E-05-2.14236E-05-2.82470E-05-1.40429E-06 5.62934E-19-1.18539E-18
 -1      3089 8.81324E-05-2.21532E-05-2.82092E-05 1.41289E-07 3.86988E-19-1.31332E-18
 -1      3090 7.84129E-05-1.53995E-05-2.71106E-05 6.39505E-08 1.15024E-19-1.60359E-18
 -1      3091 8.21120E-05-1.77248E-05-2.76300E-05-4.15815E-07 6.78454E-20-1.47841E-18
 -1      3092 8.36479E-05-1.89892E-05-2.76032E-05 1.97346E-06 2.67118E-19-1.50952E-18
 -1      3093 6.94014E-05-1.04577E-05-2.53331E-05 3.02448E-06 3.59665E-19-1.94837E-18
 -1      3094 7.45393E-05-1.31363E-05-2.63549E-05 1.74723E-06 5.00047E-19-1.60072E-18
 -1      3095 7.72200E-05-1.51075E-05-2.64423E-05 5.37635E-06 4.01318E-19-1.17003E-18
 -1      3096 5.46168E-05-4.56494E-06-2.12879E-05 6.95323E-06-5.35748E-19-2.68419E-18
 -1      3097 6.20808E-05-6.95169E-06-2.35820E-05 4.28636E-06 1.12827E-20-2.37455E-18
 -1      3098 6.67955E-05-1.00726E-05-2.40191E-05 9.74402E-06 4.27745E-19-1.69943E-18
 -1      3099 4.84778E-05-4.38206E-06-1.84364E-05 1.42117E-05-1.59877E-19-3.41280E-18
 -1      3100 1.39461E-04-5.54872E-05-3.63956E-05 9.11375E-06 1.96975E-19 7.85755E-19
 -1      3101 1.33539E-04-5.65137E-05-3.27440E-05 1.82146E-05 8.89123E-19 6.46260E-19
 -1      3102 9.52394E-05-2.85708E-05-2.85723E-05 4.78005E-09 1.74023E-18 1.08702E-18
 -1      3103 9.52399E-05-2.85711E-05-2.85724E-05 4.81230E-09 1.92405E-18 1.15406E-19
 -1      3104 9.52391E-05-2.85704E-05-2.85723E-05 5.46059E-09 2.27076E-18 3.70298E-18
 -1      3105 9.53173E-05-2.74687E-05-2.90836E-05-6.81416E-07 6.65808E-19-1.17523E-18
 -1      3106 9.54372E-05-2.72921E-05-2.91966E-05-2.96145E-07 7.63202E-19-1.14343E-18
 -1      3107 9.54276E-05-2.73701E-05-2.91655E-05-5.85124E-07 7.52313E-19-1.25376E-18
 -1      3108 9.39748E-05-2.69844E-05-2.87229E-05 7.99527E-07 6.42533E-19-2.08462E-18
 -1      3109 9.36246E-05-2.65482E-05-2.87508E-05 1.06525E-06 5.09159E-19-1.75830E-18
 -1      3110 9.29096E-05-2.59427E-05-2.86751E-05 6.42277E-07 3.58596E-19-1.75023E-18
 -1      3111 9.45550E-05-2.76361E-05-2.86875E-05 5.14371E-07 1.00906E-18-2.31894E-18
 -1      3112 9.43642E-05-2.73688E-05-2.87131E-05 6.93451E-07 7.90364E-19-2.86664E-18
 -1      3113 9.39176E-05-2.69717E-05-2.86766E-05 4.79145E-07 8.77787E-19-2.27301E-18
 -1      3114 9.48814E-05-2.80322E-05-2.86545E-05 3.20140E-07 9.51658E-21-1.40276E-18
 -1      3115 9.47798E-05-2.78714E-05-2.86746E-05 4.35982E-07 6.71245E-19-1.30818E-18
 -1      3116 9.45086E-05-2.76194E-05-2.86585E-05 3.31778E-07 1.30532E-19-1.99443E-18
 -1      3117 9.50610E-05-2.82684E-05-2.86283E-05 1.93927E-07-8.40001E-19-1.97952E-18
 -1      3118 9.50084E-05-2.81734E-05-2.86429E-05 2.66337E-07-7.76844E-20-1.51908E-18
 -1      3119 9.48479E-05-2.80179E-05-2.86368E-05 2.18606E-07-1.55096E-19-2.09006E-18
 -1      3120 9.51570E-05-2.84063E-05-2.86091E-05 1.15064E-07-5.12957E-19-2.08764E-18
 -1      3121 9.51309E-05-2.83513E-05-2.86192E-05 1.58939E-07-1.34377E-18-2.33365E-18
 -1      3122 9.50383E-05-2.82579E-05-2.86177E-05 1.39195E-07-7.29086E-19-1.39480E-18
 -1      3123 9.52063E-05-2.84850E-05-2.85958E-05 6.74724E-08 7.71310E-19-1.17396E-18
 -1      3124 9.51942E-05-2.84540E-05-2.86024E-05 9.32797E-08 3.85579E-19-1.97880E-18
 -1      3125 9.51422E-05-2.83993E-05-2.86028E-05 8.67884E-08-4.65902E-19-1.14220E-18
 -1      3126 9.52301E-05-2.85286E-05-2.85868E-05 3.96581E-08 1.51314E-18 6.22230E-19
 -1      3127 9.52252E-05-2.85117E-05-2.85912E-05 5.43959E-08 7.85564E-19-4.34580E-19
 -1      3128 9.51969E-05-2.84805E-05-2.85921E-05 5.37529E-08 3.70461E-19-8.71595E-19
 -1      3129 9.52404E-05-2.85519E-05-2.85811E-05 2.38808E-08 1.48109E-18 2.81223E-18
 -1      3130 9.52391E-05-2.85430E-05-2.85838E-05 3.20512E-08 2.26931E-18 2.44036E-18
 -1      3131 9.52241E-05-2.85258E-05-2.85847E-05 3.36648E-08 4.23789E-19 9.83529E-19
 -1      3132 9.52439E-05-2.85636E-05-2.85774E-05 1.51589E-08 6.25553E-19 2.01300E-18
 -1      3133 9.52442E-05-2.85593E-05-2.85791E-05 1.95649E-08 6.68939E-19 2.68251E-18
 -1      3134 9.52365E-05-2.85500E-05-2.85798E-05 2.17886E-08 1.25568E-18 3.68467E-18
 -1      3135 9.52442E-05-2.85691E-05-2.85751E-05 1.04039E-08-4.72315E-20 1.32195E-18
 -1      3136 9.52451E-05-2.85671E-05-2.85762E-05 1.27383E-08 6.46091E-19 1.77804E-18
 -1      3137 9.52414E-05-2.85624E-05-2.85767E-05 1.48877E-08 1.14140E-18 3.20276E-18
 -1      3138 9.52432E-05-2.85711E-05-2.85737E-05 7.76773E-09 2.21688E-18-1.51976E-18
 -1      3139 9.52442E-05-2.85705E-05-2.85744E-05 9.02309E-09 1.95138E-19-2.23063E-19
 -1      3140 9.52425E-05-2.85682E-05-2.85747E-05 1.08687E-08 1.54516E-18 1.53493E-18
 -1      3141 9.52417E-05-2.85716E-05-2.85729E-05 6.16009E-09 2.28861E-18 5.99218E-19
 -1      3142 9.52426E-05-2.85715E-05-2.85733E-05 6.90935E-09 2.45900E-18-1.68809E-18
 -1      3143 9.52419E-05-2.85704E-05-2.85735E-05 8.45081E-09 1.51847E-18 3.26134E-19
 -1      3144 9.52408E-05-2.85714E-05-2.85726E-05 5.33044E-09 2.91514E-18 7.22074E-19
 -1      3145 9.52304E-05-2.85644E-05-2.85712E-05-2.92068E-09-9.59756E-19 1.36282E-18
 -1      3146 9.52303E-05-2.85643E-05-2.85712E-05-1.54526E-09 4.37626E-19 2.99218E-19
 -1      3147 4.33776E-05-5.06848E-06-1.59461E-05-2.17209E-05-3.41963E-19 4.94180E-18
 -1      3148 5.21961E-05-1.28501E-05-1.65947E-05-3.36614E-05-1.92647E-19 3.15287E-18
 -1      3149 6.39096E-05-1.67667E-05-1.97440E-05-3.22770E-05 9.05928E-19 1.67855E-18
 -1      3150 9.52378E-05-2.85691E-05-2.85723E-05 6.56528E-09 2.61207E-18 5.09386E-18
 -1      3151 9.52385E-05-2.85697E-05-2.85723E-05 6.10191E-09 2.27829E-18 4.52503E-18
 -1      3152 9.52390E-05-2.85701E-05-2.85724E-05 6.30164E-09 2.54581E-18 4.32606E-18
 -1      3153 9.52304E-05-2.85643E-05-2.85712E-05-5.57604E-11 2.63527E-19-1.08733E-20
 -1      3154 9.52307E-05-2.85644E-05-2.85713E-05 1.24466E-09 4.30774E-19-2.28854E-18
 -1      3155 9.52296E-05-2.85645E-05-2.85707E-05-8.34654E-10 1.23929E-18-1.87177E-19
 -1      3156 9.52311E-05-2.85646E-05-2.85714E-05 2.61003E-09-8.58191E-19-2.83322E-18
 -1      3157 9.52317E-05-2.85649E-05-2.85715E-05 3.73366E-09-6.83310E-19-2.38778E-18
 -1      3158 9.52302E-05-2.85647E-05-2.85709E-05 2.04307E-09 2.34259E-19-2.01079E-18
 -1      3159 9.52311E-05-2.85650E-05-2.85712E-05-5.56429E-09-1.69938E-18 5.05257E-18
 -1      3160 9.52306E-05-2.85646E-05-2.85711E-05-4.32353E-09-1.19903E-18 3.49709E-18
 -1      3161 9.52296E-05-2.85647E-05-2.85707E-05-3.70101E-09 1.24947E-18 1.68320E-18
 -1      3162 9.52304E-05-2.85654E-05-2.85707E-05-6.36712E-09-9.38167E-19 4.32469E-18
 -1      3163 9.40033E-05-2.09486E-05-3.13118E-05-6.09061E-06-1.14986E-18-2.23052E-18
 -1      3164 9.44387E-05-2.22992E-05-3.09287E-05-4.99926E-06-1.02603E-18-2.13703E-18
 -1      3165 7.64708E-05-1.33193E-05-2.71361E-05 2.36627E-06 2.25357E-19 8.04992E-19
 -1      3166 7.14345E-05-1.04014E-05-2.62656E-05 2.54987E-06 5.29733E-19 9.88441E-19
 -1      3167 6.51318E-05-7.29423E-06-2.47988E-05 1.08084E-06-2.22015E-19 8.05065E-19
 -1      3168 5.77388E-05-4.40354E-06-2.27887E-05 4.29868E-07-1.23654E-18 4.96679E-19
 -1      3169 6.76279E-05-9.01515E-06-2.48125E-05-5.01114E-06-6.80670E-20 1.48682E-18
 -1      3170 9.43759E-05-2.72156E-05-2.87889E-05-1.54831E-06 4.09188E-19-1.17239E-18
 -1      3171 9.46728E-05-2.74179E-05-2.88258E-05-1.34593E-06 3.25893E-19-1.23328E-18
 -1      3172 9.49901E-05-2.73913E-05-2.89646E-05-9.85328E-07 3.99442E-19-1.39162E-18
 -1      3173 2.98334E-05-1.34899E-06-1.14201E-05 2.09215E-06 2.91631E-19-1.04185E-19
 -1      3174 3.55833E-05-7.55641E-07-1.42680E-05-5.26499E-06-7.48837E-19 1.88804E-18
 -1      3175 9.12477E-05-2.42919E-05-2.87256E-05 1.68387E-06-2.26501E-19-1.38765E-18
 -1      3176 9.01354E-05-2.32059E-05-2.87082E-05 2.16909E-06-5.57862E-19-1.64557E-18
 -1      3177 8.85342E-05-2.20230E-05-2.84353E-05 6.79968E-07-4.78596E-19-2.30628E-18
 -1      3178 9.12382E-05-2.43622E-05-2.86188E-05 7.57755E-07 3.15614E-19-6.19322E-19
 -1      3179 8.38309E-05-1.82509E-05-2.81670E-05 2.54785E-06 1.30460E-19-4.82166E-19
 -1      3180 8.06992E-05-1.59851E-05-2.78201E-05 3.05139E-06 8.42560E-19 1.77508E-19
 -1      3181 7.76244E-05-1.42713E-05-2.69642E-05-1.48118E-06 1.00434E-18 1.02482E-18
 -1      3182 8.42405E-05-1.86928E-05-2.79799E-05 1.18151E-07 3.44879E-19-1.86758E-19
 -1      3183 9.33909E-05-2.64294E-05-2.87086E-05-1.78128E-06 5.65411E-19-1.17472E-18
 -1      3184 9.38862E-05-2.68682E-05-2.87304E-05-1.60275E-06 5.56967E-19-1.12659E-18
 -1      3185 9.30201E-05-2.60308E-05-2.86851E-05-1.10097E-06 5.14062E-19-1.25975E-18
 -1      3186 9.49942E-05-2.36507E-05-3.05694E-05-4.05006E-06-8.50888E-19-1.98592E-18
 -1      3187 9.52147E-05-2.47544E-05-3.02118E-05-2.93029E-06-8.14636E-19-1.94687E-18
 -1      3188 9.53060E-05-2.46572E-05-3.02743E-05-2.58596E-06-6.64901E-19-2.01413E-18
 -1      3189 9.44500E-05-2.23113E-05-3.09084E-05-4.27339E-06-9.03144E-19-2.23781E-18
 -1      3190 4.10264E-05-1.40867E-06-1.64164E-05 1.20424E-05-6.36810E-19-1.11925E-18
 -1      3191 9.22982E-05-1.82709E-05-3.17423E-05 1.84314E-06 8.90948E-19-2.04709E-18
 -1      3192 9.21858E-05-1.80803E-05-3.17708E-05 1.09487E-06 6.11290E-19-2.15310E-18
 -1      3193 9.44922E-05-4.04529E-05-2.32877E-05 4.12760E-05 1.50359E-18-7.45442E-19
 -1      3194 7.88663E-05-2.95456E-05-2.08025E-05 4.00872E-05 1.40361E-18-1.27907E-18
 -1      3195 9.52360E-05-2.85676E-05-2.85722E-05 6.81917E-09 5.65600E-19-1.52472E-18
 -1      3196 9.52369E-05-2.85683E-05-2.85722E-05 6.76934E-09 9.07848E-19 1.46629E-18
 -1      3197 9.52374E-05-2.85687E-05-2.85723E-05 7.16618E-09 8.54291E-19 2.34673E-18
 -1      3198 9.76628E-05-4.25807E-05-2.30272E-05-4.28438E-05 2.21118E-18 1.64886E-18
 -1      3199 1.15385E-04-5.27917E-05-2.71963E-05-3.74615E-05 2.60547E-18-9.13737E-19
 -1      3200 1.29256E-04-5.65179E-05-3.07867E-05-2.62120E-05 1.35390E-18-2.09214E-18
 -1      3201 1.36990E-04-5.67084E-05-3.47216E-05-1.59050E-05 1.04951E-18-2.68581E-18
 -1      3202 1.23825E-04-5.56223E-05-2.95880E-05 2.93947E-05 1.34445E-18-1.51586E-19
 -1      3203 1.10269E-04-4.86079E-05-2.60137E-05 3.63086E-05 1.63930E-18-6.48179E-19
 -1      3204 1.22090E-04-5.14513E-06-5.06173E-05-1.90859E-06-2.16385E-18-8.93881E-19
 -1      3205 1.23513E-04-8.85565E-06-4.95978E-05-8.01483E-06-1.86538E-18 2.10567E-19
 -1      3206 9.54783E-05-2.69955E-05-2.93580E-05 1.15550E-07 7.56474E-19-1.11579E-18
 -1      3207 9.55521E-05-2.66106E-05-2.95323E-05 6.89400E-07 9.74745E-19-1.07780E-18
 -1      3208 9.56167E-05-2.69005E-05-2.94494E-05 1.01845E-07 8.82878E-19-1.03791E-18
 -1      3209 1.23344E-04-1.04174E-05-4.88134E-05 9.20721E-06-1.29458E-18-1.93080E-18
 -1      3210 1.22093E-04-5.79495E-06-5.03588E-05 3.52642E-06-2.13558E-18-1.38212E-18
 -1      3211 1.16876E-04-7.92669E-06-4.69410E-05 7.46989E-07-1.47389E-18-4.52375E-19
 -1      3212 3.69897E-05-1.08488E-05-1.03357E-05-2.39118E-05-1.71143E-18-3.14779E-18
 -1      3213 9.21382E-05-1.80030E-05-3.17856E-05 4.48190E-07 4.67473E-19-2.27424E-18
 -1      3214 9.21450E-05-1.80122E-05-3.17835E-05-3.19650E-07 3.03993E-19-2.36837E-18
 -1      3215 9.30845E-05-1.95769E-05-3.14858E-05 6.85497E-07 4.90249E-19-2.10135E-18
 -1      3216 9.42362E-05-2.69656E-05-2.88169E-05-1.15569E-06 5.54597E-19-1.68802E-18
 -1      3217 9.13727E-05-3.62529E-05-2.32393E-05-3.88444E-05 2.22833E-18 1.02142E-18
 -1      3218 1.24917E-04-2.00425E-05-4.52347E-05 1.26673E-05-1.01379E-18-1.98957E-18
 -1      3219 1.24457E-04-1.49114E-05-4.73964E-05 1.14996E-05-1.04524E-18-1.95172E-18
 -1      3220 1.17597E-04-1.20115E-05-4.53864E-05 9.31176E-06-1.00617E-18-1.09533E-18
 -1      3221 1.24104E-04-1.29900E-05-4.80723E-05-1.05557E-05-1.37272E-18 9.26919E-19
 -1      3222 1.23918E-04-1.73327E-05-4.58247E-05-1.24201E-05-1.22714E-18 1.63906E-18
 -1      3223 1.17081E-04-1.08402E-05-4.57161E-05-8.09515E-06-1.01591E-18 8.57965E-19
 -1      3224 1.36626E-04-4.10852E-05-4.11015E-05 7.43047E-06-5.50836E-19-4.20009E-18
 -1      3225 1.39226E-04-3.67700E-05-4.41708E-05 9.92409E-06-8.62438E-19-4.28249E-18
 -1      3226 1.31659E-04-3.02876E-05-4.36795E-05 1.31005E-05-5.73124E-19-3.16324E-18
 -1      3227 9.26585E-05-1.84758E-05-3.18031E-05-6.50866E-06-1.14764E-18-2.53517E-18
 -1      3228 4.27049E-05-3.28999E-07-1.78093E-05-1.20307E-07-1.51803E-18 1.16435E-18
 -1      3229 4.13362E-05-1.69477E-06-1.64690E-05-1.16923E-05-1.33193E-18 4.17587E-18
 -1      3230 1.38007E-04-5.04734E-05-3.76281E-05 1.16633E-06 9.57412E-20 1.88878E-18
 -1      3231 5.73612E-05-8.90263E-06-2.06530E-05 1.93516E-05 5.78795E-19-2.76101E-18
 -1      3232 9.52315E-05-2.85653E-05-2.85713E-05 4.52866E-09-1.38145E-18-2.60165E-18
 -1      3233 9.52325E-05-2.85653E-05-2.85717E-05 4.81712E-09-6.78958E-19-1.37624E-18
 -1      3234 9.52333E-05-2.85659E-05-2.85718E-05 5.62053E-09-1.04518E-18 2.52248E-19
 -1      3235 1.37122E-04-3.35183E-05-4.45994E-05-1.11454E-05-1.75246E-18 1.91551E-18
 -1      3236 9.30402E-05-1.95328E-05-3.15100E-05-3.61908E-06-4.19471E-19-2.46097E-18
 -1      3237 9.33982E-05-2.01780E-05-3.13964E-05-4.21490E-06-7.04061E-19-2.43476E-18
 -1      3238 9.52406E-05-2.85709E-05-2.85727E-05 6.58356E-09 2.17676E-18 2.95770E-18
 -1      3239 5.08662E-05-5.17068E-06-1.91579E-05-1.56058E-05-6.82709E-19 3.84315E-18
 -1      3240 1.20924E-04-5.24096E-05-2.92000E-05-2.79609E-05 1.98926E-18-1.29215E-18
 -1      3241 9.27060E-05-1.89585E-05-3.16269E-05 3.13249E-06 1.27924E-18-1.79317E-18
 -1      3242 9.24678E-05-1.85446E-05-3.16908E-05 2.43736E-06 1.01228E-18-2.00902E-18
 -1      3243 9.32684E-05-1.99127E-05-3.14178E-05 1.84722E-06 8.36491E-19-1.83521E-18
 -1      3244 9.33478E-05-1.99087E-05-3.14671E-05-5.24111E-06-9.60179E-19-2.47303E-18
 -1      3245 9.33612E-05-2.00988E-05-3.14260E-05 4.24138E-06 1.59207E-18-1.61120E-18
 -1      3246 9.29890E-05-1.94428E-05-3.15304E-05 3.64992E-06 1.39013E-18-1.63023E-18
 -1      3247 9.36899E-05-2.06857E-05-3.12641E-05 2.85156E-06 1.19728E-18-1.55857E-18
 -1      3248 5.50124E-05-3.78710E-06-2.14856E-05-6.61980E-06-9.63239E-19 2.14016E-18
 -1      3249 5.14997E-05-2.05820E-06-2.10993E-05 2.10367E-06-1.86706E-18 8.58150E-19
 -1      3250 1.39089E-04-5.43094E-05-3.63230E-05-7.99330E-06 9.21181E-19-2.69992E-18
 -1      3251 1.37276E-04-4.94900E-05-3.78735E-05-2.58733E-07-1.50613E-20-3.62678E-18
 -1      3252 1.32578E-04-5.36504E-05-3.38718E-05-1.10593E-05 8.59063E-19-2.66107E-18
 -1      3253 7.18970E-05-2.30936E-05-2.06168E-05 3.60913E-05 1.45099E-18-2.10149E-18
 -1      3254 6.61324E-05-1.65411E-05-2.11009E-05 2.88834E-05 1.27936E-18-2.55995E-18
 -1      3255 8.22520E-05-2.76511E-05-2.31898E-05 3.26768E-05 1.69346E-18-1.09156E-18
 -1      3256 1.26809E-04-5.36853E-05-3.12280E-05 1.95509E-05 1.35655E-18 6.21682E-19
 -1      3257 9.25108E-05-1.86284E-05-3.16754E-05-2.35585E-06-7.76487E-20-2.47267E-18
 -1      3258 9.27488E-05-1.90368E-05-3.16090E-05-3.06532E-06-2.72068E-19-2.54148E-18
 -1      3259 9.37537E-05-2.08079E-05-3.12447E-05-2.81152E-06-4.14921E-19-2.30097E-18
 -1      3260 9.44328E-05-2.22095E-05-3.09239E-05 3.76599E-06 1.53050E-18-1.40864E-18
 -1      3261 9.52342E-05-2.85664E-05-2.85719E-05 6.23029E-09-3.36888E-19 7.58992E-19
 -1      3262 9.52351E-05-2.85670E-05-2.85720E-05 6.62544E-09 1.79526E-19-2.98795E-19
 -1      3263 9.52354E-05-2.85673E-05-2.85720E-05 7.13537E-09-1.12437E-19-1.40789E-18
 -1      3264 9.52334E-05-2.85662E-05-2.85716E-05 6.27613E-09-9.03356E-19 1.70048E-19
 -1      3265 1.04017E-04-4.32789E-05-2.58175E-05 3.40872E-05 1.47924E-18-7.19197E-19
 -1      3266 9.55281E-05-2.58910E-05-2.98444E-05 1.16357E-06 1.08996E-18-9.95566E-19
 -1      3267 9.54487E-05-2.60264E-05-2.97598E-05 1.33606E-06 1.25337E-18-1.10044E-18
 -1      3268 9.54446E-05-2.55899E-05-2.99129E-05 1.92548E-06 1.38373E-18-9.58141E-19
 -1      3269 9.52031E-05-2.48024E-05-3.01766E-05 2.96772E-06 1.51275E-18-9.58133E-19
 -1      3270 9.52398E-05-2.85703E-05-2.85727E-05 7.22217E-09 1.90582E-18 4.28099E-18
 -1      3271 9.39665E-05-2.71604E-05-2.86378E-05 9.95689E-08 1.19188E-18-1.18867E-18
 -1      3272 9.35743E-05-2.67711E-05-2.86410E-05 1.46719E-07 1.06855E-18-1.06944E-18
 -1      3273 9.22121E-05-1.81249E-05-3.17637E-05-9.71965E-07 1.49149E-19-2.52345E-18
 -1      3274 9.23354E-05-1.83279E-05-3.17315E-05-1.72912E-06-3.14566E-20-2.51931E-18
 -1      3275 9.33379E-05-2.00209E-05-3.14029E-05-1.72719E-06-1.07183E-19-2.47309E-18
 -1      3276 9.30448E-05-2.62781E-05-2.86235E-05 2.99185E-08 1.00666E-18-1.17059E-18
 -1      3277 9.23818E-05-2.56753E-05-2.86088E-05 5.01622E-08 9.73914E-19 3.04971E-19
 -1      3278 9.32427E-05-2.64952E-05-2.85872E-05-3.77063E-07 1.05660E-18 1.00205E-18
 -1      3279 4.77860E-05-1.05853E-06-1.94922E-05 7.27126E-06-1.62293E-18-1.29681E-18
 -1      3280 9.62228E-05-2.72103E-05-2.95659E-05-5.15874E-07-4.49450E-19-1.71720E-18
 -1      3281 9.63316E-05-2.77903E-05-2.93823E-05-1.37766E-07-3.85437E-19-1.45136E-18
 -1      3282 9.65153E-05-2.83256E-05-2.92136E-05 1.20913E-07-3.84066E-19-1.30733E-18
 -1      3283 9.66073E-05-2.87742E-05-2.90758E-05 3.15099E-07-2.37559E-19-1.23329E-18
 -1      3284 9.66031E-05-2.79379E-05-2.94313E-05-3.08096E-08-2.85247E-19-1.28708E-18
 -1      3285 9.67755E-05-2.92061E-05-2.89480E-05 4.37981E-07-3.11812E-19-1.21915E-18
 -1      3286 9.68926E-05-2.95903E-05-2.88463E-05 4.80384E-07-1.44270E-20-1.25150E-18
 -1      3287 9.69497E-05-2.89951E-05-2.91297E-05 3.85365E-07-2.54103E-19-1.28515E-18
 -1      3288 9.71002E-05-2.99841E-05-2.87532E-05 4.87263E-07 1.06905E-19-1.24496E-18
 -1      3289 9.72729E-05-3.03546E-05-2.86809E-05 3.97552E-07 1.03058E-19-1.14621E-18
 -1      3290 9.73202E-05-2.98982E-05-2.89042E-05 5.57045E-07 2.35176E-20-1.22370E-18
 -1      3291 9.75667E-05-3.07595E-05-2.86193E-05 2.95240E-07 9.88411E-20-1.29486E-18
 -1      3292 9.78167E-05-3.11496E-05-2.85735E-05 7.85416E-08 3.95488E-20-1.19939E-18
 -1      3293 9.78155E-05-3.07688E-05-2.87461E-05 5.12418E-07-1.90252E-21-1.16682E-18
 -1      3294 9.82348E-05-3.15962E-05-2.85446E-05-1.42967E-07 2.60053E-20-1.10059E-18
 -1      3295 9.85708E-05-3.20170E-05-2.85268E-05-4.95146E-07-3.56879E-20-1.03325E-18
 -1      3296 9.85211E-05-3.16960E-05-2.86540E-05 2.50217E-07 2.00152E-20-1.25308E-18
 -1      3297 9.91352E-05-3.25089E-05-2.85366E-05-8.63833E-07-3.30443E-19-8.69216E-19
 -1      3298 9.95445E-05-3.29377E-05-2.85527E-05-1.36912E-06-3.77227E-19-7.73988E-19
 -1      3299 9.94994E-05-3.27219E-05-2.86359E-05-2.67164E-07-1.38087E-19-1.12092E-18
 -1      3300 1.00245E-04-3.34357E-05-2.86130E-05-1.92627E-06-4.68630E-19-9.85968E-19
 -1      3301 1.00680E-04-3.38008E-05-2.86738E-05-2.59920E-06-3.51313E-19-1.17872E-18
 -1      3302 1.00767E-04-3.38151E-05-2.87108E-05-1.11364E-06-4.46456E-19-9.08438E-19
 -1      3303 1.01452E-04-3.42060E-05-2.88016E-05-3.38173E-06-5.19617E-19-1.31308E-18
 -1      3304 1.01822E-04-3.43757E-05-2.89205E-05-4.21147E-06-7.54520E-19-1.33478E-18
 -1      3305 1.02253E-04-3.48298E-05-2.89098E-05-2.38031E-06-6.44723E-19-1.28623E-18
 -1      3306 1.02526E-04-3.45189E-05-2.91344E-05-5.21570E-06-7.29124E-19-1.22364E-18
 -1      3307 1.02697E-04-3.43085E-05-2.93239E-05-6.13049E-06-7.12810E-19-1.10360E-18
 -1      3308 1.03761E-04-3.54716E-05-2.92721E-05-4.12382E-06-5.26364E-19-1.24102E-18
 -1      3309 1.03116E-04-3.39656E-05-2.96390E-05-7.25412E-06-2.65129E-19-1.00882E-18
 -1      3310 1.02943E-04-3.31825E-05-2.99034E-05-8.08086E-06 2.03186E-20-5.51804E-19
 -1      3311 1.04931E-04-3.52886E-05-2.98358E-05-6.27259E-06-4.72083E-19-8.54017E-19
 -1      3312 1.02842E-04-3.21606E-05-3.03164E-05-9.05245E-06-2.46873E-19-1.67283E-19
 -1      3313 1.02247E-04-3.07222E-05-3.06413E-05-9.50703E-06-3.71475E-19-4.11721E-20
 -1      3314 1.05295E-04-3.37911E-05-3.06184E-05-8.47612E-06 8.77399E-20-2.82141E-19
 -1      3315 1.01496E-04-2.89929E-05-3.11180E-05-9.89163E-06-4.33487E-19-5.15243E-20
 -1      3316 1.00561E-04-2.70653E-05-3.14633E-05-9.62642E-06-4.83986E-19 9.72458E-20
 -1      3317 1.04460E-04-3.06774E-05-3.15819E-05-1.00238E-05-3.19957E-19 2.41462E-20
 -1      3318 9.93455E-05-2.49688E-05-3.19292E-05-8.96825E-06-4.90975E-19 1.54909E-19
 -1      3319 9.83490E-05-2.30495E-05-3.22290E-05-7.76263E-06-3.74868E-19-1.03703E-19
 -1      3320 1.02463E-04-2.63040E-05-3.26119E-05-9.94335E-06-4.17681E-19 5.23230E-19
 -1      3321 9.71700E-05-2.12339E-05-3.25811E-05-5.90115E-06-6.29829E-19 1.46367E-19
 -1      3322 9.64877E-05-2.00006E-05-3.27567E-05-3.82774E-06-7.50253E-19-1.50491E-19
 -1      3323 1.00011E-04-2.18289E-05-3.35107E-05-7.47962E-06-2.78338E-19 3.33030E-19
 -1      3324 9.60613E-05-1.93345E-05-3.28793E-05-1.09479E-06-5.72700E-19 1.29227E-19
 -1      3325 9.60248E-05-1.93158E-05-3.28795E-05 1.26373E-06-6.72850E-19 4.29925E-19
 -1      3326 9.82666E-05-1.88967E-05-3.40318E-05-2.70165E-06-7.54774E-19 4.03318E-19
 -1      3327 9.64868E-05-1.99671E-05-3.27572E-05 4.01953E-06-1.02135E-18 2.77395E-19
 -1      3328 9.71213E-05-2.11671E-05-3.25880E-05 6.07787E-06-6.47263E-19-2.73304E-19
 -1      3329 9.82255E-05-1.88340E-05-3.40370E-05 2.89033E-06-9.55844E-19 9.41404E-20
 -1      3330 9.82697E-05-2.29218E-05-3.22462E-05 7.97224E-06-6.17747E-20-7.03474E-19
 -1      3331 9.92508E-05-2.48130E-05-3.19538E-05 9.20135E-06-2.65293E-19-8.77548E-19
 -1      3332 9.99149E-05-2.16807E-05-3.35220E-05 7.65974E-06-4.91208E-19-3.06702E-20
 -1      3333 1.00442E-04-2.68791E-05-3.14929E-05 9.88539E-06-8.87376E-19-8.85734E-19
 -1      3334 1.01363E-04-2.87771E-05-3.11529E-05 1.01814E-05-8.39255E-19-8.45840E-19
 -1      3335 1.02327E-04-2.61039E-05-3.26366E-05 1.01701E-05-7.00726E-19-3.92230E-19
 -1      3336 1.02078E-04-3.04675E-05-3.06790E-05 9.83184E-06-5.23511E-19-6.20560E-19
 -1      3337 1.02656E-04-3.18771E-05-3.03580E-05 9.42127E-06 2.47344E-19-3.95818E-19
 -1      3338 1.04263E-04-3.04087E-05-3.16134E-05 1.03152E-05-3.95216E-19-3.83327E-19
 -1      3339 1.02725E-04-3.28675E-05-2.99462E-05 8.49296E-06 8.24852E-20-3.07797E-19
 -1      3340 1.02878E-04-3.36220E-05-2.96845E-05 7.71470E-06 4.47847E-19-3.55807E-19
 -1      3341 1.05029E-04-3.34400E-05-3.06525E-05 8.84667E-06 5.75623E-20-2.92489E-19
 -1      3342 1.02419E-04-3.39308E-05-2.93681E-05 6.64203E-06 8.32219E-19-6.51153E-19
 -1      3343 1.02227E-04-3.41166E-05-2.91789E-05 5.78225E-06 7.22993E-19-5.92376E-19
 -1      3344 1.04592E-04-3.48732E-05-2.98693E-05 6.73176E-06 5.36475E-19 8.87257E-20
 -1      3345 1.01477E-04-3.39439E-05-2.89592E-05 4.83143E-06 3.56917E-20-5.93564E-19
 -1      3346 1.01081E-04-3.37538E-05-2.88368E-05 4.05899E-06-1.94332E-19-3.35407E-19
 -1      3347 1.03338E-04-3.49897E-05-2.92969E-05 4.68421E-06 5.69882E-19-1.10114E-19
 -1      3348 1.00256E-04-3.33236E-05-2.86980E-05 3.33036E-06-2.08952E-19 3.86644E-20
 -1      3349 9.97898E-05-3.29459E-05-2.86285E-05 2.71314E-06 7.10858E-21 2.15644E-19
 -1      3350 1.01733E-04-3.42940E-05-2.89156E-05 3.04158E-06 1.74533E-19-2.64873E-19
 -1      3351 9.90293E-05-3.24329E-05-2.85494E-05 2.20646E-06-1.66906E-19 1.67160E-19
 -1      3352 9.85842E-05-3.20057E-05-2.85170E-05 1.74921E-06 2.87732E-19 1.44257E-19
 -1      3353 1.00135E-04-3.32423E-05-2.86841E-05 1.87154E-06 8.10068E-21 5.94746E-19
 -1      3354 9.79559E-05-3.15176E-05-2.84780E-05 1.42020E-06-7.66884E-20-2.80113E-19
 -1      3355 9.75798E-05-3.11216E-05-2.84689E-05 1.09819E-06 4.71944E-19-7.18260E-19
 -1      3356 9.87453E-05-3.21455E-05-2.85579E-05 1.10580E-06-7.38443E-20 6.95035E-19
 -1      3357 9.70981E-05-3.07095E-05-2.84544E-05 8.94711E-07 5.81196E-19-1.32210E-18
 -1      3358 9.68060E-05-3.03810E-05-2.84582E-05 6.75831E-07 2.60613E-19-1.55871E-18
 -1      3359 9.76417E-05-3.11724E-05-2.84995E-05 6.34321E-07-1.62816E-20-7.58914E-19
 -1      3360 9.64574E-05-3.00590E-05-2.84572E-05 5.54374E-07 9.86038E-19-6.36331E-19
 -1      3361 9.62447E-05-2.98059E-05-2.84670E-05 4.09293E-07 1.33181E-18-1.16938E-19
 -1      3362 9.68203E-05-3.03873E-05-2.84810E-05 3.56946E-07 1.40383E-18-3.53382E-19
 -1      3363 9.60040E-05-2.95683E-05-2.84725E-05 3.38484E-07 9.26079E-19 1.29632E-19
 -1      3364 9.58571E-05-2.93839E-05-2.84840E-05 2.44062E-07-4.48669E-19 2.22924E-20
 -1      3365 9.62396E-05-2.97939E-05-2.84837E-05 1.98936E-07 1.15381E-18 3.80793E-20
 -1      3366 9.56976E-05-2.92164E-05-2.84919E-05 2.03251E-07-7.67196E-19 7.93756E-19
 -1      3367 9.56010E-05-2.90877E-05-2.85027E-05 1.42667E-07-2.51056E-19 1.35741E-18
 -1      3368 9.58466E-05-2.93673E-05-2.84959E-05 1.10477E-07-2.30285E-20 1.50559E-18
 -1      3369 9.54992E-05-2.89740E-05-2.85107E-05 1.19249E-07-7.38380E-19 1.03438E-18
 -1      3370 9.54385E-05-2.88877E-05-2.85199E-05 8.09220E-08-8.10573E-19 3.54298E-19
 -1      3371 9.55908E-05-2.90725E-05-2.85110E-05 6.10312E-08-5.58807E-19 1.81712E-18
 -1      3372 9.53761E-05-2.88131E-05-2.85269E-05 6.74568E-08-8.12828E-19 1.92784E-19
 -1      3373 9.53397E-05-2.87572E-05-2.85342E-05 4.35450E-08-4.28372E-19-1.00138E-19
 -1      3374 9.54306E-05-2.88758E-05-2.85254E-05 3.31526E-08-9.58807E-19 1.06716E-18
 -1      3375 9.53032E-05-2.87100E-05-2.85399E-05 3.57410E-08 2.28581E-19-4.52258E-19
 -1      3376 9.52826E-05-2.86750E-05-2.85454E-05 2.10894E-08 8.57617E-19-4.64208E-19
 -1      3377 9.53342E-05-2.87488E-05-2.85378E-05 1.70107E-08-6.38620E-19 2.47138E-19
 -1      3378 9.52623E-05-2.86461E-05-2.85498E-05 1.65660E-08 4.79094E-19-6.17374E-19
 -1      3379 9.52514E-05-2.86250E-05-2.85538E-05 7.81077E-09 6.45700E-19-5.05684E-19
 -1      3380 9.52789E-05-2.86694E-05-2.85476E-05 7.40196E-09 6.06924E-19-7.49488E-19
 -1      3381 9.52410E-05-2.86080E-05-2.85570E-05 5.22934E-09 1.13197E-18 5.74152E-19
 -1      3382 9.52359E-05-2.85958E-05-2.85598E-05 1.91184E-10 1.22394E-18 2.25169E-18
 -1      3383 9.52491E-05-2.86214E-05-2.85551E-05 1.58483E-09 1.60166E-18 6.87559E-19
 -1      3384 9.52312E-05-2.85863E-05-2.85621E-05-1.21517E-09 4.34013E-19 2.21721E-18
 -1      3385 9.52293E-05-2.85796E-05-2.85641E-05-3.94229E-09 9.61169E-19 2.45498E-18
 -1      3386 9.52344E-05-2.85936E-05-2.85605E-05-1.91314E-09 1.25237E-18 1.18634E-18
 -1      3387 9.52277E-05-2.85746E-05-2.85657E-05-4.62575E-09 1.04430E-18 1.26465E-18
 -1      3388 9.52276E-05-2.85712E-05-2.85670E-05-5.93918E-09 2.04588E-18 7.77637E-19
 -1      3389 9.52284E-05-2.85782E-05-2.85644E-05-3.92605E-09 3.75418E-19 3.79273E-19
 -1      3390 9.52276E-05-2.85688E-05-2.85681E-05-6.16388E-09 2.81146E-18 4.84240E-19
 -1      3391 9.52282E-05-2.85672E-05-2.85690E-05-6.61966E-09 1.62094E-18 1.28004E-18
 -1      3392 9.52270E-05-2.85703E-05-2.85672E-05-4.94389E-09 1.93719E-18 4.85409E-19
 -1      3393 9.52288E-05-2.85664E-05-2.85696E-05-6.56245E-09 1.49622E-18 1.69734E-18
 -1      3394 9.52296E-05-2.85657E-05-2.85702E-05-6.52342E-09 6.58748E-19 2.87454E-18
 -1      3395 9.52290E-05-2.85653E-05-2.85701E-05-5.24502E-09 1.46501E-18 2.22064E-18
 -1      3396 9.52277E-05-2.85667E-05-2.85689E-05-5.30575E-09 2.45082E-18 9.07586E-19
 -1      3397 8.32971E-05-1.96960E-05-2.73597E-05 5.09901E-06 2.98665E-19-1.00305E-18
 -1      3398 8.60579E-05-2.12230E-05-2.77778E-05 3.60665E-06 3.42907E-19-1.05066E-18
 -1      3399 8.77045E-05-2.23888E-05-2.80633E-05 2.15096E-06 3.75760E-19-9.79405E-19
 -1      3400 8.95588E-05-2.35842E-05-2.82752E-05 1.37781E-06 4.99035E-19-9.11195E-19
 -1      3401 8.80703E-05-2.28906E-05-2.78855E-05 4.85139E-06 3.80586E-19-5.91348E-19
 -1      3402 1.34797E-04-4.47141E-05-3.89197E-05-6.03992E-06-7.72018E-19 2.51042E-18
 -1      3403 1.31832E-04-4.93856E-05-3.53925E-05 1.67969E-06-1.06144E-19 1.56616E-18
 -1      3404 9.07725E-05-2.45126E-05-2.84406E-05 5.30773E-07 4.07281E-19-8.99675E-19
 -1      3405 9.19832E-05-2.53623E-05-2.85547E-05 1.57798E-07 4.79882E-19-8.89131E-19
 -1      3406 9.08147E-05-2.46212E-05-2.83330E-05 2.28592E-06 5.06390E-19-8.24920E-19
 -1      3407 7.77882E-05-1.70258E-05-2.61699E-05 1.00373E-05 4.01745E-19-1.02905E-18
 -1      3408 8.14149E-05-1.86841E-05-2.68809E-05 7.40700E-06 2.89510E-19-1.20921E-18
 -1      3409 8.46835E-05-2.11949E-05-2.71397E-05 8.95162E-06 4.89597E-19-6.28373E-19
 -1      3410 6.60491E-05-1.16530E-05-2.32704E-05 1.55737E-05 6.45598E-19-1.80034E-18
 -1      3411 7.26721E-05-1.42982E-05-2.50270E-05 1.25597E-05 8.31879E-19-1.14193E-18
 -1      3412 7.80935E-05-1.78574E-05-2.55638E-05 1.47907E-05 7.75440E-19-1.05528E-18
 -1      3413 6.58874E-05-1.38902E-05-2.19671E-05 2.25550E-05 1.16640E-18-2.43807E-18
 -1      3414 9.57228E-05-2.69269E-05-2.94943E-05 3.76242E-08 9.15810E-19-1.26178E-18
 -1      3415 9.57566E-05-2.65209E-05-2.96653E-05 4.69890E-07 9.03300E-19-1.12814E-18
 -1      3416 7.27031E-05-1.29930E-05-2.55282E-05-8.93850E-06 3.86085E-19 7.50948E-20
 -1      3417 6.65588E-05-1.06075E-05-2.40252E-05-1.20832E-05 2.00667E-19 5.93055E-19
 -1      3418 9.55265E-05-2.73905E-05-2.92105E-05-4.82028E-07 7.05181E-19-1.21171E-18
 -1      3419 9.56853E-05-2.72272E-05-2.93338E-05-2.17030E-07 8.66260E-19-1.12851E-18
 -1      3420 9.58255E-05-2.69048E-05-2.95335E-05 1.03518E-07 8.84945E-19-1.14979E-18
 -1      3421 9.45202E-05-2.77242E-05-2.86313E-05 1.02713E-07-3.38901E-19-9.13157E-19
 -1      3422 9.42928E-05-2.74792E-05-2.86402E-05 1.49372E-07 7.59005E-19-1.10996E-18
 -1      3423 9.40640E-05-2.72780E-05-2.86109E-05-1.47462E-07 8.96502E-19 5.24352E-19
 -1      3424 9.48453E-05-2.80754E-05-2.86186E-05 8.39923E-08-3.34311E-19-1.36988E-18
 -1      3425 9.47163E-05-2.79248E-05-2.86279E-05 1.21219E-07-2.07834E-19-1.33764E-18
 -1      3426 9.45660E-05-2.77870E-05-2.86126E-05-4.32572E-08-1.65527E-19-2.36441E-20
 -1      3427 9.50316E-05-2.82890E-05-2.86058E-05 6.23333E-08-1.05600E-18-1.25611E-18
 -1      3428 9.49602E-05-2.81985E-05-2.86136E-05 8.89782E-08-1.01433E-18-1.85603E-18
 -1      3429 9.48651E-05-2.81083E-05-2.86060E-05 1.81353E-10-1.81652E-19-1.28383E-18
 -1      3430 9.51353E-05-2.84157E-05-2.85952E-05 4.43576E-08-6.93603E-19-4.97590E-20
 -1      3431 9.50971E-05-2.83627E-05-2.86011E-05 6.21802E-08-1.16683E-18-4.35119E-19
 -1      3432 9.50388E-05-2.83058E-05-2.85975E-05 1.58229E-08-1.25789E-18-8.23208E-19
 -1      3433 9.51910E-05-2.84888E-05-2.85873E-05 3.12769E-08 3.55528E-20 5.48878E-19
 -1      3434 9.51714E-05-2.84586E-05-2.85915E-05 4.26544E-08-2.02923E-20 4.41993E-20
 -1      3435 9.51367E-05-2.84239E-05-2.85899E-05 1.95979E-08-7.50375E-19-1.85817E-20
 -1      3436 9.52195E-05-2.85297E-05-2.85817E-05 2.23931E-08-5.48492E-19 1.69852E-18
 -1      3437 9.52101E-05-2.85131E-05-2.85846E-05 2.94106E-08-1.47274E-19 4.35644E-19
 -1      3438 9.51898E-05-2.84925E-05-2.85839E-05 1.87889E-08-3.25187E-19 8.04398E-19
 -1      3439 9.52330E-05-2.85516E-05-2.85779E-05 1.65752E-08 7.11443E-19 3.00849E-18
 -1      3440 9.52291E-05-2.85429E-05-2.85798E-05 2.08077E-08 4.18043E-20 1.98988E-18
 -1      3441 9.52175E-05-2.85310E-05-2.85796E-05 1.65768E-08-5.87608E-19 1.65863E-18
 -1      3442 9.52387E-05-2.85627E-05-2.85755E-05 1.27886E-08 2.65553E-18 2.06848E-18
 -1      3443 9.52374E-05-2.85584E-05-2.85767E-05 1.53278E-08 2.02999E-18 2.69092E-18
 -1      3444 9.52309E-05-2.85517E-05-2.85766E-05 1.42112E-08 1.27984E-18 1.05421E-18
 -1      3445 9.52405E-05-2.85679E-05-2.85740E-05 1.02588E-08 1.04004E-18 1.26940E-18
 -1      3446 9.52405E-05-2.85660E-05-2.85747E-05 1.18130E-08 1.64674E-18 1.88360E-18
 -1      3447 9.52368E-05-2.85623E-05-2.85747E-05 1.20874E-08 2.59933E-18 1.24430E-18
 -1      3448 9.52405E-05-2.85699E-05-2.85731E-05 8.47085E-09 8.32273E-19 1.65844E-18
 -1      3449 9.52409E-05-2.85693E-05-2.85735E-05 9.45420E-09 9.32798E-19 1.81084E-18
 -1      3450 9.52389E-05-2.85673E-05-2.85735E-05 1.02742E-08 7.79180E-19 1.48266E-18
 -1      3451 5.63001E-05-6.91843E-06-2.10151E-05-1.61869E-05-1.06508E-19 2.77334E-18
 -1      3452 1.13727E-04-4.80816E-05-2.77296E-05-2.98026E-05 1.88393E-18-7.24544E-20
 -1      3453 1.23710E-04-5.26264E-05-3.06939E-05-2.10223E-05 9.96164E-19-1.67959E-18
 -1      3454 6.17358E-05-1.26598E-05-2.07321E-05-2.57723E-05 8.55828E-19 8.44121E-19
 -1      3455 7.11379E-05-2.08153E-05-2.17104E-05-3.26629E-05 1.86421E-18 2.89103E-19
 -1      3456 9.52286E-05-2.85648E-05-2.85702E-05-1.63046E-09 1.85498E-18 9.65806E-19
 -1      3457 9.52288E-05-2.85648E-05-2.85702E-05-1.75874E-10 1.06480E-18-4.31801E-19
 -1      3458 9.52291E-05-2.85648E-05-2.85704E-05 1.35107E-09 8.53874E-19-1.49891E-18
 -1      3459 9.52297E-05-2.85650E-05-2.85706E-05 2.69612E-09-1.38287E-19-1.65754E-18
 -1      3460 9.52282E-05-2.85653E-05-2.85698E-05 5.55427E-10 4.56848E-19-6.70945E-19
 -1      3461 9.28357E-05-2.60153E-05-2.86634E-05-3.07589E-07 4.44793E-19-1.01412E-18
 -1      3462 9.36106E-05-2.65582E-05-2.87390E-05-4.50677E-07 3.41964E-19-1.15315E-18
 -1      3463 9.27990E-05-2.59810E-05-2.86119E-05 8.11323E-07 4.40404E-19-1.19322E-18
 -1      3464 9.50365E-05-2.73979E-05-2.89989E-05-7.13415E-07 4.54436E-19-1.35112E-18
 -1      3465 9.53330E-05-2.74541E-05-2.90883E-05-5.84194E-07 5.07002E-19-1.21479E-18
 -1      3466 9.56072E-05-2.73603E-05-2.92431E-05-2.51333E-07 6.60815E-19-1.24180E-18
 -1      3467 8.48561E-05-2.99955E-05-2.31196E-05-3.54409E-05 2.41590E-18 1.57755E-18
 -1      3468 9.98416E-05-4.11831E-05-2.54549E-05-3.53552E-05 2.11234E-18 1.18976E-18
 -1      3469 9.41851E-05-2.69531E-05-2.88297E-05-6.71579E-07 5.05152E-19-1.27954E-18
 -1      3470 9.46727E-05-2.72369E-05-2.89012E-05-6.66137E-07 5.92213E-19-1.34483E-18
 -1      3471 9.50729E-05-2.73486E-05-2.90150E-05-2.85741E-07 5.41614E-19-1.34212E-18
 -1      3472 9.41707E-05-2.68908E-05-2.88186E-05 3.11644E-08 3.21314E-19-1.18385E-18
 -1      3473 1.27277E-04-2.70743E-05-4.34379E-05-1.35733E-05-1.29255E-18 1.54017E-18
 -1      3474 1.32029E-04-3.64169E-05-4.09941E-05-1.08065E-05-1.00707E-18 2.40835E-18
 -1      3475 1.27418E-04-3.78859E-05-3.83562E-05-1.01401E-05-1.03889E-18 1.68501E-18
 -1      3476 9.37094E-05-2.07663E-05-3.12603E-05-4.30237E-06-7.36778E-19-2.38526E-18
 -1      3477 9.42001E-05-2.17536E-05-3.10606E-05-4.28379E-06-8.60923E-19-2.31554E-18
 -1      3478 9.47316E-05-2.30740E-05-3.07151E-05-3.37379E-06-7.14758E-19-2.22067E-18
 -1      3479 9.42542E-05-2.19112E-05-3.10016E-05-3.34227E-06-5.74641E-19-2.22351E-18
 -1      3480 1.26974E-04-5.22993E-05-3.22675E-05 1.23137E-05 7.45918E-19 5.77256E-19
 -1      3481 1.20356E-04-5.04008E-05-2.96885E-05 2.11466E-05 1.32225E-18-8.06269E-20
 -1      3482 1.12073E-04-9.64980E-06-4.41131E-05 3.24290E-06-8.86738E-19-9.48235E-19
 -1      3483 1.12139E-04-9.34454E-06-4.42985E-05-2.24925E-06-9.88699E-19-1.15033E-19
 -1      3484 9.56309E-05-2.59519E-05-2.98768E-05 8.88891E-07 8.98366E-19-1.13207E-18
 -1      3485 9.55516E-05-2.52696E-05-3.01051E-05 1.52599E-06 1.08613E-18-1.22401E-18
 -1      3486 9.57301E-05-2.59238E-05-2.99119E-05 7.89985E-07 9.37803E-19-1.35918E-18
 -1      3487 9.57595E-05-2.56790E-05-3.00260E-05-1.53101E-06-7.18934E-19-1.88178E-18
 -1      3488 9.59574E-05-2.64846E-05-2.97839E-05-9.35707E-07-7.10291E-19-1.90642E-18
 -1      3489 9.61619E-05-2.65777E-05-2.98228E-05-7.34661E-07-4.65958E-19-1.70735E-18
 -1      3490 9.51777E-05-2.44108E-05-3.03490E-05 2.85324E-06 1.54345E-18-1.16851E-18
 -1      3491 1.09919E-04-4.59486E-05-2.76692E-05 2.80276E-05 1.44197E-18-4.92708E-19
 -1      3492 9.73749E-05-3.75209E-05-2.54655E-05 3.13444E-05 1.35142E-18-6.09692E-19
 -1      3493 9.52381E-05-2.85691E-05-2.85724E-05 7.68430E-09 1.72675E-19 2.82036E-18
 -1      3494 9.52395E-05-2.85698E-05-2.85728E-05 8.10158E-09 3.66927E-19 2.53676E-18
 -1      3495 9.52383E-05-2.85687E-05-2.85727E-05 8.89497E-09-5.39542E-19 4.89420E-19
 -1      3496 9.52369E-05-2.85684E-05-2.85723E-05 7.79361E-09-7.75100E-19-2.89534E-20
 -1      3497 9.48207E-05-2.33999E-05-3.06176E-05 2.62797E-06 1.29158E-18-1.34321E-18
 -1      3498 6.44767E-05-1.09081E-05-2.27231E-05-1.71341E-05 7.07531E-19 8.08705E-19
 -1      3499 9.48695E-05-2.34290E-05-3.06214E-05 2.23731E-06 1.21365E-18-1.34612E-18
 -1      3500 9.31075E-05-1.96117E-05-3.14806E-05-5.31518E-07 1.93640E-19-2.29786E-18
 -1      3501 8.56258E-05-2.03476E-05-2.79898E-05-2.01173E-06 6.11603E-19-1.18434E-18
 -1      3502 8.29093E-05-1.86247E-05-2.76501E-05-2.74593E-06 1.14096E-18 3.46611E-19
 -1      3503 1.25709E-04-2.48631E-05-4.34746E-05 1.35802E-05-7.34907E-19-2.31404E-18
 -1      3504 1.18939E-04-1.97536E-05-4.25716E-05 1.27470E-05-6.39245E-19-2.16544E-18
 -1      3505 1.25411E-04-2.95454E-05-4.12226E-05 1.26344E-05-2.21076E-19-2.49282E-18
 -1      3506 1.12000E-04-1.08597E-05-4.35818E-05-4.87532E-06-9.87958E-19 2.80700E-19
 -1      3507 1.12104E-04-1.31131E-05-4.24428E-05-7.89784E-06-1.05029E-18 6.73871E-19
 -1      3508 1.07937E-04-1.21868E-05-4.10991E-05-2.64928E-06-4.78362E-19 2.62779E-19
 -1      3509 1.35196E-04-4.53968E-05-3.86012E-05 4.82711E-06-6.05920E-19-3.53732E-18
 -1      3510 1.30018E-04-3.94958E-05-3.89164E-05 9.35158E-06-3.07976E-19-2.75677E-18
 -1      3511 1.31312E-04-4.74084E-05-3.60331E-05 1.09608E-06-2.43582E-19-2.78691E-18
 -1      3512 1.26574E-04-4.59689E-05-3.47336E-05-2.36951E-06-4.37261E-19 1.62464E-18
 -1      3513 1.28990E-04-5.05123E-05-3.35494E-05 4.55617E-06 3.13879E-19 1.02602E-18
 -1      3514 1.23046E-04-4.86379E-05-3.19373E-05 7.61762E-06 4.87782E-19 5.93310E-19
 -1      3515 8.02816E-05-1.68926E-05-2.71660E-05-4.46093E-06 1.19116E-18-6.64003E-19
 -1      3516 7.61764E-05-1.47778E-05-2.64480E-05-6.02801E-06 1.13082E-18-3.04300E-19
 -1      3517 7.68624E-05-1.61870E-05-2.58888E-05-1.21076E-05 1.01994E-18-1.79762E-18
 -1      3518 8.27162E-05-1.88944E-05-2.72554E-05-6.67893E-06 9.30333E-19-1.42043E-18
 -1      3519 9.51403E-05-2.39935E-05-3.04902E-05-2.73687E-06-6.32717E-19-2.05860E-18
 -1      3520 9.54540E-05-2.49844E-05-3.02103E-05-2.00569E-06-6.03952E-19-1.99315E-18
 -1      3521 9.55884E-05-2.50389E-05-3.02322E-05-1.65328E-06-6.55379E-19-1.97832E-18
 -1      3522 9.49112E-05-2.34021E-05-3.06407E-05-2.76483E-06-6.24808E-19-2.11548E-18
 -1      3523 7.38994E-05-1.89179E-05-2.36684E-05 2.38410E-05 1.48528E-18-1.48517E-18
 -1      3524 9.52304E-05-2.85652E-05-2.85708E-05 4.05182E-09-1.10777E-19-2.39960E-18
 -1      3525 9.52313E-05-2.85656E-05-2.85710E-05 5.14789E-09-8.07686E-19-1.92397E-18
 -1      3526 9.52293E-05-2.85653E-05-2.85703E-05 3.40156E-09 7.09677E-19-1.90943E-18
 -1      3527 9.52287E-05-2.85651E-05-2.85701E-05-4.11929E-09 2.39507E-18 1.65214E-18
 -1      3528 9.52286E-05-2.85649E-05-2.85701E-05-2.76053E-09 2.36752E-18 8.03122E-19
 -1      3529 9.52278E-05-2.85654E-05-2.85696E-05-2.05355E-09 2.19215E-18 9.15174E-19
 -1      3530 9.52280E-05-2.85657E-05-2.85696E-05-4.16260E-09 2.75782E-18 7.01462E-19
 -1      3531 7.12435E-05-1.56732E-05-2.37785E-05-2.09882E-05 9.26270E-19-7.04083E-19
 -1      3532 1.06597E-04-4.27192E-05-2.71838E-05-2.82898E-05 1.20832E-18 6.47970E-19
 -1      3533 8.19312E-05-2.57849E-05-2.37881E-05-3.02577E-05 1.87599E-18 1.09177E-18
 -1      3534 1.27984E-04-5.29843E-05-3.19958E-05-1.49726E-05 4.50608E-19-2.25255E-18
 -1      3535 1.28989E-04-5.11950E-05-3.33901E-05-8.19116E-06 1.21636E-19-1.72276E-18
 -1      3536 1.20804E-04-4.99614E-05-3.04460E-05-1.79735E-05 4.67470E-19-1.01632E-18
 -1      3537 9.52346E-05-2.85670E-05-2.85719E-05 7.47254E-09 9.06246E-19-1.92649E-19
 -1      3538 9.52358E-05-2.85676E-05-2.85720E-05 7.75648E-09-2.25284E-19-8.92096E-19
 -1      3539 9.52363E-05-2.85679E-05-2.85722E-05 8.32606E-09-9.84567E-19-1.01341E-19
 -1      3540 1.21012E-04-2.25880E-05-4.23069E-05-1.27725E-05-1.05691E-18 1.15715E-18
 -1      3541 9.10657E-05-3.26821E-05-2.49416E-05 3.07157E-05 1.60443E-18-8.99344E-19
 -1      3542 8.41842E-05-2.64249E-05-2.46166E-05 2.71971E-05 1.64107E-18-1.20381E-18
 -1      3543 9.81260E-05-3.55252E-05-2.66747E-05 2.48522E-05 1.37055E-18-7.67260E-19
 -1      3544 9.19446E-05-2.53415E-05-2.85146E-05-8.50090E-07 2.52210E-19 1.58569E-19
 -1      3545 9.15576E-05-2.49491E-05-2.85586E-05-1.98404E-07-2.60114E-19-1.43323E-19
 -1      3546 9.04778E-05-2.40586E-05-2.85016E-05-2.67007E-07-5.11039E-19-1.27895E-18
 -1      3547 8.92129E-05-2.30170E-05-2.83843E-05-7.70158E-07-4.74604E-19-1.74593E-18
 -1      3548 8.74754E-05-2.17381E-05-2.82347E-05-1.05369E-06 1.07318E-19-1.15436E-18
 -1      3549 8.69703E-05-2.15333E-05-2.79771E-05-3.53173E-06 1.19442E-19-6.74875E-19
 -1      3550 9.44808E-05-2.23904E-05-3.08999E-05-2.69127E-06-5.35469E-19-2.13648E-18
 -1      3551 9.47513E-05-2.29620E-05-3.07678E-05-2.74768E-06-5.79552E-19-2.17182E-18
 -1      3552 9.51221E-05-2.38630E-05-3.05452E-05-2.12589E-06-5.84479E-19-2.13668E-18
 -1      3553 9.42641E-05-2.19184E-05-3.10092E-05-2.25955E-06-3.38547E-19-2.26324E-18
 -1      3554 9.39957E-05-2.14208E-05-3.11200E-05 1.83753E-06 9.42115E-19-1.69335E-18
 -1      3555 9.38697E-05-2.11404E-05-3.11768E-05 1.32408E-06 6.74466E-19-1.71625E-18
 -1      3556 1.12279E-04-1.14050E-05-4.35098E-05 5.91228E-06-6.21907E-19-1.34527E-18
 -1      3557 1.08269E-04-1.21322E-05-4.12219E-05 3.34702E-06-1.46868E-19-2.98751E-19
 -1      3558 1.12936E-04-1.41919E-05-4.24399E-05 8.68630E-06-6.27837E-19-1.68698E-18
 -1      3559 1.13537E-04-4.58127E-05-2.89364E-05 2.07226E-05 1.30489E-18-4.89486E-19
 -1      3560 9.37958E-05-2.09929E-05-3.12135E-05 8.94123E-07 6.21956E-19-1.83903E-18
 -1      3561 9.37667E-05-2.09190E-05-3.12292E-05 3.35936E-07 4.79062E-19-2.11205E-18
 -1      3562 9.45258E-05-2.23141E-05-3.09313E-05 9.41465E-07 6.74703E-19-1.71315E-18
 -1      3563 9.45977E-05-2.26871E-05-3.08319E-05 2.29797E-06 1.19348E-18-1.35098E-18
 -1      3564 9.43655E-05-2.21878E-05-3.09362E-05 1.93240E-06 1.01267E-18-1.51248E-18
 -1      3565 9.48924E-05-2.32190E-05-3.07127E-05 1.39254E-06 1.00236E-18-1.42875E-18
 -1      3566 9.53834E-05-2.46161E-05-3.03290E-05 1.35757E-06 1.00673E-18-1.28815E-18
 -1      3567 9.46628E-05-2.79390E-05-2.85970E-05-1.81278E-07-5.26562E-20 1.01670E-18
 -1      3568 9.44671E-05-2.77552E-05-2.85979E-05-2.28647E-07 2.12751E-19 1.34248E-18
 -1      3569 9.39468E-05-2.12532E-05-3.11627E-05-1.15327E-06 9.83213E-21-2.38484E-18
 -1      3570 9.40931E-05-2.15387E-05-3.11056E-05-1.68840E-06-1.76068E-19-2.37734E-18
 -1      3571 9.35853E-05-2.69265E-05-2.85684E-05-7.08656E-07 8.46446E-19 1.98490E-18
 -1      3572 9.30612E-05-2.65017E-05-2.85456E-05-9.10340E-07 9.41147E-19 1.38398E-18
 -1      3573 9.66390E-05-2.75123E-05-2.96183E-05-1.36315E-07-1.45865E-19-1.30359E-18
 -1      3574 9.68256E-05-2.81316E-05-2.94446E-05 1.52076E-07-1.91428E-19-1.21084E-18
 -1      3575 9.70549E-05-2.87025E-05-2.92861E-05 3.56328E-07-2.31617E-19-1.24154E-18
 -1      3576 9.72266E-05-2.92049E-05-2.91535E-05 5.18503E-07-1.61046E-19-1.15476E-18
 -1      3577 9.70431E-05-2.83101E-05-2.94602E-05 2.93687E-07-1.18647E-19-9.23576E-19
 -1      3578 9.74541E-05-2.96898E-05-2.90332E-05 6.43728E-07-5.97612E-21-1.18138E-18
 -1      3579 9.76651E-05-3.01453E-05-2.89362E-05 6.99854E-07 1.53318E-19-1.15899E-18
 -1      3580 9.74886E-05-2.94240E-05-2.91778E-05 6.58362E-07 1.38930E-20-9.47702E-19
 -1      3581 9.79578E-05-3.06140E-05-2.88511E-05 7.57916E-07 1.51554E-19-1.16399E-18
 -1      3582 9.82555E-05-3.10804E-05-2.87871E-05 7.16581E-07 1.51207E-20-1.06383E-18
 -1      3583 9.79962E-05-3.04284E-05-2.89690E-05 8.92449E-07 8.00754E-20-9.54750E-19
 -1      3584 9.86769E-05-3.15897E-05-2.87380E-05 7.04262E-07-3.21172E-20-1.12219E-18
 -1      3585 9.90999E-05-3.21082E-05-2.87087E-05 5.57779E-07 2.13380E-20-1.23860E-18
 -1      3586 9.86956E-05-3.14591E-05-2.88318E-05 1.00693E-06-1.42587E-20-1.31043E-18
 -1      3587 9.97095E-05-3.26971E-05-2.87013E-05 4.48724E-07-7.65090E-20-1.07156E-18
 -1      3588 1.00280E-04-3.32823E-05-2.87137E-05 1.69270E-07-1.21293E-19-1.05393E-18
 -1      3589 9.97113E-05-3.26244E-05-2.87730E-05 9.76825E-07-9.47111E-20-1.23205E-18
 -1      3590 1.01120E-04-3.39562E-05-2.87608E-05-9.38879E-08-3.34412E-19-1.00828E-18
 -1      3591 1.01828E-04-3.45750E-05-2.88281E-05-5.53063E-07-4.95118E-19-9.36417E-19
 -1      3592 1.01148E-04-3.39816E-05-2.88116E-05 7.19965E-07-1.45655E-19-1.02563E-18
 -1      3593 1.02898E-04-3.52795E-05-2.89507E-05-1.05739E-06-5.70754E-19-9.68843E-19
 -1      3594 1.03676E-04-3.58246E-05-2.90925E-05-1.74742E-06-6.67268E-19-9.92599E-19
 -1      3595 1.03057E-04-3.54968E-05-2.89827E-05 8.69859E-08-4.75310E-19-7.38812E-19
 -1      3596 1.04892E-04-3.64106E-05-2.93206E-05-2.58862E-06-3.10438E-19-6.25942E-19
 -1      3597 1.05599E-04-3.66760E-05-2.95595E-05-3.53057E-06-1.83574E-19-5.62435E-19
 -1      3598 1.05362E-04-3.69542E-05-2.93410E-05-1.12588E-06-2.07542E-19-2.68327E-19
 -1      3599 1.06759E-04-3.68904E-05-2.99241E-05-4.75371E-06-2.80191E-19-3.05383E-19
 -1      3600 1.07172E-04-3.65727E-05-3.02807E-05-5.88946E-06-1.71888E-21 1.83557E-19
 -1      3601 1.07788E-04-3.79255E-05-2.99538E-05-3.10269E-06 2.37558E-20 1.47935E-19
 -1      3602 1.07908E-04-3.60184E-05-3.08111E-05-7.37341E-06 1.24468E-19 2.02676E-19
 -1      3603 1.07783E-04-3.48175E-05-3.12865E-05-8.43223E-06 8.67969E-20 2.68504E-19
 -1      3604 1.09766E-04-3.76432E-05-3.08894E-05-5.85532E-06 1.87717E-19 4.25534E-19
 -1      3605 1.07738E-04-3.32277E-05-3.19676E-05-9.80141E-06-4.70169E-20 2.94893E-19
 -1      3606 1.06940E-04-3.09937E-05-3.25290E-05-1.03698E-05-2.14917E-19 6.07520E-19
 -1      3607 1.10551E-04-3.54134E-05-3.21769E-05-8.85135E-06 7.33986E-20 7.44688E-19
 -1      3608 1.05851E-04-2.83401E-05-3.32952E-05-1.07704E-05-1.43360E-19 3.71103E-19
 -1      3609 1.04636E-04-2.55263E-05-3.38542E-05-1.02732E-05-2.76371E-19 5.63568E-19
 -1      3610 1.09351E-04-3.04875E-05-3.37366E-05-1.10175E-05-8.89335E-20 5.75797E-19
 -1      3611 1.02961E-04-2.25265E-05-3.45493E-05-9.18104E-06-3.34790E-19 3.51559E-19
 -1      3612 1.01685E-04-1.99353E-05-3.49958E-05-7.42112E-06-3.75964E-19 4.24387E-19
 -1      3613 1.06692E-04-2.43095E-05-3.53023E-05-1.05236E-05-3.65316E-19 1.64748E-19
 -1      3614 9.99535E-05-1.69587E-05-3.55417E-05 1.82543E-06-1.15169E-18 4.66116E-19
 -1      3615 1.00405E-04-1.79150E-05-3.54070E-05 4.65550E-06-9.04949E-19 3.55866E-19
 -1      3616 1.01672E-04-1.99231E-05-3.49862E-05 7.51887E-06-5.28400E-19 4.41930E-19
 -1      3617 1.02863E-04-2.23960E-05-3.45643E-05 9.31548E-06-4.72098E-19 3.20756E-19
 -1      3618 1.03487E-04-1.81090E-05-3.65731E-05 6.73757E-06-8.41822E-19 6.87907E-19
 -1      3619 1.04459E-04-2.53112E-05-3.38761E-05 1.05020E-05-8.52605E-19 1.99697E-19
 -1      3620 1.05696E-04-2.81185E-05-3.33197E-05 1.10085E-05-6.92507E-19 6.95311E-20
 -1      3621 1.06484E-04-2.39080E-05-3.53467E-05 1.06732E-05-8.85387E-19 7.99923E-19
 -1      3622 1.06714E-04-3.07129E-05-3.25561E-05 1.05841E-05-5.00636E-19 1.01288E-21
 -1      3623 1.07456E-04-3.28867E-05-3.19968E-05 1.00544E-05-1.73605E-19 2.05082E-19
 -1      3624 1.09186E-04-3.03125E-05-3.37534E-05 1.11409E-05-6.51966E-19 5.89669E-19
 -1      3625 1.07487E-04-3.44521E-05-3.13134E-05 8.76261E-06 4.82913E-19-2.89749E-20
 -1      3626 1.07574E-04-3.56274E-05-3.08378E-05 7.72498E-06 8.32653E-19 1.86594E-19
 -1      3627 1.10190E-04-3.49816E-05-3.21957E-05 9.09654E-06-5.08923E-20 6.30403E-19
 -1      3628 1.06778E-04-3.61228E-05-3.03065E-05 6.27983E-06 5.93035E-19 2.80023E-19
 -1      3629 1.06325E-04-3.64042E-05-2.99476E-05 5.19320E-06 6.96729E-19 4.83424E-19
 -1      3630 1.09343E-04-3.72126E-05-3.09075E-05 6.15828E-06 7.81270E-19 7.21141E-19
 -1      3631 1.05111E-04-3.61580E-05-2.95743E-05 4.01419E-06 7.87200E-19 1.19126E-19
 -1      3632 1.04358E-04-3.58631E-05-2.93277E-05 3.11703E-06 6.75044E-19 1.55340E-19
 -1      3633 1.07257E-04-3.73836E-05-2.99615E-05 3.51136E-06 4.04012E-19 4.39703E-19
 -1      3634 1.03075E-04-3.52424E-05-2.90859E-05 2.31797E-06 3.15465E-19 3.54643E-19
 -1      3635 1.02243E-04-3.46740E-05-2.89306E-05 1.67338E-06 4.55435E-19 4.77733E-19
 -1      3636 1.04709E-04-3.63407E-05-2.93252E-05 1.61606E-06 6.20913E-19-2.94515E-19
 -1      3637 1.01096E-04-3.39447E-05-2.87860E-05 1.20856E-06-3.70544E-20 2.77127E-19
 -1      3638 1.00328E-04-3.33156E-05-2.86970E-05 7.90521E-07-1.94445E-20 1.52318E-19
 -1      3639 1.02261E-04-3.48198E-05-2.89293E-05 4.74913E-07 5.35736E-20 4.08783E-19
 -1      3640 9.94081E-05-3.26366E-05-2.86176E-05 5.61136E-07-4.58194E-19 4.75243E-19
 -1      3641 9.87735E-05-3.20655E-05-2.85723E-05 3.09387E-07-5.69386E-20 2.86572E-19
 -1      3642 1.00196E-04-3.32795E-05-2.87016E-05-9.39974E-08-1.83581E-19 1.58420E-19
 -1      3643 9.80848E-05-3.15029E-05-2.85333E-05 2.19679E-07-2.12403E-19-1.43521E-19
 -1      3644 9.75985E-05-3.10367E-05-2.85149E-05 7.69625E-08-4.73294E-20-3.99358E-19
 -1      3645 9.86008E-05-3.19530E-05-2.85815E-05-3.08865E-07-2.71184E-19-6.05878E-19
 -1      3646 9.71092E-05-3.06039E-05-2.84994E-05 5.97872E-08 9.66049E-19-7.18869E-20
 -1      3647 9.67574E-05-3.02491E-05-2.84959E-05-1.73401E-08 2.06662E-18 3.34571E-19
 -1      3648 9.74386E-05-3.09086E-05-2.85263E-05-3.36854E-07 6.13026E-19-2.79282E-19
 -1      3649 9.64238E-05-2.99334E-05-2.84931E-05-3.44202E-09 2.60492E-18-3.85442E-19
 -1      3650 9.61810E-05-2.96769E-05-2.84969E-05-4.37258E-08 1.58465E-18 3.06885E-19
 -1      3651 9.66304E-05-3.01350E-05-2.85074E-05-2.84457E-07 1.96197E-18-6.73432E-19
 -1      3652 9.59617E-05-2.94560E-05-2.85000E-05-2.09941E-08 2.92538E-19 2.65028E-19
 -1      3653 9.58009E-05-2.92781E-05-2.85068E-05-4.19271E-08 2.42079E-20 8.27356E-19
 -1      3654 9.60893E-05-2.95874E-05-2.85072E-05-2.10529E-07 1.25140E-18-8.96140E-19
 -1      3655 9.56610E-05-2.91283E-05-2.85122E-05-2.07325E-08-3.67438E-19 1.10079E-18
 -1      3656 9.55584E-05-2.90088E-05-2.85195E-05-3.16403E-08-9.63915E-19 8.86089E-19
 -1      3657 9.57390E-05-2.92131E-05-2.85153E-05-1.42999E-07-5.00268E-19-4.77833E-19
 -1      3658 9.54723E-05-2.89105E-05-2.85252E-05-1.51143E-08-1.16880E-18 1.41759E-18
 -1      3659 9.54094E-05-2.88329E-05-2.85317E-05-2.11920E-08-8.72500E-19 5.13523E-19
 -1      3660 9.55190E-05-2.89643E-05-2.85260E-05-9.05333E-08-9.59464E-19-5.68978E-19
 -1      3661 9.53581E-05-2.87702E-05-2.85369E-05-9.86422E-09-1.16083E-18 7.90097E-19
 -1      3662 9.53212E-05-2.87212E-05-2.85423E-05-1.35275E-08-5.52171E-19 3.68649E-19
 -1      3663 9.53856E-05-2.88040E-05-2.85366E-05-5.41459E-08-8.37863E-19 2.13276E-19
 -1      3664 9.52919E-05-2.86823E-05-2.85465E-05-6.36269E-09 5.35200E-19 3.43990E-20
 -1      3665 9.52713E-05-2.86523E-05-2.85507E-05-8.74061E-09 1.18804E-18 2.83211E-19
 -1      3666 9.53076E-05-2.87032E-05-2.85456E-05-3.08789E-08 1.43014E-19 3.90072E-19
 -1      3667 9.52555E-05-2.86290E-05-2.85540E-05-4.53397E-09 1.18527E-18 5.56553E-19
 -1      3668 9.52449E-05-2.86113E-05-2.85571E-05-6.13845E-09 1.57890E-18 9.40998E-19
 -1      3669 9.52640E-05-2.86416E-05-2.85530E-05-1.70126E-08 1.40821E-18 8.82807E-19
 -1      3670 9.52371E-05-2.85978E-05-2.85596E-05-3.83226E-09 1.33448E-18 7.53147E-19
 -1      3671 9.52323E-05-2.85878E-05-2.85618E-05-4.89949E-09 5.76196E-19 8.43194E-19
 -1      3672 9.52413E-05-2.86052E-05-2.85586E-05-9.33552E-09 1.37725E-18 3.95152E-19
 -1      3673 9.52290E-05-2.85804E-05-2.85636E-05-3.72599E-09 5.06309E-19 9.64345E-19
 -1      3674 9.52274E-05-2.85751E-05-2.85652E-05-4.39572E-09 8.64739E-19 1.02142E-18
 -1      3675 9.52307E-05-2.85845E-05-2.85628E-05-5.40385E-09 7.08244E-19 3.18112E-19
 -1      3676 9.52266E-05-2.85713E-05-2.85665E-05-3.84020E-09 1.71219E-18 1.26292E-18
 -1      3677 9.52266E-05-2.85687E-05-2.85676E-05-4.17393E-09 1.87304E-18 8.75349E-19
 -1      3678 9.52269E-05-2.85734E-05-2.85658E-05-3.60621E-09 1.39904E-18 6.14719E-19
 -1      3679 8.89460E-05-2.41788E-05-2.78197E-05 6.91701E-06 2.84051E-19-4.65441E-19
 -1      3680 9.05063E-05-2.48692E-05-2.80967E-05 5.19105E-06 4.24920E-19-5.15747E-19
 -1      3681 8.60709E-05-2.31549E-05-2.70976E-05 1.15126E-05 8.30989E-19-4.21358E-19
 -1      3682 8.83362E-05-2.39110E-05-2.75558E-05 8.97036E-06 6.44446E-19-3.28053E-19
 -1      3683 9.09910E-05-2.61103E-05-2.78122E-05 9.23107E-06 4.50519E-19-3.96928E-19
 -1      3684 8.21321E-05-2.36142E-05-2.51226E-05 2.24008E-05 1.38630E-18-1.37700E-18
 -1      3685 9.57102E-05-2.74955E-05-2.92472E-05-4.83643E-08 5.28778E-19-1.09998E-18
 -1      3686 9.58997E-05-2.73398E-05-2.93778E-05 4.36346E-08 6.80338E-19-1.01801E-18
 -1      3687 9.42486E-05-2.75364E-05-2.85921E-05-3.65857E-07 1.26026E-18 8.33657E-19
 -1      3688 9.39241E-05-2.72520E-05-2.85859E-05-4.65644E-07 1.43117E-18 1.46506E-18
 -1      3689 9.38732E-05-2.72241E-05-2.85525E-05-9.30129E-07 1.49006E-18 6.19811E-19
 -1      3690 9.44089E-05-2.77106E-05-2.85775E-05-5.06943E-07 3.45842E-19 1.71000E-18
 -1      3691 9.48360E-05-2.29823E-05-3.07824E-05-1.65867E-06-2.32654E-19-2.20258E-18
 -1      3692 9.52272E-05-2.85659E-05-2.85691E-05-4.47457E-10 1.27040E-18-1.64071E-19
 -1      3693 9.52277E-05-2.85659E-05-2.85693E-05 9.64265E-10 9.61165E-19-1.58728E-18
 -1      3694 9.59324E-05-2.70416E-05-2.95357E-05 1.20159E-07 7.01100E-19-1.25158E-18
 -1      3695 9.59648E-05-2.66453E-05-2.97037E-05 3.74626E-07 8.08176E-19-1.27113E-18
 -1      3696 9.60609E-05-2.71326E-05-2.95353E-05 2.78748E-07 6.36099E-19-1.19834E-18
 -1      3697 9.49141E-05-2.81963E-05-2.85942E-05-8.39909E-08-4.10707E-19 7.21583E-19
 -1      3698 9.47989E-05-2.80808E-05-2.85976E-05-1.05225E-07 6.22276E-20 8.64260E-19
 -1      3699 9.47496E-05-2.80393E-05-2.85854E-05-2.67881E-07 9.29063E-21 1.92570E-18
 -1      3700 9.50622E-05-2.83557E-05-2.85891E-05-3.36506E-08-1.22254E-18 2.57846E-19
 -1      3701 9.49963E-05-2.82853E-05-2.85928E-05-4.23750E-08-8.95973E-19 3.15980E-19
 -1      3702 9.49594E-05-2.82529E-05-2.85856E-05-1.35136E-07-3.80840E-19 2.22811E-18
 -1      3703 9.51466E-05-2.84513E-05-2.85841E-05-8.42415E-09-7.14666E-19 4.41866E-19
 -1      3704 9.51102E-05-2.84097E-05-2.85872E-05-1.13533E-08-1.13124E-18-3.63218E-19
 -1      3705 9.50845E-05-2.83868E-05-2.85830E-05-6.26342E-08-5.81593E-19 1.34773E-18
 -1      3706 9.51930E-05-2.85069E-05-2.85800E-05 3.52815E-09-8.92829E-19 1.27012E-18
 -1      3707 9.51737E-05-2.84831E-05-2.85824E-05 3.09845E-09-7.41523E-19 1.10311E-18
 -1      3708 9.51565E-05-2.84677E-05-2.85799E-05-2.42133E-08-1.00635E-18 1.03248E-18
 -1      3709 9.52175E-05-2.85382E-05-2.85770E-05 8.64318E-09 1.01220E-20 1.41949E-18
 -1      3710 9.52078E-05-2.85250E-05-2.85787E-05 9.18421E-09-3.13688E-19 1.21853E-18
 -1      3711 9.51966E-05-2.85151E-05-2.85772E-05-4.65743E-09-2.49068E-19 1.99809E-18
 -1      3712 9.52297E-05-2.85549E-05-2.85750E-05 1.03118E-08 2.12871E-18 4.16431E-19
 -1      3713 9.52251E-05-2.85480E-05-2.85761E-05 1.11544E-08 2.34180E-19 1.03621E-18
 -1      3714 9.52179E-05-2.85418E-05-2.85752E-05 4.65004E-09 6.64789E-19 1.13692E-18
 -1      3715 9.52352E-05-2.85634E-05-2.85737E-05 1.02893E-08 1.44213E-18 1.83666E-18
 -1      3716 9.52334E-05-2.85600E-05-2.85744E-05 1.11696E-08 3.15860E-18 1.20568E-18
 -1      3717 9.52287E-05-2.85562E-05-2.85738E-05 8.50652E-09 1.58731E-18 1.94832E-18
 -1      3718 9.52373E-05-2.85672E-05-2.85729E-05 9.51940E-09 1.12102E-18 5.47610E-19
 -1      3719 9.52368E-05-2.85658E-05-2.85733E-05 1.03163E-08 1.50014E-18 1.45798E-18
 -1      3720 9.52338E-05-2.85635E-05-2.85729E-05 9.55645E-09 1.85279E-18 2.47467E-18
 -1      3721 7.79622E-05-2.12310E-05-2.41821E-05-2.51381E-05 1.18084E-18 7.33842E-19
 -1      3722 8.88446E-05-3.02300E-05-2.53517E-05-2.82990E-05 1.45948E-18 2.67903E-18
 -1      3723 1.21491E-04-3.39536E-05-3.78562E-05-1.17230E-05-8.58547E-19 5.11485E-19
 -1      3724 1.24877E-04-3.98339E-05-3.62638E-05-8.82937E-06-7.41425E-19 1.09869E-18
 -1      3725 7.95771E-05-2.01972E-05-2.52327E-05-1.97984E-05 9.62583E-19 1.92111E-19
 -1      3726 9.29698E-05-2.63668E-05-2.85784E-05 1.80364E-06 5.22253E-19-9.57367E-19
 -1      3727 9.38037E-05-2.68258E-05-2.86949E-05 1.22376E-06 4.42536E-19-1.11070E-18
 -1      3728 8.62027E-05-2.47784E-05-2.62764E-05 1.80834E-05 1.17082E-18-8.42401E-19
 -1      3729 9.58295E-05-2.61147E-05-2.98896E-05 5.85597E-07 9.65103E-19-1.31646E-18
 -1      3730 9.56971E-05-2.54464E-05-3.01063E-05 1.01942E-06 9.48114E-19-1.26545E-18
 -1      3731 9.54898E-05-2.47633E-05-3.03022E-05 1.11248E-06 1.00563E-18-1.21238E-18
 -1      3732 9.59547E-05-2.62105E-05-2.98844E-05 5.60467E-07 8.27070E-19-1.41321E-18
 -1      3733 9.52323E-05-2.85659E-05-2.85713E-05 6.18535E-09-1.07982E-18-1.50220E-18
 -1      3734 9.52334E-05-2.85664E-05-2.85716E-05 6.86492E-09 1.69080E-19-1.07450E-18
 -1      3735 9.52337E-05-2.85666E-05-2.85716E-05 7.54244E-09 9.29962E-19-4.61100E-19
 -1      3736 9.52312E-05-2.85657E-05-2.85709E-05 5.80748E-09 1.22749E-19-1.44845E-18
 -1      3737 9.60659E-05-2.59524E-05-3.00424E-05-8.73371E-07-4.15193E-19-1.56140E-18
 -1      3738 9.63375E-05-2.67729E-05-2.98199E-05-4.41039E-07-2.52171E-19-1.46005E-18
 -1      3739 9.65220E-05-2.69337E-05-2.98235E-05-2.34352E-07-1.13010E-19-1.30459E-18
 -1      3740 9.37813E-05-2.09486E-05-3.12257E-05-1.36436E-07 3.72028E-19-2.11290E-18
 -1      3741 9.38419E-05-2.10552E-05-3.12048E-05-6.96536E-07 2.08737E-19-2.29087E-18
 -1      3742 9.46116E-05-2.24276E-05-3.09190E-05-7.17055E-07 1.65346E-19-2.09907E-18
 -1      3743 9.45155E-05-2.22174E-05-3.09642E-05 1.39240E-07 4.63938E-19-1.95503E-18
 -1      3744 1.15774E-04-4.64540E-05-2.98567E-05 1.50337E-05 1.20718E-18 3.55132E-19
 -1      3745 1.08017E-04-4.18803E-05-2.82407E-05 2.04414E-05 1.35297E-18-4.38197E-19
 -1      3746 1.14806E-04-1.89271E-05-4.13637E-05-1.14641E-05-1.10006E-18 5.51993E-19
 -1      3747 1.18166E-04-2.61082E-05-3.93333E-05-1.30775E-05-1.27534E-18 3.19262E-19
 -1      3748 1.10090E-04-1.79585E-05-3.95859E-05-9.03022E-06-1.07710E-18 8.63113E-20
 -1      3749 1.00478E-04-3.76267E-05-2.66761E-05-2.69571E-05 1.21329E-18 1.65089E-18
 -1      3750 1.10569E-04-4.44392E-05-2.85037E-05-2.27572E-05 5.52672E-19 4.41688E-19
 -1      3751 9.11875E-05-2.53229E-05-2.82784E-05 3.73999E-06 3.98591E-19-7.67317E-19
 -1      3752 9.23649E-05-2.59447E-05-2.84480E-05 2.71136E-06 4.45978E-19-8.17098E-19
 -1      3753 9.35414E-05-2.69220E-05-2.85399E-05 3.07583E-06 3.36007E-19-3.92527E-19
 -1      3754 9.22924E-05-2.63905E-05-2.82344E-05 5.53730E-06 3.49048E-19-2.96809E-19
 -1      3755 9.52366E-05-2.85678E-05-2.85723E-05 8.66010E-09-3.79153E-19 5.94724E-19
 -1      3756 9.52372E-05-2.85677E-05-2.85726E-05 9.28098E-09 2.25017E-19 4.72488E-19
 -1      3757 9.52352E-05-2.85663E-05-2.85724E-05 9.18977E-09 6.70983E-19 1.11232E-18
 -1      3758 9.52350E-05-2.85670E-05-2.85720E-05 8.49526E-09-1.47550E-19 6.89528E-19
 -1      3759 9.52273E-05-2.85665E-05-2.85689E-05 1.41410E-09 1.79569E-18-2.25121E-18
 -1      3760 9.52281E-05-2.85656E-05-2.85697E-05 2.35115E-09 1.06854E-18-2.53458E-18
 -1      3761 9.52289E-05-2.85657E-05-2.85700E-05 3.67167E-09 1.82270E-18-2.32200E-18
 -1      3762 9.30684E-05-2.65442E-05-2.84937E-05-1.65934E-06-1.65695E-19 8.97698E-22
 -1      3763 9.25640E-05-2.60467E-05-2.85056E-05-1.32794E-06-2.18330E-19 7.90437E-19
 -1      3764 9.17532E-05-2.54484E-05-2.84490E-05-1.71231E-06-2.85057E-19 8.19825E-19
 -1      3765 1.05218E-04-1.33206E-05-3.95645E-05 2.28725E-08-4.04141E-19 9.16417E-20
 -1      3766 1.04846E-04-1.37174E-05-3.90302E-05-2.77005E-06-9.56644E-19 5.59753E-21
 -1      3767 1.29465E-04-4.94838E-05-3.43261E-05-2.87933E-06-1.27158E-19-2.21522E-18
 -1      3768 1.27225E-04-4.54539E-05-3.50243E-05 2.66642E-06-6.79612E-19-2.62631E-18
 -1      3769 1.25025E-04-4.91887E-05-3.25728E-05-6.97193E-06-7.61651E-19-1.69057E-18
 -1      3770 1.03419E-04-1.74176E-05-3.68946E-05-5.10132E-06-8.00780E-19-7.67941E-19
 -1      3771 1.00464E-04-1.72739E-05-3.56932E-05-3.10506E-06-6.66426E-19 5.39686E-20
 -1      3772 1.22508E-04-4.20098E-05-3.45092E-05-5.38330E-06-1.25675E-19 1.53154E-18
 -1      3773 8.59324E-05-2.15539E-05-2.75522E-05-7.56041E-06 2.41107E-19 6.60345E-19
 -1      3774 8.34427E-05-2.04763E-05-2.70768E-05-9.79725E-06 9.80262E-19-3.35531E-19
 -1      3775 1.00105E-04-1.66633E-05-3.57882E-05-2.79730E-07-1.10690E-18 1.94493E-19
 -1      3776 1.02365E-04-1.53315E-05-3.72580E-05 1.87357E-06-5.97572E-19-1.15476E-19
 -1      3777 9.52268E-05-2.85674E-05-2.85683E-05-4.04170E-09 1.23165E-18 7.66992E-19
 -1      3778 9.52274E-05-2.85663E-05-2.85690E-05-4.14735E-09 2.19976E-18 5.46705E-19
 -1      3779 9.52272E-05-2.85662E-05-2.85690E-05-3.07911E-09 1.98192E-18 1.20546E-18
 -1      3780 9.52265E-05-2.85683E-05-2.85678E-05-3.03015E-09 1.25597E-18 1.14007E-18
 -1      3781 9.55290E-05-2.75713E-05-2.91196E-05 4.01032E-08 5.84507E-19-1.10350E-18
 -1      3782 9.58579E-05-2.76082E-05-2.92444E-05 3.00853E-07 5.38139E-19-9.05719E-19
 -1      3783 9.51699E-05-2.75089E-05-2.90133E-05 1.20921E-07 4.82371E-19-1.04613E-18
 -1      3784 1.16358E-04-2.94536E-05-3.72404E-05-1.19916E-05-7.97625E-19 2.15398E-19
 -1      3785 9.08358E-05-2.79673E-05-2.68556E-05 1.76959E-05 1.35159E-18-6.57820E-19
 -1      3786 9.57527E-05-3.29962E-05-2.67347E-05-2.34201E-05 1.05421E-18 1.92229E-18
 -1      3787 9.45867E-05-2.74098E-05-2.87797E-05 1.55710E-06 3.60181E-19-8.84754E-19
 -1      3788 9.42757E-05-2.71195E-05-2.88040E-05 6.85892E-07 3.78613E-19-1.20087E-18
 -1      3789 9.48401E-05-2.73839E-05-2.89034E-05 3.99366E-07 4.04353E-19-1.04470E-18
 -1      3790 1.15233E-04-4.63668E-05-2.93502E-05-1.90832E-05-6.33687E-20-3.05552E-19
 -1      3791 1.18484E-04-4.74792E-05-3.04647E-05-1.41858E-05-3.71527E-19-3.01352E-19
 -1      3792 1.09133E-04-4.22495E-05-2.86916E-05-1.88743E-05-5.38164E-19 5.10352E-19
 -1      3793 9.52272E-05-2.85660E-05-2.85691E-05-2.02272E-09 1.09237E-18 1.40074E-18
 -1      3794 1.03555E-04-3.89478E-05-2.76873E-05 2.15143E-05 1.38415E-18-9.80408E-19
 -1      3795 9.73318E-05-3.42069E-05-2.71501E-05 2.09277E-05 1.48401E-18-8.43460E-19
 -1      3796 1.07060E-04-4.00926E-05-2.86089E-05 1.61017E-05 1.42597E-18-3.35080E-19
 -1      3797 1.20029E-04-4.60300E-05-3.18007E-05 3.51214E-06 9.52436E-19 1.48241E-18
 -1      3798 1.19340E-04-4.71751E-05-3.07887E-05 9.68632E-06 1.32178E-18 5.48173E-19
 -1      3799 1.13999E-04-4.43130E-05-2.99273E-05 1.08407E-05 1.43970E-18 7.67709E-19
 -1      3800 8.99470E-05-2.37098E-05-2.83422E-05-1.77963E-06-5.68175E-19-1.01924E-18
 -1      3801 9.53681E-05-2.42874E-05-3.04635E-05 1.14699E-06 9.70253E-19-1.35533E-18
 -1      3802 9.50803E-05-2.35941E-05-3.06358E-05 1.07044E-06 8.67401E-19-1.53657E-18
 -1      3803 9.56744E-05-2.51499E-05-3.02333E-05 8.16022E-07 8.63622E-19-1.28674E-18
 -1      3804 1.05181E-04-1.40277E-05-3.91301E-05 2.69685E-06-1.42566E-19-2.66521E-19
 -1      3805 8.27389E-05-2.02593E-05-2.66800E-05-1.24188E-05 1.48352E-18-9.53943E-19
 -1      3806 7.95557E-05-1.93921E-05-2.58327E-05-1.61203E-05 9.78356E-19-6.04067E-19
 -1      3807 8.54370E-05-2.46120E-05-2.61620E-05-1.98585E-05 1.10364E-18 1.44934E-18
 -1      3808 8.64028E-05-2.32978E-05-2.70580E-05-1.32634E-05 7.09627E-19 1.43746E-18
 -1      3809 1.24988E-04-3.83071E-05-3.71335E-05 9.29057E-06-5.70272E-19-2.13958E-18
 -1      3810 1.26088E-04-3.46326E-05-3.92931E-05 1.17719E-05-4.64154E-19-2.10975E-18
 -1      3811 1.20220E-04-2.89045E-05-3.91676E-05 1.28517E-05-5.60173E-19-2.86513E-18
 -1      3812 9.54786E-05-2.45964E-05-3.03747E-05-1.68326E-06-5.07305E-19-2.01869E-18
 -1      3813 9.57653E-05-2.53402E-05-3.01889E-05-1.20254E-06-5.09855E-19-1.85670E-18
 -1      3814 9.59331E-05-2.55154E-05-3.01797E-05-8.76525E-07-3.10234E-19-1.64600E-18
 -1      3815 9.53087E-05-2.41492E-05-3.04981E-05-1.66171E-06-4.30884E-19-2.16246E-18
 -1      3816 8.88523E-05-2.32834E-05-2.80832E-05-4.35370E-06-9.44997E-19 7.61172E-19
 -1      3817 8.70574E-05-2.22862E-05-2.78349E-05-5.64511E-06-1.16824E-19 6.66623E-19
 -1      3818 8.82985E-05-2.35790E-05-2.77110E-05-8.35039E-06-1.84796E-19 1.94726E-18
 -1      3819 9.52267E-05-2.85670E-05-2.85685E-05-1.58265E-09 1.41348E-18 8.27975E-19
 -1      3820 9.50430E-05-2.34844E-05-3.06759E-05 7.43854E-07 7.26721E-19-1.67087E-18
 -1      3821 9.51933E-05-2.37845E-05-3.06077E-05-1.22578E-06-2.06890E-19-2.10763E-18
 -1      3822 1.14696E-04-2.06333E-05-4.03792E-05 1.17118E-05-7.80197E-20-2.29329E-18
 -1      3823 1.14091E-04-1.69506E-05-4.18563E-05 1.06196E-05-6.47993E-19-1.90471E-18
 -1      3824 1.06057E-04-1.70188E-05-3.82662E-05-7.47727E-06-1.00258E-18-1.35548E-19
 -1      3825 1.18289E-04-3.84729E-05-3.42789E-05-8.48453E-06-1.46097E-19 1.33227E-18
 -1      3826 1.20605E-04-4.34694E-05-3.30030E-05-3.07548E-06 4.79447E-19 1.96632E-18
 -1      3827 9.52264E-05-2.85681E-05-2.85678E-05-1.61252E-09 1.99938E-18 1.26735E-18
 -1      3828 9.74480E-05-2.90762E-05-2.92975E-05 6.66070E-07-1.11637E-19-9.98374E-19
 -1      3829 9.76772E-05-2.95980E-05-2.91740E-05 8.34566E-07 6.58836E-20-1.03889E-18
 -1      3830 9.79304E-05-3.01015E-05-2.90631E-05 1.01062E-06 6.89349E-20-1.03061E-18
 -1      3831 9.82258E-05-3.06037E-05-2.89751E-05 1.12767E-06 4.03166E-20-1.16542E-18
 -1      3832 9.78086E-05-2.97616E-05-2.91718E-05 1.04888E-06-9.96520E-20-1.08253E-18
 -1      3833 9.85730E-05-3.11188E-05-2.88996E-05 1.29789E-06-1.82306E-20-1.20411E-18
 -1      3834 9.89989E-05-3.16681E-05-2.88482E-05 1.36645E-06-1.12457E-19-1.20714E-18
 -1      3835 9.83897E-05-3.07986E-05-2.89822E-05 1.45464E-06-4.63048E-20-8.64526E-19
 -1      3836 9.95258E-05-3.22648E-05-2.88120E-05 1.52206E-06-3.89791E-20-1.12369E-18
 -1      3837 1.00142E-04-3.29162E-05-2.88031E-05 1.52128E-06 5.64525E-20-1.09403E-18
 -1      3838 9.92404E-05-3.19322E-05-2.88666E-05 1.86835E-06-4.24999E-20-8.17719E-19
 -1      3839 1.00945E-04-3.36560E-05-2.88161E-05 1.61790E-06 1.33006E-19-1.06381E-18
 -1      3840 1.01795E-04-3.44361E-05-2.88631E-05 1.48868E-06-4.94910E-20-7.60192E-19
 -1      3841 1.00543E-04-3.33214E-05-2.88382E-05 2.25043E-06 7.68110E-20-8.71046E-19
 -1      3842 1.02940E-04-3.53245E-05-2.89470E-05 1.42783E-06-1.48165E-19-5.77190E-19
 -1      3843 1.04022E-04-3.61933E-05-2.90728E-05 1.08403E-06-2.04213E-19-4.38618E-19
 -1      3844 1.02467E-04-3.50496E-05-2.89289E-05 2.45081E-06 4.35833E-20-4.78435E-19
 -1      3845 1.05567E-04-3.71942E-05-2.92617E-05 7.10185E-07-1.50410E-19-1.65700E-19
 -1      3846 1.06797E-04-3.79947E-05-2.95014E-05 1.02124E-08-1.02725E-19 9.66908E-20
 -1      3847 1.05142E-04-3.71234E-05-2.91953E-05 2.24921E-06 1.49965E-19-2.10587E-19
 -1      3848 1.08614E-04-3.88693E-05-2.98481E-05-8.33392E-07 8.52343E-20 3.56472E-19
 -1      3849 1.09787E-04-3.93291E-05-3.02298E-05-1.94593E-06 3.80459E-19 4.34203E-19
 -1      3850 1.08494E-04-3.91756E-05-2.97290E-05 1.14647E-06 1.01167E-19 5.19579E-19
 -1      3851 1.13644E-04-3.86137E-05-3.21571E-05-6.82385E-06 1.78009E-19 7.95060E-19
 -1      3852 1.13629E-04-3.69726E-05-3.28996E-05-8.21127E-06 1.49645E-19 7.00059E-19
 -1      3853 1.14874E-04-3.48591E-05-3.43144E-05-1.05467E-05-4.00944E-19 7.62764E-19
 -1      3854 1.13702E-04-3.12767E-05-3.52714E-05-1.13384E-05-4.96851E-19 7.00351E-19
 -1      3855 1.10268E-04-2.55343E-05-3.64591E-05-1.16955E-05-3.68668E-19-1.21301E-19
 -1      3856 1.08568E-04-2.13945E-05-3.72833E-05-1.08275E-05-7.67594E-19 1.34286E-19
 -1      3857 1.12095E-04-3.04096E-05-3.49959E-05 1.13994E-05-9.45970E-19 4.07500E-19
 -1      3858 1.13145E-04-3.37586E-05-3.40939E-05 1.07223E-05-1.10524E-18 2.20028E-19
 -1      3859 1.13162E-04-3.61634E-05-3.30057E-05 8.77201E-06-5.11935E-19 3.99498E-19
 -1      3860 1.13195E-04-3.79896E-05-3.22322E-05 7.38336E-06 3.58812E-19 7.84884E-19
 -1      3861 1.16464E-04-3.67008E-05-3.41309E-05 9.33420E-06-5.83993E-19-8.40485E-19
 -1      3862 1.11900E-04-3.87290E-05-3.13956E-05 5.23833E-06 3.00432E-19 3.29901E-19
 -1      3863 1.11111E-04-3.91136E-05-3.08138E-05 3.87236E-06 9.54501E-19 3.23564E-19
 -1      3864 1.14967E-04-4.02119E-05-3.21125E-05 4.87196E-06 9.41617E-20-8.05260E-20
 -1      3865 1.09234E-04-3.87453E-05-3.02409E-05 2.26955E-06 3.90081E-19-3.39537E-19
 -1      3866 1.07991E-04-3.82486E-05-2.98425E-05 1.24334E-06-1.64212E-20-7.35639E-19
 -1      3867 1.11702E-04-4.03231E-05-3.06473E-05 1.23610E-06 3.45731E-19-1.40306E-18
 -1      3868 1.06118E-04-3.73644E-05-2.94805E-05 3.61326E-07 2.35291E-19-1.37087E-18
 -1      3869 1.04800E-04-3.65117E-05-2.92265E-05-2.84515E-07 5.41426E-19-1.78707E-18
 -1      3870 1.07825E-04-3.86359E-05-2.97006E-05-9.39629E-07-3.26565E-19-2.63482E-18
 -1      3871 1.03193E-04-3.54985E-05-2.90143E-05-6.30675E-07 5.42313E-19-1.92918E-18
 -1      3872 1.02018E-04-3.45998E-05-2.88648E-05-9.57186E-07 4.34748E-19-1.42386E-18
 -1      3873 1.04281E-04-3.63914E-05-2.91281E-05-1.93521E-06 8.04667E-19-3.93994E-18
 -1      3874 1.00788E-04-3.36945E-05-2.87490E-05-9.74111E-07-1.46524E-19-1.09649E-18
 -1      3875 9.98493E-05-3.29161E-05-2.86670E-05-1.09614E-06-2.27594E-19-1.41470E-18
 -1      3876 1.01427E-04-3.42592E-05-2.88082E-05-2.08985E-06 1.02359E-19-3.72487E-18
 -1      3877 9.89636E-05-3.21931E-05-2.86082E-05-9.65713E-07-6.97081E-19-1.21277E-18
 -1      3878 9.82643E-05-3.15801E-05-2.85679E-05-9.77014E-07-1.09386E-19-1.42183E-18
 -1      3879 9.93228E-05-3.25284E-05-2.86397E-05-1.84079E-06-3.59973E-19-2.28138E-18
 -1      3880 9.76569E-05-3.10413E-05-2.85417E-05-8.01772E-07 6.80931E-19-8.73296E-19
 -1      3881 9.71621E-05-3.05888E-05-2.85252E-05-7.64756E-07 1.10721E-18-1.11222E-19
 -1      3882 9.78489E-05-3.12298E-05-2.85590E-05-1.44496E-06 5.61084E-19-1.02525E-18
 -1      3883 9.67605E-05-3.02065E-05-2.85165E-05-5.99762E-07 1.71500E-18-5.04215E-19
 -1      3884 9.64246E-05-2.98874E-05-2.85127E-05-5.50073E-07 1.95211E-18-9.11530E-19
 -1      3885 9.68605E-05-3.03092E-05-2.85265E-05-1.04915E-06 1.08447E-18 9.88890E-20
 -1      3886 9.61663E-05-2.96250E-05-2.85124E-05-4.16572E-07 1.28079E-18-1.13781E-18
 -1      3887 9.59467E-05-2.94082E-05-2.85147E-05-3.70352E-07 4.10186E-19-8.46371E-19
 -1      3888 9.62180E-05-2.96804E-05-2.85186E-05-7.18419E-07 1.20328E-18-1.81251E-18
 -1      3889 9.57846E-05-2.92339E-05-2.85181E-05-2.73274E-07-3.85239E-19-1.86358E-18
 -1      3890 9.56444E-05-2.90892E-05-2.85229E-05-2.37486E-07-9.24023E-19-2.00231E-18
 -1      3891 9.58120E-05-2.92650E-05-2.85217E-05-4.68228E-07-7.49406E-19-3.36409E-18
 -1      3892 9.55462E-05-2.89761E-05-2.85275E-05-1.69028E-07-1.27224E-18-1.75681E-18
 -1      3893 9.54602E-05-2.88833E-05-2.85327E-05-1.44289E-07-6.33707E-19-1.69025E-18
 -1      3894 9.55605E-05-2.89929E-05-2.85297E-05-2.90541E-07-7.56820E-19-3.04516E-18
 -1      3895 9.54016E-05-2.88112E-05-2.85371E-05-9.98286E-08-3.05872E-19-1.69988E-18
 -1      3896 9.53505E-05-2.87527E-05-2.85419E-05-8.38365E-08-7.78792E-19-1.29497E-18
 -1      3897 9.54103E-05-2.88217E-05-2.85383E-05-1.73033E-07-6.45371E-19-3.54760E-18
 -1      3898 9.53168E-05-2.87078E-05-2.85457E-05-5.59996E-08-1.38841E-19-6.52006E-19
 -1      3899 9.52877E-05-2.86719E-05-2.85496E-05-4.63672E-08 1.56606E-18-5.69765E-20
 -1      3900 9.53221E-05-2.87146E-05-2.85462E-05-9.82543E-08 3.42219E-19-2.05795E-18
 -1      3901 9.52692E-05-2.86447E-05-2.85527E-05-2.97646E-08 1.75625E-18 8.32485E-19
 -1      3902 9.52534E-05-2.86233E-05-2.85558E-05-2.43727E-08 1.35394E-18 3.92199E-19
 -1      3903 9.52724E-05-2.86492E-05-2.85528E-05-5.28247E-08 2.11099E-18-4.41643E-19
 -1      3904 9.52440E-05-2.86072E-05-2.85582E-05-1.49740E-08 1.56631E-18 6.63518E-19
 -1      3905 9.52362E-05-2.85949E-05-2.85606E-05-1.21954E-08 1.88606E-18 2.77642E-19
 -1      3906 9.52460E-05-2.86104E-05-2.85581E-05-2.65805E-08 1.61416E-18 2.42989E-19
 -1      3907 9.52318E-05-2.85858E-05-2.85624E-05-7.16596E-09 5.97837E-19 4.08709E-19
 -1      3908 9.52286E-05-2.85790E-05-2.85641E-05-5.86816E-09 6.81535E-19 7.21256E-19
 -1      3909 9.52330E-05-2.85879E-05-2.85621E-05-1.22122E-08 1.61333E-18 1.41964E-18
 -1      3910 9.52272E-05-2.85742E-05-2.85655E-05-3.37385E-09 1.54228E-18 8.10726E-19
 -1      3911 9.52264E-05-2.85707E-05-2.85667E-05-2.88129E-09 1.99455E-18 1.38131E-18
 -1      3912 9.52276E-05-2.85756E-05-2.85652E-05-4.88196E-09 1.58186E-18 8.70338E-19
 -1      3913 9.33048E-05-2.81638E-05-2.78750E-05 1.05676E-05 7.31913E-19-5.40966E-19
 -1      3914 9.38153E-05-2.80609E-05-2.81121E-05 8.29393E-06 5.55012E-19-3.05471E-19
 -1      3915 9.56549E-05-2.46999E-05-3.03954E-05 6.45481E-07 6.68820E-19-1.54689E-18
 -1      3916 9.51144E-05-2.35607E-05-3.06734E-05 4.62750E-07 6.38775E-19-1.68057E-18
 -1      3917 1.05948E-04-1.64284E-05-3.83770E-05 6.75859E-06-3.82568E-19 8.07428E-20
 -1      3918 1.07321E-04-1.93239E-05-3.78398E-05 9.65652E-06-9.27993E-19 1.71072E-19
 -1      3919 9.51188E-05-2.84379E-05-2.85772E-05-8.37293E-08-7.08697E-19 5.67629E-19
 -1      3920 9.50709E-05-2.83934E-05-2.85784E-05-1.12756E-07-4.86837E-19 7.91077E-19
 -1      3921 9.51731E-05-2.84961E-05-2.85757E-05-3.67569E-08-1.76204E-18 1.08786E-18
 -1      3922 9.51460E-05-2.84696E-05-2.85769E-05-5.19856E-08-9.22525E-19 8.74682E-19
 -1      3923 9.51435E-05-2.84712E-05-2.85729E-05-9.48219E-08-7.27789E-19-1.99351E-19
 -1      3924 9.52036E-05-2.85302E-05-2.85743E-05-1.18318E-08 2.43499E-19 9.62091E-19
 -1      3925 9.51889E-05-2.85150E-05-2.85753E-05-1.94253E-08-9.54714E-19 6.78933E-19
 -1      3926 9.51848E-05-2.85140E-05-2.85726E-05-4.30632E-08-1.28903E-18-4.93840E-19
 -1      3927 9.69846E-05-2.78945E-05-2.96060E-05 2.45282E-07 1.29186E-19-1.22855E-18
 -1      3928 9.72146E-05-2.85122E-05-2.94442E-05 4.77424E-07 3.01121E-20-1.06788E-18
 -1      3929 9.73387E-05-2.86737E-05-2.94318E-05 6.45110E-07 6.25284E-20-1.27113E-18
 -1      3930 9.52201E-05-2.85493E-05-2.85732E-05 6.49677E-10 9.96340E-19 4.62035E-19
 -1      3931 9.52125E-05-2.85409E-05-2.85739E-05-2.80952E-09 1.19721E-18 1.31618E-18
 -1      3932 9.52083E-05-2.85392E-05-2.85721E-05-1.53111E-08 6.25975E-19-5.26743E-19
 -1      3933 9.52287E-05-2.85595E-05-2.85725E-05 6.29942E-09 2.33721E-18-1.83011E-19
 -1      3934 9.52249E-05-2.85552E-05-2.85730E-05 5.01290E-09 1.59754E-18-6.75852E-20
 -1      3935 9.52213E-05-2.85534E-05-2.85718E-05-1.25149E-09 1.87912E-18-1.43816E-18
 -1      3936 9.52328E-05-2.85646E-05-2.85721E-05 8.24364E-09 9.62037E-19 1.26902E-19
 -1      3937 9.52311E-05-2.85625E-05-2.85724E-05 8.07668E-09 1.68562E-18-1.56101E-19
 -1      3938 9.52282E-05-2.85610E-05-2.85716E-05 5.21332E-09 1.94990E-18-2.94227E-18
 -1      3939 1.09223E-04-1.52290E-05-4.02320E-05 8.18239E-06-2.20334E-19-1.11702E-18
 -1      3940 9.52265E-05-2.85690E-05-2.85675E-05-1.29907E-09 2.20578E-18 3.23139E-19
 -1      3941 1.11775E-04-2.18400E-05-3.85051E-05 1.15930E-05-4.24337E-19-3.44054E-19
 -1      3942 1.08769E-04-2.30492E-05-3.67217E-05 1.09574E-05-1.08385E-18 7.35681E-19
 -1      3943 1.10460E-04-2.69646E-05-3.59067E-05 1.19483E-05-7.11139E-19 8.73891E-19
 -1      3944 1.16274E-04-2.54724E-05-3.90628E-05 1.28427E-05-4.71953E-19-1.65210E-18
 -1      3945 9.28159E-05-3.02099E-05-2.67627E-05-2.09936E-05 1.00559E-18 1.81074E-18
 -1      3946 1.01881E-04-3.72071E-05-2.78464E-05-1.98067E-05 9.09038E-19 1.40460E-18
 -1      3947 9.25999E-05-2.88528E-05-2.71941E-05-1.73870E-05 9.93510E-19 1.77690E-18
 -1      3948 9.50258E-05-2.83421E-05-2.85781E-05-1.69279E-07-2.41433E-20 1.48589E-18
 -1      3949 9.49442E-05-2.82699E-05-2.85786E-05-2.22931E-07 3.09759E-19 1.90315E-18
 -1      3950 9.50741E-05-2.84017E-05-2.85723E-05-1.87687E-07-9.90290E-20 7.31039E-19
 -1      3951 9.62128E-05-2.73897E-05-2.95053E-05 3.75512E-07 4.79041E-19-9.64168E-19
 -1      3952 9.62417E-05-2.70045E-05-2.96682E-05 4.39213E-07 6.05750E-19-1.03556E-18
 -1      3953 9.55994E-05-2.45772E-05-3.04295E-05-9.11628E-07-1.94887E-19-1.89768E-18
 -1      3954 9.58963E-05-2.52650E-05-3.02749E-05-5.67185E-07-1.86714E-19-1.76541E-18
 -1      3955 9.51188E-05-2.35143E-05-3.06917E-05-8.16911E-07-4.31349E-20-1.97426E-18
 -1      3956 9.59134E-05-3.11179E-05-2.77107E-05 1.48779E-05 1.29527E-18-6.48946E-19
 -1      3957 9.63982E-05-2.63997E-05-2.99963E-05-2.91101E-07-3.61071E-20-1.53511E-18
 -1      3958 9.66908E-05-2.71846E-05-2.97920E-05 2.86105E-08 1.46363E-19-1.35276E-18
 -1      3959 9.68310E-05-2.73693E-05-2.97684E-05 2.16693E-07 2.33785E-19-1.53565E-18
 -1      3960 9.48712E-05-2.81895E-05-2.85767E-05-3.20356E-07 5.62506E-19 1.42095E-18
 -1      3961 9.47365E-05-2.80773E-05-2.85747E-05-4.16486E-07-1.28040E-19 1.31758E-18
 -1      3962 9.49607E-05-2.82923E-05-2.85695E-05-3.50780E-07 3.69750E-19 1.59165E-18
 -1      3963 9.10404E-05-2.48363E-05-2.83661E-05-2.43000E-06-5.16698E-21 5.49561E-19
 -1      3964 8.98018E-05-2.40244E-05-2.82418E-05-3.15185E-06-5.55951E-19 7.97813E-19
 -1      3965 9.03066E-05-2.45913E-05-2.81351E-05-4.97855E-06-4.86335E-19 2.58112E-18
 -1      3966 9.19050E-05-2.56517E-05-2.83713E-05-2.90006E-06-5.47881E-19 1.44850E-18
 -1      3967 9.09933E-05-2.56160E-05-2.79638E-05-7.87586E-06-4.23899E-19 2.00976E-18
 -1      3968 8.99922E-05-2.54031E-05-2.77050E-05-1.00360E-05 1.18528E-19 1.97205E-18
 -1      3969 9.37003E-05-2.71703E-05-2.85034E-05-1.76591E-06 8.03580E-19-6.25283E-19
 -1      3970 9.32141E-05-2.68586E-05-2.84620E-05-2.26132E-06 3.10391E-19 1.06176E-19
 -1      3971 9.52333E-05-2.85660E-05-2.85717E-05 8.05953E-09 1.94981E-19-5.25451E-20
 -1      3972 9.52333E-05-2.85654E-05-2.85719E-05 8.47566E-09 7.67437E-19-3.08408E-19
 -1      3973 9.52309E-05-2.85645E-05-2.85714E-05 7.07209E-09 8.28255E-19-2.67229E-18
 -1      3974 1.20748E-04-4.30580E-05-3.32852E-05 3.21786E-06-5.57129E-19-2.30273E-18
 -1      3975 1.22215E-04-4.13749E-05-3.47434E-05 6.58334E-06 1.51879E-20-1.64224E-18
 -1      3976 9.47838E-05-2.81325E-05-2.85613E-05-6.26707E-07 3.64535E-19 1.58720E-18
 -1      3977 9.46256E-05-2.79591E-05-2.85691E-05-5.81210E-07-5.17786E-19 2.07544E-18
 -1      3978 9.44108E-05-2.77918E-05-2.85613E-05-7.51931E-07 2.77844E-19 1.68945E-18
 -1      3979 1.05101E-04-1.48945E-05-3.88209E-05 4.62288E-06-4.48266E-20-7.20210E-20
 -1      3980 1.13006E-04-3.94559E-05-3.15541E-05-5.07503E-06 1.96100E-19 6.66505E-19
 -1      3981 1.16156E-04-4.08955E-05-3.22145E-05-4.60139E-06 3.99783E-19 1.37827E-18
 -1      3982 1.19709E-04-4.43515E-05-3.22728E-05-8.74348E-07 6.31288E-19 1.77022E-18
 -1      3983 1.12236E-04-3.99618E-05-3.09449E-05-3.52834E-06 3.62581E-19 5.48700E-19
 -1      3984 9.60362E-05-2.78906E-05-2.92196E-05 5.63315E-07 4.94083E-19-7.83371E-19
 -1      3985 9.62049E-05-2.77004E-05-2.93532E-05 4.64090E-07 5.31533E-19-8.75874E-19
 -1      3986 9.64037E-05-2.76057E-05-2.94766E-05 6.06612E-07 3.87615E-19-7.92130E-19
 -1      3987 9.55738E-05-2.95863E-05-2.83067E-05 7.70202E-06 6.34156E-19-3.72243E-19
 -1      3988 9.35527E-05-2.77153E-05-2.82447E-05 6.64038E-06 2.68486E-19-8.08054E-20
 -1      3989 9.41820E-05-2.77932E-05-2.84142E-05 5.11174E-06 3.29218E-19-3.65014E-19
 -1      3990 1.16229E-04-4.35834E-05-3.11792E-05 1.64728E-06 7.38082E-19 1.49334E-18
 -1      3991 9.51388E-05-2.35776E-05-3.06744E-05 1.02744E-07 4.26459E-19-1.81772E-18
 -1      3992 1.12897E-04-4.10990E-05-3.07958E-05-1.08041E-06 3.24588E-19 8.55598E-19
 -1      3993 9.42493E-05-2.76245E-05-2.85486E-05-1.02571E-06 7.34739E-19 1.81622E-19
 -1      3994 9.39165E-05-2.73857E-05-2.85291E-05-1.32088E-06 5.20921E-19-7.64040E-19
 -1      3995 9.41558E-05-2.76306E-05-2.85042E-05-1.83666E-06 6.07586E-19 1.63009E-19
 -1      3996 9.45218E-05-2.79126E-05-2.85423E-05-1.08793E-06-2.77553E-19 1.32527E-18
 -1      3997 9.50353E-05-2.33426E-05-3.07356E-05-4.18249E-07 2.43507E-19-1.93378E-18
 -1      3998 9.53622E-05-2.76736E-05-2.90022E-05 6.95135E-07 4.94405E-19-9.62727E-19
 -1      3999 9.49882E-05-2.79368E-05-2.87587E-05 2.22308E-06 1.89790E-19-6.23431E-19
 -1      4000 9.54462E-05-2.80472E-05-2.88706E-05 1.63563E-06 3.05825E-19-7.46148E-19
 -1      4001 9.52265E-05-2.85676E-05-2.85681E-05-2.19416E-10 2.16828E-18-1.48920E-18
 -1      4002 9.52271E-05-2.85672E-05-2.85685E-05 1.02469E-09 1.59909E-18-1.57896E-18
 -1      4003 9.52263E-05-2.85702E-05-2.85670E-05-1.84253E-09 2.14582E-18-1.48914E-18
 -1      4004 1.05586E-04-3.91989E-05-2.83561E-05-1.79252E-05 2.73843E-19 6.39545E-19
 -1      4005 1.09137E-04-4.15572E-05-2.90498E-05-1.52849E-05-1.57933E-19 2.89196E-19
 -1      4006 1.02720E-04-3.67717E-05-2.82416E-05-1.62885E-05 6.17950E-19 8.56254E-19
 -1      4007 1.16784E-04-2.96204E-05-3.73828E-05 1.22062E-05-1.06796E-18-1.26704E-18
 -1      4008 9.52335E-05-2.85665E-05-2.85716E-05 7.65509E-09-2.23502E-19 2.39785E-20
 -1      4009 9.52336E-05-2.85663E-05-2.85717E-05 8.05353E-09-4.92005E-19 6.59712E-19
 -1      4010 9.52316E-05-2.85655E-05-2.85712E-05 7.18275E-09-4.97702E-19-1.37357E-18
 -1      4011 9.52321E-05-2.85660E-05-2.85712E-05 6.98413E-09-1.99981E-21-2.03343E-18
 -1      4012 1.09024E-04-4.11230E-05-2.90644E-05 1.31407E-05 1.30826E-18 5.94197E-19
 -1      4013 1.04950E-04-3.85010E-05-2.85914E-05 1.42138E-05 1.54744E-18 1.69175E-20
 -1      4014 9.52282E-05-2.85659E-05-2.85696E-05 3.52188E-09 7.79922E-19-2.24769E-18
 -1      4015 9.52295E-05-2.85655E-05-2.85702E-05 4.61218E-09 7.73508E-19-1.81798E-18
 -1      4016 9.52306E-05-2.85658E-05-2.85706E-05 5.65756E-09 9.63041E-19-1.70433E-18
 -1      4017 9.52274E-05-2.85669E-05-2.85688E-05 1.72551E-09 6.62312E-19-6.33275E-19
 -1      4018 9.60955E-05-2.64987E-05-2.98387E-05 4.69215E-07 7.02496E-19-1.24149E-18
 -1      4019 9.59720E-05-2.58975E-05-3.00282E-05 6.77405E-07 8.18945E-19-1.24250E-18
 -1      4020 9.58567E-05-2.54306E-05-3.01799E-05 6.92395E-07 7.27675E-19-1.22937E-18
 -1      4021 9.62655E-05-2.67068E-05-2.98060E-05 5.27375E-07 5.33917E-19-9.57461E-19
 -1      4022 9.59524E-05-2.55323E-05-3.01880E-05 5.18235E-07 5.81208E-19-1.39738E-18
 -1      4023 9.09458E-05-2.63752E-05-2.75834E-05-1.21766E-05 3.84752E-19 2.56393E-18
 -1      4024 9.03902E-05-2.67754E-05-2.72498E-05-1.49890E-05 7.87026E-19 2.16214E-18
 -1      4025 9.65309E-05-3.19598E-05-2.77633E-05-1.56577E-05 5.33947E-19 1.58703E-18
 -1      4026 9.34717E-05-2.85600E-05-2.78715E-05-1.14602E-05 3.17880E-19 2.26216E-18
 -1      4027 1.15442E-04-4.51911E-05-3.01703E-05-1.17482E-05-6.05804E-19-5.64271E-19
 -1      4028 1.21014E-04-4.79774E-05-3.12465E-05-9.86262E-06-5.77361E-19-1.57552E-18
 -1      4029 1.21531E-04-4.66215E-05-3.20651E-05-4.61482E-06-1.04688E-18-2.81918E-18
 -1      4030 9.60484E-05-2.54962E-05-3.02330E-05-2.79192E-07 1.56733E-20-1.63299E-18
 -1      4031 1.14999E-04-3.00824E-05-3.63245E-05 1.20577E-05-1.10865E-18-3.18795E-19
 -1      4032 9.42434E-05-2.77479E-05-2.85264E-05 3.96399E-06 3.80115E-19-5.20488E-19
 -1      4033 9.48200E-05-2.79045E-05-2.86547E-05 2.99061E-06 2.71002E-19-4.78129E-19
 -1      4034 9.57093E-05-2.86379E-05-2.87471E-05 3.00033E-06 1.32286E-19-5.76311E-19
 -1      4035 9.54637E-05-2.88969E-05-2.85375E-05 4.92528E-06 3.63784E-19-4.91440E-19
 -1      4036 1.12045E-04-4.25188E-05-2.97955E-05 8.81138E-06 1.24690E-18 5.95210E-19
 -1      4037 1.01614E-04-3.54979E-05-2.82358E-05 1.44841E-05 1.55791E-18-3.16379E-19
 -1      4038 9.54106E-05-3.04420E-05-2.79126E-05 1.19703E-05 1.19467E-18-5.68745E-19
 -1      4039 9.81800E-05-3.22892E-05-2.82590E-05 1.05766E-05 1.24103E-18-1.84463E-19
 -1      4040 1.03896E-04-3.67337E-05-2.87144E-05 1.10987E-05 1.36158E-18 2.35812E-19
 -1      4041 9.36874E-05-2.73280E-05-2.84324E-05-3.03559E-06 7.74557E-19 1.11117E-18
 -1      4042 9.29502E-05-2.66106E-05-2.84139E-05-2.97034E-06 2.28287E-20 7.95100E-19
 -1      4043 9.22596E-05-2.62319E-05-2.83318E-05-3.80346E-06 1.03250E-19 1.40392E-18
 -1      4044 1.20668E-04-4.55434E-05-3.22770E-05-1.66936E-06-7.98835E-19-3.19552E-18
 -1      4045 1.16869E-04-4.16844E-05-3.21805E-05 2.95164E-06-1.20583E-19-1.89823E-18
 -1      4046 1.15376E-04-4.20922E-05-3.12909E-05 7.92220E-07 1.50773E-19-1.75314E-18
 -1      4047 1.17021E-04-4.44120E-05-3.10647E-05-4.49418E-06-9.76548E-19-3.43351E-18
 -1      4048 9.56311E-05-2.45325E-05-3.04652E-05-5.17181E-08 2.98252E-19-1.78921E-18
 -1      4049 9.52154E-05-2.85513E-05-2.85701E-05-1.61579E-08 1.25695E-18-2.27061E-18
 -1      4050 9.52061E-05-2.85443E-05-2.85702E-05-2.65723E-08 3.25072E-19-2.03761E-18
 -1      4051 9.80809E-05-3.03132E-05-2.90405E-05 1.52757E-06 4.34852E-20-8.53520E-19
 -1      4052 9.84298E-05-3.08200E-05-2.89622E-05 1.77637E-06 1.05364E-19-7.71540E-19
 -1      4053 9.87803E-05-3.13519E-05-2.88929E-05 2.12993E-06-1.47967E-19-6.80737E-19
 -1      4054 9.93102E-05-3.19487E-05-2.88534E-05 2.37745E-06-1.96860E-19-8.32709E-19
 -1      4055 9.83317E-05-3.08505E-05-2.89410E-05 2.23316E-06 2.25407E-23-9.94440E-19
 -1      4056 9.98830E-05-3.26007E-05-2.88237E-05 2.82103E-06-1.78413E-19-8.52908E-19
 -1      4057 1.00703E-04-3.33901E-05-2.88310E-05 3.05527E-06-3.88529E-20-1.01694E-18
 -1      4058 9.92141E-05-3.19586E-05-2.88331E-05 3.15248E-06-2.97601E-19-1.02559E-18
 -1      4059 1.01666E-04-3.42963E-05-2.88516E-05 3.48927E-06 2.07876E-19-8.86116E-19
 -1      4060 1.02826E-04-3.52921E-05-2.89306E-05 3.59411E-06 1.10487E-19-8.54570E-19
 -1      4061 1.00720E-04-3.35591E-05-2.88188E-05 4.11844E-06 3.86471E-20-1.25390E-18
 -1      4062 1.04272E-04-3.64123E-05-2.90405E-05 3.90950E-06 2.38977E-19-6.10066E-19
 -1      4063 1.05768E-04-3.76478E-05-2.92137E-05 3.81279E-06 4.85103E-19-3.35790E-19
 -1      4064 1.03108E-04-3.56595E-05-2.89246E-05 5.17621E-06 5.34861E-19-6.57367E-19
 -1      4065 1.12506E-04-4.10689E-05-3.06117E-05-7.13634E-07 2.42877E-20-2.75220E-18
 -1      4066 1.10575E-04-4.02485E-05-3.00403E-05-1.99263E-06-7.30037E-20-3.31534E-18
 -1      4067 1.13382E-04-4.24105E-05-3.05884E-05-3.25467E-06-7.23743E-19-4.22370E-18
 -1      4068 1.08079E-04-3.88693E-05-2.96441E-05-2.64165E-06-4.45830E-19-2.71656E-18
 -1      4069 1.06133E-04-3.76795E-05-2.92931E-05-3.25756E-06-2.93461E-19-3.17473E-18
 -1      4070 1.08406E-04-3.96722E-05-2.95845E-05-4.82632E-06 6.72953E-20-3.38140E-18
 -1      4071 1.04217E-04-3.62876E-05-2.90831E-05-3.18982E-06 5.68290E-19-3.74982E-18
 -1      4072 1.02563E-04-3.51203E-05-2.88854E-05-3.30259E-06 7.28962E-19-4.22371E-18
 -1      4073 1.03974E-04-3.65094E-05-2.90259E-05-4.90277E-06 2.52487E-19-2.84879E-18
 -1      4074 1.01254E-04-3.40417E-05-2.87794E-05-2.98513E-06 6.88271E-19-4.24594E-18
 -1      4075 9.99904E-05-3.30797E-05-2.86739E-05-2.84497E-06 4.82752E-19-3.44007E-18
 -1      4076 1.00915E-04-3.40086E-05-2.87403E-05-4.18390E-06 4.91914E-19-3.29493E-18
 -1      4077 9.91299E-05-3.22876E-05-2.86251E-05-2.43937E-06 1.35944E-19-3.40990E-18
 -1      4078 9.82210E-05-3.15645E-05-2.85731E-05-2.20537E-06 4.46763E-19-2.16538E-18
 -1      4079 9.87620E-05-3.21151E-05-2.86015E-05-3.25551E-06 2.44167E-19-4.02095E-18
 -1      4080 9.76820E-05-3.10197E-05-2.85541E-05-1.83160E-06 1.14207E-18-1.68867E-18
 -1      4081 9.70622E-05-3.05072E-05-2.85317E-05-1.59187E-06 1.10432E-18-1.03354E-18
 -1      4082 9.73749E-05-3.08169E-05-2.85431E-05-2.36264E-06 9.98574E-19-2.52159E-18
 -1      4083 9.67337E-05-3.01460E-05-2.85270E-05-1.29220E-06 4.06508E-19-8.71715E-19
 -1      4084 9.63255E-05-2.97968E-05-2.85200E-05-1.08869E-06 1.36693E-18-1.66065E-18
 -1      4085 9.65038E-05-2.99647E-05-2.85240E-05-1.62735E-06 8.94933E-19-2.22221E-18
 -1      4086 9.61298E-05-2.95636E-05-2.85214E-05-8.66956E-07 1.11941E-18-2.94021E-18
 -1      4087 9.58728E-05-2.93326E-05-2.85215E-05-7.09374E-07-4.68181E-20-3.34269E-18
 -1      4088 9.59690E-05-2.94193E-05-2.85227E-05-1.07241E-06 4.69371E-19-3.15949E-18
 -1      4089 9.57496E-05-2.91837E-05-2.85255E-05-5.59006E-07-6.97431E-19-2.91527E-18
 -1      4090 9.55895E-05-2.90312E-05-2.85290E-05-4.44662E-07-1.22786E-18-3.28840E-18
 -1      4091 9.56459E-05-2.90814E-05-2.85287E-05-6.79729E-07-6.42202E-19-2.63013E-18
 -1      4092 9.55248E-05-2.89418E-05-2.85331E-05-3.43015E-07-2.53860E-19-3.50964E-18
 -1      4093 9.54264E-05-2.88469E-05-2.85373E-05-2.67724E-07 1.96161E-21-3.12989E-18
 -1      4094 9.54610E-05-2.88734E-05-2.85367E-05-4.13740E-07 1.20294E-20-1.72792E-18
 -1      4095 9.53895E-05-2.87895E-05-2.85412E-05-2.02502E-07-9.15233E-20-3.48163E-18
 -1      4096 9.53306E-05-2.87302E-05-2.85452E-05-1.54161E-07 2.46928E-19-2.68029E-18
 -1      4097 9.53497E-05-2.87443E-05-2.85443E-05-2.43738E-07 1.86833E-19-3.01836E-18
 -1      4098 9.53107E-05-2.86955E-05-2.85484E-05-1.14153E-07 1.01939E-18-1.90286E-18
 -1      4099 9.52770E-05-2.86592E-05-2.85518E-05-8.43047E-08 1.79288E-18-8.60387E-19
 -1      4100 9.52881E-05-2.86675E-05-2.85509E-05-1.36406E-07 1.27456E-18-1.59104E-18
 -1      4101 9.52667E-05-2.86384E-05-2.85544E-05-6.08158E-08 2.04637E-18-9.98816E-19
 -1      4102 9.52483E-05-2.86168E-05-2.85572E-05-4.32367E-08 2.35871E-18-4.41859E-19
 -1      4103 9.52547E-05-2.86220E-05-2.85563E-05-7.21343E-08 2.35244E-18-1.81249E-18
 -1      4104 9.52434E-05-2.86046E-05-2.85592E-05-3.00004E-08 1.69944E-18-4.40790E-19
 -1      4105 9.52342E-05-2.85921E-05-2.85613E-05-2.02130E-08 1.63386E-18-5.93014E-19
 -1      4106 9.52375E-05-2.85954E-05-2.85605E-05-3.51936E-08 2.13913E-18-4.93147E-19
 -1      4107 9.52319E-05-2.85850E-05-2.85628E-05-1.32705E-08 1.96150E-18-7.48794E-19
 -1      4108 9.52280E-05-2.85780E-05-2.85645E-05-7.96173E-09 8.00784E-19-4.97273E-19
 -1      4109 9.52296E-05-2.85801E-05-2.85638E-05-1.48490E-08 1.65402E-18-1.67554E-18
 -1      4110 9.52273E-05-2.85737E-05-2.85658E-05-4.55984E-09 8.03860E-19-5.92864E-19
 -1      4111 9.61525E-05-2.57053E-05-3.01915E-05 1.61171E-07 2.57260E-19-1.62245E-18
 -1      4112 9.61903E-05-2.58642E-05-3.01388E-05 3.76621E-07 3.13961E-19-1.46044E-18
 -1      4113 9.66043E-05-2.67788E-05-2.99288E-05 1.89996E-07 1.78658E-19-1.63379E-18
 -1      4114 9.63935E-05-2.65100E-05-2.99430E-05 5.20729E-07 3.83019E-19-1.25922E-18
 -1      4115 9.71870E-05-2.82607E-05-2.95402E-05 5.90357E-07 2.75852E-19-1.53742E-18
 -1      4116 9.74133E-05-2.88250E-05-2.93912E-05 8.09015E-07 1.35948E-19-1.40149E-18
 -1      4117 9.51759E-05-2.85126E-05-2.85690E-05-9.43844E-08-8.80911E-19 2.08717E-19
 -1      4118 9.51471E-05-2.84923E-05-2.85688E-05-1.30555E-07-2.72541E-19 4.09671E-19
 -1      4119 9.52237E-05-2.85592E-05-2.85704E-05-2.25384E-09 2.76604E-18-3.44220E-18
 -1      4120 9.52187E-05-2.85554E-05-2.85704E-05-7.29425E-09 2.76775E-18-2.49015E-18
 -1      4121 9.52189E-05-2.85582E-05-2.85686E-05-1.61643E-08 2.41437E-18-3.09018E-18
 -1      4122 9.52284E-05-2.85633E-05-2.85707E-05 4.39590E-09 1.44265E-18-2.13181E-18
 -1      4123 9.52260E-05-2.85615E-05-2.85707E-05 2.16185E-09 1.70041E-18-2.90141E-18
 -1      4124 9.52248E-05-2.85626E-05-2.85694E-05-2.64253E-09 1.84918E-18-2.54072E-18
 -1      4125 1.22250E-04-3.81401E-05-3.60959E-05 9.07324E-06-5.86319E-19-1.94463E-18
 -1      4126 9.52008E-05-2.85370E-05-2.85697E-05-4.35880E-08-5.06929E-19-9.77103E-19
 -1      4127 9.51841E-05-2.85248E-05-2.85697E-05-6.34639E-08-9.89234E-19-3.25650E-19
 -1      4128 9.51951E-05-2.85394E-05-2.85660E-05-9.31841E-08-4.77858E-19 6.56935E-19
 -1      4129 9.52098E-05-2.85511E-05-2.85675E-05-4.31911E-08 3.51394E-19-1.64376E-18
 -1      4130 9.56061E-05-2.80205E-05-2.89803E-05 1.14895E-06 4.79577E-19-7.72717E-19
 -1      4131 9.59353E-05-2.80187E-05-2.90945E-05 8.54424E-07 5.81703E-19-7.59944E-19
 -1      4132 9.63202E-05-2.82158E-05-2.91947E-05 9.67751E-07 5.66407E-19-7.07897E-19
 -1      4133 9.51347E-05-2.84732E-05-2.85675E-05-1.84528E-07-2.44466E-19 5.04034E-19
 -1      4134 9.50873E-05-2.84411E-05-2.85665E-05-2.48282E-07-1.58448E-20 1.01268E-18
 -1      4135 9.51721E-05-2.85213E-05-2.85636E-05-1.81821E-07-2.71878E-19 2.17438E-18
 -1      4136 9.50709E-05-2.84154E-05-2.85642E-05-3.39166E-07 1.21342E-19 4.23244E-19
 -1      4137 9.49982E-05-2.83661E-05-2.85615E-05-4.50921E-07 2.07022E-19 4.28614E-19
 -1      4138 9.51372E-05-2.84958E-05-2.85595E-05-3.32951E-07-4.18580E-19 6.19019E-19
 -1      4139 1.13401E-04-4.28105E-05-3.02460E-05 5.18342E-06 7.46077E-19 8.09432E-19
 -1      4140 1.09002E-04-4.04438E-05-2.94368E-05 7.77467E-06 7.98474E-19 2.40174E-19
 -1      4141 9.60388E-05-2.84641E-05-2.89598E-05 1.72799E-06 4.19943E-19-8.15718E-19
 -1      4142 9.76039E-05-2.93341E-05-2.92566E-05 1.03598E-06 2.82354E-20-1.15311E-18
 -1      4143 9.78634E-05-2.98420E-05-2.91429E-05 1.26319E-06 4.19688E-20-1.00288E-18
 -1      4144 9.77966E-05-2.99064E-05-2.91151E-05 1.51882E-06 1.17354E-19-1.08809E-18
 -1      4145 9.68947E-05-2.75057E-05-2.97376E-05 4.37959E-07 2.27119E-19-1.65575E-18
 -1      4146 9.65511E-05-2.71000E-05-2.97686E-05 5.05286E-07 3.31215E-19-1.14609E-18
 -1      4147 9.52290E-05-2.85644E-05-2.85705E-05 4.70636E-09 8.04257E-19-1.76709E-18
 -1      4148 9.20036E-05-2.60163E-05-2.82486E-05-4.90001E-06-6.06988E-19 1.73913E-18
 -1      4149 9.11064E-05-2.56399E-05-2.80985E-05-6.25969E-06-6.52660E-19 1.68049E-18
 -1      4150 9.27603E-05-2.72004E-05-2.81043E-05-7.70178E-06-6.53443E-19 9.49066E-19
 -1      4151 9.31745E-05-2.71121E-05-2.83069E-05-4.89802E-06-7.33440E-21 1.06957E-18
 -1      4152 1.07498E-04-3.89259E-05-2.94044E-05 5.01330E-06 8.37797E-19-1.43933E-19
 -1      4153 1.08748E-04-3.95377E-05-2.96076E-05 3.14913E-06 6.45973E-19 1.22926E-19
 -1      4154 1.10642E-04-4.07238E-05-2.99827E-05 2.28941E-06 4.32389E-19 6.65609E-19
 -1      4155 9.73028E-05-3.11604E-05-2.83904E-05 8.10484E-06 7.50507E-19-4.02094E-19
 -1      4156 9.72108E-05-3.05991E-05-2.85023E-05 6.55108E-06 3.37048E-19-2.48691E-19
 -1      4157 1.12198E-04-4.29170E-05-2.95964E-05-1.21547E-05-4.22382E-19-4.80043E-19
 -1      4158 1.14245E-04-4.38706E-05-3.02502E-05-8.52344E-06-6.86159E-19-2.81402E-18
 -1      4159 1.08337E-04-4.03498E-05-2.91791E-05-1.21357E-05 1.69531E-19-6.37535E-19
 -1      4160 9.69339E-05-2.76872E-05-2.96823E-05 5.78346E-07 3.40727E-19-1.54548E-18
 -1      4161 1.18250E-04-3.37631E-05-3.63946E-05 1.14854E-05-1.26224E-18-1.51153E-18
 -1      4162 9.44945E-05-2.80112E-05-2.84694E-05-2.76900E-06 7.83262E-19 1.47970E-20
 -1      4163 9.42166E-05-2.79521E-05-2.84244E-05-3.51997E-06 8.43397E-19 4.91098E-19
 -1      4164 9.73863E-05-2.88951E-05-2.93549E-05 9.96534E-07 2.60993E-19-1.48095E-18
 -1      4165 9.98367E-05-3.33602E-05-2.84906E-05 9.07300E-06 8.75643E-19-1.75127E-19
 -1      4166 9.44405E-05-2.80068E-05-2.84914E-05-2.18845E-06 9.57305E-19 3.67628E-19
 -1      4167 9.50048E-05-2.85592E-05-2.84874E-05-2.63394E-06 5.04218E-19-2.45638E-19
 -1      4168 9.46679E-05-2.80961E-05-2.85167E-05-1.70828E-06 1.08828E-19 8.76752E-19
 -1      4169 9.50921E-05-2.84601E-05-2.85527E-05-5.79318E-07 1.87750E-19-2.13329E-19
 -1      4170 9.49689E-05-2.83261E-05-2.85574E-05-5.99887E-07 5.89659E-19 4.73089E-19
 -1      4171 9.48646E-05-2.82623E-05-2.85509E-05-7.81958E-07 7.20855E-19 4.46854E-19
 -1      4172 9.45997E-05-2.84930E-05-2.82732E-05-6.69635E-06-8.73977E-19 2.04113E-19
 -1      4173 9.45059E-05-2.87939E-05-2.81607E-05-8.36937E-06-5.50929E-19 5.37533E-19
 -1      4174 9.72539E-05-3.13628E-05-2.83500E-05-8.59451E-06 3.87104E-20 1.95332E-19
 -1      4175 9.57501E-05-2.99036E-05-2.81613E-05-9.69955E-06 3.46117E-19 7.32308E-19
 -1      4176 9.67646E-05-3.11559E-05-2.80987E-05-1.15287E-05 4.10222E-19 7.46223E-19
 -1      4177 9.82377E-05-3.24808E-05-2.81084E-05-1.29977E-05 2.24145E-19 1.23696E-18
 -1      4178 1.00433E-04-3.46298E-05-2.81410E-05-1.48202E-05 6.61655E-19 7.42919E-19
 -1      4179 1.03515E-04-3.69999E-05-2.85466E-05-1.36676E-05 5.30690E-19 6.59938E-19
 -1      4180 9.99507E-05-3.40001E-05-2.84140E-05-1.10612E-05 4.69774E-19 8.31317E-21
 -1      4181 1.06101E-04-3.81901E-05-2.90575E-05 8.06393E-06 1.11880E-18-1.28936E-19
 -1      4182 9.64852E-05-2.90179E-05-2.89302E-05 2.10644E-06 1.00862E-19-5.94253E-19
 -1      4183 9.66584E-05-2.88606E-05-2.90385E-05 1.60647E-06 4.98066E-19-7.09034E-19
 -1      4184 1.13450E-04-4.23572E-05-3.04342E-05 2.87905E-06 4.59525E-19 1.00715E-18
 -1      4185 9.64138E-05-2.93943E-05-2.87376E-05 3.46459E-06 1.70225E-19-5.52825E-19
 -1      4186 9.65826E-05-2.92449E-05-2.88377E-05 2.69806E-06 1.04391E-19-5.51076E-19
 -1      4187 9.71450E-05-2.97097E-05-2.89165E-05 2.49763E-06 1.00215E-19-5.31892E-19
 -1      4188 1.02963E-04-3.59508E-05-2.87586E-05 8.41607E-06 1.15249E-18-1.85613E-19
 -1      4189 9.66740E-05-2.77590E-05-2.95379E-05 6.85603E-07 3.46554E-19-9.95497E-19
 -1      4190 9.68298E-05-2.76278E-05-2.96552E-05 6.52432E-07 3.22620E-19-1.30768E-18
 -1      4191 9.70900E-05-2.83324E-05-2.94664E-05 8.13967E-07 4.77389E-19-1.41071E-18
 -1      4192 9.66861E-05-2.81128E-05-2.93832E-05 7.88660E-07 3.22865E-19-9.13954E-19
 -1      4193 1.14112E-04-4.29319E-05-3.04656E-05-5.58664E-06-8.93276E-19-3.39709E-18
 -1      4194 9.43990E-05-2.80660E-05-2.83910E-05-4.37074E-06 4.43600E-19 4.52227E-19
 -1      4195 9.41320E-05-2.81213E-05-2.83171E-05-5.50417E-06-4.45988E-19 3.68444E-19
 -1      4196 9.56818E-05-2.96064E-05-2.83723E-05-6.15182E-06-2.55398E-19 3.39051E-19
 -1      4197 9.77329E-05-3.02230E-05-2.89272E-05 2.43434E-06 7.50224E-20-9.51620E-19
 -1      4198 9.80300E-05-3.07013E-05-2.88503E-05 2.91584E-06-7.01555E-20-9.83359E-19
 -1      4199 9.52258E-05-2.85659E-05-2.85685E-05-2.00973E-09 5.86329E-19-8.80551E-19
 -1      4200 9.52235E-05-2.85649E-05-2.85681E-05-6.82143E-09 1.58291E-18-2.02169E-18
 -1      4201 9.52269E-05-2.85718E-05-2.85664E-05-4.46747E-09 6.02782E-19-1.21586E-18
 -1      4202 9.85491E-05-3.13244E-05-2.88062E-05 3.46790E-06-4.55338E-20-8.75583E-19
 -1      4203 9.95735E-05-3.25467E-05-2.87146E-05 5.08248E-06 4.38422E-20-7.89878E-19
 -1      4204 1.00481E-04-3.34622E-05-2.87138E-05 5.80715E-06 3.22842E-19-6.18556E-19
 -1      4205 1.01913E-04-3.46791E-05-2.87955E-05 6.43931E-06 8.23612E-19-3.58086E-19
 -1      4206 1.11450E-04-4.15050E-05-2.98373E-05-6.78674E-06-2.82959E-19-3.73625E-18
 -1      4207 1.06859E-04-3.85831E-05-2.92079E-05-8.67860E-06 6.78986E-19-2.02266E-18
 -1      4208 1.04399E-04-3.67994E-05-2.88937E-05-8.62029E-06 7.78116E-19-1.39587E-18
 -1      4209 1.02861E-04-3.53777E-05-2.88247E-05-7.52577E-06 3.54072E-19-1.40557E-18
 -1      4210 1.00977E-04-3.39845E-05-2.86494E-05-7.14291E-06 2.51229E-19-1.38249E-18
 -1      4211 9.95843E-05-3.26822E-05-2.86005E-05-6.20459E-06 3.31129E-19-9.29456E-19
 -1      4212 9.82830E-05-3.16803E-05-2.85193E-05-5.63194E-06 2.35311E-19-1.47132E-18
 -1      4213 9.77327E-05-3.10257E-05-2.85347E-05-4.52028E-06 2.28408E-19-1.64144E-18
 -1      4214 9.68714E-05-3.03568E-05-2.84980E-05-3.97310E-06 3.40398E-19-1.58642E-18
 -1      4215 9.66112E-05-2.99939E-05-2.85163E-05-3.13667E-06 1.02787E-18-1.06720E-18
 -1      4216 9.60767E-05-2.95704E-05-2.85033E-05-2.68155E-06 1.21117E-18-8.85085E-19
 -1      4217 9.59693E-05-2.93795E-05-2.85183E-05-2.09144E-06 3.97711E-19-7.02829E-19
 -1      4218 9.56465E-05-2.91188E-05-2.85161E-05-1.74474E-06 3.24987E-19-5.65612E-19
 -1      4219 9.55747E-05-2.89954E-05-2.85314E-05-8.31667E-07 6.65612E-19-2.25358E-18
 -1      4220 9.54513E-05-2.88698E-05-2.85353E-05-6.66451E-07 1.56680E-20-3.96108E-20
 -1      4221 9.53129E-05-2.87044E-05-2.85446E-05-5.00154E-07-8.98680E-19 4.20414E-19
 -1      4222 9.52598E-05-2.86533E-05-2.85482E-05-3.94234E-07 9.70917E-20 2.58313E-19
 -1      4223 9.52709E-05-2.86468E-05-2.85513E-05-2.92784E-07 1.05726E-19 4.79514E-19
 -1      4224 9.52363E-05-2.86141E-05-2.85545E-05-2.22363E-07-9.46430E-20 3.44549E-21
 -1      4225 9.52449E-05-2.86109E-05-2.85564E-05-1.62285E-07-7.83488E-20 7.01038E-19
 -1      4226 9.52265E-05-2.85919E-05-2.85591E-05-1.19645E-07 7.41429E-19-2.30767E-19
 -1      4227 9.52327E-05-2.85907E-05-2.85604E-05-8.49220E-08 5.41567E-19-1.03714E-18
 -1      4228 9.52233E-05-2.85796E-05-2.85625E-05-5.99982E-08 1.23983E-18-1.40109E-18
 -1      4229 9.52276E-05-2.85791E-05-2.85634E-05-4.06618E-08 2.00652E-18-1.65332E-18
 -1      4230 9.52232E-05-2.85727E-05-2.85650E-05-2.67765E-08 1.88205E-18-1.83812E-18
 -1      4231 9.73862E-05-2.94531E-05-2.91159E-05 1.57483E-06 5.32365E-20-9.77070E-19
 -1      4232 9.76169E-05-2.98639E-05-2.90167E-05 1.92383E-06 2.98919E-20-1.01238E-18
 -1      4233 9.72920E-05-2.88359E-05-2.93294E-05 1.04433E-06 3.50085E-19-1.27388E-18
 -1      4234 9.70022E-05-2.88541E-05-2.92124E-05 1.35165E-06 3.72408E-19-1.09785E-18
 -1      4235 9.52301E-05-2.85655E-05-2.85705E-05 5.82086E-09-2.58430E-20-7.87224E-19
 -1      4236 9.52278E-05-2.85649E-05-2.85698E-05 3.23450E-09 5.59127E-20-1.03327E-18
 -1      4237 9.52258E-05-2.85722E-05-2.85657E-05-1.62231E-08 2.30324E-18-1.71528E-18
 -1      4238 9.48290E-05-2.82152E-05-2.85431E-05-1.03037E-06 2.45345E-19 7.68332E-19
 -1      4239 9.46670E-05-2.81274E-05-2.85300E-05-1.32512E-06-2.86358E-19 8.21127E-19
 -1      4240 9.49971E-05-2.84557E-05-2.85204E-05-1.64246E-06-1.97970E-19 5.75265E-19
 -1      4241 9.50366E-05-2.84483E-05-2.85407E-05-9.86525E-07 6.10383E-19-1.55785E-18
 -1      4242 9.52303E-05-2.85657E-05-2.85706E-05 5.72278E-09-1.58627E-20-8.76231E-19
 -1      4243 9.51694E-05-2.88736E-05-2.84380E-05-4.09514E-06 9.91043E-19 6.06886E-20
 -1      4244 9.52266E-05-2.85667E-05-2.85686E-05 2.37792E-10 6.73288E-19-3.25982E-19
 -1      4245 9.66326E-05-3.00353E-05-2.85593E-05 5.40994E-06 1.40464E-19-2.86898E-19
 -1      4246 9.66889E-05-2.97416E-05-2.86610E-05 4.27105E-06 1.40793E-19-3.94644E-19
 -1      4247 9.74516E-05-3.03713E-05-2.87499E-05 3.91141E-06 8.19345E-20-3.75481E-19
 -1      4248 9.82913E-05-3.15458E-05-2.86324E-05 5.73872E-06 9.29363E-20-3.89898E-19
 -1      4249 9.52257E-05-2.85684E-05-2.85674E-05-3.11140E-09 5.91470E-19 3.35674E-19
 -1      4250 9.52262E-05-2.85721E-05-2.85662E-05-7.11245E-09 9.02656E-19-1.07260E-18
 -1      4251 9.88973E-05-3.18063E-05-2.87496E-05 4.20614E-06-2.09909E-19-7.63253E-19
 -1      4252 9.56145E-05-2.90265E-05-2.85270E-05-1.34682E-06 2.43272E-19-1.33053E-18
 -1      4253 9.54374E-05-2.88733E-05-2.85293E-05-1.08900E-06 2.04171E-19-1.67722E-18
 -1      4254 9.52278E-05-2.85762E-05-2.85649E-05-1.37759E-08 1.77587E-18-1.55529E-18
 -1      4255 9.66223E-05-2.83920E-05-2.92496E-05 1.04195E-06 5.00526E-19-9.20013E-19
 -1      4256 9.52154E-05-2.86095E-05-2.85472E-05-6.14539E-07-1.81484E-19 1.72785E-19
 -1      4257 1.06119E-04-3.87149E-05-2.90028E-05-1.12618E-05 3.66054E-19-8.73395E-20
 -1      4258 9.52106E-05-2.86259E-05-2.85362E-05-1.02878E-06 4.75937E-19-1.25805E-18
 -1      4259 9.52108E-05-2.86080E-05-2.85430E-05-7.79740E-07 5.73511E-19-1.06124E-18
 -3
    1PSTEP                         4           1           1          
  100CL  101 1.000000000        4259                     0    1           1
 -4  ERROR       1    1
 -5  STR(%)      1    1    0    0
 -1         1 1.23496E+01
 -1         2 2.42271E+01
 -1         3 4.39342E-05
 -1         4 1.26083E-04
 -1         5 1.33019E+01
 -1         6 1.31397E+01
 -1         7 1.31397E+01
 -1         8 3.66893E+00
 -1         9 1.82956E+00
 -1        10 1.29384E+00
 -1        11 1.04787E+00
 -1        12 9.00301E-01
 -1        13 8.09011E-01
 -1        14 7.51977E-01
 -1        15 7.53451E-01
 -1        16 8.10087E-01
 -1        17 8.96864E-01
 -1        18 1.04785E+00
 -1        19 1.29769E+00
 -1        20 1.84534E+00
 -1        21 3.70652E+00
 -1        22 1.33019E+01
 -1        23 1.31397E+01
 -1        24 4.31043E+00
 -1        25 3.33107E+00
 -1        26 2.09877E+00
 -1        27 1.34609E+00
 -1        28 9.89275E-01
 -1        29 7.38366E-01
 -1        30 5.41983E-01
 -1        31 3.96530E-01
 -1        32 2.86553E-01
 -1        33 2.45965E-01
 -1        34 2.94060E-01
 -1        35 3.90962E-01
 -1        36 5.76152E-01
 -1        37 8.48870E-01
 -1        38 1.19261E+00
 -1        39 1.58558E+00
 -1        40 2.05948E+00
 -1        41 2.48609E+00
 -1        42 2.75867E+00
 -1        43 2.79748E+00
 -1        44 2.80668E+00
 -1        45 2.80668E+00
 -1        46 2.76996E+00
 -1        47 2.49987E+00
 -1        48 2.07567E+00
 -1        49 1.59513E+00
 -1        50 1.19811E+00
 -1        51 8.50276E-01
 -1        52 6.16942E-01
 -1        53 4.65459E-01
 -1        54 3.34974E-01
 -1        55 2.30637E-01
 -1        56 1.52031E-01
 -1        57 9.83068E-02
 -1        58 7.25559E-02
 -1        59 5.13750E-02
 -1        60 3.50778E-02
 -1        61 2.31513E-02
 -1        62 1.47676E-02
 -1        63 1.07266E-02
 -1        64 7.59206E-03
 -1        65 5.21871E-03
 -1        66 3.47117E-03
 -1        67 2.35273E-03
 -1        68 1.58375E-03
 -1        69 1.27462E-03
 -1        70 9.34625E-04
 -1        71 6.54690E-04
 -1        72 1.33019E+01
 -1        73 4.28786E+00
 -1        74 3.40112E+00
 -1        75 2.16129E+00
 -1        76 1.40007E+00
 -1        77 1.04905E+00
 -1        78 8.22029E-01
 -1        79 6.64313E-01
 -1        80 5.60256E-01
 -1        81 5.06109E-01
 -1        82 6.24573E-01
 -1        83 9.48430E-01
 -1        84 1.46384E+00
 -1        85 2.20218E+00
 -1        86 3.10752E+00
 -1        87 4.81047E+00
 -1        88 6.88456E+00
 -1        89 8.87511E+00
 -1        90 8.87511E+00
 -1        91 8.60720E+00
 -1        92 1.06579E+01
 -1        93 2.20937E+01
 -1        94 2.35790E+01
 -1        95 2.35790E+01
 -1        96 1.28184E+01
 -1        97 6.03586E+00
 -1        98 6.82832E+00
 -1        99 6.82832E+00
 -1       100 5.84118E+00
 -1       101 4.33365E+00
 -1       102 3.08556E+00
 -1       103 2.14827E+00
 -1       104 1.38112E+00
 -1       105 8.38517E-01
 -1       106 4.76038E-01
 -1       107 2.85633E-01
 -1       108 1.57465E-01
 -1       109 8.44735E-02
 -1       110 4.58951E-02
 -1       111 2.71335E-02
 -1       112 1.56611E-02
 -1       113 8.79918E-03
 -1       114 4.79796E-03
 -1       115 2.69069E-03
 -1       116 1.54567E-03
 -1       117 8.28905E-04
 -1       118 4.17935E-04
 -1       119 2.83123E-04
 -1       120 2.37433E-04
 -1       121 1.91512E-04
 -1       122 1.17196E-04
 -1       123 4.37345E-05
 -1       124 6.68875E-05
 -1       125 7.07256E-05
 -1       126 7.07256E-05
 -1       127 5.77135E-05
 -1       128 3.26213E-05
 -1       129 4.98544E-05
 -1       130 7.71319E-05
 -1       131 1.05279E-04
 -1       132 1.18232E-04
 -1       133 1.18232E-04
 -1       134 1.12745E-04
 -1       135 7.96827E-05
 -1       136 7.70976E-05
 -1       137 1.91333E-04
 -1       138 3.84736E-04
 -1       139 2.68228E+01
 -1       140 2.71861E+01
 -1       141 4.45589E+01
 -1       142 4.45589E+01
 -1       143 1.86341E+01
 -1       144 1.52791E+01
 -1       145 1.52791E+01
 -1       146 1.50731E+01
 -1       147 1.44477E+01
 -1       148 2.46130E+01
 -1       149 3.09463E+01
 -1       150 3.09463E+01
 -1       151 2.68565E+01
 -1       152 2.48533E+01
 -1       153 2.48533E+01
 -1       154 2.88181E+01
 -1       155 2.96881E+01
 -1       156 2.90709E+01
 -1       157 1.25004E+01
 -1       158 1.21223E+01
 -1       159 1.21223E+01
 -1       160 1.15177E+01
 -1       161 1.23496E+01
 -1       162 1.51087E+01
 -1       163 4.07692E+01
 -1       164 4.07692E+01
 -1       165 2.50400E+01
 -1       166 6.08389E+00
 -1       167 2.30351E+00
 -1       168 1.51070E+00
 -1       169 1.15911E+00
 -1       170 9.74086E-01
 -1       171 8.64107E-01
 -1       172 7.95121E-01
 -1       173 7.53451E-01
 -1       174 7.96405E-01
 -1       175 8.63165E-01
 -1       176 9.75716E-01
 -1       177 1.16330E+00
 -1       178 1.51583E+00
 -1       179 2.32448E+00
 -1       180 6.19302E+00
 -1       181 4.31043E+00
 -1       182 3.33107E+00
 -1       183 2.09877E+00
 -1       184 1.43573E+00
 -1       185 1.01199E+00
 -1       186 7.38366E-01
 -1       187 5.56157E-01
 -1       188 4.25752E-01
 -1       189 3.43915E-01
 -1       190 2.91016E-01
 -1       191 3.42471E-01
 -1       192 4.47101E-01
 -1       193 6.00910E-01
 -1       194 8.01959E-01
 -1       195 1.04076E+00
 -1       196 1.31213E+00
 -1       197 1.65413E+00
 -1       198 2.05948E+00
 -1       199 2.48609E+00
 -1       200 2.75867E+00
 -1       201 2.79748E+00
 -1       202 2.80668E+00
 -1       203 2.76996E+00
 -1       204 2.49987E+00
 -1       205 2.07567E+00
 -1       206 1.65988E+00
 -1       207 1.30552E+00
 -1       208 1.02491E+00
 -1       209 7.75618E-01
 -1       210 5.59757E-01
 -1       211 3.85389E-01
 -1       212 2.52707E-01
 -1       213 1.64718E-01
 -1       214 1.11137E-01
 -1       215 7.25559E-02
 -1       216 5.13750E-02
 -1       217 3.50778E-02
 -1       218 2.31513E-02
 -1       219 1.56590E-02
 -1       220 1.07266E-02
 -1       221 7.59206E-03
 -1       222 5.38221E-03
 -1       223 3.84011E-03
 -1       224 2.68696E-03
 -1       225 1.92076E-03
 -1       226 1.28756E-03
 -1       227 9.34625E-04
 -1       228 6.54690E-04
 -1       229 4.28786E+00
 -1       230 3.40112E+00
 -1       231 2.16129E+00
 -1       232 1.47090E+00
 -1       233 1.04905E+00
 -1       234 8.22029E-01
 -1       235 6.64313E-01
 -1       236 5.60256E-01
 -1       237 5.06109E-01
 -1       238 5.03342E-01
 -1       239 6.47154E-01
 -1       240 1.18988E+00
 -1       241 2.11131E+00
 -1       242 3.48856E+00
 -1       243 5.32553E+00
 -1       244 7.29595E+00
 -1       245 8.96136E+00
 -1       246 9.88543E+00
 -1       247 1.21470E+01
 -1       248 1.02285E+01
 -1       249 2.20937E+01
 -1       250 2.35790E+01
 -1       251 1.31864E+01
 -1       252 1.00447E+01
 -1       253 9.83828E+00
 -1       254 7.86026E+00
 -1       255 7.16038E+00
 -1       256 5.87084E+00
 -1       257 4.25716E+00
 -1       258 2.78668E+00
 -1       259 1.68992E+00
 -1       260 9.67237E-01
 -1       261 5.47398E-01
 -1       262 3.38293E-01
 -1       263 1.94403E-01
 -1       264 1.08964E-01
 -1       265 5.96620E-02
 -1       266 3.17700E-02
 -1       267 1.77069E-02
 -1       268 1.07337E-02
 -1       269 6.34391E-03
 -1       270 3.66325E-03
 -1       271 2.08142E-03
 -1       272 1.18578E-03
 -1       273 7.03888E-04
 -1       274 4.67903E-04
 -1       275 3.32189E-04
 -1       276 2.46968E-04
 -1       277 1.46588E-04
 -1       278 8.86588E-05
 -1       279 1.26666E-04
 -1       280 1.64283E-04
 -1       281 1.64283E-04
 -1       282 1.49953E-04
 -1       283 9.88492E-05
 -1       284 1.24104E-04
 -1       285 1.96884E-04
 -1       286 2.55545E-04
 -1       287 2.79094E-04
 -1       288 2.79094E-04
 -1       289 2.77906E-04
 -1       290 2.28591E-04
 -1       291 1.51802E-04
 -1       292 4.62944E-04
 -1       293 3.35686E+01
 -1       294 3.35686E+01
 -1       295 3.58872E+01
 -1       296 4.45589E+01
 -1       297 1.86341E+01
 -1       298 1.30674E+01
 -1       299 1.52791E+01
 -1       300 1.50731E+01
 -1       301 1.44477E+01
 -1       302 1.41110E+01
 -1       303 2.64931E+01
 -1       304 3.15669E+01
 -1       305 3.15669E+01
 -1       306 3.12536E+01
 -1       307 3.12536E+01
 -1       308 2.44125E+01
 -1       309 2.96881E+01
 -1       310 2.96881E+01
 -1       311 1.25004E+01
 -1       312 1.16743E+01
 -1       313 1.21223E+01
 -1       314 1.13783E+01
 -1       315 1.15177E+01
 -1       316 1.23496E+01
 -1       317 1.13387E+01
 -1       318 1.51087E+01
 -1       319 4.07692E+01
 -1       320 3.72283E+01
 -1       321 2.80268E+01
 -1       322 1.35147E+01
 -1       323 4.62944E-04
 -1       324 1.05250E+00
 -1       325 2.48613E+00
 -1       326 7.93522E-01
 -1       327 6.95091E-01
 -1       328 6.32147E-01
 -1       329 5.87221E-01
 -1       330 5.89229E-01
 -1       331 6.32570E-01
 -1       332 6.98912E-01
 -1       333 7.93525E-01
 -1       334 9.22076E-01
 -1       335 1.08633E+00
 -1       336 2.48176E+00
 -1       337 2.69905E+01
 -1       338 1.72144E+00
 -1       339 1.25840E+00
 -1       340 8.97084E-01
 -1       341 6.48892E-01
 -1       342 5.22708E-01
 -1       343 4.17244E-01
 -1       344 3.48233E-01
 -1       345 3.13424E-01
 -1       346 3.54346E-01
 -1       347 4.31019E-01
 -1       348 5.45307E-01
 -1       349 6.95426E-01
 -1       350 8.74230E-01
 -1       351 1.09898E+00
 -1       352 1.35219E+00
 -1       353 1.58401E+00
 -1       354 1.85617E+00
 -1       355 2.03750E+00
 -1       356 2.09096E+00
 -1       357 2.01652E+00
 -1       358 2.09850E+00
 -1       359 2.04462E+00
 -1       360 1.86276E+00
 -1       361 1.58933E+00
 -1       362 1.34292E+00
 -1       363 1.08236E+00
 -1       364 8.38195E-01
 -1       365 6.44243E-01
 -1       366 4.74519E-01
 -1       367 3.35202E-01
 -1       368 2.27046E-01
 -1       369 1.47202E-01
 -1       370 9.09550E-02
 -1       371 5.30796E-02
 -1       372 2.87100E-02
 -1       373 1.87644E-02
 -1       374 1.35277E-02
 -1       375 9.41936E-03
 -1       376 6.33955E-03
 -1       377 4.90331E-03
 -1       378 3.63867E-03
 -1       379 2.69552E-03
 -1       380 1.93607E-03
 -1       381 1.30771E-03
 -1       382 9.06462E-04
 -1       383 5.91986E-04
 -1       384 1.28599E+00
 -1       385 1.73581E+00
 -1       386 9.22672E-01
 -1       387 6.66434E-01
 -1       388 5.65871E-01
 -1       389 4.77848E-01
 -1       390 4.02018E-01
 -1       391 3.35402E-01
 -1       392 4.35415E-01
 -1       393 8.29723E-01
 -1       394 1.48995E+00
 -1       395 2.53609E+00
 -1       396 4.18107E+00
 -1       397 6.61078E+00
 -1       398 1.03623E+01
 -1       399 1.46110E+01
 -1       400 1.43324E+01
 -1       401 1.97294E+01
 -1       402 8.98294E+00
 -1       403 8.82547E+00
 -1       404 6.21380E+00
 -1       405 4.06669E+00
 -1       406 2.51253E+00
 -1       407 1.49188E+00
 -1       408 8.56799E-01
 -1       409 4.97849E-01
 -1       410 2.73842E-01
 -1       411 1.46713E-01
 -1       412 7.61767E-02
 -1       413 3.79922E-02
 -1       414 2.13045E-02
 -1       415 1.18667E-02
 -1       416 6.47715E-03
 -1       417 4.07159E-03
 -1       418 2.62429E-03
 -1       419 1.66229E-03
 -1       420 1.05318E-03
 -1       421 6.82761E-04
 -1       422 4.60465E-04
 -1       423 3.37503E-04
 -1       424 2.01030E-04
 -1       425 1.70976E-04
 -1       426 2.35407E-04
 -1       427 1.97184E-04
 -1       428 2.35407E-04
 -1       429 1.99185E-04
 -1       430 1.69305E-04
 -1       431 2.69986E-04
 -1       432 3.51017E-04
 -1       433 3.94255E-04
 -1       434 4.00498E-04
 -1       435 4.01085E-04
 -1       436 4.01085E-04
 -1       437 3.09486E-04
 -1       438 3.31010E-04
 -1       439 2.48658E+01
 -1       440 5.07034E+01
 -1       441 9.19369E-01
 -1       442 3.15669E+01
 -1       443 3.73454E+01
 -1       444 4.41784E+01
 -1       445 4.41784E+01
 -1       446 2.37213E+01
 -1       447 2.04671E+01
 -1       448 1.22134E+01
 -1       449 6.76243E+00
 -1       450 8.92098E+00
 -1       451 1.05194E+01
 -1       452 1.11674E+01
 -1       453 1.06046E+01
 -1       454 8.49536E+00
 -1       455 7.64451E+00
 -1       456 1.44606E+01
 -1       457 2.54902E+01
 -1       458 2.37006E+01
 -1       459 5.07034E+01
 -1       460 1.80438E+01
 -1       461 1.49412E+01
 -1       462 4.87925E-01
 -1       463 5.12424E-01
 -1       464 4.30720E-01
 -1       465 4.56587E-01
 -1       466 4.86573E-01
 -1       467 5.11882E-01
 -1       468 5.13382E-01
 -1       469 5.13382E-01
 -1       470 8.18503E-01
 -1       471 8.04371E-01
 -1       472 2.69905E+01
 -1       473 6.97956E-01
 -1       474 5.86970E-01
 -1       475 4.80051E-01
 -1       476 3.91750E-01
 -1       477 3.40475E-01
 -1       478 3.08704E-01
 -1       479 3.20862E-01
 -1       480 3.74028E-01
 -1       481 4.56682E-01
 -1       482 5.70226E-01
 -1       483 7.38893E-01
 -1       484 9.38162E-01
 -1       485 1.14653E+00
 -1       486 1.33123E+00
 -1       487 1.47262E+00
 -1       488 1.60055E+00
 -1       489 1.64014E+00
 -1       490 1.59390E+00
 -1       491 1.59967E+00
 -1       492 1.64325E+00
 -1       493 1.60079E+00
 -1       494 1.46919E+00
 -1       495 1.31562E+00
 -1       496 1.12240E+00
 -1       497 9.02641E-01
 -1       498 6.88404E-01
 -1       499 5.00278E-01
 -1       500 3.64362E-01
 -1       501 2.56451E-01
 -1       502 1.74070E-01
 -1       503 1.13864E-01
 -1       504 7.16060E-02
 -1       505 4.30606E-02
 -1       506 2.44948E-02
 -1       507 1.28889E-02
 -1       508 6.78039E-03
 -1       509 5.55101E-03
 -1       510 4.26819E-03
 -1       511 3.11356E-03
 -1       512 2.47781E-03
 -1       513 1.86860E-03
 -1       514 1.31001E-03
 -1       515 9.06462E-04
 -1       516 5.80588E-04
 -1       517 5.84288E-01
 -1       518 4.64519E-01
 -1       519 3.64830E-01
 -1       520 3.00509E-01
 -1       521 2.14952E-01
 -1       522 1.93179E-01
 -1       523 4.79160E-01
 -1       524 9.92725E-01
 -1       525 1.83759E+00
 -1       526 3.21732E+00
 -1       527 5.54534E+00
 -1       528 1.02010E+01
 -1       529 2.49481E+01
 -1       530 4.41784E+01
 -1       531 4.95080E+00
 -1       532 2.80021E+00
 -1       533 1.63198E+00
 -1       534 9.62191E-01
 -1       535 5.57727E-01
 -1       536 3.32057E-01
 -1       537 1.94070E-01
 -1       538 1.11237E-01
 -1       539 6.23857E-02
 -1       540 3.41479E-02
 -1       541 1.81810E-02
 -1       542 9.37950E-03
 -1       543 4.67074E-03
 -1       544 2.64306E-03
 -1       545 1.66141E-03
 -1       546 1.06503E-03
 -1       547 7.49642E-04
 -1       548 5.32666E-04
 -1       549 3.72819E-04
 -1       550 3.44159E-04
 -1       551 3.05824E-04
 -1       552 2.82659E-04
 -1       553 3.05824E-04
 -1       554 3.22046E-04
 -1       555 4.27272E-04
 -1       556 4.94229E-04
 -1       557 4.97600E-04
 -1       558 5.34690E-04
 -1       559 5.45223E-04
 -1       560 5.45223E-04
 -1       561 4.45048E-04
 -1       562 6.20415E+00
 -1       563 8.43904E+00
 -1       564 1.13455E+01
 -1       565 4.35128E+00
 -1       566 7.94260E-01
 -1       567 4.58351E-01
 -1       568 6.48506E-01
 -1       569 2.00003E+01
 -1       570 2.37006E+01
 -1       571 1.04490E+01
 -1       572 3.73454E+01
 -1       573 8.74516E-01
 -1       574 2.37213E+01
 -1       575 5.81314E+00
 -1       576 4.59847E+00
 -1       577 6.92945E+00
 -1       578 1.92042E+01
 -1       579 7.75784E+00
 -1       580 8.57559E+00
 -1       581 1.25308E+01
 -1       582 8.41905E+00
 -1       583 5.07034E+01
 -1       584 1.67589E+01
 -1       585 7.20542E-01
 -1       586 1.50830E+01
 -1       587 4.98771E+00
 -1       588 3.44159E-04
 -1       589 4.20726E+00
 -1       590 3.57447E-01
 -1       591 3.41191E-01
 -1       592 3.60078E-01
 -1       593 3.43264E-01
 -1       594 3.86867E-01
 -1       595 2.27389E+00
 -1       596 1.34064E+00
 -1       597 1.89711E+01
 -1       598 4.06987E-01
 -1       599 3.97419E-01
 -1       600 3.89330E-01
 -1       601 3.57556E-01
 -1       602 3.23332E-01
 -1       603 2.98484E-01
 -1       604 3.10783E-01
 -1       605 3.61378E-01
 -1       606 4.38221E-01
 -1       607 5.42032E-01
 -1       608 6.67298E-01
 -1       609 7.99936E-01
 -1       610 9.66586E-01
 -1       611 1.15761E+00
 -1       612 1.30280E+00
 -1       613 1.37112E+00
 -1       614 1.39931E+00
 -1       615 1.38236E+00
 -1       616 1.30056E+00
 -1       617 1.37603E+00
 -1       618 1.39660E+00
 -1       619 1.35862E+00
 -1       620 1.28504E+00
 -1       621 1.13128E+00
 -1       622 9.28980E-01
 -1       623 7.45276E-01
 -1       624 5.96445E-01
 -1       625 4.51966E-01
 -1       626 3.25783E-01
 -1       627 2.24067E-01
 -1       628 1.47217E-01
 -1       629 9.36776E-02
 -1       630 5.79542E-02
 -1       631 3.40929E-02
 -1       632 1.90165E-02
 -1       633 9.80558E-03
 -1       634 4.36902E-03
 -1       635 2.95152E-03
 -1       636 2.71004E-03
 -1       637 2.22993E-03
 -1       638 1.72962E-03
 -1       639 1.40310E-03
 -1       640 1.03687E-03
 -1       641 7.21902E-04
 -1       642 2.45802E-01
 -1       643 3.67997E-01
 -1       644 2.02872E-01
 -1       645 1.93627E-01
 -1       646 3.32354E-01
 -1       647 6.81104E-01
 -1       648 1.23379E+00
 -1       649 2.13183E+00
 -1       650 3.51853E+00
 -1       651 6.37000E+00
 -1       652 1.02010E+01
 -1       653 8.66076E+00
 -1       654 3.89754E+00
 -1       655 7.93486E-01
 -1       656 4.55909E-01
 -1       657 2.57620E-01
 -1       658 1.43993E-01
 -1       659 8.22932E-02
 -1       660 4.61523E-02
 -1       661 2.52129E-02
 -1       662 1.33554E-02
 -1       663 7.44196E-03
 -1       664 4.25585E-03
 -1       665 2.43350E-03
 -1       666 1.40757E-03
 -1       667 8.41641E-04
 -1       668 6.17911E-04
 -1       669 4.62135E-04
 -1       670 4.23029E-04
 -1       671 3.49185E-04
 -1       672 4.23029E-04
 -1       673 5.82864E-04
 -1       674 6.04675E-04
 -1       675 6.04675E-04
 -1       676 7.93659E-04
 -1       677 7.93659E-04
 -1       678 6.84483E+00
 -1       679 9.40745E+00
 -1       680 8.41759E+00
 -1       681 4.91355E-04
 -1       682 3.60078E-01
 -1       683 4.12549E+00
 -1       684 5.86432E+00
 -1       685 6.56488E+00
 -1       686 3.61874E-01
 -1       687 3.17008E-01
 -1       688 1.00797E+01
 -1       689 2.23039E+01
 -1       690 1.29150E+01
 -1       691 1.74695E+01
 -1       692 5.17813E+00
 -1       693 5.37943E+00
 -1       694 5.06944E+00
 -1       695 1.45924E+01
 -1       696 3.61874E-01
 -1       697 3.43202E-01
 -1       698 3.32387E-01
 -1       699 3.58977E-01
 -1       700 4.19027E+00
 -1       701 4.30829E-01
 -1       702 1.56658E+01
 -1       703 3.21107E-04
 -1       704 3.77183E+00
 -1       705 2.93819E+00
 -1       706 1.07822E+01
 -1       707 3.50765E+00
 -1       708 3.29296E-01
 -1       709 2.70764E-01
 -1       710 4.76565E-01
 -1       711 1.39857E+00
 -1       712 8.09447E+00
 -1       713 2.35734E-01
 -1       714 2.63854E-01
 -1       715 2.66773E-01
 -1       716 2.61126E-01
 -1       717 2.63855E-01
 -1       718 3.15680E-01
 -1       719 3.92283E-01
 -1       720 4.97824E-01
 -1       721 6.30355E-01
 -1       722 7.80113E-01
 -1       723 9.24304E-01
 -1       724 1.04683E+00
 -1       725 1.18082E+00
 -1       726 1.30756E+00
 -1       727 1.39725E+00
 -1       728 1.51472E+00
 -1       729 1.40925E+00
 -1       730 1.41317E+00
 -1       731 1.50701E+00
 -1       732 1.38551E+00
 -1       733 1.29106E+00
 -1       734 1.15546E+00
 -1       735 1.02350E+00
 -1       736 8.84748E-01
 -1       737 7.28283E-01
 -1       738 5.64768E-01
 -1       739 4.15964E-01
 -1       740 2.92683E-01
 -1       741 1.97558E-01
 -1       742 1.28147E-01
 -1       743 7.98366E-02
 -1       744 4.79990E-02
 -1       745 2.84441E-02
 -1       746 1.59962E-02
 -1       747 8.47212E-03
 -1       748 4.10930E-03
 -1       749 1.61565E-03
 -1       750 1.67194E-03
 -1       751 1.54273E-03
 -1       752 1.26306E-03
 -1       753 1.01012E-03
 -1       754 1.88578E-01
 -1       755 5.44360E-01
 -1       756 9.07213E-01
 -1       757 1.48381E+00
 -1       758 2.36230E+00
 -1       759 4.90559E+00
 -1       760 1.01334E+01
 -1       761 4.11377E+00
 -1       762 8.30667E-04
 -1       763 2.24315E-01
 -1       764 2.96587E-01
 -1       765 1.78153E-01
 -1       766 1.04580E-01
 -1       767 5.99111E-02
 -1       768 3.44388E-02
 -1       769 1.99320E-02
 -1       770 1.13510E-02
 -1       771 6.32644E-03
 -1       772 3.45553E-03
 -1       773 1.98333E-03
 -1       774 1.32191E-03
 -1       775 1.09991E-03
 -1       776 6.58054E-04
 -1       777 1.05894E+01
 -1       778 8.30667E-04
 -1       779 6.85915E-04
 -1       780 6.85915E-04
 -1       781 8.13622E-04
 -1       782 3.20228E-01
 -1       783 4.01765E+00
 -1       784 6.12756E+00
 -1       785 2.10957E-01
 -1       786 1.52534E+01
 -1       787 8.00238E-01
 -1       788 2.40141E+00
 -1       789 3.26035E-01
 -1       790 1.92890E-01
 -1       791 2.86410E-01
 -1       792 7.09218E+00
 -1       793 5.65753E-04
 -1       794 7.71763E+00
 -1       795 5.39700E+00
 -1       796 5.91503E+00
 -1       797 4.49821E+00
 -1       798 2.39369E-01
 -1       799 4.27553E+00
 -1       800 2.82603E-01
 -1       801 3.10253E+00
 -1       802 3.51447E+00
 -1       803 2.97491E+00
 -1       804 9.40745E+00
 -1       805 6.46484E-04
 -1       806 2.83463E-01
 -1       807 2.86410E-01
 -1       808 2.79368E-01
 -1       809 3.18448E+00
 -1       810 6.42885E+00
 -1       811 2.91102E-01
 -1       812 5.52753E-04
 -1       813 2.24420E-01
 -1       814 2.20822E-01
 -1       815 2.91102E-01
 -1       816 3.64978E-01
 -1       817 1.79424E-01
 -1       818 1.94168E-01
 -1       819 1.98702E-01
 -1       820 2.37235E-01
 -1       821 3.02780E-01
 -1       822 3.98796E-01
 -1       823 5.30675E-01
 -1       824 6.94660E-01
 -1       825 8.79299E-01
 -1       826 1.04683E+00
 -1       827 1.20677E+00
 -1       828 1.35339E+00
 -1       829 1.39657E+00
 -1       830 1.66067E+00
 -1       831 1.75917E+00
 -1       832 1.67722E+00
 -1       833 1.77098E+00
 -1       834 1.62670E+00
 -1       835 1.38551E+00
 -1       836 1.32029E+00
 -1       837 1.19414E+00
 -1       838 1.02350E+00
 -1       839 8.44618E-01
 -1       840 6.51499E-01
 -1       841 4.75746E-01
 -1       842 3.31577E-01
 -1       843 2.22288E-01
 -1       844 1.43918E-01
 -1       845 9.20223E-02
 -1       846 5.80853E-02
 -1       847 3.51008E-02
 -1       848 2.09205E-02
 -1       849 1.20431E-02
 -1       850 6.53055E-03
 -1       851 3.23870E-03
 -1       852 1.35591E-03
 -1       853 1.04031E-03
 -1       854 1.04682E-03
 -1       855 9.87020E-04
 -1       856 1.83250E+00
 -1       857 1.17099E+00
 -1       858 2.78333E+00
 -1       859 7.05961E-01
 -1       860 3.53639E+00
 -1       861 5.46688E+00
 -1       862 1.70503E-01
 -1       863 4.23697E+00
 -1       864 1.81199E-01
 -1       865 1.28539E-01
 -1       866 7.30400E-02
 -1       867 4.03792E-02
 -1       868 2.28379E-02
 -1       869 1.26003E-02
 -1       870 7.77507E-03
 -1       871 4.72990E-03
 -1       872 2.85591E-03
 -1       873 1.72162E-03
 -1       874 1.09991E-03
 -1       875 5.16090E+00
 -1       876 6.15453E+00
 -1       877 7.08719E-04
 -1       878 7.52072E-04
 -1       879 4.34109E-01
 -1       880 2.12781E-01
 -1       881 6.15453E+00
 -1       882 2.81136E-01
 -1       883 2.98501E+00
 -1       884 2.12598E-01
 -1       885 3.89655E+00
 -1       886 3.29505E+00
 -1       887 1.46017E-01
 -1       888 1.43155E-01
 -1       889 4.43171E+00
 -1       890 1.09991E-03
 -1       891 1.68273E+00
 -1       892 2.65013E+00
 -1       893 3.06338E+00
 -1       894 2.80228E+00
 -1       895 2.69527E+00
 -1       896 3.12310E+00
 -1       897 1.03235E-01
 -1       898 9.46924E-04
 -1       899 7.46695E-04
 -1       900 3.30184E+00
 -1       901 7.69732E-04
 -1       902 5.04392E+00
 -1       903 5.97315E-01
 -1       904 9.32608E-01
 -1       905 2.01455E-01
 -1       906 2.42393E-01
 -1       907 2.88126E+00
 -1       908 2.15066E-01
 -1       909 2.42393E-01
 -1       910 9.22352E-02
 -1       911 2.23308E-01
 -1       912 2.64723E-01
 -1       913 1.16540E-01
 -1       914 1.33090E-01
 -1       915 1.61538E-01
 -1       916 2.01499E-01
 -1       917 2.60179E-01
 -1       918 3.70876E-01
 -1       919 5.32768E-01
 -1       920 7.37613E-01
 -1       921 9.81967E-01
 -1       922 1.38710E+00
 -1       923 1.40811E+00
 -1       924 2.12569E+00
 -1       925 2.18061E+00
 -1       926 2.08829E+00
 -1       927 2.32489E+00
 -1       928 1.82388E+00
 -1       929 1.62983E+00
 -1       930 1.57960E+00
 -1       931 1.38912E+00
 -1       932 1.19414E+00
 -1       933 9.65274E-01
 -1       934 7.16729E-01
 -1       935 5.28531E-01
 -1       936 4.00292E-01
 -1       937 2.86238E-01
 -1       938 1.94993E-01
 -1       939 1.27485E-01
 -1       940 8.07484E-02
 -1       941 4.98114E-02
 -1       942 2.97275E-02
 -1       943 1.76308E-02
 -1       944 9.97348E-03
 -1       945 5.28809E-03
 -1       946 2.52679E-03
 -1       947 9.66063E-04
 -1       948 7.27153E-04
 -1       949 1.28403E+00
 -1       950 2.91338E+00
 -1       951 1.87209E-01
 -1       952 1.49734E-01
 -1       953 7.31765E-04
 -1       954 1.41897E-01
 -1       955 5.50254E-02
 -1       956 3.17634E-02
 -1       957 1.77557E-02
 -1       958 1.00339E-02
 -1       959 5.46881E-03
 -1       960 3.01551E-03
 -1       961 2.06405E-03
 -1       962 1.37793E-03
 -1       963 4.82425E+00
 -1       964 2.18061E+00
 -1       965 5.67358E-01
 -1       966 9.37519E-02
 -1       967 9.46924E-04
 -1       968 1.12910E-01
 -1       969 2.23308E-01
 -1       970 2.51424E+00
 -1       971 2.42855E+00
 -1       972 4.54592E+00
 -1       973 8.55881E-01
 -1       974 1.07646E-03
 -1       975 8.26643E-04
 -1       976 4.60164E-01
 -1       977 2.16454E+00
 -1       978 2.80228E+00
 -1       979 2.08941E+00
 -1       980 7.50966E-04
 -1       981 2.54999E-01
 -1       982 3.71564E-01
 -1       983 2.72334E+00
 -1       984 2.91338E+00
 -1       985 2.23810E+00
 -1       986 1.70349E-01
 -1       987 3.12310E+00
 -1       988 2.30224E+00
 -1       989 1.23833E-01
 -1       990 1.27248E+00
 -1       991 2.32489E+00
 -1       992 2.12569E+00
 -1       993 9.32066E-02
 -1       994 1.19776E-01
 -1       995 2.00366E-01
 -1       996 3.24658E-01
 -1       997 4.83846E-01
 -1       998 6.95431E-01
 -1       999 1.33008E+00
 -1      1000 1.38710E+00
 -1      1001 2.30164E+00
 -1      1002 2.80228E+00
 -1      1003 1.38912E+00
 -1      1004 1.09602E+00
 -1      1005 8.94862E-01
 -1      1006 7.12434E-01
 -1      1007 5.57396E-01
 -1      1008 4.30534E-01
 -1      1009 3.08060E-01
 -1      1010 2.08599E-01
 -1      1011 1.35017E-01
 -1      1012 8.49376E-02
 -1      1013 4.96789E-02
 -1      1014 2.90866E-02
 -1      1015 1.64091E-02
 -1      1016 8.73790E-03
 -1      1017 4.26953E-03
 -1      1018 1.82064E-03
 -1      1019 6.02821E-04
 -1      1020 1.71461E+00
 -1      1021 1.70349E-01
 -1      1022 2.12915E-02
 -1      1023 1.14605E-02
 -1      1024 6.46114E-03
 -1      1025 8.01045E-02
 -1      1026 3.66189E-03
 -1      1027 2.06405E-03
 -1      1028 1.37793E-03
 -1      1029 1.82388E+00
 -1      1030 3.31882E+00
 -1      1031 4.06971E-02
 -1      1032 1.39751E-01
 -1      1033 1.58364E-01
 -1      1034 1.12910E-01
 -1      1035 7.35115E-02
 -1      1036 7.77776E-01
 -1      1037 1.47107E+00
 -1      1038 3.43621E-01
 -1      1039 1.22807E-03
 -1      1040 1.26650E-01
 -1      1041 1.80231E+00
 -1      1042 2.48347E-01
 -1      1043 8.55881E-01
 -1      1044 2.12944E-01
 -1      1045 3.76098E-01
 -1      1046 9.82656E-04
 -1      1047 1.73127E+00
 -1      1048 9.49740E-04
 -1      1049 1.92905E+00
 -1      1050 1.22807E-03
 -1      1051 1.19235E-01
 -1      1052 2.41096E+00
 -1      1053 2.49304E+00
 -1      1054 5.67358E-01
 -1      1055 2.91338E+00
 -1      1056 5.28653E-01
 -1      1057 2.12526E+00
 -1      1058 5.05629E-03
 -1      1059 2.45273E-01
 -1      1060 4.79769E-01
 -1      1061 4.97083E-01
 -1      1062 1.05966E+00
 -1      1063 1.38433E+00
 -1      1064 2.22539E+00
 -1      1065 1.76040E+00
 -1      1066 1.49679E+00
 -1      1067 1.03083E+00
 -1      1068 6.77829E-01
 -1      1069 4.75789E-01
 -1      1070 3.17766E-01
 -1      1071 2.03614E-01
 -1      1072 9.27948E-02
 -1      1073 7.25674E-02
 -1      1074 4.09619E-02
 -1      1075 2.21094E-02
 -1      1076 1.10622E-02
 -1      1077 4.81674E-03
 -1      1078 1.82064E-03
 -1      1079 1.29522E-01
 -1      1080 9.68936E-02
 -1      1081 2.56534E-02
 -1      1082 2.03083E-03
 -1      1083 1.34814E-03
 -1      1084 1.22438E-02
 -1      1085 2.64662E-01
 -1      1086 4.96388E-02
 -1      1087 9.27948E-02
 -1      1088 1.92905E+00
 -1      1089 1.85015E-01
 -1      1090 7.91485E-01
 -1      1091 1.17554E+00
 -1      1092 2.22539E+00
 -1      1093 6.74110E-01
 -1      1094 4.18661E-01
 -1      1095 8.54376E-02
 -1      1096 1.49679E+00
 -1      1097 1.76040E+00
 -1      1098 2.22539E+00
 -1      1099 2.65948E-01
 -1      1100 4.89890E-01
 -1      1101 2.48347E-01
 -1      1102 1.03083E+00
 -1      1103 1.16353E-03
 -1      1104 1.26650E-01
 -1      1105 2.55615E-01
 -1      1106 6.62008E-01
 -1      1107 1.31397E+01
 -1      1108 8.40430E+00
 -1      1109 2.74924E+00
 -1      1110 1.56170E+00
 -1      1111 1.17086E+00
 -1      1112 9.74086E-01
 -1      1113 8.54656E-01
 -1      1114 7.80494E-01
 -1      1115 7.52714E-01
 -1      1116 7.81769E-01
 -1      1117 8.53476E-01
 -1      1118 9.72359E-01
 -1      1119 1.17277E+00
 -1      1120 1.57152E+00
 -1      1121 2.77593E+00
 -1      1122 8.50420E+00
 -1      1123 1.33019E+01
 -1      1124 1.31397E+01
 -1      1125 8.72505E+00
 -1      1126 3.82075E+00
 -1      1127 2.71492E+00
 -1      1128 1.72243E+00
 -1      1129 1.16768E+00
 -1      1130 8.63820E-01
 -1      1131 6.40175E-01
 -1      1132 4.69257E-01
 -1      1133 3.41542E-01
 -1      1134 2.66259E-01
 -1      1135 2.70012E-01
 -1      1136 3.42511E-01
 -1      1137 4.83557E-01
 -1      1138 7.12511E-01
 -1      1139 1.02074E+00
 -1      1140 1.38909E+00
 -1      1141 1.82253E+00
 -1      1142 2.27279E+00
 -1      1143 2.62238E+00
 -1      1144 2.77807E+00
 -1      1145 2.80208E+00
 -1      1146 2.80668E+00
 -1      1147 2.78832E+00
 -1      1148 2.63491E+00
 -1      1149 2.28777E+00
 -1      1150 1.83540E+00
 -1      1151 1.39662E+00
 -1      1152 1.02419E+00
 -1      1153 7.33609E-01
 -1      1154 5.41201E-01
 -1      1155 4.00217E-01
 -1      1156 2.82805E-01
 -1      1157 1.91334E-01
 -1      1158 1.25169E-01
 -1      1159 8.54313E-02
 -1      1160 6.19654E-02
 -1      1161 4.32264E-02
 -1      1162 2.91145E-02
 -1      1163 1.89595E-02
 -1      1164 1.27471E-02
 -1      1165 9.15931E-03
 -1      1166 6.40539E-03
 -1      1167 4.34494E-03
 -1      1168 2.91195E-03
 -1      1169 1.96824E-03
 -1      1170 1.42918E-03
 -1      1171 1.10462E-03
 -1      1172 7.94658E-04
 -1      1173 3.90387E-04
 -1      1174 1.33019E+01
 -1      1175 8.79488E+00
 -1      1176 3.84449E+00
 -1      1177 2.78121E+00
 -1      1178 1.78068E+00
 -1      1179 1.22456E+00
 -1      1180 9.35537E-01
 -1      1181 7.43171E-01
 -1      1182 6.12284E-01
 -1      1183 5.33182E-01
 -1      1184 5.65341E-01
 -1      1185 7.86502E-01
 -1      1186 1.20613E+00
 -1      1187 1.83301E+00
 -1      1188 2.65485E+00
 -1      1189 3.95900E+00
 -1      1190 5.84752E+00
 -1      1191 7.87984E+00
 -1      1192 8.87511E+00
 -1      1193 8.74115E+00
 -1      1194 9.63253E+00
 -1      1195 1.63758E+01
 -1      1196 2.28364E+01
 -1      1197 2.35790E+01
 -1      1198 1.81987E+01
 -1      1199 9.42712E+00
 -1      1200 6.43209E+00
 -1      1201 6.82832E+00
 -1      1202 6.33475E+00
 -1      1203 5.08741E+00
 -1      1204 3.70960E+00
 -1      1205 2.61691E+00
 -1      1206 1.76470E+00
 -1      1207 1.10982E+00
 -1      1208 6.57277E-01
 -1      1209 3.80835E-01
 -1      1210 2.21549E-01
 -1      1211 1.20969E-01
 -1      1212 6.51843E-02
 -1      1213 3.65143E-02
 -1      1214 2.13973E-02
 -1      1215 1.22301E-02
 -1      1216 6.79857E-03
 -1      1217 3.74432E-03
 -1      1218 2.11818E-03
 -1      1219 1.18729E-03
 -1      1220 6.23420E-04
 -1      1221 3.50529E-04
 -1      1222 2.60278E-04
 -1      1223 2.14472E-04
 -1      1224 1.54354E-04
 -1      1225 8.05651E-05
 -1      1226 4.38343E-05
 -1      1227 5.53110E-05
 -1      1228 6.88066E-05
 -1      1229 7.07256E-05
 -1      1230 6.42195E-05
 -1      1231 4.51674E-05
 -1      1232 4.12379E-05
 -1      1233 6.34932E-05
 -1      1234 9.12055E-05
 -1      1235 1.11755E-04
 -1      1236 1.18232E-04
 -1      1237 1.15488E-04
 -1      1238 9.62137E-05
 -1      1239 7.83902E-05
 -1      1240 1.34215E-04
 -1      1241 2.88034E-04
 -1      1242 2.55410E-04
 -1      1243 2.55249E+01
 -1      1244 2.70045E+01
 -1      1245 3.58725E+01
 -1      1246 4.45589E+01
 -1      1247 3.15965E+01
 -1      1248 1.69566E+01
 -1      1249 1.52791E+01
 -1      1250 1.51761E+01
 -1      1251 1.47604E+01
 -1      1252 1.95304E+01
 -1      1253 2.77796E+01
 -1      1254 3.09463E+01
 -1      1255 2.89014E+01
 -1      1256 2.58549E+01
 -1      1257 2.48533E+01
 -1      1258 2.68357E+01
 -1      1259 2.92531E+01
 -1      1260 2.93795E+01
 -1      1261 2.07857E+01
 -1      1262 1.23114E+01
 -1      1263 1.21223E+01
 -1      1264 1.18200E+01
 -1      1265 1.19337E+01
 -1      1266 1.23496E+01
 -1      1267 1.37292E+01
 -1      1268 2.79389E+01
 -1      1269 4.07692E+01
 -1      1270 3.29046E+01
 -1      1271 2.46335E+01
 -1      1272 1.31397E+01
 -1      1273 4.87641E+00
 -1      1274 9.61179E+00
 -1      1275 2.06654E+00
 -1      1276 2.98622E+00
 -1      1277 4.19370E+00
 -1      1278 1.40227E+00
 -1      1279 1.67013E+00
 -1      1280 1.90711E+00
 -1      1281 1.10349E+00
 -1      1282 1.22648E+00
 -1      1283 1.33491E+00
 -1      1284 9.37194E-01
 -1      1285 1.01098E+00
 -1      1286 1.06660E+00
 -1      1287 8.36559E-01
 -1      1288 8.82204E-01
 -1      1289 9.19097E-01
 -1      1290 7.73549E-01
 -1      1291 8.02066E-01
 -1      1292 8.29614E-01
 -1      1293 7.53451E-01
 -1      1294 7.52714E-01
 -1      1295 7.74286E-01
 -1      1296 8.03246E-01
 -1      1297 7.74928E-01
 -1      1298 7.74928E-01
 -1      1299 8.80015E-01
 -1      1300 8.36626E-01
 -1      1301 8.29785E-01
 -1      1302 1.01178E+00
 -1      1303 9.36290E-01
 -1      1304 9.19441E-01
 -1      1305 1.23049E+00
 -1      1306 1.10558E+00
 -1      1307 1.06951E+00
 -1      1308 1.68058E+00
 -1      1309 1.40676E+00
 -1      1310 1.33956E+00
 -1      1311 3.01550E+00
 -1      1312 2.08491E+00
 -1      1313 1.92015E+00
 -1      1314 9.74746E+00
 -1      1315 4.94977E+00
 -1      1316 4.25875E+00
 -1      1317 1.33019E+01
 -1      1318 8.72505E+00
 -1      1319 4.31043E+00
 -1      1320 3.82075E+00
 -1      1321 3.33107E+00
 -1      1322 3.82075E+00
 -1      1323 2.71492E+00
 -1      1324 2.09877E+00
 -1      1325 2.71492E+00
 -1      1326 1.76725E+00
 -1      1327 1.39091E+00
 -1      1328 1.76725E+00
 -1      1329 1.17904E+00
 -1      1330 1.00063E+00
 -1      1331 1.22386E+00
 -1      1332 8.63820E-01
 -1      1333 7.38366E-01
 -1      1334 8.75181E-01
 -1      1335 6.47261E-01
 -1      1336 5.49070E-01
 -1      1337 6.47261E-01
 -1      1338 4.83868E-01
 -1      1339 4.11141E-01
 -1      1340 4.90955E-01
 -1      1341 3.70223E-01
 -1      1342 3.15234E-01
 -1      1343 3.84834E-01
 -1      1344 2.88784E-01
 -1      1345 2.68490E-01
 -1      1346 3.17466E-01
 -1      1347 2.94218E-01
 -1      1348 3.18266E-01
 -1      1349 3.16744E-01
 -1      1350 3.70580E-01
 -1      1351 4.19032E-01
 -1      1352 3.94786E-01
 -1      1353 4.95936E-01
 -1      1354 5.88531E-01
 -1      1355 5.24005E-01
 -1      1356 6.89055E-01
 -1      1357 8.25414E-01
 -1      1358 7.01434E-01
 -1      1359 9.44814E-01
 -1      1360 1.11668E+00
 -1      1361 9.21358E-01
 -1      1362 1.25237E+00
 -1      1363 1.44886E+00
 -1      1364 1.17644E+00
 -1      1365 1.61985E+00
 -1      1366 1.85681E+00
 -1      1367 1.48313E+00
 -1      1368 2.05948E+00
 -1      1369 2.27279E+00
 -1      1370 1.85681E+00
 -1      1371 2.48609E+00
 -1      1372 2.62238E+00
 -1      1373 2.27279E+00
 -1      1374 2.75867E+00
 -1      1375 2.77807E+00
 -1      1376 2.62238E+00
 -1      1377 2.79748E+00
 -1      1378 2.80208E+00
 -1      1379 2.77807E+00
 -1      1380 2.80668E+00
 -1      1381 2.80668E+00
 -1      1382 2.80208E+00
 -1      1383 2.78832E+00
 -1      1384 2.76996E+00
 -1      1385 2.78832E+00
 -1      1386 2.63491E+00
 -1      1387 2.49987E+00
 -1      1388 2.63491E+00
 -1      1389 2.28777E+00
 -1      1390 2.07567E+00
 -1      1391 2.28777E+00
 -1      1392 1.86778E+00
 -1      1393 1.62750E+00
 -1      1394 1.86778E+00
 -1      1395 1.45032E+00
 -1      1396 1.25182E+00
 -1      1397 1.48270E+00
 -1      1398 1.11151E+00
 -1      1399 9.37592E-01
 -1      1400 1.16522E+00
 -1      1401 8.12947E-01
 -1      1402 6.96280E-01
 -1      1403 9.00263E-01
 -1      1404 5.88350E-01
 -1      1405 5.12608E-01
 -1      1406 6.67687E-01
 -1      1407 4.25424E-01
 -1      1408 3.60181E-01
 -1      1409 4.72573E-01
 -1      1410 2.93840E-01
 -1      1411 2.41672E-01
 -1      1412 3.19048E-01
 -1      1413 1.97677E-01
 -1      1414 1.58374E-01
 -1      1415 2.08712E-01
 -1      1416 1.31584E-01
 -1      1417 1.04722E-01
 -1      1418 1.37927E-01
 -1      1419 8.54313E-02
 -1      1420 7.25559E-02
 -1      1421 9.18463E-02
 -1      1422 6.19654E-02
 -1      1423 5.13750E-02
 -1      1424 6.19654E-02
 -1      1425 4.32264E-02
 -1      1426 3.50778E-02
 -1      1427 4.32264E-02
 -1      1428 2.91145E-02
 -1      1429 2.31513E-02
 -1      1430 2.91145E-02
 -1      1431 1.94051E-02
 -1      1432 1.52133E-02
 -1      1433 1.94051E-02
 -1      1434 1.27471E-02
 -1      1435 1.07266E-02
 -1      1436 1.31928E-02
 -1      1437 9.15931E-03
 -1      1438 7.59206E-03
 -1      1439 9.15931E-03
 -1      1440 6.48714E-03
 -1      1441 5.30046E-03
 -1      1442 6.48714E-03
 -1      1443 4.52941E-03
 -1      1444 3.65564E-03
 -1      1445 4.61116E-03
 -1      1446 3.07907E-03
 -1      1447 2.51985E-03
 -1      1448 3.26354E-03
 -1      1449 2.13674E-03
 -1      1450 1.75225E-03
 -1      1451 2.30386E-03
 -1      1452 1.43565E-03
 -1      1453 1.28109E-03
 -1      1454 1.60416E-03
 -1      1455 1.10462E-03
 -1      1456 9.34625E-04
 -1      1457 1.11109E-03
 -1      1458 7.94658E-04
 -1      1459 6.54690E-04
 -1      1460 7.94658E-04
 -1      1461 5.19713E-04
 -1      1462 5.19713E-04
 -1      1463 4.28786E+00
 -1      1464 8.79488E+00
 -1      1465 3.40112E+00
 -1      1466 3.84449E+00
 -1      1467 3.84449E+00
 -1      1468 2.16129E+00
 -1      1469 2.78121E+00
 -1      1470 2.78121E+00
 -1      1471 1.43549E+00
 -1      1472 1.81610E+00
 -1      1473 1.81610E+00
 -1      1474 1.04905E+00
 -1      1475 1.22456E+00
 -1      1476 1.25997E+00
 -1      1477 8.22029E-01
 -1      1478 9.35537E-01
 -1      1479 9.35537E-01
 -1      1480 6.64313E-01
 -1      1481 7.43171E-01
 -1      1482 7.43171E-01
 -1      1483 5.60256E-01
 -1      1484 6.12284E-01
 -1      1485 6.12284E-01
 -1      1486 5.06109E-01
 -1      1487 5.33182E-01
 -1      1488 5.33182E-01
 -1      1489 5.63958E-01
 -1      1490 5.04725E-01
 -1      1491 5.04725E-01
 -1      1492 7.97792E-01
 -1      1493 6.35864E-01
 -1      1494 5.75248E-01
 -1      1495 1.32686E+00
 -1      1496 1.06915E+00
 -1      1497 9.18515E-01
 -1      1498 2.15674E+00
 -1      1499 1.78757E+00
 -1      1500 1.65059E+00
 -1      1501 3.29804E+00
 -1      1502 2.84537E+00
 -1      1503 2.79993E+00
 -1      1504 5.06800E+00
 -1      1505 4.21653E+00
 -1      1506 4.40704E+00
 -1      1507 7.09026E+00
 -1      1508 6.05321E+00
 -1      1509 6.31074E+00
 -1      1510 8.91823E+00
 -1      1511 7.92296E+00
 -1      1512 8.12865E+00
 -1      1513 9.38027E+00
 -1      1514 9.38027E+00
 -1      1515 9.42340E+00
 -1      1516 1.03771E+01
 -1      1517 1.05111E+01
 -1      1518 1.10162E+01
 -1      1519 1.04432E+01
 -1      1520 9.41784E+00
 -1      1521 1.11878E+01
 -1      1522 2.28364E+01
 -1      1523 2.20937E+01
 -1      1524 2.35790E+01
 -1      1525 2.35790E+01
 -1      1526 2.28364E+01
 -1      1527 1.30024E+01
 -1      1528 1.83827E+01
 -1      1529 1.83827E+01
 -1      1530 8.04028E+00
 -1      1531 1.14315E+01
 -1      1532 1.16156E+01
 -1      1533 8.33330E+00
 -1      1534 7.93707E+00
 -1      1535 9.94149E+00
 -1      1536 7.34429E+00
 -1      1537 7.34429E+00
 -1      1538 8.84927E+00
 -1      1539 6.50078E+00
 -1      1540 6.99435E+00
 -1      1541 7.51032E+00
 -1      1542 5.10224E+00
 -1      1543 5.85601E+00
 -1      1544 6.51561E+00
 -1      1545 3.67136E+00
 -1      1546 4.29540E+00
 -1      1547 5.06400E+00
 -1      1548 2.46748E+00
 -1      1549 2.93612E+00
 -1      1550 3.52192E+00
 -1      1551 1.53552E+00
 -1      1552 1.91910E+00
 -1      1553 2.23830E+00
 -1      1554 9.02877E-01
 -1      1555 1.17418E+00
 -1      1556 1.32858E+00
 -1      1557 5.11718E-01
 -1      1558 6.92957E-01
 -1      1559 7.57318E-01
 -1      1560 3.11963E-01
 -1      1561 4.07165E-01
 -1      1562 4.42845E-01
 -1      1563 1.75934E-01
 -1      1564 2.40018E-01
 -1      1565 2.66348E-01
 -1      1566 9.67190E-02
 -1      1567 1.33215E-01
 -1      1568 1.51684E-01
 -1      1569 5.27786E-02
 -1      1570 7.20678E-02
 -1      1571 8.43133E-02
 -1      1572 2.94518E-02
 -1      1573 3.88325E-02
 -1      1574 4.57160E-02
 -1      1575 1.66840E-02
 -1      1576 2.24202E-02
 -1      1577 2.47384E-02
 -1      1578 9.76647E-03
 -1      1579 1.31974E-02
 -1      1580 1.42203E-02
 -1      1581 5.57093E-03
 -1      1582 7.57154E-03
 -1      1583 8.53883E-03
 -1      1584 3.17697E-03
 -1      1585 4.23060E-03
 -1      1586 5.00358E-03
 -1      1587 1.81355E-03
 -1      1588 2.38606E-03
 -1      1589 2.87234E-03
 -1      1590 1.00734E-03
 -1      1591 1.36573E-03
 -1      1592 1.63360E-03
 -1      1593 5.60911E-04
 -1      1594 7.66396E-04
 -1      1595 9.44834E-04
 -1      1596 3.75513E-04
 -1      1597 4.42919E-04
 -1      1598 5.85895E-04
 -1      1599 2.84811E-04
 -1      1600 3.07656E-04
 -1      1601 4.00046E-04
 -1      1602 2.19240E-04
 -1      1603 2.42200E-04
 -1      1604 2.89578E-04
 -1      1605 1.31892E-04
 -1      1606 1.69050E-04
 -1      1607 1.96778E-04
 -1      1608 6.62965E-05
 -1      1609 1.02927E-04
 -1      1610 1.17623E-04
 -1      1611 6.61966E-05
 -1      1612 9.67768E-05
 -1      1613 8.52002E-05
 -1      1614 1.07662E-04
 -1      1615 1.17504E-04
 -1      1616 1.15585E-04
 -1      1617 1.45474E-04
 -1      1618 1.17504E-04
 -1      1619 1.17504E-04
 -1      1620 1.64283E-04
 -1      1621 1.03833E-04
 -1      1622 1.10340E-04
 -1      1623 1.57118E-04
 -1      1624 6.57353E-05
 -1      1625 7.82814E-05
 -1      1626 1.24401E-04
 -1      1627 8.69791E-05
 -1      1628 7.83625E-05
 -1      1629 1.11476E-04
 -1      1630 1.37008E-04
 -1      1631 1.23369E-04
 -1      1632 1.60494E-04
 -1      1633 1.80412E-04
 -1      1634 1.66338E-04
 -1      1635 2.26214E-04
 -1      1636 1.98663E-04
 -1      1637 1.92186E-04
 -1      1638 2.67319E-04
 -1      1639 1.98663E-04
 -1      1640 1.98663E-04
 -1      1641 2.79094E-04
 -1      1642 1.95325E-04
 -1      1643 1.98069E-04
 -1      1644 2.78500E-04
 -1      1645 1.54137E-04
 -1      1646 1.70668E-04
 -1      1647 2.53248E-04
 -1      1648 1.14450E-04
 -1      1649 1.15742E-04
 -1      1650 1.90197E-04
 -1      1651 3.27138E-04
 -1      1652 2.70021E-04
 -1      1653 3.07373E-04
 -1      1654 3.01957E+01
 -1      1655 2.88978E+01
 -1      1656 3.03774E+01
 -1      1657 3.01957E+01
 -1      1658 4.02230E+01
 -1      1659 3.15367E+01
 -1      1660 4.45589E+01
 -1      1661 4.45589E+01
 -1      1662 1.86341E+01
 -1      1663 3.15965E+01
 -1      1664 1.41733E+01
 -1      1665 1.58508E+01
 -1      1666 1.52791E+01
 -1      1667 1.52791E+01
 -1      1668 1.50731E+01
 -1      1669 1.51761E+01
 -1      1670 1.44477E+01
 -1      1671 1.47604E+01
 -1      1672 1.93620E+01
 -1      1673 1.42794E+01
 -1      1674 2.87197E+01
 -1      1675 2.55530E+01
 -1      1676 3.12566E+01
 -1      1677 3.12566E+01
 -1      1678 2.92117E+01
 -1      1679 3.12566E+01
 -1      1680 2.80534E+01
 -1      1681 2.90551E+01
 -1      1682 2.80534E+01
 -1      1683 2.80534E+01
 -1      1684 2.66153E+01
 -1      1685 2.46329E+01
 -1      1686 2.96881E+01
 -1      1687 2.92531E+01
 -1      1688 2.93795E+01
 -1      1689 2.96881E+01
 -1      1690 1.25004E+01
 -1      1691 2.07857E+01
 -1      1692 1.18983E+01
 -1      1693 1.20873E+01
 -1      1694 1.21223E+01
 -1      1695 1.21223E+01
 -1      1696 1.14480E+01
 -1      1697 1.17503E+01
 -1      1698 1.19337E+01
 -1      1699 1.15177E+01
 -1      1700 1.23496E+01
 -1      1701 1.23496E+01
 -1      1702 1.32237E+01
 -1      1703 1.18442E+01
 -1      1704 2.79389E+01
 -1      1705 1.51087E+01
 -1      1706 4.07692E+01
 -1      1707 4.07692E+01
 -1      1708 3.11342E+01
 -1      1709 3.89987E+01
 -1      1710 2.61269E+01
 -1      1711 2.65334E+01
 -1      1712 9.74746E+00
 -1      1713 1.20863E+01
 -1      1714 1.18716E+01
 -1      1715 1.78042E+01
 -1      1716 3.47279E+01
 -1      1717 3.07977E+01
 -1      1718 3.35686E+01
 -1      1719 4.23840E-04
 -1      1720 3.27138E-04
 -1      1721 4.62944E-04
 -1      1722 4.02230E+01
 -1      1723 3.15965E+01
 -1      1724 1.58508E+01
 -1      1725 1.41733E+01
 -1      1726 1.51761E+01
 -1      1727 1.47604E+01
 -1      1728 1.42794E+01
 -1      1729 2.03020E+01
 -1      1730 2.90300E+01
 -1      1731 3.15669E+01
 -1      1732 3.14103E+01
 -1      1733 3.12536E+01
 -1      1734 2.78330E+01
 -1      1735 2.70503E+01
 -1      1736 2.96881E+01
 -1      1737 2.10943E+01
 -1      1738 1.20873E+01
 -1      1739 1.18983E+01
 -1      1740 1.17503E+01
 -1      1741 1.14480E+01
 -1      1742 1.19337E+01
 -1      1743 1.18442E+01
 -1      1744 1.32237E+01
 -1      1745 2.79389E+01
 -1      1746 3.89987E+01
 -1      1747 3.26276E+01
 -1      1748 9.61179E+00
 -1      1749 1.78042E+01
 -1      1750 1.28160E+00
 -1      1751 1.67801E+00
 -1      1752 2.39482E+00
 -1      1753 4.28501E+00
 -1      1754 1.76931E+00
 -1      1755 8.83804E-01
 -1      1756 9.76318E-01
 -1      1757 7.79599E-01
 -1      1758 8.34588E-01
 -1      1759 7.44306E-01
 -1      1760 7.13634E-01
 -1      1761 7.48127E-01
 -1      1762 6.63619E-01
 -1      1763 6.70336E-01
 -1      1764 6.91171E-01
 -1      1765 6.09684E-01
 -1      1766 6.92817E-01
 -1      1767 6.71340E-01
 -1      1768 5.88225E-01
 -1      1769 7.47867E-01
 -1      1770 7.14487E-01
 -1      1771 6.10899E-01
 -1      1772 8.37314E-01
 -1      1773 7.81039E-01
 -1      1774 6.65741E-01
 -1      1775 9.78411E-01
 -1      1776 8.84620E-01
 -1      1777 7.46218E-01
 -1      1778 1.21895E+00
 -1      1779 1.04269E+00
 -1      1780 8.57800E-01
 -1      1781 1.70541E+00
 -1      1782 1.30108E+00
 -1      1783 1.00420E+00
 -1      1784 4.33739E+00
 -1      1785 2.40312E+00
 -1      1786 1.78404E+00
 -1      1787 3.14389E+01
 -1      1788 3.02796E+01
 -1      1789 1.38128E+01
 -1      1790 1.21698E+01
 -1      1791 5.19716E+00
 -1      1792 5.24044E+00
 -1      1793 2.52626E+00
 -1      1794 1.91011E+00
 -1      1795 1.67859E+00
 -1      1796 1.34707E+00
 -1      1797 1.48992E+00
 -1      1798 1.16641E+00
 -1      1799 9.54539E-01
 -1      1800 1.07774E+00
 -1      1801 8.30444E-01
 -1      1802 6.93629E-01
 -1      1803 7.72988E-01
 -1      1804 6.30537E-01
 -1      1805 5.39432E-01
 -1      1806 5.85800E-01
 -1      1807 4.86700E-01
 -1      1808 4.21498E-01
 -1      1809 4.69976E-01
 -1      1810 3.86993E-01
 -1      1811 3.46074E-01
 -1      1812 3.82738E-01
 -1      1813 3.28670E-01
 -1      1814 3.02220E-01
 -1      1815 3.30829E-01
 -1      1816 3.22681E-01
 -1      1817 3.48409E-01
 -1      1818 3.33885E-01
 -1      1819 3.86745E-01
 -1      1820 4.39060E-01
 -1      1821 3.92683E-01
 -1      1822 4.96204E-01
 -1      1823 5.73109E-01
 -1      1824 4.88163E-01
 -1      1825 6.48168E-01
 -1      1826 7.48692E-01
 -1      1827 6.20367E-01
 -1      1828 8.38094E-01
 -1      1829 9.57494E-01
 -1      1830 7.84828E-01
 -1      1831 1.06987E+00
 -1      1832 1.20556E+00
 -1      1833 9.86606E-01
 -1      1834 1.33216E+00
 -1      1835 1.50316E+00
 -1      1836 1.22558E+00
 -1      1837 1.61907E+00
 -1      1838 1.82174E+00
 -1      1839 1.46810E+00
 -1      1840 1.95783E+00
 -1      1841 2.17113E+00
 -1      1842 1.72009E+00
 -1      1843 2.26180E+00
 -1      1844 2.39809E+00
 -1      1845 1.94684E+00
 -1      1846 2.42481E+00
 -1      1847 2.44422E+00
 -1      1848 2.06423E+00
 -1      1849 2.40700E+00
 -1      1850 2.41160E+00
 -1      1851 2.05374E+00
 -1      1852 2.45259E+00
 -1      1853 2.43423E+00
 -1      1854 2.05751E+00
 -1      1855 2.40729E+00
 -1      1856 2.27224E+00
 -1      1857 2.07156E+00
 -1      1858 2.18131E+00
 -1      1859 1.96921E+00
 -1      1860 1.95369E+00
 -1      1861 1.83250E+00
 -1      1862 1.62461E+00
 -1      1863 1.72604E+00
 -1      1864 1.50140E+00
 -1      1865 1.32422E+00
 -1      1866 1.46613E+00
 -1      1867 1.19394E+00
 -1      1868 1.05363E+00
 -1      1869 1.21264E+00
 -1      1870 9.31552E-01
 -1      1871 8.06907E-01
 -1      1872 9.60279E-01
 -1      1873 7.09930E-01
 -1      1874 6.02000E-01
 -1      1875 7.41219E-01
 -1      1876 5.17138E-01
 -1      1877 4.29954E-01
 -1      1878 5.59381E-01
 -1      1879 3.60296E-01
 -1      1880 2.93955E-01
 -1      1881 4.04861E-01
 -1      1882 2.39877E-01
 -1      1883 1.95882E-01
 -1      1884 2.81124E-01
 -1      1885 1.55960E-01
 -1      1886 1.29169E-01
 -1      1887 1.87124E-01
 -1      1888 1.01046E-01
 -1      1889 8.17555E-02
 -1      1890 1.19078E-01
 -1      1891 6.28177E-02
 -1      1892 5.22273E-02
 -1      1893 7.20173E-02
 -1      1894 4.00425E-02
 -1      1895 3.18939E-02
 -1      1896 4.08948E-02
 -1      1897 2.69211E-02
 -1      1898 2.09579E-02
 -1      1899 2.37372E-02
 -1      1900 1.83395E-02
 -1      1901 1.45933E-02
 -1      1902 1.61461E-02
 -1      1903 1.25392E-02
 -1      1904 1.00730E-02
 -1      1905 1.14735E-02
 -1      1906 8.53306E-03
 -1      1907 6.96580E-03
 -1      1908 7.87945E-03
 -1      1909 6.24768E-03
 -1      1910 5.14276E-03
 -1      1911 5.62143E-03
 -1      1912 4.51044E-03
 -1      1913 3.73939E-03
 -1      1914 4.27099E-03
 -1      1915 3.26781E-03
 -1      1916 2.69124E-03
 -1      1917 3.16709E-03
 -1      1918 2.31152E-03
 -1      1919 1.92842E-03
 -1      1920 2.31580E-03
 -1      1921 1.61424E-03
 -1      1922 1.29764E-03
 -1      1923 1.62189E-03
 -1      1924 1.09701E-03
 -1      1925 9.20543E-04
 -1      1926 1.10709E-03
 -1      1927 7.63306E-04
 -1      1928 6.23338E-04
 -1      1929 7.49224E-04
 -1      1930 1.37845E+00
 -1      1931 1.72364E+00
 -1      1932 1.94855E+00
 -1      1933 2.56846E+00
 -1      1934 1.51090E+00
 -1      1935 9.85859E-01
 -1      1936 1.19679E+00
 -1      1937 1.10433E+00
 -1      1938 7.44231E-01
 -1      1939 8.57739E-01
 -1      1940 7.94553E-01
 -1      1941 6.15092E-01
 -1      1942 6.93950E-01
 -1      1943 6.16152E-01
 -1      1944 5.19052E-01
 -1      1945 5.71081E-01
 -1      1946 5.21860E-01
 -1      1947 4.54063E-01
 -1      1948 4.81137E-01
 -1      1949 4.39933E-01
 -1      1950 4.19372E-01
 -1      1951 4.20755E-01
 -1      1952 3.68710E-01
 -1      1953 5.41285E-01
 -1      1954 4.69379E-01
 -1      1955 3.85408E-01
 -1      1956 1.00980E+00
 -1      1957 7.38438E-01
 -1      1958 6.32569E-01
 -1      1959 1.80063E+00
 -1      1960 1.33991E+00
 -1      1961 1.15984E+00
 -1      1962 3.01232E+00
 -1      1963 2.32370E+00
 -1      1964 2.01302E+00
 -1      1965 4.75330E+00
 -1      1966 3.83481E+00
 -1      1967 3.35858E+00
 -1      1968 6.95337E+00
 -1      1969 5.96816E+00
 -1      1970 5.39593E+00
 -1      1971 9.66185E+00
 -1      1972 8.82915E+00
 -1      1973 8.48657E+00
 -1      1974 1.22482E+01
 -1      1975 1.17862E+01
 -1      1976 1.24867E+01
 -1      1977 1.42328E+01
 -1      1978 1.94291E+01
 -1      1979 1.93261E+01
 -1      1980 1.85834E+01
 -1      1981 1.20853E+01
 -1      1982 1.21885E+01
 -1      1983 1.37948E+01
 -1      1984 1.47838E+01
 -1      1985 8.07166E+00
 -1      1986 8.42160E+00
 -1      1987 1.43562E+01
 -1      1988 7.34815E+00
 -1      1989 7.99292E+00
 -1      1990 8.90420E+00
 -1      1991 5.23548E+00
 -1      1992 6.04232E+00
 -1      1993 7.51963E+00
 -1      1994 3.42669E+00
 -1      1995 4.16193E+00
 -1      1996 5.14024E+00
 -1      1997 2.10123E+00
 -1      1998 2.64961E+00
 -1      1999 3.28961E+00
 -1      2000 1.22956E+00
 -1      2001 1.59090E+00
 -1      2002 2.00220E+00
 -1      2003 7.02099E-01
 -1      2004 9.12018E-01
 -1      2005 1.17434E+00
 -1      2006 4.18071E-01
 -1      2007 5.22624E-01
 -1      2008 6.77324E-01
 -1      2009 2.34122E-01
 -1      2010 3.06067E-01
 -1      2011 3.85845E-01
 -1      2012 1.27839E-01
 -1      2013 1.70558E-01
 -1      2014 2.10277E-01
 -1      2015 6.79194E-02
 -1      2016 9.25706E-02
 -1      2017 1.11445E-01
 -1      2018 3.48811E-02
 -1      2019 4.88271E-02
 -1      2020 5.70844E-02
 -1      2021 1.95057E-02
 -1      2022 2.65372E-02
 -1      2023 2.96483E-02
 -1      2024 1.13002E-02
 -1      2025 1.47868E-02
 -1      2026 1.65856E-02
 -1      2027 6.41053E-03
 -1      2028 8.60545E-03
 -1      2029 9.17192E-03
 -1      2030 3.86742E-03
 -1      2031 5.20775E-03
 -1      2032 5.27437E-03
 -1      2033 2.35285E-03
 -1      2034 3.14377E-03
 -1      2035 3.34794E-03
 -1      2036 1.42404E-03
 -1      2037 1.87186E-03
 -1      2038 2.14329E-03
 -1      2039 8.78534E-04
 -1      2040 1.11948E-03
 -1      2041 1.35774E-03
 -1      2042 5.75332E-04
 -1      2043 6.93324E-04
 -1      2044 8.67970E-04
 -1      2045 3.96327E-04
 -1      2046 4.64184E-04
 -1      2047 5.71613E-04
 -1      2048 2.92235E-04
 -1      2049 3.34846E-04
 -1      2050 3.98984E-04
 -1      2051 1.73809E-04
 -1      2052 2.23999E-04
 -1      2053 2.69267E-04
 -1      2054 1.29817E-04
 -1      2055 1.58782E-04
 -1      2056 1.86003E-04
 -1      2057 1.48821E-04
 -1      2058 1.99845E-04
 -1      2059 1.99845E-04
 -1      2060 1.80733E-04
 -1      2061 1.61925E-04
 -1      2062 1.84080E-04
 -1      2063 2.16295E-04
 -1      2064 1.92680E-04
 -1      2065 1.99845E-04
 -1      2066 2.35407E-04
 -1      2067 1.49017E-04
 -1      2068 1.74569E-04
 -1      2069 2.17296E-04
 -1      2070 1.46704E-04
 -1      2071 1.34077E-04
 -1      2072 1.84245E-04
 -1      2073 2.33435E-04
 -1      2074 1.97045E-04
 -1      2075 2.19645E-04
 -1      2076 3.03281E-04
 -1      2077 2.73951E-04
 -1      2078 3.10502E-04
 -1      2079 3.36674E-04
 -1      2080 3.24900E-04
 -1      2081 3.72636E-04
 -1      2082 3.39796E-04
 -1      2083 3.39796E-04
 -1      2084 3.97377E-04
 -1      2085 3.39495E-04
 -1      2086 3.40089E-04
 -1      2087 4.00791E-04
 -1      2088 3.14838E-04
 -1      2089 3.39495E-04
 -1      2090 4.01085E-04
 -1      2091 2.30644E-04
 -1      2092 2.69039E-04
 -1      2093 3.55285E-04
 -1      2094 3.96977E-04
 -1      2095 2.41406E-04
 -1      2096 3.20248E-04
 -1      2097 3.47123E+01
 -1      2098 3.03765E+01
 -1      2099 5.58817E-04
 -1      2100 4.21360E+01
 -1      2101 3.93651E+01
 -1      2102 1.39812E+01
 -1      2103 1.03924E+00
 -1      2104 1.21503E+00
 -1      2105 9.85934E-01
 -1      2106 8.56446E-01
 -1      2107 1.64832E+01
 -1      2108 2.94456E+01
 -1      2109 1.31269E+01
 -1      2110 1.82707E+01
 -1      2111 1.83608E+01
 -1      2112 3.15669E+01
 -1      2113 3.15669E+01
 -1      2114 3.42995E+01
 -1      2115 3.44562E+01
 -1      2116 3.77160E+01
 -1      2117 3.77160E+01
 -1      2118 4.07619E+01
 -1      2119 3.42955E+01
 -1      2120 3.77160E+01
 -1      2121 2.67047E+01
 -1      2122 2.40669E+01
 -1      2123 3.39499E+01
 -1      2124 2.50776E+01
 -1      2125 2.50776E+01
 -1      2126 1.23569E+01
 -1      2127 2.09508E+01
 -1      2128 9.21835E+00
 -1      2129 9.63142E+00
 -1      2130 1.05216E+01
 -1      2131 1.02976E+01
 -1      2132 1.09489E+01
 -1      2133 1.13209E+01
 -1      2134 1.13426E+01
 -1      2135 1.12729E+01
 -1      2136 1.14771E+01
 -1      2137 1.10612E+01
 -1      2138 9.91704E+00
 -1      2139 1.04225E+01
 -1      2140 1.13766E+01
 -1      2141 9.49161E+00
 -1      2142 2.76149E+01
 -1      2143 1.47846E+01
 -1      2144 3.13592E+01
 -1      2145 3.31297E+01
 -1      2146 2.58637E+01
 -1      2147 3.04645E+01
 -1      2148 3.38481E+00
 -1      2149 4.21360E+01
 -1      2150 4.21360E+01
 -1      2151 3.39828E+00
 -1      2152 2.22684E+01
 -1      2153 1.41361E+01
 -1      2154 1.50954E+01
 -1      2155 2.48054E+01
 -1      2156 5.27465E-04
 -1      2157 3.88469E+01
 -1      2158 5.07034E+01
 -1      2159 2.59282E+01
 -1      2160 2.48054E+01
 -1      2161 2.90860E+00
 -1      2162 2.20942E+01
 -1      2163 2.10378E+00
 -1      2164 1.43394E+01
 -1      2165 1.59103E+01
 -1      2166 2.10878E+00
 -1      2167 2.94144E+00
 -1      2168 1.08434E+01
 -1      2169 1.24133E+01
 -1      2170 1.47761E+01
 -1      2171 4.41784E+01
 -1      2172 1.35441E+01
 -1      2173 1.95991E+01
 -1      2174 1.70309E+01
 -1      2175 8.06994E+00
 -1      2176 5.27465E-04
 -1      2177 3.72020E+01
 -1      2178 9.54999E+00
 -1      2179 2.45954E+01
 -1      2180 1.99754E+01
 -1      2181 1.10526E+01
 -1      2182 1.08860E+01
 -1      2183 9.72020E+00
 -1      2184 7.84171E+00
 -1      2185 9.48791E+00
 -1      2186 1.64925E+01
 -1      2187 3.44562E+01
 -1      2188 1.63402E+01
 -1      2189 4.61498E-04
 -1      2190 5.60036E-01
 -1      2191 5.91508E-01
 -1      2192 6.03757E-01
 -1      2193 6.52973E-01
 -1      2194 5.00175E-01
 -1      2195 5.09974E-01
 -1      2196 5.08970E-01
 -1      2197 5.44578E-01
 -1      2198 5.22908E-01
 -1      2199 4.43653E-01
 -1      2200 5.92742E-01
 -1      2201 5.59571E-01
 -1      2202 4.71580E-01
 -1      2203 6.52704E-01
 -1      2204 6.05397E-01
 -1      2205 4.99227E-01
 -1      2206 7.17729E-01
 -1      2207 6.53453E-01
 -1      2208 5.12632E-01
 -1      2209 7.99855E-01
 -1      2210 7.17729E-01
 -1      2211 5.13382E-01
 -1      2212 1.65013E+00
 -1      2213 9.52415E-01
 -1      2214 6.65943E-01
 -1      2215 1.27715E+00
 -1      2216 1.26291E+00
 -1      2217 1.03139E+00
 -1      2218 2.69905E+01
 -1      2219 3.88469E+01
 -1      2220 9.78180E-01
 -1      2221 7.97520E-01
 -1      2222 7.51163E-01
 -1      2223 7.42027E-01
 -1      2224 6.17931E-01
 -1      2225 6.42463E-01
 -1      2226 5.64471E-01
 -1      2227 5.01379E-01
 -1      2228 5.33510E-01
 -1      2229 4.57229E-01
 -1      2230 4.04497E-01
 -1      2231 4.35900E-01
 -1      2232 3.78859E-01
 -1      2233 3.44354E-01
 -1      2234 3.66112E-01
 -1      2235 3.28469E-01
 -1      2236 3.11064E-01
 -1      2237 3.24589E-01
 -1      2238 3.17143E-01
 -1      2239 3.37604E-01
 -1      2240 3.14783E-01
 -1      2241 3.64187E-01
 -1      2242 4.02523E-01
 -1      2243 3.47445E-01
 -1      2244 4.43851E-01
 -1      2245 5.00995E-01
 -1      2246 4.15355E-01
 -1      2247 5.57767E-01
 -1      2248 6.32826E-01
 -1      2249 5.13454E-01
 -1      2250 7.17160E-01
 -1      2251 8.06562E-01
 -1      2252 6.54560E-01
 -1      2253 9.06196E-01
 -1      2254 1.01857E+00
 -1      2255 8.38528E-01
 -1      2256 1.12276E+00
 -1      2257 1.24936E+00
 -1      2258 1.04235E+00
 -1      2259 1.34171E+00
 -1      2260 1.45762E+00
 -1      2261 1.23888E+00
 -1      2262 1.52831E+00
 -1      2263 1.66440E+00
 -1      2264 1.40192E+00
 -1      2265 1.72836E+00
 -1      2266 1.81903E+00
 -1      2267 1.53659E+00
 -1      2268 1.83882E+00
 -1      2269 1.86555E+00
 -1      2270 1.62035E+00
 -1      2271 1.84243E+00
 -1      2272 1.80521E+00
 -1      2273 1.61702E+00
 -1      2274 1.80809E+00
 -1      2275 1.84908E+00
 -1      2276 1.59678E+00
 -1      2277 1.87088E+00
 -1      2278 1.84394E+00
 -1      2279 1.62146E+00
 -1      2280 1.82271E+00
 -1      2281 1.73177E+00
 -1      2282 1.62202E+00
 -1      2283 1.66597E+00
 -1      2284 1.52926E+00
 -1      2285 1.53499E+00
 -1      2286 1.45247E+00
 -1      2287 1.32927E+00
 -1      2288 1.39240E+00
 -1      2289 1.23266E+00
 -1      2290 1.10238E+00
 -1      2291 1.21901E+00
 -1      2292 9.92501E-01
 -1      2293 8.70418E-01
 -1      2294 1.01252E+00
 -1      2295 7.63300E-01
 -1      2296 6.66324E-01
 -1      2297 7.95523E-01
 -1      2298 5.72261E-01
 -1      2299 4.87399E-01
 -1      2300 5.94341E-01
 -1      2301 4.19440E-01
 -1      2302 3.49782E-01
 -1      2303 4.32320E-01
 -1      2304 2.95827E-01
 -1      2305 2.41749E-01
 -1      2306 3.10407E-01
 -1      2307 2.00558E-01
 -1      2308 1.60636E-01
 -1      2309 2.15261E-01
 -1      2310 1.30533E-01
 -1      2311 1.02410E-01
 -1      2312 1.43967E-01
 -1      2313 8.12805E-02
 -1      2314 6.23428E-02
 -1      2315 9.27352E-02
 -1      2316 4.80701E-02
 -1      2317 3.58853E-02
 -1      2318 5.73333E-02
 -1      2319 2.66024E-02
 -1      2320 2.16296E-02
 -1      2321 3.37777E-02
 -1      2322 1.58267E-02
 -1      2323 1.32083E-02
 -1      2324 1.86919E-02
 -1      2325 1.01540E-02
 -1      2326 8.09987E-03
 -1      2327 9.83463E-03
 -1      2328 7.48518E-03
 -1      2329 5.94528E-03
 -1      2330 6.16570E-03
 -1      2331 5.30387E-03
 -1      2332 4.58575E-03
 -1      2333 4.90960E-03
 -1      2334 4.00844E-03
 -1      2335 3.37612E-03
 -1      2336 3.69088E-03
 -1      2337 3.05824E-03
 -1      2338 2.58666E-03
 -1      2339 2.79569E-03
 -1      2340 2.28206E-03
 -1      2341 1.90234E-03
 -1      2342 2.17321E-03
 -1      2343 1.62304E-03
 -1      2344 1.30886E-03
 -1      2345 1.58931E-03
 -1      2346 1.10709E-03
 -1      2347 9.06462E-04
 -1      2348 1.10824E-03
 -1      2349 7.43525E-04
 -1      2350 5.86287E-04
 -1      2351 4.55799E-04
 -1      2352 7.43525E-04
 -1      2353 6.25361E-01
 -1      2354 7.53480E-01
 -1      2355 5.15195E-01
 -1      2356 5.65476E-01
 -1      2357 5.24404E-01
 -1      2358 4.21339E-01
 -1      2359 4.65351E-01
 -1      2360 4.14675E-01
 -1      2361 3.51264E-01
 -1      2362 3.89179E-01
 -1      2363 3.32670E-01
 -1      2364 2.75177E-01
 -1      2365 3.08485E-01
 -1      2366 2.57730E-01
 -1      2367 3.14297E-01
 -1      2368 2.64290E-01
 -1      2369 2.04065E-01
 -1      2370 6.54441E-01
 -1      2371 4.57288E-01
 -1      2372 3.36170E-01
 -1      2373 1.24134E+00
 -1      2374 9.11224E-01
 -1      2375 7.35942E-01
 -1      2376 2.18684E+00
 -1      2377 1.66377E+00
 -1      2378 1.41516E+00
 -1      2379 3.69920E+00
 -1      2380 2.87671E+00
 -1      2381 2.52746E+00
 -1      2382 6.07806E+00
 -1      2383 4.86320E+00
 -1      2384 4.38133E+00
 -1      2385 1.02817E+01
 -1      2386 8.40589E+00
 -1      2387 7.87317E+00
 -1      2388 1.97795E+01
 -1      2389 1.76552E+01
 -1      2390 1.75745E+01
 -1      2391 4.41784E+01
 -1      2392 4.41784E+01
 -1      2393 4.50874E+00
 -1      2394 5.58230E+00
 -1      2395 2.65637E+00
 -1      2396 3.43345E+00
 -1      2397 3.87550E+00
 -1      2398 1.56193E+00
 -1      2399 2.07226E+00
 -1      2400 2.21610E+00
 -1      2401 9.09495E-01
 -1      2402 1.22703E+00
 -1      2403 1.29709E+00
 -1      2404 5.27788E-01
 -1      2405 7.07263E-01
 -1      2406 7.59959E-01
 -1      2407 3.02949E-01
 -1      2408 4.14953E-01
 -1      2409 4.44892E-01
 -1      2410 1.70391E-01
 -1      2411 2.33956E-01
 -1      2412 2.63063E-01
 -1      2413 9.37071E-02
 -1      2414 1.28975E-01
 -1      2415 1.52654E-01
 -1      2416 5.01890E-02
 -1      2417 6.92812E-02
 -1      2418 8.68116E-02
 -1      2419 2.77262E-02
 -1      2420 3.60701E-02
 -1      2421 4.82668E-02
 -1      2422 1.50238E-02
 -1      2423 1.97427E-02
 -1      2424 2.61644E-02
 -1      2425 7.92832E-03
 -1      2426 1.06231E-02
 -1      2427 1.37802E-02
 -1      2428 4.37117E-03
 -1      2429 5.57394E-03
 -1      2430 7.02512E-03
 -1      2431 2.63367E-03
 -1      2432 3.35733E-03
 -1      2433 3.65690E-03
 -1      2434 1.66185E-03
 -1      2435 2.14285E-03
 -1      2436 2.15223E-03
 -1      2437 1.05911E-03
 -1      2438 1.36366E-03
 -1      2439 1.36322E-03
 -1      2440 7.16201E-04
 -1      2441 9.01411E-04
 -1      2442 9.07337E-04
 -1      2443 4.96565E-04
 -1      2444 6.07713E-04
 -1      2445 6.41154E-04
 -1      2446 3.55161E-04
 -1      2447 4.16642E-04
 -1      2448 4.52743E-04
 -1      2449 2.57567E-04
 -1      2450 2.72594E-04
 -1      2451 2.70671E-04
 -1      2452 2.52505E-04
 -1      2453 2.70615E-04
 -1      2454 2.25982E-04
 -1      2455 2.40922E-04
 -1      2456 2.94242E-04
 -1      2457 2.70615E-04
 -1      2458 2.70615E-04
 -1      2459 3.05824E-04
 -1      2460 2.96016E-04
 -1      2461 2.45675E-04
 -1      2462 3.02352E-04
 -1      2463 3.89145E-04
 -1      2464 3.48629E-04
 -1      2465 3.74659E-04
 -1      2466 4.44242E-04
 -1      2467 4.22623E-04
 -1      2468 4.60750E-04
 -1      2469 4.49049E-04
 -1      2470 4.45928E-04
 -1      2471 4.95914E-04
 -1      2472 4.67887E-04
 -1      2473 4.67594E-04
 -1      2474 5.16145E-04
 -1      2475 4.73154E-04
 -1      2476 4.73154E-04
 -1      2477 5.39957E-04
 -1      2478 4.27355E-04
 -1      2479 4.73154E-04
 -1      2480 5.45223E-04
 -1      2481 3.88029E-04
 -1      2482 3.77267E-04
 -1      2483 4.95135E-04
 -1      2484 5.12818E-04
 -1      2485 2.32541E+01
 -1      2486 7.34975E+00
 -1      2487 8.40439E+00
 -1      2488 7.32642E+00
 -1      2489 8.63225E+00
 -1      2490 6.69492E+00
 -1      2491 1.00855E+01
 -1      2492 1.01642E+01
 -1      2493 9.89226E+00
 -1      2494 5.99789E+00
 -1      2495 6.42332E+00
 -1      2496 1.04013E+00
 -1      2497 1.26503E+00
 -1      2498 8.06381E-01
 -1      2499 5.22786E-01
 -1      2500 5.45249E-01
 -1      2501 4.73138E-01
 -1      2502 4.44535E-01
 -1      2503 7.85589E-01
 -1      2504 9.67250E-01
 -1      2505 7.21383E-01
 -1      2506 6.16397E-01
 -1      2507 2.57836E+01
 -1      2508 1.74708E+01
 -1      2509 2.86728E+01
 -1      2510 3.72020E+01
 -1      2511 2.37006E+01
 -1      2512 1.13312E+01
 -1      2513 1.54580E+01
 -1      2514 4.07619E+01
 -1      2515 3.73454E+01
 -1      2516 2.86728E+01
 -1      2517 4.07619E+01
 -1      2518 1.68032E+00
 -1      2519 1.29798E+00
 -1      2520 8.39443E-01
 -1      2521 9.63508E-01
 -1      2522 2.37213E+01
 -1      2523 3.39499E+01
 -1      2524 6.28779E+00
 -1      2525 9.01326E+00
 -1      2526 8.13105E+00
 -1      2527 6.75973E+00
 -1      2528 5.68045E+00
 -1      2529 1.73057E+01
 -1      2530 8.72443E+00
 -1      2531 7.92521E+00
 -1      2532 2.14524E+01
 -1      2533 2.23472E+01
 -1      2534 9.18124E+00
 -1      2535 9.46261E+00
 -1      2536 1.15181E+01
 -1      2537 8.11005E+00
 -1      2538 6.46343E+00
 -1      2539 1.90105E+01
 -1      2540 1.34957E+01
 -1      2541 9.79321E+00
 -1      2542 9.46923E+00
 -1      2543 7.67425E+00
 -1      2544 5.07034E+01
 -1      2545 5.07034E+01
 -1      2546 1.86130E+01
 -1      2547 2.02401E+01
 -1      2548 2.14524E+01
 -1      2549 6.16483E-01
 -1      2550 7.57032E-01
 -1      2551 8.19956E-01
 -1      2552 2.10368E+01
 -1      2553 2.10368E+01
 -1      2554 3.88469E+01
 -1      2555 5.95858E+00
 -1      2556 6.95434E+00
 -1      2557 4.79309E+00
 -1      2558 3.39499E+01
 -1      2559 2.22976E+01
 -1      2560 1.20330E+01
 -1      2561 1.74062E+01
 -1      2562 3.40831E-04
 -1      2563 3.58489E-04
 -1      2564 2.89783E-04
 -1      2565 2.70671E-04
 -1      2566 3.44159E-04
 -1      2567 3.24992E-04
 -1      2568 8.96943E-01
 -1      2569 6.35131E+00
 -1      2570 5.20570E+00
 -1      2571 4.27927E+00
 -1      2572 2.33600E+01
 -1      2573 1.32142E+01
 -1      2574 1.05532E+01
 -1      2575 1.36039E+01
 -1      2576 5.20580E+00
 -1      2577 8.08845E+00
 -1      2578 3.72020E+01
 -1      2579 2.02401E+01
 -1      2580 6.98100E+00
 -1      2581 1.58675E+01
 -1      2582 4.22010E-01
 -1      2583 4.07017E-01
 -1      2584 3.98889E-01
 -1      2585 3.85955E-01
 -1      2586 3.49319E-01
 -1      2587 4.36730E-01
 -1      2588 4.35980E-01
 -1      2589 4.28323E-01
 -1      2590 4.28323E-01
 -1      2591 3.51671E-01
 -1      2592 6.02685E-01
 -1      2593 4.50124E-01
 -1      2594 3.65065E-01
 -1      2595 5.90563E-01
 -1      2596 1.95294E+00
 -1      2597 2.53705E+00
 -1      2598 1.15141E+00
 -1      2599 1.48631E+00
 -1      2600 1.80727E+00
 -1      2601 2.29808E+01
 -1      2602 3.48372E+01
 -1      2603 6.05679E-01
 -1      2604 5.52471E-01
 -1      2605 5.47687E-01
 -1      2606 4.92194E-01
 -1      2607 4.02203E-01
 -1      2608 4.88150E-01
 -1      2609 4.34690E-01
 -1      2610 3.93375E-01
 -1      2611 4.18803E-01
 -1      2612 3.74653E-01
 -1      2613 3.73443E-01
 -1      2614 3.57541E-01
 -1      2615 3.31903E-01
 -1      2616 3.40444E-01
 -1      2617 3.19479E-01
 -1      2618 3.03594E-01
 -1      2619 3.10908E-01
 -1      2620 3.09744E-01
 -1      2621 3.15822E-01
 -1      2622 3.04633E-01
 -1      2623 3.41120E-01
 -1      2624 3.67703E-01
 -1      2625 3.36080E-01
 -1      2626 4.06124E-01
 -1      2627 4.47452E-01
 -1      2628 3.99799E-01
 -1      2629 4.99357E-01
 -1      2630 5.56129E-01
 -1      2631 4.90126E-01
 -1      2632 6.18762E-01
 -1      2633 7.03095E-01
 -1      2634 6.04665E-01
 -1      2635 7.69415E-01
 -1      2636 8.69049E-01
 -1      2637 7.33617E-01
 -1      2638 9.52374E-01
 -1      2639 1.05656E+00
 -1      2640 8.83261E-01
 -1      2641 1.15207E+00
 -1      2642 1.24442E+00
 -1      2643 1.06210E+00
 -1      2644 1.31701E+00
 -1      2645 1.38771E+00
 -1      2646 1.23020E+00
 -1      2647 1.42187E+00
 -1      2648 1.48583E+00
 -1      2649 1.33696E+00
 -1      2650 1.49993E+00
 -1      2651 1.51972E+00
 -1      2652 1.38521E+00
 -1      2653 1.51125E+00
 -1      2654 1.48813E+00
 -1      2655 1.39083E+00
 -1      2656 1.44723E+00
 -1      2657 1.45011E+00
 -1      2658 1.34146E+00
 -1      2659 1.48785E+00
 -1      2660 1.50964E+00
 -1      2661 1.33830E+00
 -1      2662 1.51993E+00
 -1      2663 1.49869E+00
 -1      2664 1.38632E+00
 -1      2665 1.47970E+00
 -1      2666 1.41390E+00
 -1      2667 1.37761E+00
 -1      2668 1.37711E+00
 -1      2669 1.30033E+00
 -1      2670 1.32183E+00
 -1      2671 1.22345E+00
 -1      2672 1.12684E+00
 -1      2673 1.20816E+00
 -1      2674 1.02569E+00
 -1      2675 9.15810E-01
 -1      2676 1.03013E+00
 -1      2677 8.23958E-01
 -1      2678 7.16840E-01
 -1      2679 8.37128E-01
 -1      2680 6.42425E-01
 -1      2681 5.48362E-01
 -1      2682 6.70860E-01
 -1      2683 4.76122E-01
 -1      2684 4.08164E-01
 -1      2685 5.24205E-01
 -1      2686 3.45072E-01
 -1      2687 2.91117E-01
 -1      2688 3.88874E-01
 -1      2689 2.40259E-01
 -1      2690 1.99069E-01
 -1      2691 2.74925E-01
 -1      2692 1.60643E-01
 -1      2693 1.30541E-01
 -1      2694 1.85642E-01
 -1      2695 1.03771E-01
 -1      2696 8.26418E-02
 -1      2697 1.20447E-01
 -1      2698 6.47801E-02
 -1      2699 5.05074E-02
 -1      2700 7.58159E-02
 -1      2701 3.85768E-02
 -1      2702 2.92939E-02
 -1      2703 4.60236E-02
 -1      2704 2.17556E-02
 -1      2705 1.59527E-02
 -1      2706 2.65547E-02
 -1      2707 1.13472E-02
 -1      2708 8.29298E-03
 -1      2709 1.44110E-02
 -1      2710 5.57470E-03
 -1      2711 4.96001E-03
 -1      2712 7.08730E-03
 -1      2713 4.25126E-03
 -1      2714 3.60985E-03
 -1      2715 3.66027E-03
 -1      2716 3.48911E-03
 -1      2717 2.91180E-03
 -1      2718 2.83078E-03
 -1      2719 2.67175E-03
 -1      2720 2.35387E-03
 -1      2721 2.46998E-03
 -1      2722 2.10371E-03
 -1      2723 1.79911E-03
 -1      2724 1.97977E-03
 -1      2725 1.63585E-03
 -1      2726 1.35655E-03
 -1      2727 1.56636E-03
 -1      2728 1.17344E-03
 -1      2729 9.71666E-04
 -1      2730 1.21998E-03
 -1      2731 8.14182E-04
 -1      2732 6.51245E-04
 -1      2733 5.83475E-04
 -1      2734 8.79386E-04
 -1      2735 2.73156E-01
 -1      2736 3.05316E-01
 -1      2737 4.16258E-01
 -1      2738 4.76143E-01
 -1      2739 2.08912E-01
 -1      2740 2.51691E-01
 -1      2741 2.24337E-01
 -1      2742 1.93403E-01
 -1      2743 2.04289E-01
 -1      2744 1.98250E-01
 -1      2745 4.05757E-01
 -1      2746 2.62767E-01
 -1      2747 2.62991E-01
 -1      2748 8.36914E-01
 -1      2749 5.80132E-01
 -1      2750 5.06729E-01
 -1      2751 1.53569E+00
 -1      2752 1.11326E+00
 -1      2753 9.57446E-01
 -1      2754 2.67458E+00
 -1      2755 1.98471E+00
 -1      2756 1.68281E+00
 -1      2757 4.53193E+00
 -1      2758 3.36793E+00
 -1      2759 2.82518E+00
 -1      2760 8.28550E+00
 -1      2761 5.95767E+00
 -1      2762 4.94426E+00
 -1      2763 1.75745E+01
 -1      2764 1.02010E+01
 -1      2765 8.28550E+00
 -1      2766 1.05958E+01
 -1      2767 8.61818E+00
 -1      2768 3.34887E+00
 -1      2769 4.42417E+00
 -1      2770 3.08572E+00
 -1      2771 6.75607E-01
 -1      2772 8.77838E-01
 -1      2773 1.06706E+00
 -1      2774 3.93983E-01
 -1      2775 5.06818E-01
 -1      2776 6.24698E-01
 -1      2777 2.25845E-01
 -1      2778 2.94838E-01
 -1      2779 3.56765E-01
 -1      2780 1.27615E-01
 -1      2781 1.69031E-01
 -1      2782 2.00806E-01
 -1      2783 7.23395E-02
 -1      2784 9.67654E-02
 -1      2785 1.13143E-01
 -1      2786 4.01501E-02
 -1      2787 5.42690E-02
 -1      2788 6.42228E-02
 -1      2789 2.16969E-02
 -1      2790 2.96804E-02
 -1      2791 3.56826E-02
 -1      2792 1.13675E-02
 -1      2793 1.57682E-02
 -1      2794 1.92842E-02
 -1      2795 6.05635E-03
 -1      2796 8.41073E-03
 -1      2797 1.03987E-02
 -1      2798 3.44945E-03
 -1      2799 4.46330E-03
 -1      2800 5.84891E-03
 -1      2801 2.04745E-03
 -1      2802 2.53828E-03
 -1      2803 3.34467E-03
 -1      2804 1.23630E-03
 -1      2805 1.53449E-03
 -1      2806 1.92053E-03
 -1      2807 7.95642E-04
 -1      2808 9.53337E-04
 -1      2809 1.12461E-03
 -1      2810 5.75288E-04
 -1      2811 6.83776E-04
 -1      2812 7.29776E-04
 -1      2813 4.17477E-04
 -1      2814 4.97401E-04
 -1      2815 5.40023E-04
 -1      2816 3.58489E-04
 -1      2817 7.97529E-01
 -1      2818 3.52844E-04
 -1      2819 3.64427E-04
 -1      2820 3.27505E-04
 -1      2821 3.27505E-04
 -1      2822 3.86107E-04
 -1      2823 3.72537E-04
 -1      2824 3.52844E-04
 -1      2825 4.23029E-04
 -1      2826 5.38546E-04
 -1      2827 5.05068E-04
 -1      2828 5.51138E-04
 -1      2829 5.49452E-04
 -1      2830 5.93770E-04
 -1      2831 5.69683E-04
 -1      2832 5.51138E-04
 -1      2833 6.04675E-04
 -1      2834 6.69441E-04
 -1      2835 6.64175E-04
 -1      2836 6.99167E-04
 -1      2837 6.69441E-04
 -1      2838 6.69441E-04
 -1      2839 7.93659E-04
 -1      2840 5.89781E+00
 -1      2841 7.64193E+00
 -1      2842 5.37118E+00
 -1      2843 8.92325E+00
 -1      2844 1.03765E+01
 -1      2845 8.12614E+00
 -1      2846 9.43328E+00
 -1      2847 1.25882E+01
 -1      2848 4.59314E-04
 -1      2849 4.06701E-04
 -1      2850 4.57192E-04
 -1      2851 5.37110E-04
 -1      2852 4.35980E-01
 -1      2853 4.23325E-01
 -1      2854 3.58763E-01
 -1      2855 3.60078E-01
 -1      2856 4.36198E+00
 -1      2857 4.96931E+00
 -1      2858 6.81108E+00
 -1      2859 7.14169E+00
 -1      2860 6.18901E+00
 -1      2861 8.50692E+00
 -1      2862 4.24900E-01
 -1      2863 4.37149E-01
 -1      2864 3.40919E-01
 -1      2865 3.90764E-01
 -1      2866 2.81405E-01
 -1      2867 1.46419E+01
 -1      2868 1.13052E+01
 -1      2869 2.30126E+01
 -1      2870 3.32412E+01
 -1      2871 1.48369E+01
 -1      2872 1.83181E+01
 -1      2873 3.40865E+01
 -1      2874 2.05851E+01
 -1      2875 6.87686E+00
 -1      2876 4.76471E+00
 -1      2877 6.89924E+00
 -1      2878 6.15444E+00
 -1      2879 5.63680E+00
 -1      2880 6.41364E+00
 -1      2881 1.91465E+01
 -1      2882 1.68983E+01
 -1      2883 4.37149E-01
 -1      2884 5.41208E-01
 -1      2885 3.61874E-01
 -1      2886 3.42196E-01
 -1      2887 3.86961E-01
 -1      2888 4.00776E-01
 -1      2889 5.63323E-01
 -1      2890 3.59627E-01
 -1      2891 4.90446E-01
 -1      2892 4.08664E-01
 -1      2893 4.23451E-01
 -1      2894 3.60426E-01
 -1      2895 3.51089E-01
 -1      2896 9.37023E+00
 -1      2897 5.55986E+00
 -1      2898 4.58899E+00
 -1      2899 4.78485E+00
 -1      2900 3.42503E-01
 -1      2901 6.91945E+00
 -1      2902 2.36260E+01
 -1      2903 1.62524E+01
 -1      2904 6.52673E-01
 -1      2905 6.17600E-01
 -1      2906 1.51384E+01
 -1      2907 2.03070E+01
 -1      2908 1.41893E+01
 -1      2909 1.51583E+01
 -1      2910 3.32633E-04
 -1      2911 3.46963E-04
 -1      2912 3.91621E-04
 -1      2913 3.13466E-04
 -1      2914 1.60310E+01
 -1      2915 5.62188E+00
 -1      2916 3.35146E-04
 -1      2917 4.98799E+00
 -1      2918 4.42064E+00
 -1      2919 3.98954E+00
 -1      2920 1.06663E+01
 -1      2921 6.33562E-04
 -1      2922 3.64474E+00
 -1      2923 3.57272E+00
 -1      2924 4.05816E+00
 -1      2925 1.72517E+01
 -1      2926 1.65430E+01
 -1      2927 1.18486E+01
 -1      2928 7.49123E+00
 -1      2929 1.91680E+01
 -1      2930 7.57780E-04
 -1      2931 4.18908E-01
 -1      2932 5.34519E+00
 -1      2933 5.46688E+00
 -1      2934 1.78331E+01
 -1      2935 3.45633E+01
 -1      2936 1.23360E+01
 -1      2937 3.11467E+01
 -1      2938 4.05306E+00
 -1      2939 3.81657E+00
 -1      2940 4.24768E+00
 -1      2941 4.56792E-01
 -1      2942 4.88901E-01
 -1      2943 3.30842E-01
 -1      2944 3.48647E-01
 -1      2945 9.15265E-04
 -1      2946 3.28816E-01
 -1      2947 3.07014E-01
 -1      2948 3.01576E-01
 -1      2949 3.15421E-01
 -1      2950 4.66237E-01
 -1      2951 6.35025E-01
 -1      2952 1.36960E+00
 -1      2953 1.83623E+00
 -1      2954 1.13434E+01
 -1      2955 9.08709E+00
 -1      2956 3.16576E-01
 -1      2957 3.12532E-01
 -1      2958 3.26592E-01
 -1      2959 3.10705E-01
 -1      2960 2.49794E-01
 -1      2961 3.12164E-01
 -1      2962 2.95052E-01
 -1      2963 2.65313E-01
 -1      2964 2.92229E-01
 -1      2965 2.79805E-01
 -1      2966 2.63950E-01
 -1      2967 2.81169E-01
 -1      2968 2.87319E-01
 -1      2969 2.62491E-01
 -1      2970 3.13231E-01
 -1      2971 3.38529E-01
 -1      2972 2.89767E-01
 -1      2973 3.76830E-01
 -1      2974 4.15252E-01
 -1      2975 3.53982E-01
 -1      2976 4.68022E-01
 -1      2977 5.19928E-01
 -1      2978 4.45053E-01
 -1      2979 5.86193E-01
 -1      2980 6.48827E-01
 -1      2981 5.64089E-01
 -1      2982 7.23705E-01
 -1      2983 7.90025E-01
 -1      2984 7.05234E-01
 -1      2985 8.62120E-01
 -1      2986 9.45445E-01
 -1      2987 8.52209E-01
 -1      2988 1.00671E+00
 -1      2989 1.10222E+00
 -1      2990 9.85569E-01
 -1      2991 1.16921E+00
 -1      2992 1.24181E+00
 -1      2993 1.11383E+00
 -1      2994 1.30518E+00
 -1      2995 1.33934E+00
 -1      2996 1.24419E+00
 -1      2997 1.38419E+00
 -1      2998 1.39828E+00
 -1      2999 1.35241E+00
 -1      3000 1.45701E+00
 -1      3001 1.44854E+00
 -1      3002 1.45599E+00
 -1      3003 1.39580E+00
 -1      3004 1.35491E+00
 -1      3005 1.46198E+00
 -1      3006 1.35686E+00
 -1      3007 1.39460E+00
 -1      3008 1.41121E+00
 -1      3009 1.44152E+00
 -1      3010 1.45181E+00
 -1      3011 1.46009E+00
 -1      3012 1.39106E+00
 -1      3013 1.37206E+00
 -1      3014 1.44626E+00
 -1      3015 1.32484E+00
 -1      3016 1.28805E+00
 -1      3017 1.33829E+00
 -1      3018 1.22025E+00
 -1      3019 1.14337E+00
 -1      3020 1.22326E+00
 -1      3021 1.07739E+00
 -1      3022 9.76239E-01
 -1      3023 1.08948E+00
 -1      3024 9.06864E-01
 -1      3025 8.15012E-01
 -1      3026 9.54123E-01
 -1      3027 7.36779E-01
 -1      3028 6.62364E-01
 -1      3029 8.06515E-01
 -1      3030 5.80607E-01
 -1      3031 5.08367E-01
 -1      3032 6.46526E-01
 -1      3033 4.33965E-01
 -1      3034 3.70874E-01
 -1      3035 4.90366E-01
 -1      3036 3.09233E-01
 -1      3037 2.58375E-01
 -1      3038 3.54324E-01
 -1      3039 2.10813E-01
 -1      3040 1.72388E-01
 -1      3041 2.45121E-01
 -1      3042 1.37682E-01
 -1      3043 1.10912E-01
 -1      3044 1.62853E-01
 -1      3045 8.67571E-02
 -1      3046 6.88954E-02
 -1      3047 1.03992E-01
 -1      3048 5.29766E-02
 -1      3049 4.10459E-02
 -1      3050 6.39178E-02
 -1      3051 3.12685E-02
 -1      3052 2.37303E-02
 -1      3053 3.82215E-02
 -1      3054 1.75063E-02
 -1      3055 1.29009E-02
 -1      3056 2.22201E-02
 -1      3057 9.13885E-03
 -1      3058 6.42057E-03
 -1      3059 1.22341E-02
 -1      3060 4.23916E-03
 -1      3061 3.53041E-03
 -1      3062 6.29071E-03
 -1      3063 2.28359E-03
 -1      3064 2.16285E-03
 -1      3065 2.86248E-03
 -1      3066 2.19099E-03
 -1      3067 1.95094E-03
 -1      3068 1.64380E-03
 -1      3069 1.88633E-03
 -1      3070 1.63617E-03
 -1      3071 1.60734E-03
 -1      3072 1.49634E-03
 -1      3073 1.33308E-03
 -1      3074 1.40290E-03
 -1      3075 1.20661E-03
 -1      3076 1.02350E-03
 -1      3077 1.13659E-03
 -1      3078 5.75685E-01
 -1      3079 9.01890E-04
 -1      3080 1.95725E-01
 -1      3081 2.17190E-01
 -1      3082 6.12732E-01
 -1      3083 4.38357E-01
 -1      3084 1.07050E+00
 -1      3085 7.94158E-01
 -1      3086 7.25787E-01
 -1      3087 1.80782E+00
 -1      3088 1.35880E+00
 -1      3089 1.19551E+00
 -1      3090 2.94041E+00
 -1      3091 2.24706E+00
 -1      3092 1.92305E+00
 -1      3093 5.63779E+00
 -1      3094 4.21206E+00
 -1      3095 3.63394E+00
 -1      3096 1.01672E+01
 -1      3097 8.25171E+00
 -1      3098 7.51950E+00
 -1      3099 1.62186E+01
 -1      3100 4.11963E+00
 -1      3101 5.33933E+00
 -1      3102 5.75887E-04
 -1      3103 6.46401E-04
 -1      3104 5.89926E-04
 -1      3105 2.35059E-01
 -1      3106 2.70661E-01
 -1      3107 2.06447E-01
 -1      3108 2.77104E-01
 -1      3109 3.76248E-01
 -1      3110 3.86576E-01
 -1      3111 1.61073E-01
 -1      3112 2.17886E-01
 -1      3113 2.37370E-01
 -1      3114 9.34364E-02
 -1      3115 1.24286E-01
 -1      3116 1.41366E-01
 -1      3117 5.30317E-02
 -1      3118 7.11021E-02
 -1      3119 8.22453E-02
 -1      3120 2.98258E-02
 -1      3121 4.02955E-02
 -1      3122 4.71749E-02
 -1      3123 1.66437E-02
 -1      3124 2.25725E-02
 -1      3125 2.71854E-02
 -1      3126 9.39647E-03
 -1      3127 1.23532E-02
 -1      3128 1.56415E-02
 -1      3129 5.29115E-03
 -1      3130 6.88420E-03
 -1      3131 8.83871E-03
 -1      3132 2.94452E-03
 -1      3133 3.85569E-03
 -1      3134 4.89099E-03
 -1      3135 1.69545E-03
 -1      3136 2.20841E-03
 -1      3137 2.71943E-03
 -1      3138 1.08177E-03
 -1      3139 1.36474E-03
 -1      3140 1.65262E-03
 -1      3141 8.58908E-04
 -1      3142 9.70774E-04
 -1      3143 1.21091E-03
 -1      3144 7.24289E-04
 -1      3145 7.25856E-04
 -1      3146 6.31364E-04
 -1      3147 1.40295E+01
 -1      3148 1.25909E+01
 -1      3149 9.34192E+00
 -1      3150 6.26848E-04
 -1      3151 5.89926E-04
 -1      3152 8.30667E-04
 -1      3153 6.45295E-04
 -1      3154 6.45295E-04
 -1      3155 6.71984E-04
 -1      3156 6.45295E-04
 -1      3157 6.34389E-04
 -1      3158 6.85915E-04
 -1      3159 8.03641E-04
 -1      3160 8.03641E-04
 -1      3161 7.35838E-04
 -1      3162 9.11872E-04
 -1      3163 3.75528E-01
 -1      3164 3.63608E-01
 -1      3165 3.95759E+00
 -1      3166 5.43124E+00
 -1      3167 6.48620E+00
 -1      3168 7.76751E+00
 -1      3169 5.07261E+00
 -1      3170 2.02292E-01
 -1      3171 2.06914E-01
 -1      3172 1.99767E-01
 -1      3173 3.29784E+01
 -1      3174 1.63615E+01
 -1      3175 7.96862E-01
 -1      3176 1.07044E+00
 -1      3177 1.09940E+00
 -1      3178 6.38401E-01
 -1      3179 2.33765E+00
 -1      3180 3.14947E+00
 -1      3181 3.20953E+00
 -1      3182 1.89999E+00
 -1      3183 3.29195E-01
 -1      3184 2.59831E-01
 -1      3185 4.35198E-01
 -1      3186 2.99939E-01
 -1      3187 2.95155E-01
 -1      3188 2.14312E-01
 -1      3189 2.56559E-01
 -1      3190 1.71122E+01
 -1      3191 3.21929E-01
 -1      3192 3.13800E-01
 -1      3193 7.75488E+00
 -1      3194 1.00036E+01
 -1      3195 4.94391E-04
 -1      3196 4.94391E-04
 -1      3197 6.98210E-04
 -1      3198 8.89866E+00
 -1      3199 8.18919E+00
 -1      3200 7.02888E+00
 -1      3201 5.28756E+00
 -1      3202 6.23995E+00
 -1      3203 7.16631E+00
 -1      3204 5.18127E+00
 -1      3205 4.93882E+00
 -1      3206 2.78188E-01
 -1      3207 3.03683E-01
 -1      3208 2.31842E-01
 -1      3209 4.67249E+00
 -1      3210 5.06993E+00
 -1      3211 4.38687E+00
 -1      3212 2.65056E+01
 -1      3213 3.11897E-01
 -1      3214 3.12903E-01
 -1      3215 2.84507E-01
 -1      3216 2.68496E-01
 -1      3217 7.90605E+00
 -1      3218 3.43718E+00
 -1      3219 4.08599E+00
 -1      3220 3.68903E+00
 -1      3221 4.44695E+00
 -1      3222 3.85237E+00
 -1      3223 4.00634E+00
 -1      3224 2.95655E+00
 -1      3225 3.59108E+00
 -1      3226 3.37337E+00
 -1      3227 5.20385E-01
 -1      3228 1.23304E+01
 -1      3229 1.34385E+01
 -1      3230 3.81071E+00
 -1      3231 1.04578E+01
 -1      3232 6.66199E-04
 -1      3233 6.14674E-04
 -1      3234 5.68920E-04
 -1      3235 3.84896E+00
 -1      3236 3.22669E-01
 -1      3237 3.22669E-01
 -1      3238 9.65286E-04
 -1      3239 9.99841E+00
 -1      3240 6.55731E+00
 -1      3241 3.23244E-01
 -1      3242 3.21929E-01
 -1      3243 2.86410E-01
 -1      3244 3.41051E-01
 -1      3245 3.19723E-01
 -1      3246 3.19723E-01
 -1      3247 2.82889E-01
 -1      3248 7.76751E+00
 -1      3249 9.40745E+00
 -1      3250 4.18131E+00
 -1      3251 3.06133E+00
 -1      3252 4.29074E+00
 -1      3253 9.67192E+00
 -1      3254 8.60551E+00
 -1      3255 6.76052E+00
 -1      3256 5.01440E+00
 -1      3257 3.25040E-01
 -1      3258 3.26488E-01
 -1      3259 2.87283E-01
 -1      3260 2.75066E-01
 -1      3261 5.22054E-04
 -1      3262 4.87891E-04
 -1      3263 5.59253E-04
 -1      3264 5.99618E-04
 -1      3265 6.50360E+00
 -1      3266 2.31895E-01
 -1      3267 2.96209E-01
 -1      3268 2.76858E-01
 -1      3269 3.00030E-01
 -1      3270 9.65286E-04
 -1      3271 1.99488E-01
 -1      3272 2.58705E-01
 -1      3273 3.17152E-01
 -1      3274 3.25040E-01
 -1      3275 2.91102E-01
 -1      3276 3.30782E-01
 -1      3277 4.20771E-01
 -1      3278 2.92900E-01
 -1      3279 1.23304E+01
 -1      3280 2.21639E-01
 -1      3281 2.23099E-01
 -1      3282 2.30470E-01
 -1      3283 2.27647E-01
 -1      3284 1.86796E-01
 -1      3285 2.29914E-01
 -1      3286 2.31278E-01
 -1      3287 1.96435E-01
 -1      3288 2.50545E-01
 -1      3289 2.76457E-01
 -1      3290 2.17968E-01
 -1      3291 3.09230E-01
 -1      3292 3.47531E-01
 -1      3293 2.70007E-01
 -1      3294 3.95540E-01
 -1      3295 4.48310E-01
 -1      3296 3.50788E-01
 -1      3297 5.14249E-01
 -1      3298 5.80515E-01
 -1      3299 4.64736E-01
 -1      3300 6.62508E-01
 -1      3301 7.37387E-01
 -1      3302 6.12668E-01
 -1      3303 8.29706E-01
 -1      3304 9.01802E-01
 -1      3305 7.86979E-01
 -1      3306 9.85569E-01
 -1      3307 1.04683E+00
 -1      3308 9.63067E-01
 -1      3309 1.12680E+00
 -1      3310 1.19379E+00
 -1      3311 1.12680E+00
 -1      3312 1.26711E+00
 -1      3313 1.33048E+00
 -1      3314 1.28008E+00
 -1      3315 1.35207E+00
 -1      3316 1.39691E+00
 -1      3317 1.37498E+00
 -1      3318 1.52896E+00
 -1      3319 1.58769E+00
 -1      3320 1.52862E+00
 -1      3321 1.63695E+00
 -1      3322 1.58421E+00
 -1      3323 1.70992E+00
 -1      3324 1.54323E+00
 -1      3325 1.54519E+00
 -1      3326 1.71820E+00
 -1      3327 1.59207E+00
 -1      3328 1.63900E+00
 -1      3329 1.72410E+00
 -1      3330 1.56685E+00
 -1      3331 1.50611E+00
 -1      3332 1.69884E+00
 -1      3333 1.38551E+00
 -1      3334 1.33829E+00
 -1      3335 1.50611E+00
 -1      3336 1.30568E+00
 -1      3337 1.23788E+00
 -1      3338 1.35290E+00
 -1      3339 1.17480E+00
 -1      3340 1.10882E+00
 -1      3341 1.25722E+00
 -1      3342 1.02350E+00
 -1      3343 9.54123E-01
 -1      3344 1.10882E+00
 -1      3345 8.64683E-01
 -1      3346 7.86450E-01
 -1      3347 9.34058E-01
 -1      3348 6.89891E-01
 -1      3349 6.08133E-01
 -1      3350 7.48058E-01
 -1      3351 5.20257E-01
 -1      3352 4.45855E-01
 -1      3353 5.63622E-01
 -1      3354 3.73771E-01
 -1      3355 3.12130E-01
 -1      3356 4.03662E-01
 -1      3357 2.57486E-01
 -1      3358 2.09923E-01
 -1      3359 2.76932E-01
 -1      3360 1.70738E-01
 -1      3361 1.36033E-01
 -1      3362 1.83103E-01
 -1      3363 1.10085E-01
 -1      3364 8.59294E-02
 -1      3365 1.17970E-01
 -1      3366 6.89610E-02
 -1      3367 5.30421E-02
 -1      3368 7.50538E-02
 -1      3369 4.15499E-02
 -1      3370 3.17724E-02
 -1      3371 4.65930E-02
 -1      3372 2.46823E-02
 -1      3373 1.84583E-02
 -1      3374 2.80106E-02
 -1      3375 1.40196E-02
 -1      3376 1.02576E-02
 -1      3377 1.64818E-02
 -1      3378 7.50134E-03
 -1      3379 5.31993E-03
 -1      3380 9.28683E-03
 -1      3381 3.67400E-03
 -1      3382 2.42718E-03
 -1      3383 4.88463E-03
 -1      3384 1.48578E-03
 -1      3385 1.51393E-03
 -1      3386 2.29731E-03
 -1      3387 1.35612E-03
 -1      3388 1.29152E-03
 -1      3389 1.19811E-03
 -1      3390 1.29477E-03
 -1      3391 1.15494E-03
 -1      3392 1.04356E-03
 -1      3393 1.12504E-03
 -1      3394 9.98571E-04
 -1      3395 9.00321E-04
 -1      3396 1.01692E-03
 -1      3397 2.09740E+00
 -1      3398 1.65815E+00
 -1      3399 1.32740E+00
 -1      3400 1.03910E+00
 -1      3401 1.50175E+00
 -1      3402 3.14549E+00
 -1      3403 3.44855E+00
 -1      3404 8.06587E-01
 -1      3405 6.25160E-01
 -1      3406 9.38476E-01
 -1      3407 4.22099E+00
 -1      3408 2.94934E+00
 -1      3409 2.68445E+00
 -1      3410 7.80015E+00
 -1      3411 5.18623E+00
 -1      3412 4.50164E+00
 -1      3413 8.12452E+00
 -1      3414 1.97409E-01
 -1      3415 2.04936E-01
 -1      3416 4.12731E+00
 -1      3417 5.18227E+00
 -1      3418 1.84888E-01
 -1      3419 2.02757E-01
 -1      3420 1.75851E-01
 -1      3421 1.16559E-01
 -1      3422 1.53346E-01
 -1      3423 1.74681E-01
 -1      3424 6.64755E-02
 -1      3425 8.88098E-02
 -1      3426 1.00789E-01
 -1      3427 3.74090E-02
 -1      3428 5.01451E-02
 -1      3429 5.67096E-02
 -1      3430 2.13850E-02
 -1      3431 2.86383E-02
 -1      3432 3.16086E-02
 -1      3433 1.19756E-02
 -1      3434 1.62661E-02
 -1      3435 1.77191E-02
 -1      3436 7.05076E-03
 -1      3437 9.56303E-03
 -1      3438 1.01877E-02
 -1      3439 4.09271E-03
 -1      3440 5.52817E-03
 -1      3441 6.25248E-03
 -1      3442 2.41962E-03
 -1      3443 3.15572E-03
 -1      3444 3.79290E-03
 -1      3445 1.52176E-03
 -1      3446 1.85247E-03
 -1      3447 2.28876E-03
 -1      3448 1.09991E-03
 -1      3449 1.21091E-03
 -1      3450 1.41076E-03
 -1      3451 8.35847E+00
 -1      3452 6.43926E+00
 -1      3453 5.27895E+00
 -1      3454 8.37195E+00
 -1      3455 7.12450E+00
 -1      3456 6.83386E-04
 -1      3457 6.97317E-04
 -1      3458 7.18993E-04
 -1      3459 7.18993E-04
 -1      3460 7.30395E-04
 -1      3461 4.89235E-01
 -1      3462 3.80072E-01
 -1      3463 5.70035E-01
 -1      3464 2.11869E-01
 -1      3465 2.00680E-01
 -1      3466 1.96990E-01
 -1      3467 7.12450E+00
 -1      3468 6.93608E+00
 -1      3469 3.03586E-01
 -1      3470 2.46046E-01
 -1      3471 2.46958E-01
 -1      3472 3.57622E-01
 -1      3473 3.58764E+00
 -1      3474 3.24633E+00
 -1      3475 2.88417E+00
 -1      3476 2.87236E-01
 -1      3477 2.66413E-01
 -1      3478 2.02744E-01
 -1      3479 2.48030E-01
 -1      3480 4.00516E+00
 -1      3481 4.90579E+00
 -1      3482 3.78529E+00
 -1      3483 3.89663E+00
 -1      3484 1.92693E-01
 -1      3485 1.85219E-01
 -1      3486 1.58260E-01
 -1      3487 1.89444E-01
 -1      3488 2.03504E-01
 -1      3489 1.61289E-01
 -1      3490 2.47592E-01
 -1      3491 5.17337E+00
 -1      3492 5.76194E+00
 -1      3493 9.65286E-04
 -1      3494 1.09991E-03
 -1      3495 1.09991E-03
 -1      3496 8.32829E-04
 -1      3497 2.51894E-01
 -1      3498 6.14105E+00
 -1      3499 2.12693E-01
 -1      3500 2.86853E-01
 -1      3501 1.54065E+00
 -1      3502 2.04207E+00
 -1      3503 3.21098E+00
 -1      3504 2.87633E+00
 -1      3505 2.81252E+00
 -1      3506 3.78079E+00
 -1      3507 3.28893E+00
 -1      3508 3.17921E+00
 -1      3509 2.87023E+00
 -1      3510 2.88859E+00
 -1      3511 2.99338E+00
 -1      3512 2.73930E+00
 -1      3513 3.40452E+00
 -1      3514 3.29591E+00
 -1      3515 2.76225E+00
 -1      3516 3.57037E+00
 -1      3517 3.68004E+00
 -1      3518 2.40291E+00
 -1      3519 1.48063E-01
 -1      3520 1.69484E-01
 -1      3521 1.23195E-01
 -1      3522 1.57916E-01
 -1      3523 5.94787E+00
 -1      3524 8.16419E-04
 -1      3525 7.96704E-04
 -1      3526 8.49498E-04
 -1      3527 7.80159E-04
 -1      3528 7.02374E-04
 -1      3529 7.27707E-04
 -1      3530 8.66857E-04
 -1      3531 5.19575E+00
 -1      3532 5.65771E+00
 -1      3533 6.15453E+00
 -1      3534 4.34942E+00
 -1      3535 3.24316E+00
 -1      3536 4.23137E+00
 -1      3537 6.61243E-04
 -1      3538 6.67743E-04
 -1      3539 9.34819E-04
 -1      3540 3.24974E+00
 -1      3541 6.06805E+00
 -1      3542 5.73639E+00
 -1      3543 4.73781E+00
 -1      3544 4.81147E-01
 -1      3545 5.36940E-01
 -1      3546 6.98777E-01
 -1      3547 8.66423E-01
 -1      3548 1.16559E+00
 -1      3549 1.30767E+00
 -1      3550 2.42459E-01
 -1      3551 2.07026E-01
 -1      3552 1.52345E-01
 -1      3553 2.46279E-01
 -1      3554 2.64401E-01
 -1      3555 2.64401E-01
 -1      3556 3.57840E+00
 -1      3557 3.08816E+00
 -1      3558 2.99190E+00
 -1      3559 4.16413E+00
 -1      3560 2.50738E-01
 -1      3561 2.48835E-01
 -1      3562 2.28730E-01
 -1      3563 2.60881E-01
 -1      3564 2.64401E-01
 -1      3565 2.42393E-01
 -1      3566 1.94205E-01
 -1      3567 8.26376E-02
 -1      3568 1.10387E-01
 -1      3569 2.57205E-01
 -1      3570 2.57205E-01
 -1      3571 2.42773E-01
 -1      3572 3.14850E-01
 -1      3573 1.47982E-01
 -1      3574 1.55354E-01
 -1      3575 1.63629E-01
 -1      3576 1.65896E-01
 -1      3577 1.24815E-01
 -1      3578 1.80120E-01
 -1      3579 1.99386E-01
 -1      3580 1.47314E-01
 -1      3581 2.19367E-01
 -1      3582 2.52139E-01
 -1      3583 1.81518E-01
 -1      3584 2.81479E-01
 -1      3585 3.29487E-01
 -1      3586 2.30839E-01
 -1      3587 3.84836E-01
 -1      3588 4.50775E-01
 -1      3589 3.15527E-01
 -1      3590 5.31721E-01
 -1      3591 6.13714E-01
 -1      3592 4.51822E-01
 -1      3593 7.16136E-01
 -1      3594 8.08456E-01
 -1      3595 6.35190E-01
 -1      3596 9.30633E-01
 -1      3597 1.01440E+00
 -1      3598 8.59790E-01
 -1      3599 1.21697E+00
 -1      3600 1.29694E+00
 -1      3601 1.18454E+00
 -1      3602 1.30744E+00
 -1      3603 1.38075E+00
 -1      3604 1.39761E+00
 -1      3605 1.73954E+00
 -1      3606 1.76113E+00
 -1      3607 1.76690E+00
 -1      3608 1.78859E+00
 -1      3609 1.92064E+00
 -1      3610 2.15315E+00
 -1      3611 1.87448E+00
 -1      3612 1.92373E+00
 -1      3613 2.13445E+00
 -1      3614 2.00106E+00
 -1      3615 2.04794E+00
 -1      3616 1.79743E+00
 -1      3617 1.72529E+00
 -1      3618 2.07439E+00
 -1      3619 1.62826E+00
 -1      3620 1.50767E+00
 -1      3621 1.72685E+00
 -1      3622 1.48256E+00
 -1      3623 1.44995E+00
 -1      3624 1.60471E+00
 -1      3625 1.35470E+00
 -1      3626 1.29163E+00
 -1      3627 1.48436E+00
 -1      3628 1.19414E+00
 -1      3629 1.10882E+00
 -1      3630 1.29163E+00
 -1      3631 9.94386E-01
 -1      3632 9.04946E-01
 -1      3633 1.07971E+00
 -1      3634 7.80673E-01
 -1      3635 6.84114E-01
 -1      3636 8.41002E-01
 -1      3637 5.90015E-01
 -1      3638 5.02138E-01
 -1      3639 6.22630E-01
 -1      3640 4.38019E-01
 -1      3641 3.65934E-01
 -1      3642 4.64411E-01
 -1      3643 3.08908E-01
 -1      3644 2.54263E-01
 -1      3645 3.43265E-01
 -1      3646 2.08641E-01
 -1      3647 1.69456E-01
 -1      3648 2.40616E-01
 -1      3649 1.35701E-01
 -1      3650 1.09753E-01
 -1      3651 1.61239E-01
 -1      3652 8.63853E-02
 -1      3653 6.94169E-02
 -1      3654 1.04117E-01
 -1      3655 5.39483E-02
 -1      3656 4.24561E-02
 -1      3657 6.52799E-02
 -1      3658 3.24141E-02
 -1      3659 2.53240E-02
 -1      3660 3.97694E-02
 -1      3661 1.92757E-02
 -1      3662 1.48370E-02
 -1      3663 2.36792E-02
 -1      3664 1.10083E-02
 -1      3665 8.25202E-03
 -1      3666 1.38022E-02
 -1      3667 5.90932E-03
 -1      3668 4.26340E-03
 -1      3669 7.63079E-03
 -1      3670 2.88275E-03
 -1      3671 1.94135E-03
 -1      3672 3.90744E-03
 -1      3673 1.16098E-03
 -1      3674 1.00318E-03
 -1      3675 1.74643E-03
 -1      3676 8.83729E-04
 -1      3677 8.86984E-04
 -1      3678 8.46608E-04
 -1      3679 1.55826E+00
 -1      3680 1.22751E+00
 -1      3681 3.22488E+00
 -1      3682 2.37294E+00
 -1      3683 2.09870E+00
 -1      3684 5.25540E+00
 -1      3685 1.99995E-01
 -1      3686 1.84204E-01
 -1      3687 1.39136E-01
 -1      3688 1.85278E-01
 -1      3689 2.07229E-01
 -1      3690 1.20985E-01
 -1      3691 2.12382E-01
 -1      3692 7.20242E-04
 -1      3693 7.41918E-04
 -1      3694 1.61548E-01
 -1      3695 1.56200E-01
 -1      3696 1.64553E-01
 -1      3697 4.77023E-02
 -1      3698 6.40327E-02
 -1      3699 7.36303E-02
 -1      3700 2.73007E-02
 -1      3701 3.60713E-02
 -1      3702 4.33944E-02
 -1      3703 1.51780E-02
 -1      3704 2.02968E-02
 -1      3705 2.47596E-02
 -1      3706 8.90450E-03
 -1      3707 1.13171E-02
 -1      3708 1.38948E-02
 -1      3709 5.09935E-03
 -1      3710 6.62194E-03
 -1      3711 7.75137E-03
 -1      3712 2.93571E-03
 -1      3713 3.87270E-03
 -1      3714 4.24216E-03
 -1      3715 1.89283E-03
 -1      3716 2.45998E-03
 -1      3717 2.53978E-03
 -1      3718 1.23892E-03
 -1      3719 1.54977E-03
 -1      3720 1.72099E-03
 -1      3721 5.48939E+00
 -1      3722 5.48939E+00
 -1      3723 2.58281E+00
 -1      3724 2.48197E+00
 -1      3725 4.53061E+00
 -1      3726 6.36659E-01
 -1      3727 5.00733E-01
 -1      3728 4.29015E+00
 -1      3729 1.32127E-01
 -1      3730 1.19884E-01
 -1      3731 1.68072E-01
 -1      3732 1.17824E-01
 -1      3733 7.96704E-04
 -1      3734 7.49838E-04
 -1      3735 8.58328E-04
 -1      3736 9.46924E-04
 -1      3737 1.28033E-01
 -1      3738 1.46167E-01
 -1      3739 1.14725E-01
 -1      3740 2.52956E-01
 -1      3741 2.57205E-01
 -1      3742 2.23308E-01
 -1      3743 2.19187E-01
 -1      3744 3.20539E+00
 -1      3745 3.47298E+00
 -1      3746 2.97151E+00
 -1      3747 2.70678E+00
 -1      3748 2.74597E+00
 -1      3749 5.35022E+00
 -1      3750 4.85341E+00
 -1      3751 1.01344E+00
 -1      3752 7.80921E-01
 -1      3753 7.11619E-01
 -1      3754 1.06995E+00
 -1      3755 1.08818E-03
 -1      3756 1.08818E-03
 -1      3757 1.22720E-03
 -1      3758 9.23097E-04
 -1      3759 7.79204E-04
 -1      3760 7.89357E-04
 -1      3761 8.86784E-04
 -1      3762 3.62443E-01
 -1      3763 4.12571E-01
 -1      3764 5.28740E-01
 -1      3765 2.72979E+00
 -1      3766 2.61396E+00
 -1      3767 2.99338E+00
 -1      3768 2.80228E+00
 -1      3769 3.05206E+00
 -1      3770 2.12641E+00
 -1      3771 1.96186E+00
 -1      3772 2.43794E+00
 -1      3773 1.88607E+00
 -1      3774 2.60625E+00
 -1      3775 1.92088E+00
 -1      3776 2.24472E+00
 -1      3777 8.98891E-04
 -1      3778 8.68993E-04
 -1      3779 7.48830E-04
 -1      3780 7.39059E-04
 -1      3781 2.33890E-01
 -1      3782 2.21104E-01
 -1      3783 2.68068E-01
 -1      3784 2.30458E+00
 -1      3785 3.97865E+00
 -1      3786 4.68508E+00
 -1      3787 4.69461E-01
 -1      3788 4.02837E-01
 -1      3789 3.26350E-01
 -1      3790 3.94212E+00
 -1      3791 3.01259E+00
 -1      3792 3.63463E+00
 -1      3793 7.29842E-04
 -1      3794 3.67254E+00
 -1      3795 3.97865E+00
 -1      3796 2.71381E+00
 -1      3797 2.46668E+00
 -1      3798 3.06732E+00
 -1      3799 2.37617E+00
 -1      3800 7.64962E-01
 -1      3801 2.06371E-01
 -1      3802 2.06371E-01
 -1      3803 1.32050E-01
 -1      3804 2.52290E+00
 -1      3805 3.12310E+00
 -1      3806 3.68004E+00
 -1      3807 3.97367E+00
 -1      3808 2.60625E+00
 -1      3809 2.55226E+00
 -1      3810 2.63857E+00
 -1      3811 2.47618E+00
 -1      3812 1.13534E-01
 -1      3813 1.33494E-01
 -1      3814 1.18372E-01
 -1      3815 1.62644E-01
 -1      3816 1.10254E+00
 -1      3817 1.47760E+00
 -1      3818 1.68094E+00
 -1      3819 7.41366E-04
 -1      3820 1.92707E-01
 -1      3821 1.73571E-01
 -1      3822 2.48751E+00
 -1      3823 2.71371E+00
 -1      3824 2.57583E+00
 -1      3825 2.15315E+00
 -1      3826 2.41048E+00
 -1      3827 7.29459E-04
 -1      3828 1.13148E-01
 -1      3829 1.27372E-01
 -1      3830 1.40657E-01
 -1      3831 1.60638E-01
 -1      3832 1.06491E-01
 -1      3833 2.00933E-01
 -1      3834 2.30272E-01
 -1      3835 1.60071E-01
 -1      3836 2.92418E-01
 -1      3837 3.47767E-01
 -1      3838 2.62512E-01
 -1      3839 4.27361E-01
 -1      3840 5.08307E-01
 -1      3841 4.04252E-01
 -1      3842 6.14100E-01
 -1      3843 7.16522E-01
 -1      3844 5.89639E-01
 -1      3845 1.03384E+00
 -1      3846 1.15602E+00
 -1      3847 1.01275E+00
 -1      3848 1.18454E+00
 -1      3849 1.38710E+00
 -1      3850 1.35859E+00
 -1      3851 1.76690E+00
 -1      3852 2.12569E+00
 -1      3853 2.15315E+00
 -1      3854 2.18061E+00
 -1      3855 2.30458E+00
 -1      3856 2.25842E+00
 -1      3857 1.96573E+00
 -1      3858 1.94062E+00
 -1      3859 2.19094E+00
 -1      3860 2.09570E+00
 -1      3861 2.55196E+00
 -1      3862 1.38912E+00
 -1      3863 1.29163E+00
 -1      3864 2.09570E+00
 -1      3865 1.14508E+00
 -1      3866 1.03065E+00
 -1      3867 1.24257E+00
 -1      3868 9.30068E-01
 -1      3869 8.05795E-01
 -1      3870 9.95442E-01
 -1      3871 7.14581E-01
 -1      3872 6.20482E-01
 -1      3873 8.03648E-01
 -1      3874 5.42963E-01
 -1      3875 4.78844E-01
 -1      3876 6.34915E-01
 -1      3877 4.15413E-01
 -1      3878 3.58386E-01
 -1      3879 4.93965E-01
 -1      3880 2.97149E-01
 -1      3881 2.51527E-01
 -1      3882 3.69297E-01
 -1      3883 2.01796E-01
 -1      3884 1.68042E-01
 -1      3885 2.58330E-01
 -1      3886 1.31251E-01
 -1      3887 1.07883E-01
 -1      3888 1.71808E-01
 -1      3889 8.28430E-02
 -1      3890 6.73745E-02
 -1      3891 1.09977E-01
 -1      3892 4.97451E-02
 -1      3893 3.97032E-02
 -1      3894 6.73083E-02
 -1      3895 2.94070E-02
 -1      3896 2.33587E-02
 -1      3897 3.93827E-02
 -1      3898 1.70199E-02
 -1      3899 1.31913E-02
 -1      3900 2.27478E-02
 -1      3901 9.35569E-03
 -1      3902 7.01300E-03
 -1      3903 1.25735E-02
 -1      3904 4.77881E-03
 -1      3905 3.39816E-03
 -1      3906 6.50372E-03
 -1      3907 2.17372E-03
 -1      3908 1.39335E-03
 -1      3909 3.04509E-03
 -1      3910 7.84442E-04
 -1      3911 6.64987E-04
 -1      3912 1.21173E-03
 -1      3913 2.31399E+00
 -1      3914 1.49932E+00
 -1      3915 1.70349E-01
 -1      3916 1.92707E-01
 -1      3917 2.32489E+00
 -1      3918 2.07439E+00
 -1      3919 1.95236E-02
 -1      3920 2.65275E-02
 -1      3921 1.07472E-02
 -1      3922 1.46081E-02
 -1      3923 1.63760E-02
 -1      3924 5.96497E-03
 -1      3925 8.24753E-03
 -1      3926 8.96083E-03
 -1      3927 9.83221E-02
 -1      3928 1.06597E-01
 -1      3929 8.66555E-02
 -1      3930 3.33870E-03
 -1      3931 4.56535E-03
 -1      3932 5.06152E-03
 -1      3933 2.06405E-03
 -1      3934 2.53978E-03
 -1      3935 2.86297E-03
 -1      3936 1.37793E-03
 -1      3937 1.72099E-03
 -1      3938 1.72099E-03
 -1      3939 2.60308E+00
 -1      3940 6.67293E-04
 -1      3941 2.07439E+00
 -1      3942 1.82388E+00
 -1      3943 1.72685E+00
 -1      3944 2.23700E+00
 -1      3945 4.07153E+00
 -1      3946 3.93237E+00
 -1      3947 3.22096E+00
 -1      3948 3.62303E-02
 -1      3949 4.78612E-02
 -1      3950 3.09943E-02
 -1      3951 1.63480E-01
 -1      3952 1.40824E-01
 -1      3953 1.41099E-01
 -1      3954 1.35637E-01
 -1      3955 1.90836E-01
 -1      3956 2.91338E+00
 -1      3957 1.12910E-01
 -1      3958 1.14725E-01
 -1      3959 9.65075E-02
 -1      3960 6.42684E-02
 -1      3961 8.28733E-02
 -1      3962 5.71043E-02
 -1      3963 6.87546E-01
 -1      3964 8.55192E-01
 -1      3965 1.02513E+00
 -1      3966 6.18970E-01
 -1      3967 1.37177E+00
 -1      3968 1.78024E+00
 -1      3969 3.04172E-01
 -1      3970 4.01892E-01
 -1      3971 1.15227E-03
 -1      3972 1.30300E-03
 -1      3973 1.30300E-03
 -1      3974 2.80228E+00
 -1      3975 2.80228E+00
 -1      3976 1.00081E-01
 -1      3977 1.09443E-01
 -1      3978 1.38192E-01
 -1      3979 2.60308E+00
 -1      3980 1.60521E+00
 -1      3981 1.96400E+00
 -1      3982 2.24879E+00
 -1      3983 1.59471E+00
 -1      3984 2.51673E-01
 -1      3985 2.17778E-01
 -1      3986 1.94049E-01
 -1      3987 1.28525E+00
 -1      3988 1.06995E+00
 -1      3989 8.55881E-01
 -1      3990 2.02020E+00
 -1      3991 1.96829E-01
 -1      3992 1.59471E+00
 -1      3993 1.81339E-01
 -1      3994 2.38833E-01
 -1      3995 2.78282E-01
 -1      3996 1.69797E-01
 -1      3997 1.90836E-01
 -1      3998 3.13282E-01
 -1      3999 4.71728E-01
 -1      4000 3.73831E-01
 -1      4001 8.57211E-04
 -1      4002 9.04650E-04
 -1      4003 7.92739E-04
 -1      4004 3.13860E+00
 -1      4005 2.22731E+00
 -1      4006 2.52505E+00
 -1      4007 2.06306E+00
 -1      4008 8.59736E-04
 -1      4009 1.01310E-03
 -1      4010 1.08891E-03
 -1      4011 9.48332E-04
 -1      4012 2.22165E+00
 -1      4013 2.42121E+00
 -1      4014 1.02736E-03
 -1      4015 1.08750E-03
 -1      4016 1.08750E-03
 -1      4017 1.10536E-03
 -1      4018 1.30566E-01
 -1      4019 1.06493E-01
 -1      4020 1.44792E-01
 -1      4021 1.29493E-01
 -1      4022 1.44792E-01
 -1      4023 2.25018E+00
 -1      4024 2.76703E+00
 -1      4025 2.86489E+00
 -1      4026 1.94102E+00
 -1      4027 2.60819E+00
 -1      4028 2.89744E+00
 -1      4029 2.64766E+00
 -1      4030 1.35637E-01
 -1      4031 2.06276E+00
 -1      4032 7.11619E-01
 -1      4033 5.67358E-01
 -1      4034 4.71728E-01
 -1      4035 7.11619E-01
 -1      4036 2.08357E+00
 -1      4037 2.91338E+00
 -1      4038 2.91338E+00
 -1      4039 2.31399E+00
 -1      4040 2.42121E+00
 -1      4041 4.36137E-01
 -1      4042 4.94408E-01
 -1      4043 6.53215E-01
 -1      4044 2.46377E+00
 -1      4045 2.46377E+00
 -1      4046 1.75719E+00
 -1      4047 2.30915E+00
 -1      4048 1.64356E-01
 -1      4049 4.35909E-03
 -1      4050 5.75872E-03
 -1      4051 1.82525E-01
 -1      4052 2.22820E-01
 -1      4053 3.40067E-01
 -1      4054 4.02213E-01
 -1      4055 3.62521E-01
 -1      4056 4.10870E-01
 -1      4057 4.90464E-01
 -1      4058 4.88426E-01
 -1      4059 7.71752E-01
 -1      4060 8.77545E-01
 -1      4061 7.78371E-01
 -1      4062 1.03988E+00
 -1      4063 1.35720E+00
 -1      4064 1.22199E+00
 -1      4065 1.80725E+00
 -1      4066 1.66071E+00
 -1      4067 2.17533E+00
 -1      4068 1.42821E+00
 -1      4069 1.32763E+00
 -1      4070 1.99289E+00
 -1      4071 1.19582E+00
 -1      4072 1.10461E+00
 -1      4073 1.62859E+00
 -1      4074 8.71633E-01
 -1      4075 7.94114E-01
 -1      4076 1.26381E+00
 -1      4077 6.17612E-01
 -1      4078 5.54182E-01
 -1      4079 8.54330E-01
 -1      4080 4.53162E-01
 -1      4081 3.91924E-01
 -1      4082 5.76809E-01
 -1      4083 3.12913E-01
 -1      4084 2.63183E-01
 -1      4085 3.96777E-01
 -1      4086 2.06106E-01
 -1      4087 1.69315E-01
 -1      4088 2.60690E-01
 -1      4089 1.13906E-01
 -1      4090 8.88662E-02
 -1      4091 1.48204E-01
 -1      4092 7.87525E-02
 -1      4093 6.11231E-02
 -1      4094 8.26811E-02
 -1      4095 4.53204E-02
 -1      4096 3.50242E-02
 -1      4097 5.67646E-02
 -1      4098 2.55980E-02
 -1      4099 1.92592E-02
 -1      4100 3.15356E-02
 -1      4101 1.37356E-02
 -1      4102 9.90003E-03
 -1      4103 1.65858E-02
 -1      4104 6.77732E-03
 -1      4105 4.54314E-03
 -1      4106 7.93945E-03
 -1      4107 3.04509E-03
 -1      4108 1.82064E-03
 -1      4109 3.31869E-03
 -1      4110 1.40165E-03
 -1      4111 1.41630E-01
 -1      4112 1.49936E-01
 -1      4113 1.21216E-01
 -1      4114 1.24379E-01
 -1      4115 8.84991E-02
 -1      4116 9.50501E-02
 -1      4117 1.85569E-02
 -1      4118 2.34724E-02
 -1      4119 2.04744E-03
 -1      4120 2.84636E-03
 -1      4121 3.54356E-03
 -1      4122 1.36304E-03
 -1      4123 1.70609E-03
 -1      4124 1.68948E-03
 -1      4125 2.55196E+00
 -1      4126 9.35247E-03
 -1      4127 1.18522E-02
 -1      4128 1.89486E-02
 -1      4129 8.65004E-03
 -1      4130 3.18113E-01
 -1      4131 2.59831E-01
 -1      4132 2.56505E-01
 -1      4133 3.54651E-02
 -1      4134 4.51680E-02
 -1      4135 3.76461E-02
 -1      4136 6.67460E-02
 -1      4137 8.31531E-02
 -1      4138 7.12168E-02
 -1      4139 2.08357E+00
 -1      4140 1.92905E+00
 -1      4141 3.20380E-01
 -1      4142 1.39111E-01
 -1      4143 1.52395E-01
 -1      4144 2.15144E-01
 -1      4145 1.04813E-01
 -1      4146 1.34637E-01
 -1      4147 1.28810E-03
 -1      4148 7.84631E-01
 -1      4149 1.03198E+00
 -1      4150 1.13128E+00
 -1      4151 6.60069E-01
 -1      4152 1.65669E+00
 -1      4153 1.62956E+00
 -1      4154 1.65808E+00
 -1      4155 1.44507E+00
 -1      4156 1.01571E+00
 -1      4157 2.47437E+00
 -1      4158 2.35921E+00
 -1      4159 1.97833E+00
 -1      4160 1.13208E-01
 -1      4161 2.30194E+00
 -1      4162 5.08865E-01
 -1      4163 6.01381E-01
 -1      4164 1.40954E-01
 -1      4165 2.04446E+00
 -1      4166 3.81141E-01
 -1      4167 5.46385E-01
 -1      4168 3.15802E-01
 -1      4169 8.91162E-02
 -1      4170 7.94746E-02
 -1      4171 1.06044E-01
 -1      4172 1.14414E+00
 -1      4173 1.48393E+00
 -1      4174 1.62859E+00
 -1      4175 1.61573E+00
 -1      4176 2.08568E+00
 -1      4177 2.31818E+00
 -1      4178 2.77211E+00
 -1      4179 1.97833E+00
 -1      4180 1.99289E+00
 -1      4181 1.65669E+00
 -1      4182 3.21023E-01
 -1      4183 2.65305E-01
 -1      4184 1.81260E+00
 -1      4185 5.28624E-01
 -1      4186 4.32994E-01
 -1      4187 3.77919E-01
 -1      4188 2.14885E+00
 -1      4189 1.94049E-01
 -1      4190 1.88935E-01
 -1      4191 1.72620E-01
 -1      4192 2.48347E-01
 -1      4193 2.17533E+00
 -1      4194 7.79742E-01
 -1      4195 9.11158E-01
 -1      4196 1.26381E+00
 -1      4197 3.67582E-01
 -1      4198 4.84829E-01
 -1      4199 1.25584E-03
 -1      4200 1.59718E-03
 -1      4201 1.40165E-03
 -1      4202 4.93486E-01
 -1      4203 8.36309E-01
 -1      4204 1.11760E+00
 -1      4205 1.27993E+00
 -1      4206 2.22539E+00
 -1      4207 2.22539E+00
 -1      4208 1.99289E+00
 -1      4209 1.76040E+00
 -1      4210 1.62859E+00
 -1      4211 1.49679E+00
 -1      4212 1.26381E+00
 -1      4213 1.03083E+00
 -1      4214 8.54330E-01
 -1      4215 6.75970E-01
 -1      4216 5.74949E-01
 -1      4217 4.47225E-01
 -1      4218 3.68213E-01
 -1      4219 1.65132E-01
 -1      4220 1.09722E-01
 -1      4221 9.27948E-02
 -1      4222 8.26811E-02
 -1      4223 6.11031E-02
 -1      4224 4.53003E-02
 -1      4225 3.33076E-02
 -1      4226 2.38814E-02
 -1      4227 1.71766E-02
 -1      4228 1.16530E-02
 -1      4229 8.05923E-03
 -1      4230 4.93652E-03
 -1      4231 2.25481E-01
 -1      4232 2.55611E-01
 -1      4233 2.16681E-01
 -1      4234 2.57147E-01
 -1      4235 1.22807E-03
 -1      4236 1.28810E-03
 -1      4237 3.42378E-03
 -1      4238 1.91132E-01
 -1      4239 2.34279E-01
 -1      4240 3.37138E-01
 -1      4241 1.70526E-01
 -1      4242 1.08891E-03
 -1      4243 8.52471E-01
 -1      4244 1.16540E-03
 -1      4245 7.58944E-01
 -1      4246 6.14683E-01
 -1      4247 5.75949E-01
 -1      4248 9.18772E-01
 -1      4249 1.07309E-03
 -1      4250 1.49209E-03
 -1      4251 5.79545E-01
 -1      4252 2.86690E-01
 -1      4253 2.29614E-01
 -1      4254 2.99014E-03
 -1      4255 2.56505E-01
 -1      4256 1.09722E-01
 -1      4257 2.22539E+00
 -1      4258 1.91132E-01
 -1      4259 1.06044E-01
 -3
 9999
