    1C
    1UUSER                                                              
    1UDATE              27.october.2022                                 
    1UTIME              00:42:28                                        
    1UHOST                                                              
    1UPGM               CalculiX                                        
    1UVERSION           Version 2.17                             
    1UCOMPILETIME       Thu Jul 23 21:43:50 CEST 2020                    
    1UDIR                                                               
    1UDBN                                                               
    1UMAT    1SOLIDMATERIAL                                             
    2C                          4233                                     1
 -1         1 3.34029E+01 3.00148E+01 0.00000E+00
 -1         2 4.04121E+01 2.30148E+01 0.00000E+00
 -1         3 1.50000E+02 0.00000E+00 0.00000E+00
 -1         4 1.50000E+02 5.00000E+01 0.00000E+00
 -1         5 0.00000E+00 0.00000E+00 0.00000E+00
 -1         6 0.00000E+00 5.00000E+01 0.00000E+00
 -1         7 0.00000E+00 4.70500E+01 0.00000E+00
 -1         8 0.00000E+00 4.41000E+01 0.00000E+00
 -1         9 0.00000E+00 4.11500E+01 0.00000E+00
 -1        10 0.00000E+00 3.82000E+01 0.00000E+00
 -1        11 0.00000E+00 3.52500E+01 0.00000E+00
 -1        12 0.00000E+00 3.23500E+01 0.00000E+00
 -1        13 0.00000E+00 2.94000E+01 0.00000E+00
 -1        14 0.00000E+00 2.64500E+01 0.00000E+00
 -1        15 0.00000E+00 2.35000E+01 0.00000E+00
 -1        16 0.00000E+00 2.05500E+01 0.00000E+00
 -1        17 0.00000E+00 1.76000E+01 0.00000E+00
 -1        18 0.00000E+00 1.47000E+01 0.00000E+00
 -1        19 0.00000E+00 1.17500E+01 0.00000E+00
 -1        20 0.00000E+00 8.80000E+00 0.00000E+00
 -1        21 0.00000E+00 5.85000E+00 0.00000E+00
 -1        22 0.00000E+00 2.90000E+00 0.00000E+00
 -1        23 3.15000E+00 5.00000E+01 0.00000E+00
 -1        24 6.15000E+00 5.00000E+01 0.00000E+00
 -1        25 9.15000E+00 5.00000E+01 0.00000E+00
 -1        26 1.21500E+01 5.00000E+01 0.00000E+00
 -1        27 1.51500E+01 5.00000E+01 0.00000E+00
 -1        28 1.81500E+01 5.00000E+01 0.00000E+00
 -1        29 2.11500E+01 5.00000E+01 0.00000E+00
 -1        30 2.41500E+01 5.00000E+01 0.00000E+00
 -1        31 2.71500E+01 5.00000E+01 0.00000E+00
 -1        32 3.01500E+01 5.00000E+01 0.00000E+00
 -1        33 3.31500E+01 5.00000E+01 0.00000E+00
 -1        34 3.61500E+01 5.00000E+01 0.00000E+00
 -1        35 3.91500E+01 5.00000E+01 0.00000E+00
 -1        36 4.21500E+01 5.00000E+01 0.00000E+00
 -1        37 4.51500E+01 5.00000E+01 0.00000E+00
 -1        38 4.81500E+01 5.00000E+01 0.00000E+00
 -1        39 5.11500E+01 5.00000E+01 0.00000E+00
 -1        40 5.41500E+01 5.00000E+01 0.00000E+00
 -1        41 5.71500E+01 5.00000E+01 0.00000E+00
 -1        42 6.01500E+01 5.00000E+01 0.00000E+00
 -1        43 6.31500E+01 5.00000E+01 0.00000E+00
 -1        44 6.61500E+01 5.00000E+01 0.00000E+00
 -1        45 6.91500E+01 5.00000E+01 0.00000E+00
 -1        46 7.21500E+01 5.00000E+01 0.00000E+00
 -1        47 7.51500E+01 5.00000E+01 0.00000E+00
 -1        48 7.81500E+01 5.00000E+01 0.00000E+00
 -1        49 8.11500E+01 5.00000E+01 0.00000E+00
 -1        50 8.41500E+01 5.00000E+01 0.00000E+00
 -1        51 8.71500E+01 5.00000E+01 0.00000E+00
 -1        52 9.01500E+01 5.00000E+01 0.00000E+00
 -1        53 9.31500E+01 5.00000E+01 0.00000E+00
 -1        54 9.61500E+01 5.00000E+01 0.00000E+00
 -1        55 9.91500E+01 5.00000E+01 0.00000E+00
 -1        56 1.02150E+02 5.00000E+01 0.00000E+00
 -1        57 1.05150E+02 5.00000E+01 0.00000E+00
 -1        58 1.08150E+02 5.00000E+01 0.00000E+00
 -1        59 1.11150E+02 5.00000E+01 0.00000E+00
 -1        60 1.14150E+02 5.00000E+01 0.00000E+00
 -1        61 1.17150E+02 5.00000E+01 0.00000E+00
 -1        62 1.20150E+02 5.00000E+01 0.00000E+00
 -1        63 1.23150E+02 5.00000E+01 0.00000E+00
 -1        64 1.26150E+02 5.00000E+01 0.00000E+00
 -1        65 1.29150E+02 5.00000E+01 0.00000E+00
 -1        66 1.32150E+02 5.00000E+01 0.00000E+00
 -1        67 1.35150E+02 5.00000E+01 0.00000E+00
 -1        68 1.38150E+02 5.00000E+01 0.00000E+00
 -1        69 1.41150E+02 5.00000E+01 0.00000E+00
 -1        70 1.44150E+02 5.00000E+01 0.00000E+00
 -1        71 1.47150E+02 5.00000E+01 0.00000E+00
 -1        72 3.15000E+00 0.00000E+00 0.00000E+00
 -1        73 6.15000E+00 0.00000E+00 0.00000E+00
 -1        74 9.15000E+00 0.00000E+00 0.00000E+00
 -1        75 1.21500E+01 0.00000E+00 0.00000E+00
 -1        76 1.51500E+01 0.00000E+00 0.00000E+00
 -1        77 1.81500E+01 0.00000E+00 0.00000E+00
 -1        78 2.11500E+01 0.00000E+00 0.00000E+00
 -1        79 2.41500E+01 0.00000E+00 0.00000E+00
 -1        80 2.71500E+01 0.00000E+00 0.00000E+00
 -1        81 3.01500E+01 0.00000E+00 0.00000E+00
 -1        82 3.31500E+01 0.00000E+00 0.00000E+00
 -1        83 3.61500E+01 0.00000E+00 0.00000E+00
 -1        84 3.91500E+01 0.00000E+00 0.00000E+00
 -1        85 4.21500E+01 0.00000E+00 0.00000E+00
 -1        86 4.51500E+01 0.00000E+00 0.00000E+00
 -1        87 4.81500E+01 0.00000E+00 0.00000E+00
 -1        88 5.11500E+01 0.00000E+00 0.00000E+00
 -1        89 5.41500E+01 0.00000E+00 0.00000E+00
 -1        90 5.71500E+01 0.00000E+00 0.00000E+00
 -1        91 6.01500E+01 0.00000E+00 0.00000E+00
 -1        92 6.31500E+01 0.00000E+00 0.00000E+00
 -1        93 6.61500E+01 0.00000E+00 0.00000E+00
 -1        94 6.91500E+01 0.00000E+00 0.00000E+00
 -1        95 7.21500E+01 0.00000E+00 0.00000E+00
 -1        96 7.51500E+01 0.00000E+00 0.00000E+00
 -1        97 7.81500E+01 0.00000E+00 0.00000E+00
 -1        98 8.11500E+01 0.00000E+00 0.00000E+00
 -1        99 8.41500E+01 0.00000E+00 0.00000E+00
 -1       100 8.71500E+01 0.00000E+00 0.00000E+00
 -1       101 9.01500E+01 0.00000E+00 0.00000E+00
 -1       102 9.31500E+01 0.00000E+00 0.00000E+00
 -1       103 9.61500E+01 0.00000E+00 0.00000E+00
 -1       104 9.91500E+01 0.00000E+00 0.00000E+00
 -1       105 1.02150E+02 0.00000E+00 0.00000E+00
 -1       106 1.05150E+02 0.00000E+00 0.00000E+00
 -1       107 1.08150E+02 0.00000E+00 0.00000E+00
 -1       108 1.11150E+02 0.00000E+00 0.00000E+00
 -1       109 1.14150E+02 0.00000E+00 0.00000E+00
 -1       110 1.17150E+02 0.00000E+00 0.00000E+00
 -1       111 1.20150E+02 0.00000E+00 0.00000E+00
 -1       112 1.23150E+02 0.00000E+00 0.00000E+00
 -1       113 1.26150E+02 0.00000E+00 0.00000E+00
 -1       114 1.29150E+02 0.00000E+00 0.00000E+00
 -1       115 1.32150E+02 0.00000E+00 0.00000E+00
 -1       116 1.35150E+02 0.00000E+00 0.00000E+00
 -1       117 1.38150E+02 0.00000E+00 0.00000E+00
 -1       118 1.41150E+02 0.00000E+00 0.00000E+00
 -1       119 1.44150E+02 0.00000E+00 0.00000E+00
 -1       120 1.47150E+02 0.00000E+00 0.00000E+00
 -1       121 1.50000E+02 2.95000E+00 0.00000E+00
 -1       122 1.50000E+02 5.90000E+00 0.00000E+00
 -1       123 1.50000E+02 8.85000E+00 0.00000E+00
 -1       124 1.50000E+02 1.18000E+01 0.00000E+00
 -1       125 1.50000E+02 1.47500E+01 0.00000E+00
 -1       126 1.50000E+02 1.76500E+01 0.00000E+00
 -1       127 1.50000E+02 2.06000E+01 0.00000E+00
 -1       128 1.50000E+02 2.35500E+01 0.00000E+00
 -1       129 1.50000E+02 2.65000E+01 0.00000E+00
 -1       130 1.50000E+02 2.94500E+01 0.00000E+00
 -1       131 1.50000E+02 3.24000E+01 0.00000E+00
 -1       132 1.50000E+02 3.53000E+01 0.00000E+00
 -1       133 1.50000E+02 3.82500E+01 0.00000E+00
 -1       134 1.50000E+02 4.12000E+01 0.00000E+00
 -1       135 1.50000E+02 4.41500E+01 0.00000E+00
 -1       136 1.50000E+02 4.71000E+01 0.00000E+00
 -1       137 4.02558E+01 2.15436E+01 0.00000E+00
 -1       138 3.97922E+01 2.01347E+01 0.00000E+00
 -1       139 3.90768E+01 1.89023E+01 0.00000E+00
 -1       140 3.80616E+01 1.77819E+01 0.00000E+00
 -1       141 3.68518E+01 1.69182E+01 0.00000E+00
 -1       142 3.54890E+01 1.63300E+01 0.00000E+00
 -1       143 3.40300E+01 1.60421E+01 0.00000E+00
 -1       144 3.25163E+01 1.60723E+01 0.00000E+00
 -1       145 3.09735E+01 1.64533E+01 0.00000E+00
 -1       146 2.96955E+01 1.70830E+01 0.00000E+00
 -1       147 2.83583E+01 1.81713E+01 0.00000E+00
 -1       148 2.74707E+01 1.93135E+01 0.00000E+00
 -1       149 2.68318E+01 2.06275E+01 0.00000E+00
 -1       150 2.64710E+01 2.21092E+01 0.00000E+00
 -1       151 2.64310E+01 2.35279E+01 0.00000E+00
 -1       152 2.67482E+01 2.51577E+01 0.00000E+00
 -1       153 2.73177E+01 2.64582E+01 0.00000E+00
 -1       154 2.81436E+01 2.76237E+01 0.00000E+00
 -1       155 2.92112E+01 2.86141E+01 0.00000E+00
 -1       156 3.05307E+01 2.93942E+01 0.00000E+00
 -1       157 3.18667E+01 2.98420E+01 0.00000E+00
 -1       158 3.49784E+01 2.98373E+01 0.00000E+00
 -1       159 3.64898E+01 2.93019E+01 0.00000E+00
 -1       160 3.77719E+01 2.84913E+01 0.00000E+00
 -1       161 3.89159E+01 2.73401E+01 0.00000E+00
 -1       162 3.97065E+01 2.60777E+01 0.00000E+00
 -1       163 4.02368E+01 2.45718E+01 0.00000E+00
 -1       164 2.59800E+00 4.55750E+01 0.00000E+00
 -1       165 2.59800E+00 4.26250E+01 0.00000E+00
 -1       166 2.59800E+00 3.96750E+01 0.00000E+00
 -1       167 2.59800E+00 3.67250E+01 0.00000E+00
 -1       168 2.59800E+00 3.38250E+01 0.00000E+00
 -1       169 2.59800E+00 3.08750E+01 0.00000E+00
 -1       170 2.59800E+00 2.79250E+01 0.00000E+00
 -1       171 2.59800E+00 2.49750E+01 0.00000E+00
 -1       172 2.59800E+00 2.20250E+01 0.00000E+00
 -1       173 2.59800E+00 1.90750E+01 0.00000E+00
 -1       174 2.59800E+00 1.61750E+01 0.00000E+00
 -1       175 2.59800E+00 1.32250E+01 0.00000E+00
 -1       176 2.59800E+00 1.02750E+01 0.00000E+00
 -1       177 2.59800E+00 7.32500E+00 0.00000E+00
 -1       178 2.59800E+00 4.37500E+00 0.00000E+00
 -1       179 2.87400E+00 2.18750E+00 0.00000E+00
 -1       180 4.65000E+00 4.74020E+01 0.00000E+00
 -1       181 7.65000E+00 4.74020E+01 0.00000E+00
 -1       182 1.06500E+01 4.74020E+01 0.00000E+00
 -1       183 1.36500E+01 4.74020E+01 0.00000E+00
 -1       184 1.66500E+01 4.74020E+01 0.00000E+00
 -1       185 1.96500E+01 4.74020E+01 0.00000E+00
 -1       186 2.26500E+01 4.74020E+01 0.00000E+00
 -1       187 2.56500E+01 4.74020E+01 0.00000E+00
 -1       188 2.86500E+01 4.74020E+01 0.00000E+00
 -1       189 3.16500E+01 4.74020E+01 0.00000E+00
 -1       190 3.46500E+01 4.74020E+01 0.00000E+00
 -1       191 3.76500E+01 4.74020E+01 0.00000E+00
 -1       192 4.06500E+01 4.74020E+01 0.00000E+00
 -1       193 4.36500E+01 4.74020E+01 0.00000E+00
 -1       194 4.66500E+01 4.74020E+01 0.00000E+00
 -1       195 4.96500E+01 4.74020E+01 0.00000E+00
 -1       196 5.26500E+01 4.74020E+01 0.00000E+00
 -1       197 5.56500E+01 4.74020E+01 0.00000E+00
 -1       198 5.86500E+01 4.74020E+01 0.00000E+00
 -1       199 6.16500E+01 4.74020E+01 0.00000E+00
 -1       200 6.46500E+01 4.74020E+01 0.00000E+00
 -1       201 6.76500E+01 4.74020E+01 0.00000E+00
 -1       202 7.06500E+01 4.74020E+01 0.00000E+00
 -1       203 7.36500E+01 4.74020E+01 0.00000E+00
 -1       204 7.66500E+01 4.74020E+01 0.00000E+00
 -1       205 7.96500E+01 4.74020E+01 0.00000E+00
 -1       206 8.26500E+01 4.74020E+01 0.00000E+00
 -1       207 8.56500E+01 4.74020E+01 0.00000E+00
 -1       208 8.86500E+01 4.74020E+01 0.00000E+00
 -1       209 9.16500E+01 4.74020E+01 0.00000E+00
 -1       210 9.46500E+01 4.74020E+01 0.00000E+00
 -1       211 9.76500E+01 4.74020E+01 0.00000E+00
 -1       212 1.00650E+02 4.74020E+01 0.00000E+00
 -1       213 1.03650E+02 4.74020E+01 0.00000E+00
 -1       214 1.06650E+02 4.74020E+01 0.00000E+00
 -1       215 1.09650E+02 4.74020E+01 0.00000E+00
 -1       216 1.12650E+02 4.74020E+01 0.00000E+00
 -1       217 1.15650E+02 4.74020E+01 0.00000E+00
 -1       218 1.18650E+02 4.74020E+01 0.00000E+00
 -1       219 1.21650E+02 4.74020E+01 0.00000E+00
 -1       220 1.24650E+02 4.74020E+01 0.00000E+00
 -1       221 1.27650E+02 4.74020E+01 0.00000E+00
 -1       222 1.30650E+02 4.74020E+01 0.00000E+00
 -1       223 1.33650E+02 4.74020E+01 0.00000E+00
 -1       224 1.36650E+02 4.74020E+01 0.00000E+00
 -1       225 1.39650E+02 4.74020E+01 0.00000E+00
 -1       226 1.42650E+02 4.74020E+01 0.00000E+00
 -1       227 1.45650E+02 4.74020E+01 0.00000E+00
 -1       228 5.87400E+00 2.18750E+00 0.00000E+00
 -1       229 8.87400E+00 2.18750E+00 0.00000E+00
 -1       230 1.18740E+01 2.18750E+00 0.00000E+00
 -1       231 1.48740E+01 2.18750E+00 0.00000E+00
 -1       232 1.78740E+01 2.18750E+00 0.00000E+00
 -1       233 2.08740E+01 2.18750E+00 0.00000E+00
 -1       234 2.38740E+01 2.18750E+00 0.00000E+00
 -1       235 2.68740E+01 2.18750E+00 0.00000E+00
 -1       236 2.98740E+01 2.18750E+00 0.00000E+00
 -1       237 3.28740E+01 2.18750E+00 0.00000E+00
 -1       238 3.58740E+01 2.18750E+00 0.00000E+00
 -1       239 3.88740E+01 2.18750E+00 0.00000E+00
 -1       240 4.18740E+01 2.18750E+00 0.00000E+00
 -1       241 4.48740E+01 2.18750E+00 0.00000E+00
 -1       242 4.78740E+01 2.18750E+00 0.00000E+00
 -1       243 5.08740E+01 2.18750E+00 0.00000E+00
 -1       244 5.38740E+01 2.18750E+00 0.00000E+00
 -1       245 5.68740E+01 2.18750E+00 0.00000E+00
 -1       246 5.98740E+01 2.18750E+00 0.00000E+00
 -1       247 6.28740E+01 2.18750E+00 0.00000E+00
 -1       248 6.58740E+01 2.18750E+00 0.00000E+00
 -1       249 6.88740E+01 2.18750E+00 0.00000E+00
 -1       250 7.18740E+01 2.18750E+00 0.00000E+00
 -1       251 7.48740E+01 2.18750E+00 0.00000E+00
 -1       252 7.78740E+01 2.18750E+00 0.00000E+00
 -1       253 8.08740E+01 2.18750E+00 0.00000E+00
 -1       254 8.38740E+01 2.18750E+00 0.00000E+00
 -1       255 8.68740E+01 2.18750E+00 0.00000E+00
 -1       256 8.98740E+01 2.18750E+00 0.00000E+00
 -1       257 9.28740E+01 2.18750E+00 0.00000E+00
 -1       258 9.58740E+01 2.18750E+00 0.00000E+00
 -1       259 9.88740E+01 2.18750E+00 0.00000E+00
 -1       260 1.01874E+02 2.18750E+00 0.00000E+00
 -1       261 1.04874E+02 2.18750E+00 0.00000E+00
 -1       262 1.07874E+02 2.18750E+00 0.00000E+00
 -1       263 1.10874E+02 2.18750E+00 0.00000E+00
 -1       264 1.13874E+02 2.18750E+00 0.00000E+00
 -1       265 1.16874E+02 2.18750E+00 0.00000E+00
 -1       266 1.19874E+02 2.18750E+00 0.00000E+00
 -1       267 1.22874E+02 2.18750E+00 0.00000E+00
 -1       268 1.25874E+02 2.18750E+00 0.00000E+00
 -1       269 1.28874E+02 2.18750E+00 0.00000E+00
 -1       270 1.31874E+02 2.18750E+00 0.00000E+00
 -1       271 1.34874E+02 2.18750E+00 0.00000E+00
 -1       272 1.37874E+02 2.18750E+00 0.00000E+00
 -1       273 1.40874E+02 2.18750E+00 0.00000E+00
 -1       274 1.43874E+02 2.18750E+00 0.00000E+00
 -1       275 1.46874E+02 2.18750E+00 0.00000E+00
 -1       276 1.47402E+02 4.42500E+00 0.00000E+00
 -1       277 1.47402E+02 7.37500E+00 0.00000E+00
 -1       278 1.47402E+02 1.03250E+01 0.00000E+00
 -1       279 1.47402E+02 1.32750E+01 0.00000E+00
 -1       280 1.47402E+02 1.61750E+01 0.00000E+00
 -1       281 1.47402E+02 1.91250E+01 0.00000E+00
 -1       282 1.47402E+02 2.20750E+01 0.00000E+00
 -1       283 1.47402E+02 2.50250E+01 0.00000E+00
 -1       284 1.47402E+02 2.79750E+01 0.00000E+00
 -1       285 1.47402E+02 3.09250E+01 0.00000E+00
 -1       286 1.47402E+02 3.38250E+01 0.00000E+00
 -1       287 1.47402E+02 3.67750E+01 0.00000E+00
 -1       288 1.47402E+02 3.97250E+01 0.00000E+00
 -1       289 1.47402E+02 4.26750E+01 0.00000E+00
 -1       290 1.46526E+02 4.50385E+01 0.00000E+00
 -1       291 4.17062E+01 2.21333E+01 0.00000E+00
 -1       292 4.12553E+01 2.04340E+01 0.00000E+00
 -1       293 4.05555E+01 1.88678E+01 0.00000E+00
 -1       294 3.95918E+01 1.74155E+01 0.00000E+00
 -1       295 3.82099E+01 1.62951E+01 0.00000E+00
 -1       296 3.66509E+01 1.55109E+01 0.00000E+00
 -1       297 3.49942E+01 1.49966E+01 0.00000E+00
 -1       298 3.32473E+01 1.47613E+01 0.00000E+00
 -1       299 3.13940E+01 1.48417E+01 0.00000E+00
 -1       300 2.97987E+01 1.56806E+01 0.00000E+00
 -1       301 2.79971E+01 1.63619E+01 0.00000E+00
 -1       302 2.69572E+01 1.79985E+01 0.00000E+00
 -1       303 2.60609E+01 1.94403E+01 0.00000E+00
 -1       304 2.53106E+01 2.10419E+01 0.00000E+00
 -1       305 2.52390E+01 2.27844E+01 0.00000E+00
 -1       306 2.50706E+01 2.46385E+01 0.00000E+00
 -1       307 2.59223E+01 2.62942E+01 0.00000E+00
 -1       308 2.67414E+01 2.77419E+01 0.00000E+00
 -1       309 2.77959E+01 2.90691E+01 0.00000E+00
 -1       310 2.91686E+01 3.01920E+01 0.00000E+00
 -1       311 3.08134E+01 3.07677E+01 0.00000E+00
 -1       312 3.24713E+01 3.13830E+01 0.00000E+00
 -1       313 3.43357E+01 3.12141E+01 0.00000E+00
 -1       314 3.61949E+01 3.08704E+01 0.00000E+00
 -1       315 3.77787E+01 2.99214E+01 0.00000E+00
 -1       316 3.93228E+01 2.88884E+01 0.00000E+00
 -1       317 4.03387E+01 2.73524E+01 0.00000E+00
 -1       318 4.12732E+01 2.57832E+01 0.00000E+00
 -1       319 4.16125E+01 2.39384E+01 0.00000E+00
 -1       320 5.19600E+00 4.11500E+01 0.00000E+00
 -1       321 5.19600E+00 4.41000E+01 0.00000E+00
 -1       322 5.19600E+00 3.52750E+01 0.00000E+00
 -1       323 5.19600E+00 3.23250E+01 0.00000E+00
 -1       324 5.19600E+00 2.93750E+01 0.00000E+00
 -1       325 5.19600E+00 2.64250E+01 0.00000E+00
 -1       326 5.19600E+00 2.34750E+01 0.00000E+00
 -1       327 5.19600E+00 2.05250E+01 0.00000E+00
 -1       328 5.19600E+00 1.76250E+01 0.00000E+00
 -1       329 5.19600E+00 1.46750E+01 0.00000E+00
 -1       330 5.19600E+00 1.17250E+01 0.00000E+00
 -1       331 5.19600E+00 8.77500E+00 0.00000E+00
 -1       332 5.19600E+00 5.82500E+00 0.00000E+00
 -1       333 5.53500E+00 4.00625E+00 0.00000E+00
 -1       334 8.53500E+00 4.00625E+00 0.00000E+00
 -1       335 9.15000E+00 4.48040E+01 0.00000E+00
 -1       336 1.21500E+01 4.48040E+01 0.00000E+00
 -1       337 1.51500E+01 4.48040E+01 0.00000E+00
 -1       338 1.81500E+01 4.48040E+01 0.00000E+00
 -1       339 2.11500E+01 4.48040E+01 0.00000E+00
 -1       340 2.41500E+01 4.48040E+01 0.00000E+00
 -1       341 2.71500E+01 4.48040E+01 0.00000E+00
 -1       342 3.01500E+01 4.48040E+01 0.00000E+00
 -1       343 3.31500E+01 4.48040E+01 0.00000E+00
 -1       344 3.61500E+01 4.48040E+01 0.00000E+00
 -1       345 3.91500E+01 4.48040E+01 0.00000E+00
 -1       346 4.21500E+01 4.48040E+01 0.00000E+00
 -1       347 4.51500E+01 4.48040E+01 0.00000E+00
 -1       348 4.81500E+01 4.48040E+01 0.00000E+00
 -1       349 5.11500E+01 4.48040E+01 0.00000E+00
 -1       350 5.41500E+01 4.48040E+01 0.00000E+00
 -1       351 5.71500E+01 4.48040E+01 0.00000E+00
 -1       352 6.01500E+01 4.48040E+01 0.00000E+00
 -1       353 6.31500E+01 4.48040E+01 0.00000E+00
 -1       354 6.61500E+01 4.48040E+01 0.00000E+00
 -1       355 6.91500E+01 4.48040E+01 0.00000E+00
 -1       356 7.21500E+01 4.48040E+01 0.00000E+00
 -1       357 7.51500E+01 4.48040E+01 0.00000E+00
 -1       358 7.81500E+01 4.48040E+01 0.00000E+00
 -1       359 8.11500E+01 4.48040E+01 0.00000E+00
 -1       360 8.41500E+01 4.48040E+01 0.00000E+00
 -1       361 8.71500E+01 4.48040E+01 0.00000E+00
 -1       362 9.01500E+01 4.48040E+01 0.00000E+00
 -1       363 9.31500E+01 4.48040E+01 0.00000E+00
 -1       364 9.61500E+01 4.48040E+01 0.00000E+00
 -1       365 9.91500E+01 4.48040E+01 0.00000E+00
 -1       366 1.02150E+02 4.48040E+01 0.00000E+00
 -1       367 1.05150E+02 4.48040E+01 0.00000E+00
 -1       368 1.08150E+02 4.48040E+01 0.00000E+00
 -1       369 1.11150E+02 4.48040E+01 0.00000E+00
 -1       370 1.14150E+02 4.48040E+01 0.00000E+00
 -1       371 1.17150E+02 4.48040E+01 0.00000E+00
 -1       372 1.20150E+02 4.48040E+01 0.00000E+00
 -1       373 1.23150E+02 4.48040E+01 0.00000E+00
 -1       374 1.26150E+02 4.48040E+01 0.00000E+00
 -1       375 1.29150E+02 4.48040E+01 0.00000E+00
 -1       376 1.32150E+02 4.48040E+01 0.00000E+00
 -1       377 1.35150E+02 4.48040E+01 0.00000E+00
 -1       378 1.38150E+02 4.48040E+01 0.00000E+00
 -1       379 1.41150E+02 4.48040E+01 0.00000E+00
 -1       380 1.43838E+02 4.49212E+01 0.00000E+00
 -1       381 1.15350E+01 4.00625E+00 0.00000E+00
 -1       382 1.45350E+01 4.00625E+00 0.00000E+00
 -1       383 1.75350E+01 4.00625E+00 0.00000E+00
 -1       384 2.05350E+01 4.00625E+00 0.00000E+00
 -1       385 2.35350E+01 4.00625E+00 0.00000E+00
 -1       386 2.65350E+01 4.00625E+00 0.00000E+00
 -1       387 2.95350E+01 4.00625E+00 0.00000E+00
 -1       388 3.25350E+01 4.00625E+00 0.00000E+00
 -1       389 3.55350E+01 4.00625E+00 0.00000E+00
 -1       390 3.85350E+01 4.00625E+00 0.00000E+00
 -1       391 4.15350E+01 4.00625E+00 0.00000E+00
 -1       392 4.45350E+01 4.00625E+00 0.00000E+00
 -1       393 4.75350E+01 4.00625E+00 0.00000E+00
 -1       394 5.05350E+01 4.00625E+00 0.00000E+00
 -1       395 5.35350E+01 4.00625E+00 0.00000E+00
 -1       396 5.65350E+01 4.00625E+00 0.00000E+00
 -1       397 5.95350E+01 4.00625E+00 0.00000E+00
 -1       398 6.25350E+01 4.00625E+00 0.00000E+00
 -1       399 6.55350E+01 4.00625E+00 0.00000E+00
 -1       400 6.85350E+01 4.00625E+00 0.00000E+00
 -1       401 7.15350E+01 4.00625E+00 0.00000E+00
 -1       402 7.45350E+01 4.00625E+00 0.00000E+00
 -1       403 7.75350E+01 4.00625E+00 0.00000E+00
 -1       404 8.05350E+01 4.00625E+00 0.00000E+00
 -1       405 8.35350E+01 4.00625E+00 0.00000E+00
 -1       406 8.65350E+01 4.00625E+00 0.00000E+00
 -1       407 8.95350E+01 4.00625E+00 0.00000E+00
 -1       408 9.25350E+01 4.00625E+00 0.00000E+00
 -1       409 9.55350E+01 4.00625E+00 0.00000E+00
 -1       410 9.85350E+01 4.00625E+00 0.00000E+00
 -1       411 1.01535E+02 4.00625E+00 0.00000E+00
 -1       412 1.04535E+02 4.00625E+00 0.00000E+00
 -1       413 1.07535E+02 4.00625E+00 0.00000E+00
 -1       414 1.10535E+02 4.00625E+00 0.00000E+00
 -1       415 1.13535E+02 4.00625E+00 0.00000E+00
 -1       416 1.16535E+02 4.00625E+00 0.00000E+00
 -1       417 1.19535E+02 4.00625E+00 0.00000E+00
 -1       418 1.22535E+02 4.00625E+00 0.00000E+00
 -1       419 1.25535E+02 4.00625E+00 0.00000E+00
 -1       420 1.28535E+02 4.00625E+00 0.00000E+00
 -1       421 1.31535E+02 4.00625E+00 0.00000E+00
 -1       422 1.34535E+02 4.00625E+00 0.00000E+00
 -1       423 1.37535E+02 4.00625E+00 0.00000E+00
 -1       424 1.40535E+02 4.00625E+00 0.00000E+00
 -1       425 1.43535E+02 4.00625E+00 0.00000E+00
 -1       426 1.45469E+02 4.21562E+00 0.00000E+00
 -1       427 1.44804E+02 1.18000E+01 0.00000E+00
 -1       428 1.44804E+02 8.85000E+00 0.00000E+00
 -1       429 1.45136E+02 6.53281E+00 0.00000E+00
 -1       430 1.44804E+02 1.47000E+01 0.00000E+00
 -1       431 1.44804E+02 1.76500E+01 0.00000E+00
 -1       432 1.44804E+02 2.06000E+01 0.00000E+00
 -1       433 1.44804E+02 2.35500E+01 0.00000E+00
 -1       434 1.44804E+02 2.65000E+01 0.00000E+00
 -1       435 1.44804E+02 2.94500E+01 0.00000E+00
 -1       436 1.44804E+02 3.23500E+01 0.00000E+00
 -1       437 1.44804E+02 3.53000E+01 0.00000E+00
 -1       438 1.44804E+02 3.82500E+01 0.00000E+00
 -1       439 1.44804E+02 4.12000E+01 0.00000E+00
 -1       440 4.24713E+01 1.89512E+01 0.00000E+00
 -1       441 4.31211E+01 2.31117E+01 0.00000E+00
 -1       442 4.29222E+01 2.06506E+01 0.00000E+00
 -1       443 4.15076E+01 1.74990E+01 0.00000E+00
 -1       444 3.98755E+01 1.56533E+01 0.00000E+00
 -1       445 5.19600E+00 3.82125E+01 0.00000E+00
 -1       446 3.63062E+01 1.36958E+01 0.00000E+00
 -1       447 3.43161E+01 1.34283E+01 0.00000E+00
 -1       448 3.22463E+01 1.30880E+01 0.00000E+00
 -1       449 2.98761E+01 1.38914E+01 0.00000E+00
 -1       450 2.80746E+01 1.45728E+01 0.00000E+00
 -1       451 2.63124E+01 1.64401E+01 0.00000E+00
 -1       452 2.54082E+01 1.80351E+01 0.00000E+00
 -1       453 2.45120E+01 1.96912E+01 0.00000E+00
 -1       454 2.35612E+01 2.18428E+01 0.00000E+00
 -1       455 2.33927E+01 2.36968E+01 0.00000E+00
 -1       456 2.43438E+01 2.60593E+01 0.00000E+00
 -1       457 2.50579E+01 2.77389E+01 0.00000E+00
 -1       458 2.61882E+01 2.92640E+01 0.00000E+00
 -1       459 2.76085E+01 3.06987E+01 0.00000E+00
 -1       460 2.94521E+01 3.20196E+01 0.00000E+00
 -1       461 3.11100E+01 3.26349E+01 0.00000E+00
 -1       462 3.35431E+01 3.28397E+01 0.00000E+00
 -1       463 3.55466E+01 3.25640E+01 0.00000E+00
 -1       464 3.77391E+01 3.16515E+01 0.00000E+00
 -1       465 3.92831E+01 3.06186E+01 0.00000E+00
 -1       466 4.10516E+01 2.89279E+01 0.00000E+00
 -1       467 4.19861E+01 2.73587E+01 0.00000E+00
 -1       468 4.27177E+01 2.50952E+01 0.00000E+00
 -1       469 3.80505E+01 1.46702E+01 0.00000E+00
 -1       470 4.34305E+01 2.66707E+01 0.00000E+00
 -1       471 2.26660E+01 2.51177E+01 0.00000E+00
 -1       472 2.63899E+01 1.46510E+01 0.00000E+00
 -1       473 1.00350E+01 6.60425E+00 0.00000E+00
 -1       474 7.79400E+00 3.08500E+01 0.00000E+00
 -1       475 7.79400E+00 3.38000E+01 0.00000E+00
 -1       476 7.79400E+00 2.49500E+01 0.00000E+00
 -1       477 7.79400E+00 2.20000E+01 0.00000E+00
 -1       478 7.79400E+00 1.91000E+01 0.00000E+00
 -1       479 7.79400E+00 1.61500E+01 0.00000E+00
 -1       480 7.79400E+00 1.32000E+01 0.00000E+00
 -1       481 7.79400E+00 1.02500E+01 0.00000E+00
 -1       482 1.30350E+01 6.60425E+00 0.00000E+00
 -1       483 1.06500E+01 4.22060E+01 0.00000E+00
 -1       484 3.04030E+01 1.15480E+01 0.00000E+00
 -1       485 1.36500E+01 4.22060E+01 0.00000E+00
 -1       486 1.66500E+01 4.22060E+01 0.00000E+00
 -1       487 1.96500E+01 4.22060E+01 0.00000E+00
 -1       488 2.26500E+01 4.22060E+01 0.00000E+00
 -1       489 2.56500E+01 4.22060E+01 0.00000E+00
 -1       490 2.86500E+01 4.22060E+01 0.00000E+00
 -1       491 3.16500E+01 4.22060E+01 0.00000E+00
 -1       492 3.46500E+01 4.22060E+01 0.00000E+00
 -1       493 3.76500E+01 4.22060E+01 0.00000E+00
 -1       494 4.06500E+01 4.22060E+01 0.00000E+00
 -1       495 4.36500E+01 4.22060E+01 0.00000E+00
 -1       496 4.66500E+01 4.22060E+01 0.00000E+00
 -1       497 4.96500E+01 4.22060E+01 0.00000E+00
 -1       498 5.26500E+01 4.22060E+01 0.00000E+00
 -1       499 5.56500E+01 4.22060E+01 0.00000E+00
 -1       500 5.86500E+01 4.22060E+01 0.00000E+00
 -1       501 6.16500E+01 4.22060E+01 0.00000E+00
 -1       502 6.46500E+01 4.22060E+01 0.00000E+00
 -1       503 6.76500E+01 4.22060E+01 0.00000E+00
 -1       504 7.06500E+01 4.22060E+01 0.00000E+00
 -1       505 7.36500E+01 4.22060E+01 0.00000E+00
 -1       506 7.66500E+01 4.22060E+01 0.00000E+00
 -1       507 7.96500E+01 4.22060E+01 0.00000E+00
 -1       508 8.26500E+01 4.22060E+01 0.00000E+00
 -1       509 8.56500E+01 4.22060E+01 0.00000E+00
 -1       510 8.86500E+01 4.22060E+01 0.00000E+00
 -1       511 9.16500E+01 4.22060E+01 0.00000E+00
 -1       512 9.46500E+01 4.22060E+01 0.00000E+00
 -1       513 9.76500E+01 4.22060E+01 0.00000E+00
 -1       514 1.00650E+02 4.22060E+01 0.00000E+00
 -1       515 1.03650E+02 4.22060E+01 0.00000E+00
 -1       516 1.06650E+02 4.22060E+01 0.00000E+00
 -1       517 1.09650E+02 4.22060E+01 0.00000E+00
 -1       518 1.12650E+02 4.22060E+01 0.00000E+00
 -1       519 1.15650E+02 4.22060E+01 0.00000E+00
 -1       520 1.18650E+02 4.22060E+01 0.00000E+00
 -1       521 1.21650E+02 4.22060E+01 0.00000E+00
 -1       522 1.24650E+02 4.22060E+01 0.00000E+00
 -1       523 1.27650E+02 4.22060E+01 0.00000E+00
 -1       524 1.30650E+02 4.22060E+01 0.00000E+00
 -1       525 1.33650E+02 4.22060E+01 0.00000E+00
 -1       526 1.36650E+02 4.22060E+01 0.00000E+00
 -1       527 1.39650E+02 4.22060E+01 0.00000E+00
 -1       528 4.43545E+01 1.93610E+01 0.00000E+00
 -1       529 1.90350E+01 6.60425E+00 0.00000E+00
 -1       530 2.20350E+01 6.60425E+00 0.00000E+00
 -1       531 2.50350E+01 6.60425E+00 0.00000E+00
 -1       532 2.80350E+01 6.60425E+00 0.00000E+00
 -1       533 3.10350E+01 6.60425E+00 0.00000E+00
 -1       534 3.40350E+01 6.60425E+00 0.00000E+00
 -1       535 3.70350E+01 6.60425E+00 0.00000E+00
 -1       536 4.00350E+01 6.60425E+00 0.00000E+00
 -1       537 4.30350E+01 6.60425E+00 0.00000E+00
 -1       538 4.60350E+01 6.60425E+00 0.00000E+00
 -1       539 4.90350E+01 6.60425E+00 0.00000E+00
 -1       540 5.20350E+01 6.60425E+00 0.00000E+00
 -1       541 5.50350E+01 6.60425E+00 0.00000E+00
 -1       542 5.80350E+01 6.60425E+00 0.00000E+00
 -1       543 6.10350E+01 6.60425E+00 0.00000E+00
 -1       544 6.40350E+01 6.60425E+00 0.00000E+00
 -1       545 6.70350E+01 6.60425E+00 0.00000E+00
 -1       546 7.00350E+01 6.60425E+00 0.00000E+00
 -1       547 7.30350E+01 6.60425E+00 0.00000E+00
 -1       548 7.60350E+01 6.60425E+00 0.00000E+00
 -1       549 7.90350E+01 6.60425E+00 0.00000E+00
 -1       550 8.20350E+01 6.60425E+00 0.00000E+00
 -1       551 8.50350E+01 6.60425E+00 0.00000E+00
 -1       552 8.80350E+01 6.60425E+00 0.00000E+00
 -1       553 9.10350E+01 6.60425E+00 0.00000E+00
 -1       554 9.40350E+01 6.60425E+00 0.00000E+00
 -1       555 9.70350E+01 6.60425E+00 0.00000E+00
 -1       556 1.00035E+02 6.60425E+00 0.00000E+00
 -1       557 1.03035E+02 6.60425E+00 0.00000E+00
 -1       558 1.06035E+02 6.60425E+00 0.00000E+00
 -1       559 1.09035E+02 6.60425E+00 0.00000E+00
 -1       560 1.12035E+02 6.60425E+00 0.00000E+00
 -1       561 1.15035E+02 6.60425E+00 0.00000E+00
 -1       562 1.18035E+02 6.60425E+00 0.00000E+00
 -1       563 1.21035E+02 6.60425E+00 0.00000E+00
 -1       564 1.24035E+02 6.60425E+00 0.00000E+00
 -1       565 1.27035E+02 6.60425E+00 0.00000E+00
 -1       566 1.30035E+02 6.60425E+00 0.00000E+00
 -1       567 1.33035E+02 6.60425E+00 0.00000E+00
 -1       568 1.36035E+02 6.60425E+00 0.00000E+00
 -1       569 1.39035E+02 6.60425E+00 0.00000E+00
 -1       570 1.42035E+02 6.60425E+00 0.00000E+00
 -1       571 1.42206E+02 1.61750E+01 0.00000E+00
 -1       572 1.42206E+02 1.91250E+01 0.00000E+00
 -1       573 1.42206E+02 1.03250E+01 0.00000E+00
 -1       574 1.42206E+02 1.32500E+01 0.00000E+00
 -1       575 1.42206E+02 2.20750E+01 0.00000E+00
 -1       576 1.42206E+02 2.50250E+01 0.00000E+00
 -1       577 1.42206E+02 2.79750E+01 0.00000E+00
 -1       578 1.42206E+02 3.08750E+01 0.00000E+00
 -1       579 1.42206E+02 3.38250E+01 0.00000E+00
 -1       580 1.42206E+02 3.67750E+01 0.00000E+00
 -1       581 1.42206E+02 3.97250E+01 0.00000E+00
 -1       582 4.32789E+01 1.73695E+01 0.00000E+00
 -1       583 4.21019E+01 1.53290E+01 0.00000E+00
 -1       584 1.60350E+01 6.60425E+00 0.00000E+00
 -1       585 4.44359E+01 2.44120E+01 0.00000E+00
 -1       586 7.92300E+00 4.16780E+01 0.00000E+00
 -1       587 3.73019E+01 3.36912E+01 0.00000E+00
 -1       588 2.75314E+01 3.27534E+01 0.00000E+00
 -1       589 2.23146E+01 2.00060E+01 0.00000E+00
 -1       590 3.55285E+01 1.19452E+01 0.00000E+00
 -1       591 7.79400E+00 2.79000E+01 0.00000E+00
 -1       592 3.34586E+01 1.16050E+01 0.00000E+00
 -1       593 2.45141E+01 1.64744E+01 0.00000E+00
 -1       594 3.80966E+01 1.25394E+01 0.00000E+00
 -1       595 2.86015E+01 1.22294E+01 0.00000E+00
 -1       596 2.31225E+01 2.75701E+01 0.00000E+00
 -1       597 2.36179E+01 1.81305E+01 0.00000E+00
 -1       598 2.20192E+01 2.26373E+01 0.00000E+00
 -1       599 3.47331E+01 3.40689E+01 0.00000E+00
 -1       600 2.41105E+01 2.96224E+01 0.00000E+00
 -1       601 2.55308E+01 3.10572E+01 0.00000E+00
 -1       602 2.96843E+01 3.39352E+01 0.00000E+00
 -1       603 3.21967E+01 3.42794E+01 0.00000E+00
 -1       604 3.94648E+01 3.25605E+01 0.00000E+00
 -1       605 4.12367E+01 3.08919E+01 0.00000E+00
 -1       606 4.28485E+01 2.89351E+01 0.00000E+00
 -1       607 3.99215E+01 1.35224E+01 0.00000E+00
 -1       608 7.61550E+00 6.21462E+00 0.00000E+00
 -1       609 4.50653E+01 2.17160E+01 0.00000E+00
 -1       610 7.79400E+00 3.67375E+01 0.00000E+00
 -1       611 1.41678E+02 4.22645E+01 0.00000E+00
 -1       612 2.69168E+01 1.23075E+01 0.00000E+00
 -1       613 2.45916E+01 1.46853E+01 0.00000E+00
 -1       614 2.12925E+01 2.40581E+01 0.00000E+00
 -1       615 3.47718E+01 1.00827E+01 0.00000E+00
 -1       616 1.03920E+01 2.05500E+01 0.00000E+00
 -1       617 1.03920E+01 2.35000E+01 0.00000E+00
 -1       618 1.03920E+01 1.46750E+01 0.00000E+00
 -1       619 1.03920E+01 1.17250E+01 0.00000E+00
 -1       620 1.15350E+01 9.20225E+00 0.00000E+00
 -1       621 1.45350E+01 9.20225E+00 0.00000E+00
 -1       622 1.51500E+01 3.96080E+01 0.00000E+00
 -1       623 1.81500E+01 3.96080E+01 0.00000E+00
 -1       624 2.11500E+01 3.96080E+01 0.00000E+00
 -1       625 2.41500E+01 3.96080E+01 0.00000E+00
 -1       626 2.71500E+01 3.96080E+01 0.00000E+00
 -1       627 3.01500E+01 3.96080E+01 0.00000E+00
 -1       628 3.31500E+01 3.96080E+01 0.00000E+00
 -1       629 3.61500E+01 3.96080E+01 0.00000E+00
 -1       630 3.91500E+01 3.96080E+01 0.00000E+00
 -1       631 4.21500E+01 3.96080E+01 0.00000E+00
 -1       632 4.51500E+01 3.96080E+01 0.00000E+00
 -1       633 4.81500E+01 3.96080E+01 0.00000E+00
 -1       634 5.11500E+01 3.96080E+01 0.00000E+00
 -1       635 5.41500E+01 3.96080E+01 0.00000E+00
 -1       636 5.71500E+01 3.96080E+01 0.00000E+00
 -1       637 6.01500E+01 3.96080E+01 0.00000E+00
 -1       638 6.31500E+01 3.96080E+01 0.00000E+00
 -1       639 6.61500E+01 3.96080E+01 0.00000E+00
 -1       640 6.91500E+01 3.96080E+01 0.00000E+00
 -1       641 7.21500E+01 3.96080E+01 0.00000E+00
 -1       642 7.51500E+01 3.96080E+01 0.00000E+00
 -1       643 7.81500E+01 3.96080E+01 0.00000E+00
 -1       644 8.11500E+01 3.96080E+01 0.00000E+00
 -1       645 8.41500E+01 3.96080E+01 0.00000E+00
 -1       646 8.71500E+01 3.96080E+01 0.00000E+00
 -1       647 9.01500E+01 3.96080E+01 0.00000E+00
 -1       648 9.31500E+01 3.96080E+01 0.00000E+00
 -1       649 9.61500E+01 3.96080E+01 0.00000E+00
 -1       650 9.91500E+01 3.96080E+01 0.00000E+00
 -1       651 1.02150E+02 3.96080E+01 0.00000E+00
 -1       652 1.05150E+02 3.96080E+01 0.00000E+00
 -1       653 1.08150E+02 3.96080E+01 0.00000E+00
 -1       654 1.11150E+02 3.96080E+01 0.00000E+00
 -1       655 1.14150E+02 3.96080E+01 0.00000E+00
 -1       656 1.17150E+02 3.96080E+01 0.00000E+00
 -1       657 1.20150E+02 3.96080E+01 0.00000E+00
 -1       658 1.23150E+02 3.96080E+01 0.00000E+00
 -1       659 1.26150E+02 3.96080E+01 0.00000E+00
 -1       660 1.29150E+02 3.96080E+01 0.00000E+00
 -1       661 1.32150E+02 3.96080E+01 0.00000E+00
 -1       662 1.35150E+02 3.96080E+01 0.00000E+00
 -1       663 1.38150E+02 3.96080E+01 0.00000E+00
 -1       664 2.52052E+01 3.34691E+01 0.00000E+00
 -1       665 2.05350E+01 9.20225E+00 0.00000E+00
 -1       666 2.95350E+01 8.98964E+00 0.00000E+00
 -1       667 4.15350E+01 9.20225E+00 0.00000E+00
 -1       668 4.45350E+01 9.20225E+00 0.00000E+00
 -1       669 4.75350E+01 9.20225E+00 0.00000E+00
 -1       670 5.05350E+01 9.20225E+00 0.00000E+00
 -1       671 5.35350E+01 9.20225E+00 0.00000E+00
 -1       672 5.65350E+01 9.20225E+00 0.00000E+00
 -1       673 5.95350E+01 9.20225E+00 0.00000E+00
 -1       674 6.25350E+01 9.20225E+00 0.00000E+00
 -1       675 6.55350E+01 9.20225E+00 0.00000E+00
 -1       676 6.85350E+01 9.20225E+00 0.00000E+00
 -1       677 7.15350E+01 9.20225E+00 0.00000E+00
 -1       678 7.45350E+01 9.20225E+00 0.00000E+00
 -1       679 7.75350E+01 9.20225E+00 0.00000E+00
 -1       680 8.05350E+01 9.20225E+00 0.00000E+00
 -1       681 8.35350E+01 9.20225E+00 0.00000E+00
 -1       682 8.65350E+01 9.20225E+00 0.00000E+00
 -1       683 8.95350E+01 9.20225E+00 0.00000E+00
 -1       684 9.25350E+01 9.20225E+00 0.00000E+00
 -1       685 9.55350E+01 9.20225E+00 0.00000E+00
 -1       686 9.85350E+01 9.20225E+00 0.00000E+00
 -1       687 1.01535E+02 9.20225E+00 0.00000E+00
 -1       688 1.04535E+02 9.20225E+00 0.00000E+00
 -1       689 1.07535E+02 9.20225E+00 0.00000E+00
 -1       690 1.10535E+02 9.20225E+00 0.00000E+00
 -1       691 1.13535E+02 9.20225E+00 0.00000E+00
 -1       692 1.16535E+02 9.20225E+00 0.00000E+00
 -1       693 1.19535E+02 9.20225E+00 0.00000E+00
 -1       694 1.22535E+02 9.20225E+00 0.00000E+00
 -1       695 1.25535E+02 9.20225E+00 0.00000E+00
 -1       696 1.28535E+02 9.20225E+00 0.00000E+00
 -1       697 1.31535E+02 9.20225E+00 0.00000E+00
 -1       698 1.34535E+02 9.20225E+00 0.00000E+00
 -1       699 1.37535E+02 9.20225E+00 0.00000E+00
 -1       700 1.39870E+02 9.76363E+00 0.00000E+00
 -1       701 4.23198E+01 1.28470E+01 0.00000E+00
 -1       702 1.39608E+02 2.35500E+01 0.00000E+00
 -1       703 1.40178E+02 3.96665E+01 0.00000E+00
 -1       704 1.39608E+02 1.76500E+01 0.00000E+00
 -1       705 1.39608E+02 2.65000E+01 0.00000E+00
 -1       706 1.39608E+02 2.06000E+01 0.00000E+00
 -1       707 1.39608E+02 2.94000E+01 0.00000E+00
 -1       708 1.39608E+02 3.23500E+01 0.00000E+00
 -1       709 1.39608E+02 3.53000E+01 0.00000E+00
 -1       710 2.77019E+01 3.49946E+01 0.00000E+00
 -1       711 1.07220E+01 3.94717E+01 0.00000E+00
 -1       712 4.52521E+01 1.75900E+01 0.00000E+00
 -1       713 4.00608E+01 1.10784E+01 0.00000E+00
 -1       714 3.62670E+01 3.55769E+01 0.00000E+00
 -1       715 4.41761E+01 1.54923E+01 0.00000E+00
 -1       716 4.67472E+01 2.35301E+01 0.00000E+00
 -1       717 1.75350E+01 9.20225E+00 0.00000E+00
 -1       718 2.65350E+01 8.98964E+00 0.00000E+00
 -1       719 2.35350E+01 9.20225E+00 0.00000E+00
 -1       720 2.01294E+01 2.10929E+01 0.00000E+00
 -1       721 2.14672E+01 2.96309E+01 0.00000E+00
 -1       722 2.16266E+01 1.81373E+01 0.00000E+00
 -1       723 3.72747E+01 1.02449E+01 0.00000E+00
 -1       724 1.03920E+01 1.76125E+01 0.00000E+00
 -1       725 2.10433E+01 2.66884E+01 0.00000E+00
 -1       726 4.68331E+01 1.98977E+01 0.00000E+00
 -1       727 1.03920E+01 3.23250E+01 0.00000E+00
 -1       728 2.25228E+01 1.64812E+01 0.00000E+00
 -1       729 4.58063E+01 2.63750E+01 0.00000E+00
 -1       730 4.15266E+01 3.29748E+01 0.00000E+00
 -1       731 3.06849E+01 3.59725E+01 0.00000E+00
 -1       732 2.37849E+01 3.20343E+01 0.00000E+00
 -1       733 4.52242E+01 2.86394E+01 0.00000E+00
 -1       734 3.21534E+01 9.53618E+00 0.00000E+00
 -1       735 3.36067E+01 3.58834E+01 0.00000E+00
 -1       736 3.93331E+01 3.49428E+01 0.00000E+00
 -1       737 4.33665E+01 3.10039E+01 0.00000E+00
 -1       738 1.03920E+01 2.64500E+01 0.00000E+00
 -1       739 1.39608E+02 1.47250E+01 0.00000E+00
 -1       740 1.39739E+02 1.22443E+01 0.00000E+00
 -1       741 4.85150E+01 2.17118E+01 0.00000E+00
 -1       742 2.51184E+01 1.23418E+01 0.00000E+00
 -1       743 2.26003E+01 1.46921E+01 0.00000E+00
 -1       744 1.94414E+01 1.92243E+01 0.00000E+00
 -1       745 1.94027E+01 2.25137E+01 0.00000E+00
 -1       746 1.03920E+01 2.93875E+01 0.00000E+00
 -1       747 1.03920E+01 3.52625E+01 0.00000E+00
 -1       748 1.29900E+01 1.32000E+01 0.00000E+00
 -1       749 4.75957E+01 1.76797E+01 0.00000E+00
 -1       750 2.29189E+01 3.43120E+01 0.00000E+00
 -1       751 1.96500E+01 3.70100E+01 0.00000E+00
 -1       752 2.26500E+01 3.70100E+01 0.00000E+00
 -1       753 3.46500E+01 3.77253E+01 0.00000E+00
 -1       754 3.76500E+01 3.72226E+01 0.00000E+00
 -1       755 4.66500E+01 3.70100E+01 0.00000E+00
 -1       756 4.96500E+01 3.70100E+01 0.00000E+00
 -1       757 5.26500E+01 3.70100E+01 0.00000E+00
 -1       758 5.56500E+01 3.70100E+01 0.00000E+00
 -1       759 5.86500E+01 3.70100E+01 0.00000E+00
 -1       760 6.16500E+01 3.70100E+01 0.00000E+00
 -1       761 6.46500E+01 3.70100E+01 0.00000E+00
 -1       762 6.76500E+01 3.70100E+01 0.00000E+00
 -1       763 7.06500E+01 3.70100E+01 0.00000E+00
 -1       764 7.36500E+01 3.70100E+01 0.00000E+00
 -1       765 7.66500E+01 3.70100E+01 0.00000E+00
 -1       766 7.96500E+01 3.70100E+01 0.00000E+00
 -1       767 8.26500E+01 3.70100E+01 0.00000E+00
 -1       768 8.56500E+01 3.70100E+01 0.00000E+00
 -1       769 8.86500E+01 3.70100E+01 0.00000E+00
 -1       770 9.16500E+01 3.70100E+01 0.00000E+00
 -1       771 9.46500E+01 3.70100E+01 0.00000E+00
 -1       772 9.76500E+01 3.70100E+01 0.00000E+00
 -1       773 1.00650E+02 3.70100E+01 0.00000E+00
 -1       774 1.03650E+02 3.70100E+01 0.00000E+00
 -1       775 1.06650E+02 3.70100E+01 0.00000E+00
 -1       776 1.09650E+02 3.70100E+01 0.00000E+00
 -1       777 1.12650E+02 3.70100E+01 0.00000E+00
 -1       778 1.15650E+02 3.70100E+01 0.00000E+00
 -1       779 1.18650E+02 3.70100E+01 0.00000E+00
 -1       780 1.21650E+02 3.70100E+01 0.00000E+00
 -1       781 1.24650E+02 3.70100E+01 0.00000E+00
 -1       782 1.27650E+02 3.70100E+01 0.00000E+00
 -1       783 1.30650E+02 3.70100E+01 0.00000E+00
 -1       784 1.33650E+02 3.70100E+01 0.00000E+00
 -1       785 1.36650E+02 3.70100E+01 0.00000E+00
 -1       786 2.01242E+01 1.62537E+01 0.00000E+00
 -1       787 2.20350E+01 1.17552E+01 0.00000E+00
 -1       788 5.20350E+01 1.18003E+01 0.00000E+00
 -1       789 5.50350E+01 1.18003E+01 0.00000E+00
 -1       790 5.80350E+01 1.18003E+01 0.00000E+00
 -1       791 6.10350E+01 1.18003E+01 0.00000E+00
 -1       792 6.40350E+01 1.18003E+01 0.00000E+00
 -1       793 6.70350E+01 1.18003E+01 0.00000E+00
 -1       794 7.00350E+01 1.18003E+01 0.00000E+00
 -1       795 7.30350E+01 1.18003E+01 0.00000E+00
 -1       796 7.60350E+01 1.18003E+01 0.00000E+00
 -1       797 7.90350E+01 1.18003E+01 0.00000E+00
 -1       798 8.20350E+01 1.18003E+01 0.00000E+00
 -1       799 8.50350E+01 1.18003E+01 0.00000E+00
 -1       800 8.80350E+01 1.18003E+01 0.00000E+00
 -1       801 9.10350E+01 1.18003E+01 0.00000E+00
 -1       802 9.40350E+01 1.18003E+01 0.00000E+00
 -1       803 9.70350E+01 1.18003E+01 0.00000E+00
 -1       804 1.00035E+02 1.18003E+01 0.00000E+00
 -1       805 1.03035E+02 1.18003E+01 0.00000E+00
 -1       806 1.06035E+02 1.18003E+01 0.00000E+00
 -1       807 1.09035E+02 1.18003E+01 0.00000E+00
 -1       808 1.12035E+02 1.18003E+01 0.00000E+00
 -1       809 1.15035E+02 1.18003E+01 0.00000E+00
 -1       810 1.18035E+02 1.18003E+01 0.00000E+00
 -1       811 1.21035E+02 1.18003E+01 0.00000E+00
 -1       812 1.24035E+02 1.18003E+01 0.00000E+00
 -1       813 1.27035E+02 1.18003E+01 0.00000E+00
 -1       814 1.30035E+02 1.18003E+01 0.00000E+00
 -1       815 1.33035E+02 1.18003E+01 0.00000E+00
 -1       816 1.36035E+02 1.18003E+01 0.00000E+00
 -1       817 1.37887E+02 1.20223E+01 0.00000E+00
 -1       818 1.37010E+02 2.79500E+01 0.00000E+00
 -1       819 1.37010E+02 3.38250E+01 0.00000E+00
 -1       820 1.37010E+02 2.50000E+01 0.00000E+00
 -1       821 1.37010E+02 3.08875E+01 0.00000E+00
 -1       822 4.90350E+01 1.18003E+01 0.00000E+00
 -1       823 4.60350E+01 1.18003E+01 0.00000E+00
 -1       824 4.60393E+01 3.11919E+01 0.00000E+00
 -1       825 1.66500E+01 3.70100E+01 0.00000E+00
 -1       826 1.35210E+01 3.61362E+01 0.00000E+00
 -1       827 4.47891E+01 1.30882E+01 0.00000E+00
 -1       828 4.41902E+01 3.36171E+01 0.00000E+00
 -1       829 4.87006E+01 2.57542E+01 0.00000E+00
 -1       830 4.65197E+01 1.55820E+01 0.00000E+00
 -1       831 1.90601E+01 2.84759E+01 0.00000E+00
 -1       832 4.81185E+01 2.80185E+01 0.00000E+00
 -1       833 1.29900E+01 2.20250E+01 0.00000E+00
 -1       834 2.06012E+01 3.19086E+01 0.00000E+00
 -1       835 1.91536E+01 2.51440E+01 0.00000E+00
 -1       836 1.37625E+01 1.12011E+01 0.00000E+00
 -1       837 2.46776E+01 3.65386E+01 0.00000E+00
 -1       838 4.33383E+01 3.62914E+01 0.00000E+00
 -1       839 1.29900E+01 2.49750E+01 0.00000E+00
 -1       840 4.92776E+01 1.94938E+01 0.00000E+00
 -1       841 1.37010E+02 1.61875E+01 0.00000E+00
 -1       842 1.90350E+01 1.17552E+01 0.00000E+00
 -1       843 4.30350E+01 1.18003E+01 0.00000E+00
 -1       844 1.37010E+02 1.91375E+01 0.00000E+00
 -1       845 1.37010E+02 2.20688E+01 0.00000E+00
 -1       846 1.29900E+01 1.61375E+01 0.00000E+00
 -1       847 5.04684E+01 2.39358E+01 0.00000E+00
 -1       848 1.63988E+01 1.14782E+01 0.00000E+00
 -1       849 1.80187E+01 2.08091E+01 0.00000E+00
 -1       850 1.35210E+01 3.31987E+01 0.00000E+00
 -1       851 1.29900E+01 1.90812E+01 0.00000E+00
 -1       852 1.81941E+01 3.07536E+01 0.00000E+00
 -1       853 1.35210E+01 3.02612E+01 0.00000E+00
 -1       854 1.74039E+01 2.36513E+01 0.00000E+00
 -1       855 5.11500E+01 3.44120E+01 0.00000E+00
 -1       856 5.41500E+01 3.44120E+01 0.00000E+00
 -1       857 5.71500E+01 3.44120E+01 0.00000E+00
 -1       858 6.01500E+01 3.44120E+01 0.00000E+00
 -1       859 6.31500E+01 3.44120E+01 0.00000E+00
 -1       860 6.61500E+01 3.44120E+01 0.00000E+00
 -1       861 6.91500E+01 3.44120E+01 0.00000E+00
 -1       862 7.21500E+01 3.44120E+01 0.00000E+00
 -1       863 7.51500E+01 3.44120E+01 0.00000E+00
 -1       864 7.81500E+01 3.44120E+01 0.00000E+00
 -1       865 8.11500E+01 3.44120E+01 0.00000E+00
 -1       866 8.41500E+01 3.44120E+01 0.00000E+00
 -1       867 8.71500E+01 3.44120E+01 0.00000E+00
 -1       868 9.01500E+01 3.44120E+01 0.00000E+00
 -1       869 9.31500E+01 3.44120E+01 0.00000E+00
 -1       870 9.61500E+01 3.44120E+01 0.00000E+00
 -1       871 9.91500E+01 3.44120E+01 0.00000E+00
 -1       872 1.02150E+02 3.44120E+01 0.00000E+00
 -1       873 1.05150E+02 3.44120E+01 0.00000E+00
 -1       874 1.08150E+02 3.44120E+01 0.00000E+00
 -1       875 1.11150E+02 3.44120E+01 0.00000E+00
 -1       876 1.14150E+02 3.44120E+01 0.00000E+00
 -1       877 1.17150E+02 3.44120E+01 0.00000E+00
 -1       878 1.20150E+02 3.44120E+01 0.00000E+00
 -1       879 1.23150E+02 3.44120E+01 0.00000E+00
 -1       880 1.26150E+02 3.44120E+01 0.00000E+00
 -1       881 1.29150E+02 3.44120E+01 0.00000E+00
 -1       882 1.32150E+02 3.44120E+01 0.00000E+00
 -1       883 1.34580E+02 3.41185E+01 0.00000E+00
 -1       884 5.35350E+01 1.43982E+01 0.00000E+00
 -1       885 6.25350E+01 1.43982E+01 0.00000E+00
 -1       886 6.55350E+01 1.43982E+01 0.00000E+00
 -1       887 6.85350E+01 1.43982E+01 0.00000E+00
 -1       888 7.15350E+01 1.43982E+01 0.00000E+00
 -1       889 7.45350E+01 1.43982E+01 0.00000E+00
 -1       890 7.75350E+01 1.43982E+01 0.00000E+00
 -1       891 8.05350E+01 1.43982E+01 0.00000E+00
 -1       892 8.35350E+01 1.43982E+01 0.00000E+00
 -1       893 8.65350E+01 1.43982E+01 0.00000E+00
 -1       894 8.95350E+01 1.43982E+01 0.00000E+00
 -1       895 9.25350E+01 1.43982E+01 0.00000E+00
 -1       896 9.55350E+01 1.43982E+01 0.00000E+00
 -1       897 9.85350E+01 1.43982E+01 0.00000E+00
 -1       898 1.01535E+02 1.43982E+01 0.00000E+00
 -1       899 1.04535E+02 1.43982E+01 0.00000E+00
 -1       900 1.07535E+02 1.43982E+01 0.00000E+00
 -1       901 1.10535E+02 1.43982E+01 0.00000E+00
 -1       902 1.13535E+02 1.43982E+01 0.00000E+00
 -1       903 1.16535E+02 1.43982E+01 0.00000E+00
 -1       904 1.19535E+02 1.43982E+01 0.00000E+00
 -1       905 1.22535E+02 1.43982E+01 0.00000E+00
 -1       906 1.25535E+02 1.43982E+01 0.00000E+00
 -1       907 1.28535E+02 1.43982E+01 0.00000E+00
 -1       908 1.31535E+02 1.43982E+01 0.00000E+00
 -1       909 1.34535E+02 1.43982E+01 0.00000E+00
 -1       910 5.05350E+01 1.43982E+01 0.00000E+00
 -1       911 1.37449E+02 1.41049E+01 0.00000E+00
 -1       912 1.99224E+01 3.48825E+01 0.00000E+00
 -1       913 1.34412E+02 2.64750E+01 0.00000E+00
 -1       914 5.05575E+01 2.74385E+01 0.00000E+00
 -1       915 1.74580E+01 1.72047E+01 0.00000E+00
 -1       916 5.95350E+01 1.43982E+01 0.00000E+00
 -1       917 5.65350E+01 1.43982E+01 0.00000E+00
 -1       918 4.81500E+01 3.44120E+01 0.00000E+00
 -1       919 1.56263E+01 1.34770E+01 0.00000E+00
 -1       920 1.32555E+01 2.76181E+01 0.00000E+00
 -1       921 4.88820E+01 1.56951E+01 0.00000E+00
 -1       922 4.89340E+01 3.08207E+01 0.00000E+00
 -1       923 1.68899E+01 2.67477E+01 0.00000E+00
 -1       924 1.95796E+01 1.40045E+01 0.00000E+00
 -1       925 4.77774E+01 1.36911E+01 0.00000E+00
 -1       926 5.05639E+01 1.75092E+01 0.00000E+00
 -1       927 1.34412E+02 2.94125E+01 0.00000E+00
 -1       928 1.53754E+01 2.35000E+01 0.00000E+00
 -1       929 1.34412E+02 2.35438E+01 0.00000E+00
 -1       930 1.61190E+01 3.17300E+01 0.00000E+00
 -1       931 1.34535E+02 1.73482E+01 0.00000E+00
 -1       932 1.65855E+01 3.51044E+01 0.00000E+00
 -1       933 5.12310E+01 2.17179E+01 0.00000E+00
 -1       934 5.56500E+01 3.18140E+01 0.00000E+00
 -1       935 5.86500E+01 3.18140E+01 0.00000E+00
 -1       936 6.16500E+01 3.18140E+01 0.00000E+00
 -1       937 6.46500E+01 3.18140E+01 0.00000E+00
 -1       938 6.76500E+01 3.18140E+01 0.00000E+00
 -1       939 7.06500E+01 3.18140E+01 0.00000E+00
 -1       940 7.36500E+01 3.18140E+01 0.00000E+00
 -1       941 7.66500E+01 3.18140E+01 0.00000E+00
 -1       942 7.96500E+01 3.18140E+01 0.00000E+00
 -1       943 8.26500E+01 3.18140E+01 0.00000E+00
 -1       944 8.56500E+01 3.18140E+01 0.00000E+00
 -1       945 8.86500E+01 3.18140E+01 0.00000E+00
 -1       946 9.16500E+01 3.18140E+01 0.00000E+00
 -1       947 9.46500E+01 3.18140E+01 0.00000E+00
 -1       948 9.76500E+01 3.18140E+01 0.00000E+00
 -1       949 1.00650E+02 3.18140E+01 0.00000E+00
 -1       950 1.03650E+02 3.18140E+01 0.00000E+00
 -1       951 1.06650E+02 3.18140E+01 0.00000E+00
 -1       952 1.09650E+02 3.18140E+01 0.00000E+00
 -1       953 1.12650E+02 3.18140E+01 0.00000E+00
 -1       954 1.15650E+02 3.18140E+01 0.00000E+00
 -1       955 1.18650E+02 3.18140E+01 0.00000E+00
 -1       956 1.21650E+02 3.18140E+01 0.00000E+00
 -1       957 1.24650E+02 3.18140E+01 0.00000E+00
 -1       958 1.27650E+02 3.18140E+01 0.00000E+00
 -1       959 1.30650E+02 3.18140E+01 0.00000E+00
 -1       960 6.70350E+01 1.69963E+01 0.00000E+00
 -1       961 5.50350E+01 1.69963E+01 0.00000E+00
 -1       962 6.40350E+01 1.69963E+01 0.00000E+00
 -1       963 7.30350E+01 1.69963E+01 0.00000E+00
 -1       964 7.60350E+01 1.69963E+01 0.00000E+00
 -1       965 7.90350E+01 1.69963E+01 0.00000E+00
 -1       966 8.20350E+01 1.69963E+01 0.00000E+00
 -1       967 8.50350E+01 1.69963E+01 0.00000E+00
 -1       968 8.80350E+01 1.69963E+01 0.00000E+00
 -1       969 9.10350E+01 1.69963E+01 0.00000E+00
 -1       970 9.40350E+01 1.69963E+01 0.00000E+00
 -1       971 9.70350E+01 1.69963E+01 0.00000E+00
 -1       972 1.00035E+02 1.69963E+01 0.00000E+00
 -1       973 1.03035E+02 1.69963E+01 0.00000E+00
 -1       974 1.06035E+02 1.69963E+01 0.00000E+00
 -1       975 1.09035E+02 1.69963E+01 0.00000E+00
 -1       976 1.12035E+02 1.69963E+01 0.00000E+00
 -1       977 1.15035E+02 1.69963E+01 0.00000E+00
 -1       978 1.18035E+02 1.69963E+01 0.00000E+00
 -1       979 1.21035E+02 1.69963E+01 0.00000E+00
 -1       980 1.24035E+02 1.69963E+01 0.00000E+00
 -1       981 1.27035E+02 1.69963E+01 0.00000E+00
 -1       982 1.30035E+02 1.69963E+01 0.00000E+00
 -1       983 1.32285E+02 1.71723E+01 0.00000E+00
 -1       984 1.33281E+02 3.19123E+01 0.00000E+00
 -1       985 7.00350E+01 1.69963E+01 0.00000E+00
 -1       986 6.10350E+01 1.69963E+01 0.00000E+00
 -1       987 5.31101E+01 2.56211E+01 0.00000E+00
 -1       988 5.80350E+01 1.69963E+01 0.00000E+00
 -1       989 1.77290E+01 3.28174E+01 0.00000E+00
 -1       990 5.20879E+01 3.02539E+01 0.00000E+00
 -1       991 1.34412E+02 2.06125E+01 0.00000E+00
 -1       992 5.25173E+01 1.97333E+01 0.00000E+00
 -1       993 1.31814E+02 2.50094E+01 0.00000E+00
 -1       994 5.46405E+01 2.84365E+01 0.00000E+00
 -1       995 5.38727E+01 2.34032E+01 0.00000E+00
 -1       996 1.31814E+02 2.79469E+01 0.00000E+00
 -1       997 6.01500E+01 2.92160E+01 0.00000E+00
 -1       998 6.31500E+01 2.92160E+01 0.00000E+00
 -1       999 6.61500E+01 2.92160E+01 0.00000E+00
 -1      1000 6.91500E+01 2.92160E+01 0.00000E+00
 -1      1001 7.21500E+01 2.92160E+01 0.00000E+00
 -1      1002 7.51500E+01 2.92160E+01 0.00000E+00
 -1      1003 7.81500E+01 2.92160E+01 0.00000E+00
 -1      1004 8.11500E+01 2.92160E+01 0.00000E+00
 -1      1005 8.41500E+01 2.92160E+01 0.00000E+00
 -1      1006 8.71500E+01 2.92160E+01 0.00000E+00
 -1      1007 9.01500E+01 2.92160E+01 0.00000E+00
 -1      1008 9.31500E+01 2.92160E+01 0.00000E+00
 -1      1009 9.61500E+01 2.92160E+01 0.00000E+00
 -1      1010 9.91500E+01 2.92160E+01 0.00000E+00
 -1      1011 1.02150E+02 2.92160E+01 0.00000E+00
 -1      1012 1.05150E+02 2.92160E+01 0.00000E+00
 -1      1013 1.08150E+02 2.92160E+01 0.00000E+00
 -1      1014 1.11150E+02 2.92160E+01 0.00000E+00
 -1      1015 1.14150E+02 2.92160E+01 0.00000E+00
 -1      1016 1.17150E+02 2.92160E+01 0.00000E+00
 -1      1017 1.20150E+02 2.92160E+01 0.00000E+00
 -1      1018 1.23150E+02 2.92160E+01 0.00000E+00
 -1      1019 1.26150E+02 2.92160E+01 0.00000E+00
 -1      1020 1.29150E+02 2.92160E+01 0.00000E+00
 -1      1021 7.15350E+01 1.95942E+01 0.00000E+00
 -1      1022 7.75350E+01 1.95942E+01 0.00000E+00
 -1      1023 7.45350E+01 1.95942E+01 0.00000E+00
 -1      1024 8.35350E+01 1.95942E+01 0.00000E+00
 -1      1025 8.65350E+01 1.95942E+01 0.00000E+00
 -1      1026 8.95350E+01 1.95942E+01 0.00000E+00
 -1      1027 9.25350E+01 1.95942E+01 0.00000E+00
 -1      1028 9.55350E+01 1.95942E+01 0.00000E+00
 -1      1029 9.85350E+01 1.95942E+01 0.00000E+00
 -1      1030 1.01535E+02 1.95942E+01 0.00000E+00
 -1      1031 1.04535E+02 1.95942E+01 0.00000E+00
 -1      1032 1.07535E+02 1.95942E+01 0.00000E+00
 -1      1033 1.10535E+02 1.95942E+01 0.00000E+00
 -1      1034 1.13535E+02 1.95942E+01 0.00000E+00
 -1      1035 1.16535E+02 1.95942E+01 0.00000E+00
 -1      1036 1.19535E+02 1.95942E+01 0.00000E+00
 -1      1037 1.22535E+02 1.95942E+01 0.00000E+00
 -1      1038 1.25535E+02 1.95942E+01 0.00000E+00
 -1      1039 1.28535E+02 1.95942E+01 0.00000E+00
 -1      1040 5.95350E+01 1.95942E+01 0.00000E+00
 -1      1041 6.25350E+01 1.95942E+01 0.00000E+00
 -1      1042 5.73952E+01 2.88262E+01 0.00000E+00
 -1      1043 1.31814E+02 2.20781E+01 0.00000E+00
 -1      1044 6.85350E+01 1.95942E+01 0.00000E+00
 -1      1045 1.32049E+02 1.96252E+01 0.00000E+00
 -1      1046 5.65350E+01 1.95942E+01 0.00000E+00
 -1      1047 6.55350E+01 1.95942E+01 0.00000E+00
 -1      1048 8.05350E+01 1.95942E+01 0.00000E+00
 -1      1049 5.61579E+01 2.57881E+01 0.00000E+00
 -1      1050 1.29216E+02 2.35438E+01 0.00000E+00
 -1      1051 1.29183E+02 2.63799E+01 0.00000E+00
 -1      1052 6.46500E+01 2.66180E+01 0.00000E+00
 -1      1053 6.76500E+01 2.66180E+01 0.00000E+00
 -1      1054 7.06500E+01 2.66180E+01 0.00000E+00
 -1      1055 7.36500E+01 2.66180E+01 0.00000E+00
 -1      1056 7.66500E+01 2.66180E+01 0.00000E+00
 -1      1057 7.96500E+01 2.66180E+01 0.00000E+00
 -1      1058 8.26500E+01 2.66180E+01 0.00000E+00
 -1      1059 8.56500E+01 2.66180E+01 0.00000E+00
 -1      1060 8.86500E+01 2.66180E+01 0.00000E+00
 -1      1061 9.16500E+01 2.66180E+01 0.00000E+00
 -1      1062 9.46500E+01 2.66180E+01 0.00000E+00
 -1      1063 9.76500E+01 2.66180E+01 0.00000E+00
 -1      1064 1.00650E+02 2.66180E+01 0.00000E+00
 -1      1065 1.03650E+02 2.66180E+01 0.00000E+00
 -1      1066 1.06650E+02 2.66180E+01 0.00000E+00
 -1      1067 1.09650E+02 2.66180E+01 0.00000E+00
 -1      1068 1.12650E+02 2.66180E+01 0.00000E+00
 -1      1069 1.15650E+02 2.66180E+01 0.00000E+00
 -1      1070 1.18650E+02 2.66180E+01 0.00000E+00
 -1      1071 1.21650E+02 2.66180E+01 0.00000E+00
 -1      1072 1.24650E+02 2.66180E+01 0.00000E+00
 -1      1073 1.26916E+02 2.64989E+01 0.00000E+00
 -1      1074 6.40350E+01 2.21922E+01 0.00000E+00
 -1      1075 8.80350E+01 2.21922E+01 0.00000E+00
 -1      1076 8.50350E+01 2.21922E+01 0.00000E+00
 -1      1077 9.40350E+01 2.21922E+01 0.00000E+00
 -1      1078 9.70350E+01 2.21922E+01 0.00000E+00
 -1      1079 1.00035E+02 2.21922E+01 0.00000E+00
 -1      1080 1.03035E+02 2.21922E+01 0.00000E+00
 -1      1081 1.06035E+02 2.21922E+01 0.00000E+00
 -1      1082 1.09035E+02 2.21922E+01 0.00000E+00
 -1      1083 1.12035E+02 2.21922E+01 0.00000E+00
 -1      1084 1.15035E+02 2.21922E+01 0.00000E+00
 -1      1085 1.18035E+02 2.21922E+01 0.00000E+00
 -1      1086 1.21035E+02 2.21922E+01 0.00000E+00
 -1      1087 1.24035E+02 2.21922E+01 0.00000E+00
 -1      1088 7.30350E+01 2.21922E+01 0.00000E+00
 -1      1089 6.10350E+01 2.21922E+01 0.00000E+00
 -1      1090 5.78465E+01 2.26912E+01 0.00000E+00
 -1      1091 7.90350E+01 2.21922E+01 0.00000E+00
 -1      1092 7.60350E+01 2.21922E+01 0.00000E+00
 -1      1093 7.00350E+01 2.21922E+01 0.00000E+00
 -1      1094 6.70350E+01 2.21922E+01 0.00000E+00
 -1      1095 8.20350E+01 2.21922E+01 0.00000E+00
 -1      1096 9.10350E+01 2.21922E+01 0.00000E+00
 -1      1097 6.16500E+01 2.66180E+01 0.00000E+00
 -1      1098 5.89127E+01 2.61778E+01 0.00000E+00
 -1      1099 1.27035E+02 2.21922E+01 0.00000E+00
 -1      1100 0.00000E+00 4.85250E+01 0.00000E+00
 -1      1101 0.00000E+00 4.55750E+01 0.00000E+00
 -1      1102 0.00000E+00 4.26250E+01 0.00000E+00
 -1      1103 0.00000E+00 3.96750E+01 0.00000E+00
 -1      1104 0.00000E+00 3.67250E+01 0.00000E+00
 -1      1105 0.00000E+00 3.38000E+01 0.00000E+00
 -1      1106 0.00000E+00 3.08750E+01 0.00000E+00
 -1      1107 0.00000E+00 2.79250E+01 0.00000E+00
 -1      1108 0.00000E+00 2.49750E+01 0.00000E+00
 -1      1109 0.00000E+00 2.20250E+01 0.00000E+00
 -1      1110 0.00000E+00 1.90750E+01 0.00000E+00
 -1      1111 0.00000E+00 1.61500E+01 0.00000E+00
 -1      1112 0.00000E+00 1.32250E+01 0.00000E+00
 -1      1113 0.00000E+00 1.02750E+01 0.00000E+00
 -1      1114 0.00000E+00 7.32500E+00 0.00000E+00
 -1      1115 0.00000E+00 4.37500E+00 0.00000E+00
 -1      1116 0.00000E+00 1.45000E+00 0.00000E+00
 -1      1117 1.57500E+00 5.00000E+01 0.00000E+00
 -1      1118 4.65000E+00 5.00000E+01 0.00000E+00
 -1      1119 7.65000E+00 5.00000E+01 0.00000E+00
 -1      1120 1.06500E+01 5.00000E+01 0.00000E+00
 -1      1121 1.36500E+01 5.00000E+01 0.00000E+00
 -1      1122 1.66500E+01 5.00000E+01 0.00000E+00
 -1      1123 1.96500E+01 5.00000E+01 0.00000E+00
 -1      1124 2.26500E+01 5.00000E+01 0.00000E+00
 -1      1125 2.56500E+01 5.00000E+01 0.00000E+00
 -1      1126 2.86500E+01 5.00000E+01 0.00000E+00
 -1      1127 3.16500E+01 5.00000E+01 0.00000E+00
 -1      1128 3.46500E+01 5.00000E+01 0.00000E+00
 -1      1129 3.76500E+01 5.00000E+01 0.00000E+00
 -1      1130 4.06500E+01 5.00000E+01 0.00000E+00
 -1      1131 4.36500E+01 5.00000E+01 0.00000E+00
 -1      1132 4.66500E+01 5.00000E+01 0.00000E+00
 -1      1133 4.96500E+01 5.00000E+01 0.00000E+00
 -1      1134 5.26500E+01 5.00000E+01 0.00000E+00
 -1      1135 5.56500E+01 5.00000E+01 0.00000E+00
 -1      1136 5.86500E+01 5.00000E+01 0.00000E+00
 -1      1137 6.16500E+01 5.00000E+01 0.00000E+00
 -1      1138 6.46500E+01 5.00000E+01 0.00000E+00
 -1      1139 6.76500E+01 5.00000E+01 0.00000E+00
 -1      1140 7.06500E+01 5.00000E+01 0.00000E+00
 -1      1141 7.36500E+01 5.00000E+01 0.00000E+00
 -1      1142 7.66500E+01 5.00000E+01 0.00000E+00
 -1      1143 7.96500E+01 5.00000E+01 0.00000E+00
 -1      1144 8.26500E+01 5.00000E+01 0.00000E+00
 -1      1145 8.56500E+01 5.00000E+01 0.00000E+00
 -1      1146 8.86500E+01 5.00000E+01 0.00000E+00
 -1      1147 9.16500E+01 5.00000E+01 0.00000E+00
 -1      1148 9.46500E+01 5.00000E+01 0.00000E+00
 -1      1149 9.76500E+01 5.00000E+01 0.00000E+00
 -1      1150 1.00650E+02 5.00000E+01 0.00000E+00
 -1      1151 1.03650E+02 5.00000E+01 0.00000E+00
 -1      1152 1.06650E+02 5.00000E+01 0.00000E+00
 -1      1153 1.09650E+02 5.00000E+01 0.00000E+00
 -1      1154 1.12650E+02 5.00000E+01 0.00000E+00
 -1      1155 1.15650E+02 5.00000E+01 0.00000E+00
 -1      1156 1.18650E+02 5.00000E+01 0.00000E+00
 -1      1157 1.21650E+02 5.00000E+01 0.00000E+00
 -1      1158 1.24650E+02 5.00000E+01 0.00000E+00
 -1      1159 1.27650E+02 5.00000E+01 0.00000E+00
 -1      1160 1.30650E+02 5.00000E+01 0.00000E+00
 -1      1161 1.33650E+02 5.00000E+01 0.00000E+00
 -1      1162 1.36650E+02 5.00000E+01 0.00000E+00
 -1      1163 1.39650E+02 5.00000E+01 0.00000E+00
 -1      1164 1.42650E+02 5.00000E+01 0.00000E+00
 -1      1165 1.45650E+02 5.00000E+01 0.00000E+00
 -1      1166 1.48575E+02 5.00000E+01 0.00000E+00
 -1      1167 1.57500E+00 0.00000E+00 0.00000E+00
 -1      1168 4.65000E+00 0.00000E+00 0.00000E+00
 -1      1169 7.65000E+00 0.00000E+00 0.00000E+00
 -1      1170 1.06500E+01 0.00000E+00 0.00000E+00
 -1      1171 1.36500E+01 0.00000E+00 0.00000E+00
 -1      1172 1.66500E+01 0.00000E+00 0.00000E+00
 -1      1173 1.96500E+01 0.00000E+00 0.00000E+00
 -1      1174 2.26500E+01 0.00000E+00 0.00000E+00
 -1      1175 2.56500E+01 0.00000E+00 0.00000E+00
 -1      1176 2.86500E+01 0.00000E+00 0.00000E+00
 -1      1177 3.16500E+01 0.00000E+00 0.00000E+00
 -1      1178 3.46500E+01 0.00000E+00 0.00000E+00
 -1      1179 3.76500E+01 0.00000E+00 0.00000E+00
 -1      1180 4.06500E+01 0.00000E+00 0.00000E+00
 -1      1181 4.36500E+01 0.00000E+00 0.00000E+00
 -1      1182 4.66500E+01 0.00000E+00 0.00000E+00
 -1      1183 4.96500E+01 0.00000E+00 0.00000E+00
 -1      1184 5.26500E+01 0.00000E+00 0.00000E+00
 -1      1185 5.56500E+01 0.00000E+00 0.00000E+00
 -1      1186 5.86500E+01 0.00000E+00 0.00000E+00
 -1      1187 6.16500E+01 0.00000E+00 0.00000E+00
 -1      1188 6.46500E+01 0.00000E+00 0.00000E+00
 -1      1189 6.76500E+01 0.00000E+00 0.00000E+00
 -1      1190 7.06500E+01 0.00000E+00 0.00000E+00
 -1      1191 7.36500E+01 0.00000E+00 0.00000E+00
 -1      1192 7.66500E+01 0.00000E+00 0.00000E+00
 -1      1193 7.96500E+01 0.00000E+00 0.00000E+00
 -1      1194 8.26500E+01 0.00000E+00 0.00000E+00
 -1      1195 8.56500E+01 0.00000E+00 0.00000E+00
 -1      1196 8.86500E+01 0.00000E+00 0.00000E+00
 -1      1197 9.16500E+01 0.00000E+00 0.00000E+00
 -1      1198 9.46500E+01 0.00000E+00 0.00000E+00
 -1      1199 9.76500E+01 0.00000E+00 0.00000E+00
 -1      1200 1.00650E+02 0.00000E+00 0.00000E+00
 -1      1201 1.03650E+02 0.00000E+00 0.00000E+00
 -1      1202 1.06650E+02 0.00000E+00 0.00000E+00
 -1      1203 1.09650E+02 0.00000E+00 0.00000E+00
 -1      1204 1.12650E+02 0.00000E+00 0.00000E+00
 -1      1205 1.15650E+02 0.00000E+00 0.00000E+00
 -1      1206 1.18650E+02 0.00000E+00 0.00000E+00
 -1      1207 1.21650E+02 0.00000E+00 0.00000E+00
 -1      1208 1.24650E+02 0.00000E+00 0.00000E+00
 -1      1209 1.27650E+02 0.00000E+00 0.00000E+00
 -1      1210 1.30650E+02 0.00000E+00 0.00000E+00
 -1      1211 1.33650E+02 0.00000E+00 0.00000E+00
 -1      1212 1.36650E+02 0.00000E+00 0.00000E+00
 -1      1213 1.39650E+02 0.00000E+00 0.00000E+00
 -1      1214 1.42650E+02 0.00000E+00 0.00000E+00
 -1      1215 1.45650E+02 0.00000E+00 0.00000E+00
 -1      1216 1.48575E+02 0.00000E+00 0.00000E+00
 -1      1217 1.50000E+02 1.47500E+00 0.00000E+00
 -1      1218 1.50000E+02 4.42500E+00 0.00000E+00
 -1      1219 1.50000E+02 7.37500E+00 0.00000E+00
 -1      1220 1.50000E+02 1.03250E+01 0.00000E+00
 -1      1221 1.50000E+02 1.32750E+01 0.00000E+00
 -1      1222 1.50000E+02 1.62000E+01 0.00000E+00
 -1      1223 1.50000E+02 1.91250E+01 0.00000E+00
 -1      1224 1.50000E+02 2.20750E+01 0.00000E+00
 -1      1225 1.50000E+02 2.50250E+01 0.00000E+00
 -1      1226 1.50000E+02 2.79750E+01 0.00000E+00
 -1      1227 1.50000E+02 3.09250E+01 0.00000E+00
 -1      1228 1.50000E+02 3.38500E+01 0.00000E+00
 -1      1229 1.50000E+02 3.67750E+01 0.00000E+00
 -1      1230 1.50000E+02 3.97250E+01 0.00000E+00
 -1      1231 1.50000E+02 4.26750E+01 0.00000E+00
 -1      1232 1.50000E+02 4.56250E+01 0.00000E+00
 -1      1233 1.50000E+02 4.85500E+01 0.00000E+00
 -1      1234 4.03729E+01 2.22750E+01 0.00000E+00
 -1      1235 4.00614E+01 2.08268E+01 0.00000E+00
 -1      1236 3.94659E+01 1.95003E+01 0.00000E+00
 -1      1237 3.85995E+01 1.83146E+01 0.00000E+00
 -1      1238 3.74797E+01 1.73178E+01 0.00000E+00
 -1      1239 3.61861E+01 1.65878E+01 0.00000E+00
 -1      1240 3.47672E+01 1.61472E+01 0.00000E+00
 -1      1241 3.32723E+01 1.60162E+01 0.00000E+00
 -1      1242 3.17341E+01 1.62189E+01 0.00000E+00
 -1      1243 3.03184E+01 1.67355E+01 0.00000E+00
 -1      1244 2.89933E+01 1.75858E+01 0.00000E+00
 -1      1245 2.78849E+01 1.87194E+01 0.00000E+00
 -1      1246 2.71169E+01 1.99538E+01 0.00000E+00
 -1      1247 2.66109E+01 2.13585E+01 0.00000E+00
 -1      1248 2.64149E+01 2.28175E+01 0.00000E+00
 -1      1249 2.65411E+01 2.43522E+01 0.00000E+00
 -1      1250 2.69999E+01 2.58224E+01 0.00000E+00
 -1      1251 2.77008E+01 2.70620E+01 0.00000E+00
 -1      1252 2.86516E+01 2.81467E+01 0.00000E+00
 -1      1253 2.98495E+01 2.90404E+01 0.00000E+00
 -1      1254 3.11874E+01 2.96518E+01 0.00000E+00
 -1      1255 3.26300E+01 2.99709E+01 0.00000E+00
 -1      1256 3.41957E+01 2.99708E+01 0.00000E+00
 -1      1257 3.57495E+01 2.96130E+01 0.00000E+00
 -1      1258 3.71529E+01 2.89314E+01 0.00000E+00
 -1      1259 3.83774E+01 2.79490E+01 0.00000E+00
 -1      1260 3.93448E+01 2.67300E+01 0.00000E+00
 -1      1261 4.00147E+01 2.53399E+01 0.00000E+00
 -1      1262 4.03682E+01 2.37982E+01 0.00000E+00
 -1      1263 1.57500E+00 4.85250E+01 0.00000E+00
 -1      1264 1.29900E+00 4.48375E+01 0.00000E+00
 -1      1265 1.29900E+00 4.63125E+01 0.00000E+00
 -1      1266 1.29900E+00 4.18875E+01 0.00000E+00
 -1      1267 1.29900E+00 4.33625E+01 0.00000E+00
 -1      1268 2.59800E+00 4.41000E+01 0.00000E+00
 -1      1269 1.29900E+00 3.89375E+01 0.00000E+00
 -1      1270 1.29900E+00 4.04125E+01 0.00000E+00
 -1      1271 2.59800E+00 4.11500E+01 0.00000E+00
 -1      1272 1.29900E+00 3.59875E+01 0.00000E+00
 -1      1273 1.29900E+00 3.74625E+01 0.00000E+00
 -1      1274 2.59800E+00 3.82000E+01 0.00000E+00
 -1      1275 1.29900E+00 3.30875E+01 0.00000E+00
 -1      1276 1.29900E+00 3.45375E+01 0.00000E+00
 -1      1277 2.59800E+00 3.52750E+01 0.00000E+00
 -1      1278 1.29900E+00 3.01375E+01 0.00000E+00
 -1      1279 1.29900E+00 3.16125E+01 0.00000E+00
 -1      1280 2.59800E+00 3.23500E+01 0.00000E+00
 -1      1281 1.29900E+00 2.71875E+01 0.00000E+00
 -1      1282 1.29900E+00 2.86625E+01 0.00000E+00
 -1      1283 2.59800E+00 2.94000E+01 0.00000E+00
 -1      1284 1.29900E+00 2.42375E+01 0.00000E+00
 -1      1285 1.29900E+00 2.57125E+01 0.00000E+00
 -1      1286 2.59800E+00 2.64500E+01 0.00000E+00
 -1      1287 1.29900E+00 2.12875E+01 0.00000E+00
 -1      1288 1.29900E+00 2.27625E+01 0.00000E+00
 -1      1289 2.59800E+00 2.35000E+01 0.00000E+00
 -1      1290 1.29900E+00 1.83375E+01 0.00000E+00
 -1      1291 1.29900E+00 1.98125E+01 0.00000E+00
 -1      1292 2.59800E+00 2.05500E+01 0.00000E+00
 -1      1293 1.29900E+00 1.54375E+01 0.00000E+00
 -1      1294 1.29900E+00 1.68875E+01 0.00000E+00
 -1      1295 2.59800E+00 1.76250E+01 0.00000E+00
 -1      1296 1.29900E+00 1.24875E+01 0.00000E+00
 -1      1297 1.29900E+00 1.39625E+01 0.00000E+00
 -1      1298 2.59800E+00 1.47000E+01 0.00000E+00
 -1      1299 1.29900E+00 9.53750E+00 0.00000E+00
 -1      1300 1.29900E+00 1.10125E+01 0.00000E+00
 -1      1301 2.59800E+00 1.17500E+01 0.00000E+00
 -1      1302 1.29900E+00 6.58750E+00 0.00000E+00
 -1      1303 1.29900E+00 8.06250E+00 0.00000E+00
 -1      1304 2.59800E+00 8.80000E+00 0.00000E+00
 -1      1305 1.29900E+00 3.63750E+00 0.00000E+00
 -1      1306 1.29900E+00 5.11250E+00 0.00000E+00
 -1      1307 2.59800E+00 5.85000E+00 0.00000E+00
 -1      1308 1.43700E+00 1.09375E+00 0.00000E+00
 -1      1309 1.43700E+00 2.54375E+00 0.00000E+00
 -1      1310 2.73600E+00 3.28125E+00 0.00000E+00
 -1      1311 3.01200E+00 1.09375E+00 0.00000E+00
 -1      1312 3.90000E+00 4.87010E+01 0.00000E+00
 -1      1313 5.40000E+00 4.87010E+01 0.00000E+00
 -1      1314 6.90000E+00 4.87010E+01 0.00000E+00
 -1      1315 8.40000E+00 4.87010E+01 0.00000E+00
 -1      1316 6.15000E+00 4.74020E+01 0.00000E+00
 -1      1317 9.90000E+00 4.87010E+01 0.00000E+00
 -1      1318 1.14000E+01 4.87010E+01 0.00000E+00
 -1      1319 9.15000E+00 4.74020E+01 0.00000E+00
 -1      1320 1.29000E+01 4.87010E+01 0.00000E+00
 -1      1321 1.44000E+01 4.87010E+01 0.00000E+00
 -1      1322 1.21500E+01 4.74020E+01 0.00000E+00
 -1      1323 1.59000E+01 4.87010E+01 0.00000E+00
 -1      1324 1.74000E+01 4.87010E+01 0.00000E+00
 -1      1325 1.51500E+01 4.74020E+01 0.00000E+00
 -1      1326 1.89000E+01 4.87010E+01 0.00000E+00
 -1      1327 2.04000E+01 4.87010E+01 0.00000E+00
 -1      1328 1.81500E+01 4.74020E+01 0.00000E+00
 -1      1329 2.19000E+01 4.87010E+01 0.00000E+00
 -1      1330 2.34000E+01 4.87010E+01 0.00000E+00
 -1      1331 2.11500E+01 4.74020E+01 0.00000E+00
 -1      1332 2.49000E+01 4.87010E+01 0.00000E+00
 -1      1333 2.64000E+01 4.87010E+01 0.00000E+00
 -1      1334 2.41500E+01 4.74020E+01 0.00000E+00
 -1      1335 2.79000E+01 4.87010E+01 0.00000E+00
 -1      1336 2.94000E+01 4.87010E+01 0.00000E+00
 -1      1337 2.71500E+01 4.74020E+01 0.00000E+00
 -1      1338 3.09000E+01 4.87010E+01 0.00000E+00
 -1      1339 3.24000E+01 4.87010E+01 0.00000E+00
 -1      1340 3.01500E+01 4.74020E+01 0.00000E+00
 -1      1341 3.39000E+01 4.87010E+01 0.00000E+00
 -1      1342 3.54000E+01 4.87010E+01 0.00000E+00
 -1      1343 3.31500E+01 4.74020E+01 0.00000E+00
 -1      1344 3.69000E+01 4.87010E+01 0.00000E+00
 -1      1345 3.84000E+01 4.87010E+01 0.00000E+00
 -1      1346 3.61500E+01 4.74020E+01 0.00000E+00
 -1      1347 3.99000E+01 4.87010E+01 0.00000E+00
 -1      1348 4.14000E+01 4.87010E+01 0.00000E+00
 -1      1349 3.91500E+01 4.74020E+01 0.00000E+00
 -1      1350 4.29000E+01 4.87010E+01 0.00000E+00
 -1      1351 4.44000E+01 4.87010E+01 0.00000E+00
 -1      1352 4.21500E+01 4.74020E+01 0.00000E+00
 -1      1353 4.59000E+01 4.87010E+01 0.00000E+00
 -1      1354 4.74000E+01 4.87010E+01 0.00000E+00
 -1      1355 4.51500E+01 4.74020E+01 0.00000E+00
 -1      1356 4.89000E+01 4.87010E+01 0.00000E+00
 -1      1357 5.04000E+01 4.87010E+01 0.00000E+00
 -1      1358 4.81500E+01 4.74020E+01 0.00000E+00
 -1      1359 5.19000E+01 4.87010E+01 0.00000E+00
 -1      1360 5.34000E+01 4.87010E+01 0.00000E+00
 -1      1361 5.11500E+01 4.74020E+01 0.00000E+00
 -1      1362 5.49000E+01 4.87010E+01 0.00000E+00
 -1      1363 5.64000E+01 4.87010E+01 0.00000E+00
 -1      1364 5.41500E+01 4.74020E+01 0.00000E+00
 -1      1365 5.79000E+01 4.87010E+01 0.00000E+00
 -1      1366 5.94000E+01 4.87010E+01 0.00000E+00
 -1      1367 5.71500E+01 4.74020E+01 0.00000E+00
 -1      1368 6.09000E+01 4.87010E+01 0.00000E+00
 -1      1369 6.24000E+01 4.87010E+01 0.00000E+00
 -1      1370 6.01500E+01 4.74020E+01 0.00000E+00
 -1      1371 6.39000E+01 4.87010E+01 0.00000E+00
 -1      1372 6.54000E+01 4.87010E+01 0.00000E+00
 -1      1373 6.31500E+01 4.74020E+01 0.00000E+00
 -1      1374 6.69000E+01 4.87010E+01 0.00000E+00
 -1      1375 6.84000E+01 4.87010E+01 0.00000E+00
 -1      1376 6.61500E+01 4.74020E+01 0.00000E+00
 -1      1377 6.99000E+01 4.87010E+01 0.00000E+00
 -1      1378 7.14000E+01 4.87010E+01 0.00000E+00
 -1      1379 6.91500E+01 4.74020E+01 0.00000E+00
 -1      1380 7.29000E+01 4.87010E+01 0.00000E+00
 -1      1381 7.44000E+01 4.87010E+01 0.00000E+00
 -1      1382 7.21500E+01 4.74020E+01 0.00000E+00
 -1      1383 7.59000E+01 4.87010E+01 0.00000E+00
 -1      1384 7.74000E+01 4.87010E+01 0.00000E+00
 -1      1385 7.51500E+01 4.74020E+01 0.00000E+00
 -1      1386 7.89000E+01 4.87010E+01 0.00000E+00
 -1      1387 8.04000E+01 4.87010E+01 0.00000E+00
 -1      1388 7.81500E+01 4.74020E+01 0.00000E+00
 -1      1389 8.19000E+01 4.87010E+01 0.00000E+00
 -1      1390 8.34000E+01 4.87010E+01 0.00000E+00
 -1      1391 8.11500E+01 4.74020E+01 0.00000E+00
 -1      1392 8.49000E+01 4.87010E+01 0.00000E+00
 -1      1393 8.64000E+01 4.87010E+01 0.00000E+00
 -1      1394 8.41500E+01 4.74020E+01 0.00000E+00
 -1      1395 8.79000E+01 4.87010E+01 0.00000E+00
 -1      1396 8.94000E+01 4.87010E+01 0.00000E+00
 -1      1397 8.71500E+01 4.74020E+01 0.00000E+00
 -1      1398 9.09000E+01 4.87010E+01 0.00000E+00
 -1      1399 9.24000E+01 4.87010E+01 0.00000E+00
 -1      1400 9.01500E+01 4.74020E+01 0.00000E+00
 -1      1401 9.39000E+01 4.87010E+01 0.00000E+00
 -1      1402 9.54000E+01 4.87010E+01 0.00000E+00
 -1      1403 9.31500E+01 4.74020E+01 0.00000E+00
 -1      1404 9.69000E+01 4.87010E+01 0.00000E+00
 -1      1405 9.84000E+01 4.87010E+01 0.00000E+00
 -1      1406 9.61500E+01 4.74020E+01 0.00000E+00
 -1      1407 9.99000E+01 4.87010E+01 0.00000E+00
 -1      1408 1.01400E+02 4.87010E+01 0.00000E+00
 -1      1409 9.91500E+01 4.74020E+01 0.00000E+00
 -1      1410 1.02900E+02 4.87010E+01 0.00000E+00
 -1      1411 1.04400E+02 4.87010E+01 0.00000E+00
 -1      1412 1.02150E+02 4.74020E+01 0.00000E+00
 -1      1413 1.05900E+02 4.87010E+01 0.00000E+00
 -1      1414 1.07400E+02 4.87010E+01 0.00000E+00
 -1      1415 1.05150E+02 4.74020E+01 0.00000E+00
 -1      1416 1.08900E+02 4.87010E+01 0.00000E+00
 -1      1417 1.10400E+02 4.87010E+01 0.00000E+00
 -1      1418 1.08150E+02 4.74020E+01 0.00000E+00
 -1      1419 1.11900E+02 4.87010E+01 0.00000E+00
 -1      1420 1.13400E+02 4.87010E+01 0.00000E+00
 -1      1421 1.11150E+02 4.74020E+01 0.00000E+00
 -1      1422 1.14900E+02 4.87010E+01 0.00000E+00
 -1      1423 1.16400E+02 4.87010E+01 0.00000E+00
 -1      1424 1.14150E+02 4.74020E+01 0.00000E+00
 -1      1425 1.17900E+02 4.87010E+01 0.00000E+00
 -1      1426 1.19400E+02 4.87010E+01 0.00000E+00
 -1      1427 1.17150E+02 4.74020E+01 0.00000E+00
 -1      1428 1.20900E+02 4.87010E+01 0.00000E+00
 -1      1429 1.22400E+02 4.87010E+01 0.00000E+00
 -1      1430 1.20150E+02 4.74020E+01 0.00000E+00
 -1      1431 1.23900E+02 4.87010E+01 0.00000E+00
 -1      1432 1.25400E+02 4.87010E+01 0.00000E+00
 -1      1433 1.23150E+02 4.74020E+01 0.00000E+00
 -1      1434 1.26900E+02 4.87010E+01 0.00000E+00
 -1      1435 1.28400E+02 4.87010E+01 0.00000E+00
 -1      1436 1.26150E+02 4.74020E+01 0.00000E+00
 -1      1437 1.29900E+02 4.87010E+01 0.00000E+00
 -1      1438 1.31400E+02 4.87010E+01 0.00000E+00
 -1      1439 1.29150E+02 4.74020E+01 0.00000E+00
 -1      1440 1.32900E+02 4.87010E+01 0.00000E+00
 -1      1441 1.34400E+02 4.87010E+01 0.00000E+00
 -1      1442 1.32150E+02 4.74020E+01 0.00000E+00
 -1      1443 1.35900E+02 4.87010E+01 0.00000E+00
 -1      1444 1.37400E+02 4.87010E+01 0.00000E+00
 -1      1445 1.35150E+02 4.74020E+01 0.00000E+00
 -1      1446 1.38900E+02 4.87010E+01 0.00000E+00
 -1      1447 1.40400E+02 4.87010E+01 0.00000E+00
 -1      1448 1.38150E+02 4.74020E+01 0.00000E+00
 -1      1449 1.41900E+02 4.87010E+01 0.00000E+00
 -1      1450 1.43400E+02 4.87010E+01 0.00000E+00
 -1      1451 1.41150E+02 4.74020E+01 0.00000E+00
 -1      1452 1.44900E+02 4.87010E+01 0.00000E+00
 -1      1453 1.46400E+02 4.87010E+01 0.00000E+00
 -1      1454 1.44150E+02 4.74020E+01 0.00000E+00
 -1      1455 1.48575E+02 4.85500E+01 0.00000E+00
 -1      1456 1.47825E+02 4.72510E+01 0.00000E+00
 -1      1457 6.01200E+00 1.09375E+00 0.00000E+00
 -1      1458 4.51200E+00 1.09375E+00 0.00000E+00
 -1      1459 4.37400E+00 2.18750E+00 0.00000E+00
 -1      1460 9.01200E+00 1.09375E+00 0.00000E+00
 -1      1461 7.51200E+00 1.09375E+00 0.00000E+00
 -1      1462 7.37400E+00 2.18750E+00 0.00000E+00
 -1      1463 1.20120E+01 1.09375E+00 0.00000E+00
 -1      1464 1.05120E+01 1.09375E+00 0.00000E+00
 -1      1465 1.03740E+01 2.18750E+00 0.00000E+00
 -1      1466 1.50120E+01 1.09375E+00 0.00000E+00
 -1      1467 1.35120E+01 1.09375E+00 0.00000E+00
 -1      1468 1.33740E+01 2.18750E+00 0.00000E+00
 -1      1469 1.80120E+01 1.09375E+00 0.00000E+00
 -1      1470 1.65120E+01 1.09375E+00 0.00000E+00
 -1      1471 1.63740E+01 2.18750E+00 0.00000E+00
 -1      1472 2.10120E+01 1.09375E+00 0.00000E+00
 -1      1473 1.95120E+01 1.09375E+00 0.00000E+00
 -1      1474 1.93740E+01 2.18750E+00 0.00000E+00
 -1      1475 2.40120E+01 1.09375E+00 0.00000E+00
 -1      1476 2.25120E+01 1.09375E+00 0.00000E+00
 -1      1477 2.23740E+01 2.18750E+00 0.00000E+00
 -1      1478 2.70120E+01 1.09375E+00 0.00000E+00
 -1      1479 2.55120E+01 1.09375E+00 0.00000E+00
 -1      1480 2.53740E+01 2.18750E+00 0.00000E+00
 -1      1481 3.00120E+01 1.09375E+00 0.00000E+00
 -1      1482 2.85120E+01 1.09375E+00 0.00000E+00
 -1      1483 2.83740E+01 2.18750E+00 0.00000E+00
 -1      1484 3.30120E+01 1.09375E+00 0.00000E+00
 -1      1485 3.15120E+01 1.09375E+00 0.00000E+00
 -1      1486 3.13740E+01 2.18750E+00 0.00000E+00
 -1      1487 3.60120E+01 1.09375E+00 0.00000E+00
 -1      1488 3.45120E+01 1.09375E+00 0.00000E+00
 -1      1489 3.43740E+01 2.18750E+00 0.00000E+00
 -1      1490 3.90120E+01 1.09375E+00 0.00000E+00
 -1      1491 3.75120E+01 1.09375E+00 0.00000E+00
 -1      1492 3.73740E+01 2.18750E+00 0.00000E+00
 -1      1493 4.20120E+01 1.09375E+00 0.00000E+00
 -1      1494 4.05120E+01 1.09375E+00 0.00000E+00
 -1      1495 4.03740E+01 2.18750E+00 0.00000E+00
 -1      1496 4.50120E+01 1.09375E+00 0.00000E+00
 -1      1497 4.35120E+01 1.09375E+00 0.00000E+00
 -1      1498 4.33740E+01 2.18750E+00 0.00000E+00
 -1      1499 4.80120E+01 1.09375E+00 0.00000E+00
 -1      1500 4.65120E+01 1.09375E+00 0.00000E+00
 -1      1501 4.63740E+01 2.18750E+00 0.00000E+00
 -1      1502 5.10120E+01 1.09375E+00 0.00000E+00
 -1      1503 4.95120E+01 1.09375E+00 0.00000E+00
 -1      1504 4.93740E+01 2.18750E+00 0.00000E+00
 -1      1505 5.40120E+01 1.09375E+00 0.00000E+00
 -1      1506 5.25120E+01 1.09375E+00 0.00000E+00
 -1      1507 5.23740E+01 2.18750E+00 0.00000E+00
 -1      1508 5.70120E+01 1.09375E+00 0.00000E+00
 -1      1509 5.55120E+01 1.09375E+00 0.00000E+00
 -1      1510 5.53740E+01 2.18750E+00 0.00000E+00
 -1      1511 6.00120E+01 1.09375E+00 0.00000E+00
 -1      1512 5.85120E+01 1.09375E+00 0.00000E+00
 -1      1513 5.83740E+01 2.18750E+00 0.00000E+00
 -1      1514 6.30120E+01 1.09375E+00 0.00000E+00
 -1      1515 6.15120E+01 1.09375E+00 0.00000E+00
 -1      1516 6.13740E+01 2.18750E+00 0.00000E+00
 -1      1517 6.60120E+01 1.09375E+00 0.00000E+00
 -1      1518 6.45120E+01 1.09375E+00 0.00000E+00
 -1      1519 6.43740E+01 2.18750E+00 0.00000E+00
 -1      1520 6.90120E+01 1.09375E+00 0.00000E+00
 -1      1521 6.75120E+01 1.09375E+00 0.00000E+00
 -1      1522 6.73740E+01 2.18750E+00 0.00000E+00
 -1      1523 7.20120E+01 1.09375E+00 0.00000E+00
 -1      1524 7.05120E+01 1.09375E+00 0.00000E+00
 -1      1525 7.03740E+01 2.18750E+00 0.00000E+00
 -1      1526 7.50120E+01 1.09375E+00 0.00000E+00
 -1      1527 7.35120E+01 1.09375E+00 0.00000E+00
 -1      1528 7.33740E+01 2.18750E+00 0.00000E+00
 -1      1529 7.80120E+01 1.09375E+00 0.00000E+00
 -1      1530 7.65120E+01 1.09375E+00 0.00000E+00
 -1      1531 7.63740E+01 2.18750E+00 0.00000E+00
 -1      1532 8.10120E+01 1.09375E+00 0.00000E+00
 -1      1533 7.95120E+01 1.09375E+00 0.00000E+00
 -1      1534 7.93740E+01 2.18750E+00 0.00000E+00
 -1      1535 8.40120E+01 1.09375E+00 0.00000E+00
 -1      1536 8.25120E+01 1.09375E+00 0.00000E+00
 -1      1537 8.23740E+01 2.18750E+00 0.00000E+00
 -1      1538 8.70120E+01 1.09375E+00 0.00000E+00
 -1      1539 8.55120E+01 1.09375E+00 0.00000E+00
 -1      1540 8.53740E+01 2.18750E+00 0.00000E+00
 -1      1541 9.00120E+01 1.09375E+00 0.00000E+00
 -1      1542 8.85120E+01 1.09375E+00 0.00000E+00
 -1      1543 8.83740E+01 2.18750E+00 0.00000E+00
 -1      1544 9.30120E+01 1.09375E+00 0.00000E+00
 -1      1545 9.15120E+01 1.09375E+00 0.00000E+00
 -1      1546 9.13740E+01 2.18750E+00 0.00000E+00
 -1      1547 9.60120E+01 1.09375E+00 0.00000E+00
 -1      1548 9.45120E+01 1.09375E+00 0.00000E+00
 -1      1549 9.43740E+01 2.18750E+00 0.00000E+00
 -1      1550 9.90120E+01 1.09375E+00 0.00000E+00
 -1      1551 9.75120E+01 1.09375E+00 0.00000E+00
 -1      1552 9.73740E+01 2.18750E+00 0.00000E+00
 -1      1553 1.02012E+02 1.09375E+00 0.00000E+00
 -1      1554 1.00512E+02 1.09375E+00 0.00000E+00
 -1      1555 1.00374E+02 2.18750E+00 0.00000E+00
 -1      1556 1.05012E+02 1.09375E+00 0.00000E+00
 -1      1557 1.03512E+02 1.09375E+00 0.00000E+00
 -1      1558 1.03374E+02 2.18750E+00 0.00000E+00
 -1      1559 1.08012E+02 1.09375E+00 0.00000E+00
 -1      1560 1.06512E+02 1.09375E+00 0.00000E+00
 -1      1561 1.06374E+02 2.18750E+00 0.00000E+00
 -1      1562 1.11012E+02 1.09375E+00 0.00000E+00
 -1      1563 1.09512E+02 1.09375E+00 0.00000E+00
 -1      1564 1.09374E+02 2.18750E+00 0.00000E+00
 -1      1565 1.14012E+02 1.09375E+00 0.00000E+00
 -1      1566 1.12512E+02 1.09375E+00 0.00000E+00
 -1      1567 1.12374E+02 2.18750E+00 0.00000E+00
 -1      1568 1.17012E+02 1.09375E+00 0.00000E+00
 -1      1569 1.15512E+02 1.09375E+00 0.00000E+00
 -1      1570 1.15374E+02 2.18750E+00 0.00000E+00
 -1      1571 1.20012E+02 1.09375E+00 0.00000E+00
 -1      1572 1.18512E+02 1.09375E+00 0.00000E+00
 -1      1573 1.18374E+02 2.18750E+00 0.00000E+00
 -1      1574 1.23012E+02 1.09375E+00 0.00000E+00
 -1      1575 1.21512E+02 1.09375E+00 0.00000E+00
 -1      1576 1.21374E+02 2.18750E+00 0.00000E+00
 -1      1577 1.26012E+02 1.09375E+00 0.00000E+00
 -1      1578 1.24512E+02 1.09375E+00 0.00000E+00
 -1      1579 1.24374E+02 2.18750E+00 0.00000E+00
 -1      1580 1.29012E+02 1.09375E+00 0.00000E+00
 -1      1581 1.27512E+02 1.09375E+00 0.00000E+00
 -1      1582 1.27374E+02 2.18750E+00 0.00000E+00
 -1      1583 1.32012E+02 1.09375E+00 0.00000E+00
 -1      1584 1.30512E+02 1.09375E+00 0.00000E+00
 -1      1585 1.30374E+02 2.18750E+00 0.00000E+00
 -1      1586 1.35012E+02 1.09375E+00 0.00000E+00
 -1      1587 1.33512E+02 1.09375E+00 0.00000E+00
 -1      1588 1.33374E+02 2.18750E+00 0.00000E+00
 -1      1589 1.38012E+02 1.09375E+00 0.00000E+00
 -1      1590 1.36512E+02 1.09375E+00 0.00000E+00
 -1      1591 1.36374E+02 2.18750E+00 0.00000E+00
 -1      1592 1.41012E+02 1.09375E+00 0.00000E+00
 -1      1593 1.39512E+02 1.09375E+00 0.00000E+00
 -1      1594 1.39374E+02 2.18750E+00 0.00000E+00
 -1      1595 1.44012E+02 1.09375E+00 0.00000E+00
 -1      1596 1.42512E+02 1.09375E+00 0.00000E+00
 -1      1597 1.42374E+02 2.18750E+00 0.00000E+00
 -1      1598 1.47012E+02 1.09375E+00 0.00000E+00
 -1      1599 1.45512E+02 1.09375E+00 0.00000E+00
 -1      1600 1.45374E+02 2.18750E+00 0.00000E+00
 -1      1601 1.48575E+02 1.47500E+00 0.00000E+00
 -1      1602 1.48701E+02 5.16250E+00 0.00000E+00
 -1      1603 1.48701E+02 3.68750E+00 0.00000E+00
 -1      1604 1.48701E+02 8.11250E+00 0.00000E+00
 -1      1605 1.48701E+02 6.63750E+00 0.00000E+00
 -1      1606 1.47402E+02 5.90000E+00 0.00000E+00
 -1      1607 1.48701E+02 1.10625E+01 0.00000E+00
 -1      1608 1.48701E+02 9.58750E+00 0.00000E+00
 -1      1609 1.47402E+02 8.85000E+00 0.00000E+00
 -1      1610 1.48701E+02 1.40125E+01 0.00000E+00
 -1      1611 1.48701E+02 1.25375E+01 0.00000E+00
 -1      1612 1.47402E+02 1.18000E+01 0.00000E+00
 -1      1613 1.48701E+02 1.69125E+01 0.00000E+00
 -1      1614 1.48701E+02 1.54625E+01 0.00000E+00
 -1      1615 1.47402E+02 1.47250E+01 0.00000E+00
 -1      1616 1.48701E+02 1.98625E+01 0.00000E+00
 -1      1617 1.48701E+02 1.83875E+01 0.00000E+00
 -1      1618 1.47402E+02 1.76500E+01 0.00000E+00
 -1      1619 1.48701E+02 2.28125E+01 0.00000E+00
 -1      1620 1.48701E+02 2.13375E+01 0.00000E+00
 -1      1621 1.47402E+02 2.06000E+01 0.00000E+00
 -1      1622 1.48701E+02 2.57625E+01 0.00000E+00
 -1      1623 1.48701E+02 2.42875E+01 0.00000E+00
 -1      1624 1.47402E+02 2.35500E+01 0.00000E+00
 -1      1625 1.48701E+02 2.87125E+01 0.00000E+00
 -1      1626 1.48701E+02 2.72375E+01 0.00000E+00
 -1      1627 1.47402E+02 2.65000E+01 0.00000E+00
 -1      1628 1.48701E+02 3.16625E+01 0.00000E+00
 -1      1629 1.48701E+02 3.01875E+01 0.00000E+00
 -1      1630 1.47402E+02 2.94500E+01 0.00000E+00
 -1      1631 1.48701E+02 3.45625E+01 0.00000E+00
 -1      1632 1.48701E+02 3.31125E+01 0.00000E+00
 -1      1633 1.47402E+02 3.23750E+01 0.00000E+00
 -1      1634 1.48701E+02 3.75125E+01 0.00000E+00
 -1      1635 1.48701E+02 3.60375E+01 0.00000E+00
 -1      1636 1.47402E+02 3.53000E+01 0.00000E+00
 -1      1637 1.48701E+02 4.04625E+01 0.00000E+00
 -1      1638 1.48701E+02 3.89875E+01 0.00000E+00
 -1      1639 1.47402E+02 3.82500E+01 0.00000E+00
 -1      1640 1.48701E+02 4.34125E+01 0.00000E+00
 -1      1641 1.48701E+02 4.19375E+01 0.00000E+00
 -1      1642 1.47402E+02 4.12000E+01 0.00000E+00
 -1      1643 1.48263E+02 4.60692E+01 0.00000E+00
 -1      1644 1.48263E+02 4.45942E+01 0.00000E+00
 -1      1645 1.46964E+02 4.38568E+01 0.00000E+00
 -1      1646 1.46088E+02 4.62202E+01 0.00000E+00
 -1      1647 4.09810E+01 2.18384E+01 0.00000E+00
 -1      1648 4.10592E+01 2.25740E+01 0.00000E+00
 -1      1649 4.05237E+01 2.02844E+01 0.00000E+00
 -1      1650 4.07555E+01 2.09888E+01 0.00000E+00
 -1      1651 3.98161E+01 1.88850E+01 0.00000E+00
 -1      1652 4.01739E+01 1.95012E+01 0.00000E+00
 -1      1653 3.88267E+01 1.75987E+01 0.00000E+00
 -1      1654 3.93343E+01 1.81589E+01 0.00000E+00
 -1      1655 3.75309E+01 1.66067E+01 0.00000E+00
 -1      1656 3.81357E+01 1.70385E+01 0.00000E+00
 -1      1657 3.60699E+01 1.59204E+01 0.00000E+00
 -1      1658 3.67513E+01 1.62145E+01 0.00000E+00
 -1      1659 3.45121E+01 1.55193E+01 0.00000E+00
 -1      1660 3.52416E+01 1.56633E+01 0.00000E+00
 -1      1661 3.28818E+01 1.54168E+01 0.00000E+00
 -1      1662 3.36386E+01 1.54017E+01 0.00000E+00
 -1      1663 3.11838E+01 1.56475E+01 0.00000E+00
 -1      1664 3.19552E+01 1.54570E+01 0.00000E+00
 -1      1665 2.97471E+01 1.63818E+01 0.00000E+00
 -1      1666 3.03861E+01 1.60669E+01 0.00000E+00
 -1      1667 2.81777E+01 1.72666E+01 0.00000E+00
 -1      1668 2.88463E+01 1.67225E+01 0.00000E+00
 -1      1669 2.72140E+01 1.86560E+01 0.00000E+00
 -1      1670 2.76578E+01 1.80849E+01 0.00000E+00
 -1      1671 2.64464E+01 2.00339E+01 0.00000E+00
 -1      1672 2.67658E+01 1.93769E+01 0.00000E+00
 -1      1673 2.58908E+01 2.15756E+01 0.00000E+00
 -1      1674 2.60712E+01 2.08347E+01 0.00000E+00
 -1      1675 2.58350E+01 2.31561E+01 0.00000E+00
 -1      1676 2.58550E+01 2.24468E+01 0.00000E+00
 -1      1677 2.59094E+01 2.48981E+01 0.00000E+00
 -1      1678 2.57508E+01 2.40832E+01 0.00000E+00
 -1      1679 2.66200E+01 2.63762E+01 0.00000E+00
 -1      1680 2.63353E+01 2.57260E+01 0.00000E+00
 -1      1681 2.74425E+01 2.76828E+01 0.00000E+00
 -1      1682 2.70295E+01 2.71000E+01 0.00000E+00
 -1      1683 2.85036E+01 2.88416E+01 0.00000E+00
 -1      1684 2.79697E+01 2.83464E+01 0.00000E+00
 -1      1685 2.98496E+01 2.97931E+01 0.00000E+00
 -1      1686 2.91899E+01 2.94030E+01 0.00000E+00
 -1      1687 3.13401E+01 3.03048E+01 0.00000E+00
 -1      1688 3.06720E+01 3.00809E+01 0.00000E+00
 -1      1689 3.29371E+01 3.06989E+01 0.00000E+00
 -1      1690 3.21690E+01 3.06125E+01 0.00000E+00
 -1      1691 3.46571E+01 3.05257E+01 0.00000E+00
 -1      1692 3.38693E+01 3.06144E+01 0.00000E+00
 -1      1693 3.63423E+01 3.00861E+01 0.00000E+00
 -1      1694 3.55866E+01 3.03538E+01 0.00000E+00
 -1      1695 3.77753E+01 2.92063E+01 0.00000E+00
 -1      1696 3.71343E+01 2.96116E+01 0.00000E+00
 -1      1697 3.91193E+01 2.81143E+01 0.00000E+00
 -1      1698 3.85473E+01 2.86898E+01 0.00000E+00
 -1      1699 4.00226E+01 2.67151E+01 0.00000E+00
 -1      1700 3.96273E+01 2.73463E+01 0.00000E+00
 -1      1701 4.07550E+01 2.51775E+01 0.00000E+00
 -1      1702 4.04898E+01 2.59304E+01 0.00000E+00
 -1      1703 4.10123E+01 2.34766E+01 0.00000E+00
 -1      1704 4.09246E+01 2.42551E+01 0.00000E+00
 -1      1705 3.89009E+01 1.68553E+01 0.00000E+00
 -1      1706 4.00736E+01 1.81416E+01 0.00000E+00
 -1      1707 1.48437E+02 2.56875E+00 0.00000E+00
 -1      1708 1.47138E+02 3.30625E+00 0.00000E+00
 -1      1709 4.14807E+01 2.12837E+01 0.00000E+00
 -1      1710 4.09054E+01 1.96509E+01 0.00000E+00
 -1      1711 4.16594E+01 2.30359E+01 0.00000E+00
 -1      1712 3.74304E+01 1.59030E+01 0.00000E+00
 -1      1713 3.58225E+01 1.52537E+01 0.00000E+00
 -1      1714 3.41207E+01 1.48789E+01 0.00000E+00
 -1      1715 3.23206E+01 1.48015E+01 0.00000E+00
 -1      1716 3.05963E+01 1.52611E+01 0.00000E+00
 -1      1717 2.88979E+01 1.60212E+01 0.00000E+00
 -1      1718 2.74771E+01 1.71802E+01 0.00000E+00
 -1      1719 2.65091E+01 1.87194E+01 0.00000E+00
 -1      1720 2.56858E+01 2.02411E+01 0.00000E+00
 -1      1721 2.52748E+01 2.19131E+01 0.00000E+00
 -1      1722 2.51548E+01 2.37114E+01 0.00000E+00
 -1      1723 2.54965E+01 2.54663E+01 0.00000E+00
 -1      1724 2.63319E+01 2.70181E+01 0.00000E+00
 -1      1725 2.72686E+01 2.84055E+01 0.00000E+00
 -1      1726 2.84823E+01 2.96306E+01 0.00000E+00
 -1      1727 2.99910E+01 3.04798E+01 0.00000E+00
 -1      1728 3.16423E+01 3.10753E+01 0.00000E+00
 -1      1729 3.34035E+01 3.12985E+01 0.00000E+00
 -1      1730 3.52653E+01 3.10422E+01 0.00000E+00
 -1      1731 3.69868E+01 3.03959E+01 0.00000E+00
 -1      1732 3.85508E+01 2.94049E+01 0.00000E+00
 -1      1733 3.98307E+01 2.81204E+01 0.00000E+00
 -1      1734 4.08060E+01 2.65678E+01 0.00000E+00
 -1      1735 4.14429E+01 2.48608E+01 0.00000E+00
 -1      1736 2.87400E+00 4.77875E+01 0.00000E+00
 -1      1737 3.89700E+00 4.04125E+01 0.00000E+00
 -1      1738 3.89700E+00 4.18875E+01 0.00000E+00
 -1      1739 3.89700E+00 4.33625E+01 0.00000E+00
 -1      1740 3.89700E+00 4.48375E+01 0.00000E+00
 -1      1741 5.19600E+00 4.26250E+01 0.00000E+00
 -1      1742 3.89700E+00 3.45500E+01 0.00000E+00
 -1      1743 3.89700E+00 3.60000E+01 0.00000E+00
 -1      1744 3.89700E+00 3.16000E+01 0.00000E+00
 -1      1745 3.89700E+00 3.30750E+01 0.00000E+00
 -1      1746 5.19600E+00 3.38000E+01 0.00000E+00
 -1      1747 3.89700E+00 2.86500E+01 0.00000E+00
 -1      1748 3.89700E+00 3.01250E+01 0.00000E+00
 -1      1749 5.19600E+00 3.08500E+01 0.00000E+00
 -1      1750 3.89700E+00 2.57000E+01 0.00000E+00
 -1      1751 3.89700E+00 2.71750E+01 0.00000E+00
 -1      1752 5.19600E+00 2.79000E+01 0.00000E+00
 -1      1753 3.89700E+00 2.27500E+01 0.00000E+00
 -1      1754 3.89700E+00 2.42250E+01 0.00000E+00
 -1      1755 5.19600E+00 2.49500E+01 0.00000E+00
 -1      1756 3.89700E+00 1.98000E+01 0.00000E+00
 -1      1757 3.89700E+00 2.12750E+01 0.00000E+00
 -1      1758 5.19600E+00 2.20000E+01 0.00000E+00
 -1      1759 3.89700E+00 1.69000E+01 0.00000E+00
 -1      1760 3.89700E+00 1.83500E+01 0.00000E+00
 -1      1761 5.19600E+00 1.90750E+01 0.00000E+00
 -1      1762 3.89700E+00 1.39500E+01 0.00000E+00
 -1      1763 3.89700E+00 1.54250E+01 0.00000E+00
 -1      1764 5.19600E+00 1.61500E+01 0.00000E+00
 -1      1765 3.89700E+00 1.10000E+01 0.00000E+00
 -1      1766 3.89700E+00 1.24750E+01 0.00000E+00
 -1      1767 5.19600E+00 1.32000E+01 0.00000E+00
 -1      1768 3.89700E+00 8.05000E+00 0.00000E+00
 -1      1769 3.89700E+00 9.52500E+00 0.00000E+00
 -1      1770 5.19600E+00 1.02500E+01 0.00000E+00
 -1      1771 3.89700E+00 5.10000E+00 0.00000E+00
 -1      1772 3.89700E+00 6.57500E+00 0.00000E+00
 -1      1773 5.19600E+00 7.30000E+00 0.00000E+00
 -1      1774 4.20450E+00 3.09687E+00 0.00000E+00
 -1      1775 4.06650E+00 4.19063E+00 0.00000E+00
 -1      1776 5.36550E+00 4.91563E+00 0.00000E+00
 -1      1777 5.70450E+00 3.09687E+00 0.00000E+00
 -1      1778 3.62400E+00 4.64885E+01 0.00000E+00
 -1      1779 8.70450E+00 3.09687E+00 0.00000E+00
 -1      1780 7.20450E+00 3.09687E+00 0.00000E+00
 -1      1781 7.03500E+00 4.00625E+00 0.00000E+00
 -1      1782 4.92300E+00 4.57510E+01 0.00000E+00
 -1      1783 8.40000E+00 4.61030E+01 0.00000E+00
 -1      1784 9.90000E+00 4.61030E+01 0.00000E+00
 -1      1785 1.14000E+01 4.61030E+01 0.00000E+00
 -1      1786 1.29000E+01 4.61030E+01 0.00000E+00
 -1      1787 1.06500E+01 4.48040E+01 0.00000E+00
 -1      1788 1.44000E+01 4.61030E+01 0.00000E+00
 -1      1789 1.59000E+01 4.61030E+01 0.00000E+00
 -1      1790 1.36500E+01 4.48040E+01 0.00000E+00
 -1      1791 1.74000E+01 4.61030E+01 0.00000E+00
 -1      1792 1.89000E+01 4.61030E+01 0.00000E+00
 -1      1793 1.66500E+01 4.48040E+01 0.00000E+00
 -1      1794 2.04000E+01 4.61030E+01 0.00000E+00
 -1      1795 2.19000E+01 4.61030E+01 0.00000E+00
 -1      1796 1.96500E+01 4.48040E+01 0.00000E+00
 -1      1797 2.34000E+01 4.61030E+01 0.00000E+00
 -1      1798 2.49000E+01 4.61030E+01 0.00000E+00
 -1      1799 2.26500E+01 4.48040E+01 0.00000E+00
 -1      1800 2.64000E+01 4.61030E+01 0.00000E+00
 -1      1801 2.79000E+01 4.61030E+01 0.00000E+00
 -1      1802 2.56500E+01 4.48040E+01 0.00000E+00
 -1      1803 2.94000E+01 4.61030E+01 0.00000E+00
 -1      1804 3.09000E+01 4.61030E+01 0.00000E+00
 -1      1805 2.86500E+01 4.48040E+01 0.00000E+00
 -1      1806 3.24000E+01 4.61030E+01 0.00000E+00
 -1      1807 3.39000E+01 4.61030E+01 0.00000E+00
 -1      1808 3.16500E+01 4.48040E+01 0.00000E+00
 -1      1809 3.54000E+01 4.61030E+01 0.00000E+00
 -1      1810 3.69000E+01 4.61030E+01 0.00000E+00
 -1      1811 3.46500E+01 4.48040E+01 0.00000E+00
 -1      1812 3.84000E+01 4.61030E+01 0.00000E+00
 -1      1813 3.99000E+01 4.61030E+01 0.00000E+00
 -1      1814 3.76500E+01 4.48040E+01 0.00000E+00
 -1      1815 4.14000E+01 4.61030E+01 0.00000E+00
 -1      1816 4.29000E+01 4.61030E+01 0.00000E+00
 -1      1817 4.06500E+01 4.48040E+01 0.00000E+00
 -1      1818 4.44000E+01 4.61030E+01 0.00000E+00
 -1      1819 4.59000E+01 4.61030E+01 0.00000E+00
 -1      1820 4.36500E+01 4.48040E+01 0.00000E+00
 -1      1821 4.74000E+01 4.61030E+01 0.00000E+00
 -1      1822 4.89000E+01 4.61030E+01 0.00000E+00
 -1      1823 4.66500E+01 4.48040E+01 0.00000E+00
 -1      1824 5.04000E+01 4.61030E+01 0.00000E+00
 -1      1825 5.19000E+01 4.61030E+01 0.00000E+00
 -1      1826 4.96500E+01 4.48040E+01 0.00000E+00
 -1      1827 5.34000E+01 4.61030E+01 0.00000E+00
 -1      1828 5.49000E+01 4.61030E+01 0.00000E+00
 -1      1829 5.26500E+01 4.48040E+01 0.00000E+00
 -1      1830 5.64000E+01 4.61030E+01 0.00000E+00
 -1      1831 5.79000E+01 4.61030E+01 0.00000E+00
 -1      1832 5.56500E+01 4.48040E+01 0.00000E+00
 -1      1833 5.94000E+01 4.61030E+01 0.00000E+00
 -1      1834 6.09000E+01 4.61030E+01 0.00000E+00
 -1      1835 5.86500E+01 4.48040E+01 0.00000E+00
 -1      1836 6.24000E+01 4.61030E+01 0.00000E+00
 -1      1837 6.39000E+01 4.61030E+01 0.00000E+00
 -1      1838 6.16500E+01 4.48040E+01 0.00000E+00
 -1      1839 6.54000E+01 4.61030E+01 0.00000E+00
 -1      1840 6.69000E+01 4.61030E+01 0.00000E+00
 -1      1841 6.46500E+01 4.48040E+01 0.00000E+00
 -1      1842 6.84000E+01 4.61030E+01 0.00000E+00
 -1      1843 6.99000E+01 4.61030E+01 0.00000E+00
 -1      1844 6.76500E+01 4.48040E+01 0.00000E+00
 -1      1845 7.14000E+01 4.61030E+01 0.00000E+00
 -1      1846 7.29000E+01 4.61030E+01 0.00000E+00
 -1      1847 7.06500E+01 4.48040E+01 0.00000E+00
 -1      1848 7.44000E+01 4.61030E+01 0.00000E+00
 -1      1849 7.59000E+01 4.61030E+01 0.00000E+00
 -1      1850 7.36500E+01 4.48040E+01 0.00000E+00
 -1      1851 7.74000E+01 4.61030E+01 0.00000E+00
 -1      1852 7.89000E+01 4.61030E+01 0.00000E+00
 -1      1853 7.66500E+01 4.48040E+01 0.00000E+00
 -1      1854 8.04000E+01 4.61030E+01 0.00000E+00
 -1      1855 8.19000E+01 4.61030E+01 0.00000E+00
 -1      1856 7.96500E+01 4.48040E+01 0.00000E+00
 -1      1857 8.34000E+01 4.61030E+01 0.00000E+00
 -1      1858 8.49000E+01 4.61030E+01 0.00000E+00
 -1      1859 8.26500E+01 4.48040E+01 0.00000E+00
 -1      1860 8.64000E+01 4.61030E+01 0.00000E+00
 -1      1861 8.79000E+01 4.61030E+01 0.00000E+00
 -1      1862 8.56500E+01 4.48040E+01 0.00000E+00
 -1      1863 8.94000E+01 4.61030E+01 0.00000E+00
 -1      1864 9.09000E+01 4.61030E+01 0.00000E+00
 -1      1865 8.86500E+01 4.48040E+01 0.00000E+00
 -1      1866 9.24000E+01 4.61030E+01 0.00000E+00
 -1      1867 9.39000E+01 4.61030E+01 0.00000E+00
 -1      1868 9.16500E+01 4.48040E+01 0.00000E+00
 -1      1869 9.54000E+01 4.61030E+01 0.00000E+00
 -1      1870 9.69000E+01 4.61030E+01 0.00000E+00
 -1      1871 9.46500E+01 4.48040E+01 0.00000E+00
 -1      1872 9.84000E+01 4.61030E+01 0.00000E+00
 -1      1873 9.99000E+01 4.61030E+01 0.00000E+00
 -1      1874 9.76500E+01 4.48040E+01 0.00000E+00
 -1      1875 1.01400E+02 4.61030E+01 0.00000E+00
 -1      1876 1.02900E+02 4.61030E+01 0.00000E+00
 -1      1877 1.00650E+02 4.48040E+01 0.00000E+00
 -1      1878 1.04400E+02 4.61030E+01 0.00000E+00
 -1      1879 1.05900E+02 4.61030E+01 0.00000E+00
 -1      1880 1.03650E+02 4.48040E+01 0.00000E+00
 -1      1881 1.07400E+02 4.61030E+01 0.00000E+00
 -1      1882 1.08900E+02 4.61030E+01 0.00000E+00
 -1      1883 1.06650E+02 4.48040E+01 0.00000E+00
 -1      1884 1.10400E+02 4.61030E+01 0.00000E+00
 -1      1885 1.11900E+02 4.61030E+01 0.00000E+00
 -1      1886 1.09650E+02 4.48040E+01 0.00000E+00
 -1      1887 1.13400E+02 4.61030E+01 0.00000E+00
 -1      1888 1.14900E+02 4.61030E+01 0.00000E+00
 -1      1889 1.12650E+02 4.48040E+01 0.00000E+00
 -1      1890 1.16400E+02 4.61030E+01 0.00000E+00
 -1      1891 1.17900E+02 4.61030E+01 0.00000E+00
 -1      1892 1.15650E+02 4.48040E+01 0.00000E+00
 -1      1893 1.19400E+02 4.61030E+01 0.00000E+00
 -1      1894 1.20900E+02 4.61030E+01 0.00000E+00
 -1      1895 1.18650E+02 4.48040E+01 0.00000E+00
 -1      1896 1.22400E+02 4.61030E+01 0.00000E+00
 -1      1897 1.23900E+02 4.61030E+01 0.00000E+00
 -1      1898 1.21650E+02 4.48040E+01 0.00000E+00
 -1      1899 1.25400E+02 4.61030E+01 0.00000E+00
 -1      1900 1.26900E+02 4.61030E+01 0.00000E+00
 -1      1901 1.24650E+02 4.48040E+01 0.00000E+00
 -1      1902 1.28400E+02 4.61030E+01 0.00000E+00
 -1      1903 1.29900E+02 4.61030E+01 0.00000E+00
 -1      1904 1.27650E+02 4.48040E+01 0.00000E+00
 -1      1905 1.31400E+02 4.61030E+01 0.00000E+00
 -1      1906 1.32900E+02 4.61030E+01 0.00000E+00
 -1      1907 1.30650E+02 4.48040E+01 0.00000E+00
 -1      1908 1.34400E+02 4.61030E+01 0.00000E+00
 -1      1909 1.35900E+02 4.61030E+01 0.00000E+00
 -1      1910 1.33650E+02 4.48040E+01 0.00000E+00
 -1      1911 1.37400E+02 4.61030E+01 0.00000E+00
 -1      1912 1.38900E+02 4.61030E+01 0.00000E+00
 -1      1913 1.36650E+02 4.48040E+01 0.00000E+00
 -1      1914 1.40400E+02 4.61030E+01 0.00000E+00
 -1      1915 1.41900E+02 4.61030E+01 0.00000E+00
 -1      1916 1.39650E+02 4.48040E+01 0.00000E+00
 -1      1917 1.43244E+02 4.61616E+01 0.00000E+00
 -1      1918 1.44744E+02 4.61616E+01 0.00000E+00
 -1      1919 1.45182E+02 4.49799E+01 0.00000E+00
 -1      1920 1.42494E+02 4.48626E+01 0.00000E+00
 -1      1921 1.17045E+01 3.09687E+00 0.00000E+00
 -1      1922 1.02045E+01 3.09687E+00 0.00000E+00
 -1      1923 1.00350E+01 4.00625E+00 0.00000E+00
 -1      1924 1.47045E+01 3.09687E+00 0.00000E+00
 -1      1925 1.32045E+01 3.09687E+00 0.00000E+00
 -1      1926 1.30350E+01 4.00625E+00 0.00000E+00
 -1      1927 1.77045E+01 3.09687E+00 0.00000E+00
 -1      1928 1.62045E+01 3.09687E+00 0.00000E+00
 -1      1929 1.60350E+01 4.00625E+00 0.00000E+00
 -1      1930 2.07045E+01 3.09687E+00 0.00000E+00
 -1      1931 1.92045E+01 3.09687E+00 0.00000E+00
 -1      1932 1.90350E+01 4.00625E+00 0.00000E+00
 -1      1933 2.37045E+01 3.09687E+00 0.00000E+00
 -1      1934 2.22045E+01 3.09687E+00 0.00000E+00
 -1      1935 2.20350E+01 4.00625E+00 0.00000E+00
 -1      1936 2.67045E+01 3.09687E+00 0.00000E+00
 -1      1937 2.52045E+01 3.09687E+00 0.00000E+00
 -1      1938 2.50350E+01 4.00625E+00 0.00000E+00
 -1      1939 2.97045E+01 3.09687E+00 0.00000E+00
 -1      1940 2.82045E+01 3.09687E+00 0.00000E+00
 -1      1941 2.80350E+01 4.00625E+00 0.00000E+00
 -1      1942 3.27045E+01 3.09687E+00 0.00000E+00
 -1      1943 3.12045E+01 3.09687E+00 0.00000E+00
 -1      1944 3.10350E+01 4.00625E+00 0.00000E+00
 -1      1945 3.57045E+01 3.09687E+00 0.00000E+00
 -1      1946 3.42045E+01 3.09687E+00 0.00000E+00
 -1      1947 3.40350E+01 4.00625E+00 0.00000E+00
 -1      1948 3.87045E+01 3.09687E+00 0.00000E+00
 -1      1949 3.72045E+01 3.09687E+00 0.00000E+00
 -1      1950 3.70350E+01 4.00625E+00 0.00000E+00
 -1      1951 4.17045E+01 3.09687E+00 0.00000E+00
 -1      1952 4.02045E+01 3.09687E+00 0.00000E+00
 -1      1953 4.00350E+01 4.00625E+00 0.00000E+00
 -1      1954 4.47045E+01 3.09687E+00 0.00000E+00
 -1      1955 4.32045E+01 3.09687E+00 0.00000E+00
 -1      1956 4.30350E+01 4.00625E+00 0.00000E+00
 -1      1957 4.77045E+01 3.09687E+00 0.00000E+00
 -1      1958 4.62045E+01 3.09687E+00 0.00000E+00
 -1      1959 4.60350E+01 4.00625E+00 0.00000E+00
 -1      1960 5.07045E+01 3.09687E+00 0.00000E+00
 -1      1961 4.92045E+01 3.09687E+00 0.00000E+00
 -1      1962 4.90350E+01 4.00625E+00 0.00000E+00
 -1      1963 5.37045E+01 3.09687E+00 0.00000E+00
 -1      1964 5.22045E+01 3.09687E+00 0.00000E+00
 -1      1965 5.20350E+01 4.00625E+00 0.00000E+00
 -1      1966 5.67045E+01 3.09687E+00 0.00000E+00
 -1      1967 5.52045E+01 3.09687E+00 0.00000E+00
 -1      1968 5.50350E+01 4.00625E+00 0.00000E+00
 -1      1969 5.97045E+01 3.09687E+00 0.00000E+00
 -1      1970 5.82045E+01 3.09687E+00 0.00000E+00
 -1      1971 5.80350E+01 4.00625E+00 0.00000E+00
 -1      1972 6.27045E+01 3.09687E+00 0.00000E+00
 -1      1973 6.12045E+01 3.09687E+00 0.00000E+00
 -1      1974 6.10350E+01 4.00625E+00 0.00000E+00
 -1      1975 6.57045E+01 3.09687E+00 0.00000E+00
 -1      1976 6.42045E+01 3.09687E+00 0.00000E+00
 -1      1977 6.40350E+01 4.00625E+00 0.00000E+00
 -1      1978 6.87045E+01 3.09687E+00 0.00000E+00
 -1      1979 6.72045E+01 3.09687E+00 0.00000E+00
 -1      1980 6.70350E+01 4.00625E+00 0.00000E+00
 -1      1981 7.17045E+01 3.09687E+00 0.00000E+00
 -1      1982 7.02045E+01 3.09687E+00 0.00000E+00
 -1      1983 7.00350E+01 4.00625E+00 0.00000E+00
 -1      1984 7.47045E+01 3.09687E+00 0.00000E+00
 -1      1985 7.32045E+01 3.09687E+00 0.00000E+00
 -1      1986 7.30350E+01 4.00625E+00 0.00000E+00
 -1      1987 7.77045E+01 3.09687E+00 0.00000E+00
 -1      1988 7.62045E+01 3.09687E+00 0.00000E+00
 -1      1989 7.60350E+01 4.00625E+00 0.00000E+00
 -1      1990 8.07045E+01 3.09687E+00 0.00000E+00
 -1      1991 7.92045E+01 3.09687E+00 0.00000E+00
 -1      1992 7.90350E+01 4.00625E+00 0.00000E+00
 -1      1993 8.37045E+01 3.09687E+00 0.00000E+00
 -1      1994 8.22045E+01 3.09687E+00 0.00000E+00
 -1      1995 8.20350E+01 4.00625E+00 0.00000E+00
 -1      1996 8.67045E+01 3.09687E+00 0.00000E+00
 -1      1997 8.52045E+01 3.09687E+00 0.00000E+00
 -1      1998 8.50350E+01 4.00625E+00 0.00000E+00
 -1      1999 8.97045E+01 3.09687E+00 0.00000E+00
 -1      2000 8.82045E+01 3.09687E+00 0.00000E+00
 -1      2001 8.80350E+01 4.00625E+00 0.00000E+00
 -1      2002 9.27045E+01 3.09687E+00 0.00000E+00
 -1      2003 9.12045E+01 3.09687E+00 0.00000E+00
 -1      2004 9.10350E+01 4.00625E+00 0.00000E+00
 -1      2005 9.57045E+01 3.09687E+00 0.00000E+00
 -1      2006 9.42045E+01 3.09687E+00 0.00000E+00
 -1      2007 9.40350E+01 4.00625E+00 0.00000E+00
 -1      2008 9.87045E+01 3.09687E+00 0.00000E+00
 -1      2009 9.72045E+01 3.09687E+00 0.00000E+00
 -1      2010 9.70350E+01 4.00625E+00 0.00000E+00
 -1      2011 1.01704E+02 3.09687E+00 0.00000E+00
 -1      2012 1.00204E+02 3.09687E+00 0.00000E+00
 -1      2013 1.00035E+02 4.00625E+00 0.00000E+00
 -1      2014 1.04704E+02 3.09687E+00 0.00000E+00
 -1      2015 1.03204E+02 3.09687E+00 0.00000E+00
 -1      2016 1.03035E+02 4.00625E+00 0.00000E+00
 -1      2017 1.07704E+02 3.09687E+00 0.00000E+00
 -1      2018 1.06204E+02 3.09687E+00 0.00000E+00
 -1      2019 1.06035E+02 4.00625E+00 0.00000E+00
 -1      2020 1.10704E+02 3.09687E+00 0.00000E+00
 -1      2021 1.09204E+02 3.09687E+00 0.00000E+00
 -1      2022 1.09035E+02 4.00625E+00 0.00000E+00
 -1      2023 1.13704E+02 3.09687E+00 0.00000E+00
 -1      2024 1.12204E+02 3.09687E+00 0.00000E+00
 -1      2025 1.12035E+02 4.00625E+00 0.00000E+00
 -1      2026 1.16704E+02 3.09687E+00 0.00000E+00
 -1      2027 1.15204E+02 3.09687E+00 0.00000E+00
 -1      2028 1.15035E+02 4.00625E+00 0.00000E+00
 -1      2029 1.19704E+02 3.09687E+00 0.00000E+00
 -1      2030 1.18204E+02 3.09687E+00 0.00000E+00
 -1      2031 1.18035E+02 4.00625E+00 0.00000E+00
 -1      2032 1.22704E+02 3.09687E+00 0.00000E+00
 -1      2033 1.21204E+02 3.09687E+00 0.00000E+00
 -1      2034 1.21035E+02 4.00625E+00 0.00000E+00
 -1      2035 1.25704E+02 3.09687E+00 0.00000E+00
 -1      2036 1.24204E+02 3.09687E+00 0.00000E+00
 -1      2037 1.24035E+02 4.00625E+00 0.00000E+00
 -1      2038 1.28704E+02 3.09687E+00 0.00000E+00
 -1      2039 1.27204E+02 3.09687E+00 0.00000E+00
 -1      2040 1.27035E+02 4.00625E+00 0.00000E+00
 -1      2041 1.31704E+02 3.09687E+00 0.00000E+00
 -1      2042 1.30204E+02 3.09687E+00 0.00000E+00
 -1      2043 1.30035E+02 4.00625E+00 0.00000E+00
 -1      2044 1.34704E+02 3.09687E+00 0.00000E+00
 -1      2045 1.33204E+02 3.09687E+00 0.00000E+00
 -1      2046 1.33035E+02 4.00625E+00 0.00000E+00
 -1      2047 1.37704E+02 3.09687E+00 0.00000E+00
 -1      2048 1.36204E+02 3.09687E+00 0.00000E+00
 -1      2049 1.36035E+02 4.00625E+00 0.00000E+00
 -1      2050 1.40704E+02 3.09687E+00 0.00000E+00
 -1      2051 1.39204E+02 3.09687E+00 0.00000E+00
 -1      2052 1.39035E+02 4.00625E+00 0.00000E+00
 -1      2053 1.43704E+02 3.09687E+00 0.00000E+00
 -1      2054 1.42204E+02 3.09687E+00 0.00000E+00
 -1      2055 1.42035E+02 4.00625E+00 0.00000E+00
 -1      2056 1.46171E+02 3.20156E+00 0.00000E+00
 -1      2057 1.44671E+02 3.20156E+00 0.00000E+00
 -1      2058 1.44502E+02 4.11094E+00 0.00000E+00
 -1      2059 1.46435E+02 4.32031E+00 0.00000E+00
 -1      2060 1.46103E+02 1.25375E+01 0.00000E+00
 -1      2061 1.46103E+02 1.10625E+01 0.00000E+00
 -1      2062 1.46103E+02 9.58750E+00 0.00000E+00
 -1      2063 1.46103E+02 8.11250E+00 0.00000E+00
 -1      2064 1.44804E+02 1.03250E+01 0.00000E+00
 -1      2065 1.46269E+02 6.95391E+00 0.00000E+00
 -1      2066 1.46269E+02 5.47891E+00 0.00000E+00
 -1      2067 1.45302E+02 5.37422E+00 0.00000E+00
 -1      2068 1.44970E+02 7.69141E+00 0.00000E+00
 -1      2069 1.46103E+02 1.54375E+01 0.00000E+00
 -1      2070 1.46103E+02 1.39875E+01 0.00000E+00
 -1      2071 1.44804E+02 1.32500E+01 0.00000E+00
 -1      2072 1.46103E+02 1.83875E+01 0.00000E+00
 -1      2073 1.46103E+02 1.69125E+01 0.00000E+00
 -1      2074 1.44804E+02 1.61750E+01 0.00000E+00
 -1      2075 1.46103E+02 2.13375E+01 0.00000E+00
 -1      2076 1.46103E+02 1.98625E+01 0.00000E+00
 -1      2077 1.44804E+02 1.91250E+01 0.00000E+00
 -1      2078 1.46103E+02 2.42875E+01 0.00000E+00
 -1      2079 1.46103E+02 2.28125E+01 0.00000E+00
 -1      2080 1.44804E+02 2.20750E+01 0.00000E+00
 -1      2081 1.46103E+02 2.72375E+01 0.00000E+00
 -1      2082 1.46103E+02 2.57625E+01 0.00000E+00
 -1      2083 1.44804E+02 2.50250E+01 0.00000E+00
 -1      2084 1.46103E+02 3.01875E+01 0.00000E+00
 -1      2085 1.46103E+02 2.87125E+01 0.00000E+00
 -1      2086 1.44804E+02 2.79750E+01 0.00000E+00
 -1      2087 1.46103E+02 3.30875E+01 0.00000E+00
 -1      2088 1.46103E+02 3.16375E+01 0.00000E+00
 -1      2089 1.44804E+02 3.09000E+01 0.00000E+00
 -1      2090 1.46103E+02 3.60375E+01 0.00000E+00
 -1      2091 1.46103E+02 3.45625E+01 0.00000E+00
 -1      2092 1.44804E+02 3.38250E+01 0.00000E+00
 -1      2093 1.46103E+02 3.89875E+01 0.00000E+00
 -1      2094 1.46103E+02 3.75125E+01 0.00000E+00
 -1      2095 1.44804E+02 3.67750E+01 0.00000E+00
 -1      2096 1.46103E+02 4.19375E+01 0.00000E+00
 -1      2097 1.46103E+02 4.04625E+01 0.00000E+00
 -1      2098 1.44804E+02 3.97250E+01 0.00000E+00
 -1      2099 4.15134E+01 1.89095E+01 0.00000E+00
 -1      2100 4.18633E+01 1.96926E+01 0.00000E+00
 -1      2101 4.24137E+01 2.26225E+01 0.00000E+00
 -1      2102 4.23668E+01 2.35251E+01 0.00000E+00
 -1      2103 4.20887E+01 2.05423E+01 0.00000E+00
 -1      2104 4.23142E+01 2.13919E+01 0.00000E+00
 -1      2105 4.26968E+01 1.98009E+01 0.00000E+00
 -1      2106 4.05497E+01 1.74573E+01 0.00000E+00
 -1      2107 4.10315E+01 1.81834E+01 0.00000E+00
 -1      2108 4.19895E+01 1.82251E+01 0.00000E+00
 -1      2109 3.90427E+01 1.59742E+01 0.00000E+00
 -1      2110 3.97336E+01 1.65344E+01 0.00000E+00
 -1      2111 3.89700E+00 3.74688E+01 0.00000E+00
 -1      2112 3.89700E+00 3.89437E+01 0.00000E+00
 -1      2113 5.19600E+00 3.96813E+01 0.00000E+00
 -1      2114 5.19600E+00 3.67438E+01 0.00000E+00
 -1      2115 3.56502E+01 1.43462E+01 0.00000E+00
 -1      2116 3.64785E+01 1.46033E+01 0.00000E+00
 -1      2117 3.37817E+01 1.40948E+01 0.00000E+00
 -1      2118 3.46551E+01 1.42124E+01 0.00000E+00
 -1      2119 3.18201E+01 1.39649E+01 0.00000E+00
 -1      2120 3.27468E+01 1.39246E+01 0.00000E+00
 -1      2121 2.98374E+01 1.47860E+01 0.00000E+00
 -1      2122 3.06351E+01 1.43666E+01 0.00000E+00
 -1      2123 2.80358E+01 1.54674E+01 0.00000E+00
 -1      2124 2.89366E+01 1.51267E+01 0.00000E+00
 -1      2125 2.89754E+01 1.42321E+01 0.00000E+00
 -1      2126 2.66348E+01 1.72193E+01 0.00000E+00
 -1      2127 2.71548E+01 1.64010E+01 0.00000E+00
 -1      2128 2.57346E+01 1.87377E+01 0.00000E+00
 -1      2129 2.61827E+01 1.80168E+01 0.00000E+00
 -1      2130 2.49113E+01 2.03665E+01 0.00000E+00
 -1      2131 2.52865E+01 1.95658E+01 0.00000E+00
 -1      2132 2.44001E+01 2.23136E+01 0.00000E+00
 -1      2133 2.44359E+01 2.14423E+01 0.00000E+00
 -1      2134 2.42316E+01 2.41677E+01 0.00000E+00
 -1      2135 2.43159E+01 2.32406E+01 0.00000E+00
 -1      2136 2.34769E+01 2.27698E+01 0.00000E+00
 -1      2137 2.51331E+01 2.61768E+01 0.00000E+00
 -1      2138 2.47072E+01 2.53489E+01 0.00000E+00
 -1      2139 2.58996E+01 2.77404E+01 0.00000E+00
 -1      2140 2.54901E+01 2.70165E+01 0.00000E+00
 -1      2141 2.69920E+01 2.91665E+01 0.00000E+00
 -1      2142 2.64648E+01 2.85029E+01 0.00000E+00
 -1      2143 2.83886E+01 3.04454E+01 0.00000E+00
 -1      2144 2.77022E+01 2.98839E+01 0.00000E+00
 -1      2145 3.01327E+01 3.13936E+01 0.00000E+00
 -1      2146 2.93104E+01 3.11058E+01 0.00000E+00
 -1      2147 3.17906E+01 3.20089E+01 0.00000E+00
 -1      2148 3.09617E+01 3.17013E+01 0.00000E+00
 -1      2149 3.02810E+01 3.23272E+01 0.00000E+00
 -1      2150 3.39394E+01 3.20269E+01 0.00000E+00
 -1      2151 3.30072E+01 3.21114E+01 0.00000E+00
 -1      2152 3.58707E+01 3.17172E+01 0.00000E+00
 -1      2153 3.49412E+01 3.18890E+01 0.00000E+00
 -1      2154 3.77589E+01 3.07864E+01 0.00000E+00
 -1      2155 3.69670E+01 3.12609E+01 0.00000E+00
 -1      2156 3.93029E+01 2.97535E+01 0.00000E+00
 -1      2157 3.85309E+01 3.02700E+01 0.00000E+00
 -1      2158 3.85111E+01 3.11350E+01 0.00000E+00
 -1      2159 4.06952E+01 2.81402E+01 0.00000E+00
 -1      2160 4.01872E+01 2.89082E+01 0.00000E+00
 -1      2161 4.16297E+01 2.65709E+01 0.00000E+00
 -1      2162 4.11624E+01 2.73555E+01 0.00000E+00
 -1      2163 4.15189E+01 2.81433E+01 0.00000E+00
 -1      2164 4.21651E+01 2.45168E+01 0.00000E+00
 -1      2165 4.19955E+01 2.54392E+01 0.00000E+00
 -1      2166 3.73507E+01 1.50906E+01 0.00000E+00
 -1      2167 3.81302E+01 1.54827E+01 0.00000E+00
 -1      2168 6.42300E+00 4.57510E+01 0.00000E+00
 -1      2169 3.10612E+01 1.34897E+01 0.00000E+00
 -1      2170 3.71784E+01 1.41830E+01 0.00000E+00
 -1      2171 7.17300E+00 4.44520E+01 0.00000E+00
 -1      2172 4.30217E+01 2.18812E+01 0.00000E+00
 -1      2173 1.45665E+02 4.31193E+01 0.00000E+00
 -1      2174 4.06915E+01 1.65761E+01 0.00000E+00
 -1      2175 4.29194E+01 2.41035E+01 0.00000E+00
 -1      2176 3.89630E+01 1.51617E+01 0.00000E+00
 -1      2177 4.23519E+01 2.62269E+01 0.00000E+00
 -1      2178 4.27083E+01 2.70147E+01 0.00000E+00
 -1      2179 4.30741E+01 2.58830E+01 0.00000E+00
 -1      2180 4.01674E+01 2.97732E+01 0.00000E+00
 -1      2181 3.66429E+01 3.21077E+01 0.00000E+00
 -1      2182 3.23266E+01 3.27373E+01 0.00000E+00
 -1      2183 2.85303E+01 3.13591E+01 0.00000E+00
 -1      2184 2.68984E+01 2.99813E+01 0.00000E+00
 -1      2185 2.56230E+01 2.85014E+01 0.00000E+00
 -1      2186 2.38683E+01 2.48781E+01 0.00000E+00
 -1      2187 2.30293E+01 2.44072E+01 0.00000E+00
 -1      2188 2.35049E+01 2.55885E+01 0.00000E+00
 -1      2189 2.40366E+01 2.07670E+01 0.00000E+00
 -1      2190 2.49601E+01 1.88632E+01 0.00000E+00
 -1      2191 2.71935E+01 1.55064E+01 0.00000E+00
 -1      2192 2.72323E+01 1.46119E+01 0.00000E+00
 -1      2193 2.63512E+01 1.55455E+01 0.00000E+00
 -1      2194 3.53112E+01 1.35620E+01 0.00000E+00
 -1      2195 3.32812E+01 1.32581E+01 0.00000E+00
 -1      2196 2.58603E+01 1.72376E+01 0.00000E+00
 -1      2197 2.47009E+01 2.68991E+01 0.00000E+00
 -1      2198 3.45449E+01 3.27019E+01 0.00000E+00
 -1      2199 1.07850E+01 5.30525E+00 0.00000E+00
 -1      2200 9.28500E+00 5.30525E+00 0.00000E+00
 -1      2201 6.49500E+00 3.01125E+01 0.00000E+00
 -1      2202 6.49500E+00 3.15875E+01 0.00000E+00
 -1      2203 6.49500E+00 3.30625E+01 0.00000E+00
 -1      2204 6.49500E+00 3.45375E+01 0.00000E+00
 -1      2205 7.79400E+00 3.23250E+01 0.00000E+00
 -1      2206 6.49500E+00 2.42125E+01 0.00000E+00
 -1      2207 6.49500E+00 2.56875E+01 0.00000E+00
 -1      2208 6.49500E+00 2.12625E+01 0.00000E+00
 -1      2209 6.49500E+00 2.27375E+01 0.00000E+00
 -1      2210 7.79400E+00 2.34750E+01 0.00000E+00
 -1      2211 6.49500E+00 1.83625E+01 0.00000E+00
 -1      2212 6.49500E+00 1.98125E+01 0.00000E+00
 -1      2213 7.79400E+00 2.05500E+01 0.00000E+00
 -1      2214 6.49500E+00 1.54125E+01 0.00000E+00
 -1      2215 6.49500E+00 1.68875E+01 0.00000E+00
 -1      2216 7.79400E+00 1.76250E+01 0.00000E+00
 -1      2217 6.49500E+00 1.24625E+01 0.00000E+00
 -1      2218 6.49500E+00 1.39375E+01 0.00000E+00
 -1      2219 7.79400E+00 1.46750E+01 0.00000E+00
 -1      2220 6.49500E+00 9.51250E+00 0.00000E+00
 -1      2221 6.49500E+00 1.09875E+01 0.00000E+00
 -1      2222 7.79400E+00 1.17250E+01 0.00000E+00
 -1      2223 1.37850E+01 5.30525E+00 0.00000E+00
 -1      2224 1.22850E+01 5.30525E+00 0.00000E+00
 -1      2225 1.15350E+01 6.60425E+00 0.00000E+00
 -1      2226 9.90000E+00 4.35050E+01 0.00000E+00
 -1      2227 1.14000E+01 4.35050E+01 0.00000E+00
 -1      2228 3.01396E+01 1.27197E+01 0.00000E+00
 -1      2229 3.13246E+01 1.23180E+01 0.00000E+00
 -1      2230 1.29000E+01 4.35050E+01 0.00000E+00
 -1      2231 1.44000E+01 4.35050E+01 0.00000E+00
 -1      2232 1.21500E+01 4.22060E+01 0.00000E+00
 -1      2233 1.59000E+01 4.35050E+01 0.00000E+00
 -1      2234 1.74000E+01 4.35050E+01 0.00000E+00
 -1      2235 1.51500E+01 4.22060E+01 0.00000E+00
 -1      2236 1.89000E+01 4.35050E+01 0.00000E+00
 -1      2237 2.04000E+01 4.35050E+01 0.00000E+00
 -1      2238 1.81500E+01 4.22060E+01 0.00000E+00
 -1      2239 2.19000E+01 4.35050E+01 0.00000E+00
 -1      2240 2.34000E+01 4.35050E+01 0.00000E+00
 -1      2241 2.11500E+01 4.22060E+01 0.00000E+00
 -1      2242 2.49000E+01 4.35050E+01 0.00000E+00
 -1      2243 2.64000E+01 4.35050E+01 0.00000E+00
 -1      2244 2.41500E+01 4.22060E+01 0.00000E+00
 -1      2245 2.79000E+01 4.35050E+01 0.00000E+00
 -1      2246 2.94000E+01 4.35050E+01 0.00000E+00
 -1      2247 2.71500E+01 4.22060E+01 0.00000E+00
 -1      2248 3.09000E+01 4.35050E+01 0.00000E+00
 -1      2249 3.24000E+01 4.35050E+01 0.00000E+00
 -1      2250 3.01500E+01 4.22060E+01 0.00000E+00
 -1      2251 3.39000E+01 4.35050E+01 0.00000E+00
 -1      2252 3.54000E+01 4.35050E+01 0.00000E+00
 -1      2253 3.31500E+01 4.22060E+01 0.00000E+00
 -1      2254 3.69000E+01 4.35050E+01 0.00000E+00
 -1      2255 3.84000E+01 4.35050E+01 0.00000E+00
 -1      2256 3.61500E+01 4.22060E+01 0.00000E+00
 -1      2257 3.99000E+01 4.35050E+01 0.00000E+00
 -1      2258 4.14000E+01 4.35050E+01 0.00000E+00
 -1      2259 3.91500E+01 4.22060E+01 0.00000E+00
 -1      2260 4.29000E+01 4.35050E+01 0.00000E+00
 -1      2261 4.44000E+01 4.35050E+01 0.00000E+00
 -1      2262 4.21500E+01 4.22060E+01 0.00000E+00
 -1      2263 4.59000E+01 4.35050E+01 0.00000E+00
 -1      2264 4.74000E+01 4.35050E+01 0.00000E+00
 -1      2265 4.51500E+01 4.22060E+01 0.00000E+00
 -1      2266 4.89000E+01 4.35050E+01 0.00000E+00
 -1      2267 5.04000E+01 4.35050E+01 0.00000E+00
 -1      2268 4.81500E+01 4.22060E+01 0.00000E+00
 -1      2269 5.19000E+01 4.35050E+01 0.00000E+00
 -1      2270 5.34000E+01 4.35050E+01 0.00000E+00
 -1      2271 5.11500E+01 4.22060E+01 0.00000E+00
 -1      2272 5.49000E+01 4.35050E+01 0.00000E+00
 -1      2273 5.64000E+01 4.35050E+01 0.00000E+00
 -1      2274 5.41500E+01 4.22060E+01 0.00000E+00
 -1      2275 5.79000E+01 4.35050E+01 0.00000E+00
 -1      2276 5.94000E+01 4.35050E+01 0.00000E+00
 -1      2277 5.71500E+01 4.22060E+01 0.00000E+00
 -1      2278 6.09000E+01 4.35050E+01 0.00000E+00
 -1      2279 6.24000E+01 4.35050E+01 0.00000E+00
 -1      2280 6.01500E+01 4.22060E+01 0.00000E+00
 -1      2281 6.39000E+01 4.35050E+01 0.00000E+00
 -1      2282 6.54000E+01 4.35050E+01 0.00000E+00
 -1      2283 6.31500E+01 4.22060E+01 0.00000E+00
 -1      2284 6.69000E+01 4.35050E+01 0.00000E+00
 -1      2285 6.84000E+01 4.35050E+01 0.00000E+00
 -1      2286 6.61500E+01 4.22060E+01 0.00000E+00
 -1      2287 6.99000E+01 4.35050E+01 0.00000E+00
 -1      2288 7.14000E+01 4.35050E+01 0.00000E+00
 -1      2289 6.91500E+01 4.22060E+01 0.00000E+00
 -1      2290 7.29000E+01 4.35050E+01 0.00000E+00
 -1      2291 7.44000E+01 4.35050E+01 0.00000E+00
 -1      2292 7.21500E+01 4.22060E+01 0.00000E+00
 -1      2293 7.59000E+01 4.35050E+01 0.00000E+00
 -1      2294 7.74000E+01 4.35050E+01 0.00000E+00
 -1      2295 7.51500E+01 4.22060E+01 0.00000E+00
 -1      2296 7.89000E+01 4.35050E+01 0.00000E+00
 -1      2297 8.04000E+01 4.35050E+01 0.00000E+00
 -1      2298 7.81500E+01 4.22060E+01 0.00000E+00
 -1      2299 8.19000E+01 4.35050E+01 0.00000E+00
 -1      2300 8.34000E+01 4.35050E+01 0.00000E+00
 -1      2301 8.11500E+01 4.22060E+01 0.00000E+00
 -1      2302 8.49000E+01 4.35050E+01 0.00000E+00
 -1      2303 8.64000E+01 4.35050E+01 0.00000E+00
 -1      2304 8.41500E+01 4.22060E+01 0.00000E+00
 -1      2305 8.79000E+01 4.35050E+01 0.00000E+00
 -1      2306 8.94000E+01 4.35050E+01 0.00000E+00
 -1      2307 8.71500E+01 4.22060E+01 0.00000E+00
 -1      2308 9.09000E+01 4.35050E+01 0.00000E+00
 -1      2309 9.24000E+01 4.35050E+01 0.00000E+00
 -1      2310 9.01500E+01 4.22060E+01 0.00000E+00
 -1      2311 9.39000E+01 4.35050E+01 0.00000E+00
 -1      2312 9.54000E+01 4.35050E+01 0.00000E+00
 -1      2313 9.31500E+01 4.22060E+01 0.00000E+00
 -1      2314 9.69000E+01 4.35050E+01 0.00000E+00
 -1      2315 9.84000E+01 4.35050E+01 0.00000E+00
 -1      2316 9.61500E+01 4.22060E+01 0.00000E+00
 -1      2317 9.99000E+01 4.35050E+01 0.00000E+00
 -1      2318 1.01400E+02 4.35050E+01 0.00000E+00
 -1      2319 9.91500E+01 4.22060E+01 0.00000E+00
 -1      2320 1.02900E+02 4.35050E+01 0.00000E+00
 -1      2321 1.04400E+02 4.35050E+01 0.00000E+00
 -1      2322 1.02150E+02 4.22060E+01 0.00000E+00
 -1      2323 1.05900E+02 4.35050E+01 0.00000E+00
 -1      2324 1.07400E+02 4.35050E+01 0.00000E+00
 -1      2325 1.05150E+02 4.22060E+01 0.00000E+00
 -1      2326 1.08900E+02 4.35050E+01 0.00000E+00
 -1      2327 1.10400E+02 4.35050E+01 0.00000E+00
 -1      2328 1.08150E+02 4.22060E+01 0.00000E+00
 -1      2329 1.11900E+02 4.35050E+01 0.00000E+00
 -1      2330 1.13400E+02 4.35050E+01 0.00000E+00
 -1      2331 1.11150E+02 4.22060E+01 0.00000E+00
 -1      2332 1.14900E+02 4.35050E+01 0.00000E+00
 -1      2333 1.16400E+02 4.35050E+01 0.00000E+00
 -1      2334 1.14150E+02 4.22060E+01 0.00000E+00
 -1      2335 1.17900E+02 4.35050E+01 0.00000E+00
 -1      2336 1.19400E+02 4.35050E+01 0.00000E+00
 -1      2337 1.17150E+02 4.22060E+01 0.00000E+00
 -1      2338 1.20900E+02 4.35050E+01 0.00000E+00
 -1      2339 1.22400E+02 4.35050E+01 0.00000E+00
 -1      2340 1.20150E+02 4.22060E+01 0.00000E+00
 -1      2341 1.23900E+02 4.35050E+01 0.00000E+00
 -1      2342 1.25400E+02 4.35050E+01 0.00000E+00
 -1      2343 1.23150E+02 4.22060E+01 0.00000E+00
 -1      2344 1.26900E+02 4.35050E+01 0.00000E+00
 -1      2345 1.28400E+02 4.35050E+01 0.00000E+00
 -1      2346 1.26150E+02 4.22060E+01 0.00000E+00
 -1      2347 1.29900E+02 4.35050E+01 0.00000E+00
 -1      2348 1.31400E+02 4.35050E+01 0.00000E+00
 -1      2349 1.29150E+02 4.22060E+01 0.00000E+00
 -1      2350 1.32900E+02 4.35050E+01 0.00000E+00
 -1      2351 1.34400E+02 4.35050E+01 0.00000E+00
 -1      2352 1.32150E+02 4.22060E+01 0.00000E+00
 -1      2353 1.35900E+02 4.35050E+01 0.00000E+00
 -1      2354 1.37400E+02 4.35050E+01 0.00000E+00
 -1      2355 1.35150E+02 4.22060E+01 0.00000E+00
 -1      2356 1.38900E+02 4.35050E+01 0.00000E+00
 -1      2357 1.40400E+02 4.35050E+01 0.00000E+00
 -1      2358 1.38150E+02 4.22060E+01 0.00000E+00
 -1      2359 4.34129E+01 1.91561E+01 0.00000E+00
 -1      2360 4.36384E+01 2.00058E+01 0.00000E+00
 -1      2361 1.97850E+01 5.30525E+00 0.00000E+00
 -1      2362 1.82850E+01 5.30525E+00 0.00000E+00
 -1      2363 2.27850E+01 5.30525E+00 0.00000E+00
 -1      2364 2.12850E+01 5.30525E+00 0.00000E+00
 -1      2365 2.05350E+01 6.60425E+00 0.00000E+00
 -1      2366 2.57850E+01 5.30525E+00 0.00000E+00
 -1      2367 2.42850E+01 5.30525E+00 0.00000E+00
 -1      2368 2.35350E+01 6.60425E+00 0.00000E+00
 -1      2369 2.87850E+01 5.30525E+00 0.00000E+00
 -1      2370 2.72850E+01 5.30525E+00 0.00000E+00
 -1      2371 2.65350E+01 6.60425E+00 0.00000E+00
 -1      2372 3.17850E+01 5.30525E+00 0.00000E+00
 -1      2373 3.02850E+01 5.30525E+00 0.00000E+00
 -1      2374 2.95350E+01 6.60425E+00 0.00000E+00
 -1      2375 3.47850E+01 5.30525E+00 0.00000E+00
 -1      2376 3.32850E+01 5.30525E+00 0.00000E+00
 -1      2377 3.25350E+01 6.60425E+00 0.00000E+00
 -1      2378 3.77850E+01 5.30525E+00 0.00000E+00
 -1      2379 3.62850E+01 5.30525E+00 0.00000E+00
 -1      2380 3.55350E+01 6.60425E+00 0.00000E+00
 -1      2381 4.07850E+01 5.30525E+00 0.00000E+00
 -1      2382 3.92850E+01 5.30525E+00 0.00000E+00
 -1      2383 3.85350E+01 6.60425E+00 0.00000E+00
 -1      2384 4.37850E+01 5.30525E+00 0.00000E+00
 -1      2385 4.22850E+01 5.30525E+00 0.00000E+00
 -1      2386 4.15350E+01 6.60425E+00 0.00000E+00
 -1      2387 4.67850E+01 5.30525E+00 0.00000E+00
 -1      2388 4.52850E+01 5.30525E+00 0.00000E+00
 -1      2389 4.45350E+01 6.60425E+00 0.00000E+00
 -1      2390 4.97850E+01 5.30525E+00 0.00000E+00
 -1      2391 4.82850E+01 5.30525E+00 0.00000E+00
 -1      2392 4.75350E+01 6.60425E+00 0.00000E+00
 -1      2393 5.27850E+01 5.30525E+00 0.00000E+00
 -1      2394 5.12850E+01 5.30525E+00 0.00000E+00
 -1      2395 5.05350E+01 6.60425E+00 0.00000E+00
 -1      2396 5.57850E+01 5.30525E+00 0.00000E+00
 -1      2397 5.42850E+01 5.30525E+00 0.00000E+00
 -1      2398 5.35350E+01 6.60425E+00 0.00000E+00
 -1      2399 5.87850E+01 5.30525E+00 0.00000E+00
 -1      2400 5.72850E+01 5.30525E+00 0.00000E+00
 -1      2401 5.65350E+01 6.60425E+00 0.00000E+00
 -1      2402 6.17850E+01 5.30525E+00 0.00000E+00
 -1      2403 6.02850E+01 5.30525E+00 0.00000E+00
 -1      2404 5.95350E+01 6.60425E+00 0.00000E+00
 -1      2405 6.47850E+01 5.30525E+00 0.00000E+00
 -1      2406 6.32850E+01 5.30525E+00 0.00000E+00
 -1      2407 6.25350E+01 6.60425E+00 0.00000E+00
 -1      2408 6.77850E+01 5.30525E+00 0.00000E+00
 -1      2409 6.62850E+01 5.30525E+00 0.00000E+00
 -1      2410 6.55350E+01 6.60425E+00 0.00000E+00
 -1      2411 7.07850E+01 5.30525E+00 0.00000E+00
 -1      2412 6.92850E+01 5.30525E+00 0.00000E+00
 -1      2413 6.85350E+01 6.60425E+00 0.00000E+00
 -1      2414 7.37850E+01 5.30525E+00 0.00000E+00
 -1      2415 7.22850E+01 5.30525E+00 0.00000E+00
 -1      2416 7.15350E+01 6.60425E+00 0.00000E+00
 -1      2417 7.67850E+01 5.30525E+00 0.00000E+00
 -1      2418 7.52850E+01 5.30525E+00 0.00000E+00
 -1      2419 7.45350E+01 6.60425E+00 0.00000E+00
 -1      2420 7.97850E+01 5.30525E+00 0.00000E+00
 -1      2421 7.82850E+01 5.30525E+00 0.00000E+00
 -1      2422 7.75350E+01 6.60425E+00 0.00000E+00
 -1      2423 8.27850E+01 5.30525E+00 0.00000E+00
 -1      2424 8.12850E+01 5.30525E+00 0.00000E+00
 -1      2425 8.05350E+01 6.60425E+00 0.00000E+00
 -1      2426 8.57850E+01 5.30525E+00 0.00000E+00
 -1      2427 8.42850E+01 5.30525E+00 0.00000E+00
 -1      2428 8.35350E+01 6.60425E+00 0.00000E+00
 -1      2429 8.87850E+01 5.30525E+00 0.00000E+00
 -1      2430 8.72850E+01 5.30525E+00 0.00000E+00
 -1      2431 8.65350E+01 6.60425E+00 0.00000E+00
 -1      2432 9.17850E+01 5.30525E+00 0.00000E+00
 -1      2433 9.02850E+01 5.30525E+00 0.00000E+00
 -1      2434 8.95350E+01 6.60425E+00 0.00000E+00
 -1      2435 9.47850E+01 5.30525E+00 0.00000E+00
 -1      2436 9.32850E+01 5.30525E+00 0.00000E+00
 -1      2437 9.25350E+01 6.60425E+00 0.00000E+00
 -1      2438 9.77850E+01 5.30525E+00 0.00000E+00
 -1      2439 9.62850E+01 5.30525E+00 0.00000E+00
 -1      2440 9.55350E+01 6.60425E+00 0.00000E+00
 -1      2441 1.00785E+02 5.30525E+00 0.00000E+00
 -1      2442 9.92850E+01 5.30525E+00 0.00000E+00
 -1      2443 9.85350E+01 6.60425E+00 0.00000E+00
 -1      2444 1.03785E+02 5.30525E+00 0.00000E+00
 -1      2445 1.02285E+02 5.30525E+00 0.00000E+00
 -1      2446 1.01535E+02 6.60425E+00 0.00000E+00
 -1      2447 1.06785E+02 5.30525E+00 0.00000E+00
 -1      2448 1.05285E+02 5.30525E+00 0.00000E+00
 -1      2449 1.04535E+02 6.60425E+00 0.00000E+00
 -1      2450 1.09785E+02 5.30525E+00 0.00000E+00
 -1      2451 1.08285E+02 5.30525E+00 0.00000E+00
 -1      2452 1.07535E+02 6.60425E+00 0.00000E+00
 -1      2453 1.12785E+02 5.30525E+00 0.00000E+00
 -1      2454 1.11285E+02 5.30525E+00 0.00000E+00
 -1      2455 1.10535E+02 6.60425E+00 0.00000E+00
 -1      2456 1.15785E+02 5.30525E+00 0.00000E+00
 -1      2457 1.14285E+02 5.30525E+00 0.00000E+00
 -1      2458 1.13535E+02 6.60425E+00 0.00000E+00
 -1      2459 1.18785E+02 5.30525E+00 0.00000E+00
 -1      2460 1.17285E+02 5.30525E+00 0.00000E+00
 -1      2461 1.16535E+02 6.60425E+00 0.00000E+00
 -1      2462 1.21785E+02 5.30525E+00 0.00000E+00
 -1      2463 1.20285E+02 5.30525E+00 0.00000E+00
 -1      2464 1.19535E+02 6.60425E+00 0.00000E+00
 -1      2465 1.24785E+02 5.30525E+00 0.00000E+00
 -1      2466 1.23285E+02 5.30525E+00 0.00000E+00
 -1      2467 1.22535E+02 6.60425E+00 0.00000E+00
 -1      2468 1.27785E+02 5.30525E+00 0.00000E+00
 -1      2469 1.26285E+02 5.30525E+00 0.00000E+00
 -1      2470 1.25535E+02 6.60425E+00 0.00000E+00
 -1      2471 1.30785E+02 5.30525E+00 0.00000E+00
 -1      2472 1.29285E+02 5.30525E+00 0.00000E+00
 -1      2473 1.28535E+02 6.60425E+00 0.00000E+00
 -1      2474 1.33785E+02 5.30525E+00 0.00000E+00
 -1      2475 1.32285E+02 5.30525E+00 0.00000E+00
 -1      2476 1.31535E+02 6.60425E+00 0.00000E+00
 -1      2477 1.36785E+02 5.30525E+00 0.00000E+00
 -1      2478 1.35285E+02 5.30525E+00 0.00000E+00
 -1      2479 1.34535E+02 6.60425E+00 0.00000E+00
 -1      2480 1.39785E+02 5.30525E+00 0.00000E+00
 -1      2481 1.38285E+02 5.30525E+00 0.00000E+00
 -1      2482 1.37535E+02 6.60425E+00 0.00000E+00
 -1      2483 1.42785E+02 5.30525E+00 0.00000E+00
 -1      2484 1.41285E+02 5.30525E+00 0.00000E+00
 -1      2485 1.40535E+02 6.60425E+00 0.00000E+00
 -1      2486 1.44336E+02 5.26953E+00 0.00000E+00
 -1      2487 1.43505E+02 1.69125E+01 0.00000E+00
 -1      2488 1.43505E+02 1.54375E+01 0.00000E+00
 -1      2489 1.43505E+02 1.98625E+01 0.00000E+00
 -1      2490 1.43505E+02 1.83875E+01 0.00000E+00
 -1      2491 1.42206E+02 1.76500E+01 0.00000E+00
 -1      2492 1.43505E+02 1.10625E+01 0.00000E+00
 -1      2493 1.43505E+02 9.58750E+00 0.00000E+00
 -1      2494 1.43505E+02 1.39750E+01 0.00000E+00
 -1      2495 1.43505E+02 1.25250E+01 0.00000E+00
 -1      2496 1.42206E+02 1.17875E+01 0.00000E+00
 -1      2497 1.42206E+02 1.47125E+01 0.00000E+00
 -1      2498 1.43505E+02 2.28125E+01 0.00000E+00
 -1      2499 1.43505E+02 2.13375E+01 0.00000E+00
 -1      2500 1.42206E+02 2.06000E+01 0.00000E+00
 -1      2501 1.43505E+02 2.57625E+01 0.00000E+00
 -1      2502 1.43505E+02 2.42875E+01 0.00000E+00
 -1      2503 1.42206E+02 2.35500E+01 0.00000E+00
 -1      2504 1.43505E+02 2.87125E+01 0.00000E+00
 -1      2505 1.43505E+02 2.72375E+01 0.00000E+00
 -1      2506 1.42206E+02 2.65000E+01 0.00000E+00
 -1      2507 1.43505E+02 3.16125E+01 0.00000E+00
 -1      2508 1.43505E+02 3.01625E+01 0.00000E+00
 -1      2509 1.42206E+02 2.94250E+01 0.00000E+00
 -1      2510 1.43505E+02 3.45625E+01 0.00000E+00
 -1      2511 1.43505E+02 3.30875E+01 0.00000E+00
 -1      2512 1.42206E+02 3.23500E+01 0.00000E+00
 -1      2513 1.43505E+02 3.75125E+01 0.00000E+00
 -1      2514 1.43505E+02 3.60375E+01 0.00000E+00
 -1      2515 1.42206E+02 3.53000E+01 0.00000E+00
 -1      2516 1.43505E+02 4.04625E+01 0.00000E+00
 -1      2517 1.43505E+02 3.89875E+01 0.00000E+00
 -1      2518 1.42206E+02 3.82500E+01 0.00000E+00
 -1      2519 4.23933E+01 1.74343E+01 0.00000E+00
 -1      2520 4.28751E+01 1.81604E+01 0.00000E+00
 -1      2521 4.09887E+01 1.54911E+01 0.00000E+00
 -1      2522 4.18048E+01 1.64140E+01 0.00000E+00
 -1      2523 1.67850E+01 5.30525E+00 0.00000E+00
 -1      2524 1.52850E+01 5.30525E+00 0.00000E+00
 -1      2525 1.75350E+01 6.60425E+00 0.00000E+00
 -1      2526 1.44321E+02 4.30606E+01 0.00000E+00
 -1      2527 4.37785E+01 2.37619E+01 0.00000E+00
 -1      2528 4.35768E+01 2.47536E+01 0.00000E+00
 -1      2529 6.55950E+00 4.28890E+01 0.00000E+00
 -1      2530 8.53650E+00 4.32410E+01 0.00000E+00
 -1      2531 9.28650E+00 4.19420E+01 0.00000E+00
 -1      2532 6.55950E+00 4.14140E+01 0.00000E+00
 -1      2533 3.75205E+01 3.26713E+01 0.00000E+00
 -1      2534 3.64242E+01 3.31276E+01 0.00000E+00
 -1      2535 2.84918E+01 3.23865E+01 0.00000E+00
 -1      2536 2.75700E+01 3.17260E+01 0.00000E+00
 -1      2537 2.29379E+01 2.09244E+01 0.00000E+00
 -1      2538 2.34133E+01 1.98486E+01 0.00000E+00
 -1      2539 3.49223E+01 1.26868E+01 0.00000E+00
 -1      2540 3.59174E+01 1.28205E+01 0.00000E+00
 -1      2541 6.49500E+00 2.71625E+01 0.00000E+00
 -1      2542 6.49500E+00 2.86375E+01 0.00000E+00
 -1      2543 7.79400E+00 2.93750E+01 0.00000E+00
 -1      2544 7.79400E+00 2.64250E+01 0.00000E+00
 -1      2545 3.28525E+01 1.23465E+01 0.00000E+00
 -1      2546 3.38874E+01 1.25166E+01 0.00000E+00
 -1      2547 3.44936E+01 1.17751E+01 0.00000E+00
 -1      2548 2.49612E+01 1.72548E+01 0.00000E+00
 -1      2549 2.54133E+01 1.64573E+01 0.00000E+00
 -1      2550 3.72014E+01 1.31176E+01 0.00000E+00
 -1      2551 3.80735E+01 1.36048E+01 0.00000E+00
 -1      2552 2.83380E+01 1.34011E+01 0.00000E+00
 -1      2553 2.92388E+01 1.30604E+01 0.00000E+00
 -1      2554 2.95022E+01 1.18887E+01 0.00000E+00
 -1      2555 2.40902E+01 2.76545E+01 0.00000E+00
 -1      2556 2.37332E+01 2.68147E+01 0.00000E+00
 -1      2557 2.40649E+01 1.89109E+01 0.00000E+00
 -1      2558 2.45130E+01 1.80828E+01 0.00000E+00
 -1      2559 2.40660E+01 1.73025E+01 0.00000E+00
 -1      2560 2.27059E+01 2.31671E+01 0.00000E+00
 -1      2561 2.27902E+01 2.22400E+01 0.00000E+00
 -1      2562 3.51398E+01 3.33165E+01 0.00000E+00
 -1      2563 3.41381E+01 3.34543E+01 0.00000E+00
 -1      2564 2.51493E+01 2.94432E+01 0.00000E+00
 -1      2565 2.45842E+01 2.86806E+01 0.00000E+00
 -1      2566 2.65697E+01 3.08779E+01 0.00000E+00
 -1      2567 2.58595E+01 3.01606E+01 0.00000E+00
 -1      2568 2.48206E+01 3.03398E+01 0.00000E+00
 -1      2569 3.03971E+01 3.32850E+01 0.00000E+00
 -1      2570 2.95682E+01 3.29774E+01 0.00000E+00
 -1      2571 3.28699E+01 3.35596E+01 0.00000E+00
 -1      2572 3.16534E+01 3.34572E+01 0.00000E+00
 -1      2573 3.93740E+01 3.15896E+01 0.00000E+00
 -1      2574 3.86020E+01 3.21060E+01 0.00000E+00
 -1      2575 4.11442E+01 2.99099E+01 0.00000E+00
 -1      2576 4.02599E+01 3.07552E+01 0.00000E+00
 -1      2577 4.24173E+01 2.81469E+01 0.00000E+00
 -1      2578 4.19500E+01 2.89315E+01 0.00000E+00
 -1      2579 3.89860E+01 1.40963E+01 0.00000E+00
 -1      2580 3.98985E+01 1.45878E+01 0.00000E+00
 -1      2581 3.90091E+01 1.30309E+01 0.00000E+00
 -1      2582 8.07525E+00 5.11044E+00 0.00000E+00
 -1      2583 6.57525E+00 5.11044E+00 0.00000E+00
 -1      2584 6.40575E+00 6.01981E+00 0.00000E+00
 -1      2585 8.82525E+00 6.40944E+00 0.00000E+00
 -1      2586 4.39938E+01 2.11833E+01 0.00000E+00
 -1      2587 4.40932E+01 2.24139E+01 0.00000E+00
 -1      2588 7.79400E+00 3.52687E+01 0.00000E+00
 -1      2589 6.49500E+00 3.60062E+01 0.00000E+00
 -1      2590 6.49500E+00 3.74750E+01 0.00000E+00
 -1      2591 1.45350E+01 6.60425E+00 0.00000E+00
 -1      2592 6.40575E+00 7.49481E+00 0.00000E+00
 -1      2593 4.47099E+01 2.05385E+01 0.00000E+00
 -1      2594 4.31395E+01 2.78029E+01 0.00000E+00
 -1      2595 4.20426E+01 2.99135E+01 0.00000E+00
 -1      2596 3.83833E+01 3.31259E+01 0.00000E+00
 -1      2597 3.19308E+01 1.15765E+01 0.00000E+00
 -1      2598 4.03508E+01 3.17262E+01 0.00000E+00
 -1      2599 3.34649E+01 3.41742E+01 0.00000E+00
 -1      2600 4.39332E+01 2.55413E+01 0.00000E+00
 -1      2601 4.38167E+01 1.83652E+01 0.00000E+00
 -1      2602 1.42758E+02 4.35929E+01 0.00000E+00
 -1      2603 1.43241E+02 4.17323E+01 0.00000E+00
 -1      2604 1.41942E+02 4.09948E+01 0.00000E+00
 -1      2605 1.41414E+02 4.35342E+01 0.00000E+00
 -1      2606 1.43586E+02 6.56853E+00 0.00000E+00
 -1      2607 4.10117E+01 1.44257E+01 0.00000E+00
 -1      2608 1.43419E+02 7.72713E+00 0.00000E+00
 -1      2609 2.65311E+01 3.19053E+01 0.00000E+00
 -1      2610 4.26904E+01 1.63492E+01 0.00000E+00
 -1      2611 2.86078E+01 3.33443E+01 0.00000E+00
 -1      2612 3.60175E+01 3.38801E+01 0.00000E+00
 -1      2613 7.70475E+00 8.23231E+00 0.00000E+00
 -1      2614 6.55950E+00 3.99453E+01 0.00000E+00
 -1      2615 2.29662E+01 1.90682E+01 0.00000E+00
 -1      2616 4.47506E+01 2.30640E+01 0.00000E+00
 -1      2617 2.74957E+01 1.34402E+01 0.00000E+00
 -1      2618 2.77591E+01 1.22684E+01 0.00000E+00
 -1      2619 2.66534E+01 1.34792E+01 0.00000E+00
 -1      2620 2.45528E+01 1.55799E+01 0.00000E+00
 -1      2621 2.54520E+01 1.55627E+01 0.00000E+00
 -1      2622 2.54907E+01 1.46681E+01 0.00000E+00
 -1      2623 2.21669E+01 2.13216E+01 0.00000E+00
 -1      2624 2.28942E+01 2.63439E+01 0.00000E+00
 -1      2625 3.68125E+01 1.22423E+01 0.00000E+00
 -1      2626 2.36165E+01 2.85963E+01 0.00000E+00
 -1      2627 2.23426E+01 2.38775E+01 0.00000E+00
 -1      2628 2.16558E+01 2.33477E+01 0.00000E+00
 -1      2629 2.19792E+01 2.45879E+01 0.00000E+00
 -1      2630 3.09405E+01 3.41073E+01 0.00000E+00
 -1      2631 1.42120E+02 8.46463E+00 0.00000E+00
 -1      2632 1.40664E+02 4.22352E+01 0.00000E+00
 -1      2633 3.41152E+01 1.08439E+01 0.00000E+00
 -1      2634 3.51501E+01 1.10140E+01 0.00000E+00
 -1      2635 9.09300E+00 1.98250E+01 0.00000E+00
 -1      2636 9.09300E+00 2.12750E+01 0.00000E+00
 -1      2637 9.09300E+00 2.27500E+01 0.00000E+00
 -1      2638 9.09300E+00 2.42250E+01 0.00000E+00
 -1      2639 1.03920E+01 2.20250E+01 0.00000E+00
 -1      2640 9.09300E+00 1.39375E+01 0.00000E+00
 -1      2641 9.09300E+00 1.54125E+01 0.00000E+00
 -1      2642 9.09300E+00 1.09875E+01 0.00000E+00
 -1      2643 9.09300E+00 1.24625E+01 0.00000E+00
 -1      2644 1.03920E+01 1.32000E+01 0.00000E+00
 -1      2645 1.22850E+01 7.90325E+00 0.00000E+00
 -1      2646 1.07850E+01 7.90325E+00 0.00000E+00
 -1      2647 7.85850E+00 3.92077E+01 0.00000E+00
 -1      2648 1.52850E+01 7.90325E+00 0.00000E+00
 -1      2649 1.37850E+01 7.90325E+00 0.00000E+00
 -1      2650 1.30350E+01 9.20225E+00 0.00000E+00
 -1      2651 1.44000E+01 4.09070E+01 0.00000E+00
 -1      2652 1.59000E+01 4.09070E+01 0.00000E+00
 -1      2653 1.74000E+01 4.09070E+01 0.00000E+00
 -1      2654 1.89000E+01 4.09070E+01 0.00000E+00
 -1      2655 1.66500E+01 3.96080E+01 0.00000E+00
 -1      2656 2.04000E+01 4.09070E+01 0.00000E+00
 -1      2657 2.19000E+01 4.09070E+01 0.00000E+00
 -1      2658 1.96500E+01 3.96080E+01 0.00000E+00
 -1      2659 2.34000E+01 4.09070E+01 0.00000E+00
 -1      2660 2.49000E+01 4.09070E+01 0.00000E+00
 -1      2661 2.26500E+01 3.96080E+01 0.00000E+00
 -1      2662 2.64000E+01 4.09070E+01 0.00000E+00
 -1      2663 2.79000E+01 4.09070E+01 0.00000E+00
 -1      2664 2.56500E+01 3.96080E+01 0.00000E+00
 -1      2665 2.94000E+01 4.09070E+01 0.00000E+00
 -1      2666 3.09000E+01 4.09070E+01 0.00000E+00
 -1      2667 2.86500E+01 3.96080E+01 0.00000E+00
 -1      2668 3.24000E+01 4.09070E+01 0.00000E+00
 -1      2669 3.39000E+01 4.09070E+01 0.00000E+00
 -1      2670 3.16500E+01 3.96080E+01 0.00000E+00
 -1      2671 3.54000E+01 4.09070E+01 0.00000E+00
 -1      2672 3.69000E+01 4.09070E+01 0.00000E+00
 -1      2673 3.46500E+01 3.96080E+01 0.00000E+00
 -1      2674 3.84000E+01 4.09070E+01 0.00000E+00
 -1      2675 3.99000E+01 4.09070E+01 0.00000E+00
 -1      2676 3.76500E+01 3.96080E+01 0.00000E+00
 -1      2677 4.14000E+01 4.09070E+01 0.00000E+00
 -1      2678 4.29000E+01 4.09070E+01 0.00000E+00
 -1      2679 4.06500E+01 3.96080E+01 0.00000E+00
 -1      2680 4.44000E+01 4.09070E+01 0.00000E+00
 -1      2681 4.59000E+01 4.09070E+01 0.00000E+00
 -1      2682 4.36500E+01 3.96080E+01 0.00000E+00
 -1      2683 4.74000E+01 4.09070E+01 0.00000E+00
 -1      2684 4.89000E+01 4.09070E+01 0.00000E+00
 -1      2685 4.66500E+01 3.96080E+01 0.00000E+00
 -1      2686 5.04000E+01 4.09070E+01 0.00000E+00
 -1      2687 5.19000E+01 4.09070E+01 0.00000E+00
 -1      2688 4.96500E+01 3.96080E+01 0.00000E+00
 -1      2689 5.34000E+01 4.09070E+01 0.00000E+00
 -1      2690 5.49000E+01 4.09070E+01 0.00000E+00
 -1      2691 5.26500E+01 3.96080E+01 0.00000E+00
 -1      2692 5.64000E+01 4.09070E+01 0.00000E+00
 -1      2693 5.79000E+01 4.09070E+01 0.00000E+00
 -1      2694 5.56500E+01 3.96080E+01 0.00000E+00
 -1      2695 5.94000E+01 4.09070E+01 0.00000E+00
 -1      2696 6.09000E+01 4.09070E+01 0.00000E+00
 -1      2697 5.86500E+01 3.96080E+01 0.00000E+00
 -1      2698 6.24000E+01 4.09070E+01 0.00000E+00
 -1      2699 6.39000E+01 4.09070E+01 0.00000E+00
 -1      2700 6.16500E+01 3.96080E+01 0.00000E+00
 -1      2701 6.54000E+01 4.09070E+01 0.00000E+00
 -1      2702 6.69000E+01 4.09070E+01 0.00000E+00
 -1      2703 6.46500E+01 3.96080E+01 0.00000E+00
 -1      2704 6.84000E+01 4.09070E+01 0.00000E+00
 -1      2705 6.99000E+01 4.09070E+01 0.00000E+00
 -1      2706 6.76500E+01 3.96080E+01 0.00000E+00
 -1      2707 7.14000E+01 4.09070E+01 0.00000E+00
 -1      2708 7.29000E+01 4.09070E+01 0.00000E+00
 -1      2709 7.06500E+01 3.96080E+01 0.00000E+00
 -1      2710 7.44000E+01 4.09070E+01 0.00000E+00
 -1      2711 7.59000E+01 4.09070E+01 0.00000E+00
 -1      2712 7.36500E+01 3.96080E+01 0.00000E+00
 -1      2713 7.74000E+01 4.09070E+01 0.00000E+00
 -1      2714 7.89000E+01 4.09070E+01 0.00000E+00
 -1      2715 7.66500E+01 3.96080E+01 0.00000E+00
 -1      2716 8.04000E+01 4.09070E+01 0.00000E+00
 -1      2717 8.19000E+01 4.09070E+01 0.00000E+00
 -1      2718 7.96500E+01 3.96080E+01 0.00000E+00
 -1      2719 8.34000E+01 4.09070E+01 0.00000E+00
 -1      2720 8.49000E+01 4.09070E+01 0.00000E+00
 -1      2721 8.26500E+01 3.96080E+01 0.00000E+00
 -1      2722 8.64000E+01 4.09070E+01 0.00000E+00
 -1      2723 8.79000E+01 4.09070E+01 0.00000E+00
 -1      2724 8.56500E+01 3.96080E+01 0.00000E+00
 -1      2725 8.94000E+01 4.09070E+01 0.00000E+00
 -1      2726 9.09000E+01 4.09070E+01 0.00000E+00
 -1      2727 8.86500E+01 3.96080E+01 0.00000E+00
 -1      2728 9.24000E+01 4.09070E+01 0.00000E+00
 -1      2729 9.39000E+01 4.09070E+01 0.00000E+00
 -1      2730 9.16500E+01 3.96080E+01 0.00000E+00
 -1      2731 9.54000E+01 4.09070E+01 0.00000E+00
 -1      2732 9.69000E+01 4.09070E+01 0.00000E+00
 -1      2733 9.46500E+01 3.96080E+01 0.00000E+00
 -1      2734 9.84000E+01 4.09070E+01 0.00000E+00
 -1      2735 9.99000E+01 4.09070E+01 0.00000E+00
 -1      2736 9.76500E+01 3.96080E+01 0.00000E+00
 -1      2737 1.01400E+02 4.09070E+01 0.00000E+00
 -1      2738 1.02900E+02 4.09070E+01 0.00000E+00
 -1      2739 1.00650E+02 3.96080E+01 0.00000E+00
 -1      2740 1.04400E+02 4.09070E+01 0.00000E+00
 -1      2741 1.05900E+02 4.09070E+01 0.00000E+00
 -1      2742 1.03650E+02 3.96080E+01 0.00000E+00
 -1      2743 1.07400E+02 4.09070E+01 0.00000E+00
 -1      2744 1.08900E+02 4.09070E+01 0.00000E+00
 -1      2745 1.06650E+02 3.96080E+01 0.00000E+00
 -1      2746 1.10400E+02 4.09070E+01 0.00000E+00
 -1      2747 1.11900E+02 4.09070E+01 0.00000E+00
 -1      2748 1.09650E+02 3.96080E+01 0.00000E+00
 -1      2749 1.13400E+02 4.09070E+01 0.00000E+00
 -1      2750 1.14900E+02 4.09070E+01 0.00000E+00
 -1      2751 1.12650E+02 3.96080E+01 0.00000E+00
 -1      2752 1.16400E+02 4.09070E+01 0.00000E+00
 -1      2753 1.17900E+02 4.09070E+01 0.00000E+00
 -1      2754 1.15650E+02 3.96080E+01 0.00000E+00
 -1      2755 1.19400E+02 4.09070E+01 0.00000E+00
 -1      2756 1.20900E+02 4.09070E+01 0.00000E+00
 -1      2757 1.18650E+02 3.96080E+01 0.00000E+00
 -1      2758 1.22400E+02 4.09070E+01 0.00000E+00
 -1      2759 1.23900E+02 4.09070E+01 0.00000E+00
 -1      2760 1.21650E+02 3.96080E+01 0.00000E+00
 -1      2761 1.25400E+02 4.09070E+01 0.00000E+00
 -1      2762 1.26900E+02 4.09070E+01 0.00000E+00
 -1      2763 1.24650E+02 3.96080E+01 0.00000E+00
 -1      2764 1.28400E+02 4.09070E+01 0.00000E+00
 -1      2765 1.29900E+02 4.09070E+01 0.00000E+00
 -1      2766 1.27650E+02 3.96080E+01 0.00000E+00
 -1      2767 1.31400E+02 4.09070E+01 0.00000E+00
 -1      2768 1.32900E+02 4.09070E+01 0.00000E+00
 -1      2769 1.30650E+02 3.96080E+01 0.00000E+00
 -1      2770 1.34400E+02 4.09070E+01 0.00000E+00
 -1      2771 1.35900E+02 4.09070E+01 0.00000E+00
 -1      2772 1.33650E+02 3.96080E+01 0.00000E+00
 -1      2773 1.37400E+02 4.09070E+01 0.00000E+00
 -1      2774 1.38900E+02 4.09070E+01 0.00000E+00
 -1      2775 1.36650E+02 3.96080E+01 0.00000E+00
 -1      2776 2.63683E+01 3.31112E+01 0.00000E+00
 -1      2777 2.53680E+01 3.22631E+01 0.00000E+00
 -1      2778 2.12850E+01 7.90325E+00 0.00000E+00
 -1      2779 1.97850E+01 7.90325E+00 0.00000E+00
 -1      2780 3.02850E+01 7.79695E+00 0.00000E+00
 -1      2781 2.87850E+01 7.79695E+00 0.00000E+00
 -1      2782 3.59034E+01 8.34349E+00 0.00000E+00
 -1      2783 3.44034E+01 8.34349E+00 0.00000E+00
 -1      2784 4.22850E+01 7.90325E+00 0.00000E+00
 -1      2785 4.07850E+01 7.90325E+00 0.00000E+00
 -1      2786 4.52850E+01 7.90325E+00 0.00000E+00
 -1      2787 4.37850E+01 7.90325E+00 0.00000E+00
 -1      2788 4.30350E+01 9.20225E+00 0.00000E+00
 -1      2789 4.82850E+01 7.90325E+00 0.00000E+00
 -1      2790 4.67850E+01 7.90325E+00 0.00000E+00
 -1      2791 4.60350E+01 9.20225E+00 0.00000E+00
 -1      2792 5.12850E+01 7.90325E+00 0.00000E+00
 -1      2793 4.97850E+01 7.90325E+00 0.00000E+00
 -1      2794 4.90350E+01 9.20225E+00 0.00000E+00
 -1      2795 5.42850E+01 7.90325E+00 0.00000E+00
 -1      2796 5.27850E+01 7.90325E+00 0.00000E+00
 -1      2797 5.20350E+01 9.20225E+00 0.00000E+00
 -1      2798 5.72850E+01 7.90325E+00 0.00000E+00
 -1      2799 5.57850E+01 7.90325E+00 0.00000E+00
 -1      2800 5.50350E+01 9.20225E+00 0.00000E+00
 -1      2801 6.02850E+01 7.90325E+00 0.00000E+00
 -1      2802 5.87850E+01 7.90325E+00 0.00000E+00
 -1      2803 5.80350E+01 9.20225E+00 0.00000E+00
 -1      2804 6.32850E+01 7.90325E+00 0.00000E+00
 -1      2805 6.17850E+01 7.90325E+00 0.00000E+00
 -1      2806 6.10350E+01 9.20225E+00 0.00000E+00
 -1      2807 6.62850E+01 7.90325E+00 0.00000E+00
 -1      2808 6.47850E+01 7.90325E+00 0.00000E+00
 -1      2809 6.40350E+01 9.20225E+00 0.00000E+00
 -1      2810 6.92850E+01 7.90325E+00 0.00000E+00
 -1      2811 6.77850E+01 7.90325E+00 0.00000E+00
 -1      2812 6.70350E+01 9.20225E+00 0.00000E+00
 -1      2813 7.22850E+01 7.90325E+00 0.00000E+00
 -1      2814 7.07850E+01 7.90325E+00 0.00000E+00
 -1      2815 7.00350E+01 9.20225E+00 0.00000E+00
 -1      2816 7.52850E+01 7.90325E+00 0.00000E+00
 -1      2817 7.37850E+01 7.90325E+00 0.00000E+00
 -1      2818 7.30350E+01 9.20225E+00 0.00000E+00
 -1      2819 7.82850E+01 7.90325E+00 0.00000E+00
 -1      2820 7.67850E+01 7.90325E+00 0.00000E+00
 -1      2821 7.60350E+01 9.20225E+00 0.00000E+00
 -1      2822 8.12850E+01 7.90325E+00 0.00000E+00
 -1      2823 7.97850E+01 7.90325E+00 0.00000E+00
 -1      2824 7.90350E+01 9.20225E+00 0.00000E+00
 -1      2825 8.42850E+01 7.90325E+00 0.00000E+00
 -1      2826 8.27850E+01 7.90325E+00 0.00000E+00
 -1      2827 8.20350E+01 9.20225E+00 0.00000E+00
 -1      2828 8.72850E+01 7.90325E+00 0.00000E+00
 -1      2829 8.57850E+01 7.90325E+00 0.00000E+00
 -1      2830 8.50350E+01 9.20225E+00 0.00000E+00
 -1      2831 9.02850E+01 7.90325E+00 0.00000E+00
 -1      2832 8.87850E+01 7.90325E+00 0.00000E+00
 -1      2833 8.80350E+01 9.20225E+00 0.00000E+00
 -1      2834 9.32850E+01 7.90325E+00 0.00000E+00
 -1      2835 9.17850E+01 7.90325E+00 0.00000E+00
 -1      2836 9.10350E+01 9.20225E+00 0.00000E+00
 -1      2837 9.62850E+01 7.90325E+00 0.00000E+00
 -1      2838 9.47850E+01 7.90325E+00 0.00000E+00
 -1      2839 9.40350E+01 9.20225E+00 0.00000E+00
 -1      2840 9.92850E+01 7.90325E+00 0.00000E+00
 -1      2841 9.77850E+01 7.90325E+00 0.00000E+00
 -1      2842 9.70350E+01 9.20225E+00 0.00000E+00
 -1      2843 1.02285E+02 7.90325E+00 0.00000E+00
 -1      2844 1.00785E+02 7.90325E+00 0.00000E+00
 -1      2845 1.00035E+02 9.20225E+00 0.00000E+00
 -1      2846 1.05285E+02 7.90325E+00 0.00000E+00
 -1      2847 1.03785E+02 7.90325E+00 0.00000E+00
 -1      2848 1.03035E+02 9.20225E+00 0.00000E+00
 -1      2849 1.08285E+02 7.90325E+00 0.00000E+00
 -1      2850 1.06785E+02 7.90325E+00 0.00000E+00
 -1      2851 1.06035E+02 9.20225E+00 0.00000E+00
 -1      2852 1.11285E+02 7.90325E+00 0.00000E+00
 -1      2853 1.09785E+02 7.90325E+00 0.00000E+00
 -1      2854 1.09035E+02 9.20225E+00 0.00000E+00
 -1      2855 1.14285E+02 7.90325E+00 0.00000E+00
 -1      2856 1.12785E+02 7.90325E+00 0.00000E+00
 -1      2857 1.12035E+02 9.20225E+00 0.00000E+00
 -1      2858 1.17285E+02 7.90325E+00 0.00000E+00
 -1      2859 1.15785E+02 7.90325E+00 0.00000E+00
 -1      2860 1.15035E+02 9.20225E+00 0.00000E+00
 -1      2861 1.20285E+02 7.90325E+00 0.00000E+00
 -1      2862 1.18785E+02 7.90325E+00 0.00000E+00
 -1      2863 1.18035E+02 9.20225E+00 0.00000E+00
 -1      2864 1.23285E+02 7.90325E+00 0.00000E+00
 -1      2865 1.21785E+02 7.90325E+00 0.00000E+00
 -1      2866 1.21035E+02 9.20225E+00 0.00000E+00
 -1      2867 1.26285E+02 7.90325E+00 0.00000E+00
 -1      2868 1.24785E+02 7.90325E+00 0.00000E+00
 -1      2869 1.24035E+02 9.20225E+00 0.00000E+00
 -1      2870 1.29285E+02 7.90325E+00 0.00000E+00
 -1      2871 1.27785E+02 7.90325E+00 0.00000E+00
 -1      2872 1.27035E+02 9.20225E+00 0.00000E+00
 -1      2873 1.32285E+02 7.90325E+00 0.00000E+00
 -1      2874 1.30785E+02 7.90325E+00 0.00000E+00
 -1      2875 1.30035E+02 9.20225E+00 0.00000E+00
 -1      2876 1.35285E+02 7.90325E+00 0.00000E+00
 -1      2877 1.33785E+02 7.90325E+00 0.00000E+00
 -1      2878 1.33035E+02 9.20225E+00 0.00000E+00
 -1      2879 1.38285E+02 7.90325E+00 0.00000E+00
 -1      2880 1.36785E+02 7.90325E+00 0.00000E+00
 -1      2881 1.36035E+02 9.20225E+00 0.00000E+00
 -1      2882 1.40953E+02 8.18394E+00 0.00000E+00
 -1      2883 1.39453E+02 8.18394E+00 0.00000E+00
 -1      2884 1.38703E+02 9.48294E+00 0.00000E+00
 -1      2885 1.41038E+02 1.00443E+01 0.00000E+00
 -1      2886 4.11207E+01 1.31847E+01 0.00000E+00
 -1      2887 4.22109E+01 1.40880E+01 0.00000E+00
 -1      2888 1.40907E+02 2.42875E+01 0.00000E+00
 -1      2889 1.40907E+02 2.28125E+01 0.00000E+00
 -1      2890 1.39914E+02 4.09362E+01 0.00000E+00
 -1      2891 1.40928E+02 4.09655E+01 0.00000E+00
 -1      2892 1.39164E+02 3.96372E+01 0.00000E+00
 -1      2893 1.40907E+02 1.83875E+01 0.00000E+00
 -1      2894 1.40907E+02 1.69125E+01 0.00000E+00
 -1      2895 1.40907E+02 2.72375E+01 0.00000E+00
 -1      2896 1.40907E+02 2.57625E+01 0.00000E+00
 -1      2897 1.39608E+02 2.50250E+01 0.00000E+00
 -1      2898 1.40907E+02 2.13375E+01 0.00000E+00
 -1      2899 1.40907E+02 1.98625E+01 0.00000E+00
 -1      2900 1.39608E+02 1.91250E+01 0.00000E+00
 -1      2901 1.39608E+02 2.20750E+01 0.00000E+00
 -1      2902 1.40907E+02 3.01375E+01 0.00000E+00
 -1      2903 1.40907E+02 2.86875E+01 0.00000E+00
 -1      2904 1.39608E+02 2.79500E+01 0.00000E+00
 -1      2905 1.40907E+02 3.30875E+01 0.00000E+00
 -1      2906 1.40907E+02 3.16125E+01 0.00000E+00
 -1      2907 1.39608E+02 3.08750E+01 0.00000E+00
 -1      2908 1.40907E+02 3.60375E+01 0.00000E+00
 -1      2909 1.40907E+02 3.45625E+01 0.00000E+00
 -1      2910 1.39608E+02 3.38250E+01 0.00000E+00
 -1      2911 1.41192E+02 3.96958E+01 0.00000E+00
 -1      2912 2.86931E+01 3.44649E+01 0.00000E+00
 -1      2913 2.76166E+01 3.38740E+01 0.00000E+00
 -1      2914 9.32250E+00 4.05749E+01 0.00000E+00
 -1      2915 1.06860E+01 4.08389E+01 0.00000E+00
 -1      2916 1.21860E+01 4.08389E+01 0.00000E+00
 -1      2917 9.25800E+00 3.81046E+01 0.00000E+00
 -1      2918 4.42655E+01 1.74797E+01 0.00000E+00
 -1      2919 4.48033E+01 1.84755E+01 0.00000E+00
 -1      2920 3.90787E+01 1.18089E+01 0.00000E+00
 -1      2921 3.99912E+01 1.23004E+01 0.00000E+00
 -1      2922 3.67844E+01 3.46340E+01 0.00000E+00
 -1      2923 3.55000E+01 3.48229E+01 0.00000E+00
 -1      2924 4.31390E+01 1.54106E+01 0.00000E+00
 -1      2925 4.37275E+01 1.64309E+01 0.00000E+00
 -1      2926 4.59062E+01 2.26231E+01 0.00000E+00
 -1      2927 4.55915E+01 2.39710E+01 0.00000E+00
 -1      2928 1.82850E+01 7.90325E+00 0.00000E+00
 -1      2929 1.67850E+01 7.90325E+00 0.00000E+00
 -1      2930 1.60350E+01 9.20225E+00 0.00000E+00
 -1      2931 1.90350E+01 9.20225E+00 0.00000E+00
 -1      2932 2.72850E+01 7.79695E+00 0.00000E+00
 -1      2933 2.57850E+01 7.79695E+00 0.00000E+00
 -1      2934 2.80350E+01 8.98964E+00 0.00000E+00
 -1      2935 2.42850E+01 7.90325E+00 0.00000E+00
 -1      2936 2.27850E+01 7.90325E+00 0.00000E+00
 -1      2937 2.20350E+01 9.20225E+00 0.00000E+00
 -1      2938 2.10743E+01 2.18651E+01 0.00000E+00
 -1      2939 2.12220E+01 2.05494E+01 0.00000E+00
 -1      2940 2.27888E+01 2.96267E+01 0.00000E+00
 -1      2941 2.22948E+01 2.86005E+01 0.00000E+00
 -1      2942 8.91450E+00 8.42712E+00 0.00000E+00
 -1      2943 2.19706E+01 1.90716E+01 0.00000E+00
 -1      2944 2.26222E+01 1.81339E+01 0.00000E+00
 -1      2945 3.64016E+01 1.10950E+01 0.00000E+00
 -1      2946 3.76856E+01 1.13921E+01 0.00000E+00
 -1      2947 9.09300E+00 1.68813E+01 0.00000E+00
 -1      2948 9.09300E+00 1.83563E+01 0.00000E+00
 -1      2949 1.03920E+01 1.90812E+01 0.00000E+00
 -1      2950 1.03920E+01 1.61437E+01 0.00000E+00
 -1      2951 2.20829E+01 2.71293E+01 0.00000E+00
 -1      2952 2.18546E+01 2.59030E+01 0.00000E+00
 -1      2953 4.55938E+01 1.96293E+01 0.00000E+00
 -1      2954 4.59492E+01 2.08068E+01 0.00000E+00
 -1      2955 2.90682E+01 1.06095E+01 0.00000E+00
 -1      2956 2.99690E+01 1.02688E+01 0.00000E+00
 -1      2957 9.09300E+00 3.15875E+01 0.00000E+00
 -1      2958 9.09300E+00 3.30625E+01 0.00000E+00
 -1      2959 2.30703E+01 1.73059E+01 0.00000E+00
 -1      2960 2.35184E+01 1.64778E+01 0.00000E+00
 -1      2961 2.20747E+01 1.73093E+01 0.00000E+00
 -1      2962 4.51211E+01 2.53935E+01 0.00000E+00
 -1      2963 4.46184E+01 2.65229E+01 0.00000E+00
 -1      2964 4.13817E+01 3.19333E+01 0.00000E+00
 -1      2965 4.04957E+01 3.27677E+01 0.00000E+00
 -1      2966 3.14408E+01 3.51260E+01 0.00000E+00
 -1      2967 3.01846E+01 3.49539E+01 0.00000E+00
 -1      2968 2.46579E+01 3.15457E+01 0.00000E+00
 -1      2969 2.39477E+01 3.08284E+01 0.00000E+00
 -1      2970 2.44951E+01 3.27517E+01 0.00000E+00
 -1      2971 4.43274E+01 2.76551E+01 0.00000E+00
 -1      2972 4.40364E+01 2.87873E+01 0.00000E+00
 -1      2973 4.55153E+01 2.75072E+01 0.00000E+00
 -1      2974 3.12782E+01 1.05421E+01 0.00000E+00
 -1      2975 3.28060E+01 1.05706E+01 0.00000E+00
 -1      2976 3.34626E+01 9.80945E+00 0.00000E+00
 -1      2977 3.08442E+01 9.26291E+00 0.00000E+00
 -1      2978 3.41699E+01 3.49762E+01 0.00000E+00
 -1      2979 3.29017E+01 3.50814E+01 0.00000E+00
 -1      2980 3.93990E+01 3.37517E+01 0.00000E+00
 -1      2981 3.83175E+01 3.43170E+01 0.00000E+00
 -1      2982 4.31075E+01 2.99695E+01 0.00000E+00
 -1      2983 4.23016E+01 3.09479E+01 0.00000E+00
 -1      2984 2.11679E+01 2.53733E+01 0.00000E+00
 -1      2985 1.03920E+01 2.49750E+01 0.00000E+00
 -1      2986 9.09300E+00 2.57000E+01 0.00000E+00
 -1      2987 9.09300E+00 2.71750E+01 0.00000E+00
 -1      2988 4.42953E+01 2.98217E+01 0.00000E+00
 -1      2989 4.60426E+01 1.87438E+01 0.00000E+00
 -1      2990 1.29360E+01 3.95399E+01 0.00000E+00
 -1      2991 3.60232E+01 1.01638E+01 0.00000E+00
 -1      2992 3.21458E+01 3.59280E+01 0.00000E+00
 -1      2993 4.24465E+01 3.19894E+01 0.00000E+00
 -1      2994 1.39608E+02 1.61875E+01 0.00000E+00
 -1      2995 1.40907E+02 1.54500E+01 0.00000E+00
 -1      2996 1.40907E+02 1.39875E+01 0.00000E+00
 -1      2997 2.64536E+01 3.42319E+01 0.00000E+00
 -1      2998 3.49369E+01 3.57302E+01 0.00000E+00
 -1      2999 2.50350E+01 9.09595E+00 0.00000E+00
 -1      3000 3.30942E+01 8.07022E+00 0.00000E+00
 -1      3001 3.15942E+01 8.07022E+00 0.00000E+00
 -1      3002 3.94048E+01 9.72355E+00 0.00000E+00
 -1      3003 3.86548E+01 8.42455E+00 0.00000E+00
 -1      3004 3.71548E+01 8.42455E+00 0.00000E+00
 -1      3005 4.11903E+01 1.19627E+01 0.00000E+00
 -1      3006 2.75682E+01 1.06095E+01 0.00000E+00
 -1      3007 1.40973E+02 1.27472E+01 0.00000E+00
 -1      3008 1.40973E+02 1.12847E+01 0.00000E+00
 -1      3009 1.39805E+02 1.10040E+01 0.00000E+00
 -1      3010 1.39674E+02 1.34847E+01 0.00000E+00
 -1      3011 3.78001E+01 3.52599E+01 0.00000E+00
 -1      3012 1.41192E+02 3.82207E+01 0.00000E+00
 -1      3013 1.39893E+02 3.74832E+01 0.00000E+00
 -1      3014 2.91934E+01 3.54836E+01 0.00000E+00
 -1      3015 4.67901E+01 2.17139E+01 0.00000E+00
 -1      3016 4.76311E+01 2.26209E+01 0.00000E+00
 -1      3017 4.76741E+01 2.08047E+01 0.00000E+00
 -1      3018 4.32479E+01 1.41696E+01 0.00000E+00
 -1      3019 2.57542E+01 1.34964E+01 0.00000E+00
 -1      3020 2.60176E+01 1.23247E+01 0.00000E+00
 -1      3021 2.48550E+01 1.35136E+01 0.00000E+00
 -1      3022 4.47141E+01 1.65411E+01 0.00000E+00
 -1      3023 2.35572E+01 1.55833E+01 0.00000E+00
 -1      3024 2.35959E+01 1.46887E+01 0.00000E+00
 -1      3025 2.25616E+01 1.55867E+01 0.00000E+00
 -1      3026 4.62767E+01 2.49526E+01 0.00000E+00
 -1      3027 2.26260E+01 3.08326E+01 0.00000E+00
 -1      3028 1.97854E+01 2.01586E+01 0.00000E+00
 -1      3029 2.08780E+01 1.96151E+01 0.00000E+00
 -1      3030 2.05340E+01 1.86808E+01 0.00000E+00
 -1      3031 2.07109E+01 2.25755E+01 0.00000E+00
 -1      3032 1.97661E+01 2.18033E+01 0.00000E+00
 -1      3033 2.03476E+01 2.32859E+01 0.00000E+00
 -1      3034 2.12552E+01 2.81597E+01 0.00000E+00
 -1      3035 9.09300E+00 2.86437E+01 0.00000E+00
 -1      3036 9.09300E+00 3.01187E+01 0.00000E+00
 -1      3037 1.03920E+01 3.08563E+01 0.00000E+00
 -1      3038 1.03920E+01 2.79188E+01 0.00000E+00
 -1      3039 9.66450E+00 9.72612E+00 0.00000E+00
 -1      3040 1.03920E+01 3.37938E+01 0.00000E+00
 -1      3041 9.09300E+00 3.45313E+01 0.00000E+00
 -1      3042 9.09300E+00 3.60000E+01 0.00000E+00
 -1      3043 1.09635E+01 1.04636E+01 0.00000E+00
 -1      3044 4.04299E+01 3.39588E+01 0.00000E+00
 -1      3045 1.16910E+01 1.24625E+01 0.00000E+00
 -1      3046 1.16910E+01 1.39375E+01 0.00000E+00
 -1      3047 4.64239E+01 1.76349E+01 0.00000E+00
 -1      3048 4.72144E+01 1.87887E+01 0.00000E+00
 -1      3049 2.40621E+01 3.38906E+01 0.00000E+00
 -1      3050 2.33519E+01 3.31732E+01 0.00000E+00
 -1      3051 1.89000E+01 3.83090E+01 0.00000E+00
 -1      3052 2.04000E+01 3.83090E+01 0.00000E+00
 -1      3053 2.19000E+01 3.83090E+01 0.00000E+00
 -1      3054 2.34000E+01 3.83090E+01 0.00000E+00
 -1      3055 2.11500E+01 3.70100E+01 0.00000E+00
 -1      3056 2.74259E+01 3.73013E+01 0.00000E+00
 -1      3057 2.89259E+01 3.73013E+01 0.00000E+00
 -1      3058 3.04175E+01 3.77903E+01 0.00000E+00
 -1      3059 3.19175E+01 3.77903E+01 0.00000E+00
 -1      3060 3.39000E+01 3.86667E+01 0.00000E+00
 -1      3061 3.54000E+01 3.86667E+01 0.00000E+00
 -1      3062 3.69000E+01 3.84153E+01 0.00000E+00
 -1      3063 3.84000E+01 3.84153E+01 0.00000E+00
 -1      3064 3.92416E+01 3.72754E+01 0.00000E+00
 -1      3065 4.07416E+01 3.72754E+01 0.00000E+00
 -1      3066 4.59000E+01 3.83090E+01 0.00000E+00
 -1      3067 4.74000E+01 3.83090E+01 0.00000E+00
 -1      3068 4.89000E+01 3.83090E+01 0.00000E+00
 -1      3069 5.04000E+01 3.83090E+01 0.00000E+00
 -1      3070 4.81500E+01 3.70100E+01 0.00000E+00
 -1      3071 5.19000E+01 3.83090E+01 0.00000E+00
 -1      3072 5.34000E+01 3.83090E+01 0.00000E+00
 -1      3073 5.11500E+01 3.70100E+01 0.00000E+00
 -1      3074 5.49000E+01 3.83090E+01 0.00000E+00
 -1      3075 5.64000E+01 3.83090E+01 0.00000E+00
 -1      3076 5.41500E+01 3.70100E+01 0.00000E+00
 -1      3077 5.79000E+01 3.83090E+01 0.00000E+00
 -1      3078 5.94000E+01 3.83090E+01 0.00000E+00
 -1      3079 5.71500E+01 3.70100E+01 0.00000E+00
 -1      3080 6.09000E+01 3.83090E+01 0.00000E+00
 -1      3081 6.24000E+01 3.83090E+01 0.00000E+00
 -1      3082 6.01500E+01 3.70100E+01 0.00000E+00
 -1      3083 6.39000E+01 3.83090E+01 0.00000E+00
 -1      3084 6.54000E+01 3.83090E+01 0.00000E+00
 -1      3085 6.31500E+01 3.70100E+01 0.00000E+00
 -1      3086 6.69000E+01 3.83090E+01 0.00000E+00
 -1      3087 6.84000E+01 3.83090E+01 0.00000E+00
 -1      3088 6.61500E+01 3.70100E+01 0.00000E+00
 -1      3089 6.99000E+01 3.83090E+01 0.00000E+00
 -1      3090 7.14000E+01 3.83090E+01 0.00000E+00
 -1      3091 6.91500E+01 3.70100E+01 0.00000E+00
 -1      3092 7.29000E+01 3.83090E+01 0.00000E+00
 -1      3093 7.44000E+01 3.83090E+01 0.00000E+00
 -1      3094 7.21500E+01 3.70100E+01 0.00000E+00
 -1      3095 7.59000E+01 3.83090E+01 0.00000E+00
 -1      3096 7.74000E+01 3.83090E+01 0.00000E+00
 -1      3097 7.51500E+01 3.70100E+01 0.00000E+00
 -1      3098 7.89000E+01 3.83090E+01 0.00000E+00
 -1      3099 8.04000E+01 3.83090E+01 0.00000E+00
 -1      3100 7.81500E+01 3.70100E+01 0.00000E+00
 -1      3101 8.19000E+01 3.83090E+01 0.00000E+00
 -1      3102 8.34000E+01 3.83090E+01 0.00000E+00
 -1      3103 8.11500E+01 3.70100E+01 0.00000E+00
 -1      3104 8.49000E+01 3.83090E+01 0.00000E+00
 -1      3105 8.64000E+01 3.83090E+01 0.00000E+00
 -1      3106 8.41500E+01 3.70100E+01 0.00000E+00
 -1      3107 8.79000E+01 3.83090E+01 0.00000E+00
 -1      3108 8.94000E+01 3.83090E+01 0.00000E+00
 -1      3109 8.71500E+01 3.70100E+01 0.00000E+00
 -1      3110 9.09000E+01 3.83090E+01 0.00000E+00
 -1      3111 9.24000E+01 3.83090E+01 0.00000E+00
 -1      3112 9.01500E+01 3.70100E+01 0.00000E+00
 -1      3113 9.39000E+01 3.83090E+01 0.00000E+00
 -1      3114 9.54000E+01 3.83090E+01 0.00000E+00
 -1      3115 9.31500E+01 3.70100E+01 0.00000E+00
 -1      3116 9.69000E+01 3.83090E+01 0.00000E+00
 -1      3117 9.84000E+01 3.83090E+01 0.00000E+00
 -1      3118 9.61500E+01 3.70100E+01 0.00000E+00
 -1      3119 9.99000E+01 3.83090E+01 0.00000E+00
 -1      3120 1.01400E+02 3.83090E+01 0.00000E+00
 -1      3121 9.91500E+01 3.70100E+01 0.00000E+00
 -1      3122 1.02900E+02 3.83090E+01 0.00000E+00
 -1      3123 1.04400E+02 3.83090E+01 0.00000E+00
 -1      3124 1.02150E+02 3.70100E+01 0.00000E+00
 -1      3125 1.05900E+02 3.83090E+01 0.00000E+00
 -1      3126 1.07400E+02 3.83090E+01 0.00000E+00
 -1      3127 1.05150E+02 3.70100E+01 0.00000E+00
 -1      3128 1.08900E+02 3.83090E+01 0.00000E+00
 -1      3129 1.10400E+02 3.83090E+01 0.00000E+00
 -1      3130 1.08150E+02 3.70100E+01 0.00000E+00
 -1      3131 1.11900E+02 3.83090E+01 0.00000E+00
 -1      3132 1.13400E+02 3.83090E+01 0.00000E+00
 -1      3133 1.11150E+02 3.70100E+01 0.00000E+00
 -1      3134 1.14900E+02 3.83090E+01 0.00000E+00
 -1      3135 1.16400E+02 3.83090E+01 0.00000E+00
 -1      3136 1.14150E+02 3.70100E+01 0.00000E+00
 -1      3137 1.17900E+02 3.83090E+01 0.00000E+00
 -1      3138 1.19400E+02 3.83090E+01 0.00000E+00
 -1      3139 1.17150E+02 3.70100E+01 0.00000E+00
 -1      3140 1.20900E+02 3.83090E+01 0.00000E+00
 -1      3141 1.22400E+02 3.83090E+01 0.00000E+00
 -1      3142 1.20150E+02 3.70100E+01 0.00000E+00
 -1      3143 1.23900E+02 3.83090E+01 0.00000E+00
 -1      3144 1.25400E+02 3.83090E+01 0.00000E+00
 -1      3145 1.23150E+02 3.70100E+01 0.00000E+00
 -1      3146 1.26900E+02 3.83090E+01 0.00000E+00
 -1      3147 1.28400E+02 3.83090E+01 0.00000E+00
 -1      3148 1.26150E+02 3.70100E+01 0.00000E+00
 -1      3149 1.29900E+02 3.83090E+01 0.00000E+00
 -1      3150 1.31400E+02 3.83090E+01 0.00000E+00
 -1      3151 1.29150E+02 3.70100E+01 0.00000E+00
 -1      3152 1.32900E+02 3.83090E+01 0.00000E+00
 -1      3153 1.34400E+02 3.83090E+01 0.00000E+00
 -1      3154 1.32150E+02 3.70100E+01 0.00000E+00
 -1      3155 1.35900E+02 3.83090E+01 0.00000E+00
 -1      3156 1.37400E+02 3.83090E+01 0.00000E+00
 -1      3157 1.35150E+02 3.70100E+01 0.00000E+00
 -1      3158 2.08754E+01 1.71955E+01 0.00000E+00
 -1      3159 2.13235E+01 1.63675E+01 0.00000E+00
 -1      3160 2.27850E+01 1.04787E+01 0.00000E+00
 -1      3161 2.12850E+01 1.04787E+01 0.00000E+00
 -1      3162 5.27850E+01 1.05013E+01 0.00000E+00
 -1      3163 5.12850E+01 1.05013E+01 0.00000E+00
 -1      3164 5.57850E+01 1.05013E+01 0.00000E+00
 -1      3165 5.42850E+01 1.05013E+01 0.00000E+00
 -1      3166 5.35350E+01 1.18003E+01 0.00000E+00
 -1      3167 5.87850E+01 1.05013E+01 0.00000E+00
 -1      3168 5.72850E+01 1.05013E+01 0.00000E+00
 -1      3169 5.65350E+01 1.18003E+01 0.00000E+00
 -1      3170 6.17850E+01 1.05013E+01 0.00000E+00
 -1      3171 6.02850E+01 1.05013E+01 0.00000E+00
 -1      3172 5.95350E+01 1.18003E+01 0.00000E+00
 -1      3173 6.47850E+01 1.05013E+01 0.00000E+00
 -1      3174 6.32850E+01 1.05013E+01 0.00000E+00
 -1      3175 6.25350E+01 1.18003E+01 0.00000E+00
 -1      3176 6.77850E+01 1.05013E+01 0.00000E+00
 -1      3177 6.62850E+01 1.05013E+01 0.00000E+00
 -1      3178 6.55350E+01 1.18003E+01 0.00000E+00
 -1      3179 7.07850E+01 1.05013E+01 0.00000E+00
 -1      3180 6.92850E+01 1.05013E+01 0.00000E+00
 -1      3181 6.85350E+01 1.18003E+01 0.00000E+00
 -1      3182 7.37850E+01 1.05013E+01 0.00000E+00
 -1      3183 7.22850E+01 1.05013E+01 0.00000E+00
 -1      3184 7.15350E+01 1.18003E+01 0.00000E+00
 -1      3185 7.67850E+01 1.05013E+01 0.00000E+00
 -1      3186 7.52850E+01 1.05013E+01 0.00000E+00
 -1      3187 7.45350E+01 1.18003E+01 0.00000E+00
 -1      3188 7.97850E+01 1.05013E+01 0.00000E+00
 -1      3189 7.82850E+01 1.05013E+01 0.00000E+00
 -1      3190 7.75350E+01 1.18003E+01 0.00000E+00
 -1      3191 8.27850E+01 1.05013E+01 0.00000E+00
 -1      3192 8.12850E+01 1.05013E+01 0.00000E+00
 -1      3193 8.05350E+01 1.18003E+01 0.00000E+00
 -1      3194 8.57850E+01 1.05013E+01 0.00000E+00
 -1      3195 8.42850E+01 1.05013E+01 0.00000E+00
 -1      3196 8.35350E+01 1.18003E+01 0.00000E+00
 -1      3197 8.87850E+01 1.05013E+01 0.00000E+00
 -1      3198 8.72850E+01 1.05013E+01 0.00000E+00
 -1      3199 8.65350E+01 1.18003E+01 0.00000E+00
 -1      3200 9.17850E+01 1.05013E+01 0.00000E+00
 -1      3201 9.02850E+01 1.05013E+01 0.00000E+00
 -1      3202 8.95350E+01 1.18003E+01 0.00000E+00
 -1      3203 9.47850E+01 1.05013E+01 0.00000E+00
 -1      3204 9.32850E+01 1.05013E+01 0.00000E+00
 -1      3205 9.25350E+01 1.18003E+01 0.00000E+00
 -1      3206 9.77850E+01 1.05013E+01 0.00000E+00
 -1      3207 9.62850E+01 1.05013E+01 0.00000E+00
 -1      3208 9.55350E+01 1.18003E+01 0.00000E+00
 -1      3209 1.00785E+02 1.05013E+01 0.00000E+00
 -1      3210 9.92850E+01 1.05013E+01 0.00000E+00
 -1      3211 9.85350E+01 1.18003E+01 0.00000E+00
 -1      3212 1.03785E+02 1.05013E+01 0.00000E+00
 -1      3213 1.02285E+02 1.05013E+01 0.00000E+00
 -1      3214 1.01535E+02 1.18003E+01 0.00000E+00
 -1      3215 1.06785E+02 1.05013E+01 0.00000E+00
 -1      3216 1.05285E+02 1.05013E+01 0.00000E+00
 -1      3217 1.04535E+02 1.18003E+01 0.00000E+00
 -1      3218 1.09785E+02 1.05013E+01 0.00000E+00
 -1      3219 1.08285E+02 1.05013E+01 0.00000E+00
 -1      3220 1.07535E+02 1.18003E+01 0.00000E+00
 -1      3221 1.12785E+02 1.05013E+01 0.00000E+00
 -1      3222 1.11285E+02 1.05013E+01 0.00000E+00
 -1      3223 1.10535E+02 1.18003E+01 0.00000E+00
 -1      3224 1.15785E+02 1.05013E+01 0.00000E+00
 -1      3225 1.14285E+02 1.05013E+01 0.00000E+00
 -1      3226 1.13535E+02 1.18003E+01 0.00000E+00
 -1      3227 1.18785E+02 1.05013E+01 0.00000E+00
 -1      3228 1.17285E+02 1.05013E+01 0.00000E+00
 -1      3229 1.16535E+02 1.18003E+01 0.00000E+00
 -1      3230 1.21785E+02 1.05013E+01 0.00000E+00
 -1      3231 1.20285E+02 1.05013E+01 0.00000E+00
 -1      3232 1.19535E+02 1.18003E+01 0.00000E+00
 -1      3233 1.24785E+02 1.05013E+01 0.00000E+00
 -1      3234 1.23285E+02 1.05013E+01 0.00000E+00
 -1      3235 1.22535E+02 1.18003E+01 0.00000E+00
 -1      3236 1.27785E+02 1.05013E+01 0.00000E+00
 -1      3237 1.26285E+02 1.05013E+01 0.00000E+00
 -1      3238 1.25535E+02 1.18003E+01 0.00000E+00
 -1      3239 1.30785E+02 1.05013E+01 0.00000E+00
 -1      3240 1.29285E+02 1.05013E+01 0.00000E+00
 -1      3241 1.28535E+02 1.18003E+01 0.00000E+00
 -1      3242 1.33785E+02 1.05013E+01 0.00000E+00
 -1      3243 1.32285E+02 1.05013E+01 0.00000E+00
 -1      3244 1.31535E+02 1.18003E+01 0.00000E+00
 -1      3245 1.36785E+02 1.05013E+01 0.00000E+00
 -1      3246 1.35285E+02 1.05013E+01 0.00000E+00
 -1      3247 1.34535E+02 1.18003E+01 0.00000E+00
 -1      3248 1.38879E+02 1.08930E+01 0.00000E+00
 -1      3249 1.37711E+02 1.06123E+01 0.00000E+00
 -1      3250 1.36961E+02 1.19113E+01 0.00000E+00
 -1      3251 1.38813E+02 1.21333E+01 0.00000E+00
 -1      3252 1.38309E+02 2.86750E+01 0.00000E+00
 -1      3253 1.38309E+02 2.72250E+01 0.00000E+00
 -1      3254 3.54585E+01 3.66511E+01 0.00000E+00
 -1      3255 3.41284E+01 3.68044E+01 0.00000E+00
 -1      3256 1.38309E+02 3.45625E+01 0.00000E+00
 -1      3257 1.38309E+02 3.30875E+01 0.00000E+00
 -1      3258 1.38309E+02 2.57500E+01 0.00000E+00
 -1      3259 1.38309E+02 2.42750E+01 0.00000E+00
 -1      3260 1.37010E+02 2.64750E+01 0.00000E+00
 -1      3261 1.05570E+01 3.73671E+01 0.00000E+00
 -1      3262 1.38309E+02 3.16187E+01 0.00000E+00
 -1      3263 1.38309E+02 3.01437E+01 0.00000E+00
 -1      3264 1.37010E+02 2.94188E+01 0.00000E+00
 -1      3265 1.37010E+02 3.23563E+01 0.00000E+00
 -1      3266 4.97850E+01 1.05013E+01 0.00000E+00
 -1      3267 4.82850E+01 1.05013E+01 0.00000E+00
 -1      3268 5.05350E+01 1.18003E+01 0.00000E+00
 -1      3269 4.67850E+01 1.05013E+01 0.00000E+00
 -1      3270 4.52850E+01 1.05013E+01 0.00000E+00
 -1      3271 4.75350E+01 1.18003E+01 0.00000E+00
 -1      3272 3.86678E+01 1.06616E+01 0.00000E+00
 -1      3273 2.67259E+01 1.06486E+01 0.00000E+00
 -1      3274 2.52259E+01 1.07549E+01 0.00000E+00
 -1      3275 4.56318E+01 2.99156E+01 0.00000E+00
 -1      3276 4.47029E+01 3.10979E+01 0.00000E+00
 -1      3277 1.59000E+01 3.83090E+01 0.00000E+00
 -1      3278 1.74000E+01 3.83090E+01 0.00000E+00
 -1      3279 1.81500E+01 3.70100E+01 0.00000E+00
 -1      3280 1.21215E+01 3.78040E+01 0.00000E+00
 -1      3281 1.43355E+01 3.78721E+01 0.00000E+00
 -1      3282 1.50855E+01 3.65731E+01 0.00000E+00
 -1      3283 1.19565E+01 3.56994E+01 0.00000E+00
 -1      3284 4.35544E+01 1.29676E+01 0.00000E+00
 -1      3285 4.44826E+01 1.42902E+01 0.00000E+00
 -1      3286 4.37783E+01 3.23105E+01 0.00000E+00
 -1      3287 4.28584E+01 3.32960E+01 0.00000E+00
 -1      3288 4.77239E+01 2.46421E+01 0.00000E+00
 -1      3289 4.72535E+01 2.60646E+01 0.00000E+00
 -1      3290 4.53479E+01 1.55371E+01 0.00000E+00
 -1      3291 4.58859E+01 1.65860E+01 0.00000E+00
 -1      3292 4.70577E+01 1.66309E+01 0.00000E+00
 -1      3293 2.02636E+01 2.90534E+01 0.00000E+00
 -1      3294 2.00517E+01 2.75821E+01 0.00000E+00
 -1      3295 4.69624E+01 2.71968E+01 0.00000E+00
 -1      3296 4.66714E+01 2.83290E+01 0.00000E+00
 -1      3297 4.84096E+01 2.68863E+01 0.00000E+00
 -1      3298 1.16910E+01 2.12875E+01 0.00000E+00
 -1      3299 1.16910E+01 2.27625E+01 0.00000E+00
 -1      3300 2.21931E+01 3.19715E+01 0.00000E+00
 -1      3301 2.10342E+01 3.07698E+01 0.00000E+00
 -1      3302 2.17601E+01 3.31103E+01 0.00000E+00
 -1      3303 2.00985E+01 2.59162E+01 0.00000E+00
 -1      3304 2.02230E+01 2.46011E+01 0.00000E+00
 -1      3305 1.92781E+01 2.38289E+01 0.00000E+00
 -1      3306 1.26488E+01 1.02017E+01 0.00000E+00
 -1      3307 1.20772E+01 1.14631E+01 0.00000E+00
 -1      3308 1.33763E+01 1.22006E+01 0.00000E+00
 -1      3309 1.41488E+01 1.02017E+01 0.00000E+00
 -1      3310 2.59138E+01 3.80733E+01 0.00000E+00
 -1      3311 2.61897E+01 3.57666E+01 0.00000E+00
 -1      3312 2.49414E+01 3.50038E+01 0.00000E+00
 -1      3313 2.44138E+01 3.80733E+01 0.00000E+00
 -1      3314 4.13357E+01 3.56171E+01 0.00000E+00
 -1      3315 4.27442E+01 3.79497E+01 0.00000E+00
 -1      3316 4.42442E+01 3.79497E+01 0.00000E+00
 -1      3317 4.24325E+01 3.46331E+01 0.00000E+00
 -1      3318 1.16910E+01 2.42375E+01 0.00000E+00
 -1      3319 1.16910E+01 2.57125E+01 0.00000E+00
 -1      3320 1.29900E+01 2.35000E+01 0.00000E+00
 -1      3321 4.84367E+01 1.85868E+01 0.00000E+00
 -1      3322 4.80554E+01 1.96958E+01 0.00000E+00
 -1      3323 4.88963E+01 2.06028E+01 0.00000E+00
 -1      3324 4.56544E+01 1.43351E+01 0.00000E+00
 -1      3325 1.38309E+02 1.69188E+01 0.00000E+00
 -1      3326 1.38309E+02 1.54563E+01 0.00000E+00
 -1      3327 2.36638E+01 3.67743E+01 0.00000E+00
 -1      3328 4.49942E+01 3.66507E+01 0.00000E+00
 -1      3329 3.33784E+01 3.77457E+01 0.00000E+00
 -1      3330 3.61500E+01 3.74740E+01 0.00000E+00
 -1      3331 2.13622E+01 1.54729E+01 0.00000E+00
 -1      3332 1.97828E+01 1.77390E+01 0.00000E+00
 -1      3333 2.05350E+01 1.17552E+01 0.00000E+00
 -1      3334 1.97850E+01 1.04787E+01 0.00000E+00
 -1      3335 1.82850E+01 1.04787E+01 0.00000E+00
 -1      3336 4.37850E+01 1.05013E+01 0.00000E+00
 -1      3337 4.22850E+01 1.05013E+01 0.00000E+00
 -1      3338 3.69585E+01 3.63998E+01 0.00000E+00
 -1      3339 1.38309E+02 1.98687E+01 0.00000E+00
 -1      3340 1.38309E+02 1.83937E+01 0.00000E+00
 -1      3341 1.37010E+02 1.76625E+01 0.00000E+00
 -1      3342 1.38309E+02 2.28094E+01 0.00000E+00
 -1      3343 1.38309E+02 2.13344E+01 0.00000E+00
 -1      3344 1.37010E+02 2.06031E+01 0.00000E+00
 -1      3345 1.37010E+02 2.35344E+01 0.00000E+00
 -1      3346 1.16910E+01 1.54063E+01 0.00000E+00
 -1      3347 1.16910E+01 1.68750E+01 0.00000E+00
 -1      3348 1.29900E+01 1.46687E+01 0.00000E+00
 -1      3349 1.38414E+02 3.83382E+01 0.00000E+00
 -1      3350 1.38129E+02 3.61550E+01 0.00000E+00
 -1      3351 2.33133E+01 1.32202E+01 0.00000E+00
 -1      3352 2.35767E+01 1.20485E+01 0.00000E+00
 -1      3353 1.36830E+02 3.54175E+01 0.00000E+00
 -1      3354 4.86078E+01 2.37330E+01 0.00000E+00
 -1      3355 4.95845E+01 2.48450E+01 0.00000E+00
 -1      3356 4.94917E+01 2.28238E+01 0.00000E+00
 -1      3357 4.70789E+01 2.96052E+01 0.00000E+00
 -1      3358 1.69669E+01 1.03402E+01 0.00000E+00
 -1      3359 1.54669E+01 1.03402E+01 0.00000E+00
 -1      3360 1.50806E+01 1.13396E+01 0.00000E+00
 -1      3361 1.77169E+01 1.16167E+01 0.00000E+00
 -1      3362 1.90741E+01 2.09510E+01 0.00000E+00
 -1      3363 1.87301E+01 2.00167E+01 0.00000E+00
 -1      3364 4.37643E+01 3.49543E+01 0.00000E+00
 -1      3365 1.19565E+01 3.27619E+01 0.00000E+00
 -1      3366 1.19565E+01 3.42306E+01 0.00000E+00
 -1      3367 1.35210E+01 3.46675E+01 0.00000E+00
 -1      3368 1.87107E+01 2.16614E+01 0.00000E+00
 -1      3369 4.51147E+01 3.24045E+01 0.00000E+00
 -1      3370 1.16910E+01 1.83469E+01 0.00000E+00
 -1      3371 1.16910E+01 1.98156E+01 0.00000E+00
 -1      3372 1.29900E+01 2.05531E+01 0.00000E+00
 -1      3373 1.29900E+01 1.76094E+01 0.00000E+00
 -1      3374 2.37983E+01 3.54253E+01 0.00000E+00
 -1      3375 1.91068E+01 2.68099E+01 0.00000E+00
 -1      3376 1.98307E+01 3.01922E+01 0.00000E+00
 -1      3377 1.86271E+01 2.96147E+01 0.00000E+00
 -1      3378 1.93977E+01 3.13311E+01 0.00000E+00
 -1      3379 3.84916E+01 3.60827E+01 0.00000E+00
 -1      3380 1.19565E+01 2.98244E+01 0.00000E+00
 -1      3381 1.19565E+01 3.12931E+01 0.00000E+00
 -1      3382 1.35210E+01 3.17300E+01 0.00000E+00
 -1      3383 1.82787E+01 2.43977E+01 0.00000E+00
 -1      3384 1.84033E+01 2.30825E+01 0.00000E+00
 -1      3385 2.27845E+01 3.56610E+01 0.00000E+00
 -1      3386 5.04000E+01 3.57110E+01 0.00000E+00
 -1      3387 5.19000E+01 3.57110E+01 0.00000E+00
 -1      3388 5.34000E+01 3.57110E+01 0.00000E+00
 -1      3389 5.49000E+01 3.57110E+01 0.00000E+00
 -1      3390 5.26500E+01 3.44120E+01 0.00000E+00
 -1      3391 5.64000E+01 3.57110E+01 0.00000E+00
 -1      3392 5.79000E+01 3.57110E+01 0.00000E+00
 -1      3393 5.56500E+01 3.44120E+01 0.00000E+00
 -1      3394 5.94000E+01 3.57110E+01 0.00000E+00
 -1      3395 6.09000E+01 3.57110E+01 0.00000E+00
 -1      3396 5.86500E+01 3.44120E+01 0.00000E+00
 -1      3397 6.24000E+01 3.57110E+01 0.00000E+00
 -1      3398 6.39000E+01 3.57110E+01 0.00000E+00
 -1      3399 6.16500E+01 3.44120E+01 0.00000E+00
 -1      3400 6.54000E+01 3.57110E+01 0.00000E+00
 -1      3401 6.69000E+01 3.57110E+01 0.00000E+00
 -1      3402 6.46500E+01 3.44120E+01 0.00000E+00
 -1      3403 6.84000E+01 3.57110E+01 0.00000E+00
 -1      3404 6.99000E+01 3.57110E+01 0.00000E+00
 -1      3405 6.76500E+01 3.44120E+01 0.00000E+00
 -1      3406 7.14000E+01 3.57110E+01 0.00000E+00
 -1      3407 7.29000E+01 3.57110E+01 0.00000E+00
 -1      3408 7.06500E+01 3.44120E+01 0.00000E+00
 -1      3409 7.44000E+01 3.57110E+01 0.00000E+00
 -1      3410 7.59000E+01 3.57110E+01 0.00000E+00
 -1      3411 7.36500E+01 3.44120E+01 0.00000E+00
 -1      3412 7.74000E+01 3.57110E+01 0.00000E+00
 -1      3413 7.89000E+01 3.57110E+01 0.00000E+00
 -1      3414 7.66500E+01 3.44120E+01 0.00000E+00
 -1      3415 8.04000E+01 3.57110E+01 0.00000E+00
 -1      3416 8.19000E+01 3.57110E+01 0.00000E+00
 -1      3417 7.96500E+01 3.44120E+01 0.00000E+00
 -1      3418 8.34000E+01 3.57110E+01 0.00000E+00
 -1      3419 8.49000E+01 3.57110E+01 0.00000E+00
 -1      3420 8.26500E+01 3.44120E+01 0.00000E+00
 -1      3421 8.64000E+01 3.57110E+01 0.00000E+00
 -1      3422 8.79000E+01 3.57110E+01 0.00000E+00
 -1      3423 8.56500E+01 3.44120E+01 0.00000E+00
 -1      3424 8.94000E+01 3.57110E+01 0.00000E+00
 -1      3425 9.09000E+01 3.57110E+01 0.00000E+00
 -1      3426 8.86500E+01 3.44120E+01 0.00000E+00
 -1      3427 9.24000E+01 3.57110E+01 0.00000E+00
 -1      3428 9.39000E+01 3.57110E+01 0.00000E+00
 -1      3429 9.16500E+01 3.44120E+01 0.00000E+00
 -1      3430 9.54000E+01 3.57110E+01 0.00000E+00
 -1      3431 9.69000E+01 3.57110E+01 0.00000E+00
 -1      3432 9.46500E+01 3.44120E+01 0.00000E+00
 -1      3433 9.84000E+01 3.57110E+01 0.00000E+00
 -1      3434 9.99000E+01 3.57110E+01 0.00000E+00
 -1      3435 9.76500E+01 3.44120E+01 0.00000E+00
 -1      3436 1.01400E+02 3.57110E+01 0.00000E+00
 -1      3437 1.02900E+02 3.57110E+01 0.00000E+00
 -1      3438 1.00650E+02 3.44120E+01 0.00000E+00
 -1      3439 1.04400E+02 3.57110E+01 0.00000E+00
 -1      3440 1.05900E+02 3.57110E+01 0.00000E+00
 -1      3441 1.03650E+02 3.44120E+01 0.00000E+00
 -1      3442 1.07400E+02 3.57110E+01 0.00000E+00
 -1      3443 1.08900E+02 3.57110E+01 0.00000E+00
 -1      3444 1.06650E+02 3.44120E+01 0.00000E+00
 -1      3445 1.10400E+02 3.57110E+01 0.00000E+00
 -1      3446 1.11900E+02 3.57110E+01 0.00000E+00
 -1      3447 1.09650E+02 3.44120E+01 0.00000E+00
 -1      3448 1.13400E+02 3.57110E+01 0.00000E+00
 -1      3449 1.14900E+02 3.57110E+01 0.00000E+00
 -1      3450 1.12650E+02 3.44120E+01 0.00000E+00
 -1      3451 1.16400E+02 3.57110E+01 0.00000E+00
 -1      3452 1.17900E+02 3.57110E+01 0.00000E+00
 -1      3453 1.15650E+02 3.44120E+01 0.00000E+00
 -1      3454 1.19400E+02 3.57110E+01 0.00000E+00
 -1      3455 1.20900E+02 3.57110E+01 0.00000E+00
 -1      3456 1.18650E+02 3.44120E+01 0.00000E+00
 -1      3457 1.22400E+02 3.57110E+01 0.00000E+00
 -1      3458 1.23900E+02 3.57110E+01 0.00000E+00
 -1      3459 1.21650E+02 3.44120E+01 0.00000E+00
 -1      3460 1.25400E+02 3.57110E+01 0.00000E+00
 -1      3461 1.26900E+02 3.57110E+01 0.00000E+00
 -1      3462 1.24650E+02 3.44120E+01 0.00000E+00
 -1      3463 1.28400E+02 3.57110E+01 0.00000E+00
 -1      3464 1.29900E+02 3.57110E+01 0.00000E+00
 -1      3465 1.27650E+02 3.44120E+01 0.00000E+00
 -1      3466 1.31400E+02 3.57110E+01 0.00000E+00
 -1      3467 1.32900E+02 3.57110E+01 0.00000E+00
 -1      3468 1.30650E+02 3.44120E+01 0.00000E+00
 -1      3469 1.34115E+02 3.55643E+01 0.00000E+00
 -1      3470 1.35615E+02 3.55643E+01 0.00000E+00
 -1      3471 1.35795E+02 3.39717E+01 0.00000E+00
 -1      3472 1.33365E+02 3.42653E+01 0.00000E+00
 -1      3473 4.45350E+01 1.18003E+01 0.00000E+00
 -1      3474 4.07979E+01 1.01403E+01 0.00000E+00
 -1      3475 5.42850E+01 1.30992E+01 0.00000E+00
 -1      3476 5.27850E+01 1.30992E+01 0.00000E+00
 -1      3477 6.32850E+01 1.30992E+01 0.00000E+00
 -1      3478 6.17850E+01 1.30992E+01 0.00000E+00
 -1      3479 6.62850E+01 1.30992E+01 0.00000E+00
 -1      3480 6.47850E+01 1.30992E+01 0.00000E+00
 -1      3481 6.40350E+01 1.43982E+01 0.00000E+00
 -1      3482 6.92850E+01 1.30992E+01 0.00000E+00
 -1      3483 6.77850E+01 1.30992E+01 0.00000E+00
 -1      3484 6.70350E+01 1.43982E+01 0.00000E+00
 -1      3485 7.22850E+01 1.30992E+01 0.00000E+00
 -1      3486 7.07850E+01 1.30992E+01 0.00000E+00
 -1      3487 7.00350E+01 1.43982E+01 0.00000E+00
 -1      3488 7.52850E+01 1.30992E+01 0.00000E+00
 -1      3489 7.37850E+01 1.30992E+01 0.00000E+00
 -1      3490 7.30350E+01 1.43982E+01 0.00000E+00
 -1      3491 7.82850E+01 1.30992E+01 0.00000E+00
 -1      3492 7.67850E+01 1.30992E+01 0.00000E+00
 -1      3493 7.60350E+01 1.43982E+01 0.00000E+00
 -1      3494 8.12850E+01 1.30992E+01 0.00000E+00
 -1      3495 7.97850E+01 1.30992E+01 0.00000E+00
 -1      3496 7.90350E+01 1.43982E+01 0.00000E+00
 -1      3497 8.42850E+01 1.30992E+01 0.00000E+00
 -1      3498 8.27850E+01 1.30992E+01 0.00000E+00
 -1      3499 8.20350E+01 1.43982E+01 0.00000E+00
 -1      3500 8.72850E+01 1.30992E+01 0.00000E+00
 -1      3501 8.57850E+01 1.30992E+01 0.00000E+00
 -1      3502 8.50350E+01 1.43982E+01 0.00000E+00
 -1      3503 9.02850E+01 1.30992E+01 0.00000E+00
 -1      3504 8.87850E+01 1.30992E+01 0.00000E+00
 -1      3505 8.80350E+01 1.43982E+01 0.00000E+00
 -1      3506 9.32850E+01 1.30992E+01 0.00000E+00
 -1      3507 9.17850E+01 1.30992E+01 0.00000E+00
 -1      3508 9.10350E+01 1.43982E+01 0.00000E+00
 -1      3509 9.62850E+01 1.30992E+01 0.00000E+00
 -1      3510 9.47850E+01 1.30992E+01 0.00000E+00
 -1      3511 9.40350E+01 1.43982E+01 0.00000E+00
 -1      3512 9.92850E+01 1.30992E+01 0.00000E+00
 -1      3513 9.77850E+01 1.30992E+01 0.00000E+00
 -1      3514 9.70350E+01 1.43982E+01 0.00000E+00
 -1      3515 1.02285E+02 1.30992E+01 0.00000E+00
 -1      3516 1.00785E+02 1.30992E+01 0.00000E+00
 -1      3517 1.00035E+02 1.43982E+01 0.00000E+00
 -1      3518 1.05285E+02 1.30992E+01 0.00000E+00
 -1      3519 1.03785E+02 1.30992E+01 0.00000E+00
 -1      3520 1.03035E+02 1.43982E+01 0.00000E+00
 -1      3521 1.08285E+02 1.30992E+01 0.00000E+00
 -1      3522 1.06785E+02 1.30992E+01 0.00000E+00
 -1      3523 1.06035E+02 1.43982E+01 0.00000E+00
 -1      3524 1.11285E+02 1.30992E+01 0.00000E+00
 -1      3525 1.09785E+02 1.30992E+01 0.00000E+00
 -1      3526 1.09035E+02 1.43982E+01 0.00000E+00
 -1      3527 1.14285E+02 1.30992E+01 0.00000E+00
 -1      3528 1.12785E+02 1.30992E+01 0.00000E+00
 -1      3529 1.12035E+02 1.43982E+01 0.00000E+00
 -1      3530 1.17285E+02 1.30992E+01 0.00000E+00
 -1      3531 1.15785E+02 1.30992E+01 0.00000E+00
 -1      3532 1.15035E+02 1.43982E+01 0.00000E+00
 -1      3533 1.20285E+02 1.30992E+01 0.00000E+00
 -1      3534 1.18785E+02 1.30992E+01 0.00000E+00
 -1      3535 1.18035E+02 1.43982E+01 0.00000E+00
 -1      3536 1.23285E+02 1.30992E+01 0.00000E+00
 -1      3537 1.21785E+02 1.30992E+01 0.00000E+00
 -1      3538 1.21035E+02 1.43982E+01 0.00000E+00
 -1      3539 1.26285E+02 1.30992E+01 0.00000E+00
 -1      3540 1.24785E+02 1.30992E+01 0.00000E+00
 -1      3541 1.24035E+02 1.43982E+01 0.00000E+00
 -1      3542 1.29285E+02 1.30992E+01 0.00000E+00
 -1      3543 1.27785E+02 1.30992E+01 0.00000E+00
 -1      3544 1.27035E+02 1.43982E+01 0.00000E+00
 -1      3545 1.32285E+02 1.30992E+01 0.00000E+00
 -1      3546 1.30785E+02 1.30992E+01 0.00000E+00
 -1      3547 1.30035E+02 1.43982E+01 0.00000E+00
 -1      3548 1.35285E+02 1.30992E+01 0.00000E+00
 -1      3549 1.33785E+02 1.30992E+01 0.00000E+00
 -1      3550 1.33035E+02 1.43982E+01 0.00000E+00
 -1      3551 5.12850E+01 1.30992E+01 0.00000E+00
 -1      3552 4.97850E+01 1.30992E+01 0.00000E+00
 -1      3553 5.20350E+01 1.43982E+01 0.00000E+00
 -1      3554 1.38528E+02 1.44149E+01 0.00000E+00
 -1      3555 1.38594E+02 1.31746E+01 0.00000E+00
 -1      3556 1.37668E+02 1.30636E+01 0.00000E+00
 -1      3557 1.37229E+02 1.51462E+01 0.00000E+00
 -1      3558 2.14207E+01 3.45973E+01 0.00000E+00
 -1      3559 2.02618E+01 3.33956E+01 0.00000E+00
 -1      3560 2.23177E+01 1.32236E+01 0.00000E+00
 -1      3561 4.15479E+01 1.14393E+01 0.00000E+00
 -1      3562 1.35711E+02 2.72125E+01 0.00000E+00
 -1      3563 1.35711E+02 2.57375E+01 0.00000E+00
 -1      3564 4.96291E+01 2.65963E+01 0.00000E+00
 -1      3565 4.93380E+01 2.77285E+01 0.00000E+00
 -1      3566 4.26774E+01 1.23236E+01 0.00000E+00
 -1      3567 4.39120E+01 1.24442E+01 0.00000E+00
 -1      3568 1.84497E+01 1.82145E+01 0.00000E+00
 -1      3569 1.87911E+01 1.67292E+01 0.00000E+00
 -1      3570 6.02850E+01 1.30992E+01 0.00000E+00
 -1      3571 5.87850E+01 1.30992E+01 0.00000E+00
 -1      3572 6.10350E+01 1.43982E+01 0.00000E+00
 -1      3573 5.72850E+01 1.30992E+01 0.00000E+00
 -1      3574 5.57850E+01 1.30992E+01 0.00000E+00
 -1      3575 5.80350E+01 1.43982E+01 0.00000E+00
 -1      3576 4.74000E+01 3.57110E+01 0.00000E+00
 -1      3577 4.89000E+01 3.57110E+01 0.00000E+00
 -1      3578 4.96500E+01 3.44120E+01 0.00000E+00
 -1      3579 4.54201E+01 3.53136E+01 0.00000E+00
 -1      3580 1.46944E+01 1.23391E+01 0.00000E+00
 -1      3581 1.43081E+01 1.33385E+01 0.00000E+00
 -1      3582 1.60125E+01 1.24776E+01 0.00000E+00
 -1      3583 1.77113E+01 2.22302E+01 0.00000E+00
 -1      3584 1.18237E+01 2.70341E+01 0.00000E+00
 -1      3585 1.18237E+01 2.85028E+01 0.00000E+00
 -1      3586 1.33883E+01 2.89397E+01 0.00000E+00
 -1      3587 1.31228E+01 2.62966E+01 0.00000E+00
 -1      3588 1.97862E+01 3.59462E+01 0.00000E+00
 -1      3589 2.12862E+01 3.59462E+01 0.00000E+00
 -1      3590 4.77009E+01 1.56386E+01 0.00000E+00
 -1      3591 4.82389E+01 1.66874E+01 0.00000E+00
 -1      3592 2.43267E+01 1.07720E+01 0.00000E+00
 -1      3593 4.85262E+01 2.94196E+01 0.00000E+00
 -1      3594 4.74866E+01 3.10063E+01 0.00000E+00
 -1      3595 1.77384E+01 1.90069E+01 0.00000E+00
 -1      3596 4.70946E+01 3.28019E+01 0.00000E+00
 -1      3597 4.61701E+01 3.40146E+01 0.00000E+00
 -1      3598 1.79750E+01 2.76118E+01 0.00000E+00
 -1      3599 1.80217E+01 2.59459E+01 0.00000E+00
 -1      3600 4.54120E+01 1.24442E+01 0.00000E+00
 -1      3601 2.10900E+01 1.43483E+01 0.00000E+00
 -1      3602 2.08073E+01 1.28798E+01 0.00000E+00
 -1      3603 1.93073E+01 1.28798E+01 0.00000E+00
 -1      3604 1.98519E+01 1.51291E+01 0.00000E+00
 -1      3605 4.69062E+01 1.27457E+01 0.00000E+00
 -1      3606 4.62832E+01 1.33897E+01 0.00000E+00
 -1      3607 4.71485E+01 1.46366E+01 0.00000E+00
 -1      3608 4.84062E+01 1.27457E+01 0.00000E+00
 -1      3609 4.90798E+01 1.75945E+01 0.00000E+00
 -1      3610 4.99207E+01 1.85015E+01 0.00000E+00
 -1      3611 4.97229E+01 1.66022E+01 0.00000E+00
 -1      3612 1.35711E+02 3.01500E+01 0.00000E+00
 -1      3613 1.35711E+02 2.86812E+01 0.00000E+00
 -1      3614 1.34412E+02 2.79438E+01 0.00000E+00
 -1      3615 5.05130E+01 2.56872E+01 0.00000E+00
 -1      3616 1.41827E+01 2.27625E+01 0.00000E+00
 -1      3617 1.41827E+01 2.42375E+01 0.00000E+00
 -1      3618 1.85188E+01 1.56046E+01 0.00000E+00
 -1      3619 4.91562E+01 1.40447E+01 0.00000E+00
 -1      3620 1.34412E+02 2.50094E+01 0.00000E+00
 -1      3621 1.35711E+02 2.42719E+01 0.00000E+00
 -1      3622 1.35711E+02 2.28062E+01 0.00000E+00
 -1      3623 1.48200E+01 3.09956E+01 0.00000E+00
 -1      3624 1.48200E+01 3.24644E+01 0.00000E+00
 -1      3625 5.50350E+01 1.43982E+01 0.00000E+00
 -1      3626 1.36742E+02 1.29526E+01 0.00000E+00
 -1      3627 1.35773E+02 1.52929E+01 0.00000E+00
 -1      3628 1.35992E+02 1.42516E+01 0.00000E+00
 -1      3629 1.43081E+01 1.48073E+01 0.00000E+00
 -1      3630 1.35795E+02 3.25030E+01 0.00000E+00
 -1      3631 1.35773E+02 1.82429E+01 0.00000E+00
 -1      3632 1.35773E+02 1.67679E+01 0.00000E+00
 -1      3633 1.34535E+02 1.58733E+01 0.00000E+00
 -1      3634 4.85420E+01 3.26164E+01 0.00000E+00
 -1      3635 1.50533E+01 3.56203E+01 0.00000E+00
 -1      3636 1.66178E+01 3.60572E+01 0.00000E+00
 -1      3637 1.81178E+01 3.60572E+01 0.00000E+00
 -1      3638 1.50533E+01 3.41516E+01 0.00000E+00
 -1      3639 4.98730E+01 2.17148E+01 0.00000E+00
 -1      3640 5.08497E+01 2.28269E+01 0.00000E+00
 -1      3641 5.02543E+01 2.06059E+01 0.00000E+00
 -1      3642 4.83297E+01 1.46931E+01 0.00000E+00
 -1      3643 1.55044E+01 1.99452E+01 0.00000E+00
 -1      3644 1.55044E+01 2.14170E+01 0.00000E+00
 -1      3645 4.97458E+01 2.91296E+01 0.00000E+00
 -1      3646 1.82540E+01 3.49934E+01 0.00000E+00
 -1      3647 1.71469E+01 2.51995E+01 0.00000E+00
 -1      3648 1.63522E+01 3.34172E+01 0.00000E+00
 -1      3649 1.52240E+01 1.81430E+01 0.00000E+00
 -1      3650 1.66970E+01 2.21545E+01 0.00000E+00
 -1      3651 1.65421E+01 1.53409E+01 0.00000E+00
 -1      3652 1.76029E+01 1.37408E+01 0.00000E+00
 -1      3653 5.49000E+01 3.31130E+01 0.00000E+00
 -1      3654 5.64000E+01 3.31130E+01 0.00000E+00
 -1      3655 5.79000E+01 3.31130E+01 0.00000E+00
 -1      3656 5.94000E+01 3.31130E+01 0.00000E+00
 -1      3657 5.71500E+01 3.18140E+01 0.00000E+00
 -1      3658 6.09000E+01 3.31130E+01 0.00000E+00
 -1      3659 6.24000E+01 3.31130E+01 0.00000E+00
 -1      3660 6.01500E+01 3.18140E+01 0.00000E+00
 -1      3661 6.39000E+01 3.31130E+01 0.00000E+00
 -1      3662 6.54000E+01 3.31130E+01 0.00000E+00
 -1      3663 6.31500E+01 3.18140E+01 0.00000E+00
 -1      3664 6.69000E+01 3.31130E+01 0.00000E+00
 -1      3665 6.84000E+01 3.31130E+01 0.00000E+00
 -1      3666 6.61500E+01 3.18140E+01 0.00000E+00
 -1      3667 6.99000E+01 3.31130E+01 0.00000E+00
 -1      3668 7.14000E+01 3.31130E+01 0.00000E+00
 -1      3669 6.91500E+01 3.18140E+01 0.00000E+00
 -1      3670 7.29000E+01 3.31130E+01 0.00000E+00
 -1      3671 7.44000E+01 3.31130E+01 0.00000E+00
 -1      3672 7.21500E+01 3.18140E+01 0.00000E+00
 -1      3673 7.59000E+01 3.31130E+01 0.00000E+00
 -1      3674 7.74000E+01 3.31130E+01 0.00000E+00
 -1      3675 7.51500E+01 3.18140E+01 0.00000E+00
 -1      3676 7.89000E+01 3.31130E+01 0.00000E+00
 -1      3677 8.04000E+01 3.31130E+01 0.00000E+00
 -1      3678 7.81500E+01 3.18140E+01 0.00000E+00
 -1      3679 8.19000E+01 3.31130E+01 0.00000E+00
 -1      3680 8.34000E+01 3.31130E+01 0.00000E+00
 -1      3681 8.11500E+01 3.18140E+01 0.00000E+00
 -1      3682 8.49000E+01 3.31130E+01 0.00000E+00
 -1      3683 8.64000E+01 3.31130E+01 0.00000E+00
 -1      3684 8.41500E+01 3.18140E+01 0.00000E+00
 -1      3685 8.79000E+01 3.31130E+01 0.00000E+00
 -1      3686 8.94000E+01 3.31130E+01 0.00000E+00
 -1      3687 8.71500E+01 3.18140E+01 0.00000E+00
 -1      3688 9.09000E+01 3.31130E+01 0.00000E+00
 -1      3689 9.24000E+01 3.31130E+01 0.00000E+00
 -1      3690 9.01500E+01 3.18140E+01 0.00000E+00
 -1      3691 9.39000E+01 3.31130E+01 0.00000E+00
 -1      3692 9.54000E+01 3.31130E+01 0.00000E+00
 -1      3693 9.31500E+01 3.18140E+01 0.00000E+00
 -1      3694 9.69000E+01 3.31130E+01 0.00000E+00
 -1      3695 9.84000E+01 3.31130E+01 0.00000E+00
 -1      3696 9.61500E+01 3.18140E+01 0.00000E+00
 -1      3697 9.99000E+01 3.31130E+01 0.00000E+00
 -1      3698 1.01400E+02 3.31130E+01 0.00000E+00
 -1      3699 9.91500E+01 3.18140E+01 0.00000E+00
 -1      3700 1.02900E+02 3.31130E+01 0.00000E+00
 -1      3701 1.04400E+02 3.31130E+01 0.00000E+00
 -1      3702 1.02150E+02 3.18140E+01 0.00000E+00
 -1      3703 1.05900E+02 3.31130E+01 0.00000E+00
 -1      3704 1.07400E+02 3.31130E+01 0.00000E+00
 -1      3705 1.05150E+02 3.18140E+01 0.00000E+00
 -1      3706 1.08900E+02 3.31130E+01 0.00000E+00
 -1      3707 1.10400E+02 3.31130E+01 0.00000E+00
 -1      3708 1.08150E+02 3.18140E+01 0.00000E+00
 -1      3709 1.11900E+02 3.31130E+01 0.00000E+00
 -1      3710 1.13400E+02 3.31130E+01 0.00000E+00
 -1      3711 1.11150E+02 3.18140E+01 0.00000E+00
 -1      3712 1.14900E+02 3.31130E+01 0.00000E+00
 -1      3713 1.16400E+02 3.31130E+01 0.00000E+00
 -1      3714 1.14150E+02 3.18140E+01 0.00000E+00
 -1      3715 1.17900E+02 3.31130E+01 0.00000E+00
 -1      3716 1.19400E+02 3.31130E+01 0.00000E+00
 -1      3717 1.17150E+02 3.18140E+01 0.00000E+00
 -1      3718 1.20900E+02 3.31130E+01 0.00000E+00
 -1      3719 1.22400E+02 3.31130E+01 0.00000E+00
 -1      3720 1.20150E+02 3.18140E+01 0.00000E+00
 -1      3721 1.23900E+02 3.31130E+01 0.00000E+00
 -1      3722 1.25400E+02 3.31130E+01 0.00000E+00
 -1      3723 1.23150E+02 3.18140E+01 0.00000E+00
 -1      3724 1.26900E+02 3.31130E+01 0.00000E+00
 -1      3725 1.28400E+02 3.31130E+01 0.00000E+00
 -1      3726 1.26150E+02 3.18140E+01 0.00000E+00
 -1      3727 1.29900E+02 3.31130E+01 0.00000E+00
 -1      3728 1.31400E+02 3.31130E+01 0.00000E+00
 -1      3729 1.29150E+02 3.18140E+01 0.00000E+00
 -1      3730 1.52054E+01 2.85045E+01 0.00000E+00
 -1      3731 1.65044E+01 2.92389E+01 0.00000E+00
 -1      3732 6.77850E+01 1.56973E+01 0.00000E+00
 -1      3733 6.62850E+01 1.56973E+01 0.00000E+00
 -1      3734 5.57850E+01 1.56973E+01 0.00000E+00
 -1      3735 5.42850E+01 1.56973E+01 0.00000E+00
 -1      3736 6.47850E+01 1.56973E+01 0.00000E+00
 -1      3737 6.32850E+01 1.56973E+01 0.00000E+00
 -1      3738 6.55350E+01 1.69963E+01 0.00000E+00
 -1      3739 7.37850E+01 1.56973E+01 0.00000E+00
 -1      3740 7.22850E+01 1.56973E+01 0.00000E+00
 -1      3741 7.67850E+01 1.56973E+01 0.00000E+00
 -1      3742 7.52850E+01 1.56973E+01 0.00000E+00
 -1      3743 7.45350E+01 1.69963E+01 0.00000E+00
 -1      3744 7.97850E+01 1.56973E+01 0.00000E+00
 -1      3745 7.82850E+01 1.56973E+01 0.00000E+00
 -1      3746 7.75350E+01 1.69963E+01 0.00000E+00
 -1      3747 8.27850E+01 1.56973E+01 0.00000E+00
 -1      3748 8.12850E+01 1.56973E+01 0.00000E+00
 -1      3749 8.05350E+01 1.69963E+01 0.00000E+00
 -1      3750 8.57850E+01 1.56973E+01 0.00000E+00
 -1      3751 8.42850E+01 1.56973E+01 0.00000E+00
 -1      3752 8.35350E+01 1.69963E+01 0.00000E+00
 -1      3753 8.87850E+01 1.56973E+01 0.00000E+00
 -1      3754 8.72850E+01 1.56973E+01 0.00000E+00
 -1      3755 8.65350E+01 1.69963E+01 0.00000E+00
 -1      3756 9.17850E+01 1.56973E+01 0.00000E+00
 -1      3757 9.02850E+01 1.56973E+01 0.00000E+00
 -1      3758 8.95350E+01 1.69963E+01 0.00000E+00
 -1      3759 9.47850E+01 1.56973E+01 0.00000E+00
 -1      3760 9.32850E+01 1.56973E+01 0.00000E+00
 -1      3761 9.25350E+01 1.69963E+01 0.00000E+00
 -1      3762 9.77850E+01 1.56973E+01 0.00000E+00
 -1      3763 9.62850E+01 1.56973E+01 0.00000E+00
 -1      3764 9.55350E+01 1.69963E+01 0.00000E+00
 -1      3765 1.00785E+02 1.56973E+01 0.00000E+00
 -1      3766 9.92850E+01 1.56973E+01 0.00000E+00
 -1      3767 9.85350E+01 1.69963E+01 0.00000E+00
 -1      3768 1.03785E+02 1.56973E+01 0.00000E+00
 -1      3769 1.02285E+02 1.56973E+01 0.00000E+00
 -1      3770 1.01535E+02 1.69963E+01 0.00000E+00
 -1      3771 1.06785E+02 1.56973E+01 0.00000E+00
 -1      3772 1.05285E+02 1.56973E+01 0.00000E+00
 -1      3773 1.04535E+02 1.69963E+01 0.00000E+00
 -1      3774 1.09785E+02 1.56973E+01 0.00000E+00
 -1      3775 1.08285E+02 1.56973E+01 0.00000E+00
 -1      3776 1.07535E+02 1.69963E+01 0.00000E+00
 -1      3777 1.12785E+02 1.56973E+01 0.00000E+00
 -1      3778 1.11285E+02 1.56973E+01 0.00000E+00
 -1      3779 1.10535E+02 1.69963E+01 0.00000E+00
 -1      3780 1.15785E+02 1.56973E+01 0.00000E+00
 -1      3781 1.14285E+02 1.56973E+01 0.00000E+00
 -1      3782 1.13535E+02 1.69963E+01 0.00000E+00
 -1      3783 1.18785E+02 1.56973E+01 0.00000E+00
 -1      3784 1.17285E+02 1.56973E+01 0.00000E+00
 -1      3785 1.16535E+02 1.69963E+01 0.00000E+00
 -1      3786 1.21785E+02 1.56973E+01 0.00000E+00
 -1      3787 1.20285E+02 1.56973E+01 0.00000E+00
 -1      3788 1.19535E+02 1.69963E+01 0.00000E+00
 -1      3789 1.24785E+02 1.56973E+01 0.00000E+00
 -1      3790 1.23285E+02 1.56973E+01 0.00000E+00
 -1      3791 1.22535E+02 1.69963E+01 0.00000E+00
 -1      3792 1.27785E+02 1.56973E+01 0.00000E+00
 -1      3793 1.26285E+02 1.56973E+01 0.00000E+00
 -1      3794 1.25535E+02 1.69963E+01 0.00000E+00
 -1      3795 1.30785E+02 1.56973E+01 0.00000E+00
 -1      3796 1.29285E+02 1.56973E+01 0.00000E+00
 -1      3797 1.28535E+02 1.69963E+01 0.00000E+00
 -1      3798 1.33410E+02 1.57852E+01 0.00000E+00
 -1      3799 1.31910E+02 1.57852E+01 0.00000E+00
 -1      3800 1.31160E+02 1.70842E+01 0.00000E+00
 -1      3801 1.33410E+02 1.72603E+01 0.00000E+00
 -1      3802 1.33930E+02 3.30154E+01 0.00000E+00
 -1      3803 1.35145E+02 3.13999E+01 0.00000E+00
 -1      3804 1.33846E+02 3.06624E+01 0.00000E+00
 -1      3805 1.32715E+02 3.31621E+01 0.00000E+00
 -1      3806 5.00420E+01 3.26164E+01 0.00000E+00
 -1      3807 1.52240E+01 1.66711E+01 0.00000E+00
 -1      3808 7.07850E+01 1.56973E+01 0.00000E+00
 -1      3809 6.92850E+01 1.56973E+01 0.00000E+00
 -1      3810 6.85350E+01 1.69963E+01 0.00000E+00
 -1      3811 6.17850E+01 1.56973E+01 0.00000E+00
 -1      3812 6.02850E+01 1.56973E+01 0.00000E+00
 -1      3813 6.25350E+01 1.69963E+01 0.00000E+00
 -1      3814 5.17893E+01 2.47784E+01 0.00000E+00
 -1      3815 5.18338E+01 2.65298E+01 0.00000E+00
 -1      3816 1.63896E+01 2.35757E+01 0.00000E+00
 -1      3817 4.97085E+01 1.50467E+01 0.00000E+00
 -1      3818 5.87850E+01 1.56973E+01 0.00000E+00
 -1      3819 5.72850E+01 1.56973E+01 0.00000E+00
 -1      3820 5.95350E+01 1.69963E+01 0.00000E+00
 -1      3821 1.79892E+01 1.27413E+01 0.00000E+00
 -1      3822 1.88257E+01 3.38500E+01 0.00000E+00
 -1      3823 1.91651E+01 3.23630E+01 0.00000E+00
 -1      3824 1.75895E+01 3.01029E+01 0.00000E+00
 -1      3825 5.13227E+01 2.88462E+01 0.00000E+00
 -1      3826 5.05109E+01 3.05373E+01 0.00000E+00
 -1      3827 1.79615E+01 3.17855E+01 0.00000E+00
 -1      3828 1.61326E+01 2.51239E+01 0.00000E+00
 -1      3829 5.16189E+01 3.23330E+01 0.00000E+00
 -1      3830 5.31189E+01 3.23330E+01 0.00000E+00
 -1      3831 5.05494E+01 1.59537E+01 0.00000E+00
 -1      3832 1.49399E+01 2.58614E+01 0.00000E+00
 -1      3833 1.35711E+02 2.13406E+01 0.00000E+00
 -1      3834 1.35711E+02 1.98750E+01 0.00000E+00
 -1      3835 1.34412E+02 2.20781E+01 0.00000E+00
 -1      3836 1.34473E+02 1.89804E+01 0.00000E+00
 -1      3837 5.08974E+01 1.96136E+01 0.00000E+00
 -1      3838 5.18742E+01 2.07256E+01 0.00000E+00
 -1      3839 5.15406E+01 1.86213E+01 0.00000E+00
 -1      3840 1.31965E+02 3.18631E+01 0.00000E+00
 -1      3841 1.50727E+01 2.71829E+01 0.00000E+00
 -1      3842 1.33113E+02 2.57422E+01 0.00000E+00
 -1      3843 1.33113E+02 2.42766E+01 0.00000E+00
 -1      3844 7.15350E+01 1.69963E+01 0.00000E+00
 -1      3845 5.38753E+01 2.70288E+01 0.00000E+00
 -1      3846 5.25990E+01 2.79375E+01 0.00000E+00
 -1      3847 5.33642E+01 2.93452E+01 0.00000E+00
 -1      3848 5.20494E+01 1.59537E+01 0.00000E+00
 -1      3849 5.21706E+01 2.36695E+01 0.00000E+00
 -1      3850 5.34914E+01 2.45121E+01 0.00000E+00
 -1      3851 5.25519E+01 2.25605E+01 0.00000E+00
 -1      3852 5.38689E+01 3.10339E+01 0.00000E+00
 -1      3853 5.27994E+01 1.72527E+01 0.00000E+00
 -1      3854 1.71572E+01 3.39609E+01 0.00000E+00
 -1      3855 5.65350E+01 1.69963E+01 0.00000E+00
 -1      3856 1.33113E+02 2.86797E+01 0.00000E+00
 -1      3857 1.33113E+02 2.72109E+01 0.00000E+00
 -1      3858 1.31814E+02 2.64781E+01 0.00000E+00
 -1      3859 1.69240E+01 3.22737E+01 0.00000E+00
 -1      3860 1.71566E+01 3.12418E+01 0.00000E+00
 -1      3861 5.94000E+01 3.05150E+01 0.00000E+00
 -1      3862 6.09000E+01 3.05150E+01 0.00000E+00
 -1      3863 6.24000E+01 3.05150E+01 0.00000E+00
 -1      3864 6.39000E+01 3.05150E+01 0.00000E+00
 -1      3865 6.16500E+01 2.92160E+01 0.00000E+00
 -1      3866 6.54000E+01 3.05150E+01 0.00000E+00
 -1      3867 6.69000E+01 3.05150E+01 0.00000E+00
 -1      3868 6.46500E+01 2.92160E+01 0.00000E+00
 -1      3869 6.84000E+01 3.05150E+01 0.00000E+00
 -1      3870 6.99000E+01 3.05150E+01 0.00000E+00
 -1      3871 6.76500E+01 2.92160E+01 0.00000E+00
 -1      3872 7.14000E+01 3.05150E+01 0.00000E+00
 -1      3873 7.29000E+01 3.05150E+01 0.00000E+00
 -1      3874 7.06500E+01 2.92160E+01 0.00000E+00
 -1      3875 7.44000E+01 3.05150E+01 0.00000E+00
 -1      3876 7.59000E+01 3.05150E+01 0.00000E+00
 -1      3877 7.36500E+01 2.92160E+01 0.00000E+00
 -1      3878 7.74000E+01 3.05150E+01 0.00000E+00
 -1      3879 7.89000E+01 3.05150E+01 0.00000E+00
 -1      3880 7.66500E+01 2.92160E+01 0.00000E+00
 -1      3881 8.04000E+01 3.05150E+01 0.00000E+00
 -1      3882 8.19000E+01 3.05150E+01 0.00000E+00
 -1      3883 7.96500E+01 2.92160E+01 0.00000E+00
 -1      3884 8.34000E+01 3.05150E+01 0.00000E+00
 -1      3885 8.49000E+01 3.05150E+01 0.00000E+00
 -1      3886 8.26500E+01 2.92160E+01 0.00000E+00
 -1      3887 8.64000E+01 3.05150E+01 0.00000E+00
 -1      3888 8.79000E+01 3.05150E+01 0.00000E+00
 -1      3889 8.56500E+01 2.92160E+01 0.00000E+00
 -1      3890 8.94000E+01 3.05150E+01 0.00000E+00
 -1      3891 9.09000E+01 3.05150E+01 0.00000E+00
 -1      3892 8.86500E+01 2.92160E+01 0.00000E+00
 -1      3893 9.24000E+01 3.05150E+01 0.00000E+00
 -1      3894 9.39000E+01 3.05150E+01 0.00000E+00
 -1      3895 9.16500E+01 2.92160E+01 0.00000E+00
 -1      3896 9.54000E+01 3.05150E+01 0.00000E+00
 -1      3897 9.69000E+01 3.05150E+01 0.00000E+00
 -1      3898 9.46500E+01 2.92160E+01 0.00000E+00
 -1      3899 9.84000E+01 3.05150E+01 0.00000E+00
 -1      3900 9.99000E+01 3.05150E+01 0.00000E+00
 -1      3901 9.76500E+01 2.92160E+01 0.00000E+00
 -1      3902 1.01400E+02 3.05150E+01 0.00000E+00
 -1      3903 1.02900E+02 3.05150E+01 0.00000E+00
 -1      3904 1.00650E+02 2.92160E+01 0.00000E+00
 -1      3905 1.04400E+02 3.05150E+01 0.00000E+00
 -1      3906 1.05900E+02 3.05150E+01 0.00000E+00
 -1      3907 1.03650E+02 2.92160E+01 0.00000E+00
 -1      3908 1.07400E+02 3.05150E+01 0.00000E+00
 -1      3909 1.08900E+02 3.05150E+01 0.00000E+00
 -1      3910 1.06650E+02 2.92160E+01 0.00000E+00
 -1      3911 1.10400E+02 3.05150E+01 0.00000E+00
 -1      3912 1.11900E+02 3.05150E+01 0.00000E+00
 -1      3913 1.09650E+02 2.92160E+01 0.00000E+00
 -1      3914 1.13400E+02 3.05150E+01 0.00000E+00
 -1      3915 1.14900E+02 3.05150E+01 0.00000E+00
 -1      3916 1.12650E+02 2.92160E+01 0.00000E+00
 -1      3917 1.16400E+02 3.05150E+01 0.00000E+00
 -1      3918 1.17900E+02 3.05150E+01 0.00000E+00
 -1      3919 1.15650E+02 2.92160E+01 0.00000E+00
 -1      3920 1.19400E+02 3.05150E+01 0.00000E+00
 -1      3921 1.20900E+02 3.05150E+01 0.00000E+00
 -1      3922 1.18650E+02 2.92160E+01 0.00000E+00
 -1      3923 1.22400E+02 3.05150E+01 0.00000E+00
 -1      3924 1.23900E+02 3.05150E+01 0.00000E+00
 -1      3925 1.21650E+02 2.92160E+01 0.00000E+00
 -1      3926 1.25400E+02 3.05150E+01 0.00000E+00
 -1      3927 1.26900E+02 3.05150E+01 0.00000E+00
 -1      3928 1.24650E+02 2.92160E+01 0.00000E+00
 -1      3929 1.28400E+02 3.05150E+01 0.00000E+00
 -1      3930 1.29900E+02 3.05150E+01 0.00000E+00
 -1      3931 1.27650E+02 2.92160E+01 0.00000E+00
 -1      3932 7.22850E+01 1.82952E+01 0.00000E+00
 -1      3933 7.07850E+01 1.82952E+01 0.00000E+00
 -1      3934 7.82850E+01 1.82952E+01 0.00000E+00
 -1      3935 7.67850E+01 1.82952E+01 0.00000E+00
 -1      3936 7.52850E+01 1.82952E+01 0.00000E+00
 -1      3937 7.37850E+01 1.82952E+01 0.00000E+00
 -1      3938 7.60350E+01 1.95942E+01 0.00000E+00
 -1      3939 8.42850E+01 1.82952E+01 0.00000E+00
 -1      3940 8.27850E+01 1.82952E+01 0.00000E+00
 -1      3941 8.72850E+01 1.82952E+01 0.00000E+00
 -1      3942 8.57850E+01 1.82952E+01 0.00000E+00
 -1      3943 8.50350E+01 1.95942E+01 0.00000E+00
 -1      3944 9.02850E+01 1.82952E+01 0.00000E+00
 -1      3945 8.87850E+01 1.82952E+01 0.00000E+00
 -1      3946 8.80350E+01 1.95942E+01 0.00000E+00
 -1      3947 9.32850E+01 1.82952E+01 0.00000E+00
 -1      3948 9.17850E+01 1.82952E+01 0.00000E+00
 -1      3949 9.10350E+01 1.95942E+01 0.00000E+00
 -1      3950 9.62850E+01 1.82952E+01 0.00000E+00
 -1      3951 9.47850E+01 1.82952E+01 0.00000E+00
 -1      3952 9.40350E+01 1.95942E+01 0.00000E+00
 -1      3953 9.92850E+01 1.82952E+01 0.00000E+00
 -1      3954 9.77850E+01 1.82952E+01 0.00000E+00
 -1      3955 9.70350E+01 1.95942E+01 0.00000E+00
 -1      3956 1.02285E+02 1.82952E+01 0.00000E+00
 -1      3957 1.00785E+02 1.82952E+01 0.00000E+00
 -1      3958 1.00035E+02 1.95942E+01 0.00000E+00
 -1      3959 1.05285E+02 1.82952E+01 0.00000E+00
 -1      3960 1.03785E+02 1.82952E+01 0.00000E+00
 -1      3961 1.03035E+02 1.95942E+01 0.00000E+00
 -1      3962 1.08285E+02 1.82952E+01 0.00000E+00
 -1      3963 1.06785E+02 1.82952E+01 0.00000E+00
 -1      3964 1.06035E+02 1.95942E+01 0.00000E+00
 -1      3965 1.11285E+02 1.82952E+01 0.00000E+00
 -1      3966 1.09785E+02 1.82952E+01 0.00000E+00
 -1      3967 1.09035E+02 1.95942E+01 0.00000E+00
 -1      3968 1.14285E+02 1.82952E+01 0.00000E+00
 -1      3969 1.12785E+02 1.82952E+01 0.00000E+00
 -1      3970 1.12035E+02 1.95942E+01 0.00000E+00
 -1      3971 1.17285E+02 1.82952E+01 0.00000E+00
 -1      3972 1.15785E+02 1.82952E+01 0.00000E+00
 -1      3973 1.15035E+02 1.95942E+01 0.00000E+00
 -1      3974 1.20285E+02 1.82952E+01 0.00000E+00
 -1      3975 1.18785E+02 1.82952E+01 0.00000E+00
 -1      3976 1.18035E+02 1.95942E+01 0.00000E+00
 -1      3977 1.23285E+02 1.82952E+01 0.00000E+00
 -1      3978 1.21785E+02 1.82952E+01 0.00000E+00
 -1      3979 1.21035E+02 1.95942E+01 0.00000E+00
 -1      3980 1.26285E+02 1.82952E+01 0.00000E+00
 -1      3981 1.24785E+02 1.82952E+01 0.00000E+00
 -1      3982 1.24035E+02 1.95942E+01 0.00000E+00
 -1      3983 1.29285E+02 1.82952E+01 0.00000E+00
 -1      3984 1.27785E+02 1.82952E+01 0.00000E+00
 -1      3985 1.27035E+02 1.95942E+01 0.00000E+00
 -1      3986 6.02850E+01 1.82952E+01 0.00000E+00
 -1      3987 5.87850E+01 1.82952E+01 0.00000E+00
 -1      3988 6.32850E+01 1.82952E+01 0.00000E+00
 -1      3989 6.17850E+01 1.82952E+01 0.00000E+00
 -1      3990 6.10350E+01 1.95942E+01 0.00000E+00
 -1      3991 5.51452E+01 3.01252E+01 0.00000E+00
 -1      3992 1.32548E+02 2.99296E+01 0.00000E+00
 -1      3993 5.65226E+01 3.03201E+01 0.00000E+00
 -1      3994 5.80226E+01 3.03201E+01 0.00000E+00
 -1      3995 5.87726E+01 2.90211E+01 0.00000E+00
 -1      3996 5.60179E+01 2.86314E+01 0.00000E+00
 -1      3997 1.31232E+02 2.98804E+01 0.00000E+00
 -1      3998 5.37761E+01 1.83648E+01 0.00000E+00
 -1      3999 1.31814E+02 2.35438E+01 0.00000E+00
 -1      4000 1.33113E+02 2.28109E+01 0.00000E+00
 -1      4001 1.33113E+02 2.13453E+01 0.00000E+00
 -1      4002 6.92850E+01 1.82952E+01 0.00000E+00
 -1      4003 6.77850E+01 1.82952E+01 0.00000E+00
 -1      4004 7.00350E+01 1.95942E+01 0.00000E+00
 -1      4005 1.33231E+02 2.01188E+01 0.00000E+00
 -1      4006 1.33292E+02 1.84867E+01 0.00000E+00
 -1      4007 1.32167E+02 1.83987E+01 0.00000E+00
 -1      4008 1.31932E+02 2.08517E+01 0.00000E+00
 -1      4009 5.72850E+01 1.82952E+01 0.00000E+00
 -1      4010 5.57850E+01 1.82952E+01 0.00000E+00
 -1      4011 5.80350E+01 1.95942E+01 0.00000E+00
 -1      4012 6.62850E+01 1.82952E+01 0.00000E+00
 -1      4013 6.47850E+01 1.82952E+01 0.00000E+00
 -1      4014 6.70350E+01 1.95942E+01 0.00000E+00
 -1      4015 8.12850E+01 1.82952E+01 0.00000E+00
 -1      4016 7.97850E+01 1.82952E+01 0.00000E+00
 -1      4017 8.20350E+01 1.95942E+01 0.00000E+00
 -1      4018 5.45261E+01 1.96638E+01 0.00000E+00
 -1      4019 1.30482E+02 2.85814E+01 0.00000E+00
 -1      4020 7.30350E+01 1.95942E+01 0.00000E+00
 -1      4021 5.46340E+01 2.57046E+01 0.00000E+00
 -1      4022 5.53992E+01 2.71123E+01 0.00000E+00
 -1      4023 6.40350E+01 1.95942E+01 0.00000E+00
 -1      4024 1.31042E+02 1.83107E+01 0.00000E+00
 -1      4025 5.31950E+01 2.15682E+01 0.00000E+00
 -1      4026 1.30292E+02 1.96097E+01 0.00000E+00
 -1      4027 1.30515E+02 2.42766E+01 0.00000E+00
 -1      4028 1.30515E+02 2.28109E+01 0.00000E+00
 -1      4029 7.90350E+01 1.95942E+01 0.00000E+00
 -1      4030 5.50153E+01 2.45956E+01 0.00000E+00
 -1      4031 1.30499E+02 2.71634E+01 0.00000E+00
 -1      4032 1.30499E+02 2.56946E+01 0.00000E+00
 -1      4033 1.29199E+02 2.49618E+01 0.00000E+00
 -1      4034 1.29167E+02 2.77979E+01 0.00000E+00
 -1      4035 6.39000E+01 2.79170E+01 0.00000E+00
 -1      4036 6.54000E+01 2.79170E+01 0.00000E+00
 -1      4037 6.69000E+01 2.79170E+01 0.00000E+00
 -1      4038 6.84000E+01 2.79170E+01 0.00000E+00
 -1      4039 6.61500E+01 2.66180E+01 0.00000E+00
 -1      4040 6.99000E+01 2.79170E+01 0.00000E+00
 -1      4041 7.14000E+01 2.79170E+01 0.00000E+00
 -1      4042 6.91500E+01 2.66180E+01 0.00000E+00
 -1      4043 7.29000E+01 2.79170E+01 0.00000E+00
 -1      4044 7.44000E+01 2.79170E+01 0.00000E+00
 -1      4045 7.21500E+01 2.66180E+01 0.00000E+00
 -1      4046 7.59000E+01 2.79170E+01 0.00000E+00
 -1      4047 7.74000E+01 2.79170E+01 0.00000E+00
 -1      4048 7.51500E+01 2.66180E+01 0.00000E+00
 -1      4049 7.89000E+01 2.79170E+01 0.00000E+00
 -1      4050 8.04000E+01 2.79170E+01 0.00000E+00
 -1      4051 7.81500E+01 2.66180E+01 0.00000E+00
 -1      4052 8.19000E+01 2.79170E+01 0.00000E+00
 -1      4053 8.34000E+01 2.79170E+01 0.00000E+00
 -1      4054 8.11500E+01 2.66180E+01 0.00000E+00
 -1      4055 8.49000E+01 2.79170E+01 0.00000E+00
 -1      4056 8.64000E+01 2.79170E+01 0.00000E+00
 -1      4057 8.41500E+01 2.66180E+01 0.00000E+00
 -1      4058 8.79000E+01 2.79170E+01 0.00000E+00
 -1      4059 8.94000E+01 2.79170E+01 0.00000E+00
 -1      4060 8.71500E+01 2.66180E+01 0.00000E+00
 -1      4061 9.09000E+01 2.79170E+01 0.00000E+00
 -1      4062 9.24000E+01 2.79170E+01 0.00000E+00
 -1      4063 9.01500E+01 2.66180E+01 0.00000E+00
 -1      4064 9.39000E+01 2.79170E+01 0.00000E+00
 -1      4065 9.54000E+01 2.79170E+01 0.00000E+00
 -1      4066 9.31500E+01 2.66180E+01 0.00000E+00
 -1      4067 9.69000E+01 2.79170E+01 0.00000E+00
 -1      4068 9.84000E+01 2.79170E+01 0.00000E+00
 -1      4069 9.61500E+01 2.66180E+01 0.00000E+00
 -1      4070 9.99000E+01 2.79170E+01 0.00000E+00
 -1      4071 1.01400E+02 2.79170E+01 0.00000E+00
 -1      4072 9.91500E+01 2.66180E+01 0.00000E+00
 -1      4073 1.02900E+02 2.79170E+01 0.00000E+00
 -1      4074 1.04400E+02 2.79170E+01 0.00000E+00
 -1      4075 1.02150E+02 2.66180E+01 0.00000E+00
 -1      4076 1.05900E+02 2.79170E+01 0.00000E+00
 -1      4077 1.07400E+02 2.79170E+01 0.00000E+00
 -1      4078 1.05150E+02 2.66180E+01 0.00000E+00
 -1      4079 1.08900E+02 2.79170E+01 0.00000E+00
 -1      4080 1.10400E+02 2.79170E+01 0.00000E+00
 -1      4081 1.08150E+02 2.66180E+01 0.00000E+00
 -1      4082 1.11900E+02 2.79170E+01 0.00000E+00
 -1      4083 1.13400E+02 2.79170E+01 0.00000E+00
 -1      4084 1.11150E+02 2.66180E+01 0.00000E+00
 -1      4085 1.14900E+02 2.79170E+01 0.00000E+00
 -1      4086 1.16400E+02 2.79170E+01 0.00000E+00
 -1      4087 1.14150E+02 2.66180E+01 0.00000E+00
 -1      4088 1.17900E+02 2.79170E+01 0.00000E+00
 -1      4089 1.19400E+02 2.79170E+01 0.00000E+00
 -1      4090 1.17150E+02 2.66180E+01 0.00000E+00
 -1      4091 1.20900E+02 2.79170E+01 0.00000E+00
 -1      4092 1.22400E+02 2.79170E+01 0.00000E+00
 -1      4093 1.20150E+02 2.66180E+01 0.00000E+00
 -1      4094 1.23900E+02 2.79170E+01 0.00000E+00
 -1      4095 1.25400E+02 2.79170E+01 0.00000E+00
 -1      4096 1.23150E+02 2.66180E+01 0.00000E+00
 -1      4097 1.26533E+02 2.78575E+01 0.00000E+00
 -1      4098 1.28033E+02 2.78575E+01 0.00000E+00
 -1      4099 1.28050E+02 2.64394E+01 0.00000E+00
 -1      4100 1.25783E+02 2.65585E+01 0.00000E+00
 -1      4101 5.52039E+01 2.14987E+01 0.00000E+00
 -1      4102 6.47850E+01 2.08932E+01 0.00000E+00
 -1      4103 6.32850E+01 2.08932E+01 0.00000E+00
 -1      4104 5.67766E+01 2.73071E+01 0.00000E+00
 -1      4105 8.87850E+01 2.08932E+01 0.00000E+00
 -1      4106 8.72850E+01 2.08932E+01 0.00000E+00
 -1      4107 8.57850E+01 2.08932E+01 0.00000E+00
 -1      4108 8.42850E+01 2.08932E+01 0.00000E+00
 -1      4109 8.65350E+01 2.21922E+01 0.00000E+00
 -1      4110 9.47850E+01 2.08932E+01 0.00000E+00
 -1      4111 9.32850E+01 2.08932E+01 0.00000E+00
 -1      4112 9.77850E+01 2.08932E+01 0.00000E+00
 -1      4113 9.62850E+01 2.08932E+01 0.00000E+00
 -1      4114 9.55350E+01 2.21922E+01 0.00000E+00
 -1      4115 1.00785E+02 2.08932E+01 0.00000E+00
 -1      4116 9.92850E+01 2.08932E+01 0.00000E+00
 -1      4117 9.85350E+01 2.21922E+01 0.00000E+00
 -1      4118 1.03785E+02 2.08932E+01 0.00000E+00
 -1      4119 1.02285E+02 2.08932E+01 0.00000E+00
 -1      4120 1.01535E+02 2.21922E+01 0.00000E+00
 -1      4121 1.06785E+02 2.08932E+01 0.00000E+00
 -1      4122 1.05285E+02 2.08932E+01 0.00000E+00
 -1      4123 1.04535E+02 2.21922E+01 0.00000E+00
 -1      4124 1.09785E+02 2.08932E+01 0.00000E+00
 -1      4125 1.08285E+02 2.08932E+01 0.00000E+00
 -1      4126 1.07535E+02 2.21922E+01 0.00000E+00
 -1      4127 1.12785E+02 2.08932E+01 0.00000E+00
 -1      4128 1.11285E+02 2.08932E+01 0.00000E+00
 -1      4129 1.10535E+02 2.21922E+01 0.00000E+00
 -1      4130 1.15785E+02 2.08932E+01 0.00000E+00
 -1      4131 1.14285E+02 2.08932E+01 0.00000E+00
 -1      4132 1.13535E+02 2.21922E+01 0.00000E+00
 -1      4133 1.18785E+02 2.08932E+01 0.00000E+00
 -1      4134 1.17285E+02 2.08932E+01 0.00000E+00
 -1      4135 1.16535E+02 2.21922E+01 0.00000E+00
 -1      4136 1.21785E+02 2.08932E+01 0.00000E+00
 -1      4137 1.20285E+02 2.08932E+01 0.00000E+00
 -1      4138 1.19535E+02 2.21922E+01 0.00000E+00
 -1      4139 1.24785E+02 2.08932E+01 0.00000E+00
 -1      4140 1.23285E+02 2.08932E+01 0.00000E+00
 -1      4141 1.22535E+02 2.21922E+01 0.00000E+00
 -1      4142 7.37850E+01 2.08932E+01 0.00000E+00
 -1      4143 7.22850E+01 2.08932E+01 0.00000E+00
 -1      4144 6.17850E+01 2.08932E+01 0.00000E+00
 -1      4145 6.02850E+01 2.08932E+01 0.00000E+00
 -1      4146 6.25350E+01 2.21922E+01 0.00000E+00
 -1      4147 5.71907E+01 2.11427E+01 0.00000E+00
 -1      4148 5.58596E+01 2.30472E+01 0.00000E+00
 -1      4149 5.70022E+01 2.42396E+01 0.00000E+00
 -1      4150 5.86907E+01 2.11427E+01 0.00000E+00
 -1      4151 1.30174E+02 2.08362E+01 0.00000E+00
 -1      4152 7.97850E+01 2.08932E+01 0.00000E+00
 -1      4153 7.82850E+01 2.08932E+01 0.00000E+00
 -1      4154 7.67850E+01 2.08932E+01 0.00000E+00
 -1      4155 7.52850E+01 2.08932E+01 0.00000E+00
 -1      4156 7.75350E+01 2.21922E+01 0.00000E+00
 -1      4157 7.07850E+01 2.08932E+01 0.00000E+00
 -1      4158 6.92850E+01 2.08932E+01 0.00000E+00
 -1      4159 7.15350E+01 2.21922E+01 0.00000E+00
 -1      4160 6.77850E+01 2.08932E+01 0.00000E+00
 -1      4161 6.62850E+01 2.08932E+01 0.00000E+00
 -1      4162 6.55350E+01 2.21922E+01 0.00000E+00
 -1      4163 6.85350E+01 2.21922E+01 0.00000E+00
 -1      4164 8.27850E+01 2.08932E+01 0.00000E+00
 -1      4165 8.12850E+01 2.08932E+01 0.00000E+00
 -1      4166 8.35350E+01 2.21922E+01 0.00000E+00
 -1      4167 9.17850E+01 2.08932E+01 0.00000E+00
 -1      4168 9.02850E+01 2.08932E+01 0.00000E+00
 -1      4169 8.95350E+01 2.21922E+01 0.00000E+00
 -1      4170 9.25350E+01 2.21922E+01 0.00000E+00
 -1      4171 6.09000E+01 2.79170E+01 0.00000E+00
 -1      4172 6.24000E+01 2.79170E+01 0.00000E+00
 -1      4173 6.31500E+01 2.66180E+01 0.00000E+00
 -1      4174 1.28876E+02 2.15690E+01 0.00000E+00
 -1      4175 1.28066E+02 2.50213E+01 0.00000E+00
 -1      4176 5.75353E+01 2.59829E+01 0.00000E+00
 -1      4177 5.81539E+01 2.75020E+01 0.00000E+00
 -1      4178 5.95313E+01 2.76969E+01 0.00000E+00
 -1      4179 6.02813E+01 2.63979E+01 0.00000E+00
 -1      4180 7.45350E+01 2.21922E+01 0.00000E+00
 -1      4181 1.27785E+02 2.08932E+01 0.00000E+00
 -1      4182 1.26285E+02 2.08932E+01 0.00000E+00
 -1      4183 5.94407E+01 2.24417E+01 0.00000E+00
 -1      4184 8.05350E+01 2.21922E+01 0.00000E+00
 -1      4185 1.28126E+02 2.28680E+01 0.00000E+00
 -1      4186 1.25535E+02 2.21922E+01 0.00000E+00
 -1      4187 1.26976E+02 2.43456E+01 0.00000E+00
 -1      4188 5.83796E+01 2.44345E+01 0.00000E+00
 -1      4189 7.48425E+01 2.44051E+01 0.00000E+00
 -1      4190 7.33425E+01 2.44051E+01 0.00000E+00
 -1      4191 6.88425E+01 2.44051E+01 0.00000E+00
 -1      4192 7.03425E+01 2.44051E+01 0.00000E+00
 -1      4193 7.18425E+01 2.44051E+01 0.00000E+00
 -1      4194 7.63425E+01 2.44051E+01 0.00000E+00
 -1      4195 7.78425E+01 2.44051E+01 0.00000E+00
 -1      4196 7.93425E+01 2.44051E+01 0.00000E+00
 -1      4197 8.08425E+01 2.44051E+01 0.00000E+00
 -1      4198 8.23425E+01 2.44051E+01 0.00000E+00
 -1      4199 8.38425E+01 2.44051E+01 0.00000E+00
 -1      4200 8.53425E+01 2.44051E+01 0.00000E+00
 -1      4201 8.68425E+01 2.44051E+01 0.00000E+00
 -1      4202 8.83425E+01 2.44051E+01 0.00000E+00
 -1      4203 8.98425E+01 2.44051E+01 0.00000E+00
 -1      4204 9.13425E+01 2.44051E+01 0.00000E+00
 -1      4205 9.28425E+01 2.44051E+01 0.00000E+00
 -1      4206 9.43425E+01 2.44051E+01 0.00000E+00
 -1      4207 9.58425E+01 2.44051E+01 0.00000E+00
 -1      4208 9.73425E+01 2.44051E+01 0.00000E+00
 -1      4209 9.88425E+01 2.44051E+01 0.00000E+00
 -1      4210 1.00342E+02 2.44051E+01 0.00000E+00
 -1      4211 1.01842E+02 2.44051E+01 0.00000E+00
 -1      4212 1.03342E+02 2.44051E+01 0.00000E+00
 -1      4213 1.04842E+02 2.44051E+01 0.00000E+00
 -1      4214 1.06342E+02 2.44051E+01 0.00000E+00
 -1      4215 1.07842E+02 2.44051E+01 0.00000E+00
 -1      4216 1.09342E+02 2.44051E+01 0.00000E+00
 -1      4217 1.10842E+02 2.44051E+01 0.00000E+00
 -1      4218 1.12342E+02 2.44051E+01 0.00000E+00
 -1      4219 1.13842E+02 2.44051E+01 0.00000E+00
 -1      4220 1.15342E+02 2.44051E+01 0.00000E+00
 -1      4221 1.16842E+02 2.44051E+01 0.00000E+00
 -1      4222 1.18342E+02 2.44051E+01 0.00000E+00
 -1      4223 1.19842E+02 2.44051E+01 0.00000E+00
 -1      4224 1.21342E+02 2.44051E+01 0.00000E+00
 -1      4225 1.22842E+02 2.44051E+01 0.00000E+00
 -1      4226 1.24342E+02 2.44051E+01 0.00000E+00
 -1      4227 1.25476E+02 2.43456E+01 0.00000E+00
 -1      4228 5.99738E+01 2.41850E+01 0.00000E+00
 -1      4229 6.28425E+01 2.44051E+01 0.00000E+00
 -1      4230 6.43425E+01 2.44051E+01 0.00000E+00
 -1      4231 6.13425E+01 2.44051E+01 0.00000E+00
 -1      4232 6.73425E+01 2.44051E+01 0.00000E+00
 -1      4233 6.58425E+01 2.44051E+01 0.00000E+00
 -3
    3C                          2035                                     1
 -1       164    8    0    1
 -2         6         7        23      1100      1263      1117
 -1       165    8    0    1
 -2         7         8       164      1101      1264      1265
 -1       166    8    0    1
 -2         8         9       165      1102      1266      1267
 -1       167    8    0    1
 -2         8       165       164      1267      1268      1264
 -1       168    8    0    1
 -2         9        10       166      1103      1269      1270
 -1       169    8    0    1
 -2         9       166       165      1270      1271      1266
 -1       170    8    0    1
 -2        10        11       167      1104      1272      1273
 -1       171    8    0    1
 -2        10       167       166      1273      1274      1269
 -1       172    8    0    1
 -2        11        12       168      1105      1275      1276
 -1       173    8    0    1
 -2        11       168       167      1276      1277      1272
 -1       174    8    0    1
 -2        12        13       169      1106      1278      1279
 -1       175    8    0    1
 -2        12       169       168      1279      1280      1275
 -1       176    8    0    1
 -2        13        14       170      1107      1281      1282
 -1       177    8    0    1
 -2        13       170       169      1282      1283      1278
 -1       178    8    0    1
 -2        14        15       171      1108      1284      1285
 -1       179    8    0    1
 -2        14       171       170      1285      1286      1281
 -1       180    8    0    1
 -2        15        16       172      1109      1287      1288
 -1       181    8    0    1
 -2        15       172       171      1288      1289      1284
 -1       182    8    0    1
 -2        16        17       173      1110      1290      1291
 -1       183    8    0    1
 -2        16       173       172      1291      1292      1287
 -1       184    8    0    1
 -2        17        18       174      1111      1293      1294
 -1       185    8    0    1
 -2        17       174       173      1294      1295      1290
 -1       186    8    0    1
 -2        18        19       175      1112      1296      1297
 -1       187    8    0    1
 -2        18       175       174      1297      1298      1293
 -1       188    8    0    1
 -2        19        20       176      1113      1299      1300
 -1       189    8    0    1
 -2        19       176       175      1300      1301      1296
 -1       190    8    0    1
 -2        20        21       177      1114      1302      1303
 -1       191    8    0    1
 -2        20       177       176      1303      1304      1299
 -1       192    8    0    1
 -2        21        22       178      1115      1305      1306
 -1       193    8    0    1
 -2        21       178       177      1306      1307      1302
 -1       194    8    0    1
 -2        22         5       179      1116      1308      1309
 -1       195    8    0    1
 -2       178        22       179      1305      1309      1310
 -1       196    8    0    1
 -2         5        72       179      1167      1311      1308
 -1       197    8    0    1
 -2        24        23       180      1118      1312      1313
 -1       198    8    0    1
 -2        25        24       181      1119      1314      1315
 -1       199    8    0    1
 -2        24       180       181      1313      1316      1314
 -1       200    8    0    1
 -2        26        25       182      1120      1317      1318
 -1       201    8    0    1
 -2        25       181       182      1315      1319      1317
 -1       202    8    0    1
 -2        27        26       183      1121      1320      1321
 -1       203    8    0    1
 -2        26       182       183      1318      1322      1320
 -1       204    8    0    1
 -2        28        27       184      1122      1323      1324
 -1       205    8    0    1
 -2        27       183       184      1321      1325      1323
 -1       206    8    0    1
 -2        29        28       185      1123      1326      1327
 -1       207    8    0    1
 -2        28       184       185      1324      1328      1326
 -1       208    8    0    1
 -2        30        29       186      1124      1329      1330
 -1       209    8    0    1
 -2        29       185       186      1327      1331      1329
 -1       210    8    0    1
 -2        31        30       187      1125      1332      1333
 -1       211    8    0    1
 -2        30       186       187      1330      1334      1332
 -1       212    8    0    1
 -2        32        31       188      1126      1335      1336
 -1       213    8    0    1
 -2        31       187       188      1333      1337      1335
 -1       214    8    0    1
 -2        33        32       189      1127      1338      1339
 -1       215    8    0    1
 -2        32       188       189      1336      1340      1338
 -1       216    8    0    1
 -2        34        33       190      1128      1341      1342
 -1       217    8    0    1
 -2        33       189       190      1339      1343      1341
 -1       218    8    0    1
 -2        35        34       191      1129      1344      1345
 -1       219    8    0    1
 -2        34       190       191      1342      1346      1344
 -1       220    8    0    1
 -2        36        35       192      1130      1347      1348
 -1       221    8    0    1
 -2        35       191       192      1345      1349      1347
 -1       222    8    0    1
 -2        37        36       193      1131      1350      1351
 -1       223    8    0    1
 -2        36       192       193      1348      1352      1350
 -1       224    8    0    1
 -2        38        37       194      1132      1353      1354
 -1       225    8    0    1
 -2        37       193       194      1351      1355      1353
 -1       226    8    0    1
 -2        39        38       195      1133      1356      1357
 -1       227    8    0    1
 -2        38       194       195      1354      1358      1356
 -1       228    8    0    1
 -2        40        39       196      1134      1359      1360
 -1       229    8    0    1
 -2        39       195       196      1357      1361      1359
 -1       230    8    0    1
 -2        41        40       197      1135      1362      1363
 -1       231    8    0    1
 -2        40       196       197      1360      1364      1362
 -1       232    8    0    1
 -2        42        41       198      1136      1365      1366
 -1       233    8    0    1
 -2        41       197       198      1363      1367      1365
 -1       234    8    0    1
 -2        43        42       199      1137      1368      1369
 -1       235    8    0    1
 -2        42       198       199      1366      1370      1368
 -1       236    8    0    1
 -2        44        43       200      1138      1371      1372
 -1       237    8    0    1
 -2        43       199       200      1369      1373      1371
 -1       238    8    0    1
 -2        45        44       201      1139      1374      1375
 -1       239    8    0    1
 -2        44       200       201      1372      1376      1374
 -1       240    8    0    1
 -2        46        45       202      1140      1377      1378
 -1       241    8    0    1
 -2        45       201       202      1375      1379      1377
 -1       242    8    0    1
 -2        47        46       203      1141      1380      1381
 -1       243    8    0    1
 -2        46       202       203      1378      1382      1380
 -1       244    8    0    1
 -2        48        47       204      1142      1383      1384
 -1       245    8    0    1
 -2        47       203       204      1381      1385      1383
 -1       246    8    0    1
 -2        49        48       205      1143      1386      1387
 -1       247    8    0    1
 -2        48       204       205      1384      1388      1386
 -1       248    8    0    1
 -2        50        49       206      1144      1389      1390
 -1       249    8    0    1
 -2        49       205       206      1387      1391      1389
 -1       250    8    0    1
 -2        51        50       207      1145      1392      1393
 -1       251    8    0    1
 -2        50       206       207      1390      1394      1392
 -1       252    8    0    1
 -2        52        51       208      1146      1395      1396
 -1       253    8    0    1
 -2        51       207       208      1393      1397      1395
 -1       254    8    0    1
 -2        53        52       209      1147      1398      1399
 -1       255    8    0    1
 -2        52       208       209      1396      1400      1398
 -1       256    8    0    1
 -2        54        53       210      1148      1401      1402
 -1       257    8    0    1
 -2        53       209       210      1399      1403      1401
 -1       258    8    0    1
 -2        55        54       211      1149      1404      1405
 -1       259    8    0    1
 -2        54       210       211      1402      1406      1404
 -1       260    8    0    1
 -2        56        55       212      1150      1407      1408
 -1       261    8    0    1
 -2        55       211       212      1405      1409      1407
 -1       262    8    0    1
 -2        57        56       213      1151      1410      1411
 -1       263    8    0    1
 -2        56       212       213      1408      1412      1410
 -1       264    8    0    1
 -2        58        57       214      1152      1413      1414
 -1       265    8    0    1
 -2        57       213       214      1411      1415      1413
 -1       266    8    0    1
 -2        59        58       215      1153      1416      1417
 -1       267    8    0    1
 -2        58       214       215      1414      1418      1416
 -1       268    8    0    1
 -2        60        59       216      1154      1419      1420
 -1       269    8    0    1
 -2        59       215       216      1417      1421      1419
 -1       270    8    0    1
 -2        61        60       217      1155      1422      1423
 -1       271    8    0    1
 -2        60       216       217      1420      1424      1422
 -1       272    8    0    1
 -2        62        61       218      1156      1425      1426
 -1       273    8    0    1
 -2        61       217       218      1423      1427      1425
 -1       274    8    0    1
 -2        63        62       219      1157      1428      1429
 -1       275    8    0    1
 -2        62       218       219      1426      1430      1428
 -1       276    8    0    1
 -2        64        63       220      1158      1431      1432
 -1       277    8    0    1
 -2        63       219       220      1429      1433      1431
 -1       278    8    0    1
 -2        65        64       221      1159      1434      1435
 -1       279    8    0    1
 -2        64       220       221      1432      1436      1434
 -1       280    8    0    1
 -2        66        65       222      1160      1437      1438
 -1       281    8    0    1
 -2        65       221       222      1435      1439      1437
 -1       282    8    0    1
 -2        67        66       223      1161      1440      1441
 -1       283    8    0    1
 -2        66       222       223      1438      1442      1440
 -1       284    8    0    1
 -2        68        67       224      1162      1443      1444
 -1       285    8    0    1
 -2        67       223       224      1441      1445      1443
 -1       286    8    0    1
 -2        69        68       225      1163      1446      1447
 -1       287    8    0    1
 -2        68       224       225      1444      1448      1446
 -1       288    8    0    1
 -2        70        69       226      1164      1449      1450
 -1       289    8    0    1
 -2        69       225       226      1447      1451      1449
 -1       290    8    0    1
 -2        71        70       227      1165      1452      1453
 -1       291    8    0    1
 -2        70       226       227      1450      1454      1452
 -1       292    8    0    1
 -2         4        71       136      1166      1455      1233
 -1       293    8    0    1
 -2       136        71       227      1455      1453      1456
 -1       294    8    0    1
 -2        72        73       228      1168      1457      1458
 -1       295    8    0    1
 -2        72       228       179      1458      1459      1311
 -1       296    8    0    1
 -2        73        74       229      1169      1460      1461
 -1       297    8    0    1
 -2        73       229       228      1461      1462      1457
 -1       298    8    0    1
 -2        74        75       230      1170      1463      1464
 -1       299    8    0    1
 -2        74       230       229      1464      1465      1460
 -1       300    8    0    1
 -2        75        76       231      1171      1466      1467
 -1       301    8    0    1
 -2        75       231       230      1467      1468      1463
 -1       302    8    0    1
 -2        76        77       232      1172      1469      1470
 -1       303    8    0    1
 -2        76       232       231      1470      1471      1466
 -1       304    8    0    1
 -2        77        78       233      1173      1472      1473
 -1       305    8    0    1
 -2        77       233       232      1473      1474      1469
 -1       306    8    0    1
 -2        78        79       234      1174      1475      1476
 -1       307    8    0    1
 -2        78       234       233      1476      1477      1472
 -1       308    8    0    1
 -2        79        80       235      1175      1478      1479
 -1       309    8    0    1
 -2        79       235       234      1479      1480      1475
 -1       310    8    0    1
 -2        80        81       236      1176      1481      1482
 -1       311    8    0    1
 -2        80       236       235      1482      1483      1478
 -1       312    8    0    1
 -2        81        82       237      1177      1484      1485
 -1       313    8    0    1
 -2        81       237       236      1485      1486      1481
 -1       314    8    0    1
 -2        82        83       238      1178      1487      1488
 -1       315    8    0    1
 -2        82       238       237      1488      1489      1484
 -1       316    8    0    1
 -2        83        84       239      1179      1490      1491
 -1       317    8    0    1
 -2        83       239       238      1491      1492      1487
 -1       318    8    0    1
 -2        84        85       240      1180      1493      1494
 -1       319    8    0    1
 -2        84       240       239      1494      1495      1490
 -1       320    8    0    1
 -2        85        86       241      1181      1496      1497
 -1       321    8    0    1
 -2        85       241       240      1497      1498      1493
 -1       322    8    0    1
 -2        86        87       242      1182      1499      1500
 -1       323    8    0    1
 -2        86       242       241      1500      1501      1496
 -1       324    8    0    1
 -2        87        88       243      1183      1502      1503
 -1       325    8    0    1
 -2        87       243       242      1503      1504      1499
 -1       326    8    0    1
 -2        88        89       244      1184      1505      1506
 -1       327    8    0    1
 -2        88       244       243      1506      1507      1502
 -1       328    8    0    1
 -2        89        90       245      1185      1508      1509
 -1       329    8    0    1
 -2        89       245       244      1509      1510      1505
 -1       330    8    0    1
 -2        90        91       246      1186      1511      1512
 -1       331    8    0    1
 -2        90       246       245      1512      1513      1508
 -1       332    8    0    1
 -2        91        92       247      1187      1514      1515
 -1       333    8    0    1
 -2        91       247       246      1515      1516      1511
 -1       334    8    0    1
 -2        92        93       248      1188      1517      1518
 -1       335    8    0    1
 -2        92       248       247      1518      1519      1514
 -1       336    8    0    1
 -2        93        94       249      1189      1520      1521
 -1       337    8    0    1
 -2        93       249       248      1521      1522      1517
 -1       338    8    0    1
 -2        94        95       250      1190      1523      1524
 -1       339    8    0    1
 -2        94       250       249      1524      1525      1520
 -1       340    8    0    1
 -2        95        96       251      1191      1526      1527
 -1       341    8    0    1
 -2        95       251       250      1527      1528      1523
 -1       342    8    0    1
 -2        96        97       252      1192      1529      1530
 -1       343    8    0    1
 -2        96       252       251      1530      1531      1526
 -1       344    8    0    1
 -2        97        98       253      1193      1532      1533
 -1       345    8    0    1
 -2        97       253       252      1533      1534      1529
 -1       346    8    0    1
 -2        98        99       254      1194      1535      1536
 -1       347    8    0    1
 -2        98       254       253      1536      1537      1532
 -1       348    8    0    1
 -2        99       100       255      1195      1538      1539
 -1       349    8    0    1
 -2        99       255       254      1539      1540      1535
 -1       350    8    0    1
 -2       100       101       256      1196      1541      1542
 -1       351    8    0    1
 -2       100       256       255      1542      1543      1538
 -1       352    8    0    1
 -2       101       102       257      1197      1544      1545
 -1       353    8    0    1
 -2       101       257       256      1545      1546      1541
 -1       354    8    0    1
 -2       102       103       258      1198      1547      1548
 -1       355    8    0    1
 -2       102       258       257      1548      1549      1544
 -1       356    8    0    1
 -2       103       104       259      1199      1550      1551
 -1       357    8    0    1
 -2       103       259       258      1551      1552      1547
 -1       358    8    0    1
 -2       104       105       260      1200      1553      1554
 -1       359    8    0    1
 -2       104       260       259      1554      1555      1550
 -1       360    8    0    1
 -2       105       106       261      1201      1556      1557
 -1       361    8    0    1
 -2       105       261       260      1557      1558      1553
 -1       362    8    0    1
 -2       106       107       262      1202      1559      1560
 -1       363    8    0    1
 -2       106       262       261      1560      1561      1556
 -1       364    8    0    1
 -2       107       108       263      1203      1562      1563
 -1       365    8    0    1
 -2       107       263       262      1563      1564      1559
 -1       366    8    0    1
 -2       108       109       264      1204      1565      1566
 -1       367    8    0    1
 -2       108       264       263      1566      1567      1562
 -1       368    8    0    1
 -2       109       110       265      1205      1568      1569
 -1       369    8    0    1
 -2       109       265       264      1569      1570      1565
 -1       370    8    0    1
 -2       110       111       266      1206      1571      1572
 -1       371    8    0    1
 -2       110       266       265      1572      1573      1568
 -1       372    8    0    1
 -2       111       112       267      1207      1574      1575
 -1       373    8    0    1
 -2       111       267       266      1575      1576      1571
 -1       374    8    0    1
 -2       112       113       268      1208      1577      1578
 -1       375    8    0    1
 -2       112       268       267      1578      1579      1574
 -1       376    8    0    1
 -2       113       114       269      1209      1580      1581
 -1       377    8    0    1
 -2       113       269       268      1581      1582      1577
 -1       378    8    0    1
 -2       114       115       270      1210      1583      1584
 -1       379    8    0    1
 -2       114       270       269      1584      1585      1580
 -1       380    8    0    1
 -2       115       116       271      1211      1586      1587
 -1       381    8    0    1
 -2       115       271       270      1587      1588      1583
 -1       382    8    0    1
 -2       116       117       272      1212      1589      1590
 -1       383    8    0    1
 -2       116       272       271      1590      1591      1586
 -1       384    8    0    1
 -2       117       118       273      1213      1592      1593
 -1       385    8    0    1
 -2       117       273       272      1593      1594      1589
 -1       386    8    0    1
 -2       118       119       274      1214      1595      1596
 -1       387    8    0    1
 -2       118       274       273      1596      1597      1592
 -1       388    8    0    1
 -2       119       120       275      1215      1598      1599
 -1       389    8    0    1
 -2       119       275       274      1599      1600      1595
 -1       390    8    0    1
 -2       120         3       121      1216      1217      1601
 -1       391    8    0    1
 -2       121       122       276      1218      1602      1603
 -1       392    8    0    1
 -2       122       123       277      1219      1604      1605
 -1       393    8    0    1
 -2       122       277       276      1605      1606      1602
 -1       394    8    0    1
 -2       123       124       278      1220      1607      1608
 -1       395    8    0    1
 -2       123       278       277      1608      1609      1604
 -1       396    8    0    1
 -2       124       125       279      1221      1610      1611
 -1       397    8    0    1
 -2       124       279       278      1611      1612      1607
 -1       398    8    0    1
 -2       125       126       280      1222      1613      1614
 -1       399    8    0    1
 -2       125       280       279      1614      1615      1610
 -1       400    8    0    1
 -2       126       127       281      1223      1616      1617
 -1       401    8    0    1
 -2       126       281       280      1617      1618      1613
 -1       402    8    0    1
 -2       127       128       282      1224      1619      1620
 -1       403    8    0    1
 -2       127       282       281      1620      1621      1616
 -1       404    8    0    1
 -2       128       129       283      1225      1622      1623
 -1       405    8    0    1
 -2       128       283       282      1623      1624      1619
 -1       406    8    0    1
 -2       129       130       284      1226      1625      1626
 -1       407    8    0    1
 -2       129       284       283      1626      1627      1622
 -1       408    8    0    1
 -2       130       131       285      1227      1628      1629
 -1       409    8    0    1
 -2       130       285       284      1629      1630      1625
 -1       410    8    0    1
 -2       131       132       286      1228      1631      1632
 -1       411    8    0    1
 -2       131       286       285      1632      1633      1628
 -1       412    8    0    1
 -2       132       133       287      1229      1634      1635
 -1       413    8    0    1
 -2       132       287       286      1635      1636      1631
 -1       414    8    0    1
 -2       133       134       288      1230      1637      1638
 -1       415    8    0    1
 -2       133       288       287      1638      1639      1634
 -1       416    8    0    1
 -2       134       135       289      1231      1640      1641
 -1       417    8    0    1
 -2       134       289       288      1641      1642      1637
 -1       418    8    0    1
 -2       135       136       290      1232      1643      1644
 -1       419    8    0    1
 -2       289       135       290      1640      1644      1645
 -1       420    8    0    1
 -2       136       227       290      1456      1646      1643
 -1       421    8    0    1
 -2         2       137       291      1234      1647      1648
 -1       422    8    0    1
 -2       137       138       292      1235      1649      1650
 -1       423    8    0    1
 -2       138       139       293      1236      1651      1652
 -1       424    8    0    1
 -2       139       140       294      1237      1653      1654
 -1       425    8    0    1
 -2       140       141       295      1238      1655      1656
 -1       426    8    0    1
 -2       141       142       296      1239      1657      1658
 -1       427    8    0    1
 -2       142       143       297      1240      1659      1660
 -1       428    8    0    1
 -2       143       144       298      1241      1661      1662
 -1       429    8    0    1
 -2       144       145       299      1242      1663      1664
 -1       430    8    0    1
 -2       145       146       300      1243      1665      1666
 -1       431    8    0    1
 -2       146       147       301      1244      1667      1668
 -1       432    8    0    1
 -2       147       148       302      1245      1669      1670
 -1       433    8    0    1
 -2       148       149       303      1246      1671      1672
 -1       434    8    0    1
 -2       149       150       304      1247      1673      1674
 -1       435    8    0    1
 -2       150       151       305      1248      1675      1676
 -1       436    8    0    1
 -2       151       152       306      1249      1677      1678
 -1       437    8    0    1
 -2       152       153       307      1250      1679      1680
 -1       438    8    0    1
 -2       153       154       308      1251      1681      1682
 -1       439    8    0    1
 -2       154       155       309      1252      1683      1684
 -1       440    8    0    1
 -2       155       156       310      1253      1685      1686
 -1       441    8    0    1
 -2       156       157       311      1254      1687      1688
 -1       442    8    0    1
 -2       157         1       312      1255      1689      1690
 -1       443    8    0    1
 -2         1       158       313      1256      1691      1692
 -1       444    8    0    1
 -2       158       159       314      1257      1693      1694
 -1       445    8    0    1
 -2       159       160       315      1258      1695      1696
 -1       446    8    0    1
 -2       160       161       316      1259      1697      1698
 -1       447    8    0    1
 -2       161       162       317      1260      1699      1700
 -1       448    8    0    1
 -2       162       163       318      1261      1701      1702
 -1       449    8    0    1
 -2       163         2       319      1262      1703      1704
 -1       450    8    0    1
 -2       294       140       295      1653      1656      1705
 -1       451    8    0    1
 -2       293       139       294      1651      1654      1706
 -1       452    8    0    1
 -2       120       121       275      1601      1707      1598
 -1       453    8    0    1
 -2       121       276       275      1603      1708      1707
 -1       454    8    0    1
 -2       291       137       292      1647      1650      1709
 -1       455    8    0    1
 -2       292       138       293      1649      1652      1710
 -1       456    8    0    1
 -2         2       291       319      1648      1711      1703
 -1       457    8    0    1
 -2       141       296       295      1658      1712      1655
 -1       458    8    0    1
 -2       142       297       296      1660      1713      1657
 -1       459    8    0    1
 -2       143       298       297      1662      1714      1659
 -1       460    8    0    1
 -2       144       299       298      1664      1715      1661
 -1       461    8    0    1
 -2       145       300       299      1666      1716      1663
 -1       462    8    0    1
 -2       146       301       300      1668      1717      1665
 -1       463    8    0    1
 -2       147       302       301      1670      1718      1667
 -1       464    8    0    1
 -2       148       303       302      1672      1719      1669
 -1       465    8    0    1
 -2       149       304       303      1674      1720      1671
 -1       466    8    0    1
 -2       150       305       304      1676      1721      1673
 -1       467    8    0    1
 -2       151       306       305      1678      1722      1675
 -1       468    8    0    1
 -2       152       307       306      1680      1723      1677
 -1       469    8    0    1
 -2       153       308       307      1682      1724      1679
 -1       470    8    0    1
 -2       154       309       308      1684      1725      1681
 -1       471    8    0    1
 -2       155       310       309      1686      1726      1683
 -1       472    8    0    1
 -2       156       311       310      1688      1727      1685
 -1       473    8    0    1
 -2       157       312       311      1690      1728      1687
 -1       474    8    0    1
 -2         1       313       312      1692      1729      1689
 -1       475    8    0    1
 -2       158       314       313      1694      1730      1691
 -1       476    8    0    1
 -2       159       315       314      1696      1731      1693
 -1       477    8    0    1
 -2       160       316       315      1698      1732      1695
 -1       478    8    0    1
 -2       161       317       316      1700      1733      1697
 -1       479    8    0    1
 -2       162       318       317      1702      1734      1699
 -1       480    8    0    1
 -2       163       319       318      1704      1735      1701
 -1       481    8    0    1
 -2        23         7       164      1263      1265      1736
 -1       482    8    0    1
 -2       165       166       320      1271      1737      1738
 -1       483    8    0    1
 -2       164       165       321      1268      1739      1740
 -1       484    8    0    1
 -2       165       320       321      1738      1741      1739
 -1       485    8    0    1
 -2       167       168       322      1277      1742      1743
 -1       486    8    0    1
 -2       168       169       323      1280      1744      1745
 -1       487    8    0    1
 -2       168       323       322      1745      1746      1742
 -1       488    8    0    1
 -2       169       170       324      1283      1747      1748
 -1       489    8    0    1
 -2       169       324       323      1748      1749      1744
 -1       490    8    0    1
 -2       170       171       325      1286      1750      1751
 -1       491    8    0    1
 -2       170       325       324      1751      1752      1747
 -1       492    8    0    1
 -2       171       172       326      1289      1753      1754
 -1       493    8    0    1
 -2       171       326       325      1754      1755      1750
 -1       494    8    0    1
 -2       172       173       327      1292      1756      1757
 -1       495    8    0    1
 -2       172       327       326      1757      1758      1753
 -1       496    8    0    1
 -2       173       174       328      1295      1759      1760
 -1       497    8    0    1
 -2       173       328       327      1760      1761      1756
 -1       498    8    0    1
 -2       174       175       329      1298      1762      1763
 -1       499    8    0    1
 -2       174       329       328      1763      1764      1759
 -1       500    8    0    1
 -2       175       176       330      1301      1765      1766
 -1       501    8    0    1
 -2       175       330       329      1766      1767      1762
 -1       502    8    0    1
 -2       176       177       331      1304      1768      1769
 -1       503    8    0    1
 -2       176       331       330      1769      1770      1765
 -1       504    8    0    1
 -2       177       178       332      1307      1771      1772
 -1       505    8    0    1
 -2       177       332       331      1772      1773      1768
 -1       506    8    0    1
 -2       178       179       333      1310      1774      1775
 -1       507    8    0    1
 -2       332       178       333      1771      1775      1776
 -1       508    8    0    1
 -2       179       228       333      1459      1777      1774
 -1       509    8    0    1
 -2       180        23       164      1312      1736      1778
 -1       510    8    0    1
 -2       228       229       334      1462      1779      1780
 -1       511    8    0    1
 -2       228       334       333      1780      1781      1777
 -1       512    8    0    1
 -2       180       164       321      1778      1740      1782
 -1       513    8    0    1
 -2       182       181       335      1319      1783      1784
 -1       514    8    0    1
 -2       183       182       336      1322      1785      1786
 -1       515    8    0    1
 -2       182       335       336      1784      1787      1785
 -1       516    8    0    1
 -2       184       183       337      1325      1788      1789
 -1       517    8    0    1
 -2       183       336       337      1786      1790      1788
 -1       518    8    0    1
 -2       185       184       338      1328      1791      1792
 -1       519    8    0    1
 -2       184       337       338      1789      1793      1791
 -1       520    8    0    1
 -2       186       185       339      1331      1794      1795
 -1       521    8    0    1
 -2       185       338       339      1792      1796      1794
 -1       522    8    0    1
 -2       187       186       340      1334      1797      1798
 -1       523    8    0    1
 -2       186       339       340      1795      1799      1797
 -1       524    8    0    1
 -2       188       187       341      1337      1800      1801
 -1       525    8    0    1
 -2       187       340       341      1798      1802      1800
 -1       526    8    0    1
 -2       189       188       342      1340      1803      1804
 -1       527    8    0    1
 -2       188       341       342      1801      1805      1803
 -1       528    8    0    1
 -2       190       189       343      1343      1806      1807
 -1       529    8    0    1
 -2       189       342       343      1804      1808      1806
 -1       530    8    0    1
 -2       191       190       344      1346      1809      1810
 -1       531    8    0    1
 -2       190       343       344      1807      1811      1809
 -1       532    8    0    1
 -2       192       191       345      1349      1812      1813
 -1       533    8    0    1
 -2       191       344       345      1810      1814      1812
 -1       534    8    0    1
 -2       193       192       346      1352      1815      1816
 -1       535    8    0    1
 -2       192       345       346      1813      1817      1815
 -1       536    8    0    1
 -2       194       193       347      1355      1818      1819
 -1       537    8    0    1
 -2       193       346       347      1816      1820      1818
 -1       538    8    0    1
 -2       195       194       348      1358      1821      1822
 -1       539    8    0    1
 -2       194       347       348      1819      1823      1821
 -1       540    8    0    1
 -2       196       195       349      1361      1824      1825
 -1       541    8    0    1
 -2       195       348       349      1822      1826      1824
 -1       542    8    0    1
 -2       197       196       350      1364      1827      1828
 -1       543    8    0    1
 -2       196       349       350      1825      1829      1827
 -1       544    8    0    1
 -2       198       197       351      1367      1830      1831
 -1       545    8    0    1
 -2       197       350       351      1828      1832      1830
 -1       546    8    0    1
 -2       199       198       352      1370      1833      1834
 -1       547    8    0    1
 -2       198       351       352      1831      1835      1833
 -1       548    8    0    1
 -2       200       199       353      1373      1836      1837
 -1       549    8    0    1
 -2       199       352       353      1834      1838      1836
 -1       550    8    0    1
 -2       201       200       354      1376      1839      1840
 -1       551    8    0    1
 -2       200       353       354      1837      1841      1839
 -1       552    8    0    1
 -2       202       201       355      1379      1842      1843
 -1       553    8    0    1
 -2       201       354       355      1840      1844      1842
 -1       554    8    0    1
 -2       203       202       356      1382      1845      1846
 -1       555    8    0    1
 -2       202       355       356      1843      1847      1845
 -1       556    8    0    1
 -2       204       203       357      1385      1848      1849
 -1       557    8    0    1
 -2       203       356       357      1846      1850      1848
 -1       558    8    0    1
 -2       205       204       358      1388      1851      1852
 -1       559    8    0    1
 -2       204       357       358      1849      1853      1851
 -1       560    8    0    1
 -2       206       205       359      1391      1854      1855
 -1       561    8    0    1
 -2       205       358       359      1852      1856      1854
 -1       562    8    0    1
 -2       207       206       360      1394      1857      1858
 -1       563    8    0    1
 -2       206       359       360      1855      1859      1857
 -1       564    8    0    1
 -2       208       207       361      1397      1860      1861
 -1       565    8    0    1
 -2       207       360       361      1858      1862      1860
 -1       566    8    0    1
 -2       209       208       362      1400      1863      1864
 -1       567    8    0    1
 -2       208       361       362      1861      1865      1863
 -1       568    8    0    1
 -2       210       209       363      1403      1866      1867
 -1       569    8    0    1
 -2       209       362       363      1864      1868      1866
 -1       570    8    0    1
 -2       211       210       364      1406      1869      1870
 -1       571    8    0    1
 -2       210       363       364      1867      1871      1869
 -1       572    8    0    1
 -2       212       211       365      1409      1872      1873
 -1       573    8    0    1
 -2       211       364       365      1870      1874      1872
 -1       574    8    0    1
 -2       213       212       366      1412      1875      1876
 -1       575    8    0    1
 -2       212       365       366      1873      1877      1875
 -1       576    8    0    1
 -2       214       213       367      1415      1878      1879
 -1       577    8    0    1
 -2       213       366       367      1876      1880      1878
 -1       578    8    0    1
 -2       215       214       368      1418      1881      1882
 -1       579    8    0    1
 -2       214       367       368      1879      1883      1881
 -1       580    8    0    1
 -2       216       215       369      1421      1884      1885
 -1       581    8    0    1
 -2       215       368       369      1882      1886      1884
 -1       582    8    0    1
 -2       217       216       370      1424      1887      1888
 -1       583    8    0    1
 -2       216       369       370      1885      1889      1887
 -1       584    8    0    1
 -2       218       217       371      1427      1890      1891
 -1       585    8    0    1
 -2       217       370       371      1888      1892      1890
 -1       586    8    0    1
 -2       219       218       372      1430      1893      1894
 -1       587    8    0    1
 -2       218       371       372      1891      1895      1893
 -1       588    8    0    1
 -2       220       219       373      1433      1896      1897
 -1       589    8    0    1
 -2       219       372       373      1894      1898      1896
 -1       590    8    0    1
 -2       221       220       374      1436      1899      1900
 -1       591    8    0    1
 -2       220       373       374      1897      1901      1899
 -1       592    8    0    1
 -2       222       221       375      1439      1902      1903
 -1       593    8    0    1
 -2       221       374       375      1900      1904      1902
 -1       594    8    0    1
 -2       223       222       376      1442      1905      1906
 -1       595    8    0    1
 -2       222       375       376      1903      1907      1905
 -1       596    8    0    1
 -2       224       223       377      1445      1908      1909
 -1       597    8    0    1
 -2       223       376       377      1906      1910      1908
 -1       598    8    0    1
 -2       225       224       378      1448      1911      1912
 -1       599    8    0    1
 -2       224       377       378      1909      1913      1911
 -1       600    8    0    1
 -2       226       225       379      1451      1914      1915
 -1       601    8    0    1
 -2       225       378       379      1912      1916      1914
 -1       602    8    0    1
 -2       227       226       380      1454      1917      1918
 -1       603    8    0    1
 -2       290       227       380      1646      1918      1919
 -1       604    8    0    1
 -2       226       379       380      1915      1920      1917
 -1       605    8    0    1
 -2       229       230       381      1465      1921      1922
 -1       606    8    0    1
 -2       229       381       334      1922      1923      1779
 -1       607    8    0    1
 -2       230       231       382      1468      1924      1925
 -1       608    8    0    1
 -2       230       382       381      1925      1926      1921
 -1       609    8    0    1
 -2       231       232       383      1471      1927      1928
 -1       610    8    0    1
 -2       231       383       382      1928      1929      1924
 -1       611    8    0    1
 -2       232       233       384      1474      1930      1931
 -1       612    8    0    1
 -2       232       384       383      1931      1932      1927
 -1       613    8    0    1
 -2       233       234       385      1477      1933      1934
 -1       614    8    0    1
 -2       233       385       384      1934      1935      1930
 -1       615    8    0    1
 -2       234       235       386      1480      1936      1937
 -1       616    8    0    1
 -2       234       386       385      1937      1938      1933
 -1       617    8    0    1
 -2       235       236       387      1483      1939      1940
 -1       618    8    0    1
 -2       235       387       386      1940      1941      1936
 -1       619    8    0    1
 -2       236       237       388      1486      1942      1943
 -1       620    8    0    1
 -2       236       388       387      1943      1944      1939
 -1       621    8    0    1
 -2       237       238       389      1489      1945      1946
 -1       622    8    0    1
 -2       237       389       388      1946      1947      1942
 -1       623    8    0    1
 -2       238       239       390      1492      1948      1949
 -1       624    8    0    1
 -2       238       390       389      1949      1950      1945
 -1       625    8    0    1
 -2       239       240       391      1495      1951      1952
 -1       626    8    0    1
 -2       239       391       390      1952      1953      1948
 -1       627    8    0    1
 -2       240       241       392      1498      1954      1955
 -1       628    8    0    1
 -2       240       392       391      1955      1956      1951
 -1       629    8    0    1
 -2       241       242       393      1501      1957      1958
 -1       630    8    0    1
 -2       241       393       392      1958      1959      1954
 -1       631    8    0    1
 -2       242       243       394      1504      1960      1961
 -1       632    8    0    1
 -2       242       394       393      1961      1962      1957
 -1       633    8    0    1
 -2       243       244       395      1507      1963      1964
 -1       634    8    0    1
 -2       243       395       394      1964      1965      1960
 -1       635    8    0    1
 -2       244       245       396      1510      1966      1967
 -1       636    8    0    1
 -2       244       396       395      1967      1968      1963
 -1       637    8    0    1
 -2       245       246       397      1513      1969      1970
 -1       638    8    0    1
 -2       245       397       396      1970      1971      1966
 -1       639    8    0    1
 -2       246       247       398      1516      1972      1973
 -1       640    8    0    1
 -2       246       398       397      1973      1974      1969
 -1       641    8    0    1
 -2       247       248       399      1519      1975      1976
 -1       642    8    0    1
 -2       247       399       398      1976      1977      1972
 -1       643    8    0    1
 -2       248       249       400      1522      1978      1979
 -1       644    8    0    1
 -2       248       400       399      1979      1980      1975
 -1       645    8    0    1
 -2       249       250       401      1525      1981      1982
 -1       646    8    0    1
 -2       249       401       400      1982      1983      1978
 -1       647    8    0    1
 -2       250       251       402      1528      1984      1985
 -1       648    8    0    1
 -2       250       402       401      1985      1986      1981
 -1       649    8    0    1
 -2       251       252       403      1531      1987      1988
 -1       650    8    0    1
 -2       251       403       402      1988      1989      1984
 -1       651    8    0    1
 -2       252       253       404      1534      1990      1991
 -1       652    8    0    1
 -2       252       404       403      1991      1992      1987
 -1       653    8    0    1
 -2       253       254       405      1537      1993      1994
 -1       654    8    0    1
 -2       253       405       404      1994      1995      1990
 -1       655    8    0    1
 -2       254       255       406      1540      1996      1997
 -1       656    8    0    1
 -2       254       406       405      1997      1998      1993
 -1       657    8    0    1
 -2       255       256       407      1543      1999      2000
 -1       658    8    0    1
 -2       255       407       406      2000      2001      1996
 -1       659    8    0    1
 -2       256       257       408      1546      2002      2003
 -1       660    8    0    1
 -2       256       408       407      2003      2004      1999
 -1       661    8    0    1
 -2       257       258       409      1549      2005      2006
 -1       662    8    0    1
 -2       257       409       408      2006      2007      2002
 -1       663    8    0    1
 -2       258       259       410      1552      2008      2009
 -1       664    8    0    1
 -2       258       410       409      2009      2010      2005
 -1       665    8    0    1
 -2       259       260       411      1555      2011      2012
 -1       666    8    0    1
 -2       259       411       410      2012      2013      2008
 -1       667    8    0    1
 -2       260       261       412      1558      2014      2015
 -1       668    8    0    1
 -2       260       412       411      2015      2016      2011
 -1       669    8    0    1
 -2       261       262       413      1561      2017      2018
 -1       670    8    0    1
 -2       261       413       412      2018      2019      2014
 -1       671    8    0    1
 -2       262       263       414      1564      2020      2021
 -1       672    8    0    1
 -2       262       414       413      2021      2022      2017
 -1       673    8    0    1
 -2       263       264       415      1567      2023      2024
 -1       674    8    0    1
 -2       263       415       414      2024      2025      2020
 -1       675    8    0    1
 -2       264       265       416      1570      2026      2027
 -1       676    8    0    1
 -2       264       416       415      2027      2028      2023
 -1       677    8    0    1
 -2       265       266       417      1573      2029      2030
 -1       678    8    0    1
 -2       265       417       416      2030      2031      2026
 -1       679    8    0    1
 -2       266       267       418      1576      2032      2033
 -1       680    8    0    1
 -2       266       418       417      2033      2034      2029
 -1       681    8    0    1
 -2       267       268       419      1579      2035      2036
 -1       682    8    0    1
 -2       267       419       418      2036      2037      2032
 -1       683    8    0    1
 -2       268       269       420      1582      2038      2039
 -1       684    8    0    1
 -2       268       420       419      2039      2040      2035
 -1       685    8    0    1
 -2       269       270       421      1585      2041      2042
 -1       686    8    0    1
 -2       269       421       420      2042      2043      2038
 -1       687    8    0    1
 -2       270       271       422      1588      2044      2045
 -1       688    8    0    1
 -2       270       422       421      2045      2046      2041
 -1       689    8    0    1
 -2       271       272       423      1591      2047      2048
 -1       690    8    0    1
 -2       271       423       422      2048      2049      2044
 -1       691    8    0    1
 -2       272       273       424      1594      2050      2051
 -1       692    8    0    1
 -2       272       424       423      2051      2052      2047
 -1       693    8    0    1
 -2       273       274       425      1597      2053      2054
 -1       694    8    0    1
 -2       273       425       424      2054      2055      2050
 -1       695    8    0    1
 -2       274       275       426      1600      2056      2057
 -1       696    8    0    1
 -2       425       274       426      2053      2057      2058
 -1       697    8    0    1
 -2       275       276       426      1708      2059      2056
 -1       698    8    0    1
 -2       278       279       427      1612      2060      2061
 -1       699    8    0    1
 -2       277       278       428      1609      2062      2063
 -1       700    8    0    1
 -2       278       427       428      2061      2064      2062
 -1       701    8    0    1
 -2       276       277       429      1606      2065      2066
 -1       702    8    0    1
 -2       426       276       429      2059      2066      2067
 -1       703    8    0    1
 -2       277       428       429      2063      2068      2065
 -1       704    8    0    1
 -2       279       280       430      1615      2069      2070
 -1       705    8    0    1
 -2       279       430       427      2070      2071      2060
 -1       706    8    0    1
 -2       280       281       431      1618      2072      2073
 -1       707    8    0    1
 -2       280       431       430      2073      2074      2069
 -1       708    8    0    1
 -2       281       282       432      1621      2075      2076
 -1       709    8    0    1
 -2       281       432       431      2076      2077      2072
 -1       710    8    0    1
 -2       282       283       433      1624      2078      2079
 -1       711    8    0    1
 -2       282       433       432      2079      2080      2075
 -1       712    8    0    1
 -2       283       284       434      1627      2081      2082
 -1       713    8    0    1
 -2       283       434       433      2082      2083      2078
 -1       714    8    0    1
 -2       284       285       435      1630      2084      2085
 -1       715    8    0    1
 -2       284       435       434      2085      2086      2081
 -1       716    8    0    1
 -2       285       286       436      1633      2087      2088
 -1       717    8    0    1
 -2       285       436       435      2088      2089      2084
 -1       718    8    0    1
 -2       286       287       437      1636      2090      2091
 -1       719    8    0    1
 -2       286       437       436      2091      2092      2087
 -1       720    8    0    1
 -2       287       288       438      1639      2093      2094
 -1       721    8    0    1
 -2       287       438       437      2094      2095      2090
 -1       722    8    0    1
 -2       288       289       439      1642      2096      2097
 -1       723    8    0    1
 -2       288       439       438      2097      2098      2093
 -1       724    8    0    1
 -2       292       293       440      1710      2099      2100
 -1       725    8    0    1
 -2       319       291       441      1711      2101      2102
 -1       726    8    0    1
 -2       291       292       442      1709      2103      2104
 -1       727    8    0    1
 -2       292       440       442      2100      2105      2103
 -1       728    8    0    1
 -2       293       294       443      1706      2106      2107
 -1       729    8    0    1
 -2       293       443       440      2107      2108      2099
 -1       730    8    0    1
 -2       294       295       444      1705      2109      2110
 -1       731    8    0    1
 -2       166       167       445      1274      2111      2112
 -1       732    8    0    1
 -2       320       166       445      1737      2112      2113
 -1       733    8    0    1
 -2       167       322       445      1743      2114      2111
 -1       734    8    0    1
 -2       296       297       446      1713      2115      2116
 -1       735    8    0    1
 -2       297       298       447      1714      2117      2118
 -1       736    8    0    1
 -2       298       299       448      1715      2119      2120
 -1       737    8    0    1
 -2       299       300       449      1716      2121      2122
 -1       738    8    0    1
 -2       300       301       450      1717      2123      2124
 -1       739    8    0    1
 -2       300       450       449      2124      2125      2121
 -1       740    8    0    1
 -2       301       302       451      1718      2126      2127
 -1       741    8    0    1
 -2       302       303       452      1719      2128      2129
 -1       742    8    0    1
 -2       303       304       453      1720      2130      2131
 -1       743    8    0    1
 -2       304       305       454      1721      2132      2133
 -1       744    8    0    1
 -2       305       306       455      1722      2134      2135
 -1       745    8    0    1
 -2       305       455       454      2135      2136      2132
 -1       746    8    0    1
 -2       306       307       456      1723      2137      2138
 -1       747    8    0    1
 -2       307       308       457      1724      2139      2140
 -1       748    8    0    1
 -2       308       309       458      1725      2141      2142
 -1       749    8    0    1
 -2       309       310       459      1726      2143      2144
 -1       750    8    0    1
 -2       310       311       460      1727      2145      2146
 -1       751    8    0    1
 -2       311       312       461      1728      2147      2148
 -1       752    8    0    1
 -2       311       461       460      2148      2149      2145
 -1       753    8    0    1
 -2       312       313       462      1729      2150      2151
 -1       754    8    0    1
 -2       313       314       463      1730      2152      2153
 -1       755    8    0    1
 -2       314       315       464      1731      2154      2155
 -1       756    8    0    1
 -2       315       316       465      1732      2156      2157
 -1       757    8    0    1
 -2       315       465       464      2157      2158      2154
 -1       758    8    0    1
 -2       316       317       466      1733      2159      2160
 -1       759    8    0    1
 -2       317       318       467      1734      2161      2162
 -1       760    8    0    1
 -2       317       467       466      2162      2163      2159
 -1       761    8    0    1
 -2       318       319       468      1735      2164      2165
 -1       762    8    0    1
 -2       295       296       469      1712      2166      2167
 -1       763    8    0    1
 -2       180       321       181      1782      2168      1316
 -1       764    8    0    1
 -2       448       299       449      2119      2122      2169
 -1       765    8    0    1
 -2       296       446       469      2116      2170      2166
 -1       766    8    0    1
 -2       335       181       321      1783      2168      2171
 -1       767    8    0    1
 -2       441       291       442      2101      2104      2172
 -1       768    8    0    1
 -2       439       289       290      2096      1645      2173
 -1       769    8    0    1
 -2       294       444       443      2110      2174      2106
 -1       770    8    0    1
 -2       319       441       468      2102      2175      2164
 -1       771    8    0    1
 -2       444       295       469      2109      2167      2176
 -1       772    8    0    1
 -2       467       318       470      2161      2177      2178
 -1       773    8    0    1
 -2       318       468       470      2165      2179      2177
 -1       774    8    0    1
 -2       465       316       466      2156      2160      2180
 -1       775    8    0    1
 -2       463       314       464      2152      2155      2181
 -1       776    8    0    1
 -2       461       312       462      2147      2151      2182
 -1       777    8    0    1
 -2       459       310       460      2143      2146      2183
 -1       778    8    0    1
 -2       458       309       459      2141      2144      2184
 -1       779    8    0    1
 -2       457       308       458      2139      2142      2185
 -1       780    8    0    1
 -2       455       306       471      2134      2186      2187
 -1       781    8    0    1
 -2       306       456       471      2138      2188      2186
 -1       782    8    0    1
 -2       453       304       454      2130      2133      2189
 -1       783    8    0    1
 -2       452       303       453      2128      2131      2190
 -1       784    8    0    1
 -2       450       301       472      2123      2191      2192
 -1       785    8    0    1
 -2       301       451       472      2127      2193      2191
 -1       786    8    0    1
 -2       446       297       447      2115      2118      2194
 -1       787    8    0    1
 -2       447       298       448      2117      2120      2195
 -1       788    8    0    1
 -2       451       302       452      2126      2129      2196
 -1       789    8    0    1
 -2       456       307       457      2137      2140      2197
 -1       790    8    0    1
 -2       462       313       463      2150      2153      2198
 -1       791    8    0    1
 -2       334       381       473      1923      2199      2200
 -1       792    8    0    1
 -2       323       324       474      1749      2201      2202
 -1       793    8    0    1
 -2       322       323       475      1746      2203      2204
 -1       794    8    0    1
 -2       323       474       475      2202      2205      2203
 -1       795    8    0    1
 -2       325       326       476      1755      2206      2207
 -1       796    8    0    1
 -2       326       327       477      1758      2208      2209
 -1       797    8    0    1
 -2       326       477       476      2209      2210      2206
 -1       798    8    0    1
 -2       327       328       478      1761      2211      2212
 -1       799    8    0    1
 -2       327       478       477      2212      2213      2208
 -1       800    8    0    1
 -2       328       329       479      1764      2214      2215
 -1       801    8    0    1
 -2       328       479       478      2215      2216      2211
 -1       802    8    0    1
 -2       329       330       480      1767      2217      2218
 -1       803    8    0    1
 -2       329       480       479      2218      2219      2214
 -1       804    8    0    1
 -2       330       331       481      1770      2220      2221
 -1       805    8    0    1
 -2       330       481       480      2221      2222      2217
 -1       806    8    0    1
 -2       381       382       482      1926      2223      2224
 -1       807    8    0    1
 -2       381       482       473      2224      2225      2199
 -1       808    8    0    1
 -2       336       335       483      1787      2226      2227
 -1       809    8    0    1
 -2       448       449       484      2169      2228      2229
 -1       810    8    0    1
 -2       337       336       485      1790      2230      2231
 -1       811    8    0    1
 -2       336       483       485      2227      2232      2230
 -1       812    8    0    1
 -2       338       337       486      1793      2233      2234
 -1       813    8    0    1
 -2       337       485       486      2231      2235      2233
 -1       814    8    0    1
 -2       339       338       487      1796      2236      2237
 -1       815    8    0    1
 -2       338       486       487      2234      2238      2236
 -1       816    8    0    1
 -2       340       339       488      1799      2239      2240
 -1       817    8    0    1
 -2       339       487       488      2237      2241      2239
 -1       818    8    0    1
 -2       341       340       489      1802      2242      2243
 -1       819    8    0    1
 -2       340       488       489      2240      2244      2242
 -1       820    8    0    1
 -2       342       341       490      1805      2245      2246
 -1       821    8    0    1
 -2       341       489       490      2243      2247      2245
 -1       822    8    0    1
 -2       343       342       491      1808      2248      2249
 -1       823    8    0    1
 -2       342       490       491      2246      2250      2248
 -1       824    8    0    1
 -2       344       343       492      1811      2251      2252
 -1       825    8    0    1
 -2       343       491       492      2249      2253      2251
 -1       826    8    0    1
 -2       345       344       493      1814      2254      2255
 -1       827    8    0    1
 -2       344       492       493      2252      2256      2254
 -1       828    8    0    1
 -2       346       345       494      1817      2257      2258
 -1       829    8    0    1
 -2       345       493       494      2255      2259      2257
 -1       830    8    0    1
 -2       347       346       495      1820      2260      2261
 -1       831    8    0    1
 -2       346       494       495      2258      2262      2260
 -1       832    8    0    1
 -2       348       347       496      1823      2263      2264
 -1       833    8    0    1
 -2       347       495       496      2261      2265      2263
 -1       834    8    0    1
 -2       349       348       497      1826      2266      2267
 -1       835    8    0    1
 -2       348       496       497      2264      2268      2266
 -1       836    8    0    1
 -2       350       349       498      1829      2269      2270
 -1       837    8    0    1
 -2       349       497       498      2267      2271      2269
 -1       838    8    0    1
 -2       351       350       499      1832      2272      2273
 -1       839    8    0    1
 -2       350       498       499      2270      2274      2272
 -1       840    8    0    1
 -2       352       351       500      1835      2275      2276
 -1       841    8    0    1
 -2       351       499       500      2273      2277      2275
 -1       842    8    0    1
 -2       353       352       501      1838      2278      2279
 -1       843    8    0    1
 -2       352       500       501      2276      2280      2278
 -1       844    8    0    1
 -2       354       353       502      1841      2281      2282
 -1       845    8    0    1
 -2       353       501       502      2279      2283      2281
 -1       846    8    0    1
 -2       355       354       503      1844      2284      2285
 -1       847    8    0    1
 -2       354       502       503      2282      2286      2284
 -1       848    8    0    1
 -2       356       355       504      1847      2287      2288
 -1       849    8    0    1
 -2       355       503       504      2285      2289      2287
 -1       850    8    0    1
 -2       357       356       505      1850      2290      2291
 -1       851    8    0    1
 -2       356       504       505      2288      2292      2290
 -1       852    8    0    1
 -2       358       357       506      1853      2293      2294
 -1       853    8    0    1
 -2       357       505       506      2291      2295      2293
 -1       854    8    0    1
 -2       359       358       507      1856      2296      2297
 -1       855    8    0    1
 -2       358       506       507      2294      2298      2296
 -1       856    8    0    1
 -2       360       359       508      1859      2299      2300
 -1       857    8    0    1
 -2       359       507       508      2297      2301      2299
 -1       858    8    0    1
 -2       361       360       509      1862      2302      2303
 -1       859    8    0    1
 -2       360       508       509      2300      2304      2302
 -1       860    8    0    1
 -2       362       361       510      1865      2305      2306
 -1       861    8    0    1
 -2       361       509       510      2303      2307      2305
 -1       862    8    0    1
 -2       363       362       511      1868      2308      2309
 -1       863    8    0    1
 -2       362       510       511      2306      2310      2308
 -1       864    8    0    1
 -2       364       363       512      1871      2311      2312
 -1       865    8    0    1
 -2       363       511       512      2309      2313      2311
 -1       866    8    0    1
 -2       365       364       513      1874      2314      2315
 -1       867    8    0    1
 -2       364       512       513      2312      2316      2314
 -1       868    8    0    1
 -2       366       365       514      1877      2317      2318
 -1       869    8    0    1
 -2       365       513       514      2315      2319      2317
 -1       870    8    0    1
 -2       367       366       515      1880      2320      2321
 -1       871    8    0    1
 -2       366       514       515      2318      2322      2320
 -1       872    8    0    1
 -2       368       367       516      1883      2323      2324
 -1       873    8    0    1
 -2       367       515       516      2321      2325      2323
 -1       874    8    0    1
 -2       369       368       517      1886      2326      2327
 -1       875    8    0    1
 -2       368       516       517      2324      2328      2326
 -1       876    8    0    1
 -2       370       369       518      1889      2329      2330
 -1       877    8    0    1
 -2       369       517       518      2327      2331      2329
 -1       878    8    0    1
 -2       371       370       519      1892      2332      2333
 -1       879    8    0    1
 -2       370       518       519      2330      2334      2332
 -1       880    8    0    1
 -2       372       371       520      1895      2335      2336
 -1       881    8    0    1
 -2       371       519       520      2333      2337      2335
 -1       882    8    0    1
 -2       373       372       521      1898      2338      2339
 -1       883    8    0    1
 -2       372       520       521      2336      2340      2338
 -1       884    8    0    1
 -2       374       373       522      1901      2341      2342
 -1       885    8    0    1
 -2       373       521       522      2339      2343      2341
 -1       886    8    0    1
 -2       375       374       523      1904      2344      2345
 -1       887    8    0    1
 -2       374       522       523      2342      2346      2344
 -1       888    8    0    1
 -2       376       375       524      1907      2347      2348
 -1       889    8    0    1
 -2       375       523       524      2345      2349      2347
 -1       890    8    0    1
 -2       377       376       525      1910      2350      2351
 -1       891    8    0    1
 -2       376       524       525      2348      2352      2350
 -1       892    8    0    1
 -2       378       377       526      1913      2353      2354
 -1       893    8    0    1
 -2       377       525       526      2351      2355      2353
 -1       894    8    0    1
 -2       379       378       527      1916      2356      2357
 -1       895    8    0    1
 -2       378       526       527      2354      2358      2356
 -1       896    8    0    1
 -2       442       440       528      2105      2359      2360
 -1       897    8    0    1
 -2       383       384       529      1932      2361      2362
 -1       898    8    0    1
 -2       384       385       530      1935      2363      2364
 -1       899    8    0    1
 -2       384       530       529      2364      2365      2361
 -1       900    8    0    1
 -2       385       386       531      1938      2366      2367
 -1       901    8    0    1
 -2       385       531       530      2367      2368      2363
 -1       902    8    0    1
 -2       386       387       532      1941      2369      2370
 -1       903    8    0    1
 -2       386       532       531      2370      2371      2366
 -1       904    8    0    1
 -2       387       388       533      1944      2372      2373
 -1       905    8    0    1
 -2       387       533       532      2373      2374      2369
 -1       906    8    0    1
 -2       388       389       534      1947      2375      2376
 -1       907    8    0    1
 -2       388       534       533      2376      2377      2372
 -1       908    8    0    1
 -2       389       390       535      1950      2378      2379
 -1       909    8    0    1
 -2       389       535       534      2379      2380      2375
 -1       910    8    0    1
 -2       390       391       536      1953      2381      2382
 -1       911    8    0    1
 -2       390       536       535      2382      2383      2378
 -1       912    8    0    1
 -2       391       392       537      1956      2384      2385
 -1       913    8    0    1
 -2       391       537       536      2385      2386      2381
 -1       914    8    0    1
 -2       392       393       538      1959      2387      2388
 -1       915    8    0    1
 -2       392       538       537      2388      2389      2384
 -1       916    8    0    1
 -2       393       394       539      1962      2390      2391
 -1       917    8    0    1
 -2       393       539       538      2391      2392      2387
 -1       918    8    0    1
 -2       394       395       540      1965      2393      2394
 -1       919    8    0    1
 -2       394       540       539      2394      2395      2390
 -1       920    8    0    1
 -2       395       396       541      1968      2396      2397
 -1       921    8    0    1
 -2       395       541       540      2397      2398      2393
 -1       922    8    0    1
 -2       396       397       542      1971      2399      2400
 -1       923    8    0    1
 -2       396       542       541      2400      2401      2396
 -1       924    8    0    1
 -2       397       398       543      1974      2402      2403
 -1       925    8    0    1
 -2       397       543       542      2403      2404      2399
 -1       926    8    0    1
 -2       398       399       544      1977      2405      2406
 -1       927    8    0    1
 -2       398       544       543      2406      2407      2402
 -1       928    8    0    1
 -2       399       400       545      1980      2408      2409
 -1       929    8    0    1
 -2       399       545       544      2409      2410      2405
 -1       930    8    0    1
 -2       400       401       546      1983      2411      2412
 -1       931    8    0    1
 -2       400       546       545      2412      2413      2408
 -1       932    8    0    1
 -2       401       402       547      1986      2414      2415
 -1       933    8    0    1
 -2       401       547       546      2415      2416      2411
 -1       934    8    0    1
 -2       402       403       548      1989      2417      2418
 -1       935    8    0    1
 -2       402       548       547      2418      2419      2414
 -1       936    8    0    1
 -2       403       404       549      1992      2420      2421
 -1       937    8    0    1
 -2       403       549       548      2421      2422      2417
 -1       938    8    0    1
 -2       404       405       550      1995      2423      2424
 -1       939    8    0    1
 -2       404       550       549      2424      2425      2420
 -1       940    8    0    1
 -2       405       406       551      1998      2426      2427
 -1       941    8    0    1
 -2       405       551       550      2427      2428      2423
 -1       942    8    0    1
 -2       406       407       552      2001      2429      2430
 -1       943    8    0    1
 -2       406       552       551      2430      2431      2426
 -1       944    8    0    1
 -2       407       408       553      2004      2432      2433
 -1       945    8    0    1
 -2       407       553       552      2433      2434      2429
 -1       946    8    0    1
 -2       408       409       554      2007      2435      2436
 -1       947    8    0    1
 -2       408       554       553      2436      2437      2432
 -1       948    8    0    1
 -2       409       410       555      2010      2438      2439
 -1       949    8    0    1
 -2       409       555       554      2439      2440      2435
 -1       950    8    0    1
 -2       410       411       556      2013      2441      2442
 -1       951    8    0    1
 -2       410       556       555      2442      2443      2438
 -1       952    8    0    1
 -2       411       412       557      2016      2444      2445
 -1       953    8    0    1
 -2       411       557       556      2445      2446      2441
 -1       954    8    0    1
 -2       412       413       558      2019      2447      2448
 -1       955    8    0    1
 -2       412       558       557      2448      2449      2444
 -1       956    8    0    1
 -2       413       414       559      2022      2450      2451
 -1       957    8    0    1
 -2       413       559       558      2451      2452      2447
 -1       958    8    0    1
 -2       414       415       560      2025      2453      2454
 -1       959    8    0    1
 -2       414       560       559      2454      2455      2450
 -1       960    8    0    1
 -2       415       416       561      2028      2456      2457
 -1       961    8    0    1
 -2       415       561       560      2457      2458      2453
 -1       962    8    0    1
 -2       416       417       562      2031      2459      2460
 -1       963    8    0    1
 -2       416       562       561      2460      2461      2456
 -1       964    8    0    1
 -2       417       418       563      2034      2462      2463
 -1       965    8    0    1
 -2       417       563       562      2463      2464      2459
 -1       966    8    0    1
 -2       418       419       564      2037      2465      2466
 -1       967    8    0    1
 -2       418       564       563      2466      2467      2462
 -1       968    8    0    1
 -2       419       420       565      2040      2468      2469
 -1       969    8    0    1
 -2       419       565       564      2469      2470      2465
 -1       970    8    0    1
 -2       420       421       566      2043      2471      2472
 -1       971    8    0    1
 -2       420       566       565      2472      2473      2468
 -1       972    8    0    1
 -2       421       422       567      2046      2474      2475
 -1       973    8    0    1
 -2       421       567       566      2475      2476      2471
 -1       974    8    0    1
 -2       422       423       568      2049      2477      2478
 -1       975    8    0    1
 -2       422       568       567      2478      2479      2474
 -1       976    8    0    1
 -2       423       424       569      2052      2480      2481
 -1       977    8    0    1
 -2       423       569       568      2481      2482      2477
 -1       978    8    0    1
 -2       424       425       570      2055      2483      2484
 -1       979    8    0    1
 -2       424       570       569      2484      2485      2480
 -1       980    8    0    1
 -2       425       426       429      2058      2067      2486
 -1       981    8    0    1
 -2       430       431       571      2074      2487      2488
 -1       982    8    0    1
 -2       431       432       572      2077      2489      2490
 -1       983    8    0    1
 -2       431       572       571      2490      2491      2487
 -1       984    8    0    1
 -2       428       427       573      2064      2492      2493
 -1       985    8    0    1
 -2       427       430       574      2071      2494      2495
 -1       986    8    0    1
 -2       573       427       574      2492      2495      2496
 -1       987    8    0    1
 -2       430       571       574      2488      2497      2494
 -1       988    8    0    1
 -2       432       433       575      2080      2498      2499
 -1       989    8    0    1
 -2       432       575       572      2499      2500      2489
 -1       990    8    0    1
 -2       433       434       576      2083      2501      2502
 -1       991    8    0    1
 -2       433       576       575      2502      2503      2498
 -1       992    8    0    1
 -2       434       435       577      2086      2504      2505
 -1       993    8    0    1
 -2       434       577       576      2505      2506      2501
 -1       994    8    0    1
 -2       435       436       578      2089      2507      2508
 -1       995    8    0    1
 -2       435       578       577      2508      2509      2504
 -1       996    8    0    1
 -2       436       437       579      2092      2510      2511
 -1       997    8    0    1
 -2       436       579       578      2511      2512      2507
 -1       998    8    0    1
 -2       437       438       580      2095      2513      2514
 -1       999    8    0    1
 -2       437       580       579      2514      2515      2510
 -1      1000    8    0    1
 -2       438       439       581      2098      2516      2517
 -1      1001    8    0    1
 -2       438       581       580      2517      2518      2513
 -1      1002    8    0    1
 -2       440       443       582      2108      2519      2520
 -1      1003    8    0    1
 -2       443       444       583      2174      2521      2522
 -1      1004    8    0    1
 -2       382       383       584      1929      2523      2524
 -1      1005    8    0    1
 -2       383       529       584      2362      2525      2523
 -1      1006    8    0    1
 -2       439       290       380      2173      1919      2526
 -1      1007    8    0    1
 -2       468       441       585      2175      2527      2528
 -1      1008    8    0    1
 -2       335       321       586      2171      2529      2530
 -1      1009    8    0    1
 -2       483       335       586      2226      2530      2531
 -1      1010    8    0    1
 -2       321       320       586      1741      2532      2529
 -1      1011    8    0    1
 -2       463       464       587      2181      2533      2534
 -1      1012    8    0    1
 -2       459       460       588      2183      2535      2536
 -1      1013    8    0    1
 -2       453       454       589      2189      2537      2538
 -1      1014    8    0    1
 -2       446       447       590      2194      2539      2540
 -1      1015    8    0    1
 -2       324       325       591      1752      2541      2542
 -1      1016    8    0    1
 -2       474       324       591      2201      2542      2543
 -1      1017    8    0    1
 -2       325       476       591      2207      2544      2541
 -1      1018    8    0    1
 -2       447       448       592      2195      2545      2546
 -1      1019    8    0    1
 -2       447       592       590      2546      2547      2539
 -1      1020    8    0    1
 -2       451       452       593      2196      2548      2549
 -1      1021    8    0    1
 -2       469       446       594      2170      2550      2551
 -1      1022    8    0    1
 -2       449       450       595      2125      2552      2553
 -1      1023    8    0    1
 -2       449       595       484      2553      2554      2228
 -1      1024    8    0    1
 -2       456       457       596      2197      2555      2556
 -1      1025    8    0    1
 -2       452       453       597      2190      2557      2558
 -1      1026    8    0    1
 -2       452       597       593      2558      2559      2548
 -1      1027    8    0    1
 -2       454       455       598      2136      2560      2561
 -1      1028    8    0    1
 -2       462       463       599      2198      2562      2563
 -1      1029    8    0    1
 -2       457       458       600      2185      2564      2565
 -1      1030    8    0    1
 -2       458       459       601      2184      2566      2567
 -1      1031    8    0    1
 -2       458       601       600      2567      2568      2564
 -1      1032    8    0    1
 -2       460       461       602      2149      2569      2570
 -1      1033    8    0    1
 -2       461       462       603      2182      2571      2572
 -1      1034    8    0    1
 -2       464       465       604      2158      2573      2574
 -1      1035    8    0    1
 -2       465       466       605      2180      2575      2576
 -1      1036    8    0    1
 -2       466       467       606      2163      2577      2578
 -1      1037    8    0    1
 -2       444       469       607      2176      2579      2580
 -1      1038    8    0    1
 -2       469       594       607      2551      2581      2579
 -1      1039    8    0    1
 -2       333       334       608      1781      2582      2583
 -1      1040    8    0    1
 -2       332       333       608      1776      2583      2584
 -1      1041    8    0    1
 -2       334       473       608      2200      2585      2582
 -1      1042    8    0    1
 -2       441       442       609      2172      2586      2587
 -1      1043    8    0    1
 -2       322       475       610      2204      2588      2589
 -1      1044    8    0    1
 -2       322       610       445      2589      2590      2114
 -1      1045    8    0    1
 -2       482       382       584      2223      2524      2591
 -1      1046    8    0    1
 -2       331       332       608      1773      2584      2592
 -1      1047    8    0    1
 -2       609       442       528      2586      2360      2593
 -1      1048    8    0    1
 -2       606       467       470      2577      2178      2594
 -1      1049    8    0    1
 -2       605       466       606      2575      2578      2595
 -1      1050    8    0    1
 -2       587       464       604      2533      2574      2596
 -1      1051    8    0    1
 -2       448       484       592      2229      2597      2545
 -1      1052    8    0    1
 -2       604       465       605      2573      2576      2598
 -1      1053    8    0    1
 -2       603       462       599      2571      2563      2599
 -1      1054    8    0    1
 -2       468       585       470      2528      2600      2179
 -1      1055    8    0    1
 -2       528       440       582      2359      2520      2601
 -1      1056    8    0    1
 -2       439       380       611      2526      2602      2603
 -1      1057    8    0    1
 -2       581       439       611      2516      2603      2604
 -1      1058    8    0    1
 -2       380       379       611      1920      2605      2602
 -1      1059    8    0    1
 -2       425       429       570      2486      2606      2483
 -1      1060    8    0    1
 -2       583       444       607      2521      2580      2607
 -1      1061    8    0    1
 -2       429       428       570      2068      2608      2606
 -1      1062    8    0    1
 -2       601       459       588      2566      2536      2609
 -1      1063    8    0    1
 -2       582       443       583      2519      2522      2610
 -1      1064    8    0    1
 -2       460       602       588      2570      2611      2535
 -1      1065    8    0    1
 -2       599       463       587      2562      2534      2612
 -1      1066    8    0    1
 -2       331       608       481      2592      2613      2220
 -1      1067    8    0    1
 -2       586       320       445      2532      2113      2614
 -1      1068    8    0    1
 -2       597       453       589      2557      2538      2615
 -1      1069    8    0    1
 -2       585       441       609      2527      2587      2616
 -1      1070    8    0    1
 -2       595       450       612      2552      2617      2618
 -1      1071    8    0    1
 -2       450       472       612      2192      2619      2617
 -1      1072    8    0    1
 -2       451       593       613      2549      2620      2621
 -1      1073    8    0    1
 -2       451       613       472      2621      2622      2193
 -1      1074    8    0    1
 -2       589       454       598      2537      2561      2623
 -1      1075    8    0    1
 -2       471       456       596      2188      2556      2624
 -1      1076    8    0    1
 -2       446       590       594      2540      2625      2550
 -1      1077    8    0    1
 -2       596       457       600      2555      2565      2626
 -1      1078    8    0    1
 -2       598       455       614      2560      2627      2628
 -1      1079    8    0    1
 -2       455       471       614      2187      2629      2627
 -1      1080    8    0    1
 -2       602       461       603      2569      2572      2630
 -1      1081    8    0    1
 -2       570       428       573      2608      2493      2631
 -1      1082    8    0    1
 -2       611       379       527      2605      2357      2632
 -1      1083    8    0    1
 -2       590       592       615      2547      2633      2634
 -1      1084    8    0    1
 -2       477       478       616      2213      2635      2636
 -1      1085    8    0    1
 -2       476       477       617      2210      2637      2638
 -1      1086    8    0    1
 -2       477       616       617      2636      2639      2637
 -1      1087    8    0    1
 -2       479       480       618      2219      2640      2641
 -1      1088    8    0    1
 -2       480       481       619      2222      2642      2643
 -1      1089    8    0    1
 -2       480       619       618      2643      2644      2640
 -1      1090    8    0    1
 -2       473       482       620      2225      2645      2646
 -1      1091    8    0    1
 -2       586       445       610      2614      2590      2647
 -1      1092    8    0    1
 -2       482       584       621      2591      2648      2649
 -1      1093    8    0    1
 -2       482       621       620      2649      2650      2645
 -1      1094    8    0    1
 -2       486       485       622      2235      2651      2652
 -1      1095    8    0    1
 -2       487       486       623      2238      2653      2654
 -1      1096    8    0    1
 -2       486       622       623      2652      2655      2653
 -1      1097    8    0    1
 -2       488       487       624      2241      2656      2657
 -1      1098    8    0    1
 -2       487       623       624      2654      2658      2656
 -1      1099    8    0    1
 -2       489       488       625      2244      2659      2660
 -1      1100    8    0    1
 -2       488       624       625      2657      2661      2659
 -1      1101    8    0    1
 -2       490       489       626      2247      2662      2663
 -1      1102    8    0    1
 -2       489       625       626      2660      2664      2662
 -1      1103    8    0    1
 -2       491       490       627      2250      2665      2666
 -1      1104    8    0    1
 -2       490       626       627      2663      2667      2665
 -1      1105    8    0    1
 -2       492       491       628      2253      2668      2669
 -1      1106    8    0    1
 -2       491       627       628      2666      2670      2668
 -1      1107    8    0    1
 -2       493       492       629      2256      2671      2672
 -1      1108    8    0    1
 -2       492       628       629      2669      2673      2671
 -1      1109    8    0    1
 -2       494       493       630      2259      2674      2675
 -1      1110    8    0    1
 -2       493       629       630      2672      2676      2674
 -1      1111    8    0    1
 -2       495       494       631      2262      2677      2678
 -1      1112    8    0    1
 -2       494       630       631      2675      2679      2677
 -1      1113    8    0    1
 -2       496       495       632      2265      2680      2681
 -1      1114    8    0    1
 -2       495       631       632      2678      2682      2680
 -1      1115    8    0    1
 -2       497       496       633      2268      2683      2684
 -1      1116    8    0    1
 -2       496       632       633      2681      2685      2683
 -1      1117    8    0    1
 -2       498       497       634      2271      2686      2687
 -1      1118    8    0    1
 -2       497       633       634      2684      2688      2686
 -1      1119    8    0    1
 -2       499       498       635      2274      2689      2690
 -1      1120    8    0    1
 -2       498       634       635      2687      2691      2689
 -1      1121    8    0    1
 -2       500       499       636      2277      2692      2693
 -1      1122    8    0    1
 -2       499       635       636      2690      2694      2692
 -1      1123    8    0    1
 -2       501       500       637      2280      2695      2696
 -1      1124    8    0    1
 -2       500       636       637      2693      2697      2695
 -1      1125    8    0    1
 -2       502       501       638      2283      2698      2699
 -1      1126    8    0    1
 -2       501       637       638      2696      2700      2698
 -1      1127    8    0    1
 -2       503       502       639      2286      2701      2702
 -1      1128    8    0    1
 -2       502       638       639      2699      2703      2701
 -1      1129    8    0    1
 -2       504       503       640      2289      2704      2705
 -1      1130    8    0    1
 -2       503       639       640      2702      2706      2704
 -1      1131    8    0    1
 -2       505       504       641      2292      2707      2708
 -1      1132    8    0    1
 -2       504       640       641      2705      2709      2707
 -1      1133    8    0    1
 -2       506       505       642      2295      2710      2711
 -1      1134    8    0    1
 -2       505       641       642      2708      2712      2710
 -1      1135    8    0    1
 -2       507       506       643      2298      2713      2714
 -1      1136    8    0    1
 -2       506       642       643      2711      2715      2713
 -1      1137    8    0    1
 -2       508       507       644      2301      2716      2717
 -1      1138    8    0    1
 -2       507       643       644      2714      2718      2716
 -1      1139    8    0    1
 -2       509       508       645      2304      2719      2720
 -1      1140    8    0    1
 -2       508       644       645      2717      2721      2719
 -1      1141    8    0    1
 -2       510       509       646      2307      2722      2723
 -1      1142    8    0    1
 -2       509       645       646      2720      2724      2722
 -1      1143    8    0    1
 -2       511       510       647      2310      2725      2726
 -1      1144    8    0    1
 -2       510       646       647      2723      2727      2725
 -1      1145    8    0    1
 -2       512       511       648      2313      2728      2729
 -1      1146    8    0    1
 -2       511       647       648      2726      2730      2728
 -1      1147    8    0    1
 -2       513       512       649      2316      2731      2732
 -1      1148    8    0    1
 -2       512       648       649      2729      2733      2731
 -1      1149    8    0    1
 -2       514       513       650      2319      2734      2735
 -1      1150    8    0    1
 -2       513       649       650      2732      2736      2734
 -1      1151    8    0    1
 -2       515       514       651      2322      2737      2738
 -1      1152    8    0    1
 -2       514       650       651      2735      2739      2737
 -1      1153    8    0    1
 -2       516       515       652      2325      2740      2741
 -1      1154    8    0    1
 -2       515       651       652      2738      2742      2740
 -1      1155    8    0    1
 -2       517       516       653      2328      2743      2744
 -1      1156    8    0    1
 -2       516       652       653      2741      2745      2743
 -1      1157    8    0    1
 -2       518       517       654      2331      2746      2747
 -1      1158    8    0    1
 -2       517       653       654      2744      2748      2746
 -1      1159    8    0    1
 -2       519       518       655      2334      2749      2750
 -1      1160    8    0    1
 -2       518       654       655      2747      2751      2749
 -1      1161    8    0    1
 -2       520       519       656      2337      2752      2753
 -1      1162    8    0    1
 -2       519       655       656      2750      2754      2752
 -1      1163    8    0    1
 -2       521       520       657      2340      2755      2756
 -1      1164    8    0    1
 -2       520       656       657      2753      2757      2755
 -1      1165    8    0    1
 -2       522       521       658      2343      2758      2759
 -1      1166    8    0    1
 -2       521       657       658      2756      2760      2758
 -1      1167    8    0    1
 -2       523       522       659      2346      2761      2762
 -1      1168    8    0    1
 -2       522       658       659      2759      2763      2761
 -1      1169    8    0    1
 -2       524       523       660      2349      2764      2765
 -1      1170    8    0    1
 -2       523       659       660      2762      2766      2764
 -1      1171    8    0    1
 -2       525       524       661      2352      2767      2768
 -1      1172    8    0    1
 -2       524       660       661      2765      2769      2767
 -1      1173    8    0    1
 -2       526       525       662      2355      2770      2771
 -1      1174    8    0    1
 -2       525       661       662      2768      2772      2770
 -1      1175    8    0    1
 -2       527       526       663      2358      2773      2774
 -1      1176    8    0    1
 -2       526       662       663      2771      2775      2773
 -1      1177    8    0    1
 -2       601       588       664      2609      2776      2777
 -1      1178    8    0    1
 -2       529       530       665      2365      2778      2779
 -1      1179    8    0    1
 -2       532       533       666      2374      2780      2781
 -1      1180    8    0    1
 -2       534       535       615      2380      2782      2783
 -1      1181    8    0    1
 -2       536       537       667      2386      2784      2785
 -1      1182    8    0    1
 -2       537       538       668      2389      2786      2787
 -1      1183    8    0    1
 -2       537       668       667      2787      2788      2784
 -1      1184    8    0    1
 -2       538       539       669      2392      2789      2790
 -1      1185    8    0    1
 -2       538       669       668      2790      2791      2786
 -1      1186    8    0    1
 -2       539       540       670      2395      2792      2793
 -1      1187    8    0    1
 -2       539       670       669      2793      2794      2789
 -1      1188    8    0    1
 -2       540       541       671      2398      2795      2796
 -1      1189    8    0    1
 -2       540       671       670      2796      2797      2792
 -1      1190    8    0    1
 -2       541       542       672      2401      2798      2799
 -1      1191    8    0    1
 -2       541       672       671      2799      2800      2795
 -1      1192    8    0    1
 -2       542       543       673      2404      2801      2802
 -1      1193    8    0    1
 -2       542       673       672      2802      2803      2798
 -1      1194    8    0    1
 -2       543       544       674      2407      2804      2805
 -1      1195    8    0    1
 -2       543       674       673      2805      2806      2801
 -1      1196    8    0    1
 -2       544       545       675      2410      2807      2808
 -1      1197    8    0    1
 -2       544       675       674      2808      2809      2804
 -1      1198    8    0    1
 -2       545       546       676      2413      2810      2811
 -1      1199    8    0    1
 -2       545       676       675      2811      2812      2807
 -1      1200    8    0    1
 -2       546       547       677      2416      2813      2814
 -1      1201    8    0    1
 -2       546       677       676      2814      2815      2810
 -1      1202    8    0    1
 -2       547       548       678      2419      2816      2817
 -1      1203    8    0    1
 -2       547       678       677      2817      2818      2813
 -1      1204    8    0    1
 -2       548       549       679      2422      2819      2820
 -1      1205    8    0    1
 -2       548       679       678      2820      2821      2816
 -1      1206    8    0    1
 -2       549       550       680      2425      2822      2823
 -1      1207    8    0    1
 -2       549       680       679      2823      2824      2819
 -1      1208    8    0    1
 -2       550       551       681      2428      2825      2826
 -1      1209    8    0    1
 -2       550       681       680      2826      2827      2822
 -1      1210    8    0    1
 -2       551       552       682      2431      2828      2829
 -1      1211    8    0    1
 -2       551       682       681      2829      2830      2825
 -1      1212    8    0    1
 -2       552       553       683      2434      2831      2832
 -1      1213    8    0    1
 -2       552       683       682      2832      2833      2828
 -1      1214    8    0    1
 -2       553       554       684      2437      2834      2835
 -1      1215    8    0    1
 -2       553       684       683      2835      2836      2831
 -1      1216    8    0    1
 -2       554       555       685      2440      2837      2838
 -1      1217    8    0    1
 -2       554       685       684      2838      2839      2834
 -1      1218    8    0    1
 -2       555       556       686      2443      2840      2841
 -1      1219    8    0    1
 -2       555       686       685      2841      2842      2837
 -1      1220    8    0    1
 -2       556       557       687      2446      2843      2844
 -1      1221    8    0    1
 -2       556       687       686      2844      2845      2840
 -1      1222    8    0    1
 -2       557       558       688      2449      2846      2847
 -1      1223    8    0    1
 -2       557       688       687      2847      2848      2843
 -1      1224    8    0    1
 -2       558       559       689      2452      2849      2850
 -1      1225    8    0    1
 -2       558       689       688      2850      2851      2846
 -1      1226    8    0    1
 -2       559       560       690      2455      2852      2853
 -1      1227    8    0    1
 -2       559       690       689      2853      2854      2849
 -1      1228    8    0    1
 -2       560       561       691      2458      2855      2856
 -1      1229    8    0    1
 -2       560       691       690      2856      2857      2852
 -1      1230    8    0    1
 -2       561       562       692      2461      2858      2859
 -1      1231    8    0    1
 -2       561       692       691      2859      2860      2855
 -1      1232    8    0    1
 -2       562       563       693      2464      2861      2862
 -1      1233    8    0    1
 -2       562       693       692      2862      2863      2858
 -1      1234    8    0    1
 -2       563       564       694      2467      2864      2865
 -1      1235    8    0    1
 -2       563       694       693      2865      2866      2861
 -1      1236    8    0    1
 -2       564       565       695      2470      2867      2868
 -1      1237    8    0    1
 -2       564       695       694      2868      2869      2864
 -1      1238    8    0    1
 -2       565       566       696      2473      2870      2871
 -1      1239    8    0    1
 -2       565       696       695      2871      2872      2867
 -1      1240    8    0    1
 -2       566       567       697      2476      2873      2874
 -1      1241    8    0    1
 -2       566       697       696      2874      2875      2870
 -1      1242    8    0    1
 -2       567       568       698      2479      2876      2877
 -1      1243    8    0    1
 -2       567       698       697      2877      2878      2873
 -1      1244    8    0    1
 -2       568       569       699      2482      2879      2880
 -1      1245    8    0    1
 -2       568       699       698      2880      2881      2876
 -1      1246    8    0    1
 -2       569       570       700      2485      2882      2883
 -1      1247    8    0    1
 -2       699       569       700      2879      2883      2884
 -1      1248    8    0    1
 -2       570       573       700      2631      2885      2882
 -1      1249    8    0    1
 -2       583       607       701      2607      2886      2887
 -1      1250    8    0    1
 -2       575       576       702      2503      2888      2889
 -1      1251    8    0    1
 -2       611       527       703      2632      2890      2891
 -1      1252    8    0    1
 -2       527       663       703      2774      2892      2890
 -1      1253    8    0    1
 -2       571       572       704      2491      2893      2894
 -1      1254    8    0    1
 -2       576       577       705      2506      2895      2896
 -1      1255    8    0    1
 -2       576       705       702      2896      2897      2888
 -1      1256    8    0    1
 -2       572       575       706      2500      2898      2899
 -1      1257    8    0    1
 -2       704       572       706      2893      2899      2900
 -1      1258    8    0    1
 -2       575       702       706      2889      2901      2898
 -1      1259    8    0    1
 -2       577       578       707      2509      2902      2903
 -1      1260    8    0    1
 -2       577       707       705      2903      2904      2895
 -1      1261    8    0    1
 -2       578       579       708      2512      2905      2906
 -1      1262    8    0    1
 -2       578       708       707      2906      2907      2902
 -1      1263    8    0    1
 -2       579       580       709      2515      2908      2909
 -1      1264    8    0    1
 -2       579       709       708      2909      2910      2905
 -1      1265    8    0    1
 -2       581       611       703      2604      2891      2911
 -1      1266    8    0    1
 -2       588       602       710      2611      2912      2913
 -1      1267    8    0    1
 -2       483       586       711      2531      2914      2915
 -1      1268    8    0    1
 -2       485       483       711      2232      2915      2916
 -1      1269    8    0    1
 -2       586       610       711      2647      2917      2914
 -1      1270    8    0    1
 -2       528       582       712      2601      2918      2919
 -1      1271    8    0    1
 -2       607       594       713      2581      2920      2921
 -1      1272    8    0    1
 -2       599       587       714      2612      2922      2923
 -1      1273    8    0    1
 -2       582       583       715      2610      2924      2925
 -1      1274    8    0    1
 -2       585       609       716      2616      2926      2927
 -1      1275    8    0    1
 -2       584       529       717      2525      2928      2929
 -1      1276    8    0    1
 -2       621       584       717      2648      2929      2930
 -1      1277    8    0    1
 -2       529       665       717      2779      2931      2928
 -1      1278    8    0    1
 -2       531       532       718      2371      2932      2933
 -1      1279    8    0    1
 -2       532       666       718      2781      2934      2932
 -1      1280    8    0    1
 -2       530       531       719      2368      2935      2936
 -1      1281    8    0    1
 -2       530       719       665      2936      2937      2778
 -1      1282    8    0    1
 -2       589       598       720      2623      2938      2939
 -1      1283    8    0    1
 -2       596       600       721      2626      2940      2941
 -1      1284    8    0    1
 -2       481       608       473      2613      2585      2942
 -1      1285    8    0    1
 -2       597       589       722      2615      2943      2944
 -1      1286    8    0    1
 -2       594       590       723      2625      2945      2946
 -1      1287    8    0    1
 -2       478       479       724      2216      2947      2948
 -1      1288    8    0    1
 -2       616       478       724      2635      2948      2949
 -1      1289    8    0    1
 -2       479       618       724      2641      2950      2947
 -1      1290    8    0    1
 -2       471       596       725      2624      2951      2952
 -1      1291    8    0    1
 -2       609       528       726      2593      2953      2954
 -1      1292    8    0    1
 -2       484       595       666      2554      2955      2956
 -1      1293    8    0    1
 -2       475       474       727      2205      2957      2958
 -1      1294    8    0    1
 -2       593       597       728      2559      2959      2960
 -1      1295    8    0    1
 -2       597       722       728      2944      2961      2959
 -1      1296    8    0    1
 -2       470       585       729      2600      2962      2963
 -1      1297    8    0    1
 -2       604       605       730      2598      2964      2965
 -1      1298    8    0    1
 -2       602       603       731      2630      2966      2967
 -1      1299    8    0    1
 -2       600       601       732      2568      2968      2969
 -1      1300    8    0    1
 -2       601       664       732      2777      2970      2968
 -1      1301    8    0    1
 -2       606       470       733      2594      2971      2972
 -1      1302    8    0    1
 -2       470       729       733      2963      2973      2971
 -1      1303    8    0    1
 -2       592       484       734      2597      2974      2975
 -1      1304    8    0    1
 -2       615       592       734      2633      2975      2976
 -1      1305    8    0    1
 -2       484       666       734      2956      2977      2974
 -1      1306    8    0    1
 -2       603       599       735      2599      2978      2979
 -1      1307    8    0    1
 -2       587       604       736      2596      2980      2981
 -1      1308    8    0    1
 -2       605       606       737      2595      2982      2983
 -1      1309    8    0    1
 -2       471       725       614      2952      2984      2629
 -1      1310    8    0    1
 -2       476       617       738      2638      2985      2986
 -1      1311    8    0    1
 -2       476       738       591      2986      2987      2544
 -1      1312    8    0    1
 -2       606       733       737      2972      2988      2982
 -1      1313    8    0    1
 -2       528       712       726      2919      2989      2953
 -1      1314    8    0    1
 -2       622       485       711      2651      2916      2990
 -1      1315    8    0    1
 -2       590       615       723      2634      2991      2945
 -1      1316    8    0    1
 -2       731       603       735      2966      2979      2992
 -1      1317    8    0    1
 -2       730       605       737      2964      2983      2993
 -1      1318    8    0    1
 -2       571       704       739      2894      2994      2995
 -1      1319    8    0    1
 -2       571       739       574      2995      2996      2497
 -1      1320    8    0    1
 -2       664       588       710      2776      2913      2997
 -1      1321    8    0    1
 -2       735       599       714      2978      2923      2998
 -1      1322    8    0    1
 -2       531       718       719      2933      2999      2935
 -1      1323    8    0    1
 -2       534       615       734      2783      2976      3000
 -1      1324    8    0    1
 -2       533       534       734      2377      3000      3001
 -1      1325    8    0    1
 -2       536       667       723      2785      3002      3003
 -1      1326    8    0    1
 -2       535       536       723      2383      3003      3004
 -1      1327    8    0    1
 -2       701       607       713      2886      2921      3005
 -1      1328    8    0    1
 -2       666       595       718      2955      3006      2934
 -1      1329    8    0    1
 -2       573       574       740      2496      3007      3008
 -1      1330    8    0    1
 -2       700       573       740      2885      3008      3009
 -1      1331    8    0    1
 -2       574       739       740      2996      3010      3007
 -1      1332    8    0    1
 -2       714       587       736      2922      2981      3011
 -1      1333    8    0    1
 -2       581       703       580      2911      3012      2518
 -1      1334    8    0    1
 -2       709       580       703      2908      3012      3013
 -1      1335    8    0    1
 -2       710       602       731      2912      2967      3014
 -1      1336    8    0    1
 -2       716       609       741      2926      3015      3016
 -1      1337    8    0    1
 -2       609       726       741      2954      3017      3015
 -1      1338    8    0    1
 -2       715       583       701      2924      2887      3018
 -1      1339    8    0    1
 -2       612       472       742      2619      3019      3020
 -1      1340    8    0    1
 -2       472       613       742      2622      3021      3019
 -1      1341    8    0    1
 -2       582       715       712      2925      3022      2918
 -1      1342    8    0    1
 -2       613       593       743      2620      3023      3024
 -1      1343    8    0    1
 -2       593       728       743      2960      3025      3023
 -1      1344    8    0    1
 -2       585       716       729      2927      3026      2962
 -1      1345    8    0    1
 -2       615       535       723      2782      3004      2991
 -1      1346    8    0    1
 -2       666       533       734      2780      3001      2977
 -1      1347    8    0    1
 -2       721       600       732      2940      2969      3027
 -1      1348    8    0    1
 -2       589       720       744      2939      3028      3029
 -1      1349    8    0    1
 -2       589       744       722      3029      3030      2943
 -1      1350    8    0    1
 -2       720       598       745      2938      3031      3032
 -1      1351    8    0    1
 -2       598       614       745      2628      3033      3031
 -1      1352    8    0    1
 -2       596       721       725      2941      3034      2951
 -1      1353    8    0    1
 -2       474       591       746      2543      3035      3036
 -1      1354    8    0    1
 -2       727       474       746      2957      3036      3037
 -1      1355    8    0    1
 -2       591       738       746      2987      3038      3035
 -1      1356    8    0    1
 -2       481       473       620      2942      2646      3039
 -1      1357    8    0    1
 -2       475       727       747      2958      3040      3041
 -1      1358    8    0    1
 -2       475       747       610      3041      3042      2588
 -1      1359    8    0    1
 -2       481       620       619      3039      3043      2642
 -1      1360    8    0    1
 -2       604       730       736      2965      3044      2980
 -1      1361    8    0    1
 -2       618       619       748      2644      3045      3046
 -1      1362    8    0    1
 -2       726       712       749      2989      3047      3048
 -1      1363    8    0    1
 -2       732       664       750      2970      3049      3050
 -1      1364    8    0    1
 -2       624       623       751      2658      3051      3052
 -1      1365    8    0    1
 -2       625       624       752      2661      3053      3054
 -1      1366    8    0    1
 -2       624       751       752      3052      3055      3053
 -1      1367    8    0    1
 -2       627       626       710      2667      3056      3057
 -1      1368    8    0    1
 -2       628       627       731      2670      3058      3059
 -1      1369    8    0    1
 -2       629       628       753      2673      3060      3061
 -1      1370    8    0    1
 -2       630       629       754      2676      3062      3063
 -1      1371    8    0    1
 -2       631       630       736      2679      3064      3065
 -1      1372    8    0    1
 -2       633       632       755      2685      3066      3067
 -1      1373    8    0    1
 -2       634       633       756      2688      3068      3069
 -1      1374    8    0    1
 -2       633       755       756      3067      3070      3068
 -1      1375    8    0    1
 -2       635       634       757      2691      3071      3072
 -1      1376    8    0    1
 -2       634       756       757      3069      3073      3071
 -1      1377    8    0    1
 -2       636       635       758      2694      3074      3075
 -1      1378    8    0    1
 -2       635       757       758      3072      3076      3074
 -1      1379    8    0    1
 -2       637       636       759      2697      3077      3078
 -1      1380    8    0    1
 -2       636       758       759      3075      3079      3077
 -1      1381    8    0    1
 -2       638       637       760      2700      3080      3081
 -1      1382    8    0    1
 -2       637       759       760      3078      3082      3080
 -1      1383    8    0    1
 -2       639       638       761      2703      3083      3084
 -1      1384    8    0    1
 -2       638       760       761      3081      3085      3083
 -1      1385    8    0    1
 -2       640       639       762      2706      3086      3087
 -1      1386    8    0    1
 -2       639       761       762      3084      3088      3086
 -1      1387    8    0    1
 -2       641       640       763      2709      3089      3090
 -1      1388    8    0    1
 -2       640       762       763      3087      3091      3089
 -1      1389    8    0    1
 -2       642       641       764      2712      3092      3093
 -1      1390    8    0    1
 -2       641       763       764      3090      3094      3092
 -1      1391    8    0    1
 -2       643       642       765      2715      3095      3096
 -1      1392    8    0    1
 -2       642       764       765      3093      3097      3095
 -1      1393    8    0    1
 -2       644       643       766      2718      3098      3099
 -1      1394    8    0    1
 -2       643       765       766      3096      3100      3098
 -1      1395    8    0    1
 -2       645       644       767      2721      3101      3102
 -1      1396    8    0    1
 -2       644       766       767      3099      3103      3101
 -1      1397    8    0    1
 -2       646       645       768      2724      3104      3105
 -1      1398    8    0    1
 -2       645       767       768      3102      3106      3104
 -1      1399    8    0    1
 -2       647       646       769      2727      3107      3108
 -1      1400    8    0    1
 -2       646       768       769      3105      3109      3107
 -1      1401    8    0    1
 -2       648       647       770      2730      3110      3111
 -1      1402    8    0    1
 -2       647       769       770      3108      3112      3110
 -1      1403    8    0    1
 -2       649       648       771      2733      3113      3114
 -1      1404    8    0    1
 -2       648       770       771      3111      3115      3113
 -1      1405    8    0    1
 -2       650       649       772      2736      3116      3117
 -1      1406    8    0    1
 -2       649       771       772      3114      3118      3116
 -1      1407    8    0    1
 -2       651       650       773      2739      3119      3120
 -1      1408    8    0    1
 -2       650       772       773      3117      3121      3119
 -1      1409    8    0    1
 -2       652       651       774      2742      3122      3123
 -1      1410    8    0    1
 -2       651       773       774      3120      3124      3122
 -1      1411    8    0    1
 -2       653       652       775      2745      3125      3126
 -1      1412    8    0    1
 -2       652       774       775      3123      3127      3125
 -1      1413    8    0    1
 -2       654       653       776      2748      3128      3129
 -1      1414    8    0    1
 -2       653       775       776      3126      3130      3128
 -1      1415    8    0    1
 -2       655       654       777      2751      3131      3132
 -1      1416    8    0    1
 -2       654       776       777      3129      3133      3131
 -1      1417    8    0    1
 -2       656       655       778      2754      3134      3135
 -1      1418    8    0    1
 -2       655       777       778      3132      3136      3134
 -1      1419    8    0    1
 -2       657       656       779      2757      3137      3138
 -1      1420    8    0    1
 -2       656       778       779      3135      3139      3137
 -1      1421    8    0    1
 -2       658       657       780      2760      3140      3141
 -1      1422    8    0    1
 -2       657       779       780      3138      3142      3140
 -1      1423    8    0    1
 -2       659       658       781      2763      3143      3144
 -1      1424    8    0    1
 -2       658       780       781      3141      3145      3143
 -1      1425    8    0    1
 -2       660       659       782      2766      3146      3147
 -1      1426    8    0    1
 -2       659       781       782      3144      3148      3146
 -1      1427    8    0    1
 -2       661       660       783      2769      3149      3150
 -1      1428    8    0    1
 -2       660       782       783      3147      3151      3149
 -1      1429    8    0    1
 -2       662       661       784      2772      3152      3153
 -1      1430    8    0    1
 -2       661       783       784      3150      3154      3152
 -1      1431    8    0    1
 -2       663       662       785      2775      3155      3156
 -1      1432    8    0    1
 -2       662       784       785      3153      3157      3155
 -1      1433    8    0    1
 -2       728       722       786      2961      3158      3159
 -1      1434    8    0    1
 -2       665       719       787      2937      3160      3161
 -1      1435    8    0    1
 -2       670       671       788      2797      3162      3163
 -1      1436    8    0    1
 -2       671       672       789      2800      3164      3165
 -1      1437    8    0    1
 -2       671       789       788      3165      3166      3162
 -1      1438    8    0    1
 -2       672       673       790      2803      3167      3168
 -1      1439    8    0    1
 -2       672       790       789      3168      3169      3164
 -1      1440    8    0    1
 -2       673       674       791      2806      3170      3171
 -1      1441    8    0    1
 -2       673       791       790      3171      3172      3167
 -1      1442    8    0    1
 -2       674       675       792      2809      3173      3174
 -1      1443    8    0    1
 -2       674       792       791      3174      3175      3170
 -1      1444    8    0    1
 -2       675       676       793      2812      3176      3177
 -1      1445    8    0    1
 -2       675       793       792      3177      3178      3173
 -1      1446    8    0    1
 -2       676       677       794      2815      3179      3180
 -1      1447    8    0    1
 -2       676       794       793      3180      3181      3176
 -1      1448    8    0    1
 -2       677       678       795      2818      3182      3183
 -1      1449    8    0    1
 -2       677       795       794      3183      3184      3179
 -1      1450    8    0    1
 -2       678       679       796      2821      3185      3186
 -1      1451    8    0    1
 -2       678       796       795      3186      3187      3182
 -1      1452    8    0    1
 -2       679       680       797      2824      3188      3189
 -1      1453    8    0    1
 -2       679       797       796      3189      3190      3185
 -1      1454    8    0    1
 -2       680       681       798      2827      3191      3192
 -1      1455    8    0    1
 -2       680       798       797      3192      3193      3188
 -1      1456    8    0    1
 -2       681       682       799      2830      3194      3195
 -1      1457    8    0    1
 -2       681       799       798      3195      3196      3191
 -1      1458    8    0    1
 -2       682       683       800      2833      3197      3198
 -1      1459    8    0    1
 -2       682       800       799      3198      3199      3194
 -1      1460    8    0    1
 -2       683       684       801      2836      3200      3201
 -1      1461    8    0    1
 -2       683       801       800      3201      3202      3197
 -1      1462    8    0    1
 -2       684       685       802      2839      3203      3204
 -1      1463    8    0    1
 -2       684       802       801      3204      3205      3200
 -1      1464    8    0    1
 -2       685       686       803      2842      3206      3207
 -1      1465    8    0    1
 -2       685       803       802      3207      3208      3203
 -1      1466    8    0    1
 -2       686       687       804      2845      3209      3210
 -1      1467    8    0    1
 -2       686       804       803      3210      3211      3206
 -1      1468    8    0    1
 -2       687       688       805      2848      3212      3213
 -1      1469    8    0    1
 -2       687       805       804      3213      3214      3209
 -1      1470    8    0    1
 -2       688       689       806      2851      3215      3216
 -1      1471    8    0    1
 -2       688       806       805      3216      3217      3212
 -1      1472    8    0    1
 -2       689       690       807      2854      3218      3219
 -1      1473    8    0    1
 -2       689       807       806      3219      3220      3215
 -1      1474    8    0    1
 -2       690       691       808      2857      3221      3222
 -1      1475    8    0    1
 -2       690       808       807      3222      3223      3218
 -1      1476    8    0    1
 -2       691       692       809      2860      3224      3225
 -1      1477    8    0    1
 -2       691       809       808      3225      3226      3221
 -1      1478    8    0    1
 -2       692       693       810      2863      3227      3228
 -1      1479    8    0    1
 -2       692       810       809      3228      3229      3224
 -1      1480    8    0    1
 -2       693       694       811      2866      3230      3231
 -1      1481    8    0    1
 -2       693       811       810      3231      3232      3227
 -1      1482    8    0    1
 -2       694       695       812      2869      3233      3234
 -1      1483    8    0    1
 -2       694       812       811      3234      3235      3230
 -1      1484    8    0    1
 -2       695       696       813      2872      3236      3237
 -1      1485    8    0    1
 -2       695       813       812      3237      3238      3233
 -1      1486    8    0    1
 -2       696       697       814      2875      3239      3240
 -1      1487    8    0    1
 -2       696       814       813      3240      3241      3236
 -1      1488    8    0    1
 -2       697       698       815      2878      3242      3243
 -1      1489    8    0    1
 -2       697       815       814      3243      3244      3239
 -1      1490    8    0    1
 -2       698       699       816      2881      3245      3246
 -1      1491    8    0    1
 -2       698       816       815      3246      3247      3242
 -1      1492    8    0    1
 -2       699       700       817      2884      3248      3249
 -1      1493    8    0    1
 -2       816       699       817      3245      3249      3250
 -1      1494    8    0    1
 -2       700       740       817      3009      3251      3248
 -1      1495    8    0    1
 -2       705       707       818      2904      3252      3253
 -1      1496    8    0    1
 -2       735       714       753      2998      3254      3255
 -1      1497    8    0    1
 -2       708       709       819      2910      3256      3257
 -1      1498    8    0    1
 -2       702       705       820      2897      3258      3259
 -1      1499    8    0    1
 -2       705       818       820      3253      3260      3258
 -1      1500    8    0    1
 -2       711       610       747      2917      3042      3261
 -1      1501    8    0    1
 -2       707       708       821      2907      3262      3263
 -1      1502    8    0    1
 -2       818       707       821      3252      3263      3264
 -1      1503    8    0    1
 -2       708       819       821      3257      3265      3262
 -1      1504    8    0    1
 -2       669       670       822      2794      3266      3267
 -1      1505    8    0    1
 -2       670       788       822      3163      3268      3266
 -1      1506    8    0    1
 -2       668       669       823      2791      3269      3270
 -1      1507    8    0    1
 -2       669       822       823      3267      3271      3269
 -1      1508    8    0    1
 -2       713       594       723      2920      2946      3272
 -1      1509    8    0    1
 -2       718       595       612      3006      2618      3273
 -1      1510    8    0    1
 -2       719       718       612      2999      3273      3274
 -1      1511    8    0    1
 -2       737       733       824      2988      3275      3276
 -1      1512    8    0    1
 -2       623       622       825      2655      3277      3278
 -1      1513    8    0    1
 -2       623       825       751      3278      3279      3051
 -1      1514    8    0    1
 -2       622       711       826      2990      3280      3281
 -1      1515    8    0    1
 -2       825       622       826      3277      3281      3282
 -1      1516    8    0    1
 -2       711       747       826      3261      3283      3280
 -1      1517    8    0    1
 -2       715       701       827      3018      3284      3285
 -1      1518    8    0    1
 -2       730       737       828      2993      3286      3287
 -1      1519    8    0    1
 -2       729       716       829      3026      3288      3289
 -1      1520    8    0    1
 -2       712       715       830      3022      3290      3291
 -1      1521    8    0    1
 -2       712       830       749      3291      3292      3047
 -1      1522    8    0    1
 -2       725       721       831      3034      3293      3294
 -1      1523    8    0    1
 -2       733       729       832      2973      3295      3296
 -1      1524    8    0    1
 -2       729       829       832      3289      3297      3295
 -1      1525    8    0    1
 -2       617       616       833      2639      3298      3299
 -1      1526    8    0    1
 -2       721       732       834      3027      3300      3301
 -1      1527    8    0    1
 -2       732       750       834      3050      3302      3300
 -1      1528    8    0    1
 -2       614       725       835      2984      3303      3304
 -1      1529    8    0    1
 -2       614       835       745      3304      3305      3033
 -1      1530    8    0    1
 -2       619       620       836      3043      3306      3307
 -1      1531    8    0    1
 -2       748       619       836      3045      3307      3308
 -1      1532    8    0    1
 -2       620       621       836      2650      3309      3306
 -1      1533    8    0    1
 -2       710       626       837      3056      3310      3311
 -1      1534    8    0    1
 -2       664       710       837      2997      3311      3312
 -1      1535    8    0    1
 -2       626       625       837      2664      3313      3310
 -1      1536    8    0    1
 -2       631       736       838      3065      3314      3315
 -1      1537    8    0    1
 -2       632       631       838      2682      3315      3316
 -1      1538    8    0    1
 -2       736       730       838      3044      3317      3314
 -1      1539    8    0    1
 -2       738       617       839      2985      3318      3319
 -1      1540    8    0    1
 -2       617       833       839      3299      3320      3318
 -1      1541    8    0    1
 -2       726       749       840      3048      3321      3322
 -1      1542    8    0    1
 -2       726       840       741      3322      3323      3017
 -1      1543    8    0    1
 -2       715       827       830      3285      3324      3290
 -1      1544    8    0    1
 -2       627       710       731      3057      3014      3058
 -1      1545    8    0    1
 -2       739       704       841      2994      3325      3326
 -1      1546    8    0    1
 -2       625       752       837      3054      3327      3313
 -1      1547    8    0    1
 -2       632       838       755      3316      3328      3066
 -1      1548    8    0    1
 -2       628       731       735      3059      2992      3329
 -1      1549    8    0    1
 -2       629       753       754      3061      3330      3062
 -1      1550    8    0    1
 -2       728       786       743      3159      3331      3025
 -1      1551    8    0    1
 -2       786       722       744      3158      3030      3332
 -1      1552    8    0    1
 -2       665       787       842      3161      3333      3334
 -1      1553    8    0    1
 -2       665       842       717      3334      3335      2931
 -1      1554    8    0    1
 -2       667       668       843      2788      3336      3337
 -1      1555    8    0    1
 -2       753       714       754      3254      3338      3330
 -1      1556    8    0    1
 -2       704       706       844      2900      3339      3340
 -1      1557    8    0    1
 -2       704       844       841      3340      3341      3325
 -1      1558    8    0    1
 -2       706       702       845      2901      3342      3343
 -1      1559    8    0    1
 -2       844       706       845      3339      3343      3344
 -1      1560    8    0    1
 -2       702       820       845      3259      3345      3342
 -1      1561    8    0    1
 -2       724       618       846      2950      3346      3347
 -1      1562    8    0    1
 -2       618       748       846      3046      3348      3346
 -1      1563    8    0    1
 -2       709       703       785      3013      3349      3350
 -1      1564    8    0    1
 -2       742       613       787      3021      3351      3352
 -1      1565    8    0    1
 -2       819       709       785      3256      3350      3353
 -1      1566    8    0    1
 -2       829       716       847      3288      3354      3355
 -1      1567    8    0    1
 -2       716       741       847      3016      3356      3354
 -1      1568    8    0    1
 -2       824       733       832      3275      3296      3357
 -1      1569    8    0    1
 -2       621       717       848      2930      3358      3359
 -1      1570    8    0    1
 -2       836       621       848      3309      3359      3360
 -1      1571    8    0    1
 -2       717       842       848      3335      3361      3358
 -1      1572    8    0    1
 -2       744       720       849      3028      3362      3363
 -1      1573    8    0    1
 -2       838       730       828      3317      3287      3364
 -1      1574    8    0    1
 -2       747       727       850      3040      3365      3366
 -1      1575    8    0    1
 -2       747       850       826      3366      3367      3283
 -1      1576    8    0    1
 -2       720       745       849      3032      3368      3362
 -1      1577    8    0    1
 -2       737       824       828      3276      3369      3286
 -1      1578    8    0    1
 -2       616       724       851      2949      3370      3371
 -1      1579    8    0    1
 -2       833       616       851      3298      3371      3372
 -1      1580    8    0    1
 -2       724       846       851      3347      3373      3370
 -1      1581    8    0    1
 -2       750       664       837      3049      3312      3374
 -1      1582    8    0    1
 -2       725       831       835      3294      3375      3303
 -1      1583    8    0    1
 -2       831       721       852      3293      3376      3377
 -1      1584    8    0    1
 -2       721       834       852      3301      3378      3376
 -1      1585    8    0    1
 -2       714       736       754      3011      3379      3338
 -1      1586    8    0    1
 -2       727       746       853      3037      3380      3381
 -1      1587    8    0    1
 -2       727       853       850      3381      3382      3365
 -1      1588    8    0    1
 -2       745       835       854      3305      3383      3384
 -1      1589    8    0    1
 -2       837       752       750      3327      3385      3374
 -1      1590    8    0    1
 -2       757       756       855      3073      3386      3387
 -1      1591    8    0    1
 -2       758       757       856      3076      3388      3389
 -1      1592    8    0    1
 -2       757       855       856      3387      3390      3388
 -1      1593    8    0    1
 -2       759       758       857      3079      3391      3392
 -1      1594    8    0    1
 -2       758       856       857      3389      3393      3391
 -1      1595    8    0    1
 -2       760       759       858      3082      3394      3395
 -1      1596    8    0    1
 -2       759       857       858      3392      3396      3394
 -1      1597    8    0    1
 -2       761       760       859      3085      3397      3398
 -1      1598    8    0    1
 -2       760       858       859      3395      3399      3397
 -1      1599    8    0    1
 -2       762       761       860      3088      3400      3401
 -1      1600    8    0    1
 -2       761       859       860      3398      3402      3400
 -1      1601    8    0    1
 -2       763       762       861      3091      3403      3404
 -1      1602    8    0    1
 -2       762       860       861      3401      3405      3403
 -1      1603    8    0    1
 -2       764       763       862      3094      3406      3407
 -1      1604    8    0    1
 -2       763       861       862      3404      3408      3406
 -1      1605    8    0    1
 -2       765       764       863      3097      3409      3410
 -1      1606    8    0    1
 -2       764       862       863      3407      3411      3409
 -1      1607    8    0    1
 -2       766       765       864      3100      3412      3413
 -1      1608    8    0    1
 -2       765       863       864      3410      3414      3412
 -1      1609    8    0    1
 -2       767       766       865      3103      3415      3416
 -1      1610    8    0    1
 -2       766       864       865      3413      3417      3415
 -1      1611    8    0    1
 -2       768       767       866      3106      3418      3419
 -1      1612    8    0    1
 -2       767       865       866      3416      3420      3418
 -1      1613    8    0    1
 -2       769       768       867      3109      3421      3422
 -1      1614    8    0    1
 -2       768       866       867      3419      3423      3421
 -1      1615    8    0    1
 -2       770       769       868      3112      3424      3425
 -1      1616    8    0    1
 -2       769       867       868      3422      3426      3424
 -1      1617    8    0    1
 -2       771       770       869      3115      3427      3428
 -1      1618    8    0    1
 -2       770       868       869      3425      3429      3427
 -1      1619    8    0    1
 -2       772       771       870      3118      3430      3431
 -1      1620    8    0    1
 -2       771       869       870      3428      3432      3430
 -1      1621    8    0    1
 -2       773       772       871      3121      3433      3434
 -1      1622    8    0    1
 -2       772       870       871      3431      3435      3433
 -1      1623    8    0    1
 -2       774       773       872      3124      3436      3437
 -1      1624    8    0    1
 -2       773       871       872      3434      3438      3436
 -1      1625    8    0    1
 -2       775       774       873      3127      3439      3440
 -1      1626    8    0    1
 -2       774       872       873      3437      3441      3439
 -1      1627    8    0    1
 -2       776       775       874      3130      3442      3443
 -1      1628    8    0    1
 -2       775       873       874      3440      3444      3442
 -1      1629    8    0    1
 -2       777       776       875      3133      3445      3446
 -1      1630    8    0    1
 -2       776       874       875      3443      3447      3445
 -1      1631    8    0    1
 -2       778       777       876      3136      3448      3449
 -1      1632    8    0    1
 -2       777       875       876      3446      3450      3448
 -1      1633    8    0    1
 -2       779       778       877      3139      3451      3452
 -1      1634    8    0    1
 -2       778       876       877      3449      3453      3451
 -1      1635    8    0    1
 -2       780       779       878      3142      3454      3455
 -1      1636    8    0    1
 -2       779       877       878      3452      3456      3454
 -1      1637    8    0    1
 -2       781       780       879      3145      3457      3458
 -1      1638    8    0    1
 -2       780       878       879      3455      3459      3457
 -1      1639    8    0    1
 -2       782       781       880      3148      3460      3461
 -1      1640    8    0    1
 -2       781       879       880      3458      3462      3460
 -1      1641    8    0    1
 -2       783       782       881      3151      3463      3464
 -1      1642    8    0    1
 -2       782       880       881      3461      3465      3463
 -1      1643    8    0    1
 -2       784       783       882      3154      3466      3467
 -1      1644    8    0    1
 -2       783       881       882      3464      3468      3466
 -1      1645    8    0    1
 -2       785       784       883      3157      3469      3470
 -1      1646    8    0    1
 -2       819       785       883      3353      3470      3471
 -1      1647    8    0    1
 -2       784       882       883      3467      3472      3469
 -1      1648    8    0    1
 -2       843       668       823      3336      3270      3473
 -1      1649    8    0    1
 -2       723       667       713      3002      3474      3272
 -1      1650    8    0    1
 -2       628       735       753      3329      3255      3060
 -1      1651    8    0    1
 -2       788       789       884      3166      3475      3476
 -1      1652    8    0    1
 -2       791       792       885      3175      3477      3478
 -1      1653    8    0    1
 -2       792       793       886      3178      3479      3480
 -1      1654    8    0    1
 -2       792       886       885      3480      3481      3477
 -1      1655    8    0    1
 -2       793       794       887      3181      3482      3483
 -1      1656    8    0    1
 -2       793       887       886      3483      3484      3479
 -1      1657    8    0    1
 -2       794       795       888      3184      3485      3486
 -1      1658    8    0    1
 -2       794       888       887      3486      3487      3482
 -1      1659    8    0    1
 -2       795       796       889      3187      3488      3489
 -1      1660    8    0    1
 -2       795       889       888      3489      3490      3485
 -1      1661    8    0    1
 -2       796       797       890      3190      3491      3492
 -1      1662    8    0    1
 -2       796       890       889      3492      3493      3488
 -1      1663    8    0    1
 -2       797       798       891      3193      3494      3495
 -1      1664    8    0    1
 -2       797       891       890      3495      3496      3491
 -1      1665    8    0    1
 -2       798       799       892      3196      3497      3498
 -1      1666    8    0    1
 -2       798       892       891      3498      3499      3494
 -1      1667    8    0    1
 -2       799       800       893      3199      3500      3501
 -1      1668    8    0    1
 -2       799       893       892      3501      3502      3497
 -1      1669    8    0    1
 -2       800       801       894      3202      3503      3504
 -1      1670    8    0    1
 -2       800       894       893      3504      3505      3500
 -1      1671    8    0    1
 -2       801       802       895      3205      3506      3507
 -1      1672    8    0    1
 -2       801       895       894      3507      3508      3503
 -1      1673    8    0    1
 -2       802       803       896      3208      3509      3510
 -1      1674    8    0    1
 -2       802       896       895      3510      3511      3506
 -1      1675    8    0    1
 -2       803       804       897      3211      3512      3513
 -1      1676    8    0    1
 -2       803       897       896      3513      3514      3509
 -1      1677    8    0    1
 -2       804       805       898      3214      3515      3516
 -1      1678    8    0    1
 -2       804       898       897      3516      3517      3512
 -1      1679    8    0    1
 -2       805       806       899      3217      3518      3519
 -1      1680    8    0    1
 -2       805       899       898      3519      3520      3515
 -1      1681    8    0    1
 -2       806       807       900      3220      3521      3522
 -1      1682    8    0    1
 -2       806       900       899      3522      3523      3518
 -1      1683    8    0    1
 -2       807       808       901      3223      3524      3525
 -1      1684    8    0    1
 -2       807       901       900      3525      3526      3521
 -1      1685    8    0    1
 -2       808       809       902      3226      3527      3528
 -1      1686    8    0    1
 -2       808       902       901      3528      3529      3524
 -1      1687    8    0    1
 -2       809       810       903      3229      3530      3531
 -1      1688    8    0    1
 -2       809       903       902      3531      3532      3527
 -1      1689    8    0    1
 -2       810       811       904      3232      3533      3534
 -1      1690    8    0    1
 -2       810       904       903      3534      3535      3530
 -1      1691    8    0    1
 -2       811       812       905      3235      3536      3537
 -1      1692    8    0    1
 -2       811       905       904      3537      3538      3533
 -1      1693    8    0    1
 -2       812       813       906      3238      3539      3540
 -1      1694    8    0    1
 -2       812       906       905      3540      3541      3536
 -1      1695    8    0    1
 -2       813       814       907      3241      3542      3543
 -1      1696    8    0    1
 -2       813       907       906      3543      3544      3539
 -1      1697    8    0    1
 -2       814       815       908      3244      3545      3546
 -1      1698    8    0    1
 -2       814       908       907      3546      3547      3542
 -1      1699    8    0    1
 -2       815       816       909      3247      3548      3549
 -1      1700    8    0    1
 -2       815       909       908      3549      3550      3545
 -1      1701    8    0    1
 -2       822       788       910      3268      3551      3552
 -1      1702    8    0    1
 -2       788       884       910      3476      3553      3551
 -1      1703    8    0    1
 -2       740       739       911      3010      3554      3555
 -1      1704    8    0    1
 -2       817       740       911      3251      3555      3556
 -1      1705    8    0    1
 -2       739       841       911      3326      3557      3554
 -1      1706    8    0    1
 -2       834       750       912      3302      3558      3559
 -1      1707    8    0    1
 -2       787       613       743      3351      3024      3560
 -1      1708    8    0    1
 -2       667       843       713      3337      3561      3474
 -1      1709    8    0    1
 -2       820       818       913      3260      3562      3563
 -1      1710    8    0    1
 -2       736       630       754      3064      3063      3379
 -1      1711    8    0    1
 -2       832       829       914      3297      3564      3565
 -1      1712    8    0    1
 -2       827       701       843      3284      3566      3567
 -1      1713    8    0    1
 -2       786       744       915      3332      3568      3569
 -1      1714    8    0    1
 -2       790       791       916      3172      3570      3571
 -1      1715    8    0    1
 -2       791       885       916      3478      3572      3570
 -1      1716    8    0    1
 -2       789       790       917      3169      3573      3574
 -1      1717    8    0    1
 -2       790       916       917      3571      3575      3573
 -1      1718    8    0    1
 -2       756       755       918      3070      3576      3577
 -1      1719    8    0    1
 -2       756       918       855      3577      3578      3386
 -1      1720    8    0    1
 -2       838       828       755      3364      3579      3328
 -1      1721    8    0    1
 -2       748       836       919      3308      3580      3581
 -1      1722    8    0    1
 -2       836       848       919      3360      3582      3580
 -1      1723    8    0    1
 -2       701       713       843      3005      3561      3566
 -1      1724    8    0    1
 -2       849       745       854      3368      3384      3583
 -1      1725    8    0    1
 -2       746       738       920      3038      3584      3585
 -1      1726    8    0    1
 -2       853       746       920      3380      3585      3586
 -1      1727    8    0    1
 -2       738       839       920      3319      3587      3584
 -1      1728    8    0    1
 -2       752       751       912      3055      3588      3589
 -1      1729    8    0    1
 -2       749       830       921      3292      3590      3591
 -1      1730    8    0    1
 -2       787       719       742      3160      3592      3352
 -1      1731    8    0    1
 -2       824       832       922      3357      3593      3594
 -1      1732    8    0    1
 -2       744       849       915      3363      3595      3568
 -1      1733    8    0    1
 -2       828       824       918      3369      3596      3597
 -1      1734    8    0    1
 -2       835       831       923      3375      3598      3599
 -1      1735    8    0    1
 -2       750       752       912      3385      3589      3558
 -1      1736    8    0    1
 -2       755       828       918      3579      3597      3576
 -1      1737    8    0    1
 -2       843       823       827      3473      3600      3567
 -1      1738    8    0    1
 -2       787       743       924      3560      3601      3602
 -1      1739    8    0    1
 -2       842       787       924      3333      3602      3603
 -1      1740    8    0    1
 -2       743       786       924      3331      3604      3601
 -1      1741    8    0    1
 -2       827       823       925      3600      3605      3606
 -1      1742    8    0    1
 -2       830       827       925      3324      3606      3607
 -1      1743    8    0    1
 -2       823       822       925      3271      3608      3605
 -1      1744    8    0    1
 -2       840       749       926      3321      3609      3610
 -1      1745    8    0    1
 -2       749       921       926      3591      3611      3609
 -1      1746    8    0    1
 -2       818       821       927      3264      3612      3613
 -1      1747    8    0    1
 -2       818       927       913      3613      3614      3562
 -1      1748    8    0    1
 -2       914       829       847      3564      3355      3615
 -1      1749    8    0    1
 -2       839       833       928      3320      3616      3617
 -1      1750    8    0    1
 -2       924       786       915      3604      3569      3618
 -1      1751    8    0    1
 -2       925       822       910      3608      3552      3619
 -1      1752    8    0    1
 -2       820       913       929      3563      3620      3621
 -1      1753    8    0    1
 -2       820       929       845      3621      3622      3345
 -1      1754    8    0    1
 -2       850       853       930      3382      3623      3624
 -1      1755    8    0    1
 -2       789       917       884      3574      3625      3475
 -1      1756    8    0    1
 -2       816       817       911      3250      3556      3626
 -1      1757    8    0    1
 -2       911       841       909      3557      3627      3628
 -1      1758    8    0    1
 -2       846       748       919      3348      3581      3629
 -1      1759    8    0    1
 -2       816       911       909      3626      3628      3548
 -1      1760    8    0    1
 -2       819       883       821      3471      3630      3265
 -1      1761    8    0    1
 -2       841       844       931      3341      3631      3632
 -1      1762    8    0    1
 -2       841       931       909      3632      3633      3627
 -1      1763    8    0    1
 -2       824       922       918      3594      3634      3596
 -1      1764    8    0    1
 -2       825       826       932      3282      3635      3636
 -1      1765    8    0    1
 -2       751       825       932      3279      3636      3637
 -1      1766    8    0    1
 -2       826       850       932      3367      3638      3635
 -1      1767    8    0    1
 -2       703       663       785      2892      3156      3349
 -1      1768    8    0    1
 -2       847       741       933      3356      3639      3640
 -1      1769    8    0    1
 -2       741       840       933      3323      3641      3639
 -1      1770    8    0    1
 -2       830       925       921      3607      3642      3590
 -1      1771    8    0    1
 -2       833       851       849      3372      3643      3644
 -1      1772    8    0    1
 -2       922       832       914      3593      3565      3645
 -1      1773    8    0    1
 -2       751       932       912      3637      3646      3588
 -1      1774    8    0    1
 -2       719       612       742      3274      3020      3592
 -1      1775    8    0    1
 -2       854       835       923      3383      3599      3647
 -1      1776    8    0    1
 -2       932       850       930      3638      3624      3648
 -1      1777    8    0    1
 -2       849       851       915      3643      3649      3595
 -1      1778    8    0    1
 -2       833       849       928      3644      3650      3616
 -1      1779    8    0    1
 -2       924       915       919      3618      3651      3652
 -1      1780    8    0    1
 -2       857       856       934      3393      3653      3654
 -1      1781    8    0    1
 -2       858       857       935      3396      3655      3656
 -1      1782    8    0    1
 -2       857       934       935      3654      3657      3655
 -1      1783    8    0    1
 -2       859       858       936      3399      3658      3659
 -1      1784    8    0    1
 -2       858       935       936      3656      3660      3658
 -1      1785    8    0    1
 -2       860       859       937      3402      3661      3662
 -1      1786    8    0    1
 -2       859       936       937      3659      3663      3661
 -1      1787    8    0    1
 -2       861       860       938      3405      3664      3665
 -1      1788    8    0    1
 -2       860       937       938      3662      3666      3664
 -1      1789    8    0    1
 -2       862       861       939      3408      3667      3668
 -1      1790    8    0    1
 -2       861       938       939      3665      3669      3667
 -1      1791    8    0    1
 -2       863       862       940      3411      3670      3671
 -1      1792    8    0    1
 -2       862       939       940      3668      3672      3670
 -1      1793    8    0    1
 -2       864       863       941      3414      3673      3674
 -1      1794    8    0    1
 -2       863       940       941      3671      3675      3673
 -1      1795    8    0    1
 -2       865       864       942      3417      3676      3677
 -1      1796    8    0    1
 -2       864       941       942      3674      3678      3676
 -1      1797    8    0    1
 -2       866       865       943      3420      3679      3680
 -1      1798    8    0    1
 -2       865       942       943      3677      3681      3679
 -1      1799    8    0    1
 -2       867       866       944      3423      3682      3683
 -1      1800    8    0    1
 -2       866       943       944      3680      3684      3682
 -1      1801    8    0    1
 -2       868       867       945      3426      3685      3686
 -1      1802    8    0    1
 -2       867       944       945      3683      3687      3685
 -1      1803    8    0    1
 -2       869       868       946      3429      3688      3689
 -1      1804    8    0    1
 -2       868       945       946      3686      3690      3688
 -1      1805    8    0    1
 -2       870       869       947      3432      3691      3692
 -1      1806    8    0    1
 -2       869       946       947      3689      3693      3691
 -1      1807    8    0    1
 -2       871       870       948      3435      3694      3695
 -1      1808    8    0    1
 -2       870       947       948      3692      3696      3694
 -1      1809    8    0    1
 -2       872       871       949      3438      3697      3698
 -1      1810    8    0    1
 -2       871       948       949      3695      3699      3697
 -1      1811    8    0    1
 -2       873       872       950      3441      3700      3701
 -1      1812    8    0    1
 -2       872       949       950      3698      3702      3700
 -1      1813    8    0    1
 -2       874       873       951      3444      3703      3704
 -1      1814    8    0    1
 -2       873       950       951      3701      3705      3703
 -1      1815    8    0    1
 -2       875       874       952      3447      3706      3707
 -1      1816    8    0    1
 -2       874       951       952      3704      3708      3706
 -1      1817    8    0    1
 -2       876       875       953      3450      3709      3710
 -1      1818    8    0    1
 -2       875       952       953      3707      3711      3709
 -1      1819    8    0    1
 -2       877       876       954      3453      3712      3713
 -1      1820    8    0    1
 -2       876       953       954      3710      3714      3712
 -1      1821    8    0    1
 -2       878       877       955      3456      3715      3716
 -1      1822    8    0    1
 -2       877       954       955      3713      3717      3715
 -1      1823    8    0    1
 -2       879       878       956      3459      3718      3719
 -1      1824    8    0    1
 -2       878       955       956      3716      3720      3718
 -1      1825    8    0    1
 -2       880       879       957      3462      3721      3722
 -1      1826    8    0    1
 -2       879       956       957      3719      3723      3721
 -1      1827    8    0    1
 -2       881       880       958      3465      3724      3725
 -1      1828    8    0    1
 -2       880       957       958      3722      3726      3724
 -1      1829    8    0    1
 -2       882       881       959      3468      3727      3728
 -1      1830    8    0    1
 -2       881       958       959      3725      3729      3727
 -1      1831    8    0    1
 -2       930       853       923      3623      3730      3731
 -1      1832    8    0    1
 -2       886       887       960      3484      3732      3733
 -1      1833    8    0    1
 -2       884       917       961      3625      3734      3735
 -1      1834    8    0    1
 -2       885       886       962      3481      3736      3737
 -1      1835    8    0    1
 -2       886       960       962      3733      3738      3736
 -1      1836    8    0    1
 -2       888       889       963      3490      3739      3740
 -1      1837    8    0    1
 -2       889       890       964      3493      3741      3742
 -1      1838    8    0    1
 -2       889       964       963      3742      3743      3739
 -1      1839    8    0    1
 -2       890       891       965      3496      3744      3745
 -1      1840    8    0    1
 -2       890       965       964      3745      3746      3741
 -1      1841    8    0    1
 -2       891       892       966      3499      3747      3748
 -1      1842    8    0    1
 -2       891       966       965      3748      3749      3744
 -1      1843    8    0    1
 -2       892       893       967      3502      3750      3751
 -1      1844    8    0    1
 -2       892       967       966      3751      3752      3747
 -1      1845    8    0    1
 -2       893       894       968      3505      3753      3754
 -1      1846    8    0    1
 -2       893       968       967      3754      3755      3750
 -1      1847    8    0    1
 -2       894       895       969      3508      3756      3757
 -1      1848    8    0    1
 -2       894       969       968      3757      3758      3753
 -1      1849    8    0    1
 -2       895       896       970      3511      3759      3760
 -1      1850    8    0    1
 -2       895       970       969      3760      3761      3756
 -1      1851    8    0    1
 -2       896       897       971      3514      3762      3763
 -1      1852    8    0    1
 -2       896       971       970      3763      3764      3759
 -1      1853    8    0    1
 -2       897       898       972      3517      3765      3766
 -1      1854    8    0    1
 -2       897       972       971      3766      3767      3762
 -1      1855    8    0    1
 -2       898       899       973      3520      3768      3769
 -1      1856    8    0    1
 -2       898       973       972      3769      3770      3765
 -1      1857    8    0    1
 -2       899       900       974      3523      3771      3772
 -1      1858    8    0    1
 -2       899       974       973      3772      3773      3768
 -1      1859    8    0    1
 -2       900       901       975      3526      3774      3775
 -1      1860    8    0    1
 -2       900       975       974      3775      3776      3771
 -1      1861    8    0    1
 -2       901       902       976      3529      3777      3778
 -1      1862    8    0    1
 -2       901       976       975      3778      3779      3774
 -1      1863    8    0    1
 -2       902       903       977      3532      3780      3781
 -1      1864    8    0    1
 -2       902       977       976      3781      3782      3777
 -1      1865    8    0    1
 -2       903       904       978      3535      3783      3784
 -1      1866    8    0    1
 -2       903       978       977      3784      3785      3780
 -1      1867    8    0    1
 -2       904       905       979      3538      3786      3787
 -1      1868    8    0    1
 -2       904       979       978      3787      3788      3783
 -1      1869    8    0    1
 -2       905       906       980      3541      3789      3790
 -1      1870    8    0    1
 -2       905       980       979      3790      3791      3786
 -1      1871    8    0    1
 -2       906       907       981      3544      3792      3793
 -1      1872    8    0    1
 -2       906       981       980      3793      3794      3789
 -1      1873    8    0    1
 -2       907       908       982      3547      3795      3796
 -1      1874    8    0    1
 -2       907       982       981      3796      3797      3792
 -1      1875    8    0    1
 -2       908       909       983      3550      3798      3799
 -1      1876    8    0    1
 -2       982       908       983      3795      3799      3800
 -1      1877    8    0    1
 -2       909       931       983      3633      3801      3798
 -1      1878    8    0    1
 -2       821       883       984      3630      3802      3803
 -1      1879    8    0    1
 -2       927       821       984      3612      3803      3804
 -1      1880    8    0    1
 -2       883       882       984      3472      3805      3802
 -1      1881    8    0    1
 -2       918       922       855      3634      3806      3578
 -1      1882    8    0    1
 -2       915       851       846      3649      3373      3807
 -1      1883    8    0    1
 -2       887       888       985      3487      3808      3809
 -1      1884    8    0    1
 -2       887       985       960      3809      3810      3732
 -1      1885    8    0    1
 -2       916       885       986      3572      3811      3812
 -1      1886    8    0    1
 -2       885       962       986      3737      3813      3811
 -1      1887    8    0    1
 -2       914       847       987      3615      3814      3815
 -1      1888    8    0    1
 -2       849       854       928      3583      3816      3650
 -1      1889    8    0    1
 -2       925       910       921      3619      3817      3642
 -1      1890    8    0    1
 -2       915       846       919      3807      3629      3651
 -1      1891    8    0    1
 -2       917       916       988      3575      3818      3819
 -1      1892    8    0    1
 -2       916       986       988      3812      3820      3818
 -1      1893    8    0    1
 -2       919       848       924      3582      3821      3652
 -1      1894    8    0    1
 -2       834       912       989      3559      3822      3823
 -1      1895    8    0    1
 -2       923       831       930      3598      3824      3731
 -1      1896    8    0    1
 -2       922       914       990      3645      3825      3826
 -1      1897    8    0    1
 -2       852       834       989      3378      3823      3827
 -1      1898    8    0    1
 -2       854       923       928      3647      3828      3816
 -1      1899    8    0    1
 -2       856       855       990      3390      3829      3830
 -1      1900    8    0    1
 -2       921       910       926      3817      3831      3611
 -1      1901    8    0    1
 -2       839       928       923      3617      3828      3832
 -1      1902    8    0    1
 -2       844       845       991      3344      3833      3834
 -1      1903    8    0    1
 -2       845       929       991      3622      3835      3833
 -1      1904    8    0    1
 -2       855       922       990      3806      3826      3829
 -1      1905    8    0    1
 -2       844       991       931      3834      3836      3631
 -1      1906    8    0    1
 -2       933       840       992      3641      3837      3838
 -1      1907    8    0    1
 -2       840       926       992      3610      3839      3837
 -1      1908    8    0    1
 -2       882       959       984      3728      3840      3805
 -1      1909    8    0    1
 -2       923       853       920      3730      3586      3841
 -1      1910    8    0    1
 -2       929       913       993      3620      3842      3843
 -1      1911    8    0    1
 -2       888       963       985      3740      3844      3808
 -1      1912    8    0    1
 -2       914       987       994      3815      3845      3846
 -1      1913    8    0    1
 -2       914       994       990      3846      3847      3825
 -1      1914    8    0    1
 -2       923       920       839      3841      3587      3832
 -1      1915    8    0    1
 -2       910       884       926      3553      3848      3831
 -1      1916    8    0    1
 -2       987       847       995      3814      3849      3850
 -1      1917    8    0    1
 -2       847       933       995      3640      3851      3849
 -1      1918    8    0    1
 -2       856       990       934      3830      3852      3653
 -1      1919    8    0    1
 -2       926       884       961      3848      3735      3853
 -1      1920    8    0    1
 -2       842       924       848      3603      3821      3361
 -1      1921    8    0    1
 -2       989       912       932      3822      3646      3854
 -1      1922    8    0    1
 -2       917       988       961      3819      3855      3734
 -1      1923    8    0    1
 -2       913       927       996      3614      3856      3857
 -1      1924    8    0    1
 -2       913       996       993      3857      3858      3842
 -1      1925    8    0    1
 -2       932       930       989      3648      3859      3854
 -1      1926    8    0    1
 -2       989       930       852      3859      3860      3827
 -1      1927    8    0    1
 -2       936       935       997      3660      3861      3862
 -1      1928    8    0    1
 -2       937       936       998      3663      3863      3864
 -1      1929    8    0    1
 -2       936       997       998      3862      3865      3863
 -1      1930    8    0    1
 -2       938       937       999      3666      3866      3867
 -1      1931    8    0    1
 -2       937       998       999      3864      3868      3866
 -1      1932    8    0    1
 -2       939       938      1000      3669      3869      3870
 -1      1933    8    0    1
 -2       938       999      1000      3867      3871      3869
 -1      1934    8    0    1
 -2       940       939      1001      3672      3872      3873
 -1      1935    8    0    1
 -2       939      1000      1001      3870      3874      3872
 -1      1936    8    0    1
 -2       941       940      1002      3675      3875      3876
 -1      1937    8    0    1
 -2       940      1001      1002      3873      3877      3875
 -1      1938    8    0    1
 -2       942       941      1003      3678      3878      3879
 -1      1939    8    0    1
 -2       941      1002      1003      3876      3880      3878
 -1      1940    8    0    1
 -2       943       942      1004      3681      3881      3882
 -1      1941    8    0    1
 -2       942      1003      1004      3879      3883      3881
 -1      1942    8    0    1
 -2       944       943      1005      3684      3884      3885
 -1      1943    8    0    1
 -2       943      1004      1005      3882      3886      3884
 -1      1944    8    0    1
 -2       945       944      1006      3687      3887      3888
 -1      1945    8    0    1
 -2       944      1005      1006      3885      3889      3887
 -1      1946    8    0    1
 -2       946       945      1007      3690      3890      3891
 -1      1947    8    0    1
 -2       945      1006      1007      3888      3892      3890
 -1      1948    8    0    1
 -2       947       946      1008      3693      3893      3894
 -1      1949    8    0    1
 -2       946      1007      1008      3891      3895      3893
 -1      1950    8    0    1
 -2       948       947      1009      3696      3896      3897
 -1      1951    8    0    1
 -2       947      1008      1009      3894      3898      3896
 -1      1952    8    0    1
 -2       949       948      1010      3699      3899      3900
 -1      1953    8    0    1
 -2       948      1009      1010      3897      3901      3899
 -1      1954    8    0    1
 -2       950       949      1011      3702      3902      3903
 -1      1955    8    0    1
 -2       949      1010      1011      3900      3904      3902
 -1      1956    8    0    1
 -2       951       950      1012      3705      3905      3906
 -1      1957    8    0    1
 -2       950      1011      1012      3903      3907      3905
 -1      1958    8    0    1
 -2       952       951      1013      3708      3908      3909
 -1      1959    8    0    1
 -2       951      1012      1013      3906      3910      3908
 -1      1960    8    0    1
 -2       953       952      1014      3711      3911      3912
 -1      1961    8    0    1
 -2       952      1013      1014      3909      3913      3911
 -1      1962    8    0    1
 -2       954       953      1015      3714      3914      3915
 -1      1963    8    0    1
 -2       953      1014      1015      3912      3916      3914
 -1      1964    8    0    1
 -2       955       954      1016      3717      3917      3918
 -1      1965    8    0    1
 -2       954      1015      1016      3915      3919      3917
 -1      1966    8    0    1
 -2       956       955      1017      3720      3920      3921
 -1      1967    8    0    1
 -2       955      1016      1017      3918      3922      3920
 -1      1968    8    0    1
 -2       957       956      1018      3723      3923      3924
 -1      1969    8    0    1
 -2       956      1017      1018      3921      3925      3923
 -1      1970    8    0    1
 -2       958       957      1019      3726      3926      3927
 -1      1971    8    0    1
 -2       957      1018      1019      3924      3928      3926
 -1      1972    8    0    1
 -2       959       958      1020      3729      3929      3930
 -1      1973    8    0    1
 -2       958      1019      1020      3927      3931      3929
 -1      1974    8    0    1
 -2       985       963      1021      3844      3932      3933
 -1      1975    8    0    1
 -2       964       965      1022      3746      3934      3935
 -1      1976    8    0    1
 -2       963       964      1023      3743      3936      3937
 -1      1977    8    0    1
 -2       964      1022      1023      3935      3938      3936
 -1      1978    8    0    1
 -2       966       967      1024      3752      3939      3940
 -1      1979    8    0    1
 -2       967       968      1025      3755      3941      3942
 -1      1980    8    0    1
 -2       967      1025      1024      3942      3943      3939
 -1      1981    8    0    1
 -2       968       969      1026      3758      3944      3945
 -1      1982    8    0    1
 -2       968      1026      1025      3945      3946      3941
 -1      1983    8    0    1
 -2       969       970      1027      3761      3947      3948
 -1      1984    8    0    1
 -2       969      1027      1026      3948      3949      3944
 -1      1985    8    0    1
 -2       970       971      1028      3764      3950      3951
 -1      1986    8    0    1
 -2       970      1028      1027      3951      3952      3947
 -1      1987    8    0    1
 -2       971       972      1029      3767      3953      3954
 -1      1988    8    0    1
 -2       971      1029      1028      3954      3955      3950
 -1      1989    8    0    1
 -2       972       973      1030      3770      3956      3957
 -1      1990    8    0    1
 -2       972      1030      1029      3957      3958      3953
 -1      1991    8    0    1
 -2       973       974      1031      3773      3959      3960
 -1      1992    8    0    1
 -2       973      1031      1030      3960      3961      3956
 -1      1993    8    0    1
 -2       974       975      1032      3776      3962      3963
 -1      1994    8    0    1
 -2       974      1032      1031      3963      3964      3959
 -1      1995    8    0    1
 -2       975       976      1033      3779      3965      3966
 -1      1996    8    0    1
 -2       975      1033      1032      3966      3967      3962
 -1      1997    8    0    1
 -2       976       977      1034      3782      3968      3969
 -1      1998    8    0    1
 -2       976      1034      1033      3969      3970      3965
 -1      1999    8    0    1
 -2       977       978      1035      3785      3971      3972
 -1      2000    8    0    1
 -2       977      1035      1034      3972      3973      3968
 -1      2001    8    0    1
 -2       978       979      1036      3788      3974      3975
 -1      2002    8    0    1
 -2       978      1036      1035      3975      3976      3971
 -1      2003    8    0    1
 -2       979       980      1037      3791      3977      3978
 -1      2004    8    0    1
 -2       979      1037      1036      3978      3979      3974
 -1      2005    8    0    1
 -2       980       981      1038      3794      3980      3981
 -1      2006    8    0    1
 -2       980      1038      1037      3981      3982      3977
 -1      2007    8    0    1
 -2       981       982      1039      3797      3983      3984
 -1      2008    8    0    1
 -2       981      1039      1038      3984      3985      3980
 -1      2009    8    0    1
 -2       988       986      1040      3820      3986      3987
 -1      2010    8    0    1
 -2       986       962      1041      3813      3988      3989
 -1      2011    8    0    1
 -2       986      1041      1040      3989      3990      3986
 -1      2012    8    0    1
 -2       934       990       994      3852      3847      3991
 -1      2013    8    0    1
 -2       927       984       996      3804      3992      3856
 -1      2014    8    0    1
 -2       935       934      1042      3657      3993      3994
 -1      2015    8    0    1
 -2       997       935      1042      3861      3994      3995
 -1      2016    8    0    1
 -2       934       994      1042      3991      3996      3993
 -1      2017    8    0    1
 -2       984       959       996      3840      3997      3992
 -1      2018    8    0    1
 -2       926       961       992      3853      3998      3839
 -1      2019    8    0    1
 -2       929       993      1043      3843      3999      4000
 -1      2020    8    0    1
 -2       929      1043       991      4000      4001      3835
 -1      2021    8    0    1
 -2       960       985      1044      3810      4002      4003
 -1      2022    8    0    1
 -2       985      1021      1044      3933      4004      4002
 -1      2023    8    0    1
 -2       931       991      1045      3836      4005      4006
 -1      2024    8    0    1
 -2       983       931      1045      3801      4006      4007
 -1      2025    8    0    1
 -2       991      1043      1045      4001      4008      4005
 -1      2026    8    0    1
 -2       961       988      1046      3855      4009      4010
 -1      2027    8    0    1
 -2       988      1040      1046      3987      4011      4009
 -1      2028    8    0    1
 -2       962       960      1047      3738      4012      4013
 -1      2029    8    0    1
 -2       960      1044      1047      4003      4014      4012
 -1      2030    8    0    1
 -2       965       966      1048      3749      4015      4016
 -1      2031    8    0    1
 -2       966      1024      1048      3940      4017      4015
 -1      2032    8    0    1
 -2       961      1046       992      4010      4018      3998
 -1      2033    8    0    1
 -2       959      1020       996      3930      4019      3997
 -1      2034    8    0    1
 -2      1021       963      1023      3932      3937      4020
 -1      2035    8    0    1
 -2       994       987      1049      3845      4021      4022
 -1      2036    8    0    1
 -2       962      1047      1041      4013      4023      3988
 -1      2037    8    0    1
 -2       982       983      1045      3800      4007      4024
 -1      2038    8    0    1
 -2       995       933       992      3851      3838      4025
 -1      2039    8    0    1
 -2       982      1045      1039      4024      4026      3983
 -1      2040    8    0    1
 -2      1043       993      1050      3999      4027      4028
 -1      2041    8    0    1
 -2       930       831       852      3824      3377      3860
 -1      2042    8    0    1
 -2      1022       965      1048      3934      4016      4029
 -1      2043    8    0    1
 -2       987       995      1049      3850      4030      4021
 -1      2044    8    0    1
 -2       993       996      1051      3858      4031      4032
 -1      2045    8    0    1
 -2      1050       993      1051      4027      4032      4033
 -1      2046    8    0    1
 -2       996      1020      1051      4019      4034      4031
 -1      2047    8    0    1
 -2       999       998      1052      3868      4035      4036
 -1      2048    8    0    1
 -2      1000       999      1053      3871      4037      4038
 -1      2049    8    0    1
 -2       999      1052      1053      4036      4039      4037
 -1      2050    8    0    1
 -2      1001      1000      1054      3874      4040      4041
 -1      2051    8    0    1
 -2      1000      1053      1054      4038      4042      4040
 -1      2052    8    0    1
 -2      1002      1001      1055      3877      4043      4044
 -1      2053    8    0    1
 -2      1001      1054      1055      4041      4045      4043
 -1      2054    8    0    1
 -2      1003      1002      1056      3880      4046      4047
 -1      2055    8    0    1
 -2      1002      1055      1056      4044      4048      4046
 -1      2056    8    0    1
 -2      1004      1003      1057      3883      4049      4050
 -1      2057    8    0    1
 -2      1003      1056      1057      4047      4051      4049
 -1      2058    8    0    1
 -2      1005      1004      1058      3886      4052      4053
 -1      2059    8    0    1
 -2      1004      1057      1058      4050      4054      4052
 -1      2060    8    0    1
 -2      1006      1005      1059      3889      4055      4056
 -1      2061    8    0    1
 -2      1005      1058      1059      4053      4057      4055
 -1      2062    8    0    1
 -2      1007      1006      1060      3892      4058      4059
 -1      2063    8    0    1
 -2      1006      1059      1060      4056      4060      4058
 -1      2064    8    0    1
 -2      1008      1007      1061      3895      4061      4062
 -1      2065    8    0    1
 -2      1007      1060      1061      4059      4063      4061
 -1      2066    8    0    1
 -2      1009      1008      1062      3898      4064      4065
 -1      2067    8    0    1
 -2      1008      1061      1062      4062      4066      4064
 -1      2068    8    0    1
 -2      1010      1009      1063      3901      4067      4068
 -1      2069    8    0    1
 -2      1009      1062      1063      4065      4069      4067
 -1      2070    8    0    1
 -2      1011      1010      1064      3904      4070      4071
 -1      2071    8    0    1
 -2      1010      1063      1064      4068      4072      4070
 -1      2072    8    0    1
 -2      1012      1011      1065      3907      4073      4074
 -1      2073    8    0    1
 -2      1011      1064      1065      4071      4075      4073
 -1      2074    8    0    1
 -2      1013      1012      1066      3910      4076      4077
 -1      2075    8    0    1
 -2      1012      1065      1066      4074      4078      4076
 -1      2076    8    0    1
 -2      1014      1013      1067      3913      4079      4080
 -1      2077    8    0    1
 -2      1013      1066      1067      4077      4081      4079
 -1      2078    8    0    1
 -2      1015      1014      1068      3916      4082      4083
 -1      2079    8    0    1
 -2      1014      1067      1068      4080      4084      4082
 -1      2080    8    0    1
 -2      1016      1015      1069      3919      4085      4086
 -1      2081    8    0    1
 -2      1015      1068      1069      4083      4087      4085
 -1      2082    8    0    1
 -2      1017      1016      1070      3922      4088      4089
 -1      2083    8    0    1
 -2      1016      1069      1070      4086      4090      4088
 -1      2084    8    0    1
 -2      1018      1017      1071      3925      4091      4092
 -1      2085    8    0    1
 -2      1017      1070      1071      4089      4093      4091
 -1      2086    8    0    1
 -2      1019      1018      1072      3928      4094      4095
 -1      2087    8    0    1
 -2      1018      1071      1072      4092      4096      4094
 -1      2088    8    0    1
 -2      1020      1019      1073      3931      4097      4098
 -1      2089    8    0    1
 -2      1051      1020      1073      4034      4098      4099
 -1      2090    8    0    1
 -2      1019      1072      1073      4095      4100      4097
 -1      2091    8    0    1
 -2       992      1046       995      4018      4101      4025
 -1      2092    8    0    1
 -2      1041      1047      1074      4023      4102      4103
 -1      2093    8    0    1
 -2       994      1049      1042      4022      4104      3996
 -1      2094    8    0    1
 -2      1025      1026      1075      3946      4105      4106
 -1      2095    8    0    1
 -2      1024      1025      1076      3943      4107      4108
 -1      2096    8    0    1
 -2      1025      1075      1076      4106      4109      4107
 -1      2097    8    0    1
 -2      1027      1028      1077      3952      4110      4111
 -1      2098    8    0    1
 -2      1028      1029      1078      3955      4112      4113
 -1      2099    8    0    1
 -2      1028      1078      1077      4113      4114      4110
 -1      2100    8    0    1
 -2      1029      1030      1079      3958      4115      4116
 -1      2101    8    0    1
 -2      1029      1079      1078      4116      4117      4112
 -1      2102    8    0    1
 -2      1030      1031      1080      3961      4118      4119
 -1      2103    8    0    1
 -2      1030      1080      1079      4119      4120      4115
 -1      2104    8    0    1
 -2      1031      1032      1081      3964      4121      4122
 -1      2105    8    0    1
 -2      1031      1081      1080      4122      4123      4118
 -1      2106    8    0    1
 -2      1032      1033      1082      3967      4124      4125
 -1      2107    8    0    1
 -2      1032      1082      1081      4125      4126      4121
 -1      2108    8    0    1
 -2      1033      1034      1083      3970      4127      4128
 -1      2109    8    0    1
 -2      1033      1083      1082      4128      4129      4124
 -1      2110    8    0    1
 -2      1034      1035      1084      3973      4130      4131
 -1      2111    8    0    1
 -2      1034      1084      1083      4131      4132      4127
 -1      2112    8    0    1
 -2      1035      1036      1085      3976      4133      4134
 -1      2113    8    0    1
 -2      1035      1085      1084      4134      4135      4130
 -1      2114    8    0    1
 -2      1036      1037      1086      3979      4136      4137
 -1      2115    8    0    1
 -2      1036      1086      1085      4137      4138      4133
 -1      2116    8    0    1
 -2      1037      1038      1087      3982      4139      4140
 -1      2117    8    0    1
 -2      1037      1087      1086      4140      4141      4136
 -1      2118    8    0    1
 -2      1021      1023      1088      4020      4142      4143
 -1      2119    8    0    1
 -2      1040      1041      1089      3990      4144      4145
 -1      2120    8    0    1
 -2      1041      1074      1089      4103      4146      4144
 -1      2121    8    0    1
 -2       995      1046      1090      4101      4147      4148
 -1      2122    8    0    1
 -2      1049       995      1090      4030      4148      4149
 -1      2123    8    0    1
 -2      1046      1040      1090      4011      4150      4147
 -1      2124    8    0    1
 -2      1039      1045      1043      4026      4008      4151
 -1      2125    8    0    1
 -2      1022      1048      1091      4029      4152      4153
 -1      2126    8    0    1
 -2      1023      1022      1092      3938      4154      4155
 -1      2127    8    0    1
 -2      1022      1091      1092      4153      4156      4154
 -1      2128    8    0    1
 -2      1044      1021      1093      4004      4157      4158
 -1      2129    8    0    1
 -2      1021      1088      1093      4143      4159      4157
 -1      2130    8    0    1
 -2      1047      1044      1094      4014      4160      4161
 -1      2131    8    0    1
 -2      1074      1047      1094      4102      4161      4162
 -1      2132    8    0    1
 -2      1044      1093      1094      4158      4163      4160
 -1      2133    8    0    1
 -2      1048      1024      1095      4017      4164      4165
 -1      2134    8    0    1
 -2      1024      1076      1095      4108      4166      4164
 -1      2135    8    0    1
 -2      1026      1027      1096      3949      4167      4168
 -1      2136    8    0    1
 -2      1075      1026      1096      4105      4168      4169
 -1      2137    8    0    1
 -2      1027      1077      1096      4111      4170      4167
 -1      2138    8    0    1
 -2       998       997      1097      3865      4171      4172
 -1      2139    8    0    1
 -2       998      1097      1052      4172      4173      4035
 -1      2140    8    0    1
 -2      1039      1043      1050      4151      4028      4174
 -1      2141    8    0    1
 -2      1050      1051      1073      4033      4099      4175
 -1      2142    8    0    1
 -2      1042      1049      1098      4104      4176      4177
 -1      2143    8    0    1
 -2      1042      1098       997      4177      4178      3995
 -1      2144    8    0    1
 -2      1097       997      1098      4171      4178      4179
 -1      2145    8    0    1
 -2      1088      1023      1092      4142      4155      4180
 -1      2146    8    0    1
 -2      1038      1039      1099      3985      4181      4182
 -1      2147    8    0    1
 -2      1040      1089      1090      4145      4183      4150
 -1      2148    8    0    1
 -2      1091      1048      1095      4152      4165      4184
 -1      2149    8    0    1
 -2      1039      1050      1099      4174      4185      4181
 -1      2150    8    0    1
 -2      1038      1099      1087      4182      4186      4139
 -1      2151    8    0    1
 -2      1099      1050      1073      4185      4175      4187
 -1      2152    8    0    1
 -2      1049      1090      1098      4149      4188      4176
 -1      2153    8    0    1
 -2      1088      1092      1055      4180      4189      4190
 -1      2154    8    0    1
 -2      1054      1053      1093      4042      4191      4192
 -1      2155    8    0    1
 -2      1055      1054      1088      4045      4193      4190
 -1      2156    8    0    1
 -2      1056      1055      1092      4048      4189      4194
 -1      2157    8    0    1
 -2      1057      1056      1091      4051      4195      4196
 -1      2158    8    0    1
 -2      1058      1057      1095      4054      4197      4198
 -1      2159    8    0    1
 -2      1059      1058      1076      4057      4199      4200
 -1      2160    8    0    1
 -2      1060      1059      1075      4060      4201      4202
 -1      2161    8    0    1
 -2      1061      1060      1096      4063      4203      4204
 -1      2162    8    0    1
 -2      1062      1061      1077      4066      4205      4206
 -1      2163    8    0    1
 -2      1063      1062      1078      4069      4207      4208
 -1      2164    8    0    1
 -2      1064      1063      1079      4072      4209      4210
 -1      2165    8    0    1
 -2      1065      1064      1080      4075      4211      4212
 -1      2166    8    0    1
 -2      1066      1065      1081      4078      4213      4214
 -1      2167    8    0    1
 -2      1067      1066      1082      4081      4215      4216
 -1      2168    8    0    1
 -2      1068      1067      1083      4084      4217      4218
 -1      2169    8    0    1
 -2      1069      1068      1084      4087      4219      4220
 -1      2170    8    0    1
 -2      1070      1069      1085      4090      4221      4222
 -1      2171    8    0    1
 -2      1071      1070      1086      4093      4223      4224
 -1      2172    8    0    1
 -2      1072      1071      1087      4096      4225      4226
 -1      2173    8    0    1
 -2      1079      1080      1064      4120      4211      4210
 -1      2174    8    0    1
 -2      1056      1092      1091      4194      4156      4195
 -1      2175    8    0    1
 -2      1095      1076      1058      4166      4199      4198
 -1      2176    8    0    1
 -2      1079      1063      1078      4209      4208      4117
 -1      2177    8    0    1
 -2      1078      1062      1077      4207      4206      4114
 -1      2178    8    0    1
 -2      1080      1081      1065      4123      4213      4212
 -1      2179    8    0    1
 -2      1081      1082      1066      4126      4215      4214
 -1      2180    8    0    1
 -2      1082      1083      1067      4129      4217      4216
 -1      2181    8    0    1
 -2      1083      1084      1068      4132      4219      4218
 -1      2182    8    0    1
 -2      1084      1085      1069      4135      4221      4220
 -1      2183    8    0    1
 -2      1085      1086      1070      4138      4223      4222
 -1      2184    8    0    1
 -2      1086      1087      1071      4141      4225      4224
 -1      2185    8    0    1
 -2      1099      1073      1087      4187      4227      4186
 -1      2186    8    0    1
 -2      1090      1089      1098      4183      4228      4188
 -1      2187    8    0    1
 -2      1077      1061      1096      4205      4204      4170
 -1      2188    8    0    1
 -2      1091      1095      1057      4184      4197      4196
 -1      2189    8    0    1
 -2      1052      1097      1074      4173      4229      4230
 -1      2190    8    0    1
 -2      1075      1059      1076      4201      4200      4109
 -1      2191    8    0    1
 -2      1093      1088      1054      4159      4193      4192
 -1      2192    8    0    1
 -2      1097      1098      1089      4179      4228      4231
 -1      2193    8    0    1
 -2      1089      1074      1097      4146      4229      4231
 -1      2194    8    0    1
 -2      1093      1053      1094      4191      4232      4163
 -1      2195    8    0    1
 -2      1052      1074      1094      4230      4162      4233
 -1      2196    8    0    1
 -2      1053      1052      1094      4039      4233      4232
 -1      2197    8    0    1
 -2      1060      1075      1096      4202      4169      4203
 -1      2198    8    0    1
 -2      1087      1073      1072      4227      4100      4226
 -3
    1PSTEP                         1           1           1          
  100CL  101 1.000000000        4233                     0    1           1
 -4  DISP        4    1
 -5  D1          1    2    1    0
 -5  D2          1    2    2    0
 -5  D3          1    2    3    0
 -5  ALL         1    2    0    0    1ALL
 -1         1 3.58040E-03-6.72267E-04-7.00588E-15
 -1         2 5.82183E-03 1.86340E-04-1.00519E-14
 -1         3 1.54481E-02 1.81066E-03-1.17911E-13
 -1         4 1.49775E-02 3.81403E-04-1.24937E-13
 -1         5 0.00000E+00 0.00000E+00 0.00000E+00
 -1         6 0.00000E+00 0.00000E+00 0.00000E+00
 -1         7 0.00000E+00 0.00000E+00 0.00000E+00
 -1         8 0.00000E+00 0.00000E+00 0.00000E+00
 -1         9 0.00000E+00 0.00000E+00 0.00000E+00
 -1        10 0.00000E+00 0.00000E+00 0.00000E+00
 -1        11 0.00000E+00 0.00000E+00 0.00000E+00
 -1        12 0.00000E+00 0.00000E+00 0.00000E+00
 -1        13 0.00000E+00 0.00000E+00 0.00000E+00
 -1        14 0.00000E+00 0.00000E+00 0.00000E+00
 -1        15 0.00000E+00 0.00000E+00 0.00000E+00
 -1        16 0.00000E+00 0.00000E+00 0.00000E+00
 -1        17 0.00000E+00 0.00000E+00 0.00000E+00
 -1        18 0.00000E+00 0.00000E+00 0.00000E+00
 -1        19 0.00000E+00 0.00000E+00 0.00000E+00
 -1        20 0.00000E+00 0.00000E+00 0.00000E+00
 -1        21 0.00000E+00 0.00000E+00 0.00000E+00
 -1        22 0.00000E+00 0.00000E+00 0.00000E+00
 -1        23 4.47491E-04-2.57069E-04 2.36424E-17
 -1        24 7.85552E-04-3.90134E-04-9.13034E-17
 -1        25 1.11201E-03-4.92097E-04-3.40697E-16
 -1        26 1.43892E-03-5.82050E-04-7.21858E-16
 -1        27 1.76672E-03-6.71356E-04-1.23367E-15
 -1        28 2.09202E-03-7.65321E-04-1.87577E-15
 -1        29 2.40894E-03-8.64079E-04-2.65048E-15
 -1        30 2.71080E-03-9.61842E-04-3.55922E-15
 -1        31 2.99296E-03-1.04704E-03-4.60455E-15
 -1        32 3.25581E-03-1.10484E-03-5.78776E-15
 -1        33 3.50645E-03-1.12223E-03-7.11044E-15
 -1        34 3.75698E-03-1.09369E-03-8.56618E-15
 -1        35 4.01997E-03-1.02408E-03-1.01531E-14
 -1        36 4.30355E-03-9.26691E-04-1.18561E-14
 -1        37 4.60913E-03-8.17866E-04-1.36712E-14
 -1        38 4.93245E-03-7.11709E-04-1.55950E-14
 -1        39 5.26647E-03-6.17242E-04-1.76224E-14
 -1        40 5.60416E-03-5.38278E-04-1.97501E-14
 -1        41 5.94008E-03-4.74805E-04-2.19716E-14
 -1        42 6.27084E-03-4.24684E-04-2.42830E-14
 -1        43 6.59483E-03-3.84979E-04-2.66866E-14
 -1        44 6.91171E-03-3.52774E-04-2.91810E-14
 -1        45 7.22193E-03-3.25569E-04-3.17738E-14
 -1        46 7.52630E-03-3.01404E-04-3.44632E-14
 -1        47 7.82582E-03-2.78838E-04-3.72471E-14
 -1        48 8.12143E-03-2.56878E-04-4.01193E-14
 -1        49 8.41400E-03-2.34873E-04-4.30850E-14
 -1        50 8.70427E-03-2.12434E-04-4.61403E-14
 -1        51 8.99284E-03-1.89354E-04-4.92784E-14
 -1        52 9.28021E-03-1.65552E-04-5.24930E-14
 -1        53 9.56672E-03-1.41024E-04-5.57698E-14
 -1        54 9.85268E-03-1.15819E-04-5.91049E-14
 -1        55 1.01383E-02-9.00079E-05-6.24954E-14
 -1        56 1.04237E-02-6.36750E-05-6.59429E-14
 -1        57 1.07090E-02-3.69042E-05-6.94426E-14
 -1        58 1.09942E-02-9.77456E-06-7.29740E-14
 -1        59 1.12795E-02 1.76429E-05-7.65280E-14
 -1        60 1.15648E-02 4.52868E-05-8.01006E-14
 -1        61 1.18501E-02 7.31052E-05-8.36991E-14
 -1        62 1.21355E-02 1.01055E-04-8.73321E-14
 -1        63 1.24210E-02 1.29103E-04-9.10104E-14
 -1        64 1.27065E-02 1.57220E-04-9.47195E-14
 -1        65 1.29920E-02 1.85385E-04-9.84734E-14
 -1        66 1.32776E-02 2.13580E-04-1.02255E-13
 -1        67 1.35633E-02 2.41792E-04-1.06047E-13
 -1        68 1.38489E-02 2.70011E-04-1.09846E-13
 -1        69 1.41346E-02 2.98227E-04-1.13655E-13
 -1        70 1.44203E-02 3.26433E-04-1.17463E-13
 -1        71 1.47060E-02 3.54627E-04-1.21285E-13
 -1        72 4.53921E-04 2.52523E-04 6.83183E-17
 -1        73 8.00488E-04 3.82287E-04 3.65850E-17
 -1        74 1.14323E-03 4.81487E-04-9.61924E-17
 -1        75 1.49179E-03 5.74745E-04-3.34283E-16
 -1        76 1.84777E-03 6.75448E-04-6.80832E-16
 -1        77 2.20757E-03 7.92460E-04-1.13971E-15
 -1        78 2.56263E-03 9.29022E-04-1.71381E-15
 -1        79 2.90077E-03 1.07942E-03-2.40618E-15
 -1        80 3.21045E-03 1.22627E-03-3.22295E-15
 -1        81 3.48789E-03 1.34261E-03-4.16746E-15
 -1        82 3.74280E-03 1.40184E-03-5.24486E-15
 -1        83 3.99658E-03 1.39171E-03-6.45165E-15
 -1        84 4.27179E-03 1.32198E-03-7.79487E-15
 -1        85 4.58064E-03 1.21890E-03-9.27561E-15
 -1        86 4.92129E-03 1.11166E-03-1.08942E-14
 -1        87 5.28259E-03 1.02139E-03-1.26427E-14
 -1        88 5.65137E-03 9.57819E-04-1.45043E-14
 -1        89 6.01722E-03 9.21731E-04-1.64790E-14
 -1        90 6.37400E-03 9.09118E-04-1.85655E-14
 -1        91 6.71917E-03 9.14419E-04-2.07510E-14
 -1        92 7.05257E-03 9.32329E-04-2.30350E-14
 -1        93 7.37530E-03 9.58518E-04-2.54164E-14
 -1        94 7.68898E-03 9.89750E-04-2.78988E-14
 -1        95 7.99532E-03 1.02375E-03-3.04566E-14
 -1        96 8.29588E-03 1.05898E-03-3.30950E-14
 -1        97 8.59199E-03 1.09446E-03-3.58062E-14
 -1        98 8.88478E-03 1.12962E-03-3.85967E-14
 -1        99 9.17511E-03 1.16412E-03-4.14486E-14
 -1       100 9.46368E-03 1.19782E-03-4.43842E-14
 -1       101 9.75100E-03 1.23069E-03-4.74001E-14
 -1       102 1.00375E-02 1.26276E-03-5.04715E-14
 -1       103 1.03234E-02 1.29410E-03-5.36057E-14
 -1       104 1.06090E-02 1.32480E-03-5.67912E-14
 -1       105 1.08943E-02 1.35497E-03-6.00333E-14
 -1       106 1.11796E-02 1.38468E-03-6.33485E-14
 -1       107 1.14649E-02 1.41403E-03-6.67295E-14
 -1       108 1.17501E-02 1.44309E-03-7.01574E-14
 -1       109 1.20354E-02 1.47192E-03-7.36387E-14
 -1       110 1.23207E-02 1.50058E-03-7.71653E-14
 -1       111 1.26061E-02 1.52910E-03-8.07255E-14
 -1       112 1.28916E-02 1.55753E-03-8.43246E-14
 -1       113 1.31771E-02 1.58588E-03-8.79490E-14
 -1       114 1.34627E-02 1.61419E-03-9.16033E-14
 -1       115 1.37483E-02 1.64247E-03-9.52853E-14
 -1       116 1.40339E-02 1.67073E-03-9.89989E-14
 -1       117 1.43195E-02 1.69898E-03-1.02750E-13
 -1       118 1.46052E-02 1.72724E-03-1.06547E-13
 -1       119 1.48909E-02 1.75551E-03-1.10387E-13
 -1       120 1.51767E-02 1.78379E-03-1.14240E-13
 -1       121 1.54203E-02 1.72638E-03-1.18373E-13
 -1       122 1.53924E-02 1.64209E-03-1.18823E-13
 -1       123 1.53646E-02 1.55779E-03-1.19240E-13
 -1       124 1.53368E-02 1.47348E-03-1.19661E-13
 -1       125 1.53089E-02 1.38915E-03-1.20081E-13
 -1       126 1.52815E-02 1.30623E-03-1.20493E-13
 -1       127 1.52537E-02 1.22187E-03-1.20902E-13
 -1       128 1.52259E-02 1.13750E-03-1.21325E-13
 -1       129 1.51982E-02 1.05313E-03-1.21754E-13
 -1       130 1.51704E-02 9.68760E-04-1.22178E-13
 -1       131 1.51427E-02 8.84399E-04-1.22603E-13
 -1       132 1.51155E-02 8.01482E-04-1.23038E-13
 -1       133 1.50878E-02 7.17153E-04-1.23471E-13
 -1       134 1.50601E-02 6.32841E-04-1.23859E-13
 -1       135 1.50324E-02 5.48545E-04-1.24219E-13
 -1       136 1.50047E-02 4.64259E-04-1.24578E-13
 -1       137 5.78490E-03 3.56379E-04-9.89300E-15
 -1       138 5.65201E-03 5.21671E-04-9.58056E-15
 -1       139 5.43810E-03 6.68448E-04-9.15706E-15
 -1       140 5.12768E-03 8.04678E-04-8.60670E-15
 -1       141 4.75127E-03 9.11868E-04-7.99286E-15
 -1       142 4.32084E-03 9.84442E-04-7.34475E-15
 -1       143 3.85505E-03 1.01630E-03-6.69244E-15
 -1       144 3.36893E-03 1.00320E-03-6.05897E-15
 -1       145 2.87475E-03 9.40719E-04-5.45877E-15
 -1       146 2.46231E-03 8.48231E-04-4.99663E-15
 -1       147 2.03616E-03 6.99014E-04-4.54834E-15
 -1       148 1.75270E-03 5.52747E-04-4.27438E-15
 -1       149 1.54966E-03 3.92504E-04-4.09526E-15
 -1       150 1.43374E-03 2.21394E-04-4.01667E-15
 -1       151 1.41785E-03 5.95440E-05-4.04614E-15
 -1       152 1.51218E-03-1.19929E-04-4.20487E-15
 -1       153 1.68505E-03-2.66604E-04-4.44663E-15
 -1       154 1.93877E-03-3.98884E-04-4.78396E-15
 -1       155 2.26930E-03-5.12965E-04-5.22130E-15
 -1       156 2.67956E-03-6.04163E-04-5.77078E-15
 -1       157 3.09967E-03-6.55325E-04-6.33772E-15
 -1       158 4.07843E-03-6.44499E-04-7.70990E-15
 -1       159 4.55502E-03-5.71763E-04-8.39911E-15
 -1       160 4.96192E-03-4.67375E-04-8.98933E-15
 -1       161 5.32561E-03-3.24527E-04-9.50705E-15
 -1       162 5.58002E-03-1.72025E-04-9.84443E-15
 -1       163 5.75567E-03 4.80228E-06-1.00382E-14
 -1       164 2.66588E-04-1.07797E-04-2.96190E-17
 -1       165 2.43961E-04-6.93325E-05-4.55500E-17
 -1       166 2.29087E-04-4.24185E-05-5.34817E-17
 -1       167 2.16162E-04-2.23300E-05-5.76084E-17
 -1       168 2.04407E-04-8.01601E-06-5.93126E-17
 -1       169 1.93797E-04 1.33309E-06-5.98175E-17
 -1       170 1.85671E-04 5.90614E-06-5.93973E-17
 -1       171 1.81366E-04 6.93138E-06-5.84622E-17
 -1       172 1.81882E-04 6.48317E-06-5.66597E-17
 -1       173 1.87466E-04 7.12842E-06-5.38679E-17
 -1       174 1.97323E-04 1.12316E-05-4.97378E-17
 -1       175 2.10746E-04 2.08636E-05-4.37306E-17
 -1       176 2.26658E-04 3.75204E-05-3.45454E-17
 -1       177 2.45154E-04 6.31513E-05-2.06744E-17
 -1       178 2.69757E-04 1.02720E-04 1.23328E-18
 -1       179 3.37047E-04 1.67603E-04 2.53568E-17
 -1       180 5.24923E-04-2.43474E-04-8.10780E-17
 -1       181 8.66637E-04-3.58241E-04-2.84149E-16
 -1       182 1.19847E-03-4.52312E-04-6.12019E-16
 -1       183 1.52686E-03-5.41003E-04-1.06595E-15
 -1       184 1.85286E-03-6.32848E-04-1.64604E-15
 -1       185 2.17493E-03-7.31273E-04-2.35375E-15
 -1       186 2.48998E-03-8.33833E-04-3.19196E-15
 -1       187 2.79478E-03-9.31402E-04-4.16317E-15
 -1       188 3.08790E-03-1.00918E-03-5.26893E-15
 -1       189 3.37143E-03-1.05091E-03-6.51160E-15
 -1       190 3.65113E-03-1.04545E-03-7.89067E-15
 -1       191 3.93457E-03-9.92278E-04-9.40112E-15
 -1       192 4.22797E-03-9.02125E-04-1.10379E-14
 -1       193 4.53388E-03-7.92208E-04-1.27895E-14
 -1       194 4.85099E-03-6.79557E-04-1.46514E-14
 -1       195 5.17559E-03-5.76418E-04-1.66173E-14
 -1       196 5.50332E-03-4.88998E-04-1.86847E-14
 -1       197 5.83045E-03-4.18578E-04-2.08492E-14
 -1       198 6.15434E-03-3.63431E-04-2.31061E-14
 -1       199 6.47351E-03-3.20508E-04-2.54518E-14
 -1       200 6.78739E-03-2.86550E-04-2.78933E-14
 -1       201 7.09605E-03-2.58664E-04-3.04291E-14
 -1       202 7.39991E-03-2.34536E-04-3.30630E-14
 -1       203 7.69962E-03-2.12445E-04-3.57892E-14
 -1       204 7.99584E-03-1.91192E-04-3.86046E-14
 -1       205 8.28925E-03-1.69985E-04-4.15099E-14
 -1       206 8.58044E-03-1.48343E-04-4.45035E-14
 -1       207 8.86992E-03-1.26007E-04-4.75847E-14
 -1       208 9.15812E-03-1.02864E-04-5.07412E-14
 -1       209 9.44539E-03-7.89034E-05-5.39699E-14
 -1       210 9.73199E-03-5.41705E-05-5.72617E-14
 -1       211 1.00181E-02-2.87446E-05-6.06092E-14
 -1       212 1.03040E-02-2.71856E-06-6.40111E-14
 -1       213 1.05896E-02 2.38125E-05-6.74699E-14
 -1       214 1.08751E-02 5.07584E-05-7.09731E-14
 -1       215 1.11606E-02 7.80380E-05-7.45084E-14
 -1       216 1.14460E-02 1.05580E-04-7.80654E-14
 -1       217 1.17315E-02 1.33326E-04-8.16491E-14
 -1       218 1.20170E-02 1.61226E-04-8.52589E-14
 -1       219 1.23025E-02 1.89240E-04-8.89080E-14
 -1       220 1.25880E-02 2.17336E-04-9.25940E-14
 -1       221 1.28736E-02 2.45490E-04-9.63127E-14
 -1       222 1.31592E-02 2.73681E-04-1.00068E-13
 -1       223 1.34449E-02 3.01894E-04-1.03844E-13
 -1       224 1.37305E-02 3.30117E-04-1.07631E-13
 -1       225 1.40162E-02 3.58341E-04-1.11431E-13
 -1       226 1.43019E-02 3.86557E-04-1.15241E-13
 -1       227 1.45876E-02 4.14760E-04-1.19059E-13
 -1       228 6.93727E-04 2.97110E-04-2.77556E-17
 -1       229 1.04134E-03 3.97439E-04-1.76027E-16
 -1       230 1.38714E-03 4.89473E-04-4.25488E-16
 -1       231 1.73523E-03 5.87859E-04-7.81076E-16
 -1       232 2.08531E-03 7.02805E-04-1.24598E-15
 -1       233 2.43356E-03 8.39150E-04-1.82469E-15
 -1       234 2.77350E-03 9.92770E-04-2.52141E-15
 -1       235 3.09837E-03 1.14691E-03-3.33914E-15
 -1       236 3.40519E-03 1.27314E-03-4.28212E-15
 -1       237 3.69845E-03 1.34129E-03-5.35758E-15
 -1       238 3.98991E-03 1.33554E-03-6.56815E-15
 -1       239 4.29266E-03 1.26468E-03-7.91545E-15
 -1       240 4.61399E-03 1.15685E-03-9.39795E-15
 -1       241 4.95300E-03 1.04404E-03-1.10139E-14
 -1       242 5.30320E-03 9.49343E-04-1.27574E-14
 -1       243 5.65680E-03 8.83169E-04-1.46158E-14
 -1       244 6.00745E-03 8.46149E-04-1.65864E-14
 -1       245 6.35120E-03 8.33789E-04-1.86643E-14
 -1       246 6.68628E-03 8.40038E-04-2.08429E-14
 -1       247 7.01242E-03 8.59216E-04-2.31219E-14
 -1       248 7.33027E-03 8.86746E-04-2.54987E-14
 -1       249 7.64089E-03 9.19247E-04-2.79718E-14
 -1       250 7.94548E-03 9.54371E-04-3.05228E-14
 -1       251 8.24520E-03 9.90562E-04-3.31528E-14
 -1       252 8.54107E-03 1.02684E-03-3.58624E-14
 -1       253 8.83397E-03 1.06264E-03-3.86503E-14
 -1       254 9.12463E-03 1.09764E-03-4.15063E-14
 -1       255 9.41363E-03 1.13174E-03-4.44365E-14
 -1       256 9.70142E-03 1.16490E-03-4.74417E-14
 -1       257 9.98835E-03 1.19719E-03-5.05127E-14
 -1       258 1.02747E-02 1.22870E-03-5.36441E-14
 -1       259 1.05606E-02 1.25952E-03-5.68323E-14
 -1       260 1.08463E-02 1.28977E-03-6.00818E-14
 -1       261 1.11318E-02 1.31954E-03-6.33997E-14
 -1       262 1.14173E-02 1.34893E-03-6.67763E-14
 -1       263 1.17027E-02 1.37801E-03-7.02001E-14
 -1       264 1.19882E-02 1.40685E-03-7.36702E-14
 -1       265 1.22736E-02 1.43551E-03-7.71886E-14
 -1       266 1.25591E-02 1.46404E-03-8.07485E-14
 -1       267 1.28446E-02 1.49246E-03-8.43464E-14
 -1       268 1.31302E-02 1.52081E-03-8.79748E-14
 -1       269 1.34157E-02 1.54911E-03-9.16326E-14
 -1       270 1.37013E-02 1.57739E-03-9.53160E-14
 -1       271 1.39870E-02 1.60564E-03-9.90269E-14
 -1       272 1.42726E-02 1.63389E-03-1.02771E-13
 -1       273 1.45583E-02 1.66214E-03-1.06559E-13
 -1       274 1.48440E-02 1.69041E-03-1.10386E-13
 -1       275 1.51297E-02 1.71868E-03-1.14233E-13
 -1       276 1.51589E-02 1.65973E-03-1.15262E-13
 -1       277 1.51311E-02 1.57544E-03-1.15712E-13
 -1       278 1.51032E-02 1.49113E-03-1.16148E-13
 -1       279 1.50754E-02 1.40681E-03-1.16574E-13
 -1       280 1.50480E-02 1.32391E-03-1.16990E-13
 -1       281 1.50202E-02 1.23957E-03-1.17412E-13
 -1       282 1.49924E-02 1.15522E-03-1.17834E-13
 -1       283 1.49646E-02 1.07086E-03-1.18261E-13
 -1       284 1.49369E-02 9.86509E-04-1.18688E-13
 -1       285 1.49091E-02 9.02159E-04-1.19112E-13
 -1       286 1.48819E-02 8.19246E-04-1.19523E-13
 -1       287 1.48542E-02 7.34916E-04-1.19935E-13
 -1       288 1.48265E-02 6.50598E-04-1.20330E-13
 -1       289 1.47988E-02 5.66292E-04-1.20710E-13
 -1       290 1.46932E-02 4.90524E-04-1.19886E-13
 -1       291 5.83996E-03 2.37703E-04-1.07930E-14
 -1       292 5.71619E-03 3.38045E-04-1.04450E-14
 -1       293 5.48016E-03 4.61723E-04-9.97800E-15
 -1       294 5.15336E-03 6.13141E-04-9.39271E-15
 -1       295 4.78281E-03 7.94519E-04-8.63241E-15
 -1       296 4.40100E-03 9.56123E-04-7.84250E-15
 -1       297 4.01492E-03 1.06413E-03-7.06567E-15
 -1       298 3.62922E-03 1.09443E-03-6.30934E-15
 -1       299 3.23987E-03 1.02842E-03-5.57674E-15
 -1       300 2.82533E-03 8.78885E-04-5.01373E-15
 -1       301 2.43508E-03 6.67047E-04-4.42525E-15
 -1       302 2.00332E-03 4.90848E-04-4.12787E-15
 -1       303 1.69625E-03 3.39555E-04-3.88845E-15
 -1       304 1.47913E-03 2.10897E-04-3.71168E-15
 -1       305 1.38946E-03 1.25823E-04-3.72902E-15
 -1       306 1.43875E-03 4.35063E-05-3.74368E-15
 -1       307 1.62931E-03-7.66676E-05-4.03964E-15
 -1       308 1.90194E-03-2.06228E-04-4.34965E-15
 -1       309 2.24711E-03-3.56812E-04-4.75460E-15
 -1       310 2.63594E-03-5.23155E-04-5.29186E-15
 -1       311 3.00468E-03-6.61253E-04-5.94944E-15
 -1       312 3.38702E-03-7.46572E-04-6.66239E-15
 -1       313 3.77683E-03-7.34223E-04-7.48177E-15
 -1       314 4.17866E-03-6.34989E-04-8.34750E-15
 -1       315 4.60102E-03-4.72479E-04-9.09276E-15
 -1       316 4.99634E-03-2.75731E-04-9.85029E-15
 -1       317 5.37417E-03-1.10898E-04-1.03122E-14
 -1       318 5.65417E-03 4.14362E-05-1.07486E-14
 -1       319 5.82254E-03 1.46917E-04-1.08352E-14
 -1       320 4.86744E-04-1.19506E-04-1.83776E-16
 -1       321 5.23449E-04-1.77687E-04-1.58985E-16
 -1       322 4.28902E-04-3.94888E-05-2.03972E-16
 -1       323 4.03128E-04-1.40143E-05-2.06422E-16
 -1       324 3.81204E-04 2.30504E-06-2.06066E-16
 -1       325 3.66281E-04 1.08637E-05-2.03640E-16
 -1       326 3.61443E-04 1.46804E-05-1.99144E-16
 -1       327 3.68345E-04 1.81552E-05-1.92276E-16
 -1       328 3.86089E-04 2.58665E-05-1.82370E-16
 -1       329 4.13089E-04 4.20414E-05-1.68268E-16
 -1       330 4.46486E-04 6.94489E-05-1.48468E-16
 -1       331 4.84971E-04 1.10404E-04-1.20848E-16
 -1       332 5.31003E-04 1.68611E-04-8.15896E-17
 -1       333 6.05374E-04 2.27846E-04-6.07289E-17
 -1       334 9.46217E-04 3.26642E-04-2.18172E-16
 -1       335 9.64689E-04-3.23829E-04-4.95450E-16
 -1       336 1.29200E-03-4.11289E-04-8.96249E-16
 -1       337 1.61914E-03-4.99194E-04-1.41856E-15
 -1       338 1.94652E-03-5.93649E-04-2.06311E-15
 -1       339 2.27286E-03-6.96162E-04-2.83339E-15
 -1       340 2.59526E-03-8.01623E-04-3.73153E-15
 -1       341 2.91034E-03-8.97283E-04-4.76120E-15
 -1       342 3.21649E-03-9.64690E-04-5.92587E-15
 -1       343 3.51614E-03-9.86301E-04-7.22719E-15
 -1       344 3.81540E-03-9.54177E-04-8.66258E-15
 -1       345 4.12074E-03-8.74898E-04-1.02280E-14
 -1       346 4.43519E-03-7.66257E-04-1.19163E-14
 -1       347 4.75740E-03-6.48613E-04-1.37165E-14
 -1       348 5.08358E-03-5.37761E-04-1.56224E-14
 -1       349 5.40980E-03-4.42406E-04-1.76313E-14
 -1       350 5.73327E-03-3.65150E-04-1.97374E-14
 -1       351 6.05247E-03-3.04756E-04-2.19402E-14
 -1       352 6.36685E-03-2.58189E-04-2.42321E-14
 -1       353 6.67645E-03-2.21972E-04-2.66181E-14
 -1       354 6.98164E-03-1.92910E-04-2.90980E-14
 -1       355 7.28290E-03-1.68392E-04-3.16735E-14
 -1       356 7.58080E-03-1.46438E-04-3.43444E-14
 -1       357 7.87588E-03-1.25643E-04-3.71039E-14
 -1       358 8.16865E-03-1.05064E-04-3.99532E-14
 -1       359 8.45957E-03-8.41147E-05-4.28888E-14
 -1       360 8.74904E-03-6.24631E-05-4.59103E-14
 -1       361 9.03739E-03-3.99572E-05-4.90132E-14
 -1       362 9.32489E-03-1.65619E-05-5.21879E-14
 -1       363 9.61176E-03 7.68507E-06-5.54296E-14
 -1       364 9.89818E-03 3.27048E-05-5.87349E-14
 -1       365 1.01843E-02 5.83992E-05-6.20972E-14
 -1       366 1.04702E-02 8.46652E-05-6.55122E-14
 -1       367 1.07559E-02 1.11403E-04-6.89830E-14
 -1       368 1.10416E-02 1.38523E-04-7.24942E-14
 -1       369 1.13272E-02 1.65945E-04-7.60334E-14
 -1       370 1.16127E-02 1.93602E-04-7.96030E-14
 -1       371 1.18983E-02 2.21438E-04-8.31943E-14
 -1       372 1.21839E-02 2.49407E-04-8.68153E-14
 -1       373 1.24695E-02 2.77473E-04-9.04760E-14
 -1       374 1.27551E-02 3.05608E-04-9.41698E-14
 -1       375 1.30407E-02 3.33789E-04-9.78970E-14
 -1       376 1.33264E-02 3.61999E-04-1.01653E-13
 -1       377 1.36121E-02 3.90224E-04-1.05426E-13
 -1       378 1.38977E-02 4.18453E-04-1.09213E-13
 -1       379 1.41834E-02 4.46678E-04-1.13013E-13
 -1       380 1.44383E-02 4.68607E-04-1.16445E-13
 -1       381 1.28644E-03 4.16879E-04-4.74006E-16
 -1       382 1.62858E-03 5.12109E-04-8.33148E-16
 -1       383 1.97408E-03 6.23191E-04-1.29989E-15
 -1       384 2.32190E-03 7.56602E-04-1.87819E-15
 -1       385 2.66815E-03 9.10666E-04-2.57209E-15
 -1       386 3.00681E-03 1.07079E-03-3.38531E-15
 -1       387 3.33289E-03 1.20815E-03-4.32222E-15
 -1       388 3.64728E-03 1.28827E-03-5.39181E-15
 -1       389 3.95868E-03 1.28973E-03-6.59819E-15
 -1       390 4.27825E-03 1.21928E-03-7.94300E-15
 -1       391 4.61145E-03 1.10759E-03-9.42341E-15
 -1       392 4.95590E-03 9.90036E-04-1.10351E-14
 -1       393 5.30508E-03 8.91694E-04-1.27721E-14
 -1       394 5.65279E-03 8.23330E-04-1.46247E-14
 -1       395 5.99501E-03 7.85278E-04-1.65877E-14
 -1       396 6.32986E-03 7.72662E-04-1.86576E-14
 -1       397 6.65686E-03 7.79136E-04-2.08287E-14
 -1       398 6.97636E-03 7.98815E-04-2.30997E-14
 -1       399 7.28910E-03 8.26982E-04-2.54684E-14
 -1       400 7.59601E-03 8.60163E-04-2.79311E-14
 -1       401 7.89804E-03 8.95949E-04-3.04749E-14
 -1       402 8.19607E-03 9.32748E-04-3.30980E-14
 -1       403 8.49092E-03 9.69565E-04-3.58004E-14
 -1       404 8.78326E-03 1.00582E-03-3.85819E-14
 -1       405 9.07367E-03 1.04121E-03-4.14362E-14
 -1       406 9.36262E-03 1.07561E-03-4.43596E-14
 -1       407 9.65048E-03 1.10903E-03-4.73595E-14
 -1       408 9.93756E-03 1.14152E-03-5.04246E-14
 -1       409 1.02241E-02 1.17317E-03-5.35559E-14
 -1       410 1.05102E-02 1.20411E-03-5.67442E-14
 -1       411 1.07961E-02 1.23445E-03-5.99928E-14
 -1       412 1.10818E-02 1.26428E-03-6.33059E-14
 -1       413 1.13674E-02 1.29371E-03-6.66800E-14
 -1       414 1.16529E-02 1.32282E-03-7.01011E-14
 -1       415 1.19384E-02 1.35169E-03-7.35659E-14
 -1       416 1.22240E-02 1.38036E-03-7.70773E-14
 -1       417 1.25095E-02 1.40889E-03-8.06355E-14
 -1       418 1.27951E-02 1.43732E-03-8.42322E-14
 -1       419 1.30806E-02 1.46567E-03-8.78606E-14
 -1       420 1.33663E-02 1.49397E-03-9.15204E-14
 -1       421 1.36519E-02 1.52224E-03-9.52024E-14
 -1       422 1.39375E-02 1.55050E-03-9.89086E-14
 -1       423 1.42232E-02 1.57874E-03-1.02648E-13
 -1       424 1.45089E-02 1.60699E-03-1.06430E-13
 -1       425 1.47946E-02 1.63525E-03-1.10243E-13
 -1       426 1.49768E-02 1.64749E-03-1.12751E-13
 -1       427 1.48419E-02 1.42449E-03-1.13062E-13
 -1       428 1.48697E-02 1.50880E-03-1.12623E-13
 -1       429 1.49232E-02 1.57814E-03-1.12690E-13
 -1       430 1.48145E-02 1.34160E-03-1.13488E-13
 -1       431 1.47867E-02 1.25726E-03-1.13914E-13
 -1       432 1.47588E-02 1.17293E-03-1.14339E-13
 -1       433 1.47310E-02 1.08858E-03-1.14768E-13
 -1       434 1.47033E-02 1.00424E-03-1.15195E-13
 -1       435 1.46755E-02 9.19895E-04-1.15615E-13
 -1       436 1.46483E-02 8.36986E-04-1.16024E-13
 -1       437 1.46206E-02 7.52656E-04-1.16426E-13
 -1       438 1.45929E-02 6.68335E-04-1.16819E-13
 -1       439 1.45652E-02 5.84026E-04-1.17203E-13
 -1       440 5.60046E-03 3.37515E-04-1.10840E-14
 -1       441 5.86747E-03 1.99959E-04-1.17012E-14
 -1       442 5.78333E-03 2.65471E-04-1.14435E-14
 -1       443 5.34195E-03 4.50243E-04-1.04524E-14
 -1       444 4.90012E-03 6.67635E-04-9.46516E-15
 -1       445 4.56494E-04-7.43350E-05-1.97254E-16
 -1       446 4.15790E-03 1.03767E-03-7.59862E-15
 -1       447 3.82298E-03 1.12427E-03-6.70185E-15
 -1       448 3.49225E-03 1.11115E-03-5.84078E-15
 -1       449 3.06706E-03 9.47078E-04-4.99262E-15
 -1       450 2.71988E-03 7.54626E-04-4.41058E-15
 -1       451 2.21928E-03 4.91972E-04-3.91867E-15
 -1       452 1.87943E-03 3.39634E-04-3.69431E-15
 -1       453 1.59666E-03 2.18201E-04-3.48515E-15
 -1       454 1.39391E-03 1.29238E-04-3.28749E-15
 -1       455 1.37029E-03 9.31835E-05-3.28861E-15
 -1       456 1.54151E-03 1.92560E-05-3.60113E-15
 -1       457 1.78496E-03-7.42102E-05-3.85568E-15
 -1       458 2.10919E-03-2.18399E-04-4.24822E-15
 -1       459 2.49052E-03-4.04048E-04-4.76483E-15
 -1       460 2.90842E-03-6.09093E-04-5.47633E-15
 -1       461 3.20628E-03-7.28740E-04-6.14839E-15
 -1       462 3.59533E-03-7.84913E-04-7.19633E-15
 -1       463 3.92084E-03-7.20352E-04-8.11638E-15
 -1       464 4.33899E-03-5.37064E-04-9.16976E-15
 -1       465 4.69320E-03-3.51477E-04-9.93580E-15
 -1       466 5.16179E-03-1.11907E-04-1.08242E-14
 -1       467 5.47373E-03 2.47215E-05-1.12726E-14
 -1       468 5.76619E-03 1.39992E-04-1.15730E-14
 -1       469 4.51774E-03 8.72489E-04-8.48041E-15
 -1       470 5.64371E-03 1.10505E-04-1.20957E-14
 -1       471 1.40858E-03 6.94737E-05-3.14095E-15
 -1       472 2.47064E-03 5.98731E-04-3.89673E-15
 -1       473 1.03626E-03 2.90023E-04-4.19752E-16
 -1       474 5.93824E-04-1.43889E-05-4.37923E-16
 -1       475 6.34511E-04-4.82537E-05-4.36812E-16
 -1       476 5.43154E-04 1.96694E-05-4.27396E-16
 -1       477 5.44218E-04 2.79443E-05-4.16134E-16
 -1       478 5.65088E-04 3.89278E-05-4.00298E-16
 -1       479 6.03548E-04 5.93395E-05-3.77916E-16
 -1       480 6.54182E-04 9.33389E-05-3.47758E-16
 -1       481 7.12559E-04 1.42998E-04-3.07253E-16
 -1       482 1.36453E-03 3.74931E-04-7.50356E-16
 -1       483 1.06678E-03-2.87955E-04-7.27628E-16
 -1       484 3.27707E-03 1.04987E-03-5.08792E-15
 -1       485 1.38862E-03-3.68167E-04-1.19490E-15
 -1       486 1.71588E-03-4.53918E-04-1.77993E-15
 -1       487 2.04870E-03-5.50330E-04-2.48466E-15
 -1       488 2.38492E-03-6.57508E-04-3.31202E-15
 -1       489 2.71966E-03-7.67646E-04-4.26621E-15
 -1       490 3.04700E-03-8.62713E-04-5.35264E-15
 -1       491 3.36465E-03-9.17944E-04-6.57451E-15
 -1       492 3.67721E-03-9.13513E-04-7.93446E-15
 -1       493 3.99344E-03-8.48121E-04-9.42823E-15
 -1       494 4.31898E-03-7.40070E-04-1.10498E-14
 -1       495 4.65238E-03-6.15851E-04-1.27892E-14
 -1       496 4.98778E-03-4.96663E-04-1.46352E-14
 -1       497 5.31952E-03-3.93989E-04-1.65858E-14
 -1       498 5.64445E-03-3.11120E-04-1.86353E-14
 -1       499 5.96189E-03-2.46649E-04-2.07833E-14
 -1       500 6.27254E-03-1.97227E-04-2.30242E-14
 -1       501 6.57757E-03-1.59116E-04-2.53572E-14
 -1       502 6.87817E-03-1.28913E-04-2.77825E-14
 -1       503 7.17532E-03-1.03834E-04-3.03014E-14
 -1       504 7.46979E-03-8.17520E-05-3.29144E-14
 -1       505 7.76217E-03-6.11271E-05-3.56193E-14
 -1       506 8.05292E-03-4.09083E-05-3.84131E-14
 -1       507 8.34240E-03-2.04216E-05-4.12921E-14
 -1       508 8.63089E-03 7.27480E-07-4.42559E-14
 -1       509 8.91861E-03 2.27358E-05-4.73018E-14
 -1       510 9.20574E-03 4.56664E-05-5.04249E-14
 -1       511 9.49244E-03 6.94976E-05-5.36167E-14
 -1       512 9.77881E-03 9.41573E-05-5.68769E-14
 -1       513 1.00649E-02 1.19548E-04-6.01967E-14
 -1       514 1.03509E-02 1.45564E-04-6.35725E-14
 -1       515 1.06367E-02 1.72101E-04-6.70033E-14
 -1       516 1.09225E-02 1.99061E-04-7.04837E-14
 -1       517 1.12082E-02 2.26359E-04-7.40055E-14
 -1       518 1.14939E-02 2.53922E-04-7.75572E-14
 -1       519 1.17796E-02 2.81688E-04-8.11323E-14
 -1       520 1.20652E-02 3.09606E-04-8.47315E-14
 -1       521 1.23509E-02 3.37636E-04-8.83656E-14
 -1       522 1.26365E-02 3.65747E-04-9.20370E-14
 -1       523 1.29222E-02 3.93913E-04-9.57388E-14
 -1       524 1.32079E-02 4.22114E-04-9.94711E-14
 -1       525 1.34936E-02 4.50337E-04-1.03228E-13
 -1       526 1.37793E-02 4.78568E-04-1.07003E-13
 -1       527 1.40650E-02 5.06799E-04-1.10786E-13
 -1       528 5.74605E-03 2.85052E-04-1.22248E-14
 -1       529 2.04383E-03 5.86984E-04-1.72392E-15
 -1       530 2.39757E-03 7.29618E-04-2.37394E-15
 -1       531 2.75664E-03 8.94848E-04-3.13853E-15
 -1       532 3.11200E-03 1.06174E-03-4.02253E-15
 -1       533 3.45541E-03 1.18959E-03-5.03595E-15
 -1       534 3.78900E-03 1.23579E-03-6.18698E-15
 -1       535 4.12561E-03 1.18824E-03-7.48072E-15
 -1       536 4.47502E-03 1.07660E-03-8.91348E-15
 -1       537 4.83318E-03 9.46972E-04-1.04807E-14
 -1       538 5.19080E-03 8.34713E-04-1.21726E-14
 -1       539 5.53972E-03 7.54543E-04-1.39803E-14
 -1       540 5.87719E-03 7.07476E-04-1.58974E-14
 -1       541 6.20390E-03 6.88307E-04-1.79230E-14
 -1       542 6.52174E-03 6.90244E-04-2.00507E-14
 -1       543 6.83262E-03 7.07007E-04-2.22776E-14
 -1       544 7.13809E-03 7.33515E-04-2.46019E-14
 -1       545 7.43926E-03 7.65963E-04-2.70212E-14
 -1       546 7.73702E-03 8.01654E-04-2.95274E-14
 -1       547 8.03202E-03 8.38767E-04-3.21128E-14
 -1       548 8.32481E-03 8.76130E-04-3.47791E-14
 -1       549 8.61583E-03 9.13039E-04-3.75245E-14
 -1       550 8.90546E-03 9.49106E-04-4.03472E-14
 -1       551 9.19400E-03 9.84160E-04-4.32399E-14
 -1       552 9.48170E-03 1.01817E-03-4.62076E-14
 -1       553 9.76878E-03 1.05117E-03-4.92477E-14
 -1       554 1.00554E-02 1.08327E-03-5.23521E-14
 -1       555 1.03417E-02 1.11457E-03-5.55180E-14
 -1       556 1.06277E-02 1.14520E-03-5.87441E-14
 -1       557 1.09136E-02 1.17527E-03-6.20299E-14
 -1       558 1.11993E-02 1.20489E-03-6.53806E-14
 -1       559 1.14850E-02 1.23414E-03-6.87864E-14
 -1       560 1.17707E-02 1.26311E-03-7.22335E-14
 -1       561 1.20563E-02 1.29186E-03-7.57252E-14
 -1       562 1.23419E-02 1.32045E-03-7.92680E-14
 -1       563 1.26275E-02 1.34892E-03-8.28485E-14
 -1       564 1.29132E-02 1.37730E-03-8.64666E-14
 -1       565 1.31988E-02 1.40562E-03-9.01119E-14
 -1       566 1.34845E-02 1.43389E-03-9.37864E-14
 -1       567 1.37701E-02 1.46215E-03-9.74809E-14
 -1       568 1.40558E-02 1.49039E-03-1.01201E-13
 -1       569 1.43415E-02 1.51864E-03-1.04956E-13
 -1       570 1.46272E-02 1.54689E-03-1.08751E-13
 -1       571 1.45531E-02 1.27496E-03-1.10425E-13
 -1       572 1.45253E-02 1.19063E-03-1.10854E-13
 -1       573 1.46084E-02 1.44217E-03-1.09548E-13
 -1       574 1.45807E-02 1.35857E-03-1.09993E-13
 -1       575 1.44975E-02 1.10630E-03-1.11282E-13
 -1       576 1.44697E-02 1.02196E-03-1.11707E-13
 -1       577 1.44420E-02 9.37618E-04-1.12126E-13
 -1       578 1.44147E-02 8.54711E-04-1.12529E-13
 -1       579 1.43870E-02 7.70380E-04-1.12927E-13
 -1       580 1.43593E-02 6.86058E-04-1.13318E-13
 -1       581 1.43317E-02 6.01745E-04-1.13705E-13
 -1       582 5.48388E-03 3.82037E-04-1.14625E-14
 -1       583 5.14323E-03 5.39519E-04-1.06619E-14
 -1       584 1.69961E-03 4.70733E-04-1.18392E-15
 -1       585 5.85642E-03 1.85796E-04-1.25798E-14
 -1       586 7.70092E-04-2.01866E-04-4.10360E-16
 -1       587 4.12237E-03-6.39534E-04-9.03983E-15
 -1       588 2.68360E-03-4.96556E-04-4.81036E-15
 -1       589 1.46946E-03 1.45570E-04-2.94134E-15
 -1       590 3.97859E-03 1.11533E-03-7.15818E-15
 -1       591 5.61310E-04 7.36439E-06-4.34623E-16
 -1       592 3.69200E-03 1.15389E-03-6.25831E-15
 -1       593 2.01631E-03 3.60549E-04-3.41965E-15
 -1       594 4.36419E-03 9.56866E-04-8.39015E-15
 -1       595 2.99489E-03 9.02951E-04-4.50118E-15
 -1       596 1.62970E-03-1.31021E-06-3.31974E-15
 -1       597 1.72998E-03 2.39034E-04-3.22434E-15
 -1       598 1.33806E-03 1.01636E-04-2.92635E-15
 -1       599 3.75176E-03-7.77465E-04-7.79360E-15
 -1       600 1.93633E-03-1.21421E-04-3.64450E-15
 -1       601 2.25738E-03-2.71294E-04-4.10543E-15
 -1       602 3.05312E-03-6.82782E-04-5.63267E-15
 -1       603 3.40571E-03-7.91007E-04-6.66339E-15
 -1       604 4.50522E-03-4.31932E-04-1.01337E-14
 -1       605 4.91534E-03-2.06921E-04-1.10395E-14
 -1       606 5.33416E-03-6.25005E-06-1.18732E-14
 -1       607 4.68781E-03 7.81339E-04-9.37061E-15
 -1       608 7.84247E-04 2.32932E-04-2.16641E-16
 -1       609 5.89911E-03 2.30783E-04-1.28043E-14
 -1       610 6.78354E-04-9.42986E-05-4.30062E-16
 -1       611 1.42575E-02 5.24207E-04-1.13362E-13
 -1       612 2.75232E-03 7.66928E-04-3.97340E-15
 -1       613 2.23187E-03 4.66276E-04-3.39035E-15
 -1       614 1.32398E-03 8.36416E-05-2.78117E-15
 -1       615 3.86450E-03 1.16566E-03-6.72506E-15
 -1       616 7.34504E-04 4.86196E-05-7.02350E-16
 -1       617 7.18127E-04 3.42071E-05-7.24047E-16
 -1       618 8.46968E-04 1.09434E-04-6.33116E-16
 -1       619 9.25650E-04 1.65230E-04-5.81353E-16
 -1       620 1.11506E-03 2.53662E-04-6.52510E-16
 -1       621 1.43062E-03 3.31499E-04-1.05473E-15
 -1       622 1.48273E-03-3.19177E-04-1.50737E-15
 -1       623 1.81250E-03-4.01861E-04-2.14942E-15
 -1       624 2.15455E-03-5.00673E-04-2.90875E-15
 -1       625 2.50535E-03-6.16318E-04-3.78860E-15
 -1       626 2.85629E-03-7.37033E-04-4.79545E-15
 -1       627 3.19644E-03-8.33626E-04-5.93656E-15
 -1       628 3.52579E-03-8.70641E-04-7.21661E-15
 -1       629 3.85418E-03-8.27463E-04-8.63595E-15
 -1       630 4.19266E-03-7.18802E-04-1.01901E-14
 -1       631 4.54117E-03-5.82554E-04-1.18676E-14
 -1       632 4.89138E-03-4.50867E-04-1.36565E-14
 -1       633 5.23394E-03-3.39975E-04-1.55502E-14
 -1       634 5.56411E-03-2.52874E-04-1.75446E-14
 -1       635 5.88190E-03-1.86441E-04-1.96373E-14
 -1       636 6.18955E-03-1.36057E-04-2.18264E-14
 -1       637 6.48977E-03-9.73618E-05-2.41058E-14
 -1       638 6.78493E-03-6.67340E-05-2.64782E-14
 -1       639 7.07675E-03-4.13509E-05-2.89441E-14
 -1       640 7.36645E-03-1.90933E-05-3.14989E-14
 -1       641 7.65481E-03 1.57447E-06-3.41489E-14
 -1       642 7.94230E-03 2.17186E-05-3.68880E-14
 -1       643 8.22924E-03 4.20394E-05-3.97126E-14
 -1       644 8.51581E-03 6.29617E-05-4.26218E-14
 -1       645 8.80214E-03 8.47110E-05-4.56118E-14
 -1       646 9.08830E-03 1.07374E-04-4.86822E-14
 -1       647 9.37433E-03 1.30945E-04-5.18223E-14
 -1       648 9.66028E-03 1.55364E-04-5.50363E-14
 -1       649 9.94615E-03 1.80541E-04-5.83119E-14
 -1       650 1.02320E-02 2.06372E-04-6.16457E-14
 -1       651 1.05178E-02 2.32752E-04-6.50372E-14
 -1       652 1.08035E-02 2.59583E-04-6.84828E-14
 -1       653 1.10893E-02 2.86777E-04-7.19775E-14
 -1       654 1.13750E-02 3.14257E-04-7.55101E-14
 -1       655 1.16608E-02 3.41958E-04-7.90689E-14
 -1       656 1.19465E-02 3.69827E-04-8.26511E-14
 -1       657 1.22322E-02 3.97821E-04-8.62652E-14
 -1       658 1.25179E-02 4.25905E-04-8.99119E-14
 -1       659 1.28036E-02 4.54053E-04-9.35920E-14
 -1       660 1.30893E-02 4.82243E-04-9.73004E-14
 -1       661 1.33750E-02 5.10460E-04-1.01037E-13
 -1       662 1.36608E-02 5.38690E-04-1.04794E-13
 -1       663 1.39465E-02 5.66924E-04-1.08566E-13
 -1       664 2.41377E-03-3.85972E-04-4.06293E-15
 -1       665 2.10620E-03 5.43150E-04-2.16773E-15
 -1       666 3.23716E-03 1.06734E-03-4.65787E-15
 -1       667 4.70822E-03 9.01466E-04-9.91045E-15
 -1       668 5.08386E-03 7.71059E-04-1.15620E-14
 -1       669 5.44146E-03 6.80064E-04-1.33296E-14
 -1       670 5.77836E-03 6.27401E-04-1.52053E-14
 -1       671 6.09826E-03 6.04921E-04-1.71875E-14
 -1       672 6.40629E-03 6.04374E-04-1.92742E-14
 -1       673 6.70675E-03 6.19096E-04-2.14571E-14
 -1       674 7.00253E-03 6.43999E-04-2.37376E-14
 -1       675 7.29543E-03 6.75312E-04-2.61126E-14
 -1       676 7.58649E-03 7.10322E-04-2.85782E-14
 -1       677 7.87628E-03 7.47135E-04-3.11270E-14
 -1       678 8.16515E-03 7.84488E-04-3.37559E-14
 -1       679 8.45331E-03 8.21582E-04-3.64648E-14
 -1       680 8.74091E-03 8.57952E-04-3.92525E-14
 -1       681 9.02805E-03 8.93366E-04-4.21171E-14
 -1       682 9.31484E-03 9.27745E-04-4.50530E-14
 -1       683 9.60133E-03 9.61107E-04-4.80649E-14
 -1       684 9.88760E-03 9.93530E-04-5.11415E-14
 -1       685 1.01737E-02 1.02512E-03-5.42828E-14
 -1       686 1.04597E-02 1.05599E-03-5.74868E-14
 -1       687 1.07455E-02 1.08626E-03-6.07513E-14
 -1       688 1.10314E-02 1.11604E-03-6.40754E-14
 -1       689 1.13171E-02 1.14543E-03-6.74629E-14
 -1       690 1.16028E-02 1.17450E-03-7.08963E-14
 -1       691 1.18886E-02 1.20333E-03-7.43727E-14
 -1       692 1.21743E-02 1.23198E-03-7.78967E-14
 -1       693 1.24599E-02 1.26049E-03-8.14677E-14
 -1       694 1.27456E-02 1.28890E-03-8.50692E-14
 -1       695 1.30313E-02 1.31724E-03-8.87022E-14
 -1       696 1.33170E-02 1.34553E-03-9.23641E-14
 -1       697 1.36027E-02 1.37379E-03-9.60496E-14
 -1       698 1.38884E-02 1.40204E-03-9.97575E-14
 -1       699 1.41741E-02 1.43028E-03-1.03496E-13
 -1       700 1.43912E-02 1.43622E-03-1.06514E-13
 -1       701 4.96825E-03 6.74837E-04-1.06161E-14
 -1       702 1.42361E-02 1.03967E-03-1.08237E-13
 -1       703 1.41391E-02 5.84337E-04-1.11132E-13
 -1       704 1.42918E-02 1.20834E-03-1.07391E-13
 -1       705 1.42084E-02 9.55336E-04-1.08654E-13
 -1       706 1.42639E-02 1.12401E-03-1.07817E-13
 -1       707 1.41811E-02 8.72429E-04-1.09052E-13
 -1       708 1.41534E-02 7.88096E-04-1.09449E-13
 -1       709 1.41257E-02 7.03771E-04-1.09842E-13
 -1       710 2.82517E-03-6.02647E-04-4.93036E-15
 -1       711 1.01453E-03-2.11606E-04-7.69472E-16
 -1       712 5.66756E-03 3.37915E-04-1.26488E-14
 -1       713 4.57481E-03 8.95210E-04-9.28363E-15
 -1       714 3.92140E-03-7.42471E-04-8.59078E-15
 -1       715 5.39403E-03 4.52745E-04-1.18623E-14
 -1       716 5.96292E-03 2.13963E-04-1.39620E-14
 -1       717 1.75932E-03 4.24457E-04-1.55872E-15
 -1       718 2.86138E-03 8.88749E-04-3.70445E-15
 -1       719 2.47294E-03 6.96218E-04-2.88508E-15
 -1       720 1.31302E-03 1.04494E-04-2.45182E-15
 -1       721 1.68115E-03-5.37728E-05-2.92977E-15
 -1       722 1.58483E-03 1.83383E-04-2.73272E-15
 -1       723 4.18292E-03 1.08007E-03-7.85555E-15
 -1       724 7.80235E-04 7.14345E-05-6.72791E-16
 -1       725 1.43035E-03 4.27214E-05-2.77225E-15
 -1       726 5.91279E-03 2.68415E-04-1.37810E-14
 -1       727 8.30331E-04-4.72292E-05-7.51552E-16
 -1       728 1.81629E-03 2.72249E-04-2.90755E-15
 -1       729 5.79704E-03 1.58784E-04-1.35376E-14
 -1       730 4.75403E-03-3.07152E-04-1.13033E-14
 -1       731 3.23119E-03-7.74222E-04-6.08761E-15
 -1       732 2.12913E-03-2.38007E-04-3.60560E-15
 -1       733 5.57205E-03 7.80616E-05-1.32958E-14
 -1       734 3.54712E-03 1.16079E-03-5.63355E-15
 -1       735 3.58828E-03-8.16604E-04-7.33848E-15
 -1       736 4.33967E-03-5.47404E-04-1.01601E-14
 -1       737 5.15970E-03-9.48217E-05-1.22861E-14
 -1       738 7.33307E-04 1.86656E-05-7.39189E-16
 -1       739 1.43194E-02 1.29195E-03-1.06954E-13
 -1       740 1.43553E-02 1.36409E-03-1.06737E-13
 -1       741 6.04799E-03 2.46552E-04-1.49700E-14
 -1       742 2.50339E-03 6.34437E-04-3.45232E-15
 -1       743 1.99451E-03 3.63382E-04-2.87340E-15
 -1       744 1.36513E-03 1.26436E-04-2.25903E-15
 -1       745 1.24824E-03 8.67832E-05-2.31651E-15
 -1       746 7.74129E-04-6.87128E-06-7.48293E-16
 -1       747 8.92249E-04-1.02744E-04-7.47446E-16
 -1       748 1.12275E-03 1.79185E-04-9.43114E-16
 -1       749 5.85429E-03 3.26569E-04-1.40980E-14
 -1       750 2.17111E-03-3.24096E-04-3.39002E-15
 -1       751 1.90010E-03-3.40447E-04-2.52510E-15
 -1       752 2.25421E-03-4.44381E-04-3.33278E-15
 -1       753 3.70097E-03-8.26924E-04-7.87210E-15
 -1       754 4.05806E-03-7.16874E-04-9.34245E-15
 -1       755 5.16025E-03-2.77856E-04-1.45235E-14
 -1       756 5.49696E-03-1.87479E-04-1.64651E-14
 -1       757 5.81502E-03-1.21763E-04-1.85033E-14
 -1       758 6.11877E-03-7.31285E-05-2.06409E-14
 -1       759 6.41297E-03-3.59292E-05-2.28671E-14
 -1       760 6.70136E-03-6.19255E-06-2.51845E-14
 -1       761 6.98656E-03 1.88227E-05-2.75978E-14
 -1       762 7.27024E-03 4.10438E-05-3.01010E-14
 -1       763 7.55339E-03 6.18363E-05-3.26936E-14
 -1       764 7.83656E-03 8.21507E-05-3.53794E-14
 -1       765 8.12001E-03 1.02623E-04-3.81526E-14
 -1       766 8.40385E-03 1.23651E-04-4.10084E-14
 -1       767 8.68809E-03 1.45453E-04-4.39439E-14
 -1       768 8.97269E-03 1.68124E-04-4.69579E-14
 -1       769 9.25759E-03 1.91669E-04-5.00472E-14
 -1       770 9.54274E-03 2.16039E-04-5.32107E-14
 -1       771 9.82808E-03 2.41153E-04-5.64430E-14
 -1       772 1.01136E-02 2.66915E-04-5.97369E-14
 -1       773 1.03991E-02 2.93227E-04-6.30869E-14
 -1       774 1.06848E-02 3.19994E-04-6.64925E-14
 -1       775 1.09705E-02 3.47130E-04-6.99544E-14
 -1       776 1.12562E-02 3.74559E-04-7.34643E-14
 -1       777 1.15420E-02 4.02218E-04-7.70054E-14
 -1       778 1.18277E-02 4.30051E-04-8.05707E-14
 -1       779 1.21135E-02 4.58016E-04-8.41682E-14
 -1       780 1.23992E-02 4.86077E-04-8.77934E-14
 -1       781 1.26850E-02 5.14208E-04-9.14515E-14
 -1       782 1.29707E-02 5.42386E-04-9.51396E-14
 -1       783 1.32565E-02 5.70595E-04-9.88548E-14
 -1       784 1.35422E-02 5.98821E-04-1.02588E-13
 -1       785 1.38280E-02 6.27056E-04-1.06346E-13
 -1       786 1.61610E-03 2.18028E-04-2.33632E-15
 -1       787 2.14819E-03 4.90451E-04-2.62713E-15
 -1       788 6.01440E-03 5.19992E-04-1.64495E-14
 -1       789 6.30979E-03 5.20424E-04-1.84942E-14
 -1       790 6.59718E-03 5.35022E-04-2.06370E-14
 -1       791 6.88088E-03 5.59056E-04-2.28738E-14
 -1       792 7.16329E-03 5.89210E-04-2.52058E-14
 -1       793 7.44563E-03 6.23098E-04-2.76306E-14
 -1       794 7.72841E-03 6.58999E-04-3.01405E-14
 -1       795 8.01179E-03 6.95699E-04-3.27327E-14
 -1       796 8.29575E-03 7.32383E-04-3.54053E-14
 -1       797 8.58019E-03 7.68541E-04-3.81603E-14
 -1       798 8.86502E-03 8.03887E-04-4.09919E-14
 -1       799 9.15014E-03 8.38295E-04-4.38990E-14
 -1       800 9.43547E-03 8.71746E-04-4.68791E-14
 -1       801 9.72095E-03 9.04288E-04-4.99284E-14
 -1       802 1.00065E-02 9.36008E-04-5.30428E-14
 -1       803 1.02922E-02 9.67009E-04-5.62215E-14
 -1       804 1.05779E-02 9.97400E-04-5.94640E-14
 -1       805 1.08636E-02 1.02729E-03-6.27656E-14
 -1       806 1.11493E-02 1.05676E-03-6.61305E-14
 -1       807 1.14351E-02 1.08591E-03-6.95515E-14
 -1       808 1.17208E-02 1.11480E-03-7.30155E-14
 -1       809 1.20066E-02 1.14350E-03-7.65234E-14
 -1       810 1.22923E-02 1.17205E-03-8.00802E-14
 -1       811 1.25781E-02 1.20048E-03-8.36705E-14
 -1       812 1.28638E-02 1.22885E-03-8.72919E-14
 -1       813 1.31495E-02 1.25715E-03-9.09405E-14
 -1       814 1.34353E-02 1.28543E-03-9.46170E-14
 -1       815 1.37210E-02 1.31368E-03-9.83132E-14
 -1       816 1.40067E-02 1.34192E-03-1.02037E-13
 -1       817 1.41810E-02 1.35300E-03-1.04383E-13
 -1       818 1.39473E-02 8.89429E-04-1.05603E-13
 -1       819 1.38921E-02 7.21481E-04-1.06382E-13
 -1       820 1.39750E-02 9.73767E-04-1.05198E-13
 -1       821 1.39197E-02 8.05452E-04-1.05994E-13
 -1       822 5.70397E-03 5.41181E-04-1.45076E-14
 -1       823 5.36932E-03 5.95603E-04-1.26693E-14
 -1       824 5.43255E-03-1.62182E-05-1.39230E-14
 -1       825 1.56664E-03-2.61804E-04-1.83127E-15
 -1       826 1.21493E-03-1.71214E-04-1.23029E-15
 -1       827 5.29133E-03 5.63891E-04-1.20408E-14
 -1       828 5.04643E-03-2.03515E-04-1.28925E-14
 -1       829 5.99366E-03 1.89816E-04-1.53423E-14
 -1       830 5.63718E-03 4.07781E-04-1.32713E-14
 -1       831 1.40541E-03 2.42799E-06-2.33038E-15
 -1       832 5.84051E-03 1.34201E-04-1.50893E-14
 -1       833 8.94664E-04 5.44790E-05-1.08695E-15
 -1       834 1.75871E-03-1.36742E-04-2.73963E-15
 -1       835 1.26186E-03 6.28195E-05-2.30544E-15
 -1       836 1.27206E-03 2.48642E-04-1.00339E-15
 -1       837 2.48795E-03-5.09947E-04-3.94225E-15
 -1       838 4.79480E-03-3.80683E-04-1.24788E-14
 -1       839 8.95563E-04 3.64609E-05-1.11345E-15
 -1       840 6.04630E-03 2.88432E-04-1.53052E-14
 -1       841 1.40581E-02 1.22570E-03-1.03933E-13
 -1       842 1.79986E-03 3.70900E-04-1.95481E-15
 -1       843 5.00133E-03 6.99397E-04-1.09358E-14
 -1       844 1.40303E-02 1.14137E-03-1.04368E-13
 -1       845 1.40026E-02 1.05757E-03-1.04788E-13
 -1       846 1.02238E-03 1.18229E-04-1.00378E-15
 -1       847 6.14708E-03 2.26670E-04-1.63920E-14
 -1       848 1.53042E-03 3.03933E-04-1.43884E-15
 -1       849 1.21655E-03 9.33960E-05-1.98849E-15
 -1       850 1.12834E-03-9.06828E-05-1.23517E-15
 -1       851 9.40409E-04 7.85852E-05-1.05088E-15
 -1       852 1.45651E-03-6.05300E-05-2.15640E-15
 -1       853 1.03976E-03-2.67045E-05-1.23016E-15
 -1       854 1.14934E-03 6.68404E-05-1.90855E-15
 -1       855 5.76723E-03-5.14102E-05-1.73816E-14
 -1       856 6.06331E-03-7.76150E-06-1.94646E-14
 -1       857 6.34804E-03 2.54587E-05-2.16401E-14
 -1       858 6.62724E-03 5.26884E-05-2.39066E-14
 -1       859 6.90401E-03 7.64356E-05-2.62646E-14
 -1       860 7.18029E-03 9.82471E-05-2.87163E-14
 -1       861 7.45713E-03 1.19147E-04-3.12572E-14
 -1       862 7.73505E-03 1.39831E-04-3.38898E-14
 -1       863 8.01424E-03 1.60770E-04-3.66077E-14
 -1       864 8.29468E-03 1.82263E-04-3.94082E-14
 -1       865 8.57626E-03 2.04481E-04-4.22935E-14
 -1       866 8.85882E-03 2.27496E-04-4.52543E-14
 -1       867 9.14220E-03 2.51310E-04-4.82934E-14
 -1       868 9.42623E-03 2.75882E-04-5.14086E-14
 -1       869 9.71077E-03 3.01140E-04-5.45932E-14
 -1       870 9.99570E-03 3.27001E-04-5.78438E-14
 -1       871 1.02809E-02 3.53376E-04-6.11532E-14
 -1       872 1.05663E-02 3.80179E-04-6.45196E-14
 -1       873 1.08519E-02 4.07332E-04-6.79449E-14
 -1       874 1.11376E-02 4.34766E-04-7.14229E-14
 -1       875 1.14233E-02 4.62421E-04-7.49436E-14
 -1       876 1.17090E-02 4.90246E-04-7.84916E-14
 -1       877 1.19948E-02 5.18200E-04-8.20736E-14
 -1       878 1.22806E-02 5.46251E-04-8.56833E-14
 -1       879 1.25664E-02 5.74370E-04-8.93196E-14
 -1       880 1.28522E-02 6.02539E-04-9.29864E-14
 -1       881 1.31379E-02 6.30740E-04-9.66805E-14
 -1       882 1.34237E-02 6.58962E-04-1.00398E-13
 -1       883 1.36579E-02 6.90220E-04-1.03383E-13
 -1       884 6.23305E-03 4.38596E-04-1.77116E-14
 -1       885 7.04075E-03 5.08432E-04-2.43001E-14
 -1       886 7.31271E-03 5.40869E-04-2.66833E-14
 -1       887 7.58711E-03 5.75281E-04-2.91542E-14
 -1       888 7.86382E-03 6.10661E-04-3.17089E-14
 -1       889 8.14256E-03 6.46273E-04-3.43461E-14
 -1       890 8.42297E-03 6.81610E-04-3.70656E-14
 -1       891 8.70474E-03 7.16358E-04-3.98664E-14
 -1       892 8.98758E-03 7.50351E-04-4.27415E-14
 -1       893 9.27124E-03 7.83527E-04-4.56920E-14
 -1       894 9.55552E-03 8.15897E-04-4.87126E-14
 -1       895 9.84026E-03 8.47517E-04-5.18015E-14
 -1       896 1.01253E-02 8.78470E-04-5.49569E-14
 -1       897 1.04107E-02 9.08846E-04-5.81749E-14
 -1       898 1.06962E-02 9.38736E-04-6.14544E-14
 -1       899 1.09818E-02 9.68228E-04-6.47977E-14
 -1       900 1.12674E-02 9.97398E-04-6.82002E-14
 -1       901 1.15532E-02 1.02632E-03-7.16508E-14
 -1       902 1.18389E-02 1.05504E-03-7.51488E-14
 -1       903 1.21247E-02 1.08361E-03-7.86881E-14
 -1       904 1.24105E-02 1.11206E-03-8.22671E-14
 -1       905 1.26963E-02 1.14044E-03-8.58787E-14
 -1       906 1.29820E-02 1.16876E-03-8.95155E-14
 -1       907 1.32678E-02 1.19704E-03-9.31818E-14
 -1       908 1.35535E-02 1.22530E-03-9.68701E-14
 -1       909 1.38393E-02 1.25354E-03-1.00579E-13
 -1       910 5.95742E-03 4.33309E-04-1.57064E-14
 -1       911 1.41196E-02 1.28935E-03-1.04162E-13
 -1       912 1.84503E-03-2.54272E-04-2.59016E-15
 -1       913 1.37137E-02 9.07145E-04-1.02173E-13
 -1       914 6.04673E-03 1.64107E-04-1.66584E-14
 -1       915 1.33519E-03 1.48220E-04-1.79955E-15
 -1       916 6.77102E-03 4.79285E-04-2.20097E-14
 -1       917 6.50256E-03 4.55140E-04-1.98137E-14
 -1       918 5.45317E-03-1.13267E-04-1.53937E-14
 -1       919 1.35945E-03 2.20578E-04-1.36529E-15
 -1       920 9.53660E-04 1.33997E-05-1.17409E-15
 -1       921 5.86152E-03 3.90860E-04-1.47536E-14
 -1       922 5.73792E-03 5.09690E-05-1.57557E-14
 -1       923 1.17936E-03 3.32951E-05-1.84163E-15
 -1       924 1.72195E-03 2.92521E-04-2.14887E-15
 -1       925 5.65547E-03 4.75793E-04-1.38909E-14
 -1       926 6.07509E-03 3.40552E-04-1.59899E-14
 -1       927 1.36860E-02 8.23166E-04-1.02563E-13
 -1       928 1.03649E-03 5.78867E-05-1.51161E-15
 -1       929 1.37412E-02 9.90946E-04-1.01771E-13
 -1       930 1.31427E-03-7.39083E-05-1.72009E-15
 -1       931 1.38114E-02 1.16922E-03-1.01029E-13
 -1       932 1.49309E-03-1.90558E-04-1.82170E-15
 -1       933 6.20513E-03 2.63486E-04-1.67515E-14
 -1       934 6.29599E-03 8.60042E-05-2.04248E-14
 -1       935 6.56222E-03 1.09260E-04-2.26378E-14
 -1       936 6.82804E-03 1.30944E-04-2.49441E-14
 -1       937 7.09530E-03 1.52031E-04-2.73447E-14
 -1       938 7.36476E-03 1.73039E-04-2.98336E-14
 -1       939 7.63668E-03 1.94297E-04-3.24130E-14
 -1       940 7.91103E-03 2.16025E-04-3.50797E-14
 -1       941 8.18760E-03 2.38363E-04-3.78275E-14
 -1       942 8.46615E-03 2.61387E-04-4.06603E-14
 -1       943 8.74635E-03 2.85120E-04-4.35711E-14
 -1       944 9.02792E-03 3.09545E-04-4.65574E-14
 -1       945 9.31060E-03 3.34616E-04-4.96233E-14
 -1       946 9.59415E-03 3.60271E-04-5.27645E-14
 -1       947 9.87836E-03 3.86438E-04-5.59690E-14
 -1       948 1.01631E-02 4.13044E-04-5.92354E-14
 -1       949 1.04482E-02 4.40016E-04-6.25636E-14
 -1       950 1.07335E-02 4.67289E-04-6.59502E-14
 -1       951 1.10190E-02 4.94806E-04-6.93947E-14
 -1       952 1.13047E-02 5.22515E-04-7.28852E-14
 -1       953 1.15904E-02 5.50374E-04-7.64146E-14
 -1       954 1.18762E-02 5.78347E-04-7.99776E-14
 -1       955 1.21620E-02 6.06406E-04-8.35714E-14
 -1       956 1.24478E-02 6.34528E-04-8.71907E-14
 -1       957 1.27336E-02 6.62695E-04-9.08361E-14
 -1       958 1.30194E-02 6.90893E-04-9.45125E-14
 -1       959 1.33051E-02 7.19112E-04-9.82128E-14
 -1       960 7.45015E-03 4.96608E-04-2.81699E-14
 -1       961 6.42024E-03 3.81065E-04-1.89863E-14
 -1       962 7.18495E-03 4.64273E-04-2.57370E-14
 -1       963 7.99251E-03 5.63864E-04-3.32868E-14
 -1       964 8.26839E-03 5.97739E-04-3.59716E-14
 -1       965 8.54664E-03 6.31310E-04-3.87392E-14
 -1       966 8.82679E-03 6.64381E-04-4.15851E-14
 -1       967 9.10842E-03 6.96852E-04-4.45040E-14
 -1       968 9.39119E-03 7.28693E-04-4.74956E-14
 -1       969 9.67484E-03 7.59926E-04-5.05592E-14
 -1       970 9.95914E-03 7.90599E-04-5.36908E-14
 -1       971 1.02439E-02 8.20778E-04-5.68853E-14
 -1       972 1.05290E-02 8.50533E-04-6.01434E-14
 -1       973 1.08144E-02 8.79935E-04-6.34634E-14
 -1       974 1.11000E-02 9.09050E-04-6.68460E-14
 -1       975 1.13856E-02 9.37933E-04-7.02818E-14
 -1       976 1.16714E-02 9.66636E-04-7.37676E-14
 -1       977 1.19571E-02 9.95200E-04-7.72932E-14
 -1       978 1.22429E-02 1.02366E-03-8.08600E-14
 -1       979 1.25287E-02 1.05204E-03-8.44574E-14
 -1       980 1.28145E-02 1.08037E-03-8.80832E-14
 -1       981 1.31003E-02 1.10865E-03-9.17426E-14
 -1       982 1.33861E-02 1.13692E-03-9.54206E-14
 -1       983 1.35987E-02 1.15307E-03-9.82193E-14
 -1       984 1.35548E-02 7.41061E-04-1.01485E-13
 -1       985 7.71955E-03 5.30003E-04-3.06862E-14
 -1       986 6.92461E-03 4.33704E-04-2.33948E-14
 -1       987 6.28569E-03 2.12433E-04-1.82870E-14
 -1       988 6.66967E-03 4.05674E-04-2.11433E-14
 -1       989 1.51470E-03-1.25956E-04-2.06480E-15
 -1       990 6.04526E-03 1.01063E-04-1.78389E-14
 -1       991 1.37689E-02 1.07475E-03-1.01354E-13
 -1       992 6.27253E-03 3.05600E-04-1.74717E-14
 -1       993 1.34800E-02 9.24592E-04-9.87592E-14
 -1       994 6.32258E-03 1.63961E-04-1.95250E-14
 -1       995 6.37443E-03 2.54268E-04-1.86729E-14
 -1       996 1.34523E-02 8.40614E-04-9.91508E-14
 -1       997 6.75655E-03 1.81326E-04-2.36357E-14
 -1       998 7.01320E-03 2.01753E-04-2.59829E-14
 -1       999 7.27438E-03 2.23058E-04-2.84216E-14
 -1      1000 7.53982E-03 2.45181E-04-3.09483E-14
 -1      1001 7.80905E-03 2.68057E-04-3.35633E-14
 -1      1002 8.08158E-03 2.91636E-04-3.62610E-14
 -1      1003 8.35694E-03 3.15872E-04-3.90421E-14
 -1      1004 8.63466E-03 3.40716E-04-4.19036E-14
 -1      1005 8.91433E-03 3.66115E-04-4.48407E-14
 -1      1006 9.19555E-03 3.92012E-04-4.78538E-14
 -1      1007 9.47801E-03 4.18346E-04-5.09470E-14
 -1      1008 9.76142E-03 4.45058E-04-5.41096E-14
 -1      1009 1.00456E-02 4.72090E-04-5.73327E-14
 -1      1010 1.03302E-02 4.99390E-04-6.06206E-14
 -1      1011 1.06153E-02 5.26909E-04-6.39684E-14
 -1      1012 1.09006E-02 5.54606E-04-6.73766E-14
 -1      1013 1.11862E-02 5.82444E-04-7.08379E-14
 -1      1014 1.14719E-02 6.10391E-04-7.43410E-14
 -1      1015 1.17576E-02 6.38424E-04-7.78834E-14
 -1      1016 1.20434E-02 6.66520E-04-8.14580E-14
 -1      1017 1.23292E-02 6.94665E-04-8.50595E-14
 -1      1018 1.26150E-02 7.22843E-04-8.86894E-14
 -1      1019 1.29008E-02 7.51046E-04-9.23488E-14
 -1      1020 1.31866E-02 7.79265E-04-9.60290E-14
 -1      1021 7.84374E-03 4.85468E-04-3.22301E-14
 -1      1022 8.38973E-03 5.49087E-04-3.76125E-14
 -1      1023 8.11507E-03 5.17266E-04-3.48791E-14
 -1      1024 8.94653E-03 6.12032E-04-4.33161E-14
 -1      1025 9.22765E-03 6.42956E-04-4.62767E-14
 -1      1026 9.51006E-03 6.73474E-04-4.93133E-14
 -1      1027 9.79346E-03 7.03599E-04-5.24228E-14
 -1      1028 1.00776E-02 7.33364E-04-5.55981E-14
 -1      1029 1.03623E-02 7.62813E-04-5.88320E-14
 -1      1030 1.06473E-02 7.91991E-04-6.21319E-14
 -1      1031 1.09327E-02 8.20946E-04-6.54908E-14
 -1      1032 1.12182E-02 8.49719E-04-6.89065E-14
 -1      1033 1.15039E-02 8.78347E-04-7.23791E-14
 -1      1034 1.17896E-02 9.06863E-04-7.58940E-14
 -1      1035 1.20754E-02 9.35293E-04-7.94491E-14
 -1      1036 1.23612E-02 9.63658E-04-8.30330E-14
 -1      1037 1.26470E-02 9.91977E-04-8.66450E-14
 -1      1038 1.29328E-02 1.02026E-03-9.02930E-14
 -1      1039 1.32186E-02 1.04853E-03-9.39637E-14
 -1      1040 6.80987E-03 3.65637E-04-2.24860E-14
 -1      1041 7.05834E-03 3.93648E-04-2.47898E-14
 -1      1042 6.53527E-03 1.72115E-04-2.15411E-14
 -1      1043 1.35076E-02 1.00839E-03-9.83542E-14
 -1      1044 7.57652E-03 4.53998E-04-2.96638E-14
 -1      1045 1.35531E-02 1.08073E-03-9.82901E-14
 -1      1046 6.57080E-03 3.39495E-04-2.02743E-14
 -1      1047 7.31434E-03 4.23243E-04-2.71830E-14
 -1      1048 8.66707E-03 5.80720E-04-4.04256E-14
 -1      1049 6.50591E-03 2.26733E-04-2.04538E-14
 -1      1050 1.32463E-02 9.42037E-04-9.53601E-14
 -1      1051 1.32164E-02 8.60650E-04-9.56998E-14
 -1      1052 7.18319E-03 2.68893E-04-2.70215E-14
 -1      1053 7.44221E-03 2.92307E-04-2.94974E-14
 -1      1054 7.70649E-03 3.16732E-04-3.20586E-14
 -1      1055 7.97518E-03 3.41953E-04-3.47079E-14
 -1      1056 8.24754E-03 3.67798E-04-3.74388E-14
 -1      1057 8.52292E-03 3.94139E-04-4.02475E-14
 -1      1058 8.80078E-03 4.20874E-04-4.31362E-14
 -1      1059 9.08062E-03 4.47924E-04-4.61006E-14
 -1      1060 9.36203E-03 4.75228E-04-4.91427E-14
 -1      1061 9.64465E-03 5.02735E-04-5.22619E-14
 -1      1062 9.92822E-03 5.30405E-04-5.54420E-14
 -1      1063 1.02125E-02 5.58207E-04-5.86898E-14
 -1      1064 1.04973E-02 5.86113E-04-6.19959E-14
 -1      1065 1.07824E-02 6.14101E-04-6.53660E-14
 -1      1066 1.10678E-02 6.42154E-04-6.87915E-14
 -1      1067 1.13534E-02 6.70257E-04-7.22651E-14
 -1      1068 1.16391E-02 6.98399E-04-7.57857E-14
 -1      1069 1.19249E-02 7.26570E-04-7.93442E-14
 -1      1070 1.22107E-02 7.54762E-04-8.29267E-14
 -1      1071 1.24965E-02 7.82970E-04-8.65378E-14
 -1      1072 1.27823E-02 8.11190E-04-9.01809E-14
 -1      1073 1.29994E-02 8.35918E-04-9.29353E-14
 -1      1074 7.17541E-03 3.54836E-04-2.61954E-14
 -1      1075 9.34559E-03 5.88326E-04-4.80661E-14
 -1      1076 9.06439E-03 5.58854E-04-4.50570E-14
 -1      1077 9.91154E-03 6.46739E-04-5.43024E-14
 -1      1078 1.01957E-02 6.75690E-04-5.75186E-14
 -1      1079 1.04805E-02 7.04491E-04-6.07950E-14
 -1      1080 1.07656E-02 7.33165E-04-6.41350E-14
 -1      1081 1.10509E-02 7.61734E-04-6.75306E-14
 -1      1082 1.13365E-02 7.90216E-04-7.09809E-14
 -1      1083 1.16222E-02 8.18631E-04-7.44846E-14
 -1      1084 1.19080E-02 8.46993E-04-7.80293E-14
 -1      1085 1.21938E-02 8.75316E-04-8.16028E-14
 -1      1086 1.24796E-02 9.03608E-04-8.52027E-14
 -1      1087 1.27654E-02 9.31880E-04-8.88336E-14
 -1      1088 7.96117E-03 4.40179E-04-3.37854E-14
 -1      1089 6.92722E-03 3.28699E-04-2.38395E-14
 -1      1090 6.67173E-03 2.93847E-04-2.14724E-14
 -1      1091 8.50741E-03 4.99498E-04-3.92659E-14
 -1      1092 8.23263E-03 4.69765E-04-3.64852E-14
 -1      1093 7.69380E-03 4.10959E-04-3.11693E-14
 -1      1094 7.43148E-03 3.82394E-04-2.86400E-14
 -1      1095 8.78484E-03 5.29226E-04-4.21216E-14
 -1      1096 9.62808E-03 6.17622E-04-5.11494E-14
 -1      1097 6.93051E-03 2.46757E-04-2.46342E-14
 -1      1098 6.71430E-03 2.36741E-04-2.25104E-14
 -1      1099 1.30512E-02 9.60136E-04-9.24980E-14
 -1      1100 0.00000E+00 0.00000E+00 0.00000E+00
 -1      1101 0.00000E+00 0.00000E+00 0.00000E+00
 -1      1102 0.00000E+00 0.00000E+00 0.00000E+00
 -1      1103 0.00000E+00 0.00000E+00 0.00000E+00
 -1      1104 0.00000E+00 0.00000E+00 0.00000E+00
 -1      1105 0.00000E+00 0.00000E+00 0.00000E+00
 -1      1106 0.00000E+00 0.00000E+00 0.00000E+00
 -1      1107 0.00000E+00 0.00000E+00 0.00000E+00
 -1      1108 0.00000E+00 0.00000E+00 0.00000E+00
 -1      1109 0.00000E+00 0.00000E+00 0.00000E+00
 -1      1110 0.00000E+00 0.00000E+00 0.00000E+00
 -1      1111 0.00000E+00 0.00000E+00 0.00000E+00
 -1      1112 0.00000E+00 0.00000E+00 0.00000E+00
 -1      1113 0.00000E+00 0.00000E+00 0.00000E+00
 -1      1114 0.00000E+00 0.00000E+00 0.00000E+00
 -1      1115 0.00000E+00 0.00000E+00 0.00000E+00
 -1      1116 0.00000E+00 0.00000E+00 0.00000E+00
 -1      1117 2.28108E-04-1.48146E-04 9.43256E-18
 -1      1118 6.10290E-04-3.27048E-04-5.21637E-17
 -1      1119 9.43954E-04-4.45263E-04-2.31843E-16
 -1      1120 1.27290E-03-5.38752E-04-5.48254E-16
 -1      1121 1.60142E-03-6.26446E-04-9.95894E-16
 -1      1122 1.92845E-03-7.17538E-04-1.57372E-15
 -1      1123 2.24982E-03-8.15163E-04-2.28249E-15
 -1      1124 2.55947E-03-9.16507E-04-3.12372E-15
 -1      1125 2.85177E-03-1.01234E-03-4.10099E-15
 -1      1126 3.12448E-03-1.08823E-03-5.21504E-15
 -1      1127 3.38124E-03-1.12865E-03-6.46877E-15
 -1      1128 3.63173E-03-1.12313E-03-7.85849E-15
 -1      1129 3.88845E-03-1.07120E-03-9.37798E-15
 -1      1130 4.16185E-03-9.82968E-04-1.10227E-14
 -1      1131 4.45662E-03-8.74808E-04-1.27803E-14
 -1      1132 4.77119E-03-7.63232E-04-1.46488E-14
 -1      1133 5.09981E-03-6.60387E-04-1.66232E-14
 -1      1134 5.43547E-03-5.72630E-04-1.86998E-14
 -1      1135 5.77203E-03-5.01455E-04-2.08736E-14
 -1      1136 6.10514E-03-4.45322E-04-2.31406E-14
 -1      1137 6.43236E-03-4.01320E-04-2.54996E-14
 -1      1138 6.75272E-03-3.66286E-04-2.79502E-14
 -1      1139 7.06625E-03-3.37389E-04-3.04924E-14
 -1      1140 7.37358E-03-3.12353E-04-3.31306E-14
 -1      1141 7.67558E-03-2.89475E-04-3.58654E-14
 -1      1142 7.97321E-03-2.67560E-04-3.86963E-14
 -1      1143 8.26738E-03-2.45812E-04-4.16166E-14
 -1      1144 8.55886E-03-2.23738E-04-4.46244E-14
 -1      1145 8.84835E-03-2.01063E-04-4.77235E-14
 -1      1146 9.13637E-03-1.77662E-04-5.08995E-14
 -1      1147 9.42335E-03-1.53507E-04-5.41412E-14
 -1      1148 9.70962E-03-1.28633E-04-5.74456E-14
 -1      1149 9.99542E-03-1.03106E-04-6.08045E-14
 -1      1150 1.02809E-02-7.70108E-05-6.42254E-14
 -1      1151 1.05663E-02-5.04338E-05-6.76986E-14
 -1      1152 1.08516E-02-2.34589E-05-7.12110E-14
 -1      1153 1.11368E-02 3.83721E-06-7.47548E-14
 -1      1154 1.14221E-02 3.13878E-05-7.83195E-14
 -1      1155 1.17075E-02 5.91360E-05-8.19042E-14
 -1      1156 1.19928E-02 8.70346E-05-8.55185E-14
 -1      1157 1.22783E-02 1.15045E-04-8.91741E-14
 -1      1158 1.25637E-02 1.43137E-04-9.28661E-14
 -1      1159 1.28493E-02 1.71286E-04-9.66008E-14
 -1      1160 1.31348E-02 1.99472E-04-1.00370E-13
 -1      1161 1.34205E-02 2.27680E-04-1.04156E-13
 -1      1162 1.37061E-02 2.55900E-04-1.07950E-13
 -1      1163 1.39918E-02 2.84120E-04-1.11756E-13
 -1      1164 1.42775E-02 3.12333E-04-1.15565E-13
 -1      1165 1.45632E-02 3.40533E-04-1.19377E-13
 -1      1166 1.48418E-02 3.68017E-04-1.23115E-13
 -1      1167 2.47311E-04 1.58350E-04 3.43557E-17
 -1      1168 6.22350E-04 3.22459E-04 4.11590E-17
 -1      1169 9.68158E-04 4.33946E-04-4.19315E-17
 -1      1170 1.31554E-03 5.26857E-04-2.29227E-16
 -1      1171 1.66869E-03 6.20858E-04-5.23236E-16
 -1      1172 2.02692E-03 7.28274E-04-9.26722E-16
 -1      1173 2.38462E-03 8.56171E-04-1.44485E-15
 -1      1174 2.73170E-03 1.00410E-03-2.07679E-15
 -1      1175 3.05623E-03 1.16030E-03-2.83167E-15
 -1      1176 3.35009E-03 1.30055E-03-3.71339E-15
 -1      1177 3.61588E-03 1.39444E-03-4.72671E-15
 -1      1178 3.86943E-03 1.41927E-03-5.86743E-15
 -1      1179 4.13341E-03 1.37347E-03-7.14126E-15
 -1      1180 4.42555E-03 1.27791E-03-8.55456E-15
 -1      1181 4.75074E-03 1.16414E-03-1.01039E-14
 -1      1182 5.10204E-03 1.05971E-03-1.17873E-14
 -1      1183 5.46707E-03 9.80434E-04-1.35911E-14
 -1      1184 5.83413E-03 9.30666E-04-1.55075E-14
 -1      1185 6.19514E-03 9.07659E-04-1.75383E-14
 -1      1186 6.54587E-03 9.05762E-04-1.96749E-14
 -1      1187 6.88504E-03 9.19053E-04-2.19097E-14
 -1      1188 7.21309E-03 9.42503E-04-2.42398E-14
 -1      1189 7.53135E-03 9.72286E-04-2.66688E-14
 -1      1190 7.84145E-03 1.00567E-03-2.91893E-14
 -1      1191 8.14501E-03 1.04082E-03-3.17900E-14
 -1      1192 8.44345E-03 1.07653E-03-3.44638E-14
 -1      1193 8.73800E-03 1.11207E-03-3.72125E-14
 -1      1194 9.02965E-03 1.14703E-03-4.00327E-14
 -1      1195 9.31917E-03 1.18120E-03-4.29261E-14
 -1      1196 9.60717E-03 1.21450E-03-4.59027E-14
 -1      1197 9.89412E-03 1.24697E-03-4.89443E-14
 -1      1198 1.01803E-02 1.27866E-03-5.20482E-14
 -1      1199 1.04661E-02 1.30966E-03-5.52099E-14
 -1      1200 1.07516E-02 1.34006E-03-5.84220E-14
 -1      1201 1.10369E-02 1.36997E-03-6.16975E-14
 -1      1202 1.13222E-02 1.39948E-03-6.50445E-14
 -1      1203 1.16075E-02 1.42866E-03-6.84449E-14
 -1      1204 1.18927E-02 1.45759E-03-7.19044E-14
 -1      1205 1.21781E-02 1.48631E-03-7.54096E-14
 -1      1206 1.24634E-02 1.51488E-03-7.89537E-14
 -1      1207 1.27489E-02 1.54335E-03-8.25300E-14
 -1      1208 1.30344E-02 1.57173E-03-8.61448E-14
 -1      1209 1.33199E-02 1.60005E-03-8.97842E-14
 -1      1210 1.36055E-02 1.62834E-03-9.34492E-14
 -1      1211 1.38911E-02 1.65660E-03-9.71412E-14
 -1      1212 1.41767E-02 1.68486E-03-1.00877E-13
 -1      1213 1.44624E-02 1.71311E-03-1.04656E-13
 -1      1214 1.47481E-02 1.74137E-03-1.08476E-13
 -1      1215 1.50338E-02 1.76964E-03-1.12314E-13
 -1      1216 1.53124E-02 1.79722E-03-1.16076E-13
 -1      1217 1.54342E-02 1.76852E-03-1.18143E-13
 -1      1218 1.54064E-02 1.68423E-03-1.18605E-13
 -1      1219 1.53785E-02 1.59994E-03-1.19035E-13
 -1      1220 1.53507E-02 1.51564E-03-1.19447E-13
 -1      1221 1.53228E-02 1.43131E-03-1.19872E-13
 -1      1222 1.52952E-02 1.34769E-03-1.20287E-13
 -1      1223 1.52676E-02 1.26405E-03-1.20699E-13
 -1      1224 1.52398E-02 1.17969E-03-1.21111E-13
 -1      1225 1.52120E-02 1.09532E-03-1.21540E-13
 -1      1226 1.51843E-02 1.01095E-03-1.21968E-13
 -1      1227 1.51566E-02 9.26580E-04-1.22385E-13
 -1      1228 1.51291E-02 8.42942E-04-1.22818E-13
 -1      1229 1.51016E-02 7.59319E-04-1.23259E-13
 -1      1230 1.50740E-02 6.74998E-04-1.23668E-13
 -1      1231 1.50463E-02 5.90694E-04-1.24033E-13
 -1      1232 1.50186E-02 5.06403E-04-1.24394E-13
 -1      1233 1.49911E-02 4.22833E-04-1.24765E-13
 -1      1234 5.85372E-03 2.58813E-04-9.99972E-15
 -1      1235 5.75436E-03 4.05711E-04-9.76768E-15
 -1      1236 5.55535E-03 5.53878E-04-9.40706E-15
 -1      1237 5.26788E-03 7.04198E-04-8.93099E-15
 -1      1238 4.90645E-03 8.48514E-04-8.35546E-15
 -1      1239 4.50123E-03 9.66410E-04-7.72849E-15
 -1      1240 4.06720E-03 1.04093E-03-7.07613E-15
 -1      1241 3.61473E-03 1.05716E-03-6.42813E-15
 -1      1242 3.14665E-03 1.00759E-03-5.80346E-15
 -1      1243 2.70494E-03 9.05624E-04-5.26372E-15
 -1      1244 2.27557E-03 7.56201E-04-4.78942E-15
 -1      1245 1.90053E-03 5.88493E-04-4.42102E-15
 -1      1246 1.63024E-03 4.32615E-04-4.18649E-15
 -1      1247 1.44765E-03 2.80327E-04-4.05142E-15
 -1      1248 1.37265E-03 1.37625E-04-4.02792E-15
 -1      1249 1.41596E-03-8.23910E-06-4.12238E-15
 -1      1250 1.57414E-03-1.55487E-04-4.33510E-15
 -1      1251 1.81371E-03-2.94478E-04-4.63393E-15
 -1      1252 2.12812E-03-4.32080E-04-5.03209E-15
 -1      1253 2.50900E-03-5.60016E-04-5.53645E-15
 -1      1254 2.92006E-03-6.56802E-04-6.10555E-15
 -1      1255 3.35184E-03-7.06783E-04-6.72734E-15
 -1      1256 3.81702E-03-7.01986E-04-7.41545E-15
 -1      1257 4.28567E-03-6.33487E-04-8.10991E-15
 -1      1258 4.72347E-03-5.17673E-04-8.74385E-15
 -1      1259 5.12401E-03-3.68886E-04-9.29543E-15
 -1      1260 5.45825E-03-2.08528E-04-9.71458E-15
 -1      1261 5.70202E-03-4.91346E-05-9.97396E-15
 -1      1262 5.84005E-03 1.09420E-04-1.00728E-14
 -1      1263 1.84253E-04-1.05665E-04-8.66006E-18
 -1      1264 1.24225E-04-4.50403E-05-2.83383E-17
 -1      1265 1.30791E-04-5.83285E-05-2.28902E-17
 -1      1266 1.16170E-04-2.72267E-05-3.72152E-17
 -1      1267 1.20037E-04-3.51180E-05-3.46538E-17
 -1      1268 2.49056E-04-8.32400E-05-8.20063E-17
 -1      1269 1.10066E-04-1.46913E-05-4.14301E-17
 -1      1270 1.13230E-04-2.04499E-05-4.01968E-17
 -1      1271 2.33239E-04-5.11882E-05-9.71039E-17
 -1      1272 1.04434E-04-5.52685E-06-4.39644E-17
 -1      1273 1.07329E-04-9.76898E-06-4.33681E-17
 -1      1274 2.20330E-04-2.79105E-05-1.05181E-16
 -1      1275 9.92780E-05 6.08413E-07-4.47640E-17
 -1      1276 1.01878E-04-2.20060E-06-4.45336E-17
 -1      1277 2.08469E-04-1.09963E-05-1.09193E-16
 -1      1278 9.47411E-05 3.97002E-06-4.51164E-17
 -1      1279 9.69370E-05 2.46172E-06-4.50893E-17
 -1      1280 1.97485E-04 3.50175E-07-1.10738E-16
 -1      1281 9.14947E-05 4.72564E-06-4.47911E-17
 -1      1282 9.29469E-05 4.37050E-06-4.49537E-17
 -1      1283 1.88157E-04 6.39074E-06-1.10833E-16
 -1      1284 9.01169E-05 3.66808E-06-4.41135E-17
 -1      1285 9.05519E-05 4.02286E-06-4.42761E-17
 -1      1286 1.81904E-04 7.83106E-06-1.09708E-16
 -1      1287 9.09701E-05 2.07041E-06-4.25956E-17
 -1      1288 9.02438E-05 2.49132E-06-4.29886E-17
 -1      1289 1.79955E-04 6.44632E-06-1.07241E-16
 -1      1290 9.40634E-05 1.42165E-06-4.04543E-17
 -1      1291 9.22197E-05 1.20838E-06-4.10913E-17
 -1      1292 1.82959E-04 4.80290E-06-1.03216E-16
 -1      1293 9.89578E-05 3.02143E-06-3.73914E-17
 -1      1294 9.62509E-05 1.62092E-06-3.83943E-17
 -1      1295 1.90635E-04 5.66695E-06-9.75646E-17
 -1      1296 1.05321E-04 7.92042E-06-3.33121E-17
 -1      1297 1.01901E-04 4.84339E-06-3.48164E-17
 -1      1298 2.02106E-04 1.13666E-05-8.99346E-17
 -1      1299 1.12655E-04 1.69099E-05-2.70915E-17
 -1      1300 1.08721E-04 1.17971E-05-2.94767E-17
 -1      1301 2.16390E-04 2.37757E-05-7.92281E-17
 -1      1302 1.21033E-04 3.12049E-05-1.78893E-17
 -1      1303 1.16394E-04 2.33357E-05-2.17383E-17
 -1      1304 2.32689E-04 4.45003E-05-6.36969E-17
 -1      1305 1.32287E-04 5.46155E-05-3.94379E-18
 -1      1306 1.25627E-04 4.14990E-05-1.05710E-17
 -1      1307 2.51933E-04 7.66170E-05-4.19315E-17
 -1      1308 1.76001E-04 1.04004E-04 1.69542E-17
 -1      1309 1.54142E-04 7.54056E-05 4.39102E-18
 -1      1310 2.91923E-04 1.27668E-04-1.62359E-17
 -1      1311 3.77680E-04 2.05192E-04 1.89871E-17
 -1      1312 4.69921E-04-2.47948E-04-6.15827E-17
 -1      1313 6.45318E-04-3.17977E-04-1.22284E-16
 -1      1314 8.16350E-04-3.76413E-04-2.18806E-16
 -1      1315 9.84761E-04-4.26990E-04-3.48178E-16
 -1      1316 6.90475E-04-3.04379E-04-2.01756E-16
 -1      1317 1.15128E-03-4.73624E-04-5.09141E-16
 -1      1318 1.31655E-03-5.17723E-04-7.02414E-16
 -1      1319 1.02947E-03-4.07374E-04-4.67196E-16
 -1      1320 1.48105E-03-5.61608E-04-9.27508E-16
 -1      1321 1.64482E-03-6.05815E-04-1.18510E-15
 -1      1322 1.36109E-03-4.96738E-04-8.58458E-16
 -1      1323 1.80782E-03-6.51594E-04-1.47462E-15
 -1      1324 1.96969E-03-6.99011E-04-1.79673E-15
 -1      1325 1.68882E-03-5.85857E-04-1.37587E-15
 -1      1326 2.13005E-03-7.48411E-04-2.15076E-15
 -1      1327 2.28834E-03-7.99294E-04-2.53749E-15
 -1      1328 2.01296E-03-6.81368E-04-2.01971E-15
 -1      1329 2.44406E-03-8.51020E-04-2.95776E-15
 -1      1330 2.59668E-03-9.02374E-04-3.41118E-15
 -1      1331 2.33158E-03-7.84073E-04-2.79301E-15
 -1      1332 2.74583E-03-9.51719E-04-3.89811E-15
 -1      1333 2.89131E-03-9.97220E-04-4.41887E-15
 -1      1334 2.64169E-03-8.88061E-04-3.69747E-15
 -1      1335 3.03317E-03-1.03660E-03-4.97490E-15
 -1      1336 3.17178E-03-1.06791E-03-5.56448E-15
 -1      1337 2.94095E-03-9.80504E-04-4.73617E-15
 -1      1338 3.30776E-03-1.08906E-03-6.18745E-15
 -1      1339 3.44207E-03-1.09872E-03-6.84678E-15
 -1      1340 3.22955E-03-1.04431E-03-5.91084E-15
 -1      1341 3.57576E-03-1.09598E-03-7.53825E-15
 -1      1342 3.71006E-03-1.08078E-03-8.26208E-15
 -1      1343 3.51134E-03-1.06410E-03-7.22068E-15
 -1      1344 3.84607E-03-1.05389E-03-9.02018E-15
 -1      1345 3.98481E-03-1.01657E-03-9.80955E-15
 -1      1346 3.79308E-03-1.03324E-03-8.66462E-15
 -1      1347 4.12697E-03-9.70932E-04-1.06288E-14
 -1      1348 4.27304E-03-9.19036E-04-1.14777E-14
 -1      1349 4.08173E-03-9.57381E-04-1.02383E-14
 -1      1350 4.42310E-03-8.63377E-04-1.23543E-14
 -1      1351 4.57702E-03-8.06035E-04-1.32590E-14
 -1      1352 4.38162E-03-8.52053E-04-1.19308E-14
 -1      1353 4.73441E-03-7.49025E-04-1.41911E-14
 -1      1354 4.89473E-03-6.93890E-04-1.51497E-14
 -1      1355 4.69324E-03-7.35998E-04-1.37357E-14
 -1      1356 5.05734E-03-6.41764E-04-1.61347E-14
 -1      1357 5.22156E-03-5.93499E-04-1.71457E-14
 -1      1358 5.01399E-03-6.24800E-04-1.56488E-14
 -1      1359 5.38675E-03-5.49403E-04-1.81814E-14
 -1      1360 5.55232E-03-5.09747E-04-1.92409E-14
 -1      1361 5.33986E-03-5.27851E-04-1.76651E-14
 -1      1362 5.71775E-03-4.74297E-04-2.03256E-14
 -1      1363 5.88261E-03-4.42955E-04-2.14337E-14
 -1      1364 5.66693E-03-4.48564E-04-1.97804E-14
 -1      1365 6.04656E-03-4.15239E-04-2.25645E-14
 -1      1366 6.20935E-03-3.90867E-04-2.37179E-14
 -1      1367 5.99212E-03-3.86228E-04-2.19911E-14
 -1      1368 6.37082E-03-3.69314E-04-2.48952E-14
 -1      1369 6.53084E-03-3.50242E-04-2.60963E-14
 -1      1370 6.31342E-03-3.38028E-04-2.42941E-14
 -1      1371 6.68939E-03-3.33191E-04-2.73184E-14
 -1      1372 6.84645E-03-3.17836E-04-2.85633E-14
 -1      1373 6.62982E-03-3.00519E-04-2.66886E-14
 -1      1374 7.00206E-03-3.03824E-04-2.98343E-14
 -1      1375 7.15628E-03-2.90875E-04-3.11282E-14
 -1      1376 6.94106E-03-2.70458E-04-2.91779E-14
 -1      1377 7.30918E-03-2.78739E-04-3.24453E-14
 -1      1378 7.46085E-03-2.67193E-04-3.37856E-14
 -1      1379 7.24735E-03-2.45168E-04-3.17614E-14
 -1      1380 7.61140E-03-2.56074E-04-3.51507E-14
 -1      1381 7.76091E-03-2.45214E-04-3.65399E-14
 -1      1382 7.54920E-03-2.22616E-04-3.44400E-14
 -1      1383 7.90949E-03-2.34514E-04-3.79515E-14
 -1      1384 8.05723E-03-2.23853E-04-3.93860E-14
 -1      1385 7.84725E-03-2.01352E-04-3.72103E-14
 -1      1386 8.20422E-03-2.13180E-04-4.08421E-14
 -1      1387 8.35056E-03-2.02412E-04-4.23194E-14
 -1      1388 8.14215E-03-1.80406E-04-4.00712E-14
 -1      1389 8.49632E-03-1.91528E-04-4.38203E-14
 -1      1390 8.64157E-03-1.80474E-04-4.53434E-14
 -1      1391 8.43452E-03-1.59169E-04-4.30210E-14
 -1      1392 8.78639E-03-1.69249E-04-4.68861E-14
 -1      1393 8.93082E-03-1.57822E-04-4.84510E-14
 -1      1394 8.72493E-03-1.37294E-04-4.60564E-14
 -1      1395 9.07494E-03-1.46203E-04-5.00349E-14
 -1      1396 9.21878E-03-1.34375E-04-5.16346E-14
 -1      1397 9.01383E-03-1.14616E-04-4.91741E-14
 -1      1398 9.36239E-03-1.22355E-04-5.32528E-14
 -1      1399 9.50580E-03-1.10135E-04-5.48854E-14
 -1      1400 9.30162E-03-9.10895E-05-5.23669E-14
 -1      1401 9.64906E-03-9.77364E-05-5.65333E-14
 -1      1402 9.79218E-03-8.51579E-05-5.81953E-14
 -1      1403 9.58859E-03-6.67447E-05-5.56249E-14
 -1      1404 9.93519E-03-7.24190E-05-5.98723E-14
 -1      1405 1.00781E-02-5.95240E-05-6.15633E-14
 -1      1406 9.87498E-03-4.16531E-05-5.89430E-14
 -1      1407 1.02210E-02-4.64907E-05-6.32695E-14
 -1      1408 1.03638E-02-3.33255E-05-6.49907E-14
 -1      1409 1.01610E-02-1.59070E-05-6.23185E-14
 -1      1410 1.05065E-02-2.00445E-05-6.67217E-14
 -1      1411 1.06493E-02-6.65479E-06-6.84651E-14
 -1      1412 1.04467E-02 1.03950E-05-6.57487E-14
 -1      1413 1.07920E-02 6.82985E-06-7.02177E-14
 -1      1414 1.09347E-02 2.04020E-05-7.19783E-14
 -1      1415 1.07323E-02 3.71575E-05-6.92278E-14
 -1      1416 1.10774E-02 3.40503E-05-7.37477E-14
 -1      1417 1.12201E-02 4.77678E-05-7.55229E-14
 -1      1418 1.10178E-02 6.42930E-05-7.27446E-14
 -1      1419 1.13627E-02 6.15452E-05-7.73032E-14
 -1      1420 1.15054E-02 7.53762E-05-7.90918E-14
 -1      1421 1.13033E-02 9.17245E-05-7.62899E-14
 -1      1422 1.16481E-02 8.92533E-05-8.08835E-14
 -1      1423 1.17908E-02 1.03171E-04-8.26796E-14
 -1      1424 1.15888E-02 1.19387E-04-7.98613E-14
 -1      1425 1.19336E-02 1.17124E-04-8.44886E-14
 -1      1426 1.20763E-02 1.31107E-04-8.63074E-14
 -1      1427 1.18743E-02 1.47225E-04-8.34600E-14
 -1      1428 1.22190E-02 1.45116E-04-8.81311E-14
 -1      1429 1.23618E-02 1.59147E-04-8.99639E-14
 -1      1430 1.21597E-02 1.75194E-04-8.70883E-14
 -1      1431 1.25045E-02 1.73196E-04-9.18105E-14
 -1      1432 1.26473E-02 1.87260E-04-9.36644E-14
 -1      1433 1.24453E-02 2.03260E-04-9.07557E-14
 -1      1434 1.27901E-02 2.01338E-04-9.55277E-14
 -1      1435 1.29329E-02 2.15425E-04-9.74011E-14
 -1      1436 1.27308E-02 2.31393E-04-9.44581E-14
 -1      1437 1.30756E-02 2.29521E-04-9.92813E-14
 -1      1438 1.32185E-02 2.43623E-04-1.01166E-13
 -1      1439 1.30164E-02 2.59572E-04-9.81966E-14
 -1      1440 1.33613E-02 2.57730E-04-1.03055E-13
 -1      1441 1.35041E-02 2.71840E-04-1.04948E-13
 -1      1442 1.33020E-02 2.87779E-04-1.01960E-13
 -1      1443 1.36469E-02 2.85951E-04-1.06843E-13
 -1      1444 1.37897E-02 3.00063E-04-1.08741E-13
 -1      1445 1.35877E-02 3.16002E-04-1.05740E-13
 -1      1446 1.39326E-02 3.14175E-04-1.10643E-13
 -1      1447 1.40754E-02 3.28285E-04-1.12547E-13
 -1      1448 1.38734E-02 3.44229E-04-1.09534E-13
 -1      1449 1.42183E-02 3.42393E-04-1.14452E-13
 -1      1450 1.43611E-02 3.56497E-04-1.16355E-13
 -1      1451 1.41590E-02 3.72451E-04-1.13338E-13
 -1      1452 1.45040E-02 3.70599E-04-1.18263E-13
 -1      1453 1.46468E-02 3.84696E-04-1.20176E-13
 -1      1454 1.44447E-02 4.00662E-04-1.17150E-13
 -1      1455 1.48554E-02 4.09446E-04-1.22937E-13
 -1      1456 1.47962E-02 4.39514E-04-1.21819E-13
 -1      1457 7.39902E-04 3.40117E-04-2.27005E-17
 -1      1458 5.61270E-04 2.78627E-04 1.05710E-17
 -1      1459 5.09621E-04 2.35640E-04-1.56396E-17
 -1      1460 1.09033E-03 4.39174E-04-1.65680E-16
 -1      1461 9.15720E-04 3.91774E-04-8.15185E-17
 -1      1462 8.64065E-04 3.49191E-04-1.15427E-16
 -1      1463 1.43953E-03 5.29951E-04-4.11306E-16
 -1      1464 1.26461E-03 4.84548E-04-2.75157E-16
 -1      1465 1.21267E-03 4.42223E-04-3.15720E-16
 -1      1466 1.79136E-03 6.28178E-04-7.63685E-16
 -1      1467 1.61499E-03 5.77565E-04-5.73977E-16
 -1      1468 1.56045E-03 5.34540E-04-6.19391E-16
 -1      1469 2.14463E-03 7.44214E-04-1.22698E-15
 -1      1470 1.96802E-03 6.83767E-04-9.81108E-16
 -1      1471 1.90960E-03 6.39594E-04-1.03037E-15
 -1      1472 2.49396E-03 8.82699E-04-1.80472E-15
 -1      1473 2.32027E-03 8.10973E-04-1.50106E-15
 -1      1474 2.25860E-03 7.65904E-04-1.55292E-15
 -1      1475 2.83114E-03 1.03886E-03-2.49826E-15
 -1      1476 2.66468E-03 9.59612E-04-2.13683E-15
 -1      1477 2.60271E-03 9.14780E-04-2.19028E-15
 -1      1478 3.14833E-03 1.19484E-03-3.31718E-15
 -1      1479 2.99266E-03 1.11860E-03-2.89196E-15
 -1      1480 2.93546E-03 1.07593E-03-2.94736E-15
 -1      1481 3.44287E-03 1.32111E-03-4.26356E-15
 -1      1482 3.29829E-03 1.26359E-03-3.77418E-15
 -1      1483 3.25174E-03 1.22508E-03-3.82858E-15
 -1      1484 3.72125E-03 1.38708E-03-5.34102E-15
 -1      1485 3.58324E-03 1.36275E-03-4.78597E-15
 -1      1486 3.55194E-03 1.32926E-03-4.83934E-15
 -1      1487 3.99821E-03 1.37749E-03-6.54858E-15
 -1      1488 3.85874E-03 1.39132E-03-5.92805E-15
 -1      1489 3.84421E-03 1.36166E-03-5.98215E-15
 -1      1490 4.28957E-03 1.30237E-03-7.89356E-15
 -1      1491 4.14122E-03 1.34636E-03-7.20368E-15
 -1      1492 4.14137E-03 1.31792E-03-7.25979E-15
 -1      1493 4.60432E-03 1.19094E-03-9.37718E-15
 -1      1494 4.44382E-03 1.24903E-03-8.61817E-15
 -1      1495 4.45376E-03 1.21936E-03-8.67550E-15
 -1      1496 4.94178E-03 1.07582E-03-1.09917E-14
 -1      1497 4.77058E-03 1.13219E-03-1.01676E-14
 -1      1498 4.78426E-03 1.10009E-03-1.02249E-14
 -1      1499 5.29446E-03 9.80257E-04-1.27340E-14
 -1      1500 5.11683E-03 1.02482E-03-1.18476E-14
 -1      1501 5.12885E-03 9.90306E-04-1.19037E-14
 -1      1502 5.65295E-03 9.14275E-04-1.45938E-14
 -1      1503 5.47356E-03 9.43497E-04-1.36503E-14
 -1      1504 5.48036E-03 9.07245E-04-1.37038E-14
 -1      1505 6.00940E-03 8.77971E-04-1.65641E-14
 -1      1506 5.83185E-03 8.92711E-04-1.55649E-14
 -1      1507 5.83194E-03 8.55534E-04-1.56178E-14
 -1      1508 6.35879E-03 8.66426E-04-1.86458E-14
 -1      1509 6.18522E-03 8.69514E-04-1.75918E-14
 -1      1510 6.17867E-03 8.32083E-04-1.76415E-14
 -1      1511 6.69874E-03 8.73345E-04-2.08281E-14
 -1      1512 6.53004E-03 8.67961E-04-1.97244E-14
 -1      1513 6.51780E-03 8.30738E-04-1.97704E-14
 -1      1514 7.02877E-03 8.92963E-04-2.31086E-14
 -1      1515 6.86498E-03 8.81875E-04-2.19559E-14
 -1      1516 6.84830E-03 8.45124E-04-2.19989E-14
 -1      1517 7.34953E-03 9.20714E-04-2.54864E-14
 -1      1518 7.19024E-03 9.06050E-04-2.42855E-14
 -1      1519 7.17031E-03 8.69889E-04-2.43258E-14
 -1      1520 7.66222E-03 9.53265E-04-2.79559E-14
 -1      1521 7.50679E-03 9.36549E-04-2.67099E-14
 -1      1522 7.48465E-03 9.00999E-04-2.67482E-14
 -1      1523 7.96821E-03 9.88325E-04-3.05146E-14
 -1      1524 7.81596E-03 9.70588E-04-2.92258E-14
 -1      1525 7.79239E-03 9.35612E-04-2.92592E-14
 -1      1526 8.26881E-03 1.02438E-03-3.31499E-14
 -1      1527 8.11910E-03 1.00630E-03-3.18219E-14
 -1      1528 8.09468E-03 9.71829E-04-3.18518E-14
 -1      1529 8.56521E-03 1.06050E-03-3.58583E-14
 -1      1530 8.41746E-03 1.04248E-03-3.44943E-14
 -1      1531 8.39260E-03 1.00844E-03-3.45215E-14
 -1      1532 8.85838E-03 1.09612E-03-3.86421E-14
 -1      1533 8.71214E-03 1.07840E-03-3.72419E-14
 -1      1534 8.68711E-03 1.04472E-03-3.72681E-14
 -1      1535 9.14914E-03 1.13097E-03-4.14998E-14
 -1      1536 9.00401E-03 1.11365E-03-4.00613E-14
 -1      1537 8.97899E-03 1.08026E-03-4.00881E-14
 -1      1538 9.43813E-03 1.16491E-03-4.44317E-14
 -1      1539 9.29382E-03 1.14805E-03-4.29557E-14
 -1      1540 9.26890E-03 1.11489E-03-4.29808E-14
 -1      1541 9.72584E-03 1.19795E-03-4.74378E-14
 -1      1542 9.58211E-03 1.18154E-03-4.59265E-14
 -1      1543 9.55735E-03 1.14855E-03-4.59483E-14
 -1      1544 1.00127E-02 1.23013E-03-5.05120E-14
 -1      1545 9.86934E-03 1.21414E-03-4.89674E-14
 -1      1546 9.84476E-03 1.18128E-03-4.89864E-14
 -1      1547 1.02989E-02 1.26154E-03-5.36413E-14
 -1      1548 1.01558E-02 1.24592E-03-5.20689E-14
 -1      1549 1.01314E-02 1.21317E-03-5.20883E-14
 -1      1550 1.05847E-02 1.29229E-03-5.68314E-14
 -1      1551 1.04418E-02 1.27699E-03-5.52301E-14
 -1      1552 1.04176E-02 1.24431E-03-5.52487E-14
 -1      1553 1.08703E-02 1.32248E-03-6.00772E-14
 -1      1554 1.07275E-02 1.30745E-03-5.84461E-14
 -1      1555 1.07034E-02 1.27482E-03-5.84665E-14
 -1      1556 1.11557E-02 1.35221E-03-6.33903E-14
 -1      1557 1.10130E-02 1.33740E-03-6.17253E-14
 -1      1558 1.09891E-02 1.30480E-03-6.17479E-14
 -1      1559 1.14411E-02 1.38156E-03-6.67616E-14
 -1      1560 1.12984E-02 1.36693E-03-6.50696E-14
 -1      1561 1.12746E-02 1.33436E-03-6.50924E-14
 -1      1562 1.17264E-02 1.41061E-03-7.01903E-14
 -1      1563 1.15837E-02 1.39612E-03-6.84696E-14
 -1      1564 1.15600E-02 1.36357E-03-6.84903E-14
 -1      1565 1.20118E-02 1.43944E-03-7.36682E-14
 -1      1566 1.18691E-02 1.42505E-03-7.19241E-14
 -1      1567 1.18454E-02 1.39251E-03-7.19422E-14
 -1      1568 1.22972E-02 1.46808E-03-7.71926E-14
 -1      1569 1.21545E-02 1.45378E-03-7.54235E-14
 -1      1570 1.21309E-02 1.42124E-03-7.54370E-14
 -1      1571 1.25826E-02 1.49660E-03-8.07486E-14
 -1      1572 1.24399E-02 1.48236E-03-7.89675E-14
 -1      1573 1.24164E-02 1.44982E-03-7.89782E-14
 -1      1574 1.28681E-02 1.52501E-03-8.43466E-14
 -1      1575 1.27254E-02 1.51082E-03-8.25428E-14
 -1      1576 1.27019E-02 1.47828E-03-8.25554E-14
 -1      1577 1.31536E-02 1.55336E-03-8.79733E-14
 -1      1578 1.30109E-02 1.53920E-03-8.61561E-14
 -1      1579 1.29874E-02 1.50666E-03-8.61689E-14
 -1      1580 1.34392E-02 1.58166E-03-9.16264E-14
 -1      1581 1.32964E-02 1.56752E-03-8.97961E-14
 -1      1582 1.32729E-02 1.53498E-03-8.98087E-14
 -1      1583 1.37248E-02 1.60993E-03-9.53094E-14
 -1      1584 1.35820E-02 1.59580E-03-9.34653E-14
 -1      1585 1.35585E-02 1.56326E-03-9.34785E-14
 -1      1586 1.40104E-02 1.63819E-03-9.90190E-14
 -1      1587 1.38676E-02 1.62406E-03-9.71607E-14
 -1      1588 1.38442E-02 1.59152E-03-9.71748E-14
 -1      1589 1.42961E-02 1.66644E-03-1.02776E-13
 -1      1590 1.41533E-02 1.65231E-03-1.00891E-13
 -1      1591 1.41298E-02 1.61977E-03-1.00905E-13
 -1      1592 1.45818E-02 1.69469E-03-1.06568E-13
 -1      1593 1.44389E-02 1.68056E-03-1.04665E-13
 -1      1594 1.44155E-02 1.64802E-03-1.04674E-13
 -1      1595 1.48675E-02 1.72296E-03-1.10392E-13
 -1      1596 1.47246E-02 1.70882E-03-1.08476E-13
 -1      1597 1.47012E-02 1.67627E-03-1.08479E-13
 -1      1598 1.51532E-02 1.75123E-03-1.14237E-13
 -1      1599 1.50103E-02 1.73709E-03-1.12313E-13
 -1      1600 1.49869E-02 1.70454E-03-1.12310E-13
 -1      1601 1.52985E-02 1.75508E-03-1.16308E-13
 -1      1602 1.52757E-02 1.65091E-03-1.17045E-13
 -1      1603 1.52896E-02 1.69305E-03-1.16816E-13
 -1      1604 1.52478E-02 1.56661E-03-1.17474E-13
 -1      1605 1.52618E-02 1.60876E-03-1.17263E-13
 -1      1606 1.51450E-02 1.61758E-03-1.15485E-13
 -1      1607 1.52200E-02 1.48230E-03-1.17902E-13
 -1      1608 1.52339E-02 1.52446E-03-1.17689E-13
 -1      1609 1.51172E-02 1.53328E-03-1.15926E-13
 -1      1610 1.51921E-02 1.39798E-03-1.18326E-13
 -1      1611 1.52061E-02 1.44014E-03-1.18116E-13
 -1      1612 1.50893E-02 1.44897E-03-1.16358E-13
 -1      1613 1.51648E-02 1.31507E-03-1.18743E-13
 -1      1614 1.51785E-02 1.35652E-03-1.18535E-13
 -1      1615 1.50617E-02 1.36536E-03-1.16783E-13
 -1      1616 1.51370E-02 1.23072E-03-1.19158E-13
 -1      1617 1.51509E-02 1.27290E-03-1.18953E-13
 -1      1618 1.50341E-02 1.28174E-03-1.17203E-13
 -1      1619 1.51092E-02 1.14636E-03-1.19581E-13
 -1      1620 1.51231E-02 1.18854E-03-1.19366E-13
 -1      1621 1.50063E-02 1.19739E-03-1.17623E-13
 -1      1622 1.50814E-02 1.06200E-03-1.20006E-13
 -1      1623 1.50953E-02 1.10418E-03-1.19794E-13
 -1      1624 1.49785E-02 1.11304E-03-1.18047E-13
 -1      1625 1.50536E-02 9.77639E-04-1.20432E-13
 -1      1626 1.50675E-02 1.01982E-03-1.20219E-13
 -1      1627 1.49507E-02 1.02869E-03-1.18473E-13
 -1      1628 1.50259E-02 8.93285E-04-1.20851E-13
 -1      1629 1.50398E-02 9.35461E-04-1.20640E-13
 -1      1630 1.49230E-02 9.44335E-04-1.18894E-13
 -1      1631 1.49987E-02 8.10371E-04-1.21274E-13
 -1      1632 1.50123E-02 8.51827E-04-1.21064E-13
 -1      1633 1.48955E-02 8.60704E-04-1.19311E-13
 -1      1634 1.49710E-02 7.26041E-04-1.21699E-13
 -1      1635 1.49848E-02 7.68204E-04-1.21487E-13
 -1      1636 1.48680E-02 7.77082E-04-1.19730E-13
 -1      1637 1.49433E-02 6.41725E-04-1.22092E-13
 -1      1638 1.49572E-02 6.83881E-04-1.21903E-13
 -1      1639 1.48404E-02 6.92758E-04-1.20135E-13
 -1      1640 1.49156E-02 5.57422E-04-1.22463E-13
 -1      1641 1.49295E-02 5.99572E-04-1.22280E-13
 -1      1642 1.48127E-02 6.08446E-04-1.20523E-13
 -1      1643 1.48490E-02 4.77395E-04-1.22234E-13
 -1      1644 1.48628E-02 5.19540E-04-1.22049E-13
 -1      1645 1.47460E-02 5.28410E-04-1.20299E-13
 -1      1646 1.46404E-02 4.52644E-04-1.19475E-13
 -1      1647 5.85211E-03 2.58641E-04-1.03512E-14
 -1      1648 5.87812E-03 2.16131E-04-1.04321E-14
 -1      1649 5.69994E-03 3.70267E-04-1.00259E-14
 -1      1650 5.78591E-03 3.17077E-04-1.01827E-14
 -1      1651 5.44312E-03 5.04050E-04-9.59128E-15
 -1      1652 5.57156E-03 4.39477E-04-9.80392E-15
 -1      1653 5.09607E-03 6.66599E-04-9.03405E-15
 -1      1654 5.26396E-03 5.85799E-04-9.31348E-15
 -1      1655 4.71479E-03 8.46788E-04-8.35868E-15
 -1      1656 4.89444E-03 7.66157E-04-8.66740E-15
 -1      1657 4.32378E-03 9.99074E-04-7.64720E-15
 -1      1658 4.50692E-03 9.34374E-04-7.97393E-15
 -1      1659 3.92928E-03 1.09087E-03-6.93502E-15
 -1      1660 4.11082E-03 1.05744E-03-7.26207E-15
 -1      1661 3.53352E-03 1.09920E-03-6.24151E-15
 -1      1662 3.71542E-03 1.10804E-03-6.55641E-15
 -1      1663 3.12544E-03 1.01016E-03-5.57207E-15
 -1      1664 3.31624E-03 1.06475E-03-5.86830E-15
 -1      1665 2.71217E-03 8.56722E-04-5.04975E-15
 -1      1666 2.89187E-03 9.31367E-04-5.28001E-15
 -1      1667 2.29485E-03 6.36063E-04-4.52184E-15
 -1      1668 2.50460E-03 7.39925E-04-4.74071E-15
 -1      1669 1.89332E-03 4.68342E-04-4.22400E-15
 -1      1670 2.05194E-03 5.46714E-04-4.35887E-15
 -1      1671 1.60393E-03 3.21588E-04-4.00803E-15
 -1      1672 1.72750E-03 3.85430E-04-4.09543E-15
 -1      1673 1.41355E-03 1.98637E-04-3.87610E-15
 -1      1674 1.48822E-03 2.47692E-04-3.91430E-15
 -1      1675 1.35524E-03 1.09365E-04-3.89820E-15
 -1      1676 1.36522E-03 1.49870E-04-3.88327E-15
 -1      1677 1.44413E-03 1.53530E-05-3.98855E-15
 -1      1678 1.38122E-03 6.18867E-05-3.91107E-15
 -1      1679 1.65536E-03-1.11679E-04-4.26409E-15
 -1      1680 1.54757E-03-5.69568E-05-4.14480E-15
 -1      1681 1.94799E-03-2.50843E-04-4.59554E-15
 -1      1682 1.80326E-03-1.83267E-04-4.42941E-15
 -1      1683 2.30610E-03-4.07976E-04-5.02651E-15
 -1      1684 2.13708E-03-3.31508E-04-4.81029E-15
 -1      1685 2.70591E-03-5.72737E-04-5.57855E-15
 -1      1686 2.52106E-03-4.96624E-04-5.30726E-15
 -1      1687 3.07785E-03-6.97010E-04-6.19822E-15
 -1      1688 2.90693E-03-6.47681E-04-5.91589E-15
 -1      1689 3.47223E-03-7.62572E-04-6.89095E-15
 -1      1690 3.29346E-03-7.43155E-04-6.55755E-15
 -1      1691 3.87891E-03-7.31070E-04-7.65084E-15
 -1      1692 3.69039E-03-7.56058E-04-7.29863E-15
 -1      1693 4.29531E-03-6.13221E-04-8.42187E-15
 -1      1694 4.10172E-03-6.78131E-04-8.07571E-15
 -1      1695 4.71848E-03-4.46590E-04-9.07973E-15
 -1      1696 4.53075E-03-5.27445E-04-8.78301E-15
 -1      1697 5.12139E-03-2.48726E-04-9.70962E-15
 -1      1698 4.93140E-03-3.38938E-04-9.44641E-15
 -1      1699 5.47720E-03-8.97272E-05-1.01004E-14
 -1      1700 5.32894E-03-1.61819E-04-9.92938E-15
 -1      1701 5.73816E-03 5.66651E-05-1.04057E-14
 -1      1702 5.62792E-03-3.05619E-06-1.03087E-14
 -1      1703 5.87005E-03 1.63068E-04-1.04505E-14
 -1      1704 5.82838E-03 1.15734E-04-1.04430E-14
 -1      1705 4.93767E-03 6.76304E-04-9.04860E-15
 -1      1706 5.30991E-03 4.93339E-04-9.71172E-15
 -1      1707 1.52750E-02 1.72253E-03-1.16303E-13
 -1      1708 1.51443E-02 1.68921E-03-1.14748E-13
 -1      1709 5.82196E-03 2.59935E-04-1.06286E-14
 -1      1710 5.61991E-03 3.56197E-04-1.02274E-14
 -1      1711 5.88423E-03 1.93847E-04-1.08214E-14
 -1      1712 4.55186E-03 8.76537E-04-8.28198E-15
 -1      1713 4.17429E-03 1.03909E-03-7.50336E-15
 -1      1714 3.80872E-03 1.12546E-03-6.73715E-15
 -1      1715 3.44721E-03 1.10562E-03-5.98976E-15
 -1      1716 3.07381E-03 9.75931E-04-5.33858E-15
 -1      1717 2.66543E-03 7.67548E-04-4.75058E-15
 -1      1718 2.24457E-03 5.44475E-04-4.30295E-15
 -1      1719 1.84494E-03 3.69885E-04-4.02498E-15
 -1      1720 1.55560E-03 2.35018E-04-3.81175E-15
 -1      1721 1.38425E-03 1.53385E-04-3.73056E-15
 -1      1722 1.36042E-03 9.18579E-05-3.74856E-15
 -1      1723 1.49728E-03 2.28400E-05-3.90666E-15
 -1      1724 1.75735E-03-9.62662E-05-4.21770E-15
 -1      1725 2.09312E-03-2.43720E-04-4.58347E-15
 -1      1726 2.47863E-03-4.23441E-04-5.06244E-15
 -1      1727 2.85729E-03-6.05243E-04-5.66607E-15
 -1      1728 3.22666E-03-7.39134E-04-6.35557E-15
 -1      1729 3.57773E-03-7.86693E-04-7.12047E-15
 -1      1730 3.95325E-03-7.21324E-04-7.95845E-15
 -1      1731 4.34705E-03-5.63057E-04-8.75808E-15
 -1      1732 4.76562E-03-3.54930E-04-9.50010E-15
 -1      1733 5.17257E-03-1.52757E-04-1.01043E-14
 -1      1734 5.53251E-03 1.06113E-05-1.05446E-14
 -1      1735 5.78330E-03 1.21240E-04-1.08006E-14
 -1      1736 3.18945E-04-1.62724E-04-5.32479E-17
 -1      1737 3.51017E-04-7.37039E-05-1.53442E-16
 -1      1738 3.62231E-04-9.36453E-05-1.45663E-16
 -1      1739 3.74828E-04-1.17015E-04-1.35688E-16
 -1      1740 3.90434E-04-1.44219E-04-1.21038E-16
 -1      1741 4.99144E-04-1.44126E-04-2.12205E-16
 -1      1742 3.11760E-04-1.73757E-05-1.67916E-16
 -1      1743 3.20962E-04-2.81860E-05-1.66154E-16
 -1      1744 2.94283E-04-1.17494E-06-1.69515E-16
 -1      1745 3.02712E-04-8.27695E-06-1.68932E-16
 -1      1746 4.13206E-04-2.22294E-05-2.48553E-16
 -1      1747 2.80041E-04 7.59077E-06-1.68837E-16
 -1      1748 2.86582E-04 4.08481E-06-1.69339E-16
 -1      1749 3.89138E-04-1.98396E-06-2.49610E-16
 -1      1750 2.71287E-04 1.04068E-05-1.66574E-16
 -1      1751 2.74806E-04 9.59757E-06-1.67902E-16
 -1      1752 3.70303E-04 9.20205E-06-2.47998E-16
 -1      1753 2.69952E-04 1.00953E-05-1.62251E-16
 -1      1754 2.69596E-04 1.04127E-05-1.64745E-16
 -1      1755 3.60059E-04 1.35770E-05-2.43891E-16
 -1      1756 2.76810E-04 1.04557E-05-1.55881E-16
 -1      1757 2.72377E-04 9.93996E-06-1.59391E-16
 -1      1758 3.60959E-04 1.51248E-05-2.37088E-16
 -1      1759 2.90880E-04 1.52077E-05-1.46828E-16
 -1      1760 2.83054E-04 1.20843E-05-1.51829E-16
 -1      1761 3.73451E-04 1.87784E-05-2.27235E-16
 -1      1762 3.10954E-04 2.76138E-05-1.34414E-16
 -1      1763 3.00345E-04 2.03283E-05-1.41244E-16
 -1      1764 3.95998E-04 2.91797E-05-2.13479E-16
 -1      1765 3.35084E-04 4.99601E-05-1.16945E-16
 -1      1766 3.22632E-04 3.74745E-05-1.26743E-16
 -1      1767 4.26224E-04 5.00525E-05-1.94547E-16
 -1      1768 3.62668E-04 8.46521E-05-9.24282E-17
 -1      1769 3.48424E-04 6.56742E-05-1.06157E-16
 -1      1770 4.61631E-04 8.38903E-05-1.68661E-16
 -1      1771 3.96745E-04 1.36489E-04-5.77473E-17
 -1      1772 3.78615E-04 1.08172E-04-7.69648E-17
 -1      1773 5.02306E-04 1.33602E-04-1.32842E-16
 -1      1774 4.66517E-04 1.99781E-04-3.15096E-17
 -1      1775 4.29766E-04 1.64233E-04-4.78540E-17
 -1      1776 5.61203E-04 1.94274E-04-9.96517E-17
 -1      1777 6.41931E-04 2.60283E-04-7.13947E-17
 -1      1778 3.81132E-04-1.68761E-04-9.02192E-17
 -1      1779 9.90442E-04 3.60536E-04-2.26300E-16
 -1      1780 8.16426E-04 3.12776E-04-1.36582E-16
 -1      1781 7.71564E-04 2.77482E-04-1.54390E-16
 -1      1782 5.13675E-04-2.06067E-04-1.58497E-16
 -1      1783 9.10288E-04-3.41405E-04-4.22663E-16
 -1      1784 1.07705E-03-3.87480E-04-5.90145E-16
 -1      1785 1.24237E-03-4.31847E-04-7.88107E-16
 -1      1786 1.40694E-03-4.75383E-04-1.01704E-15
 -1      1787 1.12577E-03-3.67512E-04-7.17200E-16
 -1      1788 1.57103E-03-5.19821E-04-1.27658E-15
 -1      1789 1.73434E-03-5.65521E-04-1.56773E-15
 -1      1790 1.45396E-03-4.54028E-04-1.17826E-15
 -1      1791 1.89743E-03-6.13343E-04-1.89008E-15
 -1      1792 2.05942E-03-6.63244E-04-2.24381E-15
 -1      1793 1.78186E-03-5.44941E-04-1.76122E-15
 -1      1794 2.22081E-03-7.15099E-04-2.62973E-15
 -1      1795 2.38048E-03-7.68183E-04-3.04809E-15
 -1      1796 2.10937E-03-6.44677E-04-2.46865E-15
 -1      1797 2.53874E-03-8.21306E-04-3.49936E-15
 -1      1798 2.69472E-03-8.72841E-04-3.98271E-15
 -1      1799 2.43454E-03-7.51755E-04-3.30291E-15
 -1      1800 2.84841E-03-9.20693E-04-4.49974E-15
 -1      1801 2.99976E-03-9.62533E-04-5.05139E-15
 -1      1802 2.75402E-03-8.56987E-04-4.26696E-15
 -1      1803 3.14845E-03-9.95972E-04-5.63618E-15
 -1      1804 3.29571E-03-1.01884E-03-6.25457E-15
 -1      1805 3.06480E-03-9.43531E-04-5.36400E-15
 -1      1806 3.44101E-03-1.02943E-03-6.90732E-15
 -1      1807 3.58653E-03-1.02677E-03-7.59305E-15
 -1      1808 3.36700E-03-9.91424E-04-6.59620E-15
 -1      1809 3.73169E-03-1.01078E-03-8.31267E-15
 -1      1810 3.87878E-03-9.82249E-04-9.06553E-15
 -1      1811 3.66529E-03-9.86293E-04-7.96384E-15
 -1      1812 4.02725E-03-9.42799E-04-9.85018E-15
 -1      1813 4.17849E-03-8.94596E-04-1.06649E-14
 -1      1814 3.96674E-03-9.27274E-04-9.46415E-15
 -1      1815 4.33209E-03-8.40221E-04-1.15087E-14
 -1      1816 4.48820E-03-7.82145E-04-1.23823E-14
 -1      1817 4.27660E-03-8.27991E-04-1.10896E-14
 -1      1818 4.64667E-03-7.22846E-04-1.32832E-14
 -1      1819 4.80669E-03-6.64244E-04-1.42108E-14
 -1      1820 4.59548E-03-7.09505E-04-1.28322E-14
 -1      1821 4.96838E-03-6.08043E-04-1.51655E-14
 -1      1822 5.13055E-03-5.55289E-04-1.61462E-14
 -1      1823 4.92030E-03-5.91239E-04-1.46845E-14
 -1      1824 5.29348E-03-5.06777E-04-1.71528E-14
 -1      1825 5.45604E-03-4.62812E-04-1.81831E-14
 -1      1826 5.24686E-03-4.85848E-04-1.66416E-14
 -1      1827 5.61856E-03-4.23467E-04-1.92383E-14
 -1      1828 5.78018E-03-3.88610E-04-2.03173E-14
 -1      1829 5.57176E-03-3.98721E-04-1.86984E-14
 -1      1830 5.94117E-03-3.57889E-04-2.14209E-14
 -1      1831 6.10101E-03-3.30979E-04-2.25467E-14
 -1      1832 5.89296E-03-3.30046E-04-2.08529E-14
 -1      1833 6.25986E-03-3.07357E-04-2.36955E-14
 -1      1834 6.41748E-03-2.86656E-04-2.48681E-14
 -1      1835 6.20956E-03-2.77233E-04-2.31011E-14
 -1      1836 6.57395E-03-2.68350E-04-2.60639E-14
 -1      1837 6.72922E-03-2.52102E-04-2.72821E-14
 -1      1838 6.52138E-03-2.36701E-04-2.54411E-14
 -1      1839 6.88333E-03-2.37465E-04-2.85243E-14
 -1      1840 7.03634E-03-2.24161E-04-2.97909E-14
 -1      1841 6.82866E-03-2.04916E-04-2.78751E-14
 -1      1842 7.18827E-03-2.11848E-04-3.10814E-14
 -1      1843 7.33922E-03-2.00309E-04-3.23938E-14
 -1      1844 7.13183E-03-1.78875E-04-3.04028E-14
 -1      1845 7.48921E-03-1.89304E-04-3.37296E-14
 -1      1846 7.63837E-03-1.78674E-04-3.50890E-14
 -1      1847 7.43141E-03-1.56245E-04-3.30247E-14
 -1      1848 7.78671E-03-1.68259E-04-3.64724E-14
 -1      1849 7.93437E-03-1.57947E-04-3.78784E-14
 -1      1850 7.72793E-03-1.35334E-04-3.57378E-14
 -1      1851 8.08135E-03-1.47645E-04-3.93048E-14
 -1      1852 8.22778E-03-1.37273E-04-4.07531E-14
 -1      1853 8.02190E-03-1.14984E-04-3.85429E-14
 -1      1854 8.37366E-03-1.26785E-04-4.22257E-14
 -1      1855 8.51910E-03-1.16130E-04-4.37191E-14
 -1      1856 8.31380E-03-9.44528E-05-4.14342E-14
 -1      1857 8.66413E-03-1.05291E-04-4.52323E-14
 -1      1858 8.80881E-03-9.42371E-05-4.67664E-14
 -1      1859 8.60406E-03-7.33041E-05-4.44125E-14
 -1      1860 8.95316E-03-8.29703E-05-4.83209E-14
 -1      1861 9.09727E-03-7.14747E-05-4.98948E-14
 -1      1862 8.89301E-03-5.13173E-05-4.74731E-14
 -1      1863 9.24112E-03-5.97635E-05-5.14866E-14
 -1      1864 9.38479E-03-4.78303E-05-5.30951E-14
 -1      1865 9.18098E-03-2.84158E-05-5.06106E-14
 -1      1866 9.52828E-03-3.56941E-05-5.47201E-14
 -1      1867 9.67164E-03-2.33547E-05-5.63591E-14
 -1      1868 9.46821E-03-4.61435E-06-5.38180E-14
 -1      1869 9.81486E-03-1.08333E-05-5.80163E-14
 -1      1870 9.95800E-03 1.86662E-06-5.96865E-14
 -1      1871 9.75488E-03 2.00184E-05-5.70926E-14
 -1      1872 1.01010E-02 1.47239E-05-6.13685E-14
 -1      1873 1.02440E-02 2.77332E-05-6.30673E-14
 -1      1874 1.00412E-02 4.53865E-05-6.04249E-14
 -1      1875 1.03869E-02 4.08748E-05-6.47797E-14
 -1      1876 1.05298E-02 5.41425E-05-6.65035E-14
 -1      1877 1.03272E-02 7.13840E-05-6.38132E-14
 -1      1878 1.06727E-02 6.75187E-05-6.82400E-14
 -1      1879 1.08155E-02 8.09972E-05-6.99864E-14
 -1      1880 1.06130E-02 9.79061E-05-6.72546E-14
 -1      1881 1.09583E-02 9.45629E-05-7.17421E-14
 -1      1882 1.11011E-02 1.08210E-04-7.35066E-14
 -1      1883 1.08987E-02 1.24855E-04-7.07428E-14
 -1      1884 1.12438E-02 1.21926E-04-7.52780E-14
 -1      1885 1.13866E-02 1.35705E-04-7.70569E-14
 -1      1886 1.11843E-02 1.52145E-04-7.42678E-14
 -1      1887 1.15294E-02 1.49537E-04-7.88407E-14
 -1      1888 1.16721E-02 1.63417E-04-8.06313E-14
 -1      1889 1.14699E-02 1.79702E-04-7.78207E-14
 -1      1890 1.18149E-02 1.77338E-04-8.24295E-14
 -1      1891 1.19577E-02 1.91295E-04-8.42355E-14
 -1      1892 1.17555E-02 2.07464E-04-8.14010E-14
 -1      1893 1.21004E-02 2.05282E-04-8.60502E-14
 -1      1894 1.22432E-02 2.19295E-04-8.78707E-14
 -1      1895 1.20411E-02 2.35379E-04-8.50090E-14
 -1      1896 1.23860E-02 2.33330E-04-8.97009E-14
 -1      1897 1.25288E-02 2.47384E-04-9.15425E-14
 -1      1898 1.23267E-02 2.63408E-04-8.86513E-14
 -1      1899 1.26716E-02 2.61452E-04-9.33928E-14
 -1      1900 1.28144E-02 2.75534E-04-9.52500E-14
 -1      1901 1.26123E-02 2.91517E-04-9.23289E-14
 -1      1902 1.29572E-02 2.89625E-04-9.71163E-14
 -1      1903 1.31000E-02 3.03725E-04-9.89900E-14
 -1      1904 1.28979E-02 3.19682E-04-9.60395E-14
 -1      1905 1.32428E-02 3.17830E-04-1.00870E-13
 -1      1906 1.33856E-02 3.31940E-04-1.02753E-13
 -1      1907 1.31836E-02 3.47884E-04-9.97806E-14
 -1      1908 1.35285E-02 3.46053E-04-1.04640E-13
 -1      1909 1.36713E-02 3.60168E-04-1.06531E-13
 -1      1910 1.34692E-02 3.76106E-04-1.03544E-13
 -1      1911 1.38141E-02 3.74282E-04-1.08425E-13
 -1      1912 1.39570E-02 3.88396E-04-1.10323E-13
 -1      1913 1.37549E-02 4.04336E-04-1.07319E-13
 -1      1914 1.40998E-02 4.02509E-04-1.12228E-13
 -1      1915 1.42427E-02 4.16618E-04-1.14131E-13
 -1      1916 1.40406E-02 4.32566E-04-1.11115E-13
 -1      1917 1.43701E-02 4.27583E-04-1.15843E-13
 -1      1918 1.45130E-02 4.41686E-04-1.17752E-13
 -1      1919 1.45658E-02 4.79569E-04-1.18163E-13
 -1      1920 1.43109E-02 4.57645E-04-1.14730E-13
 -1      1921 1.33575E-03 4.50665E-04-4.80532E-16
 -1      1922 1.16302E-03 4.05868E-04-3.40589E-16
 -1      1923 1.11404E-03 3.69866E-04-3.61934E-16
 -1      1924 1.68143E-03 5.46611E-04-8.39186E-16
 -1      1925 1.50835E-03 4.97261E-04-6.46564E-16
 -1      1926 1.45617E-03 4.60141E-04-6.70254E-16
 -1      1927 2.02877E-03 6.59818E-04-1.30634E-15
 -1      1928 1.85504E-03 6.00682E-04-1.05895E-15
 -1      1929 1.80030E-03 5.61688E-04-1.08401E-15
 -1      1930 2.37601E-03 7.96582E-04-1.88566E-15
 -1      1931 2.20286E-03 7.25328E-04-1.58167E-15
 -1      1932 2.14725E-03 6.84280E-04-1.60700E-15
 -1      1933 2.71858E-03 9.54204E-04-2.58089E-15
 -1      1934 2.54852E-03 8.73587E-04-2.21845E-15
 -1      1935 2.49503E-03 8.31487E-04-2.24274E-15
 -1      1936 3.05056E-03 1.11637E-03-3.39689E-15
 -1      1937 2.88642E-03 1.03637E-03-2.97361E-15
 -1      1938 2.83868E-03 9.95668E-04-2.99618E-15
 -1      1939 3.36802E-03 1.25282E-03-4.33940E-15
 -1      1940 3.21107E-03 1.18989E-03-3.85174E-15
 -1      1941 3.17193E-03 1.15376E-03-3.87140E-15
 -1      1942 3.67329E-03 1.32921E-03-5.41329E-15
 -1      1943 3.52131E-03 1.29995E-03-4.85941E-15
 -1      1944 3.49163E-03 1.27029E-03-4.87533E-15
 -1      1945 3.97619E-03 1.32575E-03-6.62117E-15
 -1      1946 3.82374E-03 1.33719E-03-6.00046E-15
 -1      1947 3.80265E-03 1.31289E-03-6.01370E-15
 -1      1948 4.28840E-03 1.25096E-03-7.96676E-15
 -1      1949 4.13021E-03 1.29549E-03-7.27691E-15
 -1      1950 4.11660E-03 1.27309E-03-7.28917E-15
 -1      1951 4.61579E-03 1.13590E-03-9.44897E-15
 -1      1952 4.45005E-03 1.19626E-03-8.69040E-15
 -1      1953 4.44302E-03 1.17272E-03-8.70185E-15
 -1      1954 4.95663E-03 1.01598E-03-1.10611E-14
 -1      1955 4.78497E-03 1.07490E-03-1.02386E-14
 -1      1956 4.78287E-03 1.04903E-03-1.02475E-14
 -1      1957 5.30482E-03 9.16382E-04-1.27977E-14
 -1      1958 5.13043E-03 9.62935E-04-1.19147E-14
 -1      1959 5.13060E-03 9.34961E-04-1.19219E-14
 -1      1960 5.65391E-03 8.47778E-04-1.46536E-14
 -1      1961 5.47980E-03 8.78198E-04-1.37113E-14
 -1      1962 5.47933E-03 8.48875E-04-1.37160E-14
 -1      1963 5.99915E-03 8.10191E-04-1.66188E-14
 -1      1964 5.82738E-03 8.25439E-04-1.56230E-14
 -1      1965 5.82406E-03 7.95403E-04-1.56241E-14
 -1      1966 6.33778E-03 7.98376E-04-1.86914E-14
 -1      1967 6.16950E-03 8.01477E-04-1.76410E-14
 -1      1968 6.16220E-03 7.71148E-04-1.76395E-14
 -1      1969 6.66861E-03 8.05691E-04-2.08666E-14
 -1      1970 6.50424E-03 8.00014E-04-1.97670E-14
 -1      1971 6.49279E-03 7.69657E-04-1.97607E-14
 -1      1972 6.99154E-03 8.26083E-04-2.31408E-14
 -1      1973 6.83105E-03 8.14541E-04-2.19912E-14
 -1      1974 6.81585E-03 7.84326E-04-2.19815E-14
 -1      1975 7.30714E-03 8.54771E-04-2.55130E-14
 -1      1976 7.15020E-03 8.39596E-04-2.43145E-14
 -1      1977 7.13191E-03 8.09624E-04-2.43009E-14
 -1      1978 7.61628E-03 8.88286E-04-2.79734E-14
 -1      1979 7.46244E-03 8.71064E-04-2.67325E-14
 -1      1980 7.44176E-03 8.41389E-04-2.67143E-14
 -1      1981 7.91997E-03 9.24251E-04-3.05232E-14
 -1      1982 7.76872E-03 9.06051E-04-2.92379E-14
 -1      1983 7.74631E-03 8.76689E-04-2.92162E-14
 -1      1984 8.21920E-03 9.61115E-04-3.31503E-14
 -1      1985 8.07007E-03 9.42625E-04-3.18261E-14
 -1      1986 8.04645E-03 9.13565E-04-3.17997E-14
 -1      1987 8.51487E-03 9.97921E-04-3.58545E-14
 -1      1988 8.36742E-03 9.79556E-04-3.44926E-14
 -1      1989 8.34299E-03 9.50774E-04-3.44620E-14
 -1      1990 8.80776E-03 1.03412E-03-3.86355E-14
 -1      1991 8.66161E-03 1.01611E-03-3.72361E-14
 -1      1992 8.63669E-03 9.87574E-04-3.72018E-14
 -1      1993 9.09851E-03 1.06943E-03-4.14921E-14
 -1      1994 8.95335E-03 1.05189E-03-4.00551E-14
 -1      1995 8.92815E-03 1.02356E-03-4.00197E-14
 -1      1996 9.38765E-03 1.10374E-03-4.44192E-14
 -1      1997 9.24324E-03 1.08671E-03-4.29460E-14
 -1      1998 9.21790E-03 1.05855E-03-4.29087E-14
 -1      1999 9.67561E-03 1.13707E-03-4.74185E-14
 -1      2000 9.53175E-03 1.12052E-03-4.59108E-14
 -1      2001 9.50637E-03 1.09251E-03-4.58699E-14
 -1      2002 9.96271E-03 1.16947E-03-5.04887E-14
 -1      2003 9.81925E-03 1.15338E-03-4.89444E-14
 -1      2004 9.79388E-03 1.12548E-03-4.89031E-14
 -1      2005 1.02492E-02 1.20105E-03-5.36162E-14
 -1      2006 1.01060E-02 1.18536E-03-5.20453E-14
 -1      2007 1.00807E-02 1.15755E-03-5.20001E-14
 -1      2008 1.05353E-02 1.23193E-03-5.68061E-14
 -1      2009 1.03923E-02 1.21657E-03-5.52040E-14
 -1      2010 1.03671E-02 1.18883E-03-5.51589E-14
 -1      2011 1.08211E-02 1.26221E-03-6.00558E-14
 -1      2012 1.06782E-02 1.24713E-03-5.84231E-14
 -1      2013 1.06531E-02 1.21944E-03-5.83768E-14
 -1      2014 1.11068E-02 1.29200E-03-6.33691E-14
 -1      2015 1.09640E-02 1.27716E-03-6.17040E-14
 -1      2016 1.09389E-02 1.24950E-03-6.16576E-14
 -1      2017 1.13923E-02 1.32139E-03-6.67374E-14
 -1      2018 1.12495E-02 1.30674E-03-6.50473E-14
 -1      2019 1.12245E-02 1.27911E-03-6.49987E-14
 -1      2020 1.16778E-02 1.35048E-03-7.01617E-14
 -1      2021 1.15351E-02 1.33597E-03-6.84424E-14
 -1      2022 1.15101E-02 1.30836E-03-6.83942E-14
 -1      2023 1.19633E-02 1.37932E-03-7.36323E-14
 -1      2024 1.18206E-02 1.36492E-03-7.18927E-14
 -1      2025 1.17957E-02 1.33733E-03-7.18408E-14
 -1      2026 1.22488E-02 1.40797E-03-7.71487E-14
 -1      2027 1.21060E-02 1.39367E-03-7.53840E-14
 -1      2028 1.20812E-02 1.36608E-03-7.53309E-14
 -1      2029 1.25343E-02 1.43649E-03-8.07050E-14
 -1      2030 1.23915E-02 1.42225E-03-7.89229E-14
 -1      2031 1.23667E-02 1.39467E-03-7.88678E-14
 -1      2032 1.28198E-02 1.46491E-03-8.43009E-14
 -1      2033 1.26771E-02 1.45071E-03-8.24984E-14
 -1      2034 1.26523E-02 1.42314E-03-8.24422E-14
 -1      2035 1.31054E-02 1.49326E-03-8.79293E-14
 -1      2036 1.29626E-02 1.47909E-03-8.61119E-14
 -1      2037 1.29379E-02 1.45152E-03-8.60545E-14
 -1      2038 1.33910E-02 1.52155E-03-9.15825E-14
 -1      2039 1.32482E-02 1.50741E-03-8.97517E-14
 -1      2040 1.32235E-02 1.47984E-03-8.96948E-14
 -1      2041 1.36766E-02 1.54982E-03-9.52670E-14
 -1      2042 1.35338E-02 1.53569E-03-9.34229E-14
 -1      2043 1.35091E-02 1.50812E-03-9.33652E-14
 -1      2044 1.39623E-02 1.57807E-03-9.89764E-14
 -1      2045 1.38194E-02 1.56395E-03-9.71181E-14
 -1      2046 1.37947E-02 1.53638E-03-9.70601E-14
 -1      2047 1.42479E-02 1.60632E-03-1.02724E-13
 -1      2048 1.41051E-02 1.59220E-03-1.00844E-13
 -1      2049 1.40804E-02 1.56462E-03-1.00785E-13
 -1      2050 1.45336E-02 1.63457E-03-1.06507E-13
 -1      2051 1.43908E-02 1.62044E-03-1.04610E-13
 -1      2052 1.43661E-02 1.59287E-03-1.04546E-13
 -1      2053 1.48193E-02 1.66283E-03-1.10322E-13
 -1      2054 1.46765E-02 1.64870E-03-1.08412E-13
 -1      2055 1.46517E-02 1.62112E-03-1.08343E-13
 -1      2056 1.50532E-02 1.68308E-03-1.13493E-13
 -1      2057 1.49104E-02 1.66895E-03-1.11573E-13
 -1      2058 1.48857E-02 1.64137E-03-1.11503E-13
 -1      2059 1.50678E-02 1.65361E-03-1.14007E-13
 -1      2060 1.49586E-02 1.41565E-03-1.14820E-13
 -1      2061 1.49726E-02 1.45780E-03-1.14603E-13
 -1      2062 1.49865E-02 1.49996E-03-1.14384E-13
 -1      2063 1.50004E-02 1.54211E-03-1.14163E-13
 -1      2064 1.48558E-02 1.46664E-03-1.12845E-13
 -1      2065 1.50272E-02 1.57679E-03-1.14199E-13
 -1      2066 1.50411E-02 1.61893E-03-1.13974E-13
 -1      2067 1.49500E-02 1.61281E-03-1.12723E-13
 -1      2068 1.48965E-02 1.54347E-03-1.12656E-13
 -1      2069 1.49313E-02 1.33275E-03-1.15243E-13
 -1      2070 1.49449E-02 1.37420E-03-1.15031E-13
 -1      2071 1.48282E-02 1.38304E-03-1.13280E-13
 -1      2072 1.49034E-02 1.24841E-03-1.15667E-13
 -1      2073 1.49173E-02 1.29058E-03-1.15456E-13
 -1      2074 1.48006E-02 1.29943E-03-1.13707E-13
 -1      2075 1.48756E-02 1.16407E-03-1.16089E-13
 -1      2076 1.48895E-02 1.20624E-03-1.15877E-13
 -1      2077 1.47727E-02 1.21510E-03-1.14132E-13
 -1      2078 1.48478E-02 1.07972E-03-1.16516E-13
 -1      2079 1.48617E-02 1.12190E-03-1.16301E-13
 -1      2080 1.47449E-02 1.13075E-03-1.14556E-13
 -1      2081 1.48201E-02 9.95376E-04-1.16939E-13
 -1      2082 1.48339E-02 1.03755E-03-1.16728E-13
 -1      2083 1.47172E-02 1.04641E-03-1.14982E-13
 -1      2084 1.47923E-02 9.11031E-04-1.17359E-13
 -1      2085 1.48062E-02 9.53203E-04-1.17151E-13
 -1      2086 1.46894E-02 9.62067E-04-1.15405E-13
 -1      2087 1.47651E-02 8.28121E-04-1.17772E-13
 -1      2088 1.47787E-02 8.69575E-04-1.17564E-13
 -1      2089 1.46619E-02 8.78441E-04-1.15820E-13
 -1      2090 1.47374E-02 7.43791E-04-1.18179E-13
 -1      2091 1.47512E-02 7.85954E-04-1.17976E-13
 -1      2092 1.46344E-02 7.94821E-04-1.16226E-13
 -1      2093 1.47097E-02 6.59471E-04-1.18575E-13
 -1      2094 1.47236E-02 7.01629E-04-1.18379E-13
 -1      2095 1.46068E-02 7.10496E-04-1.16625E-13
 -1      2096 1.46820E-02 5.75163E-04-1.18957E-13
 -1      2097 1.46959E-02 6.17316E-04-1.18768E-13
 -1      2098 1.45791E-02 6.26181E-04-1.17015E-13
 -1      2099 5.54023E-03 3.43330E-04-1.05503E-14
 -1      2100 5.66902E-03 2.96654E-04-1.07862E-14
 -1      2101 5.89153E-03 2.05139E-04-1.12579E-14
 -1      2102 5.88212E-03 1.88925E-04-1.12791E-14
 -1      2103 5.77160E-03 2.60262E-04-1.09590E-14
 -1      2104 5.84567E-03 2.35079E-04-1.11349E-14
 -1      2105 5.71724E-03 2.68072E-04-1.12849E-14
 -1      2106 5.22694E-03 4.80878E-04-9.94912E-15
 -1      2107 5.39464E-03 4.06222E-04-1.02448E-14
 -1      2108 5.47680E-03 3.51837E-04-1.07927E-14
 -1      2109 4.79712E-03 7.03857E-04-9.08716E-15
 -1      2110 4.98119E-03 6.02243E-04-9.46999E-15
 -1      2111 3.30538E-04-4.12211E-05-1.63308E-16
 -1      2112 3.40506E-04-5.62446E-05-1.58849E-16
 -1      2113 4.67686E-04-9.23140E-05-2.32534E-16
 -1      2114 4.39640E-04-5.22303E-05-2.43512E-16
 -1      2115 4.06170E-03 1.08219E-03-7.38244E-15
 -1      2116 4.21956E-03 1.01272E-03-7.77403E-15
 -1      2117 3.73369E-03 1.15275E-03-6.55853E-15
 -1      2118 3.88358E-03 1.13241E-03-6.93616E-15
 -1      2119 3.40665E-03 1.10378E-03-5.76023E-15
 -1      2120 3.55886E-03 1.14498E-03-6.12520E-15
 -1      2121 3.00737E-03 9.21983E-04-5.04973E-15
 -1      2122 3.18090E-03 1.01234E-03-5.32693E-15
 -1      2123 2.63186E-03 6.92240E-04-4.45576E-15
 -1      2124 2.81827E-03 8.13243E-04-4.74679E-15
 -1      2125 2.92903E-03 8.57643E-04-4.73551E-15
 -1      2126 2.14660E-03 4.46122E-04-4.05090E-15
 -1      2127 2.35842E-03 5.46072E-04-4.19691E-15
 -1      2128 1.79140E-03 2.92592E-04-3.81220E-15
 -1      2129 1.95614E-03 3.63627E-04-3.92970E-15
 -1      2130 1.51425E-03 1.82946E-04-3.61485E-15
 -1      2131 1.63576E-03 2.27970E-04-3.70197E-15
 -1      2132 1.35519E-03 1.23248E-04-3.52285E-15
 -1      2133 1.40357E-03 1.37757E-04-3.51374E-15
 -1      2134 1.36856E-03 9.34885E-05-3.53176E-15
 -1      2135 1.34246E-03 1.05219E-04-3.52525E-15
 -1      2136 1.33739E-03 1.07190E-04-3.30686E-15
 -1      2137 1.57256E-03 2.07137E-05-3.84057E-15
 -1      2138 1.46261E-03 5.90291E-05-3.69348E-15
 -1      2139 1.85501E-03-8.64402E-05-4.12796E-15
 -1      2140 1.70771E-03-2.89189E-05-3.97561E-15
 -1      2141 2.21056E-03-2.47965E-04-4.53396E-15
 -1      2142 2.03488E-03-1.66390E-04-4.33413E-15
 -1      2143 2.60537E-03-4.49783E-04-5.06923E-15
 -1      2144 2.42039E-03-3.51541E-04-4.80329E-15
 -1      2145 2.99457E-03-6.51759E-04-5.76161E-15
 -1      2146 2.83290E-03-5.65619E-04-5.43459E-15
 -1      2147 3.30850E-03-7.72759E-04-6.45591E-15
 -1      2148 3.15733E-03-7.20308E-04-6.10257E-15
 -1      2149 3.08982E-03-6.90539E-04-5.85561E-15
 -1      2150 3.66337E-03-8.00430E-04-7.39101E-15
 -1      2151 3.51189E-03-8.05670E-04-6.98026E-15
 -1      2152 3.99920E-03-7.01929E-04-8.28013E-15
 -1      2153 3.83660E-03-7.64528E-04-7.84656E-15
 -1      2154 4.40729E-03-4.99142E-04-9.17297E-15
 -1      2155 4.22228E-03-5.98518E-04-8.79765E-15
 -1      2156 4.79563E-03-2.82431E-04-9.92629E-15
 -1      2157 4.60109E-03-3.94733E-04-9.54544E-15
 -1      2158 4.47663E-03-4.38542E-04-9.58517E-15
 -1      2159 5.24407E-03-6.27693E-05-1.05953E-14
 -1      2160 5.05087E-03-1.49553E-04-1.03606E-14
 -1      2161 5.57355E-03 7.42347E-05-1.10306E-14
 -1      2162 5.41746E-03 1.13495E-05-1.08111E-14
 -1      2163 5.31562E-03-1.88001E-06-1.10712E-14
 -1      2164 5.82685E-03 1.60337E-04-1.12156E-14
 -1      2165 5.73497E-03 1.31390E-04-1.11731E-14
 -1      2166 4.41604E-03 9.19005E-04-8.20817E-15
 -1      2167 4.59077E-03 8.20867E-04-8.60457E-15
 -1      2168 6.81655E-04-2.63412E-04-2.56414E-16
 -1      2169 3.30946E-03 1.06644E-03-5.45194E-15
 -1      2170 4.29737E-03 9.69705E-04-8.08086E-15
 -1      2171 7.37830E-04-2.51164E-04-3.40250E-16
 -1      2172 5.87897E-03 2.18527E-04-1.15885E-14
 -1      2173 1.46292E-02 5.37276E-04-1.18548E-13
 -1      2174 5.10558E-03 5.21609E-04-9.98641E-15
 -1      2175 5.86234E-03 1.85161E-04-1.16512E-14
 -1      2176 4.67424E-03 7.56695E-04-9.00759E-15
 -1      2177 5.65518E-03 1.22335E-04-1.14380E-14
 -1      2178 5.56997E-03 1.07842E-04-1.17023E-14
 -1      2179 5.72446E-03 1.52652E-04-1.18524E-14
 -1      2180 4.90451E-03-2.00584E-04-1.04044E-14
 -1      2181 4.09359E-03-6.53316E-04-8.67752E-15
 -1      2182 3.41300E-03-8.00961E-04-6.70945E-15
 -1      2183 2.73980E-03-5.06017E-04-5.15775E-15
 -1      2184 2.32816E-03-2.83915E-04-4.53961E-15
 -1      2185 1.95320E-03-1.04951E-04-4.07938E-15
 -1      2186 1.40278E-03 8.49866E-05-3.46131E-15
 -1      2187 1.35877E-03 9.34032E-05-3.23755E-15
 -1      2188 1.44972E-03 7.67015E-05-3.39092E-15
 -1      2189 1.45071E-03 1.41942E-04-3.40279E-15
 -1      2190 1.72251E-03 2.36165E-04-3.60804E-15
 -1      2191 2.50536E-03 6.01441E-04-4.19249E-15
 -1      2192 2.62492E-03 6.60525E-04-4.18293E-15
 -1      2193 2.38103E-03 5.19004E-04-3.93971E-15
 -1      2194 3.96896E-03 1.11761E-03-7.19230E-15
 -1      2195 3.65434E-03 1.16242E-03-6.31168E-15
 -1      2196 2.06130E-03 3.76062E-04-3.82992E-15
 -1      2197 1.64625E-03 1.26355E-05-3.75184E-15
 -1      2198 3.74370E-03-7.92520E-04-7.69629E-15
 -1      2199 1.15714E-03 3.48910E-04-4.78662E-16
 -1      2200 9.89388E-04 3.05829E-04-3.43773E-16
 -1      2201 4.82216E-04-1.53481E-06-3.53802E-16
 -1      2202 4.96884E-04-1.20242E-05-3.54236E-16
 -1      2203 5.13094E-04-2.53965E-05-3.53653E-16
 -1      2204 5.30021E-04-4.15801E-05-3.51986E-16
 -1      2205 6.10498E-04-2.65641E-05-4.79326E-16
 -1      2206 4.48594E-04 1.79400E-05-3.43543E-16
 -1      2207 4.52023E-04 1.55254E-05-3.47392E-16
 -1      2208 4.53577E-04 2.19645E-05-3.33297E-16
 -1      2209 4.49075E-04 1.98030E-05-3.38894E-16
 -1      2210 5.37320E-04 2.36765E-05-4.61816E-16
 -1      2211 4.73674E-04 2.99512E-05-3.18837E-16
 -1      2212 4.61908E-04 2.50999E-05-3.26779E-16
 -1      2213 5.48514E-04 3.08654E-05-4.47315E-16
 -1      2214 5.06806E-04 4.74922E-05-2.98874E-16
 -1      2215 4.88970E-04 3.72778E-05-3.09770E-16
 -1      2216 5.78818E-04 4.45433E-05-4.27040E-16
 -1      2217 5.48812E-04 7.81705E-05-2.71633E-16
 -1      2218 5.27039E-04 6.10678E-05-2.86311E-16
 -1      2219 6.24217E-04 7.05734E-05-3.99339E-16
 -1      2220 5.96888E-04 1.24250E-04-2.34892E-16
 -1      2221 5.72302E-04 9.92062E-05-2.54706E-16
 -1      2222 6.79192E-04 1.12074E-04-3.62245E-16
 -1      2223 1.49427E-03 4.38555E-04-8.24278E-16
 -1      2224 1.32534E-03 3.92816E-04-6.38541E-16
 -1      2225 1.19772E-03 3.28409E-04-6.02627E-16
 -1      2226 1.01306E-03-3.05235E-04-6.46035E-16
 -1      2227 1.17554E-03-3.47101E-04-8.48564E-16
 -1      2228 3.21462E-03 1.01878E-03-5.08697E-15
 -1      2229 3.39516E-03 1.10852E-03-5.50327E-15
 -1      2230 1.33855E-03-3.89060E-04-1.08060E-15
 -1      2231 1.50200E-03-4.31772E-04-1.34234E-15
 -1      2232 1.22503E-03-3.25954E-04-9.83873E-16
 -1      2233 1.66632E-03-4.76230E-04-1.63434E-15
 -1      2234 1.83103E-03-5.23020E-04-1.95698E-15
 -1      2235 1.55058E-03-4.08515E-04-1.50959E-15
 -1      2236 1.99667E-03-5.72524E-04-2.31018E-15
 -1      2237 2.16223E-03-6.24645E-04-2.69423E-15
 -1      2238 1.88178E-03-4.99914E-04-2.15407E-15
 -1      2239 2.32809E-03-6.78911E-04-3.10946E-15
 -1      2240 2.49297E-03-7.34186E-04-3.55716E-15
 -1      2241 2.21787E-03-6.03639E-04-2.91992E-15
 -1      2242 2.65688E-03-7.89010E-04-4.03684E-15
 -1      2243 2.81875E-03-8.40740E-04-4.54960E-15
 -1      2244 2.55516E-03-7.16494E-04-3.81018E-15
 -1      2245 2.97814E-03-8.87225E-04-5.09599E-15
 -1      2246 3.13529E-03-9.24735E-04-5.67553E-15
 -1      2247 2.88732E-03-8.25318E-04-4.83083E-15
 -1      2248 3.28951E-03-9.51097E-04-6.28905E-15
 -1      2249 3.44280E-03-9.63654E-04-6.93694E-15
 -1      2250 3.20894E-03-9.06347E-04-5.98467E-15
 -1      2251 3.59447E-03-9.61284E-04-7.61801E-15
 -1      2252 3.74744E-03-9.43812E-04-8.33326E-15
 -1      2253 3.52112E-03-9.34401E-04-7.27515E-15
 -1      2254 3.90105E-03-9.12084E-04-9.08125E-15
 -1      2255 4.05747E-03-8.68632E-04-9.86175E-15
 -1      2256 3.83249E-03-8.97264E-04-8.70089E-15
 -1      2257 4.21603E-03-8.15817E-04-1.06728E-14
 -1      2258 4.37721E-03-7.57258E-04-1.15135E-14
 -1      2259 4.15205E-03-8.04581E-04-1.02576E-14
 -1      2260 4.54044E-03-6.95543E-04-1.23826E-14
 -1      2261 4.70484E-03-6.33626E-04-1.32802E-14
 -1      2262 4.48222E-03-6.81835E-04-1.19360E-14
 -1      2263 4.87026E-03-5.73413E-04-1.42056E-14
 -1      2264 5.03530E-03-5.16531E-04-1.51565E-14
 -1      2265 4.81819E-03-5.55025E-04-1.37274E-14
 -1      2266 5.20022E-03-4.64003E-04-1.61328E-14
 -1      2267 5.36379E-03-4.16203E-04-1.71349E-14
 -1      2268 5.15313E-03-4.41218E-04-1.56263E-14
 -1      2269 5.52647E-03-3.73443E-04-1.81619E-14
 -1      2270 5.68747E-03-3.35461E-04-1.92124E-14
 -1      2271 5.48222E-03-3.47399E-04-1.76263E-14
 -1      2272 5.84724E-03-3.02096E-04-2.02871E-14
 -1      2273 6.00537E-03-2.72851E-04-2.13867E-14
 -1      2274 5.80362E-03-2.73783E-04-1.97248E-14
 -1      2275 6.16223E-03-2.47328E-04-2.25087E-14
 -1      2276 6.31764E-03-2.25018E-04-2.36539E-14
 -1      2277 6.11759E-03-2.17451E-04-2.19189E-14
 -1      2278 6.47187E-03-2.05456E-04-2.48218E-14
 -1      2279 6.62490E-03-1.88207E-04-2.60140E-14
 -1      2280 6.42524E-03-1.74513E-04-2.42059E-14
 -1      2281 6.77687E-03-1.72837E-04-2.72284E-14
 -1      2282 6.92787E-03-1.59006E-04-2.84657E-14
 -1      2283 6.72787E-03-1.41199E-04-2.65847E-14
 -1      2284 7.07795E-03-1.46356E-04-2.97286E-14
 -1      2285 7.22725E-03-1.34638E-04-3.10143E-14
 -1      2286 7.02660E-03-1.14317E-04-2.90574E-14
 -1      2287 7.37577E-03-1.23581E-04-3.23229E-14
 -1      2288 7.52366E-03-1.13008E-04-3.36525E-14
 -1      2289 7.32232E-03-9.13682E-05-3.16232E-14
 -1      2290 7.67091E-03-1.02729E-04-3.50076E-14
 -1      2291 7.81764E-03-9.26222E-05-3.63855E-14
 -1      2292 7.61570E-03-7.05118E-05-3.42816E-14
 -1      2293 7.96385E-03-8.25664E-05-3.77850E-14
 -1      2294 8.10965E-03-7.24808E-05-3.92058E-14
 -1      2295 7.90726E-03-5.04638E-05-3.70305E-14
 -1      2296 8.25502E-03-6.22947E-05-4.06481E-14
 -1      2297 8.40007E-03-5.19577E-05-4.21133E-14
 -1      2298 8.19739E-03-3.03802E-05-3.98674E-14
 -1      2299 8.54479E-03-4.14356E-05-4.35988E-14
 -1      2300 8.68925E-03-3.06992E-05-4.51036E-14
 -1      2301 8.48640E-03-9.74717E-06-4.27881E-14
 -1      2302 8.83345E-03-1.97392E-05-4.66296E-14
 -1      2303 8.97745E-03-8.54093E-06-4.81760E-14
 -1      2304 8.77454E-03 1.17113E-05-4.57918E-14
 -1      2305 9.12126E-03 2.88940E-06-4.97410E-14
 -1      2306 9.26491E-03 1.45567E-05-5.13234E-14
 -1      2307 9.06200E-03 3.41085E-05-4.88761E-14
 -1      2308 9.40841E-03 2.64457E-05-5.29243E-14
 -1      2309 9.55180E-03 3.85553E-05-5.45406E-14
 -1      2310 9.34895E-03 5.74512E-05-5.20332E-14
 -1      2311 9.69508E-03 5.08659E-05-5.61707E-14
 -1      2312 9.83828E-03 6.33726E-05-5.78207E-14
 -1      2313 9.63551E-03 8.16817E-05-5.52574E-14
 -1      2314 9.98140E-03 7.60547E-05-5.94845E-14
 -1      2315 1.01245E-02 8.89054E-05-6.11600E-14
 -1      2316 9.92179E-03 1.06707E-04-5.85453E-14
 -1      2317 1.02675E-02 1.01904E-04-6.28517E-14
 -1      2318 1.04104E-02 1.15045E-04-6.45573E-14
 -1      2319 1.02079E-02 1.32420E-04-6.18936E-14
 -1      2320 1.05534E-02 1.28307E-04-6.62757E-14
 -1      2321 1.06963E-02 1.41685E-04-6.80044E-14
 -1      2322 1.04938E-02 1.58711E-04-6.52972E-14
 -1      2323 1.08391E-02 1.55162E-04-6.97462E-14
 -1      2324 1.09820E-02 1.68732E-04-7.14979E-14
 -1      2325 1.07796E-02 1.85476E-04-6.87525E-14
 -1      2326 1.11248E-02 1.82379E-04-7.32577E-14
 -1      2327 1.12677E-02 1.96100E-04-7.50276E-14
 -1      2328 1.10653E-02 2.12622E-04-7.22510E-14
 -1      2329 1.14105E-02 2.09881E-04-7.68022E-14
 -1      2330 1.15533E-02 2.23718E-04-7.85842E-14
 -1      2331 1.13510E-02 2.40068E-04-7.57844E-14
 -1      2332 1.16961E-02 2.37601E-04-8.03727E-14
 -1      2333 1.18389E-02 2.51526E-04-8.21678E-14
 -1      2334 1.16367E-02 2.67747E-04-7.93452E-14
 -1      2335 1.19818E-02 2.65486E-04-8.39711E-14
 -1      2336 1.21246E-02 2.79477E-04-8.57832E-14
 -1      2337 1.19224E-02 2.95601E-04-8.29339E-14
 -1      2338 1.22674E-02 2.93493E-04-8.76033E-14
 -1      2339 1.24102E-02 3.07532E-04-8.94289E-14
 -1      2340 1.22080E-02 3.23586E-04-8.65544E-14
 -1      2341 1.25530E-02 3.21588E-04-9.12663E-14
 -1      2342 1.26958E-02 3.35660E-04-9.31128E-14
 -1      2343 1.24937E-02 3.51665E-04-9.02071E-14
 -1      2344 1.28387E-02 3.49744E-04-9.49651E-14
 -1      2345 1.29815E-02 3.63838E-04-9.68262E-14
 -1      2346 1.27794E-02 3.79811E-04-9.38935E-14
 -1      2347 1.31243E-02 3.77940E-04-9.86944E-14
 -1      2348 1.32671E-02 3.92048E-04-1.00568E-13
 -1      2349 1.30650E-02 4.08000E-04-9.76102E-14
 -1      2350 1.34100E-02 4.06160E-04-1.02449E-13
 -1      2351 1.35528E-02 4.20275E-04-1.04331E-13
 -1      2352 1.33507E-02 4.36217E-04-1.01353E-13
 -1      2353 1.36957E-02 4.34391E-04-1.06217E-13
 -1      2354 1.38385E-02 4.48508E-04-1.08107E-13
 -1      2355 1.36364E-02 4.64448E-04-1.05116E-13
 -1      2356 1.39814E-02 4.62624E-04-1.10003E-13
 -1      2357 1.41242E-02 4.76738E-04-1.11905E-13
 -1      2358 1.39221E-02 4.92683E-04-1.08895E-13
 -1      2359 5.68636E-03 2.74871E-04-1.16738E-14
 -1      2360 5.77936E-03 2.49633E-04-1.18565E-14
 -1      2361 2.18361E-03 6.68875E-04-1.83462E-15
 -1      2362 2.00938E-03 6.02199E-04-1.54123E-15
 -1      2363 2.53579E-03 8.21612E-04-2.50668E-15
 -1      2364 2.35982E-03 7.42198E-04-2.15621E-15
 -1      2365 2.22100E-03 6.52376E-04-2.06706E-15
 -1      2366 2.88683E-03 9.90769E-04-3.29595E-15
 -1      2367 2.71228E-03 9.05461E-04-2.88663E-15
 -1      2368 2.58005E-03 8.11149E-04-2.77458E-15
 -1      2369 3.22842E-03 1.14913E-03-4.20864E-15
 -1      2370 3.05924E-03 1.07388E-03-3.73655E-15
 -1      2371 2.94004E-03 9.86562E-04-3.59935E-15
 -1      2372 3.55609E-03 1.25616E-03-5.25223E-15
 -1      2373 3.39330E-03 1.21193E-03-4.71351E-15
 -1      2374 3.28964E-03 1.14565E-03-4.54876E-15
 -1      2375 3.87623E-03 1.27812E-03-6.43207E-15
 -1      2376 3.71533E-03 1.27874E-03-5.82513E-15
 -1      2377 3.62428E-03 1.24046E-03-5.63177E-15
 -1      2378 4.20238E-03 1.21392E-03-7.75089E-15
 -1      2379 4.03692E-03 1.25502E-03-7.07384E-15
 -1      2380 3.95366E-03 1.23727E-03-6.85426E-15
 -1      2381 4.54290E-03 1.09662E-03-9.20719E-15
 -1      2382 4.37078E-03 1.15902E-03-8.46202E-15
 -1      2383 4.29375E-03 1.14656E-03-8.21739E-15
 -1      2384 4.89402E-03 9.68396E-04-1.07936E-14
 -1      2385 4.71802E-03 1.03152E-03-9.98362E-15
 -1      2386 4.64899E-03 1.01442E-03-9.71674E-15
 -1      2387 5.24666E-03 8.59864E-04-1.25054E-14
 -1      2388 5.07106E-03 9.10550E-04-1.16350E-14
 -1      2389 5.00990E-03 8.85549E-04-1.13447E-14
 -1      2390 5.59396E-03 7.83905E-04-1.43348E-14
 -1      2391 5.42157E-03 8.17656E-04-1.34058E-14
 -1      2392 5.36514E-03 7.85782E-04-1.30944E-14
 -1      2393 5.93293E-03 7.40879E-04-1.62745E-14
 -1      2394 5.76476E-03 7.58575E-04-1.52912E-14
 -1      2395 5.70906E-03 7.21631E-04-1.49572E-14
 -1      2396 6.26318E-03 7.25320E-04-1.83202E-14
 -1      2397 6.09922E-03 7.30093E-04-1.72841E-14
 -1      2398 6.04110E-03 6.89512E-04-1.69285E-14
 -1      2399 6.58548E-03 7.30277E-04-2.04691E-14
 -1      2400 6.42530E-03 7.25637E-04-1.93816E-14
 -1      2401 6.36303E-03 6.82454E-04-1.90044E-14
 -1      2402 6.90085E-03 7.49389E-04-2.27176E-14
 -1      2403 6.74396E-03 7.38392E-04-2.15812E-14
 -1      2404 6.67706E-03 6.93411E-04-2.11810E-14
 -1      2405 7.21032E-03 7.77584E-04-2.50634E-14
 -1      2406 7.05624E-03 7.62598E-04-2.38779E-14
 -1      2407 6.98500E-03 7.16470E-04-2.34564E-14
 -1      2408 7.51483E-03 8.11138E-04-2.74989E-14
 -1      2409 7.36312E-03 7.93867E-04-2.62709E-14
 -1      2410 7.28820E-03 7.47107E-04-2.58266E-14
 -1      2411 7.81520E-03 8.47471E-04-3.00246E-14
 -1      2412 7.66546E-03 8.29078E-04-2.87510E-14
 -1      2413 7.58763E-03 7.82069E-04-2.82879E-14
 -1      2414 8.11217E-03 8.84883E-04-3.26287E-14
 -1      2415 7.96404E-03 8.66123E-04-3.13161E-14
 -1      2416 7.88402E-03 8.19129E-04-3.08331E-14
 -1      2417 8.40638E-03 9.22308E-04-3.53106E-14
 -1      2418 8.25956E-03 9.03645E-04-3.39594E-14
 -1      2419 8.17797E-03 8.56835E-04-3.34572E-14
 -1      2420 8.69840E-03 9.59127E-04-3.80738E-14
 -1      2421 8.55262E-03 9.40824E-04-3.66836E-14
 -1      2422 8.46994E-03 8.94292E-04-3.61626E-14
 -1      2423 8.98870E-03 9.95017E-04-4.09116E-14
 -1      2424 8.84373E-03 9.77205E-04-3.94829E-14
 -1      2425 8.76033E-03 9.30990E-04-3.89468E-14
 -1      2426 9.27766E-03 1.02985E-03-4.38215E-14
 -1      2427 9.13332E-03 1.01257E-03-4.23583E-14
 -1      2428 9.04947E-03 9.66682E-04-4.18053E-14
 -1      2429 9.56563E-03 1.06363E-03-4.68041E-14
 -1      2430 9.42175E-03 1.04688E-03-4.53039E-14
 -1      2431 9.33765E-03 1.00129E-03-4.47359E-14
 -1      2432 9.85284E-03 1.09641E-03-4.98554E-14
 -1      2433 9.70931E-03 1.08014E-03-4.83202E-14
 -1      2434 9.62508E-03 1.03483E-03-4.77391E-14
 -1      2435 1.01395E-02 1.12831E-03-5.29705E-14
 -1      2436 9.99622E-03 1.11247E-03-5.14048E-14
 -1      2437 9.91196E-03 1.06739E-03-5.08090E-14
 -1      2438 1.04258E-02 1.15943E-03-5.61469E-14
 -1      2439 1.02827E-02 1.14396E-03-5.45509E-14
 -1      2440 1.01984E-02 1.09909E-03-5.39423E-14
 -1      2441 1.07118E-02 1.18991E-03-5.93861E-14
 -1      2442 1.05688E-02 1.17475E-03-5.77588E-14
 -1      2443 1.04846E-02 1.13004E-03-5.71387E-14
 -1      2444 1.09976E-02 1.21986E-03-6.26848E-14
 -1      2445 1.08547E-02 1.20495E-03-6.10286E-14
 -1      2446 1.07706E-02 1.16037E-03-6.03965E-14
 -1      2447 1.12833E-02 1.24937E-03-6.60435E-14
 -1      2448 1.11405E-02 1.23466E-03-6.43578E-14
 -1      2449 1.10564E-02 1.19019E-03-6.37143E-14
 -1      2450 1.15689E-02 1.27854E-03-6.94540E-14
 -1      2451 1.14261E-02 1.26399E-03-6.77413E-14
 -1      2452 1.13421E-02 1.21961E-03-6.70896E-14
 -1      2453 1.18545E-02 1.30745E-03-7.29127E-14
 -1      2454 1.17117E-02 1.29302E-03-7.11779E-14
 -1      2455 1.16278E-02 1.24870E-03-7.05161E-14
 -1      2456 1.21401E-02 1.33615E-03-7.64172E-14
 -1      2457 1.19973E-02 1.32182E-03-7.46602E-14
 -1      2458 1.19135E-02 1.27755E-03-7.39874E-14
 -1      2459 1.24257E-02 1.36470E-03-7.99646E-14
 -1      2460 1.22829E-02 1.35044E-03-7.81855E-14
 -1      2461 1.21991E-02 1.30621E-03-7.75049E-14
 -1      2462 1.27113E-02 1.39314E-03-8.35523E-14
 -1      2463 1.25685E-02 1.37893E-03-8.17534E-14
 -1      2464 1.24847E-02 1.33472E-03-8.10661E-14
 -1      2465 1.29969E-02 1.42150E-03-8.71744E-14
 -1      2466 1.28541E-02 1.40733E-03-8.53595E-14
 -1      2467 1.27704E-02 1.36314E-03-8.46644E-14
 -1      2468 1.32826E-02 1.44981E-03-9.08232E-14
 -1      2469 1.31397E-02 1.43566E-03-8.89950E-14
 -1      2470 1.30560E-02 1.39148E-03-8.82944E-14
 -1      2471 1.35682E-02 1.47808E-03-9.44998E-14
 -1      2472 1.34254E-02 1.46395E-03-9.26573E-14
 -1      2473 1.33417E-02 1.41977E-03-9.19523E-14
 -1      2474 1.38539E-02 1.50633E-03-9.82033E-14
 -1      2475 1.37110E-02 1.49220E-03-9.63495E-14
 -1      2476 1.36273E-02 1.44803E-03-9.56363E-14
 -1      2477 1.41395E-02 1.53457E-03-1.01935E-13
 -1      2478 1.39967E-02 1.52045E-03-1.00065E-13
 -1      2479 1.39130E-02 1.47628E-03-9.93456E-14
 -1      2480 1.44252E-02 1.56281E-03-1.05704E-13
 -1      2481 1.42824E-02 1.54869E-03-1.03814E-13
 -1      2482 1.41987E-02 1.50452E-03-1.03085E-13
 -1      2483 1.47109E-02 1.59107E-03-1.09503E-13
 -1      2484 1.45681E-02 1.57694E-03-1.07599E-13
 -1      2485 1.44844E-02 1.53276E-03-1.06858E-13
 -1      2486 1.48589E-02 1.60670E-03-1.11472E-13
 -1      2487 1.46699E-02 1.26611E-03-1.12175E-13
 -1      2488 1.46838E-02 1.30828E-03-1.11960E-13
 -1      2489 1.46421E-02 1.18178E-03-1.12601E-13
 -1      2490 1.46560E-02 1.22395E-03-1.12389E-13
 -1      2491 1.45392E-02 1.23280E-03-1.10649E-13
 -1      2492 1.47251E-02 1.43333E-03-1.11308E-13
 -1      2493 1.47391E-02 1.47548E-03-1.11083E-13
 -1      2494 1.46976E-02 1.35008E-03-1.11745E-13
 -1      2495 1.47113E-02 1.39153E-03-1.11528E-13
 -1      2496 1.45946E-02 1.40037E-03-1.09775E-13
 -1      2497 1.45669E-02 1.31677E-03-1.10216E-13
 -1      2498 1.46143E-02 1.09744E-03-1.13028E-13
 -1      2499 1.46282E-02 1.13961E-03-1.12815E-13
 -1      2500 1.45114E-02 1.14847E-03-1.11078E-13
 -1      2501 1.45865E-02 1.01310E-03-1.13452E-13
 -1      2502 1.46004E-02 1.05527E-03-1.13240E-13
 -1      2503 1.44836E-02 1.06413E-03-1.11501E-13
 -1      2504 1.45587E-02 9.28758E-04-1.13871E-13
 -1      2505 1.45726E-02 9.70928E-04-1.13660E-13
 -1      2506 1.44558E-02 9.79788E-04-1.11921E-13
 -1      2507 1.45315E-02 8.45851E-04-1.14274E-13
 -1      2508 1.45451E-02 8.87304E-04-1.14073E-13
 -1      2509 1.44283E-02 8.96164E-04-1.12330E-13
 -1      2510 1.45038E-02 7.61521E-04-1.14678E-13
 -1      2511 1.45176E-02 8.03685E-04-1.14479E-13
 -1      2512 1.44008E-02 8.12545E-04-1.12733E-13
 -1      2513 1.44761E-02 6.77199E-04-1.15074E-13
 -1      2514 1.44900E-02 7.19359E-04-1.14877E-13
 -1      2515 1.43732E-02 7.28218E-04-1.13134E-13
 -1      2516 1.44485E-02 5.92888E-04-1.15457E-13
 -1      2517 1.44623E-02 6.35042E-04-1.15264E-13
 -1      2518 1.43455E-02 6.43901E-04-1.13522E-13
 -1      2519 5.40662E-03 3.75314E-04-1.09828E-14
 -1      2520 5.54032E-03 3.24801E-04-1.13011E-14
 -1      2521 4.99830E-03 5.69786E-04-1.00924E-14
 -1      2522 5.21581E-03 4.60268E-04-1.05923E-14
 -1      2523 1.83595E-03 5.42146E-04-1.27531E-15
 -1      2524 1.66462E-03 4.87978E-04-1.03631E-15
 -1      2525 1.87049E-03 5.21887E-04-1.47213E-15
 -1      2526 1.45018E-02 5.26316E-04-1.16826E-13
 -1      2527 5.89244E-03 1.97809E-04-1.21551E-14
 -1      2528 5.83715E-03 1.85786E-04-1.20904E-14
 -1      2529 6.44062E-04-1.90822E-04-3.09784E-16
 -1      2530 8.60687E-04-2.58555E-04-4.92255E-16
 -1      2531 9.14151E-04-2.42605E-04-5.95647E-16
 -1      2532 6.22621E-04-1.57273E-04-3.25166E-16
 -1      2533 4.18342E-03-5.98460E-04-9.14790E-15
 -1      2534 4.00034E-03-6.99975E-04-8.61640E-15
 -1      2535 2.82648E-03-5.52722E-04-5.18243E-15
 -1      2536 2.63475E-03-4.39897E-04-4.83238E-15
 -1      2537 1.40480E-03 1.20290E-04-3.13453E-15
 -1      2538 1.51562E-03 1.46060E-04-3.23001E-15
 -1      2539 3.89112E-03 1.15012E-03-6.97820E-15
 -1      2540 4.03355E-03 1.10119E-03-7.42660E-15
 -1      2541 4.59177E-04 1.18728E-05-3.50306E-16
 -1      2542 4.69342E-04 6.34804E-06-3.52433E-16
 -1      2543 5.72875E-04 4.16851E-07-4.77835E-16
 -1      2544 5.46465E-04 1.57562E-05-4.71885E-16
 -1      2545 3.60588E-03 1.16600E-03-6.09590E-15
 -1      2546 3.74369E-03 1.17273E-03-6.52795E-15
 -1      2547 3.82491E-03 1.17076E-03-6.74577E-15
 -1      2548 1.96526E-03 3.11526E-04-3.58206E-15
 -1      2549 2.13353E-03 3.88263E-04-3.69132E-15
 -1      2550 4.23356E-03 1.00959E-03-8.03678E-15
 -1      2551 4.39099E-03 9.17570E-04-8.48297E-15
 -1      2552 2.90545E-03 8.32320E-04-4.49638E-15
 -1      2553 3.06352E-03 9.33286E-04-4.78583E-15
 -1      2554 3.16021E-03 9.94680E-04-4.82916E-15
 -1      2555 1.70356E-03 4.06738E-06-3.61117E-15
 -1      2556 1.57859E-03 4.16788E-05-3.48746E-15
 -1      2557 1.65750E-03 1.93637E-04-3.37614E-15
 -1      2558 1.80491E-03 2.45586E-04-3.47791E-15
 -1      2559 1.87128E-03 2.64589E-04-3.34581E-15
 -1      2560 1.32356E-03 1.01892E-04-3.12701E-15
 -1      2561 1.33693E-03 1.04699E-04-3.12616E-15
 -1      2562 3.81093E-03-7.77454E-04-8.00171E-15
 -1      2563 3.67240E-03-8.13344E-04-7.54038E-15
 -1      2564 2.03990E-03-1.29505E-04-3.97422E-15
 -1      2565 1.87672E-03-6.04445E-05-3.78275E-15
 -1      2566 2.40198E-03-3.11766E-04-4.46771E-15
 -1      2567 2.21782E-03-2.14304E-04-4.21503E-15
 -1      2568 2.10913E-03-1.67224E-04-3.90486E-15
 -1      2569 3.15158E-03-7.24750E-04-5.93590E-15
 -1      2570 3.02131E-03-6.58234E-04-5.60291E-15
 -1      2571 3.49766E-03-8.20822E-04-6.97581E-15
 -1      2572 3.33272E-03-7.89320E-04-6.45249E-15
 -1      2573 4.55230E-03-3.79003E-04-1.00702E-14
 -1      2574 4.38780E-03-4.80000E-04-9.68428E-15
 -1      2575 5.00698E-03-1.27725E-04-1.09630E-14
 -1      2576 4.77550E-03-2.52313E-04-1.05129E-14
 -1      2577 5.39506E-03 4.65724E-05-1.15986E-14
 -1      2578 5.23640E-03-1.85226E-05-1.13715E-14
 -1      2579 4.56646E-03 8.16086E-04-8.96420E-15
 -1      2580 4.74878E-03 7.07375E-04-9.46017E-15
 -1      2581 4.49568E-03 8.70616E-04-8.91447E-15
 -1      2582 8.59825E-04 2.76063E-04-2.48079E-16
 -1      2583 6.91837E-04 2.29271E-04-1.58307E-16
 -1      2584 6.53387E-04 1.99008E-04-1.69583E-16
 -1      2585 9.07289E-04 2.59019E-04-3.39057E-16
 -1      2586 5.86990E-03 2.24557E-04-1.21383E-14
 -1      2587 5.91234E-03 2.13679E-04-1.22688E-14
 -1      2588 6.53292E-04-6.64428E-05-4.75206E-16
 -1      2589 5.47584E-04-6.06499E-05-3.48788E-16
 -1      2590 5.65242E-04-8.24856E-05-3.43868E-16
 -1      2591 1.53011E-03 4.16951E-04-9.85147E-16
 -1      2592 6.24509E-04 1.63368E-04-1.97664E-16
 -1      2593 5.85852E-03 2.36666E-04-1.25356E-14
 -1      2594 5.49980E-03 8.72212E-05-1.20081E-14
 -1      2595 5.11521E-03-7.36213E-05-1.14809E-14
 -1      2596 4.28147E-03-5.44912E-04-9.61617E-15
 -1      2597 3.49357E-03 1.14536E-03-5.69805E-15
 -1      2598 4.68062E-03-3.05261E-04-1.06143E-14
 -1      2599 3.57637E-03-8.25000E-04-7.26144E-15
 -1      2600 5.78775E-03 1.75225E-04-1.23557E-14
 -1      2601 5.63285E-03 2.99998E-04-1.18672E-14
 -1      2602 1.43479E-02 4.96409E-04-1.14905E-13
 -1      2603 1.44114E-02 5.54119E-04-1.15286E-13
 -1      2604 1.42946E-02 5.62976E-04-1.13539E-13
 -1      2605 1.42205E-02 4.85442E-04-1.13195E-13
 -1      2606 1.47752E-02 1.56251E-03-1.10719E-13
 -1      2607 4.89364E-03 6.39199E-04-1.00421E-14
 -1      2608 1.47485E-02 1.52784E-03-1.10688E-13
 -1      2609 2.49903E-03-3.71196E-04-4.48808E-15
 -1      2610 5.30846E-03 4.27796E-04-1.10897E-14
 -1      2611 2.89992E-03-6.01473E-04-5.25487E-15
 -1      2612 3.91686E-03-7.40051E-04-8.44721E-15
 -1      2613 7.43496E-04 1.80907E-04-2.95879E-16
 -1      2614 6.02792E-04-1.27364E-04-3.36591E-16
 -1      2615 1.57419E-03 1.58890E-04-3.10401E-15
 -1      2616 5.92456E-03 2.11461E-04-1.27116E-14
 -1      2617 2.77788E-03 7.52449E-04-4.22859E-15
 -1      2618 2.89662E-03 8.37301E-04-4.26831E-15
 -1      2619 2.64956E-03 6.75456E-04-3.97081E-15
 -1      2620 2.14251E-03 3.87613E-04-3.43412E-15
 -1      2621 2.25971E-03 4.46365E-04-3.68150E-15
 -1      2622 2.37001E-03 5.08830E-04-3.66925E-15
 -1      2623 1.36029E-03 1.08373E-04-2.95693E-15
 -1      2624 1.48880E-03 6.27685E-05-3.25564E-15
 -1      2625 4.14616E-03 1.06235E-03-7.80487E-15
 -1      2626 1.77666E-03-2.71462E-05-3.50963E-15
 -1      2627 1.32538E-03 9.58214E-05-3.05489E-15
 -1      2628 1.30191E-03 9.41177E-05-2.87772E-15
 -1      2629 1.33967E-03 9.06300E-05-2.98336E-15
 -1      2630 3.24756E-03-7.68352E-04-6.18047E-15
 -1      2631 1.46178E-02 1.49453E-03-1.09155E-13
 -1      2632 1.41613E-02 5.15504E-04-1.12078E-13
 -1      2633 3.77784E-03 1.18658E-03-6.53484E-15
 -1      2634 3.90484E-03 1.16490E-03-6.98627E-15
 -1      2635 6.46544E-04 4.19052E-05-5.77839E-16
 -1      2636 6.33511E-04 3.57271E-05-5.88668E-16
 -1      2637 6.26474E-04 3.10154E-05-5.97788E-16
 -1      2638 6.26123E-04 2.64890E-05-6.05608E-16
 -1      2639 7.17004E-04 3.98583E-05-7.50715E-16
 -1      2640 7.48966E-04 9.80585E-05-5.13803E-16
 -1      2641 7.17863E-04 7.81165E-05-5.33658E-16
 -1      2642 8.17742E-04 1.51011E-04-4.65868E-16
 -1      2643 7.82649E-04 1.22403E-04-4.91713E-16
 -1      2644 8.81783E-04 1.30716E-04-6.42308E-16
 -1      2645 1.23554E-03 3.07916E-04-7.34100E-16
 -1      2646 1.07494E-03 2.68367E-04-5.62864E-16
 -1      2647 7.19437E-04-1.40853E-04-4.64039E-16
 -1      2648 1.56299E-03 3.94349E-04-1.15209E-15
 -1      2649 1.39805E-03 3.49410E-04-9.30015E-16
 -1      2650 1.26965E-03 2.86941E-04-8.72349E-16
 -1      2651 1.43526E-03-3.42576E-04-1.38661E-15
 -1      2652 1.59879E-03-3.83438E-04-1.67914E-15
 -1      2653 1.76485E-03-4.27206E-04-2.00087E-15
 -1      2654 1.93288E-03-4.74630E-04-2.35224E-15
 -1      2655 1.64608E-03-3.56427E-04-1.85107E-15
 -1      2656 2.10342E-03-5.25839E-04-2.73375E-15
 -1      2657 2.27506E-03-5.80794E-04-3.14538E-15
 -1      2658 1.98397E-03-4.47474E-04-2.55155E-15
 -1      2659 2.44797E-03-6.38866E-04-3.58840E-15
 -1      2660 2.62018E-03-6.98167E-04-4.06294E-15
 -1      2661 2.33322E-03-5.57158E-04-3.37111E-15
 -1      2662 2.79126E-03-7.57323E-04-4.57039E-15
 -1      2663 2.95955E-03-8.11169E-04-5.11079E-15
 -1      2664 2.68681E-03-6.81446E-04-4.31468E-15
 -1      2665 3.12439E-03-8.57225E-04-5.68491E-15
 -1      2666 3.28641E-03-8.89985E-04-6.29291E-15
 -1      2667 3.03357E-03-8.00206E-04-5.38881E-15
 -1      2668 3.44436E-03-9.06704E-04-6.93586E-15
 -1      2669 3.60275E-03-9.04874E-04-7.61251E-15
 -1      2670 3.36492E-03-8.75109E-04-6.59950E-15
 -1      2671 3.76048E-03-8.84116E-04-8.32284E-15
 -1      2672 3.92138E-03-8.46797E-04-9.06785E-15
 -1      2673 3.68720E-03-8.71740E-04-7.94839E-15
 -1      2674 4.08471E-03-7.95115E-04-9.84404E-15
 -1      2675 4.25174E-03-7.34465E-04-1.06527E-14
 -1      2676 4.01623E-03-7.88652E-04-9.43280E-15
 -1      2677 4.42165E-03-6.68216E-04-1.14911E-14
 -1      2678 4.59296E-03-6.01075E-04-1.23575E-14
 -1      2679 4.35970E-03-6.56524E-04-1.10469E-14
 -1      2680 4.76536E-03-5.35258E-04-1.32520E-14
 -1      2681 4.93659E-03-4.73393E-04-1.41743E-14
 -1      2682 4.71194E-03-5.15368E-04-1.27793E-14
 -1      2683 5.10672E-03-4.16562E-04-1.51219E-14
 -1      2684 5.27431E-03-3.65251E-04-1.60950E-14
 -1      2685 5.06106E-03-3.90426E-04-1.46197E-14
 -1      2686 5.43978E-03-3.19769E-04-1.70946E-14
 -1      2687 5.60229E-03-2.79543E-04-1.81175E-14
 -1      2688 5.39907E-03-2.90415E-04-1.65648E-14
 -1      2689 5.76250E-03-2.44509E-04-1.91645E-14
 -1      2690 5.92012E-03-2.13825E-04-2.02363E-14
 -1      2691 5.72377E-03-2.13981E-04-1.86074E-14
 -1      2692 6.07574E-03-1.87230E-04-2.13316E-14
 -1      2693 6.22936E-03-1.63968E-04-2.24503E-14
 -1      2694 6.03660E-03-1.56402E-04-2.07477E-14
 -1      2695 6.38143E-03-1.43688E-04-2.35917E-14
 -1      2696 6.53206E-03-1.25806E-04-2.47569E-14
 -1      2697 6.34036E-03-1.12803E-04-2.29810E-14
 -1      2698 6.68153E-03-1.09962E-04-2.59446E-14
 -1      2699 6.83000E-03-9.57357E-05-2.71552E-14
 -1      2700 6.63779E-03-7.90291E-05-2.53066E-14
 -1      2701 6.97764E-03-8.28074E-05-2.83899E-14
 -1      2702 7.12459E-03-7.08850E-05-2.96482E-14
 -1      2703 6.93103E-03-5.17972E-05-2.77257E-14
 -1      2704 7.27094E-03-5.97091E-05-3.09285E-14
 -1      2705 7.41681E-03-4.90827E-05-3.22310E-14
 -1      2706 7.22161E-03-2.86183E-05-3.02365E-14
 -1      2707 7.56223E-03-3.88108E-05-3.35595E-14
 -1      2708 7.70733E-03-2.87645E-05-3.49092E-14
 -1      2709 7.51052E-03-7.66612E-06-3.28397E-14
 -1      2710 7.85209E-03-1.88078E-05-3.62797E-14
 -1      2711 7.99662E-03-8.85953E-06-3.76740E-14
 -1      2712 7.79837E-03 1.23481E-05-3.55336E-14
 -1      2713 8.14089E-03 1.16753E-06-3.90891E-14
 -1      2714 8.28499E-03 1.13215E-05-4.05249E-14
 -1      2715 8.08555E-03 3.22907E-05-3.83149E-14
 -1      2716 8.42889E-03 2.16520E-05-4.19827E-14
 -1      2717 8.57267E-03 3.21846E-05-4.34611E-14
 -1      2718 8.37231E-03 5.27058E-05-4.11818E-14
 -1      2719 8.71630E-03 4.29417E-05-4.49592E-14
 -1      2720 8.85983E-03 5.39340E-05-4.64768E-14
 -1      2721 8.65877E-03 7.39008E-05-4.41311E-14
 -1      2722 9.00325E-03 6.51655E-05-4.80144E-14
 -1      2723 9.14659E-03 7.66372E-05-4.95716E-14
 -1      2724 8.94503E-03 9.60159E-05-4.71597E-14
 -1      2725 9.28985E-03 8.83414E-05-5.11475E-14
 -1      2726 9.43306E-03 1.00273E-04-5.27400E-14
 -1      2727 9.23115E-03 1.19079E-04-5.02656E-14
 -1      2728 9.57620E-03 1.12419E-04-5.43483E-14
 -1      2729 9.71930E-03 1.24770E-04-5.59715E-14
 -1      2730 9.51717E-03 1.43046E-04-5.34417E-14
 -1      2731 9.86234E-03 1.37309E-04-5.76112E-14
 -1      2732 1.00054E-02 1.50027E-04-5.92678E-14
 -1      2733 9.80311E-03 1.67834E-04-5.66843E-14
 -1      2734 1.01483E-02 1.62905E-04-6.09391E-14
 -1      2735 1.02913E-02 1.75935E-04-6.26242E-14
 -1      2736 1.00890E-02 1.93339E-04-5.99880E-14
 -1      2737 1.04342E-02 1.89098E-04-6.43230E-14
 -1      2738 1.05772E-02 2.02386E-04-6.60349E-14
 -1      2739 1.03748E-02 2.19453E-04-6.33517E-14
 -1      2740 1.07201E-02 2.15782E-04-6.77590E-14
 -1      2741 1.08630E-02 2.29280E-04-6.94956E-14
 -1      2742 1.06606E-02 2.46071E-04-6.67683E-14
 -1      2743 1.10058E-02 2.42864E-04-7.12424E-14
 -1      2744 1.11487E-02 2.56528E-04-7.30000E-14
 -1      2745 1.09464E-02 2.73097E-04-7.02366E-14
 -1      2746 1.12916E-02 2.70259E-04-7.47658E-14
 -1      2747 1.14344E-02 2.84052E-04-7.65385E-14
 -1      2748 1.12321E-02 3.00447E-04-7.37470E-14
 -1      2749 1.15773E-02 2.97898E-04-7.83199E-14
 -1      2750 1.17201E-02 3.11790E-04-8.01049E-14
 -1      2751 1.15179E-02 3.28050E-04-7.72918E-14
 -1      2752 1.18630E-02 3.25722E-04-8.18979E-14
 -1      2753 1.20058E-02 3.39689E-04-8.36995E-14
 -1      2754 1.18036E-02 3.55847E-04-8.08627E-14
 -1      2755 1.21487E-02 3.53685E-04-8.55077E-14
 -1      2756 1.22915E-02 3.67706E-04-8.73238E-14
 -1      2757 1.20893E-02 3.83788E-04-8.44626E-14
 -1      2758 1.24344E-02 3.81748E-04-8.91492E-14
 -1      2759 1.25772E-02 3.95808E-04-9.09817E-14
 -1      2760 1.23750E-02 4.11836E-04-8.80914E-14
 -1      2761 1.27201E-02 4.09882E-04-9.28238E-14
 -1      2762 1.28629E-02 4.23969E-04-9.46725E-14
 -1      2763 1.26608E-02 4.39959E-04-9.17562E-14
 -1      2764 1.30058E-02 4.38065E-04-9.65279E-14
 -1      2765 1.31486E-02 4.52169E-04-9.83924E-14
 -1      2766 1.29465E-02 4.68133E-04-9.54496E-14
 -1      2767 1.32915E-02 4.66278E-04-1.00262E-13
 -1      2768 1.34343E-02 4.80391E-04-1.02137E-13
 -1      2769 1.32322E-02 4.96342E-04-9.91737E-14
 -1      2770 1.35772E-02 4.94507E-04-1.04016E-13
 -1      2771 1.37200E-02 5.08625E-04-1.05899E-13
 -1      2772 1.35179E-02 5.24569E-04-1.02917E-13
 -1      2773 1.38629E-02 5.22743E-04-1.07787E-13
 -1      2774 1.40057E-02 5.36860E-04-1.09679E-13
 -1      2775 1.38036E-02 5.52805E-04-1.06680E-13
 -1      2776 2.56983E-03-4.30030E-04-4.46865E-15
 -1      2777 2.36825E-03-3.14972E-04-4.12458E-15
 -1      2778 2.25716E-03 6.32865E-04-2.30408E-15
 -1      2779 2.07823E-03 5.61901E-04-1.97571E-15
 -1      2780 3.35769E-03 1.14750E-03-4.88497E-15
 -1      2781 3.18087E-03 1.07430E-03-4.37545E-15
 -1      2782 3.99323E-03 1.19225E-03-7.14480E-15
 -1      2783 3.81944E-03 1.21823E-03-6.50100E-15
 -1      2784 4.76301E-03 9.24349E-04-1.02320E-14
 -1      2785 4.57710E-03 9.96553E-04-9.44469E-15
 -1      2786 5.13186E-03 7.99704E-04-1.19016E-14
 -1      2787 4.94941E-03 8.57988E-04-1.10513E-14
 -1      2788 4.88960E-03 8.29565E-04-1.07548E-14
 -1      2789 5.48661E-03 7.12473E-04-1.36878E-14
 -1      2790 5.31181E-03 7.51425E-04-1.27805E-14
 -1      2791 5.26123E-03 7.14759E-04-1.24645E-14
 -1      2792 5.82454E-03 6.62062E-04-1.55841E-14
 -1      2793 5.65785E-03 6.83250E-04-1.46227E-14
 -1      2794 5.61079E-03 6.42995E-04-1.42862E-14
 -1      2795 6.14814E-03 6.41398E-04-1.75868E-14
 -1      2796 5.98802E-03 6.48638E-04-1.65721E-14
 -1      2797 5.93971E-03 6.06984E-04-1.62149E-14
 -1      2798 6.46122E-03 6.42652E-04-1.96910E-14
 -1      2799 6.30581E-03 6.39785E-04-1.86262E-14
 -1      2800 6.25341E-03 5.97316E-04-1.82482E-14
 -1      2801 6.76702E-03 6.59144E-04-2.18966E-14
 -1      2802 6.61486E-03 6.49366E-04-2.07818E-14
 -1      2803 6.55719E-03 6.06106E-04-2.03824E-14
 -1      2804 7.06783E-03 6.85633E-04-2.41975E-14
 -1      2805 6.91792E-03 6.71405E-04-2.30348E-14
 -1      2806 6.85488E-03 6.27374E-04-2.26134E-14
 -1      2807 7.36513E-03 7.18240E-04-2.65915E-14
 -1      2808 7.21682E-03 7.01357E-04-2.53830E-14
 -1      2809 7.14893E-03 6.56662E-04-2.49398E-14
 -1      2810 7.65982E-03 7.54212E-04-2.90758E-14
 -1      2811 7.51272E-03 7.35931E-04-2.78229E-14
 -1      2812 7.44073E-03 6.90749E-04-2.73586E-14
 -1      2813 7.95251E-03 7.91681E-04-3.16439E-14
 -1      2814 7.80636E-03 7.72842E-04-3.03508E-14
 -1      2815 7.73106E-03 7.27361E-04-2.98667E-14
 -1      2816 8.24363E-03 8.29433E-04-3.42880E-14
 -1      2817 8.09822E-03 8.10574E-04-3.29555E-14
 -1      2818 8.02037E-03 7.64959E-04-3.24543E-14
 -1      2819 8.53348E-03 8.66731E-04-3.70162E-14
 -1      2820 8.38868E-03 8.48170E-04-3.56414E-14
 -1      2821 8.30889E-03 8.02549E-04-3.51222E-14
 -1      2822 8.82232E-03 9.03167E-04-3.98212E-14
 -1      2823 8.67800E-03 8.85074E-04-3.84097E-14
 -1      2824 8.59680E-03 8.39534E-04-3.78705E-14
 -1      2825 9.11036E-03 9.38555E-04-4.27009E-14
 -1      2826 8.96642E-03 9.20999E-04-4.12512E-14
 -1      2827 8.88421E-03 8.75593E-04-4.06983E-14
 -1      2828 9.39776E-03 9.72854E-04-4.56533E-14
 -1      2829 9.25412E-03 9.55841E-04-4.41676E-14
 -1      2830 9.17122E-03 9.10593E-04-4.35985E-14
 -1      2831 9.68467E-03 1.00611E-03-4.86741E-14
 -1      2832 9.54126E-03 9.89608E-04-4.71549E-14
 -1      2833 9.45790E-03 9.44524E-04-4.65708E-14
 -1      2834 9.97121E-03 1.03841E-03-5.17641E-14
 -1      2835 9.82798E-03 1.02237E-03-5.02120E-14
 -1      2836 9.74432E-03 9.77447E-04-4.96123E-14
 -1      2837 1.02575E-02 1.06988E-03-5.49173E-14
 -1      2838 1.01144E-02 1.05424E-03-5.33341E-14
 -1      2839 1.00305E-02 1.00946E-03-5.27223E-14
 -1      2840 1.05435E-02 1.10065E-03-5.81326E-14
 -1      2841 1.04005E-02 1.08535E-03-5.65161E-14
 -1      2842 1.03166E-02 1.04069E-03-5.58941E-14
 -1      2843 1.08295E-02 1.13082E-03-6.14088E-14
 -1      2844 1.06865E-02 1.11580E-03-5.97636E-14
 -1      2845 1.06025E-02 1.07125E-03-5.91285E-14
 -1      2846 1.11153E-02 1.16052E-03-6.47452E-14
 -1      2847 1.09724E-02 1.14572E-03-6.30699E-14
 -1      2848 1.08884E-02 1.10126E-03-6.24232E-14
 -1      2849 1.14010E-02 1.18983E-03-6.81364E-14
 -1      2850 1.12582E-02 1.17522E-03-6.64342E-14
 -1      2851 1.11742E-02 1.13083E-03-6.57771E-14
 -1      2852 1.16867E-02 1.21885E-03-7.15779E-14
 -1      2853 1.15439E-02 1.20437E-03-6.98519E-14
 -1      2854 1.14600E-02 1.16004E-03-6.91873E-14
 -1      2855 1.19724E-02 1.24763E-03-7.50656E-14
 -1      2856 1.18296E-02 1.23327E-03-7.33148E-14
 -1      2857 1.17457E-02 1.18898E-03-7.26417E-14
 -1      2858 1.22581E-02 1.27625E-03-7.85955E-14
 -1      2859 1.21152E-02 1.26196E-03-7.68251E-14
 -1      2860 1.20314E-02 1.21771E-03-7.61440E-14
 -1      2861 1.25437E-02 1.30473E-03-8.21671E-14
 -1      2862 1.24009E-02 1.29050E-03-8.03756E-14
 -1      2863 1.23171E-02 1.24627E-03-7.96868E-14
 -1      2864 1.28294E-02 1.33312E-03-8.57758E-14
 -1      2865 1.26866E-02 1.31893E-03-8.39684E-14
 -1      2866 1.26028E-02 1.27473E-03-8.32714E-14
 -1      2867 1.31151E-02 1.36144E-03-8.94154E-14
 -1      2868 1.29722E-02 1.34729E-03-8.75937E-14
 -1      2869 1.28885E-02 1.30309E-03-8.68904E-14
 -1      2870 1.34008E-02 1.38972E-03-9.30805E-14
 -1      2871 1.32579E-02 1.37559E-03-9.12449E-14
 -1      2872 1.31742E-02 1.33140E-03-9.05365E-14
 -1      2873 1.36864E-02 1.41798E-03-9.67710E-14
 -1      2874 1.35436E-02 1.40385E-03-9.49214E-14
 -1      2875 1.34599E-02 1.35967E-03-9.42095E-14
 -1      2876 1.39721E-02 1.44622E-03-1.00488E-13
 -1      2877 1.38293E-02 1.43210E-03-9.86278E-14
 -1      2878 1.37456E-02 1.38792E-03-9.79064E-14
 -1      2879 1.42578E-02 1.47446E-03-1.04235E-13
 -1      2880 1.41150E-02 1.46034E-03-1.02357E-13
 -1      2881 1.40313E-02 1.41616E-03-1.01633E-13
 -1      2882 1.45092E-02 1.49155E-03-1.07636E-13
 -1      2883 1.43664E-02 1.47743E-03-1.05747E-13
 -1      2884 1.42827E-02 1.43325E-03-1.05011E-13
 -1      2885 1.44998E-02 1.43920E-03-1.08034E-13
 -1      2886 4.80851E-03 7.11275E-04-1.00223E-14
 -1      2887 5.02778E-03 5.89705E-04-1.06765E-14
 -1      2888 1.43529E-02 1.03082E-03-1.09975E-13
 -1      2889 1.43668E-02 1.07299E-03-1.09766E-13
 -1      2890 1.41020E-02 5.45566E-04-1.10965E-13
 -1      2891 1.41983E-02 5.54272E-04-1.12251E-13
 -1      2892 1.40428E-02 5.75630E-04-1.09852E-13
 -1      2893 1.44085E-02 1.19949E-03-1.09126E-13
 -1      2894 1.44224E-02 1.24165E-03-1.08909E-13
 -1      2895 1.43252E-02 9.46477E-04-1.10390E-13
 -1      2896 1.43390E-02 9.88647E-04-1.10184E-13
 -1      2897 1.42222E-02 9.97505E-04-1.08452E-13
 -1      2898 1.43807E-02 1.11515E-03-1.09552E-13
 -1      2899 1.43946E-02 1.15732E-03-1.09342E-13
 -1      2900 1.42778E-02 1.16618E-03-1.07607E-13
 -1      2901 1.42500E-02 1.08184E-03-1.08033E-13
 -1      2902 1.42979E-02 8.63570E-04-1.10790E-13
 -1      2903 1.43115E-02 9.05023E-04-1.10591E-13
 -1      2904 1.41947E-02 9.13882E-04-1.08859E-13
 -1      2905 1.42702E-02 7.79239E-04-1.11192E-13
 -1      2906 1.42840E-02 8.21404E-04-1.10990E-13
 -1      2907 1.41672E-02 8.30261E-04-1.09255E-13
 -1      2908 1.42425E-02 6.94915E-04-1.11588E-13
 -1      2909 1.42564E-02 7.37076E-04-1.11389E-13
 -1      2910 1.41396E-02 7.45932E-04-1.09652E-13
 -1      2911 1.42354E-02 5.93042E-04-1.12422E-13
 -1      2912 2.95835E-03-6.50775E-04-5.31904E-15
 -1      2913 2.78758E-03-5.52961E-04-4.91434E-15
 -1      2914 8.90944E-04-2.06450E-04-6.15854E-16
 -1      2915 1.03809E-03-2.46902E-04-7.88513E-16
 -1      2916 1.19613E-03-2.83639E-04-1.00916E-15
 -1      2917 8.37945E-04-1.44302E-04-6.28322E-16
 -1      2918 5.58067E-03 3.29622E-04-1.20775E-14
 -1      2919 5.71370E-03 2.87439E-04-1.24627E-14
 -1      2920 4.44718E-03 9.26188E-04-8.87406E-15
 -1      2921 4.59735E-03 8.36609E-04-9.36991E-15
 -1      2922 3.99424E-03-7.10214E-04-8.85659E-15
 -1      2923 3.82691E-03-7.82262E-04-8.23208E-15
 -1      2924 5.26142E-03 4.67357E-04-1.12869E-14
 -1      2925 5.42822E-03 3.90728E-04-1.16928E-14
 -1      2926 5.95930E-03 2.17888E-04-1.34009E-14
 -1      2927 5.93054E-03 2.08504E-04-1.32861E-14
 -1      2928 1.90243E-03 4.99418E-04-1.67431E-15
 -1      2929 1.73115E-03 4.43736E-04-1.40000E-15
 -1      2930 1.59240E-03 3.70341E-04-1.32525E-15
 -1      2931 1.93166E-03 4.74524E-04-1.88192E-15
 -1      2932 2.99996E-03 9.86656E-04-3.89840E-15
 -1      2933 2.81581E-03 8.94784E-04-3.45378E-15
 -1      2934 3.06066E-03 9.90808E-04-4.20147E-15
 -1      2935 2.62545E-03 7.98518E-04-3.04490E-15
 -1      2936 2.44059E-03 7.11963E-04-2.66010E-15
 -1      2937 2.29192E-03 6.11403E-04-2.54477E-15
 -1      2938 1.30422E-03 9.75494E-05-2.70977E-15
 -1      2939 1.36818E-03 1.07050E-04-2.71703E-15
 -1      2940 1.80862E-03-5.67069E-05-3.30996E-15
 -1      2941 1.66061E-03-2.33216E-06-3.15557E-15
 -1      2942 8.63888E-04 2.06481E-04-3.96832E-16
 -1      2943 1.51372E-03 1.42373E-04-2.86189E-15
 -1      2944 1.65077E-03 1.81013E-04-2.99882E-15
 -1      2945 4.06719E-03 1.11534E-03-7.54925E-15
 -1      2946 4.24204E-03 1.03335E-03-8.16582E-15
 -1      2947 6.89652E-04 6.24267E-05-5.50449E-16
 -1      2948 6.65633E-04 5.04879E-05-5.65195E-16
 -1      2949 7.49175E-04 5.55640E-05-7.24220E-16
 -1      2950 8.07286E-04 8.42542E-05-6.88807E-16
 -1      2951 1.51308E-03 4.86719E-05-3.06821E-15
 -1      2952 1.40505E-03 7.41077E-05-2.98271E-15
 -1      2953 5.84531E-03 2.54709E-04-1.30184E-14
 -1      2954 5.92306E-03 2.37926E-04-1.33130E-14
 -1      2955 3.14859E-03 1.00279E-03-4.62241E-15
 -1      2956 3.27355E-03 1.07250E-03-4.91554E-15
 -1      2957 7.05469E-04-2.52321E-05-6.24961E-16
 -1      2958 7.30749E-04-4.54934E-05-6.24514E-16
 -1      2959 1.77844E-03 2.27066E-04-3.09059E-15
 -1      2960 1.91966E-03 2.84345E-04-3.18491E-15
 -1      2961 1.69171E-03 2.01523E-04-2.84599E-15
 -1      2962 5.84665E-03 1.87647E-04-1.30775E-14
 -1      2963 5.73441E-03 1.62112E-04-1.28324E-14
 -1      2964 4.80340E-03-2.41313E-04-1.12044E-14
 -1      2965 4.60722E-03-3.57428E-04-1.07446E-14
 -1      2966 3.32596E-03-8.04260E-04-6.41826E-15
 -1      2967 3.16697E-03-7.48320E-04-5.90329E-15
 -1      2968 2.21214E-03-2.32521E-04-3.88886E-15
 -1      2969 2.05324E-03-1.56736E-04-3.66111E-15
 -1      2970 2.28751E-03-2.98196E-04-3.86662E-15
 -1      2971 5.60583E-03 1.22157E-04-1.27179E-14
 -1      2972 5.45643E-03 6.87491E-05-1.26043E-14
 -1      2973 5.70155E-03 1.41497E-04-1.34418E-14
 -1      2974 3.43226E-03 1.13392E-03-5.40089E-15
 -1      2975 3.61787E-03 1.18272E-03-5.98808E-15
 -1      2976 3.70277E-03 1.19708E-03-6.20695E-15
 -1      2977 3.39907E-03 1.13893E-03-5.17250E-15
 -1      2978 3.65909E-03-8.24048E-04-7.61039E-15
 -1      2979 3.50613E-03-8.31541E-04-7.04252E-15
 -1      2980 4.38680E-03-4.91503E-04-1.01849E-14
 -1      2981 4.21012E-03-5.99069E-04-9.63226E-15
 -1      2982 5.23082E-03-2.40366E-05-1.21097E-14
 -1      2983 5.02369E-03-1.23047E-04-1.16862E-14
 -1      2984 1.34652E-03 7.79925E-05-2.80442E-15
 -1      2985 7.16736E-04 2.80762E-05-7.70000E-16
 -1      2986 6.32306E-04 2.12642E-05-6.12113E-16
 -1      2987 6.44200E-04 1.41149E-05-6.17250E-16
 -1      2988 5.37252E-03 2.25913E-05-1.28146E-14
 -1      2989 5.81464E-03 2.78794E-04-1.32348E-14
 -1      2990 1.24375E-03-2.60908E-04-1.14532E-15
 -1      2991 4.01138E-03 1.14962E-03-7.31969E-15
 -1      2992 3.41532E-03-8.28756E-04-6.73891E-15
 -1      2993 4.94144E-03-1.81576E-04-1.18210E-14
 -1      2994 1.43056E-02 1.25015E-03-1.07175E-13
 -1      2995 1.44362E-02 1.28346E-03-1.08693E-13
 -1      2996 1.44501E-02 1.32526E-03-1.08473E-13
 -1      2997 2.64216E-03-4.94534E-04-4.52309E-15
 -1      2998 3.74578E-03-8.11529E-04-7.99312E-15
 -1      2999 2.67540E-03 7.90988E-04-3.31347E-15
 -1      3000 3.67503E-03 1.22045E-03-5.95143E-15
 -1      3001 3.50359E-03 1.19061E-03-5.37619E-15
 -1      3002 4.43568E-03 9.95983E-04-8.89107E-15
 -1      3003 4.32124E-03 1.08252E-03-8.42504E-15
 -1      3004 4.13910E-03 1.14767E-03-7.71520E-15
 -1      3005 4.74991E-03 7.79438E-04-9.97546E-15
 -1      3006 2.94976E-03 8.96746E-04-4.13638E-15
 -1      3007 1.44680E-02 1.36133E-03-1.08369E-13
 -1      3008 1.44818E-02 1.40313E-03-1.08143E-13
 -1      3009 1.43733E-02 1.40016E-03-1.06633E-13
 -1      3010 1.43373E-02 1.32802E-03-1.06850E-13
 -1      3011 4.11029E-03-6.64355E-04-9.39690E-15
 -1      3012 1.42492E-02 6.35196E-04-1.12234E-13
 -1      3013 1.41324E-02 6.44051E-04-1.10493E-13
 -1      3014 3.04833E-03-7.09829E-04-5.53229E-15
 -1      3015 5.98346E-03 2.31254E-04-1.38972E-14
 -1      3016 6.02519E-03 2.28912E-04-1.44877E-14
 -1      3017 6.00220E-03 2.47585E-04-1.43956E-14
 -1      3018 5.16926E-03 5.40407E-04-1.12643E-14
 -1      3019 2.52032E-03 6.01653E-04-3.70694E-15
 -1      3020 2.64554E-03 6.93294E-04-3.74033E-15
 -1      3021 2.39214E-03 5.37180E-04-3.45359E-15
 -1      3022 5.53607E-03 3.68146E-04-1.22811E-14
 -1      3023 2.02409E-03 3.34936E-04-3.17085E-15
 -1      3024 2.12088E-03 3.91079E-04-3.15511E-15
 -1      3025 1.91157E-03 2.95420E-04-2.91889E-15
 -1      3026 5.91654E-03 1.99729E-04-1.37733E-14
 -1      3027 1.90126E-03-1.16497E-04-3.29068E-15
 -1      3028 1.32154E-03 1.03752E-04-2.38224E-15
 -1      3029 1.40972E-03 1.18131E-04-2.61711E-15
 -1      3030 1.45774E-03 1.34171E-04-2.51781E-15
 -1      3031 1.27705E-03 9.16305E-05-2.63994E-15
 -1      3032 1.25819E-03 8.96793E-05-2.41097E-15
 -1      3033 1.26226E-03 8.81454E-05-2.57081E-15
 -1      3034 1.54031E-03 1.95005E-05-2.88162E-15
 -1      3035 6.61191E-04 4.41495E-06-6.21153E-16
 -1      3036 6.81871E-04-8.62520E-06-6.23782E-16
 -1      3037 7.97317E-04-2.16415E-05-7.89787E-16
 -1      3038 7.46599E-04 1.00418E-05-7.83011E-16
 -1      3039 9.06422E-04 1.91840E-04-4.95548E-16
 -1      3040 8.58113E-04-6.95657E-05-7.89787E-16
 -1      3041 7.57095E-04-6.93960E-05-6.22590E-16
 -1      3042 7.83572E-04-9.65628E-05-6.18402E-16
 -1      3043 1.01505E-03 2.02407E-04-6.50711E-16
 -1      3044 4.51972E-03-4.27374E-04-1.07590E-14
 -1      3045 1.02312E-03 1.68296E-04-7.83878E-16
 -1      3046 9.76881E-04 1.36690E-04-8.14398E-16
 -1      3047 5.76835E-03 3.12412E-04-1.33931E-14
 -1      3048 5.89486E-03 2.82645E-04-1.39660E-14
 -1      3049 2.30433E-03-3.42926E-04-3.75744E-15
 -1      3050 2.16809E-03-2.69834E-04-3.53599E-15
 -1      3051 1.86000E-03-3.69201E-04-2.37356E-15
 -1      3052 2.03297E-03-4.17420E-04-2.75138E-15
 -1      3053 2.21091E-03-4.71500E-04-3.15847E-15
 -1      3054 2.39086E-03-5.31671E-04-3.59573E-15
 -1      3055 2.07950E-03-3.84981E-04-2.95173E-15
 -1      3056 2.86330E-03-6.77157E-04-4.91463E-15
 -1      3057 3.04602E-03-7.45991E-04-5.46735E-15
 -1      3058 3.22511E-03-8.15861E-04-6.06134E-15
 -1      3059 3.39550E-03-8.48594E-04-6.68568E-15
 -1      3060 3.60938E-03-8.66243E-04-7.58315E-15
 -1      3061 3.77415E-03-8.41217E-04-8.29034E-15
 -1      3062 3.94286E-03-7.88538E-04-9.02651E-15
 -1      3063 4.11577E-03-7.25037E-04-9.80077E-15
 -1      3064 4.23762E-03-6.44643E-04-1.02206E-14
 -1      3065 4.42283E-03-5.62237E-04-1.10442E-14
 -1      3066 5.01794E-03-3.61781E-04-1.41199E-14
 -1      3067 5.19169E-03-3.06411E-04-1.50657E-14
 -1      3068 5.36180E-03-2.58655E-04-1.60360E-14
 -1      3069 5.52707E-03-2.17164E-04-1.70326E-14
 -1      3070 5.32823E-03-2.24482E-04-1.55113E-14
 -1      3071 5.68857E-03-1.81795E-04-1.80538E-14
 -1      3072 5.84618E-03-1.51047E-04-1.90982E-14
 -1      3073 5.65710E-03-1.47611E-04-1.75012E-14
 -1      3074 6.00075E-03-1.24748E-04-2.01661E-14
 -1      3075 6.15256E-03-1.01723E-04-2.12585E-14
 -1      3076 5.96833E-03-9.19348E-05-1.95887E-14
 -1      3077 6.30224E-03-8.17539E-05-2.23738E-14
 -1      3078 6.45013E-03-6.40594E-05-2.35117E-14
 -1      3079 6.26714E-03-5.03249E-05-2.17690E-14
 -1      3080 6.59664E-03-4.83834E-05-2.46729E-14
 -1      3081 6.74208E-03-3.42213E-05-2.58567E-14
 -1      3082 6.55809E-03-1.79026E-05-2.40415E-14
 -1      3083 6.88668E-03-2.13295E-05-2.70640E-14
 -1      3084 7.03069E-03-9.38695E-06-2.82955E-14
 -1      3085 6.84454E-03 8.65064E-06-2.64061E-14
 -1      3086 7.17422E-03 1.82150E-06-2.95500E-14
 -1      3087 7.31745E-03 1.24977E-05-3.08253E-14
 -1      3088 7.12870E-03 3.16187E-05-2.88653E-14
 -1      3089 7.46042E-03 2.28171E-05-3.21246E-14
 -1      3090 7.60327E-03 3.29039E-05-3.34476E-14
 -1      3091 7.41191E-03 5.26177E-05-3.14141E-14
 -1      3092 7.74599E-03 4.28908E-05-3.47919E-14
 -1      3093 7.88868E-03 5.28510E-05-3.61579E-14
 -1      3094 7.69493E-03 7.27814E-05-3.40538E-14
 -1      3095 8.03131E-03 6.28780E-05-3.75456E-14
 -1      3096 8.17396E-03 7.30115E-05-3.89555E-14
 -1      3097 7.97815E-03 9.28825E-05-3.67815E-14
 -1      3098 8.31660E-03 8.33114E-05-4.03854E-14
 -1      3099 8.45926E-03 9.37955E-05-4.18368E-14
 -1      3100 8.26176E-03 1.13419E-04-3.95938E-14
 -1      3101 8.60193E-03 1.04498E-04-4.33090E-14
 -1      3102 8.74464E-03 1.15422E-04-4.47994E-14
 -1      3103 8.54578E-03 1.34685E-04-4.24901E-14
 -1      3104 8.88735E-03 1.26582E-04-4.63106E-14
 -1      3105 9.03010E-03 1.37974E-04-4.78396E-14
 -1      3106 8.83020E-03 1.56820E-04-4.54651E-14
 -1      3107 9.17286E-03 1.49599E-04-4.93888E-14
 -1      3108 9.31564E-03 1.61447E-04-5.09572E-14
 -1      3109 9.11497E-03 1.79864E-04-4.85188E-14
 -1      3110 9.45844E-03 1.73512E-04-5.25399E-14
 -1      3111 9.60126E-03 1.85781E-04-5.41410E-14
 -1      3112 9.40002E-03 2.03783E-04-5.16428E-14
 -1      3113 9.74408E-03 1.98242E-04-5.57609E-14
 -1      3114 9.88692E-03 2.10884E-04-5.73933E-14
 -1      3115 9.68528E-03 2.28507E-04-5.48392E-14
 -1      3116 1.00298E-02 2.23691E-04-5.90403E-14
 -1      3117 1.01726E-02 2.36652E-04-6.07058E-14
 -1      3118 9.97072E-03 2.53939E-04-5.81003E-14
 -1      3119 1.03155E-02 2.49752E-04-6.23858E-14
 -1      3120 1.04584E-02 2.62981E-04-6.40769E-14
 -1      3121 1.02563E-02 2.79979E-04-6.14217E-14
 -1      3122 1.06012E-02 2.76323E-04-6.57817E-14
 -1      3123 1.07441E-02 2.89770E-04-6.75012E-14
 -1      3124 1.05419E-02 3.06526E-04-6.47988E-14
 -1      3125 1.08870E-02 3.03308E-04-6.92338E-14
 -1      3126 1.10298E-02 3.16930E-04-7.09769E-14
 -1      3127 1.08276E-02 3.33487E-04-6.82326E-14
 -1      3128 1.11727E-02 3.30623E-04-7.27308E-14
 -1      3129 1.13156E-02 3.44383E-04-7.44935E-14
 -1      3130 1.11133E-02 3.60780E-04-7.17155E-14
 -1      3131 1.14585E-02 3.58198E-04-7.62636E-14
 -1      3132 1.16013E-02 3.72063E-04-7.80424E-14
 -1      3133 1.13991E-02 3.88335E-04-7.52380E-14
 -1      3134 1.17442E-02 3.85971E-04-7.98269E-14
 -1      3135 1.18871E-02 3.99917E-04-8.16185E-14
 -1      3136 1.16848E-02 4.16091E-04-7.87902E-14
 -1      3137 1.20300E-02 4.13894E-04-8.34170E-14
 -1      3138 1.21728E-02 4.27899E-04-8.52243E-14
 -1      3139 1.19706E-02 4.43999E-04-8.23729E-14
 -1      3140 1.23157E-02 4.41927E-04-8.70379E-14
 -1      3141 1.24586E-02 4.55975E-04-8.88591E-14
 -1      3142 1.22564E-02 4.72019E-04-8.59848E-14
 -1      3143 1.26014E-02 4.70039E-04-9.06903E-14
 -1      3144 1.27443E-02 4.84117E-04-9.25289E-14
 -1      3145 1.25421E-02 5.00122E-04-8.96262E-14
 -1      3146 1.28872E-02 4.98206E-04-9.43737E-14
 -1      3147 1.30300E-02 5.12304E-04-9.62257E-14
 -1      3148 1.28279E-02 5.28282E-04-9.32991E-14
 -1      3149 1.31729E-02 5.26409E-04-9.80854E-14
 -1      3150 1.33158E-02 5.40519E-04-9.99507E-14
 -1      3151 1.31136E-02 5.56480E-04-9.69997E-14
 -1      3152 1.34586E-02 5.54634E-04-1.01822E-13
 -1      3153 1.36015E-02 5.68750E-04-1.03695E-13
 -1      3154 1.33994E-02 5.84701E-04-1.00726E-13
 -1      3155 1.37443E-02 5.82869E-04-1.05574E-13
 -1      3156 1.38872E-02 5.96987E-04-1.07460E-13
 -1      3157 1.36851E-02 6.12935E-04-1.04471E-13
 -1      3158 1.60023E-03 1.81901E-04-2.55970E-15
 -1      3159 1.71367E-03 2.22236E-04-2.64209E-15
 -1      3160 2.32204E-03 5.87150E-04-2.78725E-15
 -1      3161 2.13578E-03 5.11104E-04-2.42708E-15
 -1      3162 6.05361E-03 5.56687E-04-1.68505E-14
 -1      3163 5.89749E-03 5.64250E-04-1.58570E-14
 -1      3164 6.35611E-03 5.57377E-04-1.89123E-14
 -1      3165 6.20622E-03 5.54939E-04-1.78686E-14
 -1      3166 6.16427E-03 5.12248E-04-1.74883E-14
 -1      3167 6.65033E-03 5.72841E-04-2.10751E-14
 -1      3168 6.50393E-03 5.63665E-04-1.99814E-14
 -1      3169 6.45504E-03 5.21814E-04-1.95810E-14
 -1      3170 6.94020E-03 5.98078E-04-2.33341E-14
 -1      3171 6.79560E-03 5.84495E-04-2.21933E-14
 -1      3172 6.73996E-03 5.42689E-04-2.17714E-14
 -1      3173 7.22794E-03 6.29523E-04-2.56861E-14
 -1      3174 7.08421E-03 6.13199E-04-2.44990E-14
 -1      3175 7.02253E-03 5.70965E-04-2.40570E-14
 -1      3176 7.51474E-03 6.64596E-04-2.81276E-14
 -1      3177 7.37138E-03 6.46723E-04-2.68952E-14
 -1      3178 7.30458E-03 6.03899E-04-2.64334E-14
 -1      3179 7.80115E-03 7.01477E-04-3.06589E-14
 -1      3180 7.65794E-03 6.82889E-04-2.93828E-14
 -1      3181 7.58693E-03 6.39494E-04-2.88997E-14
 -1      3182 8.08742E-03 7.38929E-04-3.32662E-14
 -1      3183 7.94427E-03 7.20182E-04-3.19529E-14
 -1      3184 7.86990E-03 6.76321E-04-3.14501E-14
 -1      3185 8.37363E-03 7.76153E-04-3.59575E-14
 -1      3186 8.23051E-03 7.57600E-04-3.46016E-14
 -1      3187 8.15351E-03 7.13400E-04-3.40813E-14
 -1      3188 8.65980E-03 8.12673E-04-3.87290E-14
 -1      3189 8.51670E-03 7.94518E-04-3.73333E-14
 -1      3190 8.43770E-03 7.50097E-04-3.67954E-14
 -1      3191 8.94592E-03 8.48245E-04-4.15768E-14
 -1      3192 8.80285E-03 8.30585E-04-4.01439E-14
 -1      3193 8.72235E-03 7.86040E-04-3.95897E-14
 -1      3194 9.23199E-03 8.82779E-04-4.44983E-14
 -1      3195 9.08896E-03 8.65642E-04-4.30273E-14
 -1      3196 9.00735E-03 8.21044E-04-4.24573E-14
 -1      3197 9.51801E-03 9.16285E-04-4.74912E-14
 -1      3198 9.37501E-03 8.99657E-04-4.59873E-14
 -1      3199 9.29260E-03 8.55053E-04-4.54007E-14
 -1      3200 9.80398E-03 9.48836E-04-5.05532E-14
 -1      3201 9.66100E-03 9.32675E-04-4.90131E-14
 -1      3202 9.57804E-03 8.88095E-04-4.84151E-14
 -1      3203 1.00899E-02 9.80537E-04-5.36818E-14
 -1      3204 9.94694E-03 9.64787E-04-5.21095E-14
 -1      3205 9.86360E-03 9.20249E-04-5.14967E-14
 -1      3206 1.03758E-02 1.01150E-03-5.68724E-14
 -1      3207 1.02328E-02 9.96105E-04-5.52695E-14
 -1      3208 1.01492E-02 9.51616E-04-5.46433E-14
 -1      3209 1.06616E-02 1.04185E-03-6.01265E-14
 -1      3210 1.05187E-02 1.02675E-03-5.84922E-14
 -1      3211 1.04349E-02 9.82310E-04-5.78548E-14
 -1      3212 1.09474E-02 1.07169E-03-6.34402E-14
 -1      3213 1.08045E-02 1.05683E-03-6.17742E-14
 -1      3214 1.07207E-02 1.01244E-03-6.11255E-14
 -1      3215 1.12332E-02 1.10113E-03-6.68118E-14
 -1      3216 1.10903E-02 1.08646E-03-6.51194E-14
 -1      3217 1.10064E-02 1.04211E-03-6.44584E-14
 -1      3218 1.15189E-02 1.13024E-03-7.02377E-14
 -1      3219 1.13760E-02 1.11572E-03-6.85187E-14
 -1      3220 1.12922E-02 1.07141E-03-6.78510E-14
 -1      3221 1.18047E-02 1.15910E-03-7.37086E-14
 -1      3222 1.16618E-02 1.14469E-03-7.19670E-14
 -1      3223 1.15779E-02 1.10042E-03-7.12911E-14
 -1      3224 1.20904E-02 1.18777E-03-7.72262E-14
 -1      3225 1.19475E-02 1.17345E-03-7.54622E-14
 -1      3226 1.18637E-02 1.12920E-03-7.47782E-14
 -1      3227 1.23761E-02 1.21629E-03-8.07807E-14
 -1      3228 1.22333E-02 1.20204E-03-7.89978E-14
 -1      3229 1.21494E-02 1.15781E-03-7.83082E-14
 -1      3230 1.26618E-02 1.24471E-03-8.43773E-14
 -1      3231 1.25190E-02 1.23051E-03-8.25748E-14
 -1      3232 1.24352E-02 1.18630E-03-8.18777E-14
 -1      3233 1.29476E-02 1.27306E-03-8.80029E-14
 -1      3234 1.28047E-02 1.25889E-03-8.61853E-14
 -1      3235 1.27209E-02 1.21469E-03-8.54817E-14
 -1      3236 1.32333E-02 1.30135E-03-9.16607E-14
 -1      3237 1.30904E-02 1.28721E-03-8.98301E-14
 -1      3238 1.30067E-02 1.24302E-03-8.91187E-14
 -1      3239 1.35190E-02 1.32962E-03-9.53371E-14
 -1      3240 1.33761E-02 1.31549E-03-9.34957E-14
 -1      3241 1.32924E-02 1.27130E-03-9.27830E-14
 -1      3242 1.38047E-02 1.35786E-03-9.90438E-14
 -1      3243 1.36618E-02 1.34374E-03-9.71854E-14
 -1      3244 1.35781E-02 1.29956E-03-9.64679E-14
 -1      3245 1.40904E-02 1.38610E-03-1.02775E-13
 -1      3246 1.39476E-02 1.37198E-03-1.00906E-13
 -1      3247 1.38638E-02 1.32780E-03-1.00179E-13
 -1      3248 1.42861E-02 1.39461E-03-1.05455E-13
 -1      3249 1.41776E-02 1.39164E-03-1.03950E-13
 -1      3250 1.40939E-02 1.34746E-03-1.03217E-13
 -1      3251 1.42682E-02 1.35855E-03-1.05567E-13
 -1      3252 1.40642E-02 8.80928E-04-1.07329E-13
 -1      3253 1.40778E-02 9.22382E-04-1.07132E-13
 -1      3254 3.79612E-03-8.07366E-04-8.27021E-15
 -1      3255 3.64403E-03-8.41124E-04-7.64647E-15
 -1      3256 1.40089E-02 7.12625E-04-1.08116E-13
 -1      3257 1.40227E-02 7.54787E-04-1.07920E-13
 -1      3258 1.40917E-02 9.64551E-04-1.06927E-13
 -1      3259 1.41056E-02 1.00672E-03-1.06721E-13
 -1      3260 1.39611E-02 9.31597E-04-1.05406E-13
 -1      3261 9.50270E-04-1.50470E-04-8.00534E-16
 -1      3262 1.40365E-02 7.96773E-04-1.07725E-13
 -1      3263 1.40504E-02 8.38939E-04-1.07528E-13
 -1      3264 1.39335E-02 8.47439E-04-1.05807E-13
 -1      3265 1.39059E-02 7.63464E-04-1.06197E-13
 -1      3266 5.73673E-03 5.77872E-04-1.48886E-14
 -1      3267 5.57069E-03 6.00182E-04-1.39471E-14
 -1      3268 5.86157E-03 5.19803E-04-1.54965E-14
 -1      3269 5.39746E-03 6.31107E-04-1.30312E-14
 -1      3270 5.21778E-03 6.74408E-04-1.21439E-14
 -1      3271 5.53770E-03 5.54211E-04-1.36052E-14
 -1      3272 4.35852E-03 1.00019E-03-8.59354E-15
 -1      3273 2.83442E-03 8.31728E-04-3.87877E-15
 -1      3274 2.62873E-03 7.21731E-04-3.44744E-15
 -1      3275 5.49682E-03 5.04119E-05-1.36390E-14
 -1      3276 5.29342E-03-3.21197E-05-1.31252E-14
 -1      3277 1.52623E-03-2.88477E-04-1.70523E-15
 -1      3278 1.69077E-03-3.26774E-04-2.02526E-15
 -1      3279 1.73231E-03-2.94180E-04-2.20111E-15
 -1      3280 1.11634E-03-1.90890E-04-1.02780E-15
 -1      3281 1.34649E-03-2.38052E-04-1.40477E-15
 -1      3282 1.38666E-03-2.09533E-04-1.55326E-15
 -1      3283 1.04788E-03-1.30975E-04-1.01264E-15
 -1      3284 5.12283E-03 6.00397E-04-1.13515E-14
 -1      3285 5.32819E-03 4.91278E-04-1.19846E-14
 -1      3286 5.08224E-03-1.34384E-04-1.26208E-14
 -1      3287 4.88873E-03-2.38552E-04-1.21184E-14
 -1      3288 5.99505E-03 2.07571E-04-1.46721E-14
 -1      3289 5.90847E-03 1.87128E-04-1.44543E-14
 -1      3290 5.51679E-03 4.07342E-04-1.25887E-14
 -1      3291 5.64949E-03 3.53558E-04-1.29887E-14
 -1      3292 5.75534E-03 3.48314E-04-1.37114E-14
 -1      3293 1.52995E-03-3.95558E-06-2.65342E-15
 -1      3294 1.41336E-03 3.75690E-05-2.57966E-15
 -1      3295 5.82253E-03 1.61278E-04-1.43318E-14
 -1      3296 5.71747E-03 1.27256E-04-1.42088E-14
 -1      3297 5.93378E-03 1.74086E-04-1.52425E-14
 -1      3298 8.09193E-04 5.04802E-05-9.19729E-16
 -1      3299 7.99372E-04 4.32313E-05-9.33322E-16
 -1      3300 1.94412E-03-1.64008E-04-3.19250E-15
 -1      3301 1.72657E-03-7.92011E-05-2.86956E-15
 -1      3302 1.96842E-03-2.11934E-04-3.09111E-15
 -1      3303 1.32364E-03 6.78742E-05-2.56258E-15
 -1      3304 1.27760E-03 8.03586E-05-2.56700E-15
 -1      3305 1.22549E-03 7.86120E-05-2.34029E-15
 -1      3306 1.19363E-03 2.47283E-04-8.51017E-16
 -1      3307 1.09305E-03 2.00136E-04-8.10238E-16
 -1      3308 1.19326E-03 2.06834E-04-1.00615E-15
 -1      3309 1.34868E-03 2.83538E-04-1.06176E-15
 -1      3310 2.69162E-03-6.33834E-04-4.39701E-15
 -1      3311 2.66892E-03-5.52994E-04-4.46396E-15
 -1      3312 2.47595E-03-4.46000E-04-4.04502E-15
 -1      3313 2.50890E-03-5.65280E-04-3.90786E-15
 -1      3314 4.55735E-03-4.54285E-04-1.13281E-14
 -1      3315 4.65084E-03-4.85308E-04-1.22064E-14
 -1      3316 4.83261E-03-4.14257E-04-1.30969E-14
 -1      3317 4.74854E-03-3.36767E-04-1.19216E-14
 -1      3318 7.99635E-04 3.65542E-05-9.45004E-16
 -1      3319 8.09587E-04 2.85083E-05-9.54830E-16
 -1      3320 8.81768E-04 4.60335E-05-1.13623E-15
 -1      3321 5.96668E-03 2.93928E-04-1.47251E-14
 -1      3322 5.98798E-03 2.67882E-04-1.45614E-14
 -1      3323 6.06342E-03 2.60222E-04-1.51648E-14
 -1      3324 5.46479E-03 4.64068E-04-1.26812E-14
 -1      3325 1.41749E-02 1.21702E-03-1.05660E-13
 -1      3326 1.41887E-02 1.25883E-03-1.05441E-13
 -1      3327 2.37896E-03-4.73481E-04-3.66895E-15
 -1      3328 4.97359E-03-3.19985E-04-1.35160E-14
 -1      3329 3.55616E-03-8.58535E-04-7.32762E-15
 -1      3330 3.86821E-03-7.97003E-04-8.62941E-15
 -1      3331 1.79604E-03 2.63958E-04-2.62617E-15
 -1      3332 1.47244E-03 1.51249E-04-2.32730E-15
 -1      3333 1.97344E-03 4.16679E-04-2.30901E-15
 -1      3334 1.95595E-03 4.47282E-04-2.09339E-15
 -1      3335 1.78381E-03 3.92075E-04-1.78545E-15
 -1      3336 5.02928E-03 7.29258E-04-1.12846E-14
 -1      3337 4.83557E-03 7.98348E-04-1.04532E-14
 -1      3338 3.97766E-03-7.42343E-04-9.00395E-15
 -1      3339 1.41471E-02 1.13269E-03-1.06094E-13
 -1      3340 1.41610E-02 1.17486E-03-1.05878E-13
 -1      3341 1.40442E-02 1.18353E-03-1.04151E-13
 -1      3342 1.41194E-02 1.04862E-03-1.06515E-13
 -1      3343 1.41333E-02 1.09079E-03-1.06305E-13
 -1      3344 1.40164E-02 1.09947E-03-1.04582E-13
 -1      3345 1.39888E-02 1.01567E-03-1.04997E-13
 -1      3346 9.32560E-04 1.09995E-04-8.41287E-16
 -1      3347 8.92293E-04 8.83411E-05-8.65153E-16
 -1      3348 1.06691E-03 1.41044E-04-1.00778E-15
 -1      3349 1.39835E-02 6.05695E-04-1.08741E-13
 -1      3350 1.39768E-02 6.65412E-04-1.08098E-13
 -1      3351 2.21418E-03 4.62198E-04-3.03280E-15
 -1      3352 2.33289E-03 5.46113E-04-3.05650E-15
 -1      3353 1.38600E-02 6.74265E-04-1.06370E-13
 -1      3354 6.06093E-03 2.22015E-04-1.51841E-14
 -1      3355 6.08656E-03 2.12687E-04-1.58896E-14
 -1      3356 6.11518E-03 2.35980E-04-1.57012E-14
 -1      3357 5.65381E-03 8.41300E-05-1.45318E-14
 -1      3358 1.64380E-03 3.55909E-04-1.53177E-15
 -1      3359 1.48190E-03 3.12860E-04-1.27281E-15
 -1      3360 1.39845E-03 2.69304E-04-1.24300E-15
 -1      3361 1.66336E-03 3.28020E-04-1.71828E-15
 -1      3362 1.25248E-03 9.17063E-05-2.24277E-15
 -1      3363 1.27218E-03 9.92124E-05-2.15083E-15
 -1      3364 4.90336E-03-2.86150E-04-1.27172E-14
 -1      3365 9.72469E-04-6.26223E-05-1.01735E-15
 -1      3366 1.01021E-03-9.48325E-05-1.01630E-15
 -1      3367 1.17006E-03-1.25021E-04-1.27188E-15
 -1      3368 1.21488E-03 8.56588E-05-2.17842E-15
 -1      3369 5.23499E-03-9.11362E-05-1.34343E-14
 -1      3370 8.56982E-04 7.16598E-05-8.85820E-16
 -1      3371 8.28899E-04 5.91548E-05-9.04048E-16
 -1      3372 9.04894E-04 6.24492E-05-1.10418E-15
 -1      3373 9.71811E-04 9.11628E-05-1.06215E-15
 -1      3374 2.34501E-03-4.12651E-04-3.69816E-15
 -1      3375 1.31096E-03 4.85236E-05-2.35022E-15
 -1      3376 1.56961E-03-4.12268E-05-2.56425E-15
 -1      3377 1.42738E-03-1.68097E-05-2.27743E-15
 -1      3378 1.60081E-03-8.18480E-05-2.47370E-15
 -1      3379 4.17483E-03-6.47535E-04-9.78530E-15
 -1      3380 8.99787E-04-1.14120E-05-1.01320E-15
 -1      3381 9.34865E-04-3.45852E-05-1.01622E-15
 -1      3382 1.07980E-03-5.13542E-05-1.27135E-15
 -1      3383 1.18729E-03 6.98872E-05-2.13259E-15
 -1      3384 1.18334E-03 7.64362E-05-2.13784E-15
 -1      3385 2.22710E-03-3.80533E-04-3.40158E-15
 -1      3386 5.63137E-03-1.11427E-04-1.69512E-14
 -1      3387 5.78804E-03-8.23764E-05-1.79707E-14
 -1      3388 5.94042E-03-5.81372E-05-1.90128E-14
 -1      3389 6.08934E-03-3.69124E-05-2.00776E-14
 -1      3390 5.91741E-03-2.28630E-05-1.84388E-14
 -1      3391 6.23550E-03-1.86605E-05-2.11677E-14
 -1      3392 6.37964E-03-2.30155E-06-2.22795E-14
 -1      3393 6.20753E-03 1.34599E-05-2.05683E-14
 -1      3394 6.52222E-03 1.22955E-05-2.34138E-14
 -1      3395 6.66378E-03 2.56944E-05-2.45715E-14
 -1      3396 6.48909E-03 4.23209E-05-2.27890E-14
 -1      3397 6.80454E-03 3.80404E-05-2.57527E-14
 -1      3398 6.94488E-03 4.96504E-05-2.69564E-14
 -1      3399 6.76663E-03 6.68870E-05-2.51014E-14
 -1      3400 7.08491E-03 6.06750E-05-2.81835E-14
 -1      3401 7.22487E-03 7.12918E-05-2.94343E-14
 -1      3402 7.04277E-03 8.89989E-05-2.75069E-14
 -1      3403 7.36480E-03 8.16377E-05-3.07069E-14
 -1      3404 7.50486E-03 9.18098E-05-3.20027E-14
 -1      3405 7.31903E-03 1.09861E-04-3.00033E-14
 -1      3406 7.64502E-03 1.01923E-04-3.33184E-14
 -1      3407 7.78539E-03 1.12027E-04-3.46579E-14
 -1      3408 7.59620E-03 1.30284E-04-3.25882E-14
 -1      3409 7.92594E-03 1.22210E-04-3.60202E-14
 -1      3410 8.06672E-03 1.32493E-04-3.74016E-14
 -1      3411 7.87461E-03 1.50821E-04-3.52620E-14
 -1      3412 8.20769E-03 1.42941E-04-3.88066E-14
 -1      3413 8.34888E-03 1.53557E-04-4.02310E-14
 -1      3414 8.15434E-03 1.71834E-04-3.80220E-14
 -1      3415 8.49025E-03 1.64381E-04-4.16753E-14
 -1      3416 8.63182E-03 1.75408E-04-4.31406E-14
 -1      3417 8.43531E-03 1.93545E-04-4.08655E-14
 -1      3418 8.77355E-03 1.86660E-04-4.46243E-14
 -1      3419 8.91544E-03 1.98125E-04-4.61274E-14
 -1      3420 8.71736E-03 2.16060E-04-4.37885E-14
 -1      3421 9.05747E-03 2.09812E-04-4.76506E-14
 -1      3422 9.19963E-03 2.21707E-04-4.91923E-14
 -1      3423 9.00033E-03 2.39408E-04-4.67877E-14
 -1      3424 9.34189E-03 2.33810E-04-5.07512E-14
 -1      3425 9.48426E-03 2.46105E-04-5.23279E-14
 -1      3426 9.28405E-03 2.63559E-04-4.98641E-14
 -1      3427 9.62671E-03 2.58585E-04-5.39237E-14
 -1      3428 9.76924E-03 2.71237E-04-5.55358E-14
 -1      3429 9.56836E-03 2.88451E-04-5.30138E-14
 -1      3430 9.91183E-03 2.84050E-04-5.71637E-14
 -1      3431 1.00545E-02 2.97010E-04-5.88050E-14
 -1      3432 9.85311E-03 3.14000E-04-5.62301E-14
 -1      3433 1.01972E-02 3.10106E-04-6.04626E-14
 -1      3434 1.03399E-02 3.23326E-04-6.21362E-14
 -1      3435 1.01382E-02 3.40115E-04-5.95094E-14
 -1      3436 1.04827E-02 3.36659E-04-6.38219E-14
 -1      3437 1.06255E-02 3.50093E-04-6.55216E-14
 -1      3438 1.04235E-02 3.66708E-04-6.28474E-14
 -1      3439 1.07683E-02 3.63619E-04-6.72353E-14
 -1      3440 1.09111E-02 3.77227E-04-6.89627E-14
 -1      3441 1.07090E-02 3.93692E-04-6.62425E-14
 -1      3442 1.10540E-02 3.90907E-04-7.07017E-14
 -1      3443 1.11968E-02 4.04652E-04-7.24530E-14
 -1      3444 1.09947E-02 4.20994E-04-6.96915E-14
 -1      3445 1.13397E-02 4.18453E-04-7.42128E-14
 -1      3446 1.14826E-02 4.32305E-04-7.59803E-14
 -1      3447 1.12804E-02 4.48546E-04-7.31889E-14
 -1      3448 1.16255E-02 4.46200E-04-7.77556E-14
 -1      3449 1.17684E-02 4.60133E-04-7.95391E-14
 -1      3450 1.15661E-02 4.76294E-04-7.67221E-14
 -1      3451 1.19112E-02 4.74099E-04-8.13291E-14
 -1      3452 1.20541E-02 4.88093E-04-8.31273E-14
 -1      3453 1.18519E-02 5.04191E-04-8.02854E-14
 -1      3454 1.21970E-02 5.02112E-04-8.49317E-14
 -1      3455 1.23399E-02 5.16151E-04-8.67444E-14
 -1      3456 1.21377E-02 5.32200E-04-8.38802E-14
 -1      3457 1.24828E-02 5.30207E-04-8.85647E-14
 -1      3458 1.26257E-02 5.44278E-04-9.03922E-14
 -1      3459 1.24235E-02 5.60291E-04-8.75039E-14
 -1      3460 1.27686E-02 5.58360E-04-9.22280E-14
 -1      3461 1.29114E-02 5.72453E-04-9.40693E-14
 -1      3462 1.27093E-02 5.88440E-04-9.11565E-14
 -1      3463 1.30543E-02 5.86553E-04-9.59167E-14
 -1      3464 1.31972E-02 6.00660E-04-9.77721E-14
 -1      3465 1.29950E-02 6.16629E-04-9.48367E-14
 -1      3466 1.33401E-02 6.14771E-04-9.96320E-14
 -1      3467 1.34830E-02 6.28886E-04-1.01498E-13
 -1      3468 1.32808E-02 6.44844E-04-9.85415E-14
 -1      3469 1.36001E-02 6.44516E-04-1.02994E-13
 -1      3470 1.37429E-02 6.58634E-04-1.04867E-13
 -1      3471 1.37750E-02 7.05848E-04-1.04888E-13
 -1      3472 1.35408E-02 6.74587E-04-1.01895E-13
 -1      3473 5.18165E-03 6.30941E-04-1.18205E-14
 -1      3474 4.62654E-03 8.97570E-04-9.63385E-15
 -1      3475 6.27051E-03 4.73651E-04-1.81311E-14
 -1      3476 6.12837E-03 4.69738E-04-1.71087E-14
 -1      3477 7.10161E-03 5.45888E-04-2.47811E-14
 -1      3478 6.96349E-03 5.30145E-04-2.36138E-14
 -1      3479 7.37866E-03 5.79675E-04-2.71818E-14
 -1      3480 7.23993E-03 5.62445E-04-2.59705E-14
 -1      3481 7.17723E-03 5.22386E-04-2.55073E-14
 -1      3482 7.65718E-03 6.15353E-04-2.96716E-14
 -1      3483 7.51770E-03 5.97339E-04-2.84157E-14
 -1      3484 7.45008E-03 5.56466E-04-2.79338E-14
 -1      3485 7.93721E-03 6.51822E-04-3.22439E-14
 -1      3486 7.79699E-03 6.33530E-04-3.09483E-14
 -1      3487 7.72544E-03 5.91862E-04-3.04454E-14
 -1      3488 8.21857E-03 6.88316E-04-3.48996E-14
 -1      3489 8.07772E-03 6.70092E-04-3.35619E-14
 -1      3490 8.00304E-03 6.27734E-04-3.30415E-14
 -1      3491 8.50105E-03 7.24338E-04-3.76364E-14
 -1      3492 8.35967E-03 7.06401E-04-3.62570E-14
 -1      3493 8.28255E-03 6.63486E-04-3.57205E-14
 -1      3494 8.78441E-03 7.59597E-04-4.04520E-14
 -1      3495 8.64262E-03 7.42069E-04-3.90348E-14
 -1      3496 8.56363E-03 6.98727E-04-3.84796E-14
 -1      3497 9.06845E-03 7.93959E-04-4.33422E-14
 -1      3498 8.92635E-03 7.76891E-04-4.18879E-14
 -1      3499 8.84593E-03 7.33235E-04-4.13170E-14
 -1      3500 9.35301E-03 8.27393E-04-4.63065E-14
 -1      3501 9.21067E-03 8.10789E-04-4.48151E-14
 -1      3502 9.12920E-03 7.66911E-04-4.42299E-14
 -1      3503 9.63795E-03 8.59938E-04-4.93395E-14
 -1      3504 9.49544E-03 8.43772E-04-4.78154E-14
 -1      3505 9.41319E-03 7.99741E-04-4.72142E-14
 -1      3506 9.92317E-03 8.91670E-04-5.24437E-14
 -1      3507 9.78053E-03 8.75899E-04-5.08831E-14
 -1      3508 9.69773E-03 8.31769E-04-5.02694E-14
 -1      3509 1.02086E-02 9.22691E-04-5.56077E-14
 -1      3510 1.00659E-02 9.07263E-04-5.40170E-14
 -1      3511 9.98266E-03 8.63071E-04-5.33920E-14
 -1      3512 1.04941E-02 9.53103E-04-5.88391E-14
 -1      3513 1.03513E-02 9.37967E-04-5.72168E-14
 -1      3514 1.02679E-02 8.93740E-04-5.65775E-14
 -1      3515 1.07798E-02 9.83010E-04-6.21297E-14
 -1      3516 1.06369E-02 9.68114E-04-6.04762E-14
 -1      3517 1.05533E-02 9.23870E-04-5.98261E-14
 -1      3518 1.10655E-02 1.01250E-03-6.54815E-14
 -1      3519 1.09226E-02 9.97804E-04-6.37977E-14
 -1      3520 1.08389E-02 9.53555E-04-6.31371E-14
 -1      3521 1.13512E-02 1.04167E-03-6.88898E-14
 -1      3522 1.12083E-02 1.02712E-03-6.71795E-14
 -1      3523 1.11245E-02 9.82877E-04-6.65075E-14
 -1      3524 1.16370E-02 1.07058E-03-7.23484E-14
 -1      3525 1.14941E-02 1.05615E-03-7.06134E-14
 -1      3526 1.14103E-02 1.01191E-03-6.99339E-14
 -1      3527 1.19227E-02 1.09929E-03-7.58509E-14
 -1      3528 1.17798E-02 1.08495E-03-7.40927E-14
 -1      3529 1.16960E-02 1.04072E-03-7.34087E-14
 -1      3530 1.22085E-02 1.12784E-03-7.93929E-14
 -1      3531 1.20656E-02 1.11358E-03-7.76175E-14
 -1      3532 1.19818E-02 1.06936E-03-7.69237E-14
 -1      3533 1.24943E-02 1.15629E-03-8.29763E-14
 -1      3534 1.23514E-02 1.14208E-03-8.11812E-14
 -1      3535 1.22676E-02 1.09786E-03-8.04831E-14
 -1      3536 1.27800E-02 1.18466E-03-8.65895E-14
 -1      3537 1.26371E-02 1.17048E-03-8.47788E-14
 -1      3538 1.25534E-02 1.12628E-03-8.40761E-14
 -1      3539 1.30658E-02 1.21297E-03-9.02359E-14
 -1      3540 1.29229E-02 1.19882E-03-8.84072E-14
 -1      3541 1.28391E-02 1.15462E-03-8.76982E-14
 -1      3542 1.33515E-02 1.24124E-03-9.39046E-14
 -1      3543 1.32086E-02 1.22711E-03-9.20694E-14
 -1      3544 1.31249E-02 1.18292E-03-9.13507E-14
 -1      3545 1.36373E-02 1.26949E-03-9.75975E-14
 -1      3546 1.34944E-02 1.25537E-03-9.57471E-14
 -1      3547 1.34107E-02 1.21118E-03-9.50294E-14
 -1      3548 1.39230E-02 1.29773E-03-1.01314E-13
 -1      3549 1.37801E-02 1.28361E-03-9.94508E-14
 -1      3550 1.36964E-02 1.23943E-03-9.87250E-14
 -1      3551 5.98358E-03 4.69341E-04-1.61091E-14
 -1      3552 5.83444E-03 4.74475E-04-1.51344E-14
 -1      3553 6.09873E-03 4.26965E-04-1.67252E-14
 -1      3554 1.42195E-02 1.29065E-03-1.05559E-13
 -1      3555 1.42374E-02 1.32672E-03-1.05451E-13
 -1      3556 1.41503E-02 1.32118E-03-1.04277E-13
 -1      3557 1.40888E-02 1.25753E-03-1.04048E-13
 -1      3558 2.01117E-03-2.77210E-04-3.01403E-15
 -1      3559 1.81223E-03-1.86181E-04-2.70290E-15
 -1      3560 2.08805E-03 4.13589E-04-2.78239E-15
 -1      3561 4.77471E-03 7.88577E-04-1.01288E-14
 -1      3562 1.38305E-02 8.98286E-04-1.03889E-13
 -1      3563 1.38443E-02 9.40455E-04-1.03687E-13
 -1      3564 6.02758E-03 1.83962E-04-1.60217E-14
 -1      3565 5.95315E-03 1.59173E-04-1.58928E-14
 -1      3566 4.96978E-03 6.76765E-04-1.08101E-14
 -1      3567 5.13809E-03 6.16994E-04-1.15149E-14
 -1      3568 1.34490E-03 1.26492E-04-2.05319E-15
 -1      3569 1.46362E-03 1.66413E-04-2.08901E-15
 -1      3570 6.82562E-03 5.15492E-04-2.24705E-14
 -1      3571 6.68763E-03 5.02183E-04-2.13496E-14
 -1      3572 6.90687E-03 4.90732E-04-2.31703E-14
 -1      3573 6.54948E-03 4.90500E-04-2.02522E-14
 -1      3574 6.41050E-03 4.80918E-04-1.91792E-14
 -1      3575 6.63845E-03 4.62916E-04-2.09271E-14
 -1      3576 5.30124E-03-1.87288E-04-1.49881E-14
 -1      3577 5.46917E-03-1.45465E-04-1.59576E-14
 -1      3578 5.61188E-03-7.27029E-05-1.64051E-14
 -1      3579 5.08795E-03-2.34275E-04-1.37336E-14
 -1      3580 1.31655E-03 2.29212E-04-1.21046E-15
 -1      3581 1.23758E-03 1.93380E-04-1.17635E-15
 -1      3582 1.44188E-03 2.53302E-04-1.43502E-15
 -1      3583 1.15768E-03 7.71169E-05-1.97960E-15
 -1      3584 8.35563E-04 1.96529E-05-9.81826E-16
 -1      3585 8.61171E-04 5.27525E-06-9.88318E-16
 -1      3586 9.88552E-04-2.15414E-08-1.23960E-15
 -1      3587 9.13208E-04 2.91949E-05-1.18024E-15
 -1      3588 1.87832E-03-2.92306E-04-2.59544E-15
 -1      3589 2.05505E-03-3.39616E-04-2.98539E-15
 -1      3590 5.75368E-03 3.83619E-04-1.40340E-14
 -1      3591 5.85950E-03 3.46096E-04-1.44545E-14
 -1      3592 2.50748E-03 6.60640E-04-3.20010E-15
 -1      3593 5.79165E-03 1.05584E-04-1.54507E-14
 -1      3594 5.58990E-03 3.38805E-05-1.48579E-14
 -1      3595 1.25754E-03 1.08380E-04-1.92513E-15
 -1      3596 5.42982E-03-5.49484E-05-1.46861E-14
 -1      3597 5.24877E-03-1.41614E-04-1.41512E-14
 -1      3598 1.27609E-03 3.13239E-05-2.11145E-15
 -1      3599 1.21199E-03 5.54267E-05-2.10000E-15
 -1      3600 5.32290E-03 5.68252E-04-1.23848E-14
 -1      3601 1.85931E-03 3.08665E-04-2.52790E-15
 -1      3602 1.93299E-03 3.72664E-04-2.41278E-15
 -1      3603 1.76456E-03 3.22210E-04-2.08301E-15
 -1      3604 1.66967E-03 2.40845E-04-2.27243E-15
 -1      3605 5.51229E-03 5.20491E-04-1.33052E-14
 -1      3606 5.47626E-03 4.99863E-04-1.29835E-14
 -1      3607 5.64211E-03 4.28494E-04-1.36117E-14
 -1      3608 5.67621E-03 4.99175E-04-1.42302E-14
 -1      3609 5.97021E-03 3.21964E-04-1.50607E-14
 -1      3610 6.06776E-03 3.05801E-04-1.56754E-14
 -1      3611 5.97840E-03 3.53142E-04-1.53966E-14
 -1      3612 1.38029E-02 8.14307E-04-1.04283E-13
 -1      3613 1.38166E-02 8.56296E-04-1.04087E-13
 -1      3614 1.36998E-02 8.65154E-04-1.02372E-13
 -1      3615 6.11745E-03 2.02706E-04-1.65544E-14
 -1      3616 9.56521E-04 5.62791E-05-1.32443E-15
 -1      3617 9.57807E-04 4.76548E-05-1.34033E-15
 -1      3618 1.51197E-03 1.98526E-04-2.00298E-15
 -1      3619 5.81195E-03 4.40566E-04-1.48175E-14
 -1      3620 1.37274E-02 9.49046E-04-1.01974E-13
 -1      3621 1.38581E-02 9.82357E-04-1.03484E-13
 -1      3622 1.38719E-02 1.02426E-03-1.03281E-13
 -1      3623 1.16757E-03-4.07101E-05-1.50173E-15
 -1      3624 1.22035E-03-7.77892E-05-1.50567E-15
 -1      3625 6.37034E-03 4.40709E-04-1.87782E-14
 -1      3626 1.40631E-02 1.31564E-03-1.03104E-13
 -1      3627 1.39487E-02 1.23962E-03-1.02256E-13
 -1      3628 1.39794E-02 1.27145E-03-1.02369E-13
 -1      3629 1.17749E-03 1.56613E-04-1.21238E-15
 -1      3630 1.37888E-02 7.47832E-04-1.04698E-13
 -1      3631 1.39208E-02 1.15530E-03-1.02701E-13
 -1      3632 1.39348E-02 1.19746E-03-1.02480E-13
 -1      3633 1.38253E-02 1.21139E-03-1.00810E-13
 -1      3634 5.59391E-03-1.78742E-05-1.56071E-14
 -1      3635 1.35255E-03-1.76696E-04-1.54981E-15
 -1      3636 1.53082E-03-2.21189E-04-1.86437E-15
 -1      3637 1.69394E-03-2.54294E-04-2.19512E-15
 -1      3638 1.30257E-03-1.29705E-04-1.55176E-15
 -1      3639 6.13489E-03 2.51794E-04-1.58764E-14
 -1      3640 6.19164E-03 2.44329E-04-1.65983E-14
 -1      3641 6.14339E-03 2.69530E-04-1.60501E-14
 -1      3642 5.76260E-03 4.18936E-04-1.43508E-14
 -1      3643 1.08014E-03 8.17464E-05-1.51628E-15
 -1      3644 1.04815E-03 6.99080E-05-1.53955E-15
 -1      3645 5.90831E-03 1.22967E-04-1.62349E-14
 -1      3646 1.66678E-03-2.13141E-04-2.22599E-15
 -1      3647 1.14398E-03 5.66863E-05-1.90816E-15
 -1      3648 1.40256E-03-1.22399E-04-1.80860E-15
 -1      3649 1.12029E-03 1.01322E-04-1.43504E-15
 -1      3650 1.10568E-03 7.13979E-05-1.77551E-15
 -1      3651 1.34950E-03 1.75059E-04-1.60978E-15
 -1      3652 1.53655E-03 2.44246E-04-1.76583E-15
 -1      3653 6.18368E-03 4.54213E-05-1.99704E-14
 -1      3654 6.32198E-03 5.92187E-05-2.10568E-14
 -1      3655 6.45875E-03 7.18054E-05-2.21674E-14
 -1      3656 6.59498E-03 8.37067E-05-2.32988E-14
 -1      3657 6.43125E-03 1.00813E-04-2.15469E-14
 -1      3658 6.73067E-03 9.49634E-05-2.44529E-14
 -1      3659 6.86635E-03 1.05847E-04-2.56313E-14
 -1      3660 6.69659E-03 1.22278E-04-2.38077E-14
 -1      3661 7.00204E-03 1.16441E-04-2.68325E-14
 -1      3662 7.13804E-03 1.26854E-04-2.80560E-14
 -1      3663 6.96261E-03 1.42991E-04-2.61601E-14
 -1      3664 7.27433E-03 1.37181E-04-2.93019E-14
 -1      3665 7.41108E-03 1.47459E-04-3.05710E-14
 -1      3666 7.23058E-03 1.63575E-04-2.86049E-14
 -1      3667 7.54823E-03 1.57779E-04-3.18624E-14
 -1      3668 7.68588E-03 1.68147E-04-3.31747E-14
 -1      3669 7.50099E-03 1.84379E-04-3.11377E-14
 -1      3670 7.82398E-03 1.78640E-04-3.45091E-14
 -1      3671 7.96256E-03 1.89247E-04-3.58649E-14
 -1      3672 7.77393E-03 2.05634E-04-3.37603E-14
 -1      3673 8.10156E-03 2.00030E-04-3.72426E-14
 -1      3674 8.24101E-03 2.10970E-04-3.86412E-14
 -1      3675 8.04926E-03 2.27493E-04-3.64675E-14
 -1      3676 8.38083E-03 2.22112E-04-4.00600E-14
 -1      3677 8.52103E-03 2.33434E-04-4.14987E-14
 -1      3678 8.32675E-03 2.50049E-04-3.92581E-14
 -1      3679 8.66156E-03 2.44965E-04-4.29560E-14
 -1      3680 8.80240E-03 2.56681E-04-4.44335E-14
 -1      3681 8.60608E-03 2.73339E-04-4.21298E-14
 -1      3682 8.94351E-03 2.68601E-04-4.59309E-14
 -1      3683 9.08488E-03 2.80700E-04-4.74470E-14
 -1      3684 8.88696E-03 2.97358E-04-4.50778E-14
 -1      3685 9.22646E-03 2.92988E-04-4.89813E-14
 -1      3686 9.36824E-03 3.05444E-04-5.05353E-14
 -1      3687 9.16909E-03 3.22068E-04-4.81035E-14
 -1      3688 9.51020E-03 3.18067E-04-5.21075E-14
 -1      3689 9.65230E-03 3.30840E-04-5.36969E-14
 -1      3690 9.45221E-03 3.47408E-04-5.12053E-14
 -1      3691 9.79454E-03 3.43759E-04-5.53020E-14
 -1      3692 9.93689E-03 3.56809E-04-5.69222E-14
 -1      3693 9.73611E-03 3.73307E-04-5.43778E-14
 -1      3694 1.00793E-02 3.69982E-04-5.85588E-14
 -1      3695 1.02219E-02 3.83266E-04-6.02098E-14
 -1      3696 1.00206E-02 3.99688E-04-5.76128E-14
 -1      3697 1.03645E-02 3.96652E-04-6.18769E-14
 -1      3698 1.05071E-02 4.10130E-04-6.35593E-14
 -1      3699 1.03055E-02 4.26477E-04-6.09100E-14
 -1      3700 1.06499E-02 4.23691E-04-6.52538E-14
 -1      3701 1.07926E-02 4.37327E-04-6.69625E-14
 -1      3702 1.05907E-02 4.53604E-04-6.42688E-14
 -1      3703 1.09354E-02 4.51029E-04-6.86841E-14
 -1      3704 1.10782E-02 4.64791E-04-7.04187E-14
 -1      3705 1.08762E-02 4.81004E-04-6.76810E-14
 -1      3706 1.12211E-02 4.78605E-04-7.21674E-14
 -1      3707 1.13639E-02 4.92466E-04-7.39240E-14
 -1      3708 1.11618E-02 5.08623E-04-7.11470E-14
 -1      3709 1.15068E-02 5.06367E-04-7.56872E-14
 -1      3710 1.16497E-02 5.20304E-04-7.74603E-14
 -1      3711 1.14475E-02 5.36412E-04-7.46560E-14
 -1      3712 1.17926E-02 5.34271E-04-7.92428E-14
 -1      3713 1.19355E-02 5.48266E-04-8.10325E-14
 -1      3714 1.17333E-02 5.64334E-04-7.81989E-14
 -1      3715 1.20784E-02 5.62283E-04-8.28270E-14
 -1      3716 1.22213E-02 5.76320E-04-8.46312E-14
 -1      3717 1.20190E-02 5.92355E-04-8.17762E-14
 -1      3718 1.23642E-02 5.90373E-04-8.64428E-14
 -1      3719 1.25071E-02 6.04441E-04-8.82600E-14
 -1      3720 1.23049E-02 6.20450E-04-8.53814E-14
 -1      3721 1.26500E-02 6.18520E-04-9.00865E-14
 -1      3722 1.27929E-02 6.32610E-04-9.19193E-14
 -1      3723 1.25907E-02 6.48599E-04-8.90154E-14
 -1      3724 1.29357E-02 6.46707E-04-9.37570E-14
 -1      3725 1.30786E-02 6.60811E-04-9.56009E-14
 -1      3726 1.28765E-02 6.76785E-04-9.26790E-14
 -1      3727 1.32215E-02 6.74919E-04-9.74516E-14
 -1      3728 1.33644E-02 6.89032E-04-9.93082E-14
 -1      3729 1.31623E-02 7.04996E-04-9.63628E-14
 -1      3730 1.11188E-03 8.52159E-06-1.56029E-15
 -1      3731 1.23762E-03-5.32775E-06-1.81882E-15
 -1      3732 7.51884E-03 5.34115E-04-2.86866E-14
 -1      3733 7.38362E-03 5.16990E-04-2.74512E-14
 -1      3734 6.46300E-03 4.13140E-04-1.94270E-14
 -1      3735 6.33424E-03 4.02198E-04-1.83759E-14
 -1      3736 7.24934E-03 5.00241E-04-2.62362E-14
 -1      3737 7.11593E-03 4.83870E-04-2.50443E-14
 -1      3738 7.31802E-03 4.78936E-04-2.69679E-14
 -1      3739 8.06739E-03 6.03973E-04-3.38424E-14
 -1      3740 7.92919E-03 5.86423E-04-3.25222E-14
 -1      3741 8.34546E-03 6.38845E-04-3.65430E-14
 -1      3742 8.20615E-03 6.21444E-04-3.51823E-14
 -1      3743 8.13032E-03 5.80314E-04-3.46453E-14
 -1      3744 8.62544E-03 6.73218E-04-3.93261E-14
 -1      3745 8.48523E-03 6.56099E-04-3.79243E-14
 -1      3746 8.40733E-03 6.14224E-04-3.73698E-14
 -1      3747 8.90692E-03 7.06916E-04-4.21861E-14
 -1      3748 8.76601E-03 6.90151E-04-4.07464E-14
 -1      3749 8.68651E-03 6.47679E-04-4.01757E-14
 -1      3750 9.18958E-03 7.39868E-04-4.51198E-14
 -1      3751 9.04812E-03 7.23483E-04-4.36445E-14
 -1      3752 8.96739E-03 6.80542E-04-4.30587E-14
 -1      3753 9.47313E-03 7.72072E-04-4.81252E-14
 -1      3754 9.33125E-03 7.56059E-04-4.66137E-14
 -1      3755 9.24960E-03 7.12760E-04-4.60128E-14
 -1      3756 9.75735E-03 8.03572E-04-5.12027E-14
 -1      3757 9.61517E-03 7.87905E-04-4.96545E-14
 -1      3758 9.53283E-03 7.44335E-04-4.90401E-14
 -1      3759 1.00421E-02 8.34439E-04-5.43433E-14
 -1      3760 9.89966E-03 8.19079E-04-5.27649E-14
 -1      3761 9.81683E-03 7.75310E-04-5.21375E-14
 -1      3762 1.03272E-02 8.64754E-04-5.75508E-14
 -1      3763 1.01846E-02 8.49659E-04-5.59389E-14
 -1      3764 1.01014E-02 8.05745E-04-5.53006E-14
 -1      3765 1.06125E-02 8.94604E-04-6.08188E-14
 -1      3766 1.04698E-02 8.79732E-04-5.91765E-14
 -1      3767 1.03864E-02 8.35715E-04-5.85267E-14
 -1      3768 1.08980E-02 9.24069E-04-6.41491E-14
 -1      3769 1.07552E-02 9.09379E-04-6.24762E-14
 -1      3770 1.06717E-02 8.65291E-04-6.18155E-14
 -1      3771 1.11836E-02 9.53222E-04-6.75386E-14
 -1      3772 1.10408E-02 9.38680E-04-6.58370E-14
 -1      3773 1.09571E-02 8.94544E-04-6.51660E-14
 -1      3774 1.14694E-02 9.82130E-04-7.09820E-14
 -1      3775 1.13265E-02 9.67704E-04-6.92530E-14
 -1      3776 1.12427E-02 9.23537E-04-6.85733E-14
 -1      3777 1.17551E-02 1.01085E-03-7.44713E-14
 -1      3778 1.16122E-02 9.96509E-04-7.27213E-14
 -1      3779 1.15285E-02 9.52323E-04-7.20324E-14
 -1      3780 1.20409E-02 1.03941E-03-7.80005E-14
 -1      3781 1.18980E-02 1.02515E-03-7.62310E-14
 -1      3782 1.18142E-02 9.80950E-04-7.55369E-14
 -1      3783 1.23267E-02 1.06787E-03-8.15728E-14
 -1      3784 1.21838E-02 1.05366E-03-7.97820E-14
 -1      3785 1.21000E-02 1.00946E-03-7.90808E-14
 -1      3786 1.26125E-02 1.09625E-03-8.51742E-14
 -1      3787 1.24696E-02 1.08207E-03-8.33701E-14
 -1      3788 1.23858E-02 1.03787E-03-8.26617E-14
 -1      3789 1.28983E-02 1.12457E-03-8.88065E-14
 -1      3790 1.27554E-02 1.11042E-03-8.69862E-14
 -1      3791 1.26716E-02 1.06622E-03-8.62730E-14
 -1      3792 1.31840E-02 1.15286E-03-9.24684E-14
 -1      3793 1.30411E-02 1.13872E-03-9.06329E-14
 -1      3794 1.29574E-02 1.09452E-03-8.99145E-14
 -1      3795 1.34698E-02 1.18111E-03-9.61491E-14
 -1      3796 1.33269E-02 1.16699E-03-9.43060E-14
 -1      3797 1.32432E-02 1.12279E-03-9.35812E-14
 -1      3798 1.37190E-02 1.20331E-03-9.94011E-14
 -1      3799 1.35761E-02 1.18919E-03-9.75494E-14
 -1      3800 1.34924E-02 1.14500E-03-9.68200E-14
 -1      3801 1.37051E-02 1.16115E-03-9.96254E-14
 -1      3802 1.36064E-02 7.15637E-04-1.02437E-13
 -1      3803 1.37373E-02 7.73254E-04-1.03741E-13
 -1      3804 1.36204E-02 7.82110E-04-1.02027E-13
 -1      3805 1.34893E-02 7.00007E-04-1.00945E-13
 -1      3806 5.74456E-03 6.90719E-06-1.65934E-14
 -1      3807 1.17711E-03 1.27055E-04-1.40533E-15
 -1      3808 7.79169E-03 5.68908E-04-3.12218E-14
 -1      3809 7.65485E-03 5.51420E-04-2.99429E-14
 -1      3810 7.58503E-03 5.12234E-04-2.94419E-14
 -1      3811 6.98357E-03 4.68108E-04-2.38743E-14
 -1      3812 6.85206E-03 4.52964E-04-2.27279E-14
 -1      3813 7.05570E-03 4.46920E-04-2.45809E-14
 -1      3814 6.22273E-03 2.22299E-04-1.73569E-14
 -1      3815 6.17813E-03 1.93851E-04-1.74929E-14
 -1      3816 1.08242E-03 6.31704E-05-1.73627E-15
 -1      3817 5.91013E-03 4.02655E-04-1.52570E-14
 -1      3818 6.72163E-03 4.38688E-04-2.16043E-14
 -1      3819 6.59184E-03 4.25332E-04-2.05030E-14
 -1      3820 6.79870E-03 4.16864E-04-2.22840E-14
 -1      3821 1.63164E-03 2.90745E-04-1.80951E-15
 -1      3822 1.67752E-03-1.77267E-04-2.35550E-15
 -1      3823 1.63701E-03-1.19988E-04-2.42704E-15
 -1      3824 1.36515E-03-2.72451E-05-2.05263E-15
 -1      3825 6.04900E-03 1.40087E-04-1.72744E-14
 -1      3826 5.89765E-03 8.60170E-05-1.68131E-14
 -1      3827 1.48558E-03-8.37835E-05-2.14638E-15
 -1      3828 1.08464E-03 5.21531E-05-1.70598E-15
 -1      3829 5.91000E-03 3.65399E-05-1.76441E-14
 -1      3830 6.04972E-03 5.24483E-05-1.86779E-14
 -1      3831 6.02253E-03 3.75752E-04-1.58799E-14
 -1      3832 1.02478E-03 4.07132E-05-1.49000E-15
 -1      3833 1.38857E-02 1.06616E-03-1.03075E-13
 -1      3834 1.38996E-02 1.10806E-03-1.02863E-13
 -1      3835 1.37550E-02 1.03285E-03-1.01567E-13
 -1      3836 1.37901E-02 1.12199E-03-1.01199E-13
 -1      3837 6.16594E-03 2.90660E-04-1.64018E-14
 -1      3838 6.24835E-03 2.80366E-04-1.71377E-14
 -1      3839 6.18707E-03 3.14875E-04-1.67535E-14
 -1      3840 1.34300E-02 7.30082E-04-9.98487E-14
 -1      3841 1.06274E-03 2.73222E-05-1.52562E-15
 -1      3842 1.35968E-02 9.15868E-04-1.00467E-13
 -1      3843 1.36106E-02 9.57770E-04-1.00266E-13
 -1      3844 7.85602E-03 5.46194E-04-3.20017E-14
 -1      3845 6.31032E-03 1.92770E-04-1.89313E-14
 -1      3846 6.18522E-03 1.68478E-04-1.80961E-14
 -1      3847 6.19219E-03 1.39072E-04-1.87035E-14
 -1      3848 6.15085E-03 3.81819E-04-1.68730E-14
 -1      3849 6.26575E-03 2.40394E-04-1.75447E-14
 -1      3850 6.34051E-03 2.34917E-04-1.85084E-14
 -1      3851 6.29880E-03 2.57774E-04-1.77295E-14
 -1      3852 6.16996E-03 9.77212E-05-1.91419E-14
 -1      3853 6.24913E-03 3.53830E-04-1.74909E-14
 -1      3854 1.50620E-03-1.52447E-04-1.97925E-15
 -1      3855 6.54746E-03 3.89427E-04-2.00799E-14
 -1      3856 1.35692E-02 8.31888E-04-1.00860E-13
 -1      3857 1.35830E-02 8.73878E-04-1.00665E-13
 -1      3858 1.34661E-02 8.82602E-04-9.89603E-14
 -1      3859 1.41001E-03-9.04521E-05-1.92411E-15
 -1      3860 1.38380E-03-5.90966E-05-1.96827E-15
 -1      3861 6.66401E-03 1.48444E-04-2.31654E-14
 -1      3862 6.79373E-03 1.58369E-04-2.43164E-14
 -1      3863 6.92408E-03 1.68435E-04-2.54916E-14
 -1      3864 7.05536E-03 1.78590E-04-2.66901E-14
 -1      3865 6.88619E-03 1.92740E-04-2.48258E-14
 -1      3866 7.18741E-03 1.88922E-04-2.79094E-14
 -1      3867 7.32038E-03 1.99369E-04-2.91523E-14
 -1      3868 7.14459E-03 2.13191E-04-2.72179E-14
 -1      3869 7.45416E-03 2.10010E-04-3.04166E-14
 -1      3870 7.58880E-03 2.20780E-04-3.17036E-14
 -1      3871 7.40754E-03 2.34644E-04-2.96991E-14
 -1      3872 7.72420E-03 2.31750E-04-3.30135E-14
 -1      3873 7.86037E-03 2.42864E-04-3.43432E-14
 -1      3874 7.67462E-03 2.56964E-04-3.22684E-14
 -1      3875 7.99723E-03 2.54180E-04-3.56931E-14
 -1      3876 8.13477E-03 2.65648E-04-3.70661E-14
 -1      3877 7.94534E-03 2.80065E-04-3.49241E-14
 -1      3878 8.27290E-03 2.77314E-04-3.84601E-14
 -1      3879 8.41160E-03 2.89136E-04-3.98731E-14
 -1      3880 8.21918E-03 3.03884E-04-3.76635E-14
 -1      3881 8.55081E-03 3.01146E-04-4.13065E-14
 -1      3882 8.69049E-03 3.13309E-04-4.27576E-14
 -1      3883 8.49566E-03 3.28362E-04-4.04855E-14
 -1      3884 8.83058E-03 3.25646E-04-4.42282E-14
 -1      3885 8.97106E-03 3.38127E-04-4.57195E-14
 -1      3886 8.77432E-03 3.53441E-04-4.33840E-14
 -1      3887 9.11187E-03 3.50766E-04-4.72315E-14
 -1      3888 9.25299E-03 3.63536E-04-4.87601E-14
 -1      3889 9.05476E-03 3.79061E-04-4.63598E-14
 -1      3890 9.39436E-03 3.76445E-04-5.03076E-14
 -1      3891 9.53598E-03 3.89471E-04-5.18744E-14
 -1      3892 9.33661E-03 4.05159E-04-4.94144E-14
 -1      3893 9.67779E-03 4.02617E-04-5.34562E-14
 -1      3894 9.81979E-03 4.15865E-04-5.50550E-14
 -1      3895 9.61956E-03 4.31673E-04-5.25399E-14
 -1      3896 9.96193E-03 4.29213E-04-5.66705E-14
 -1      3897 1.01042E-02 4.42648E-04-5.83001E-14
 -1      3898 9.90335E-03 4.58541E-04-5.57308E-14
 -1      3899 1.02466E-02 4.56167E-04-5.99468E-14
 -1      3900 1.03891E-02 4.69757E-04-6.16093E-14
 -1      3901 1.01878E-02 4.85706E-04-5.89873E-14
 -1      3902 1.05317E-02 4.83416E-04-6.32839E-14
 -1      3903 1.06743E-02 4.97134E-04-6.49745E-14
 -1      3904 1.04727E-02 5.13118E-04-6.23029E-14
 -1      3905 1.08170E-02 5.10907E-04-6.66801E-14
 -1      3906 1.09598E-02 5.24727E-04-6.83967E-14
 -1      3907 1.07579E-02 5.40729E-04-6.56788E-14
 -1      3908 1.11026E-02 5.38590E-04-7.01288E-14
 -1      3909 1.12454E-02 5.52490E-04-7.18722E-14
 -1      3910 1.10434E-02 5.68499E-04-6.91130E-14
 -1      3911 1.13882E-02 5.66424E-04-7.36243E-14
 -1      3912 1.15311E-02 5.80387E-04-7.53847E-14
 -1      3913 1.13290E-02 5.96396E-04-7.25930E-14
 -1      3914 1.16740E-02 5.94375E-04-7.71567E-14
 -1      3915 1.18168E-02 6.08385E-04-7.89374E-14
 -1      3916 1.16147E-02 6.24389E-04-7.61151E-14
 -1      3917 1.19597E-02 6.22415E-04-8.07241E-14
 -1      3918 1.21026E-02 6.36461E-04-8.25172E-14
 -1      3919 1.19005E-02 6.52457E-04-7.96714E-14
 -1      3920 1.22456E-02 6.50520E-04-8.43199E-14
 -1      3921 1.23885E-02 6.64592E-04-8.61292E-14
 -1      3922 1.21863E-02 6.80581E-04-8.32584E-14
 -1      3923 1.25314E-02 6.78674E-04-8.79452E-14
 -1      3924 1.26743E-02 6.92765E-04-8.97702E-14
 -1      3925 1.24721E-02 7.08745E-04-8.68753E-14
 -1      3926 1.28172E-02 7.06862E-04-9.15977E-14
 -1      3927 1.29601E-02 7.20965E-04-9.34325E-14
 -1      3928 1.27579E-02 7.36938E-04-9.05177E-14
 -1      3929 1.31030E-02 7.35073E-04-9.52775E-14
 -1      3930 1.32459E-02 7.49185E-04-9.71237E-14
 -1      3931 1.30437E-02 7.65151E-04-9.41888E-14
 -1      3932 7.91852E-03 5.23613E-04-3.27842E-14
 -1      3933 7.78312E-03 5.07080E-04-3.14809E-14
 -1      3934 8.46822E-03 5.89562E-04-3.81994E-14
 -1      3935 8.32972E-03 5.73145E-04-3.68146E-14
 -1      3936 8.19190E-03 5.56678E-04-3.54506E-14
 -1      3937 8.05479E-03 5.40135E-04-3.41072E-14
 -1      3938 8.25227E-03 5.32881E-04-3.62603E-14
 -1      3939 9.02736E-03 6.54080E-04-4.39328E-14
 -1      3940 8.88691E-03 6.38133E-04-4.24720E-14
 -1      3941 9.30929E-03 6.85560E-04-4.69088E-14
 -1      3942 9.16817E-03 6.69883E-04-4.54114E-14
 -1      3943 9.08689E-03 6.27452E-04-4.48103E-14
 -1      3944 9.59232E-03 7.16510E-04-4.99583E-14
 -1      3945 9.45068E-03 7.01097E-04-4.84243E-14
 -1      3946 9.36867E-03 6.58211E-04-4.78088E-14
 -1      3947 9.87617E-03 7.46966E-04-5.30774E-14
 -1      3948 9.73415E-03 7.31795E-04-5.15097E-14
 -1      3949 9.65159E-03 6.88556E-04-5.08802E-14
 -1      3950 1.01606E-02 7.76981E-04-5.62616E-14
 -1      3951 1.00183E-02 7.62024E-04-5.46613E-14
 -1      3952 9.93538E-03 7.18513E-04-5.40231E-14
 -1      3953 1.04456E-02 8.06615E-04-5.95069E-14
 -1      3954 1.03030E-02 7.91841E-04-5.78760E-14
 -1      3955 1.02198E-02 7.48126E-04-5.72265E-14
 -1      3956 1.07308E-02 8.35928E-04-6.28164E-14
 -1      3957 1.05881E-02 8.21307E-04-6.11546E-14
 -1      3958 1.05047E-02 7.77440E-04-6.04916E-14
 -1      3959 1.10163E-02 8.64978E-04-6.61855E-14
 -1      3960 1.08735E-02 8.50482E-04-6.44945E-14
 -1      3961 1.07899E-02 8.06505E-04-6.38226E-14
 -1      3962 1.13019E-02 8.93817E-04-6.96115E-14
 -1      3963 1.11590E-02 8.79421E-04-6.78929E-14
 -1      3964 1.10754E-02 8.35365E-04-6.72102E-14
 -1      3965 1.15876E-02 9.22490E-04-7.30872E-14
 -1      3966 1.14447E-02 9.08172E-04-7.13424E-14
 -1      3967 1.13610E-02 8.64061E-04-7.06528E-14
 -1      3968 1.18733E-02 9.51034E-04-7.66048E-14
 -1      3969 1.17305E-02 9.36776E-04-7.48406E-14
 -1      3970 1.16467E-02 8.92629E-04-7.41426E-14
 -1      3971 1.21591E-02 9.79481E-04-8.01619E-14
 -1      3972 1.20162E-02 9.65268E-04-7.83786E-14
 -1      3973 1.19325E-02 9.21097E-04-7.76752E-14
 -1      3974 1.24449E-02 1.00786E-03-8.37512E-14
 -1      3975 1.23020E-02 9.93676E-04-8.19535E-14
 -1      3976 1.22183E-02 9.49491E-04-8.12439E-14
 -1      3977 1.27308E-02 1.03618E-03-8.73717E-14
 -1      3978 1.25878E-02 1.02202E-03-8.55582E-14
 -1      3979 1.25041E-02 9.77830E-04-8.48413E-14
 -1      3980 1.30166E-02 1.06446E-03-9.10216E-14
 -1      3981 1.28737E-02 1.05032E-03-8.91923E-14
 -1      3982 1.27899E-02 1.00613E-03-8.84695E-14
 -1      3983 1.33023E-02 1.09273E-03-9.46918E-14
 -1      3984 1.31595E-02 1.07860E-03-9.28543E-14
 -1      3985 1.30757E-02 1.03440E-03-9.21261E-14
 -1      3986 6.86984E-03 3.96968E-04-2.29667E-14
 -1      3987 6.74573E-03 3.82670E-04-2.18391E-14
 -1      3988 7.12343E-03 4.26844E-04-2.52897E-14
 -1      3989 6.99572E-03 4.11632E-04-2.41176E-14
 -1      3990 6.93546E-03 3.78013E-04-2.36520E-14
 -1      3991 6.31267E-03 1.30261E-04-2.00028E-14
 -1      3992 1.35036E-02 7.90834E-04-1.00322E-13
 -1      3993 6.42298E-03 1.34303E-04-2.10089E-14
 -1      3994 6.55100E-03 1.44006E-04-2.21172E-14
 -1      3995 6.64761E-03 1.78478E-04-2.26062E-14
 -1      3996 6.43135E-03 1.70680E-04-2.05505E-14
 -1      3997 1.33787E-02 7.79858E-04-9.86875E-14
 -1      3998 6.34922E-03 3.37831E-04-1.82524E-14
 -1      3999 1.34937E-02 9.66493E-04-9.85607E-14
 -1      4000 1.36244E-02 9.99671E-04-1.00062E-13
 -1      4001 1.36382E-02 1.04157E-03-9.98560E-14
 -1      4002 7.64875E-03 4.90668E-04-3.01993E-14
 -1      4003 7.51546E-03 4.74334E-04-2.89404E-14
 -1      4004 7.71027E-03 4.69084E-04-3.09610E-14
 -1      4005 1.36610E-02 1.07774E-03-9.98262E-14
 -1      4006 1.36823E-02 1.12498E-03-9.96630E-14
 -1      4007 1.35759E-02 1.11691E-03-9.82590E-14
 -1      4008 1.35303E-02 1.04456E-03-9.83264E-14
 -1      4009 6.62389E-03 3.69035E-04-2.07363E-14
 -1      4010 6.50401E-03 3.55801E-04-1.96563E-14
 -1      4011 6.69252E-03 3.50449E-04-2.13948E-14
 -1      4012 7.38342E-03 4.58249E-04-2.77021E-14
 -1      4013 7.25266E-03 4.42347E-04-2.64842E-14
 -1      4014 7.44583E-03 4.37718E-04-2.84379E-14
 -1      4015 8.74687E-03 6.22067E-04-4.10275E-14
 -1      4016 8.60728E-03 6.05862E-04-3.96041E-14
 -1      4017 8.80659E-03 5.96277E-04-4.18837E-14
 -1      4018 6.42367E-03 3.19105E-04-1.88793E-14
 -1      4019 1.33195E-02 8.09936E-04-9.75935E-14
 -1      4020 7.97938E-03 5.00918E-04-3.35694E-14
 -1      4021 6.39913E-03 2.21307E-04-1.93859E-14
 -1      4022 6.42333E-03 1.98953E-04-2.00169E-14
 -1      4023 7.18713E-03 4.07221E-04-2.60007E-14
 -1      4024 1.34696E-02 1.10883E-03-9.68581E-14
 -1      4025 6.34121E-03 2.76770E-04-1.81001E-14
 -1      4026 1.33859E-02 1.06463E-03-9.61251E-14
 -1      4027 1.33631E-02 9.33316E-04-9.70591E-14
 -1      4028 1.33769E-02 9.75216E-04-9.68560E-14
 -1      4029 8.52822E-03 5.64723E-04-3.90327E-14
 -1      4030 6.44658E-03 2.41916E-04-1.95845E-14
 -1      4031 1.33344E-02 8.50631E-04-9.74270E-14
 -1      4032 1.33482E-02 8.92620E-04-9.72314E-14
 -1      4033 1.32313E-02 9.01344E-04-9.55321E-14
 -1      4034 1.32015E-02 8.19956E-04-9.58701E-14
 -1      4035 7.10154E-03 2.36283E-04-2.65289E-14
 -1      4036 7.23048E-03 2.47088E-04-2.77453E-14
 -1      4037 7.36069E-03 2.58241E-04-2.89844E-14
 -1      4038 7.49222E-03 2.69610E-04-3.02454E-14
 -1      4039 7.31332E-03 2.80767E-04-2.82730E-14
 -1      4040 7.62485E-03 2.81257E-04-3.15291E-14
 -1      4041 7.75860E-03 2.93084E-04-3.28333E-14
 -1      4042 7.57466E-03 3.04607E-04-3.07915E-14
 -1      4043 7.89330E-03 3.05140E-04-3.41595E-14
 -1      4044 8.02893E-03 3.17347E-04-3.55056E-14
 -1      4045 7.84094E-03 3.29384E-04-3.33967E-14
 -1      4046 8.16536E-03 3.29749E-04-3.68723E-14
 -1      4047 8.30258E-03 3.42280E-04-3.82613E-14
 -1      4048 8.11132E-03 3.54891E-04-3.60865E-14
 -1      4049 8.44046E-03 3.54975E-04-3.96691E-14
 -1      4050 8.57898E-03 3.67783E-04-4.10962E-14
 -1      4051 8.38511E-03 3.80969E-04-3.88554E-14
 -1      4052 8.71805E-03 3.80731E-04-4.25428E-14
 -1      4053 8.85764E-03 3.93776E-04-4.40074E-14
 -1      4054 8.66169E-03 4.07498E-04-4.17046E-14
 -1      4055 8.99766E-03 4.06940E-04-4.54935E-14
 -1      4056 9.13810E-03 4.20189E-04-4.70003E-14
 -1      4057 8.94052E-03 4.34386E-04-4.46316E-14
 -1      4058 9.27888E-03 4.33536E-04-4.85233E-14
 -1      4059 9.41999E-03 4.46957E-04-5.00655E-14
 -1      4060 9.22114E-03 4.61561E-04-4.76362E-14
 -1      4061 9.56136E-03 4.60460E-04-5.16271E-14
 -1      4062 9.70298E-03 4.74025E-04-5.32026E-14
 -1      4063 9.50317E-03 4.88965E-04-5.07161E-14
 -1      4064 9.84481E-03 4.87659E-04-5.47955E-14
 -1      4065 9.98682E-03 5.01344E-04-5.64055E-14
 -1      4066 9.78628E-03 5.16555E-04-5.38650E-14
 -1      4067 1.01290E-02 5.15085E-04-5.80307E-14
 -1      4068 1.02713E-02 5.28869E-04-5.96722E-14
 -1      4069 1.00702E-02 5.44292E-04-5.70778E-14
 -1      4070 1.04137E-02 5.42697E-04-6.13281E-14
 -1      4071 1.05562E-02 5.56561E-04-6.29972E-14
 -1      4072 1.03548E-02 5.72147E-04-6.03547E-14
 -1      4073 1.06988E-02 5.70460E-04-6.46830E-14
 -1      4074 1.08415E-02 5.84388E-04-6.63843E-14
 -1      4075 1.06397E-02 6.00095E-04-6.36901E-14
 -1      4076 1.09842E-02 5.98344E-04-6.80984E-14
 -1      4077 1.11269E-02 6.12322E-04-6.98260E-14
 -1      4078 1.09250E-02 6.28118E-04-6.70864E-14
 -1      4079 1.12697E-02 6.26322E-04-7.15650E-14
 -1      4080 1.14126E-02 6.40339E-04-7.33132E-14
 -1      4081 1.12105E-02 6.56197E-04-7.05355E-14
 -1      4082 1.15554E-02 6.54373E-04-7.50717E-14
 -1      4083 1.16983E-02 6.68420E-04-7.68427E-14
 -1      4084 1.14962E-02 6.84321E-04-7.40304E-14
 -1      4085 1.18412E-02 6.82480E-04-7.86181E-14
 -1      4086 1.19841E-02 6.96550E-04-8.04025E-14
 -1      4087 1.17819E-02 7.12479E-04-7.75638E-14
 -1      4088 1.21270E-02 7.10628E-04-8.21968E-14
 -1      4089 1.22699E-02 7.24715E-04-8.39957E-14
 -1      4090 1.20677E-02 7.40661E-04-8.11334E-14
 -1      4091 1.24128E-02 7.38808E-04-8.58048E-14
 -1      4092 1.25557E-02 7.52907E-04-8.76202E-14
 -1      4093 1.23536E-02 7.68863E-04-8.47327E-14
 -1      4094 1.26986E-02 7.67010E-04-8.94391E-14
 -1      4095 1.28416E-02 7.81117E-04-9.12648E-14
 -1      4096 1.26394E-02 7.97077E-04-8.83592E-14
 -1      4097 1.29501E-02 7.93478E-04-9.26427E-14
 -1      4098 1.30930E-02 8.07591E-04-9.44838E-14
 -1      4099 1.31079E-02 8.48283E-04-9.43168E-14
 -1      4100 1.28908E-02 8.23552E-04-9.15561E-14
 -1      4101 6.48259E-03 2.93642E-04-1.94988E-14
 -1      4102 7.24715E-03 3.87788E-04-2.67146E-14
 -1      4103 7.12057E-03 3.73469E-04-2.55167E-14
 -1      4104 6.52602E-03 2.02513E-04-2.10254E-14
 -1      4105 9.42778E-03 6.30694E-04-4.87122E-14
 -1      4106 9.28673E-03 6.15698E-04-4.71927E-14
 -1      4107 9.14601E-03 6.00632E-04-4.56902E-14
 -1      4108 9.00566E-03 5.85485E-04-4.42077E-14
 -1      4109 9.20480E-03 5.73569E-04-4.65747E-14
 -1      4110 9.99448E-03 6.89940E-04-5.49701E-14
 -1      4111 9.85249E-03 6.75231E-04-5.33801E-14
 -1      4112 1.02789E-02 7.19172E-04-5.81951E-14
 -1      4113 1.01366E-02 7.04585E-04-5.65755E-14
 -1      4114 1.00535E-02 6.61228E-04-5.59226E-14
 -1      4115 1.05638E-02 7.48186E-04-6.14813E-14
 -1      4116 1.04213E-02 7.33704E-04-5.98294E-14
 -1      4117 1.03380E-02 6.90107E-04-5.91668E-14
 -1      4118 1.08491E-02 7.77019E-04-6.48305E-14
 -1      4119 1.07064E-02 7.62623E-04-6.31485E-14
 -1      4120 1.06229E-02 7.18845E-04-6.24741E-14
 -1      4121 1.11345E-02 8.05703E-04-6.82371E-14
 -1      4122 1.09918E-02 7.91378E-04-6.65271E-14
 -1      4123 1.09082E-02 7.47466E-04-6.58426E-14
 -1      4124 1.14201E-02 8.34268E-04-7.16948E-14
 -1      4125 1.12773E-02 8.19999E-04-6.99596E-14
 -1      4126 1.11937E-02 7.75990E-04-6.92651E-14
 -1      4127 1.17059E-02 8.62740E-04-7.52008E-14
 -1      4128 1.15630E-02 8.48514E-04-7.34432E-14
 -1      4129 1.14793E-02 8.04437E-04-7.27404E-14
 -1      4130 1.19916E-02 8.91140E-04-7.87452E-14
 -1      4131 1.18488E-02 8.76948E-04-7.69677E-14
 -1      4132 1.17650E-02 8.32823E-04-7.62600E-14
 -1      4133 1.22775E-02 9.19487E-04-8.23222E-14
 -1      4134 1.21346E-02 9.05320E-04-8.05303E-14
 -1      4135 1.20508E-02 8.61163E-04-7.98152E-14
 -1      4136 1.25633E-02 9.47794E-04-8.59315E-14
 -1      4137 1.24204E-02 9.33645E-04-8.41243E-14
 -1      4138 1.23366E-02 8.89469E-04-8.34031E-14
 -1      4139 1.28491E-02 9.76074E-04-8.95674E-14
 -1      4140 1.27062E-02 9.61937E-04-8.77458E-14
 -1      4141 1.26225E-02 9.17749E-04-8.70199E-14
 -1      4142 8.03875E-03 4.78022E-04-3.43576E-14
 -1      4143 7.90372E-03 4.62634E-04-3.30303E-14
 -1      4144 6.99609E-03 3.59626E-04-2.43407E-14
 -1      4145 6.87384E-03 3.46007E-04-2.31868E-14
 -1      4146 7.05244E-03 3.41078E-04-2.50312E-14
 -1      4147 6.63043E-03 3.15032E-04-2.09017E-14
 -1      4148 6.52490E-03 2.72754E-04-2.00802E-14
 -1      4149 6.59754E-03 2.60543E-04-2.09918E-14
 -1      4150 6.74662E-03 3.27700E-04-2.20071E-14
 -1      4151 1.33631E-02 1.02846E-03-9.61573E-14
 -1      4152 8.58742E-03 5.39658E-04-3.98677E-14
 -1      4153 8.44913E-03 5.24265E-04-3.84611E-14
 -1      4154 8.31154E-03 5.08860E-04-3.70726E-14
 -1      4155 8.17471E-03 4.93421E-04-3.57055E-14
 -1      4156 8.36989E-03 4.84490E-04-3.78889E-14
 -1      4157 7.76977E-03 4.47359E-04-3.17254E-14
 -1      4158 7.63698E-03 4.32154E-04-3.04401E-14
 -1      4159 7.82758E-03 4.25267E-04-3.24914E-14
 -1      4160 7.50554E-03 4.17162E-04-2.91766E-14
 -1      4161 7.37551E-03 4.02309E-04-2.79346E-14
 -1      4162 7.30409E-03 3.68079E-04-2.74313E-14
 -1      4163 7.56296E-03 3.96266E-04-2.99187E-14
 -1      4164 8.86575E-03 5.70275E-04-4.27424E-14
 -1      4165 8.72631E-03 5.54989E-04-4.12944E-14
 -1      4166 8.92442E-03 5.43992E-04-4.36032E-14
 -1      4167 9.71069E-03 6.60457E-04-5.18065E-14
 -1      4168 9.56911E-03 6.45610E-04-5.02499E-14
 -1      4169 9.48665E-03 6.02971E-04-4.96201E-14
 -1      4170 9.76965E-03 6.32189E-04-5.27371E-14
 -1      4171 6.84826E-03 2.15684E-04-2.41638E-14
 -1      4172 6.97416E-03 2.25748E-04-2.53352E-14
 -1      4173 7.05790E-03 2.58143E-04-2.58432E-14
 -1      4174 1.32324E-02 9.95285E-04-9.46639E-14
 -1      4175 1.31228E-02 8.88975E-04-9.41476E-14
 -1      4176 6.61247E-03 2.32638E-04-2.14988E-14
 -1      4177 6.63135E-03 2.06803E-04-2.20521E-14
 -1      4178 6.73937E-03 2.11293E-04-2.31002E-14
 -1      4179 6.82404E-03 2.42389E-04-2.35899E-14
 -1      4180 8.09685E-03 4.54759E-04-3.51486E-14
 -1      4181 1.31349E-02 1.00433E-03-9.32283E-14
 -1      4182 1.29920E-02 9.90205E-04-9.13940E-14
 -1      4183 6.80118E-03 3.10292E-04-2.26704E-14
 -1      4184 8.64595E-03 5.14275E-04-4.07066E-14
 -1      4185 1.31487E-02 9.51090E-04-9.39254E-14
 -1      4186 1.29083E-02 9.46012E-04-9.06621E-14
 -1      4187 1.30253E-02 8.98028E-04-9.27188E-14
 -1      4188 6.70068E-03 2.66323E-04-2.20204E-14
 -1      4189 8.10557E-03 4.05109E-04-3.56233E-14
 -1      4190 7.97040E-03 3.91302E-04-3.42756E-14
 -1      4191 7.57146E-03 3.50899E-04-3.03606E-14
 -1      4192 7.70323E-03 3.64155E-04-3.16445E-14
 -1      4193 7.83625E-03 3.77686E-04-3.29488E-14
 -1      4194 8.24166E-03 4.18968E-04-3.69898E-14
 -1      4195 8.37859E-03 4.32955E-04-3.83771E-14
 -1      4196 8.51626E-03 4.46968E-04-3.97842E-14
 -1      4197 8.65461E-03 4.61066E-04-4.12102E-14
 -1      4198 8.79355E-03 4.75172E-04-4.26558E-14
 -1      4199 8.93303E-03 4.89332E-04-4.41205E-14
 -1      4200 9.07299E-03 5.03489E-04-4.56056E-14
 -1      4201 9.21336E-03 5.17678E-04-4.71093E-14
 -1      4202 9.35410E-03 5.31859E-04-4.86312E-14
 -1      4203 9.49518E-03 5.46057E-04-5.01714E-14
 -1      4204 9.63653E-03 5.60245E-04-5.17290E-14
 -1      4205 9.77813E-03 5.74441E-04-5.33041E-14
 -1      4206 9.91995E-03 5.88626E-04-5.48950E-14
 -1      4207 1.00620E-02 6.02814E-04-5.65038E-14
 -1      4208 1.02041E-02 6.16992E-04-5.81266E-14
 -1      4209 1.03464E-02 6.31168E-04-5.97637E-14
 -1      4210 1.04888E-02 6.45336E-04-6.14169E-14
 -1      4211 1.06313E-02 6.59501E-04-6.30847E-14
 -1      4212 1.07739E-02 6.73660E-04-6.47676E-14
 -1      4213 1.09166E-02 6.87815E-04-6.64680E-14
 -1      4214 1.10593E-02 7.01964E-04-6.81792E-14
 -1      4215 1.12021E-02 7.16110E-04-6.99025E-14
 -1      4216 1.13449E-02 7.30252E-04-7.16409E-14
 -1      4217 1.14877E-02 7.44391E-04-7.33898E-14
 -1      4218 1.16306E-02 7.58527E-04-7.51486E-14
 -1      4219 1.17735E-02 7.72659E-04-7.69168E-14
 -1      4220 1.19164E-02 7.86790E-04-7.86936E-14
 -1      4221 1.20593E-02 8.00918E-04-8.04786E-14
 -1      4222 1.22022E-02 8.15045E-04-8.22717E-14
 -1      4223 1.23451E-02 8.29169E-04-8.40727E-14
 -1      4224 1.24880E-02 8.43293E-04-8.58818E-14
 -1      4225 1.26309E-02 8.57415E-04-8.76957E-14
 -1      4226 1.27738E-02 8.71537E-04-8.95150E-14
 -1      4227 1.28824E-02 8.83907E-04-9.08893E-14
 -1      4228 6.82884E-03 2.82513E-04-2.32013E-14
 -1      4229 7.05982E-03 3.00422E-04-2.54437E-14
 -1      4230 7.18509E-03 3.12459E-04-2.66391E-14
 -1      4231 6.93669E-03 2.88570E-04-2.42700E-14
 -1      4232 7.44108E-03 3.37771E-04-2.90979E-14
 -1      4233 7.31223E-03 3.25028E-04-2.78577E-14
 -3
    1PSTEP                         2           1           1          
  100CL  101 1.000000000        4233                     0    1           1
 -4  STRESS      6    1
 -5  SXX         1    4    1    1
 -5  SYY         1    4    2    2
 -5  SZZ         1    4    3    3
 -5  SXY         1    4    1    2
 -5  SYZ         1    4    2    3
 -5  SZX         1    4    3    1
 -1         1 6.60920E+01 9.64906E-01 3.54860E+00 2.08688E-01-5.80716E-14 2.57107E-13
 -1         2-7.69177E-01-2.43254E+01-3.37340E+00-4.68103E-02 7.45556E-13 2.93481E-14
 -1         3 1.99998E+01 4.05091E-05-9.38332E-05 4.02511E-05-3.96587E-13-4.71514E-13
 -1         4 1.99998E+01 3.63307E-05-9.73677E-05-3.68462E-05 4.47135E-14 1.74079E-13
 -1         5 3.51739E+01 6.64869E+00 2.67846E+00 6.29442E+00-4.03844E-14 2.76044E-12
 -1         6 3.78234E+01 1.28804E+01 5.11098E+00-8.79462E+00-1.67755E-13 2.27474E-12
 -1         7 2.31968E+01 6.75703E+00-1.35481E-02-4.32136E+00-2.38976E-14 2.99510E-13
 -1         8 2.14957E+01 6.46966E+00 1.08835E-01-2.45536E+00-2.24473E-14-2.59354E-13
 -1         9 2.02756E+01 6.11013E+00 8.23045E-02-1.45791E+00-2.13926E-14-5.50571E-13
 -1        10 1.92409E+01 5.79679E+00 6.50428E-02-7.43843E-01-1.06790E-14-6.78462E-13
 -1        11 1.82819E+01 5.50747E+00 4.33431E-02-2.25313E-01-8.24341E-15-7.38012E-13
 -1        12 1.74209E+01 5.24818E+00 1.70588E-02 1.07109E-01 1.24900E-16-7.59437E-13
 -1        13 1.66967E+01 5.03110E+00-1.07837E-02 2.68211E-01 3.06352E-15-7.65197E-13
 -1        14 1.62215E+01 4.88905E+00-3.31293E-02 2.76851E-01 5.15560E-15-7.52218E-13
 -1        15 1.60835E+01 4.84812E+00-4.33470E-02 1.91227E-01 8.52530E-15-7.39193E-13
 -1        16 1.63282E+01 4.92186E+00-3.78357E-02 9.62067E-02 1.29514E-14-7.00296E-13
 -1        17 1.69419E+01 5.10577E+00-1.78364E-02 8.45166E-02 1.72432E-14-6.39572E-13
 -1        18 1.78391E+01 5.37568E+00 1.09062E-02 2.29343E-01 2.13787E-14-5.38965E-13
 -1        19 1.89680E+01 5.71526E+00 4.34555E-02 5.92779E-01 2.99830E-14-3.86338E-13
 -1        20 2.02524E+01 6.10260E+00 7.60758E-02 1.22184E+00 3.51177E-14-1.31384E-13
 -1        21 2.17231E+01 6.54616E+00 1.17427E-01 2.21179E+00 3.56867E-14 3.04335E-13
 -1        22 2.38575E+01 7.10814E+00 2.42364E-01 3.91900E+00 5.07927E-15 1.11030E-12
 -1        23 2.58947E+01-1.53934E+00-1.02038E+00-5.64912E-01-1.14228E-13 1.69890E-12
 -1        24 2.30107E+01-9.39765E-02-2.93097E-01 1.00109E-01-3.12380E-14 1.19475E-12
 -1        25 2.28699E+01-4.30820E-02-4.28185E-02 7.73262E-02-2.29153E-14 7.32022E-13
 -1        26 2.29493E+01-3.95834E-03 2.43086E-02 3.90773E-02-1.03375E-14 4.21194E-13
 -1        27 2.29126E+01 1.12637E-02 4.17005E-02 1.42148E-02 6.08151E-15 2.12721E-13
 -1        28 2.25453E+01 1.89139E-02 4.94671E-02-1.44119E-02-1.48989E-14 9.85444E-14
 -1        29 2.17214E+01 1.74783E-02 4.49388E-02-4.63594E-02 9.32197E-15 7.66748E-16
 -1        30 2.04713E+01 5.60132E-03 2.04026E-02-7.25351E-02-9.52336E-15-1.93314E-13
 -1        31 1.90443E+01-1.40986E-02-2.25962E-02-7.81497E-02-1.62601E-14-4.04430E-13
 -1        32 1.78761E+01-3.35041E-02-6.70115E-02-5.28357E-02-4.26926E-14-6.48750E-13
 -1        33 1.74125E+01-4.24431E-02-8.84318E-02-2.17590E-03 7.23792E-14-6.94979E-13
 -1        34 1.78671E+01-3.56441E-02-7.34009E-02 5.12901E-02-9.61904E-15-6.72207E-13
 -1        35 1.90863E+01-1.67451E-02-3.12244E-02 8.29194E-02 1.56236E-14-7.68129E-13
 -1        36 2.06423E+01 4.60387E-03 1.38309E-02 8.34677E-02 1.19325E-14-6.18779E-13
 -1        37 2.20725E+01 1.97126E-02 4.22161E-02 6.16727E-02-3.25326E-14-5.80681E-13
 -1        38 2.30759E+01 2.53473E-02 4.91677E-02 3.29254E-02-6.38062E-14-8.00212E-13
 -1        39 2.35664E+01 2.32535E-02 4.11490E-02 8.67871E-03 1.40079E-16-9.10765E-13
 -1        40 2.36131E+01 1.71453E-02 2.73499E-02-6.72575E-03 1.41556E-14-8.49510E-13
 -1        41 2.33523E+01 1.02416E-02 1.41828E-02-1.39807E-02-1.03270E-16-9.73739E-13
 -1        42 2.29214E+01 4.38934E-03 4.42689E-03-1.56688E-02 4.80952E-15-9.84965E-13
 -1        43 2.24276E+01 2.21583E-04-1.61700E-03-1.43158E-02-4.88879E-14-8.92427E-13
 -1        44 2.19413E+01-2.33338E-03-4.72612E-03-1.17085E-02 4.26871E-14-6.43789E-13
 -1        45 2.15022E+01-3.63132E-03-5.88056E-03-8.88600E-03-7.00141E-14-5.97764E-13
 -1        46 2.11278E+01-4.06835E-03-5.89218E-03-6.35086E-03-2.73813E-14-9.40303E-13
 -1        47 2.08218E+01-3.97621E-03-5.32193E-03-4.28524E-03-6.70816E-14-1.00113E-12
 -1        48 2.05799E+01-3.59678E-03-4.51645E-03-2.70534E-03 5.55589E-14-9.31265E-13
 -1        49 2.03942E+01-3.09102E-03-3.67164E-03-1.55423E-03 1.25637E-14-8.51282E-13
 -1        50 2.02555E+01-2.55818E-03-2.88779E-03-7.51505E-04-2.41251E-15-1.02860E-12
 -1        51 2.01546E+01-2.05441E-03-2.20849E-03-2.17241E-04-6.32320E-16-1.00168E-12
 -1        52 2.00834E+01-1.60773E-03-1.64560E-03 1.18249E-04-1.59819E-14-7.69278E-13
 -1        53 2.00348E+01-1.22862E-03-1.19444E-03 3.11603E-04 3.53280E-14-7.03765E-13
 -1        54 2.00032E+01-9.17341E-04-8.42556E-04 4.06841E-04 6.10441E-14-6.60439E-13
 -1        55 1.99839E+01-6.68589E-04-5.74723E-04 4.37060E-04-1.39295E-13-9.19574E-13
 -1        56 1.99732E+01-4.74498E-04-3.75639E-04 4.26442E-04 5.93020E-14-1.11044E-12
 -1        57 1.99685E+01-3.26416E-04-2.31270E-04 3.92169E-04 2.67114E-14-7.63708E-13
 -1        58 1.99677E+01-2.15933E-04-1.29429E-04 3.46086E-04-1.35615E-14-8.95488E-13
 -1        59 1.99693E+01-1.35422E-04-5.99249E-05 2.96068E-04-4.62494E-14-7.67571E-13
 -1        60 1.99723E+01-7.82651E-05-1.44741E-05 2.47102E-04-6.34952E-15-5.65955E-13
 -1        61 1.99760E+01-3.89090E-05 1.35030E-05 2.02131E-04 4.26167E-14-5.31127E-13
 -1        62 1.99798E+01-1.28031E-05 2.91340E-05 1.62689E-04-1.17811E-14-6.94552E-13
 -1        63 1.99836E+01 3.71363E-06 3.63601E-05 1.29369E-04-2.88507E-14-7.56537E-13
 -1        64 1.99870E+01 1.35542E-05 3.81998E-05 1.02155E-04-1.11423E-13-1.00243E-12
 -1        65 1.99901E+01 1.90317E-05 3.70193E-05 8.06283E-05 1.99286E-14-1.06861E-12
 -1        66 1.99928E+01 2.19920E-05 3.48262E-05 6.40503E-05 7.95676E-14-1.04667E-12
 -1        67 1.99951E+01 2.39254E-05 3.36477E-05 5.13030E-05 9.81098E-14-6.28718E-13
 -1        68 1.99970E+01 2.59827E-05 3.58193E-05 4.05906E-05 1.31932E-14-1.87223E-13
 -1        69 1.99985E+01 2.84537E-05 4.30335E-05 2.82923E-05 7.73963E-14 1.66527E-14
 -1        70 1.99995E+01 2.63171E-05 4.79145E-05 4.46334E-06 4.16290E-14 2.17586E-13
 -1        71 1.99999E+01-4.96452E-06 8.82580E-06-2.97152E-05 3.90381E-14 4.99231E-13
 -1        72 2.44273E+01-4.37619E-01-1.04948E+00-4.36065E-01 2.34014E-14 2.62719E-12
 -1        73 2.39207E+01-6.09838E-02-2.73906E-01-9.03009E-02 1.91518E-14 2.12820E-12
 -1        74 2.41846E+01-1.08067E-02-4.36956E-02-4.98231E-02 1.66447E-14 1.75901E-12
 -1        75 2.47033E+01 6.75627E-03 1.97987E-02-4.81084E-02 1.40298E-15 1.55163E-12
 -1        76 2.51377E+01 1.97095E-02 5.25206E-02-4.47446E-02 1.81433E-14 1.40964E-12
 -1        77 2.51384E+01 2.66408E-02 8.16270E-02-2.66739E-02 1.19490E-14 1.27570E-12
 -1        78 2.43788E+01 2.14493E-02 9.38041E-02 1.67288E-02-2.87867E-14 1.36361E-12
 -1        79 2.27188E+01 7.83404E-04 6.25578E-02 8.21482E-02 1.94466E-14 1.19457E-12
 -1        80 2.04474E+01-2.76976E-02-2.18686E-02 1.39351E-01-2.91708E-14 9.58074E-13
 -1        81 1.83770E+01-4.61718E-02-1.23719E-01 1.40120E-01 4.20944E-14 8.70977E-13
 -1        82 1.75082E+01-4.17944E-02-1.73181E-01 6.32620E-02-4.81611E-14 8.95777E-13
 -1        83 1.83410E+01-1.92155E-02-1.31086E-01-4.85934E-02 4.10067E-14 7.90309E-13
 -1        84 2.04678E+01 6.41462E-03-3.05119E-02-1.24763E-01 2.85127E-14 4.73316E-13
 -1        85 2.29045E+01 2.29261E-02 5.83429E-02-1.34049E-01 2.36831E-14 2.51174E-13
 -1        86 2.47773E+01 2.70375E-02 9.43106E-02-9.55338E-02 1.00020E-14 5.02584E-14
 -1        87 2.57169E+01 2.23750E-02 8.41913E-02-4.59424E-02-2.69348E-14 1.05750E-13
 -1        88 2.58054E+01 1.42386E-02 5.43051E-02-8.06414E-03 8.43661E-15 2.54559E-13
 -1        89 2.53256E+01 6.54534E-03 2.51608E-02 1.30849E-02 8.94747E-14 5.10486E-14
 -1        90 2.45637E+01 9.72198E-04 5.02987E-03 2.13379E-02-1.43052E-14-1.02045E-13
 -1        91 2.37264E+01-2.34598E-03-5.92702E-03 2.21116E-02-5.58253E-15 9.12811E-14
 -1        92 2.29347E+01-3.92631E-03-1.04346E-02 1.94574E-02-9.19078E-15 3.20462E-13
 -1        93 2.22452E+01-4.38556E-03-1.12620E-02 1.57307E-02 3.00284E-14 1.92804E-13
 -1        94 2.16750E+01-4.21445E-03-1.03295E-02 1.20762E-02-4.07557E-15-9.82218E-14
 -1        95 2.12200E+01-3.74148E-03-8.74509E-03 8.94290E-03 4.04443E-15 1.00345E-14
 -1        96 2.08668E+01-3.16294E-03-7.06700E-03 6.43456E-03 2.66394E-15 4.31416E-13
 -1        97 2.05987E+01-2.58543E-03-5.53918E-03 4.50708E-03 9.81672E-15 7.62953E-13
 -1        98 2.03994E+01-2.06051E-03-4.24469E-03 3.06664E-03 9.39805E-15 7.44284E-13
 -1        99 2.02542E+01-1.60836E-03-3.19162E-03 2.01352E-03-3.19727E-14 4.53820E-13
 -1       100 2.01509E+01-1.23232E-03-2.35716E-03 1.25896E-03 1.19883E-14 3.45064E-13
 -1       101 2.00793E+01-9.27482E-04-1.70857E-03 7.29766E-04-1.17967E-15 1.77987E-13
 -1       102 2.00312E+01-6.85348E-04-1.21258E-03 3.67921E-04 2.98524E-14 2.92035E-13
 -1       103 2.00003E+01-4.96420E-04-8.39064E-04 1.28456E-04-6.54142E-14 1.35552E-13
 -1       104 1.99817E+01-3.51464E-04-5.62235E-04-2.29588E-05 1.66091E-14 8.52135E-13
 -1       105 1.99717E+01-2.42105E-04-3.60664E-04-1.12222E-04 5.66531E-14 7.82311E-13
 -1       106 1.99675E+01-1.61064E-04-2.16890E-04-1.58653E-04-8.84881E-14 6.93529E-13
 -1       107 1.99671E+01-1.02183E-04-1.16890E-04-1.76484E-04 6.45778E-15 3.36624E-13
 -1       108 1.99690E+01-6.03698E-05-4.95453E-05-1.76051E-04 8.01976E-14-2.18915E-13
 -1       109 1.99722E+01-3.14788E-05-6.14417E-06-1.64735E-04 6.27269E-14-2.13401E-13
 -1       110 1.99759E+01-1.21869E-05 2.00590E-05-1.47700E-04-2.57108E-14-2.11099E-13
 -1       111 1.99798E+01 1.40565E-07 3.42303E-05-1.28470E-04 3.94399E-14 1.77455E-13
 -1       112 1.99836E+01 7.57699E-06 4.02944E-05-1.09379E-04-1.07713E-13 1.92878E-13
 -1       113 1.99871E+01 1.17530E-05 4.12331E-05-9.19112E-05-2.36772E-15 5.41372E-13
 -1       114 1.99902E+01 1.39642E-05 3.93739E-05-7.69570E-05-1.69865E-13 7.67070E-13
 -1       115 1.99929E+01 1.52604E-05 3.67085E-05-6.49642E-05 1.77849E-13 4.33861E-13
 -1       116 1.99952E+01 1.64578E-05 3.52906E-05-5.59274E-05 4.26914E-14-3.40252E-13
 -1       117 1.99971E+01 1.81635E-05 3.75628E-05-4.91559E-05 8.31974E-14-1.02968E-12
 -1       118 1.99985E+01 2.02499E-05 4.51757E-05-4.24740E-05-7.92479E-14-8.78039E-13
 -1       119 1.99995E+01 1.89150E-05 5.02663E-05-2.67062E-05-7.02410E-14-5.01054E-13
 -1       120 1.99999E+01-1.84149E-05 3.11554E-06 1.71885E-05 1.93365E-13-2.95727E-13
 -1       121 1.99998E+01 4.73477E-05 5.98546E-06 3.12382E-05-1.66708E-13 1.53161E-13
 -1       122 1.99998E+01-3.28845E-04 4.63726E-05-1.43576E-05 1.46240E-12 1.64529E-13
 -1       123 1.99998E+01-1.26561E-03 2.96133E-05-3.87644E-05 1.74111E-12-1.97292E-13
 -1       124 1.99998E+01-2.49199E-03 6.40850E-06-4.63994E-05 6.55147E-13 5.74028E-14
 -1       125 1.99998E+01-3.76918E-03-1.27016E-05-4.35112E-05 9.20055E-13-1.03477E-13
 -1       126 1.99998E+01-4.88444E-03-2.64468E-05-3.50660E-05 5.03510E-13 2.28995E-13
 -1       127 1.99998E+01-5.72409E-03-3.51828E-05-2.23836E-05 5.76790E-13 2.72079E-14
 -1       128 1.99998E+01-6.16698E-03-3.94939E-05-7.58211E-06 1.74078E-14 1.74691E-13
 -1       129 1.99998E+01-6.16255E-03-3.94450E-05 7.87444E-06-9.21323E-14 1.27612E-13
 -1       130 1.99998E+01-5.71133E-03-3.50431E-05 2.26134E-05 1.41432E-13-4.15940E-13
 -1       131 1.99998E+01-4.86529E-03-2.59816E-05 3.55811E-05-8.57987E-13-3.94219E-13
 -1       132 1.99998E+01-3.74693E-03-1.24674E-05 4.36011E-05-1.26820E-12 3.89998E-13
 -1       133 1.99998E+01-2.46980E-03 6.50322E-06 4.61318E-05-5.21464E-13-9.51766E-15
 -1       134 1.99998E+01-1.24327E-03 3.18050E-05 4.19150E-05 5.31430E-13 1.03537E-13
 -1       135 1.99998E+01-3.32329E-04 4.05761E-05 2.00558E-05 5.36018E-13-1.54878E-13
 -1       136 1.99998E+01 3.43685E-05 4.11933E-06-5.79377E-05-2.76589E-13 8.54285E-15
 -1       137-1.44682E+00-2.00651E+01-3.13152E+00-3.75974E+00 1.82282E-12 4.92141E-13
 -1       138-1.62013E+00-9.03503E+00-2.36254E+00-3.18850E+00 2.79460E-12 1.32611E-12
 -1       139 2.57654E+00 2.62167E+00-1.21604E+00 2.97531E+00 3.21215E-12 2.35428E-12
 -1       140 1.48425E+01 1.00405E+01 2.37371E-01 1.21512E+01 2.44177E-12 2.74852E-12
 -1       141 3.38597E+01 1.02170E+01 1.73161E+00 1.81461E+01 1.42081E-12 2.36250E-12
 -1       142 5.38829E+01 5.46435E+00 2.97442E+00 1.60532E+01 3.58352E-13 1.09457E-12
 -1       143 6.62315E+01 1.31315E+00 3.66185E+00 5.52913E+00 5.85643E-15-4.42188E-13
 -1       144 6.46595E+01 2.00308E+00 3.59390E+00-8.11522E+00 2.83074E-13-1.87547E-12
 -1       145 4.95163E+01 6.73501E+00 2.73529E+00-1.71679E+01 1.12220E-12-2.89990E-12
 -1       146 2.93155E+01 1.07257E+01 1.37828E+00-1.73125E+01 2.06096E-12-3.13394E-12
 -1       147 9.67554E+00 8.16736E+00-3.19893E-01-8.97193E+00 2.65404E-12-2.59109E-12
 -1       148 3.18624E-01-9.09943E-01-1.70015E+00-3.03020E-01 2.59276E-12-1.63952E-12
 -1       149-1.78972E+00-1.30963E+01-2.70190E+00 3.92864E+00 1.88760E-12-7.36397E-13
 -1       150-1.03656E+00-2.20704E+01-3.24034E+00 2.71762E+00 4.98684E-13-1.09661E-13
 -1       151-9.10584E-01-2.28511E+01-3.24943E+00-1.73585E+00-1.01601E-12-1.00527E-13
 -1       152-1.56510E+00-1.44259E+01-2.70488E+00-3.64478E+00-2.36583E-12-8.04273E-13
 -1       153-2.76889E-01-2.49129E+00-1.78005E+00-5.69149E-01-2.92444E-12-1.63394E-12
 -1       154 7.05694E+00 7.33384E+00-5.32475E-01 7.29692E+00-2.84622E-12-2.54502E-12
 -1       155 2.21210E+01 1.11159E+01 8.93391E-01 1.54244E+01-2.21950E-12-2.88330E-12
 -1       156 4.22756E+01 8.55945E+00 2.24697E+00 1.82773E+01-1.17575E-12-2.45065E-12
 -1       157 5.89289E+01 3.47619E+00 3.17443E+00 1.24300E+01-3.35312E-13-1.20309E-12
 -1       158 5.86160E+01 3.69910E+00 3.17653E+00-1.29300E+01-3.92561E-13 1.61726E-12
 -1       159 3.97812E+01 9.11103E+00 2.13398E+00-1.83733E+01-1.22338E-12 2.46592E-12
 -1       160 1.94213E+01 1.11501E+01 7.05942E-01-1.45522E+01-2.04092E-12 2.39614E-12
 -1       161 4.46542E+00 5.25466E+00-8.27235E-01-5.06477E+00-2.74281E-12 2.23710E-12
 -1       162-1.17158E+00-6.52069E+00-2.09652E+00 2.20489E+00-2.74786E-12 1.32211E-12
 -1       163-1.47746E+00-1.89543E+01-3.00967E+00 3.83732E+00-1.14325E-12 4.27040E-13
 -1       164 2.33938E+01 3.74037E+00-5.40794E-02-2.94303E+00-3.45075E-13 3.70849E-14
 -1       165 2.16806E+01 4.24936E+00-4.59551E-02-1.94692E+00-2.87981E-13-3.08073E-13
 -1       166 2.03767E+01 4.45541E+00-3.32241E-02-1.17419E+00-2.01009E-13-4.93572E-13
 -1       167 1.92226E+01 4.53843E+00-2.43923E-02-5.66735E-01-1.18363E-13-5.90070E-13
 -1       168 1.81623E+01 4.60635E+00-1.81991E-02-1.24304E-01-5.14406E-14-6.28590E-13
 -1       169 1.71970E+01 4.69211E+00-1.45273E-02 1.55868E-01 6.03467E-15-6.50873E-13
 -1       170 1.64520E+01 4.78704E+00-1.22973E-02 2.68252E-01 5.93588E-14-6.45636E-13
 -1       171 1.60535E+01 4.86303E+00-1.12994E-02 2.49710E-01 1.12226E-13-6.29956E-13
 -1       172 1.60963E+01 4.89331E+00-1.16162E-02 1.73670E-01 1.54368E-13-6.06207E-13
 -1       173 1.66037E+01 4.86917E+00-1.33328E-02 1.34563E-01 2.01849E-13-5.75760E-13
 -1       174 1.75002E+01 4.80297E+00-1.67975E-02 2.17511E-01 2.47360E-13-4.96374E-13
 -1       175 1.87161E+01 4.70641E+00-2.26316E-02 4.85267E-01 3.07316E-13-3.67683E-13
 -1       176 2.01494E+01 4.56536E+00-3.22116E-02 9.71566E-01 3.56305E-13-1.82665E-13
 -1       177 2.17974E+01 4.28951E+00-4.41659E-02 1.69539E+00 3.84406E-13 1.13059E-13
 -1       178 2.38978E+01 3.51404E+00-5.15830E-02 2.61604E+00 3.30628E-13 6.22884E-13
 -1       179 2.57214E+01 1.03942E+00-3.40698E-01 2.34684E+00 2.24248E-13 1.25579E-12
 -1       180 2.48453E+01 7.96751E-01-7.40565E-04-1.47447E+00-3.09981E-13 4.76227E-13
 -1       181 2.36314E+01 1.21107E-01-1.05947E-02-3.74898E-01-2.60994E-13 3.52563E-13
 -1       182 2.31189E+01 1.96104E-02 1.10103E-02-6.94952E-02-1.83195E-13 2.53964E-13
 -1       183 2.28951E+01-6.36304E-02 6.31938E-03-8.81268E-02-1.15830E-13 1.74494E-13
 -1       184 2.26665E+01-1.19290E-01 1.61577E-03-2.91954E-01-8.49735E-14 1.25922E-13
 -1       185 2.22845E+01-1.39677E-01 2.36467E-04-5.98034E-01-7.37574E-14 7.67960E-14
 -1       186 2.16893E+01-1.02053E-01 1.08703E-03-8.89042E-01-9.76888E-14 3.33292E-14
 -1       187 2.09357E+01 3.76266E-03 2.62777E-03-1.00878E+00-1.12697E-13-4.06272E-14
 -1       188 2.02028E+01 1.47601E-01 3.39648E-03-8.24158E-01-1.46508E-13-5.90309E-14
 -1       189 1.97390E+01 2.58666E-01 3.34657E-03-3.26181E-01-4.15449E-14-6.04248E-14
 -1       190 1.97364E+01 2.69027E-01 3.10687E-03 3.21743E-01-5.24433E-14-2.63585E-13
 -1       191 2.02109E+01 1.70702E-01 2.99009E-03 8.60122E-01-5.91280E-14-3.02667E-13
 -1       192 2.09862E+01 2.41543E-02 2.23735E-03 1.09527E+00 2.31575E-15-3.59497E-13
 -1       193 2.18019E+01-9.50896E-02 4.74284E-04 1.00392E+00 2.33342E-15-3.64163E-13
 -1       194 2.24448E+01-1.49978E-01-1.66091E-03 7.00288E-01-1.12944E-13-3.29866E-13
 -1       195 2.28120E+01-1.46731E-01-3.17694E-03 3.34394E-01-4.76784E-14-3.36737E-13
 -1       196 2.29019E+01-1.11573E-01-3.58511E-03 1.56527E-02-1.24085E-14-3.77118E-13
 -1       197 2.27722E+01-6.87602E-02-3.10832E-03-2.07803E-01-9.53905E-14-4.91267E-13
 -1       198 2.24993E+01-3.20589E-02-2.16509E-03-3.33657E-01-4.81918E-14-5.38056E-13
 -1       199 2.21536E+01-6.08109E-03-1.14858E-03-3.81933E-01-1.13056E-14-5.71865E-13
 -1       200 2.17886E+01 9.67970E-03-2.97431E-04-3.77951E-01 1.39880E-13-5.12015E-13
 -1       201 2.14398E+01 1.76474E-02 3.00977E-04-3.43779E-01 8.41493E-15-4.78467E-13
 -1       202 2.11273E+01 2.04220E-02 6.54970E-04-2.95565E-01-7.39997E-14-2.71138E-13
 -1       203 2.08601E+01 2.00986E-02 8.16236E-04-2.43784E-01-9.63542E-14-2.44205E-13
 -1       204 2.06396E+01 1.81469E-02 8.45168E-04-1.94531E-01 3.07312E-14-2.75722E-13
 -1       205 2.04630E+01 1.55078E-02 7.93905E-04-1.50882E-01 6.70796E-15-2.66405E-13
 -1       206 2.03252E+01 1.27393E-02 7.01110E-04-1.14001E-01-6.84822E-14-4.09564E-13
 -1       207 2.02203E+01 1.01441E-02 5.92647E-04-8.39290E-02 5.48774E-14-3.30840E-13
 -1       208 2.01424E+01 7.86512E-03 4.84334E-04-6.01096E-02 1.08312E-13-2.12325E-13
 -1       209 2.00859E+01 5.94997E-03 3.84892E-04-4.17166E-02-8.37627E-15-1.85547E-13
 -1       210 2.00461E+01 4.39287E-03 2.98377E-04-2.78500E-02-3.48223E-14-2.52073E-13
 -1       211 2.00191E+01 3.16077E-03 2.25961E-04-1.76447E-02-1.48247E-13-3.16443E-13
 -1       212 2.00015E+01 2.20903E-03 1.67158E-04-1.03251E-02 1.48689E-14-1.81856E-13
 -1       213 1.99908E+01 1.49048E-03 1.20618E-04-5.22757E-03 4.54775E-14-2.06391E-13
 -1       214 1.99849E+01 9.60451E-04 8.46280E-05-1.80275E-03-1.08193E-13-4.94195E-13
 -1       215 1.99823E+01 5.79149E-04 5.74090E-05 3.91740E-04 1.46133E-14-5.77853E-13
 -1       216 1.99820E+01 3.12608E-04 3.72817E-05 1.70384E-03 7.62487E-14-8.07695E-13
 -1       217 1.99829E+01 1.32705E-04 2.27490E-05 2.40124E-03 2.79046E-14-6.47906E-13
 -1       218 1.99847E+01 1.67012E-05 1.25262E-05 2.68540E-03-5.50387E-14-5.61456E-13
 -1       219 1.99868E+01-5.34424E-05 5.53972E-06 2.70426E-03-6.24940E-14-5.73044E-13
 -1       220 1.99890E+01-9.18664E-05 9.08673E-07 2.56332E-03 3.30599E-14-5.41519E-13
 -1       221 1.99912E+01-1.09632E-04-2.07922E-06 2.33462E-03 4.24142E-14-2.74799E-13
 -1       222 1.99932E+01-1.15539E-04-3.98119E-06 2.06381E-03 6.60658E-14-1.92577E-14
 -1       223 1.99949E+01-1.16896E-04-5.18798E-06 1.77529E-03 2.51660E-13-1.68334E-14
 -1       224 1.99965E+01-1.20106E-04-5.80957E-06 1.47580E-03 2.50789E-13-2.44264E-13
 -1       225 1.99977E+01-1.31735E-04-5.62579E-06 1.15668E-03 1.96347E-13-2.71979E-13
 -1       226 1.99987E+01-1.57106E-04-5.09978E-06 7.97949E-04 1.02526E-13-4.61605E-14
 -1       227 1.99994E+01-1.89536E-04-3.50606E-06 3.89524E-04 1.14563E-13-2.03768E-13
 -1       228 2.47645E+01 2.39107E-01-4.57464E-02 5.36994E-01 2.38632E-13 1.10056E-12
 -1       229 2.42668E+01 9.55809E-02 9.49823E-03-1.00533E-01 1.90316E-13 9.05465E-13
 -1       230 2.42918E+01 5.53703E-03 1.16534E-02-2.71436E-01 1.05313E-13 7.49970E-13
 -1       231 2.44413E+01-7.24865E-02 7.60904E-03-1.84499E-01 8.10842E-14 6.74307E-13
 -1       232 2.44427E+01-1.48634E-01 7.29358E-03 1.30195E-01 9.40047E-15 6.76826E-13
 -1       233 2.40791E+01-1.95963E-01 9.01315E-03 6.25351E-01-5.07337E-14 7.03442E-13
 -1       234 2.32468E+01-1.60859E-01 7.48561E-03 1.13863E+00 1.01057E-13 6.62539E-13
 -1       235 2.20653E+01-5.24817E-03-1.27035E-03 1.37525E+00 1.14929E-13 6.06740E-13
 -1       236 2.09384E+01 2.20974E-01-1.42789E-02 1.05261E+00 8.60284E-14 4.30957E-13
 -1       237 2.04082E+01 3.66671E-01-2.16380E-02 1.82264E-01 1.90455E-14 3.60175E-13
 -1       238 2.07885E+01 3.11042E-01-1.59727E-02-8.09948E-01 1.64751E-13 1.86887E-13
 -1       239 2.18941E+01 1.03334E-01-1.65553E-03-1.39440E+00 1.94924E-13-1.94983E-15
 -1       240 2.31916E+01-9.90942E-02 8.41447E-03-1.37089E+00 1.27929E-13-2.43144E-13
 -1       241 2.41926E+01-1.95582E-01 8.78392E-03-9.18226E-01 1.73550E-14-1.34478E-13
 -1       242 2.46752E+01-1.88085E-01 3.96544E-03-3.50613E-01 4.12777E-15-9.60864E-14
 -1       243 2.46640E+01-1.30626E-01-6.18246E-04 1.12776E-01-2.83497E-14-1.92703E-13
 -1       244 2.43020E+01-6.84322E-02-2.77807E-03 3.98693E-01 1.43544E-13-1.54398E-13
 -1       245 2.37484E+01-2.18111E-02-2.87466E-03 5.25944E-01-2.53110E-14-8.69678E-14
 -1       246 2.31291E+01 6.35993E-03-1.99943E-03 5.44633E-01-8.67166E-14 4.09963E-14
 -1       247 2.25263E+01 2.02538E-02-9.68519E-04 5.02199E-01-9.44508E-14 6.57128E-14
 -1       248 2.19845E+01 2.50697E-02-1.60808E-04 4.32501E-01 9.67177E-14 1.83886E-13
 -1       249 2.15224E+01 2.48766E-02 3.45264E-04 3.56088E-01 1.73102E-14 1.55704E-13
 -1       250 2.11427E+01 2.23095E-02 6.00334E-04 2.83843E-01-6.93095E-14 1.37476E-13
 -1       251 2.08392E+01 1.88873E-02 6.85379E-04 2.20598E-01-2.51080E-13 4.40420E-13
 -1       252 2.06024E+01 1.54046E-02 6.70503E-04 1.67778E-01-2.06711E-14 5.56202E-13
 -1       253 2.04213E+01 1.22318E-02 6.04844E-04 1.25060E-01 5.01565E-14 4.99860E-13
 -1       254 2.02855E+01 9.50787E-03 5.18954E-04 9.13384E-02 7.29284E-14 5.45821E-13
 -1       255 2.01856E+01 7.25415E-03 4.30183E-04 6.52471E-02 7.61855E-14 4.56664E-13
 -1       256 2.01137E+01 5.43706E-03 3.47477E-04 4.54233E-02 1.13474E-13 2.15345E-13
 -1       257 2.00633E+01 4.00119E-03 2.74796E-04 3.06279E-02-7.45896E-15 6.83898E-14
 -1       258 2.00289E+01 2.88606E-03 2.13301E-04 1.97902E-02-1.25244E-13 3.49681E-13
 -1       259 2.00064E+01 2.03404E-03 1.62676E-04 1.20151E-02-1.56543E-13 2.14137E-13
 -1       260 1.99924E+01 1.39370E-03 1.21894E-04 6.57140E-03-3.66169E-14 3.56391E-13
 -1       261 1.99845E+01 9.20862E-04 8.96462E-05 2.87267E-03 1.03671E-13 3.47582E-13
 -1       262 1.99808E+01 5.78558E-04 6.45784E-05 4.56437E-04 1.92495E-13 1.26243E-13
 -1       263 1.99798E+01 3.36437E-04 4.54126E-05-1.03649E-03 2.75568E-13-1.96571E-14
 -1       264 1.99805E+01 1.69983E-04 3.10023E-05-1.88076E-03-9.36772E-14-8.83196E-14
 -1       265 1.99823E+01 5.96744E-05 2.03534E-05-2.28289E-03-6.42911E-14-2.10534E-14
 -1       266 1.99845E+01-9.84441E-06 1.26234E-05-2.39523E-03-1.63497E-13 3.15423E-13
 -1       267 1.99870E+01-5.05329E-05 7.11042E-06-2.32758E-03-1.23061E-13 4.88628E-13
 -1       268 1.99894E+01-7.16616E-05 3.23875E-06-2.15658E-03-8.56162E-14 4.18705E-13
 -1       269 1.99917E+01-8.04639E-05 5.50411E-07-1.93302E-03-1.91788E-13 3.82225E-13
 -1       270 1.99937E+01-8.27644E-05-1.28012E-06-1.68734E-03 5.08755E-13 2.15079E-13
 -1       271 1.99955E+01-8.36129E-05-2.36869E-06-1.43325E-03 4.22151E-13 5.43342E-14
 -1       272 1.99970E+01-8.75999E-05-2.40644E-06-1.16997E-03 2.25817E-13 8.16120E-14
 -1       273 1.99982E+01-9.91932E-05-8.09339E-07-8.84680E-04-2.98846E-13 1.68246E-13
 -1       274 1.99990E+01-1.24786E-04-6.50330E-07-5.55414E-04-9.92455E-14 3.41294E-13
 -1       275 1.99996E+01-1.28684E-04-4.94232E-06-1.89666E-04 1.07312E-13 2.71201E-13
 -1       276 1.99996E+01-4.46248E-04-3.55265E-06-4.04103E-04 2.73455E-13 8.66041E-13
 -1       277 1.99997E+01-1.07148E-03-1.32042E-06-7.49647E-04 4.18337E-13 9.42747E-14
 -1       278 1.99998E+01-1.88270E-03-5.59980E-07-9.51768E-04 8.25999E-13-3.17734E-13
 -1       279 1.99998E+01-2.76938E-03 5.70850E-07-9.85136E-04 7.28583E-13 1.57237E-13
 -1       280 1.99999E+01-3.59645E-03 2.36089E-06-8.74176E-04 4.16496E-13-3.93036E-13
 -1       281 1.99999E+01-4.28391E-03 3.92483E-06-6.47095E-04 6.34995E-14-1.04108E-13
 -1       282 1.99999E+01-4.73011E-03 5.00169E-06-3.41465E-04 5.17874E-14 1.72695E-14
 -1       283 1.99999E+01-4.88267E-03 5.37031E-06 3.45482E-06 1.24284E-14-5.74225E-17
 -1       284 1.99999E+01-4.72391E-03 5.00041E-06 3.47896E-04-2.76756E-13 1.34605E-14
 -1       285 1.99999E+01-4.27227E-03 3.92289E-06 6.52282E-04-7.68234E-14-5.28929E-13
 -1       286 1.99999E+01-3.59487E-03 2.25511E-06 8.74442E-04 1.59007E-15-2.90543E-13
 -1       287 1.99998E+01-2.75250E-03 5.40531E-07 9.85032E-04 1.47133E-13 5.01616E-13
 -1       288 1.99998E+01-1.86676E-03-7.50088E-07 9.48845E-04 1.59441E-13 4.58002E-13
 -1       289 1.99997E+01-1.06472E-03-3.51667E-06 7.39634E-04 3.64204E-14 1.35888E-13
 -1       290 1.99995E+01-5.89451E-04-4.28176E-06 6.40895E-04 2.80827E-14-4.66590E-13
 -1       291-7.75122E-01-9.70093E+00-8.24908E-01 1.13708E+00 4.70568E-13 5.86725E-13
 -1       292 2.68885E+00-8.38426E+00-7.44348E-01 3.40979E+00 7.27834E-13 8.78755E-13
 -1       293 9.35153E+00-5.39237E+00-4.92990E-01 5.53433E+00 9.43023E-13 1.00232E-12
 -1       294 1.88074E+01-2.05813E+00-1.41583E-01 6.86810E+00 1.05740E-12 7.44710E-13
 -1       295 2.88522E+01 1.76124E+00 2.57429E-01 7.10663E+00 1.08547E-12 6.96498E-13
 -1       296 3.86654E+01 4.71816E+00 7.25978E-01 6.29653E+00 9.45619E-13 3.61600E-13
 -1       297 4.55717E+01 6.24995E+00 1.02646E+00 3.43270E+00 7.14609E-13-1.40221E-13
 -1       298 4.67908E+01 6.91814E+00 1.00470E+00-3.44549E-01 7.07767E-13-5.46653E-13
 -1       299 4.25218E+01 6.18544E+00 7.30838E-01-3.04923E+00 7.94087E-13-8.66807E-13
 -1       300 3.64024E+01 4.19324E+00 5.80313E-01-6.63586E+00 9.99922E-13-1.27787E-12
 -1       301 2.69796E+01-5.80221E-01 8.80877E-02-6.17388E+00 7.64028E-13-9.70279E-13
 -1       302 1.45470E+01-2.42894E+00-3.11649E-01-6.62492E+00 1.00292E-12-1.19305E-12
 -1       303 6.18129E+00-6.18786E+00-6.91516E-01-4.51729E+00 8.31668E-13-9.31616E-13
 -1       304 1.13866E+00-8.43264E+00-7.67510E-01-2.77041E+00 3.68400E-13-8.55760E-13
 -1       305-1.24992E+00-1.02098E+01-9.46368E-01-1.20699E-01-7.16389E-14-7.73812E-13
 -1       306 8.76691E-01-7.68198E+00-5.85212E-01 2.97250E+00-4.16112E-13-8.35332E-13
 -1       307 5.17603E+00-6.44457E+00-6.89827E-01 4.38603E+00-1.00944E-12-9.03082E-13
 -1       308 1.26777E+01-2.79615E+00-3.66730E-01 6.42035E+00-1.19055E-12-1.14309E-12
 -1       309 2.26500E+01 3.99528E-01 4.05972E-02 7.50555E+00-1.12338E-12-1.05901E-12
 -1       310 3.26970E+01 3.12726E+00 3.90628E-01 6.58374E+00-1.06265E-12-8.47766E-13
 -1       311 4.11973E+01 5.60069E+00 7.88949E-01 5.42041E+00-9.52939E-13-6.57085E-13
 -1       312 4.39331E+01 7.04877E+00 7.56685E-01 1.51973E+00-8.04273E-13-2.65413E-13
 -1       313 4.55301E+01 6.71907E+00 9.24082E-01-1.93048E+00-6.34770E-13 1.79828E-13
 -1       314 3.99380E+01 5.38909E+00 6.78606E-01-4.87911E+00-6.72781E-13 5.33684E-13
 -1       315 3.13061E+01 3.33172E+00 4.27197E-01-7.65529E+00-8.36900E-13 9.63840E-13
 -1       316 2.09693E+01-7.11790E-01-2.62980E-02-7.23373E+00-9.95537E-13 7.10876E-13
 -1       317 1.03547E+01-4.17229E+00-4.52148E-01-5.86179E+00-1.15502E-12 9.60190E-13
 -1       318 3.74388E+00-7.68397E+00-6.31837E-01-4.25470E+00-5.18446E-13 1.16061E-12
 -1       319-6.90609E-01-1.02081E+01-9.02278E-01-1.42239E+00 5.58442E-14 8.90024E-13
 -1       320 2.15753E+01 2.82320E+00-2.22926E-02-1.20127E+00-2.69612E-13-2.61118E-13
 -1       321 2.29786E+01 2.06043E+00-2.08445E-02-1.62210E+00-3.34674E-13-5.91107E-14
 -1       322 1.90889E+01 3.57413E+00-1.42601E-02-1.52523E-01-9.38915E-14-4.68082E-13
 -1       323 1.79056E+01 3.90439E+00-9.86573E-03 2.22077E-01-2.27636E-14-5.03360E-13
 -1       324 1.68728E+01 4.22761E+00-6.44998E-03 4.06333E-01 6.21249E-14-5.10158E-13
 -1       325 1.61533E+01 4.48849E+00-4.20613E-03 3.93495E-01 1.21176E-13-4.93836E-13
 -1       326 1.59088E+01 4.61325E+00-3.38277E-03 2.42613E-01 1.70219E-13-4.89156E-13
 -1       327 1.62265E+01 4.55689E+00-4.31217E-03 6.92921E-02 2.24784E-13-4.70099E-13
 -1       328 1.70574E+01 4.33404E+00-7.13067E-03-7.50026E-04 2.73185E-13-4.29216E-13
 -1       329 1.83076E+01 3.98308E+00-1.17482E-02 1.11538E-01 3.21941E-13-3.12257E-13
 -1       330 1.98196E+01 3.53779E+00-1.78182E-02 4.20329E-01 3.71750E-13-1.66602E-13
 -1       331 2.15029E+01 2.95393E+00-2.29332E-02 8.61385E-01 4.10801E-13 1.45352E-14
 -1       332 2.32590E+01 2.05817E+00-3.16742E-02 1.22733E+00 3.94625E-13 3.47694E-13
 -1       333 2.42776E+01 1.10713E+00-2.30291E-02 1.00301E+00 3.40322E-13 6.39432E-13
 -1       334 2.39664E+01 3.95733E-01 6.55524E-03 6.84838E-02 2.70637E-13 4.92204E-13
 -1       335 2.31178E+01 4.34220E-01 9.50245E-03-5.11591E-01-2.33075E-13 2.88254E-14
 -1       336 2.29178E+01-1.09430E-02 2.65702E-03-2.16124E-01-1.72118E-13 4.46711E-14
 -1       337 2.28382E+01-2.90695E-01-7.90821E-04-3.02010E-01-1.21886E-13 5.12103E-14
 -1       338 2.27751E+01-4.60664E-01-2.85280E-03-6.49813E-01-7.83041E-14 4.30297E-14
 -1       339 2.26190E+01-4.55675E-01-2.73774E-03-1.11459E+00-1.05905E-13 4.81423E-14
 -1       340 2.22969E+01-2.05374E-01-2.94048E-04-1.48027E+00-1.06195E-13 5.29973E-14
 -1       341 2.18293E+01 2.68409E-01 3.35290E-03-1.48378E+00-1.48186E-13 8.29952E-14
 -1       342 2.13776E+01 7.69767E-01 4.81169E-03-9.59504E-01-1.52104E-13-4.26744E-14
 -1       343 2.11731E+01 1.01435E+00 4.48469E-03-1.39759E-02-1.71858E-13-1.73406E-13
 -1       344 2.13442E+01 8.35445E-01 4.19671E-03 9.67311E-01-1.17613E-13-3.01171E-13
 -1       345 2.17923E+01 3.45615E-01 3.09944E-03 1.56771E+00-8.20922E-14-3.36846E-13
 -1       346 2.22760E+01-1.66108E-01 8.15042E-04 1.61698E+00-1.16794E-14-2.70279E-13
 -1       347 2.26002E+01-4.84369E-01-2.38230E-03 1.23833E+00-8.03459E-14-3.21911E-13
 -1       348 2.27008E+01-5.65546E-01-4.47967E-03 6.75753E-01-1.03010E-13-3.31221E-13
 -1       349 2.26106E+01-4.82727E-01-4.70149E-03 1.36139E-01-8.66358E-14-3.14544E-13
 -1       350 2.23953E+01-3.32986E-01-3.84319E-03-2.72531E-01-1.62842E-13-3.89611E-13
 -1       351 2.21149E+01-1.84272E-01-2.55527E-03-5.25857E-01-8.34583E-14-4.28018E-13
 -1       352 2.18119E+01-6.77907E-02-1.32081E-03-6.45114E-01 3.48978E-14-4.67265E-13
 -1       353 2.15136E+01 1.00744E-02-3.67417E-04-6.67147E-01 1.23814E-13-2.63220E-13
 -1       354 2.12362E+01 5.48449E-02 2.64844E-04-6.27898E-01 1.34968E-13-2.50505E-13
 -1       355 2.09888E+01 7.55524E-02 6.20951E-04-5.55791E-01 8.71088E-14-1.18298E-13
 -1       356 2.07750E+01 8.06452E-02 7.73822E-04-4.70670E-01-6.09864E-17-6.41831E-14
 -1       357 2.05953E+01 7.66235E-02 7.94144E-04-3.85067E-01-3.39349E-14 1.30446E-13
 -1       358 2.04479E+01 6.79723E-02 7.37920E-04-3.06093E-01 9.79460E-15 8.29077E-14
 -1       359 2.03296E+01 5.75499E-02 6.44390E-04-2.37162E-01 1.11461E-14 1.10937E-13
 -1       360 2.02366E+01 4.70480E-02 5.38616E-04-1.79351E-01-4.95201E-14 1.32231E-13
 -1       361 2.01650E+01 3.73787E-02 4.35254E-04-1.32360E-01 6.21484E-14-2.90686E-14
 -1       362 2.01110E+01 2.89607E-02 3.41955E-04-9.51582E-02 5.04764E-14-9.51204E-14
 -1       363 2.00712E+01 2.19158E-02 2.61952E-04-6.63976E-02-1.11457E-13-1.36379E-13
 -1       364 2.00425E+01 1.61979E-02 1.95856E-04-4.46626E-02-1.05136E-13 2.80342E-14
 -1       365 2.00224E+01 1.16752E-02 1.42840E-04-2.86112E-02 1.74943E-14 1.25174E-13
 -1       366 2.00089E+01 8.17999E-03 1.01384E-04-1.70463E-02 8.04238E-14 3.48367E-14
 -1       367 2.00001E+01 5.53848E-03 6.97154E-05-8.94456E-03-3.20615E-13 6.29121E-14
 -1       368 1.99948E+01 3.58710E-03 4.60743E-05-3.45806E-03-1.61067E-13-2.03489E-13
 -1       369 1.99919E+01 2.18053E-03 2.88444E-05 9.72793E-05 8.80763E-15-1.44130E-13
 -1       370 1.99908E+01 1.19470E-03 1.66154E-05 2.26084E-03 1.05348E-13 4.41737E-14
 -1       371 1.99907E+01 5.26736E-04 8.19869E-06 3.44873E-03 7.73114E-14-1.51082E-13
 -1       372 1.99913E+01 9.32367E-05 2.61787E-06 3.97487E-03 1.92652E-14-1.07673E-14
 -1       373 1.99922E+01-1.72242E-04-9.15261E-07 4.07030E-03-8.34667E-14 2.51382E-14
 -1       374 1.99934E+01-3.22112E-04-3.03049E-06 3.89983E-03 1.17882E-13-1.40216E-13
 -1       375 1.99946E+01-3.97729E-04-4.22966E-06 3.57584E-03 3.01649E-13-9.49444E-15
 -1       376 1.99957E+01-4.32244E-04-4.89824E-06 3.16922E-03 2.40569E-13 2.86163E-13
 -1       377 1.99968E+01-4.52902E-04-5.34571E-06 2.71769E-03 4.18876E-15 3.14040E-13
 -1       378 1.99977E+01-4.81270E-04-5.57584E-06 2.23406E-03-3.56936E-14 1.75288E-13
 -1       379 1.99985E+01-5.37391E-04-6.89370E-06 1.71364E-03 4.95014E-14-1.64595E-13
 -1       380 1.99990E+01-5.70772E-04-5.85564E-06 1.18699E-03 2.07297E-14-3.73598E-13
 -1       381 2.39000E+01 6.28919E-02 6.59171E-03-3.12208E-01 1.93380E-13 4.40775E-13
 -1       382 2.40139E+01-1.95141E-01 2.49081E-04-2.84290E-01 9.79404E-14 3.93713E-13
 -1       383 2.41640E+01-4.39390E-01-3.82841E-03 1.00947E-01 2.36313E-15 4.08074E-13
 -1       384 2.41793E+01-5.97091E-01-4.35261E-03 7.80513E-01-4.63735E-14 4.04411E-13
 -1       385 2.39048E+01-5.11984E-01-2.96647E-03 1.54205E+00 6.42108E-14 4.02270E-13
 -1       386 2.32882E+01-5.99798E-02-3.11009E-03 1.97160E+00 1.85700E-13 4.42391E-13
 -1       387 2.25231E+01 6.36833E-01-4.60218E-03 1.61224E+00 1.91056E-13 3.28720E-13
 -1       388 2.20498E+01 1.13210E+00-5.36467E-03 3.95558E-01 1.29619E-13 2.14481E-13
 -1       389 2.22280E+01 1.00525E+00-5.70457E-03-1.08370E+00 2.32482E-13-7.83067E-14
 -1       390 2.29490E+01 3.61305E-01-2.68202E-03-1.99196E+00 3.09404E-13-2.43094E-13
 -1       391 2.37358E+01-2.90434E-01-9.83278E-04-1.98366E+00 2.21284E-13-2.35477E-13
 -1       392 2.42121E+01-6.16297E-01-4.46149E-03-1.31701E+00-1.26726E-14-1.25056E-13
 -1       393 2.42880E+01-6.08413E-01-7.55538E-03-4.72136E-01 1.35838E-14-1.88019E-13
 -1       394 2.40522E+01-4.31826E-01-7.81981E-03 2.22518E-01 2.69025E-14-1.98082E-13
 -1       395 2.36324E+01-2.32329E-01-5.90982E-03 6.56924E-01 1.38253E-13-1.68075E-13
 -1       396 2.31314E+01-7.86450E-02-3.35309E-03 8.55559E-01-2.58910E-14-3.59096E-14
 -1       397 2.26178E+01 1.67821E-02-1.17449E-03 8.89408E-01-1.25264E-13-5.50083E-14
 -1       398 2.21331E+01 6.55563E-02 2.92618E-04 8.27366E-01-9.23763E-14 2.30080E-14
 -1       399 2.16996E+01 8.37862E-02 1.08972E-03 7.20091E-01-8.20453E-14 1.41781E-13
 -1       400 2.13269E+01 8.46290E-02 1.40943E-03 5.99475E-01 1.21705E-13 2.77799E-13
 -1       401 2.10160E+01 7.68813E-02 1.43868E-03 4.83217E-01-5.48893E-14 1.88302E-13
 -1       402 2.07631E+01 6.57698E-02 1.31630E-03 3.79768E-01-3.66862E-13 2.72533E-13
 -1       403 2.05618E+01 5.41218E-02 1.13078E-03 2.92116E-01-1.42193E-13 2.93776E-13
 -1       404 2.04047E+01 4.33159E-02 9.32392E-04 2.20298E-01 1.07322E-13 2.92751E-13
 -1       405 2.02842E+01 3.39165E-02 7.46579E-04 1.62917E-01 1.33845E-13 3.23119E-13
 -1       406 2.01936E+01 2.60591E-02 5.84208E-04 1.18008E-01 1.70766E-13 1.47696E-13
 -1       407 2.01268E+01 1.96689E-02 4.48225E-04 8.35011E-02 1.73573E-13 3.50700E-13
 -1       408 2.00784E+01 1.45809E-02 3.37621E-04 5.74508E-02-6.33494E-14 4.77820E-13
 -1       409 2.00444E+01 1.06019E-02 2.49641E-04 3.81366E-02-1.32428E-13 2.42799E-13
 -1       410 2.00210E+01 7.54124E-03 1.80953E-04 2.40936E-02-5.57119E-14-3.59724E-15
 -1       411 2.00056E+01 5.22551E-03 1.28237E-04 1.41072E-02-1.61641E-13-4.46713E-14
 -1       412 1.99960E+01 3.50341E-03 8.84572E-05 7.19114E-03 1.38678E-13 2.61781E-14
 -1       413 1.99905E+01 2.24696E-03 5.89653E-05 2.55833E-03 4.19977E-13 4.35871E-14
 -1       414 1.99878E+01 1.35013E-03 3.75221E-05-4.09038E-04 2.45097E-13-9.54317E-14
 -1       415 1.99870E+01 7.26645E-04 2.22749E-05-2.18831E-03-5.53915E-14 3.96274E-14
 -1       416 1.99874E+01 3.07301E-04 1.17167E-05-3.14219E-03-9.03929E-14 1.09920E-13
 -1       417 1.99885E+01 3.73462E-05 4.63844E-06-3.54129E-03-4.29894E-13 5.98649E-14
 -1       418 1.99899E+01-1.26109E-04 7.95029E-08-3.58316E-03-2.17522E-13 2.31746E-13
 -1       419 1.99915E+01-2.16453E-04-2.71985E-06-3.40786E-03-1.01457E-13 3.11979E-13
 -1       420 1.99931E+01-2.59747E-04-4.35356E-06-3.11053E-03-3.84026E-14 2.77341E-13
 -1       421 1.99947E+01-2.76734E-04-5.28374E-06-2.75096E-03 3.02997E-13 8.11638E-14
 -1       422 1.99960E+01-2.84680E-04-5.83280E-06-2.36075E-03 3.21762E-13 6.98496E-13
 -1       423 1.99972E+01-2.98552E-04-6.06850E-06-1.94842E-03 1.55353E-13 8.05539E-13
 -1       424 1.99982E+01-3.28734E-04-5.65587E-06-1.50568E-03-1.74914E-13 8.66822E-13
 -1       425 1.99989E+01-3.78435E-04-4.81801E-06-1.01900E-03-1.62062E-13 8.22795E-13
 -1       426 1.99993E+01-4.33194E-04-3.77809E-06-7.19010E-04-6.03477E-14 8.26907E-13
 -1       427 1.99998E+01-2.12253E-03-8.27536E-07-1.68328E-03 3.83991E-13-1.30597E-13
 -1       428 1.99995E+01-1.41826E-03-3.88599E-06-1.52956E-03 5.86063E-14 1.51682E-13
 -1       429 1.99994E+01-8.98008E-04-5.40666E-06-1.17232E-03-5.27610E-14 4.02220E-13
 -1       430 2.00000E+01-2.78873E-03 1.51971E-06-1.59503E-03 4.54609E-13-4.86165E-13
 -1       431 2.00002E+01-3.37098E-03 3.31168E-06-1.29686E-03 2.76368E-13-3.84022E-13
 -1       432 2.00003E+01-3.79516E-03 4.62922E-06-8.40435E-04 6.34414E-14-1.27576E-13
 -1       433 2.00003E+01-4.01738E-03 5.31169E-06-2.86962E-04-1.56197E-13-3.55114E-14
 -1       434 2.00003E+01-4.01481E-03 5.32042E-06 2.98607E-04-1.46832E-13-2.86469E-13
 -1       435 2.00003E+01-3.78778E-03 4.64290E-06 8.50501E-04-2.77277E-13-1.26693E-13
 -1       436 2.00002E+01-3.36877E-03 3.29511E-06 1.29780E-03-8.25119E-14-4.65280E-13
 -1       437 2.00000E+01-2.78578E-03 1.46927E-06 1.59529E-03 3.01225E-13 4.51623E-13
 -1       438 1.99998E+01-2.10891E-03-5.00301E-07 1.68175E-03 3.40875E-13 3.60617E-13
 -1       439 1.99995E+01-1.40356E-03-3.87912E-06 1.53296E-03-8.34798E-15 2.26557E-15
 -1       440 1.09193E+01-5.22882E+00 3.33443E-02 6.82487E+00-8.05883E-14 5.20646E-13
 -1       441 1.34032E+00-3.97484E+00-3.17910E-02-4.27163E-01 2.46244E-14 8.81684E-13
 -1       442 4.77361E+00-4.35144E+00 2.32792E-02 4.79101E+00 5.11396E-14 6.49147E-13
 -1       443 1.76530E+01-5.81877E+00-3.51241E-02 6.71097E+00-1.20459E-14 2.99819E-13
 -1       444 2.69912E+01-3.80562E+00-1.85777E-03 4.01754E+00 3.41921E-13-1.63716E-13
 -1       445 2.03140E+01 3.24185E+00-2.17128E-02-6.58367E-01-1.76497E-13-3.88513E-13
 -1       446 3.47870E+01 4.73940E+00 1.54653E-02-4.87238E-01 8.45199E-13-2.54075E-13
 -1       447 3.62226E+01 7.63466E+00 4.24640E-02-3.21979E-01 8.68500E-13-2.76765E-13
 -1       448 3.46014E+01 7.44819E+00-3.57628E-02 5.78218E-01 7.97695E-13-2.63352E-13
 -1       449 3.41524E+01 3.30540E+00-2.65728E-02 1.75330E-01 5.97057E-13-2.81761E-13
 -1       450 3.09681E+01-1.04342E+00-3.68584E-02-1.33505E+00 3.77146E-13-1.76609E-13
 -1       451 2.33381E+01-4.55776E+00-1.85438E-02-5.53216E+00 2.02213E-13-5.37653E-13
 -1       452 1.50598E+01-5.28215E+00-7.44231E-02-6.91142E+00 1.82160E-13-7.36912E-13
 -1       453 7.51687E+00-4.95260E+00-7.93199E-02-6.05016E+00 1.06984E-13-7.52981E-13
 -1       454 2.62154E+00-2.96729E+00 3.58690E-02-2.43659E+00 3.38583E-14-9.50365E-13
 -1       455 2.55325E+00-2.38030E+00 1.04611E-01 1.73488E+00 8.31349E-14-9.47076E-13
 -1       456 6.80105E+00-4.48650E+00-4.51342E-02 6.03037E+00-9.45216E-14-7.39186E-13
 -1       457 1.38921E+01-5.03262E+00-3.96754E-02 7.20402E+00-1.96995E-13-5.93268E-13
 -1       458 2.17091E+01-4.34601E+00-2.91722E-02 6.17860E+00-3.62599E-13-4.35624E-13
 -1       459 2.88441E+01-1.73241E+00 1.16000E-03 3.56924E+00-5.64451E-13-2.26666E-13
 -1       460 3.31780E+01 2.65420E+00 4.80621E-03 4.29802E-01-7.95530E-13-5.87447E-14
 -1       461 3.42340E+01 6.14039E+00-3.47796E-02-4.96213E-01-8.46753E-13-1.74583E-13
 -1       462 3.50117E+01 8.12546E+00-8.14968E-03 3.60784E-02-8.09797E-13-2.18375E-13
 -1       463 3.47829E+01 6.39590E+00 1.48399E-02 3.54084E-01-6.89115E-13-2.32162E-13
 -1       464 3.27567E+01 1.73453E+00 1.71601E-02-1.22290E+00-4.64680E-13-8.75272E-14
 -1       465 2.85579E+01-2.05815E+00 3.35413E-02-3.74451E+00-3.31624E-13 6.37684E-14
 -1       466 1.97839E+01-5.16887E+00-4.12866E-02-6.57788E+00-2.84828E-13 5.02237E-14
 -1       467 1.21188E+01-5.37206E+00-2.19307E-02-7.07265E+00-8.49321E-14 6.51774E-13
 -1       468 3.69352E+00-4.75306E+00-7.01350E-02-4.49979E+00 5.84532E-14 1.27248E-12
 -1       469 3.25365E+01 4.91513E-01 3.22050E-02 1.60989E+00 7.61830E-13-2.59820E-13
 -1       470 1.01195E+01-4.04454E+00 1.05811E-01-6.70139E+00 3.41976E-13 8.37629E-13
 -1       471 6.28695E+00-1.66378E+00 1.40277E-01 4.45411E+00 2.12948E-13-7.83193E-13
 -1       472 2.79652E+01-4.05084E+00-1.61538E-02-2.26181E+00 7.30700E-14-9.03652E-14
 -1       473 2.30295E+01 5.98449E-01 2.65505E-03-1.77108E-01 2.49641E-13 1.71556E-13
 -1       474 1.75143E+01 3.30689E+00-2.81982E-03 7.11603E-01 4.72663E-14-4.44683E-13
 -1       475 1.88282E+01 2.79020E+00-4.37100E-03 4.26514E-01-2.86681E-14-4.30141E-13
 -1       476 1.57462E+01 4.11415E+00-1.45718E-03 4.70952E-01 1.52488E-13-4.63686E-13
 -1       477 1.57511E+01 4.16208E+00-7.84051E-04 7.75848E-02 2.04697E-13-4.53070E-13
 -1       478 1.64400E+01 3.91276E+00-1.64154E-03-2.53326E-01 2.24425E-13-4.41353E-13
 -1       479 1.76985E+01 3.42909E+00-3.67322E-03-3.74914E-01 2.64931E-13-3.45377E-13
 -1       480 1.92816E+01 2.82507E+00-5.29014E-03-2.41932E-01 3.02697E-13-2.10067E-13
 -1       481 2.09878E+01 2.14983E+00-5.14729E-03 5.17511E-02 3.35116E-13-6.74640E-14
 -1       482 2.31993E+01-4.00242E-02 1.68624E-03-5.05946E-01 1.40495E-13 1.39902E-13
 -1       483 2.24873E+01 4.64446E-01 1.06571E-04-3.19488E-01-1.67957E-13-1.38162E-13
 -1       484 2.96932E+01 4.14642E+00-1.75293E-01 2.24521E+00 5.24282E-13 1.06630E-13
 -1       485 2.26790E+01-2.23279E-01 9.43729E-05-1.62465E-01-1.20868E-13-9.19510E-14
 -1       486 2.29293E+01-7.05626E-01-1.84102E-03-3.61321E-01-7.82839E-14-1.80956E-14
 -1       487 2.32042E+01-9.46327E-01-2.61263E-03-8.48245E-01-8.71161E-14-7.28779E-15
 -1       488 2.33537E+01-7.71885E-01-4.24875E-03-1.45891E+00-1.15452E-13 2.49096E-14
 -1       489 2.32338E+01-6.14980E-02-4.39568E-03-1.86738E+00-1.21557E-13 2.00840E-14
 -1       490 2.28550E+01 1.02122E+00-1.94466E-03-1.66685E+00-2.52477E-13-4.42398E-14
 -1       491 2.24669E+01 1.91853E+00-6.54222E-03-7.14046E-01-2.62641E-13-7.19590E-14
 -1       492 2.24335E+01 1.98415E+00-7.94918E-03 6.45369E-01-2.29029E-13-1.56073E-13
 -1       493 2.27573E+01 1.18835E+00-5.31359E-03 1.70470E+00-1.47966E-13-1.81652E-13
 -1       494 2.31464E+01 5.15989E-02-1.64333E-03 1.99204E+00-6.39044E-14-2.92696E-13
 -1       495 2.32738E+01-7.90636E-01-1.35038E-03 1.59507E+00-6.42364E-14-4.41735E-13
 -1       496 2.30875E+01-1.12736E+00-2.97974E-03 8.77025E-01-9.02586E-14-3.40973E-13
 -1       497 2.26999E+01-1.05612E+00-2.89416E-03 1.66017E-01-4.98398E-14-2.30869E-13
 -1       498 2.22498E+01-7.83768E-01-2.37280E-03-3.73884E-01-1.73757E-13-1.74690E-13
 -1       499 2.18277E+01-4.75388E-01-1.59453E-03-7.10004E-01-1.56232E-13-1.36193E-13
 -1       500 2.14678E+01-2.15713E-01-8.61504E-04-8.72685E-01-9.65658E-14-7.69594E-14
 -1       501 2.11732E+01-3.09308E-02-3.25331E-04-9.09572E-01 9.97398E-14-1.01512E-13
 -1       502 2.09348E+01 8.34122E-02 2.68018E-05-8.65777E-01 1.05393E-13-3.06836E-13
 -1       503 2.07414E+01 1.43282E-01 2.32485E-04-7.76806E-01 1.70441E-13-3.25915E-13
 -1       504 2.05840E+01 1.65755E-01 3.30456E-04-6.67809E-01 1.07998E-13-2.34542E-13
 -1       505 2.04556E+01 1.64952E-01 3.56722E-04-5.55242E-01 6.94343E-14-2.57743E-13
 -1       506 2.03511E+01 1.51170E-01 3.40390E-04-4.48981E-01 1.26290E-14-1.72695E-13
 -1       507 2.02668E+01 1.31323E-01 3.02166E-04-3.54256E-01-4.35945E-14-2.61222E-13
 -1       508 2.01994E+01 1.09742E-01 2.55444E-04-2.73209E-01 1.44183E-14-1.40194E-13
 -1       509 2.01463E+01 8.89427E-02 2.08196E-04-2.06041E-01-6.29770E-14-8.45846E-15
 -1       510 2.01049E+01 7.02368E-02 1.64715E-04-1.51836E-01-6.52091E-14-4.21652E-14
 -1       511 2.00733E+01 5.41748E-02 1.26957E-04-1.09108E-01-5.26327E-14-1.08422E-13
 -1       512 2.00495E+01 4.08501E-02 9.54771E-05-7.61564E-02 4.89729E-14-2.22006E-14
 -1       513 2.00320E+01 3.00994E-02 7.00456E-05-5.12840E-02-1.93359E-14-2.37972E-14
 -1       514 2.00194E+01 2.16324E-02 5.00369E-05-3.29212E-02-1.08212E-13-1.83226E-13
 -1       515 2.00105E+01 1.51111E-02 3.46669E-05-1.96855E-02-1.51391E-13-3.02230E-13
 -1       516 2.00045E+01 1.01966E-02 2.31302E-05-1.04030E-02-1.88950E-13-1.82052E-13
 -1       517 2.00005E+01 6.57559E-03 1.46744E-05-4.10494E-03 2.47367E-15 2.69602E-13
 -1       518 1.99981E+01 3.97230E-03 8.63586E-06-1.14366E-05 1.23212E-13 1.39875E-13
 -1       519 1.99968E+01 2.15258E-03 4.45092E-06 2.49179E-03-9.13392E-14 6.74412E-15
 -1       520 1.99962E+01 9.22877E-04 1.65491E-06 3.87822E-03 8.26578E-14-7.80242E-14
 -1       521 1.99962E+01 1.26566E-04-1.28491E-07 4.50475E-03 4.02768E-14-1.23863E-14
 -1       522 1.99964E+01-3.61219E-04-1.19968E-06 4.63368E-03 8.00983E-15 3.31952E-13
 -1       523 1.99968E+01-6.39176E-04-1.79702E-06 4.45169E-03 1.20326E-13 2.30926E-13
 -1       524 1.99972E+01-7.85369E-04-2.11519E-06 4.08564E-03 3.33030E-13 8.97653E-14
 -1       525 1.99978E+01-8.62341E-04-2.29015E-06 3.61573E-03 2.06288E-14 1.62687E-13
 -1       526 1.99982E+01-9.20377E-04-2.46760E-06 3.08354E-03 9.66115E-14 1.34571E-13
 -1       527 1.99987E+01-9.91312E-04-2.83489E-06 2.51075E-03-1.49722E-13-6.82863E-14
 -1       528 1.05059E+01-3.00025E+00 1.52012E-01 5.82642E+00-3.14984E-13 3.97703E-13
 -1       529 2.41226E+01-1.18380E+00-5.11690E-03 1.73769E-01 4.42008E-15 1.92762E-13
 -1       530 2.46683E+01-1.38210E+00-5.35451E-03 1.12260E+00-3.64942E-15 2.02500E-13
 -1       531 2.49257E+01-8.49134E-01-1.09223E-02 2.10722E+00 9.00320E-14 2.61000E-13
 -1       532 2.46758E+01 5.73969E-01-2.38047E-02 2.43859E+00 2.93870E-13 2.85511E-13
 -1       533 2.41484E+01 2.17846E+00-3.33542E-02 1.46651E+00 2.87260E-13 1.12731E-13
 -1       534 2.39211E+01 2.66032E+00-4.45165E-02-5.30132E-01 3.88285E-13-4.62252E-14
 -1       535 2.42919E+01 1.53236E+00-3.48359E-02-2.22427E+00 4.15688E-13-2.31787E-13
 -1       536 2.48275E+01-1.70211E-01-8.10004E-03-2.55626E+00 2.35508E-13-2.46876E-13
 -1       537 2.48589E+01-1.26170E+00-7.49080E-03-1.79893E+00 8.48399E-15-2.47025E-13
 -1       538 2.43779E+01-1.49451E+00-6.49833E-03-6.59708E-01 1.14058E-14-3.10955E-13
 -1       539 2.36905E+01-1.18126E+00-6.09413E-03 3.06661E-01 1.42561E-14-2.95462E-13
 -1       540 2.30140E+01-7.13184E-01-4.72087E-03 9.24250E-01 1.55192E-14-2.03508E-13
 -1       541 2.24381E+01-3.09301E-01-2.79588E-03 1.22163E+00-4.95030E-14 2.67172E-15
 -1       542 2.19703E+01-3.52854E-02-1.12797E-03 1.29221E+00-1.84197E-13 1.92328E-13
 -1       543 2.15905E+01 1.20390E-01 3.13063E-05 1.22554E+00-1.91571E-13 2.65618E-13
 -1       544 2.12781E+01 1.91514E-01 6.62178E-04 1.08847E+00-4.74144E-14 2.07811E-13
 -1       545 2.10185E+01 2.10406E-01 9.30818E-04 9.24889E-01-4.80990E-15 8.92266E-16
 -1       546 2.08022E+01 2.00749E-01 9.78502E-04 7.60820E-01-3.71423E-14 3.23878E-13
 -1       547 2.06232E+01 1.77718E-01 9.08309E-04 6.10087E-01-1.74403E-13 3.05759E-13
 -1       548 2.04767E+01 1.50175E-01 7.86549E-04 4.78811E-01-1.36566E-13-2.00828E-14
 -1       549 2.03585E+01 1.22878E-01 6.51555E-04 3.68578E-01 3.25967E-14-1.71131E-13
 -1       550 2.02645E+01 9.81136E-02 5.23134E-04 2.78504E-01 1.79582E-13-2.68135E-13
 -1       551 2.01910E+01 7.67698E-02 4.10034E-04 2.06502E-01 1.62756E-13-2.71624E-13
 -1       552 2.01346E+01 5.89873E-02 3.14920E-04 1.50035E-01-6.84623E-14 9.87395E-14
 -1       553 2.00920E+01 4.45359E-02 2.37382E-04 1.06526E-01-6.65981E-14 2.71253E-13
 -1       554 2.00604E+01 3.30247E-02 1.75628E-04 7.35786E-02 1.14446E-13 2.69525E-13
 -1       555 2.00375E+01 2.40156E-02 1.27380E-04 4.90723E-02 3.09565E-14 1.35917E-14
 -1       556 2.00213E+01 1.70809E-02 9.03316E-05 3.11953E-02-1.17231E-13 5.00021E-14
 -1       557 2.00102E+01 1.18313E-02 6.23621E-05 1.84378E-02 5.29980E-14-7.05504E-15
 -1       558 2.00028E+01 7.92650E-03 4.16155E-05 9.56760E-03 2.89370E-13-8.58163E-14
 -1       559 1.99982E+01 5.07781E-03 2.65215E-05 3.59734E-03 2.45168E-13-5.12712E-14
 -1       560 1.99956E+01 3.04527E-03 1.57810E-05-2.51213E-04 1.31814E-13-2.07682E-14
 -1       561 1.99943E+01 1.63305E-03 8.33856E-06-2.58121E-03-2.20506E-13-1.01327E-13
 -1       562 1.99939E+01 6.83731E-04 3.34858E-06-3.85213E-03-1.54512E-13-4.47701E-14
 -1       563 1.99941E+01 7.23858E-05 1.41944E-07-4.40729E-03-4.09422E-13-1.68248E-13
 -1       564 1.99946E+01-2.99186E-04-1.80623E-06-4.49744E-03-2.65000E-13-8.47761E-14
 -1       565 1.99953E+01-5.07801E-04-2.91039E-06-4.30011E-03 5.87638E-15 2.20845E-14
 -1       566 1.99961E+01-6.13751E-04-3.47470E-06-3.93544E-03 6.49885E-14 1.30456E-13
 -1       567 1.99969E+01-6.65077E-04-3.75477E-06-3.47860E-03 6.10266E-14 4.09785E-13
 -1       568 1.99976E+01-7.00647E-04-4.12107E-06-2.97033E-03 1.81022E-13 4.08704E-13
 -1       569 1.99983E+01-7.53278E-04-5.42896E-06-2.42832E-03-1.02932E-13 5.79799E-13
 -1       570 1.99989E+01-8.31848E-04-5.33494E-06-1.84553E-03-1.40239E-13 6.49432E-13
 -1       571 2.00004E+01-2.75783E-03 1.19293E-06-1.93420E-03 3.76379E-13-6.21091E-13
 -1       572 2.00007E+01-3.17211E-03 1.79568E-06-1.41978E-03 8.67488E-14-3.82445E-13
 -1       573 1.99995E+01-1.62417E-03-5.36386E-07-2.22912E-03-5.62174E-14 1.84444E-13
 -1       574 2.00000E+01-2.22802E-03 5.64993E-07-2.21888E-03 1.87203E-13 2.25331E-14
 -1       575 2.00009E+01-3.43298E-03 2.26227E-06-7.46130E-04-8.82367E-14-1.95452E-13
 -1       576 2.00010E+01-3.52050E-03 2.41651E-06 8.09261E-06-2.14894E-13-1.50338E-13
 -1       577 2.00009E+01-3.42800E-03 2.28854E-06 7.61227E-04-5.96515E-14-7.83905E-14
 -1       578 2.00007E+01-3.16880E-03 1.91038E-06 1.42123E-03 9.82307E-14-2.43021E-13
 -1       579 2.00004E+01-2.75622E-03 1.03121E-06 1.93492E-03 3.67205E-13 1.73727E-14
 -1       580 2.00000E+01-2.21574E-03-1.77401E-07 2.21567E-03 5.34435E-14 2.31097E-13
 -1       581 1.99995E+01-1.60838E-03-1.62098E-06 2.22245E-03-1.30426E-13 5.38572E-14
 -1       582 1.70568E+01-5.07012E+00 9.48647E-02 6.52470E+00-3.79932E-13 2.19987E-13
 -1       583 2.40879E+01-5.60048E+00 1.32052E-02 4.25712E+00-1.23436E-13-3.52829E-13
 -1       584 2.35790E+01-6.47971E-01-2.38118E-03-3.93489E-01 3.69864E-14 1.70825E-13
 -1       585 5.26940E+00-1.73092E+00 1.65604E-01-3.06324E+00 1.61537E-14 9.69835E-13
 -1       586 2.21704E+01 1.40743E+00-7.03254E-03-7.28850E-01-2.23808E-13-1.89313E-13
 -1       587 3.02934E+01 2.97702E+00-1.32598E-01 1.77105E+00-4.23994E-13-3.65478E-13
 -1       588 2.96271E+01-1.18286E+00-8.75562E-02-1.63665E-01-4.08253E-13 1.52107E-13
 -1       589 8.84850E+00-1.72178E+00 1.67337E-01-5.07113E+00-1.02758E-13-7.14345E-13
 -1       590 3.06902E+01 5.56448E+00-1.58659E-01-1.76867E+00 8.20469E-13-3.30513E-13
 -1       591 1.64034E+01 3.79030E+00-1.54711E-03 7.25064E-01 1.13193E-13-4.71863E-13
 -1       592 3.01048E+01 6.93920E+00-1.77843E-01-9.29736E-02 7.83748E-13-1.19827E-13
 -1       593 2.08754E+01-5.23805E+00 5.40585E-02-5.77010E+00-1.07934E-13-3.96025E-13
 -1       594 3.04192E+01 9.06203E-01-1.34285E-01-1.92448E+00 5.36383E-13-5.00107E-13
 -1       595 2.99707E+01 8.58867E-01-1.30870E-01 2.00604E+00 3.33754E-13 3.36051E-14
 -1       596 1.32708E+01-3.52492E+00 1.23970E-01 6.84782E+00 2.35152E-13-5.27696E-13
 -1       597 1.43987E+01-4.28488E+00 9.41132E-02-6.71447E+00-1.08177E-13-5.46230E-13
 -1       598 5.13931E+00-3.15809E-01 1.83291E-01-5.80212E-01 7.46495E-14-8.77645E-13
 -1       599 3.05488E+01 6.87912E+00-1.59654E-01 1.00244E+00-6.76681E-13-3.46737E-13
 -1       600 2.05289E+01-4.91355E+00 6.69855E-02 6.01282E+00 1.50650E-13-1.98526E-13
 -1       601 2.57943E+01-4.58430E+00-1.44949E-02 3.53577E+00-3.27516E-14 2.30649E-14
 -1       602 2.99933E+01 3.34899E+00-1.44128E-01-1.87167E+00-6.27005E-13-1.40304E-14
 -1       603 3.00619E+01 6.92172E+00-1.60020E-01-9.26580E-01-7.75643E-13-1.75443E-13
 -1       604 2.94107E+01-1.74678E+00-7.72930E-02-1.47204E-01-1.17538E-13-3.76511E-13
 -1       605 2.55394E+01-4.91844E+00 6.35652E-04-3.84982E+00 2.17881E-14-2.51230E-13
 -1       606 1.82920E+01-5.31679E+00 7.61193E-02-6.68579E+00 2.23793E-13-1.16764E-13
 -1       607 2.92657E+01-2.95340E+00-5.67662E-02 2.10745E-01 2.15393E-13-6.03781E-13
 -1       608 2.31481E+01 1.17487E+00-4.07847E-03 4.01952E-01 3.42770E-13 2.50790E-13
 -1       609 6.23278E+00-9.29724E-01 2.03984E-01 2.30879E+00-2.38167E-13 6.63733E-13
 -1       610 2.01500E+01 2.31067E+00-6.25900E-03-3.43388E-02-9.68722E-14-3.67184E-13
 -1       611 1.99990E+01-1.05467E-03-3.17969E-06 2.08590E-03-2.59635E-13 9.24436E-14
 -1       612 2.88695E+01-1.95384E+00-8.22908E-02 1.11514E+00 1.77696E-13 3.87468E-14
 -1       613 2.51567E+01-5.00590E+00 1.00635E-02-3.26405E+00-8.00228E-14-1.53424E-13
 -1       614 6.90241E+00 2.01854E-01 1.57656E-01 2.10226E+00 2.07011E-13-8.06910E-13
 -1       615 2.73179E+01 5.00623E+00-1.44635E-01-1.32247E+00 6.30537E-13-1.35004E-13
 -1       616 1.55785E+01 3.51273E+00 1.23206E-03-3.82552E-01 1.83829E-13-4.35454E-13
 -1       617 1.51671E+01 3.65863E+00-7.15134E-04 3.35818E-01 1.78529E-13-4.35941E-13
 -1       618 1.85675E+01 2.24086E+00-1.00335E-03-9.35191E-01 2.11957E-13-2.50176E-13
 -1       619 2.03843E+01 1.52227E+00-1.58299E-04-7.10757E-01 2.41206E-13-1.23567E-13
 -1       620 2.19392E+01 6.18008E-01 2.20833E-03-6.32911E-01 2.04381E-13-1.08787E-14
 -1       621 2.24099E+01-3.43027E-01-3.39740E-04-9.47282E-01 7.84395E-14-9.62898E-15
 -1       622 2.25065E+01-6.22817E-01 1.73120E-03 1.67876E-01-5.27906E-14-8.96690E-14
 -1       623 2.31871E+01-1.30014E+00-2.11807E-03-1.38449E-01-5.51831E-14-4.64809E-14
 -1       624 2.39210E+01-1.55167E+00-4.89227E-03-8.05504E-01-3.79431E-14 5.94260E-14
 -1       625 2.44535E+01-9.83313E-01-7.84762E-03-1.66531E+00-1.13406E-13 8.61203E-14
 -1       626 2.45190E+01 5.26534E-01-1.09037E-02-2.22204E+00-2.11096E-13 1.48109E-13
 -1       627 2.39660E+01 2.48634E+00-5.74507E-02-1.70493E+00-2.91223E-13 1.02294E-13
 -1       628 2.36437E+01 3.48367E+00-4.61853E-02-1.05182E-01-3.72573E-13 1.24297E-14
 -1       629 2.39259E+01 2.68443E+00-4.25633E-02 1.58138E+00-2.28000E-13-1.27822E-13
 -1       630 2.42592E+01 8.03687E-01-3.20008E-02 2.30309E+00-2.48580E-13-2.35846E-13
 -1       631 2.43619E+01-9.75980E-01-8.33869E-04 1.84396E+00-1.38455E-13-3.02894E-13
 -1       632 2.38723E+01-1.77292E+00-4.90799E-03 8.94157E-01-4.31784E-14-2.81400E-13
 -1       633 2.30750E+01-1.78807E+00-2.72142E-03-1.99628E-02-2.15882E-14-2.85906E-13
 -1       634 2.22676E+01-1.38393E+00-1.78539E-03-6.51056E-01-6.70548E-14-2.32662E-13
 -1       635 2.16045E+01-8.80501E-01-9.43222E-04-1.00204E+00-9.27001E-14-4.15170E-14
 -1       636 2.11163E+01-4.39166E-01-3.76121E-04-1.14535E+00-1.70721E-15 5.83104E-14
 -1       637 2.07792E+01-1.13947E-01-1.13751E-04-1.15242E+00-3.64985E-14 1.19100E-13
 -1       638 2.05540E+01 9.57627E-02 1.22361E-05-1.07856E+00-6.57069E-14-4.43320E-14
 -1       639 2.04042E+01 2.13177E-01 8.12790E-05-9.62163E-01 6.82412E-14-1.27987E-13
 -1       640 2.03027E+01 2.65004E-01 1.14645E-04-8.28267E-01 1.72583E-13-3.12695E-13
 -1       641 2.02316E+01 2.74246E-01 1.23585E-04-6.92830E-01 1.30137E-13-1.99524E-13
 -1       642 2.01797E+01 2.58320E-01 1.17856E-04-5.65473E-01 2.60749E-14-1.17982E-13
 -1       643 2.01404E+01 2.29368E-01 1.04655E-04-4.51433E-01 9.85442E-15-3.29514E-14
 -1       644 2.01097E+01 1.95325E-01 8.85771E-05-3.52980E-01 1.22152E-13 1.92818E-14
 -1       645 2.00852E+01 1.61050E-01 7.23280E-05-2.70440E-01 7.78365E-14-7.75223E-15
 -1       646 2.00656E+01 1.29278E-01 5.73608E-05-2.02948E-01-2.85453E-14-1.05559E-14
 -1       647 2.00500E+01 1.01344E-01 4.43400E-05-1.48977E-01-6.32985E-14 8.65417E-14
 -1       648 2.00375E+01 7.77034E-02 3.34576E-05-1.06704E-01 1.72127E-14 1.12310E-13
 -1       649 2.00276E+01 5.82866E-02 2.46410E-05-7.42535E-02-1.05362E-13-3.93492E-14
 -1       650 2.00199E+01 4.27359E-02 1.76822E-05-4.98448E-02-1.53121E-14-4.05869E-14
 -1       651 2.00140E+01 3.05600E-02 1.23181E-05-3.18738E-02-3.32422E-13-4.15195E-14
 -1       652 2.00096E+01 2.12285E-02 8.27665E-06-1.89504E-02-1.13963E-13-5.00365E-14
 -1       653 2.00063E+01 1.42284E-02 5.30206E-06-9.90576E-03-8.63015E-14-1.36142E-13
 -1       654 2.00039E+01 9.09378E-03 3.16774E-06-3.78195E-03-7.49348E-14-2.38333E-13
 -1       655 2.00022E+01 5.41952E-03 1.68062E-06 1.88843E-04-1.57367E-13-3.25542E-13
 -1       656 2.00010E+01 2.86419E-03 6.80890E-07 2.60911E-03-1.09624E-13-2.45486E-13
 -1       657 2.00002E+01 1.14704E-03 4.09311E-08 3.94184E-03 2.62346E-13-2.86846E-13
 -1       658 1.99997E+01 4.15044E-05-3.44664E-07 4.53494E-03 8.32174E-14-2.06335E-13
 -1       659 1.99994E+01-6.32719E-04-5.59313E-07 4.64324E-03 8.59759E-14-8.90686E-14
 -1       660 1.99993E+01-1.01810E-03-6.72158E-07 4.44744E-03 2.13360E-13 6.49569E-14
 -1       661 1.99993E+01-1.22714E-03-6.74155E-07 4.06972E-03 5.26396E-14-1.13006E-14
 -1       662 1.99993E+01-1.34683E-03-1.21816E-06 3.58955E-03-1.48440E-13-9.70805E-14
 -1       663 1.99994E+01-1.45759E-03 1.17821E-06 3.04048E-03-9.40762E-14-3.85546E-13
 -1       664 2.69896E+01-3.30783E+00-5.08499E-02 5.57342E-01-1.33405E-14 2.12413E-13
 -1       665 2.44255E+01-2.19982E+00-4.26964E-03-1.86291E-01-7.00904E-14 1.15628E-13
 -1       666 2.63264E+01 2.15188E+00-1.12208E-01 2.55217E+00 4.28161E-13 2.69279E-13
 -1       667 2.62351E+01-1.80638E+00-3.07755E-02-1.94229E+00 6.35013E-14-2.34395E-13
 -1       668 2.50846E+01-2.59436E+00-5.11500E-03-4.37792E-01-3.68684E-14-2.91903E-13
 -1       669 2.36900E+01-2.20633E+00-1.65412E-03 7.35482E-01-3.77310E-14-1.65383E-13
 -1       670 2.25298E+01-1.41284E+00-1.71888E-03 1.38797E+00-6.00350E-14-3.96838E-14
 -1       671 2.17213E+01-6.81410E-01-1.21168E-03 1.64539E+00-1.51459E-13 1.39046E-13
 -1       672 2.12042E+01-1.62468E-01-6.79804E-04 1.66156E+00-1.90976E-13 1.42001E-13
 -1       673 2.08823E+01 1.49820E-01-7.73759E-05 1.54745E+00-1.18482E-13 3.32617E-14
 -1       674 2.06767E+01 3.07191E-01 1.94858E-04 1.37061E+00-1.13554E-13-6.14387E-14
 -1       675 2.05364E+01 3.64056E-01 3.10696E-04 1.17188E+00-2.14344E-14 8.89381E-14
 -1       676 2.04324E+01 3.62459E-01 3.40756E-04 9.75016E-01-8.64437E-14 7.38625E-14
 -1       677 2.03496E+01 3.30690E-01 3.24227E-04 7.93099E-01-1.78630E-14 1.04862E-13
 -1       678 2.02809E+01 2.86189E-01 2.85611E-04 6.32479E-01-5.58430E-14 9.88121E-14
 -1       679 2.02230E+01 2.38954E-01 2.39758E-04 4.95289E-01 3.55296E-14-1.29341E-13
 -1       680 2.01745E+01 1.94263E-01 1.94690E-04 3.81122E-01 1.33716E-13-1.52433E-13
 -1       681 2.01342E+01 1.54563E-01 1.54183E-04 2.88156E-01 2.02304E-13-1.21770E-13
 -1       682 2.01013E+01 1.20689E-01 1.19607E-04 2.13887E-01-1.47484E-13-3.65012E-14
 -1       683 2.00749E+01 9.26018E-02 9.10782E-05 1.55592E-01-8.94965E-14-1.28376E-13
 -1       684 2.00542E+01 6.98287E-02 6.81124E-05 1.10610E-01 2.29857E-14-1.89855E-13
 -1       685 2.00381E+01 5.17102E-02 4.99896E-05 7.64905E-02 1.79422E-13-7.61132E-14
 -1       686 2.00260E+01 3.75411E-02 3.59373E-05 5.10712E-02 9.45003E-14-5.20207E-14
 -1       687 2.00170E+01 2.66433E-02 2.52221E-05 3.24998E-02 7.53396E-14-4.98017E-13
 -1       688 2.00105E+01 1.84019E-02 1.71894E-05 1.92278E-02 9.38230E-14-3.96903E-13
 -1       689 2.00058E+01 1.22803E-02 1.12766E-05 9.98722E-03 3.06412E-13-2.00693E-13
 -1       690 2.00027E+01 7.82246E-03 7.01237E-06 3.75864E-03 2.01880E-13-1.33926E-13
 -1       691 2.00006E+01 4.64925E-03 4.01002E-06-2.63220E-04 7.53772E-14 4.69922E-14
 -1       692 1.99993E+01 2.45089E-03 1.95667E-06-2.70364E-03-2.44939E-13 1.71691E-14
 -1       693 1.99986E+01 9.78083E-04 6.01903E-07-4.03941E-03-2.60679E-13 1.24519E-13
 -1       694 1.99983E+01 3.27135E-05-2.50580E-07-4.62686E-03-1.95601E-13-1.13341E-13
 -1       695 1.99982E+01-5.41250E-04-7.52602E-07-4.72592E-03-1.20744E-13-2.81511E-13
 -1       696 1.99982E+01-8.66138E-04-1.03864E-06-4.52026E-03-3.38840E-14-1.69090E-13
 -1       697 1.99984E+01-1.03806E-03-1.13261E-06-4.13381E-03-9.59412E-15-4.04999E-13
 -1       698 1.99986E+01-1.13324E-03-1.22197E-06-3.64448E-03-9.25889E-14-2.04318E-13
 -1       699 1.99989E+01-1.21402E-03-1.47271E-06-3.09537E-03-2.15509E-13 1.69326E-13
 -1       700 1.99992E+01-1.40244E-03-1.53337E-06-2.68145E-03-1.12851E-13 1.53893E-13
 -1       701 2.65649E+01-4.38994E+00-7.53587E-03 1.11490E+00-1.01719E-13-6.26723E-13
 -1       702 2.00017E+01-3.16144E-03 7.97216E-07-4.44466E-04 3.07251E-14-2.92842E-13
 -1       703 1.99994E+01-1.52505E-03-1.79794E-07 2.66169E-03-6.72178E-14-1.47431E-13
 -1       704 2.00011E+01-2.72080E-03 4.79364E-07-2.04102E-03 3.18395E-13-7.66433E-13
 -1       705 2.00017E+01-3.15852E-03 7.67552E-07 4.64998E-04 5.08683E-14-5.31573E-14
 -1       706 2.00015E+01-3.01325E-03 6.52298E-07-1.30998E-03 3.50380E-13-3.80832E-13
 -1       707 2.00015E+01-3.00939E-03 7.77127E-07 1.31407E-03 3.25494E-14-1.39877E-13
 -1       708 2.00011E+01-2.71497E-03 8.67318E-07 2.04392E-03 1.34945E-14 6.58953E-15
 -1       709 2.00005E+01-2.29987E-03 2.29447E-07 2.56280E-03 1.09568E-13 4.49008E-14
 -1       710 2.79001E+01 3.43596E-01-8.71408E-02-2.03107E+00-3.05176E-13 1.99937E-13
 -1       711 2.17222E+01 7.38057E-01 3.12979E-04-2.51522E-02-1.14389E-13-2.03518E-13
 -1       712 1.56462E+01-3.32624E+00 9.47739E-02 5.73139E+00-4.03858E-13 1.20150E-13
 -1       713 2.79990E+01-1.68040E+00-9.88255E-02-1.93537E+00 1.04218E-13-4.89525E-13
 -1       714 2.76277E+01 4.34513E+00-1.29143E-01 2.07669E+00-5.36737E-13-3.84439E-13
 -1       715 2.12394E+01-4.88234E+00 4.31266E-02 4.80059E+00-3.56278E-13-2.08302E-13
 -1       716 8.47221E+00 2.02703E-01 1.46592E-01-1.01801E+00-1.00034E-13 6.13024E-13
 -1       717 2.32299E+01-1.34451E+00-1.52778E-03-8.45758E-01-1.17494E-14 1.43872E-14
 -1       718 2.63929E+01-7.45295E-01-4.20697E-02 2.40860E+00 1.79504E-13 2.73875E-13
 -1       719 2.57130E+01-2.33602E+00-5.33941E-03 1.02992E+00 1.31145E-14 1.82760E-13
 -1       720 9.44841E+00 6.95458E-01 1.34695E-01-2.48428E+00 5.05238E-15-6.84848E-13
 -1       721 1.83876E+01-3.16452E+00 7.64309E-02 5.45196E+00 3.79620E-13-1.90341E-13
 -1       722 1.43110E+01-2.32701E+00 1.12731E-01-5.59218E+00-1.25556E-13-4.95430E-13
 -1       723 2.76835E+01 2.29626E+00-1.12320E-01-2.78227E+00 5.45064E-13-3.62793E-13
 -1       724 1.68419E+01 2.96069E+00-1.52068E-03-8.58014E-01 1.97947E-13-3.61981E-13
 -1       725 1.15619E+01-9.65454E-01 1.34884E-01 5.21781E+00 3.39496E-13-5.76802E-13
 -1       726 1.12860E+01-7.45429E-01 1.14701E-01 3.84054E+00-3.24161E-13 2.69867E-13
 -1       727 1.84367E+01 2.08915E+00-1.75093E-03 1.12001E+00 6.03041E-14-3.77391E-13
 -1       728 1.89198E+01-3.97469E+00 7.62603E-02-5.51755E+00-1.81962E-13-3.73371E-13
 -1       729 1.09511E+01-1.57399E+00 1.39574E-01-5.00131E+00 3.56774E-13 5.83852E-13
 -1       730 2.69850E+01-3.94359E+00-4.42330E-02-1.05062E+00 8.51871E-14-3.92204E-13
 -1       731 2.71002E+01 4.39161E+00-1.23672E-01-1.91317E+00-6.06300E-13 3.36155E-14
 -1       732 2.46380E+01-4.45261E+00 1.35374E-02 3.10368E+00 1.67514E-13 9.56769E-14
 -1       733 1.61780E+01-3.54665E+00 7.98446E-02-6.01627E+00 4.63806E-13 1.42865E-13
 -1       734 2.66158E+01 4.71850E+00-1.41821E-01 1.05333E+00 5.43919E-13 1.37826E-13
 -1       735 2.70872E+01 6.02816E+00-1.62233E-01 2.20507E-01-6.22696E-13-2.41730E-13
 -1       736 2.78027E+01-2.15813E-01-6.97000E-02 1.97752E+00-1.30975E-13-4.12857E-13
 -1       737 2.28017E+01-5.17537E+00 3.08626E-02-4.48026E+00 1.96551E-13-2.92688E-13
 -1       738 1.56805E+01 3.37009E+00-9.48173E-04 9.85436E-01 1.54807E-13-4.48056E-13
 -1       739 2.00005E+01-2.30245E-03 8.90276E-07-2.54850E-03-3.47481E-14-1.56043E-13
 -1       740 1.99999E+01-1.87970E-03 1.61625E-08-2.73354E-03-3.31882E-13 4.44053E-13
 -1       741 1.10915E+01 5.80380E-01 7.44466E-02 1.30409E+00-1.15356E-13 4.28897E-13
 -1       742 2.72891E+01-3.47909E+00-2.08395E-02-9.13713E-02 9.63552E-15-9.49241E-15
 -1       743 2.25859E+01-4.31258E+00 2.99789E-02-3.82782E+00-1.68531E-13-2.20041E-13
 -1       744 1.28243E+01 6.77112E-03 7.55406E-02-3.82108E+00-6.75536E-14-5.65912E-13
 -1       745 9.33541E+00 1.44189E+00 1.10805E-01-4.39701E-01 1.03002E-13-6.84452E-13
 -1       746 1.69046E+01 2.77350E+00-1.73500E-04 1.26352E+00 1.23457E-13-4.08914E-13
 -1       747 1.99277E+01 1.49627E+00-3.29400E-03 6.62802E-01-9.22419E-15-3.45603E-13
 -1       748 1.97467E+01 8.53575E-01 3.56155E-05-1.48814E+00 1.28566E-13-1.56815E-13
 -1       749 1.54635E+01-1.63465E+00 5.72505E-02 4.45068E+00-3.23467E-13 9.74828E-14
 -1       750 2.51025E+01-3.40447E+00 3.30484E-03 1.11019E+00 1.22671E-13 1.49276E-13
 -1       751 2.35275E+01-2.07995E+00 3.75621E-03 4.79348E-01 5.49225E-14 4.24542E-14
 -1       752 2.48865E+01-2.28148E+00-1.11858E-02-4.54995E-01-3.77359E-14 1.49157E-13
 -1       753 2.50358E+01 4.47474E+00-9.66064E-02 9.44974E-01-5.00246E-13-1.48570E-13
 -1       754 2.58212E+01 2.24771E+00-1.06055E-01 2.24293E+00-3.26685E-13-4.22897E-13
 -1       755 2.35875E+01-2.67932E+00-4.67111E-03-5.31216E-01-6.65271E-14-1.37668E-13
 -1       756 2.23012E+01-2.09448E+00 3.93461E-05-1.22628E+00 4.61672E-14-1.49036E-13
 -1       757 2.13228E+01-1.34549E+00-3.15252E-04-1.50147E+00 7.21131E-14 3.15100E-14
 -1       758 2.06795E+01-6.93577E-01 1.92220E-04-1.53143E+00 1.33960E-14 7.03000E-14
 -1       759 2.02910E+01-2.08859E-01 1.50502E-04-1.43697E+00-1.70541E-14 2.16371E-14
 -1       760 2.00808E+01 1.06667E-01 1.15397E-04-1.28675E+00-5.76151E-14-4.48927E-14
 -1       761 1.99791E+01 2.89151E-01 7.58774E-05-1.11805E+00-7.16223E-14 1.46607E-14
 -1       762 1.99398E+01 3.76011E-01 5.94540E-05-9.48931E-01 3.33976E-14-1.14448E-15
 -1       763 1.99337E+01 3.99263E-01 4.89951E-05-7.89315E-01 3.02034E-13 9.67756E-15
 -1       764 1.99429E+01 3.83498E-01 4.00090E-05-6.44466E-01 1.98595E-13 6.38778E-14
 -1       765 1.99575E+01 3.46263E-01 3.21999E-05-5.16899E-01-4.40153E-15 1.53124E-13
 -1       766 1.99722E+01 2.99388E-01 2.55073E-05-4.07356E-01-3.46063E-14-7.96443E-14
 -1       767 1.99848E+01 2.50413E-01 1.98759E-05-3.15384E-01 5.06755E-14-2.19535E-13
 -1       768 1.99945E+01 2.03821E-01 1.52266E-05-2.39745E-01 3.56751E-14-1.24219E-13
 -1       769 2.00014E+01 1.62005E-01 1.14579E-05-1.78737E-01-9.00703E-14 9.22447E-14
 -1       770 2.00058E+01 1.25987E-01 8.45641E-06-1.30440E-01-8.38557E-15 1.00262E-13
 -1       771 2.00083E+01 9.59309E-02 6.10676E-06-9.29039E-02-1.58726E-13 5.40847E-14
 -1       772 2.00094E+01 7.14982E-02 4.29920E-06-6.42685E-02-1.13055E-13-4.36800E-14
 -1       773 2.00095E+01 5.20888E-02 2.93379E-06-4.28427E-02-2.53189E-13-2.09466E-13
 -1       774 2.00089E+01 3.69949E-02 1.92251E-06-2.71427E-02-1.24171E-13-9.35013E-14
 -1       775 2.00080E+01 2.54979E-02 1.18987E-06-1.59043E-02-2.04131E-13-2.03288E-13
 -1       776 2.00070E+01 1.69238E-02 6.72554E-07-8.07691E-03-1.06844E-13-7.79383E-14
 -1       777 2.00059E+01 1.06721E-02 3.18592E-07-2.80675E-03-2.43868E-13-1.54123E-13
 -1       778 2.00048E+01 6.22708E-03 8.62340E-08 5.86068E-04-3.65984E-14-1.47597E-13
 -1       779 2.00038E+01 3.15772E-03-5.74205E-08 2.63216E-03 1.28511E-13-5.72250E-14
 -1       780 2.00030E+01 1.11174E-03-1.30896E-07 3.73726E-03 2.86778E-13-1.80339E-13
 -1       781 2.00022E+01-1.93839E-04-1.67428E-07 4.20479E-03 1.73044E-13-1.58748E-13
 -1       782 2.00016E+01-9.83697E-04-1.80305E-07 4.25598E-03 1.59698E-13-2.10491E-13
 -1       783 2.00011E+01-1.43480E-03-9.98820E-08 4.04656E-03 1.33892E-13-3.18411E-13
 -1       784 2.00006E+01-1.68776E-03-2.28183E-07 3.68463E-03-5.50387E-14-2.55766E-13
 -1       785 2.00003E+01-1.85532E-03-2.55673E-06 3.23344E-03-3.23047E-13-9.91289E-14
 -1       786 1.80781E+01-2.13934E+00 6.12739E-02-4.54077E+00-1.12309E-13-3.37201E-13
 -1       787 2.48002E+01-3.44565E+00 6.54221E-03-1.21554E+00-1.14739E-13-4.54758E-15
 -1       788 2.07932E+01-1.09024E+00 3.66827E-04 2.26390E+00-2.06218E-13 8.38203E-14
 -1       789 2.02420E+01-3.02538E-01-2.08795E-04 2.07019E+00-1.49344E-13 9.69932E-14
 -1       790 1.99968E+01 1.77689E-01 2.11604E-04 1.82392E+00-1.12652E-13-1.70118E-14
 -1       791 1.99154E+01 4.30742E-01 1.88960E-04 1.56921E+00-8.13983E-14 2.60986E-15
 -1       792 1.99109E+01 5.33923E-01 1.55733E-04 1.32682E+00-9.39175E-14 1.00299E-13
 -1       793 1.99353E+01 5.46869E-01 1.31449E-04 1.10420E+00-1.73955E-13 1.37660E-13
 -1       794 1.99652E+01 5.10360E-01 1.11094E-04 9.04656E-01-2.96153E-14 2.47191E-13
 -1       795 1.99909E+01 4.50427E-01 9.18229E-05 7.29645E-01 2.16370E-14 2.33364E-13
 -1       796 2.00092E+01 3.82771E-01 7.43100E-05 5.79303E-01 1.10547E-13-3.92478E-14
 -1       797 2.00205E+01 3.16273E-01 5.90847E-05 4.52676E-01 6.50882E-14-8.95794E-14
 -1       798 2.00261E+01 2.55511E-01 4.62554E-05 3.47999E-01 9.55886E-14-1.45243E-13
 -1       799 2.00278E+01 2.02470E-01 3.56835E-05 2.62997E-01-2.90624E-15-7.44726E-14
 -1       800 2.00268E+01 1.57627E-01 2.71233E-05 1.95143E-01-9.94361E-14-1.75559E-14
 -1       801 2.00244E+01 1.20635E-01 2.02969E-05 1.41879E-01 6.16442E-14-1.03124E-13
 -1       802 2.00212E+01 9.07365E-02 1.49303E-05 1.00763E-01-1.21940E-13-2.05221E-13
 -1       803 2.00178E+01 6.70030E-02 1.07710E-05 6.95674E-02 9.91913E-14-1.77176E-13
 -1       804 2.00146E+01 4.84802E-02 7.59468E-06 4.63253E-02 3.37970E-13-1.37886E-13
 -1       805 2.00117E+01 3.42639E-02 5.20698E-06 2.93500E-02 1.00431E-13-1.91814E-13
 -1       806 2.00092E+01 2.35390E-02 3.44311E-06 1.72280E-02 7.94239E-14-3.91632E-13
 -1       807 2.00070E+01 1.55958E-02 2.16565E-06 8.79929E-03 6.57838E-14-1.00618E-13
 -1       808 2.00053E+01 9.83163E-03 1.26173E-06 3.12966E-03-1.20248E-13 2.50311E-13
 -1       809 2.00039E+01 5.74602E-03 6.39683E-07-5.19593E-04-2.33121E-13 5.77496E-13
 -1       810 2.00027E+01 2.93015E-03 2.24506E-07-2.72216E-03-1.78905E-13 4.21348E-13
 -1       811 2.00019E+01 1.05519E-03-4.68024E-08-3.91528E-03-5.87370E-14-1.31351E-13
 -1       812 2.00012E+01-1.40319E-04-2.13944E-07-4.42524E-03-4.23257E-14-4.10614E-13
 -1       813 2.00007E+01-8.62216E-04-3.08283E-07-4.48937E-03-2.10493E-13-5.36318E-13
 -1       814 2.00003E+01-1.27208E-03-3.84335E-07-4.27508E-03-1.05905E-14-1.76108E-13
 -1       815 2.00001E+01-1.49540E-03-2.62379E-07-3.89424E-03-1.76213E-13-1.08318E-13
 -1       816 1.99999E+01-1.63352E-03-2.19470E-07-3.41617E-03-3.02268E-13-1.20827E-13
 -1       817 1.99999E+01-1.74850E-03-2.20757E-07-3.08102E-03-3.94454E-13 1.01305E-13
 -1       818 2.00024E+01-2.84718E-03 6.52749E-08 1.02531E-03 1.10142E-13-1.60048E-13
 -1       819 2.00013E+01-2.32989E-03-9.04172E-07 2.68432E-03-1.11752E-13 4.63439E-14
 -1       820 2.00026E+01-2.91509E-03 1.50689E-07 4.64585E-06 1.40286E-13-9.59284E-14
 -1       821 2.00020E+01-2.65441E-03 7.55398E-07 1.94815E-03-3.25723E-14 5.35420E-15
 -1       822 2.18506E+01-2.18915E+00 8.15474E-03 2.26664E+00-1.68972E-13-1.39852E-13
 -1       823 2.36033E+01-3.38906E+00 1.21603E-02 1.79401E+00-1.76622E-13-3.76638E-13
 -1       824 2.05650E+01-3.86260E+00 3.21774E-02-4.37334E+00 2.24788E-13-6.02400E-14
 -1       825 2.23052E+01-1.17109E+00 2.52476E-03 8.30087E-01 1.43826E-14-9.65595E-14
 -1       826 2.10262E+01 6.06708E-02-2.25527E-05 9.56826E-01 1.20993E-14-2.22357E-13
 -1       827 2.37449E+01-4.21052E+00 1.00792E-02 2.51619E+00-1.95696E-13-4.46270E-13
 -1       828 2.44818E+01-4.11186E+00 1.24845E-02-1.92020E+00 3.98700E-14-3.29604E-13
 -1       829 1.23568E+01 7.03981E-02 6.43403E-02-2.89681E+00 1.99877E-13 3.03851E-13
 -1       830 1.92639E+01-3.24479E+00 3.62113E-02 4.47037E+00-3.21201E-13-4.91005E-14
 -1       831 1.56062E+01-6.85020E-01 6.54355E-02 4.44825E+00 3.62705E-13-3.41536E-13
 -1       832 1.49880E+01-1.34900E+00 4.79896E-02-4.43117E+00 3.21113E-13 3.56963E-13
 -1       833 1.44343E+01 3.10893E+00 6.85966E-03-2.01322E-01 1.63208E-13-4.60777E-13
 -1       834 2.13173E+01-3.05845E+00 1.64225E-02 3.61428E+00 2.84780E-13-7.52532E-14
 -1       835 1.06736E+01 1.06748E+00 8.85691E-02 2.79033E+00 2.77518E-13-6.11598E-13
 -1       836 2.11864E+01 1.47526E-01-3.64369E-05-1.28797E+00 1.10156E-13-7.06363E-14
 -1       837 2.58565E+01-1.82033E+00-2.06681E-02-1.19495E+00-2.69108E-14 2.44264E-13
 -1       838 2.52403E+01-2.73420E+00-8.38714E-03 4.66483E-01 1.63420E-14-1.89442E-13
 -1       839 1.45242E+01 2.99391E+00 4.14969E-03 9.96752E-01 1.80572E-13-4.32402E-13
 -1       840 1.35870E+01-3.87258E-03 4.53449E-02 2.90100E+00-2.05269E-13 1.11086E-13
 -1       841 2.00013E+01-2.34682E-03-6.01270E-07-2.67229E-03-1.88321E-13-1.47022E-13
 -1       842 2.26624E+01-2.17862E+00-6.07499E-03-1.81907E+00-8.95098E-14-4.40160E-14
 -1       843 2.60405E+01-3.83174E+00-2.11266E-03 4.59814E-01-4.15852E-14-5.22599E-13
 -1       844 2.00020E+01-2.66198E-03 4.49554E-07-1.93498E-03 2.61091E-13-3.45701E-13
 -1       845 2.00024E+01-2.85285E-03 1.97606E-07-1.01205E-03 3.65762E-13-5.91948E-13
 -1       846 1.76108E+01 1.67801E+00-1.46554E-03-1.67701E+00 1.17045E-13-2.97365E-13
 -1       847 1.27487E+01 8.81088E-01 3.16078E-02-9.25936E-01 4.19916E-14 2.21424E-13
 -1       848 2.17387E+01-9.45138E-01 7.20542E-04-1.65029E+00 7.30763E-15-7.67811E-14
 -1       849 1.18963E+01 1.51641E+00 5.49828E-02-1.91440E+00 3.96341E-14-5.91421E-13
 -1       850 1.94552E+01 5.69621E-01 3.00132E-03 1.69401E+00 1.02530E-13-2.84551E-13
 -1       851 1.56068E+01 2.58550E+00 3.56257E-03-1.21352E+00 1.33175E-13-4.00776E-13
 -1       852 1.86825E+01-1.20023E+00 2.99548E-02 3.69502E+00 2.89003E-13-2.03551E-13
 -1       853 1.74366E+01 1.36606E+00-9.01346E-03 2.11090E+00 1.76559E-13-3.14882E-13
 -1       854 1.15051E+01 2.08614E+00 6.88696E-02 8.65853E-01 1.79940E-13-5.48181E-13
 -1       855 2.07873E+01-1.80874E+00 8.15041E-04-2.29352E+00 9.94111E-14-7.28334E-14
 -1       856 1.99973E+01-9.03796E-01-3.97862E-03-2.06496E+00 7.82539E-14-1.05815E-13
 -1       857 1.96144E+01-2.55774E-01 6.35017E-04-1.77386E+00-8.10738E-14-1.40090E-14
 -1       858 1.94711E+01 1.50087E-01 3.49946E-04-1.49183E+00-6.58588E-14-5.04886E-14
 -1       859 1.94505E+01 3.88076E-01 1.09477E-04-1.24080E+00-2.93326E-14-1.04859E-13
 -1       860 1.94959E+01 5.04312E-01 5.39280E-05-1.02279E+00 8.19342E-14 1.76033E-14
 -1       861 1.95698E+01 5.38912E-01 3.10757E-05-8.35655E-01 1.76042E-13 1.24397E-13
 -1       862 1.96510E+01 5.22352E-01 1.89253E-05-6.75882E-01 2.44643E-13 5.40678E-14
 -1       863 1.97280E+01 4.76525E-01 1.19386E-05-5.40344E-01-1.72747E-14-1.05689E-13
 -1       864 1.97955E+01 4.16525E-01 7.63619E-06-4.26413E-01-1.03450E-13-1.55794E-13
 -1       865 1.98516E+01 3.52296E-01 4.86773E-06-3.31758E-01-4.23682E-14 2.84827E-14
 -1       866 1.98963E+01 2.90018E-01 3.04614E-06-2.54167E-01 8.78152E-14 4.88948E-14
 -1       867 1.99307E+01 2.33203E-01 1.84068E-06-1.91483E-01 5.04603E-14 3.80255E-15
 -1       868 1.99565E+01 1.83542E-01 1.04740E-06-1.41609E-01 6.75884E-14-1.44097E-13
 -1       869 1.99751E+01 1.41533E-01 5.32726E-07-1.02551E-01-2.50299E-14-3.79446E-14
 -1       870 1.99881E+01 1.06938E-01 2.06531E-07-7.24646E-02-1.54174E-13 7.69475E-15
 -1       871 1.99968E+01 7.91054E-02 7.26735E-09-4.96870E-02-3.40971E-13-1.57040E-13
 -1       872 2.00022E+01 5.71845E-02-1.07289E-07-3.27617E-02 2.14502E-14-1.17797E-13
 -1       873 2.00054E+01 4.02663E-02-1.66165E-07-2.04418E-02-1.08477E-13 2.71439E-14
 -1       874 2.00070E+01 2.74709E-02-1.89377E-07-1.16829E-02-5.28056E-14-3.30942E-14
 -1       875 2.00074E+01 1.79956E-02-1.90857E-07-5.62850E-03-2.28133E-13 1.24072E-13
 -1       876 2.00072E+01 1.11378E-02-1.80351E-07-1.58916E-03-2.01933E-13 1.09016E-13
 -1       877 2.00066E+01 6.30115E-03-1.63706E-07 9.79629E-04 1.20599E-13 8.39676E-14
 -1       878 2.00057E+01 2.99205E-03-1.43092E-07 2.49989E-03 2.07814E-13 4.95555E-14
 -1       879 2.00048E+01 8.09573E-04-9.20885E-08 3.29210E-03 6.46421E-14-1.80376E-13
 -1       880 2.00039E+01-5.66206E-04-7.37197E-08 3.59459E-03 2.16516E-13-1.84759E-13
 -1       881 2.00030E+01-1.38988E-03 5.43377E-08 3.58013E-03 9.16567E-14 1.55782E-13
 -1       882 2.00022E+01-1.85839E-03 1.96301E-07 3.36837E-03 1.33292E-13 2.05568E-13
 -1       883 2.00017E+01-2.12496E-03-6.80386E-08 3.04285E-03-8.97394E-14 9.45112E-15
 -1       884 1.89053E+01-3.35802E-01 5.36395E-05 2.50440E+00-2.16531E-13-1.37810E-13
 -1       885 1.91574E+01 7.19485E-01 1.30364E-04 1.36907E+00-1.34078E-13 2.20749E-14
 -1       886 1.93364E+01 7.42783E-01 5.75207E-05 1.12750E+00-8.67181E-14 2.22341E-14
 -1       887 1.94960E+01 7.02058E-01 3.09599E-05 9.24164E-01-1.16738E-13-2.68027E-14
 -1       888 1.96286E+01 6.28547E-01 1.80413E-05 7.50748E-01-4.33934E-14-8.93709E-14
 -1       889 1.97339E+01 5.42014E-01 1.09828E-05 6.02758E-01 1.42368E-13-4.14904E-14
 -1       890 1.98147E+01 4.54357E-01 6.93931E-06 4.77415E-01 1.94512E-14-1.02084E-13
 -1       891 1.98751E+01 3.72256E-01 4.53021E-06 3.72557E-01 3.78120E-14 2.19327E-14
 -1       892 1.99192E+01 2.99042E-01 3.03756E-06 2.86127E-01-2.68518E-14 1.17736E-13
 -1       893 1.99506E+01 2.35969E-01 2.07875E-06 2.16009E-01-4.20367E-14 1.26063E-13
 -1       894 1.99724E+01 1.83053E-01 1.44172E-06 1.60049E-01 5.31185E-14-1.64506E-13
 -1       895 1.99871E+01 1.39616E-01 1.00511E-06 1.16126E-01 6.74640E-14-6.24444E-14
 -1       896 1.99966E+01 1.04632E-01 6.98106E-07 8.22316E-02 1.51115E-15-2.63968E-13
 -1       897 2.00025E+01 7.69468E-02 4.78497E-07 5.65335E-02 1.91334E-13-3.67586E-13
 -1       898 2.00058E+01 5.54043E-02 3.20281E-07 3.74119E-02 1.09891E-13-1.23178E-13
 -1       899 2.00074E+01 3.89234E-02 2.06629E-07 2.34732E-02 7.45751E-14-7.69493E-14
 -1       900 2.00078E+01 2.65351E-02 1.26041E-07 1.35471E-02 9.84469E-14-5.39107E-14
 -1       901 2.00076E+01 1.73985E-02 7.02688E-08 6.67144E-03-3.43913E-13 1.72396E-13
 -1       902 2.00069E+01 1.08016E-02 3.29157E-08 2.07111E-03-3.61607E-13 3.44168E-13
 -1       903 2.00060E+01 6.15367E-03 6.96616E-09-8.66718E-04-9.21604E-14 1.83382E-13
 -1       904 2.00050E+01 2.97344E-03-2.20892E-08-2.61743E-03 3.71689E-14 1.51724E-13
 -1       905 2.00041E+01 8.74214E-04-7.51650E-08-3.54281E-03 9.79485E-14 1.60875E-13
 -1       906 2.00032E+01-4.51613E-04-1.30037E-07-3.91193E-03-1.44234E-13 6.33253E-14
 -1       907 2.00024E+01-1.24476E-03 7.92642E-09-3.91897E-03-3.88720E-13 2.23638E-13
 -1       908 2.00017E+01-1.69450E-03 1.22053E-07-3.70446E-03-2.36507E-13 4.94820E-13
 -1       909 2.00012E+01-1.95375E-03-2.59902E-07-3.35357E-03-1.72555E-13 5.26897E-13
 -1       910 1.92721E+01-1.34614E+00 1.11574E-02 3.08913E+00-3.24843E-13-1.00255E-13
 -1       911 2.00006E+01-2.07381E-03-3.35414E-07-2.96808E-03-4.71021E-13 2.96548E-13
 -1       912 2.31190E+01-2.58119E+00 2.36029E-03 1.58078E+00 1.29141E-13-3.70270E-14
 -1       913 2.00035E+01-2.61627E-03-3.09630E-07 5.76889E-04 5.62551E-14 1.69908E-13
 -1       914 1.50384E+01-1.49351E-01 2.88163E-02-3.08953E+00 1.18142E-13 3.20781E-13
 -1       915 1.63328E+01 1.09639E-01 4.00019E-02-3.36537E+00-3.80507E-14-3.75530E-13
 -1       916 1.89809E+01 5.84223E-01 3.43983E-04 1.66393E+00-1.45623E-13-1.69554E-13
 -1       917 1.88545E+01 2.65929E-01 3.57531E-04 2.03765E+00-1.51660E-14-9.74358E-14
 -1       918 2.20942E+01-2.85933E+00 1.34342E-02-2.26297E+00 7.41284E-14-1.16240E-13
 -1       919 2.00193E+01-2.50773E-01 2.61709E-03-2.18339E+00 2.64474E-14-1.78654E-13
 -1       920 1.57533E+01 2.29212E+00 1.40308E-02 1.85248E+00 1.92232E-13-4.27228E-13
 -1       921 1.82808E+01-1.77873E+00 2.83905E-02 3.75959E+00-3.30553E-13 6.28751E-15
 -1       922 1.86973E+01-2.14946E+00 2.33262E-02-3.87063E+00 1.91577E-13 1.36341E-13
 -1       923 1.39270E+01 1.30586E+00 2.93256E-02 2.92169E+00 2.77381E-13-4.64931E-13
 -1       924 2.11312E+01-2.44097E+00 3.55981E-02-3.20548E+00-1.27345E-13-1.91383E-13
 -1       925 2.09548E+01-2.78754E+00 1.37608E-02 3.21974E+00-2.80464E-13-2.76569E-13
 -1       926 1.62190E+01-4.09885E-01 1.54616E-02 3.15927E+00-2.15166E-13 5.37391E-14
 -1       927 2.00031E+01-2.49873E-03-5.24229E-07 1.64633E-03 1.25165E-13-2.11477E-13
 -1       928 1.30255E+01 2.61350E+00 3.35359E-02 5.54230E-01 1.72764E-13-4.69646E-13
 -1       929 2.00035E+01-2.61783E-03-1.77159E-07-5.55807E-04 1.02644E-13-6.49550E-13
 -1       930 1.90936E+01-3.78879E-01-2.39575E-03 2.76970E+00 2.04638E-13-2.27784E-13
 -1       931 2.00022E+01-2.28800E-03-4.29007E-07-2.67519E-03-5.20891E-14-7.15737E-14
 -1       932 2.15375E+01-1.15565E+00 7.30908E-03 1.60282E+00 1.09082E-13-1.39354E-13
 -1       933 1.33881E+01 9.48829E-01 1.70184E-02 8.52516E-01-1.79480E-13 2.90960E-13
 -1       934 1.86520E+01-1.92481E-01 3.89586E-03-2.12858E+00 4.34171E-14 6.11839E-14
 -1       935 1.86586E+01 2.68187E-01-5.44321E-04-1.66086E+00-4.82221E-14 2.21787E-14
 -1       936 1.87935E+01 5.33446E-01-9.32542E-05-1.30327E+00-2.81264E-14 1.77079E-13
 -1       937 1.89682E+01 6.59201E-01-2.82709E-05-1.03035E+00 2.96335E-14 1.90638E-13
 -1       938 1.91481E+01 6.94156E-01-2.55889E-05-8.17217E-01 1.77617E-13 1.97866E-13
 -1       939 1.93164E+01 6.71318E-01-1.85008E-05-6.47965E-01 8.05960E-14 3.29693E-14
 -1       940 1.94652E+01 6.14542E-01-1.42827E-05-5.11739E-01 2.32424E-14-8.30483E-14
 -1       941 1.95916E+01 5.40575E-01-1.13512E-05-4.01304E-01-3.08866E-14-2.32693E-14
 -1       942 1.96956E+01 4.60834E-01-9.14834E-06-3.11692E-01 8.23957E-14 6.15798E-15
 -1       943 1.97789E+01 3.82718E-01-7.39853E-06-2.39269E-01 1.32382E-14 1.48230E-13
 -1       944 1.98441E+01 3.10656E-01-5.95738E-06-1.81184E-01-3.25780E-14 3.08775E-14
 -1       945 1.98939E+01 2.46954E-01-4.74968E-06-1.35073E-01-8.14933E-14-6.89396E-14
 -1       946 1.99310E+01 1.92465E-01-3.73556E-06-9.89062E-02 1.35043E-13 3.77094E-16
 -1       947 1.99581E+01 1.47100E-01-2.89107E-06-7.09209E-02-1.04203E-13 4.47185E-14
 -1       948 1.99771E+01 1.10203E-01-2.19787E-06-4.95858E-02-2.59234E-13 6.79362E-14
 -1       949 1.99902E+01 8.08222E-02-1.63866E-06-3.35838E-02-1.36198E-13 1.63828E-13
 -1       950 1.99987E+01 5.78879E-02-1.19599E-06-2.17975E-02 1.68112E-14 1.13282E-13
 -1       951 2.00039E+01 4.03334E-02-8.52566E-07-1.32931E-02-6.55841E-14 1.09872E-13
 -1       952 2.00067E+01 2.71631E-02-5.92232E-07-7.30291E-03 3.91955E-14 9.05956E-14
 -1       953 2.00080E+01 1.74901E-02-4.01217E-07-3.20622E-03-2.22037E-13 1.33168E-13
 -1       954 2.00082E+01 1.05510E-02-2.69097E-07-5.09126E-04-3.84360E-14 1.89602E-13
 -1       955 2.00077E+01 5.70560E-03-1.86227E-07 1.17475E-03 1.29391E-13 2.89476E-13
 -1       956 2.00069E+01 2.42835E-03-1.25547E-07 2.14237E-03-2.52430E-14 1.97439E-14
 -1       957 2.00059E+01 2.95205E-04-8.43819E-08 2.61607E-03 1.41435E-13-1.28824E-14
 -1       958 2.00048E+01-1.02704E-03 1.36978E-08 2.76247E-03 4.19184E-13 1.37272E-13
 -1       959 2.00037E+01-1.80826E-03-1.05342E-06 2.70157E-03 9.95210E-14-2.97909E-14
 -1       960 1.89754E+01 8.90286E-01-7.76205E-05 8.31252E-01-1.31836E-13 4.33350E-15
 -1       961 1.73970E+01 4.85340E-01 7.07310E-04 2.05674E+00-1.18355E-13-1.40700E-14
 -1       962 1.86686E+01 9.39142E-01-6.72765E-05 1.01712E+00-8.50572E-14-1.18614E-13
 -1       963 1.94216E+01 7.02009E-01-5.09384E-05 5.51357E-01 3.48881E-14-1.18769E-13
 -1       964 1.95762E+01 5.96105E-01-3.97313E-05 4.42768E-01 5.59349E-14 4.36593E-14
 -1       965 1.96953E+01 4.94814E-01-3.06791E-05 3.50819E-01-8.07516E-14 8.46108E-14
 -1       966 1.97857E+01 4.02671E-01-2.34682E-05 2.73775E-01 1.23748E-14 9.62342E-16
 -1       967 1.98533E+01 3.21817E-01-1.77386E-05 2.10144E-01 1.05815E-13-1.08645E-13
 -1       968 1.99029E+01 2.52831E-01-1.32054E-05 1.58439E-01-3.14288E-14-2.37914E-14
 -1       969 1.99388E+01 1.95320E-01-9.65173E-06 1.17132E-01 7.13163E-14 3.01162E-14
 -1       970 1.99641E+01 1.48332E-01-6.90266E-06 8.47026E-02 6.92589E-14 6.95587E-15
 -1       971 1.99815E+01 1.10640E-01-4.80948E-06 5.96929E-02 7.54523E-14 2.66552E-13
 -1       972 1.99931E+01 8.09238E-02-3.24375E-06 4.07591E-02-1.36229E-13 4.27283E-13
 -1       973 2.00005E+01 5.78920E-02-2.09529E-06 2.67045E-02-4.22118E-14 4.98162E-13
 -1       974 2.00049E+01 4.03472E-02-1.27122E-06 1.64944E-02 1.18092E-13 4.82460E-13
 -1       975 2.00071E+01 2.72229E-02-6.94694E-07 9.25714E-03-1.83683E-13 2.13375E-13
 -1       976 2.00080E+01 1.75976E-02-3.03007E-07 4.27544E-03-3.09006E-13-3.12458E-14
 -1       977 2.00080E+01 1.06933E-02-4.64342E-08 9.71247E-04-3.04923E-13-3.37643E-14
 -1       978 2.00074E+01 5.86699E-03 1.07002E-07-1.11179E-03-9.63662E-14 2.14376E-13
 -1       979 2.00065E+01 2.59597E-03 1.43244E-07-2.32679E-03 1.89073E-13 2.75909E-13
 -1       980 2.00055E+01 4.61902E-04 7.58833E-08-2.94278E-03 2.66952E-14 2.09754E-13
 -1       981 2.00045E+01-8.70595E-04-1.34188E-07-3.15627E-03-2.64334E-13 2.73081E-13
 -1       982 2.00035E+01-1.66084E-03-6.01526E-07-3.11013E-03-2.14972E-13 4.49219E-16
 -1       983 2.00028E+01-2.02031E-03-1.00159E-06-2.92177E-03-2.83258E-13-1.70393E-13
 -1       984 2.00029E+01-2.20491E-03 1.14216E-06 2.57439E-03-8.04414E-14-2.02422E-13
 -1       985 1.92240E+01 8.04458E-01-6.41773E-05 6.79213E-01-3.32401E-14-5.30014E-14
 -1       986 1.82973E+01 9.21376E-01 5.07839E-05 1.25589E+00-2.19946E-13-5.24822E-14
 -1       987 1.49817E+01 8.09560E-01 6.19077E-03-1.46502E+00 1.88937E-14 1.51198E-13
 -1       988 1.78613E+01 7.90532E-01 4.94487E-05 1.58408E+00-6.61120E-14-1.06973E-14
 -1       989 2.05258E+01-1.47550E+00 5.40872E-03 2.66508E+00 2.14708E-13-1.72829E-13
 -1       990 1.77636E+01-7.34888E-01 2.23954E-03-2.95959E+00 1.43473E-13 2.04503E-13
 -1       991 2.00031E+01-2.51565E-03-2.62462E-07-1.64296E-03 3.82267E-14-3.36589E-13
 -1       992 1.50905E+01 7.23149E-01 1.19059E-02 1.78132E+00-1.74691E-13 2.05530E-13
 -1       993 2.00046E+01-2.21530E-03 2.17176E-07 1.38582E-05 7.09047E-14-2.61300E-13
 -1       994 1.68510E+01 3.41469E-01 9.04992E-04-2.05707E+00-2.80399E-14 1.83757E-13
 -1       995 1.48532E+01 1.17215E+00 8.75896E-03-2.45860E-01-8.18022E-14 4.16537E-14
 -1       996 2.00043E+01-2.18346E-03-3.95802E-08 1.22061E-03-6.71891E-14-2.41136E-13
 -1       997 1.79992E+01 7.38859E-01-7.30864E-05-1.24507E+00 5.74074E-14 1.22064E-13
 -1       998 1.83635E+01 8.45280E-01-5.04810E-04-9.33864E-01-2.04633E-14 8.56941E-14
 -1       999 1.86842E+01 8.63219E-01-1.97397E-04-7.10312E-01 9.22643E-14 2.09824E-13
 -1      1000 1.89574E+01 8.25155E-01-1.24647E-04-5.45533E-01 3.31632E-14-1.92880E-15
 -1      1001 1.91867E+01 7.53538E-01-9.10826E-05-4.20574E-01-5.93835E-14 4.17249E-14
 -1      1002 1.93763E+01 6.64361E-01-7.23702E-05-3.24094E-01 1.01208E-13-7.72226E-14
 -1      1003 1.95304E+01 5.69133E-01-5.98160E-05-2.48759E-01 1.98618E-14-4.62465E-14
 -1      1004 1.96536E+01 4.75697E-01-4.99917E-05-1.89616E-01 1.72066E-14-6.98062E-14
 -1      1005 1.97503E+01 3.88990E-01-4.16312E-05-1.43163E-01-4.17547E-15-1.44481E-13
 -1      1006 1.98249E+01 3.11748E-01-3.42953E-05-1.06803E-01-9.71294E-14 6.36180E-14
 -1      1007 1.98812E+01 2.45113E-01-2.78485E-05-7.85307E-02 9.65129E-14 1.52975E-13
 -1      1008 1.99230E+01 1.89140E-01-2.22517E-05-5.67455E-02-3.70414E-14 1.36371E-13
 -1      1009 1.99531E+01 1.43201E-01-1.74790E-05-4.01453E-02-1.60523E-13 2.29536E-13
 -1      1010 1.99744E+01 1.06276E-01-1.34889E-05-2.76607E-02-1.08910E-13 2.85734E-13
 -1      1011 1.99888E+01 7.71741E-02-1.02189E-05-1.84125E-02-1.14045E-13 3.28763E-13
 -1      1012 1.99983E+01 5.46704E-02-7.59123E-06-1.16809E-02-7.62023E-14 1.81065E-13
 -1      1013 2.00041E+01 3.76001E-02-5.52045E-06-6.88126E-03-1.05178E-13 1.32821E-13
 -1      1014 2.00072E+01 2.49089E-02-3.92145E-06-3.54372E-03-2.39666E-13 8.64334E-14
 -1      1015 2.00087E+01 1.56768E-02-2.71672E-06-1.29497E-03-2.13614E-14 5.39544E-15
 -1      1016 2.00089E+01 9.12362E-03-1.83684E-06 1.57432E-04 3.26528E-13 1.45049E-13
 -1      1017 2.00084E+01 4.60338E-03-1.27024E-06 1.03955E-03-6.99190E-14 2.09292E-13
 -1      1018 2.00075E+01 1.58804E-03-7.90435E-07 1.52561E-03-3.03809E-14 3.17396E-13
 -1      1019 2.00063E+01-3.29066E-04 1.35105E-06 1.73126E-03 2.08704E-13 2.13532E-14
 -1      1020 2.00052E+01-1.51776E-03 1.90092E-06 1.77502E-03 1.49024E-13-2.58401E-13
 -1      1021 1.91050E+01 8.45549E-01-1.79465E-04 4.15342E-01 1.47612E-14-1.73843E-13
 -1      1022 1.95065E+01 6.11142E-01-1.09304E-04 2.75499E-01-8.26444E-14 9.98748E-14
 -1      1023 1.93306E+01 7.26906E-01-1.38915E-04 3.40557E-01-1.87661E-13 1.88594E-14
 -1      1024 1.97459E+01 4.07551E-01-6.86927E-05 1.71681E-01 1.18098E-14-2.34675E-14
 -1      1025 1.98240E+01 3.24092E-01-5.40835E-05 1.31912E-01-4.57797E-14 2.45739E-13
 -1      1026 1.98819E+01 2.53398E-01-4.21330E-05 9.93855E-02 2.79866E-15 1.00811E-13
 -1      1027 1.99242E+01 1.94794E-01-3.23931E-05 7.33000E-02 6.47085E-14 7.28541E-14
 -1      1028 1.99543E+01 1.47144E-01-2.45307E-05 5.27842E-02-3.60811E-14 1.07066E-13
 -1      1029 1.99753E+01 1.09097E-01-1.82645E-05 3.69621E-02-1.26126E-13 1.89886E-14
 -1      1030 1.99895E+01 7.92415E-02-1.33419E-05 2.50021E-02-1.22287E-13-3.18438E-14
 -1      1031 1.99986E+01 5.62172E-02-9.53450E-06 1.61509E-02-1.14473E-14 1.83387E-14
 -1      1032 2.00042E+01 3.87744E-02-6.63738E-06 9.75005E-03 1.17303E-13 1.95933E-13
 -1      1033 2.00072E+01 2.58072E-02-4.47012E-06 5.24168E-03-2.02696E-13 2.48298E-13
 -1      1034 2.00086E+01 1.63647E-02-2.87493E-06 2.16540E-03-2.47652E-13 1.65354E-13
 -1      1035 2.00087E+01 9.64828E-03-1.71580E-06 1.50040E-04-2.81772E-13 1.29708E-13
 -1      1036 2.00082E+01 4.99988E-03-8.85074E-07-1.09696E-03-7.53526E-14 1.51801E-13
 -1      1037 2.00073E+01 1.88766E-03-3.36923E-07-1.79935E-03 2.15524E-13 2.44064E-13
 -1      1038 2.00062E+01-1.14410E-04-6.69317E-07-2.13607E-03 3.75722E-15 3.43090E-14
 -1      1039 2.00051E+01-1.34074E-03 3.60568E-07-2.21988E-03-1.99463E-13-2.16783E-13
 -1      1040 1.73895E+01 1.11921E+00 5.51070E-04 9.23786E-01-1.25310E-13 2.11293E-14
 -1      1041 1.79865E+01 1.11378E+00-4.40559E-04 7.37195E-01-1.27599E-13 5.62173E-14
 -1      1042 1.74812E+01 5.97951E-01 3.72901E-04-1.58895E+00 3.99404E-15 7.23804E-14
 -1      1043 2.00043E+01-2.19149E-03-3.75556E-07-1.18411E-03 3.75320E-14-6.93092E-13
 -1      1044 1.88174E+01 9.58625E-01-2.37538E-04 5.01875E-01-2.84051E-15-2.13071E-14
 -1      1045 2.00037E+01-2.13620E-03 2.51390E-06-2.11615E-03-6.05562E-14-2.34239E-13
 -1      1046 1.66103E+01 1.04163E+00-1.65365E-04 1.21197E+00-6.08320E-14 1.55444E-13
 -1      1047 1.84516E+01 1.05389E+00-3.30754E-04 6.05323E-01-1.37887E-13 4.28099E-14
 -1      1048 1.96423E+01 5.03672E-01-8.66738E-05 2.19368E-01 5.79160E-14-2.52535E-14
 -1      1049 1.62257E+01 1.00079E+00 2.98506E-03-1.04047E+00-5.56568E-14 1.44316E-13
 -1      1050 2.00056E+01-1.55682E-03-3.18989E-07-6.06600E-04 2.02676E-13-5.47729E-13
 -1      1051 2.00056E+01-1.51723E-03-1.23815E-06 6.01899E-04 2.05353E-13-6.11406E-14
 -1      1052 1.82007E+01 1.03541E+00-2.68339E-04-4.83338E-01 5.05373E-14 5.86041E-15
 -1      1053 1.85939E+01 9.74777E-01-1.94847E-04-3.50722E-01-2.96383E-14-1.20038E-13
 -1      1054 1.89104E+01 8.85440E-01-1.36451E-04-2.55942E-01-5.61629E-14-1.59402E-13
 -1      1055 1.91653E+01 7.80597E-01-1.00374E-04-1.87534E-01-9.59015E-15-1.13590E-13
 -1      1056 1.93693E+01 6.70663E-01-7.40812E-05-1.37669E-01-3.38263E-15-2.81019E-13
 -1      1057 1.95313E+01 5.63206E-01-5.30667E-05-1.01016E-01-5.26940E-14-4.13828E-13
 -1      1058 1.96583E+01 4.63259E-01-3.61922E-05-7.39053E-02 2.80735E-15-3.26697E-13
 -1      1059 1.97564E+01 3.73765E-01-2.30228E-05-5.37752E-02 6.11442E-14-3.47479E-13
 -1      1060 1.98311E+01 2.96057E-01-1.31296E-05-3.88053E-02-5.13088E-14-2.32024E-13
 -1      1061 1.98869E+01 2.30313E-01-6.00958E-06-2.76831E-02 8.10897E-15-1.79619E-13
 -1      1062 1.99278E+01 1.75941E-01-1.13404E-06-1.94476E-02-5.48077E-14-1.35984E-13
 -1      1063 1.99571E+01 1.31891E-01 1.99859E-06-1.33860E-02-7.03937E-14 9.22045E-14
 -1      1064 1.99775E+01 9.68821E-02 3.83068E-06-8.96298E-03-8.43052E-14 1.20407E-13
 -1      1065 1.99912E+01 6.95717E-02 4.73134E-06-5.77323E-03-1.57411E-13 2.02271E-13
 -1      1066 2.00001E+01 4.86581E-02 4.99488E-06-3.50765E-03-1.18978E-13 2.08865E-13
 -1      1067 2.00053E+01 3.29466E-02 4.84637E-06-1.92979E-03-2.48336E-13 2.24774E-13
 -1      1068 2.00081E+01 2.13821E-02 4.45021E-06-8.58754E-04-1.41345E-13 3.42156E-13
 -1      1069 2.00092E+01 1.30605E-02 3.91957E-06-1.56450E-04 1.07948E-13 3.45538E-13
 -1      1070 2.00092E+01 7.22539E-03 3.34776E-06 2.81980E-04 6.40843E-14-1.55556E-13
 -1      1071 2.00085E+01 3.26122E-03 4.42921E-06 5.32561E-04 4.20528E-14-2.15224E-13
 -1      1072 2.00074E+01 6.74230E-04-6.69916E-06 6.69829E-04-4.26890E-14-1.33842E-13
 -1      1073 2.00066E+01-6.60593E-04-4.25220E-07 6.41789E-04 1.59380E-13-2.50949E-13
 -1      1074 1.79807E+01 1.16418E+00-1.29833E-04 2.33883E-01-5.81163E-14-1.96904E-14
 -1      1075 1.98229E+01 3.09624E-01 4.01171E-05 6.12850E-02 8.27707E-15-1.53190E-13
 -1      1076 1.97442E+01 3.91376E-01 5.09495E-05 7.89755E-02-4.45072E-15-8.78133E-14
 -1      1077 1.99241E+01 1.84040E-01 2.34108E-05 3.43399E-02 6.67169E-14-1.16794E-13
 -1      1078 1.99546E+01 1.38137E-01 1.72963E-05 2.47132E-02 5.09991E-14 6.34651E-14
 -1      1079 1.99758E+01 1.01678E-01 1.24582E-05 1.72393E-02-1.70844E-13-3.79428E-14
 -1      1080 1.99901E+01 7.32281E-02 8.71205E-06 1.15714E-02 2.38104E-14-2.63719E-13
 -1      1081 1.99993E+01 5.14196E-02 5.87404E-06 7.37493E-03-2.51028E-14-1.95080E-13
 -1      1082 2.00049E+01 3.50072E-02 3.77247E-06 4.34657E-03-1.20869E-13-5.52271E-14
 -1      1083 2.00079E+01 2.28972E-02 2.25739E-06 2.22352E-03-4.15472E-14-6.18677E-14
 -1      1084 2.00091E+01 1.41550E-02 1.21256E-06 7.85979E-04-3.43997E-13-9.58139E-14
 -1      1085 2.00092E+01 7.99988E-03 5.70494E-07-1.44678E-04-1.29303E-13-3.35651E-13
 -1      1086 2.00086E+01 3.79106E-03-8.25904E-08-7.11004E-04 9.23893E-14-3.06298E-13
 -1      1087 2.00076E+01 1.00264E-03 4.54186E-06-1.03184E-03 4.27505E-14-2.38703E-13
 -1      1088 1.91032E+01 8.33337E-01 1.11723E-04 1.71134E-01-1.93173E-14-9.21186E-14
 -1      1089 1.73723E+01 1.22357E+00-1.05784E-03 2.51184E-01-9.92646E-14 1.26606E-13
 -1      1090 1.64863E+01 1.23024E+00-3.55811E-03 1.21849E-01-6.19867E-14 1.47497E-13
 -1      1091 1.95039E+01 5.93313E-01 7.79541E-05 1.22173E-01-7.94574E-14-4.88713E-14
 -1      1092 1.93282E+01 7.10385E-01 9.42160E-05 1.46469E-01-1.75974E-13-1.36227E-13
 -1      1093 1.88165E+01 9.55926E-01 1.26162E-04 1.94758E-01 1.51483E-14-5.03814E-14
 -1      1094 1.84509E+01 1.06969E+00 1.13117E-04 2.15974E-01-6.94316E-14-1.35361E-13
 -1      1095 1.96400E+01 4.86221E-01 6.35393E-05 9.94104E-02 3.98747E-14 7.64620E-14
 -1      1096 1.98814E+01 2.40793E-01 3.09712E-05 4.64453E-02 1.65770E-14-2.29253E-13
 -1      1097 1.77046E+01 1.05493E+00 4.22853E-05-6.71656E-01 3.29932E-14-9.90595E-15
 -1      1098 1.70661E+01 1.05354E+00 8.45218E-04-8.19361E-01 2.31300E-14 5.97572E-14
 -1      1099 2.00063E+01-7.13031E-04-1.01420E-06-1.15456E-03 6.41006E-14-2.78461E-13
 -1      1100 3.02428E+01 9.79773E+00 2.41604E+00-6.61607E+00-4.93494E-14 1.26280E-12
 -1      1101 2.26458E+01 6.88595E+00 3.07303E-01-3.26764E+00-2.18159E-14 8.38427E-14
 -1      1102 2.09275E+01 6.31777E+00 1.31658E-01-1.93541E+00-1.50435E-14-3.90863E-13
 -1      1103 1.97702E+01 5.95728E+00 8.73738E-02-1.09029E+00-9.39526E-15-5.98780E-13
 -1      1104 1.87630E+01 5.64667E+00 5.92362E-02-4.75014E-01-4.98213E-15-6.95565E-13
 -1      1105 1.78474E+01 5.36313E+00 2.96765E-02-4.93099E-02-1.95677E-15-7.33643E-13
 -1      1106 1.70528E+01 5.11555E+00-1.00157E-03 1.97144E-01-3.46945E-16-7.48174E-13
 -1      1107 1.64524E+01 4.92704E+00-2.89074E-02 2.79826E-01 1.16573E-15-7.46946E-13
 -1      1108 1.61460E+01 4.82980E+00-4.66303E-02 2.37224E-01 3.08954E-15-7.34449E-13
 -1      1109 1.61996E+01 4.84516E+00-4.90469E-02 1.41716E-01 5.26315E-15-7.07467E-13
 -1      1110 1.66288E+01 4.97820E+00-3.48530E-02 8.32709E-02 6.46705E-15-6.56402E-13
 -1      1111 1.73874E+01 5.21417E+00-6.81305E-03 1.46855E-01 9.64506E-15-5.76329E-13
 -1      1112 1.84042E+01 5.53006E+00 2.93331E-02 3.98183E-01 1.23512E-14-4.48608E-13
 -1      1113 1.96216E+01 5.90807E+00 7.18781E-02 8.91927E-01 1.55986E-14-2.46988E-13
 -1      1114 2.10273E+01 6.34746E+00 1.30901E-01 1.69380E+00 1.93456E-14 9.84629E-14
 -1      1115 2.28552E+01 6.93903E+00 2.74823E-01 3.00653E+00 1.84575E-14 7.14779E-13
 -1      1116 2.78681E+01 8.82346E+00 1.54334E+00 5.54418E+00 3.16969E-14 1.88252E-12
 -1      1117 3.12013E+01 3.65866E+00 1.15489E+00-4.17997E+00-1.90403E-13 1.99851E-12
 -1      1118 2.34448E+01-1.89219E-01-6.40328E-01-2.72775E-02-6.81608E-14 1.54804E-12
 -1      1119 2.27923E+01-8.02154E-02-2.03973E-01 8.78995E-02-2.50824E-14 9.49584E-13
 -1      1120 2.28843E+01-2.15993E-02-1.61039E-02 5.14770E-02-2.15056E-14 5.76164E-13
 -1      1121 2.29638E+01 1.19667E-02 4.12062E-02 2.49935E-02-1.19705E-14 3.03098E-13
 -1      1122 2.27976E+01 3.28865E-02 6.53995E-02-1.24809E-03-1.12154E-14 1.59117E-13
 -1      1123 2.22132E+01 4.06274E-02 7.13702E-02-3.11998E-02 4.69676E-16 5.34989E-14
 -1      1124 2.11520E+01 2.94490E-02 5.02222E-02-5.99458E-02-3.22182E-15-9.01640E-14
 -1      1125 1.97509E+01-2.79195E-03-2.49981E-03-7.56018E-02-1.86382E-14-3.00107E-13
 -1      1126 1.83712E+01-4.65849E-02-7.19291E-02-6.56155E-02-1.86622E-14-5.26024E-13
 -1      1127 1.74934E+01-8.01820E-02-1.24578E-01-2.75385E-02 5.98219E-15-7.50563E-13
 -1      1128 1.74833E+01-8.31206E-02-1.29539E-01 2.46540E-02 2.85640E-14-6.28986E-13
 -1      1129 1.83752E+01-5.29049E-02-8.32831E-02 6.73207E-02 1.40712E-14-7.91686E-13
 -1      1130 1.98464E+01-7.78266E-03-1.32797E-02 8.35014E-02 5.29633E-16-6.90670E-13
 -1      1131 2.14102E+01 2.94710E-02 4.51824E-02 7.30384E-02 1.94983E-15-5.75803E-13
 -1      1132 2.26622E+01 4.73631E-02 7.31873E-02 4.79823E-02-4.78263E-14-6.99524E-13
 -1      1133 2.34102E+01 4.72907E-02 7.24681E-02 2.16182E-02-2.04251E-14-9.02247E-13
 -1      1134 2.36595E+01 3.68858E-02 5.54072E-02 1.75493E-03 5.45614E-15-8.91169E-13
 -1      1135 2.35271E+01 2.34706E-02 3.41211E-02-9.75745E-03 3.99355E-15-8.84751E-13
 -1      1136 2.31587E+01 1.14968E-02 1.57743E-02-1.44720E-02 1.43489E-14-1.00557E-12
 -1      1137 2.26797E+01 2.67392E-03 2.85756E-03-1.48633E-02-2.58086E-14-9.86869E-13
 -1      1138 2.21792E+01-2.92995E-03-4.86715E-03-1.30477E-02-1.35872E-14-7.22264E-13
 -1      1139 2.17110E+01-5.94862E-03-8.66823E-03-1.04320E-02 5.48552E-16-5.86559E-13
 -1      1140 2.13022E+01-7.15956E-03-9.89982E-03-7.79887E-03-7.06439E-14-7.49970E-13
 -1      1141 2.09620E+01-7.23482E-03-9.63643E-03-5.50725E-03-1.71516E-14-1.02112E-12
 -1      1142 2.06892E+01-6.67266E-03-8.61524E-03-3.67143E-03-7.37810E-15-9.54953E-13
 -1      1143 2.04770E+01-5.80889E-03-7.29594E-03-2.28219E-03 4.68027E-14-8.52146E-13
 -1      1144 2.03165E+01-4.85339E-03-5.94273E-03-1.27811E-03-1.47146E-14-9.87176E-13
 -1      1145 2.01983E+01-3.92741E-03-4.69361E-03-5.83247E-04-3.09947E-14-1.00815E-12
 -1      1146 2.01137E+01-3.09379E-03-3.60975E-03-1.24925E-04 1.02347E-14-9.73044E-13
 -1      1147 2.00551E+01-2.37877E-03-2.70803E-03 1.59192E-04-4.30767E-15-6.59931E-13
 -1      1148 2.00160E+01-1.78689E-03-1.98142E-03 3.19363E-04 6.43406E-14-7.08107E-13
 -1      1149 1.99914E+01-1.31071E-03-1.41123E-03 3.94467E-04-3.51645E-14-8.25749E-13
 -1      1150 1.99770E+01-9.36907E-04-9.74331E-04 4.13635E-04-2.38752E-14-1.07426E-12
 -1      1151 1.99698E+01-6.50064E-04-6.47202E-04 3.98085E-04 6.31255E-14-9.88022E-13
 -1      1152 1.99674E+01-4.34796E-04-4.08030E-04 3.62835E-04-2.54954E-14-8.09816E-13
 -1      1153 1.99681E+01-2.76936E-04-2.37693E-04 3.18194E-04-2.02707E-14-8.91402E-13
 -1      1154 1.99706E+01-1.64078E-04-1.20057E-04 2.70966E-04 6.64636E-15-6.59774E-13
 -1      1155 1.99741E+01-8.57296E-05-4.18944E-05 2.25422E-04-1.12113E-14-5.38302E-13
 -1      1156 1.99779E+01-3.32563E-05 7.39477E-06 1.84039E-04 3.41030E-15-6.27695E-13
 -1      1157 1.99817E+01 3.07162E-07 3.61555E-05 1.48064E-04 1.03329E-14-6.99853E-13
 -1      1158 1.99853E+01 2.04987E-05 5.08848E-05 1.17918E-04-7.23051E-14-8.32202E-13
 -1      1159 1.99886E+01 3.16930E-05 5.66522E-05 9.34794E-05 1.90884E-14-1.14900E-12
 -1      1160 1.99915E+01 3.73654E-05 5.75313E-05 7.42304E-05-9.29430E-16-1.01538E-12
 -1      1161 1.99940E+01 4.03170E-05 5.70643E-05 5.92775E-05 4.90828E-14-8.23184E-13
 -1      1162 1.99961E+01 4.27992E-05 5.86912E-05 4.71928E-05 7.11450E-14-3.39244E-13
 -1      1163 1.99978E+01 4.65569E-05 6.54904E-05 3.53922E-05 7.18089E-15-1.39544E-13
 -1      1164 1.99991E+01 5.12039E-05 7.57217E-05 1.83668E-05 2.97953E-14 1.57791E-13
 -1      1165 1.99998E+01 5.90469E-05 6.56965E-05-1.47244E-05 1.65996E-14 3.62510E-13
 -1      1166 1.99999E+01-2.40111E-05-4.89654E-05-2.50392E-05 6.10380E-14 3.61292E-13
 -1      1167 3.04199E+01 5.42467E-01 1.81669E-01 1.96056E+00-3.74492E-14 2.81780E-12
 -1      1168 2.40866E+01-7.15913E-02-5.90946E-01 8.30932E-02 1.10988E-14 2.41072E-12
 -1      1169 2.39514E+01-3.42475E-02-1.74022E-01-1.08396E-02 1.36115E-14 1.95242E-12
 -1      1170 2.44036E+01-5.72397E-04-1.87333E-02-2.96064E-02 1.58150E-14 1.65932E-12
 -1      1171 2.49414E+01 2.94799E-02 4.63045E-02-4.10413E-02-4.18068E-15 1.51321E-12
 -1      1172 2.52258E+01 5.68610E-02 9.64826E-02-4.29093E-02 1.63042E-14 1.33722E-12
 -1      1173 2.49067E+01 6.95024E-02 1.32775E-01-2.56828E-02-5.42101E-15 1.30879E-12
 -1      1174 2.37158E+01 5.02202E-02 1.24284E-01 1.82634E-02-2.07698E-14 1.36059E-12
 -1      1175 2.16896E+01-5.94900E-03 4.33925E-02 8.00348E-02 1.03173E-15 1.06480E-12
 -1      1176 1.93802E+01-7.32160E-02-9.22161E-02 1.26123E-01 2.34058E-15 9.36487E-13
 -1      1177 1.77643E+01-1.05424E-01-2.05652E-01 1.16846E-01 5.45397E-15 8.42271E-13
 -1      1178 1.76885E+01-8.08488E-02-2.17072E-01 4.61067E-02-1.80359E-14 8.97400E-13
 -1      1179 1.92285E+01-2.48513E-02-1.22234E-01-4.39431E-02 3.28288E-14 6.08263E-13
 -1      1180 2.16270E+01 2.23523E-02 5.58560E-03-1.01653E-01 1.99059E-14 3.99347E-13
 -1      1181 2.38783E+01 4.24808E-02 9.08838E-02-1.08331E-01 1.99285E-14 1.50963E-13
 -1      1182 2.53269E+01 4.07571E-02 1.11445E-01-7.96548E-02 2.28264E-14 5.04874E-14
 -1      1183 2.58399E+01 2.93025E-02 8.91114E-02-4.17899E-02-3.27459E-14 1.91319E-13
 -1      1184 2.56236E+01 1.67608E-02 5.36280E-02-1.12917E-02 4.68692E-14 1.90450E-13
 -1      1185 2.49795E+01 6.92197E-03 2.31153E-02 7.25351E-03 4.85638E-14-8.92446E-14
 -1      1186 2.41617E+01 4.81823E-04 3.14231E-03 1.57993E-02-7.82219E-15 2.32835E-14
 -1      1187 2.33351E+01-3.14261E-03-7.46686E-03 1.79783E-02 1.90898E-14 1.99087E-13
 -1      1188 2.25875E+01-4.81773E-03-1.17884E-02 1.68308E-02-1.64157E-14 3.04597E-13
 -1      1189 2.19542E+01-5.29001E-03-1.25538E-02 1.43165E-02 4.27675E-14 3.02640E-14
 -1      1190 2.14403E+01-5.09197E-03-1.15913E-02 1.15068E-02-2.00481E-14-4.99392E-14
 -1      1191 2.10362E+01-4.56528E-03-9.95487E-03 8.90523E-03 1.35862E-14 1.28331E-13
 -1      1192 2.07261E+01-3.91382E-03-8.18859E-03 6.69984E-03-4.32824E-15 6.48970E-13
 -1      1193 2.04932E+01-3.25146E-03-6.54361E-03 4.92189E-03-2.44542E-14 7.26163E-13
 -1      1194 2.03219E+01-2.63675E-03-5.11656E-03 3.53442E-03 1.57199E-14 6.79607E-13
 -1      1195 2.01985E+01-2.09570E-03-3.92824E-03 2.47708E-03-2.16070E-14 3.94486E-13
 -1      1196 2.01118E+01-1.63602E-03-2.96503E-03 1.68703E-03 3.09493E-14 1.79982E-13
 -1      1197 2.00526E+01-1.25552E-03-2.19982E-03 1.10752E-03 1.80877E-14 2.80835E-13
 -1      1198 2.00137E+01-9.47131E-04-1.60206E-03 6.90570E-04 3.09311E-14 1.80659E-13
 -1      1199 1.99895E+01-7.01732E-04-1.14234E-03 3.97119E-04-9.18837E-14 4.86659E-13
 -1      1200 1.99755E+01-5.09769E-04-7.94261E-04 1.96050E-04 1.97775E-14 8.50723E-13
 -1      1201 1.99688E+01-3.62107E-04-5.35068E-04 6.29947E-05-3.45157E-14 8.78108E-13
 -1      1202 1.99667E+01-2.50471E-04-3.45609E-04-2.08779E-05-5.82887E-15 4.81086E-13
 -1      1203 1.99676E+01-1.67623E-04-2.10076E-04-6.99348E-05 7.13163E-14 1.15255E-13
 -1      1204 1.99703E+01-1.07396E-04-1.15621E-04-9.49964E-05 2.64901E-14-2.91783E-13
 -1      1205 1.99738E+01-6.46381E-05-5.19446E-05-1.04101E-04 6.00279E-14-3.05390E-13
 -1      1206 1.99777E+01-3.51116E-05-1.08879E-05-1.03136E-04-3.59547E-14 3.48940E-14
 -1      1207 1.99816E+01-1.53627E-05 1.39539E-05-9.63453E-05-4.23437E-14 1.34293E-13
 -1      1208 1.99853E+01-2.57876E-06 2.75959E-05-8.67470E-05-5.27722E-14 4.90687E-13
 -1      1209 1.99886E+01 5.56472E-06 3.40202E-05-7.64584E-05-2.81907E-14 6.37139E-13
 -1      1210 1.99915E+01 1.10649E-05 3.65582E-05-6.69463E-05 2.05938E-14 6.91460E-13
 -1      1211 1.99940E+01 1.57358E-05 3.83389E-05-5.91627E-05 9.48723E-14 7.64757E-14
 -1      1212 1.99961E+01 2.12078E-05 4.26847E-05-5.34973E-05 2.26242E-14-7.48689E-13
 -1      1213 1.99978E+01 2.89701E-05 5.28420E-05-4.93862E-05 2.37558E-14-9.45685E-13
 -1      1214 1.99991E+01 3.78483E-05 6.68739E-05-4.27795E-05-3.85084E-14-6.83705E-13
 -1      1215 1.99998E+01 3.28674E-05 5.71245E-05-2.02558E-05 3.77254E-14-3.64786E-13
 -1      1216 1.99999E+01-2.14079E-05-5.04062E-05 2.22153E-05-4.41211E-14-4.02331E-13
 -1      1217 1.99998E+01 6.36471E-05-4.69841E-05 2.08224E-05-3.28978E-13-6.69367E-14
 -1      1218 1.99998E+01-3.05160E-05 6.00827E-05 1.21225E-05 4.58889E-13 1.78001E-13
 -1      1219 1.99998E+01-7.24698E-04 5.96405E-05-2.69714E-05 1.86590E-12-6.42885E-14
 -1      1220 1.99998E+01-1.84824E-03 2.69072E-05-4.25435E-05 1.20136E-12-2.07867E-13
 -1      1221 1.99998E+01-3.14144E-03-6.94481E-06-4.48364E-05 8.74485E-13 4.01598E-14
 -1      1222 1.99998E+01-4.37087E-03-3.38775E-05-3.88473E-05 5.37823E-13-3.74629E-14
 -1      1223 1.99998E+01-5.37280E-03-5.25606E-05-2.87103E-05 7.89966E-13 1.29939E-14
 -1      1224 1.99998E+01-6.02924E-03-6.39061E-05-1.49688E-05 1.96141E-13 2.95845E-15
 -1      1225 1.99998E+01-6.25342E-03-6.75977E-05 1.44330E-07-3.83891E-14 1.36016E-13
 -1      1226 1.99998E+01-6.02042E-03-6.37243E-05 1.52521E-05 1.16807E-14-3.77688E-14
 -1      1227 1.99998E+01-5.35637E-03-5.21272E-05 2.89236E-05-2.86812E-13-4.04356E-13
 -1      1228 1.99998E+01-4.34877E-03-3.31648E-05 3.95413E-05-1.11648E-12 1.42172E-14
 -1      1229 1.99998E+01-3.11837E-03-6.52390E-06 4.48005E-05-1.08562E-12-5.35593E-15
 -1      1230 1.99998E+01-1.82624E-03 2.76881E-05 4.30264E-05 8.70390E-14 1.66378E-13
 -1      1231 1.99998E+01-6.91540E-04 6.49975E-05 3.22595E-05 6.50604E-13 3.53728E-14
 -1      1232 1.99999E+01-4.87897E-05 5.54479E-05-2.75190E-05 2.27751E-13-1.18701E-13
 -1      1233 1.99998E+01 7.08722E-05-4.80568E-05-2.32977E-05-3.16613E-13 1.03034E-13
 -1      1234-1.23412E+00-2.39646E+01-3.77063E+00-2.18982E+00 1.27504E-12 2.78184E-13
 -1      1235-1.86648E+00-1.58120E+01-3.17830E+00-4.18840E+00 2.42850E-12 8.92786E-13
 -1      1236-1.20595E-01-3.49067E+00-2.02391E+00-7.10280E-01 3.09375E-12 1.93434E-12
 -1      1237 8.18662E+00 6.82910E+00-4.84936E-01 7.44425E+00 2.98361E-12 2.70761E-12
 -1      1238 2.44231E+01 1.09127E+01 1.22040E+00 1.56816E+01 1.96354E-12 2.73426E-12
 -1      1239 4.50123E+01 8.42423E+00 2.82955E+00 1.79701E+01 8.84515E-13 1.75993E-12
 -1      1240 6.22432E+01 3.58728E+00 3.97742E+00 1.14305E+01 1.48215E-13 3.62932E-13
 -1      1241 6.82108E+01 1.72950E+00 4.41250E+00-1.39006E+00 1.10877E-13-1.21395E-12
 -1      1242 5.91164E+01 4.87261E+00 3.85914E+00-1.33619E+01 7.11126E-13-2.48779E-12
 -1      1243 4.05778E+01 9.44721E+00 2.58466E+00-1.82934E+01 1.63736E-12-3.17724E-12
 -1      1244 1.93219E+01 1.03117E+01 7.20359E-01-1.34850E+01 2.42495E-12-3.00582E-12
 -1      1245 4.46821E+00 3.97237E+00-1.03181E+00-4.31869E+00 2.71405E-12-2.19980E-12
 -1      1246-1.22730E+00-7.65536E+00-2.51238E+00 2.51427E+00 2.31948E-12-1.22569E-12
 -1      1247-1.66242E+00-1.89362E+01-3.39612E+00 3.84112E+00 1.24756E-12-4.44644E-13
 -1      1248-9.01000E-01-2.45436E+01-3.80401E+00 5.72574E-01-2.89893E-13-1.04000E-13
 -1      1249-1.46256E+00-2.01008E+01-3.40712E+00-3.16248E+00-1.73295E-12-4.68708E-13
 -1      1250-1.39146E+00-9.29626E+00-2.61410E+00-2.83360E+00-2.77289E-12-1.29252E-12
 -1      1251 2.85288E+00 2.56150E+00-1.25575E+00 3.00017E+00-2.93832E-12-2.14717E-12
 -1      1252 1.43664E+01 9.95616E+00 3.37204E-01 1.15633E+01-2.63101E-12-2.83729E-12
 -1      1253 3.27480E+01 1.06509E+01 1.94565E+00 1.75603E+01-1.73983E-12-2.81886E-12
 -1      1254 5.24497E+01 6.46499E+00 3.36197E+00 1.62708E+01-7.35967E-13-1.89360E-12
 -1      1255 6.48050E+01 2.58820E+00 4.09638E+00 6.69637E+00-1.55792E-13-4.66904E-13
 -1      1256 6.51472E+01 2.32978E+00 4.12923E+00-6.78875E+00-1.90147E-13 9.70612E-13
 -1      1257 5.07549E+01 6.97444E+00 3.24026E+00-1.65142E+01-8.51541E-13 2.14273E-12
 -1      1258 3.00700E+01 1.09321E+01 1.77627E+00-1.72600E+01-1.64480E-12 2.55085E-12
 -1      1259 1.15376E+01 8.86966E+00 1.93785E-02-9.87888E+00-2.46425E-12 2.41274E-12
 -1      1260 1.05828E+00-7.32921E-01-1.64396E+00-8.54270E-01-2.83640E-12 1.89027E-12
 -1      1261-1.67915E+00-1.37729E+01-2.91697E+00 3.71382E+00-2.12341E-12 9.11771E-13
 -1      1262-1.09471E+00-2.35807E+01-3.70079E+00 2.23391E+00-7.00551E-14 2.00603E-13
 -1      1263 2.48504E+01 1.99124E+00-7.39428E-01-2.52380E+00-7.24143E-14 9.81992E-13
 -1      1264 2.24350E+01 4.94537E+00-3.62356E-02-2.58549E+00-1.70419E-13-1.37251E-13
 -1      1265 2.32334E+01 5.11011E+00-7.59866E-02-3.59507E+00-2.32536E-13 1.09246E-13
 -1      1266 2.09309E+01 5.16691E+00-1.31651E-02-1.69415E+00-1.56430E-13-4.84519E-13
 -1      1267 2.15924E+01 5.36403E+00 2.57171E-02-2.19686E+00-1.79537E-13-3.38521E-13
 -1      1268 2.25692E+01 4.02507E+00-1.61232E-02-2.31750E+00-2.89879E-13-1.06359E-13
 -1      1269 1.97773E+01 5.11693E+00-4.83584E-03-9.57069E-01-1.05110E-13-6.38427E-13
 -1      1270 2.03443E+01 5.29380E+00 2.72303E-02-1.31577E+00-1.31839E-13-5.70384E-13
 -1      1271 2.10365E+01 4.38737E+00-2.17961E-02-1.54694E+00-2.38119E-13-3.93435E-13
 -1      1272 1.87267E+01 5.01654E+00-6.36944E-03-3.93515E-01-6.37407E-14-7.17360E-13
 -1      1273 1.92507E+01 5.17830E+00 2.44634E-02-6.57084E-01-7.47596E-14-6.83655E-13
 -1      1274 1.98024E+01 4.50486E+00-2.18499E-02-8.63224E-01-1.45838E-13-5.32897E-13
 -1      1275 1.77692E+01 4.92555E+00-1.26474E-02-5.59183E-03-2.23571E-14-7.46231E-13
 -1      1276 1.82441E+01 5.07096E+00 1.95645E-02-1.79730E-01-3.62627E-14-7.31330E-13
 -1      1277 1.86906E+01 4.56695E+00-2.00435E-02-3.38168E-01-8.33777E-14-6.02511E-13
 -1      1278 1.69292E+01 4.86618E+00-2.02931E-02 2.16281E-01 9.56180E-15-7.59262E-13
 -1      1279 1.73331E+01 4.98861E+00 1.10859E-02 1.24175E-01 1.31839E-15-7.57812E-13
 -1      1280 1.76751E+01 4.63624E+00-1.78810E-02 2.36290E-02-1.92485E-14-6.38666E-13
 -1      1281 1.63277E+01 4.85048E+00-2.46025E-02 2.78325E-01 3.85039E-14-7.50396E-13
 -1      1282 1.65969E+01 4.93155E+00-4.87544E-04 2.59129E-01 2.84217E-14-7.55505E-13
 -1      1283 1.68180E+01 4.72215E+00-1.62032E-02 2.19069E-01 2.91694E-14-6.39643E-13
 -1      1284 1.60709E+01 4.87522E+00-2.30839E-02 2.27909E-01 6.96177E-14-7.34286E-13
 -1      1285 1.61534E+01 4.89956E+00-1.26799E-02 2.53754E-01 5.88141E-14-7.44294E-13
 -1      1286 1.62455E+01 4.80546E+00-1.48326E-02 2.63455E-01 8.27428E-14-6.37733E-13
 -1      1287 1.62265E+01 4.93182E+00-1.54134E-02 1.43660E-01 9.59718E-14-7.02439E-13
 -1      1288 1.60948E+01 4.89129E+00-2.23221E-02 1.73765E-01 8.30664E-14-7.24311E-13
 -1      1289 1.60675E+01 4.85810E+00-1.43362E-02 2.12089E-01 1.25176E-13-6.14225E-13
 -1      1290 1.67956E+01 5.01214E+00-3.78984E-03 1.18220E-01 1.22763E-13-6.53271E-13
 -1      1291 1.64581E+01 4.90982E+00-2.66765E-02 1.08195E-01 1.11890E-13-6.85726E-13
 -1      1292 1.63422E+01 4.86204E+00-1.51525E-02 1.50052E-01 1.71956E-13-5.83881E-13
 -1      1293 1.76975E+01 5.11172E+00 9.04534E-03 2.30925E-01 1.50990E-13-5.57212E-13
 -1      1294 1.72026E+01 4.96028E+00-2.53066E-02 1.45933E-01 1.37432E-13-6.11374E-13
 -1      1295 1.70464E+01 4.81986E+00-1.67892E-02 1.69062E-01 2.12304E-13-5.30792E-13
 -1      1296 1.88716E+01 5.22997E+00 2.08600E-02 5.43981E-01 1.88988E-13-4.20462E-13
 -1      1297 1.82487E+01 5.03912E+00-2.07760E-02 3.53750E-01 1.72029E-13-5.03483E-13
 -1      1298 1.81038E+01 4.74521E+00-1.92403E-02 3.41958E-01 2.64726E-13-4.26860E-13
 -1      1299 2.02306E+01 5.35144E+00 3.04530E-02 1.09801E+00 2.22433E-13-1.95392E-13
 -1      1300 1.95189E+01 5.13140E+00-1.71123E-02 7.80089E-01 2.03532E-13-3.27516E-13
 -1      1301 1.94336E+01 4.64039E+00-2.13440E-02 7.17751E-01 3.12864E-13-2.68507E-13
 -1      1302 2.17885E+01 5.43372E+00 4.20120E-02 1.95101E+00 2.40197E-13 1.73098E-13
 -1      1303 2.09652E+01 5.17977E+00-1.96044E-02 1.45649E+00 2.20560E-13-4.57342E-14
 -1      1304 2.09808E+01 4.46267E+00-2.03688E-02 1.31951E+00 3.51597E-13-2.70756E-14
 -1      1305 2.38279E+01 5.23691E+00 4.98378E-02 3.27753E+00 1.90042E-13 8.23494E-13
 -1      1306 2.27172E+01 5.00754E+00-3.08108E-02 2.42432E+00 1.86712E-13 4.32820E-13
 -1      1307 2.28510E+01 4.03161E+00-6.39302E-03 2.13767E+00 3.40256E-13 3.78295E-13
 -1      1308 3.01201E+01 3.34913E+00 8.98435E-01 4.28300E+00 7.56062E-14 1.95155E-12
 -1      1309 2.49514E+01 3.72842E+00-1.72405E-01 3.28841E+00 8.48210E-14 1.18036E-12
 -1      1310 2.51708E+01 2.60716E+00-3.89370E-03 2.64717E+00 2.94291E-13 9.58372E-13
 -1      1311 2.47964E+01 3.11550E-01-7.82726E-01 7.45230E-01 1.45495E-13 1.91669E-12
 -1      1312 2.49266E+01 8.81971E-02-4.13265E-01-9.82538E-01-1.95483E-13 1.05876E-12
 -1      1313 2.39344E+01 2.72161E-01-1.55547E-01-5.44125E-01-1.78392E-13 8.25912E-13
 -1      1314 2.34898E+01 1.27288E-01-6.92278E-02-1.86890E-01-1.39080E-13 7.49210E-13
 -1      1315 2.32718E+01 5.89120E-02-9.71630E-03-1.34828E-01-1.35385E-13 5.39513E-13
 -1      1316 2.40029E+01 3.03266E-01-1.03297E-01-8.27181E-01-3.07337E-13 4.25542E-13
 -1      1317 2.30525E+01 2.95865E-02 7.00477E-03-1.32869E-02-1.05032E-13 4.85820E-13
 -1      1318 2.30270E+01-3.83200E-04 1.57469E-02-1.58888E-02-9.42007E-14 3.42920E-13
 -1      1319 2.32597E+01 7.02016E-02-2.79731E-02-1.98873E-01-2.25354E-13 3.07612E-13
 -1      1320 2.29263E+01-1.70400E-02 1.73248E-02-2.62301E-02-6.67830E-14 2.93106E-13
 -1      1321 2.28756E+01-3.55364E-02 1.36951E-02-4.48018E-02-5.14771E-14 1.84720E-13
 -1      1322 2.29871E+01-2.54757E-02 2.65430E-03-6.87456E-02-1.59341E-13 2.19056E-13
 -1      1323 2.27654E+01-4.84799E-02 1.53131E-02-1.32101E-01-3.29537E-14 1.70660E-13
 -1      1324 2.25710E+01-5.69919E-02 1.09968E-02-1.64510E-01-5.82806E-14 1.09449E-13
 -1      1325 2.27988E+01-8.05841E-02 1.20606E-02-1.83530E-01-8.95174E-14 1.43391E-13
 -1      1326 2.23740E+01-6.48046E-02 1.40142E-02-2.93582E-01-4.44228E-14 9.09741E-14
 -1      1327 2.19767E+01-5.92105E-02 9.71378E-03-3.32054E-01-3.38375E-14 2.90809E-14
 -1      1328 2.25143E+01-1.09263E-01 1.71659E-02-4.42904E-01-9.20774E-14 1.13946E-13
 -1      1329 2.16622E+01-5.61791E-02 1.20012E-02-4.53645E-01-4.37103E-14 1.17545E-14
 -1      1330 2.10801E+01-3.29938E-02 6.83497E-03-4.82959E-01-6.63562E-14-8.37663E-14
 -1      1331 2.20258E+01-9.93204E-02 1.73234E-02-7.48703E-01-7.68240E-14 5.02905E-14
 -1      1332 2.06782E+01-1.52935E-02 6.17805E-03-5.31925E-01-5.42173E-14-1.13361E-13
 -1      1333 2.00272E+01 2.17057E-02 2.00002E-04-5.32922E-01-6.00623E-14-2.12483E-13
 -1      1334 2.13272E+01-3.79815E-02 9.15088E-03-9.62666E-01-1.16346E-13-6.27103E-15
 -1      1335 1.96344E+01 4.91070E-02-3.56981E-03-4.54642E-01-8.35321E-14-2.48010E-13
 -1      1336 1.91091E+01 8.55499E-02-8.77084E-03-4.15836E-01-1.04901E-13-3.35117E-13
 -1      1337 2.05397E+01 6.46457E-02-7.78438E-03-9.35089E-01-1.18247E-13-7.46729E-14
 -1      1338 1.88596E+01 1.07994E-01-1.27779E-02-2.07454E-01-5.24754E-14-3.53384E-13
 -1      1339 1.86541E+01 1.24920E-01-1.50583E-02-1.37312E-01 1.95989E-14-3.94562E-13
 -1      1340 1.98958E+01 1.67081E-01-2.67780E-02-5.89575E-01-1.14431E-13-4.92922E-14
 -1      1341 1.86525E+01 1.27390E-01-1.58202E-02 1.33071E-01 1.89414E-14-4.57178E-13
 -1      1342 1.88585E+01 1.14463E-01-1.40310E-02 2.06203E-01-2.74676E-14-4.63615E-13
 -1      1343 1.96410E+01 2.15188E-01-3.63505E-02-3.51913E-03-2.00655E-14-1.74175E-13
 -1      1344 1.91133E+01 9.51736E-02-1.10411E-02 4.31361E-01-4.97640E-14-4.99035E-13
 -1      1345 1.96644E+01 5.94545E-02-5.96074E-03 4.76780E-01-1.90473E-14-5.37501E-13
 -1      1346 1.98936E+01 1.80582E-01-2.94089E-02 6.03816E-01-7.58994E-14-3.04003E-13
 -1      1347 2.00806E+01 3.18568E-02-2.45805E-03 5.76317E-01 1.17061E-14-5.51663E-13
 -1      1348 2.07904E+01-8.10719E-03 3.67110E-03 5.81064E-01 1.85110E-14-4.88512E-13
 -1      1349 2.05636E+01 8.29593E-02-1.06819E-02 9.96832E-01-1.55822E-14-3.58272E-13
 -1      1350 2.12277E+01-2.79597E-02 4.26515E-03 5.44365E-01 1.52066E-14-4.97317E-13
 -1      1351 2.18899E+01-5.64084E-02 9.48065E-03 5.17100E-01-2.09650E-14-4.85792E-13
 -1      1352 2.14080E+01-2.52851E-02 8.08415E-03 1.06521E+00 1.03294E-14-3.63097E-13
 -1      1353 2.22342E+01-6.19591E-02 6.55485E-03 3.90959E-01-6.71989E-14-4.67706E-13
 -1      1354 2.27088E+01-7.37725E-02 1.00205E-02 3.50096E-01-9.28875E-14-5.52659E-13
 -1      1355 2.21699E+01-9.82460E-02 1.86987E-02 8.59589E-01-5.75382E-14-3.52537E-13
 -1      1356 2.29059E+01-6.79769E-02 5.29915E-03 1.97037E-01-5.95886E-14-5.64722E-13
 -1      1357 2.31466E+01-6.66171E-02 7.18941E-03 1.58321E-01-1.64842E-14-6.18604E-13
 -1      1358 2.26856E+01-1.21390E-01 2.03322E-02 5.17548E-01-1.06366E-13-3.38994E-13
 -1      1359 2.31966E+01-5.59461E-02 2.74614E-03 2.44557E-02-2.46417E-15-6.20993E-13
 -1      1360 2.32293E+01-4.77384E-02 3.59515E-03-4.08973E-03 1.19696E-14-6.13358E-13
 -1      1361 2.29083E+01-1.06765E-01 1.64078E-02 1.71195E-01-2.15123E-14-3.81445E-13
 -1      1362 2.31635E+01-3.73645E-02 5.66702E-04-9.81973E-02-5.58273E-14-6.39597E-13
 -1      1363 2.30478E+01-2.74821E-02 7.92468E-04-1.15166E-01-7.16801E-14-7.07111E-13
 -1      1364 2.28744E+01-7.50514E-02 1.06388E-02-1.01002E-01-5.31953E-14-4.39722E-13
 -1      1365 2.29072E+01-1.98140E-02-6.46626E-04-1.68319E-01-6.24154E-15-7.31473E-13
 -1      1366 2.27064E+01-1.11117E-02-7.80890E-04-1.75753E-01-3.88144E-17-7.75408E-13
 -1      1367 2.26578E+01-4.22623E-02 5.35323E-03-2.75086E-01-8.51996E-14-5.05792E-13
 -1      1368 2.25282E+01-6.51987E-03-9.96254E-04-1.96286E-01-1.55909E-14-7.81538E-13
 -1      1369 2.22933E+01-8.95818E-06-1.34964E-03-1.97190E-01-4.97651E-14-7.59733E-13
 -1      1370 2.23357E+01-1.63247E-02 1.45439E-03-3.60992E-01-2.21867E-14-5.74194E-13
 -1      1371 2.21055E+01 2.09557E-03-8.32381E-04-1.95736E-01 4.92217E-14-6.61654E-13
 -1      1372 2.18712E+01 6.42912E-03-1.31775E-03-1.92809E-01 8.43443E-14-5.66282E-13
 -1      1373 2.19712E+01 9.32356E-04-1.00789E-03-3.81991E-01 5.52693E-14-5.56214E-13
 -1      1374 2.16923E+01 6.86573E-03-4.72413E-04-1.78656E-01 5.48136E-14-5.60884E-13
 -1      1375 2.14787E+01 9.44713E-03-1.02165E-03-1.73882E-01-3.86543E-14-5.52041E-13
 -1      1376 2.16086E+01 1.07076E-02-2.33122E-03-3.62011E-01 8.50010E-14-4.90401E-13
 -1      1377 2.13188E+01 8.92573E-03-1.11895E-04-1.53824E-01-7.32375E-14-4.86764E-13
 -1      1378 2.11353E+01 1.02527E-02-6.69085E-04-1.48483E-01-6.65426E-14-6.19193E-13
 -1      1379 2.12750E+01 1.51043E-02-2.87347E-03-3.20194E-01-4.08419E-14-3.64833E-13
 -1      1380 2.09990E+01 9.27812E-03 1.63187E-04-1.26926E-01-2.10595E-14-5.83947E-13
 -1      1381 2.08480E+01 9.77884E-03-3.60065E-04-1.21762E-01-7.86411E-14-6.26219E-13
 -1      1382 2.09841E+01 1.60898E-02-2.93346E-03-2.69803E-01-7.84897E-14-2.63595E-13
 -1      1383 2.07359E+01 8.66720E-03 3.35288E-04-1.01261E-01-2.04003E-14-6.63271E-13
 -1      1384 2.06158E+01 8.66352E-03-1.27623E-04-9.66508E-02 5.08496E-14-6.21109E-13
 -1      1385 2.07404E+01 1.51502E-02-2.72518E-03-2.19062E-01-6.57170E-14-3.36725E-13
 -1      1386 2.05263E+01 7.59184E-03 4.19057E-04-7.84941E-02 6.69468E-14-6.00816E-13
 -1      1387 2.04336E+01 7.30744E-03 2.88222E-05-7.45852E-02 4.60292E-14-5.88168E-13
 -1      1388 2.05427E+01 1.32822E-02-2.38887E-03-1.72498E-01 3.47600E-14-2.13458E-13
 -1      1389 2.03640E+01 6.36144E-03 4.38872E-04-5.92560E-02-6.01486E-14-6.40998E-13
 -1      1390 2.02943E+01 5.94317E-03 1.22960E-04-5.60642E-02-5.81652E-14-6.94059E-13
 -1      1391 2.03867E+01 1.10990E-02-2.01069E-03-1.32190E-01-4.87690E-14-3.76049E-13
 -1      1392 2.02415E+01 5.15363E-03 4.17956E-04-4.35767E-02 2.93578E-14-6.87631E-13
 -1      1393 2.01905E+01 4.69309E-03 1.71136E-04-4.10475E-02 2.38021E-14-6.46484E-13
 -1      1394 2.02666E+01 8.94776E-03-1.64022E-03-9.87107E-02 1.61673E-14-4.33757E-13
 -1      1395 2.01514E+01 4.06034E-03 3.74522E-04-3.11663E-02 4.27346E-14-6.25767E-13
 -1      1396 2.01152E+01 3.61132E-03 1.87925E-04-2.92137E-02 5.96760E-14-5.18870E-13
 -1      1397 2.01764E+01 7.00482E-03-1.30352E-03-7.17843E-02 4.37765E-14-2.60668E-13
 -1      1398 2.00869E+01 3.12050E-03 3.21342E-04-2.15919E-02-4.98538E-15-4.47708E-13
 -1      1399 2.00620E+01 2.71189E-03 1.84793E-04-2.01206E-02 2.65651E-15-4.05181E-13
 -1      1400 2.01102E+01 5.34269E-03-1.01204E-03-5.07077E-02 8.43491E-14-2.33271E-13
 -1      1401 2.00422E+01 2.34202E-03 2.66625E-04-1.43813E-02 3.11042E-14-4.17600E-13
 -1      1402 2.00259E+01 1.98685E-03 1.70117E-04-1.32993E-02 4.35461E-14-4.05270E-13
 -1      1403 2.00630E+01 3.97443E-03-7.68499E-04-3.46106E-02-3.36428E-14-1.67372E-13
 -1      1404 2.00125E+01 1.71582E-03 2.15188E-04-9.08107E-03-2.39799E-14-4.80417E-13
 -1      1405 2.00023E+01 1.41741E-03 1.49690E-04-8.30573E-03-1.27888E-13-5.88650E-13
 -1      1406 2.00303E+01 2.88153E-03-5.70673E-04-2.26063E-02-6.70770E-14-3.41753E-13
 -1      1407 1.99937E+01 1.22458E-03 1.69510E-04-5.28508E-03-8.05532E-14-5.44703E-13
 -1      1408 1.99879E+01 9.80581E-04 1.27321E-04-4.74579E-03 3.20137E-14-6.48369E-13
 -1      1409 2.00086E+01 2.03074E-03-4.13826E-04-1.38726E-02-1.04044E-13-2.50674E-13
 -1      1410 1.99827E+01 8.47980E-04 1.30552E-04-2.64617E-03 8.56943E-14-6.06967E-13
 -1      1411 1.99800E+01 6.53071E-04 1.05372E-04-2.28444E-03 1.01106E-13-5.28594E-13
 -1      1412 1.99949E+01 1.38394E-03-2.92191E-04-7.68893E-03 3.34279E-14-1.90765E-13
 -1      1413 1.99772E+01 5.65691E-04 9.83452E-05-8.77301E-04-8.99948E-14-6.24915E-13
 -1      1414 1.99765E+01 4.13255E-04 8.51908E-05-6.46080E-04-7.27975E-14-6.98520E-13
 -1      1415 1.99870E+01 9.03597E-04-1.99859E-04-3.44856E-03-2.94382E-14-4.53148E-13
 -1      1416 1.99754E+01 3.58989E-04 7.23966E-05 2.52418E-04 2.39264E-14-7.20661E-13
 -1      1417 1.99759E+01 2.42148E-04 6.74393E-05 3.90126E-04-6.18954E-15-6.54708E-13
 -1      1418 1.99831E+01 5.55568E-04-1.31283E-04-6.55837E-04-5.20700E-14-5.58963E-13
 -1      1419 1.99759E+01 2.11489E-04 5.19530E-05 9.24406E-04 3.70124E-14-7.23288E-13
 -1      1420 1.99772E+01 1.23702E-04 5.23302E-05 9.97048E-04 3.68233E-14-6.82343E-13
 -1      1421 1.99818E+01 3.10311E-04-8.15309E-05 1.08400E-03 7.79655E-14-7.06209E-13
 -1      1422 1.99778E+01 1.09359E-04 3.61701E-05 1.27810E-03-6.40973E-15-5.89743E-13
 -1      1423 1.99795E+01 4.47312E-05 3.97985E-05 1.30708E-03 2.93531E-14-5.93366E-13
 -1      1424 1.99822E+01 1.43135E-04-4.63792E-05 2.07828E-03 4.14037E-14-7.55779E-13
 -1      1425 1.99804E+01 4.12344E-05 2.42118E-05 1.41831E-03-1.31463E-14-5.67093E-13
 -1      1426 1.99822E+01-5.35564E-06 2.96185E-05 1.41938E-03-8.80294E-14-6.61655E-13
 -1      1427 1.99837E+01 3.39498E-05-2.23139E-05 2.56109E-03-4.33256E-15-6.02021E-13
 -1      1428 1.99833E+01-2.02979E-06 1.53070E-05 1.42199E-03-3.07081E-14-5.79953E-13
 -1      1429 1.99851E+01-3.49218E-05 2.14829E-05 1.40639E-03-6.23453E-14-6.81095E-13
 -1      1430 1.99857E+01-3.32542E-05-6.47642E-06 2.70669E-03-6.16715E-14-5.48249E-13
 -1      1431 1.99863E+01-2.76844E-05 8.77832E-06 1.34392E-03-2.63182E-14-6.84298E-13
 -1      1432 1.99880E+01-5.04985E-05 1.50579E-05 1.31942E-03-4.50787E-14-6.89854E-13
 -1      1433 1.99879E+01-7.10412E-05 3.41733E-06 2.64139E-03-5.71689E-14-6.83287E-13
 -1      1434 1.99891E+01-4.14470E-05 4.06020E-06 1.22156E-03-6.93636E-14-6.27842E-13
 -1      1435 1.99906E+01-5.71860E-05 1.00311E-05 1.19319E-03 2.26775E-14-6.33133E-13
 -1      1436 1.99901E+01-8.92080E-05 9.17225E-06 2.45365E-03 3.82581E-14-3.60460E-13
 -1      1437 1.99916E+01-4.78718E-05 7.26831E-07 1.07866E-03 6.13982E-14-5.34941E-13
 -1      1438 1.99929E+01-5.90373E-05 6.17481E-06 1.04929E-03 1.13169E-13-5.01473E-13
 -1      1439 1.99922E+01-9.54672E-05 1.22163E-05 2.20205E-03 8.48362E-14-2.00820E-13
 -1      1440 1.99938E+01-5.07155E-05-1.44560E-06 9.27993E-04 1.54885E-13-6.29848E-13
 -1      1441 1.99950E+01-5.93908E-05 3.48016E-06 8.98674E-04 1.53679E-13-3.77594E-13
 -1      1442 1.99941E+01-9.61085E-05 1.37136E-05 1.92145E-03 1.40118E-13-4.29174E-14
 -1      1443 1.99958E+01-5.31943E-05-2.31254E-06 7.73160E-04 1.90023E-13-4.50190E-13
 -1      1444 1.99967E+01-6.11554E-05 2.28387E-06 7.43342E-04 1.28594E-13-2.28301E-13
 -1      1445 1.99958E+01-9.65374E-05 1.46991E-05 1.62727E-03 2.26359E-13-7.67926E-14
 -1      1446 1.99973E+01-5.84208E-05-1.21595E-06 6.09610E-04 1.07838E-13-2.67275E-13
 -1      1447 1.99981E+01-6.68626E-05 3.15352E-06 5.76905E-04 1.28692E-13-1.17263E-13
 -1      1448 1.99972E+01-1.02290E-04 1.60443E-05 1.31860E-03 2.41588E-13-3.54977E-13
 -1      1449 1.99986E+01-6.85656E-05 2.43581E-06 4.26594E-04 7.64989E-14-5.71978E-14
 -1      1450 1.99990E+01-7.67719E-05 4.49563E-06 3.86717E-04 9.23970E-14 5.12991E-14
 -1      1451 1.99983E+01-1.18173E-04 1.78568E-05 9.80478E-04 1.08425E-13-1.14631E-13
 -1      1452 1.99994E+01-8.89554E-05 4.13520E-06 2.12123E-04 1.22334E-13 2.46183E-14
 -1      1453 1.99996E+01-7.90643E-05-2.65633E-06 1.64550E-04 1.07144E-13 1.87494E-13
 -1      1454 1.99991E+01-1.46056E-04 1.82604E-05 5.98268E-04 1.52776E-13-1.26601E-13
 -1      1455 1.99998E+01-1.84096E-05-1.01308E-05-1.76024E-05-2.16658E-13 2.77974E-13
 -1      1456 1.99997E+01-1.17648E-04 6.02675E-06 1.52425E-04-1.47791E-14-1.19903E-13
 -1      1457 2.44620E+01 6.05642E-02-1.35900E-01 1.47489E-01 1.40991E-13 1.59953E-12
 -1      1458 2.52172E+01 2.19505E-01-2.28632E-01 3.62442E-01 1.17559E-13 1.81902E-12
 -1      1459 2.51943E+01 8.12353E-01-1.06075E-01 1.42347E+00 2.29608E-13 1.23529E-12
 -1      1460 2.42722E+01 1.96443E-02-1.03222E-02-9.77330E-02 1.08351E-13 1.32106E-12
 -1      1461 2.42621E+01 1.03568E-01-5.34539E-02-5.44595E-02 1.00414E-13 1.47666E-12
 -1      1462 2.43851E+01 1.47088E-01-5.78244E-02 2.03470E-01 2.12518E-13 1.01584E-12
 -1      1463 2.45053E+01-7.01354E-03 1.58981E-02-1.62459E-01 5.68443E-14 1.14208E-12
 -1      1464 2.43033E+01 2.84340E-02 6.45269E-03-1.49794E-01 6.40417E-14 1.24339E-12
 -1      1465 2.42266E+01 3.38544E-02-9.16206E-03-1.85712E-01 1.55495E-13 8.52225E-13
 -1      1466 2.47696E+01-3.32186E-02 2.40900E-02-9.98363E-02 5.51488E-14 1.04780E-12
 -1      1467 2.45920E+01-2.37228E-02 1.55990E-02-1.18083E-01 3.15065E-14 1.10418E-12
 -1      1468 2.43604E+01-3.17745E-02 8.40678E-03-2.32948E-01 7.88935E-14 7.20885E-13
 -1      1469 2.47474E+01-5.78396E-02 3.27292E-02 8.22069E-02 1.06278E-14 9.65928E-13
 -1      1470 2.47682E+01-7.25792E-02 1.65210E-02 2.83914E-02 1.88504E-14 1.00652E-12
 -1      1471 2.44797E+01-9.31584E-02 2.16966E-02-3.86600E-02 5.66699E-14 6.77756E-13
 -1      1472 2.41748E+01-6.85601E-02 3.72015E-02 3.58926E-01-2.39132E-14 1.01066E-12
 -1      1473 2.45430E+01-1.10184E-01 1.82937E-02 2.73348E-01-2.47580E-14 9.77067E-13
 -1      1474 2.43368E+01-1.44503E-01 3.42923E-02 3.63147E-01-4.01484E-14 7.13934E-13
 -1      1475 2.29420E+01-4.64512E-02 2.46624E-02 6.38918E-01 5.87351E-14 9.22262E-13
 -1      1476 2.37133E+01-1.09772E-01 1.64418E-02 5.47401E-01 2.85700E-14 1.00243E-12
 -1      1477 2.37556E+01-1.51830E-01 3.77132E-02 8.72169E-01 2.59254E-14 6.96884E-13
 -1      1478 2.12570E+01 1.62451E-02-1.22863E-02 7.58129E-01 4.47862E-14 7.67358E-13
 -1      1479 2.22921E+01-4.59177E-02 3.56887E-03 7.10286E-01 7.32548E-14 8.54372E-13
 -1      1480 2.27257E+01-7.33995E-02 2.19812E-02 1.26099E+00 1.12524E-13 6.39929E-13
 -1      1481 1.97106E+01 9.29247E-02-5.99093E-02 5.64523E-01 5.19411E-14 6.66793E-13
 -1      1482 2.06423E+01 7.02791E-02-2.04427E-02 6.06919E-01 2.19755E-14 6.84730E-13
 -1      1483 2.15082E+01 9.42709E-02-1.10356E-02 1.23281E+00 8.84570E-14 5.24622E-13
 -1      1484 1.90418E+01 1.28968E-01-8.41462E-02 7.41353E-02-9.53577E-15 6.28786E-13
 -1      1485 1.94264E+01 1.72871E-01-4.21162E-02 2.03363E-01 3.49373E-14 6.06210E-13
 -1      1486 2.06072E+01 2.68431E-01-4.24475E-02 6.38403E-01 5.69753E-14 3.89277E-13
 -1      1487 1.96371E+01 9.35895E-02-6.21437E-02-4.70544E-01 1.20143E-13 4.76202E-13
 -1      1488 1.92559E+01 1.87334E-01-4.29241E-02-3.22062E-01 5.34989E-14 5.27292E-13
 -1      1489 2.04942E+01 3.17248E-01-5.14808E-02-3.06511E-01 7.35592E-14 2.86250E-13
 -1      1490 2.12118E+01 1.70858E-02-8.93561E-03-7.79390E-01 1.01299E-13 2.15078E-13
 -1      1491 2.02463E+01 1.07696E-01-1.94951E-02-6.89014E-01 1.05671E-13 3.44814E-13
 -1      1492 2.12487E+01 1.94325E-01-3.53115E-02-1.10911E+00 1.88918E-13 1.16518E-13
 -1      1493 2.30367E+01-4.61121E-02 3.67545E-02-7.50897E-01 6.66819E-14 7.70217E-15
 -1      1494 2.19241E+01-9.08121E-04 1.07056E-02-7.44287E-01 6.62725E-14 9.49657E-14
 -1      1495 2.24899E+01-5.56544E-03-1.08866E-02-1.39207E+00 1.59158E-13-1.28630E-13
 -1      1496 2.44498E+01-6.97779E-02 5.21821E-02-4.92714E-01 1.04196E-14-3.91076E-14
 -1      1497 2.35854E+01-7.46072E-02 2.80224E-02-5.43927E-01 3.47621E-14 1.49047E-14
 -1      1498 2.36812E+01-1.52099E-01 5.98918E-03-1.14921E+00 7.66921E-14-1.80779E-13
 -1      1499 2.51572E+01-6.09455E-02 4.28548E-02-1.80813E-01-2.15539E-14-1.64382E-14
 -1      1500 2.47155E+01-9.41897E-02 2.77744E-02-2.47836E-01 1.41380E-14-2.84148E-14
 -1      1501 2.44512E+01-1.91904E-01 1.20076E-02-6.34163E-01 3.32269E-14-8.68403E-14
 -1      1502 2.52040E+01-3.92800E-02 2.46540E-02 6.72260E-02-1.36202E-14 4.25502E-14
 -1      1503 2.51562E+01-7.75717E-02 1.78641E-02 1.19551E-02-4.88949E-14-2.55386E-14
 -1      1504 2.46988E+01-1.55107E-01 1.11277E-02-1.16969E-01-3.37699E-14-1.58848E-13
 -1      1505 2.47948E+01-1.86216E-02 8.82029E-03 2.15982E-01 8.50236E-14-5.12576E-14
 -1      1506 2.50163E+01-4.89600E-02 7.09052E-03 1.81139E-01 6.34735E-14 3.12970E-14
 -1      1507 2.45120E+01-9.34064E-02 7.77022E-03 2.57272E-01 6.12262E-14-1.65772E-13
 -1      1508 2.41472E+01-4.17487E-03-9.68088E-04 2.79128E-01-3.57988E-14-1.26864E-13
 -1      1509 2.45068E+01-2.31921E-02-2.00396E-04 2.62357E-01 5.13170E-14-3.68802E-14
 -1      1510 2.40478E+01-3.94116E-02 4.50543E-03 4.62949E-01 1.05641E-13-9.85791E-14
 -1      1511 2.34261E+01 4.04022E-03-5.47422E-03 2.85381E-01-4.32725E-14 4.06931E-14
 -1      1512 2.38261E+01-5.29918E-03-3.59797E-03 2.80917E-01-4.05515E-14-1.84228E-14
 -1      1513 2.34533E+01-3.59595E-03 2.16980E-03 5.35296E-01-8.05667E-14-2.02746E-14
 -1      1514 2.27331E+01 7.76905E-03-6.67483E-03 2.60598E-01-4.42539E-14 2.06165E-13
 -1      1515 2.31148E+01 5.05958E-03-4.35749E-03 2.63152E-01-4.14438E-14 1.03346E-13
 -1      1516 2.28353E+01 1.56754E-02 7.38972E-04 5.23191E-01-6.59622E-14 7.01383E-14
 -1      1517 2.21195E+01 8.78680E-03-6.24226E-03 2.22640E-01 6.78869E-14 1.47327E-13
 -1      1518 2.24543E+01 9.96702E-03-3.82000E-03 2.28503E-01 3.82602E-14 2.32954E-13
 -1      1519 2.22578E+01 2.35853E-02-5.74643E-05 4.67140E-01-2.52383E-14 1.47091E-13
 -1      1520 2.16040E+01 8.38259E-03-5.20136E-03 1.82046E-01 3.72011E-15 2.91564E-14
 -1      1521 2.18826E+01 1.14973E-02-2.87245E-03 1.88976E-01 2.68106E-14 1.67755E-13
 -1      1522 2.17525E+01 2.48988E-02-4.67892E-04 3.94201E-01 7.83280E-14 1.97244E-13
 -1      1523 2.11865E+01 7.35170E-03-4.06943E-03 1.44219E-01-3.95491E-14 7.84928E-14
 -1      1524 2.14099E+01 1.11791E-02-1.95238E-03 1.51011E-01-1.92004E-14 3.72705E-14
 -1      1525 2.13297E+01 2.29209E-02-6.55456E-04 3.19999E-01 1.23382E-15 1.47023E-13
 -1      1526 2.08577E+01 6.13468E-03-3.06115E-03 1.11444E-01-1.15607E-13 4.42591E-13
 -1      1527 2.10319E+01 9.98592E-03-1.21708E-03 1.17532E-01-1.30281E-13 2.27103E-13
 -1      1528 2.09873E+01 1.96266E-02-7.16163E-04 2.52353E-01-1.79214E-13 2.62403E-13
 -1      1529 2.06045E+01 4.95230E-03-2.23896E-03 8.42884E-02-5.82455E-15 6.30991E-13
 -1      1530 2.07374E+01 8.48042E-03-6.86366E-04 8.94711E-02-2.16567E-14 4.97481E-13
 -1      1531 2.07170E+01 1.60736E-02-7.04792E-04 1.94382E-01-1.39814E-13 5.27621E-13
 -1      1532 2.04136E+01 3.90111E-03-1.59950E-03 6.24719E-02 1.68803E-14 6.21024E-13
 -1      1533 2.05128E+01 6.96180E-03-3.28184E-04 6.67356E-02 9.91763E-15 6.64614E-13
 -1      1534 2.05082E+01 1.27665E-02-6.53475E-04 1.46641E-01 1.83868E-14 5.76576E-13
 -1      1535 2.02725E+01 3.01211E-03-1.11633E-03 4.53503E-02 3.32408E-14 4.98278E-13
 -1      1536 2.03451E+01 5.57336E-03-9.94946E-05 4.87714E-02 7.84882E-14 6.12178E-13
 -1      1537 2.03501E+01 9.90566E-03-5.81949E-04 1.08424E-01 8.96815E-14 4.75257E-13
 -1      1538 2.01704E+01 2.28410E-03-7.58622E-04 3.21744E-02 9.41478E-15 4.22485E-13
 -1      1539 2.02223E+01 4.37167E-03 3.80378E-05 3.48647E-02-2.23808E-14 4.21101E-13
 -1      1540 2.02327E+01 7.53541E-03-5.02706E-04 7.85053E-02 1.41131E-14 5.50932E-13
 -1      1541 2.00981E+01 1.70164E-03-4.98319E-04 2.22162E-02 6.10594E-14 2.19969E-13
 -1      1542 2.01343E+01 3.36762E-03 1.14042E-04 2.42944E-02 1.07800E-13 3.13775E-13
 -1      1543 2.01473E+01 5.62752E-03-4.23622E-04 5.55263E-02 1.45790E-13 3.59243E-13
 -1      1544 2.00485E+01 1.24428E-03-3.12124E-04 1.48238E-02 8.17272E-16 1.88951E-13
 -1      1545 2.00729E+01 2.54967E-03 1.49909E-04 1.64022E-02-1.42454E-14 1.35322E-13
 -1      1546 2.00865E+01 4.12456E-03-3.49456E-04 3.81912E-02 2.92902E-14 5.13229E-14
 -1      1547 2.00155E+01 8.91088E-04-1.81517E-04 9.44011E-03-3.68221E-14 2.25019E-13
 -1      1548 2.00314E+01 1.89662E-03 1.60512E-04 1.06184E-02-2.13024E-15 3.01188E-13
 -1      1549 2.00445E+01 2.96167E-03-2.82822E-04 2.53486E-02-5.49883E-14 2.35653E-13
 -1      1550 1.99947E+01 6.22706E-04-9.20917E-05 5.60292E-03-6.84100E-14 4.50560E-13
 -1      1551 2.00044E+01 1.38428E-03 1.55950E-04 6.46640E-03-1.67936E-13 2.24016E-13
 -1      1552 2.00164E+01 2.07665E-03-2.24868E-04 1.60175E-02-1.56001E-13 3.19411E-13
 -1      1553 1.99826E+01 4.22138E-04-3.27902E-05 2.93712E-03 4.47034E-14 4.74736E-13
 -1      1554 1.99879E+01 9.88887E-04 1.42948E-04 3.55689E-03 3.08049E-14 5.60961E-13
 -1      1555 1.99984E+01 1.41416E-03-1.75775E-04 9.38582E-03-7.16099E-14 2.31418E-13
 -1      1556 1.99764E+01 2.74949E-04 4.80010E-06 1.14359E-03-3.38185E-14 5.67271E-13
 -1      1557 1.99788E+01 6.88747E-04 1.25897E-04 1.57775E-03 1.72502E-14 5.46063E-13
 -1      1558 1.99877E+01 9.26929E-04-1.35120E-04 4.79529E-03-3.77931E-15 3.26754E-13
 -1      1559 1.99742E+01 1.69146E-04 2.70232E-05-1.24471E-05 6.83756E-14 2.45721E-13
 -1      1560 1.99747E+01 4.64839E-04 1.07591E-04 2.82751E-04 5.41845E-14 3.77052E-13
 -1      1561 1.99821E+01 5.75649E-04-1.02134E-04 1.72156E-03 2.01395E-13 2.96208E-13
 -1      1562 1.99745E+01 9.49439E-05 3.86174E-05-7.12451E-04 1.90356E-13-1.14844E-13
 -1      1563 1.99738E+01 3.00970E-04 8.97302E-05-5.19345E-04 1.52407E-13 1.05199E-13
 -1      1564 1.99799E+01 3.28260E-04-7.58815E-05-2.46392E-04 2.30870E-13 6.29060E-14
 -1      1565 1.99764E+01 4.44791E-05 4.30807E-05-1.09452E-03-1.61638E-14-1.45129E-13
 -1      1566 1.99750E+01 1.83652E-04 7.32831E-05-9.74817E-04-3.56581E-14-1.30230E-13
 -1      1567 1.99799E+01 1.59021E-04-5.53797E-05-1.42575E-03 7.72511E-14 1.42612E-14
 -1      1568 1.99792E+01 1.15150E-05 4.29593E-05-1.26200E-03-3.16178E-14-1.19141E-13
 -1      1569 1.99774E+01 1.01838E-04 5.87284E-05-1.19371E-03 2.26631E-14-6.66026E-14
 -1      1570 1.99812E+01 4.75560E-05-3.96767E-05-2.05745E-03-3.06353E-14-8.03174E-14
 -1      1571 1.99822E+01-8.83628E-06 4.00759E-05-1.29069E-03-3.84076E-14 2.53415E-13
 -1      1572 1.99804E+01 4.66168E-05 4.62259E-05-1.25730E-03-1.00244E-13 7.72799E-14
 -1      1573 1.99833E+01-2.20612E-05-2.78927E-05-2.32126E-03-1.49733E-13 9.24190E-14
 -1      1574 1.99853E+01-2.03731E-05 3.57116E-05-1.23491E-03-1.41270E-13 3.10087E-13
 -1      1575 1.99835E+01 1.08755E-05 3.57345E-05-1.22423E-03-5.86403E-14 2.83711E-13
 -1      1576 1.99857E+01-6.21353E-05-1.92384E-05-2.34862E-03-1.48263E-13 3.95296E-13
 -1      1577 1.99882E+01-2.60404E-05 3.07546E-05-1.13224E-03-7.16625E-14 4.54316E-13
 -1      1578 1.99866E+01-1.10292E-05 2.70949E-05-1.13557E-03-1.09646E-13 2.80756E-13
 -1      1579 1.99881E+01-8.20933E-05-1.30154E-05-2.23309E-03-1.10233E-13 4.50257E-13
 -1      1580 1.99909E+01-2.81472E-05 2.58343E-05-1.00729E-03-1.93907E-13 5.43737E-13
 -1      1581 1.99894E+01-2.35961E-05 2.00917E-05-1.01873E-03-7.61673E-14 4.03196E-13
 -1      1582 1.99905E+01-8.91432E-05-8.59509E-06-2.03869E-03-1.16397E-13 3.81500E-13
 -1      1583 1.99933E+01-2.85759E-05 2.14714E-05-8.74398E-04 3.57443E-13 3.49616E-13
 -1      1584 1.99920E+01-3.05081E-05 1.45166E-05-8.90348E-04 1.33939E-13 5.00789E-13
 -1      1585 1.99927E+01-8.88787E-05-5.37586E-06-1.80636E-03 1.04305E-13 3.44611E-13
 -1      1586 1.99953E+01-2.89861E-05 1.82972E-05-7.39387E-04 2.35133E-13-1.11545E-13
 -1      1587 1.99942E+01-3.49793E-05 1.02712E-05-7.58366E-04 2.94289E-13 2.04903E-13
 -1      1588 1.99946E+01-8.58537E-05-2.68717E-06-1.55851E-03 5.12218E-13 1.18466E-13
 -1      1589 1.99970E+01-3.08393E-05 1.72693E-05-6.00593E-04 1.60798E-13-5.58566E-13
 -1      1590 1.99961E+01-3.99960E-05 7.55812E-06-6.23177E-04 1.30359E-13-2.48645E-13
 -1      1591 1.99962E+01-8.40956E-05 3.50389E-07-1.30196E-03 2.85224E-13 8.12440E-14
 -1      1592 1.99983E+01-3.55297E-05 1.89949E-05-4.49795E-04-1.88314E-13-4.04800E-13
 -1      1593 1.99976E+01-4.84104E-05 6.89170E-06-4.78750E-04-6.54521E-14-4.65061E-13
 -1      1594 1.99976E+01-8.74208E-05 4.76497E-06-1.03022E-03-4.32039E-14 1.48367E-13
 -1      1595 1.99992E+01-4.39442E-05 1.94539E-05-2.72772E-04-5.78305E-14-6.97513E-14
 -1      1596 1.99988E+01-6.26695E-05 7.66663E-06-3.14560E-04-8.42414E-14-1.91295E-13
 -1      1597 1.99986E+01-1.00503E-04 1.00711E-05-7.26890E-04-2.23727E-13 2.51362E-13
 -1      1598 1.99997E+01-5.04537E-05-2.81125E-06-7.83056E-05 1.20842E-13-5.89770E-14
 -1      1599 1.99995E+01-7.26336E-05 4.54601E-06-1.27545E-04 4.06869E-14-1.46223E-13
 -1      1600 1.99994E+01-1.15719E-04 1.22119E-05-3.76898E-04 5.51518E-14 3.49928E-13
 -1      1601 1.99998E+01-2.13999E-05-1.20458E-05 8.30819E-06-1.71777E-15-3.60776E-14
 -1      1602 1.99997E+01-4.24680E-04 1.05399E-05-2.21771E-04 7.38515E-13 5.59352E-13
 -1      1603 1.99997E+01-2.13661E-04-3.92293E-06-1.70804E-04 8.19192E-14 5.31458E-13
 -1      1604 1.99998E+01-1.18927E-03 6.45981E-06-4.00953E-04 1.02980E-12-1.26240E-13
 -1      1605 1.99997E+01-7.44462E-04 7.01207E-06-3.70160E-04 1.00043E-12 1.04369E-13
 -1      1606 1.99997E+01-7.16315E-04 1.30487E-05-5.80437E-04 3.19510E-13 5.16128E-13
 -1      1607 1.99998E+01-2.18452E-03 1.75053E-06-4.97946E-04 7.81021E-13-2.37699E-13
 -1      1608 1.99998E+01-1.60659E-03 4.55703E-06-4.85924E-04 1.19566E-12-2.19504E-13
 -1      1609 1.99997E+01-1.44932E-03 1.03159E-05-8.59454E-04 5.82856E-13-1.14343E-13
 -1      1610 1.99998E+01-3.24787E-03-9.62644E-07-5.07613E-04 8.37229E-13 9.20836E-14
 -1      1611 1.99998E+01-2.64394E-03 1.50158E-06-5.12758E-04 7.10768E-13 2.35905E-13
 -1      1612 1.99998E+01-2.32220E-03 1.34226E-06-9.76838E-04 8.60973E-13-8.13554E-14
 -1      1613 1.99998E+01-4.20542E-03-1.80916E-06-4.43600E-04 4.45386E-13 1.39933E-14
 -1      1614 1.99998E+01-3.67633E-03 3.05092E-08-4.61563E-04 6.42354E-13-2.30561E-13
 -1      1615 1.99998E+01-3.20453E-03-7.01208E-06-9.36139E-04 5.17061E-13-2.35730E-13
 -1      1616 1.99999E+01-4.96154E-03-1.85617E-06-3.21025E-04 2.98678E-13-7.74242E-14
 -1      1617 1.99998E+01-4.56228E-03-7.15628E-07-3.49017E-04 2.41772E-13 9.66087E-14
 -1      1618 1.99999E+01-3.98288E-03-1.32566E-05-7.65788E-04 2.34031E-13-1.55861E-13
 -1      1619 1.99999E+01-5.40378E-03-1.54893E-06-1.59860E-04 5.29494E-14-1.53389E-14
 -1      1620 1.99999E+01-5.19291E-03-9.69880E-07-1.93609E-04 2.51440E-13 1.08760E-13
 -1      1621 1.99999E+01-4.56440E-03-1.75633E-05-4.97365E-04 1.00297E-13 4.33863E-14
 -1      1622 1.99999E+01-5.48077E-03-1.22267E-06 1.96038E-05 1.55986E-14 8.54107E-14
 -1      1623 1.99999E+01-5.48288E-03-1.22569E-06-1.60372E-05 3.67736E-14 1.75727E-13
 -1      1624 1.99999E+01-4.87135E-03-1.96927E-05-1.70021E-04-2.80934E-14-1.10427E-13
 -1      1625 1.99999E+01-5.18362E-03-9.29302E-07 1.96876E-04-1.41531E-13-1.34246E-13
 -1      1626 1.99999E+01-5.39848E-03-1.55332E-06 1.63235E-04-2.05641E-13 1.42931E-13
 -1      1627 1.99999E+01-4.86816E-03-1.96580E-05 1.76753E-04-1.13886E-13 1.17574E-14
 -1      1628 1.99998E+01-4.54716E-03-5.83688E-07 3.51507E-04-3.86180E-13-5.09055E-13
 -1      1629 1.99999E+01-4.94956E-03-1.93637E-06 3.23788E-04 3.70938E-14-4.96773E-13
 -1      1630 1.99999E+01-4.55533E-03-1.74297E-05 5.03231E-04-2.05245E-13-2.30921E-13
 -1      1631 1.99998E+01-3.66557E-03-5.54804E-08 4.61803E-04-5.26035E-13 1.07403E-13
 -1      1632 1.99998E+01-4.19584E-03-1.87048E-06 4.44200E-04-3.23320E-13-4.28058E-13
 -1      1633 1.99999E+01-3.97526E-03-1.32536E-05 7.68339E-04-2.88124E-14-5.01396E-13
 -1      1634 1.99998E+01-2.62457E-03 1.44219E-06 5.12460E-04-2.42963E-13 1.53509E-13
 -1      1635 1.99998E+01-3.22864E-03-9.87498E-07 5.07665E-04-5.56125E-13 4.74228E-13
 -1      1636 1.99998E+01-3.19489E-03-6.79098E-06 9.36618E-04-1.07426E-14 2.68901E-13
 -1      1637 1.99998E+01-1.58940E-03 4.69315E-06 4.85435E-04 2.07407E-13 2.31750E-13
 -1      1638 1.99998E+01-2.16606E-03 1.62064E-06 4.96622E-04-1.73567E-13 2.74068E-13
 -1      1639 1.99998E+01-2.30549E-03 1.36868E-06 9.75314E-04 1.42600E-13 4.43580E-13
 -1      1640 1.99997E+01-7.44679E-04 1.90344E-06 3.68863E-04 2.68886E-13 5.43081E-14
 -1      1641 1.99998E+01-1.17759E-03 6.33763E-06 4.00311E-04 2.97452E-13 1.32429E-13
 -1      1642 1.99997E+01-1.43604E-03 1.00346E-05 8.55372E-04 5.82074E-14 2.33515E-13
 -1      1643 1.99997E+01-2.97972E-04-8.90634E-06 2.60375E-04 9.53126E-15-3.01096E-13
 -1      1644 1.99997E+01-5.14395E-04 5.44274E-06 3.33927E-04 3.07103E-13-2.77538E-13
 -1      1645 1.99996E+01-7.97450E-04 1.08556E-05 6.90992E-04 3.77866E-14-3.77854E-14
 -1      1646 1.99994E+01-3.81612E-04-2.67664E-06 5.18486E-04 2.42104E-14-4.61342E-13
 -1      1647-5.52288E-01-1.42511E+01-1.60516E+00-9.34843E-01 1.10278E-12 4.98601E-13
 -1      1648-5.56466E-01-1.61063E+01-1.76837E+00 2.69946E-01 5.94816E-13 3.41338E-13
 -1      1649 1.19212E+00-8.44953E+00-1.23548E+00 2.51671E-01 1.75704E-12 1.02457E-12
 -1      1650 5.14464E-01-1.33503E+01-1.72302E+00-2.13351E-01 1.25810E-12 7.06879E-13
 -1      1651 6.43373E+00-1.29371E+00-6.39449E-01 4.06987E+00 2.06191E-12 1.61904E-12
 -1      1652 3.62628E+00-6.62123E+00-1.36377E+00 1.44743E+00 1.81699E-12 1.24939E-12
 -1      1653 1.69078E+01 3.97285E+00 1.25965E-01 9.06699E+00 1.79012E-12 1.66178E-12
 -1      1654 1.06754E+01 2.95961E-01-7.39790E-01 5.40148E+00 2.04015E-12 1.55664E-12
 -1      1655 3.08026E+01 6.16688E+00 9.30438E-01 1.22172E+01 1.29585E-12 1.53833E-12
 -1      1656 2.18028E+01 5.39672E+00 2.59101E-02 9.89828E+00 1.65690E-12 1.71241E-12
 -1      1657 4.52216E+01 5.29187E+00 1.62808E+00 1.11687E+01 6.75598E-13 7.53064E-13
 -1      1658 3.60522E+01 6.66740E+00 8.82729E-01 1.22077E+01 1.12588E-12 1.28919E-12
 -1      1659 5.47463E+01 3.61865E+00 1.96012E+00 4.81023E+00 3.68011E-13-2.21656E-13
 -1      1660 4.92203E+01 5.06136E+00 1.58003E+00 9.33990E+00 5.16226E-13 4.53415E-13
 -1      1661 5.46857E+01 3.84542E+00 1.78991E+00-3.67562E+00 4.53304E-13-1.13243E-12
 -1      1662 5.55531E+01 3.69768E+00 1.91080E+00 2.10803E+00 3.72202E-13-5.13506E-13
 -1      1663 4.55780E+01 5.53918E+00 1.28125E+00-9.66082E+00 9.16656E-13-1.79978E-12
 -1      1664 5.21588E+01 4.03927E+00 1.74012E+00-5.80552E+00 5.86781E-13-1.35392E-12
 -1      1665 3.25311E+01 6.81274E+00 6.39589E-01-1.20832E+01 1.45811E-12-2.17737E-12
 -1      1666 4.18511E+01 5.68193E+00 1.41777E+00-1.18405E+01 1.09718E-12-2.08056E-12
 -1      1667 1.86258E+01 3.36261E+00-2.44438E-01-8.08218E+00 1.60738E-12-1.75560E-12
 -1      1668 2.76804E+01 5.02458E+00 6.52317E-01-1.11108E+01 1.43097E-12-1.93301E-12
 -1      1669 7.11669E+00-1.42146E+00-1.06241E+00-3.77945E+00 1.74927E-12-1.42797E-12
 -1      1670 1.20831E+01 2.88321E+00-2.65207E-01-7.39365E+00 1.82698E-12-1.81244E-12
 -1      1671 2.02260E+00-8.88071E+00-1.55357E+00-4.53645E-01 1.34426E-12-8.39828E-13
 -1      1672 3.81495E+00-3.42548E+00-9.49352E-01-2.35138E+00 1.69420E-12-1.22802E-12
 -1      1673 4.88699E-02-1.43155E+01-1.74327E+00 7.74193E-02 4.47919E-13-4.97380E-13
 -1      1674 3.51252E-01-1.04482E+01-1.40348E+00 3.13410E-01 1.08125E-12-7.59490E-13
 -1      1675-7.44751E-01-1.58123E+01-1.77576E+00-6.09162E-01-5.18419E-13-4.01734E-13
 -1      1676-7.68908E-01-1.55224E+01-1.78416E+00 9.73651E-01 1.96260E-13-4.14085E-13
 -1      1677 2.79666E-01-1.07286E+01-1.30410E+00-1.54227E-02-1.32194E-12-7.67331E-13
 -1      1678-2.47645E-02-1.42843E+01-1.62385E+00 4.47397E-01-7.26808E-13-4.84418E-13
 -1      1679 3.02569E+00-4.26218E+00-9.64649E-01 1.90723E+00-1.96665E-12-1.20465E-12
 -1      1680 1.65615E+00-9.57806E+00-1.51852E+00 4.77831E-01-1.66733E-12-8.52568E-13
 -1      1681 1.01127E+01 2.31118E+00-3.15504E-01 6.55376E+00-2.01439E-12-1.77325E-12
 -1      1682 5.98084E+00-2.33313E+00-1.08734E+00 3.25105E+00-2.00329E-12-1.39178E-12
 -1      1683 2.20705E+01 5.77482E+00 4.32859E-01 1.10072E+01-1.68754E-12-1.90281E-12
 -1      1684 1.47677E+01 3.59663E+00-4.02667E-01 7.76578E+00-1.92246E-12-1.79201E-12
 -1      1685 3.66449E+01 5.96171E+00 1.15086E+00 1.20848E+01-1.15929E-12-1.62181E-12
 -1      1686 2.74201E+01 6.35404E+00 3.58592E-01 1.11248E+01-1.55165E-12-1.82832E-12
 -1      1687 4.88293E+01 4.55795E+00 1.63913E+00 9.05109E+00-6.69600E-13-9.56124E-13
 -1      1688 4.13041E+01 6.29091E+00 1.11651E+00 1.16822E+01-1.01902E-12-1.50902E-12
 -1      1689 5.37321E+01 3.73773E+00 1.69446E+00 1.30047E+00-4.39759E-13-3.79696E-14
 -1      1690 5.06376E+01 4.56912E+00 1.49572E+00 6.41691E+00-5.65686E-13-6.71518E-13
 -1      1691 5.13409E+01 4.51077E+00 1.59635E+00-6.93584E+00-4.71345E-13 8.52429E-13
 -1      1692 5.46296E+01 3.51364E+00 1.78319E+00-1.29599E+00-3.49443E-13 2.68119E-13
 -1      1693 3.96421E+01 6.30393E+00 1.01150E+00-1.13717E+01-9.04887E-13 1.44862E-12
 -1      1694 4.79817E+01 4.60756E+00 1.59283E+00-8.94963E+00-5.75168E-13 1.09868E-12
 -1      1695 2.51582E+01 6.69465E+00 2.94967E-01-1.13071E+01-1.38067E-12 1.68932E-12
 -1      1696 3.46677E+01 6.45930E+00 1.13126E+00-1.27591E+01-1.04483E-12 1.70131E-12
 -1      1697 1.27365E+01 2.09874E+00-5.34910E-01-6.61720E+00-1.78291E-12 1.46838E-12
 -1      1698 2.01101E+01 5.18604E+00 3.69035E-01-1.03765E+01-1.54088E-12 1.50235E-12
 -1      1699 4.29846E+00-4.80017E+00-1.23678E+00-2.07577E+00-1.90070E-12 1.17295E-12
 -1      1700 7.72931E+00 6.44670E-01-4.64041E-01-5.18929E+00-1.93134E-12 1.51079E-12
 -1      1701 9.65945E-01-1.23686E+01-1.60400E+00-2.12448E-01-8.45213E-13 8.07004E-13
 -1      1702 1.92925E+00-7.00632E+00-1.08323E+00-1.08291E+00-1.59983E-12 1.12291E-12
 -1      1703-5.76830E-01-1.63902E+01-1.83063E+00-4.39976E-01 3.76227E-13 4.31516E-13
 -1      1704-5.86057E-01-1.40530E+01-1.62661E+00 8.80864E-01-4.84945E-13 6.22585E-13
 -1      1705 2.40274E+01-1.74555E-02 1.58481E-01 6.98534E+00 1.12244E-12 7.87370E-13
 -1      1706 1.39737E+01-3.83941E+00-3.76454E-01 6.27278E+00 1.05072E-12 9.36584E-13
 -1      1707 1.99997E+01-7.01267E-05 4.02164E-06-7.28232E-05-1.66866E-14 1.29493E-13
 -1      1708 1.99996E+01-2.78113E-04 2.77231E-06-2.91894E-04 2.17478E-13 6.18003E-13
 -1      1709 4.29012E-01-9.96437E+00-1.17343E+00 2.13118E+00 5.97966E-13 7.50011E-13
 -1      1710 5.59183E+00-7.46141E+00-8.86188E-01 4.38405E+00 9.04166E-13 9.89809E-13
 -1      1711-1.23331E+00-1.08910E+01-1.24781E+00-1.34450E-01 2.80713E-13 7.85816E-13
 -1      1712 3.43758E+01 3.67591E+00 7.89764E-01 6.86102E+00 1.05538E-12 5.49671E-13
 -1      1713 4.32761E+01 6.14902E+00 1.38059E+00 5.01631E+00 8.31252E-13 1.35336E-13
 -1      1714 4.77652E+01 7.27409E+00 1.63911E+00 1.59119E+00 7.10154E-13-3.19494E-13
 -1      1715 4.59328E+01 7.37733E+00 1.45452E+00-1.78589E+00 7.39631E-13-7.54119E-13
 -1      1716 4.08708E+01 5.76277E+00 1.18138E+00-5.09215E+00 9.35835E-13-1.12654E-12
 -1      1717 3.17513E+01 2.09257E+00 4.69092E-01-6.28124E+00 9.25315E-13-1.19149E-12
 -1      1718 2.11726E+01-1.14445E+00 6.18085E-02-6.87312E+00 9.18710E-13-1.17217E-12
 -1      1719 1.00880E+01-4.55528E+00-6.29352E-01-5.49664E+00 9.43579E-13-1.11761E-12
 -1      1720 3.25650E+00-8.08748E+00-1.03444E+00-3.49120E+00 6.12399E-13-9.20389E-13
 -1      1721-5.79850E-01-1.01963E+01-1.24038E+00-1.41280E+00 1.74916E-13-8.46101E-13
 -1      1722-7.67703E-01-9.79020E+00-1.13820E+00 1.37463E+00-3.20161E-13-8.31446E-13
 -1      1723 2.56873E+00-8.04263E+00-9.87590E-01 3.51038E+00-7.13651E-13-8.85098E-13
 -1      1724 8.64123E+00-4.95733E+00-6.96208E-01 5.33280E+00-1.15585E-12-1.06262E-12
 -1      1725 1.77323E+01-1.10581E+00-1.15470E-01 7.05950E+00-1.20159E-12-1.17240E-12
 -1      1726 2.82157E+01 2.08858E+00 4.54993E-01 7.23744E+00-1.11167E-12-1.03206E-12
 -1      1727 3.77192E+01 4.97004E+00 9.90015E-01 6.12034E+00-1.03893E-12-8.04024E-13
 -1      1728 4.40302E+01 6.99400E+00 1.35803E+00 3.56998E+00-8.77964E-13-4.65072E-13
 -1      1729 4.61763E+01 7.63526E+00 1.44413E+00-1.70109E-01-7.04548E-13-2.74641E-14
 -1      1730 4.39852E+01 6.77556E+00 1.34699E+00-3.51626E+00-6.84508E-13 3.87301E-13
 -1      1731 3.66791E+01 4.87598E+00 9.74396E-01-6.51911E+00-7.67969E-13 7.56728E-13
 -1      1732 2.63587E+01 1.53937E+00 3.49133E-01-7.41293E+00-9.69225E-13 9.19376E-13
 -1      1733 1.56981E+01-2.41342E+00-2.29990E-01-6.71415E+00-1.09124E-12 8.48988E-13
 -1      1734 6.61334E+00-6.62780E+00-8.19134E-01-4.82717E+00-8.91953E-13 1.06050E-12
 -1      1735 1.02132E+00-9.64505E+00-1.07116E+00-2.76299E+00-2.47968E-13 1.10098E-12
 -1      1736 2.55485E+01 2.00578E+00-2.51152E-02-2.31382E+00-2.37612E-13 8.01220E-13
 -1      1737 2.09701E+01 3.60374E+00-3.97914E-02-1.19494E+00-2.30600E-13-3.38084E-13
 -1      1738 2.16213E+01 3.48662E+00-4.02007E-02-1.55987E+00-2.85071E-13-2.45241E-13
 -1      1739 2.23125E+01 3.11758E+00-5.09807E-02-1.79392E+00-2.99822E-13-1.20334E-13
 -1      1740 2.28992E+01 2.76138E+00-1.37607E-01-2.14949E+00-3.36162E-13 3.75672E-14
 -1      1741 2.22548E+01 2.52668E+00-7.49389E-03-1.40144E+00-2.98401E-13-1.54207E-13
 -1      1742 1.86057E+01 4.08477E+00-2.44333E-02-1.41434E-01-7.28202E-14-4.93933E-13
 -1      1743 1.91742E+01 4.06423E+00-8.34858E-03-3.67148E-01-1.09242E-13-4.78570E-13
 -1      1744 1.75300E+01 4.29400E+00-2.10968E-02 1.87076E-01-9.07347E-15-5.23625E-13
 -1      1745 1.80585E+01 4.27034E+00-7.13071E-04 3.90267E-02-3.81179E-14-5.14330E-13
 -1      1746 1.84930E+01 3.73290E+00-1.37666E-02 4.24711E-02-5.81757E-14-4.86009E-13
 -1      1747 1.66441E+01 4.50467E+00-1.75490E-02 3.36430E-01 6.11672E-14-5.25253E-13
 -1      1748 1.70601E+01 4.47701E+00 2.12159E-03 2.70933E-01 2.98320E-14-5.27699E-13
 -1      1749 1.73846E+01 4.05634E+00-9.77505E-03 3.23478E-01 1.58346E-14-5.09924E-13
 -1      1750 1.60942E+01 4.67666E+00-1.25388E-02 3.22491E-01 1.19034E-13-5.09423E-13
 -1      1751 1.63218E+01 4.65220E+00 4.42928E-04 3.22981E-01 8.93894E-14-5.21848E-13
 -1      1752 1.65108E+01 4.35113E+00-4.33958E-03 4.08207E-01 8.65467E-14-5.06506E-13
 -1      1753 1.60067E+01 4.75983E+00-6.46616E-03 2.12119E-01 1.63165E-13-4.95722E-13
 -1      1754 1.59882E+01 4.74672E+00-4.90543E-03 2.42083E-01 1.41879E-13-5.08749E-13
 -1      1755 1.60315E+01 4.54820E+00-2.66018E-05 3.22025E-01 1.43257E-13-4.95916E-13
 -1      1756 1.64320E+01 4.72515E+00-1.51198E-03 1.09435E-01 2.16179E-13-4.76831E-13
 -1      1757 1.61540E+01 4.72723E+00-1.20236E-02 1.21064E-01 1.91917E-13-4.91187E-13
 -1      1758 1.60684E+01 4.58411E+00 7.32957E-04 1.53739E-01 1.94968E-13-4.79954E-13
 -1      1759 1.73038E+01 4.58370E+00 4.81608E-05 1.18126E-01 2.64811E-13-4.17855E-13
 -1      1760 1.68127E+01 4.59811E+00-1.90431E-02 6.92830E-02 2.37335E-13-4.55414E-13
 -1      1761 1.66428E+01 4.44305E+00-2.30621E-03 2.73106E-02 2.41038E-13-4.50750E-13
 -1      1762 1.85385E+01 4.35666E+00-3.69806E-03 3.07968E-01 3.20254E-13-2.91395E-13
 -1      1763 1.78787E+01 4.38543E+00-2.58543E-02 1.68612E-01 2.82430E-13-3.66941E-13
 -1      1764 1.76800E+01 4.15671E+00-7.67144E-03 4.56973E-02 2.90276E-13-3.74628E-13
 -1      1765 2.00047E+01 4.04881E+00-1.49787E-02 7.00843E-01 3.69711E-13-1.36967E-13
 -1      1766 1.92409E+01 4.10747E+00-3.38522E-02 4.59594E-01 3.36387E-13-2.24354E-13
 -1      1767 1.90633E+01 3.76723E+00-1.13020E-02 2.57474E-01 3.40082E-13-2.38280E-13
 -1      1768 2.16422E+01 3.57766E+00-3.79898E-02 1.26723E+00 4.01252E-13 8.87623E-14
 -1      1769 2.07938E+01 3.72769E+00-4.65228E-02 9.28139E-01 3.78567E-13-4.57620E-14
 -1      1770 2.06644E+01 3.27924E+00-9.14237E-03 6.36809E-01 3.86622E-13-6.63289E-14
 -1      1771 2.35614E+01 2.67364E+00-5.22014E-02 1.85014E+00 3.59644E-13 5.05262E-13
 -1      1772 2.25469E+01 3.10077E+00-5.50140E-02 1.50133E+00 3.81778E-13 2.56371E-13
 -1      1773 2.24333E+01 2.57920E+00 3.05019E-03 1.06166E+00 3.99113E-13 1.76595E-13
 -1      1774 2.49614E+01 1.15401E+00-1.22325E-01 1.54331E+00 2.91649E-13 9.71626E-13
 -1      1775 2.42152E+01 2.23434E+00-2.51445E-03 1.83133E+00 3.25878E-13 6.72573E-13
 -1      1776 2.37953E+01 1.61687E+00-1.67499E-02 1.12846E+00 3.61714E-13 5.00534E-13
 -1      1777 2.44550E+01 7.21961E-01-5.33530E-02 7.36267E-01 2.99316E-13 8.74344E-13
 -1      1778 2.43985E+01 2.44256E+00 8.41431E-02-2.47482E+00-3.12403E-13 3.16580E-13
 -1      1779 2.40922E+01 2.31169E-01-7.27589E-03-4.75722E-02 2.35735E-13 7.01991E-13
 -1      1780 2.43493E+01 3.80242E-01-1.13306E-02 2.98902E-01 2.50626E-13 7.91812E-13
 -1      1781 2.41031E+01 7.56008E-01-3.62631E-03 5.27188E-01 3.04010E-13 5.71207E-13
 -1      1782 2.40523E+01 1.65420E+00 7.79723E-02-1.71858E+00-3.21378E-13 2.11164E-13
 -1      1783 2.34454E+01 3.53977E-01 3.23977E-02-4.68974E-01-2.40058E-13 1.93199E-13
 -1      1784 2.31336E+01 1.74771E-01-9.24069E-04-2.70955E-01-2.03693E-13 1.32087E-13
 -1      1785 2.30534E+01 5.13106E-02 2.52498E-02-1.57799E-01-1.77477E-13 1.53164E-13
 -1      1786 2.29081E+01-6.81539E-02-3.10298E-03-1.52240E-01-1.44711E-13 1.06253E-13
 -1      1787 2.29768E+01 1.91649E-01-7.50051E-03-3.39799E-01-2.09266E-13 4.61736E-14
 -1      1788 2.28801E+01-1.48706E-01 1.37145E-02-2.00229E-01-1.12670E-13 1.19319E-13
 -1      1789 2.27414E+01-2.29249E-01-9.95064E-03-3.04088E-01-9.23350E-14 8.66091E-14
 -1      1790 2.28565E+01-1.56832E-01-4.90863E-03-2.45509E-01-1.54121E-13 4.26317E-14
 -1      1791 2.27194E+01-2.78533E-01 4.65513E-03-4.67506E-01-8.57387E-14 9.71317E-14
 -1      1792 2.25152E+01-3.11279E-01-1.15505E-02-6.33578E-01-6.91834E-14 6.74064E-14
 -1      1793 2.28074E+01-3.73053E-01 5.65771E-04-4.66809E-01-1.10947E-13 5.37443E-14
 -1      1794 2.24406E+01-3.07423E-01-1.80771E-03-8.47223E-01-8.55409E-14 6.22300E-14
 -1      1795 2.21467E+01-2.66316E-01-5.40021E-03-1.00913E+00-9.41222E-14 5.33349E-14
 -1      1796 2.27128E+01-4.48739E-01 5.65790E-03-8.80924E-01-8.88933E-14 3.27775E-14
 -1      1797 2.19788E+01-1.87149E-01-5.82690E-03-1.17378E+00-9.54705E-14 5.39256E-14
 -1      1798 2.16258E+01-5.99646E-02 7.08741E-03-1.24300E+00-1.12931E-13 3.69921E-14
 -1      1799 2.24778E+01-3.18500E-01 8.67735E-03-1.30868E+00-1.19450E-13 3.80262E-14
 -1      1800 2.13747E+01 8.80974E-02-5.54014E-03-1.24056E+00-1.30875E-13 1.84696E-14
 -1      1801 2.10446E+01 2.64408E-01 1.89695E-02-1.13911E+00-1.27981E-13 1.76630E-14
 -1      1802 2.20703E+01 3.82554E-02 6.07386E-03-1.50648E+00-1.28261E-13 8.50977E-14
 -1      1803 2.07988E+01 4.20805E-01 5.28588E-04-8.98543E-01-1.39017E-13-2.13345E-14
 -1      1804 2.05964E+01 5.57980E-01 2.17222E-02-6.18638E-01-9.72000E-14-2.75786E-14
 -1      1805 2.15824E+01 5.10729E-01-4.58428E-03-1.24923E+00-1.51729E-13 3.85560E-14
 -1      1806 2.04841E+01 6.34134E-01 1.11997E-02-1.90558E-01-1.05920E-13-1.05148E-13
 -1      1807 2.04853E+01 6.46571E-01 1.35611E-02 1.75605E-01-1.05891E-13-1.89776E-13
 -1      1808 2.12281E+01 8.65721E-01-1.76542E-02-5.01006E-01-1.65833E-13-1.10992E-13
 -1      1809 2.05780E+01 5.90699E-01 1.99040E-02 6.20023E-01-9.30141E-14-2.69844E-13
 -1      1810 2.07884E+01 4.68330E-01 1.74642E-03 9.22686E-01-6.39350E-14-2.79083E-13
 -1      1811 2.12103E+01 8.98235E-01-1.85448E-02 4.86892E-01-1.45932E-13-2.55374E-13
 -1      1812 2.10317E+01 3.15572E-01 1.89633E-02 1.19766E+00-8.31401E-14-3.05790E-13
 -1      1813 2.13807E+01 1.34390E-01-5.99788E-03 1.32616E+00-5.52028E-14-3.30527E-13
 -1      1814 2.15448E+01 5.78783E-01-7.14930E-03 1.29511E+00-1.04734E-13-3.17326E-13
 -1      1815 2.16414E+01-2.53338E-02 8.07147E-03 1.35364E+00-2.49046E-14-3.28650E-13
 -1      1816 2.20199E+01-1.71362E-01-7.71885E-03 1.29777E+00 1.45717E-15-3.13821E-13
 -1      1817 2.20428E+01 9.65879E-02 6.56577E-03 1.61922E+00-3.12732E-14-3.26317E-13
 -1      1818 2.21915E+01-2.71204E-01-5.61500E-03 1.12941E+00-3.68056E-14-3.30137E-13
 -1      1819 2.25019E+01-3.36999E-01-6.24408E-03 9.55886E-01-8.07791E-14-2.98835E-13
 -1      1820 2.24662E+01-3.09890E-01 1.22274E-02 1.44270E+00-5.32495E-14-2.99745E-13
 -1      1821 2.25516E+01-3.63588E-01-1.48579E-02 7.01156E-01-1.15522E-13-3.29540E-13
 -1      1822 2.27394E+01-3.57627E-01-4.10955E-03 4.94525E-01-7.23900E-14-3.13012E-13
 -1      1823 2.26827E+01-5.09474E-01 1.05707E-02 9.59666E-01-9.59502E-14-3.46924E-13
 -1      1824 2.26875E+01-3.33588E-01-1.73719E-02 2.48274E-01-5.04518E-14-3.50986E-13
 -1      1825 2.27444E+01-2.88390E-01-2.38024E-03 6.90192E-02-2.75275E-14-3.45754E-13
 -1      1826 2.26826E+01-5.12116E-01 6.51980E-03 4.01015E-01-9.92223E-14-3.46243E-13
 -1      1827 2.26285E+01-2.43605E-01-1.49228E-02-1.18211E-01-1.10493E-13-4.14386E-13
 -1      1828 2.25769E+01-1.89011E-01-1.29422E-03-2.43871E-01-1.03737E-13-4.71093E-13
 -1      1829 2.25215E+01-4.00092E-01 2.91601E-03-7.56845E-02-1.21533E-13-3.62673E-13
 -1      1830 2.24296E+01-1.44257E-01-1.03156E-02-3.60170E-01-5.53663E-14-4.92735E-13
 -1      1831 2.23043E+01-9.72838E-02-5.60175E-04-4.31076E-01-6.07426E-14-5.00232E-13
 -1      1832 2.22658E+01-2.54488E-01 5.66444E-04-4.06225E-01-1.25362E-13-4.14103E-13
 -1      1833 2.21479E+01-6.20749E-02-5.60463E-03-4.86007E-01-3.32586E-14-4.98471E-13
 -1      1834 2.19829E+01-2.85705E-02 6.76097E-06-5.13204E-01 1.51346E-14-4.85648E-13
 -1      1835 2.19676E+01-1.24705E-01-7.60213E-04-5.90864E-01-3.53966E-14-4.53520E-13
 -1      1836 2.18309E+01-4.87289E-03-1.81319E-03-5.23693E-01 6.40085E-14-4.44090E-13
 -1      1837 2.16531E+01 1.56285E-02 4.57330E-04-5.21209E-01 1.31213E-13-4.03354E-13
 -1      1838 2.16622E+01-2.95390E-02-1.45730E-03-6.59702E-01 7.18484E-14-4.25243E-13
 -1      1839 2.15133E+01 2.94435E-02 7.83287E-04-5.03775E-01 1.37897E-13-3.66376E-13
 -1      1840 2.13412E+01 3.98728E-02 7.89639E-04-4.83953E-01 5.76686E-14-3.50998E-13
 -1      1841 2.13711E+01 3.04910E-02-1.79146E-03-6.49587E-01 1.39916E-13-2.11303E-13
 -1      1842 2.12173E+01 4.64864E-02 2.30306E-03-4.51621E-01 3.35630E-14-2.55035E-13
 -1      1843 2.10617E+01 5.00905E-02 9.97083E-04-4.23585E-01 2.02699E-14-1.47220E-13
 -1      1844 2.11067E+01 6.25176E-02-1.91318E-03-5.92821E-01 9.41612E-14-1.81439E-13
 -1      1845 2.09553E+01 5.20089E-02 3.00742E-03-3.85404E-01-4.46007E-14-1.35679E-13
 -1      1846 2.08212E+01 5.14680E-02 1.08885E-03-3.55154E-01-6.16727E-14-1.41093E-13
 -1      1847 2.08752E+01 7.51378E-02-1.90032E-03-5.13496E-01 2.84808E-14-9.48087E-14
 -1      1848 2.07322E+01 5.06189E-02 3.16439E-03-3.16803E-01-9.27612E-14-3.45323E-14
 -1      1849 2.06209E+01 4.78561E-02 1.08785E-03-2.87883E-01-1.71464E-14-2.74475E-14
 -1      1850 2.06783E+01 7.56929E-02-1.79809E-03-4.27713E-01 9.42226E-15 5.13065E-16
 -1      1851 2.05481E+01 4.55712E-02 2.99305E-03-2.52560E-01 3.54071E-14-2.84541E-14
 -1      1852 2.04585E+01 4.18459E-02 1.02195E-03-2.26799E-01-8.95139E-15-4.52393E-14
 -1      1853 2.05151E+01 6.95636E-02-1.63831E-03-3.45203E-01-2.18198E-14 7.49406E-14
 -1      1854 2.04002E+01 3.89773E-02 2.65153E-03-1.96025E-01-1.47288E-14-7.35668E-14
 -1      1855 2.03300E+01 3.50532E-02 9.17063E-04-1.74148E-01-9.44015E-16-1.01988E-13
 -1      1856 2.03829E+01 6.03359E-02-1.44620E-03-2.71160E-01 1.56904E-14 5.74198E-14
 -1      1857 2.02843E+01 3.21090E-02 2.24411E-03-1.48386E-01-2.66803E-14-1.21098E-13
 -1      1858 2.02307E+01 2.84107E-02 7.93912E-04-1.30458E-01 1.93140E-14-1.02922E-13
 -1      1859 2.02780E+01 5.02238E-02-1.24190E-03-2.07778E-01-3.58465E-14 1.75085E-13
 -1      1860 2.01955E+01 2.56694E-02 1.83417E-03-1.09557E-01 6.14982E-14-1.64524E-13
 -1      1861 2.01555E+01 2.24038E-02 6.67358E-04-9.52843E-02 1.12278E-13-1.31232E-13
 -1      1862 2.01965E+01 4.04888E-02-1.04058E-03-1.55409E-01-1.18591E-14-2.17210E-14
 -1      1863 2.01290E+01 1.99975E-02 1.45659E-03-7.87692E-02 8.90777E-14-1.87228E-13
 -1      1864 2.00999E+01 1.72386E-02 5.47043E-04-6.76903E-02 3.44854E-14-1.68563E-13
 -1      1865 2.01345E+01 3.17718E-02-8.52630E-04-1.13365E-01 6.25517E-14-6.42134E-14
 -1      1866 2.00804E+01 1.52112E-02 1.12767E-03-5.49480E-02-9.26695E-14-1.20272E-13
 -1      1867 2.00598E+01 1.29566E-02 4.38506E-04-4.65491E-02-1.00766E-13-1.87299E-13
 -1      1868 2.00883E+01 2.43303E-02-6.84269E-04-8.04448E-02-9.95682E-15-9.06924E-14
 -1      1869 2.00457E+01 1.13011E-02 8.52312E-04-3.69399E-02-1.24882E-13-1.79703E-13
 -1      1870 2.00316E+01 9.50835E-03 3.44318E-04-3.07208E-02-1.41727E-13-1.49090E-13
 -1      1871 2.00547E+01 1.81970E-02-5.38391E-04-5.52570E-02-1.01866E-13-6.61511E-14
 -1      1872 2.00218E+01 8.19129E-03 6.28822E-04-2.36410E-02-9.65766E-14-1.23893E-13
 -1      1873 2.00126E+01 6.79970E-03 2.65059E-04-1.91493E-02 4.38751E-14-5.92652E-15
 -1      1874 2.00308E+01 1.32828E-02-4.15472E-04-3.64187E-02-6.10895E-14 6.74262E-14
 -1      1875 2.00060E+01 5.77595E-03 4.52108E-04-1.40621E-02 4.89364E-14 1.87050E-14
 -1      1876 2.00003E+01 4.72010E-03 2.00063E-04-1.09077E-02-6.65185E-16 3.29709E-14
 -1      1877 2.00144E+01 9.44098E-03-3.14382E-04-2.26584E-02 6.62857E-14 9.49760E-14
 -1      1878 1.99960E+01 3.94170E-03 3.15631E-04-7.35528E-03-2.05723E-13-6.62628E-14
 -1      1879 1.99928E+01 3.15873E-03 1.47966E-04-5.21330E-03-1.68781E-13-1.53945E-13
 -1      1880 2.00036E+01 6.50510E-03-2.33043E-04-1.28653E-02-1.18030E-13-2.39438E-14
 -1      1881 1.99902E+01 2.57987E-03 2.12582E-04-2.81746E-03-9.34889E-14-2.99871E-13
 -1      1882 1.99888E+01 2.01329E-03 1.07078E-04-1.42469E-03-5.59126E-14-3.15073E-13
 -1      1883 1.99968E+01 4.31152E-03-1.68918E-04-6.10408E-03-2.16602E-13-2.83468E-14
 -1      1884 1.99874E+01 1.59287E-03 1.36537E-04 1.19121E-04-4.24930E-14-3.59099E-13
 -1      1885 1.99871E+01 1.19407E-03 7.56326E-05 9.70792E-04 7.83480E-15-4.82081E-13
 -1      1886 1.99929E+01 2.71080E-03-1.19348E-04-1.60938E-03-7.90857E-14-2.24316E-13
 -1      1887 1.99865E+01 8.96701E-04 8.17865E-05 1.90221E-03 1.08392E-13-3.90905E-13
 -1      1888 1.99869E+01 6.25179E-04 5.19293E-05 2.37376E-03 8.21538E-14-2.77677E-13
 -1      1889 1.99910E+01 1.57292E-03-8.17754E-05 1.22961E-03 9.09169E-14-4.94411E-14
 -1      1890 1.99869E+01 4.21317E-04 4.34512E-05 2.87728E-03 6.42595E-14-3.98705E-13
 -1      1891 1.99877E+01 2.44151E-04 3.44151E-05 3.09050E-03 6.65870E-14-2.84745E-13
 -1      1892 1.99905E+01 7.88519E-04-5.38669E-05 2.88972E-03 4.18488E-14-7.62107E-14
 -1      1893 1.99880E+01 1.09700E-04 1.74916E-05 3.30501E-03-8.84258E-15-2.30588E-13
 -1      1894 1.99890E+01 6.42716E-07 2.17158E-05 3.34989E-03-3.46038E-14-1.64059E-13
 -1      1895 1.99908E+01 2.68017E-04-3.35762E-05 3.73509E-03 9.28174E-14-9.17075E-14
 -1      1896 1.99895E+01-8.37136E-05 6.43336E-07 3.37737E-03-7.75783E-14-2.45729E-13
 -1      1897 1.99906E+01-1.45308E-04 1.26372E-05 3.31851E-03 2.80721E-14-2.16999E-13
 -1      1898 1.99917E+01-6.05409E-05-1.91625E-05 4.03742E-03-1.05948E-13 6.01718E-14
 -1      1899 1.99912E+01-1.94898E-04-9.67397E-06 3.23151E-03 1.05199E-13-2.67437E-13
 -1      1900 1.99923E+01-2.25188E-04 6.14725E-06 3.11343E-03 1.13792E-13-1.38436E-13
 -1      1901 1.99928E+01-2.54156E-04-9.18263E-06 3.99398E-03 5.52109E-14-1.02938E-13
 -1      1902 1.99929E+01-2.52184E-04-1.54543E-05 2.96122E-03 2.09469E-13-1.75621E-13
 -1      1903 1.99938E+01-2.63928E-04 1.35850E-06 2.81259E-03 1.66429E-13 1.78907E-14
 -1      1904 1.99940E+01-3.57756E-04-2.47072E-06 3.74284E-03 2.10436E-13-1.03869E-13
 -1      1905 1.99944E+01-2.78155E-04-1.81816E-05 2.62601E-03 1.14261E-13 1.02018E-13
 -1      1906 1.99953E+01-2.81707E-04-2.47725E-06 2.46278E-03 3.12207E-13 2.78288E-13
 -1      1907 1.99952E+01-4.07052E-04 1.88963E-06 3.37523E-03 2.44343E-13 1.47715E-13
 -1      1908 1.99958E+01-2.91347E-04-1.88988E-05 2.25790E-03 1.23567E-13 2.53454E-13
 -1      1909 1.99966E+01-2.95130E-04-5.78800E-06 2.08553E-03 8.68954E-14 1.43811E-13
 -1      1910 1.99963E+01-4.31111E-04 4.58501E-06 2.94520E-03 1.37716E-13 2.93814E-13
 -1      1911 1.99971E+01-3.06784E-04-1.80772E-05 1.86726E-03 1.16626E-13-7.36465E-14
 -1      1912 1.99977E+01-3.18136E-04-8.61536E-06 1.68301E-03 1.12832E-13-1.66253E-13
 -1      1913 1.99973E+01-4.53156E-04 6.23375E-06 2.47747E-03-1.99640E-14 2.51083E-13
 -1      1914 1.99981E+01-3.37934E-04-1.57964E-05 1.44825E-03 1.75029E-13-2.81821E-13
 -1      1915 1.99986E+01-3.59325E-04-1.05657E-05 1.24271E-03 8.34035E-14-1.42380E-13
 -1      1916 1.99981E+01-4.93619E-04 6.31457E-06 1.97619E-03 6.68194E-14-2.54747E-14
 -1      1917 1.99988E+01-3.72950E-04-1.28589E-05 1.00014E-03 6.87596E-14-3.03644E-13
 -1      1918 1.99992E+01-3.94878E-04-1.27666E-05 7.76970E-04 5.40657E-14-4.23371E-13
 -1      1919 1.99993E+01-5.52841E-04 6.29366E-06 9.14800E-04 1.59710E-14-4.51799E-13
 -1      1920 1.99988E+01-5.39010E-04 9.58171E-06 1.44849E-03 2.36736E-14-2.71393E-13
 -1      1921 2.40791E+01 2.40908E-02 1.76558E-03-3.02640E-01 1.59428E-13 5.88737E-13
 -1      1922 2.40967E+01 1.13080E-01 1.41313E-02-1.92411E-01 1.96990E-13 6.74003E-13
 -1      1923 2.38913E+01 2.17772E-01-6.82846E-03-1.34612E-01 2.36595E-13 4.70806E-13
 -1      1924 2.42029E+01-1.46703E-01-4.95859E-03-2.31265E-01 1.01173E-13 5.18299E-13
 -1      1925 2.41549E+01-7.24100E-02 8.51519E-03-2.73820E-01 9.68912E-14 5.55642E-13
 -1      1926 2.39316E+01-7.03394E-02-4.63498E-03-3.11581E-01 1.40647E-13 4.30399E-13
 -1      1927 2.42693E+01-3.04956E-01-9.30600E-03 1.32103E-01 1.89345E-14 5.50870E-13
 -1      1928 2.42887E+01-2.44377E-01 4.27506E-04-5.14466E-02 4.45147E-14 5.26130E-13
 -1      1929 2.40906E+01-3.13432E-01-9.26672E-04-1.08616E-01 5.97872E-14 3.94114E-13
 -1      1930 2.40964E+01-3.95423E-01-6.30245E-03 7.29546E-01-4.98603E-14 5.53287E-13
 -1      1931 2.42808E+01-3.79954E-01-4.60524E-03 4.31046E-01-3.64569E-14 5.54015E-13
 -1      1932 2.41974E+01-5.03734E-01 6.00117E-03 4.24732E-01-2.93758E-14 4.22293E-13
 -1      1933 2.35624E+01-3.14235E-01 2.41798E-03 1.36702E+00 9.17868E-14 5.39232E-13
 -1      1934 2.39517E+01-3.88130E-01-6.65087E-03 1.05022E+00 1.14787E-14 5.49148E-13
 -1      1935 2.40834E+01-5.30340E-01 1.35693E-02 1.15759E+00 1.42907E-14 4.13738E-13
 -1      1936 2.26925E+01 5.59187E-03 7.65300E-03 1.68387E+00 1.49339E-13 5.33594E-13
 -1      1937 2.32329E+01-1.67862E-01-6.58782E-03 1.52760E+00 1.36623E-13 5.62800E-13
 -1      1938 2.36352E+01-2.61159E-01 1.39623E-02 1.77822E+00 1.25819E-13 4.29393E-13
 -1      1939 2.17604E+01 4.57047E-01-3.32047E-04 1.31731E+00 1.50739E-13 3.59287E-13
 -1      1940 2.22843E+01 2.64552E-01-2.93133E-03 1.49236E+00 1.50779E-13 4.69846E-13
 -1      1941 2.29150E+01 2.92071E-01-8.68454E-04 1.83493E+00 1.85352E-13 3.98428E-13
 -1      1942 2.12438E+01 7.40277E-01-1.80557E-02 2.56813E-01 6.91634E-14 2.65487E-13
 -1      1943 2.15176E+01 6.72037E-01 4.16502E-03 7.52661E-01 1.20220E-13 3.08692E-13
 -1      1944 2.22576E+01 8.59475E-01-2.03732E-02 1.03887E+00 1.58946E-13 2.85024E-13
 -1      1945 2.14990E+01 6.17451E-01-2.72091E-02-9.76251E-01 1.88585E-13 6.25680E-14
 -1      1946 2.13644E+01 7.38793E-01 8.89437E-03-4.16378E-01 1.30063E-13 1.38754E-13
 -1      1947 2.20981E+01 1.03501E+00-2.59180E-02-3.50282E-01 1.75852E-13 7.96459E-14
 -1      1948 2.24080E+01 1.93504E-01-1.47296E-02-1.70799E+00 2.57586E-13-6.20164E-14
 -1      1949 2.19142E+01 4.09767E-01 7.25146E-03-1.38386E+00 2.14193E-13 4.51028E-17
 -1      1950 2.25668E+01 6.69749E-01-1.29766E-02-1.57817E+00 2.50404E-13-1.70043E-13
 -1      1951 2.34662E+01-2.10229E-01 5.78215E-03-1.67914E+00 1.89296E-13-2.46882E-13
 -1      1952 2.28407E+01-4.61512E-02-5.87923E-04-1.68541E+00 2.35392E-13-1.32033E-13
 -1      1953 2.33413E+01 4.75310E-02 2.63143E-03-2.02277E+00 2.97882E-13-2.51991E-13
 -1      1954 2.42232E+01-4.00635E-01 1.63913E-02-1.11250E+00-2.36269E-15-1.41378E-13
 -1      1955 2.37083E+01-3.52192E-01-1.00260E-02-1.34561E+00 6.76716E-14-1.73641E-13
 -1      1956 2.39836E+01-4.34306E-01 6.25356E-03-1.66075E+00 7.85205E-14-1.61263E-13
 -1      1957 2.45072E+01-3.83761E-01 1.51802E-02-4.02745E-01 2.65335E-14-1.38286E-13
 -1      1958 2.42344E+01-4.21654E-01-1.49320E-02-6.96038E-01 1.02696E-15-1.42912E-13
 -1      1959 2.42602E+01-6.02238E-01-3.15515E-04-8.87534E-01 2.60902E-15-1.74749E-13
 -1      1960 2.43775E+01-2.67424E-01 8.61190E-03 1.76599E-01-7.57467E-15-2.28855E-13
 -1      1961 2.43533E+01-3.35616E-01-1.44224E-02-6.49092E-02-1.60687E-14-1.55984E-13
 -1      1962 2.41786E+01-5.17163E-01-5.12637E-03-1.12408E-01 1.67644E-14-2.15029E-13
 -1      1963 2.39772E+01-1.40989E-01 2.44118E-03 5.35023E-01 1.16713E-13-1.98349E-13
 -1      1964 2.41378E+01-2.02568E-01-1.07293E-02 3.83045E-01 5.84012E-14-2.24707E-13
 -1      1965 2.38498E+01-3.32624E-01-5.75545E-03 4.50270E-01 1.09852E-13-1.74014E-13
 -1      1966 2.34420E+01-4.51323E-02-1.24438E-03 6.95441E-01-2.36959E-14-5.75850E-14
 -1      1967 2.37084E+01-8.70911E-02-6.18032E-03 6.24618E-01 8.91318E-14-9.07026E-14
 -1      1968 2.33878E+01-1.57094E-01-4.13746E-03 7.62930E-01 4.61636E-14-8.24020E-14
 -1      1969 2.28708E+01 1.37376E-02-2.68925E-03 7.19316E-01-1.44859E-13-3.77216E-15
 -1      1970 2.31772E+01-9.40028E-03-2.22428E-03 7.05199E-01-9.93216E-14-4.71775E-14
 -1      1971 2.28780E+01-3.27113E-02-2.27725E-03 8.75845E-01-6.16464E-14-5.11674E-14
 -1      1972 2.23249E+01 4.34478E-02-2.79279E-03 6.65257E-01-1.08086E-13 6.73593E-15
 -1      1973 2.26275E+01 3.37728E-02 5.85763E-04 6.84106E-01-9.25919E-14 7.22729E-15
 -1      1974 2.23760E+01 3.93714E-02-1.01592E-03 8.59558E-01-9.18864E-14-5.99024E-14
 -1      1975 2.18368E+01 5.42276E-02-2.31713E-03 5.75589E-01-1.12453E-14 1.67303E-13
 -1      1976 2.21110E+01 5.26959E-02 2.25145E-03 6.10023E-01-9.23849E-14 5.39970E-14
 -1      1977 2.19144E+01 7.28396E-02-4.01478E-04 7.73680E-01-1.10920E-13 9.30788E-14
 -1      1978 2.14199E+01 5.43039E-02-1.69975E-03 4.76426E-01 5.12136E-14 2.09845E-13
 -1      1979 2.16550E+01 5.70234E-02 3.01948E-03 5.15575E-01 1.02291E-13 2.82789E-13
 -1      1980 2.15095E+01 8.23487E-02-2.15039E-04 6.59166E-01 2.65176E-14 2.78968E-13
 -1      1981 2.10754E+01 4.91350E-02-1.13985E-03 3.81904E-01-6.50497E-14 1.61736E-13
 -1      1982 2.12693E+01 5.36645E-02 3.18801E-03 4.19777E-01-9.01211E-15 1.74897E-13
 -1      1983 2.11667E+01 7.89153E-02-2.35314E-04 5.40540E-01 3.60367E-14 2.02731E-13
 -1      1984 2.07981E+01 4.19485E-02-7.01025E-04 2.98528E-01-3.18454E-13 2.91719E-13
 -1      1985 2.09534E+01 4.69126E-02 3.00730E-03 3.32280E-01-2.44743E-13 1.56913E-13
 -1      1986 2.08845E+01 6.95677E-02-3.19216E-04 4.30691E-01-2.05625E-13 2.11710E-13
 -1      1987 2.05798E+01 3.44840E-02-3.84640E-04 2.28401E-01-8.09459E-14 4.33804E-13
 -1      1988 2.07013E+01 3.91848E-02 2.65513E-03 2.57023E-01-1.90377E-13 3.37311E-13
 -1      1989 2.06576E+01 5.83258E-02-3.95139E-04 3.35232E-01-2.53994E-13 3.04821E-13
 -1      1990 2.04113E+01 2.75856E-02-1.69888E-04 1.71309E-01 1.00986E-13 3.62381E-13
 -1      1991 2.05044E+01 3.17194E-02 2.24377E-03 1.94779E-01 7.73398E-14 4.60210E-13
 -1      1992 2.04787E+01 4.72743E-02-4.37536E-04 2.55615E-01-5.50970E-15 3.22068E-13
 -1      1993 2.02837E+01 2.15956E-02-3.20120E-05 1.25958E-01 1.06061E-13 4.73143E-13
 -1      1994 2.03536E+01 2.50721E-02 1.83721E-03 1.44725E-01 8.99440E-14 3.31494E-13
 -1      1995 2.03405E+01 3.73648E-02-4.44583E-04 1.91133E-01 1.23830E-13 2.34190E-13
 -1      1996 2.01888E+01 1.65920E-02 5.08462E-05 9.06562E-02 1.29970E-13 2.96864E-13
 -1      1997 2.02403E+01 1.94287E-02 1.46778E-03 1.05359E-01 7.00466E-14 3.97860E-13
 -1      1998 2.02356E+01 2.89306E-02-4.23987E-04 1.40093E-01 1.35576E-13 3.15218E-13
 -1      1999 2.01197E+01 1.25239E-02 9.58898E-05 6.36736E-02 1.37261E-13 3.08980E-13
 -1      2000 2.01569E+01 1.47864E-02 1.14866E-03 7.49841E-02 1.69679E-13 3.81420E-13
 -1      2001 2.01574E+01 2.19906E-02-3.85528E-04 1.00473E-01 1.30699E-13 2.02539E-13
 -1      2002 2.00706E+01 9.28495E-03 1.15882E-04 4.34114E-02 2.27202E-14 2.15897E-13
 -1      2003 2.00967E+01 1.10557E-02 8.82319E-04 5.19617E-02 6.70275E-15 2.88118E-13
 -1      2004 2.01003E+01 1.64176E-02-3.37827E-04 7.02654E-02 6.02228E-14 4.75677E-13
 -1      2005 2.00365E+01 6.75171E-03 1.19957E-04 2.84723E-02-1.85181E-13 2.97048E-13
 -1      2006 2.00543E+01 8.11412E-03 6.65631E-04 3.48216E-02-6.76089E-14 2.29515E-13
 -1      2007 2.00596E+01 1.20292E-02-2.87344E-04 4.76390E-02-6.68637E-14 3.60583E-13
 -1      2008 2.00136E+01 4.80298E-03 1.14476E-04 1.76768E-02-1.09052E-13 1.57802E-13
 -1      2009 2.00254E+01 5.83384E-03 4.92966E-04 2.23017E-02-1.51728E-13 1.72345E-13
 -1      2010 2.00313E+01 8.63256E-03-2.38397E-04 3.10037E-02-9.72728E-14 7.16098E-14
 -1      2011 1.99990E+01 3.32836E-03 1.03767E-04 1.00540E-02-1.15234E-13 2.19883E-13
 -1      2012 2.00063E+01 4.09497E-03 3.57866E-04 1.33501E-02-1.25551E-13 8.87118E-14
 -1      2013 2.00122E+01 6.04652E-03-1.93562E-04 1.90220E-02-9.15885E-14-4.43342E-14
 -1      2014 1.99903E+01 2.23169E-03 9.06976E-05 4.82023E-03 1.42389E-13 2.07305E-13
 -1      2015 1.99945E+01 2.79107E-03 2.53954E-04 7.10913E-03-1.12068E-14 2.45219E-13
 -1      2016 2.00000E+01 4.11055E-03-1.54132E-04 1.05955E-02-4.73542E-14 3.28294E-14
 -1      2017 1.99857E+01 1.43151E-03 7.70986E-05 1.35335E-03 2.95713E-13 7.31502E-14
 -1      2018 1.99877E+01 1.83094E-03 1.75387E-04 2.89216E-03 2.69588E-13 1.93114E-13
 -1      2019 1.99926E+01 2.68735E-03-1.20525E-04 4.83931E-03 2.86387E-13 3.23058E-14
 -1      2020 1.99838E+01 8.60383E-04 6.40821E-05-8.32420E-04 2.68005E-13-7.41077E-14
 -1      2021 1.99844E+01 1.13829E-03 1.17037E-04 1.58383E-04 2.13548E-13-5.30418E-14
 -1      2022 1.99887E+01 1.66239E-03-9.26076E-05 1.05246E-03 3.29617E-13-2.43622E-14
 -1      2023 1.99838E+01 4.63356E-04 5.22642E-05-2.11063E-03-1.08010E-13-8.98050E-14
 -1      2024 1.99835E+01 6.50519E-04 7.45437E-05-1.51143E-03 1.01630E-13-6.38276E-15
 -1      2025 1.99871E+01 9.41944E-04-6.99222E-05-1.31145E-03 1.56720E-13 2.15242E-14
 -1      2026 1.99849E+01 1.96360E-04 4.19256E-05-2.76374E-03-5.07578E-14 5.98612E-14
 -1      2027 1.99840E+01 3.17052E-04 4.42773E-05-2.43708E-03-8.54647E-14-1.68886E-14
 -1      2028 1.99870E+01 4.50480E-04-5.18509E-05-2.67151E-03-1.03221E-13 2.93227E-14
 -1      2029 1.99866E+01 2.44945E-05 3.31232E-05-3.00135E-03-3.08211E-13 1.92198E-13
 -1      2030 1.99854E+01 9.76158E-05 2.32734E-05-2.85825E-03-2.68286E-13-1.04945E-14
 -1      2031 1.99878E+01 1.27997E-04-3.77192E-05-3.34365E-03-2.39101E-13 6.08535E-14
 -1      2032 1.99885E+01-7.96062E-05 2.57650E-05-2.97558E-03-1.29386E-13 3.65603E-13
 -1      2033 1.99873E+01-3.95040E-05 9.14494E-06-2.95098E-03-1.97099E-13 3.11428E-13
 -1      2034 1.99891E+01-7.26297E-05-2.68619E-05-3.56137E-03-3.56404E-13 1.38643E-13
 -1      2035 1.99905E+01-1.37286E-04 1.96592E-05-2.79346E-03-3.97783E-14 4.42489E-13
 -1      2036 1.99893E+01-1.19087E-04-8.37826E-09-2.84119E-03-6.80712E-14 3.78561E-13
 -1      2037 1.99907E+01-1.88099E-04-1.86610E-05-3.49307E-03-1.25550E-13 1.78347E-13
 -1      2038 1.99924E+01-1.65269E-04 1.45496E-05-2.52685E-03-1.30118E-13 3.15924E-13
 -1      2039 1.99913E+01-1.60478E-04-5.68168E-06-2.61566E-03-8.50522E-14 3.99713E-13
 -1      2040 1.99923E+01-2.46931E-04-1.25634E-05-3.25607E-03-6.28193E-14 3.53201E-13
 -1      2041 1.99942E+01-1.76965E-04 1.01466E-05-2.21993E-03 4.04087E-13 9.07668E-14
 -1      2042 1.99932E+01-1.78974E-04-9.03498E-06-2.33050E-03 5.74159E-14 1.73194E-13
 -1      2043 1.99939E+01-2.71514E-04-8.08146E-06-2.92766E-03 1.51116E-13 1.09844E-13
 -1      2044 1.99958E+01-1.83672E-04 6.20403E-06-1.89453E-03 4.16146E-13 2.81300E-13
 -1      2045 1.99949E+01-1.87122E-04-1.09226E-05-2.01744E-03 5.06650E-13 3.48365E-13
 -1      2046 1.99953E+01-2.79988E-04-4.78430E-06-2.55345E-03 3.42165E-13 4.62703E-13
 -1      2047 1.99971E+01-1.95134E-04 2.82879E-06-1.55372E-03 1.98809E-13 5.31812E-13
 -1      2048 1.99963E+01-1.95776E-04-1.18431E-05-1.68831E-03 2.20561E-13 4.90146E-13
 -1      2049 1.99966E+01-2.87784E-04-2.23622E-06-2.15355E-03 1.41811E-13 7.96786E-13
 -1      2050 1.99982E+01-2.18694E-04 4.71908E-07-1.18684E-03-3.27478E-13 6.15435E-13
 -1      2051 1.99976E+01-2.13324E-04-1.16863E-05-1.33912E-03-3.38337E-14 5.92071E-13
 -1      2052 1.99977E+01-3.06557E-04 3.43057E-07-1.72760E-03 3.66752E-14 7.54566E-13
 -1      2053 1.99990E+01-2.58382E-04-3.79248E-06-7.77637E-04-1.33443E-13 4.91487E-13
 -1      2054 1.99986E+01-2.43507E-04-9.56211E-06-9.57190E-04-2.08249E-13 5.11585E-13
 -1      2055 1.99986E+01-3.45631E-04 2.26039E-06-1.26536E-03-1.74647E-13 8.80345E-13
 -1      2056 1.99994E+01-2.88786E-04-8.47448E-06-4.42430E-04 5.52212E-14 6.89565E-13
 -1      2057 1.99992E+01-2.85047E-04-7.16676E-06-6.39658E-04-1.03521E-13 5.62864E-13
 -1      2058 1.99991E+01-3.96861E-04 3.70922E-06-8.68536E-04-1.26771E-13 7.80601E-13
 -1      2059 1.99995E+01-4.33256E-04 7.02871E-07-5.58817E-04 1.46776E-13 8.04555E-13
 -1      2060 1.99998E+01-2.43667E-03 4.76749E-06-1.32991E-03 6.20433E-13-3.86687E-14
 -1      2061 1.99997E+01-2.01187E-03-5.82611E-06-1.31297E-03 6.57091E-13-2.52537E-13
 -1      2062 1.99996E+01-1.64766E-03 1.26198E-06-1.24336E-03 4.38103E-13-8.39193E-14
 -1      2063 1.99996E+01-1.25707E-03-8.65566E-06-1.12822E-03 2.51381E-13 2.58750E-13
 -1      2064 1.99996E+01-1.76619E-03-4.28141E-07-1.62157E-03 2.74217E-13-1.06589E-13
 -1      2065 1.99995E+01-9.90716E-04-1.49987E-06-9.61364E-04 1.67031E-13 2.92547E-13
 -1      2066 1.99995E+01-6.74131E-04-8.29334E-06-7.72344E-04 7.48688E-14 6.07381E-13
 -1      2067 1.99993E+01-6.63651E-04-5.91394E-06-9.41872E-04-5.59014E-14 5.85234E-13
 -1      2068 1.99994E+01-1.15311E-03 2.30480E-06-1.35154E-03-1.83307E-14 3.26130E-13
 -1      2069 2.00000E+01-3.17551E-03 8.53157E-06-1.22557E-03 3.75213E-13-5.52895E-13
 -1      2070 1.99999E+01-2.77753E-03 3.60132E-07-1.29101E-03 5.80296E-13-1.51107E-13
 -1      2071 1.99999E+01-2.46632E-03-3.75592E-06-1.64969E-03 3.92085E-13-1.50132E-13
 -1      2072 2.00001E+01-3.80393E-03 1.18278E-05-9.59345E-04 2.11213E-13-2.77613E-13
 -1      2073 2.00000E+01-3.47290E-03 5.98123E-06-1.09228E-03 3.24919E-13-3.75904E-13
 -1      2074 2.00001E+01-3.10488E-03-7.31317E-06-1.45477E-03 3.74138E-13-5.24172E-13
 -1      2075 2.00001E+01-4.23549E-03 1.39238E-05-5.76242E-04 2.87353E-14-2.03856E-14
 -1      2076 2.00001E+01-4.02005E-03 1.05554E-05-7.54827E-04 1.85244E-13-1.19892E-13
 -1      2077 2.00002E+01-3.61968E-03-1.02594E-05-1.07465E-03 2.43324E-13-3.06961E-13
 -1      2078 2.00002E+01-4.42232E-03 1.45142E-05-1.26610E-04-1.65596E-13-5.85725E-14
 -1      2079 2.00001E+01-4.34858E-03 1.34479E-05-3.28156E-04-6.57667E-14-5.94357E-14
 -1      2080 2.00003E+01-3.95035E-03-1.20759E-05-5.66714E-04-5.85934E-14-1.50262E-13
 -1      2081 2.00001E+01-4.34429E-03 1.34216E-05 3.37145E-04-2.02296E-13-2.21922E-13
 -1      2082 2.00002E+01-4.42103E-03 1.45334E-05 1.35884E-04-7.07466E-14-1.98077E-13
 -1      2083 2.00003E+01-4.06269E-03-1.26699E-05 5.87472E-06-1.80738E-13-7.51377E-14
 -1      2084 2.00001E+01-4.01064E-03 1.06399E-05 7.62257E-04-2.25737E-13-2.94462E-13
 -1      2085 2.00001E+01-4.22889E-03 1.38247E-05 5.84574E-04-2.55447E-13-9.80814E-14
 -1      2086 2.00003E+01-3.94534E-03-1.19727E-05 5.77684E-04-2.01560E-13-2.29762E-13
 -1      2087 2.00000E+01-3.47072E-03 5.96739E-06 1.09261E-03-8.98583E-14-3.10750E-13
 -1      2088 2.00001E+01-3.79726E-03 1.17412E-05 9.62688E-04-1.56598E-13-3.83318E-13
 -1      2089 2.00002E+01-3.61430E-03-1.02523E-05 1.07997E-03-2.28136E-13-2.90718E-13
 -1      2090 1.99999E+01-2.76808E-03 1.53507E-07 1.29091E-03 2.70046E-13 4.65559E-13
 -1      2091 1.99999E+01-3.17303E-03 8.51082E-06 1.22558E-03 1.36153E-13 1.04708E-13
 -1      2092 2.00001E+01-3.10214E-03-7.36527E-06 1.45535E-03 1.42512E-13-7.04671E-14
 -1      2093 1.99997E+01-1.99642E-03-5.90452E-06 1.31073E-03 3.53411E-13 4.18074E-13
 -1      2094 1.99998E+01-2.42137E-03 4.77826E-06 1.32878E-03 3.13248E-13 4.37052E-13
 -1      2095 1.99999E+01-2.45676E-03-2.98959E-06 1.64890E-03 3.05651E-13 4.59848E-13
 -1      2096 1.99996E+01-1.22887E-03-4.34816E-06 1.12971E-03 2.10211E-14 3.59108E-14
 -1      2097 1.99996E+01-1.63288E-03 2.06876E-06 1.23955E-03 1.07568E-13 2.11656E-13
 -1      2098 1.99996E+01-1.75360E-03 1.42336E-07 1.61623E-03 1.50638E-13 9.77443E-14
 -1      2099 1.04026E+01-5.27723E+00-1.01293E-01 6.32923E+00 3.81917E-13 6.75598E-13
 -1      2100 6.84300E+00-6.51251E+00-3.25180E-01 5.19066E+00 2.70728E-13 6.80705E-13
 -1      2101 3.73386E-01-6.57818E+00-3.38178E-01 5.65037E-01 2.62554E-13 7.24087E-13
 -1      2102 5.01422E-01-6.85700E+00-3.71550E-01-1.16701E+00 3.82194E-14 8.66474E-13
 -1      2103 4.07143E+00-6.14024E+00-2.12522E-01 4.33104E+00 3.80806E-13 7.20035E-13
 -1      2104 1.96600E+00-6.67176E+00-3.34809E-01 2.84644E+00 2.64538E-13 5.84477E-13
 -1      2105 7.74764E+00-5.08750E+00-9.36233E-02 5.82004E+00-1.02141E-14 6.24445E-13
 -1      2106 1.81380E+01-3.97098E+00-4.88458E-02 6.81682E+00 5.30964E-13 4.78645E-13
 -1      2107 1.35064E+01-5.61183E+00-3.10571E-01 6.09268E+00 3.98515E-13 5.90014E-13
 -1      2108 1.42718E+01-5.67128E+00-2.31998E-02 6.74330E+00-4.61853E-14 4.48967E-13
 -1      2109 2.78439E+01-1.03957E+00 1.60252E-01 5.54455E+00 7.24087E-13 2.15161E-13
 -1      2110 2.29478E+01-3.07069E+00-1.62137E-01 5.38138E+00 6.63469E-13 2.73115E-13
 -1      2111 1.97486E+01 3.87908E+00-3.11932E-02-6.16979E-01-1.42462E-13-4.39388E-13
 -1      2112 2.03507E+01 3.83958E+00-2.18769E-02-9.15549E-01-1.91463E-13-3.87947E-13
 -1      2113 2.09583E+01 3.05048E+00-1.46947E-02-9.30772E-01-2.16251E-13-3.22624E-13
 -1      2114 1.97001E+01 3.41418E+00-1.47353E-02-4.02598E-01-1.33705E-13-4.31733E-13
 -1      2115 3.94497E+01 5.43805E+00 3.47434E-01 1.58348E+00 7.81597E-13-2.19047E-13
 -1      2116 3.65183E+01 4.29110E+00 1.50043E-01 2.47665E+00 8.47933E-13 1.24345E-14
 -1      2117 4.08206E+01 7.08244E+00 2.85074E-01-6.80857E-02 7.78155E-13-3.98251E-13
 -1      2118 4.03992E+01 6.73768E+00 3.30864E-01 1.15712E+00 7.88702E-13-2.19158E-13
 -1      2119 3.81336E+01 6.56579E+00 1.41923E-01-8.16768E-01 7.41684E-13-5.54834E-13
 -1      2120 4.01091E+01 7.11656E+00 3.43742E-01-1.90346E-01 7.75602E-13-4.41536E-13
 -1      2121 3.52599E+01 3.34031E+00 1.31973E-01-2.90026E+00 7.80223E-13-7.15206E-13
 -1      2122 3.76939E+01 4.68471E+00 1.90765E-01-1.58861E+00 7.13957E-13-5.99243E-13
 -1      2123 2.89065E+01-8.48908E-01-5.19618E-02-3.76240E+00 5.68656E-13-5.82534E-13
 -1      2124 3.35114E+01 1.55180E+00 3.06374E-01-3.96448E+00 7.20618E-13-6.99885E-13
 -1      2125 3.29835E+01 1.33814E+00 1.60448E-01-5.59987E-01 5.01710E-13-2.33480E-13
 -1      2126 1.91351E+01-3.68601E+00-2.24307E-01-6.03316E+00 5.73208E-13-8.71636E-13
 -1      2127 2.45862E+01-2.65400E+00-9.68242E-02-5.74757E+00 4.97047E-13-7.47735E-13
 -1      2128 1.05310E+01-5.62522E+00-4.29645E-01-5.70643E+00 4.83835E-13-8.23203E-13
 -1      2129 1.48698E+01-3.90676E+00-1.41413E-01-6.78035E+00 5.99076E-13-9.14713E-13
 -1      2130 4.25617E+00-6.39383E+00-3.91506E-01-4.30386E+00 2.40752E-13-7.95697E-13
 -1      2131 7.14800E+00-5.51181E+00-2.67643E-01-5.44879E+00 4.84945E-13-8.12170E-13
 -1      2132 7.95112E-01-6.17123E+00-3.50271E-01-1.11046E+00-1.62578E-14-8.55260E-13
 -1      2133 2.04303E+00-5.37576E+00-2.18254E-01-2.82804E+00 2.05225E-13-8.74467E-13
 -1      2134 1.75541E+00-4.74215E+00-1.43900E-01 2.47382E+00-1.35808E-13-8.54261E-13
 -1      2135 6.63829E-01-5.99241E+00-3.47928E-01 6.06348E-01 1.31492E-14-8.72746E-13
 -1      2136 2.34440E+00-3.02517E+00-7.60063E-02-3.30155E-01 5.19584E-14-9.84435E-13
 -1      2137 6.20438E+00-5.52440E+00-2.98839E-01 5.41131E+00-5.57498E-13-8.09547E-13
 -1      2138 3.80930E+00-5.80742E+00-2.79260E-01 4.48383E+00-2.85993E-13-7.71438E-13
 -1      2139 1.34884E+01-3.91404E+00-9.78461E-02 6.88243E+00-6.92446E-13-7.98153E-13
 -1      2140 9.53663E+00-5.58959E+00-3.82895E-01 5.83387E+00-5.73319E-13-7.60975E-13
 -1      2141 2.20960E+01-1.95228E+00 3.93837E-02 6.82388E+00-7.64666E-13-7.09321E-13
 -1      2142 1.71702E+01-3.66744E+00-2.88565E-01 6.29608E+00-7.21756E-13-8.00138E-13
 -1      2143 3.04054E+01 7.09175E-01 1.43086E-01 5.10331E+00-8.35526E-13-5.35072E-13
 -1      2144 2.57198E+01-9.12275E-01-1.04171E-01 5.41987E+00-8.03135E-13-6.37823E-13
 -1      2145 3.66448E+01 4.05508E+00 2.82876E-01 2.89927E+00-8.85209E-13-3.51774E-13
 -1      2146 3.27978E+01 2.56966E+00 1.28865E-02 3.24374E+00-8.98736E-13-4.22107E-13
 -1      2147 3.83971E+01 6.48417E+00 1.66527E-01 6.96549E-01-8.18345E-13-2.33397E-13
 -1      2148 3.74659E+01 5.52164E+00 2.03712E-01 2.01345E+00-8.70692E-13-3.74700E-13
 -1      2149 3.41986E+01 4.74868E+00 2.34896E-01-5.84811E-02-8.26894E-13-1.36058E-13
 -1      2150 3.97871E+01 7.24829E+00 2.96410E-01-5.62890E-01-7.31692E-13-5.48728E-14
 -1      2151 3.89227E+01 7.42925E+00 1.77880E-01 4.71241E-01-7.93032E-13-2.38684E-13
 -1      2152 3.70502E+01 5.62065E+00 1.58078E-01-1.86703E+00-6.45872E-13 1.15574E-13
 -1      2153 3.95173E+01 6.46347E+00 3.05987E-01-1.00874E+00-6.83842E-13-5.62328E-14
 -1      2154 3.20447E+01 2.11150E+00 6.79498E-02-4.17780E+00-6.01588E-13 3.67706E-13
 -1      2155 3.57593E+01 3.53564E+00 2.22366E-01-3.13866E+00-5.66436E-13 2.20934E-13
 -1      2156 2.47073E+01-1.50690E+00-1.09385E-01-5.42205E+00-6.30218E-13 3.81195E-13
 -1      2157 2.97412E+01 5.92416E-01 2.19972E-01-5.64952E+00-5.99076E-13 4.96270E-13
 -1      2158 3.10636E+01 3.80128E-02 1.95593E-01-2.47358E+00-4.06924E-13-1.72085E-15
 -1      2159 1.51694E+01-4.71259E+00-2.95796E-01-6.26496E+00-6.61693E-13 5.25580E-13
 -1      2160 2.02834E+01-2.93124E+00-2.05098E-04-6.93118E+00-6.46705E-13 3.75144E-13
 -1      2161 7.92391E+00-6.16836E+00-2.82734E-01-5.76213E+00-3.36509E-13 9.17655E-13
 -1      2162 1.14730E+01-4.80233E+00-1.36653E-01-6.63822E+00-6.48481E-13 7.94143E-13
 -1      2163 1.59838E+01-5.40249E+00-4.29536E-02-6.87659E+00-1.89959E-13 3.76435E-13
 -1      2164 1.48861E+00-7.36645E+00-4.89129E-01-2.78555E+00 6.44484E-14 1.06565E-12
 -1      2165 3.79284E+00-6.24125E+00-3.27672E-01-4.47148E+00-2.20379E-13 1.20620E-12
 -1      2166 3.51867E+01 2.63521E+00 3.16329E-01 3.95768E+00 8.76479E-13 2.54241E-14
 -1      2167 3.05256E+01 8.57751E-01-3.26414E-02 4.24285E+00 8.73079E-13 1.69642E-13
 -1      2168 2.34306E+01 9.78538E-01-2.57494E-02-1.04548E+00-2.98171E-13 1.37137E-13
 -1      2169 3.51770E+01 5.68780E+00 2.12850E-01 3.71449E-01 6.95832E-13-3.12195E-13
 -1      2170 3.43463E+01 2.89632E+00 2.62572E-01 6.13781E-01 8.18012E-13-2.48246E-13
 -1      2171 2.30597E+01 1.13288E+00-2.10989E-02-1.04044E+00-2.90112E-13-2.77035E-15
 -1      2172 2.70765E+00-4.50842E+00-1.27079E-01 2.23089E+00 7.81458E-14 7.84373E-13
 -1      2173 1.99995E+01-9.92189E-04-5.99904E-06 1.09019E-03 5.51790E-15-1.08151E-13
 -1      2174 2.25403E+01-4.92257E+00 2.85343E-02 5.52211E+00 2.19824E-13 1.18239E-13
 -1      2175 2.34270E+00-4.72606E+00-1.65381E-01-2.48386E+00 4.55747E-14 1.07647E-12
 -1      2176 3.00403E+01-1.57175E+00 1.23311E-01 2.75515E+00 5.48686E-13-2.00062E-13
 -1      2177 7.33870E+00-5.57406E+00-1.42060E-01-5.69327E+00-6.45595E-14 1.04869E-12
 -1      2178 1.08157E+01-4.98234E+00-1.15722E-01-6.88887E+00 1.30840E-13 7.32914E-13
 -1      2179 7.00830E+00-4.19218E+00 8.49340E-02-5.68010E+00 1.97925E-13 1.08069E-12
 -1      2180 2.44107E+01-3.69533E+00 5.10577E-02-5.24530E+00-3.23408E-13 8.49321E-14
 -1      2181 3.44541E+01 4.34887E+00 2.38348E-01-4.48426E-01-5.76234E-13-1.17351E-13
 -1      2182 3.53300E+01 7.48834E+00 2.16572E-01-2.37048E-01-8.21565E-13-1.97176E-13
 -1      2183 3.16072E+01 6.12169E-01 1.69746E-01 2.07322E+00-6.95371E-13-1.55986E-13
 -1      2184 2.55474E+01-2.99350E+00 7.89078E-02 4.97827E+00-5.00211E-13-3.60378E-13
 -1      2185 1.78571E+01-4.80102E+00-3.17693E-02 6.70332E+00-2.94265E-13-5.49838E-13
 -1      2186 3.88564E+00-4.23650E+00-9.91760E-02 3.80898E+00-5.23470E-14-8.21843E-13
 -1      2187 4.45957E+00-2.02713E+00 1.13503E-01 3.18059E+00 1.08774E-13-8.58147E-13
 -1      2188 6.29532E+00-3.18238E+00-3.94631E-02 5.22978E+00 9.27591E-14-7.49067E-13
 -1      2189 4.75137E+00-4.34185E+00-1.47245E-01-4.23091E+00 5.56777E-14-8.91731E-13
 -1      2190 1.11632E+01-5.35714E+00-1.60480E-01-6.49421E+00 1.53544E-13-7.64958E-13
 -1      2191 2.76719E+01-2.48208E+00 8.36590E-02-4.04535E+00 3.92297E-13-5.22915E-13
 -1      2192 2.91984E+01-2.83311E+00-1.52695E-01-1.76160E+00 2.11560E-13-1.47049E-13
 -1      2193 2.60321E+01-4.08510E+00 1.25971E-01-4.02633E+00 1.56875E-13-3.18384E-13
 -1      2194 3.61846E+01 6.61537E+00 3.23576E-01-4.07814E-01 8.79685E-13-2.14440E-13
 -1      2195 3.60338E+01 7.97063E+00 2.78928E-01 1.21435E-01 8.26061E-13-3.05950E-13
 -1      2196 1.94195E+01-4.84893E+00 3.25776E-02-6.32429E+00 2.19491E-13-6.81843E-13
 -1      2197 1.02531E+01-4.99740E+00-1.15219E-01 6.65281E+00-1.63980E-13-7.15372E-13
 -1      2198 3.54510E+01 7.67081E+00 2.65931E-01 2.05511E-01-7.76157E-13-2.01242E-13
 -1      2199 2.34727E+01 2.91303E-01-2.73409E-03-2.51127E-01 2.16239E-13 3.03468E-13
 -1      2200 2.35328E+01 5.53280E-01 2.23702E-02-2.78467E-02 2.55294E-13 3.36894E-13
 -1      2201 1.71647E+01 3.75743E+00-1.69250E-02 5.56258E-01 5.74102E-14-4.79446E-13
 -1      2202 1.77399E+01 3.62140E+00 6.38134E-03 4.58296E-01 7.01240E-15-4.82960E-13
 -1      2203 1.83436E+01 3.34052E+00-1.64279E-02 3.23656E-01-2.20687E-14-4.70670E-13
 -1      2204 1.89771E+01 3.19127E+00-3.42145E-04 1.30993E-01-6.65878E-14-4.53497E-13
 -1      2205 1.81656E+01 3.03999E+00-6.50058E-03 5.80795E-01 1.13464E-14-4.38818E-13
 -1      2206 1.58180E+01 4.35675E+00-9.31685E-03 3.52709E-01 1.62928E-13-4.78714E-13
 -1      2207 1.59678E+01 4.30717E+00 1.67462E-03 4.30325E-01 1.34863E-13-4.79226E-13
 -1      2208 1.59988E+01 4.36009E+00-1.65941E-03 7.30470E-02 2.19308E-13-4.60528E-13
 -1      2209 1.58280E+01 4.38342E+00-6.44796E-03 1.63031E-01 1.84595E-13-4.75241E-13
 -1      2210 1.57574E+01 4.15313E+00 1.06944E-02 2.76459E-01 1.75389E-13-4.64082E-13
 -1      2211 1.67736E+01 4.13180E+00 3.66606E-03-1.22932E-01 2.54404E-13-4.40040E-13
 -1      2212 1.63144E+01 4.22290E+00-1.41887E-02-8.69206E-02 2.23297E-13-4.58339E-13
 -1      2213 1.61056E+01 4.04999E+00 9.78311E-03-9.50913E-02 2.13082E-13-4.46770E-13
 -1      2214 1.80309E+01 3.71552E+00 2.78790E-03-1.25580E-01 2.97597E-13-3.33433E-13
 -1      2215 1.73495E+01 3.86763E+00-1.91561E-02-1.83205E-01 2.65972E-13-3.96030E-13
 -1      2216 1.70698E+01 3.67666E+00 2.57268E-03-3.27202E-01 2.40433E-13-3.96551E-13
 -1      2217 1.95674E+01 3.18107E+00-5.25914E-03 9.13840E-02 3.42679E-13-1.97220E-13
 -1      2218 1.87704E+01 3.38881E+00-2.09204E-02-6.10917E-02 3.11667E-13-2.67687E-13
 -1      2219 1.84883E+01 3.12896E+00-2.89483E-03-3.19057E-01 2.78188E-13-2.75603E-13
 -1      2220 2.12242E+01 2.53449E+00-2.21604E-02 4.46154E-01 3.79676E-13-2.64927E-14
 -1      2221 2.03836E+01 2.82778E+00-2.16510E-02 2.41517E-01 3.51987E-13-1.16619E-13
 -1      2222 2.01299E+01 2.50219E+00-2.35281E-03-9.98752E-02 3.18563E-13-1.36054E-13
 -1      2223 2.36088E+01-1.63878E-01-1.00261E-02-3.94643E-01 1.10471E-13 2.80541E-13
 -1      2224 2.35831E+01 6.18993E-02 2.37713E-02-3.92560E-01 1.57905E-13 2.96755E-13
 -1      2225 2.30625E+01 2.64855E-01-1.26744E-02-3.64695E-01 2.02064E-13 1.57349E-13
 -1      2226 2.28127E+01 4.97715E-01 1.68101E-02-4.38170E-01-1.92417E-13-5.43419E-14
 -1      2227 2.27004E+01 1.75771E-01-1.50924E-02-2.56224E-01-1.70927E-13-5.34906E-14
 -1      2228 3.19004E+01 3.73368E+00-1.15972E-01 1.39814E+00 5.38597E-13-1.06831E-13
 -1      2229 3.18521E+01 5.64359E+00-1.98300E-01 1.32124E+00 6.60361E-13-7.46070E-14
 -1      2230 2.28279E+01-5.96563E-02 2.41742E-02-2.13645E-01-1.47036E-13-2.11966E-14
 -1      2231 2.27514E+01-2.82627E-01-1.17642E-02-2.31327E-01-1.24139E-13-2.80131E-14
 -1      2232 2.25532E+01 7.59830E-02-1.78602E-02-2.20890E-01-1.57150E-13-1.16677E-13
 -1      2233 2.29052E+01-4.62347E-01 1.53083E-02-3.41518E-01-9.85104E-14 1.70020E-14
 -1      2234 2.28449E+01-6.09440E-01-1.51466E-02-5.06958E-01-7.41746E-14 8.61008E-15
 -1      2235 2.27717E+01-4.69511E-01-9.26825E-03-2.43089E-01-1.05473E-13-6.17740E-14
 -1      2236 2.29969E+01-6.88031E-01 6.39694E-03-7.51360E-01-7.49112E-14 2.14405E-14
 -1      2237 2.29037E+01-7.05025E-01-1.18710E-02-9.85060E-01-8.70814E-14 2.01204E-14
 -1      2238 2.30539E+01-8.32143E-01-4.36546E-03-5.93395E-01-7.88560E-14-6.30680E-15
 -1      2239 2.29768E+01-6.31649E-01-5.99649E-03-1.27826E+00-1.10219E-13 3.24563E-14
 -1      2240 2.28253E+01-4.55248E-01-8.24504E-04-1.47166E+00-1.16770E-13 7.63495E-16
 -1      2241 2.32874E+01-8.55560E-01 3.49997E-03-1.15298E+00-1.09622E-13-3.56919E-16
 -1      2242 2.27420E+01-1.89979E-01-1.77925E-02-1.65649E+00-1.15791E-13 2.35445E-14
 -1      2243 2.25479E+01 1.75613E-01 1.59928E-02-1.67177E+00-1.47754E-13 2.84360E-14
 -1      2244 2.33189E+01-4.06359E-01 7.83329E-03-1.68087E+00-1.13994E-13 3.63780E-14
 -1      2245 2.23151E+01 5.69283E-01-2.10141E-02-1.56205E+00-1.96829E-13 9.85323E-15
 -1      2246 2.21452E+01 9.70982E-01 2.49212E-02-1.29954E+00-2.02542E-13-5.80248E-14
 -1      2247 2.30642E+01 4.98036E-01 6.82598E-03-1.80598E+00-1.88082E-13-2.76202E-14
 -1      2248 2.19167E+01 1.28883E+00-1.23290E-02-8.38083E-01-2.07755E-13-8.66592E-14
 -1      2249 2.18446E+01 1.48947E+00 1.22511E-02-3.45355E-01-2.24185E-13-1.18650E-13
 -1      2250 2.26646E+01 1.47357E+00-6.21988E-03-1.23295E+00-2.39578E-13-4.19083E-14
 -1      2251 2.18227E+01 1.51430E+00 8.23697E-03 3.00924E-01-2.01625E-13-1.89384E-13
 -1      2252 2.18868E+01 1.36752E+00-9.10162E-03 8.10018E-01-1.62291E-13-2.40885E-13
 -1      2253 2.24386E+01 1.93665E+00-2.09414E-02-3.58041E-02-2.78222E-13-1.28025E-13
 -1      2254 2.20806E+01 1.08269E+00 2.23631E-02 1.31958E+00-1.31994E-13-2.69229E-13
 -1      2255 2.22493E+01 6.85861E-01-2.27763E-02 1.62210E+00-8.93903E-14-2.78156E-13
 -1      2256 2.25943E+01 1.58006E+00-1.40783E-02 1.20839E+00-1.66413E-13-1.65378E-13
 -1      2257 2.24873E+01 2.77123E-01 1.88575E-02 1.77466E+00-6.22280E-14-3.08844E-13
 -1      2258 2.26791E+01-1.23368E-01-2.02633E-02 1.78477E+00-2.07633E-14-2.58551E-13
 -1      2259 2.29760E+01 6.32456E-01 5.34996E-03 1.89381E+00-1.16948E-13-2.27097E-13
 -1      2260 2.27747E+01-4.34131E-01 3.26040E-03 1.60891E+00-3.94598E-14-3.47930E-13
 -1      2261 2.29163E+01-6.69143E-01-1.02950E-02 1.40313E+00-7.37622E-14-3.49789E-13
 -1      2262 2.32406E+01-3.50547E-01 1.40436E-02 1.81806E+00-6.01489E-14-3.82869E-13
 -1      2263 2.28325E+01-7.99856E-01-1.06989E-02 1.06381E+00-1.17184E-13-3.25689E-13
 -1      2264 2.28876E+01-8.46768E-01-1.28276E-03 7.71537E-01-1.02029E-13-3.20199E-13
 -1      2265 2.32023E+01-9.49282E-01 9.25324E-03 1.24056E+00-9.12743E-14-3.95248E-13
 -1      2266 2.26861E+01-8.27569E-01-1.62179E-02 4.26615E-01-8.17159E-14-2.70994E-13
 -1      2267 2.26579E+01-7.52416E-01 4.18463E-03 1.51917E-01-9.01011E-14-2.31827E-13
 -1      2268 2.28995E+01-1.09068E+00 1.16820E-03 5.14969E-01-5.80531E-14-2.94869E-13
 -1      2269 2.24183E+01-6.57167E-01-1.50542E-02-1.14517E-01-1.44826E-13-2.14072E-13
 -1      2270 2.23291E+01-5.36955E-01 5.69383E-03-3.20171E-01-1.47193E-13-2.40128E-13
 -1      2271 2.24695E+01-9.23383E-01-3.94079E-03-1.13807E-01-1.28153E-13-2.03359E-13
 -1      2272 2.21034E+01-4.25980E-01-1.09803E-02-4.88251E-01-1.61002E-13-2.24723E-13
 -1      2273 2.19782E+01-3.10855E-01 5.08654E-03-6.14632E-01-1.27826E-13-2.32061E-13
 -1      2274 2.20295E+01-6.33816E-01-5.44901E-03-5.50871E-01-1.66559E-13-1.75339E-13
 -1      2275 2.17868E+01-2.16192E-01-6.53613E-03-6.97481E-01-1.07131E-13-2.37122E-13
 -1      2276 2.16457E+01-1.27560E-01 3.78624E-03-7.56002E-01-2.12071E-14-2.45083E-13
 -1      2277 2.16387E+01-3.49331E-01-4.97796E-03-7.98086E-01-1.14921E-13-1.32086E-13
 -1      2278 2.14909E+01-5.96444E-02-2.85362E-03-7.76638E-01 9.63793E-14-3.12422E-13
 -1      2279 2.13480E+01-1.00351E-03 2.52229E-03-7.85962E-01 1.34586E-13-2.02122E-13
 -1      2280 2.13128E+01-1.26441E-01-3.92332E-03-8.95644E-01-2.29610E-14-7.76994E-14
 -1      2281 2.12246E+01 4.13589E-02-2.28301E-04-7.66636E-01 1.31052E-13-2.24447E-13
 -1      2282 2.10890E+01 7.47391E-02 1.56995E-03-7.44847E-01 1.38637E-13-2.59803E-13
 -1      2283 2.10476E+01 2.36601E-02-2.93208E-03-8.90360E-01 1.19121E-13-2.01650E-13
 -1      2284 2.09907E+01 9.72139E-02 1.42323E-03-7.03174E-01 1.64097E-13-2.89951E-13
 -1      2285 2.08679E+01 1.12319E-01 9.42689E-04-6.64610E-01 1.32264E-13-2.21945E-13
 -1      2286 2.08327E+01 1.11094E-01-2.21038E-03-8.22650E-01 1.39807E-13-3.38241E-13
 -1      2287 2.07891E+01 1.21102E-01 2.31427E-03-6.13038E-01 9.75190E-14-2.13339E-13
 -1      2288 2.06818E+01 1.24334E-01 5.62541E-04-5.67784E-01 7.25686E-14-1.44178E-13
 -1      2289 2.06578E+01 1.52471E-01-1.73638E-03-7.22774E-01 1.18342E-13-2.62960E-13
 -1      2290 2.06184E+01 1.24579E-01 2.66731E-03-5.14404E-01 5.99977E-14-1.68838E-13
 -1      2291 2.05274E+01 1.20855E-01 3.45043E-04-4.68896E-01 4.91305E-14-6.76384E-14
 -1      2292 2.05153E+01 1.63466E-01-1.43121E-03-6.11436E-01 8.34896E-14-2.48543E-13
 -1      2293 2.04765E+01 1.16322E-01 2.67188E-03-4.18524E-01-1.35616E-14-3.99155E-14
 -1      2294 2.04012E+01 1.09056E-01 2.25356E-04-3.76456E-01 1.14505E-14-2.16606E-14
 -1      2295 2.03992E+01 1.56331E-01-1.22250E-03-5.01708E-01 5.63850E-14-2.33299E-13
 -1      2296 2.03604E+01 1.02265E-01 2.47247E-03-3.31615E-01-1.65287E-15-4.46032E-14
 -1      2297 2.02996E+01 9.36504E-02 1.60482E-04-2.94793E-01 8.82497E-15-4.90184E-14
 -1      2298 2.03052E+01 1.39688E-01-1.06180E-03-4.01066E-01-2.54410E-14-2.21784E-13
 -1      2299 2.02673E+01 8.61773E-02 2.17076E-03-2.56497E-01 1.05417E-15-2.61660E-14
 -1      2300 2.02192E+01 7.75289E-02 1.24444E-04-2.25515E-01-1.34952E-14 3.83771E-14
 -1      2301 2.02298E+01 1.19159E-01-9.22966E-04-3.13137E-01 1.17721E-14-2.42556E-13
 -1      2302 2.01939E+01 7.02885E-02 1.83362E-03-1.93844E-01-7.64027E-14-2.23461E-14
 -1      2303 2.01566E+01 6.23233E-02 1.02676E-04-1.68574E-01-2.58167E-14-3.28578E-14
 -1      2304 2.01700E+01 9.81591E-02-7.94888E-04-2.39049E-01-5.77227E-14-8.27128E-14
 -1      2305 2.01370E+01 5.57936E-02 1.50199E-03-1.43071E-01 1.73574E-14-8.16617E-15
 -1      2306 2.01088E+01 4.88458E-02 8.75739E-05-1.22993E-01-3.59895E-15-1.02521E-13
 -1      2307 2.01231E+01 7.85924E-02-6.74690E-04-1.78417E-01-5.03220E-14-6.52441E-15
 -1      2308 2.00939E+01 4.32300E-02 1.19869E-03-1.02936E-01-2.36725E-14-1.05186E-13
 -1      2309 2.00729E+01 3.74000E-02 7.54877E-05-8.73538E-02-5.67168E-14-2.06396E-13
 -1      2310 2.00871E+01 6.13827E-02-5.63078E-04-1.30020E-01-6.87651E-14-9.61904E-14
 -1      2311 2.00617E+01 3.27361E-02 9.34462E-04-7.19242E-02-1.63001E-14-1.12445E-13
 -1      2312 2.00466E+01 2.79901E-02 6.48600E-05-6.00997E-02 2.10751E-15-9.96506E-15
 -1      2313 2.00598E+01 4.68464E-02-4.61702E-04-9.22538E-02 1.74456E-14-7.55171E-14
 -1      2314 2.00383E+01 2.42242E-02 7.12395E-04-4.84840E-02-4.89743E-14 1.30091E-14
 -1      2315 2.00276E+01 2.04580E-02 5.51548E-05-3.97115E-02-8.04410E-15 1.10994E-13
 -1      2316 2.00394E+01 3.49460E-02-3.71909E-04-6.34117E-02-6.61650E-15-4.64980E-14
 -1      2317 2.00217E+01 1.74901E-02 5.31066E-04-3.11610E-02-4.72982E-14-5.70447E-15
 -1      2318 2.00144E+01 1.45694E-02 4.62776E-05-2.48073E-02 1.12778E-14-1.44083E-13
 -1      2319 2.00246E+01 2.54540E-02-2.94320E-04-4.18571E-02-8.45634E-14-7.37602E-14
 -1      2320 2.00103E+01 1.22820E-02 3.86606E-04-1.86651E-02-1.23041E-14-2.28334E-13
 -1      2321 2.00055E+01 1.00665E-02 3.82810E-05-1.41859E-02-1.96558E-13-1.90637E-13
 -1      2322 2.00141E+01 1.80568E-02-2.28811E-04-2.61122E-02-1.06804E-13-2.67684E-13
 -1      2323 2.00027E+01 8.34165E-03 2.74064E-04-9.89570E-03-2.88060E-13-9.41829E-14
 -1      2324 1.99998E+01 6.69820E-03 3.12302E-05-6.83824E-03-2.14692E-13-1.73978E-13
 -1      2325 2.00069E+01 1.24176E-02-1.74678E-04-1.48985E-02-1.93434E-13-2.40609E-13
 -1      2326 1.99980E+01 5.42646E-03 1.88243E-04-3.94245E-03-1.34913E-13-3.93271E-14
 -1      2327 1.99964E+01 4.23628E-03 2.51501E-05-1.93970E-03 4.13420E-14 6.66488E-14
 -1      2328 2.00020E+01 8.21255E-03-1.30831E-04-7.14514E-03-7.86389E-14 1.46448E-14
 -1      2329 1.99953E+01 3.32122E-03 1.24195E-04-7.08219E-05 1.30175E-13 5.03186E-14
 -1      2330 1.99945E+01 2.48234E-03 2.00129E-05 1.16775E-03 1.14007E-13 8.92514E-14
 -1      2331 1.99990E+01 5.14940E-03-9.59824E-05-1.97877E-03 7.34836E-14 2.43868E-13
 -1      2332 1.99940E+01 1.84205E-03 7.74731E-05 2.29838E-03-1.12259E-14-3.25121E-15
 -1      2333 1.99938E+01 1.26958E-03 1.57420E-05 2.99782E-03-1.62672E-14-9.78235E-14
 -1      2334 1.99972E+01 2.97545E-03-6.87861E-05 1.29670E-03-1.22600E-17 4.26741E-14
 -1      2335 1.99936E+01 8.36302E-04 4.42496E-05 3.61216E-03 4.71418E-14-1.41544E-13
 -1      2336 1.99938E+01 4.61174E-04 1.22210E-05 3.94296E-03 1.05276E-13-2.07149E-13
 -1      2337 1.99964E+01 1.47900E-03-4.79379E-05 3.22408E-03-1.00045E-14 4.64102E-14
 -1      2338 1.99938E+01 1.80023E-04 2.13279E-05 4.20786E-03 3.09107E-14-1.61945E-13
 -1      2339 1.99942E+01-5.29714E-05 9.30213E-06 4.29607E-03-6.38258E-14-6.70332E-14
 -1      2340 1.99961E+01 4.86867E-04-3.22391E-05 4.21758E-03 6.87940E-14-7.34468E-14
 -1      2341 1.99943E+01-2.25787E-04 6.11278E-06 4.33378E-03-4.35298E-14 2.45333E-14
 -1      2342 1.99949E+01-3.60266E-04 6.81234E-06 4.26983E-03 7.67650E-14 3.80241E-14
 -1      2343 1.99962E+01-1.40075E-04-2.06350E-05 4.58591E-03 1.51859E-14 1.64843E-13
 -1      2344 1.99951E+01-4.59428E-04-3.44891E-06 4.16703E-03 1.56468E-13 7.98516E-14
 -1      2345 1.99957E+01-5.29748E-04 4.56129E-06 4.01307E-03 2.61214E-13 3.85502E-14
 -1      2346 1.99965E+01-5.12230E-04-1.22324E-05 4.55284E-03 7.78806E-14 4.10107E-13
 -1      2347 1.99959E+01-5.82805E-04-8.93800E-06 3.82832E-03 3.21885E-13 4.69435E-14
 -1      2348 1.99965E+01-6.16239E-04 2.37303E-06 3.62414E-03 2.44678E-13 1.59229E-13
 -1      2349 1.99970E+01-7.16871E-04-6.30988E-06 4.27452E-03 2.43960E-13 7.07674E-14
 -1      2350 1.99967E+01-6.45391E-04-1.15042E-05 3.39397E-03 9.08203E-14 1.42190E-13
 -1      2351 1.99973E+01-6.64201E-04-4.38003E-08 3.16175E-03 1.57744E-14 1.81886E-13
 -1      2352 1.99975E+01-8.23346E-04-2.31673E-06 3.85396E-03 1.26435E-13 1.02261E-13
 -1      2353 1.99975E+01-6.87581E-04-1.21016E-05 2.90443E-03 1.31062E-13 2.56277E-13
 -1      2354 1.99980E+01-7.07312E-04-2.06116E-06 2.65227E-03 5.84015E-14 2.45137E-13
 -1      2355 1.99980E+01-8.88377E-04-6.31609E-08 3.35224E-03 1.02334E-13 1.41337E-13
 -1      2356 1.99982E+01-7.37991E-04-1.13923E-05 2.37706E-03-8.53094E-14 2.54210E-13
 -1      2357 1.99986E+01-7.72337E-04-5.68295E-06 2.10552E-03-1.37347E-13 3.08309E-14
 -1      2358 1.99985E+01-9.47761E-04 2.00858E-06 2.79815E-03-5.08086E-15 7.44222E-14
 -1      2359 1.06140E+01-4.10921E+00 7.27912E-02 6.35458E+00-1.63036E-13 4.48142E-13
 -1      2360 7.78377E+00-3.59817E+00 9.79640E-02 5.21141E+00-1.68504E-13 5.55833E-13
 -1      2361 2.41353E+01-9.17160E-01-2.35120E-02 4.94260E-01-2.55898E-14 2.91876E-13
 -1      2362 2.41509E+01-7.70955E-01 1.13603E-02 1.49724E-01-1.39428E-14 3.05928E-13
 -1      2363 2.42757E+01-9.22110E-01-1.46960E-02 1.35184E+00 2.71892E-14 2.85378E-13
 -1      2364 2.44138E+01-9.79134E-01 9.75936E-04 9.55692E-01-1.86379E-14 2.86434E-13
 -1      2365 2.43847E+01-1.28959E+00-5.51659E-03 6.32682E-01-1.64929E-15 1.94456E-13
 -1      2366 2.41227E+01-3.55597E-01 4.86423E-03 2.04940E+00 1.50731E-13 3.51202E-13
 -1      2367 2.43889E+01-7.29687E-01-1.84926E-02 1.81209E+00 7.16146E-14 3.19392E-13
 -1      2368 2.48198E+01-1.10085E+00 8.05238E-03 1.62536E+00 4.20358E-14 2.29478E-13
 -1      2369 2.36419E+01 7.40044E-01 1.75799E-02 2.00838E+00 2.46237E-13 3.13265E-13
 -1      2370 2.39543E+01 1.46954E-01-3.93532E-02 2.18148E+00 2.29048E-13 3.61901E-13
 -1      2371 2.48469E+01-1.17382E-01 3.69726E-03 2.32763E+00 1.89720E-13 2.86823E-13
 -1      2372 2.31480E+01 1.72514E+00 6.53421E-03 9.02972E-01 2.12826E-13 1.79281E-13
 -1      2373 2.33366E+01 1.30163E+00-3.88787E-02 1.52718E+00 2.15949E-13 2.35482E-13
 -1      2374 2.44377E+01 1.39353E+00-2.41952E-02 2.02559E+00 2.95142E-13 2.13489E-13
 -1      2375 2.31108E+01 1.76384E+00-2.92806E-02-8.08872E-01 3.18631E-13-6.41700E-14
 -1      2376 2.30346E+01 1.88461E+00-1.80702E-02-5.91083E-02 2.81206E-13 6.64191E-14
 -1      2377 2.40485E+01 2.45691E+00-4.14461E-02 5.03557E-01 3.43645E-13 2.40493E-14
 -1      2378 2.36233E+01 8.11302E-01-4.87209E-02-2.07986E+00 3.56579E-13-2.78099E-13
 -1      2379 2.33283E+01 1.37695E+00 5.98316E-03-1.63682E+00 3.30680E-13-1.83560E-13
 -1      2380 2.41577E+01 2.10827E+00-3.38688E-02-1.40787E+00 4.14072E-13-1.22366E-13
 -1      2381 2.42292E+01-3.08771E-01-3.35479E-02-2.23970E+00 2.30290E-13-2.44181E-13
 -1      2382 2.39149E+01 2.29246E-01 1.43215E-02-2.26383E+00 3.30302E-13-2.97679E-13
 -1      2383 2.46363E+01 6.26834E-01-1.43893E-02-2.45606E+00 3.36307E-13-2.48946E-13
 -1      2384 2.44935E+01-9.60388E-01-9.47220E-03-1.54500E+00-3.12853E-14-1.78923E-13
 -1      2385 2.42746E+01-7.15789E-01-5.64828E-03-1.89818E+00 9.17298E-14-1.89692E-13
 -1      2386 2.48863E+01-6.61933E-01 1.04698E-02-2.22824E+00 1.08892E-13-2.14890E-13
 -1      2387 2.43130E+01-1.02340E+00 3.71645E-03-5.68532E-01 8.70311E-15-2.36399E-13
 -1      2388 2.42546E+01-1.05391E+00-2.28307E-02-9.94360E-01 1.91791E-14-1.84323E-13
 -1      2389 2.46345E+01-1.37263E+00 3.83903E-03-1.22671E+00 1.41267E-14-3.14130E-13
 -1      2390 2.38660E+01-7.64408E-01 6.92696E-03 2.56507E-01 1.73620E-14-2.48544E-13
 -1      2391 2.39544E+01-9.19632E-01-2.50599E-02-8.73624E-02 6.93976E-15-2.46938E-13
 -1      2392 2.40259E+01-1.34354E+00-7.18982E-03-1.60114E-01 2.00217E-14-3.34405E-13
 -1      2393 2.33256E+01-4.36486E-01 5.63018E-03 7.83397E-01 8.10667E-14-1.54909E-13
 -1      2394 2.35108E+01-6.01342E-01-1.92317E-02 5.70020E-01 5.94195E-14-1.34660E-13
 -1      2395 2.33353E+01-9.55182E-01-1.13447E-02 6.32174E-01 2.24742E-14-2.17468E-13
 -1      2396 2.27907E+01-1.69381E-01 3.53591E-03 1.03396E+00-4.46101E-14-2.06519E-14
 -1      2397 2.30246E+01-2.93702E-01-1.12775E-02 9.37218E-01 5.91723E-14-2.45780E-14
 -1      2398 2.27105E+01-5.17618E-01-1.00228E-02 1.08524E+00-2.38331E-14-1.27192E-13
 -1      2399 2.23014E+01 4.85288E-03 2.00163E-03 1.08814E+00-1.15043E-13 5.98345E-14
 -1      2400 2.25488E+01-7.18342E-02-4.50570E-03 1.07316E+00-7.46434E-14 6.99679E-14
 -1      2401 2.21925E+01-1.76932E-01-7.06002E-03 1.26465E+00-1.16234E-13 9.24279E-14
 -1      2402 2.18696E+01 9.96816E-02 1.18060E-03 1.02483E+00-1.39057E-13 1.75869E-13
 -1      2403 2.21076E+01 6.05608E-02 1.64369E-04 1.05796E+00-1.57538E-13 1.09374E-13
 -1      2404 2.17715E+01 3.89005E-02-4.54716E-03 1.26315E+00-1.99140E-13 2.06035E-13
 -1      2405 2.14964E+01 1.39830E-01 8.16092E-04 9.03070E-01-1.06027E-13 1.31567E-13
 -1      2406 2.17121E+01 1.25400E-01 2.90013E-03 9.59267E-01-9.10392E-14 1.72233E-13
 -1      2407 2.14267E+01 1.52709E-01-2.96788E-03 1.15894E+00-1.23478E-13 2.72781E-13
 -1      2408 2.11797E+01 1.47237E-01 6.89522E-04 7.61074E-01 5.23602E-14 1.35451E-13
 -1      2409 2.13669E+01 1.47043E-01 4.19275E-03 8.24333E-01-2.86505E-14 8.90968E-14
 -1      2410 2.11412E+01 1.97882E-01-2.13127E-03 1.00718E+00-8.37828E-15 7.80978E-14
 -1      2411 2.09154E+01 1.37379E-01 6.53129E-04 6.20920E-01-6.15741E-14 2.47824E-13
 -1      2412 2.10727E+01 1.44357E-01 4.54697E-03 6.82179E-01 5.59667E-14 2.17472E-13
 -1      2413 2.09035E+01 2.02620E-01-1.72296E-03 8.42558E-01-1.46914E-14 1.09826E-13
 -1      2414 2.06986E+01 1.19900E-01 6.32989E-04 4.93840E-01-2.64108E-13 3.08891E-13
 -1      2415 2.08273E+01 1.29773E-01 4.35516E-03 5.48656E-01-1.24089E-13 2.37232E-13
 -1      2416 2.07062E+01 1.86448E-01-1.51298E-03 6.84764E-01-1.18963E-13 3.65508E-13
 -1      2417 2.05239E+01 1.00292E-01 6.01313E-04 3.84423E-01-1.51374E-13 1.59997E-13
 -1      2418 2.06268E+01 1.10683E-01 3.88812E-03 4.31134E-01-2.47670E-13 2.12944E-13
 -1      2419 2.05439E+01 1.61399E-01-1.37180E-03 5.43613E-01-1.60901E-13 1.33674E-13
 -1      2420 2.03854E+01 8.14123E-02 5.53189E-04 2.93480E-01 2.57695E-14 8.00737E-14
 -1      2421 2.04660E+01 9.11245E-02 3.31621E-03 3.31967E-01-7.43805E-14 7.39937E-14
 -1      2422 2.04121E+01 1.34267E-01-1.24135E-03 4.22850E-01-5.25437E-14-1.11337E-13
 -1      2423 2.02774E+01 6.45717E-02 4.92718E-04 2.19859E-01 1.61295E-13 2.20070E-14
 -1      2424 2.03395E+01 7.30881E-02 2.73782E-03 2.50776E-01 1.28576E-13 2.52919E-14
 -1      2425 2.03067E+01 1.08546E-01-1.10362E-03 3.22760E-01 1.24412E-13-2.15516E-13
 -1      2426 2.01948E+01 5.02221E-02 4.26195E-04 1.61521E-01 1.95996E-13-3.94258E-14
 -1      2427 2.02416E+01 5.73973E-02 2.20423E-03 1.85845E-01 1.63875E-13 4.75568E-14
 -1      2428 2.02237E+01 8.58000E-02-9.59032E-04 2.41817E-01 1.80957E-13-2.72800E-13
 -1      2429 2.01325E+01 3.83683E-02 3.59255E-04 1.16152E-01 1.41405E-14 1.61206E-13
 -1      2430 2.01673E+01 4.42463E-02 1.73795E-03 1.34939E-01 9.84054E-14 5.56531E-14
 -1      2431 2.01594E+01 6.65265E-02-8.14202E-04 1.77687E-01 6.96614E-14-1.19050E-13
 -1      2432 2.00866E+01 2.88011E-02 2.95980E-04 8.14824E-02-1.01019E-13 4.21241E-13
 -1      2433 2.01118E+01 3.35132E-02 1.34501E-03 9.57407E-02 6.11070E-14 2.84794E-13
 -1      2434 2.01105E+01 5.06701E-02-6.76137E-04 1.27801E-01-9.78707E-14 2.19578E-13
 -1      2435 2.00534E+01 2.12262E-02 2.38869E-04 5.54505E-02 6.01412E-15 2.62129E-13
 -1      2436 2.00713E+01 2.49347E-02 1.02260E-03 6.60803E-02-2.20410E-14 3.62503E-13
 -1      2437 2.00740E+01 3.79153E-02-5.50046E-04 8.96642E-02 2.40762E-14 2.82242E-13
 -1      2438 2.00300E+01 1.53307E-02 1.89140E-04 3.62616E-02-4.39701E-15-4.34291E-14
 -1      2439 2.00424E+01 1.82006E-02 7.63640E-04 4.40368E-02-3.22272E-14 1.18210E-13
 -1      2440 2.00472E+01 2.78468E-02-4.38918E-04 6.10172E-02 8.68802E-14 1.66707E-13
 -1      2441 2.00140E+01 1.08175E-02 1.47080E-04 2.24022E-02-1.08005E-13-2.45613E-14
 -1      2442 2.00222E+01 1.30019E-02 5.59463E-04 2.79691E-02-5.50699E-14 4.60774E-14
 -1      2443 2.00281E+01 2.00332E-02-3.43839E-04 3.98932E-02-6.06797E-14-3.43540E-15
 -1      2444 2.00035E+01 7.42001E-03 1.12376E-04 1.26247E-02 9.18213E-14-8.28570E-14
 -1      2445 2.00087E+01 9.05440E-03 4.01207E-04 1.65117E-02-5.16958E-14-3.62074E-14
 -1      2446 2.00147E+01 1.40693E-02-2.64521E-04 2.46318E-02-1.74608E-14 6.78799E-14
 -1      2447 1.99969E+01 4.90818E-03 8.43605E-05 5.92109E-03 3.44574E-13-1.22946E-14
 -1      2448 2.00000E+01 6.10846E-03 2.80582E-04 8.55198E-03 2.05570E-13-9.35089E-14
 -1      2449 2.00058E+01 9.59394E-03-1.99798E-04 1.38633E-02 1.58972E-13-4.24393E-14
 -1      2450 1.99932E+01 3.08811E-03 6.21922E-05 1.49006E-03 2.08051E-13-1.15236E-14
 -1      2451 1.99947E+01 3.95118E-03 1.90214E-04 3.19938E-03 3.55166E-13 3.39843E-14
 -1      2452 2.00000E+01 6.29669E-03-1.48030E-04 6.47915E-03 2.86631E-13-6.59036E-14
 -1      2453 1.99914E+01 1.79980E-03 4.49788E-05-1.29456E-03 5.47340E-14 1.02075E-13
 -1      2454 1.99919E+01 2.40512E-03 1.23759E-04-2.47054E-04 1.91640E-13 6.15286E-15
 -1      2455 1.99965E+01 3.91701E-03-1.07389E-04 1.59804E-03 2.01495E-13-3.21472E-14
 -1      2456 1.99909E+01 9.13388E-04 3.18490E-05-2.91419E-03-1.94166E-13 7.50608E-14
 -1      2457 1.99908E+01 1.32509E-03 7.58950E-05-2.33014E-03-1.29461E-13 1.28127E-14
 -1      2458 1.99947E+01 2.24051E-03-7.60517E-05-1.46944E-03-2.65309E-14-1.21675E-13
 -1      2459 1.99912E+01 3.24979E-04 2.19923E-05-3.73249E-03-3.23511E-13 1.10243E-13
 -1      2460 1.99907E+01 5.94139E-04 4.22464E-05-3.46316E-03-1.66200E-13 8.57887E-14
 -1      2461 1.99939E+01 1.09364E-03-5.23162E-05-3.25341E-03-2.14933E-13-6.69245E-14
 -1      2462 1.99920E+01-4.75713E-05 1.46751E-05-4.01870E-03-3.23725E-13 8.41394E-14
 -1      2463 1.99913E+01 1.19246E-04 1.92805E-05-3.95490E-03-4.20211E-13 1.42933E-14
 -1      2464 1.99939E+01 3.37862E-04-3.46610E-05-4.15422E-03-3.04446E-13-4.99725E-14
 -1      2465 1.99931E+01-2.68669E-04 9.24049E-06-3.96716E-03-2.13276E-13 1.93055E-13
 -1      2466 1.99923E+01-1.72764E-04 4.19083E-06-4.03098E-03-2.46144E-13 1.11325E-13
 -1      2467 1.99943E+01-1.36192E-04-2.17729E-05-4.46805E-03-3.02166E-13-2.00776E-13
 -1      2468 1.99942E+01-3.88699E-04 5.10618E-06-3.71332E-03-1.73783E-14 1.77595E-13
 -1      2469 1.99934E+01-3.39141E-04-5.21767E-06-3.85138E-03-1.28527E-13 2.31783E-13
 -1      2470 1.99950E+01-4.14223E-04-1.25527E-05-4.40832E-03-1.59949E-13 1.00743E-13
 -1      2471 1.99954E+01-4.47404E-04 1.76523E-06-3.34637E-03 2.19797E-13 1.62086E-13
 -1      2472 1.99946E+01-4.24760E-04-1.06152E-05-3.52465E-03 9.53586E-14 1.80873E-13
 -1      2473 1.99957E+01-5.63345E-04-6.10839E-06-4.12329E-03 6.78518E-14-1.23843E-15
 -1      2474 1.99964E+01-4.76812E-04-1.17777E-06-2.91907E-03 1.59010E-13 6.57085E-13
 -1      2475 1.99958E+01-4.65347E-04-1.32531E-05-3.11897E-03 1.25378E-13 4.12905E-13
 -1      2476 1.99965E+01-6.36588E-04-1.73999E-06-3.71018E-03 1.39041E-14 3.13676E-13
 -1      2477 1.99974E+01-5.03449E-04-4.00555E-06-2.45550E-03 1.50448E-13 5.59993E-13
 -1      2478 1.99968E+01-4.90249E-04-1.40740E-05-2.67082E-03 1.85844E-13 6.73524E-13
 -1      2479 1.99973E+01-6.76488E-04 1.04045E-06-3.22644E-03 1.46317E-13 4.67133E-13
 -1      2480 1.99982E+01-5.46939E-04-5.95167E-06-1.95700E-03-4.92358E-14 6.11546E-13
 -1      2481 1.99977E+01-5.24512E-04-1.38607E-05-2.19150E-03 1.11798E-13 6.92326E-13
 -1      2482 1.99980E+01-7.16066E-04 3.30542E-06-2.70069E-03 5.39601E-14 4.79799E-13
 -1      2483 1.99989E+01-6.13374E-04-8.01775E-06-1.42063E-03-2.69153E-13 7.39240E-13
 -1      2484 1.99985E+01-5.77002E-04-1.20499E-05-1.67573E-03-1.53990E-13 7.77818E-13
 -1      2485 1.99986E+01-7.78189E-04 6.76101E-06-2.13575E-03-1.29446E-13 5.88253E-13
 -1      2486 1.99991E+01-6.34446E-04-8.54626E-06-1.10026E-03-1.26056E-13 5.99639E-13
 -1      2487 2.00003E+01-3.04526E-03 1.21764E-05-1.60544E-03 3.33104E-13-4.99640E-13
 -1      2488 2.00002E+01-2.77271E-03-1.46357E-06-1.76507E-03 4.46314E-13-6.72543E-13
 -1      2489 2.00005E+01-3.46325E-03 1.25420E-05-1.11925E-03 6.51894E-14-1.82734E-13
 -1      2490 2.00004E+01-3.26428E-03 3.14945E-06-1.36241E-03 2.13123E-13-3.68059E-13
 -1      2491 2.00005E+01-2.98744E-03-7.72002E-06-1.68603E-03 2.78898E-13-5.14925E-13
 -1      2492 1.99997E+01-1.86221E-03 8.75990E-06-1.94697E-03 1.65522E-13 3.76300E-14
 -1      2493 1.99995E+01-1.53101E-03-1.13754E-05-1.87915E-03 5.81555E-15 1.01637E-13
 -1      2494 2.00000E+01-2.49272E-03 1.06656E-05-1.89836E-03 3.27593E-13-1.96404E-13
 -1      2495 1.99998E+01-2.18012E-03-6.28123E-06-1.94834E-03 2.24609E-13 6.53238E-15
 -1      2496 1.99997E+01-1.93680E-03-4.90735E-06-2.23330E-03 9.62569E-14 7.90405E-14
 -1      2497 2.00002E+01-2.50892E-03-5.38235E-06-2.08757E-03 3.04451E-13-2.82433E-13
 -1      2498 2.00006E+01-3.70545E-03 1.18607E-05-5.05940E-04-1.01102E-13-1.33305E-13
 -1      2499 2.00006E+01-3.60099E-03 7.20314E-06-8.00447E-04-7.59335E-14-1.09082E-13
 -1      2500 2.00008E+01-3.33027E-03-9.29741E-06-1.08843E-03-4.28075E-14-2.25304E-13
 -1      2501 2.00007E+01-3.75040E-03 1.00909E-05 1.62687E-04-1.97226E-13-2.02287E-13
 -1      2502 2.00007E+01-3.75161E-03 1.01411E-05-1.48808E-04-1.73971E-13-5.26890E-14
 -1      2503 2.00009E+01-3.50729E-03-1.00724E-05-3.70809E-04-1.06638E-13-1.47666E-13
 -1      2504 2.00006E+01-3.59488E-03 7.28365E-06 8.12888E-04-1.67088E-13-1.46360E-13
 -1      2505 2.00006E+01-3.70178E-03 1.18408E-05 5.19339E-04-9.78341E-14-2.08755E-13
 -1      2506 2.00009E+01-3.50485E-03-1.00066E-05 3.86609E-04-1.32047E-13-1.55159E-13
 -1      2507 2.00004E+01-3.26149E-03 3.32141E-06 1.36342E-03 2.79832E-14-4.12427E-13
 -1      2508 2.00005E+01-3.45814E-03 1.25072E-05 1.12526E-03-5.17861E-14-1.80735E-13
 -1      2509 2.00008E+01-3.32567E-03-9.27571E-06 1.09663E-03 3.73094E-14-1.37392E-13
 -1      2510 2.00002E+01-2.77135E-03-2.12520E-06 1.76619E-03 3.11034E-13 2.77001E-13
 -1      2511 2.00003E+01-3.04292E-03 1.21971E-05 1.60655E-03 1.86196E-13-3.32664E-13
 -1      2512 2.00005E+01-2.98459E-03-7.59002E-06 1.68676E-03 2.11154E-13-1.64586E-13
 -1      2513 1.99998E+01-2.17006E-03-7.13574E-06 1.94156E-03 1.34253E-13 3.59827E-13
 -1      2514 2.00000E+01-2.48448E-03 1.00811E-05 1.89832E-03 1.68335E-13 4.72426E-13
 -1      2515 2.00002E+01-2.50176E-03-6.77978E-06 2.09209E-03 2.15256E-13 1.27034E-13
 -1      2516 1.99995E+01-1.51303E-03-9.48131E-06 1.86527E-03-1.16465E-13-1.62309E-14
 -1      2517 1.99997E+01-1.84981E-03 7.28018E-06 1.94921E-03 3.79344E-14 1.52822E-13
 -1      2518 1.99998E+01-1.91750E-03 3.84387E-06 2.22712E-03-4.05231E-14 1.35482E-13
 -1      2519 1.72177E+01-5.48281E+00-1.59203E-02 6.70010E+00-1.96676E-13 2.74551E-13
 -1      2520 1.40500E+01-5.04397E+00 7.98074E-02 6.56512E+00-2.33896E-13 3.45626E-13
 -1      2521 2.52166E+01-4.91342E+00-8.76618E-02 4.23895E+00 9.94760E-14-2.35673E-13
 -1      2522 2.11113E+01-5.54920E+00 3.79623E-02 5.43774E+00-6.78346E-14-3.71647E-14
 -1      2523 2.38621E+01-5.88599E-01-1.95557E-02-1.37206E-01 1.93599E-14 2.96991E-13
 -1      2524 2.38171E+01-3.72475E-01 1.77052E-02-3.24493E-01 5.49456E-14 2.88189E-13
 -1      2525 2.38196E+01-9.30149E-01-1.34431E-02-1.31372E-01 2.49622E-14 1.93180E-13
 -1      2526 1.99993E+01-9.80488E-04-7.09723E-06 1.37642E-03 4.13679E-14 3.70906E-14
 -1      2527 3.25400E+00-2.77599E+00 4.30940E-02-1.68879E+00-1.65493E-14 8.89566E-13
 -1      2528 4.58968E+00-3.24830E+00 7.81528E-02-3.92961E+00 2.77278E-14 1.13748E-12
 -1      2529 2.25506E+01 1.71645E+00-1.21640E-02-1.12610E+00-2.66740E-13-1.32274E-13
 -1      2530 2.26283E+01 9.01123E-01-1.20593E-02-6.21698E-01-2.24709E-13-9.10696E-14
 -1      2531 2.23355E+01 9.52917E-01 6.54633E-03-5.18228E-01-1.85495E-13-1.57710E-13
 -1      2532 2.18811E+01 2.11251E+00-9.28027E-03-9.76138E-01-2.48604E-13-2.13258E-13
 -1      2533 3.15885E+01 2.39687E+00-5.20020E-02 4.56230E-01-4.34819E-13-2.42417E-13
 -1      2534 3.22238E+01 4.50289E+00-1.62669E-01 9.51314E-01-5.60912E-13-2.96430E-13
 -1      2535 3.10291E+01 5.46311E-01-1.59179E-01 2.36759E-01-6.03503E-13 3.53051E-14
 -1      2536 2.94144E+01-1.40968E+00-1.43614E-02 1.52003E+00-4.57405E-13 3.49720E-15
 -1      2537 5.68815E+00-2.23335E+00 1.03970E-01-3.78727E+00-3.37924E-14-8.20011E-13
 -1      2538 8.25158E+00-3.31094E+00 7.78710E-02-5.67745E+00-2.10942E-15-7.14873E-13
 -1      2539 3.32018E+01 6.44915E+00-1.38349E-01-8.94801E-01 8.55260E-13-3.12347E-13
 -1      2540 3.26278E+01 5.19239E+00-1.03314E-01-1.27158E+00 8.49432E-13-3.01120E-13
 -1      2541 1.62536E+01 4.12852E+00-1.49038E-02 5.54841E-01 1.19321E-13-4.86449E-13
 -1      2542 1.66681E+01 4.02269E+00 6.97946E-03 5.58787E-01 8.52872E-14-4.94099E-13
 -1      2543 1.69571E+01 3.54502E+00-8.59710E-04 7.32234E-01 7.86008E-14-4.57507E-13
 -1      2544 1.60792E+01 3.95975E+00 6.16716E-03 6.09088E-01 1.31030E-13-4.70281E-13
 -1      2545 3.21284E+01 7.20334E+00-1.58215E-01 3.42386E-01 7.99749E-13-1.91902E-13
 -1      2546 3.30497E+01 7.17570E+00-1.03682E-01-3.69848E-01 8.33000E-13-2.42577E-13
 -1      2547 3.06419E+01 6.40994E+00-7.22097E-02-9.44531E-01 7.99860E-13-2.35451E-13
 -1      2548 1.81193E+01-5.24699E+00-5.13451E-03-6.26082E+00 1.91513E-14-5.69621E-13
 -1      2549 2.17690E+01-5.04651E+00-7.77292E-02-5.62272E+00 4.56857E-14-4.42202E-13
 -1      2550 3.22553E+01 2.62127E+00-1.68406E-01-1.10349E+00 6.92668E-13-3.91132E-13
 -1      2551 3.14892E+01 6.52736E-01-7.93560E-02-3.52466E-01 6.38947E-13-3.95073E-13
 -1      2552 3.05906E+01-9.10220E-02-1.22665E-01 4.00657E-01 3.51399E-13-6.57252E-14
 -1      2553 3.18312E+01 1.92980E+00-1.39289E-01 9.52998E-01 4.62727E-13-1.10412E-13
 -1      2554 3.01719E+01 2.64518E+00-1.89385E-02 2.22388E+00 4.25743E-13 5.22082E-14
 -1      2555 1.34351E+01-4.34066E+00-1.40275E-03 7.07684E+00 1.28786E-14-5.47840E-13
 -1      2556 1.01870E+01-3.89714E+00 8.07855E-02 6.35261E+00 9.61731E-14-6.31467E-13
 -1      2557 1.09947E+01-4.48180E+00 9.99492E-03-6.36080E+00-1.02141E-14-6.19865E-13
 -1      2558 1.46563E+01-4.83396E+00-1.85267E-03-6.87825E+00 3.81362E-14-6.34874E-13
 -1      2559 1.77493E+01-4.82084E+00 9.95717E-02-6.31658E+00-1.04250E-13-5.11181E-13
 -1      2560 3.82256E+00-1.37040E+00 1.28789E-01 6.57001E-01 8.17228E-14-9.09273E-13
 -1      2561 3.90451E+00-1.63517E+00 1.08763E-01-1.56293E+00 6.95555E-14-9.04443E-13
 -1      2562 3.25798E+01 6.62694E+00-8.67630E-02 8.28015E-01-6.91003E-13-2.92488E-13
 -1      2563 3.25962E+01 7.40457E+00-1.39213E-01 3.66198E-01-7.39464E-13-2.80984E-13
 -1      2564 2.09559E+01-4.72577E+00-1.43709E-02 6.14574E+00-1.06026E-13-3.01988E-13
 -1      2565 1.73790E+01-4.89160E+00 2.92518E-02 6.55438E+00-2.77556E-16-4.00959E-13
 -1      2566 2.69724E+01-3.35741E+00-9.67341E-02 3.63019E+00-3.11418E-13-9.84490E-14
 -1      2567 2.38372E+01-4.41956E+00-1.57876E-02 4.74436E+00-1.78801E-13-1.77858E-13
 -1      2568 2.33104E+01-4.71941E+00 9.36975E-02 4.74023E+00 6.08402E-14-9.53126E-14
 -1      2569 3.18210E+01 4.55189E+00-1.78256E-01-1.04430E+00-7.36328E-13-1.06110E-13
 -1      2570 3.15357E+01 3.02126E+00-7.28940E-02-8.81973E-01-6.85674E-13-3.27238E-14
 -1      2571 3.24036E+01 7.42858E+00-1.32881E-01-3.14861E-01-7.65776E-13-2.25590E-13
 -1      2572 3.21258E+01 6.55487E+00-1.06803E-01-8.17570E-01-8.04246E-13-1.59955E-13
 -1      2573 2.90722E+01-1.85375E+00-1.03881E-02-1.74926E+00-2.06609E-13-1.65923E-13
 -1      2574 3.07035E+01-2.05018E-01-1.38219E-01-7.82836E-01-3.02348E-13-2.36450E-13
 -1      2575 2.28533E+01-4.90174E+00 2.67282E-02-5.12018E+00-1.06609E-13-1.09274E-13
 -1      2576 2.67116E+01-3.69719E+00-8.89791E-02-3.86462E+00-1.42802E-13-8.67362E-14
 -1      2577 1.54012E+01-5.29545E+00 6.23602E-02-6.75540E+00 9.18154E-14 2.65898E-13
 -1      2578 1.87866E+01-5.37285E+00-6.52048E-02-6.72193E+00-5.95635E-14-8.44914E-14
 -1      2579 3.05942E+01-1.43380E+00-9.62253E-02 9.55162E-01 4.84760E-13-4.33154E-13
 -1      2580 2.82228E+01-3.26209E+00-2.09613E-02 1.93774E+00 2.51181E-13-3.97238E-13
 -1      2581 3.00864E+01-9.40839E-01-5.61168E-03-8.72156E-01 3.92415E-13-5.56111E-13
 -1      2582 2.35662E+01 7.58006E-01-7.22399E-03 2.25319E-01 3.09754E-13 3.69379E-13
 -1      2583 2.37182E+01 1.16559E+00-5.67244E-03 7.03226E-01 3.37137E-13 4.38320E-13
 -1      2584 2.31734E+01 1.62374E+00-1.86793E-02 8.02278E-01 3.69145E-13 3.09214E-13
 -1      2585 2.30542E+01 8.69271E-01-1.49623E-02 9.43910E-02 2.99948E-13 2.18533E-13
 -1      2586 5.36416E+00-2.59252E+00 1.05432E-01 3.61536E+00-9.43690E-14 6.19005E-13
 -1      2587 3.84848E+00-2.26858E+00 1.38454E-01 9.04974E-01-1.35867E-13 7.54452E-13
 -1      2588 1.94796E+01 2.54954E+00-7.08299E-03 2.04155E-01-6.72299E-14-4.01764E-13
 -1      2589 1.96070E+01 2.93514E+00-1.46744E-02-9.04305E-02-8.93738E-14-4.24024E-13
 -1      2590 2.02292E+01 2.76928E+00-1.46880E-02-3.46468E-01-1.44962E-13-3.86406E-13
 -1      2591 2.33495E+01-3.60130E-01-1.38612E-02-4.70128E-01 8.96403E-14 1.46199E-13
 -1      2592 2.23587E+01 2.04986E+00-1.31344E-02 6.63650E-01 3.68788E-13 1.30954E-13
 -1      2593 8.27163E+00-2.08186E+00 1.61438E-01 4.13119E+00-2.76237E-13 5.76234E-13
 -1      2594 1.42896E+01-4.67600E+00 1.23415E-01-6.84506E+00 2.59182E-13 3.78628E-13
 -1      2595 2.20975E+01-5.20730E+00 8.09338E-02-5.31303E+00 1.04444E-13-1.89709E-13
 -1      2596 3.01700E+01 6.53865E-01-2.19218E-02 8.69592E-01-2.68091E-13-3.53606E-13
 -1      2597 3.01769E+01 5.77268E+00-9.34701E-02 1.14775E+00 6.63913E-13 2.29122E-14
 -1      2598 2.77474E+01-3.35435E+00 1.62493E-02-2.03893E+00-4.60326E-14-3.03646E-13
 -1      2599 3.05220E+01 7.09963E+00-8.65570E-02 3.03993E-02-7.33302E-13-2.82767E-13
 -1      2600 7.49506E+00-3.00177E+00 1.18261E-01-4.86981E+00 2.22600E-13 9.57290E-13
 -1      2601 1.37444E+01-4.08929E+00 1.33976E-01 6.23465E+00-3.39839E-13 2.63650E-13
 -1      2602 1.99990E+01-8.22754E-04-1.07539E-05 1.63131E-03-8.06509E-14 7.83591E-15
 -1      2603 1.99993E+01-1.21935E-03 4.76947E-06 1.81009E-03-8.27129E-14 1.37719E-14
 -1      2604 1.99992E+01-1.32994E-03-3.35374E-06 2.15945E-03-1.84651E-13 1.03941E-13
 -1      2605 1.99987E+01-8.00602E-04-1.33281E-05 1.90138E-03-1.60757E-13 8.52099E-14
 -1      2606 1.99991E+01-8.62374E-04-3.50131E-06-1.50672E-03-1.06357E-13 4.83797E-13
 -1      2607 2.69906E+01-4.39892E+00 3.48379E-02 2.24316E+00 4.10089E-14-4.64392E-13
 -1      2608 1.99992E+01-1.11459E-03 1.15793E-06-1.68819E-03-4.79800E-14 3.39604E-13
 -1      2609 2.80282E+01-2.92722E+00 1.54856E-02 1.74930E+00-2.25146E-13 8.47378E-14
 -1      2610 2.07371E+01-5.36658E+00 8.83500E-02 5.49519E+00-2.35867E-13-1.45769E-14
 -1      2611 3.00870E+01 1.13455E+00-4.77878E-02-1.02213E+00-5.27009E-13 4.53804E-14
 -1      2612 3.06507E+01 5.08082E+00-6.86907E-02 1.45238E+00-5.64243E-13-3.34399E-13
 -1      2613 2.21087E+01 1.71299E+00 1.19609E-02 2.56579E-01 3.28513E-13 8.25590E-14
 -1      2614 2.12719E+01 2.33795E+00-1.11135E-02-7.25148E-01-1.99049E-13-2.85154E-13
 -1      2615 1.15038E+01-3.16614E+00 9.95207E-02-5.91720E+00-1.12271E-13-6.24195E-13
 -1      2616 5.53988E+00-1.36925E+00 1.73518E-01-3.12275E-01-1.27153E-13 8.10157E-13
 -1      2617 3.00974E+01-1.57590E+00-3.51114E-02-4.70365E-02 2.62488E-13-7.40519E-14
 -1      2618 2.94854E+01-6.10641E-01-1.00995E-01 1.63907E+00 2.52104E-13 2.88936E-14
 -1      2619 2.86348E+01-2.82292E+00-6.55279E-03-6.36212E-01 1.49367E-13-2.41612E-14
 -1      2620 2.32614E+01-4.98602E+00 1.20545E-01-4.63319E+00-6.66134E-14-2.76720E-13
 -1      2621 2.45095E+01-4.79077E+00 6.37442E-02-4.39808E+00 4.63796E-14-3.19300E-13
 -1      2622 2.61244E+01-4.74054E+00-1.61988E-01-2.69507E+00-1.47243E-14-1.15186E-13
 -1      2623 6.70279E+00-1.06074E+00 1.50041E-01-2.88775E+00-1.94289E-14-8.28088E-13
 -1      2624 9.70232E+00-2.63523E+00 1.49163E-01 5.80058E+00 1.99951E-13-6.72490E-13
 -1      2625 3.08898E+01 3.38204E+00-4.85188E-02-1.93163E+00 6.84841E-13-3.92186E-13
 -1      2626 1.70495E+01-4.34697E+00 1.08501E-01 6.50364E+00 1.86268E-13-3.91041E-13
 -1      2627 5.04377E+00-1.09530E+00 1.71146E-01 1.90153E+00 1.46223E-13-8.88206E-13
 -1      2628 6.00430E+00-7.64645E-02 1.54059E-01 8.47207E-01 1.27103E-13-8.53456E-13
 -1      2629 6.36949E+00-8.07162E-01 6.36759E-02 3.20723E+00 2.06571E-13-7.80431E-13
 -1      2630 3.02634E+01 5.26995E+00-7.37800E-02-1.49535E+00-7.06907E-13-8.09908E-14
 -1      2631 1.99992E+01-1.23170E-03-6.59117E-06-2.05931E-03-6.38766E-14 3.81561E-13
 -1      2632 1.99989E+01-1.01245E-03 5.45581E-06 2.29441E-03-2.62521E-13-3.54027E-14
 -1      2633 2.86184E+01 5.98773E+00-1.75556E-01-6.48973E-01 7.04187E-13-1.11819E-13
 -1      2634 2.89724E+01 5.34177E+00-1.44883E-01-1.60606E+00 7.26308E-13-2.43972E-13
 -1      2635 1.60407E+01 3.71467E+00 6.09656E-03-3.17541E-01 2.02210E-13-4.32852E-13
 -1      2636 1.56494E+01 3.81758E+00-1.25114E-02-1.41855E-01 1.95195E-13-4.38764E-13
 -1      2637 1.54548E+01 3.90068E+00-7.09466E-03 1.98951E-01 1.93166E-13-4.43467E-13
 -1      2638 1.54681E+01 3.88327E+00-1.73938E-03 4.07572E-01 1.66797E-13-4.48293E-13
 -1      2639 1.53910E+01 3.61132E+00 1.89541E-02-2.46730E-02 1.82974E-13-4.38734E-13
 -1      2640 1.89536E+01 2.54404E+00 7.40413E-03-5.81647E-01 2.57387E-13-2.25525E-13
 -1      2641 1.80973E+01 2.81864E+00-1.72379E-02-6.50745E-01 2.39293E-13-2.99888E-13
 -1      2642 2.06972E+01 1.84934E+00 6.75783E-03-3.32010E-01 2.85079E-13-9.70868E-14
 -1      2643 1.98174E+01 2.16507E+00-9.54195E-03-4.69745E-01 2.68806E-13-1.62763E-13
 -1      2644 1.94743E+01 1.86869E+00-5.26254E-03-8.29529E-01 2.27594E-13-1.78824E-13
 -1      2645 2.25798E+01 2.46062E-01-7.48169E-03-5.75094E-01 1.74134E-13 6.39926E-14
 -1      2646 2.25201E+01 6.45066E-01 2.03857E-02-3.94670E-01 2.19410E-13 6.96796E-14
 -1      2647 2.11733E+01 1.88931E+00-3.46347E-03-4.05528E-01-1.65131E-13-2.72397E-13
 -1      2648 2.30102E+01-5.48314E-01-1.23029E-02-6.78572E-01 5.84444E-14 6.94423E-14
 -1      2649 2.28486E+01-1.38096E-01 2.54426E-02-7.08631E-01 1.04282E-13 6.59735E-14
 -1      2650 2.21309E+01 1.29840E-01-1.16285E-02-8.03223E-01 1.50109E-13-2.70183E-16
 -1      2651 2.26343E+01-3.71268E-01 2.72673E-02-1.17545E-02-7.09429E-14-8.92090E-14
 -1      2652 2.27126E+01-7.08063E-01-1.78255E-02-9.73894E-02-6.47802E-14-6.11060E-14
 -1      2653 2.30863E+01-9.55850E-01 1.97114E-02-2.64683E-01-6.53984E-14-3.42751E-14
 -1      2654 2.31897E+01-1.15240E+00-1.77667E-02-4.91295E-01-7.17072E-14-3.87522E-14
 -1      2655 2.27960E+01-9.79637E-01-1.59109E-02 2.86845E-02-6.30890E-14-5.66864E-14
 -1      2656 2.35726E+01-1.22365E+00 8.61155E-03-8.32455E-01-6.29681E-14 1.97889E-14
 -1      2657 2.36264E+01-1.16112E+00-1.65381E-02-1.13403E+00-7.92035E-14 4.93342E-14
 -1      2658 2.35214E+01-1.44424E+00-1.19018E-02-4.55392E-01-4.50425E-14-1.10372E-16
 -1      2659 2.38776E+01-9.04968E-01-1.18808E-02-1.54475E+00-9.91290E-14 8.88898E-14
 -1      2660 2.38173E+01-4.76026E-01-8.80886E-03-1.75539E+00-1.13664E-13 7.88182E-14
 -1      2661 2.41809E+01-1.29192E+00-5.55283E-03-1.23380E+00-7.42934E-14 7.98007E-14
 -1      2662 2.38153E+01 1.43538E-01-3.35112E-02-1.99514E+00-1.70030E-13 7.27057E-14
 -1      2663 2.36664E+01 8.96700E-01 1.73389E-02-1.91683E+00-2.51323E-13 4.41470E-14
 -1      2664 2.44924E+01-2.54787E-01-1.32776E-02-1.95391E+00-1.73402E-13 1.09551E-13
 -1      2665 2.33799E+01 1.58434E+00-6.30645E-02-1.61873E+00-2.52064E-13 2.21225E-14
 -1      2666 2.32855E+01 2.25622E+00 9.68829E-03-1.18345E+00-2.47651E-13 1.88677E-14
 -1      2667 2.42882E+01 1.61872E+00 8.44120E-04-2.02994E+00-2.55174E-13 1.31064E-13
 -1      2668 2.30539E+01 2.62719E+00-4.65786E-02-3.76427E-01-3.06536E-13-7.11874E-14
 -1      2669 2.30810E+01 2.67630E+00-2.86366E-02 2.86831E-01-2.95129E-13-7.34799E-14
 -1      2670 2.39620E+01 3.11664E+00 2.09352E-02-9.91475E-01-3.35960E-13 3.51785E-14
 -1      2671 2.31930E+01 2.40500E+00 1.39555E-04 1.09381E+00-2.37525E-13-1.23762E-13
 -1      2672 2.32969E+01 1.82369E+00-5.24568E-02 1.61503E+00-1.96645E-13-1.49632E-13
 -1      2673 2.38721E+01 3.09240E+00-3.79882E-02 7.56170E-01-2.97876E-13-2.63782E-14
 -1      2674 2.35733E+01 1.10239E+00 2.01163E-02 1.96787E+00-2.14053E-13-1.87158E-13
 -1      2675 2.36678E+01 2.96624E-01-5.15094E-02 2.08721E+00-1.52831E-13-2.63849E-13
 -1      2676 2.42083E+01 1.76890E+00-2.43809E-03 1.99860E+00-2.36075E-13-2.01845E-13
 -1      2677 2.37656E+01-3.61097E-01 1.00296E-02 1.90543E+00-1.27184E-13-3.21639E-13
 -1      2678 2.37811E+01-9.09139E-01-2.11497E-02 1.69010E+00-9.90861E-14-3.56240E-13
 -1      2679 2.43746E+01-9.53430E-02 9.71976E-03 2.13722E+00-2.07894E-13-2.86420E-13
 -1      2680 2.35591E+01-1.26136E+00-1.05123E-02 1.24184E+00-5.56808E-14-3.66781E-13
 -1      2681 2.34721E+01-1.43971E+00 7.85875E-04 8.79239E-01-4.29766E-14-3.32311E-13
 -1      2682 2.41222E+01-1.35145E+00-2.88627E-03 1.39066E+00-8.03494E-14-2.86509E-13
 -1      2683 2.30705E+01-1.47579E+00-1.70148E-02 4.28595E-01-5.35247E-14-3.07443E-13
 -1      2684 2.29025E+01-1.39076E+00 1.18488E-02 8.20679E-02-2.66755E-14-2.87379E-13
 -1      2685 2.34492E+01-1.79295E+00-8.96324E-03 4.24194E-01-3.44862E-14-2.77100E-13
 -1      2686 2.24803E+01-1.24751E+00-1.38489E-02-2.44723E-01-4.86156E-14-2.79157E-13
 -1      2687 2.22799E+01-1.05060E+00 1.35974E-02-5.01041E-01-1.19205E-13-2.01556E-13
 -1      2688 2.26356E+01-1.60338E+00-1.36665E-02-3.50996E-01-4.91746E-14-3.11583E-13
 -1      2689 2.19279E+01-8.55457E-01-8.68047E-03-6.90504E-01-1.37901E-13-1.31484E-13
 -1      2690 2.17347E+01-6.50952E-01 1.11853E-02-8.46601E-01-1.24973E-13-1.32485E-13
 -1      2691 2.19007E+01-1.14763E+00-1.40776E-02-8.37685E-01-7.04870E-14-1.15972E-13
 -1      2692 2.14743E+01-4.73826E-01-4.40589E-03-9.29667E-01-7.85782E-14-5.10849E-14
 -1      2693 2.13057E+01-3.08451E-01 7.77171E-03-1.00238E+00-5.89136E-14-2.32467E-14
 -1      2694 2.13324E+01-6.70949E-01-1.12339E-02-1.08109E+00-4.03463E-14-2.60469E-15
 -1      2695 2.11262E+01-1.75227E-01-1.48981E-03-1.01395E+00-7.55118E-14 1.52828E-14
 -1      2696 2.09851E+01-6.04780E-02 4.68891E-03-1.02673E+00-8.47591E-15 2.31132E-14
 -1      2697 2.09285E+01-2.83890E-01-7.88258E-03-1.15346E+00-1.51497E-14 7.71731E-14
 -1      2698 2.08662E+01 2.68155E-02 3.22633E-04-9.95054E-01 5.73533E-15-5.31296E-14
 -1      2699 2.07498E+01 9.63400E-02 2.42521E-03-9.69551E-01 1.69309E-14-2.06136E-13
 -1      2700 2.06545E+01-1.35226E-02-5.06178E-03-1.11801E+00-6.79776E-14 5.10542E-14
 -1      2701 2.06719E+01 1.46054E-01 1.37146E-03-9.14805E-01 7.40597E-14-2.28903E-13
 -1      2702 2.05759E+01 1.81437E-01 9.56545E-04-8.67891E-01 1.25075E-13-2.43947E-13
 -1      2703 2.04718E+01 1.51804E-01-3.11270E-03-1.02158E+00-9.53014E-17-1.30857E-13
 -1      2704 2.05245E+01 2.04138E-01 1.93023E-03-8.03366E-01 1.59675E-13-2.83863E-13
 -1      2705 2.04451E+01 2.16318E-01 8.98884E-05-7.47047E-01 1.31405E-13-2.52041E-13
 -1      2706 2.03490E+01 2.37445E-01-1.88251E-03-8.95584E-01 1.23393E-13-1.98787E-13
 -1      2707 2.04102E+01 2.21380E-01 2.15973E-03-6.81195E-01 1.19158E-13-2.19068E-13
 -1      2708 2.03445E+01 2.19187E-01-3.67828E-04-6.23385E-01 8.93859E-14-1.71906E-13
 -1      2709 2.02643E+01 2.68529E-01-1.16212E-03-7.60387E-01 1.68005E-13-3.28133E-13
 -1      2710 2.03200E+01 2.13776E-01 2.17041E-03-5.61270E-01 3.94889E-14-1.98422E-13
 -1      2711 2.02659E+01 2.03608E-01-5.67357E-04-5.06767E-01 2.35586E-14-1.76229E-13
 -1      2712 2.02036E+01 2.65467E-01-7.64637E-04-6.28683E-01 6.12225E-14-7.79162E-14
 -1      2713 2.02480E+01 1.92734E-01 2.04286E-03-4.51124E-01-5.04288E-14-1.18142E-13
 -1      2714 2.02039E+01 1.78891E-01-6.14807E-04-4.02496E-01-6.46321E-14-1.84457E-13
 -1      2715 2.01584E+01 2.43171E-01-5.52986E-04-5.07832E-01-1.37768E-15-1.06215E-13
 -1      2716 2.01903E+01 1.65824E-01 1.83615E-03-3.54500E-01 2.03306E-14-1.51239E-13
 -1      2717 2.01548E+01 1.51013E-01-5.80052E-04-3.12814E-01 7.91779E-14-8.47353E-14
 -1      2718 2.01236E+01 2.11756E-01-4.39327E-04-4.01534E-01 6.72463E-14 1.45885E-15
 -1      2719 2.01442E+01 1.37750E-01 1.59276E-03-2.72640E-01 4.62430E-14-8.74956E-14
 -1      2720 2.01159E+01 1.23556E-01-5.06683E-04-2.38009E-01 1.71425E-14 1.31252E-14
 -1      2721 2.00962E+01 1.77657E-01-3.72797E-04-3.11052E-01 1.20091E-13-5.41120E-15
 -1      2722 2.01076E+01 1.11219E-01 1.34198E-03-2.05224E-01-1.60208E-14 5.96170E-15
 -1      2723 2.00855E+01 9.84724E-02-4.20490E-04-1.77198E-01-6.37762E-14 2.21469E-14
 -1      2724 2.00743E+01 1.44688E-01-3.26565E-04-2.36090E-01 5.39473E-15-5.88035E-14
 -1      2725 2.00789E+01 8.76104E-02 1.10273E-03-1.51040E-01-1.02801E-13 4.66924E-14
 -1      2726 2.00618E+01 7.66602E-02-3.35756E-04-1.28880E-01-5.75900E-14 5.09677E-14
 -1      2727 2.00568E+01 1.14889E-01-2.87958E-04-1.75430E-01-6.70146E-14 4.05110E-14
 -1      2728 2.00566E+01 6.74643E-02 8.86039E-04-1.08441E-01 7.62418E-15 7.43901E-14
 -1      2729 2.00436E+01 5.83663E-02-2.59618E-04-9.12952E-02 5.86013E-14 1.20558E-13
 -1      2730 2.00428E+01 8.91571E-02-2.51945E-04-1.27387E-01-3.05284E-15 5.46744E-14
 -1      2731 2.00395E+01 5.08145E-02 6.97204E-04-7.56471E-02-4.82324E-14-4.44499E-14
 -1      2732 2.00299E+01 4.34587E-02-1.94939E-04-6.26583E-02-6.31052E-14-7.83751E-14
 -1      2733 2.00317E+01 6.76828E-02-2.17231E-04-9.01033E-02-6.04391E-14 4.77142E-14
 -1      2734 2.00268E+01 3.74134E-02 5.37630E-04-5.09221E-02-5.31853E-14-1.22413E-13
 -1      2735 2.00198E+01 3.16056E-02-1.42159E-04-4.12939E-02-1.10564E-13-1.26305E-13
 -1      2736 2.00231E+01 5.02504E-02-1.84074E-04-6.17456E-02-4.82152E-14-9.06241E-14
 -1      2737 2.00173E+01 2.68755E-02 4.06221E-04-3.26811E-02-1.90691E-13-1.24009E-13
 -1      2738 2.00124E+01 2.23896E-02-1.00440E-04-2.57088E-02-1.88494E-13-2.08969E-13
 -1      2739 2.00164E+01 3.64342E-02-1.53177E-04-4.06190E-02-1.99092E-13 2.91617E-14
 -1      2740 2.00105E+01 1.87675E-02 3.00438E-04-1.95386E-02-1.93544E-13-1.92838E-13
 -1      2741 2.00071E+01 1.53762E-02-6.83618E-05-1.46213E-02-1.58715E-13-8.60517E-14
 -1      2742 2.00114E+01 2.57223E-02-1.25185E-04-2.52257E-02-1.95052E-13-1.14231E-13
 -1      2743 2.00057E+01 1.26616E-02 2.17047E-04-1.03228E-02-1.00406E-13-9.07417E-14
 -1      2744 2.00035E+01 1.01539E-02-4.43305E-05-6.96282E-03-3.52344E-14 5.90267E-14
 -1      2745 2.00076E+01 1.75926E-02-1.00501E-04-1.42864E-02-8.46083E-14 3.18979E-15
 -1      2746 2.00025E+01 8.16499E-03 1.52610E-04-4.06944E-03-4.53463E-14 4.55025E-14
 -1      2747 2.00011E+01 6.35445E-03-2.67992E-05-1.86460E-03-3.49673E-16-6.24151E-14
 -1      2748 2.00048E+01 1.15556E-02-7.92637E-05-6.73833E-03-1.01080E-13-2.07866E-13
 -1      2749 2.00003E+01 4.93308E-03 1.03805E-04-3.56850E-06-3.45603E-14-8.65506E-14
 -1      2750 1.99995E+01 3.66097E-03-1.43842E-05 1.36404E-03-1.20043E-13-1.39723E-13
 -1      2751 2.00028E+01 7.17631E-03-6.13945E-05-1.71970E-03-1.25218E-13-2.99681E-13
 -1      2752 1.99990E+01 2.67406E-03 6.76091E-05 2.48449E-03-1.26035E-13-1.18830E-13
 -1      2753 1.99986E+01 1.80875E-03-5.91077E-06 3.26076E-03-1.52975E-14-1.54637E-13
 -1      2754 2.00014E+01 4.08186E-03-4.66590E-05 1.45358E-03-1.01139E-13-2.62200E-13
 -1      2755 1.99983E+01 1.14692E-03 4.13808E-05 3.86421E-03 1.77135E-13-1.66060E-13
 -1      2756 1.99982E+01 5.81573E-04-4.20455E-07 4.23520E-03 1.41904E-13-1.24713E-13
 -1      2757 2.00005E+01 1.96181E-03-3.47301E-05 3.31318E-03 5.41211E-14-2.49840E-13
 -1      2758 1.99980E+01 1.56618E-04 2.28905E-05 4.48914E-03 8.95003E-14-2.26255E-14
 -1      2759 1.99981E+01-1.94107E-04 2.84057E-06 4.59217E-03 6.79804E-14 8.99156E-14
 -1      2760 1.99999E+01 5.63151E-04-2.52402E-05 4.26355E-03 1.76768E-13-2.34399E-13
 -1      2761 1.99979E+01-4.52404E-04 1.03126E-05 4.61886E-03 6.58359E-14 1.40293E-13
 -1      2762 1.99981E+01-6.55986E-04 4.44896E-06 4.55218E-03 7.30288E-14 1.12152E-13
 -1      2763 1.99995E+01-3.16963E-04-1.78324E-05 4.60521E-03 1.08094E-13-1.62707E-13
 -1      2764 1.99981E+01-8.03185E-04 2.19311E-06 4.43789E-03 1.02960E-13 1.27311E-13
 -1      2765 1.99983E+01-9.12867E-04 4.82285E-06 4.26881E-03 2.95556E-13 1.22425E-13
 -1      2766 1.99993E+01-8.39373E-04-1.21770E-05 4.55519E-03 1.30312E-13 7.57203E-15
 -1      2767 1.99983E+01-9.93013E-04-2.61246E-06 4.07147E-03 2.08479E-13 6.77097E-14
 -1      2768 1.99985E+01-1.05068E-03 4.50510E-06 3.84299E-03 2.12113E-14 1.59439E-13
 -1      2769 1.99992E+01-1.13110E-03-7.98075E-06 4.26441E-03 1.66856E-13-2.95946E-15
 -1      2770 1.99985E+01-1.09878E-03-4.91146E-06 3.59967E-03-2.33417E-14 1.01003E-13
 -1      2771 1.99988E+01-1.14032E-03 2.40121E-06 3.33671E-03-4.25033E-14-9.40197E-14
 -1      2772 1.99992E+01-1.29129E-03-4.93195E-06 3.83178E-03-4.67972E-14 1.91129E-14
 -1      2773 1.99988E+01-1.18613E-03-5.54786E-06 3.06075E-03-6.38229E-14-1.35434E-13
 -1      2774 1.99990E+01-1.22083E-03 3.26311E-06 2.76911E-03-9.84682E-14-3.10300E-13
 -1      2775 1.99993E+01-1.40948E-03-5.07992E-06 3.32225E-03-1.27013E-13-3.01674E-13
 -1      2776 2.80205E+01-2.47456E+00-1.70194E-01 3.05581E-01-2.16602E-13 1.84158E-13
 -1      2777 2.65420E+01-3.77963E+00 1.45842E-02 1.95916E+00-2.53131E-14 1.37626E-13
 -1      2778 2.45429E+01-1.82527E+00-2.57023E-02 4.61593E-01-3.31965E-14 1.67046E-13
 -1      2779 2.43144E+01-1.62462E+00 2.64004E-02 1.78430E-02-2.15049E-14 1.58985E-13
 -1      2780 2.52743E+01 2.33381E+00-2.22386E-02 1.96199E+00 3.77254E-13 1.81986E-13
 -1      2781 2.54542E+01 1.17458E+00-1.09133E-01 2.43090E+00 3.53623E-13 2.73151E-13
 -1      2782 2.56466E+01 3.13740E+00-1.08239E-01-1.77846E+00 5.15171E-13-1.52801E-13
 -1      2783 2.55169E+01 3.80388E+00-9.68800E-02-9.42055E-01 4.71970E-13-8.54074E-14
 -1      2784 2.55382E+01-1.59944E+00-3.63079E-02-1.83657E+00 4.68037E-14-2.39934E-13
 -1      2785 2.55380E+01-8.74422E-01-1.15358E-03-2.27305E+00 1.31908E-13-2.23977E-13
 -1      2786 2.47456E+01-2.00616E+00 1.33637E-02-5.59944E-01-3.71669E-14-3.46966E-13
 -1      2787 2.49623E+01-1.91951E+00-2.12203E-02-1.12083E+00 1.90989E-14-2.97478E-13
 -1      2788 2.56688E+01-2.19031E+00-7.49376E-03-1.16366E+00 4.18554E-14-2.54117E-13
 -1      2789 2.37260E+01-1.63293E+00 2.39360E-02 4.98640E-01-1.41121E-14-2.54226E-13
 -1      2790 2.40295E+01-1.89099E+00-2.38759E-02 4.33010E-02-1.62075E-14-2.65881E-13
 -1      2791 2.43177E+01-2.43660E+00-2.39552E-02 1.78479E-01-3.05712E-14-2.61869E-13
 -1      2792 2.28063E+01-1.01265E+00 1.96877E-02 1.13757E+00-3.15494E-14-1.19228E-13
 -1      2793 2.31142E+01-1.33950E+00-1.64051E-02 8.53964E-01-2.07707E-14-1.61809E-13
 -1      2794 2.30339E+01-1.84272E+00-2.78416E-02 1.08536E+00-5.89397E-14-1.11946E-13
 -1      2795 2.21037E+01-4.61750E-01 1.25060E-02 1.42141E+00-1.14676E-13 4.29257E-14
 -1      2796 2.23741E+01-7.27325E-01-8.36653E-03 1.28923E+00-6.97567E-14-6.14034E-14
 -1      2797 2.20695E+01-1.06878E+00-2.20289E-02 1.53066E+00-1.01997E-13 7.92988E-14
 -1      2798 2.16017E+01-7.93418E-02 6.61980E-03 1.47001E+00-2.12223E-13 1.79592E-13
 -1      2799 2.18270E+01-2.53745E-01-2.69350E-03 1.44389E+00-1.27938E-13 1.16422E-13
 -1      2800 2.14281E+01-4.34029E-01-1.43160E-02 1.66100E+00-1.84632E-13 1.45495E-13
 -1      2801 2.12442E+01 1.44967E-01 2.87758E-03 1.38274E+00-1.44380E-13 1.43194E-13
 -1      2802 2.14309E+01 4.81004E-02 7.59108E-04 1.42110E+00-1.85676E-13 1.32514E-13
 -1      2803 2.10245E+01-1.24494E-02-8.04811E-03 1.60841E+00-1.48372E-13 6.82182E-14
 -1      2804 2.09814E+01 2.53210E-01 7.18536E-04 1.22746E+00-8.22926E-14 6.25007E-14
 -1      2805 2.11375E+01 2.10457E-01 2.67946E-03 1.29908E+00-1.40367E-13 8.07768E-14
 -1      2806 2.07700E+01 2.25476E-01-4.11274E-03 1.46070E+00-1.13446E-13 4.50601E-15
 -1      2807 2.07795E+01 2.87665E-01-3.50408E-04 1.04710E+00 2.75469E-15 9.40558E-14
 -1      2808 2.09110E+01 2.78082E-01 3.58921E-03 1.13130E+00 2.34334E-14 1.28445E-13
 -1      2809 2.06017E+01 3.34018E-01-2.02770E-03 1.27161E+00-7.91476E-14-2.38209E-14
 -1      2810 2.06185E+01 2.80265E-01-7.76391E-04 8.66999E-01-6.36659E-14 2.13805E-13
 -1      2811 2.07291E+01 2.88807E-01 3.87797E-03 9.51277E-01-4.24467E-14 7.77087E-14
 -1      2812 2.04815E+01 3.62176E-01-1.05967E-03 1.07306E+00-3.78346E-14 1.25291E-13
 -1      2813 2.04872E+01 2.52087E-01-8.63177E-04 7.00842E-01-9.15653E-14 2.22481E-13
 -1      2814 2.05796E+01 2.69123E-01 3.78528E-03 7.78432E-01-3.16565E-14 2.40914E-13
 -1      2815 2.03887E+01 3.45627E-01-6.79228E-04 8.83269E-01-5.84317E-14 4.38655E-14
 -1      2816 2.03795E+01 2.15855E-01-7.92198E-04 5.54987E-01-9.52639E-14 8.67490E-16
 -1      2817 2.04556E+01 2.35707E-01 3.47313E-03 6.22802E-01-8.58082E-14 1.76283E-13
 -1      2818 2.03130E+01 3.07498E-01-5.65498E-04 7.11829E-01-3.15864E-14 1.29622E-13
 -1      2819 2.02914E+01 1.78680E-01-6.62656E-04 4.31347E-01 5.61718E-14-1.99791E-13
 -1      2820 2.03532E+01 1.98253E-01 3.05289E-03 4.88522E-01-1.23106E-14-8.23188E-14
 -1      2821 2.02497E+01 2.61625E-01-5.47681E-04 5.62894E-01-1.91912E-14 2.63693E-14
 -1      2822 2.02201E+01 1.44185E-01-5.24391E-04 3.29296E-01 1.79155E-13-2.25216E-13
 -1      2823 2.02695E+01 1.61961E-01 2.59846E-03 3.76208E-01 1.47041E-13-1.68423E-13
 -1      2824 2.01966E+01 2.15686E-01-5.46320E-04 4.37268E-01 6.29319E-14-1.85389E-13
 -1      2825 2.01632E+01 1.13949E-01-3.99534E-04 2.46882E-01 1.69702E-13-1.89005E-13
 -1      2826 2.02020E+01 1.29320E-01 2.15559E-03 2.84534E-01 2.00135E-13-2.05413E-13
 -1      2827 2.01523E+01 1.73549E-01-5.31704E-04 3.33796E-01 1.87486E-13-1.46439E-13
 -1      2828 2.01185E+01 8.84098E-02-2.95671E-04 1.81583E-01-1.18396E-13 3.09495E-14
 -1      2829 2.01484E+01 1.01269E-01 1.74999E-03 2.11230E-01 1.56295E-14-1.37373E-13
 -1      2830 2.01158E+01 1.36847E-01-4.98122E-04 2.50291E-01 3.04729E-14-4.72957E-14
 -1      2831 2.00839E+01 6.74081E-02-2.13365E-04 1.30747E-01-8.57165E-14 5.18938E-14
 -1      2832 2.01066E+01 7.79038E-02 1.39384E-03 1.53681E-01-9.88860E-14 5.57435E-14
 -1      2833 2.00864E+01 1.05966E-01-4.49560E-04 1.84124E-01-1.12132E-13-1.01025E-13
 -1      2834 2.00576E+01 5.05012E-02-1.50219E-04 9.18421E-02 8.82481E-14 7.78327E-14
 -1      2835 2.00746E+01 5.88971E-02 1.09068E-03 1.09278E-01-7.89543E-15 5.01737E-14
 -1      2836 2.00631E+01 8.06392E-02-3.92564E-04 1.32594E-01-5.14155E-14-1.67772E-13
 -1      2837 2.00381E+01 3.71376E-02-1.02922E-04 6.25817E-02 8.94105E-14-2.27369E-15
 -1      2838 2.00505E+01 4.37357E-02 8.38937E-04 7.56049E-02 1.65180E-13 8.02425E-14
 -1      2839 2.00449E+01 6.02925E-02-3.33153E-04 9.31402E-02 1.38674E-13-1.65149E-13
 -1      2840 2.00239E+01 2.67518E-02-6.81951E-05 4.09781E-02-2.20581E-14-1.07000E-13
 -1      2841 2.00327E+01 3.18511E-02 6.34185E-04 5.05213E-02 8.13493E-14-2.04332E-14
 -1      2842 2.00311E+01 4.42392E-02-2.75790E-04 6.34554E-02 1.09126E-13-1.84406E-14
 -1      2843 2.00138E+01 1.88133E-02-4.31672E-05 2.53505E-02 2.77455E-14-2.30324E-13
 -1      2844 2.00199E+01 2.26889E-02 4.70704E-04 3.21956E-02-6.07513E-14-2.59122E-13
 -1      2845 2.00207E+01 3.17852E-02-2.23305E-04 4.15316E-02 9.91103E-14-3.13838E-13
 -1      2846 2.00068E+01 1.28483E-02-2.54772E-05 1.43093E-02 2.22502E-13-2.17921E-13
 -1      2847 2.00109E+01 1.57429E-02 3.42407E-04 1.90975E-02 7.84925E-14-2.23375E-13
 -1      2848 2.00131E+01 2.22833E-02-1.77175E-04 2.56690E-02 6.00476E-14-4.55595E-13
 -1      2849 2.00022E+01 8.44815E-03-1.32520E-05 6.72756E-03 2.29770E-13-1.50326E-13
 -1      2850 2.00048E+01 1.05692E-02 2.43399E-04 9.97507E-03 2.92602E-13-1.33406E-13
 -1      2851 2.00077E+01 1.51580E-02-1.37895E-04 1.44607E-02 2.06536E-13-2.03835E-13
 -1      2852 1.99992E+01 5.26880E-03-5.04107E-06 1.70742E-03 2.09431E-13-9.62374E-14
 -1      2853 2.00008E+01 6.78969E-03 1.68282E-04 3.82266E-03 2.70913E-13-1.31132E-13
 -1      2854 2.00039E+01 9.91391E-03-1.05308E-04 6.76430E-03 2.84229E-13-1.58181E-13
 -1      2855 1.99975E+01 3.02618E-03 2.57088E-07-1.45444E-03-8.28265E-14-1.07104E-13
 -1      2856 1.99983E+01 4.08918E-03 1.12306E-04-1.53689E-04 1.08947E-13-5.56274E-15
 -1      2857 2.00014E+01 6.13472E-03-7.88707E-05 1.66900E-03 1.32293E-13-4.01598E-14
 -1      2858 1.99967E+01 1.48975E-03 3.46288E-06-3.29952E-03-1.36334E-13-8.84320E-14
 -1      2859 1.99970E+01 2.20970E-03 7.14050E-05-2.57029E-03-2.44408E-13-4.77561E-14
 -1      2860 1.99998E+01 3.47732E-03-5.78428E-05-1.53912E-03-1.26682E-13 3.27300E-14
 -1      2861 1.99964E+01 4.74963E-04 5.17141E-06-4.23716E-03-3.79773E-13-1.16836E-13
 -1      2862 1.99964E+01 9.43355E-04 4.21879E-05-3.89714E-03-1.53910E-13-1.32988E-15
 -1      2863 1.99988E+01 1.66355E-03-4.14206E-05-3.40984E-03-2.21614E-13 1.10788E-13
 -1      2864 1.99965E+01-1.64228E-04 5.80155E-06-4.57024E-03-2.12003E-13-2.38979E-13
 -1      2865 1.99962E+01 1.24731E-04 2.18847E-05-4.48573E-03-3.07659E-13-1.79589E-13
 -1      2866 1.99983E+01 4.70933E-04-2.88195E-05-4.35861E-03-2.45129E-13 3.44059E-14
 -1      2867 1.99968E+01-5.42533E-04 5.63243E-06-4.51694E-03-4.72296E-14-2.08442E-13
 -1      2868 1.99964E+01-3.76523E-04 8.28001E-06-4.59276E-03-2.38831E-13-2.36772E-13
 -1      2869 1.99981E+01-2.76496E-04-1.93176E-05-4.69265E-03-1.65104E-13-2.00999E-13
 -1      2870 1.99972E+01-7.49896E-04 4.85514E-06-4.22875E-03-1.11592E-14-9.62806E-14
 -1      2871 1.99968E+01-6.62613E-04-3.69157E-07-4.39996E-03 3.76658E-14-1.70137E-13
 -1      2872 1.99982E+01-7.16982E-04-1.23001E-05-4.63298E-03-9.06733E-14-2.17231E-13
 -1      2873 1.99977E+01-8.57296E-04 3.60783E-06-3.80494E-03 6.98867E-14-1.07941E-13
 -1      2874 1.99973E+01-8.13829E-04-5.35112E-06-4.03026E-03 7.62119E-15-5.80149E-14
 -1      2875 1.99983E+01-9.59016E-04-7.25251E-06-4.33277E-03 1.83599E-14-2.31307E-13
 -1      2876 1.99981E+01-9.21554E-04 1.57296E-06-3.30444E-03 6.20277E-14 1.67884E-13
 -1      2877 1.99978E+01-8.94070E-04-7.75305E-06-3.56071E-03 3.57136E-14 8.56620E-14
 -1      2878 1.99985E+01-1.08807E-03-3.75084E-06-3.89239E-03-7.45675E-14-4.05864E-13
 -1      2879 1.99986E+01-9.86470E-04-3.15027E-06-2.75436E-03-2.24308E-13 5.06476E-13
 -1      2880 1.99983E+01-9.55212E-04-9.39898E-06-3.03139E-03-4.24487E-14 2.89575E-13
 -1      2881 1.99988E+01-1.17049E-03-3.44371E-07-3.37200E-03-1.39964E-13-1.44757E-14
 -1      2882 1.99990E+01-1.12671E-03-6.83399E-06-2.26428E-03-6.84300E-14 4.46675E-13
 -1      2883 1.99987E+01-1.08171E-03-1.16255E-05-2.56630E-03-1.45539E-13 3.71262E-13
 -1      2884 1.99991E+01-1.29438E-03 9.29651E-06-2.88451E-03-1.49607E-13 2.41747E-13
 -1      2885 1.99994E+01-1.49498E-03 1.20485E-05-2.45191E-03-1.36429E-13 1.61268E-13
 -1      2886 2.76097E+01-3.87462E+00-1.38535E-01 7.61201E-01 4.53006E-14-5.98022E-13
 -1      2887 2.56073E+01-4.78215E+00 1.00201E-01 2.50660E+00-1.28467E-13-5.02209E-13
 -1      2888 2.00013E+01-3.32819E-03 7.27736E-06-2.11597E-04-8.30039E-14-2.22865E-13
 -1      2889 2.00013E+01-3.28833E-03 4.32508E-06-6.00032E-04 5.86095E-15-2.42946E-13
 -1      2890 1.99990E+01-1.26671E-03-9.06722E-06 2.58219E-03-6.98409E-14-1.92204E-13
 -1      2891 1.99992E+01-1.29858E-03-3.60533E-06 2.36338E-03-1.57434E-13-1.15271E-14
 -1      2892 1.99994E+01-1.47390E-03 1.30808E-05 2.84132E-03-5.03126E-14-3.16513E-13
 -1      2893 2.00009E+01-2.92875E-03 1.15162E-05-1.72147E-03 2.40038E-13-6.33899E-13
 -1      2894 2.00007E+01-2.74014E-03-2.88739E-06-1.98718E-03 3.54981E-13-5.75185E-13
 -1      2895 2.00013E+01-3.28436E-03 4.40050E-06 6.17695E-04-2.16449E-14 2.27047E-14
 -1      2896 2.00013E+01-3.32676E-03 7.29258E-06 2.29892E-04-9.79827E-14-3.79692E-14
 -1      2897 2.00017E+01-3.17896E-03-7.98642E-06 1.03735E-05-1.99417E-16-1.78064E-13
 -1      2898 2.00012E+01-3.20727E-03 9.73935E-06-1.02001E-03 1.27000E-13-2.60310E-13
 -1      2899 2.00011E+01-3.08854E-03 7.10537E-07-1.36725E-03 2.05758E-13-3.42909E-13
 -1      2900 2.00013E+01-2.88360E-03-7.21065E-06-1.68369E-03 3.62274E-13-6.03186E-13
 -1      2901 2.00016E+01-3.10569E-03-7.77336E-06-8.81224E-04 1.81457E-13-3.16099E-13
 -1      2902 2.00011E+01-3.08471E-03 8.68823E-07 1.36990E-03 6.45909E-14-2.18327E-13
 -1      2903 2.00012E+01-3.20280E-03 9.73190E-06 1.02967E-03-2.39712E-14-5.45589E-14
 -1      2904 2.00016E+01-3.10166E-03-7.67569E-06 8.93303E-04 4.20823E-14-1.15746E-13
 -1      2905 2.00007E+01-2.73677E-03-3.49026E-06 1.98889E-03 2.32761E-13-5.36971E-14
 -1      2906 2.00009E+01-2.92394E-03 1.17748E-05 1.72306E-03 7.61147E-14-1.62575E-13
 -1      2907 2.00013E+01-2.87846E-03-6.64817E-06 1.68660E-03 4.33176E-14-6.42748E-14
 -1      2908 2.00002E+01-2.27427E-03-1.26919E-05 2.39782E-03 1.44348E-13 2.06572E-14
 -1      2909 2.00005E+01-2.50639E-03 1.59548E-05 2.23332E-03 2.38805E-13 7.07234E-14
 -1      2910 2.00008E+01-2.51587E-03-4.74366E-06 2.30743E-03 1.22771E-15 8.99598E-14
 -1      2911 1.99994E+01-1.57001E-03-7.15861E-06 2.43502E-03-6.44679E-14-2.28181E-15
 -1      2912 2.86777E+01 1.58345E+00-2.36119E-01-1.79083E+00-4.74801E-13 6.61138E-14
 -1      2913 2.88876E+01-3.03353E-01-2.78329E-02-1.15112E+00-3.64084E-13 1.59261E-13
 -1      2914 2.19099E+01 1.07646E+00-9.97279E-03-3.63364E-01-1.74054E-13-2.07818E-13
 -1      2915 2.21189E+01 6.34459E-01 1.28440E-02-1.86441E-01-1.39423E-13-1.74148E-13
 -1      2916 2.22064E+01 2.04555E-01-1.09552E-02-7.22688E-02-1.14686E-13-1.45817E-13
 -1      2917 2.09619E+01 1.52322E+00 1.88059E-03-3.95776E-02-9.91500E-14-2.74844E-13
 -1      2918 1.61514E+01-4.28155E+00 2.64346E-02 6.16893E+00-3.71633E-13 1.74194E-13
 -1      2919 1.31024E+01-3.12376E+00 1.18782E-01 5.73886E+00-3.62391E-13 2.22128E-13
 -1      2920 2.89804E+01-5.13346E-01-1.76875E-01-1.78064E+00 3.20140E-13-5.02043E-13
 -1      2921 2.86335E+01-2.08558E+00-3.61231E-02-1.01855E+00 1.67026E-13-5.71071E-13
 -1      2922 2.89914E+01 3.83505E+00-7.84437E-02 2.00507E+00-4.99073E-13-3.75894E-13
 -1      2923 2.88976E+01 5.44532E+00-2.13040E-01 1.46224E+00-6.17867E-13-3.27419E-13
 -1      2924 2.22883E+01-5.41638E+00-1.06728E-01 4.62538E+00-2.14065E-13-2.89897E-13
 -1      2925 1.93535E+01-4.83906E+00 1.36297E-01 5.54350E+00-3.74659E-13 4.89643E-14
 -1      2926 7.17935E+00-3.76111E-01 1.29064E-01 5.44742E-01-1.59130E-13 6.25222E-13
 -1      2927 6.94443E+00-6.80747E-01 1.89665E-01-2.02388E+00-6.57391E-14 7.85955E-13
 -1      2928 2.36858E+01-1.32442E+00-2.12286E-02-3.47663E-01 1.23946E-14 9.78367E-14
 -1      2929 2.34536E+01-9.31302E-01 2.87273E-02-5.96207E-01 1.42383E-14 9.35029E-14
 -1      2930 2.27535E+01-8.64305E-01-2.12012E-02-9.13991E-01 3.03025E-14-2.86013E-15
 -1      2931 2.37462E+01-1.81570E+00-3.02423E-02-5.47469E-01-3.68790E-14 6.76563E-14
 -1      2932 2.55810E+01 8.17103E-02-5.15538E-03 2.41223E+00 2.45876E-13 2.81443E-13
 -1      2933 2.56379E+01-8.98328E-01-5.70368E-02 2.21812E+00 1.19674E-13 2.57282E-13
 -1      2934 2.65014E+01 7.07188E-01-3.74226E-02 2.57519E+00 3.07941E-13 2.85154E-13
 -1      2935 2.53504E+01-1.51406E+00-9.35298E-03 1.56979E+00 5.67736E-14 2.14039E-13
 -1      2936 2.52057E+01-1.81095E+00 4.35151E-03 1.08120E+00 6.01927E-15 2.16585E-13
 -1      2937 2.50045E+01-2.28508E+00-3.07953E-02 4.06579E-01-2.50366E-14 1.59956E-13
 -1      2938 7.32276E+00 2.11088E-01 1.59801E-01-1.58626E+00 3.46737E-14-7.74297E-13
 -1      2939 9.01368E+00-4.72762E-01 1.29092E-01-3.70940E+00-5.26731E-14-7.11431E-13
 -1      2940 1.91624E+01-4.19127E+00-2.86646E-02 5.80525E+00 2.59862E-13-1.94837E-13
 -1      2941 1.61517E+01-3.19446E+00 1.81993E-01 6.03430E+00 3.22381E-13-3.53217E-13
 -1      2942 2.20416E+01 1.34301E+00-4.06079E-03-5.10064E-02 2.92559E-13 4.48270E-14
 -1      2943 1.16046E+01-2.01747E+00 1.27069E-01-5.39651E+00-1.02113E-13-5.95635E-13
 -1      2944 1.43072E+01-3.32802E+00 9.25951E-02-6.17251E+00-1.04028E-13-5.20653E-13
 -1      2945 2.90331E+01 3.79762E+00-2.02679E-01-2.16441E+00 6.79179E-13-3.34288E-13
 -1      2946 2.90876E+01 1.85076E+00-9.35259E-02-2.41879E+00 5.23859E-13-4.20927E-13
 -1      2947 1.73096E+01 3.21011E+00 1.07352E-02-6.09049E-01 2.34445E-13-3.53375E-13
 -1      2948 1.65998E+01 3.41619E+00-1.99677E-02-5.46142E-01 2.11655E-13-4.07175E-13
 -1      2949 1.62173E+01 3.24820E+00 1.00177E-02-6.43078E-01 1.91415E-13-4.08269E-13
 -1      2950 1.76961E+01 2.59736E+00-2.46106E-03-9.15171E-01 1.99423E-13-3.03380E-13
 -1      2951 1.20731E+01-2.36228E+00 1.45972E-02 6.04353E+00 2.78999E-13-5.59941E-13
 -1      2952 9.15793E+00-1.18406E+00 2.19862E-01 4.76581E+00 2.76112E-13-6.73156E-13
 -1      2953 1.08321E+01-1.84610E+00 1.22925E-01 4.85794E+00-3.21396E-13 3.28459E-13
 -1      2954 8.82141E+00-8.32541E-01 1.34212E-01 3.11974E+00-2.59237E-13 4.86500E-13
 -1      2955 2.81518E+01 1.68858E+00-9.75091E-02 2.36255E+00 3.94393E-13 1.74354E-13
 -1      2956 2.78214E+01 2.89408E+00-2.30383E-01 2.28203E+00 4.73455E-13 1.89473E-13
 -1      2957 1.79337E+01 2.68473E+00-1.67737E-02 9.11668E-01 5.76368E-14-4.09260E-13
 -1      2958 1.86596E+01 2.45829E+00 1.00286E-02 7.65174E-01 1.70311E-14-4.05077E-13
 -1      2959 1.67971E+01-4.10606E+00 9.02848E-02-6.04463E+00-1.48853E-13-4.60992E-13
 -1      2960 1.97188E+01-4.66788E+00 1.88915E-02-5.64436E+00-1.55084E-13-3.80057E-13
 -1      2961 1.67780E+01-3.21525E+00 1.31298E-01-5.54993E+00-1.53516E-13-4.42785E-13
 -1      2962 8.02022E+00-1.63190E+00 1.10963E-01-4.08308E+00 2.04434E-13 7.96863E-13
 -1      2963 1.04304E+01-2.83514E+00 8.79362E-02-5.84270E+00 3.50164E-13 6.92918E-13
 -1      2964 2.64744E+01-4.22676E+00 6.37178E-02-2.31633E+00 4.09672E-14-3.20077E-13
 -1      2965 2.78836E+01-3.01555E+00-1.73880E-01-7.17521E-01-1.66672E-14-3.90146E-13
 -1      2966 2.84175E+01 5.42200E+00-2.20818E-01-1.33769E+00-7.10265E-13-6.90628E-14
 -1      2967 2.86288E+01 4.02802E+00-7.67923E-02-2.02841E+00-6.35020E-13 1.53211E-14
 -1      2968 2.50307E+01-4.58617E+00-7.57581E-02 3.36897E+00 5.09731E-14 6.50383E-14
 -1      2969 2.27306E+01-4.55212E+00 7.49721E-02 4.46351E+00 1.54543E-13-2.17049E-14
 -1      2970 2.59743E+01-3.83360E+00 2.65651E-02 1.78918E+00 7.81736E-14 1.31124E-13
 -1      2971 1.33731E+01-3.63250E+00 1.34357E-01-6.28190E+00 4.24938E-13 4.36193E-13
 -1      2972 1.68943E+01-4.55575E+00-3.34371E-02-6.42045E+00 3.74090E-13 3.59851E-14
 -1      2973 1.37071E+01-2.58490E+00 1.45214E-01-5.58958E+00 4.17763E-13 3.87412E-13
 -1      2974 2.81306E+01 4.59804E+00-1.49080E-01 1.62715E+00 5.57915E-13 1.34552E-13
 -1      2975 2.82724E+01 5.72786E+00-1.97624E-01 4.40048E-01 6.49564E-13 2.32887E-14
 -1      2976 2.70885E+01 4.96122E+00-1.16533E-01-9.15288E-02 5.71543E-13 3.05658E-15
 -1      2977 2.65795E+01 3.51135E+00-8.01169E-02 1.90777E+00 4.85362E-13 1.89640E-13
 -1      2978 2.87610E+01 6.49148E+00-1.60724E-01 6.68005E-01-6.71074E-13-3.09718E-13
 -1      2979 2.85027E+01 6.56197E+00-1.56639E-01-4.44091E-01-7.18786E-13-2.18586E-13
 -1      2980 2.87772E+01-7.66573E-01 2.89492E-03 1.02532E+00-1.18627E-13-4.07341E-13
 -1      2981 2.87766E+01 1.10366E+00-2.26184E-01 1.72727E+00-2.52701E-13-3.86205E-13
 -1      2982 2.07464E+01-5.10821E+00 1.19919E-01-5.47048E+00 2.11678E-13-2.40100E-13
 -1      2983 2.38124E+01-5.24321E+00-1.12156E-01-4.26401E+00 8.09491E-14-2.90698E-13
 -1      2984 9.15592E+00-3.52650E-01 1.64403E-01 3.78393E+00 2.64719E-13-6.87228E-13
 -1      2985 1.54352E+01 3.54234E+00 1.67997E-02 6.71530E-01 1.62386E-13-4.42055E-13
 -1      2986 1.56797E+01 3.72371E+00-1.71936E-02 7.16932E-01 1.54631E-13-4.56065E-13
 -1      2987 1.60808E+01 3.59057E+00 9.95988E-03 8.50405E-01 1.34301E-13-4.61578E-13
 -1      2988 1.96166E+01-4.40960E+00 1.21016E-01-5.35557E+00 3.22978E-13-8.77770E-14
 -1      2989 1.33680E+01-2.02886E+00 1.26980E-01 4.84668E+00-4.06751E-13 1.67935E-13
 -1      2990 2.20604E+01 3.49743E-02-1.13976E-02 1.03975E-01-8.54056E-14-1.41847E-13
 -1      2991 2.76341E+01 3.71960E+00-1.06320E-01-2.07656E+00 6.27470E-13-2.42820E-13
 -1      2992 2.72042E+01 5.41271E+00-8.14643E-02-9.26932E-01-6.16451E-13-1.03008E-13
 -1      2993 2.51175E+01-4.59954E+00 3.97834E-02-2.78939E+00 1.43302E-13-3.05422E-13
 -1      2994 2.00008E+01-2.52661E-03-5.47125E-06-2.30754E-03 1.17930E-13-3.61389E-13
 -1      2995 2.00005E+01-2.51313E-03 1.18553E-05-2.23364E-03 1.87318E-13-4.64235E-13
 -1      2996 2.00002E+01-2.26802E-03-4.17839E-06-2.37956E-03 1.05629E-13-7.69092E-14
 -1      2997 2.77377E+01-1.65499E+00-3.46631E-02-7.02321E-01-1.65366E-13 1.80855E-13
 -1      2998 2.74690E+01 5.31100E+00-1.13923E-01 1.18795E+00-6.01491E-13-3.16649E-13
 -1      2999 2.61418E+01-1.61425E+00-8.45770E-03 1.75723E+00 7.96268E-14 2.06609E-13
 -1      3000 2.52022E+01 3.74522E+00-7.95062E-02 2.30153E-01 4.49418E-13 5.71641E-14
 -1      3001 2.53084E+01 3.27998E+00-1.16947E-01 1.22620E+00 4.15862E-13 1.11623E-13
 -1      3002 2.69735E+01 2.90609E-02-6.84640E-02-2.48063E+00 2.66807E-13-2.95937E-13
 -1      3003 2.61033E+01 7.73574E-01-8.73739E-02-2.63817E+00 3.58883E-13-2.85091E-13
 -1      3004 2.58804E+01 2.04458E+00-5.06291E-02-2.48745E+00 4.92571E-13-2.89147E-13
 -1      3005 2.73685E+01-3.05191E+00-5.43509E-02-4.66662E-01 4.03115E-14-5.55757E-13
 -1      3006 2.80124E+01-1.47902E-01-1.22716E-01 2.17324E+00 2.54907E-13 1.63161E-13
 -1      3007 2.00000E+01-2.03807E-03 1.12075E-05-2.46910E-03-5.67560E-14 1.62636E-13
 -1      3008 1.99997E+01-1.75655E-03-5.31439E-06-2.47385E-03-2.00004E-13 3.00924E-13
 -1      3009 1.99995E+01-1.65501E-03-1.14421E-05-2.71391E-03-2.54854E-13 2.46843E-13
 -1      3010 2.00002E+01-2.10468E-03-7.01049E-06-2.65057E-03-1.80496E-13 1.69433E-13
 -1      3011 2.78552E+01 2.08269E+00-9.06430E-02 2.16294E+00-3.06685E-13-4.09228E-13
 -1      3012 1.99997E+01-1.84910E-03 1.22139E-05 2.43604E-03-2.36018E-14 3.27801E-14
 -1      3013 1.99999E+01-1.92861E-03-3.29005E-06 2.64981E-03 5.11755E-14-8.04301E-14
 -1      3014 2.77895E+01 2.57336E+00-3.32377E-03-2.17817E+00-4.68986E-13 1.18114E-13
 -1      3015 9.02886E+00-1.24425E-01 1.74586E-01 1.77781E+00-1.71821E-13 5.38652E-13
 -1      3016 9.71136E+00 3.79461E-01 7.08916E-02 2.73625E-01-6.46358E-14 4.84585E-13
 -1      3017 1.11243E+01-8.64739E-02 7.85171E-02 2.47414E+00-2.06992E-13 3.69552E-13
 -1      3018 2.41584E+01-4.70704E+00 5.52506E-02 2.99065E+00-2.08694E-13-4.60614E-13
 -1      3019 2.78002E+01-3.70200E+00 2.57944E-02-1.14047E+00 4.65253E-14-5.67185E-14
 -1      3020 2.79736E+01-2.87848E+00-1.17689E-01 5.31429E-01 7.91901E-14 2.96985E-15
 -1      3021 2.64214E+01-4.19543E+00 3.02534E-02-1.76722E+00-4.57967E-15-9.02195E-14
 -1      3022 1.85476E+01-4.09897E+00 1.11629E-01 5.32923E+00-3.95517E-13 3.29528E-14
 -1      3023 2.19284E+01-4.77894E+00 6.48224E-02-4.72387E+00-1.45578E-13-2.92317E-13
 -1      3024 2.36388E+01-4.69691E+00-4.73980E-02-3.46376E+00-1.34864E-13-1.75859E-13
 -1      3025 2.08653E+01-4.13098E+00 8.16666E-02-4.71435E+00-1.71772E-13-3.00225E-13
 -1      3026 9.52649E+00-6.51840E-01 1.64421E-01-3.00912E+00 1.12660E-13 6.48315E-13
 -1      3027 2.15427E+01-3.99297E+00 4.42891E-02 4.41827E+00 2.81025E-13-5.66734E-14
 -1      3028 1.10982E+01 3.57367E-01 9.23156E-02-3.22584E+00-2.02893E-14-6.35603E-13
 -1      3029 1.11334E+01-7.78783E-01 1.58236E-01-4.32755E+00-8.33639E-14-6.35270E-13
 -1      3030 1.33577E+01-1.20681E+00 2.93527E-02-4.68453E+00-1.03528E-13-5.23359E-13
 -1      3031 7.50834E+00 6.01783E-01 1.76510E-01-5.55607E-01 9.58539E-14-7.72882E-13
 -1      3032 9.39927E+00 1.02189E+00 1.10356E-01-1.38367E+00 4.35737E-14-6.79928E-13
 -1      3033 7.96413E+00 8.09956E-01 7.90687E-02 7.19877E-01 1.59491E-13-7.39658E-13
 -1      3034 1.50804E+01-2.09206E+00 1.29162E-01 5.47304E+00 3.51538E-13-3.95850E-13
 -1      3035 1.66076E+01 3.26245E+00-1.93376E-02 9.87970E-01 1.18576E-13-4.35264E-13
 -1      3036 1.72522E+01 3.05904E+00 1.46849E-02 9.80144E-01 8.45652E-14-4.20282E-13
 -1      3037 1.76825E+01 2.42400E+00 2.10863E-03 1.21213E+00 9.00818E-14-3.94129E-13
 -1      3038 1.62971E+01 3.07500E+00 5.78257E-03 1.14468E+00 1.39964E-13-4.32067E-13
 -1      3039 2.14397E+01 1.35807E+00-1.03778E-02-3.05410E-01 2.68607E-13-3.70077E-14
 -1      3040 1.91761E+01 1.78105E+00-7.12837E-03 9.03392E-01 2.41742E-14-3.65669E-13
 -1      3041 1.93612E+01 2.13778E+00-8.51276E-03 5.43886E-01-1.34333E-14-3.87455E-13
 -1      3042 2.00347E+01 1.90281E+00-4.55291E-03 3.14364E-01-5.75674E-14-3.62728E-13
 -1      3043 2.11497E+01 1.04914E+00-8.01822E-03-6.78037E-01 2.27515E-13-7.41104E-14
 -1      3044 2.76530E+01-2.13367E+00-3.52178E-02 4.28384E-01-1.61936E-14-3.94407E-13
 -1      3045 2.00973E+01 1.21818E+00 1.59419E-02-1.08879E+00 1.86781E-13-1.36578E-13
 -1      3046 1.91218E+01 1.55148E+00-7.37389E-03-1.21246E+00 1.67452E-13-1.96235E-13
 -1      3047 1.54881E+01-2.47771E+00 5.95939E-02 5.08651E+00-3.68178E-13 7.13804E-14
 -1      3048 1.33335E+01-1.26344E+00 5.14587E-02 4.21170E+00-3.37841E-13 1.32130E-13
 -1      3049 2.57814E+01-3.43429E+00-1.02532E-01 9.10209E-01 5.27495E-14 1.83371E-13
 -1      3050 2.49876E+01-3.76526E+00 7.61662E-02 1.98146E+00 1.47689E-13 1.32849E-13
 -1      3051 2.34022E+01-1.61638E+00 2.95993E-02 1.31057E-01 3.10862E-15 1.53573E-14
 -1      3052 2.37348E+01-1.85094E+00-1.78571E-02-1.56755E-01 1.88217E-15 4.35526E-14
 -1      3053 2.44289E+01-1.86145E+00 1.84705E-02-6.47919E-01-4.38859E-14 1.06998E-13
 -1      3054 2.46887E+01-1.62893E+00-1.80214E-02-1.05673E+00-9.11987E-14 8.42295E-14
 -1      3055 2.41235E+01-2.26923E+00-3.81940E-02 5.07623E-02 2.46211E-15 9.35389E-14
 -1      3056 2.60528E+01 4.61295E-01-6.45504E-02-2.17845E+00-2.24137E-13 2.20129E-13
 -1      3057 2.58795E+01 1.74043E+00-7.38513E-02-1.99629E+00-3.26766E-13 1.77874E-13
 -1      3058 2.52987E+01 3.24277E+00-1.77902E-01-1.73523E+00-4.30773E-13 6.71728E-14
 -1      3059 2.51444E+01 4.07775E+00-1.09832E-01-9.27804E-01-4.85750E-13 4.95264E-15
 -1      3060 2.44063E+01 4.00973E+00-1.99538E-02 3.60689E-01-4.36318E-13-1.90126E-14
 -1      3061 2.44236E+01 3.46993E+00-1.09779E-01 1.23688E+00-3.36890E-13-1.13378E-13
 -1      3062 2.48869E+01 2.63062E+00-3.03770E-02 1.95881E+00-2.92433E-13-2.94998E-13
 -1      3063 2.48908E+01 1.42938E+00-1.22589E-01 2.23791E+00-2.87565E-13-3.30435E-13
 -1      3064 2.59090E+01 4.68211E-01-4.58408E-02 2.18305E+00-2.31003E-13-3.54263E-13
 -1      3065 2.58709E+01-7.75372E-01-5.19761E-02 1.86946E+00-1.43566E-13-3.37976E-13
 -1      3066 2.37539E+01-2.25000E+00-1.15189E-02 1.57780E-01-5.97699E-14-1.87559E-13
 -1      3067 2.33727E+01-2.17085E+00 2.43948E-02-2.67094E-01-2.83044E-14-2.12995E-13
 -1      3068 2.26978E+01-1.97648E+00-1.19419E-02-6.35270E-01 5.50731E-15-2.06456E-13
 -1      3069 2.23245E+01-1.68696E+00 2.37936E-02-9.16520E-01-2.93029E-14-1.70892E-13
 -1      3070 2.28481E+01-2.42871E+00-3.57020E-02-9.06126E-01-1.37364E-14-1.80951E-13
 -1      3071 2.18093E+01-1.39059E+00-5.05073E-03-1.08653E+00 4.59615E-15-5.28926E-14
 -1      3072 2.14968E+01-1.07780E+00 1.72546E-02-1.23478E+00-5.10030E-15 1.76093E-14
 -1      3073 2.17397E+01-1.75221E+00-2.62938E-02-1.37985E+00 7.33793E-14-7.56756E-14
 -1      3074 2.11549E+01-8.00551E-01 1.34902E-04-1.27426E+00-1.62989E-14 6.17197E-14
 -1      3075 2.09197E+01-5.44001E-01 1.09606E-02-1.32755E+00 2.69246E-14 9.15027E-14
 -1      3076 2.09493E+01-1.03972E+00-1.92716E-02-1.52279E+00 3.23383E-14 4.91471E-14
 -1      3077 2.07139E+01-3.31111E-01 2.12950E-03-1.29599E+00-1.88713E-14 8.35816E-14
 -1      3078 2.05487E+01-1.49377E-01 6.01095E-03-1.28837E+00-1.46018E-14 8.57332E-14
 -1      3079 2.04518E+01-4.62868E-01-1.25072E-02-1.48801E+00-1.52779E-14 6.77865E-14
 -1      3080 2.04369E+01-6.35601E-03 2.69117E-03-1.22228E+00-7.53965E-14 5.84998E-14
 -1      3081 2.03247E+01 1.07112E-01 2.70898E-03-1.17936E+00-9.84548E-14 1.97232E-14
 -1      3082 2.01675E+01-5.74129E-02-7.31215E-03-1.36305E+00-2.81787E-14-4.53219E-14
 -1      3083 2.02710E+01 1.92014E-01 2.58881E-03-1.09978E+00-7.56446E-14 1.86783E-14
 -1      3084 2.01950E+01 2.53349E-01 7.05227E-04-1.03857E+00-1.14268E-16-6.40621E-14
 -1      3085 2.00205E+01 1.94711E-01-4.01370E-03-1.20271E+00-7.03302E-14-1.32101E-14
 -1      3086 2.01749E+01 2.95503E-01 2.37579E-03-9.56366E-01 3.73044E-14-7.36722E-14
 -1      3087 2.01224E+01 3.20484E-01-4.22769E-04-8.88047E-01 1.06761E-13-1.87694E-13
 -1      3088 1.99552E+01 3.31250E-01-1.96893E-03-1.03327E+00-3.52838E-14-1.00524E-14
 -1      3089 2.01202E+01 3.33848E-01 2.15185E-03-8.09308E-01 2.15638E-13-2.08184E-13
 -1      3090 2.00826E+01 3.35490E-01-9.91331E-04-7.41021E-01 2.36717E-13-2.11757E-13
 -1      3091 1.99354E+01 3.87277E-01-7.94857E-04-8.68608E-01 1.59253E-13-1.26203E-14
 -1      3092 2.00889E+01 3.31036E-01 1.93858E-03-6.69057E-01 1.58472E-13-1.05780E-13
 -1      3093 2.00607E+01 3.19020E-01-1.21557E-03-6.05141E-01 1.00935E-13-3.51757E-15
 -1      3094 1.99383E+01 3.91465E-01-1.80564E-04-7.16219E-01 2.92056E-13 6.71695E-15
 -1      3095 2.00700E+01 3.04650E-01 1.73301E-03-5.41576E-01 2.90484E-14 2.23550E-14
 -1      3096 2.00481E+01 2.85693E-01-1.23721E-03-4.84410E-01 7.38306E-14 9.18359E-14
 -1      3097 1.99507E+01 3.65121E-01 1.00975E-04-5.79943E-01 6.07794E-14 9.54406E-14
 -1      3098 2.00575E+01 2.66748E-01 1.53012E-03-4.29793E-01 3.70637E-14-3.24451E-14
 -1      3099 2.00401E+01 2.45244E-01-1.14785E-03-3.80411E-01 7.22753E-14 1.88434E-16
 -1      3100 1.99654E+01 3.23078E-01 1.98693E-04-4.61381E-01-1.03408E-14 5.40003E-14
 -1      3101 2.00484E+01 2.25120E-01 1.32947E-03-3.34587E-01 1.00539E-13-7.90152E-14
 -1      3102 2.00343E+01 2.03769E-01-1.00538E-03-2.93121E-01 7.60990E-14-4.77294E-14
 -1      3103 1.99790E+01 2.75103E-01 2.03525E-04-3.60659E-01 1.52781E-14-1.89090E-13
 -1      3104 2.00409E+01 1.84485E-01 1.13456E-03-2.55490E-01 4.11458E-14-4.20041E-14
 -1      3105 2.00295E+01 1.64810E-01-8.45292E-04-2.21511E-01 1.82258E-14-2.62876E-14
 -1      3106 1.99900E+01 2.27252E-01 1.67924E-04-2.76915E-01 2.36876E-14-2.26657E-13
 -1      3107 2.00345E+01 1.47446E-01 9.50379E-04-1.91219E-01-7.85704E-14 7.54998E-14
 -1      3108 2.00252E+01 1.30187E-01-6.88280E-04-1.63978E-01-9.18070E-14 8.47048E-14
 -1      3109 1.99981E+01 1.82984E-01 1.20289E-04-2.08668E-01 4.29359E-15 5.67771E-15
 -1      3110 2.00287E+01 1.15210E-01 7.81443E-04-1.40052E-01-5.55659E-14 1.10126E-13
 -1      3111 2.00213E+01 1.00609E-01-5.45443E-04-1.18655E-01-9.76521E-15 2.08658E-14
 -1      3112 2.00036E+01 1.44015E-01 7.46759E-05-1.54097E-01-9.09373E-14 1.35719E-13
 -1      3113 2.00236E+01 8.81063E-02 6.30888E-04-1.00109E-01-1.28873E-13 1.13333E-13
 -1      3114 2.00177E+01 7.61056E-02-4.21776E-04-8.36323E-02-1.57216E-13 9.08629E-14
 -1      3115 2.00070E+01 1.10941E-01 3.69854E-05-1.11261E-01-3.82796E-14 3.63093E-14
 -1      3116 2.00191E+01 6.59452E-02 5.00224E-04-6.95238E-02-9.71123E-14 3.60509E-14
 -1      3117 2.00145E+01 5.63211E-02-3.18541E-04-5.70877E-02-2.94094E-14-4.69235E-14
 -1      3118 2.00087E+01 8.36718E-02 8.75139E-06-7.82498E-02-1.50611E-13 1.29367E-15
 -1      3119 2.00152E+01 4.82548E-02 3.89521E-04-4.65650E-02-9.16800E-14-1.19685E-13
 -1      3120 2.00116E+01 4.07058E-02-2.34847E-04-3.73731E-02-3.14909E-13-9.81580E-14
 -1      3121 2.00093E+01 6.17373E-02-1.06294E-05-5.32859E-02-1.68428E-13-2.05170E-13
 -1      3122 2.00119E+01 3.44387E-02 2.97770E-04-2.96905E-02-2.58923E-13-5.15517E-14
 -1      3123 2.00092E+01 2.86407E-02-1.68685E-04-2.30504E-02-9.96733E-14-1.01729E-13
 -1      3124 2.00090E+01 4.44803E-02-2.26406E-05-3.47806E-02-1.90559E-13-7.40927E-14
 -1      3125 2.00091E+01 2.38724E-02 2.23258E-04-1.75745E-02-1.77985E-13-5.08994E-14
 -1      3126 2.00071E+01 1.95119E-02-1.17575E-04-1.29018E-02-1.70593E-13-1.80625E-13
 -1      3127 2.00083E+01 3.11852E-02-2.89763E-05-2.13599E-02-1.58854E-13-1.42694E-13
 -1      3128 2.00069E+01 1.59606E-02 1.63897E-04-9.10791E-03-1.08571E-13-1.90716E-13
 -1      3129 2.00054E+01 1.27526E-02-7.89708E-05-5.92207E-03-7.42648E-14-1.39787E-13
 -1      3130 2.00074E+01 2.11535E-02-3.12132E-05-1.18668E-02-1.46617E-13-2.12947E-13
 -1      3131 2.00051E+01 1.01674E-02 1.17481E-04-3.38496E-03-1.54415E-13-2.46646E-13
 -1      3132 2.00040E+01 7.86365E-03-5.04824E-05-1.29958E-03-2.30832E-13-2.79426E-13
 -1      3133 2.00063E+01 1.37465E-02-3.06766E-05-5.35004E-03-1.98169E-13-6.91540E-14
 -1      3134 2.00036E+01 6.02906E-03 8.18616E-05 3.18361E-04-1.25645E-13-2.73446E-13
 -1      3135 2.00029E+01 4.41979E-03-2.99925E-05 1.60753E-03-6.24399E-14-2.41723E-13
 -1      3136 2.00052E+01 8.40506E-03-2.84081E-05-1.04377E-03-1.47250E-13-1.14830E-13
 -1      3137 2.00025E+01 3.15603E-03 5.50603E-05 2.56901E-03 1.85022E-15-7.95806E-14
 -1      3138 2.00020E+01 2.06845E-03-1.56987E-05 3.29655E-03 1.68050E-13-1.58410E-13
 -1      3139 2.00042E+01 4.65495E-03-2.51868E-05 1.65622E-03 6.61961E-14-1.19615E-13
 -1      3140 2.00017E+01 1.22868E-03 3.53344E-05 3.80181E-03 2.80052E-13-1.98015E-13
 -1      3141 2.00014E+01 5.23090E-04-6.11020E-06 4.14466E-03 1.46853E-13-2.26611E-13
 -1      3142 2.00033E+01 2.10406E-03-2.15652E-05 3.21711E-03 1.83619E-13-1.55930E-13
 -1      3143 2.00010E+01-1.06166E-05 2.11862E-05 4.34297E-03 1.15427E-13-2.49460E-13
 -1      3144 2.00008E+01-4.45502E-04-3.81839E-08 4.43127E-03 1.14468E-13-1.60484E-13
 -1      3145 2.00025E+01 4.34493E-04-1.79177E-05 3.99256E-03 2.43613E-13-2.15466E-13
 -1      3146 2.00005E+01-7.66760E-04 1.13854E-05 4.43097E-03 1.31892E-13-2.52387E-13
 -1      3147 2.00005E+01-1.01885E-03 3.45299E-06 4.35751E-03 2.15854E-13-1.89983E-13
 -1      3148 2.00019E+01-6.07829E-04-1.45378E-05 4.24414E-03 1.46169E-13-1.64652E-13
 -1      3149 2.00002E+01-1.20161E-03 4.92560E-06 4.23453E-03 1.39785E-13-1.91278E-13
 -1      3150 2.00002E+01-1.33977E-03 5.31689E-06 4.06247E-03 6.56189E-14-2.10960E-13
 -1      3151 2.00013E+01-1.22373E-03-1.15059E-05 4.15972E-03 1.36803E-13-3.02576E-13
 -1      3152 2.00000E+01-1.44458E-03 4.03474E-07 3.86810E-03-6.61618E-14-8.15087E-14
 -1      3153 2.00000E+01-1.52283E-03 4.95334E-06 3.63737E-03-1.75041E-13-1.58661E-13
 -1      3154 2.00008E+01-1.56996E-03-8.63612E-06 3.86960E-03 5.46855E-14-1.83560E-13
 -1      3155 1.99998E+01-1.58058E-03 7.68589E-07 3.39868E-03-2.50493E-13-6.43307E-14
 -1      3156 1.99998E+01-1.66930E-03-9.53241E-06 3.14519E-03-1.77410E-13-2.47111E-13
 -1      3157 2.00005E+01-1.77519E-03-3.01330E-06 3.45869E-03-1.69595E-13-2.37902E-13
 -1      3158 1.64080E+01-2.16235E+00 1.38335E-01-5.03458E+00-1.25289E-13-4.11574E-13
 -1      3159 1.84181E+01-3.09463E+00 3.96683E-02-5.03917E+00-1.46327E-13-3.57742E-13
 -1      3160 2.53371E+01-2.91169E+00-8.09428E-03-1.17737E-01-4.60083E-14 9.28476E-14
 -1      3161 2.46729E+01-2.69140E+00 5.08249E-02-6.56831E-01-9.71302E-14 6.94722E-14
 -1      3162 2.13009E+01-8.48628E-01 1.90273E-02 1.93349E+00-1.79019E-13 1.33559E-13
 -1      3163 2.16943E+01-1.27704E+00 3.13768E-03 1.84197E+00-1.42550E-13 4.30366E-14
 -1      3164 2.07458E+01-2.14697E-01 8.46762E-03 1.85620E+00-1.79744E-13 9.13783E-14
 -1      3165 2.10031E+01-5.00889E-01 5.73806E-03 1.86721E+00-1.37906E-13 1.40132E-13
 -1      3166 2.04577E+01-7.15963E-01-2.24653E-02 2.17053E+00-1.68951E-13 1.21458E-13
 -1      3167 2.04498E+01 1.70928E-01 2.84182E-03 1.68141E+00-1.11362E-13-9.93652E-15
 -1      3168 2.06129E+01 4.56221E-03 5.40621E-03 1.74699E+00-1.26724E-13 4.44455E-14
 -1      3169 2.00913E+01-7.07851E-02-1.10868E-02 1.94813E+00-1.15034E-13 2.01650E-14
 -1      3170 2.02995E+01 3.70556E-01-1.96301E-04 1.46862E+00-1.03556E-13-1.24787E-14
 -1      3171 2.04054E+01 2.90360E-01 4.66065E-03 1.55990E+00-1.25498E-13 4.31404E-14
 -1      3172 1.99456E+01 3.01684E-01-4.53810E-03 1.69623E+00-1.29918E-13 2.92063E-14
 -1      3173 2.02237E+01 4.47757E-01-1.61290E-03 1.24936E+00-9.92574E-14 6.17288E-14
 -1      3174 2.02972E+01 4.22221E-01 3.88153E-03 1.34917E+00-8.23400E-14 1.52266E-14
 -1      3175 1.99112E+01 4.82373E-01-1.24696E-03 1.44732E+00-7.10239E-14-4.88887E-16
 -1      3176 2.01825E+01 4.52073E-01-2.12485E-03 1.04008E+00-1.27914E-13 1.18353E-13
 -1      3177 2.02379E+01 4.58042E-01 3.32800E-03 1.13819E+00-1.03113E-13 1.27001E-13
 -1      3178 1.99246E+01 5.41365E-01 2.28376E-04 1.21464E+00-1.23708E-13 1.15907E-13
 -1      3179 2.01558E+01 4.17392E-01-2.16525E-03 8.49421E-01-2.75106E-14 1.97544E-13
 -1      3180 2.02004E+01 4.39522E-01 2.93491E-03 9.40029E-01-5.53888E-14 1.36913E-13
 -1      3181 1.99527E+01 5.29723E-01 7.39693E-04 1.00346E+00-7.55498E-14 1.56207E-13
 -1      3182 2.01343E+01 3.65099E-01-1.97996E-03 6.81525E-01-6.14658E-14 1.62818E-13
 -1      3183 2.01718E+01 3.93909E-01 2.61340E-03 7.61717E-01-1.34373E-14 1.83046E-13
 -1      3184 1.99803E+01 4.81314E-01 7.86535E-04 8.16134E-01-1.57936E-14 2.62910E-13
 -1      3185 2.01149E+01 3.07837E-01-1.70442E-03 5.37638E-01 8.41277E-14-7.36503E-14
 -1      3186 2.01466E+01 3.37831E-01 2.31332E-03 6.06376E-01 6.09181E-14 4.20871E-14
 -1      3187 2.00017E+01 4.17240E-01 6.43638E-04 6.53466E-01 5.97146E-14 1.03490E-13
 -1      3188 2.00965E+01 2.52555E-01-1.41109E-03 4.17126E-01 2.18208E-14-1.53498E-13
 -1      3189 2.01234E+01 2.80790E-01 2.01829E-03 4.74556E-01 4.12991E-14-1.35881E-13
 -1      3190 2.00159E+01 3.49898E-01 4.52218E-04 5.15034E-01 8.51085E-14-9.39454E-14
 -1      3191 2.00795E+01 2.02690E-01-1.13604E-03 3.18213E-01 1.52378E-13-1.37161E-13
 -1      3192 2.01019E+01 2.27777E-01 1.72934E-03 3.65167E-01 1.12470E-13-1.62403E-13
 -1      3193 2.00238E+01 2.86059E-01 2.76157E-04 3.99465E-01 8.36540E-14-1.68143E-13
 -1      3194 2.00641E+01 1.59603E-01-8.94805E-04 2.38511E-01-9.17307E-14-7.62462E-14
 -1      3195 2.00824E+01 1.81060E-01 1.45384E-03 2.76171E-01 1.15218E-13-6.44010E-14
 -1      3196 2.00271E+01 2.29010E-01 1.37949E-04 3.04726E-01 2.90376E-14-9.06398E-14
 -1      3197 2.00506E+01 1.23486E-01-6.91782E-04 1.75392E-01-8.33994E-14-1.17021E-13
 -1      3198 2.00654E+01 1.41336E-01 1.19951E-03 2.05066E-01-9.25315E-14-9.53955E-14
 -1      3199 2.00271E+01 1.79975E-01 4.01002E-05 2.28405E-01-2.82410E-14-1.03056E-13
 -1      3200 2.00391E+01 9.39155E-02-5.25714E-04 1.26241E-01-1.94855E-15-2.08552E-13
 -1      3201 2.00508E+01 1.08441E-01 9.71876E-04 1.49226E-01-5.31162E-14-9.18280E-14
 -1      3202 2.00253E+01 1.39005E-01-2.31201E-05 1.67951E-01-7.08797E-14 1.56586E-14
 -1      3203 2.00296E+01 7.01774E-02-3.92767E-04 8.86071E-02 2.89985E-14-1.44760E-13
 -1      3204 2.00386E+01 8.17761E-02 7.73736E-04 1.06109E-01-5.58300E-14-2.23626E-13
 -1      3205 2.00224E+01 1.05537E-01-5.97534E-05 1.20860E-01-1.57096E-14-2.17730E-13
 -1      3206 2.00219E+01 5.14547E-02-2.88213E-04 6.02917E-02 9.41791E-14-3.49745E-14
 -1      3207 2.00288E+01 6.05575E-02 6.05460E-04 7.33837E-02 1.63509E-13-3.37105E-14
 -1      3208 2.00191E+01 7.87173E-02-7.74709E-05 8.47921E-02 2.27128E-15-1.95087E-13
 -1      3209 2.00158E+01 3.69335E-02-2.07288E-04 3.93824E-02 2.55522E-13-2.84291E-13
 -1      3210 2.00209E+01 4.39592E-02 4.65646E-04 4.89890E-02 2.46403E-13-6.38132E-14
 -1      3211 2.00159E+01 5.75974E-02-8.25866E-05 5.76498E-02 2.25715E-13-2.39174E-13
 -1      3212 2.00111E+01 2.58581E-02-1.45609E-04 2.42594E-02 1.13858E-13-3.38279E-13
 -1      3213 2.00149E+01 3.11898E-02 3.51764E-04 3.11584E-02 1.27875E-13-3.39554E-13
 -1      3214 2.00128E+01 4.12426E-02-7.98811E-05 3.76061E-02 1.78593E-13-9.61974E-14
 -1      3215 2.00075E+01 1.75574E-02-9.93334E-05 1.35806E-02 1.81025E-13-3.73560E-13
 -1      3216 2.00102E+01 2.15320E-02 2.60702E-04 1.84119E-02 9.31944E-14-4.41396E-13
 -1      3217 2.00101E+01 2.87896E-02-7.27684E-05 2.31113E-02 1.28386E-13-3.00043E-13
 -1      3218 2.00049E+01 1.14529E-02-6.52026E-05 6.25525E-03 1.34637E-13-8.65185E-15
 -1      3219 2.00067E+01 1.43585E-02 1.89162E-04 9.53558E-03 2.38079E-13-1.81774E-13
 -1      3220 2.00078E+01 1.94735E-02-6.35675E-05 1.28798E-02 5.83733E-14-2.77601E-13
 -1      3221 2.00030E+01 7.05838E-03-4.05144E-05 1.41309E-03-1.58258E-14 1.38000E-13
 -1      3222 2.00042E+01 9.13569E-03 1.33929E-04 3.55222E-03-1.76959E-15 4.87997E-14
 -1      3223 2.00059E+01 1.26368E-02-5.37764E-05 5.86548E-03-5.93527E-15 9.20317E-14
 -1      3224 2.00016E+01 3.97257E-03-2.30692E-05-1.62822E-03-2.19103E-13 2.91629E-13
 -1      3225 2.00024E+01 5.41922E-03 9.20404E-05-3.10932E-04-4.24416E-14 2.69517E-13
 -1      3226 2.00044E+01 7.72718E-03-4.43044E-05 1.23337E-03-1.76361E-13 4.05889E-13
 -1      3227 2.00007E+01 1.86995E-03-1.11081E-05-3.39411E-03-2.35237E-13 2.84765E-13
 -1      3228 2.00012E+01 2.84554E-03 6.08694E-05-2.65423E-03-2.41217E-13 2.59295E-13
 -1      3229 2.00032E+01 4.28971E-03-3.56569E-05-1.67151E-03-2.25700E-13 5.98796E-13
 -1      3230 2.00001E+01 4.89996E-04-3.25177E-06-4.28146E-03-1.34859E-13-1.12791E-13
 -1      3231 2.00003E+01 1.12178E-03 3.81653E-05-3.93561E-03-1.35721E-13-8.77427E-15
 -1      3232 2.00022E+01 1.95550E-03-2.80774E-05-3.35350E-03-7.38795E-14 1.29694E-13
 -1      3233 1.99997E+01-3.73549E-04 1.57927E-06-4.58336E-03-7.51216E-14-2.98487E-13
 -1      3234 1.99998E+01 1.48369E-05 2.20576E-05-4.49720E-03-1.33026E-13-2.44020E-13
 -1      3235 2.00015E+01 4.29504E-04-2.16514E-05-4.19336E-03-4.28163E-14-2.48466E-13
 -1      3236 1.99995E+01-8.82755E-04 4.19989E-06-4.51034E-03-1.55826E-13-3.43060E-13
 -1      3237 1.99995E+01-6.59029E-04 1.10234E-05-4.58841E-03-1.34524E-13-4.25477E-13
 -1      3238 2.00009E+01-5.21702E-04-1.63276E-05-4.47204E-03-1.36767E-13-5.30660E-13
 -1      3239 1.99994E+01-1.16480E-03 5.29122E-06-4.20799E-03-1.72700E-14-3.10334E-13
 -1      3240 1.99993E+01-1.04404E-03 3.81308E-06-4.38535E-03 3.38643E-15-2.34064E-13
 -1      3241 2.00005E+01-1.08153E-03-1.20702E-05-4.39120E-03-1.14862E-13-4.30730E-13
 -1      3242 1.99994E+01-1.31965E-03 5.10470E-06-3.77159E-03-1.70228E-13-3.55902E-13
 -1      3243 1.99993E+01-1.25318E-03-3.66956E-07-4.00654E-03-1.40587E-13-3.30559E-13
 -1      3244 2.00002E+01-1.39361E-03-8.65027E-06-4.08959E-03-7.56802E-14 2.68129E-16
 -1      3245 1.99994E+01-1.42799E-03 1.48992E-06-3.25903E-03-2.01381E-13-1.05340E-13
 -1      3246 1.99993E+01-1.37641E-03-2.86111E-06-3.52595E-03-1.97183E-13-1.73124E-13
 -1      3247 2.00000E+01-1.57136E-03-5.97983E-06-3.65944E-03-2.84185E-13-2.14324E-13
 -1      3248 1.99995E+01-1.57751E-03-1.95753E-06-2.87793E-03-2.46982E-13 1.00224E-13
 -1      3249 1.99994E+01-1.48798E-03-7.44874E-06-3.09695E-03-2.57420E-13 7.96608E-14
 -1      3250 1.99999E+01-1.69004E-03-6.82279E-07-3.24621E-03-3.08400E-13 1.85546E-15
 -1      3251 1.99999E+01-1.80104E-03 9.58685E-06-2.90163E-03-3.89523E-13 2.89561E-13
 -1      3252 2.00019E+01-2.92689E-03-1.70508E-07 1.16959E-03 5.22387E-14-9.56419E-14
 -1      3253 2.00020E+01-2.99313E-03 6.26935E-06 7.40578E-04 1.02225E-13-1.50800E-13
 -1      3254 2.63202E+01 4.59696E+00-7.32347E-02 1.51561E+00-5.40873E-13-3.02189E-13
 -1      3255 2.59459E+01 5.13150E+00-1.69663E-01 6.10958E-01-5.50587E-13-1.94076E-13
 -1      3256 2.00009E+01-2.31515E-03-7.90870E-06 2.61237E-03-6.55351E-14 8.10774E-14
 -1      3257 2.00012E+01-2.50973E-03 1.18139E-05 2.35870E-03-8.11104E-14 9.57786E-14
 -1      3258 2.00021E+01-3.03138E-03 3.11481E-06 2.37762E-04 1.03927E-13-1.29558E-13
 -1      3259 2.00021E+01-3.03247E-03 3.19038E-06-2.22512E-04 1.00591E-13-1.68165E-13
 -1      3260 2.00025E+01-2.88917E-03-5.37849E-06 5.17409E-04 1.21616E-13-1.70008E-13
 -1      3261 2.08467E+01 1.10661E+00-5.17660E-03 3.05547E-01-7.22556E-14-2.69487E-13
 -1      3262 2.00015E+01-2.68919E-03-4.47038E-06 1.99131E-03-4.00983E-14-7.01790E-15
 -1      3263 2.00017E+01-2.81833E-03 8.82248E-06 1.62410E-03 1.74732E-14-1.12261E-14
 -1      3264 2.00022E+01-2.75556E-03-3.44895E-06 1.49414E-03 5.37717E-14-1.76260E-15
 -1      3265 2.00017E+01-2.49809E-03 5.02341E-07 2.32392E-03-6.89630E-14-2.81654E-14
 -1      3266 2.22637E+01-1.73793E+00 3.54029E-02 1.78375E+00-1.07589E-13-6.42223E-14
 -1      3267 2.28103E+01-2.25148E+00-4.35841E-03 1.51985E+00-1.09328E-13-1.14026E-13
 -1      3268 2.12255E+01-1.68082E+00-3.28398E-02 2.27653E+00-1.96978E-13-1.55839E-14
 -1      3269 2.37449E+01-2.71067E+00 4.65246E-02 1.20669E+00-1.15881E-13-2.55381E-13
 -1      3270 2.43980E+01-3.06358E+00-1.75198E-02 6.94212E-01-1.02847E-13-3.05519E-13
 -1      3271 2.25895E+01-2.84029E+00-3.58698E-02 2.06228E+00-1.95816E-13-3.09849E-13
 -1      3272 2.80045E+01 4.18913E-01-5.81022E-02-2.39460E+00 3.07018E-13-4.04510E-13
 -1      3273 2.75000E+01-1.20826E+00-5.35074E-02 1.79472E+00 1.91042E-13 1.76806E-13
 -1      3274 2.70551E+01-2.28874E+00-5.93382E-02 1.03645E+00 8.31939E-14 1.10962E-13
 -1      3275 1.85247E+01-3.61063E+00 1.08097E-01-5.15654E+00 2.99372E-13 2.47025E-15
 -1      3276 2.13872E+01-4.66953E+00-7.78726E-02-4.49469E+00 2.06113E-13-1.40186E-13
 -1      3277 2.24641E+01-8.36553E-01 3.13629E-02 4.75282E-01-1.79622E-14-9.65248E-14
 -1      3278 2.27721E+01-1.29196E+00-1.33346E-02 3.59165E-01-1.74665E-14-7.15689E-14
 -1      3279 2.28546E+01-1.66862E+00-1.79451E-02 6.84954E-01 3.99002E-14-2.26989E-14
 -1      3280 2.14053E+01 4.40962E-01 1.72803E-02 4.35535E-01-3.92542E-14-2.20297E-13
 -1      3281 2.17948E+01-3.35106E-01-1.02336E-02 5.69282E-01-1.89918E-14-1.70261E-13
 -1      3282 2.16447E+01-5.57320E-01-4.47947E-04 9.05694E-01 1.56517E-14-1.55012E-13
 -1      3283 2.04511E+01 8.02375E-01-1.39859E-03 8.05547E-01 2.39565E-15-2.73491E-13
 -1      3284 2.49120E+01-4.43248E+00-8.41674E-02 1.87668E+00-1.36557E-13-5.42210E-13
 -1      3285 2.27576E+01-4.41462E+00 1.05475E-01 3.55892E+00-2.70919E-13-4.02393E-13
 -1      3286 2.38407E+01-4.48913E+00 8.50315E-02-3.06626E+00 1.24453E-13-2.84228E-13
 -1      3287 2.54687E+01-4.13248E+00-8.72392E-02-1.51933E+00 6.38187E-14-3.38698E-13
 -1      3288 1.03731E+01 1.19873E-01 7.83814E-02-2.05372E+00 2.97332E-14 4.55316E-13
 -1      3289 1.16112E+01-7.08370E-01 9.35353E-02-3.89946E+00 2.89248E-13 4.28879E-13
 -1      3290 1.99706E+01-4.17822E+00-6.00999E-02 4.69270E+00-3.46334E-13-1.08503E-13
 -1      3291 1.75996E+01-3.22329E+00 9.24144E-02 5.03243E+00-3.57096E-13 5.06123E-14
 -1      3292 1.74389E+01-2.41174E+00 8.58691E-02 4.47745E+00-3.33285E-13 7.78405E-14
 -1      3293 1.66718E+01-1.97742E+00-1.28948E-02 4.90284E+00 3.87294E-13-2.58113E-13
 -1      3294 1.38664E+01-7.18641E-01 1.87689E-01 4.83106E+00 3.58914E-13-4.49779E-13
 -1      3295 1.31384E+01-1.41256E+00 1.06760E-01-4.61749E+00 3.49599E-13 4.23439E-13
 -1      3296 1.52989E+01-2.49255E+00-2.16896E-02-5.23582E+00 3.65027E-13 2.54768E-13
 -1      3297 1.38167E+01-6.39717E-01 1.01906E-01-3.64755E+00 2.72969E-13 3.63723E-13
 -1      3298 1.50238E+01 3.30042E+00 8.23167E-03-2.98241E-01 1.72330E-13-4.49080E-13
 -1      3299 1.47888E+01 3.36056E+00-4.86638E-03 7.39149E-02 1.67185E-13-4.51540E-13
 -1      3300 2.27073E+01-3.90943E+00-5.55550E-02 3.48290E+00 2.24099E-13 7.70911E-15
 -1      3301 1.99695E+01-3.02567E+00 8.29317E-02 4.45996E+00 3.25916E-13-1.27395E-13
 -1      3302 2.33248E+01-3.37465E+00 1.64458E-02 2.45225E+00 2.01433E-13 3.50948E-14
 -1      3303 1.07511E+01-5.42170E-02-1.19225E-02 3.96384E+00 3.05894E-13-5.84491E-13
 -1      3304 9.01479E+00 7.34676E-01 1.97368E-01 2.43516E+00 2.46483E-13-6.96859E-13
 -1      3305 9.95790E+00 1.29206E+00 1.27372E-01 1.20906E+00 1.87836E-13-6.57682E-13
 -1      3306 2.15853E+01 4.24698E-01 1.81473E-02-9.46686E-01 1.59265E-13-4.64795E-14
 -1      3307 2.07548E+01 8.37720E-01-4.12974E-03-1.00622E+00 1.75269E-13-9.29421E-14
 -1      3308 2.04867E+01 4.83742E-01 2.64835E-04-1.38629E+00 1.22640E-13-1.17331E-13
 -1      3309 2.18002E+01-1.27106E-01-8.40657E-03-1.12894E+00 1.02234E-13-4.59192E-14
 -1      3310 2.52398E+01-6.52674E-01-2.68058E-02-1.72241E+00-1.09308E-13 1.88156E-13
 -1      3311 2.67342E+01-9.20233E-01-7.69389E-02-1.55714E+00-1.55313E-13 2.31530E-13
 -1      3312 2.65321E+01-2.42149E+00 2.39597E-02-4.15120E-01-1.26704E-14 2.48281E-13
 -1      3313 2.51769E+01-1.34173E+00 5.22036E-04-1.44692E+00-7.89247E-14 1.48331E-13
 -1      3314 2.63757E+01-1.73811E+00-7.03050E-02 1.19004E+00-4.89608E-14-2.76255E-13
 -1      3315 2.48125E+01-1.82528E+00-5.61467E-03 1.14317E+00-5.81202E-14-2.35152E-13
 -1      3316 2.45731E+01-2.22720E+00 4.09938E-04 6.81495E-01-1.50643E-14-2.17566E-13
 -1      3317 2.61880E+01-3.26095E+00 1.96200E-02-1.63972E-01 4.91777E-14-3.17406E-13
 -1      3318 1.48234E+01 3.29264E+00-1.74687E-02 6.56132E-01 1.83198E-13-4.31606E-13
 -1      3319 1.51405E+01 3.18174E+00 7.24727E-03 9.90443E-01 1.66533E-13-4.37280E-13
 -1      3320 1.44870E+01 3.09062E+00 3.42666E-02 4.07193E-01 1.70826E-13-4.51279E-13
 -1      3321 1.44756E+01-7.77313E-01 6.29239E-02 3.65022E+00-2.87860E-13 7.07906E-14
 -1      3322 1.26305E+01-3.31512E-01 1.27028E-01 3.33366E+00-2.59306E-13 1.82666E-13
 -1      3323 1.22009E+01 1.91062E-01 8.82777E-03 2.19347E+00-1.38656E-13 2.86236E-13
 -1      3324 2.16494E+01-3.79144E+00 4.96530E-02 3.56106E+00-2.67369E-13-2.90111E-13
 -1      3325 2.00012E+01-2.51682E-03 1.06967E-05-2.35198E-03 7.76623E-17-5.05900E-13
 -1      3326 2.00009E+01-2.32891E-03-3.85949E-06-2.60814E-03-1.22576E-13-7.29181E-14
 -1      3327 2.52364E+01-2.10653E+00-6.65026E-02-7.72804E-01-4.79825E-14 1.87243E-13
 -1      3328 2.42959E+01-2.73694E+00-3.98231E-02-5.75685E-02-2.87045E-14-1.49276E-13
 -1      3329 2.51241E+01 4.58837E+00-1.58715E-01 8.12235E-02-4.84203E-13-8.47170E-14
 -1      3330 2.55092E+01 3.43385E+00-8.58788E-02 1.70244E+00-4.20830E-13-3.01469E-13
 -1      3331 2.02943E+01-3.28982E+00 6.07158E-02-4.20305E+00-1.49436E-13-2.95396E-13
 -1      3332 1.55079E+01-1.09327E+00 9.59843E-02-4.31848E+00-8.50431E-14-4.58071E-13
 -1      3333 2.35449E+01-2.86134E+00-4.28901E-02-1.59516E+00-1.05596E-13-1.81764E-14
 -1      3334 2.36088E+01-2.27418E+00-1.54521E-02-1.03703E+00-8.71378E-14 2.52024E-14
 -1      3335 2.30456E+01-1.69196E+00 3.70010E-02-1.29269E+00-5.82668E-14-1.56895E-14
 -1      3336 2.56182E+01-3.16773E+00 1.97880E-02-3.74117E-02-4.65739E-14-3.73319E-13
 -1      3337 2.62149E+01-2.75163E+00-1.83021E-02-7.56189E-01 4.85896E-14-3.86229E-13
 -1      3338 2.66800E+01 3.09879E+00-1.63538E-01 2.12614E+00-3.98404E-13-3.91760E-13
 -1      3339 2.00018E+01-2.82416E-03 9.43741E-06-1.61605E-03 2.82198E-13-3.96005E-13
 -1      3340 2.00015E+01-2.69560E-03-3.86934E-06-1.98683E-03 3.14072E-13-6.24281E-13
 -1      3341 2.00017E+01-2.51084E-03-3.50676E-06-2.31794E-03 7.00809E-14-2.85815E-13
 -1      3342 2.00021E+01-2.99742E-03 6.39154E-06-7.23565E-04 1.77282E-13-4.59352E-13
 -1      3343 2.00019E+01-2.93170E-03-2.57275E-07-1.16173E-03 3.43666E-13-4.91423E-13
 -1      3344 2.00022E+01-2.76531E-03-5.34526E-06-1.48002E-03 2.42104E-13-4.19827E-13
 -1      3345 2.00025E+01-2.89203E-03-5.31956E-06-5.05734E-04 2.85211E-13-3.27988E-13
 -1      3346 1.81464E+01 1.98348E+00 1.98581E-02-1.28542E+00 1.63889E-13-2.76338E-13
 -1      3347 1.71570E+01 2.29428E+00-2.58478E-02-1.26644E+00 1.52102E-13-3.23467E-13
 -1      3348 1.86566E+01 1.23730E+00-1.07939E-02-1.59590E+00 1.17345E-13-2.28056E-13
 -1      3349 1.99998E+01-1.70026E-03-8.10959E-06 2.95393E-03-2.00805E-13-2.02497E-13
 -1      3350 2.00004E+01-2.05741E-03 1.35760E-05 2.89272E-03-1.45243E-13-5.70292E-14
 -1      3351 2.50636E+01-4.17827E+00 3.27682E-02-2.13246E+00-9.23220E-14-9.06913E-14
 -1      3352 2.57725E+01-3.55235E+00-7.27611E-02-6.58983E-01-5.11396E-14 2.29504E-15
 -1      3353 2.00008E+01-2.10006E-03-4.62805E-06 2.97099E-03-2.53818E-13-6.37989E-14
 -1      3354 1.09351E+01 5.59172E-01 1.22411E-01-9.58499E-01-4.62217E-15 4.47420E-13
 -1      3355 1.24115E+01 4.47709E-01 3.28169E-03-1.85825E+00 1.35693E-13 2.76924E-13
 -1      3356 1.18568E+01 7.21758E-01 3.65208E-02 1.03840E-01-6.19626E-14 3.43343E-13
 -1      3357 1.77631E+01-2.57493E+00 8.85298E-02-4.56831E+00 2.67879E-13 1.36426E-13
 -1      3358 2.25099E+01-1.17977E+00-2.70179E-03-1.27296E+00-6.57807E-15-3.46823E-14
 -1      3359 2.21117E+01-5.89414E-01 2.52108E-02-1.28176E+00 3.94346E-14-4.41463E-14
 -1      3360 2.13987E+01-4.15525E-01-2.00830E-02-1.47754E+00 6.30006E-14-7.25635E-14
 -1      3361 2.21306E+01-1.54747E+00-1.90070E-02-1.71664E+00-4.34245E-14-5.32248E-14
 -1      3362 1.09050E+01 1.11993E+00 1.60791E-01-2.22557E+00 3.13014E-14-6.38323E-13
 -1      3363 1.21103E+01 6.35047E-01-2.35243E-02-2.89978E+00-2.00708E-14-5.71848E-13
 -1      3364 2.49862E+01-3.42407E+00 7.95811E-03-7.39753E-01 2.15748E-14-2.71197E-13
 -1      3365 1.89027E+01 1.32095E+00-1.29560E-02 1.40412E+00 8.17874E-14-3.23102E-13
 -1      3366 1.97254E+01 1.05347E+00 1.26244E-02 1.15693E+00 4.93269E-14-3.24582E-13
 -1      3367 2.02187E+01 2.98431E-01-1.15006E-02 1.32523E+00 4.39583E-14-2.53424E-13
 -1      3368 1.05179E+01 1.44577E+00 5.51529E-02-1.21000E+00 7.43607E-14-6.37601E-13
 -1      3369 2.27153E+01-4.07908E+00 4.89437E-02-3.17308E+00 1.43843E-13-1.95301E-13
 -1      3370 1.62833E+01 2.80099E+00 2.94248E-02-1.02563E+00 1.69214E-13-3.76144E-13
 -1      3371 1.55245E+01 2.98865E+00-2.71232E-02-7.93725E-01 1.56419E-13-4.18921E-13
 -1      3372 1.50881E+01 2.83439E+00 2.18581E-02-7.46175E-01 1.45689E-13-4.33881E-13
 -1      3373 1.65372E+01 2.14022E+00-5.40688E-03-1.49807E+00 1.29880E-13-3.53843E-13
 -1      3374 2.56273E+01-2.60403E+00 1.35020E-02-7.83432E-02 5.66552E-14 1.89270E-13
 -1      3375 1.30602E+01 1.78553E-01 7.27195E-02 3.79935E+00 3.08829E-13-4.88332E-13
 -1      3376 1.85793E+01-2.12933E+00 6.69293E-02 4.52383E+00 3.31013E-13-1.98997E-13
 -1      3377 1.72892E+01-9.56492E-01 7.00101E-02 4.05359E+00 3.15919E-13-2.77132E-13
 -1      3378 1.99655E+01-2.08164E+00 4.06891E-02 3.62091E+00 3.08093E-13-1.47644E-13
 -1      3379 2.69889E+01 1.24305E+00-2.15105E-02 2.20935E+00-2.37504E-13-4.40620E-13
 -1      3380 1.70982E+01 2.05295E+00-2.61010E-02 1.66137E+00 1.51098E-13-3.65386E-13
 -1      3381 1.79851E+01 1.76099E+00 1.63595E-02 1.59481E+00 1.17675E-13-3.44552E-13
 -1      3382 1.84162E+01 9.46569E-01-1.21199E-02 1.94673E+00 1.32844E-13-2.96463E-13
 -1      3383 1.08855E+01 1.50584E+00-4.69507E-03 1.79277E+00 2.28317E-13-5.71668E-13
 -1      3384 1.05133E+01 1.77853E+00 1.19423E-01 2.13231E-01 1.46595E-13-6.14876E-13
 -1      3385 2.51238E+01-2.68907E+00 5.93996E-02 2.35539E-01 5.46646E-14 1.58127E-13
 -1      3386 2.15606E+01-1.96880E+00 4.37941E-03-1.77791E+00 8.20433E-14-1.11105E-13
 -1      3387 2.10919E+01-1.51977E+00 2.68140E-02-1.86220E+00 9.85830E-14-5.40625E-14
 -1      3388 2.06938E+01-1.12823E+00 1.04012E-02-1.80302E+00 6.22126E-14-3.06940E-14
 -1      3389 2.03640E+01-7.74013E-01 1.18302E-02-1.78664E+00 2.00262E-14-2.21209E-14
 -1      3390 2.02965E+01-1.40807E+00-3.96655E-02-2.18528E+00 1.11757E-13-1.26401E-13
 -1      3391 2.01689E+01-4.74409E-01 8.95024E-03-1.66159E+00-6.08863E-14-1.32395E-14
 -1      3392 1.99698E+01-2.25412E-01 5.33874E-03-1.59793E+00-5.49998E-14-6.29965E-15
 -1      3393 1.97507E+01-5.88390E-01-1.75224E-02-1.91923E+00-1.14304E-14-6.93959E-14
 -1      3394 1.98931E+01-2.57909E-02 6.69254E-03-1.46871E+00-2.38143E-14-6.80437E-14
 -1      3395 1.97833E+01 1.30227E-01 1.51441E-03-1.38602E+00 4.35122E-15-7.48188E-14
 -1      3396 1.95228E+01-5.99088E-02-7.90098E-03-1.63073E+00-9.24876E-14-2.14058E-14
 -1      3397 1.97725E+01 2.50979E-01 4.80847E-03-1.26598E+00-1.64115E-14-9.48938E-14
 -1      3398 1.97173E+01 3.37613E-01-4.84010E-04-1.17844E+00-3.74383E-14-5.38323E-14
 -1      3399 1.94516E+01 2.66353E-01-3.91832E-03-1.36489E+00-2.41868E-14-6.27577E-14
 -1      3400 1.97411E+01 4.00030E-01 3.47107E-03-1.07130E+00-1.02759E-14-4.10604E-14
 -1      3401 1.97177E+01 4.37827E-01-1.44394E-03-9.86046E-01 4.86784E-14 3.73897E-14
 -1      3402 1.94708E+01 4.45799E-01-1.41204E-03-1.13042E+00 2.52572E-14-7.48771E-14
 -1      3403 1.97566E+01 4.60379E-01 2.54244E-03-8.92499E-01 1.17838E-13 8.07052E-14
 -1      3404 1.97503E+01 4.66208E-01-1.83263E-03-8.13198E-01 2.39249E-13 1.28431E-13
 -1      3405 1.95339E+01 5.22329E-01-2.16960E-05-9.28022E-01 1.23863E-13 8.47607E-14
 -1      3406 1.97932E+01 4.63434E-01 1.93087E-03-7.32522E-01 3.00308E-13 1.09446E-13
 -1      3407 1.97950E+01 4.49906E-01-1.90889E-03-6.61068E-01 2.51550E-13 1.12643E-13
 -1      3408 1.96130E+01 5.31804E-01 6.59050E-04-7.54716E-01 2.37301E-13 1.21243E-13
 -1      3409 1.98359E+01 4.32423E-01 1.52843E-03-5.92255E-01 1.09032E-13 1.85353E-14
 -1      3410 1.98407E+01 4.08460E-01-1.81558E-03-5.29514E-01-1.18791E-15 2.94415E-14
 -1      3411 1.96925E+01 5.00704E-01 9.24807E-04-6.07176E-01 6.83169E-14-3.08827E-14
 -1      3412 1.98768E+01 3.83621E-01 1.25151E-03-4.71532E-01-9.01133E-14-3.37531E-14
 -1      3413 1.98820E+01 3.55236E-01-1.63495E-03-4.17689E-01-1.11768E-13-1.32882E-13
 -1      3414 1.97647E+01 4.47699E-01 9.61662E-04-4.82538E-01-2.56883E-14-1.35645E-13
 -1      3415 1.99122E+01 3.27883E-01 1.04576E-03-3.69493E-01-8.67107E-14-9.41112E-14
 -1      3416 1.99165E+01 2.98919E-01-1.41643E-03-3.24252E-01 6.71450E-15-1.40487E-13
 -1      3417 1.98260E+01 3.85413E-01 8.81799E-04-3.78334E-01-1.07080E-13-6.91930E-14
 -1      3418 1.99408E+01 2.72056E-01 8.80258E-04-2.84776E-01 4.15134E-14-1.13093E-13
 -1      3419 1.99440E+01 2.44802E-01-1.19037E-03-2.47509E-01 3.48521E-14-7.53501E-14
 -1      3420 1.98759E+01 3.21967E-01 7.51485E-04-2.92299E-01 3.03040E-14-2.17139E-16
 -1      3421 1.99630E+01 2.20139E-01 7.39274E-04-2.15666E-01 3.50945E-14-5.58788E-14
 -1      3422 1.99650E+01 1.95808E-01-9.75015E-04-1.85542E-01 2.26509E-14-1.36774E-14
 -1      3423 1.99151E+01 2.62236E-01 6.08521E-04-2.22248E-01 7.63074E-14 7.18432E-14
 -1      3424 1.99793E+01 1.74182E-01 6.15671E-04-1.60261E-01-2.40851E-15-2.56454E-14
 -1      3425 1.99803E+01 1.53276E-01-7.80538E-04-1.36353E-01 5.91271E-14 1.30135E-14
 -1      3426 1.99448E+01 2.08836E-01 4.73108E-04-1.66054E-01 6.50214E-14-1.08299E-13
 -1      3427 1.99908E+01 1.34954E-01 5.06621E-04-1.16605E-01-1.49539E-14 5.82836E-15
 -1      3428 1.99910E+01 1.17522E-01-6.11644E-04-9.79701E-02-8.51531E-14-2.89822E-14
 -1      3429 1.99666E+01 1.62868E-01 3.54765E-04-1.21668E-01 2.11312E-14-1.02860E-13
 -1      3430 1.99985E+01 1.02427E-01 4.11099E-04-8.28015E-02-1.39878E-13-2.28136E-14
 -1      3431 1.99982E+01 8.82547E-02-4.69443E-04-6.85400E-02-1.31136E-13-1.16272E-14
 -1      3432 1.99821E+01 1.24460E-01 2.56737E-04-8.71692E-02-9.96781E-14-1.89118E-14
 -1      3433 2.00034E+01 7.61112E-02 3.28586E-04-5.70939E-02-2.11915E-13-1.07210E-13
 -1      3434 2.00028E+01 6.48443E-02-3.52800E-04-4.63847E-02-3.06497E-13-2.25255E-13
 -1      3435 1.99928E+01 9.31664E-02 1.78777E-04-6.08022E-02-2.36972E-13-6.75136E-14
 -1      3436 2.00061E+01 5.52847E-02 2.58499E-04-3.79110E-02-1.14097E-13-1.28271E-13
 -1      3437 2.00054E+01 4.65124E-02-2.59303E-04-3.00316E-02-5.11961E-14-8.37819E-14
 -1      3438 1.99997E+01 6.82308E-02 1.18879E-04-4.10072E-02-1.34415E-13-1.57882E-13
 -1      3439 2.00074E+01 3.91403E-02 2.00009E-04-2.38900E-02-1.51952E-13-5.86588E-14
 -1      3440 2.00066E+01 3.24479E-02-1.85943E-04-1.82227E-02-1.23457E-13-1.17078E-13
 -1      3441 2.00039E+01 4.87695E-02 7.43140E-05-2.64324E-02-8.35066E-14-2.55145E-14
 -1      3442 2.00077E+01 2.68782E-02 1.52051E-04-1.38787E-02-1.13312E-13-1.32303E-13
 -1      3443 2.00069E+01 2.18775E-02-1.29560E-04-9.90832E-03-7.17118E-14-3.99028E-14
 -1      3444 2.00062E+01 3.38843E-02 4.22234E-05-1.59326E-02-7.48485E-14 2.98870E-16
 -1      3445 2.00074E+01 1.77583E-02 1.13407E-04-6.92471E-03-1.80293E-13 2.53941E-14
 -1      3446 2.00066E+01 1.41036E-02-8.71191E-05-4.23138E-03-2.30706E-13 1.92228E-14
 -1      3447 2.00072E+01 2.27307E-02 1.99429E-05-8.55816E-03-1.23000E-13-8.93081E-15
 -1      3448 2.00067E+01 1.11269E-02 8.28029E-05-2.25745E-03-2.07628E-13-2.10802E-15
 -1      3449 2.00060E+01 8.52089E-03-5.58724E-05-5.05621E-04-1.07110E-13 3.05991E-15
 -1      3450 2.00073E+01 1.45532E-02 5.14825E-06-3.53693E-03-2.20235E-13 1.70384E-13
 -1      3451 2.00058E+01 6.42568E-03 5.89898E-05 7.34756E-04 4.85779E-14-4.36325E-14
 -1      3452 2.00052E+01 4.61965E-03-3.34316E-05 1.80783E-03 1.57278E-13-3.29242E-14
 -1      3453 2.00068E+01 8.70026E-03-4.09805E-06-2.52932E-04-5.15945E-14 4.83679E-14
 -1      3454 2.00049E+01 3.18972E-03 4.08071E-05 2.52796E-03 1.84404E-13-1.72087E-14
 -1      3455 2.00044E+01 1.98016E-03-1.77828E-05 3.12390E-03 2.88369E-13-4.40541E-14
 -1      3456 2.00061E+01 4.62533E-03-9.36067E-06 1.77620E-03 1.49184E-13 8.43708E-14
 -1      3457 2.00039E+01 1.04009E-03 2.72251E-05 3.48516E-03 2.30346E-13-1.38566E-13
 -1      3458 2.00035E+01 2.63391E-04-7.24379E-06 3.75528E-03 1.39351E-13-7.26020E-14
 -1      3459 2.00052E+01 1.87976E-03-1.18521E-05 2.92091E-03 1.84043E-13-7.09695E-14
 -1      3460 2.00031E+01-3.26853E-04 1.73067E-05 3.87727E-03 1.97900E-13-1.14923E-13
 -1      3461 2.00027E+01-8.00645E-04-5.36385E-07 3.93248E-03 1.97184E-13-5.31804E-14
 -1      3462 2.00043E+01 1.02354E-04-1.24663E-05 3.45972E-03 1.10764E-13-2.07894E-13
 -1      3463 2.00023E+01-1.15219E-03 1.03393E-05 3.90135E-03 7.22768E-14 6.47488E-15
 -1      3464 2.00020E+01-1.42533E-03 3.50991E-06 3.82010E-03 1.17943E-13-7.89079E-14
 -1      3465 2.00034E+01-9.94864E-04-1.20391E-05 3.59793E-03 1.65406E-13-6.99466E-14
 -1      3466 2.00017E+01-1.62770E-03 5.14434E-06 3.69492E-03 1.51832E-13-6.26970E-14
 -1      3467 2.00014E+01-1.77651E-03 5.83797E-06 3.52898E-03 6.39156E-14-3.53696E-14
 -1      3468 2.00026E+01-1.63842E-03-1.04285E-05 3.48071E-03 1.58830E-13 2.03643E-13
 -1      3469 2.00012E+01-1.89592E-03 2.34334E-07 3.36295E-03-2.28017E-14-1.30020E-13
 -1      3470 2.00010E+01-2.00143E-03 2.65641E-06 3.15196E-03-1.91209E-13-5.63286E-14
 -1      3471 2.00015E+01-2.23029E-03-2.99064E-06 2.86234E-03-9.21458E-14-2.25862E-14
 -1      3472 2.00019E+01-2.00013E-03-7.54292E-06 3.20856E-03-3.00959E-14 1.84991E-13
 -1      3473 2.46968E+01-3.68282E+00-2.38823E-02 1.18973E+00-8.54351E-14-4.42068E-13
 -1      3474 2.70953E+01-1.81072E+00-6.87412E-02-1.93389E+00 4.31092E-14-3.28730E-13
 -1      3475 1.95927E+01-3.07557E-01 7.77434E-03 2.27775E+00-2.07978E-13 3.81247E-14
 -1      3476 1.98806E+01-7.01414E-01 2.01774E-02 2.40756E+00-2.02041E-13-1.07564E-14
 -1      3477 1.95308E+01 6.21222E-01-3.72586E-03 1.34982E+00-1.30786E-13 8.66861E-14
 -1      3478 1.95394E+01 5.80392E-01 5.11754E-03 1.46884E+00-7.47601E-14 4.53142E-16
 -1      3479 1.96315E+01 6.39725E-01-3.67599E-03 1.11795E+00-1.46087E-13 1.08327E-13
 -1      3480 1.96239E+01 6.42086E-01 3.27453E-03 1.22614E+00-9.23833E-14 1.27216E-13
 -1      3481 1.92552E+01 7.34803E-01 2.42521E-03 1.24650E+00-1.11858E-13 5.80424E-14
 -1      3482 1.97263E+01 6.01555E-01-3.34975E-03 9.16342E-01-6.40327E-14 8.22092E-14
 -1      3483 1.97150E+01 6.27459E-01 2.30410E-03 1.01311E+00-1.47978E-13 3.59608E-14
 -1      3484 1.94246E+01 7.25870E-01 2.64749E-03 1.02451E+00-8.59459E-14-2.59227E-15
 -1      3485 1.98060E+01 5.35288E-01-2.92700E-03 7.41823E-01 2.00048E-14 1.23696E-13
 -1      3486 1.97962E+01 5.72160E-01 1.80200E-03 8.26843E-01-4.38069E-14 1.13905E-13
 -1      3487 1.95696E+01 6.68229E-01 2.43192E-03 8.36362E-01-8.80641E-14-9.15795E-14
 -1      3488 1.98684E+01 4.58654E-01-2.48621E-03 5.92330E-01 8.67508E-14 4.50018E-16
 -1      3489 1.98619E+01 4.98802E-01 1.52212E-03 6.65631E-01 1.16227E-13 1.22763E-13
 -1      3490 1.96871E+01 5.87605E-01 2.04150E-03 6.75783E-01 4.96388E-14-6.76226E-14
 -1      3491 1.99151E+01 3.82038E-01-2.06599E-03 4.66048E-01 5.51837E-14-4.25672E-14
 -1      3492 1.99119E+01 4.21040E-01 1.33597E-03 5.28055E-01 4.35812E-14-1.97958E-14
 -1      3493 1.97788E+01 4.99950E-01 1.61970E-03 5.39202E-01 8.14014E-14-3.81767E-14
 -1      3494 1.99487E+01 3.11061E-01-1.68524E-03 3.61033E-01 6.48736E-14-3.41415E-14
 -1      3495 1.99480E+01 3.46594E-01 1.18225E-03 4.12520E-01 1.01082E-13 4.71987E-15
 -1      3496 1.98482E+01 4.14597E-01 1.23440E-03 4.24180E-01 3.75284E-14-1.30106E-13
 -1      3497 1.99720E+01 2.48368E-01-1.35191E-03 2.75118E-01-5.39455E-16 1.05599E-15
 -1      3498 1.99730E+01 2.79411E-01 1.03690E-03 3.17111E-01 4.19901E-14 2.55722E-14
 -1      3499 1.98995E+01 3.36562E-01 9.11101E-04 3.28618E-01-1.26676E-14 8.27896E-14
 -1      3500 1.99876E+01 1.94814E-01-1.06763E-03 2.05978E-01-1.01987E-13 6.82485E-14
 -1      3501 1.99896E+01 2.21121E-01 8.94364E-04 2.39640E-01-1.32018E-14 5.54859E-14
 -1      3502 1.99365E+01 2.68131E-01 6.53640E-04 2.50431E-01-4.82914E-15 1.06677E-13
 -1      3503 1.99976E+01 1.50223E-01-8.30323E-04 1.51248E-01 7.16801E-14-6.71744E-14
 -1      3504 2.00001E+01 1.71989E-01 7.56582E-04 1.77780E-01-4.28310E-14 1.07807E-14
 -1      3505 1.99625E+01 2.09924E-01 4.55958E-04 1.87482E-01-2.31073E-14-2.47714E-14
 -1      3506 2.00036E+01 1.13874E-01-6.35854E-04 1.08641E-01-5.07684E-15-7.79369E-14
 -1      3507 2.00062E+01 1.31523E-01 6.27460E-04 1.29203E-01 1.18990E-13-7.23713E-14
 -1      3508 1.99804E+01 1.61594E-01 3.08395E-04 1.37627E-01 3.79769E-14-1.85318E-13
 -1      3509 2.00068E+01 8.47884E-02-4.79133E-04 7.60316E-02-3.32343E-15-2.58094E-13
 -1      3510 2.00094E+01 9.88425E-02 5.10386E-04 9.16944E-02-5.53061E-14-2.38769E-13
 -1      3511 1.99922E+01 1.22275E-01 2.00865E-04 9.87985E-02 4.44855E-14-1.31014E-13
 -1      3512 2.00083E+01 6.19134E-02-3.54801E-04 5.15149E-02 2.50280E-13-2.39243E-13
 -1      3513 2.00106E+01 7.29158E-02 4.07423E-04 6.32325E-02 1.28709E-13-2.55802E-13
 -1      3514 1.99998E+01 9.08675E-02 1.24274E-04 6.90746E-02 9.70177E-14-3.78624E-13
 -1      3515 2.00086E+01 4.42225E-02-2.57663E-04 3.34333E-02 8.81802E-14-1.65198E-13
 -1      3516 2.00106E+01 5.26924E-02 3.19292E-04 4.20297E-02 2.33871E-13-1.29641E-13
 -1      3517 2.00042E+01 6.62053E-02 7.10120E-05 4.67279E-02 1.40519E-13-1.94227E-13
 -1      3518 2.00082E+01 3.07719E-02-1.82936E-04 2.03800E-02 1.18347E-13-1.33316E-13
 -1      3519 2.00099E+01 3.71809E-02 2.45648E-04 2.65496E-02 1.10064E-13-1.58414E-13
 -1      3520 2.00066E+01 4.71631E-02 3.49911E-05 3.02515E-02 7.73883E-14-1.07208E-13
 -1      3521 2.00074E+01 2.07271E-02-1.26368E-04 1.11870E-02 7.77610E-14-1.64565E-13
 -1      3522 2.00088E+01 2.54886E-02 1.85424E-04 1.55025E-02 1.07359E-13-1.85127E-13
 -1      3523 2.00076E+01 3.27106E-02 1.14798E-05 1.83637E-02 9.64292E-14-6.82721E-14
 -1      3524 2.00064E+01 1.33711E-02-8.42863E-05 4.90420E-03-2.14745E-13 1.65702E-13
 -1      3525 2.00075E+01 1.68379E-02 1.37146E-04 7.82897E-03-1.22893E-13-3.47715E-14
 -1      3526 2.00076E+01 2.19389E-02-3.12080E-06 9.99901E-03-1.31122E-13 8.60507E-14
 -1      3527 2.00054E+01 8.10221E-03-5.35895E-05 7.73184E-04-3.35031E-13 4.07249E-13
 -1      3528 2.00062E+01 1.05687E-02 9.91686E-05 2.67502E-03-2.77037E-13 3.29521E-13
 -1      3529 2.00071E+01 1.40686E-02-1.15038E-05 4.28993E-03-3.61230E-13 2.60803E-13
 -1      3530 2.00044E+01 4.42478E-03-3.17071E-05-1.80048E-03-1.26025E-13 2.44951E-13
 -1      3531 2.00051E+01 6.13242E-03 6.98454E-05-6.34812E-04-1.72838E-13 3.48886E-13
 -1      3532 2.00064E+01 8.44616E-03-1.56559E-05 5.43469E-04-1.97616E-13 3.15951E-13
 -1      3533 2.00035E+01 1.93730E-03-1.65462E-05-3.27397E-03-3.46281E-14 2.88895E-14
 -1      3534 2.00040E+01 3.08079E-03 4.76296E-05-2.62508E-03-8.81973E-15 2.04659E-13
 -1      3535 2.00054E+01 4.53429E-03-1.70248E-05-1.78343E-03-1.51234E-14 1.31917E-13
 -1      3536 2.00027E+01 3.18667E-04-6.45908E-06-3.99199E-03 3.08782E-14-2.53657E-14
 -1      3537 2.00031E+01 1.05328E-03 3.11460E-05-3.69547E-03-4.36413E-14 1.40343E-14
 -1      3538 2.00045E+01 1.89795E-03-1.66643E-05-3.10838E-03 1.30852E-14 1.70573E-13
 -1      3539 2.00020E+01-6.85237E-04-9.47654E-08-4.20808E-03-1.98360E-13-1.54893E-13
 -1      3540 2.00023E+01-2.37071E-04 1.92415E-05-4.14388E-03-6.57694E-14-1.57599E-13
 -1      3541 2.00036E+01 1.89164E-04-1.53727E-05-3.74610E-03 2.85086E-14 1.68203E-13
 -1      3542 2.00014E+01-1.27305E-03 3.83650E-06-4.10350E-03-2.36840E-13 3.45232E-14
 -1      3543 2.00016E+01-1.01592E-03 1.09342E-05-4.18652E-03-2.56054E-13-1.48237E-13
 -1      3544 2.00028E+01-8.66490E-04-1.34640E-05-3.92745E-03-2.57272E-13 3.62871E-14
 -1      3545 2.00009E+01-1.60314E-03 5.55451E-06-3.80330E-03-1.75810E-13 2.36932E-13
 -1      3546 2.00011E+01-1.46216E-03 4.67227E-06-3.97708E-03-1.57366E-13 2.09955E-13
 -1      3547 2.00021E+01-1.48297E-03-1.12861E-05-3.81812E-03-3.73083E-13 3.94234E-13
 -1      3548 2.00005E+01-1.79709E-03 3.51434E-06-3.39027E-03-2.59545E-13 1.67720E-13
 -1      3549 2.00006E+01-1.70820E-03 2.29366E-06-3.61402E-03-1.43923E-13 3.02543E-13
 -1      3550 2.00014E+01-1.83621E-03-8.11528E-06-3.53517E-03-1.47911E-13 5.52917E-13
 -1      3551 2.00909E+01-1.19264E+00 2.17360E-02 2.63552E+00-2.60761E-13-3.15355E-14
 -1      3552 2.05776E+01-1.79947E+00 1.02604E-02 2.70511E+00-2.46408E-13-1.02463E-13
 -1      3553 1.90198E+01-8.83151E-01-3.11987E-02 2.79455E+00-2.56057E-13-1.55402E-13
 -1      3554 2.00006E+01-2.17433E-03 1.00584E-05-2.75180E-03-2.63427E-13 6.12944E-14
 -1      3555 2.00002E+01-1.97871E-03-3.07034E-07-2.84788E-03-3.98348E-13 4.37066E-13
 -1      3556 2.00002E+01-1.91968E-03-3.07368E-06-3.02376E-03-4.49632E-13 2.71234E-13
 -1      3557 2.00009E+01-2.21955E-03-3.81168E-06-2.83032E-03-3.05754E-13 3.58508E-14
 -1      3558 2.39321E+01-3.14628E+00-7.34582E-02 1.41137E+00 1.15805E-13 4.65808E-14
 -1      3559 2.23663E+01-2.71429E+00 5.29963E-02 2.52905E+00 2.01043E-13-3.63954E-14
 -1      3560 2.38583E+01-3.76488E+00 5.77364E-02-2.50537E+00-1.25875E-13-1.20180E-13
 -1      3561 2.70538E+01-2.80649E+00-4.37411E-02-7.67081E-01 3.88647E-14-5.19314E-13
 -1      3562 2.00029E+01-2.73451E-03-1.44582E-06 8.00842E-04 1.47749E-13-1.21623E-13
 -1      3563 2.00030E+01-2.76267E-03 2.89133E-06 2.89757E-04 7.56265E-14 3.52458E-14
 -1      3564 1.37991E+01-5.25030E-03 8.22657E-02-2.98037E+00 1.36832E-13 2.88457E-13
 -1      3565 1.48846E+01-8.09577E-01-1.95469E-02-3.74588E+00 2.11751E-13 3.35031E-13
 -1      3566 2.63563E+01-3.97559E+00 5.67780E-02 7.55033E-01-7.20552E-14-5.72015E-13
 -1      3567 2.47984E+01-4.13407E+00-4.40520E-02 1.57723E+00-1.09177E-13-4.38883E-13
 -1      3568 1.48209E+01 1.92050E-01 1.57284E-01-3.59533E+00-5.76206E-14-4.74266E-13
 -1      3569 1.69503E+01-1.11859E+00-3.86570E-02-3.98761E+00-6.52811E-14-3.57922E-13
 -1      3570 1.94482E+01 5.02081E-01-3.06672E-03 1.61728E+00-8.90878E-14-5.62006E-14
 -1      3571 1.94980E+01 3.88767E-01 8.42783E-03 1.74566E+00-1.33644E-13-8.60616E-14
 -1      3572 1.90747E+01 6.54963E-01 1.26423E-03 1.51384E+00-1.47254E-13-8.28096E-14
 -1      3573 1.94351E+01 2.18293E-01-6.76516E-04 1.92753E+00-7.88420E-14-6.13356E-14
 -1      3574 1.95696E+01-1.04296E-02 1.24294E-02 2.06079E+00-1.01501E-13-6.38357E-15
 -1      3575 1.89151E+01 4.25967E-01-1.85441E-03 1.84572E+00-6.77752E-14-1.35485E-13
 -1      3576 2.28808E+01-2.82380E+00 1.25054E-03-1.41869E+00-1.70957E-14-1.23085E-13
 -1      3577 2.22712E+01-2.39233E+00 4.83371E-02-1.69435E+00 3.69164E-14-1.25997E-13
 -1      3578 2.12587E+01-2.41096E+00-6.29139E-02-2.28840E+00 5.92976E-14-7.48663E-14
 -1      3579 2.40913E+01-3.29305E+00 4.17941E-02-1.14059E+00-1.58294E-14-2.32794E-13
 -1      3580 2.06386E+01-1.92619E-02 1.55481E-02-1.70635E+00 6.77858E-14-1.32270E-13
 -1      3581 1.98640E+01 3.25072E-01 6.22009E-03-1.82911E+00 7.69557E-14-1.76455E-13
 -1      3582 2.09271E+01-6.26886E-01 9.51845E-03-1.93048E+00 3.14510E-14-1.47172E-13
 -1      3583 1.15542E+01 1.83095E+00 6.25552E-02-5.38127E-01 1.12227E-13-5.84047E-13
 -1      3584 1.56459E+01 2.79715E+00-2.14617E-02 1.41327E+00 1.79387E-13-4.38655E-13
 -1      3585 1.63744E+01 2.54007E+00 1.86987E-02 1.53763E+00 1.57830E-13-4.21131E-13
 -1      3586 1.66581E+01 1.83616E+00 2.00575E-02 1.98250E+00 1.81130E-13-3.77042E-13
 -1      3587 1.51172E+01 2.66431E+00 1.66478E-02 1.45741E+00 1.83328E-13-4.36814E-13
 -1      3588 2.34153E+01-2.25265E+00 4.74298E-02 9.96251E-01 8.65696E-14 4.18372E-15
 -1      3589 2.41113E+01-2.51139E+00 7.70106E-03 5.70569E-01 5.87091E-14 6.04117E-14
 -1      3590 1.86304E+01-2.54415E+00-1.48308E-02 4.12223E+00-3.16452E-13-2.62845E-14
 -1      3591 1.69071E+01-1.71412E+00 3.51540E-02 4.07849E+00-3.12823E-13 9.31928E-14
 -1      3592 2.64397E+01-2.78573E+00 2.72599E-02 5.15290E-01 3.11209E-15 9.71914E-14
 -1      3593 1.69110E+01-1.72808E+00 6.07446E-02-4.17034E+00 2.45070E-13 2.21507E-13
 -1      3594 1.93878E+01-3.07784E+00-4.93856E-02-4.14455E+00 2.14318E-13 3.34455E-15
 -1      3595 1.41256E+01 8.05188E-01 5.86712E-02-2.81394E+00-7.10196E-15-4.86243E-13
 -1      3596 2.15400E+01-3.23314E+00 8.72635E-02-3.19004E+00 1.87852E-13-9.73917E-14
 -1      3597 2.30218E+01-3.56490E+00-5.26589E-02-2.14453E+00 6.44098E-14-2.27533E-13
 -1      3598 1.44910E+01 1.87532E-01-4.95526E-02 3.73750E+00 3.18283E-13-3.96391E-13
 -1      3599 1.25904E+01 1.29956E+00 1.60504E-01 2.83988E+00 2.84005E-13-5.38847E-13
 -1      3600 2.37506E+01-3.64700E+00 8.18655E-02 2.11580E+00-1.64618E-13-3.90982E-13
 -1      3601 2.17192E+01-3.43586E+00-7.90235E-03-3.59735E+00-1.35260E-13-2.22879E-13
 -1      3602 2.30203E+01-3.05053E+00 1.59274E-02-2.27351E+00-1.36904E-13-1.11373E-13
 -1      3603 2.19938E+01-2.27704E+00 3.91314E-02-2.46873E+00-1.02468E-13-1.11366E-13
 -1      3604 1.96669E+01-2.24931E+00 7.35130E-02-3.83064E+00-1.09628E-13-2.59844E-13
 -1      3605 2.22589E+01-3.17268E+00-1.08211E-02 2.56289E+00-2.39624E-13-3.26282E-13
 -1      3606 2.21919E+01-3.56804E+00-3.21060E-02 2.91935E+00-2.32946E-13-3.50962E-13
 -1      3607 2.02452E+01-2.93059E+00 7.54130E-02 3.79869E+00-2.83506E-13-2.10196E-13
 -1      3608 2.14982E+01-2.39025E+00 6.07142E-02 2.70435E+00-2.24639E-13-2.52056E-13
 -1      3609 1.58561E+01-9.87481E-01 4.49817E-02 3.78176E+00-2.34337E-13 9.23150E-14
 -1      3610 1.48232E+01-2.62149E-01-1.14883E-02 3.03985E+00-1.95600E-13 1.02987E-13
 -1      3611 1.71941E+01-1.09087E+00 2.02123E-02 3.46934E+00-2.60015E-13 3.74405E-14
 -1      3612 2.00025E+01-2.58672E-03 5.19667E-07 1.79443E-03 2.77921E-14-8.65231E-14
 -1      3613 2.00028E+01-2.66921E-03 5.61358E-06 1.33716E-03 1.52972E-13-2.01553E-13
 -1      3614 2.00033E+01-2.55631E-03-3.94021E-06 1.12320E-03 1.73433E-13-8.03657E-14
 -1      3615 1.37680E+01 3.92434E-01 3.56487E-02-2.05253E+00 7.86003E-14 2.66278E-13
 -1      3616 1.36791E+01 2.80999E+00-2.18210E-02 1.88960E-01 1.74238E-13-4.59036E-13
 -1      3617 1.37849E+01 2.75087E+00 3.73302E-04 7.54465E-01 1.77027E-13-4.51679E-13
 -1      3618 1.87010E+01-1.21145E+00 4.67856E-02-3.39868E+00-8.05814E-14-2.90185E-13
 -1      3619 1.99773E+01-2.08807E+00-2.65154E-02 3.16436E+00-2.98111E-13-1.66214E-13
 -1      3620 2.00035E+01-2.61295E-03-2.04662E-06 1.00579E-05 1.00713E-13-1.17367E-13
 -1      3621 2.00030E+01-2.76386E-03 2.73349E-06-2.74939E-04 1.24426E-13-2.93394E-13
 -1      3622 2.00029E+01-2.73666E-03-2.73122E-07-7.82555E-04 2.54069E-13-6.54680E-13
 -1      3623 1.81346E+01 4.55693E-01-3.92757E-02 2.47075E+00 1.94511E-13-2.67916E-13
 -1      3624 1.93415E+01 1.60708E-01 4.54728E-02 2.19134E+00 1.52837E-13-2.67540E-13
 -1      3625 1.88471E+01-4.37517E-02-9.91935E-03 2.26681E+00-1.30369E-13-8.41595E-14
 -1      3626 2.00003E+01-1.84578E-03 1.36199E-06-3.18570E-03-4.04421E-13 1.73747E-13
 -1      3627 2.00013E+01-2.13823E-03 6.23844E-06-2.99886E-03-2.23190E-13 1.52755E-13
 -1      3628 2.00009E+01-2.01636E-03-6.42180E-06-3.15787E-03-3.66943E-13 2.80365E-13
 -1      3629 1.88049E+01 7.39018E-01 1.20125E-02-1.93367E+00 6.49216E-14-2.36980E-13
 -1      3630 2.00019E+01-2.37785E-03 3.41029E-06 2.48882E-03-7.94236E-14-9.28670E-14
 -1      3631 2.00022E+01-2.46568E-03 8.84832E-06-2.29796E-03 1.35658E-13-1.57867E-13
 -1      3632 2.00018E+01-2.32086E-03-6.61971E-06-2.66849E-03-2.41422E-14-2.87697E-14
 -1      3633 2.00017E+01-2.11480E-03 2.43123E-07-3.02087E-03-3.58328E-14 2.69186E-13
 -1      3634 2.05849E+01-2.55995E+00 4.03613E-02-3.09017E+00 1.63532E-13-2.67856E-14
 -1      3635 2.12656E+01-5.21477E-01 8.63673E-03 1.28377E+00 5.38418E-14-1.81112E-13
 -1      3636 2.19227E+01-1.14234E+00 1.03194E-02 1.19907E+00 5.11068E-14-1.16684E-13
 -1      3637 2.25490E+01-1.65950E+00 8.86764E-03 1.07342E+00 9.36699E-14-5.39715E-14
 -1      3638 2.04604E+01-2.97416E-01-3.08499E-04 1.66789E+00 1.12207E-13-2.05972E-13
 -1      3639 1.23917E+01 8.32995E-01 1.02911E-01 1.04121E+00-1.42557E-13 3.78121E-13
 -1      3640 1.30174E+01 8.70517E-01 6.61787E-03 4.09765E-02-7.27552E-14 2.41194E-13
 -1      3641 1.34090E+01 5.10060E-01 3.09505E-02 1.82357E+00-1.88627E-13 2.36276E-13
 -1      3642 1.96600E+01-2.31162E+00 2.52019E-02 3.53306E+00-3.06394E-13-1.46118E-13
 -1      3643 1.40021E+01 2.09570E+00 5.28420E-02-1.56053E+00 8.30048E-14-4.79910E-13
 -1      3644 1.32444E+01 2.34187E+00 1.46769E-02-9.34887E-01 1.07260E-13-5.11494E-13
 -1      3645 1.68351E+01-1.11816E+00 5.32166E-02-3.56409E+00 1.64542E-13 2.35537E-13
 -1      3646 2.21735E+01-1.90699E+00-3.87877E-02 1.63449E+00 1.18656E-13-9.74091E-14
 -1      3647 1.25930E+01 1.72326E+00 4.05504E-02 1.96119E+00 2.30319E-13-5.23415E-13
 -1      3648 2.03288E+01-7.99119E-01-4.60253E-03 2.15533E+00 1.50347E-13-1.88620E-13
 -1      3649 1.57758E+01 1.37889E+00-2.34145E-02-2.20650E+00 4.04694E-14-3.85667E-13
 -1      3650 1.23812E+01 2.15939E+00 6.01672E-02-5.19156E-01 1.09827E-13-5.35703E-13
 -1      3651 1.82746E+01-1.48226E-01 4.79637E-03-2.78977E+00-7.36152E-15-2.50718E-13
 -1      3652 2.04305E+01-1.34218E+00-1.58898E-02-2.68834E+00-5.30027E-14-1.69688E-13
 -1      3653 1.93607E+01-5.28330E-01 1.64538E-02-2.08382E+00 4.54157E-14-5.01552E-16
 -1      3654 1.91388E+01-2.30294E-01 2.00192E-04-1.93496E+00-1.42598E-14 2.13333E-14
 -1      3655 1.91537E+01 1.82878E-02 1.09149E-02-1.71837E+00-5.76413E-14 1.30707E-14
 -1      3656 1.90699E+01 2.01681E-01-2.65542E-03-1.57345E+00-1.08307E-13 1.81538E-14
 -1      3657 1.86461E+01 4.29292E-02 1.14327E-03-1.88796E+00-7.92465E-15-4.68050E-15
 -1      3658 1.91405E+01 3.51203E-01 7.38822E-03-1.39963E+00-6.50623E-14 8.65975E-14
 -1      3659 1.91213E+01 4.53690E-01-3.28368E-03-1.27282E+00-2.94355E-14 1.15377E-14
 -1      3660 1.87254E+01 4.03415E-01-1.05429E-03-1.47784E+00-5.51965E-14 1.56267E-13
 -1      3661 1.92127E+01 5.30366E-01 4.65034E-03-1.13602E+00 6.22343E-15 4.98539E-14
 -1      3662 1.92289E+01 5.75530E-01-3.38543E-03-1.02820E+00 8.79694E-14 1.13507E-13
 -1      3663 1.88848E+01 5.98233E-01 5.22231E-04-1.16383E+00 1.41317E-14 1.63136E-13
 -1      3664 1.93229E+01 6.03927E-01 2.94725E-03-9.19622E-01 1.32973E-13 1.29018E-13
 -1      3665 1.93551E+01 6.11148E-01-3.15961E-03-8.28308E-01 1.56707E-13 1.30312E-13
 -1      3666 1.90641E+01 6.79316E-01 1.56279E-03-9.21677E-01 9.27543E-14 1.99949E-13
 -1      3667 1.94429E+01 6.08494E-01 1.90889E-03-7.41094E-01 1.75864E-13 1.17079E-13
 -1      3668 1.94799E+01 5.92231E-01-2.82313E-03-6.63749E-01 1.82343E-13 1.36462E-14
 -1      3669 1.92388E+01 6.85444E-01 1.95241E-03-7.31043E-01 1.42471E-13 1.41991E-13
 -1      3670 1.95574E+01 5.71016E-01 1.28833E-03-5.93032E-01 9.96935E-14-6.82856E-14
 -1      3671 1.95931E+01 5.41595E-01-2.46398E-03-5.27690E-01-7.52659E-15-5.61826E-14
 -1      3672 1.93970E+01 6.45452E-01 1.99345E-03-5.78671E-01 4.00389E-14-9.33470E-14
 -1      3673 1.96590E+01 5.10621E-01 9.19616E-04-4.70114E-01-1.91298E-14-8.90522E-14
 -1      3674 1.96904E+01 4.75181E-01-2.11246E-03-4.15279E-01-2.58484E-14-7.62903E-14
 -1      3675 1.95339E+01 5.79777E-01 1.85603E-03-4.55580E-01 9.66786E-15-3.46301E-14
 -1      3676 1.97448E+01 4.40424E-01 6.95185E-04-3.68467E-01 1.32579E-14-5.41198E-14
 -1      3677 1.97709E+01 4.03700E-01-1.78091E-03-3.22907E-01 4.72912E-14 1.14956E-13
 -1      3678 1.96482E+01 5.02578E-01 1.63380E-03-3.55725E-01 1.40836E-14-1.81993E-14
 -1      3679 1.98147E+01 3.69011E-01 5.51135E-04-2.85065E-01-1.84173E-14 1.38763E-13
 -1      3680 1.98355E+01 3.33955E-01-1.47628E-03-2.47675E-01 3.94910E-14 1.48850E-13
 -1      3681 1.97411E+01 4.23306E-01 1.38145E-03-2.74835E-01 3.46356E-14 6.71915E-14
 -1      3682 1.98698E+01 3.01642E-01 4.51115E-04-2.17354E-01 5.41012E-14 4.46488E-14
 -1      3683 1.98857E+01 2.69922E-01-1.20304E-03-1.87090E-01 1.35322E-16 5.95638E-14
 -1      3684 1.98146E+01 3.47902E-01 1.13116E-03-2.09685E-01-1.13575E-14 5.90915E-14
 -1      3685 1.99121E+01 2.41206E-01 3.75366E-04-1.63062E-01-3.49590E-14-6.29299E-14
 -1      3686 1.99238E+01 2.13602E-01-9.63641E-04-1.38925E-01 5.06378E-15-1.37967E-13
 -1      3687 1.98714E+01 2.79745E-01 9.00930E-04-1.57676E-01-5.18661E-14-2.39578E-14
 -1      3688 1.99436E+01 1.88967E-01 3.13700E-04-1.20126E-01 9.97656E-14-1.31105E-13
 -1      3689 1.99520E+01 1.65669E-01-7.58553E-04-1.01169E-01 1.07130E-13-1.58742E-15
 -1      3690 1.99142E+01 2.20419E-01 6.99589E-04-1.16615E-01 3.31846E-14-1.05419E-13
 -1      3691 1.99665E+01 1.45128E-01 2.61172E-04-8.66675E-02-1.82001E-14 9.31731E-15
 -1      3692 1.99723E+01 1.25962E-01-5.86594E-04-7.20176E-02-9.41743E-14 5.06040E-14
 -1      3693 1.99458E+01 1.70304E-01 5.30063E-04-8.46068E-02 1.01899E-15 3.43757E-14
 -1      3694 1.99826E+01 1.09244E-01 2.15529E-04-6.10009E-02-2.10380E-13 2.19030E-14
 -1      3695 1.99864E+01 9.38279E-02-4.45322E-04-4.98699E-02-3.06366E-13-2.60444E-14
 -1      3696 1.99685E+01 1.29023E-01 3.91670E-04-6.00055E-02-1.65324E-13 7.83546E-14
 -1      3697 1.99935E+01 8.05133E-02 1.75773E-04-4.16406E-02-2.35209E-13 4.42591E-14
 -1      3698 1.99958E+01 6.83678E-02-3.31500E-04-3.33357E-02-3.18292E-14 5.03757E-14
 -1      3699 1.99843E+01 9.57694E-02 2.81692E-04-4.13874E-02-2.05028E-13 1.21753E-13
 -1      3700 2.00005E+01 5.79774E-02 1.41412E-04-2.73030E-02-1.61791E-14 7.88417E-15
 -1      3701 2.00018E+01 4.85971E-02-2.41508E-04-2.12293E-02-3.43933E-14 5.59693E-14
 -1      3702 1.99948E+01 6.95250E-02 1.96431E-04-2.75358E-02-4.63030E-14 1.37831E-13
 -1      3703 2.00047E+01 4.06482E-02 1.12093E-04-1.69007E-02-6.29548E-14 4.24092E-14
 -1      3704 2.00052E+01 3.35464E-02-1.71675E-04-1.25584E-02-4.94125E-14 3.35555E-14
 -1      3705 2.00015E+01 4.92169E-02 1.31905E-04-1.74257E-02-1.07035E-14 8.71841E-14
 -1      3706 2.00069E+01 2.75875E-02 8.74511E-05-9.53014E-03-2.77932E-14 8.91805E-15
 -1      3707 2.00070E+01 2.23212E-02-1.18506E-04-6.50787E-03-1.05018E-13 1.48807E-13
 -1      3708 2.00054E+01 3.38091E-02 8.42600E-05-1.02071E-02-3.05951E-14 1.20507E-13
 -1      3709 2.00078E+01 1.79493E-02 6.70694E-05-4.45467E-03-2.70020E-13 2.50514E-13
 -1      3710 2.00075E+01 1.41311E-02-7.88267E-05-2.42017E-03-2.31448E-13 1.88220E-13
 -1      3711 2.00074E+01 2.23561E-02 5.00078E-05-5.18681E-03-1.02229E-13 1.39659E-13
 -1      3712 2.00078E+01 1.09990E-02 5.04842E-05-1.08408E-03-1.13630E-13 1.55277E-13
 -1      3713 2.00074E+01 8.30029E-03-4.98530E-05 2.25999E-04 5.85419E-14 1.71929E-13
 -1      3714 2.00081E+01 1.40293E-02 2.61284E-05-1.80812E-03-1.35345E-13 8.51737E-14
 -1      3715 2.00072E+01 6.11692E-03 3.72158E-05 1.04598E-03 1.59487E-13 1.66718E-13
 -1      3716 2.00067E+01 4.26532E-03-2.92245E-05 1.83652E-03 1.41597E-13 7.82714E-14
 -1      3717 2.00080E+01 8.12403E-03 1.00980E-05 3.68234E-04 1.03556E-13 2.91424E-13
 -1      3718 2.00064E+01 2.79180E-03 2.68076E-05 2.29423E-03 9.90775E-14 4.37263E-14
 -1      3719 2.00059E+01 1.56596E-03-1.49919E-05 2.72147E-03 1.35775E-14-6.68260E-14
 -1      3720 2.00073E+01 4.05530E-03-1.55760E-07 1.68323E-03 1.89528E-14 1.55685E-13
 -1      3721 2.00054E+01 6.09739E-04 1.88384E-05 2.93180E-03 4.78161E-14-1.31372E-13
 -1      3722 2.00049E+01-1.66661E-04-5.50638E-06 3.11216E-03 1.56930E-13-1.19187E-13
 -1      3723 2.00064E+01 1.34638E-03-6.27499E-06 2.39613E-03 5.71723E-14-3.60072E-14
 -1      3724 2.00044E+01-7.57688E-04 1.28164E-05 3.16035E-03 3.27934E-13-7.69806E-15
 -1      3725 2.00039E+01-1.22453E-03 9.02175E-07 3.17910E-03 2.96965E-13 1.53984E-13
 -1      3726 2.00053E+01-3.83222E-04-9.72169E-06 2.70032E-03 2.71753E-13 1.26857E-13
 -1      3727 2.00034E+01-1.57472E-03 7.66799E-06 3.12788E-03 1.27010E-13 1.29236E-13
 -1      3728 2.00030E+01-1.84177E-03 3.86055E-06 3.04527E-03 1.68093E-13 1.50544E-13
 -1      3729 2.00042E+01-1.43163E-03-1.12665E-05 2.73855E-03 2.36706E-13 1.62669E-14
 -1      3730 1.59452E+01 1.33821E+00 4.51567E-02 2.58494E+00 2.30172E-13-3.78107E-13
 -1      3731 1.65811E+01 4.02772E-01 8.87616E-03 3.03468E+00 2.36210E-13-3.26220E-13
 -1      3732 1.92282E+01 7.89715E-01-4.66602E-03 8.81268E-01-1.10774E-13 3.57433E-14
 -1      3733 1.91521E+01 8.19374E-01 1.38587E-03 9.76727E-01-7.79535E-14-4.27887E-14
 -1      3734 1.81094E+01 3.51994E-01-9.48288E-03 2.05064E+00-5.90181E-14-7.68849E-14
 -1      3735 1.81756E+01 9.62493E-02 1.92909E-02 2.27912E+00-1.59248E-13-8.13287E-14
 -1      3736 1.89935E+01 8.32433E-01-5.80992E-03 1.07664E+00-1.00407E-13-9.25225E-14
 -1      3737 1.89096E+01 8.34413E-01 2.76460E-03 1.19025E+00-1.03026E-13-7.69453E-14
 -1      3738 1.88383E+01 9.21099E-01 5.24959E-03 9.22572E-01-1.18823E-13-8.29010E-14
 -1      3739 1.95727E+01 6.17773E-01-3.09847E-03 5.79328E-01 5.88336E-14-1.05921E-13
 -1      3740 1.95223E+01 6.66814E-01 5.55233E-04 6.49320E-01-1.34740E-14-1.21604E-13
 -1      3741 1.96915E+01 5.21656E-01-2.53582E-03 4.61866E-01 4.43259E-14-4.51933E-14
 -1      3742 1.96530E+01 5.70513E-01 4.90779E-04 5.21491E-01 1.08842E-13-9.18708E-15
 -1      3743 1.95070E+01 6.52231E-01 2.82554E-03 4.96346E-01 3.72030E-14-3.59699E-14
 -1      3744 1.97821E+01 4.30501E-01-2.06617E-03 3.63057E-01-4.14308E-14-1.55475E-14
 -1      3745 1.97536E+01 4.76027E-01 4.81973E-04 4.13231E-01-1.68576E-14-4.47260E-14
 -1      3746 1.96420E+01 5.47889E-01 2.21248E-03 3.96149E-01 2.08566E-14 8.50724E-14
 -1      3747 1.98500E+01 3.48293E-01-1.66949E-03 2.80995E-01-7.33430E-14 2.17817E-14
 -1      3748 1.98295E+01 3.88877E-01 4.78389E-04 3.22582E-01-7.34464E-15 2.09607E-14
 -1      3749 1.97452E+01 4.50573E-01 1.70575E-03 3.11710E-01-5.96032E-14 8.37974E-15
 -1      3750 1.99000E+01 2.76750E-01-1.33424E-03 2.13863E-01 1.99687E-14-2.48353E-14
 -1      3751 1.98857E+01 3.11774E-01 4.61925E-04 2.47777E-01-1.64033E-16 3.21545E-14
 -1      3752 1.98229E+01 3.63602E-01 1.29549E-03 2.41431E-01 6.69888E-14-7.51674E-14
 -1      3753 1.99362E+01 2.16176E-01-1.05286E-03 1.59828E-01 2.53920E-14-1.12934E-13
 -1      3754 1.99265E+01 2.45636E-01 4.30021E-04 1.87025E-01-8.36938E-15 3.51182E-14
 -1      3755 1.98806E+01 2.88314E-01 9.69139E-04 1.83824E-01 1.87391E-14-1.23661E-13
 -1      3756 1.99619E+01 1.66034E-01-8.19322E-04 1.17056E-01 1.63456E-14-5.46507E-14
 -1      3757 1.99555E+01 1.90286E-01 3.86403E-04 1.38501E-01 5.45829E-14-9.28732E-14
 -1      3758 1.99227E+01 2.24785E-01 7.13576E-04 1.37381E-01 1.05042E-14 1.65023E-14
 -1      3759 1.99796E+01 1.25336E-01-6.28069E-04 8.37738E-02 6.69807E-14-7.50315E-14
 -1      3760 1.99756E+01 1.44925E-01 3.36389E-04 1.00396E-01 7.79536E-14 2.19096E-15
 -1      3761 1.99527E+01 1.72323E-01 5.16320E-04 1.00576E-01 5.84611E-14 9.57322E-15
 -1      3762 1.99915E+01 9.28927E-02-4.73693E-04 5.83286E-02 1.37747E-13-9.27940E-14
 -1      3763 1.99892E+01 1.08437E-01 2.84798E-04 7.09873E-02 8.22183E-14-1.92961E-14
 -1      3764 1.99737E+01 1.29825E-01 3.66189E-04 7.19154E-02 8.96146E-14 7.03381E-14
 -1      3765 1.99991E+01 6.74681E-02-3.50941E-04 3.92328E-02-6.12104E-14 9.93861E-14
 -1      3766 1.99980E+01 7.95954E-02 2.35222E-04 4.86953E-02 1.60419E-14 9.61155E-15
 -1      3767 1.99879E+01 9.60049E-02 2.53544E-04 4.99972E-02-1.88938E-14 4.08795E-13
 -1      3768 2.00037E+01 4.78793E-02-2.54831E-04 2.51861E-02 3.36786E-14 2.06021E-13
 -1      3769 2.00033E+01 5.71807E-02 1.89957E-04 3.21180E-02 6.88509E-14 2.00010E-13
 -1      3770 1.99972E+01 6.95480E-02 1.70306E-04 3.35499E-02-1.10204E-13 4.84760E-13
 -1      3771 2.00062E+01 3.30474E-02-1.80775E-04 1.50818E-02 7.40384E-14 2.34501E-13
 -1      3772 2.00063E+01 4.00566E-02 1.50214E-04 2.00460E-02 2.55015E-14 1.86009E-13
 -1      3773 2.00029E+01 4.92012E-02 1.09836E-04 2.14576E-02 4.18960E-14 5.15258E-13
 -1      3774 2.00072E+01 2.20233E-02-1.24668E-04 7.99977E-03-3.09724E-13 2.29031E-13
 -1      3775 2.00076E+01 2.72060E-02 1.16395E-04 1.14615E-02-6.05678E-14 1.38378E-13
 -1      3776 2.00061E+01 3.38266E-02 6.67680E-05 1.27672E-02-1.80707E-14 3.33394E-13
 -1      3777 2.00074E+01 1.39946E-02-8.29310E-05 3.19123E-03-3.56617E-13 1.13681E-13
 -1      3778 2.00079E+01 1.77470E-02 8.83646E-05 5.52715E-03-3.53483E-13 9.10560E-14
 -1      3779 2.00076E+01 2.24253E-02 3.68239E-05 6.68478E-03-2.52991E-13 4.06697E-14
 -1      3780 2.00070E+01 8.28128E-03-5.25164E-05 5.86301E-05-1.72690E-13 7.01523E-14
 -1      3781 2.00075E+01 1.09333E-02 6.56637E-05 1.56789E-03-2.64992E-13 1.81948E-13
 -1      3782 2.00080E+01 1.41438E-02 1.66326E-05 2.56341E-03-3.09340E-13 1.59744E-14
 -1      3783 2.00062E+01 4.32477E-03-3.08862E-05-1.86550E-03-6.93986E-15 1.37144E-13
 -1      3784 2.00068E+01 6.14614E-03 4.76610E-05-9.49857E-04-7.91587E-14 1.70960E-13
 -1      3785 2.00077E+01 8.26873E-03 3.56523E-06-1.13352E-04-1.75377E-13 6.43841E-14
 -1      3786 2.00053E+01 1.67387E-03-1.59289E-05-2.93982E-03 1.44984E-13 9.91830E-14
 -1      3787 2.00058E+01 2.88164E-03 3.36430E-05-2.43978E-03 7.21975E-14 1.94241E-13
 -1      3788 2.00069E+01 4.21505E-03-4.40498E-06-1.74949E-03-7.08035E-16 2.85489E-13
 -1      3789 2.00044E+01-3.21984E-05-6.09110E-06-3.43449E-03-2.84762E-14 1.01986E-13
 -1      3790 2.00049E+01 7.35394E-04 2.29458E-05-3.21677E-03 1.52691E-13 1.20548E-13
 -1      3791 2.00060E+01 1.51098E-03-8.80100E-06-2.65509E-03 1.34956E-13 2.47448E-13
 -1      3792 2.00035E+01-1.07786E-03 3.54044E-07-3.54547E-03-3.77308E-13 2.78672E-13
 -1      3793 2.00039E+01-6.15318E-04 1.50175E-05-3.51399E-03-2.55158E-13 1.03089E-13
 -1      3794 2.00049E+01-2.22095E-04-1.09928E-05-3.06332E-03-1.41052E-13 2.27519E-13
 -1      3795 2.00026E+01-1.68066E-03 6.27778E-06-3.41210E-03-2.44595E-13 3.08150E-13
 -1      3796 2.00030E+01-1.42274E-03 9.17598E-06-3.50001E-03-3.23650E-13 2.82718E-13
 -1      3797 2.00039E+01-1.28045E-03-1.16810E-05-3.14311E-03-2.37233E-13 2.35142E-13
 -1      3798 2.00020E+01-2.00332E-03 2.22672E-06-3.14735E-03-2.16239E-13 2.17790E-13
 -1      3799 2.00023E+01-1.84701E-03 1.72708E-06-3.30340E-03-2.35094E-13 2.28735E-13
 -1      3800 2.00031E+01-1.84737E-03-1.01995E-05-3.01270E-03-2.44727E-13-1.43367E-13
 -1      3801 2.00025E+01-2.15580E-03 1.23126E-06-2.80358E-03-1.62519E-13-1.29047E-13
 -1      3802 2.00023E+01-2.16447E-03 4.08847E-06 2.80119E-03-1.00449E-13-1.17451E-13
 -1      3803 2.00024E+01-2.43651E-03-4.56040E-06 2.26242E-03-1.01749E-13-1.43882E-13
 -1      3804 2.00030E+01-2.34422E-03 5.42642E-06 2.11090E-03-3.94411E-14-2.34938E-13
 -1      3805 2.00025E+01-2.01366E-03 4.97471E-06 2.95206E-03 2.86215E-14 5.53245E-14
 -1      3806 1.99349E+01-1.92166E+00 5.47477E-02-3.01979E+00 1.26596E-13 7.44908E-14
 -1      3807 1.70561E+01 9.11797E-01 2.02318E-02-2.43471E+00 4.50280E-14-3.22397E-13
 -1      3808 1.94201E+01 7.11369E-01-3.78935E-03 7.17849E-01-3.83978E-14-1.21293E-13
 -1      3809 1.93565E+01 7.55139E-01 7.85098E-04 7.99462E-01-7.14830E-14-4.07450E-14
 -1      3810 1.91130E+01 8.52539E-01 4.36890E-03 7.54128E-01-7.38186E-14 4.71623E-15
 -1      3811 1.87174E+01 8.08407E-01-7.27871E-03 1.31750E+00-2.16186E-13-5.24004E-14
 -1      3812 1.86380E+01 7.62225E-01 5.63871E-03 1.45739E+00-2.23546E-13-1.20812E-13
 -1      3813 1.85027E+01 9.37871E-01 6.19048E-03 1.13372E+00-1.63998E-13-9.76824E-14
 -1      3814 1.39090E+01 8.59842E-01 3.27433E-02-1.21832E+00 4.33360E-14 1.81395E-13
 -1      3815 1.48972E+01 3.41731E-01-5.85236E-03-2.23561E+00 7.10588E-14 2.69597E-13
 -1      3816 1.23465E+01 2.42714E+00 9.70840E-02 7.06467E-01 1.75929E-13-5.09818E-13
 -1      3817 1.88657E+01-1.48691E+00 6.60368E-02 3.41641E+00-3.29270E-13-5.95669E-14
 -1      3818 1.84114E+01 6.70247E-01-9.08889E-03 1.62895E+00-1.06929E-13-9.94707E-14
 -1      3819 1.83618E+01 5.44232E-01 1.01432E-02 1.80855E+00-4.92344E-15-7.44763E-14
 -1      3820 1.81024E+01 8.65788E-01 7.24053E-03 1.41489E+00-1.41433E-13-1.43997E-14
 -1      3821 2.14284E+01-1.63434E+00 1.16744E-02-2.32624E+00-6.31747E-14-1.19648E-13
 -1      3822 2.18927E+01-2.03163E+00 2.66483E-02 2.13546E+00 1.79566E-13-1.01497E-13
 -1      3823 2.08493E+01-2.27167E+00-1.43296E-02 3.13710E+00 2.48170E-13-1.39031E-13
 -1      3824 1.76855E+01-4.76294E-01 9.95865E-02 3.57451E+00 2.80850E-13-2.76255E-13
 -1      3825 1.64401E+01-4.64274E-01 1.39254E-02-3.02773E+00 1.46922E-13 2.49218E-13
 -1      3826 1.80492E+01-1.46987E+00-3.72333E-02-3.41877E+00 1.37525E-13 2.06016E-13
 -1      3827 1.95164E+01-1.32086E+00-3.24275E-03 3.16598E+00 2.51282E-13-1.91973E-13
 -1      3828 1.32996E+01 1.98627E+00 2.42648E-02 1.65727E+00 2.20757E-13-4.90122E-13
 -1      3829 1.93891E+01-1.29308E+00 3.06635E-02-2.69898E+00 1.05193E-13 8.34690E-14
 -1      3830 1.90095E+01-8.31204E-01 1.63468E-02-2.52439E+00 1.18793E-13 7.55064E-14
 -1      3831 1.78110E+01-9.10423E-01 2.66327E-02 3.18205E+00-2.77573E-13-2.92791E-14
 -1      3832 1.41177E+01 2.19445E+00 1.47419E-03 1.83350E+00 2.23155E-13-4.55191E-13
 -1      3833 2.00028E+01-2.67837E-03 6.21129E-06-1.32430E-03 2.35201E-13-4.90947E-13
 -1      3834 2.00025E+01-2.59382E-03-3.84725E-06-1.78721E-03 1.43449E-13-3.03216E-13
 -1      3835 2.00033E+01-2.56438E-03-2.07172E-06-1.10251E-03 2.28287E-14-6.44611E-13
 -1      3836 2.00027E+01-2.40460E-03-1.48473E-06-2.16829E-03-1.04468E-13-2.77031E-13
 -1      3837 1.44441E+01 4.01368E-01 5.91600E-02 2.31220E+00-1.92135E-13 1.51540E-13
 -1      3838 1.41308E+01 7.74529E-01-2.96028E-02 1.31617E+00-1.89668E-13 2.66056E-13
 -1      3839 1.56400E+01 2.21399E-01 3.89222E-02 2.44897E+00-1.83765E-13 1.17090E-13
 -1      3840 2.00033E+01-2.02589E-03-1.17680E-05 2.64148E-03 6.89287E-14-6.92661E-14
 -1      3841 1.48790E+01 1.77820E+00-2.57091E-03 2.32684E+00 2.34854E-13-4.33701E-13
 -1      3842 2.00040E+01-2.42134E-03-8.07813E-07 2.90577E-04 4.30332E-14 5.13765E-15
 -1      3843 2.00040E+01-2.42245E-03-7.42221E-07-2.68066E-04 8.27794E-14-3.75073E-13
 -1      3844 1.93333E+01 7.57317E-01 3.54823E-03 6.14442E-01-1.25591E-16-7.32152E-14
 -1      3845 1.58763E+01 5.48254E-01-1.81165E-02-1.80988E+00-8.11851E-15 1.40011E-13
 -1      3846 1.60880E+01 9.90267E-02 2.91211E-02-2.52015E+00 6.66125E-14 2.73879E-13
 -1      3847 1.72554E+01-1.45142E-01 6.68950E-03-2.46012E+00 7.21107E-14 1.87221E-13
 -1      3848 1.76493E+01-3.82403E-01 6.11958E-03 2.81608E+00-2.49999E-13-1.05737E-13
 -1      3849 1.38882E+01 1.03262E+00 3.07459E-02-5.93019E-01-4.66632E-14 6.74044E-14
 -1      3850 1.49580E+01 9.63559E-01 1.33187E-02-8.34658E-01-1.83091E-14 1.05969E-13
 -1      3851 1.41257E+01 1.06720E+00 1.42432E-02 2.83314E-01-1.34860E-13 1.24017E-13
 -1      3852 1.82456E+01-4.56123E-01 4.91695E-03-2.51448E+00 1.07907E-13 1.43620E-13
 -1      3853 1.68357E+01 7.10379E-02 8.23308E-03 2.57046E+00-1.95555E-13 2.98780E-14
 -1      3854 2.11341E+01-1.26840E+00 4.12126E-02 2.09201E+00 1.59154E-13-1.48135E-13
 -1      3855 1.76487E+01 6.46296E-01 9.41536E-03 1.81367E+00-8.95969E-14-5.55374E-14
 -1      3856 2.00037E+01-2.35496E-03-8.88326E-06 1.43966E-03 2.19258E-14-2.62798E-13
 -1      3857 2.00039E+01-2.39813E-03 4.91449E-06 8.96398E-04-2.98511E-14-5.97298E-15
 -1      3858 2.00045E+01-2.17581E-03 4.97716E-06 6.13937E-04 7.50858E-14-2.32461E-13
 -1      3859 1.96961E+01-9.36638E-01-2.63542E-02 2.69079E+00 2.13262E-13-2.06454E-13
 -1      3860 1.88067E+01-8.33477E-01-3.54269E-02 3.18523E+00 2.54434E-13-2.11375E-13
 -1      3861 1.83250E+01 5.17170E-01 5.13232E-03-1.45135E+00 2.45575E-14 9.01513E-14
 -1      3862 1.83870E+01 6.20749E-01-8.43382E-03-1.27517E+00-3.01439E-15 1.57894E-13
 -1      3863 1.85785E+01 6.98182E-01 4.30409E-03-1.11739E+00-3.48246E-15 8.88967E-14
 -1      3864 1.86578E+01 7.40432E-01-6.54425E-03-9.85958E-01 1.87113E-14 9.26718E-14
 -1      3865 1.82020E+01 7.99244E-01 5.88056E-03-1.08469E+00-1.43771E-14 6.52165E-14
 -1      3866 1.88248E+01 7.67135E-01 2.70486E-03-8.68656E-01 2.22426E-14 1.72180E-13
 -1      3867 1.89087E+01 7.69886E-01-5.10020E-03-7.67276E-01 1.30211E-13 1.84280E-13
 -1      3868 1.85394E+01 8.60706E-01 4.68927E-03-8.18804E-01 4.21361E-14 1.56271E-13
 -1      3869 1.90505E+01 7.63343E-01 1.45713E-03-6.79634E-01 1.12324E-13 1.14556E-13
 -1      3870 1.91305E+01 7.41581E-01-4.03318E-03-5.99720E-01 1.65485E-14-9.04172E-15
 -1      3871 1.88339E+01 8.49344E-01 4.12723E-03-6.25871E-01 6.27186E-14 1.21486E-13
 -1      3872 1.92492E+01 7.14831E-01 7.72125E-04-5.32655E-01-3.11354E-14-2.60158E-14
 -1      3873 1.93206E+01 6.78874E-01-3.23550E-03-4.68647E-01-5.20436E-15-6.60290E-14
 -1      3874 1.90829E+01 7.93653E-01 3.54753E-03-4.81621E-01-1.71623E-14-2.08379E-14
 -1      3875 1.94186E+01 6.41120E-01 3.97010E-04-4.16507E-01 2.74745E-14-5.86508E-14
 -1      3876 1.94795E+01 5.98379E-01-2.61897E-03-3.64758E-01 1.91753E-15-3.47185E-14
 -1      3877 1.92905E+01 7.12509E-01 3.00562E-03-3.71295E-01 2.35953E-14 1.33086E-16
 -1      3878 1.95591E+01 5.56096E-01 1.99222E-04-3.23856E-01-7.24022E-15 1.26986E-14
 -1      3879 1.96094E+01 5.11709E-01-2.12456E-03-2.81904E-01 5.65031E-14 2.60023E-15
 -1      3880 1.94606E+01 6.19651E-01 2.50905E-03-2.85649E-01 5.52688E-14-1.19361E-13
 -1      3881 1.96730E+01 4.69250E-01 1.01759E-04-2.49709E-01 3.02283E-14-6.09153E-14
 -1      3882 1.97133E+01 4.26572E-01-1.71752E-03-2.15789E-01 5.44005E-14 3.61430E-14
 -1      3883 1.95979E+01 5.24750E-01 2.06136E-03-2.18589E-01 1.31710E-15-3.52793E-14
 -1      3884 1.97634E+01 3.86672E-01 5.87304E-05-1.90481E-01 4.97555E-14-3.95604E-14
 -1      3885 1.97949E+01 3.47704E-01-1.37788E-03-1.63236E-01-2.46506E-14 3.39619E-14
 -1      3886 1.97066E+01 4.34190E-01 1.66514E-03-1.65921E-01 2.31765E-14-1.43096E-13
 -1      3887 1.98335E+01 3.11899E-01 4.32798E-05-1.43440E-01-6.61210E-14 6.48582E-14
 -1      3888 1.98576E+01 2.77657E-01-1.09375E-03-1.21762E-01-8.32350E-14 6.53048E-14
 -1      3889 1.97912E+01 3.51804E-01 1.32153E-03-1.24611E-01-5.44647E-14-5.29082E-15
 -1      3890 1.98869E+01 2.46633E-01 4.02577E-05-1.06398E-01 2.76142E-15 6.76604E-14
 -1      3891 1.99047E+01 2.17447E-01-8.57252E-04-8.93466E-02 1.19940E-13 1.30811E-13
 -1      3892 1.98558E+01 2.79525E-01 1.02978E-03-9.23712E-02-9.99886E-15 1.02193E-13
 -1      3893 1.99265E+01 1.91317E-01 4.15738E-05-7.75421E-02 4.41466E-14 7.48859E-14
 -1      3894 1.99394E+01 1.67068E-01-6.62348E-04-6.43024E-02-8.62118E-14 8.72191E-14
 -1      3895 1.99041E+01 2.17944E-01 7.87250E-04-6.74031E-02 2.00288E-14 1.04453E-13
 -1      3896 1.99552E+01 1.45588E-01 4.32720E-05-5.53420E-02-1.55405E-13 1.47400E-13
 -1      3897 1.99644E+01 1.25888E-01-5.03758E-04-4.52086E-02-2.05559E-13 1.44768E-13
 -1      3898 1.99395E+01 1.66768E-01 5.89763E-04-4.82595E-02-7.56740E-14 2.80865E-13
 -1      3899 1.99755E+01 1.08607E-01 4.37198E-05-3.85016E-02-1.74777E-13 1.55002E-13
 -1      3900 1.99817E+01 9.29282E-02-3.76558E-04-3.08671E-02-1.37101E-13 2.16038E-13
 -1      3901 1.99648E+01 1.25164E-01 4.32183E-04-3.37570E-02-1.43355E-13 2.04483E-13
 -1      3902 1.99894E+01 7.93028E-02 4.25139E-05-2.59271E-02-1.82128E-13 2.01508E-13
 -1      3903 1.99934E+01 6.70648E-02-2.76091E-04-2.02747E-02-5.74723E-14 2.01096E-13
 -1      3904 1.99823E+01 9.20196E-02 3.08939E-04-2.29231E-02-1.37623E-13 3.48965E-13
 -1      3905 1.99984E+01 5.65278E-02 3.98384E-05-1.67037E-02-1.67148E-14 1.77115E-13
 -1      3906 2.00008E+01 4.71581E-02-1.98008E-04-1.26005E-02-7.71057E-14 1.71799E-13
 -1      3907 1.99941E+01 6.61182E-02 2.14475E-04-1.49594E-02-4.81838E-14 2.27484E-13
 -1      3908 2.00039E+01 3.91666E-02 3.61036E-05-1.00756E-02-5.14324E-14 1.04937E-13
 -1      3909 2.00052E+01 3.21331E-02-1.38345E-04-7.16448E-03 4.03112E-14 1.64904E-13
 -1      3910 2.00015E+01 4.62591E-02 1.43570E-04-9.21495E-03-1.12689E-13 7.97619E-14
 -1      3911 2.00070E+01 2.61942E-02 3.17552E-05-5.42712E-03-8.19294E-14 1.33670E-14
 -1      3912 2.00075E+01 2.10241E-02-9.35811E-05-3.41795E-03-1.85949E-13 6.37276E-14
 -1      3913 2.00058E+01 3.13269E-02 9.15306E-05-5.16315E-03-1.60731E-13 1.13540E-13
 -1      3914 2.00083E+01 1.67066E-02 2.71825E-05-2.26342E-03-6.28323E-14-3.82151E-14
 -1      3915 2.00084E+01 1.29935E-02-6.06676E-05-9.24622E-04-2.24437E-14 2.77418E-15
 -1      3916 2.00080E+01 2.03296E-02 5.42835E-05-2.38315E-03-1.47894E-13 6.14734E-14
 -1      3917 2.00086E+01 9.93154E-03 2.26801E-05-1.93232E-04 1.24807E-13 1.74537E-13
 -1      3918 2.00083E+01 7.33497E-03-3.69999E-05 6.57120E-04 1.90493E-13 2.77118E-13
 -1      3919 2.00088E+01 1.24133E-02 2.83964E-05-5.42735E-04 1.72600E-13 2.74112E-14
 -1      3920 2.00081E+01 5.22517E-03 1.84516E-05 1.08825E-03-2.88569E-14 2.94752E-13
 -1      3921 2.00076E+01 3.46569E-03-2.04201E-05 1.59062E-03-9.60336E-14 1.26798E-13
 -1      3922 2.00086E+01 6.86157E-03 1.10689E-05 6.16705E-04 1.30163E-13 1.55142E-13
 -1      3923 2.00072E+01 2.06067E-03 1.47015E-05 1.81487E-03-4.31371E-14 1.25340E-13
 -1      3924 2.00067E+01 9.10953E-04-9.50510E-06 2.07559E-03 8.32795E-14 6.02452E-14
 -1      3925 2.00079E+01 3.08587E-03 3.00177E-08 1.29463E-03-9.36072E-14 3.38371E-13
 -1      3926 2.00061E+01 1.77617E-05 1.24351E-05 2.15694E-03 1.99852E-13 1.21997E-13
 -1      3927 2.00056E+01-6.98240E-04-2.93101E-06 2.25746E-03 3.14676E-13 7.59979E-14
 -1      3928 2.00069E+01 6.06444E-04-7.04411E-06 1.63533E-03 1.38706E-13 1.53201E-13
 -1      3929 2.00050E+01-1.24493E-03 1.04682E-05 2.24964E-03 2.44037E-13-8.49634E-14
 -1      3930 2.00045E+01-1.66431E-03 4.21091E-06 2.23736E-03 8.28111E-14-1.69546E-13
 -1      3931 2.00057E+01-9.48545E-04-1.06569E-05 1.76590E-03 1.48987E-13-9.04534E-14
 -1      3932 1.92565E+01 7.69259E-01-3.57082E-03 4.86495E-01 3.93839E-15-1.50429E-13
 -1      3933 1.91590E+01 8.24840E-01-7.94620E-04 5.44267E-01-1.96745E-14-1.48914E-13
 -1      3934 1.95967E+01 5.49973E-01-2.30121E-03 3.15059E-01-7.42556E-14 1.62392E-13
 -1      3935 1.95382E+01 6.03792E-01-4.12151E-04 3.57420E-01-2.17563E-14 8.98697E-14
 -1      3936 1.94481E+01 6.57873E-01-2.85004E-03 3.94107E-01-6.82741E-14 6.76550E-14
 -1      3937 1.93719E+01 7.14405E-01-6.12869E-04 4.43662E-01-4.86481E-14-4.15341E-14
 -1      3938 1.94278E+01 6.72593E-01 3.16080E-03 3.07604E-01-1.24052E-13 5.75724E-14
 -1      3939 1.97971E+01 3.62585E-01-1.49810E-03 1.92041E-01 7.57425E-14 1.32249E-14
 -1      3940 1.97642E+01 4.05632E-01-1.03799E-04 2.21832E-01 3.45062E-14 3.81616E-15
 -1      3941 1.98615E+01 2.86725E-01-1.19436E-03 1.46032E-01-6.12327E-14 1.13877E-13
 -1      3942 1.98375E+01 3.23552E-01-1.06279E-05 1.70404E-01 4.71332E-14 1.28917E-13
 -1      3943 1.97889E+01 3.67390E-01 1.44744E-03 1.51447E-01-2.89073E-14 1.47716E-13
 -1      3944 1.99089E+01 2.22942E-01-9.40591E-04 1.08901E-01 5.71655E-14 6.92354E-14
 -1      3945 1.98917E+01 2.53730E-01 4.81920E-05 1.28490E-01-1.94711E-14 9.92454E-14
 -1      3946 1.98559E+01 2.89911E-01 1.09284E-03 1.15335E-01-1.94954E-14 1.85599E-13
 -1      3947 1.99430E+01 1.70423E-01-7.30322E-04 7.94757E-02 1.64817E-14 4.02354E-14
 -1      3948 1.99310E+01 1.95647E-01 8.07155E-05 9.49417E-02 8.69567E-14 7.26224E-14
 -1      3949 1.99052E+01 2.24949E-01 8.13790E-04 8.60700E-02 4.30399E-14 3.02630E-14
 -1      3950 1.99671E+01 1.27991E-01-5.58241E-04 5.65825E-02-4.37667E-14 1.97008E-13
 -1      3951 1.99589E+01 1.48276E-01 9.45861E-05 6.85745E-02-2.16973E-14 6.62281E-14
 -1      3952 1.99408E+01 1.71581E-01 5.96381E-04 6.28108E-02 2.93708E-14 7.82444E-14
 -1      3953 1.99836E+01 9.43095E-02-4.19438E-04 3.91046E-02-1.00892E-13 2.53447E-13
 -1      3954 1.99783E+01 1.10339E-01 9.61480E-05 4.82320E-02-4.41965E-14 2.64785E-13
 -1      3955 1.99659E+01 1.28550E-01 4.28965E-04 4.46817E-02-9.08165E-14 1.15016E-13
 -1      3956 1.99946E+01 6.80317E-02-3.09210E-04 2.60220E-02-1.57764E-13 2.14997E-13
 -1      3957 1.99912E+01 8.04829E-02 9.02458E-05 3.28348E-02-1.01437E-13 2.24737E-13
 -1      3958 1.99831E+01 9.44625E-02 3.01731E-04 3.08272E-02-1.08666E-13-4.47797E-14
 -1      3959 2.00015E+01 4.78814E-02-2.23092E-04 1.64353E-02 1.14429E-13 3.15828E-13
 -1      3960 1.99996E+01 5.73857E-02 8.03522E-05 2.14143E-02-6.87409E-14 2.65493E-13
 -1      3961 1.99945E+01 6.79225E-02 2.06450E-04 2.04538E-02-1.01925E-13 1.04244E-15
 -1      3962 2.00055E+01 3.27046E-02-1.56946E-04 9.57546E-03-1.66680E-14 2.67748E-13
 -1      3963 2.00046E+01 3.98283E-02 6.88191E-05 1.31289E-02 1.68737E-13 3.35794E-13
 -1      3964 2.00017E+01 4.76166E-02 1.36278E-04 1.28553E-02 7.91669E-14 8.96001E-14
 -1      3965 2.00075E+01 2.14916E-02-1.07048E-04 4.80136E-03-2.80683E-13 1.08673E-13
 -1      3966 2.00072E+01 2.67267E-02 5.71469E-05 7.26750E-03-2.16466E-13 1.89937E-13
 -1      3967 2.00059E+01 3.23606E-02 8.55845E-05 7.42345E-03-4.30508E-14 1.94048E-13
 -1      3968 2.00082E+01 1.33820E-02-7.01350E-05 1.59099E-03-3.24430E-13 1.02348E-13
 -1      3969 2.00083E+01 1.71451E-02 4.62241E-05 3.24405E-03-2.12096E-13 1.58723E-13
 -1      3970 2.00080E+01 2.11208E-02 4.97958E-05 3.64962E-03-2.24847E-13 2.34598E-13
 -1      3971 2.00080E+01 7.65831E-03-4.34299E-05-4.71687E-04-2.15370E-13 2.45901E-13
 -1      3972 2.00084E+01 1.02954E-02 3.65221E-05 5.85953E-04-3.29270E-13 1.08856E-13
 -1      3973 2.00087E+01 1.30182E-02 2.52408E-05 1.11847E-03-2.72711E-13 1.22577E-13
 -1      3974 2.00074E+01 3.73353E-03-2.46792E-05-1.71128E-03 6.02914E-14 2.50517E-13
 -1      3975 2.00079E+01 5.52618E-03 2.82235E-05-1.07977E-03-1.46512E-13 2.45717E-13
 -1      3976 2.00085E+01 7.32135E-03 8.99807E-06-5.01347E-04-1.96358E-13 1.98725E-13
 -1      3977 2.00064E+01 1.13666E-03-1.15883E-05-2.37535E-03 1.18810E-13 2.01063E-13
 -1      3978 2.00070E+01 2.30940E-03 2.12438E-05-2.04101E-03 2.76690E-13 2.53540E-13
 -1      3979 2.00077E+01 3.43248E-03-1.23347E-06-1.46786E-03 1.01741E-13 1.48218E-13
 -1      3980 2.00053E+01-5.14922E-04-3.46944E-06-2.65276E-03-1.24979E-13 8.30055E-14
 -1      3981 2.00059E+01 2.21977E-04 1.51828E-05-2.51961E-03-7.38093E-14 9.17478E-14
 -1      3982 2.00067E+01 8.74422E-04-6.93033E-06-1.97940E-03 6.85872E-14 1.30289E-13
 -1      3983 2.00043E+01-1.50926E-03 3.85509E-06-2.67822E-03-2.43309E-13-1.25925E-13
 -1      3984 2.00048E+01-1.07118E-03 1.07279E-05-2.67022E-03-2.00337E-13 5.39776E-14
 -1      3985 2.00056E+01-7.43912E-04-1.06501E-05-2.18284E-03-9.47398E-14-4.73108E-14
 -1      3986 1.78250E+01 9.99326E-01-1.17288E-02 1.09674E+00-1.51523E-13-2.04199E-14
 -1      3987 1.76136E+01 9.63532E-01 2.50954E-03 1.24176E+00-1.05186E-13 3.10017E-14
 -1      3988 1.83125E+01 1.01440E+00-8.34962E-03 8.84212E-01-1.10197E-13-1.03370E-14
 -1      3989 1.81314E+01 1.02144E+00 2.72871E-04 9.90445E-01-1.16164E-13 1.56773E-14
 -1      3990 1.77297E+01 1.12981E+00 1.33734E-02 8.27667E-01-1.13832E-13 3.12288E-14
 -1      3991 1.77099E+01 3.21457E-02-1.96781E-02-2.12412E+00 9.29942E-15 1.29223E-13
 -1      3992 2.00036E+01-2.19925E-03 2.52155E-06 1.91787E-03-4.92283E-14-2.24368E-13
 -1      3993 1.80368E+01 2.17352E-01 5.40337E-03-1.87508E+00-1.09262E-14 6.38726E-14
 -1      3994 1.80532E+01 4.06921E-01-1.36185E-02-1.63285E+00-1.57780E-14 1.15060E-14
 -1      3995 1.77808E+01 6.81750E-01 1.28267E-02-1.40863E+00 7.69392E-14 8.87014E-14
 -1      3996 1.72081E+01 4.98323E-01 2.18664E-02-1.81300E+00-4.72815E-14 1.33838E-13
 -1      3997 2.00041E+01-1.97183E-03 7.69958E-06 1.95588E-03 2.71437E-15-1.28337E-13
 -1      3998 1.62172E+01 5.58401E-01-2.62310E-02 1.95527E+00-1.49436E-13 1.12052E-13
 -1      3999 2.00045E+01-2.17992E-03 2.68328E-06-5.89189E-04 7.62858E-14-4.77291E-13
 -1      4000 2.00039E+01-2.40196E-03 1.52326E-06-8.70715E-04 6.35547E-14-7.17599E-13
 -1      4001 2.00037E+01-2.36225E-03-4.19746E-06-1.40476E-03 1.57207E-15-4.94649E-13
 -1      4002 1.90119E+01 8.75628E-01-4.57987E-03 5.94617E-01-1.53079E-14-5.58048E-14
 -1      4003 1.88894E+01 9.24552E-01-8.51775E-04 6.62695E-01-6.23943E-14 1.90698E-14
 -1      4004 1.89769E+01 9.08086E-01 5.21059E-03 4.58014E-01 2.92114E-14-1.48158E-13
 -1      4005 2.00034E+01-2.32598E-03 3.83921E-06-1.88329E-03-2.88755E-14-2.54967E-13
 -1      4006 2.00030E+01-2.22978E-03-1.29761E-06-2.39739E-03-1.52210E-13-2.91464E-13
 -1      4007 2.00033E+01-2.06945E-03 3.60171E-06-2.51903E-03-1.46541E-13-2.25801E-13
 -1      4008 2.00040E+01-2.15405E-03 3.47948E-06-1.66320E-03-7.48594E-14-4.73329E-13
 -1      4009 1.72074E+01 8.75431E-01-1.99836E-02 1.40375E+00-8.23820E-14 7.56799E-14
 -1      4010 1.70038E+01 7.80300E-01 1.07967E-02 1.61066E+00-9.89640E-14 6.01277E-14
 -1      4011 1.70654E+01 1.10803E+00 2.54943E-02 1.06397E+00-7.68318E-14 1.25355E-13
 -1      4012 1.87022E+01 9.63849E-01-6.07365E-03 7.23614E-01-1.48105E-13-4.62487E-15
 -1      4013 1.85515E+01 9.97661E-01-5.83983E-04 8.06401E-01-8.11115E-14-1.70391E-14
 -1      4014 1.86552E+01 1.01408E+00 6.74766E-03 5.52687E-01-7.93281E-14 1.92317E-14
 -1      4015 1.97107E+01 4.50658E-01-1.86141E-03 2.48041E-01 2.82331E-14-3.61027E-15
 -1      4016 1.96665E+01 4.99619E-01-2.37612E-04 2.83840E-01-4.05555E-14 2.23174E-14
 -1      4017 1.96994E+01 4.57695E-01 1.89455E-03 1.95145E-01 2.38172E-14-1.06649E-13
 -1      4018 1.59321E+01 9.09708E-01 2.46095E-02 1.49013E+00-1.09618E-13 1.80865E-13
 -1      4019 2.00047E+01-1.86517E-03-8.73659E-06 1.50501E-03 7.44188E-14-2.51738E-13
 -1      4020 1.92298E+01 7.90856E-01 4.05453E-03 3.77479E-01-1.09172E-13-5.42221E-14
 -1      4021 1.56890E+01 9.27139E-01 2.98562E-02-1.25290E+00-1.86372E-14 1.08092E-13
 -1      4022 1.64939E+01 6.67427E-01-2.59190E-03-1.54356E+00-2.27713E-14 1.63802E-13
 -1      4023 1.82465E+01 1.09433E+00 8.85104E-03 6.69807E-01-1.46828E-13 5.75954E-14
 -1      4024 2.00036E+01-1.88938E-03 3.25073E-06-2.59644E-03-9.46637E-14-1.08805E-13
 -1      4025 1.48323E+01 9.82408E-01 4.04519E-03 7.53373E-01-1.24459E-13 1.82734E-13
 -1      4026 2.00044E+01-1.76518E-03-8.68220E-06-2.16536E-03-1.61133E-13-2.06133E-13
 -1      4027 2.00051E+01-1.90991E-03-4.19710E-06-3.04179E-04 1.00724E-13-4.23543E-13
 -1      4028 2.00050E+01-1.89167E-03-5.55627E-06-8.90171E-04 1.06495E-13-6.49595E-13
 -1      4029 1.95814E+01 5.60146E-01 2.45577E-03 2.47032E-01 1.22835E-14 5.92863E-14
 -1      4030 1.55080E+01 1.03973E+00-2.00121E-02-6.77392E-01-7.86671E-14 7.00581E-14
 -1      4031 2.00050E+01-1.86903E-03-1.69552E-06 8.96734E-04 8.34017E-14-1.65431E-13
 -1      4032 2.00051E+01-1.88471E-03-6.46906E-07 3.18736E-04 1.77580E-13-1.43943E-13
 -1      4033 2.00056E+01-1.51902E-03 6.76547E-06 1.23096E-05 2.64498E-13-1.91673E-13
 -1      4034 2.00054E+01-1.49007E-03 6.85150E-06 1.17648E-03 1.93745E-13-2.31353E-13
 -1      4035 1.82831E+01 9.41955E-01 3.11772E-04-7.02236E-01 2.28103E-14 1.25927E-13
 -1      4036 1.84363E+01 9.32808E-01-8.43034E-03-6.03897E-01 9.96608E-14 1.34206E-13
 -1      4037 1.86394E+01 9.19068E-01-1.52778E-04-5.25766E-01 5.26735E-14 8.95166E-14
 -1      4038 1.87711E+01 8.88011E-01-6.07753E-03-4.53691E-01 3.37847E-15-4.59368E-15
 -1      4039 1.84387E+01 1.02278E+00 1.46768E-02-4.12739E-01 2.96456E-14-4.94404E-14
 -1      4040 1.89336E+01 8.54728E-01-4.72022E-04-3.97189E-01-1.25055E-14-6.73417E-14
 -1      4041 1.90450E+01 8.10668E-01-4.50532E-03-3.42728E-01-6.31833E-14-2.12005E-14
 -1      4042 1.87834E+01 9.43474E-01 1.11477E-02-3.00397E-01-6.63080E-14-1.56809E-13
 -1      4043 1.91752E+01 7.66230E-01-6.29845E-04-3.01408E-01-2.27331E-14-6.27322E-14
 -1      4044 1.92679E+01 7.15858E-01-3.40310E-03-2.59410E-01 8.19643E-14-6.64775E-14
 -1      4045 1.90617E+01 8.43134E-01 8.55933E-03-2.19753E-01-3.07241E-14-1.81869E-13
 -1      4046 1.93718E+01 6.66616E-01-6.71884E-04-2.28918E-01 1.24995E-13-1.97617E-13
 -1      4047 1.94476E+01 6.14864E-01-2.59848E-03-1.96089E-01 5.27886E-14-1.85569E-13
 -1      4048 1.92856E+01 7.33301E-01 6.62131E-03-1.61280E-01-2.02081E-14-1.52846E-13
 -1      4049 1.95298E+01 5.65330E-01-6.41539E-04-1.73446E-01-3.30334E-14-2.10721E-13
 -1      4050 1.95906E+01 5.15596E-01-1.99272E-03-1.47590E-01-3.49732E-14-2.37665E-13
 -1      4051 1.94644E+01 6.22734E-01 5.13227E-03-1.18480E-01-1.82100E-14-3.21448E-13
 -1      4052 1.96549E+01 4.68752E-01-5.71555E-04-1.30718E-01-2.14507E-14-1.85740E-13
 -1      4053 1.97028E+01 4.23165E-01-1.52690E-03-1.10309E-01-3.84830E-14-2.48997E-13
 -1      4054 1.96056E+01 5.17583E-01 3.96565E-03-8.69131E-02-3.64612E-14-3.93985E-13
 -1      4055 1.97525E+01 3.80785E-01-4.84360E-04-9.77296E-02 2.60941E-14-2.45624E-13
 -1      4056 1.97895E+01 3.40488E-01-1.16417E-03-8.16533E-02-7.11208E-15-1.49483E-13
 -1      4057 1.97156E+01 4.21739E-01 3.04193E-03-6.35068E-02 3.10631E-14-3.03728E-13
 -1      4058 1.98272E+01 3.03442E-01-3.94350E-04-7.22933E-02-9.18420E-14-4.01787E-14
 -1      4059 1.98553E+01 2.68855E-01-8.80286E-04-5.96981E-02-7.19672E-15-3.85729E-14
 -1      4060 1.97999E+01 3.37270E-01 2.30872E-03-4.60994E-02 1.34081E-14-2.19352E-13
 -1      4061 1.98834E+01 2.37371E-01-3.10075E-04-5.27658E-02 4.63101E-14-8.96870E-15
 -1      4062 1.99043E+01 2.08418E-01-6.58248E-04-4.29771E-02 7.00588E-15 3.95197E-15
 -1      4063 1.98636E+01 2.64878E-01 1.72886E-03-3.31462E-02-4.74813E-14-2.23398E-13
 -1      4064 1.99249E+01 1.82298E-01-2.36003E-04-3.78795E-02-8.78964E-14 9.74829E-14
 -1      4065 1.99400E+01 1.58592E-01-4.85451E-04-3.03489E-02-1.43898E-13 7.96183E-14
 -1      4066 1.99107E+01 2.04315E-01 1.27396E-03-2.35258E-02 1.04449E-14-6.95140E-14
 -1      4067 1.99547E+01 1.37383E-01-1.73870E-04-2.66371E-02-1.35472E-13 1.49980E-13
 -1      4068 1.99654E+01 1.18360E-01-3.52084E-04-2.09132E-02-7.36175E-14 1.88229E-13
 -1      4069 1.99449E+01 1.54726E-01 9.21020E-04-1.64126E-02-7.86007E-14-4.18271E-14
 -1      4070 1.99757E+01 1.01478E-01-1.23695E-04-1.82448E-02-1.15705E-13 2.85746E-13
 -1      4071 1.99829E+01 8.65021E-02-2.50254E-04-1.39544E-02-1.20713E-13 2.93372E-13
 -1      4072 1.99690E+01 1.14919E-01 6.50835E-04-1.11901E-02-4.92232E-14 1.50177E-13
 -1      4073 1.99898E+01 7.33171E-02-8.45054E-05-1.20673E-02-9.47178E-14 2.76951E-13
 -1      4074 1.99946E+01 6.17456E-02-1.73509E-04-8.90221E-03-9.08630E-14 1.54217E-13
 -1      4075 1.99855E+01 8.35587E-02 4.47162E-04-7.39357E-03-1.52306E-13 1.47595E-13
 -1      4076 1.99990E+01 5.16405E-02-5.48425E-05-7.59525E-03-9.64067E-14 1.27515E-13
 -1      4077 2.00019E+01 4.28672E-02-1.16544E-04-5.30319E-03-1.49632E-13 1.83274E-13
 -1      4078 1.99964E+01 5.93053E-02 2.96294E-04-4.66946E-03-1.38359E-13 1.69661E-13
 -1      4079 2.00046E+01 3.52710E-02-3.30927E-05-4.42244E-03-2.43884E-13 2.20924E-13
 -1      4080 2.00062E+01 2.87503E-02-7.50060E-05-2.79852E-03-2.56629E-13 2.21152E-13
 -1      4081 2.00031E+01 4.08958E-02 1.86768E-04-2.74753E-03-1.76198E-13 2.02630E-13
 -1      4082 2.00076E+01 2.31566E-02-1.76873E-05-2.22659E-03-2.43659E-13 2.49997E-13
 -1      4083 2.00083E+01 1.84137E-02-4.53536E-05-1.10646E-03-1.51372E-13 2.40939E-13
 -1      4084 2.00070E+01 2.71939E-02 1.09122E-04-1.42078E-03-2.15430E-13 2.96367E-13
 -1      4085 2.00089E+01 1.43873E-02-7.21536E-06-7.54451E-04 2.44913E-14 2.81806E-13
 -1      4086 2.00090E+01 1.10205E-02-2.47412E-05-8.00188E-06 2.61144E-13 2.67030E-13
 -1      4087 2.00088E+01 1.72110E-02 5.56632E-05-5.30774E-04-2.21581E-14 3.33094E-13
 -1      4088 2.00090E+01 8.19638E-03-4.93023E-07 1.90701E-04 1.85554E-13 3.61579E-14
 -1      4089 2.00088E+01 5.87341E-03-1.10600E-05 6.65062E-04 1.93295E-14-2.24807E-14
 -1      4090 2.00092E+01 1.01098E-02 2.02713E-05 4.32613E-05 9.05946E-14 1.39574E-13
 -1      4091 2.00085E+01 3.95350E-03 3.56273E-06 7.58920E-04-4.09431E-15-2.50114E-14
 -1      4092 2.00080E+01 2.40701E-03-5.79462E-07 1.03912E-03-4.81678E-14 5.78790E-14
 -1      4093 2.00088E+01 5.19767E-03-1.33970E-06 3.92480E-04 6.83709E-14-1.98572E-13
 -1      4094 2.00075E+01 1.13692E-03 2.63415E-06 1.07477E-03-6.13526E-14 1.08639E-13
 -1      4095 2.00069E+01 1.43838E-04-4.47402E-06 1.20719E-03 4.27187E-14-1.59517E-13
 -1      4096 2.00080E+01 1.93239E-03-7.85458E-06 5.90194E-04-1.80407E-14-1.35121E-13
 -1      4097 2.00065E+01-4.38283E-04 2.05664E-05 1.16141E-03 9.94989E-14-2.21139E-13
 -1      4098 2.00059E+01-1.09510E-03 2.48341E-06 1.21473E-03 1.16213E-13-3.46836E-13
 -1      4099 2.00060E+01-1.11426E-03-1.73378E-05 6.29613E-04 1.84368E-13-1.61987E-13
 -1      4100 2.00070E+01-2.25929E-05-1.92895E-05 6.75483E-04 6.46992E-14-2.09186E-13
 -1      4101 1.56529E+01 1.09275E+00-1.71109E-02 5.61663E-01-6.20658E-14 1.28835E-13
 -1      4102 1.82092E+01 1.09519E+00-7.85321E-03 4.26687E-01-1.38002E-13 6.22085E-14
 -1      4103 1.79755E+01 1.13028E+00-5.45897E-03 4.74546E-01-1.07959E-13 2.96283E-14
 -1      4104 1.68104E+01 7.59279E-01-2.11790E-02-1.34179E+00-7.29668E-15 1.65560E-13
 -1      4105 1.98512E+01 2.79466E-01-1.11388E-03 8.06556E-02-5.08548E-15 2.59004E-14
 -1      4106 1.98231E+01 3.16269E-01-2.90688E-04 9.52544E-02-4.01377E-15 7.49403E-14
 -1      4107 1.97826E+01 3.55183E-01-1.40352E-03 1.05947E-01-4.34601E-14 7.51343E-14
 -1      4108 1.97445E+01 3.98492E-01-4.71864E-04 1.23520E-01 1.08865E-14 1.63279E-14
 -1      4109 1.97906E+01 3.53298E-01 2.75060E-03 7.00871E-02-2.95563E-14-1.28554E-13
 -1      4110 1.99384E+01 1.64331E-01-6.71409E-04 4.36652E-02 6.88684E-14 1.69969E-14
 -1      4111 1.99240E+01 1.89269E-01-8.18013E-05 5.31151E-02 1.08956E-13 5.90777E-15
 -1      4112 1.99643E+01 1.22651E-01-5.08208E-04 3.08818E-02-4.40447E-14 1.97013E-14
 -1      4113 1.99544E+01 1.42606E-01-2.80084E-05 3.82551E-02 2.32308E-14 1.03219E-13
 -1      4114 1.99420E+01 1.62112E-01 1.09085E-03 2.93442E-02 5.07761E-14 7.61419E-15
 -1      4115 1.99822E+01 8.97332E-02-3.77373E-04 2.11272E-02-1.45337E-13-4.32803E-14
 -1      4116 1.99756E+01 1.05420E-01 4.76107E-06 2.67650E-02-1.38002E-13-4.21765E-14
 -1      4117 1.99670E+01 1.20605E-01 7.71355E-04 2.07989E-02-5.42956E-14 5.36511E-14
 -1      4118 1.99940E+01 6.41872E-02-2.74274E-04 1.38450E-02-4.70630E-14-1.39333E-13
 -1      4119 1.99898E+01 7.63039E-02 2.31512E-05 1.80673E-02-8.17134E-14-1.39731E-13
 -1      4120 1.99842E+01 8.79118E-02 5.31110E-04 1.42433E-02-7.69343E-14-1.48397E-13
 -1      4121 2.00015E+01 4.47111E-02-1.94472E-04 8.53392E-03 1.84117E-14-7.29966E-14
 -1      4122 1.99990E+01 5.39036E-02 3.20021E-05 1.16271E-02-3.06024E-14-1.25480E-13
 -1      4123 1.99955E+01 6.26105E-02 3.53353E-04 9.33137E-03 1.41601E-14-2.46625E-13
 -1      4124 2.00059E+01 3.01364E-02-1.33843E-04 4.76016E-03-7.82427E-14 6.40325E-14
 -1      4125 2.00046E+01 3.69792E-02 3.47585E-05 6.97132E-03 2.58642E-14 4.62875E-14
 -1      4126 2.00026E+01 4.33787E-02 2.24283E-04 5.74077E-03-1.10120E-13-9.36529E-14
 -1      4127 2.00081E+01 1.94470E-02-8.86852E-05 2.15961E-03-1.54380E-13-4.28469E-14
 -1      4128 2.00076E+01 2.44362E-02 3.38193E-05 3.69578E-03-7.62721E-14 8.95441E-14
 -1      4129 2.00066E+01 2.90344E-02 1.32638E-04 3.18624E-03-6.44066E-14-9.09863E-14
 -1      4130 2.00088E+01 1.17817E-02-5.57545E-05 4.35047E-04-3.36950E-13-8.38834E-14
 -1      4131 2.00089E+01 1.53352E-02 3.08210E-05 1.46522E-03-3.13083E-13 3.62246E-14
 -1      4132 2.00086E+01 1.85535E-02 6.93435E-05 1.42529E-03-1.94606E-13-4.66345E-14
 -1      4133 2.00087E+01 6.42628E-03-3.22437E-05-6.50332E-04-6.15435E-14-5.41978E-15
 -1      4134 2.00090E+01 8.88900E-03 2.68679E-05 8.53997E-06-1.79145E-13-1.68531E-14
 -1      4135 2.00092E+01 1.10706E-02 2.72001E-05 2.58142E-04-2.65374E-13-2.24251E-13
 -1      4136 2.00079E+01 2.79717E-03-1.62147E-05-1.28092E-03 9.87265E-14-1.01472E-14
 -1      4137 2.00084E+01 4.44974E-03 2.26347E-05-8.88601E-04 1.24960E-14-1.22469E-13
 -1      4138 2.00088E+01 5.86954E-03 5.48211E-07-4.75643E-04 6.85908E-15-3.56121E-13
 -1      4139 2.00069E+01 4.40059E-04 2.24617E-06-1.59784E-03 1.07267E-13-7.09567E-14
 -1      4140 2.00075E+01 1.49717E-03 1.92675E-05-1.38802E-03 1.23182E-13 5.97159E-15
 -1      4141 2.00080E+01 2.36522E-03-1.58092E-05-8.99482E-04 7.72725E-14-2.55558E-13
 -1      4142 1.92138E+01 7.74190E-01-3.33153E-03 2.58089E-01-1.32991E-13-6.28014E-14
 -1      4143 1.91015E+01 8.35106E-01-2.15252E-03 2.87885E-01 1.85869E-14-7.21288E-14
 -1      4144 1.76630E+01 1.15262E+00-1.16545E-02 5.06240E-01-1.28976E-13 8.31125E-14
 -1      4145 1.73558E+01 1.16121E+00-1.00705E-02 5.79807E-01-1.08384E-13 8.03690E-14
 -1      4146 1.77407E+01 1.22175E+00 2.29380E-02 2.44861E-01-6.75814E-14 7.44931E-14
 -1      4147 1.64810E+01 1.13289E+00-1.57971E-02 6.59102E-01-3.89361E-14 1.58408E-13
 -1      4148 1.57922E+01 1.21987E+00 3.06930E-02-4.09087E-02-5.09995E-14 7.47683E-14
 -1      4149 1.63112E+01 1.12270E+00-7.81800E-03-4.30021E-01-7.56595E-14 8.48634E-14
 -1      4150 1.68942E+01 1.15808E+00-1.66155E-02 5.45208E-01-8.81601E-14 1.24463E-13
 -1      4151 2.00047E+01-1.77812E-03-1.91625E-07-1.70222E-03-9.24531E-14-4.78236E-13
 -1      4152 1.95709E+01 5.44630E-01-2.16205E-03 1.71882E-01 1.78150E-14 3.24292E-14
 -1      4153 1.95039E+01 6.00005E-01-1.07536E-03 1.95683E-01-8.73725E-14 1.29563E-14
 -1      4154 1.94147E+01 6.56010E-01-2.67156E-03 2.12575E-01-1.17306E-13-3.74433E-14
 -1      4155 1.93275E+01 7.15487E-01-1.54140E-03 2.39400E-01-1.75653E-13-5.28977E-14
 -1      4156 1.94326E+01 6.58603E-01 6.24084E-03 1.34984E-01-1.17764E-13-1.42719E-13
 -1      4157 1.89570E+01 8.93127E-01-4.25037E-03 3.08199E-01 3.49131E-14-7.84232E-14
 -1      4158 1.88133E+01 9.51519E-01-2.94884E-03 3.41337E-01 1.26703E-14-2.70703E-14
 -1      4159 1.89887E+01 9.06560E-01 1.06870E-02 1.84705E-01 3.02820E-14-2.90102E-14
 -1      4160 1.86293E+01 1.00402E+00-5.63461E-03 3.63437E-01-5.61335E-14-3.91981E-14
 -1      4161 1.84461E+01 1.05446E+00-3.99669E-03 4.01545E-01-1.16685E-13-3.18079E-14
 -1      4162 1.82681E+01 1.13828E+00 1.88009E-02 2.28555E-01-6.81612E-14-8.02611E-14
 -1      4163 1.86723E+01 1.02876E+00 1.41570E-02 2.07955E-01-3.63929E-14-1.04148E-13
 -1      4164 1.96911E+01 4.43739E-01-1.74836E-03 1.36305E-01 6.87953E-14 1.77499E-14
 -1      4165 1.96402E+01 4.93442E-01-7.26608E-04 1.56989E-01 9.27343E-14 7.21934E-14
 -1      4166 1.97015E+01 4.42586E-01 3.64177E-03 8.92950E-02 1.97021E-14-2.00465E-14
 -1      4167 1.99018E+01 2.16175E-01-8.71683E-04 6.00642E-02 4.51506E-14-5.12267E-14
 -1      4168 1.98814E+01 2.46771E-01-1.65509E-04 7.19326E-02 2.49786E-14-3.07055E-14
 -1      4169 1.98573E+01 2.77248E-01 2.05296E-03 5.37375E-02 1.74365E-14-1.49064E-13
 -1      4170 1.99065E+01 2.13877E-01 1.50985E-03 4.02232E-02 3.38575E-14-1.82580E-13
 -1      4171 1.78428E+01 8.95403E-01-2.59568E-03-9.55862E-01 2.73049E-14 9.54397E-14
 -1      4172 1.80241E+01 9.27529E-01-1.20257E-02-8.12574E-01-2.08638E-14 1.32620E-13
 -1      4173 1.80088E+01 1.06721E+00 1.93139E-02-5.70486E-01 4.33541E-14 8.63329E-15
 -1      4174 2.00054E+01-1.40611E-03 7.37115E-06-1.41704E-03 9.60564E-17-4.77257E-13
 -1      4175 2.00061E+01-1.12132E-03-2.66984E-06 3.41665E-05 3.01579E-13-2.63206E-13
 -1      4176 1.67293E+01 1.06354E+00 3.34191E-02-9.18296E-01-4.39428E-14 1.64941E-13
 -1      4177 1.72543E+01 8.23182E-01-3.82451E-03-1.20050E+00 5.95351E-14 1.16554E-13
 -1      4178 1.75121E+01 8.65422E-01-1.53407E-02-1.05551E+00 9.62487E-14 9.99859E-14
 -1      4179 1.74534E+01 1.08444E+00 2.56015E-02-7.40209E-01 4.73324E-14-8.04695E-15
 -1      4180 1.92375E+01 7.80827E-01 8.14585E-03 1.59932E-01-1.42308E-13-1.42504E-13
 -1      4181 2.00057E+01-1.04197E-03 4.73933E-07-1.68655E-03-4.68662E-14-2.70886E-13
 -1      4182 2.00063E+01-4.06642E-04 4.97428E-06-1.61755E-03 6.69359E-14-7.09694E-14
 -1      4183 1.70166E+01 1.26070E+00 2.89094E-02 1.89382E-01-8.95848E-14 2.10480E-13
 -1      4184 1.95845E+01 5.44842E-01 4.77945E-03 1.11121E-01-5.57266E-15 1.04530E-13
 -1      4185 2.00060E+01-1.13897E-03-5.39549E-06-9.02513E-04 1.41056E-13-5.01883E-13
 -1      4186 2.00069E+01 1.05177E-04-1.53847E-05-1.09277E-03 5.04329E-14-2.16031E-13
 -1      4187 2.00065E+01-6.39851E-04 1.41837E-05-2.73896E-04 1.76097E-13-1.93983E-13
 -1      4188 1.67041E+01 1.11859E+00-2.32604E-02-3.69493E-01-6.35967E-14 8.55997E-14
 -1      4189 1.92254E+01 7.43285E-01-5.32794E-03-1.67298E-02-1.26034E-13-9.80962E-14
 -1      4190 1.91094E+01 8.04261E-01-5.70428E-03-1.17878E-02-4.47733E-14-1.31853E-13
 -1      4191 1.86669E+01 9.62356E-01-8.93608E-03-7.32128E-02-3.55437E-14-1.40295E-13
 -1      4192 1.88304E+01 9.16320E-01-7.73854E-03-3.57608E-02-6.14710E-15-1.21916E-13
 -1      4193 1.89784E+01 8.56843E-01-6.85568E-03-3.81515E-02-5.52176E-15-1.31617E-13
 -1      4194 1.93301E+01 6.89007E-01-4.22495E-03 1.93003E-03-1.42828E-13-2.19665E-13
 -1      4195 1.94206E+01 6.30068E-01-4.17086E-03-4.38371E-03-8.37190E-14-2.24074E-13
 -1      4196 1.95035E+01 5.77568E-01-3.13036E-03 8.90518E-03-5.24306E-14-2.57262E-13
 -1      4197 1.95736E+01 5.23056E-01-3.26672E-03 2.12286E-03-2.24139E-14-1.98368E-13
 -1      4198 1.96386E+01 4.74594E-01-2.31006E-03 1.16453E-02 1.78404E-14-2.12066E-13
 -1      4199 1.96922E+01 4.25909E-01-2.54577E-03 5.02770E-03 5.51658E-14-2.35367E-13
 -1      4200 1.97424E+01 3.82763E-01-1.69137E-03 1.18911E-02 2.57941E-14-2.65831E-13
 -1      4201 1.97830E+01 3.40520E-01-1.96590E-03 5.83450E-03 2.57187E-14-3.26595E-13
 -1      4202 1.98212E+01 3.03222E-01-1.22436E-03 1.08069E-02 7.04171E-15-2.76831E-13
 -1      4203 1.98514E+01 2.67466E-01-1.49965E-03 5.51917E-03-2.21016E-14-3.14848E-13
 -1      4204 1.98799E+01 2.36021E-01-8.73094E-04 9.13588E-03-2.10638E-14-3.00531E-13
 -1      4205 1.99020E+01 2.06410E-01-1.12718E-03 4.68870E-03-1.47048E-14-2.07717E-13
 -1      4206 1.99230E+01 1.80476E-01-6.10758E-04 7.32532E-03 2.60379E-14-2.35131E-13
 -1      4207 1.99388E+01 1.56439E-01-8.32725E-04 3.70021E-03 4.07010E-14-1.38347E-13
 -1      4208 1.99538E+01 1.35477E-01-4.16808E-04 5.62256E-03 1.16151E-14 1.44179E-14
 -1      4209 1.99648E+01 1.16325E-01-6.02975E-04 2.74767E-03-1.34517E-13 1.50081E-14
 -1      4210 1.99753E+01 9.96969E-02-2.75268E-04 4.14581E-03-8.61725E-14-2.21488E-14
 -1      4211 1.99827E+01 8.47119E-02-4.26384E-04 1.92290E-03 2.35705E-14-1.10418E-13
 -1      4212 1.99898E+01 7.17609E-02-1.73632E-04 2.93430E-03-4.22324E-14-5.02203E-14
 -1      4213 1.99946E+01 6.02451E-02-2.92903E-04 1.25710E-03-7.75075E-14 2.77790E-14
 -1      4214 1.99991E+01 5.03417E-02-1.02102E-04 1.98234E-03-9.00024E-14 8.67674E-14
 -1      4215 2.00021E+01 4.16547E-02-1.93867E-04 7.48006E-04-1.92095E-13 9.87562E-14
 -1      4216 2.00048E+01 3.42245E-02-5.30306E-05 1.26151E-03-1.86799E-13 4.13235E-14
 -1      4217 2.00064E+01 2.77996E-02-1.21920E-04 3.77062E-04-1.42529E-13 1.14239E-13
 -1      4218 2.00079E+01 2.23375E-02-2.04896E-05 7.34355E-04-8.21863E-14 1.87403E-13
 -1      4219 2.00085E+01 1.76878E-02-7.09276E-05 1.19619E-04-1.58741E-13 1.25162E-13
 -1      4220 2.00091E+01 1.37625E-02 7.52824E-08 3.62399E-04-1.05148E-13 3.66886E-14
 -1      4221 2.00092E+01 1.04798E-02-3.58820E-05-4.93221E-05-4.69589E-14-9.55787E-14
 -1      4222 2.00092E+01 7.73103E-03 1.21035E-05 1.10425E-04-3.27954E-14-2.99449E-13
 -1      4223 2.00090E+01 5.47971E-03-1.29344E-05-1.52323E-04 9.92000E-14-2.65416E-13
 -1      4224 2.00086E+01 3.61342E-03 1.84019E-05-5.31302E-05 1.09401E-13-2.00667E-13
 -1      4225 2.00081E+01 2.10496E-03-4.40191E-06-2.13559E-04 4.42413E-14-2.14888E-13
 -1      4226 2.00076E+01 9.15724E-04 2.20236E-05-1.83158E-04 2.76765E-14-1.34253E-13
 -1      4227 2.00071E+01 1.60802E-04-1.39776E-06-2.20845E-04 5.49139E-14-2.22192E-13
 -1      4228 1.71483E+01 1.13500E+00-1.55835E-02-2.69358E-01-6.01899E-14 1.59894E-14
 -1      4229 1.77778E+01 1.10550E+00-1.39870E-02-2.10051E-01 8.02082E-15-1.00297E-13
 -1      4230 1.80320E+01 1.09024E+00-1.41863E-02-1.35963E-01-3.32948E-15-6.35389E-14
 -1      4231 1.74696E+01 1.12713E+00-1.63134E-02-2.28108E-01-2.06688E-14-3.79801E-14
 -1      4232 1.84780E+01 1.01560E+00-1.05609E-02-7.48514E-02-4.18221E-14-1.52689E-13
 -1      4233 1.82742E+01 1.04895E+00-1.17079E-02-1.28146E-01-2.99958E-14-9.14270E-14
 -3
    1PSTEP                         3           1           1          
  100CL  101 1.000000000        4233                     0    1           1
 -4  TOSTRAIN    6    1
 -5  EXX         1    4    1    1
 -5  EYY         1    4    2    2
 -5  EZZ         1    4    3    3
 -5  EXY         1    4    1    2
 -5  EYZ         1    4    2    3
 -5  EZX         1    4    3    1
 -1         1 3.08276E-04-9.48918E-05-7.88975E-05 1.29188E-06-3.59513E-19 1.59162E-18
 -1         2 3.59069E-05-1.09917E-04 1.97855E-05-2.89778E-07 4.61531E-18 1.81450E-19
 -1         3 9.52374E-05-2.85709E-05-2.85717E-05 2.49173E-10-2.45506E-18-2.91890E-18
 -1         4 9.52374E-05-2.85709E-05-2.85717E-05-2.28095E-10 2.76798E-19 1.07763E-18
 -1         5 1.54170E-04-2.24144E-05-4.69920E-05 3.89655E-05-2.49928E-19 1.70881E-17
 -1         6 1.54409E-04 2.88010E-10-4.80959E-05-5.44429E-05-1.03857E-18 1.40815E-17
 -1         7 1.00828E-04-9.42649E-07-4.28557E-05-2.67513E-05-1.47913E-19 1.85400E-18
 -1         8 9.29625E-05-5.56549E-08-3.94322E-05-1.51998E-05-1.39072E-19-1.60556E-18
 -1         9 8.77041E-05 1.31435E-08-3.73020E-05-9.02514E-06-1.32455E-19-3.40828E-18
 -1        10 8.32492E-05 2.38442E-08-3.54584E-05-4.60474E-06-6.62274E-20-4.20000E-18
 -1        11 7.91272E-05 4.70528E-08-3.37785E-05-1.39479E-06-5.09543E-20-4.56865E-18
 -1        12 7.54350E-05 7.99260E-08-3.23032E-05 6.63058E-07 6.88214E-22-4.70128E-18
 -1        13 7.23361E-05 1.20615E-07-3.10910E-05 1.66036E-06 1.89259E-20-4.73693E-18
 -1        14 7.03083E-05 1.54924E-07-3.03157E-05 1.71384E-06 3.19755E-20-4.65659E-18
 -1        15 6.97239E-05 1.71833E-07-3.01087E-05 1.18378E-06 5.27741E-20-4.57596E-18
 -1        16 7.07761E-05 1.65499E-07-3.05374E-05 5.95565E-07 8.01770E-20-4.33517E-18
 -1        17 7.34074E-05 1.35908E-07-3.15817E-05 5.23198E-07 1.06700E-19-3.95925E-18
 -1        18 7.72532E-05 9.84219E-08-3.31121E-05 1.41974E-06 1.32349E-19-3.33645E-18
 -1        19 8.20971E-05 5.62933E-08-3.50549E-05 3.66958E-06 1.85447E-19-2.39161E-18
 -1        20 8.76131E-05 1.93618E-08-3.72877E-05 7.56376E-06 2.17529E-19-8.13324E-19
 -1        21 9.39239E-05-2.85762E-08-3.98255E-05 1.36921E-05 2.20758E-19 1.88399E-18
 -1        22 1.03106E-04-5.80045E-07-4.30825E-05 2.42605E-05 3.16579E-20 6.87328E-18
 -1        23 1.26965E-04-4.28650E-05-3.96524E-05-3.49708E-06-7.07167E-19 1.05173E-17
 -1        24 1.10128E-04-3.29013E-05-3.41339E-05 6.19722E-07-1.93375E-19 7.39605E-18
 -1        25 1.09027E-04-3.28153E-05-3.28136E-05 4.78686E-07-1.41852E-19 4.53160E-18
 -1        26 1.09253E-04-3.28382E-05-3.26633E-05 2.41907E-07-6.39970E-20 2.60741E-18
 -1        27 1.09032E-04-3.27382E-05-3.25498E-05 8.79965E-08 3.76475E-20 1.31684E-18
 -1        28 1.07261E-04-3.21882E-05-3.19991E-05-8.92163E-08-9.22339E-20 6.10016E-19
 -1        29 1.03346E-04-3.10115E-05-3.08415E-05-2.86987E-07 5.77066E-20 4.73809E-21
 -1        30 9.74453E-05-2.92472E-05-2.91556E-05-4.49027E-07-5.89532E-20-1.19670E-18
 -1        31 9.07398E-05-2.72411E-05-2.72937E-05-4.83784E-07-1.00656E-19-2.50364E-18
 -1        32 8.52678E-05-2.56011E-05-2.58085E-05-3.27078E-07-2.64294E-19-4.01610E-18
 -1        33 8.31038E-05-2.49508E-05-2.52355E-05-1.34699E-08 4.48071E-19-4.30225E-18
 -1        34 8.52371E-05-2.55893E-05-2.58230E-05 3.17510E-07-5.95669E-20-4.16125E-18
 -1        35 9.09556E-05-2.73013E-05-2.73909E-05 5.13311E-07 9.67140E-20-4.75508E-18
 -1        36 9.82705E-05-2.94869E-05-2.94298E-05 5.16705E-07 7.38703E-20-3.83055E-18
 -1        37 1.05019E-04-3.14985E-05-3.13592E-05 3.81783E-07-2.01397E-19-3.59474E-18
 -1        38 1.09779E-04-3.29152E-05-3.27677E-05 2.03824E-07-3.94989E-19-4.95370E-18
 -1        39 1.12129E-04-3.36143E-05-3.35035E-05 5.37253E-08 8.59441E-22-5.63807E-18
 -1        40 1.12380E-04-3.36904E-05-3.36272E-05-4.16356E-08 8.76266E-20-5.25887E-18
 -1        41 1.11167E-04-3.33320E-05-3.33076E-05-8.65471E-08-6.42306E-22-6.02790E-18
 -1        42 1.09137E-04-3.27304E-05-3.27301E-05-9.69973E-08 2.97721E-20-6.09739E-18
 -1        43 1.06800E-04-3.20360E-05-3.20474E-05-8.86213E-08-3.02639E-19-5.52456E-18
 -1        44 1.04492E-04-3.13490E-05-3.13638E-05-7.24810E-08 2.64253E-19-3.98538E-18
 -1        45 1.02405E-04-3.07263E-05-3.07402E-05-5.50085E-08-4.33421E-19-3.70045E-18
 -1        46 1.00623E-04-3.01935E-05-3.02048E-05-3.93148E-08-1.69503E-19-5.82092E-18
 -1        47 9.91647E-05-2.97568E-05-2.97651E-05-2.65277E-08-4.15267E-19-6.19748E-18
 -1        48 9.80113E-05-2.94106E-05-2.94163E-05-1.67474E-08 3.43937E-19-5.76497E-18
 -1        49 9.71251E-05-2.91441E-05-2.91477E-05-9.62140E-09 7.77756E-20-5.26984E-18
 -1        50 9.64624E-05-2.89444E-05-2.89465E-05-4.65218E-09-1.49351E-20-6.36755E-18
 -1        51 9.59802E-05-2.87989E-05-2.87998E-05-1.34483E-09-3.91422E-21-6.20086E-18
 -1        52 9.56397E-05-2.86958E-05-2.86960E-05 7.32018E-10-9.89361E-20-4.76220E-18
 -1        53 9.54074E-05-2.86253E-05-2.86251E-05 1.92897E-09 2.18697E-19-4.35664E-18
 -1        54 9.52558E-05-2.85792E-05-2.85787E-05 2.51854E-09 3.77892E-19-4.08843E-18
 -1        55 9.51630E-05-2.85507E-05-2.85502E-05 2.70561E-09-8.62300E-19-5.69260E-18
 -1        56 9.51118E-05-2.85349E-05-2.85343E-05 2.63988E-09 3.67107E-19-6.87417E-18
 -1        57 9.50890E-05-2.85277E-05-2.85271E-05 2.42771E-09 1.65356E-19-4.72772E-18
 -1        58 9.50849E-05-2.85262E-05-2.85256E-05 2.14244E-09-8.39519E-20-5.54350E-18
 -1        59 9.50924E-05-2.85282E-05-2.85277E-05 1.83280E-09-2.86306E-19-4.75163E-18
 -1        60 9.51065E-05-2.85323E-05-2.85319E-05 1.52968E-09-3.93066E-20-3.50353E-18
 -1        61 9.51238E-05-2.85373E-05-2.85370E-05 1.25129E-09 2.63818E-19-3.28793E-18
 -1        62 9.51421E-05-2.85427E-05-2.85425E-05 1.00712E-09-7.29308E-20-4.29961E-18
 -1        63 9.51598E-05-2.85480E-05-2.85478E-05 8.00857E-10-1.78600E-19-4.68332E-18
 -1        64 9.51762E-05-2.85529E-05-2.85527E-05 6.32390E-10-6.89762E-19-6.20553E-18
 -1        65 9.51909E-05-2.85573E-05-2.85571E-05 4.99128E-10 1.23367E-19-6.61520E-18
 -1        66 9.52038E-05-2.85611E-05-2.85610E-05 3.96502E-10 4.92561E-19-6.47935E-18
 -1        67 9.52147E-05-2.85644E-05-2.85643E-05 3.17590E-10 6.07347E-19-3.89206E-18
 -1        68 9.52238E-05-2.85671E-05-2.85670E-05 2.51275E-10 8.16725E-20-1.15900E-18
 -1        69 9.52309E-05-2.85692E-05-2.85691E-05 1.75143E-10 4.79120E-19 1.03088E-19
 -1        70 9.52356E-05-2.85706E-05-2.85705E-05 2.76302E-11 2.57703E-19 1.34696E-18
 -1        71 9.52375E-05-2.85713E-05-2.85712E-05-1.83951E-10 2.41665E-19 3.09048E-18
 -1        72 1.18445E-04-3.54808E-05-3.92686E-05-2.69945E-06 1.44843E-19 1.62636E-17
 -1        73 1.14387E-04-3.40716E-05-3.53897E-05-5.59005E-07 1.18578E-19 1.31746E-17
 -1        74 1.15243E-04-3.45385E-05-3.47421E-05-3.08429E-07 1.03036E-19 1.08892E-17
 -1        75 1.17597E-04-3.52866E-05-3.52058E-05-2.97814E-07 8.68664E-21 9.60533E-18
 -1        76 1.19600E-04-3.58922E-05-3.56891E-05-2.76991E-07 1.12319E-19 8.72633E-18
 -1        77 1.19552E-04-3.59017E-05-3.55613E-05-1.65124E-07 7.39731E-20 7.89717E-18
 -1        78 1.15925E-04-3.48587E-05-3.44108E-05 1.03560E-07-1.78209E-19 8.44132E-18
 -1        79 1.08094E-04-3.25411E-05-3.21587E-05 5.08537E-07 1.20388E-19 7.39510E-18
 -1        80 9.74392E-05-2.93112E-05-2.92751E-05 8.62650E-07-1.80588E-19 5.93092E-18
 -1        81 8.77524E-05-2.62960E-05-2.67761E-05 8.67409E-07 2.60552E-19 5.39181E-18
 -1        82 8.36793E-05-2.49633E-05-2.57766E-05 3.91622E-07-2.98116E-19 5.54530E-18
 -1        83 8.75530E-05-2.61057E-05-2.67982E-05-3.00816E-07 2.53852E-19 4.89236E-18
 -1        84 9.75002E-05-2.91656E-05-2.93942E-05-7.72345E-07 1.76508E-19 2.93015E-18
 -1        85 1.08953E-04-3.26949E-05-3.24757E-05-8.29830E-07 1.46617E-19 1.55483E-18
 -1        86 1.17814E-04-3.54021E-05-3.49856E-05-5.91400E-07 6.19079E-20 3.11179E-19
 -1        87 1.22309E-04-3.67521E-05-3.63695E-05-2.84406E-07-1.66741E-19 6.54624E-19
 -1        88 1.22785E-04-3.68746E-05-3.66266E-05-4.99209E-08 5.22265E-20 1.57584E-18
 -1        89 1.20553E-04-3.61842E-05-3.60690E-05 8.10015E-08 5.53893E-19 3.16009E-19
 -1        90 1.16961E-04-3.50935E-05-3.50684E-05 1.32092E-07-8.85550E-20-6.31708E-19
 -1        91 1.12995E-04-3.38976E-05-3.39198E-05 1.36881E-07-3.45586E-20 5.65077E-19
 -1        92 1.09234E-04-3.27677E-05-3.28080E-05 1.20451E-07-5.68946E-20 1.98380E-18
 -1        93 1.05952E-04-3.17837E-05-3.18262E-05 9.73805E-08 1.85891E-19 1.19352E-18
 -1        94 1.03235E-04-3.09696E-05-3.10074E-05 7.47575E-08-2.52298E-20-6.08044E-19
 -1        95 1.01066E-04-3.03197E-05-3.03507E-05 5.53608E-08 2.50371E-20 6.21213E-20
 -1        96 9.93804E-05-2.98147E-05-2.98389E-05 3.98330E-08 1.64911E-20 2.67067E-18
 -1        97 9.81007E-05-2.94311E-05-2.94494E-05 2.79010E-08 6.07706E-20 4.72305E-18
 -1        98 9.71490E-05-2.91457E-05-2.91593E-05 1.89839E-08 5.81785E-20 4.60747E-18
 -1        99 9.64557E-05-2.89377E-05-2.89475E-05 1.24646E-08-1.97926E-19 2.80937E-18
 -1       100 9.59619E-05-2.87895E-05-2.87965E-05 7.79355E-09 7.42132E-20 2.13611E-18
 -1       101 9.56193E-05-2.86866E-05-2.86915E-05 4.51760E-09-7.30271E-21 1.10182E-18
 -1       102 9.53892E-05-2.86175E-05-2.86207E-05 2.27760E-09 1.84801E-19 1.80783E-18
 -1       103 9.52413E-05-2.85730E-05-2.85751E-05 7.95202E-10-4.04945E-19 8.39130E-19
 -1       104 9.51523E-05-2.85462E-05-2.85475E-05-1.42126E-10 1.02818E-19 5.27512E-18
 -1       105 9.51042E-05-2.85316E-05-2.85324E-05-6.94709E-10 3.50710E-19 4.84288E-18
 -1       106 9.50839E-05-2.85255E-05-2.85258E-05-9.82138E-10-5.47784E-19 4.29327E-18
 -1       107 9.50817E-05-2.85247E-05-2.85248E-05-1.09252E-09 3.99768E-20 2.08386E-18
 -1       108 9.50905E-05-2.85273E-05-2.85273E-05-1.08984E-09 4.96461E-19-1.35519E-18
 -1       109 9.51056E-05-2.85318E-05-2.85316E-05-1.01979E-09 3.88309E-19-1.32106E-18
 -1       110 9.51234E-05-2.85371E-05-2.85369E-05-9.14333E-10-1.59162E-19-1.30680E-18
 -1       111 9.51420E-05-2.85427E-05-2.85424E-05-7.95290E-10 2.44152E-19 1.09853E-18
 -1       112 9.51599E-05-2.85480E-05-2.85478E-05-6.77105E-10-6.66794E-19 1.19400E-18
 -1       113 9.51764E-05-2.85529E-05-2.85528E-05-5.68974E-10-1.46573E-20 3.35135E-18
 -1       114 9.51911E-05-2.85574E-05-2.85572E-05-4.76400E-10-1.05155E-18 4.74853E-18
 -1       115 9.52040E-05-2.85612E-05-2.85611E-05-4.02159E-10 1.10097E-18 2.68581E-18
 -1       116 9.52150E-05-2.85645E-05-2.85644E-05-3.46217E-10 2.64280E-19-2.10632E-18
 -1       117 9.52240E-05-2.85672E-05-2.85671E-05-3.04298E-10 5.15031E-19-6.37421E-18
 -1       118 9.52310E-05-2.85693E-05-2.85692E-05-2.62934E-10-4.90582E-19-5.43548E-18
 -1       119 9.52357E-05-2.85707E-05-2.85705E-05-1.65324E-10-4.34825E-19-3.10176E-18
 -1       120 9.52375E-05-2.85713E-05-2.85712E-05 1.06405E-10 1.19702E-18-1.83069E-18
 -1       121 9.52371E-05-2.85709E-05-2.85712E-05 1.93379E-10-1.03200E-18 9.48142E-19
 -1       122 9.52377E-05-2.85728E-05-2.85705E-05-8.88805E-11 9.05293E-18 1.01852E-18
 -1       123 9.52390E-05-2.85772E-05-2.85692E-05-2.39970E-10 1.07783E-17-1.22133E-18
 -1       124 9.52407E-05-2.85830E-05-2.85676E-05-2.87234E-10 4.05567E-18 3.55351E-19
 -1       125 9.52425E-05-2.85891E-05-2.85658E-05-2.69355E-10 5.69558E-18-6.40572E-19
 -1       126 9.52441E-05-2.85943E-05-2.85643E-05-2.17076E-10 3.11697E-18 1.41759E-18
 -1       127 9.52453E-05-2.85983E-05-2.85631E-05-1.38565E-10 3.57060E-18 1.68430E-19
 -1       128 9.52459E-05-2.86004E-05-2.85625E-05-4.69369E-11 1.07762E-19 1.08142E-18
 -1       129 9.52459E-05-2.86004E-05-2.85625E-05 4.87465E-11-5.70343E-19 7.89982E-19
 -1       130 9.52452E-05-2.85983E-05-2.85631E-05 1.39988E-10 8.75532E-19-2.57486E-18
 -1       131 9.52440E-05-2.85942E-05-2.85643E-05 2.20264E-10-5.31135E-18-2.44040E-18
 -1       132 9.52425E-05-2.85890E-05-2.85658E-05 2.69912E-10-7.85075E-18 2.41428E-18
 -1       133 9.52407E-05-2.85829E-05-2.85676E-05 2.85578E-10-3.22811E-18-5.89188E-20
 -1       134 9.52390E-05-2.85771E-05-2.85692E-05 2.59474E-10 3.28981E-18 6.40946E-19
 -1       135 9.52377E-05-2.85728E-05-2.85705E-05 1.24155E-10 3.31820E-18-9.58770E-19
 -1       136 9.52372E-05-2.85710E-05-2.85712E-05-3.58662E-10-1.71222E-18 5.28843E-20
 -1       137 2.62484E-05-8.90075E-05 1.58193E-05-2.32746E-05 1.12842E-17 3.04649E-18
 -1       138 8.56734E-06-3.73344E-05 3.97145E-06-1.97384E-05 1.72998E-17 8.20902E-18
 -1       139 1.02612E-05 1.05406E-05-1.32167E-05 1.84186E-05 1.98824E-17 1.45732E-17
 -1       140 5.59957E-05 2.62693E-05-3.44167E-05 7.52215E-05 1.51145E-17 1.70152E-17
 -1       141 1.44167E-04-2.19245E-06-5.47209E-05 1.12333E-04 8.79538E-18 1.46240E-17
 -1       142 2.44530E-04-5.52041E-05-7.06179E-05 9.93767E-05 2.21806E-18 6.77542E-18
 -1       143 3.08281E-04-9.35945E-05-7.90550E-05 3.42279E-05 3.63562E-20-2.73698E-18
 -1       144 2.99907E-04-8.79664E-05-7.81184E-05-5.02371E-05 1.75231E-18-1.16096E-17
 -1       145 2.22263E-04-4.25736E-05-6.73338E-05-1.06277E-04 6.94736E-18-1.79533E-17
 -1       146 1.22306E-04 7.22656E-06-5.06384E-05-1.07172E-04 1.27574E-17-1.94047E-17
 -1       147 3.48633E-05 2.55270E-05-2.70131E-05-5.55405E-05 1.64312E-17-1.60403E-17
 -1       148 5.24596E-06-2.35946E-06-7.25119E-06-1.87584E-06 1.60500E-17-1.01498E-17
 -1       149 1.40463E-05-5.59467E-05 8.39954E-06 2.43201E-05 1.16831E-17-4.55852E-18
 -1       150 3.12221E-05-9.89871E-05 1.75797E-05 1.68234E-05 3.08680E-18-6.78870E-19
 -1       151 3.29504E-05-1.02872E-04 1.84718E-05-1.07457E-05-6.28922E-18-6.22331E-19
 -1       152 1.70197E-05-6.25946E-05 9.96385E-06-2.25629E-05-1.46460E-17-4.97854E-18
 -1       153 4.78339E-06-8.92480E-06-4.52189E-06-3.52330E-06-1.81019E-17-1.01148E-17
 -1       154 2.38883E-05 2.56024E-05-2.30939E-05 4.51714E-05-1.76179E-17-1.57574E-17
 -1       155 8.81820E-05 2.00550E-05-4.32270E-05 9.54843E-05-1.37397E-17-1.78478E-17
 -1       156 1.85874E-04-2.28443E-05-6.19216E-05 1.13145E-04-7.27961E-18-1.51704E-17
 -1       157 2.71113E-04-7.21658E-05-7.40339E-05 7.69474E-05-2.07560E-18-7.44860E-18
 -1       158 2.69302E-04-7.06603E-05-7.38953E-05-8.00429E-05-2.42990E-18 1.00109E-17
 -1       159 1.73370E-04-1.64930E-05-5.96843E-05-1.13739E-04-7.57269E-18 1.52657E-17
 -1       160 7.55450E-05 2.43427E-05-4.03118E-05-9.00850E-05-1.26356E-17 1.48337E-17
 -1       161 1.49390E-05 1.98248E-05-1.78250E-05-3.13533E-05-1.69788E-17 1.38498E-17
 -1       162 6.73135E-06-2.63822E-05 1.00553E-06 1.36493E-05-1.70105E-17 8.18403E-18
 -1       163 2.43416E-05-8.38486E-05 1.48565E-05 2.37548E-05-7.07675E-18 2.64348E-18
 -1       164 1.06133E-04-1.55311E-05-3.90206E-05-1.82187E-05-2.13620E-18 2.29493E-19
 -1       165 9.72363E-05-1.06716E-05-3.72617E-05-1.20524E-05-1.78274E-18-1.90708E-18
 -1       166 9.07144E-05-7.84581E-06-3.56326E-05-7.26879E-06-1.24434E-18-3.05543E-18
 -1       167 8.50876E-05-5.81445E-06-3.40605E-05-3.50836E-06-7.32717E-19-3.65279E-18
 -1       168 7.99324E-05-3.98508E-06-3.26132E-05-7.69504E-07-3.18425E-19-3.89130E-18
 -1       169 7.52081E-05-2.20295E-06-3.13393E-05 9.64896E-07 3.73522E-20-4.02923E-18
 -1       170 7.15218E-05-6.89869E-07-3.04000E-05 1.66061E-06 3.67460E-19-3.99680E-18
 -1       171 6.95143E-05 2.39828E-07-2.99346E-05 1.54583E-06 6.94727E-19-3.89973E-18
 -1       172 6.96753E-05 3.23326E-07-3.00405E-05 1.07510E-06 9.55607E-19-3.75271E-18
 -1       173 7.21281E-05-5.13946E-07-3.07390E-05 8.33009E-07 1.24956E-18-3.56423E-18
 -1       174 7.64967E-05-2.10495E-06-3.19416E-05 1.34649E-06 1.53128E-18-3.07280E-18
 -1       175 8.24332E-05-4.29350E-06-3.35685E-05 3.00403E-06 1.90243E-18-2.27615E-18
 -1       176 8.94735E-05-6.99902E-06-3.54602E-05 6.01446E-06 2.20570E-18-1.13078E-18
 -1       177 9.77326E-05-1.06499E-05-3.74774E-05 1.04953E-05 2.37965E-18 6.99874E-19
 -1       178 1.08853E-04-1.73325E-05-3.94055E-05 1.61945E-05 2.04683E-18 3.85609E-18
 -1       179 1.21485E-04-3.13085E-05-3.98521E-05 1.45280E-05 1.38825E-18 7.77375E-18
 -1       180 1.17174E-04-3.16981E-05-3.66350E-05-9.12765E-06-1.91893E-18 2.94807E-18
 -1       181 1.12373E-04-3.31673E-05-3.39826E-05-2.32079E-06-1.61568E-18 2.18252E-18
 -1       182 1.10046E-04-3.29493E-05-3.30025E-05-4.30208E-07-1.13407E-18 1.57217E-18
 -1       183 1.09106E-04-3.30193E-05-3.25863E-05-5.45547E-07-7.17044E-19 1.08020E-18
 -1       184 1.08104E-04-3.29511E-05-3.22026E-05-1.80734E-06-5.26026E-19 7.79514E-19
 -1       185 1.06316E-04-3.25005E-05-3.16343E-05-3.70211E-06-4.56590E-19 4.75406E-19
 -1       186 1.03427E-04-3.14722E-05-3.08337E-05-5.50359E-06-6.04739E-19 2.06335E-19
 -1       187 9.96847E-05-2.98940E-05-2.99010E-05-6.24484E-06-6.97646E-19-2.51513E-19
 -1       188 9.59880E-05-2.81631E-05-2.90558E-05-5.10193E-06-9.06952E-19-3.65422E-19
 -1       189 9.36207E-05-2.69715E-05-2.85521E-05-2.01921E-06-2.57167E-19-3.74049E-19
 -1       190 9.35942E-05-2.69183E-05-2.85644E-05 1.99174E-06-3.24649E-19-1.63172E-18
 -1       191 9.59941E-05-2.80641E-05-2.91023E-05 5.32457E-06-3.66034E-19-1.87365E-18
 -1       192 9.98965E-05-2.98684E-05-3.00041E-05 6.78026E-06 1.43359E-20-2.22548E-18
 -1       193 1.03954E-04-3.15990E-05-3.10075E-05 6.21475E-06 1.44492E-20-2.25434E-18
 -1       194 1.07097E-04-3.27758E-05-3.18577E-05 4.33512E-06-6.99173E-19-2.04202E-18
 -1       195 1.08843E-04-3.32827E-05-3.23940E-05 2.07006E-06-2.95155E-19-2.08456E-18
 -1       196 1.09221E-04-3.32432E-05-3.25747E-05 9.68979E-08-7.68120E-20-2.33454E-18
 -1       197 1.08542E-04-3.28547E-05-3.24483E-05-1.28640E-06-5.90511E-19-3.04118E-18
 -1       198 1.07189E-04-3.22915E-05-3.21064E-05-2.06549E-06-2.98329E-19-3.33082E-18
 -1       199 1.05504E-04-3.16753E-05-3.16448E-05-2.36435E-06-6.99873E-20-3.54011E-18
 -1       200 1.03742E-04-3.10801E-05-3.11418E-05-2.33969E-06 8.65921E-19-3.16962E-18
 -1       201 1.02069E-04-3.05447E-05-3.06521E-05-2.12816E-06 5.20929E-20-2.96194E-18
 -1       202 1.00576E-04-3.00856E-05-3.02080E-05-1.82969E-06-4.58094E-19-1.67847E-18
 -1       203 9.93039E-05-2.97056E-05-2.98250E-05-1.50914E-06-5.96479E-19-1.51175E-18
 -1       204 9.82567E-05-2.93999E-05-2.95070E-05-1.20424E-06 1.90240E-19-1.70685E-18
 -1       205 9.74196E-05-2.91602E-05-2.92513E-05-9.34032E-07 4.15261E-20-1.64917E-18
 -1       206 9.67677E-05-2.89764E-05-2.90509E-05-7.05720E-07-4.23939E-19-2.53540E-18
 -1       207 9.62720E-05-2.88387E-05-2.88979E-05-5.19560E-07 3.39717E-19-2.04806E-18
 -1       208 9.59041E-05-2.87381E-05-2.87838E-05-3.72107E-07 6.70500E-19-1.31440E-18
 -1       209 9.56381E-05-2.86664E-05-2.87008E-05-2.58246E-07-5.18530E-20-1.14863E-18
 -1       210 9.54511E-05-2.86168E-05-2.86422E-05-1.72405E-07-2.15566E-19-1.56045E-18
 -1       211 9.53242E-05-2.85840E-05-2.86021E-05-1.09229E-07-9.17720E-19-1.95893E-18
 -1       212 9.52419E-05-2.85633E-05-2.85759E-05-6.39174E-08 9.20451E-20-1.12578E-18
 -1       213 9.51919E-05-2.85513E-05-2.85598E-05-3.23612E-08 2.81527E-19-1.27766E-18
 -1       214 9.51647E-05-2.85454E-05-2.85508E-05-1.11599E-08-6.69768E-19-3.05930E-18
 -1       215 9.51531E-05-2.85435E-05-2.85468E-05 2.42506E-09 9.04632E-20-3.57718E-18
 -1       216 9.51517E-05-2.85442E-05-2.85459E-05 1.05476E-08 4.72016E-19-5.00002E-18
 -1       217 9.51566E-05-2.85464E-05-2.85471E-05 1.48648E-08 1.72743E-19-4.01085E-18
 -1       218 9.51651E-05-2.85495E-05-2.85495E-05 1.66239E-08-3.40716E-19-3.47568E-18
 -1       219 9.51752E-05-2.85528E-05-2.85524E-05 1.67407E-08-3.86868E-19-3.54741E-18
 -1       220 9.51859E-05-2.85562E-05-2.85556E-05 1.58682E-08 2.04657E-19-3.35226E-18
 -1       221 9.51962E-05-2.85593E-05-2.85587E-05 1.44524E-08 2.62564E-19-1.70114E-18
 -1       222 9.52057E-05-2.85622E-05-2.85615E-05 1.27760E-08 4.08979E-19-1.19214E-19
 -1       223 9.52141E-05-2.85647E-05-2.85641E-05 1.09899E-08 1.55790E-18-1.04207E-19
 -1       224 9.52214E-05-2.85669E-05-2.85662E-05 9.13591E-09 1.55250E-18-1.51211E-18
 -1       225 9.52274E-05-2.85688E-05-2.85680E-05 7.16039E-09 1.21548E-18-1.68368E-18
 -1       226 9.52321E-05-2.85703E-05-2.85694E-05 4.93968E-09 6.34685E-19-2.85756E-19
 -1       227 9.52354E-05-2.85714E-05-2.85703E-05 2.41134E-09 7.09203E-19-1.26142E-18
 -1       228 1.17650E-04-3.41740E-05-3.59373E-05 3.32425E-06 1.47725E-18 6.81301E-18
 -1       229 1.15406E-04-3.42253E-05-3.47582E-05-6.22344E-07 1.17814E-18 5.60525E-18
 -1       230 1.15651E-04-3.46928E-05-3.46549E-05-1.68032E-06 6.51939E-19 4.64267E-18
 -1       231 1.16480E-04-3.52722E-05-3.47764E-05-1.14214E-06 5.01948E-19 4.17428E-18
 -1       232 1.16596E-04-3.56363E-05-3.46711E-05 8.05966E-07 5.81839E-20 4.18987E-18
 -1       233 1.14929E-04-3.53448E-05-3.40759E-05 3.87122E-06-3.14064E-19 4.35463E-18
 -1       234 1.10918E-04-3.39864E-05-3.29442E-05 7.04864E-06 6.25585E-19 4.10145E-18
 -1       235 1.05082E-04-3.15450E-05-3.15204E-05 8.51346E-06 7.11471E-19 3.75602E-18
 -1       236 9.94112E-05-2.88393E-05-3.02956E-05 6.51615E-06 5.32572E-19 2.66782E-18
 -1       237 9.66892E-05-2.73777E-05-2.97815E-05 1.12830E-06 1.17910E-19 2.22966E-18
 -1       238 9.85714E-05-2.81939E-05-3.02183E-05-5.01396E-06 1.01989E-18 1.15692E-18
 -1       239 1.04112E-04-3.07828E-05-3.14328E-05-8.63199E-06 1.20668E-18-1.20570E-20
 -1       240 1.10566E-04-3.36147E-05-3.29492E-05-8.48646E-06 7.91943E-19-1.50516E-18
 -1       241 1.15470E-04-3.55048E-05-3.42397E-05-5.68426E-06 1.07424E-19-8.32501E-19
 -1       242 1.17764E-04-3.61516E-05-3.49628E-05-2.17046E-06 2.55466E-20-5.94819E-19
 -1       243 1.17635E-04-3.58554E-05-3.50506E-05 6.98136E-07-1.75495E-19-1.19293E-18
 -1       244 1.15825E-04-3.50390E-05-3.46326E-05 2.46810E-06 8.88604E-19-9.55797E-19
 -1       245 1.13123E-04-3.40260E-05-3.39088E-05 3.25584E-06-1.56685E-19-5.38371E-19
 -1       246 1.10133E-04-3.30085E-05-3.30602E-05 3.37154E-06-5.36818E-19 2.53777E-19
 -1       247 1.07241E-04-3.20826E-05-3.22140E-05 3.10885E-06-5.84694E-19 4.06797E-19
 -1       248 1.04653E-04-3.12869E-05-3.14431E-05 2.67739E-06 5.98726E-19 1.13834E-18
 -1       249 1.02452E-04-3.06284E-05-3.07802E-05 2.20436E-06 1.07159E-19 9.63884E-19
 -1       250 1.00647E-04-3.00984E-05-3.02328E-05 1.75712E-06-4.29059E-19 8.51040E-19
 -1       251 9.92065E-05-2.96814E-05-2.97941E-05 1.36561E-06-1.55430E-18 2.72641E-18
 -1       252 9.80838E-05-2.93596E-05-2.94508E-05 1.03863E-06-1.27964E-19 3.44316E-18
 -1       253 9.72260E-05-2.91159E-05-2.91879E-05 7.74182E-07 3.10493E-19 3.09437E-18
 -1       254 9.65832E-05-2.89347E-05-2.89904E-05 5.65428E-07 4.51462E-19 3.37889E-18
 -1       255 9.61110E-05-2.88027E-05-2.88449E-05 4.03911E-07 4.71625E-19 2.82696E-18
 -1       256 9.57714E-05-2.87085E-05-2.87400E-05 2.81192E-07 7.02461E-19 1.33309E-18
 -1       257 9.55333E-05-2.86432E-05-2.86662E-05 1.89601E-07-4.61747E-20 4.23366E-19
 -1       258 9.53713E-05-2.85993E-05-2.86158E-05 1.22511E-07-7.75321E-19 2.16469E-18
 -1       259 9.52654E-05-2.85711E-05-2.85827E-05 7.43794E-08-9.69075E-19 1.32561E-18
 -1       260 9.51999E-05-2.85542E-05-2.85620E-05 4.06801E-08-2.26676E-19 2.20623E-18
 -1       261 9.51630E-05-2.85451E-05-2.85502E-05 1.77832E-08 6.41774E-19 2.15170E-18
 -1       262 9.51457E-05-2.85413E-05-2.85445E-05 2.82556E-09 1.19164E-18 7.81506E-19
 -1       263 9.51414E-05-2.85410E-05-2.85428E-05-6.41637E-09 1.70590E-18-1.21687E-19
 -1       264 9.51451E-05-2.85429E-05-2.85437E-05-1.16428E-08-5.79906E-19-5.46740E-19
 -1       265 9.51536E-05-2.85459E-05-2.85461E-05-1.41322E-08-3.97993E-19-1.30331E-19
 -1       266 9.51645E-05-2.85494E-05-2.85493E-05-1.48276E-08-1.01212E-18 1.95262E-18
 -1       267 9.51762E-05-2.85531E-05-2.85527E-05-1.44088E-08-7.61809E-19 3.02484E-18
 -1       268 9.51877E-05-2.85566E-05-2.85562E-05-1.33502E-08-5.30005E-19 2.59198E-18
 -1       269 9.51985E-05-2.85599E-05-2.85594E-05-1.19663E-08-1.18726E-18 2.36616E-18
 -1       270 9.52082E-05-2.85628E-05-2.85623E-05-1.04454E-08 3.14943E-18 1.33144E-18
 -1       271 9.52167E-05-2.85654E-05-2.85649E-05-8.87251E-09 2.61331E-18 3.36355E-19
 -1       272 9.52239E-05-2.85675E-05-2.85670E-05-7.24265E-09 1.39791E-18 5.05217E-19
 -1       273 9.52296E-05-2.85693E-05-2.85687E-05-5.47659E-09-1.85000E-18 1.04153E-18
 -1       274 9.52337E-05-2.85707E-05-2.85699E-05-3.43828E-09-6.14377E-19 2.11277E-18
 -1       275 9.52363E-05-2.85714E-05-2.85707E-05-1.17412E-09 6.64310E-19 1.67886E-18
 -1       276 9.52369E-05-2.85730E-05-2.85703E-05-2.50159E-09 1.69282E-18 5.36121E-18
 -1       277 9.52381E-05-2.85761E-05-2.85694E-05-4.64067E-09 2.58971E-18 5.83605E-19
 -1       278 9.52396E-05-2.85800E-05-2.85684E-05-5.89190E-09 5.11333E-18-1.96693E-18
 -1       279 9.52412E-05-2.85844E-05-2.85672E-05-6.09846E-09 4.51028E-18 9.73372E-19
 -1       280 9.52426E-05-2.85884E-05-2.85661E-05-5.41156E-09 2.57831E-18-2.43308E-18
 -1       281 9.52438E-05-2.85917E-05-2.85652E-05-4.00583E-09 3.93092E-19-6.44480E-19
 -1       282 9.52445E-05-2.85939E-05-2.85646E-05-2.11383E-09 3.20589E-19 1.06907E-19
 -1       283 9.52448E-05-2.85946E-05-2.85643E-05 2.13870E-11 7.69376E-20-3.55465E-22
 -1       284 9.52445E-05-2.85938E-05-2.85646E-05 2.15364E-09-1.71325E-18 8.33272E-20
 -1       285 9.52438E-05-2.85916E-05-2.85652E-05 4.03794E-09-4.75574E-19-3.27432E-18
 -1       286 9.52426E-05-2.85884E-05-2.85661E-05 5.41322E-09 9.84329E-21-1.79860E-18
 -1       287 9.52412E-05-2.85843E-05-2.85672E-05 6.09782E-09 9.10821E-19 3.10524E-18
 -1       288 9.52396E-05-2.85800E-05-2.85684E-05 5.87380E-09 9.87015E-19 2.83525E-18
 -1       289 9.52381E-05-2.85760E-05-2.85695E-05 4.57869E-09 2.25459E-19 8.41212E-19
 -1       290 9.52366E-05-2.85735E-05-2.85699E-05 3.96744E-09 1.73845E-19-2.88841E-18
 -1       291 1.13459E-05-4.39091E-05 1.10377E-05 7.03909E-06 2.91321E-18 3.63176E-18
 -1       292 2.58449E-05-4.27029E-05 4.59179E-06 2.11082E-05 4.50537E-18 5.43991E-18
 -1       293 5.29388E-05-3.83330E-05-8.00351E-06 3.42601E-05 5.83712E-18 6.20468E-18
 -1       294 9.27016E-05-3.64661E-05-2.46018E-05 4.25168E-05 6.54672E-18 4.61040E-18
 -1       295 1.34507E-04-3.31983E-05-4.25076E-05 4.39934E-05 6.71983E-18 4.31140E-18
 -1       296 1.76343E-04-3.38059E-05-5.85194E-05 3.89785E-05 5.85392E-18 2.23871E-18
 -1       297 2.06613E-04-3.68071E-05-6.91430E-05 2.12500E-05 4.42352E-18-8.67891E-19
 -1       298 2.11495E-04-3.53358E-05-7.19428E-05-2.13292E-06 4.38170E-18-3.38398E-18
 -1       299 1.92605E-04-3.23351E-05-6.61016E-05-1.88762E-05 4.91576E-18-5.36617E-18
 -1       300 1.66525E-04-3.28646E-05-5.52304E-05-4.10792E-05 6.19006E-18-7.90959E-18
 -1       301 1.29177E-04-4.14311E-05-3.72939E-05-3.82192E-05 4.72973E-18-6.00631E-18
 -1       302 7.31868E-05-3.19026E-05-1.87956E-05-4.10114E-05 6.20833E-18-7.38549E-18
 -1       303 3.92624E-05-3.73085E-05-3.28355E-06-2.79642E-05 5.14805E-18-5.76708E-18
 -1       304 1.85653E-05-4.06856E-05 6.76516E-06-1.71501E-05 2.28106E-18-5.29787E-18
 -1       305 9.98546E-06-4.54808E-05 1.18646E-05-7.47181E-07-4.43528E-19-4.79029E-18
 -1       306 1.59850E-05-3.69972E-05 6.93511E-06 1.84012E-05-2.57572E-18-5.17124E-18
 -1       307 3.48398E-05-3.70973E-05-1.47269E-06 2.71516E-05-6.24793E-18-5.59051E-18
 -1       308 6.48886E-05-3.09022E-05-1.58629E-05 3.97450E-05-7.36940E-18-7.07569E-18
 -1       309 1.07228E-04-3.05126E-05-3.27346E-05 4.64629E-05-6.95456E-18-6.55519E-18
 -1       310 1.50674E-04-3.23763E-05-4.93174E-05 4.07565E-05-6.57827E-18-5.24779E-18
 -1       311 1.87049E-04-3.33104E-05-6.30973E-05 3.35549E-05-5.89937E-18-4.06830E-18
 -1       312 1.98054E-04-3.02769E-05-6.92280E-05 9.40785E-06-4.97865E-18-1.64293E-18
 -1       313 2.05891E-04-3.43675E-05-7.02412E-05-1.19506E-05-3.92928E-18 1.11311E-18
 -1       314 1.81513E-04-3.23613E-05-6.15215E-05-3.02040E-05-4.16486E-18 3.30385E-18
 -1       315 1.43707E-04-2.94679E-05-4.74483E-05-4.73899E-05-5.18109E-18 5.96608E-18
 -1       316 1.00908E-04-3.33080E-05-2.90645E-05-4.47802E-05-6.16322E-18 4.40055E-18
 -1       317 5.59145E-05-3.40145E-05-1.09851E-05-3.62873E-05-7.15023E-18 5.94395E-18
 -1       318 2.97077E-05-4.10361E-05 2.61995E-06-2.63386E-05-3.21047E-18 7.18469E-18
 -1       319 1.25834E-05-4.63345E-05 1.12730E-05-8.80525E-06 3.45907E-19 5.50963E-18
 -1       320 9.87381E-05-1.73462E-05-3.49611E-05-7.43641E-06-1.66903E-18-1.61648E-18
 -1       321 1.06508E-04-2.29853E-05-3.58693E-05-1.00416E-05-2.07178E-18-3.65918E-19
 -1       322 8.58138E-05-1.02298E-05-3.24436E-05-9.44192E-07-5.81235E-19-2.89765E-18
 -1       323 7.97011E-05-6.97298E-06-3.12041E-05 1.37476E-06-1.40922E-19-3.11605E-18
 -1       324 7.43167E-05-3.96337E-06-3.01742E-05 2.51540E-06 3.84580E-19-3.15812E-18
 -1       325 7.05144E-05-1.69637E-06-2.95083E-05 2.43592E-06 7.50138E-19-3.05708E-18
 -1       326 6.91705E-05-7.54121E-07-2.93333E-05 1.50189E-06 1.05374E-18-3.02811E-18
 -1       327 7.07652E-05-1.47503E-06-2.97110E-05 4.28951E-07 1.39152E-18-2.91014E-18
 -1       328 7.50443E-05-3.71921E-06-3.05931E-05-4.64302E-09 1.69114E-18-2.65704E-18
 -1       329 8.15058E-05-7.16991E-06-3.18998E-05 6.90472E-07 1.99297E-18-1.93302E-18
 -1       330 8.93503E-05-1.14416E-05-3.34525E-05 2.60203E-06 2.30131E-18-1.03133E-18
 -1       331 9.82075E-05-1.66193E-05-3.50475E-05 5.33238E-06 2.54306E-18 8.99774E-20
 -1       332 1.07862E-04-2.33811E-05-3.63182E-05 7.59777E-06 2.44292E-18 2.15238E-18
 -1       333 1.14059E-04-2.93774E-05-3.63736E-05 6.20913E-06 2.10677E-18 3.95838E-18
 -1       334 1.13551E-04-3.23627E-05-3.47719E-05 4.23947E-07 1.67540E-18 3.04698E-18
 -1       335 1.09451E-04-3.09713E-05-3.36006E-05-3.16699E-06-1.44285E-18 1.78440E-19
 -1       336 1.09144E-04-3.27956E-05-3.27114E-05-1.33791E-06-1.06549E-18 2.76535E-19
 -1       337 1.09170E-04-3.40091E-05-3.22145E-05-1.86958E-06-7.54533E-19 3.17016E-19
 -1       338 1.09115E-04-3.47254E-05-3.18913E-05-4.02265E-06-4.84739E-19 2.66374E-19
 -1       339 1.08365E-04-3.44789E-05-3.16750E-05-6.89986E-06-6.55604E-19 2.98023E-19
 -1       340 1.06469E-04-3.28303E-05-3.15607E-05-9.16358E-06-6.57398E-19 3.28076E-19
 -1       341 1.03561E-04-2.99114E-05-3.15522E-05-9.18528E-06-9.17347E-19 5.13778E-19
 -1       342 1.00692E-04-2.68808E-05-3.16163E-05-5.93979E-06-9.41595E-19-2.64173E-19
 -1       343 9.93689E-05-2.54235E-05-3.16750E-05-8.65176E-08-1.06389E-18-1.07347E-18
 -1       344 1.00440E-04-2.65194E-05-3.16652E-05 5.98812E-06-7.28084E-19-1.86440E-18
 -1       345 1.03275E-04-2.94905E-05-3.16109E-05 9.70485E-06-5.08191E-19-2.08525E-18
 -1       346 1.06312E-04-3.26150E-05-3.15817E-05 1.00099E-05-7.23022E-20-1.67316E-18
 -1       347 1.08315E-04-3.45891E-05-3.16053E-05 7.66586E-06-4.97379E-19-1.99278E-18
 -1       348 1.08914E-04-3.51164E-05-3.16432E-05 4.18323E-06-6.37680E-19-2.05041E-18
 -1       349 1.08366E-04-3.45928E-05-3.16336E-05 8.42766E-07-5.36317E-19-1.94718E-18
 -1       350 1.07125E-04-3.35734E-05-3.15359E-05-1.68709E-06-1.00808E-18-2.41188E-18
 -1       351 1.05576E-04-3.24665E-05-3.13416E-05-3.25530E-06-5.16649E-19-2.64964E-18
 -1       352 1.03965E-04-3.14808E-05-3.10693E-05-3.99356E-06 2.16034E-19-2.89260E-18
 -1       353 1.02432E-04-3.06852E-05-3.07498E-05-4.12996E-06 7.66469E-19-1.62946E-18
 -1       354 1.01046E-04-3.00767E-05-3.04145E-05-3.88698E-06 8.35518E-19-1.55075E-18
 -1       355 9.98376E-05-2.96250E-05-3.00889E-05-3.44061E-06 5.39245E-19-7.32319E-19
 -1       356 9.88121E-05-2.92956E-05-2.97901E-05-2.91367E-06-3.76988E-22-3.97324E-19
 -1       357 9.79622E-05-2.90581E-05-2.95275E-05-2.38375E-06-2.10073E-19 8.07525E-19
 -1       358 9.72726E-05-2.88886E-05-2.93048E-05-1.89486E-06 6.06330E-20 5.13238E-19
 -1       359 9.67243E-05-2.87691E-05-2.91214E-05-1.46815E-06 6.89992E-20 6.86755E-19
 -1       360 9.62967E-05-2.86861E-05-2.89740E-05-1.11027E-06-3.06553E-19 8.18573E-19
 -1       361 9.59698E-05-2.86298E-05-2.88585E-05-8.19373E-07 3.84729E-19-1.79948E-19
 -1       362 9.57249E-05-2.85926E-05-2.87698E-05-5.89075E-07 3.12473E-19-5.88841E-19
 -1       363 9.55455E-05-2.85692E-05-2.87032E-05-4.11033E-07-6.89972E-19-8.44250E-19
 -1       364 9.54172E-05-2.85553E-05-2.86544E-05-2.76483E-07-6.50841E-19 1.73545E-19
 -1       365 9.53281E-05-2.85481E-05-2.86195E-05-1.77117E-07 1.08298E-19 7.74885E-19
 -1       366 9.52685E-05-2.85453E-05-2.85953E-05-1.05525E-07 4.97862E-19 2.15656E-19
 -1       367 9.52305E-05-2.85453E-05-2.85791E-05-5.53711E-08-1.98476E-18 3.89456E-19
 -1       368 9.52081E-05-2.85470E-05-2.85689E-05-2.14070E-08-9.97080E-19-1.25969E-18
 -1       369 9.51965E-05-2.85496E-05-2.85629E-05 6.02205E-10 5.45234E-20-8.92234E-19
 -1       370 9.51924E-05-2.85526E-05-2.85599E-05 1.39957E-08 6.52155E-19 2.73456E-19
 -1       371 9.51929E-05-2.85556E-05-2.85588E-05 2.13493E-08 4.78594E-19-9.35267E-19
 -1       372 9.51963E-05-2.85585E-05-2.85591E-05 2.46064E-08 1.19261E-19-6.66546E-20
 -1       373 9.52013E-05-2.85611E-05-2.85601E-05 2.51971E-08-5.16699E-19 1.55618E-19
 -1       374 9.52070E-05-2.85635E-05-2.85615E-05 2.41418E-08 7.29744E-19-8.68005E-19
 -1       375 9.52128E-05-2.85656E-05-2.85631E-05 2.21361E-08 1.86735E-18-5.87751E-20
 -1       376 9.52183E-05-2.85674E-05-2.85647E-05 1.96190E-08 1.48924E-18 1.77148E-18
 -1       377 9.52233E-05-2.85690E-05-2.85662E-05 1.68238E-08 2.59304E-20 1.94406E-18
 -1       378 9.52278E-05-2.85704E-05-2.85675E-05 1.38299E-08-2.20960E-19 1.08512E-18
 -1       379 9.52315E-05-2.85718E-05-2.85685E-05 1.06082E-08 3.06438E-19-1.01892E-18
 -1       380 9.52343E-05-2.85727E-05-2.85693E-05 7.34805E-09 1.28327E-19-2.31275E-18
 -1       381 1.13710E-04-3.38528E-05-3.42013E-05-1.93272E-06 1.19712E-18 2.72860E-18
 -1       382 1.14630E-04-3.52352E-05-3.40256E-05-1.75989E-06 6.06298E-19 2.43726E-18
 -1       383 1.15700E-04-3.66069E-05-3.39105E-05 6.24908E-07 1.46262E-20 2.52617E-18
 -1       384 1.15999E-04-3.73789E-05-3.37096E-05 4.83175E-06-2.87088E-19 2.50350E-18
 -1       385 1.14568E-04-3.65834E-05-3.34324E-05 9.54601E-06 3.97487E-19 2.49024E-18
 -1       386 1.10987E-04-3.35501E-05-3.31981E-05 1.22051E-05 1.14957E-18 2.73861E-18
 -1       387 1.06350E-04-2.91367E-05-3.31075E-05 9.98054E-06 1.18273E-18 2.03491E-18
 -1       388 1.03390E-04-2.61012E-05-3.31426E-05 2.44869E-06 8.02398E-19 1.32775E-18
 -1       389 1.04420E-04-2.69593E-05-3.32176E-05-6.70861E-06 1.43920E-18-4.84754E-19
 -1       390 1.08768E-04-3.10599E-05-3.33132E-05-1.23312E-05 1.91534E-18-1.50486E-18
 -1       391 1.13444E-04-3.52898E-05-3.34980E-05-1.22798E-05 1.36985E-18-1.45772E-18
 -1       392 1.16182E-04-3.75171E-05-3.37295E-05-8.15292E-06-7.84465E-20-7.74150E-19
 -1       393 1.16537E-04-3.75836E-05-3.38640E-05-2.92275E-06 8.40912E-20-1.16393E-18
 -1       394 1.15162E-04-3.64054E-05-3.37806E-05 1.37749E-06 1.66538E-19-1.22623E-18
 -1       395 1.12875E-04-3.48584E-05-3.34568E-05 4.06667E-06 8.55852E-19-1.04046E-18
 -1       396 1.10267E-04-3.34146E-05-3.29485E-05 5.29632E-06-1.60278E-19-2.22297E-19
 -1       397 1.07682E-04-3.22296E-05-3.23408E-05 5.50586E-06-7.75447E-19-3.40525E-19
 -1       398 1.05302E-04-3.13069E-05-3.17110E-05 5.12179E-06-5.71853E-19 1.42429E-19
 -1       399 1.03210E-04-3.06020E-05-3.11139E-05 4.45771E-06-5.07898E-19 8.77694E-19
 -1       400 1.01434E-04-3.00660E-05-3.05811E-05 3.71104E-06 7.53411E-19 1.71971E-18
 -1       401 9.99642E-05-2.96588E-05-3.01258E-05 2.99135E-06-3.39790E-19 1.16568E-18
 -1       402 9.87761E-05-2.93503E-05-2.97493E-05 2.35094E-06-2.27105E-18 1.68711E-18
 -1       403 9.78345E-05-2.91179E-05-2.94459E-05 1.80834E-06-8.80245E-19 1.81861E-18
 -1       404 9.71019E-05-2.89446E-05-2.92070E-05 1.36375E-06 6.64374E-19 1.81227E-18
 -1       405 9.65421E-05-2.88171E-05-2.90224E-05 1.00853E-06 8.28565E-19 2.00026E-18
 -1       406 9.61221E-05-2.87248E-05-2.88825E-05 7.30525E-07 1.05712E-18 9.14307E-19
 -1       407 9.58130E-05-2.86595E-05-2.87785E-05 5.16912E-07 1.07450E-18 2.17100E-18
 -1       408 9.55903E-05-2.86145E-05-2.87027E-05 3.55648E-07-3.92163E-19 2.95793E-18
 -1       409 9.54338E-05-2.85847E-05-2.86487E-05 2.36084E-07-8.19792E-19 1.50304E-18
 -1       410 9.53271E-05-2.85658E-05-2.86113E-05 1.49151E-07-3.44883E-19-2.22686E-20
 -1       411 9.52572E-05-2.85548E-05-2.85863E-05 8.73303E-08-1.00063E-18-2.76537E-19
 -1       412 9.52139E-05-2.85492E-05-2.85703E-05 4.45166E-08 8.58484E-19 1.62055E-19
 -1       413 9.51895E-05-2.85472E-05-2.85608E-05 1.58373E-08 2.59986E-18 2.69825E-19
 -1       414 9.51780E-05-2.85476E-05-2.85557E-05-2.53214E-09 1.51727E-18-5.90768E-19
 -1       415 9.51750E-05-2.85494E-05-2.85538E-05-1.35467E-08-3.42900E-19 2.45313E-19
 -1       416 9.51775E-05-2.85519E-05-2.85538E-05-1.94516E-08-5.59575E-19 6.80455E-19
 -1       417 9.51831E-05-2.85548E-05-2.85550E-05-2.19223E-08-2.66125E-18 3.70592E-19
 -1       418 9.51903E-05-2.85576E-05-2.85569E-05-2.21814E-08-1.34657E-18 1.43462E-18
 -1       419 9.51981E-05-2.85604E-05-2.85590E-05-2.10963E-08-6.28070E-19 1.93130E-18
 -1       420 9.52058E-05-2.85629E-05-2.85613E-05-1.92556E-08-2.37730E-19 1.71687E-18
 -1       421 9.52131E-05-2.85651E-05-2.85634E-05-1.70297E-08 1.87570E-18 5.02443E-19
 -1       422 9.52195E-05-2.85671E-05-2.85654E-05-1.46142E-08 1.99186E-18 4.32402E-18
 -1       423 9.52252E-05-2.85688E-05-2.85670E-05-1.20617E-08 9.61708E-19 4.98667E-18
 -1       424 9.52298E-05-2.85704E-05-2.85684E-05-9.32086E-09-1.08280E-18 5.36604E-18
 -1       425 9.52335E-05-2.85717E-05-2.85694E-05-6.30808E-09-1.00324E-18 5.09349E-18
 -1       426 9.52355E-05-2.85725E-05-2.85698E-05-4.45102E-09-3.73581E-19 5.11895E-18
 -1       427 9.52400E-05-2.85812E-05-2.85681E-05-1.04203E-08 2.37709E-18-8.08457E-19
 -1       428 9.52378E-05-2.85775E-05-2.85687E-05-9.46870E-09 3.62801E-19 9.38984E-19
 -1       429 9.52363E-05-2.85748E-05-2.85693E-05-7.25720E-09-3.26616E-19 2.48994E-18
 -1       430 9.52420E-05-2.85847E-05-2.85674E-05-9.87397E-09 2.81425E-18-3.00959E-18
 -1       431 9.52437E-05-2.85877E-05-2.85668E-05-8.02818E-09 1.71085E-18-2.37728E-18
 -1       432 9.52449E-05-2.85899E-05-2.85664E-05-5.20269E-09 3.92733E-19-7.89755E-19
 -1       433 9.52455E-05-2.85911E-05-2.85662E-05-1.77643E-09-9.66934E-19-2.19832E-19
 -1       434 9.52455E-05-2.85910E-05-2.85662E-05 1.84852E-09-9.08958E-19-1.77338E-18
 -1       435 9.52448E-05-2.85899E-05-2.85664E-05 5.26501E-09-1.71648E-18-7.84292E-19
 -1       436 9.52437E-05-2.85877E-05-2.85668E-05 8.03401E-09-5.10788E-19-2.88031E-18
 -1       437 9.52420E-05-2.85847E-05-2.85674E-05 9.87563E-09 1.86473E-18 2.79576E-18
 -1       438 9.52399E-05-2.85811E-05-2.85681E-05 1.04109E-08 2.11018E-18 2.23239E-18
 -1       439 9.52377E-05-2.85774E-05-2.85687E-05 9.48977E-09-5.16780E-20 1.40250E-20
 -1       440 5.94187E-05-4.05458E-05-7.97045E-06 4.22492E-05-4.99008E-19 3.22296E-18
 -1       441 1.21062E-05-2.07971E-05 3.61222E-06-2.64435E-06 1.52459E-19 5.45775E-18
 -1       442 2.89146E-05-2.75738E-05-4.92248E-07 2.96586E-05 3.16790E-19 4.01843E-18
 -1       443 9.24244E-05-5.28768E-05-1.70732E-05 4.15441E-05-7.47507E-20 1.85603E-18
 -1       444 1.33969E-04-5.66782E-05-3.31311E-05 2.48705E-05 2.11674E-18-1.01337E-18
 -1       445 9.21329E-05-1.35515E-05-3.37545E-05-4.07561E-06-1.09260E-18-2.40507E-18
 -1       446 1.58860E-04-2.71492E-05-5.63926E-05-3.01623E-06 5.23212E-18-1.57294E-18
 -1       447 1.61521E-04-1.54518E-05-6.24511E-05-1.99321E-06 5.37654E-18-1.71315E-18
 -1       448 1.54179E-04-1.39120E-05-6.02412E-05 3.57945E-06 4.93810E-18-1.63027E-18
 -1       449 1.57946E-04-3.30111E-05-5.36376E-05 1.08537E-06 3.69619E-18-1.74393E-18
 -1       450 1.49011E-04-4.91562E-05-4.29251E-05-8.26460E-06 2.33471E-18-1.09320E-18
 -1       451 1.17671E-04-5.50173E-05-2.69174E-05-3.42467E-05 1.25181E-18-3.32852E-18
 -1       452 7.93655E-05-4.65608E-05-1.43224E-05-4.27850E-05 1.12772E-18-4.56197E-18
 -1       453 4.29831E-05-3.42089E-05-4.04096E-06-3.74533E-05 6.62274E-19-4.66117E-18
 -1       454 1.66713E-05-1.79263E-05 6.64737E-07-1.50837E-05 2.09535E-19-5.88307E-18
 -1       455 1.54093E-05-1.51317E-05 2.51079E-07 1.07397E-05 5.14573E-19-5.86253E-18
 -1       456 3.88597E-05-3.10156E-05-3.52143E-06 3.73308E-05-5.84982E-19-4.57620E-18
 -1       457 7.33990E-05-4.37540E-05-1.28453E-05 4.45963E-05-1.22026E-18-3.67253E-18
 -1       458 1.09627E-04-5.16667E-05-2.49434E-05 3.82485E-05-2.24474E-18-2.69658E-18
 -1       459 1.39826E-04-4.94571E-05-3.87255E-05 2.20953E-05-3.49417E-18-1.40332E-18
 -1       460 1.54192E-04-3.47650E-05-5.11660E-05 2.66068E-06-4.92476E-18-3.63695E-19
 -1       461 1.54297E-04-1.96161E-05-5.78433E-05-3.07179E-06-5.24165E-18-1.08060E-18
 -1       462 1.55126E-04-1.13124E-05-6.16633E-05 2.23342E-07-5.01316E-18-1.35188E-18
 -1       463 1.56475E-04-1.92545E-05-5.87562E-05 2.19195E-06-4.26587E-18-1.43731E-18
 -1       464 1.53482E-04-3.85602E-05-4.91915E-05-7.57031E-06-2.87647E-18-5.42207E-19
 -1       465 1.38882E-04-5.06456E-05-3.76970E-05-2.31803E-05-2.05289E-18 3.94400E-19
 -1       466 1.01652E-04-5.28173E-05-2.10751E-05-4.07202E-05-1.76299E-18 3.10808E-19
 -1       467 6.54141E-05-4.28624E-05-9.74259E-06-4.37830E-05-5.25584E-19 4.03484E-18
 -1       468 2.44785E-05-2.78099E-05 1.17965E-06-2.78558E-05 3.62001E-19 7.87719E-18
 -1       469 1.54188E-04-4.41862E-05-4.70295E-05 9.96597E-06 4.71614E-18-1.60894E-18
 -1       470 5.38147E-05-3.38673E-05-8.17460E-06-4.14848E-05 2.11700E-18 5.18543E-18
 -1       471 3.21143E-05-1.71045E-05-5.93654E-06 2.75731E-05 1.31827E-18-4.84852E-18
 -1       472 1.38978E-04-5.92170E-05-3.42403E-05-1.40017E-05 4.52289E-19-5.59412E-19
 -1       473 1.08805E-04-3.00533E-05-3.37415E-05-1.09638E-06 1.54540E-18 1.06201E-18
 -1       474 7.86815E-05-9.26935E-06-2.97581E-05 4.40516E-06 2.92600E-19-2.75280E-18
 -1       475 8.56782E-05-1.36045E-05-3.09042E-05 2.64032E-06-1.77470E-19-2.66278E-18
 -1       476 6.91066E-05-2.90129E-06-2.83788E-05 2.91541E-06 9.43971E-19-2.87044E-18
 -1       477 6.90604E-05-2.68101E-06-2.84511E-05 4.80287E-07 1.26717E-18-2.80472E-18
 -1       478 7.26983E-05-4.85117E-06-2.90832E-05-1.56821E-06 1.38930E-18-2.73219E-18
 -1       479 7.93853E-05-8.94936E-06-3.01998E-05-2.32090E-06 1.64005E-18-2.13805E-18
 -1       480 8.77888E-05-1.40848E-05-3.16061E-05-1.49767E-06 1.87384E-18-1.30042E-18
 -1       481 9.68779E-05-1.97379E-05-3.30782E-05 3.20364E-07 2.07453E-18-4.17634E-19
 -1       482 1.10528E-04-3.33349E-05-3.30767E-05-3.13205E-06 8.69732E-19 8.66058E-19
 -1       483 1.06419E-04-2.99132E-05-3.27877E-05-1.97779E-06-1.03973E-18-8.55289E-19
 -1       484 1.35723E-04-2.24236E-05-4.91770E-05 1.38989E-05 3.24551E-18 6.60024E-19
 -1       485 1.08314E-04-3.34620E-05-3.20792E-05-1.00573E-06-7.48228E-19-5.69221E-19
 -1       486 1.10198E-04-3.61136E-05-3.17569E-05-2.23675E-06-4.84616E-19-1.12020E-19
 -1       487 1.11852E-04-3.76515E-05-3.18095E-05-5.25104E-06-5.39292E-19-4.51140E-20
 -1       488 1.12317E-04-3.70321E-05-3.22800E-05-9.03135E-06-7.14701E-19 1.54201E-19
 -1       489 1.10731E-04-3.34777E-05-3.31242E-05-1.15600E-05-7.52492E-19 1.24334E-19
 -1       490 1.07377E-04-2.77843E-05-3.41182E-05-1.03186E-05-1.56295E-18-2.73865E-19
 -1       491 1.04254E-04-2.29503E-05-3.48674E-05-4.42028E-06-1.62586E-18-4.45462E-19
 -1       492 1.04003E-04-2.25882E-05-3.49203E-05 3.99514E-06-1.41780E-18-9.66167E-19
 -1       493 1.06678E-04-2.68440E-05-3.42334E-05 1.05529E-05-9.15970E-19-1.12451E-18
 -1       494 1.10149E-04-3.28182E-05-3.31478E-05 1.23317E-05-3.95599E-19-1.81193E-18
 -1       495 1.11959E-04-3.70113E-05-3.21253E-05 9.87422E-06-3.97656E-19-2.73455E-18
 -1       496 1.11555E-04-3.83463E-05-3.13859E-05 5.42921E-06-5.58744E-19-2.11078E-18
 -1       497 1.09608E-04-3.74535E-05-3.09335E-05 1.02772E-06-3.08532E-19-1.42919E-18
 -1       498 1.07075E-04-3.55143E-05-3.06771E-05-2.31452E-06-1.07564E-18-1.08141E-18
 -1       499 1.04623E-04-3.34439E-05-3.05109E-05-4.39526E-06-9.67150E-19-8.43098E-19
 -1       500 1.02537E-04-3.16943E-05-3.03643E-05-5.40234E-06-5.97789E-19-4.76416E-19
 -1       501 1.00869E-04-3.03943E-05-3.02048E-05-5.63068E-06 6.17437E-19-6.28407E-19
 -1       502 9.95701E-05-2.95096E-05-3.00258E-05-5.35957E-06 6.52434E-19-1.89946E-18
 -1       503 9.85636E-05-2.89486E-05-2.98342E-05-4.80880E-06 1.05511E-18-2.01757E-18
 -1       504 9.77816E-05-2.86168E-05-2.96409E-05-4.13405E-06 6.68561E-19-1.45192E-18
 -1       505 9.71713E-05-2.84372E-05-2.94562E-05-3.43721E-06 4.29832E-19-1.59555E-18
 -1       506 9.66937E-05-2.83537E-05-2.92874E-05-2.77940E-06 7.81793E-20-1.06906E-18
 -1       507 9.63205E-05-2.83277E-05-2.91387E-05-2.19302E-06-2.69871E-19-1.61709E-18
 -1       508 9.60306E-05-2.83341E-05-2.90119E-05-1.69129E-06 8.92561E-20-8.67866E-19
 -1       509 9.58073E-05-2.83571E-05-2.89065E-05-1.27549E-06-3.89858E-19-5.23619E-20
 -1       510 9.56372E-05-2.83871E-05-2.88209E-05-9.39939E-07-4.03676E-19-2.61023E-19
 -1       511 9.55097E-05-2.84184E-05-2.87530E-05-6.75432E-07-3.25821E-19-6.71186E-19
 -1       512 9.54155E-05-2.84478E-05-2.87001E-05-4.71444E-07 3.03166E-19-1.37432E-19
 -1       513 9.53475E-05-2.84739E-05-2.86598E-05-3.17473E-07-1.19698E-19-1.47316E-19
 -1       514 9.52994E-05-2.84962E-05-2.86298E-05-2.03798E-07-6.69881E-19-1.13426E-18
 -1       515 9.52665E-05-2.85145E-05-2.86079E-05-1.21863E-07-9.37184E-19-1.87095E-18
 -1       516 9.52448E-05-2.85293E-05-2.85923E-05-6.43994E-08-1.16969E-18-1.12699E-18
 -1       517 9.52313E-05-2.85409E-05-2.85815E-05-2.54116E-08 1.53132E-20 1.66897E-18
 -1       518 9.52236E-05-2.85499E-05-2.85744E-05-7.07978E-11 7.62740E-19 8.65893E-19
 -1       519 9.52199E-05-2.85566E-05-2.85699E-05 1.54254E-08-5.65433E-19 4.17493E-20
 -1       520 9.52189E-05-2.85617E-05-2.85674E-05 2.40080E-08 5.11691E-19-4.83007E-19
 -1       521 9.52196E-05-2.85653E-05-2.85661E-05 2.78866E-08 2.49333E-19-7.66772E-20
 -1       522 9.52214E-05-2.85680E-05-2.85657E-05 2.86847E-08 4.95847E-20 2.05494E-18
 -1       523 9.52236E-05-2.85699E-05-2.85659E-05 2.75581E-08 7.44877E-19 1.42954E-18
 -1       524 9.52261E-05-2.85712E-05-2.85664E-05 2.52921E-08 2.06161E-18 5.55690E-19
 -1       525 9.52286E-05-2.85723E-05-2.85670E-05 2.23831E-08 1.27702E-19 1.00711E-18
 -1       526 9.52311E-05-2.85733E-05-2.85676E-05 1.90886E-08 5.98071E-19 8.33060E-19
 -1       527 9.52333E-05-2.85743E-05-2.85682E-05 1.55427E-08-9.26848E-19-4.22725E-19
 -1       528 5.40970E-05-2.95125E-05-9.99849E-06 3.60683E-05-1.94987E-18 2.46211E-18
 -1       529 1.16568E-04-4.00906E-05-3.27940E-05 1.07571E-06 2.73652E-20 1.19329E-18
 -1       530 1.19450E-04-4.18142E-05-3.32914E-05 6.94943E-06-2.25928E-20 1.25357E-18
 -1       531 1.19923E-04-3.96361E-05-3.44471E-05 1.30447E-05 5.57341E-19 1.61571E-18
 -1       532 1.16718E-04-3.24839E-05-3.61844E-05 1.50961E-05 1.81921E-18 1.76743E-18
 -1       533 1.11928E-04-2.40764E-05-3.77686E-05 9.07838E-06 1.77831E-18 6.97863E-19
 -1       534 1.10173E-04-2.14413E-05-3.81855E-05-3.28177E-06 2.40364E-18-2.86175E-19
 -1       535 1.13536E-04-2.73560E-05-3.70577E-05-1.37693E-05 2.57331E-18-1.43487E-18
 -1       536 1.18481E-04-3.62669E-05-3.52633E-05-1.58245E-05 1.45791E-18-1.52827E-18
 -1       537 1.20189E-04-4.15102E-05-3.37460E-05-1.11362E-05 5.25185E-20-1.52920E-18
 -1       538 1.18230E-04-4.19330E-05-3.27215E-05-4.08391E-06 7.06065E-20-1.92496E-18
 -1       539 1.14508E-04-3.94600E-05-3.21852E-05 1.89837E-06 8.82511E-20-1.82905E-18
 -1       540 1.10616E-04-3.62665E-05-3.18808E-05 5.72155E-06 9.60712E-20-1.25981E-18
 -1       541 1.07294E-04-3.35233E-05-3.16259E-05 7.56250E-06-3.06448E-19 1.65393E-20
 -1       542 1.04673E-04-3.15526E-05-3.13411E-05 7.99940E-06-1.14027E-18 1.19060E-18
 -1       543 1.02640E-04-3.02704E-05-3.10155E-05 7.58670E-06-1.18592E-18 1.64430E-18
 -1       544 1.01050E-04-2.94863E-05-3.06678E-05 6.73818E-06-2.93517E-19 1.28645E-18
 -1       545 9.97860E-05-2.90258E-05-3.03225E-05 5.72550E-06-2.97760E-20 5.52347E-21
 -1       546 9.87700E-05-2.87629E-05-2.99996E-05 4.70984E-06-2.29929E-19 2.00496E-18
 -1       547 9.79507E-05-2.86168E-05-2.97113E-05 3.77673E-06-1.07964E-18 1.89280E-18
 -1       548 9.72926E-05-2.85385E-05-2.94633E-05 2.96407E-06-8.45411E-19-1.24322E-19
 -1       549 9.67687E-05-2.84993E-05-2.92560E-05 2.28168E-06 2.01789E-19-1.05938E-18
 -1       550 9.63568E-05-2.84828E-05-2.90870E-05 1.72407E-06 1.11170E-18-1.65989E-18
 -1       551 9.60376E-05-2.84794E-05-2.89521E-05 1.27835E-06 1.00754E-18-1.68148E-18
 -1       552 9.57942E-05-2.84832E-05-2.88465E-05 9.28789E-07-4.23814E-19 6.11245E-19
 -1       553 9.56120E-05-2.84911E-05-2.87653E-05 6.59448E-07-4.12274E-19 1.67919E-18
 -1       554 9.54782E-05-2.85007E-05-2.87040E-05 4.55487E-07 7.08476E-19 1.66849E-18
 -1       555 9.53822E-05-2.85108E-05-2.86587E-05 3.03781E-07 1.91636E-19 8.41394E-20
 -1       556 9.53150E-05-2.85207E-05-2.86258E-05 1.93114E-07-7.25715E-19 3.09537E-19
 -1       557 9.52696E-05-2.85297E-05-2.86026E-05 1.14138E-07 3.28083E-19-4.36740E-20
 -1       558 9.52402E-05-2.85378E-05-2.85866E-05 5.92280E-08 1.79134E-18-5.31244E-19
 -1       559 9.52224E-05-2.85448E-05-2.85760E-05 2.22693E-08 1.51770E-18-3.17393E-19
 -1       560 9.52127E-05-2.85506E-05-2.85694E-05-1.55513E-09 8.15990E-19-1.28565E-19
 -1       561 9.52086E-05-2.85555E-05-2.85656E-05-1.59789E-08-1.36504E-18-6.27260E-19
 -1       562 9.52081E-05-2.85595E-05-2.85637E-05-2.38465E-08-9.56506E-19-2.77148E-19
 -1       563 9.52099E-05-2.85627E-05-2.85631E-05-2.72833E-08-2.53452E-18-1.04154E-18
 -1       564 9.52130E-05-2.85652E-05-2.85633E-05-2.78413E-08-1.64047E-18-5.24805E-19
 -1       565 9.52166E-05-2.85672E-05-2.85641E-05-2.66197E-08 3.63776E-20 1.36713E-19
 -1       566 9.52205E-05-2.85688E-05-2.85650E-05-2.43623E-08 4.02310E-19 8.07587E-19
 -1       567 9.52243E-05-2.85702E-05-2.85661E-05-2.15342E-08 3.77784E-19 2.53677E-18
 -1       568 9.52278E-05-2.85714E-05-2.85671E-05-1.83878E-08 1.12062E-18 2.53007E-18
 -1       569 9.52310E-05-2.85725E-05-2.85679E-05-1.50325E-08-6.37199E-19 3.58923E-18
 -1       570 9.52338E-05-2.85737E-05-2.85686E-05-1.14247E-08-8.68148E-19 4.02030E-18
 -1       571 9.52439E-05-2.85851E-05-2.85680E-05-1.19736E-08 2.32997E-18-3.84485E-18
 -1       572 9.52460E-05-2.85875E-05-2.85679E-05-8.78912E-09 5.37016E-19-2.36752E-18
 -1       573 9.52380E-05-2.85784E-05-2.85684E-05-1.37993E-08-3.48013E-19 1.14180E-18
 -1       574 9.52412E-05-2.85820E-05-2.85682E-05-1.37359E-08 1.15887E-18 1.39491E-19
 -1       575 9.52472E-05-2.85891E-05-2.85678E-05-4.61890E-09-5.46227E-19-1.20994E-18
 -1       576 9.52477E-05-2.85896E-05-2.85677E-05 5.00971E-11-1.33030E-18-9.30667E-19
 -1       577 9.52472E-05-2.85890E-05-2.85678E-05 4.71236E-09-3.69271E-19-4.85274E-19
 -1       578 9.52460E-05-2.85875E-05-2.85679E-05 8.79810E-09 6.08095E-19-1.50441E-18
 -1       579 9.52439E-05-2.85851E-05-2.85680E-05 1.19781E-08 2.27317E-18 1.07545E-19
 -1       580 9.52411E-05-2.85819E-05-2.85682E-05 1.37161E-08 3.30841E-19 1.43060E-18
 -1       581 9.52380E-05-2.85784E-05-2.85684E-05 1.37580E-08-8.07400E-19 3.33402E-19
 -1       582 8.83302E-05-4.86457E-05-1.66720E-05 4.03910E-05-2.35168E-18 1.36186E-18
 -1       583 1.22686E-04-6.10991E-05-2.63477E-05 2.63536E-05-7.64050E-19-2.18413E-18
 -1       584 1.13210E-04-3.67665E-05-3.27700E-05-2.43588E-06 2.28963E-19 1.05749E-18
 -1       585 2.73285E-05-1.60068E-05-4.26638E-06-1.89629E-05 1.00029E-19 6.00377E-18
 -1       586 1.03573E-04-2.49599E-05-3.37161E-05-4.51193E-06-1.38548E-18-1.17193E-18
 -1       587 1.40191E-04-2.89106E-05-4.81606E-05 1.09637E-05-2.62490E-18-2.26237E-18
 -1       588 1.42896E-04-4.78320E-05-4.10516E-05-1.01316E-06-2.52726E-18 9.41530E-19
 -1       589 4.43563E-05-2.10787E-05-9.38418E-06-3.13927E-05-6.36148E-19-4.42220E-18
 -1       590 1.38421E-04-1.71189E-05-5.25479E-05-1.09489E-05 5.07913E-18-2.04601E-18
 -1       591 7.26990E-05-5.38219E-06-2.88555E-05 4.48849E-06 7.00717E-19-2.92106E-18
 -1       592 1.33697E-04-9.70902E-06-5.37669E-05-5.75551E-07 4.85180E-18-7.41790E-19
 -1       593 1.06812E-04-5.48423E-05-2.20817E-05-3.57197E-05-6.68362E-19-2.45157E-18
 -1       594 1.43751E-04-3.89489E-05-4.53900E-05-1.19134E-05 3.32050E-18-3.09596E-18
 -1       595 1.41678E-04-3.85385E-05-4.46654E-05 1.24183E-05 2.06618E-18 2.08052E-19
 -1       596 6.80527E-05-3.59207E-05-1.33323E-05 4.23912E-05 1.45594E-18-3.26658E-18
 -1       597 7.45523E-05-4.11083E-05-1.40002E-05-4.15658E-05-6.69897E-19-3.38146E-18
 -1       598 2.46622E-05-9.10757E-06-6.01791E-06-3.59179E-06 4.62096E-19-5.43329E-18
 -1       599 1.35871E-04-1.06554E-05-5.42288E-05 6.20557E-06-4.18900E-18-2.14646E-18
 -1       600 1.04680E-04-5.28205E-05-2.19886E-05 3.72222E-05 9.32477E-19-1.22896E-18
 -1       601 1.29400E-04-5.86583E-05-3.03690E-05 2.18881E-05-2.02732E-19 1.42804E-19
 -1       602 1.38247E-04-2.66942E-05-4.83182E-05-1.15865E-05-3.88126E-18-8.71385E-20
 -1       603 1.33492E-04-9.75640E-06-5.35957E-05-5.73597E-06-4.80151E-18-1.08603E-18
 -1       604 1.42657E-04-5.02229E-05-3.98880E-05-9.11261E-07-7.27601E-19-2.33082E-18
 -1       605 1.28642E-04-5.99069E-05-2.94555E-05-2.38322E-05 1.34943E-19-1.55536E-18
 -1       606 9.45914E-05-5.15582E-05-1.81735E-05-4.13883E-05 1.38527E-18-7.22797E-19
 -1       607 1.43661E-04-5.57909E-05-3.78594E-05 1.30461E-06 1.33336E-18-3.73764E-18
 -1       608 1.08556E-04-2.74682E-05-3.47665E-05 2.48827E-06 2.12190E-18 1.55251E-18
 -1       609 3.07167E-05-1.36226E-05-6.60444E-06 1.42925E-05-1.47435E-18 4.10859E-18
 -1       610 9.26601E-05-1.77735E-05-3.21164E-05-2.12574E-07-5.99685E-19-2.27304E-18
 -1       611 9.52348E-05-2.85750E-05-2.85685E-05 1.29127E-08-1.60726E-18 5.72270E-19
 -1       612 1.40383E-04-5.04286E-05-3.88429E-05 6.90326E-06 1.10002E-18 2.39843E-19
 -1       613 1.26931E-04-5.97902E-05-2.87390E-05-2.02061E-05-4.95329E-19-9.49762E-19
 -1       614 3.23550E-05-9.12459E-06-9.39820E-06 1.30140E-05 1.28151E-18-4.99511E-18
 -1       615 1.23140E-04-1.49797E-05-4.68660E-05-8.18675E-06 3.90329E-18-8.35750E-19
 -1       616 6.91633E-05-5.52943E-06-2.72673E-05-2.36818E-06 1.13799E-18-2.69566E-18
 -1       617 6.69986E-05-4.24420E-06-2.68973E-05 2.07887E-06 1.10518E-18-2.69868E-18
 -1       618 8.52170E-05-1.58528E-05-2.97310E-05-5.78928E-06 1.31211E-18-1.54871E-18
 -1       619 9.48935E-05-2.18712E-05-3.12958E-05-4.39993E-06 1.49318E-18-7.64940E-19
 -1       620 1.03586E-04-2.84020E-05-3.22141E-05-3.91802E-06 1.26522E-18-6.73428E-20
 -1       621 1.07204E-04-3.36471E-05-3.15257E-05-5.86412E-06 4.85580E-19-5.96080E-20
 -1       622 1.08061E-04-3.51204E-05-3.12542E-05 1.03923E-06-3.26798E-19-5.55095E-19
 -1       623 1.12275E-04-3.93126E-05-3.12772E-05-8.57064E-07-3.41610E-19-2.87740E-19
 -1       624 1.16133E-04-4.15547E-05-3.19794E-05-4.98645E-06-2.34886E-19 3.67877E-19
 -1       625 1.17861E-04-3.96048E-05-3.35662E-05-1.03091E-05-7.02035E-19 5.33121E-19
 -1       626 1.16020E-04-3.25042E-05-3.58312E-05-1.37555E-05-1.30680E-18 9.16873E-19
 -1       627 1.10654E-04-2.23154E-05-3.80626E-05-1.05543E-05-1.80281E-18 6.33246E-19
 -1       628 1.07679E-04-1.71219E-05-3.89734E-05-6.51129E-07-2.30640E-18 7.69518E-20
 -1       629 1.10159E-04-2.13360E-05-3.82174E-05 9.78949E-06-1.41149E-18-7.91283E-19
 -1       630 1.14418E-04-3.07832E-05-3.59565E-05 1.42572E-05-1.53879E-18-1.45999E-18
 -1       631 1.17405E-04-3.94491E-05-3.34124E-05 1.14150E-05-8.57108E-19-1.87506E-18
 -1       632 1.16218E-04-4.25388E-05-3.15940E-05 5.53526E-06-2.67297E-19-1.74201E-18
 -1       633 1.12439E-04-4.14750E-05-3.04229E-05-1.23579E-07-1.33642E-19-1.76990E-18
 -1       634 1.08016E-04-3.83984E-05-2.98423E-05-4.03034E-06-4.15102E-19-1.44029E-18
 -1       635 1.04138E-04-3.50551E-05-2.96102E-05-6.20313E-06-5.73860E-19-2.57009E-19
 -1       636 1.01182E-04-3.22568E-05-2.95405E-05-7.09029E-06-1.05689E-20 3.60968E-19
 -1       637 9.91114E-05-3.02270E-05-2.95223E-05-7.13404E-06-2.25943E-19 7.37284E-19
 -1       638 9.77396E-05-2.89069E-05-2.94997E-05-6.67682E-06-4.06757E-19-2.74436E-19
 -1       639 9.68583E-05-2.81339E-05-2.94530E-05-5.95625E-06 4.22446E-19-7.92301E-19
 -1       640 9.63009E-05-2.77421E-05-2.93819E-05-5.12736E-06 1.06837E-18-1.93573E-18
 -1       641 9.59491E-05-2.75965E-05-2.92935E-05-4.28895E-06 8.05610E-19-1.23515E-18
 -1       642 9.57248E-05-2.75983E-05-2.91967E-05-3.50055E-06 1.61416E-19-7.30366E-19
 -1       643 9.55788E-05-2.76799E-05-2.90992E-05-2.79459E-06 6.10037E-20-2.03985E-19
 -1       644 9.54811E-05-2.77981E-05-2.90067E-05-2.18511E-06 7.56181E-19 1.19364E-19
 -1       645 9.54138E-05-2.79264E-05-2.89229E-05-1.67415E-06 4.81845E-19-4.79899E-20
 -1       646 9.53659E-05-2.80497E-05-2.88496E-05-1.25635E-06-1.76709E-19-6.53463E-20
 -1       647 9.53311E-05-2.81603E-05-2.87874E-05-9.22238E-07-3.91848E-19 5.35734E-19
 -1       648 9.53054E-05-2.82550E-05-2.87358E-05-6.60548E-07 1.06555E-19 6.95253E-19
 -1       649 9.52863E-05-2.83333E-05-2.86940E-05-4.59664E-07-6.52242E-19-2.43590E-19
 -1       650 9.52719E-05-2.83964E-05-2.86609E-05-3.08563E-07-9.47895E-20-2.51252E-19
 -1       651 9.52612E-05-2.84460E-05-2.86351E-05-1.97314E-07-2.05785E-18-2.57025E-19
 -1       652 9.52534E-05-2.84840E-05-2.86154E-05-1.17312E-07-7.05484E-19-3.09750E-19
 -1       653 9.52476E-05-2.85126E-05-2.86007E-05-6.13214E-08-5.34248E-19-8.42782E-19
 -1       654 9.52435E-05-2.85337E-05-2.85899E-05-2.34121E-08-4.63882E-19-1.47539E-18
 -1       655 9.52406E-05-2.85487E-05-2.85822E-05 1.16903E-09-9.74174E-19-2.01526E-18
 -1       656 9.52387E-05-2.85592E-05-2.85769E-05 1.61517E-08-6.78625E-19-1.51967E-18
 -1       657 9.52374E-05-2.85663E-05-2.85734E-05 2.44019E-08 1.62404E-18-1.77571E-18
 -1       658 9.52367E-05-2.85708E-05-2.85711E-05 2.80734E-08 5.15155E-19-1.27731E-18
 -1       659 9.52363E-05-2.85736E-05-2.85697E-05 2.87439E-08 5.32232E-19-5.51377E-19
 -1       660 9.52362E-05-2.85753E-05-2.85690E-05 2.75317E-08 1.32080E-18 4.02114E-19
 -1       661 9.52363E-05-2.85762E-05-2.85686E-05 2.51935E-08 3.25864E-19-6.99560E-20
 -1       662 9.52366E-05-2.85768E-05-2.85685E-05 2.22210E-08-9.18915E-19-6.00975E-19
 -1       663 9.52371E-05-2.85774E-05-2.85684E-05 1.88220E-08-5.82376E-19-2.38672E-18
 -1       664 1.33320E-04-5.42354E-05-3.40732E-05 3.45021E-06-8.25956E-20 1.31498E-18
 -1       665 1.19461E-04-4.53628E-05-3.17713E-05-1.15323E-06-4.33895E-19 7.15791E-19
 -1       666 1.22450E-04-2.72018E-05-4.12176E-05 1.57991E-05 2.65045E-18 1.66701E-18
 -1       667 1.27554E-04-4.60366E-05-3.50448E-05-1.20237E-05 3.93109E-19-1.45102E-18
 -1       668 1.23164E-04-4.81819E-05-3.21532E-05-2.71014E-06-2.28232E-19-1.80702E-18
 -1       669 1.15964E-04-4.43468E-05-3.06988E-05 4.55298E-06-2.33576E-19-1.02379E-18
 -1       670 1.09306E-04-3.89108E-05-3.01753E-05 8.59222E-06-3.71646E-19-2.45662E-19
 -1       671 1.04410E-04-3.42735E-05-3.00628E-05 1.01858E-05-9.37601E-19 8.60763E-19
 -1       672 1.01206E-04-3.10645E-05-3.00629E-05 1.02858E-05-1.18224E-18 8.79051E-19
 -1       673 9.92255E-05-2.91183E-05-3.00462E-05 9.57948E-06-7.33458E-19 2.05906E-19
 -1       674 9.80214E-05-2.80756E-05-2.99761E-05 8.48475E-06-7.02951E-19-3.80335E-19
 -1       675 9.72721E-05-2.76046E-05-2.98564E-05 7.25450E-06-1.32689E-19 5.50570E-19
 -1       676 9.67788E-05-2.74636E-05-2.97053E-05 6.03581E-06-5.35127E-19 4.57244E-19
 -1       677 9.64298E-05-2.74966E-05-2.95417E-05 4.90966E-06-1.10581E-19 6.49146E-19
 -1       678 9.61663E-05-2.76103E-05-2.93802E-05 3.91534E-06-3.45695E-19 6.11694E-19
 -1       679 9.59585E-05-2.77525E-05-2.92303E-05 3.06607E-06 2.19946E-19-8.00683E-19
 -1       680 9.57912E-05-2.78959E-05-2.90973E-05 2.35933E-06 8.27766E-19-9.43630E-19
 -1       681 9.56561E-05-2.80273E-05-2.89832E-05 1.78382E-06 1.25236E-18-7.53815E-19
 -1       682 9.55479E-05-2.81416E-05-2.88880E-05 1.32406E-06-9.12998E-19-2.25960E-19
 -1       683 9.54625E-05-2.82376E-05-2.88103E-05 9.63190E-07-5.54026E-19-7.94707E-19
 -1       684 9.53962E-05-2.83164E-05-2.87482E-05 6.84728E-07 1.42292E-19-1.17530E-18
 -1       685 9.53457E-05-2.83797E-05-2.86995E-05 4.73513E-07 1.11071E-18-4.71177E-19
 -1       686 9.53082E-05-2.84298E-05-2.86620E-05 3.16155E-07 5.85002E-19-3.22033E-19
 -1       687 9.52809E-05-2.84689E-05-2.86336E-05 2.01189E-07 4.66388E-19-3.08296E-18
 -1       688 9.52616E-05-2.84988E-05-2.86126E-05 1.19029E-07 5.80809E-19-2.45702E-18
 -1       689 9.52484E-05-2.85213E-05-2.85973E-05 6.18256E-08 1.89684E-18-1.24238E-18
 -1       690 9.52397E-05-2.85380E-05-2.85864E-05 2.32678E-08 1.24973E-18-8.29064E-19
 -1       691 9.52343E-05-2.85502E-05-2.85789E-05-1.62946E-09 4.66621E-19 2.90904E-19
 -1       692 9.52314E-05-2.85588E-05-2.85740E-05-1.67368E-08-1.51629E-18 1.06285E-19
 -1       693 9.52300E-05-2.85648E-05-2.85708E-05-2.50058E-08-1.61373E-18 7.70829E-19
 -1       694 9.52297E-05-2.85688E-05-2.85690E-05-2.86425E-08-1.21086E-18-7.01635E-19
 -1       695 9.52302E-05-2.85714E-05-2.85680E-05-2.92557E-08-7.47461E-19-1.74269E-18
 -1       696 9.52310E-05-2.85730E-05-2.85677E-05-2.79826E-08-2.09758E-19-1.04675E-18
 -1       697 9.52321E-05-2.85741E-05-2.85677E-05-2.55903E-08-5.93922E-20-2.50714E-18
 -1       698 9.52333E-05-2.85749E-05-2.85679E-05-2.25611E-08-5.73170E-19-1.26483E-18
 -1       699 9.52346E-05-2.85756E-05-2.85681E-05-1.91618E-08-1.33410E-18 1.04821E-18
 -1       700 9.52365E-05-2.85770E-05-2.85683E-05-1.65994E-08-6.98602E-19 9.52670E-19
 -1       701 1.32782E-04-5.88436E-05-3.17145E-05 6.90174E-06-6.29729E-19-3.87970E-18
 -1       702 9.52506E-05-2.85889E-05-2.85693E-05-2.75146E-09 1.90203E-19-1.81283E-18
 -1       703 9.52374E-05-2.85778E-05-2.85684E-05 1.64771E-08-4.16110E-19-9.12668E-19
 -1       704 9.52471E-05-2.85859E-05-2.85691E-05-1.26349E-08 1.97101E-18-4.74458E-18
 -1       705 9.52505E-05-2.85889E-05-2.85693E-05 2.87856E-09 3.14899E-19-3.29069E-19
 -1       706 9.52494E-05-2.85879E-05-2.85692E-05-8.10941E-09 2.16902E-18-2.35753E-18
 -1       707 9.52494E-05-2.85879E-05-2.85692E-05 8.13470E-09 2.01497E-19-8.65906E-19
 -1       708 9.52471E-05-2.85859E-05-2.85691E-05 1.26528E-08 8.35376E-20 4.07924E-20
 -1       709 9.52437E-05-2.85831E-05-2.85688E-05 1.58650E-08 6.78280E-19 2.77957E-19
 -1       710 1.32491E-04-3.80966E-05-4.07630E-05-1.25733E-05-1.88917E-18 1.23765E-18
 -1       711 1.02384E-04-2.75176E-05-3.20846E-05-1.55704E-07-7.08125E-19-1.25988E-18
 -1       712 7.91220E-05-3.83263E-05-1.71486E-05 3.54800E-05-2.50004E-18 7.43774E-19
 -1       713 1.35870E-04-4.78593E-05-3.80686E-05-1.19808E-05 6.45158E-19-3.03029E-18
 -1       714 1.25538E-04-1.85926E-05-4.62905E-05 1.28557E-05-3.32259E-18-2.37988E-18
 -1       715 1.08053E-04-5.36528E-05-2.31618E-05 2.97179E-05-2.20557E-18-1.28945E-18
 -1       716 3.98449E-05-1.13473E-05-1.16947E-05-6.30196E-06-6.19260E-19 3.79492E-18
 -1       717 1.12542E-04-3.95859E-05-3.12721E-05-5.23564E-06-7.27313E-20 8.90656E-20
 -1       718 1.26805E-04-4.11931E-05-3.68398E-05 1.49104E-05 1.11121E-18 1.69539E-18
 -1       719 1.25788E-04-4.78491E-05-3.34211E-05 6.37571E-06 8.11960E-20 1.13136E-18
 -1       720 4.38065E-05-1.03784E-05-1.38498E-05-1.53789E-05 3.12807E-20-4.23951E-18
 -1       721 9.19714E-05-4.14463E-05-2.13833E-05 3.37502E-05 2.35004E-18-1.17831E-18
 -1       722 7.13108E-05-3.16863E-05-1.65831E-05-3.46182E-05-7.77179E-19-3.06697E-18
 -1       723 1.28706E-04-2.84528E-05-4.33630E-05-1.72236E-05 3.37424E-18-2.24588E-18
 -1       724 7.59723E-05-9.95920E-06-2.82967E-05-5.31152E-06 1.22539E-18-2.24084E-18
 -1       725 5.62433E-05-2.13071E-05-1.44955E-05 3.23007E-05 2.10152E-18-3.57075E-18
 -1       726 5.46439E-05-1.98364E-05-1.45118E-05 2.37747E-05-2.00669E-18 1.67045E-18
 -1       727 8.48119E-05-1.63873E-05-2.93310E-05 6.93342E-06 3.73310E-19-2.33623E-18
 -1       728 9.56635E-05-4.60643E-05-2.09870E-05-3.41562E-05-1.12640E-18-2.31137E-18
 -1       729 5.41975E-05-2.33391E-05-1.27313E-05-3.09605E-05 2.20856E-18 3.61424E-18
 -1       730 1.34197E-04-5.72659E-05-3.31270E-05-6.50381E-06 5.27371E-19-2.42797E-18
 -1       731 1.22951E-04-1.76254E-05-4.55772E-05-1.18434E-05-3.75331E-18 2.08198E-19
 -1       732 1.23666E-04-5.64194E-05-2.87719E-05 1.92133E-05 1.03702E-18 5.92327E-19
 -1       733 8.19907E-05-4.01143E-05-1.76646E-05-3.72436E-05 2.87118E-18 8.84382E-19
 -1       734 1.20204E-04-1.53509E-05-4.54386E-05 6.52059E-06 3.36711E-18 8.53187E-19
 -1       735 1.20607E-04-9.75877E-06-4.80802E-05 1.36504E-06-3.85485E-18-1.49646E-18
 -1       736 1.32802E-04-4.06462E-05-3.97417E-05 1.22418E-05-8.10796E-19-2.55582E-18
 -1       737 1.15929E-04-5.72626E-05-2.50336E-05-2.77349E-05 1.21668E-18-1.81188E-18
 -1       738 6.98560E-05-6.35131E-06-2.72196E-05 6.10032E-06 9.58332E-19-2.77368E-18
 -1       739 9.52437E-05-2.85831E-05-2.85688E-05-1.57764E-08-2.15107E-19-9.65980E-19
 -1       740 9.52402E-05-2.85802E-05-2.85686E-05-1.69219E-08-2.05451E-18 2.74890E-18
 -1       741 5.18813E-05-1.31877E-05-1.63196E-05 8.07294E-06-7.14118E-19 2.65510E-18
 -1       742 1.34948E-04-5.55217E-05-3.41135E-05-5.65632E-07 5.96232E-20-5.87629E-20
 -1       743 1.13670E-04-5.28446E-05-2.59620E-05-2.36960E-05-1.04328E-18-1.36216E-18
 -1       744 6.09505E-05-1.83961E-05-1.79704E-05-2.36543E-05-4.18183E-19-3.50335E-18
 -1       745 4.22362E-05-6.62847E-06-1.48685E-05-2.72196E-06 6.37614E-19-4.23707E-18
 -1       746 7.65360E-05-1.09420E-05-2.81123E-05 7.82177E-06 7.64254E-19-2.53137E-18
 -1       747 9.27608E-05-2.13383E-05-3.06213E-05 4.10306E-06-5.70992E-20-2.13944E-18
 -1       748 9.28126E-05-2.41450E-05-2.94288E-05-9.21229E-06 7.95885E-19-9.70758E-19
 -1       749 7.58893E-05-2.99566E-05-1.94829E-05 2.75518E-05-2.00239E-18 6.03485E-19
 -1       750 1.24394E-04-5.20771E-05-3.09814E-05 6.87257E-06 7.59402E-19 9.24113E-19
 -1       751 1.15002E-04-4.35207E-05-3.06215E-05 2.96739E-06 3.39999E-19 2.62814E-19
 -1       752 1.21782E-04-4.64003E-05-3.23461E-05-2.81664E-06-2.33596E-19 9.23353E-19
 -1       753 1.12964E-04-1.43191E-05-4.26180E-05 5.84984E-06-3.09675E-18-9.19731E-19
 -1       754 1.19899E-04-2.60325E-05-4.06034E-05 1.38848E-05-2.02228E-18-2.61793E-18
 -1       755 1.16156E-04-4.64484E-05-2.98911E-05-3.28848E-06-4.11840E-19-8.52230E-19
 -1       756 1.09188E-04-4.18327E-05-2.88666E-05-7.59126E-06 2.85799E-19-9.22606E-19
 -1       757 1.03460E-04-3.68677E-05-2.85404E-05-9.29480E-06 4.46416E-19 1.95062E-19
 -1       758 9.94644E-05-3.28452E-05-2.85504E-05-9.48029E-06 8.29305E-20 4.35191E-19
 -1       759 9.69219E-05-2.99819E-05-2.86880E-05-8.89551E-06-1.05574E-19 1.33944E-19
 -1       760 9.54705E-05-2.81791E-05-2.88387E-05-7.96561E-06-3.56665E-19-2.77906E-19
 -1       761 9.47252E-05-2.71647E-05-2.89542E-05-6.92126E-06-4.43376E-19 9.07567E-20
 -1       762 9.44144E-05-2.66950E-05-2.90224E-05-5.87434E-06 2.06747E-19-7.08501E-21
 -1       763 9.43520E-05-2.65755E-05-2.90469E-05-4.88624E-06 1.86974E-18 5.99086E-20
 -1       764 9.44183E-05-2.66637E-05-2.90375E-05-3.98955E-06 1.22940E-18 3.95434E-19
 -1       765 9.45408E-05-2.68618E-05-2.90052E-05-3.19985E-06-2.72476E-20 9.47913E-19
 -1       766 9.46780E-05-2.71061E-05-2.89593E-05-2.52173E-06-2.14230E-19-4.93036E-19
 -1       767 9.48080E-05-2.73573E-05-2.89074E-05-1.95238E-06 3.13706E-19-1.35903E-18
 -1       768 9.49208E-05-2.75930E-05-2.88547E-05-1.48414E-06 2.20846E-19-7.68972E-19
 -1       769 9.50132E-05-2.78019E-05-2.88048E-05-1.10647E-06-5.57578E-19 5.71039E-19
 -1       770 9.50857E-05-2.79798E-05-2.87596E-05-8.07487E-07-5.19107E-20 6.20672E-19
 -1       771 9.51405E-05-2.81265E-05-2.87203E-05-5.75120E-07-9.82589E-19 3.34810E-19
 -1       772 9.51805E-05-2.82443E-05-2.86869E-05-3.97853E-07-6.99863E-19-2.70400E-19
 -1       773 9.52088E-05-2.83369E-05-2.86593E-05-2.65217E-07-1.56736E-18-1.29670E-18
 -1       774 9.52278E-05-2.84080E-05-2.86370E-05-1.68026E-07-7.68680E-19-5.78818E-19
 -1       775 9.52400E-05-2.84615E-05-2.86193E-05-9.84550E-08-1.26367E-18-1.25845E-18
 -1       776 9.52472E-05-2.85008E-05-2.86056E-05-4.99999E-08-6.61412E-19-4.82475E-19
 -1       777 9.52508E-05-2.85290E-05-2.85951E-05-1.73751E-08-1.50966E-18-9.54094E-19
 -1       778 9.52521E-05-2.85486E-05-2.85872E-05 3.62804E-09-2.26561E-19-9.13699E-19
 -1       779 9.52518E-05-2.85619E-05-2.85814E-05 1.62943E-08 7.95546E-19-3.54250E-19
 -1       780 9.52506E-05-2.85704E-05-2.85772E-05 2.31354E-08 1.77529E-18-1.11638E-18
 -1       781 9.52489E-05-2.85755E-05-2.85743E-05 2.60297E-08 1.07123E-18-9.82727E-19
 -1       782 9.52471E-05-2.85784E-05-2.85723E-05 2.63465E-08 9.88609E-19-1.30304E-18
 -1       783 9.52452E-05-2.85798E-05-2.85709E-05 2.50501E-08 8.28856E-19-1.97112E-18
 -1       784 9.52436E-05-2.85804E-05-2.85699E-05 2.28096E-08-3.40716E-19-1.58331E-18
 -1       785 9.52422E-05-2.85807E-05-2.85692E-05 2.00165E-08-1.99981E-18-6.13655E-19
 -1       786 8.90550E-05-3.61007E-05-2.24779E-05-2.81095E-05-6.95249E-19-2.08741E-18
 -1       787 1.23009E-04-5.18461E-05-3.04754E-05-7.52476E-06-7.10285E-19-2.81572E-20
 -1       788 1.00572E-04-3.48968E-05-2.81454E-05 1.40146E-05-1.27659E-18 5.18889E-19
 -1       789 9.68228E-05-3.03574E-05-2.84859E-05 1.28154E-05-9.24512E-19 6.00436E-19
 -1       790 9.49689E-05-2.77211E-05-2.88198E-05 1.12909E-05-6.97371E-19-1.05311E-19
 -1       791 9.42198E-05-2.63998E-05-2.90651E-05 9.71417E-06-5.03895E-19 1.61566E-20
 -1       792 9.40507E-05-2.59018E-05-2.92061E-05 8.21366E-06-5.81394E-19 6.20897E-19
 -1       793 9.41484E-05-2.58750E-05-2.92596E-05 6.83554E-06-1.07687E-18 8.52179E-19
 -1       794 9.43432E-05-2.60916E-05-2.92503E-05 5.60025E-06-1.83333E-19 1.53023E-18
 -1       795 9.45510E-05-2.64136E-05-2.92014E-05 4.51685E-06 1.33943E-19 1.44464E-18
 -1       796 9.47350E-05-2.67620E-05-2.91310E-05 3.58616E-06 6.84337E-19-2.42963E-19
 -1       797 9.48838E-05-2.70947E-05-2.90523E-05 2.80228E-06 4.02927E-19-5.54539E-19
 -1       798 9.49975E-05-2.73921E-05-2.89736E-05 2.15428E-06 5.91739E-19-8.99125E-19
 -1       799 9.50811E-05-2.76470E-05-2.89002E-05 1.62808E-06-1.79910E-20-4.61021E-19
 -1       800 9.51405E-05-2.78592E-05-2.88348E-05 1.20803E-06-6.15557E-19-1.08680E-19
 -1       801 9.51817E-05-2.80318E-05-2.87785E-05 8.78298E-07 3.81607E-19-6.38388E-19
 -1       802 9.52094E-05-2.81696E-05-2.87313E-05 6.23772E-07-7.54865E-19-1.27042E-18
 -1       803 9.52273E-05-2.82779E-05-2.86926E-05 4.30655E-07 6.14041E-19-1.09681E-18
 -1       804 9.52385E-05-2.83615E-05-2.86615E-05 2.86775E-07 2.09220E-18-8.53582E-19
 -1       805 9.52449E-05-2.84250E-05-2.86371E-05 1.81690E-07 6.21718E-19-1.18742E-18
 -1       806 9.52481E-05-2.84724E-05-2.86181E-05 1.06650E-07 4.91672E-19-2.42439E-18
 -1       807 9.52493E-05-2.85072E-05-2.86037E-05 5.44718E-08 4.07233E-19-6.22876E-19
 -1       808 9.52492E-05-2.85322E-05-2.85930E-05 1.93741E-08-7.44391E-19 1.54955E-18
 -1       809 9.52483E-05-2.85496E-05-2.85852E-05-3.21653E-09-1.44313E-18 3.57497E-18
 -1       810 9.52470E-05-2.85614E-05-2.85795E-05-1.68515E-08-1.10751E-18 2.60834E-18
 -1       811 9.52455E-05-2.85691E-05-2.85756E-05-2.42374E-08-3.63610E-19-8.13125E-19
 -1       812 9.52441E-05-2.85738E-05-2.85730E-05-2.73943E-08-2.62016E-19-2.54190E-18
 -1       813 9.52428E-05-2.85766E-05-2.85712E-05-2.77913E-08-1.30305E-18-3.32006E-18
 -1       814 9.52416E-05-2.85780E-05-2.85701E-05-2.64648E-08-6.55600E-20-1.09019E-18
 -1       815 9.52406E-05-2.85787E-05-2.85694E-05-2.41072E-08-1.09084E-18-6.70540E-19
 -1       816 9.52400E-05-2.85791E-05-2.85690E-05-2.11477E-08-1.87118E-18-7.47975E-19
 -1       817 9.52401E-05-2.85796E-05-2.85688E-05-1.90730E-08-2.44186E-18 6.27127E-19
 -1       818 9.52536E-05-2.85884E-05-2.85708E-05 6.34718E-09 6.81830E-19-9.90773E-19
 -1       819 9.52476E-05-2.85844E-05-2.85699E-05 1.66172E-08-6.91800E-19 2.86891E-19
 -1       820 9.52544E-05-2.85890E-05-2.85709E-05 2.87601E-11 8.68438E-19-5.93842E-19
 -1       821 9.52514E-05-2.85869E-05-2.85705E-05 1.20600E-08-2.01638E-19 3.31450E-20
 -1       822 1.07166E-04-4.16513E-05-2.80489E-05 1.40316E-05-1.04601E-18-8.65756E-19
 -1       823 1.17221E-04-4.98747E-05-2.88195E-05 1.11058E-05-1.09337E-18-2.33157E-18
 -1       824 1.03400E-04-4.78178E-05-2.37073E-05-2.70731E-05 1.39152E-18-3.72923E-19
 -1       825 1.07885E-04-3.74448E-05-3.01796E-05 5.13863E-06 8.90340E-20-5.97754E-19
 -1       826 1.00038E-04-2.97485E-05-3.01242E-05 5.92321E-06 7.49012E-20-1.37650E-18
 -1       827 1.19072E-04-5.39859E-05-2.78583E-05 1.55764E-05-1.21145E-18-2.76261E-18
 -1       828 1.22436E-04-5.45721E-05-2.90405E-05-1.18870E-05 2.46816E-19-2.04041E-18
 -1       829 5.86492E-05-1.74092E-05-1.74467E-05-1.79327E-05 1.23732E-18 1.88096E-18
 -1       830 9.63165E-05-4.30230E-05-2.27120E-05 2.76737E-05-1.98845E-18-3.03952E-19
 -1       831 7.52002E-05-2.56500E-05-2.10043E-05 2.75368E-05 2.24531E-18-2.11430E-18
 -1       832 7.32300E-05-2.79038E-05-1.92557E-05-2.74311E-05 1.98783E-18 2.20976E-18
 -1       833 6.42835E-05-5.82577E-06-2.50291E-05-1.24628E-06 1.01034E-18-2.85242E-18
 -1       834 1.05857E-04-4.50408E-05-2.60059E-05 2.23741E-05 1.76292E-18-4.65875E-19
 -1       835 4.91752E-05-1.02913E-05-1.63512E-05 1.72735E-05 1.71794E-18-3.78608E-18
 -1       836 1.00677E-04-2.95637E-05-3.04772E-05-7.97317E-06 6.81921E-19-4.37272E-19
 -1       837 1.25756E-04-4.55766E-05-3.44358E-05-7.39728E-06-1.66601E-19 1.51211E-18
 -1       838 1.24110E-04-4.90656E-05-3.21916E-05 2.88775E-06 1.01161E-19-1.17275E-18
 -1       839 6.48801E-05-6.49815E-06-2.50062E-05 6.17037E-06 1.11783E-18-2.67678E-18
 -1       840 6.46408E-05-1.94932E-05-1.91886E-05 1.79586E-05-1.27072E-18 6.87698E-19
 -1       841 9.52476E-05-2.85845E-05-2.85699E-05-1.65427E-08-1.16580E-18-9.10137E-19
 -1       842 1.11037E-04-4.27406E-05-2.92915E-05-1.12609E-05-5.54106E-19-2.72473E-19
 -1       843 1.29479E-04-5.54440E-05-3.17368E-05 2.84647E-06-2.57429E-19-3.23518E-18
 -1       844 9.52514E-05-2.85870E-05-2.85705E-05-1.19784E-08 1.61628E-18-2.14005E-18
 -1       845 9.52537E-05-2.85885E-05-2.85708E-05-6.26506E-09 2.26424E-18-3.66444E-18
 -1       846 8.14661E-05-1.71657E-05-2.75625E-05-1.03815E-05 7.24569E-19-1.84084E-18
 -1       847 5.94045E-05-1.40620E-05-1.93207E-05-5.73198E-06 2.59952E-19 1.37072E-18
 -1       848 1.04867E-04-3.55569E-05-2.97016E-05-1.02161E-05 4.52397E-20-4.75312E-19
 -1       849 5.44040E-05-9.85221E-06-1.88991E-05-1.18510E-05 2.45358E-19-3.66119E-18
 -1       850 9.18258E-05-2.50850E-05-2.85926E-05 1.04867E-05 6.34708E-19-1.76151E-18
 -1       851 7.06194E-05-9.98859E-06-2.59720E-05-7.51225E-06 8.24423E-19-2.48099E-18
 -1       852 9.06359E-05-3.24474E-05-2.48320E-05 2.28739E-05 1.78908E-18-1.26007E-18
 -1       853 8.10928E-05-1.83915E-05-2.69039E-05 1.30675E-05 1.09299E-18-1.94926E-18
 -1       854 5.17077E-05-6.60026E-06-1.90882E-05 5.36004E-06 1.11390E-18-3.39349E-18
 -1       855 1.01570E-04-3.83104E-05-2.71084E-05-1.41980E-05 6.15395E-19-4.50876E-19
 -1       856 9.65223E-05-3.28657E-05-2.72954E-05-1.27831E-05 4.84428E-19-6.55041E-19
 -1       857 9.37662E-05-2.92394E-05-2.76521E-05-1.09810E-05-5.01886E-19-8.67204E-20
 -1       858 9.25046E-05-2.71016E-05-2.80286E-05-9.23513E-06-4.07697E-19-3.12548E-19
 -1       859 9.20668E-05-2.59386E-05-2.83403E-05-7.68115E-06-1.81583E-19-6.49131E-19
 -1       860 9.21169E-05-2.54498E-05-2.85714E-05-6.33156E-06 5.07212E-19 1.08973E-19
 -1       861 9.24197E-05-2.53907E-05-2.87266E-05-5.17310E-06 1.08978E-18 7.70079E-19
 -1       862 9.28300E-05-2.55855E-05-2.88190E-05-4.18403E-06 1.51446E-18 3.34705E-19
 -1       863 9.32623E-05-2.59138E-05-2.88636E-05-3.34498E-06-1.06938E-19-6.54267E-19
 -1       864 9.36693E-05-2.62959E-05-2.88743E-05-2.63970E-06-6.40406E-19-9.64439E-19
 -1       865 9.40280E-05-2.66818E-05-2.88626E-05-2.05374E-06-2.62279E-19 1.76322E-19
 -1       866 9.43299E-05-2.70422E-05-2.88376E-05-1.57341E-06 5.43618E-19 3.02682E-19
 -1       867 9.45751E-05-2.73620E-05-2.88056E-05-1.18537E-06 3.12373E-19 2.35397E-20
 -1       868 9.47686E-05-2.76352E-05-2.87714E-05-8.76626E-07 4.18404E-19-8.92031E-19
 -1       869 9.49172E-05-2.78619E-05-2.87380E-05-6.34842E-07-1.54947E-19-2.34895E-19
 -1       870 9.50285E-05-2.80452E-05-2.87072E-05-4.48590E-07-9.54411E-19 4.76342E-20
 -1       871 9.51096E-05-2.81901E-05-2.86798E-05-3.07586E-07-2.11077E-18-9.72154E-19
 -1       872 9.51671E-05-2.83023E-05-2.86563E-05-2.02811E-07 1.32787E-19-7.29218E-19
 -1       873 9.52064E-05-2.83874E-05-2.86367E-05-1.26544E-07-6.71522E-19 1.68034E-19
 -1       874 9.52321E-05-2.84506E-05-2.86206E-05-7.23227E-08-3.26892E-19-2.04869E-19
 -1       875 9.52478E-05-2.84964E-05-2.86078E-05-3.48431E-08-1.41225E-18 7.68063E-19
 -1       876 9.52566E-05-2.85287E-05-2.85977E-05-9.83763E-09-1.25006E-18 6.74858E-19
 -1       877 9.52604E-05-2.85508E-05-2.85898E-05 6.06437E-09 7.46564E-19 5.19800E-19
 -1       878 9.52611E-05-2.85654E-05-2.85839E-05 1.54755E-08 1.28647E-18 3.06772E-19
 -1       879 9.52598E-05-2.85744E-05-2.85794E-05 2.03796E-08 4.00165E-19-1.11661E-18
 -1       880 9.52573E-05-2.85796E-05-2.85761E-05 2.22522E-08 1.34033E-18-1.14375E-18
 -1       881 9.52543E-05-2.85823E-05-2.85737E-05 2.21627E-08 5.67399E-19 9.64363E-19
 -1       882 9.52512E-05-2.85834E-05-2.85719E-05 2.08518E-08 8.25144E-19 1.27257E-18
 -1       883 9.52494E-05-2.85840E-05-2.85709E-05 1.88367E-08-5.55529E-19 5.85069E-20
 -1       884 9.05050E-05-2.86067E-05-2.65276E-05 1.55034E-05-1.34043E-18-8.53109E-19
 -1       885 9.01979E-05-2.39418E-05-2.83950E-05 8.47522E-06-8.30006E-19 1.36655E-19
 -1       886 9.10170E-05-2.40865E-05-2.86843E-05 6.97978E-06-5.36827E-19 1.37639E-19
 -1       887 9.18350E-05-2.45083E-05-2.88542E-05 5.72102E-06-7.22666E-19-1.65922E-19
 -1       888 9.25715E-05-2.50478E-05-2.89387E-05 4.64749E-06-2.68626E-19-5.53248E-19
 -1       889 9.31965E-05-2.56102E-05-2.89655E-05 3.73136E-06 8.81323E-19-2.56846E-19
 -1       890 9.37066E-05-2.61431E-05-2.89558E-05 2.95543E-06 1.20412E-19-6.31948E-19
 -1       891 9.41115E-05-2.66204E-05-2.89248E-05 2.30631E-06 2.34074E-19 1.35774E-19
 -1       892 9.44259E-05-2.70319E-05-2.88831E-05 1.77126E-06-1.66225E-19 7.28840E-19
 -1       893 9.46655E-05-2.73771E-05-2.88379E-05 1.33720E-06-2.60228E-19 7.80393E-19
 -1       894 9.48450E-05-2.76603E-05-2.87934E-05 9.90783E-07 3.28829E-19-1.01837E-18
 -1       895 9.49771E-05-2.78881E-05-2.87524E-05 7.18877E-07 4.17634E-19-3.86560E-19
 -1       896 9.50726E-05-2.80684E-05-2.87161E-05 5.09053E-07 9.35477E-21-1.63409E-18
 -1       897 9.51401E-05-2.82086E-05-2.86849E-05 3.49969E-07 1.18445E-18-2.27553E-18
 -1       898 9.51866E-05-2.83159E-05-2.86589E-05 2.31597E-07 6.80275E-19-7.62531E-19
 -1       899 9.52177E-05-2.83966E-05-2.86376E-05 1.45310E-07 4.61655E-19-4.76352E-19
 -1       900 9.52375E-05-2.84563E-05-2.86205E-05 8.38629E-08 6.09433E-19-3.33733E-19
 -1       901 9.52493E-05-2.84994E-05-2.86071E-05 4.12994E-08-2.12899E-18 1.06721E-18
 -1       902 9.52555E-05-2.85298E-05-2.85967E-05 1.28211E-08-2.23852E-18 2.13056E-18
 -1       903 9.52579E-05-2.85507E-05-2.85888E-05-5.36539E-09-5.70517E-19 1.13522E-18
 -1       904 9.52579E-05-2.85645E-05-2.85829E-05-1.62031E-08 2.30093E-19 9.39241E-19
 -1       905 9.52564E-05-2.85731E-05-2.85785E-05-2.19317E-08 6.06348E-19 9.95895E-19
 -1       906 9.52541E-05-2.85782E-05-2.85754E-05-2.42167E-08-8.92878E-19 3.92014E-19
 -1       907 9.52515E-05-2.85808E-05-2.85731E-05-2.42603E-08-2.40636E-18 1.38442E-18
 -1       908 9.52488E-05-2.85820E-05-2.85715E-05-2.29324E-08-1.46409E-18 3.06317E-18
 -1       909 9.52464E-05-2.85824E-05-2.85703E-05-2.07602E-08-1.06820E-18 3.26174E-18
 -1       910 9.36789E-05-3.39576E-05-2.55554E-05 1.91232E-05-2.01093E-18-6.20622E-19
 -1       911 9.52439E-05-2.85822E-05-2.85693E-05-1.83738E-08-2.91585E-18 1.83577E-18
 -1       912 1.13775E-04-4.53219E-05-2.93285E-05 9.78578E-06 7.99447E-19-2.29222E-19
 -1       913 9.52584E-05-2.85888E-05-2.85726E-05 3.57122E-09 3.48246E-19 1.05181E-18
 -1       914 7.17836E-05-2.22358E-05-2.11328E-05-1.91257E-05 7.31343E-19 1.98578E-18
 -1       915 7.75616E-05-2.28677E-05-2.32988E-05-2.08332E-05-2.35538E-19-2.32473E-18
 -1       916 8.95500E-05-2.43340E-05-2.79485E-05 1.03005E-05-9.01473E-19-1.04962E-18
 -1       917 8.94031E-05-2.56692E-05-2.73133E-05 1.26140E-05-9.38842E-20-6.03174E-19
 -1       918 1.09276E-04-4.51982E-05-2.74144E-05-1.40089E-05 4.58894E-19-7.19563E-19
 -1       919 9.56843E-05-2.97968E-05-2.82282E-05-1.35163E-05 1.63729E-19-1.10595E-18
 -1       920 7.17213E-05-1.16099E-05-2.57124E-05 1.14677E-05 1.19001E-18-2.64474E-18
 -1       921 8.95519E-05-3.46261E-05-2.34392E-05 2.32736E-05-2.04629E-18 3.89437E-20
 -1       922 9.20719E-05-3.69792E-05-2.35286E-05-2.39611E-05 1.18596E-18 8.44042E-19
 -1       923 6.44115E-05-1.37192E-05-2.16215E-05 1.80866E-05 1.71713E-18-2.87813E-18
 -1       924 1.04061E-04-4.18619E-05-2.65308E-05-1.98434E-05-7.88330E-19-1.18476E-18
 -1       925 1.03747E-04-4.32291E-05-2.58877E-05 1.99317E-05-1.73619E-18-1.71210E-18
 -1       926 7.77967E-05-2.51439E-05-2.25108E-05 1.95574E-05-1.33198E-18 3.32682E-19
 -1       927 9.52564E-05-2.85877E-05-2.85723E-05 1.01916E-08 7.74834E-19-1.30914E-18
 -1       928 5.82446E-05-6.21049E-06-2.21817E-05 3.43095E-06 1.06949E-18-2.90733E-18
 -1       929 9.52584E-05-2.85889E-05-2.85727E-05-3.44071E-09 6.35415E-19-4.02103E-18
 -1       930 9.14668E-05-2.90774E-05-2.67468E-05 1.71458E-05 1.26680E-18-1.41009E-18
 -1       931 9.52521E-05-2.85855E-05-2.85714E-05-1.65607E-08-3.22457E-19-4.43075E-19
 -1       932 1.04200E-04-3.62814E-05-2.90821E-05 9.92220E-06 6.75271E-19-8.62667E-19
 -1       933 6.23732E-05-1.46320E-05-2.04003E-05 5.27748E-06-1.11106E-18 1.80119E-18
 -1       934 8.90884E-05-2.75678E-05-2.63522E-05-1.31769E-05 2.68770E-19 3.78755E-19
 -1       935 8.84680E-05-2.53772E-05-2.70408E-05-1.02815E-05-2.98518E-19 1.37297E-19
 -1       936 8.87310E-05-2.43075E-05-2.76104E-05-8.06788E-06-1.74116E-19 1.09620E-18
 -1       937 8.93831E-05-2.39583E-05-2.80393E-05-6.37834E-06 1.83445E-19 1.18014E-18
 -1       938 9.01896E-05-2.40488E-05-2.83461E-05-5.05896E-06 1.09954E-18 1.22489E-18
 -1       939 9.10239E-05-2.43981E-05-2.85540E-05-4.01121E-06 4.98928E-19 2.04095E-19
 -1       940 9.18135E-05-2.48810E-05-2.86854E-05-3.16791E-06 1.43881E-19-5.14109E-19
 -1       941 9.25209E-05-2.54138E-05-2.87602E-05-2.48426E-06-1.91203E-19-1.44048E-19
 -1       942 9.31301E-05-2.59421E-05-2.87949E-05-1.92952E-06 5.10068E-19 3.81207E-20
 -1       943 9.36386E-05-2.64331E-05-2.88024E-05-1.48119E-06 8.19510E-20 9.17615E-19
 -1       944 9.40520E-05-2.68694E-05-2.87926E-05-1.12162E-06-2.01673E-19 1.91147E-19
 -1       945 9.43801E-05-2.72439E-05-2.87727E-05-8.36165E-07-5.04482E-19-4.26769E-19
 -1       946 9.46348E-05-2.75564E-05-2.87479E-05-6.12277E-07 8.35983E-19 2.33442E-21
 -1       947 9.48282E-05-2.78110E-05-2.87217E-05-4.39034E-07-6.45065E-19 2.76829E-19
 -1       948 9.49718E-05-2.80140E-05-2.86962E-05-3.06960E-07-1.60478E-18 4.20557E-19
 -1       949 9.50758E-05-2.81725E-05-2.86728E-05-2.07900E-07-8.43131E-19 1.01417E-18
 -1       950 9.51490E-05-2.82939E-05-2.86522E-05-1.34937E-07 1.04069E-19 7.01270E-19
 -1       951 9.51989E-05-2.83849E-05-2.86346E-05-8.22904E-08-4.05997E-19 6.80159E-19
 -1       952 9.52314E-05-2.84517E-05-2.86199E-05-4.52085E-08 2.42639E-19 5.60830E-19
 -1       953 9.52512E-05-2.84996E-05-2.86079E-05-1.98480E-08-1.37451E-18 8.24370E-19
 -1       954 9.52621E-05-2.85329E-05-2.85982E-05-3.15173E-09-2.37937E-19 1.17373E-18
 -1       955 9.52668E-05-2.85553E-05-2.85906E-05 7.27225E-09 8.00992E-19 1.79199E-18
 -1       956 9.52675E-05-2.85697E-05-2.85848E-05 1.32623E-08-1.56266E-19 1.22224E-19
 -1       957 9.52657E-05-2.85784E-05-2.85803E-05 1.61947E-08 8.75552E-19-7.97483E-20
 -1       958 9.52624E-05-2.85832E-05-2.85768E-05 1.71010E-08 2.59495E-18 8.49776E-19
 -1       959 9.52585E-05-2.85854E-05-2.85742E-05 1.67240E-08 6.16082E-19-1.84420E-19
 -1       960 8.90874E-05-2.28682E-05-2.83799E-05 5.14585E-06-8.16129E-19 2.68259E-20
 -1       961 8.21485E-05-2.25427E-05-2.55428E-05 1.27322E-05-7.32669E-19-8.71006E-20
 -1       962 8.75563E-05-2.21972E-05-2.80113E-05 6.29647E-06-5.26544E-19-7.34277E-19
 -1       963 9.14809E-05-2.44021E-05-2.87482E-05 3.41316E-06 2.15974E-19-7.35239E-19
 -1       964 9.23683E-05-2.51273E-05-2.88177E-05 2.74095E-06 3.46264E-19 2.70272E-19
 -1       965 9.30802E-05-2.57798E-05-2.88431E-05 2.17173E-06-4.99891E-19 5.23781E-19
 -1       966 9.36423E-05-2.63477E-05-2.88406E-05 1.69479E-06 7.66061E-20 5.95740E-21
 -1       967 9.40796E-05-2.68293E-05-2.88216E-05 1.30089E-06 6.55046E-19-6.72563E-19
 -1       968 9.44147E-05-2.72288E-05-2.87940E-05 9.80812E-07-1.94559E-19-1.47280E-19
 -1       969 9.46676E-05-2.75539E-05-2.87631E-05 7.25103E-07 4.41482E-19 1.86433E-19
 -1       970 9.48553E-05-2.78138E-05-2.87321E-05 5.24350E-07 4.28745E-19 4.30601E-20
 -1       971 9.49922E-05-2.80182E-05-2.87031E-05 3.69527E-07 4.67086E-19 1.65008E-18
 -1       972 9.50899E-05-2.81763E-05-2.86773E-05 2.52318E-07-8.43322E-19 2.64509E-18
 -1       973 9.51578E-05-2.82965E-05-2.86549E-05 1.65314E-07-2.61311E-19 3.08386E-18
 -1       974 9.52037E-05-2.83863E-05-2.86360E-05 1.02108E-07 7.31048E-19 2.98666E-18
 -1       975 9.52332E-05-2.84520E-05-2.86205E-05 5.73061E-08-1.13709E-18 1.32089E-18
 -1       976 9.52511E-05-2.84991E-05-2.86080E-05 2.64670E-08-1.91289E-18-1.93427E-19
 -1       977 9.52608E-05-2.85319E-05-2.85981E-05 6.01248E-09-1.88762E-18-2.09017E-19
 -1       978 9.52650E-05-2.85541E-05-2.85904E-05-6.88252E-09-5.96553E-19 1.32709E-18
 -1       979 9.52654E-05-2.85684E-05-2.85844E-05-1.44039E-08 1.17045E-18 1.70801E-18
 -1       980 9.52636E-05-2.85771E-05-2.85799E-05-1.82172E-08 1.65256E-19 1.29848E-18
 -1       981 9.52606E-05-2.85819E-05-2.85766E-05-1.95388E-08-1.63635E-18 1.69050E-18
 -1       982 9.52570E-05-2.85843E-05-2.85740E-05-1.92532E-08-1.33078E-18 2.78088E-21
 -1       983 9.52544E-05-2.85851E-05-2.85726E-05-1.80871E-08-1.75350E-18-1.05481E-18
 -1       984 9.52549E-05-2.85860E-05-2.85724E-05 1.59367E-08-4.97971E-19-1.25309E-18
 -1       985 9.03936E-05-2.36320E-05-2.86123E-05 4.20465E-06-2.05773E-19-3.28104E-19
 -1       986 8.58138E-05-2.17516E-05-2.74550E-05 7.77455E-06-1.36157E-18-3.24890E-19
 -1       987 7.01761E-05-1.75562E-05-2.25295E-05-9.06915E-06 1.16965E-19 9.35985E-19
 -1       988 8.39246E-05-2.17518E-05-2.66453E-05 9.80619E-06-4.09265E-19-6.62210E-20
 -1       989 9.98420E-05-3.63565E-05-2.71889E-05 1.64981E-05 1.32914E-18-1.06989E-18
 -1       990 8.56351E-05-2.88792E-05-2.43160E-05-1.83213E-05 8.88156E-19 1.26597E-18
 -1       991 9.52565E-05-2.85878E-05-2.85723E-05-1.01707E-08 2.36642E-19-2.08365E-18
 -1       992 7.08096E-05-1.81313E-05-2.25343E-05 1.10272E-05-1.08142E-18 1.27233E-18
 -1       993 9.52630E-05-2.85885E-05-2.85748E-05 8.57889E-11 4.38934E-19-1.61757E-18
 -1       994 7.97538E-05-2.24481E-05-2.45564E-05-1.27342E-05-1.73580E-19 1.13755E-18
 -1       995 6.90423E-05-1.56496E-05-2.28516E-05-1.52199E-06-5.06392E-19 2.57858E-19
 -1       996 9.52619E-05-2.85880E-05-2.85745E-05 7.55617E-09-4.15932E-19-1.49274E-18
 -1       997 8.46553E-05-2.21947E-05-2.67691E-05-7.70756E-06 3.55379E-19 7.55638E-19
 -1       998 8.62386E-05-2.22078E-05-2.74436E-05-5.78106E-06-1.26677E-19 5.30487E-19
 -1       999 8.77395E-05-2.25809E-05-2.79258E-05-4.39717E-06 5.71160E-19 1.29891E-18
 -1      1000 8.90947E-05-2.31525E-05-2.82614E-05-3.37711E-06 2.05296E-19-1.19401E-20
 -1      1001 9.02890E-05-2.38212E-05-2.84865E-05-2.60356E-06-3.67612E-19 2.58297E-19
 -1      1002 9.13191E-05-2.45167E-05-2.86299E-05-2.00630E-06 6.26526E-19-4.78044E-19
 -1      1003 9.21890E-05-2.51904E-05-2.87139E-05-1.53994E-06 1.22954E-19-2.86288E-19
 -1      1004 9.29091E-05-2.58113E-05-2.87564E-05-1.17381E-06 1.06517E-19-4.32134E-19
 -1      1005 9.34935E-05-2.63623E-05-2.87706E-05-8.86245E-07-2.58481E-20-8.94403E-19
 -1      1006 9.39588E-05-2.68367E-05-2.87668E-05-6.61161E-07-6.01277E-19 3.93826E-19
 -1      1007 9.43224E-05-2.72345E-05-2.87520E-05-4.86142E-07 5.97461E-19 9.46990E-19
 -1      1008 9.46010E-05-2.75607E-05-2.87317E-05-3.51282E-07-2.29304E-19 8.44199E-19
 -1      1009 9.48104E-05-2.78225E-05-2.87091E-05-2.48519E-07-9.93716E-19 1.42094E-18
 -1      1010 9.49643E-05-2.80287E-05-2.86867E-05-1.71233E-07-6.74205E-19 1.76883E-18
 -1      1011 9.50748E-05-2.81880E-05-2.86658E-05-1.13982E-07-7.05990E-19 2.03520E-18
 -1      1012 9.51518E-05-2.83086E-05-2.86471E-05-7.23101E-08-4.71728E-19 1.12088E-18
 -1      1013 9.52037E-05-2.83982E-05-2.86310E-05-4.25983E-08-6.51103E-19 8.22222E-19
 -1      1014 9.52370E-05-2.84632E-05-2.86174E-05-2.19373E-08-1.48365E-18 5.35064E-19
 -1      1015 9.52569E-05-2.85091E-05-2.86062E-05-8.01648E-09-1.32237E-19 3.34004E-20
 -1      1016 9.52674E-05-2.85407E-05-2.85972E-05 9.74579E-10 2.02137E-18 8.97920E-19
 -1      1017 9.52715E-05-2.85615E-05-2.85900E-05 6.43531E-09-4.32832E-19 1.29562E-18
 -1      1018 9.52714E-05-2.85745E-05-2.85844E-05 9.44423E-09-1.88072E-19 1.96483E-18
 -1      1019 9.52687E-05-2.85820E-05-2.85800E-05 1.07173E-08 1.29198E-18 1.32186E-19
 -1      1020 9.52648E-05-2.85860E-05-2.85766E-05 1.09882E-08 9.22528E-19-1.59962E-18
 -1      1021 8.97686E-05-2.32662E-05-2.85017E-05 2.57116E-06 9.13791E-20-1.07617E-18
 -1      1022 9.20152E-05-2.49561E-05-2.87400E-05 1.70547E-06-5.11608E-19 6.18273E-19
 -1      1023 9.10125E-05-2.41536E-05-2.86543E-05 2.10821E-06-1.16171E-18 1.16748E-19
 -1      1024 9.34462E-05-2.62677E-05-2.87910E-05 1.06279E-06 7.31081E-20-1.45275E-19
 -1      1025 9.39372E-05-2.67767E-05-2.87833E-05 8.16596E-07-2.83398E-19 1.52124E-18
 -1      1026 9.43140E-05-2.71961E-05-2.87650E-05 6.15243E-07 1.73251E-20 6.24069E-19
 -1      1027 9.45988E-05-2.75355E-05-2.87415E-05 4.53762E-07 4.00577E-19 4.51002E-19
 -1      1028 9.48104E-05-2.78054E-05-2.87165E-05 3.26759E-07-2.23359E-19 6.62792E-19
 -1      1029 9.49647E-05-2.80166E-05-2.86921E-05 2.28813E-07-7.80782E-19 1.17548E-19
 -1      1030 9.50748E-05-2.81790E-05-2.86697E-05 1.54775E-07-7.57018E-19-1.97128E-19
 -1      1031 9.51513E-05-2.83018E-05-2.86498E-05 9.99819E-08-7.08643E-20 1.13525E-19
 -1      1032 9.52027E-05-2.83928E-05-2.86329E-05 6.03575E-08 7.26161E-19 1.21292E-18
 -1      1033 9.52357E-05-2.84589E-05-2.86187E-05 3.24485E-08-1.25478E-18 1.53708E-18
 -1      1034 9.52555E-05-2.85057E-05-2.86070E-05 1.34049E-08-1.53309E-18 1.02362E-18
 -1      1035 9.52660E-05-2.85380E-05-2.85977E-05 9.28818E-10-1.74430E-18 8.02955E-19
 -1      1036 9.52702E-05-2.85594E-05-2.85903E-05-6.79072E-09-4.66469E-19 9.39719E-19
 -1      1037 9.52703E-05-2.85729E-05-2.85846E-05-1.11388E-08 1.33420E-18 1.51087E-18
 -1      1038 9.52678E-05-2.85808E-05-2.85801E-05-1.32233E-08 2.32590E-20 2.12389E-19
 -1      1039 9.52641E-05-2.85850E-05-2.85767E-05-1.37421E-08-1.23477E-18-1.34199E-18
 -1      1040 8.12073E-05-1.95133E-05-2.64383E-05 5.71867E-06-7.75729E-19 1.30800E-19
 -1      1041 8.40596E-05-2.03907E-05-2.72882E-05 4.56359E-06-7.89899E-19 3.48011E-19
 -1      1042 8.23891E-05-2.21263E-05-2.58256E-05-9.83636E-06 2.47240E-20 4.48069E-19
 -1      1043 9.52619E-05-2.85881E-05-2.85745E-05-7.33017E-09 2.32341E-19-4.29057E-18
 -1      1044 8.82373E-05-2.23167E-05-2.82525E-05 3.10684E-06-1.75839E-20-1.31901E-19
 -1      1045 9.52589E-05-2.85869E-05-2.85737E-05-1.31000E-08-3.74872E-19-1.45005E-18
 -1      1046 7.76091E-05-1.87687E-05-2.52179E-05 7.50264E-06-3.76581E-19 9.62272E-19
 -1      1047 8.63596E-05-2.13404E-05-2.78665E-05 3.74724E-06-8.53583E-19 2.65014E-19
 -1      1048 9.28153E-05-2.56618E-05-2.87804E-05 1.35799E-06 3.58528E-19-1.56331E-19
 -1      1049 7.58313E-05-1.84182E-05-2.45951E-05-6.44100E-06-3.44543E-19 8.93386E-19
 -1      1050 9.52671E-05-2.85869E-05-2.85772E-05-3.75514E-09 1.25466E-18-3.39071E-18
 -1      1051 9.52668E-05-2.85866E-05-2.85772E-05 3.72604E-09 1.27124E-18-3.78489E-19
 -1      1052 8.51911E-05-2.10700E-05-2.74814E-05-2.99209E-06 3.12851E-19 3.62788E-20
 -1      1053 8.71503E-05-2.19207E-05-2.79562E-05-2.17114E-06-1.83476E-19-7.43096E-19
 -1      1054 8.87850E-05-2.27983E-05-2.82805E-05-1.58440E-06-3.47675E-19-9.86772E-19
 -1      1055 9.01481E-05-2.36617E-05-2.84946E-05-1.16093E-06-5.93672E-20-7.03174E-19
 -1      1056 9.12770E-05-2.44767E-05-2.86289E-05-8.52237E-07-2.09400E-20-1.73964E-18
 -1      1057 9.22016E-05-2.52198E-05-2.87067E-05-6.25335E-07-3.26201E-19-2.56179E-18
 -1      1058 9.29490E-05-2.58772E-05-2.87452E-05-4.57509E-07 1.73790E-20-2.02241E-18
 -1      1059 9.35442E-05-2.64436E-05-2.87575E-05-3.32894E-07 3.78512E-19-2.15106E-18
 -1      1060 9.40109E-05-2.69203E-05-2.87531E-05-2.40223E-07-3.17626E-19-1.43634E-18
 -1      1061 9.43706E-05-2.73132E-05-2.87389E-05-1.71371E-07 5.01984E-20-1.11192E-18
 -1      1062 9.46431E-05-2.76305E-05-2.87197E-05-1.20390E-07-3.39286E-19-8.41804E-19
 -1      1063 9.48455E-05-2.78821E-05-2.86986E-05-8.28655E-08-4.35770E-19 5.70790E-19
 -1      1064 9.49926E-05-2.80780E-05-2.86777E-05-5.54851E-08-5.21889E-19 7.45377E-19
 -1      1065 9.50970E-05-2.82276E-05-2.86583E-05-3.57390E-08-9.74448E-19 1.25215E-18
 -1      1066 9.51688E-05-2.83398E-05-2.86410E-05-2.17140E-08-7.36533E-19 1.29297E-18
 -1      1067 9.52164E-05-2.84222E-05-2.86261E-05-1.19463E-08-1.53732E-18 1.39146E-18
 -1      1068 9.52462E-05-2.84812E-05-2.86135E-05-5.31609E-09-8.74995E-19 2.11811E-18
 -1      1069 9.52633E-05-2.85224E-05-2.86032E-05-9.68497E-10 6.68248E-19 2.13905E-18
 -1      1070 9.52717E-05-2.85502E-05-2.85949E-05 1.74559E-09 3.96713E-19-9.62967E-19
 -1      1071 9.52741E-05-2.85681E-05-2.85883E-05 3.29681E-09 2.60327E-19-1.33234E-18
 -1      1072 9.52725E-05-2.85788E-05-2.85830E-05 4.14656E-09-2.64265E-19-8.28545E-19
 -1      1073 9.52705E-05-2.85840E-05-2.85799E-05 3.97298E-09 9.86639E-19-1.55349E-18
 -1      1074 8.39597E-05-2.01429E-05-2.73505E-05 1.44785E-06-3.59766E-19-1.21892E-19
 -1      1075 9.39522E-05-2.68440E-05-2.87605E-05 3.79383E-07 5.12391E-20-9.48317E-19
 -1      1076 9.34607E-05-2.63424E-05-2.87648E-05 4.88896E-07-2.75521E-20-5.43606E-19
 -1      1077 9.46135E-05-2.75866E-05-2.87257E-05 2.12580E-07 4.13009E-19-7.23013E-19
 -1      1078 9.48244E-05-2.78488E-05-2.87038E-05 1.52986E-07 3.15709E-19 3.92879E-19
 -1      1079 9.49776E-05-2.80527E-05-2.86821E-05 1.06719E-07-1.05761E-18-2.34884E-19
 -1      1080 9.50864E-05-2.82086E-05-2.86619E-05 7.16325E-08 1.47398E-19-1.63255E-18
 -1      1081 9.51614E-05-2.83256E-05-2.86439E-05 4.56543E-08-1.55399E-19-1.20764E-18
 -1      1082 9.52113E-05-2.84117E-05-2.86284E-05 2.69073E-08-7.48239E-19-3.41882E-19
 -1      1083 9.52428E-05-2.84736E-05-2.86154E-05 1.37646E-08-2.57197E-19-3.82991E-19
 -1      1084 9.52612E-05-2.85170E-05-2.86046E-05 4.86558E-09-2.12951E-18-5.93134E-19
 -1      1085 9.52704E-05-2.85465E-05-2.85960E-05-8.95624E-10-8.00449E-19-2.07784E-18
 -1      1086 9.52735E-05-2.85656E-05-2.85891E-05-4.40145E-09 5.71934E-19-1.89613E-18
 -1      1087 9.52729E-05-2.85775E-05-2.85837E-05-6.38760E-09 2.64646E-19-1.47768E-18
 -1      1088 8.97770E-05-2.33222E-05-2.84802E-05 1.05940E-06-1.19584E-19-5.70258E-19
 -1      1089 8.09786E-05-1.89895E-05-2.65705E-05 1.55495E-06-6.14497E-19 7.83750E-19
 -1      1090 7.67537E-05-1.76884E-05-2.53263E-05 7.54305E-07-3.83726E-19 9.13076E-19
 -1      1091 9.20282E-05-2.50376E-05-2.87100E-05 7.56307E-07-4.91880E-19-3.02536E-19
 -1      1092 9.10241E-05-2.42291E-05-2.86261E-05 9.06713E-07-1.08936E-18-8.43309E-19
 -1      1093 8.82365E-05-2.23288E-05-2.82457E-05 1.20564E-06 9.37758E-20-3.11884E-19
 -1      1094 8.63333E-05-2.12649E-05-2.78861E-05 1.33698E-06-4.29813E-19-8.37947E-19
 -1      1095 9.28291E-05-2.57419E-05-2.87515E-05 6.15398E-07 2.46844E-19 4.73336E-19
 -1      1096 9.43291E-05-2.72554E-05-2.87458E-05 2.87519E-07 1.02620E-19-1.41919E-18
 -1      1097 8.28003E-05-2.02688E-05-2.67991E-05-4.15787E-06 2.04243E-19-6.13230E-20
 -1      1098 7.97609E-05-1.93645E-05-2.58812E-05-5.07224E-06 1.43186E-19 3.69924E-19
 -1      1099 9.52692E-05-2.85839E-05-2.85795E-05-7.14730E-09 3.96813E-19-1.72381E-18
 -1      1100 1.26565E-04 2.88010E-10-4.56959E-05-4.09566E-05-3.05355E-19 7.81727E-18
 -1      1101 9.75611E-05 9.00896E-11-4.07249E-05-2.02282E-05-1.35102E-19 5.18966E-19
 -1      1102 9.04415E-05 5.35005E-11-3.82949E-05-1.19811E-05-9.31736E-20-2.41964E-18
 -1      1103 8.55086E-05 3.90417E-11-3.63375E-05-6.74940E-06-5.82335E-20-3.70672E-18
 -1      1104 8.11962E-05 2.87602E-11-3.45888E-05-2.94056E-06-3.07049E-20-4.30589E-18
 -1      1105 7.72837E-05 1.93725E-11-3.30166E-05-3.05252E-07-1.22820E-20-4.54159E-18
 -1      1106 7.38974E-05 1.02258E-11-3.16739E-05 1.22042E-06-2.22346E-21-4.63156E-18
 -1      1107 7.13473E-05 2.40776E-12-3.06797E-05 1.73225E-06 7.19978E-21-4.62395E-18
 -1      1108 7.00524E-05-2.40524E-12-3.01874E-05 1.46853E-06 1.91377E-20-4.54659E-18
 -1      1109 7.02893E-05-2.85365E-12-3.02975E-05 8.77288E-07 3.25843E-20-4.37956E-18
 -1      1110 7.21230E-05 1.44595E-12-3.10332E-05 5.15487E-07 3.99694E-20-4.06344E-18
 -1      1111 7.53580E-05 9.65868E-12-3.23204E-05 9.09102E-07 5.95041E-20-3.56776E-18
 -1      1112 7.96970E-05 2.08612E-11-3.40521E-05 2.46494E-06 7.65506E-20-2.77710E-18
 -1      1113 8.48936E-05 3.46631E-11-3.61287E-05 5.52145E-06 9.63500E-20-1.52896E-18
 -1      1114 9.08750E-05 5.33505E-11-3.84834E-05 1.04854E-05 1.19432E-19 6.09520E-19
 -1      1115 9.85289E-05 8.89255E-11-4.12545E-05 1.86118E-05 1.14349E-19 4.42477E-18
 -1      1116 1.17895E-04 1.97231E-10-4.50672E-05 3.43211E-05 1.95876E-19 1.16540E-17
 -1      1117 1.41701E-04-2.88009E-05-4.43004E-05-2.58760E-05-1.17865E-18 1.23722E-17
 -1      1118 1.12827E-04-3.34789E-05-3.62715E-05-1.68861E-07-4.21928E-19 9.58322E-18
 -1      1119 1.08941E-04-3.26511E-05-3.34172E-05 5.44140E-07-1.55298E-19 5.87841E-18
 -1      1120 1.09027E-04-3.27718E-05-3.27377E-05 3.18667E-07-1.33135E-19 3.56675E-18
 -1      1121 1.09276E-04-3.28074E-05-3.26264E-05 1.54722E-07-7.41021E-20 1.87628E-18
 -1      1122 1.08419E-04-3.25048E-05-3.23035E-05-7.72624E-09-6.94269E-20 9.85007E-19
 -1      1123 1.05617E-04-3.16417E-05-3.14514E-05-1.93141E-07 2.90506E-21 3.31190E-19
 -1      1124 1.00610E-04-3.01487E-05-3.00201E-05-3.71093E-07-1.99450E-20-5.58089E-19
 -1      1125 9.40593E-05-2.82252E-05-2.82234E-05-4.68011E-07-1.15380E-19-1.85786E-18
 -1      1126 8.76512E-05-2.63636E-05-2.65205E-05-4.06191E-07-1.15531E-19-3.25637E-18
 -1      1127 8.35942E-05-2.51944E-05-2.54692E-05-1.70476E-07 3.70246E-20-4.64635E-18
 -1      1128 8.35578E-05-2.51869E-05-2.54743E-05 1.52620E-07 1.76805E-19-3.89370E-18
 -1      1129 8.76955E-05-2.63832E-05-2.65713E-05 4.16747E-07 8.71021E-20-4.90088E-18
 -1      1130 9.45366E-05-2.83700E-05-2.84041E-05 5.16913E-07 3.27812E-21-4.27535E-18
 -1      1131 1.01847E-04-3.05102E-05-3.04129E-05 4.52143E-07 1.20752E-20-3.56474E-18
 -1      1132 1.07743E-04-3.22536E-05-3.20938E-05 2.97034E-07-2.96074E-19-4.33046E-18
 -1      1133 1.11306E-04-3.33215E-05-3.31656E-05 1.33827E-07-1.26446E-19-5.58534E-18
 -1      1134 1.12532E-04-3.37028E-05-3.35881E-05 1.08639E-08 3.37754E-20-5.51676E-18
 -1      1135 1.11952E-04-3.35472E-05-3.34812E-05-6.04033E-08 2.47162E-20-5.47702E-18
 -1      1136 1.10240E-04-3.30516E-05-3.30251E-05-8.95888E-08 8.88251E-20-6.22495E-18
 -1      1137 1.07991E-04-3.23909E-05-3.23898E-05-9.20111E-08-1.59768E-19-6.10917E-18
 -1      1138 1.05626E-04-3.16916E-05-3.17036E-05-8.07714E-08-8.41106E-20-4.47118E-18
 -1      1139 1.03407E-04-3.10317E-05-3.10485E-05-6.45793E-08 3.39599E-21-3.63110E-18
 -1      1140 1.01463E-04-3.04517E-05-3.04686E-05-4.82787E-08-4.37320E-19-4.64267E-18
 -1      1141 9.98431E-05-2.99664E-05-2.99813E-05-3.40925E-08-1.06177E-19-6.32121E-18
 -1      1142 9.85417E-05-2.95754E-05-2.95874E-05-2.27279E-08-4.56736E-20-5.91161E-18
 -1      1143 9.75282E-05-2.92701E-05-2.92793E-05-1.41278E-08 2.89731E-19-5.27519E-18
 -1      1144 9.67606E-05-2.90382E-05-2.90449E-05-7.91210E-09-9.10904E-20-6.11109E-18
 -1      1145 9.61947E-05-2.88667E-05-2.88715E-05-3.61057E-09-1.91872E-19-6.24095E-18
 -1      1146 9.57892E-05-2.87435E-05-2.87467E-05-7.73343E-10 6.33577E-20-6.02361E-18
 -1      1147 9.55077E-05-2.86576E-05-2.86596E-05 9.85476E-10-2.66673E-20-4.08529E-18
 -1      1148 9.53199E-05-2.86000E-05-2.86012E-05 1.97701E-09 3.98299E-19-4.38352E-18
 -1      1149 9.52009E-05-2.85633E-05-2.85640E-05 2.44194E-09-2.17685E-19-5.11178E-18
 -1      1150 9.51314E-05-2.85417E-05-2.85419E-05 2.56060E-09-1.47799E-19-6.65015E-18
 -1      1151 9.50963E-05-2.85305E-05-2.85305E-05 2.46433E-09 3.90777E-19-6.11633E-18
 -1      1152 9.50843E-05-2.85264E-05-2.85262E-05 2.24612E-09-1.57829E-19-5.01315E-18
 -1      1153 9.50870E-05-2.85269E-05-2.85266E-05 1.96977E-09-1.25485E-19-5.51821E-18
 -1      1154 9.50986E-05-2.85301E-05-2.85298E-05 1.67741E-09 4.11441E-20-4.08431E-18
 -1      1155 9.51148E-05-2.85347E-05-2.85345E-05 1.39547E-09-6.94036E-20-3.33235E-18
 -1      1156 9.51328E-05-2.85400E-05-2.85398E-05 1.13929E-09 2.11114E-20-3.88573E-18
 -1      1157 9.51510E-05-2.85454E-05-2.85451E-05 9.16585E-10 6.39653E-20-4.33243E-18
 -1      1158 9.51682E-05-2.85505E-05-2.85503E-05 7.29971E-10-4.47603E-19-5.15173E-18
 -1      1159 9.51838E-05-2.85551E-05-2.85550E-05 5.78682E-10 1.18166E-19-7.11288E-18
 -1      1160 9.51976E-05-2.85592E-05-2.85591E-05 4.59522E-10-5.75362E-21-6.28571E-18
 -1      1161 9.52096E-05-2.85628E-05-2.85627E-05 3.66956E-10 3.03846E-19-5.09590E-18
 -1      1162 9.52196E-05-2.85658E-05-2.85657E-05 2.92146E-10 4.40422E-19-2.10008E-18
 -1      1163 9.52277E-05-2.85682E-05-2.85681E-05 2.19095E-10 4.44531E-20-8.63847E-19
 -1      1164 9.52336E-05-2.85700E-05-2.85698E-05 1.13699E-10 1.84447E-19 9.76799E-19
 -1      1165 9.52369E-05-2.85709E-05-2.85709E-05-9.11511E-11 1.02759E-19 2.24411E-18
 -1      1166 9.52376E-05-2.85713E-05-2.85714E-05-1.55004E-10 3.77854E-19 2.23657E-18
 -1      1167 1.43822E-04-4.11333E-05-4.33668E-05 1.21368E-05-2.31849E-19 1.74425E-17
 -1      1168 1.15645E-04-3.39062E-05-3.71212E-05 5.14387E-07 6.87420E-20 1.49234E-17
 -1      1169 1.14352E-04-3.41308E-05-3.49961E-05-6.71026E-08 8.42599E-20 1.20865E-17
 -1      1170 1.16235E-04-3.48383E-05-3.49507E-05-1.83278E-07 9.79068E-20 1.02719E-17
 -1      1171 1.18660E-04-3.55564E-05-3.54522E-05-2.54065E-07-2.58792E-20 9.36750E-18
 -1      1172 1.19904E-04-3.59040E-05-3.56587E-05-2.65629E-07 1.00936E-19 8.27804E-18
 -1      1173 1.18314E-04-3.54397E-05-3.50480E-05-1.58988E-07-3.35571E-20 8.10203E-18
 -1      1174 1.12683E-04-3.38181E-05-3.33596E-05 1.13059E-07-1.28577E-19 8.42279E-18
 -1      1175 1.03230E-04-3.10754E-05-3.07700E-05 4.95453E-07 6.39080E-21 6.59182E-18
 -1      1176 9.25229E-05-2.79029E-05-2.80205E-05 7.80763E-07 1.44790E-20 5.79741E-18
 -1      1177 8.50361E-05-2.55857E-05-2.62062E-05 7.23329E-07 3.37424E-20 5.21412E-18
 -1      1178 8.46568E-05-2.53442E-05-2.61875E-05 2.85423E-07-1.11636E-19 5.55532E-18
 -1      1179 9.17742E-05-2.74129E-05-2.80158E-05-2.72029E-07 2.03228E-19 3.76538E-18
 -1      1180 1.02946E-04-3.07973E-05-3.09011E-05-6.29278E-07 1.23227E-19 2.47196E-18
 -1      1181 1.13516E-04-3.40394E-05-3.37398E-05-6.70623E-07 1.23372E-19 9.34913E-19
 -1      1182 1.20387E-04-3.61464E-05-3.57088E-05-4.93101E-07 1.41286E-19 3.12396E-19
 -1      1183 1.22878E-04-3.69019E-05-3.65316E-05-2.58699E-07-2.02712E-19 1.18435E-18
 -1      1184 1.21916E-04-3.66019E-05-3.63737E-05-6.99011E-08 2.90147E-19 1.17894E-18
 -1      1185 1.18907E-04-3.56851E-05-3.55849E-05 4.49027E-08 3.00634E-19-5.52451E-19
 -1      1186 1.15050E-04-3.45189E-05-3.45024E-05 9.78050E-08-4.84229E-20 1.44128E-19
 -1      1187 1.11135E-04-3.33402E-05-3.33670E-05 1.11294E-07 1.18175E-19 1.23246E-18
 -1      1188 1.07583E-04-3.22740E-05-3.23172E-05 1.04191E-07-1.01620E-19 1.88557E-18
 -1      1189 1.04569E-04-3.13704E-05-3.14154E-05 8.86259E-08 2.64752E-19 1.87327E-19
 -1      1190 1.02121E-04-3.06367E-05-3.06770E-05 7.12324E-08-1.24108E-19-3.09127E-19
 -1      1191 1.00193E-04-3.00592E-05-3.00926E-05 5.51276E-08 8.41044E-20 7.94431E-19
 -1      1192 9.87130E-05-2.96156E-05-2.96421E-05 4.14752E-08-2.67936E-20 4.01742E-18
 -1      1193 9.76007E-05-2.92822E-05-2.93025E-05 3.04688E-08-1.51383E-19 4.49529E-18
 -1      1194 9.67820E-05-2.90365E-05-2.90519E-05 2.18797E-08 9.73132E-20 4.20709E-18
 -1      1195 9.61921E-05-2.88594E-05-2.88707E-05 1.53343E-08-1.33757E-19 2.44205E-18
 -1      1196 9.57771E-05-2.87347E-05-2.87429E-05 1.04435E-08 1.91591E-19 1.11417E-18
 -1      1197 9.54936E-05-2.86494E-05-2.86553E-05 6.85606E-09 1.11971E-19 1.73850E-18
 -1      1198 9.53070E-05-2.85932E-05-2.85973E-05 4.27496E-09 1.91478E-19 1.11837E-18
 -1      1199 9.51905E-05-2.85581E-05-2.85608E-05 2.45835E-09-5.68804E-19 3.01265E-18
 -1      1200 9.51235E-05-2.85378E-05-2.85396E-05 1.21364E-09 1.22432E-19 5.26638E-18
 -1      1201 9.50906E-05-2.85278E-05-2.85288E-05 3.89967E-10-2.13669E-19 5.43591E-18
 -1      1202 9.50803E-05-2.85245E-05-2.85251E-05-1.29244E-10-3.60835E-20 2.97815E-18
 -1      1203 9.50844E-05-2.85256E-05-2.85259E-05-4.32930E-10 4.41482E-19 7.13485E-19
 -1      1204 9.50968E-05-2.85293E-05-2.85294E-05-5.88073E-10 1.63986E-19-1.80627E-18
 -1      1205 9.51137E-05-2.85343E-05-2.85342E-05-6.44437E-10 3.71601E-19-1.89051E-18
 -1      1206 9.51322E-05-2.85398E-05-2.85396E-05-6.38461E-10-2.22577E-19 2.16010E-19
 -1      1207 9.51506E-05-2.85453E-05-2.85451E-05-5.96424E-10-2.62128E-19 8.31335E-19
 -1      1208 9.51680E-05-2.85505E-05-2.85503E-05-5.37005E-10-3.26685E-19 3.03758E-18
 -1      1209 9.51837E-05-2.85551E-05-2.85550E-05-4.73314E-10-1.74514E-19 3.94419E-18
 -1      1210 9.51976E-05-2.85593E-05-2.85591E-05-4.14429E-10 1.27486E-19 4.28047E-18
 -1      1211 9.52095E-05-2.85629E-05-2.85627E-05-3.66245E-10 5.87304E-19 4.73421E-19
 -1      1212 9.52196E-05-2.85659E-05-2.85657E-05-3.31174E-10 1.40054E-19-4.63474E-18
 -1      1213 9.52277E-05-2.85683E-05-2.85681E-05-3.05724E-10 1.47060E-19-5.85424E-18
 -1      1214 9.52336E-05-2.85700E-05-2.85699E-05-2.64826E-10-2.38385E-19-4.23246E-18
 -1      1215 9.52370E-05-2.85711E-05-2.85709E-05-1.25393E-10 2.33538E-19-2.25820E-18
 -1      1216 9.52375E-05-2.85713E-05-2.85714E-05 1.37523E-10-2.73130E-19-2.49062E-18
 -1      1217 9.52370E-05-2.85707E-05-2.85714E-05 1.28901E-10-2.03653E-18-4.14370E-19
 -1      1218 9.52373E-05-2.85714E-05-2.85709E-05 7.50438E-11 2.84074E-18 1.10191E-18
 -1      1219 9.52383E-05-2.85747E-05-2.85699E-05-1.66966E-10 1.15508E-17-3.97977E-19
 -1      1220 9.52398E-05-2.85800E-05-2.85684E-05-2.63365E-10 7.43700E-18-1.28680E-18
 -1      1221 9.52416E-05-2.85861E-05-2.85667E-05-2.77559E-10 5.41348E-18 2.48608E-19
 -1      1222 9.52433E-05-2.85919E-05-2.85650E-05-2.40483E-10 3.32938E-18-2.31913E-19
 -1      1223 9.52447E-05-2.85966E-05-2.85637E-05-1.77731E-10 4.89026E-18 8.04385E-20
 -1      1224 9.52456E-05-2.85997E-05-2.85628E-05-9.26640E-11 1.21420E-18 1.83142E-20
 -1      1225 9.52459E-05-2.86008E-05-2.85625E-05 8.93473E-13-2.37647E-19 8.42006E-19
 -1      1226 9.52456E-05-2.85997E-05-2.85628E-05 9.44175E-11 7.23091E-20-2.33807E-19
 -1      1227 9.52447E-05-2.85965E-05-2.85637E-05 1.79051E-10-1.77550E-18-2.50315E-18
 -1      1228 9.52433E-05-2.85918E-05-2.85651E-05 2.44780E-10-6.91154E-18 8.80113E-20
 -1      1229 9.52416E-05-2.85860E-05-2.85667E-05 2.77337E-10-6.72052E-18-3.31558E-20
 -1      1230 9.52398E-05-2.85799E-05-2.85684E-05 2.66354E-10 5.38813E-19 1.02996E-18
 -1      1231 9.52382E-05-2.85746E-05-2.85699E-05 1.99701E-10 4.02755E-18 2.18974E-19
 -1      1232 9.52374E-05-2.85715E-05-2.85709E-05-1.70356E-10 1.40989E-18-7.34817E-19
 -1      1233 9.52370E-05-2.85707E-05-2.85714E-05-1.44224E-10-1.95998E-18 6.37831E-19
 -1      1234 3.37449E-05-1.06967E-04 1.80427E-05-1.35560E-05 7.89350E-18 1.72197E-18
 -1      1235 1.82411E-05-6.80885E-05 1.01202E-05-2.59282E-05 1.50365E-17 5.52689E-18
 -1      1236 7.30371E-06-1.35586E-05-4.47873E-06-4.39697E-06 1.91480E-17 1.19745E-17
 -1      1237 2.99208E-05 2.15171E-05-2.37602E-05 4.60835E-05 1.84687E-17 1.67594E-17
 -1      1238 9.89675E-05 1.53317E-05-4.46683E-05 9.70763E-05 1.21541E-17 1.69271E-17
 -1      1239 1.98268E-04-2.82302E-05-6.28639E-05 1.11244E-04 5.47437E-18 1.08911E-17
 -1      1240 2.85589E-04-7.75186E-05-7.51034E-05 7.07601E-05 9.17654E-19 2.24718E-18
 -1      1241 3.16039E-04-9.55119E-05-7.89029E-05-8.60516E-06 6.86308E-19-7.51477E-18
 -1      1242 2.69033E-04-6.67622E-05-7.30360E-05-8.27165E-05 4.40203E-18-1.54024E-17
 -1      1243 1.76039E-04-1.66739E-05-5.91564E-05-1.13245E-04 1.01356E-17-1.96698E-17
 -1      1244 7.62490E-05 2.04714E-05-3.89034E-05-8.34785E-05 1.50111E-17-1.86059E-17
 -1      1245 1.70764E-05 1.40069E-05-1.69713E-05-2.67347E-05 1.68034E-17-1.36220E-17
 -1      1246 8.68105E-06-3.11117E-05 7.25807E-07 1.55645E-05 1.43572E-17-7.58857E-18
 -1      1247 2.39870E-05-8.29458E-05 1.32546E-05 2.37784E-05 7.72240E-18-2.75233E-18
 -1      1248 3.62061E-05-1.10153E-04 1.82351E-05 3.54451E-06-1.79423E-18-6.43798E-19
 -1      1249 2.66181E-05-8.87612E-05 1.45804E-05-1.95773E-05-1.07277E-17-2.90130E-18
 -1      1250 1.03888E-05-3.85457E-05 2.82007E-06-1.75413E-05-1.71643E-17-8.00150E-18
 -1      1251 1.17198E-05 9.91600E-06-1.37146E-05 1.85725E-05-1.81875E-17-1.32916E-17
 -1      1252 5.37068E-05 2.64051E-05-3.31408E-05 7.15823E-05-1.62842E-17-1.75675E-17
 -1      1253 1.37948E-04 1.15626E-06-5.27335E-05 1.08707E-04-1.07717E-17-1.74472E-17
 -1      1254 2.35722E-04-4.89453E-05-6.81545E-05 1.00724E-04-4.55577E-18-1.17229E-17
 -1      1255 2.99046E-04-8.61058E-05-7.67695E-05 4.14537E-05-9.64347E-19-2.89135E-18
 -1      1256 3.00998E-04-8.78722E-05-7.67327E-05-4.20256E-05-1.17716E-18 6.00885E-18
 -1      1257 2.27098E-04-4.39243E-05-6.70407E-05-1.02230E-04-5.27109E-18 1.32620E-17
 -1      1258 1.25036E-04 6.56281E-06-5.01159E-05-1.06847E-04-1.01839E-17 1.57921E-17
 -1      1259 4.22425E-05 2.57265E-05-2.90610E-05-6.11550E-05-1.52534E-17 1.49366E-17
 -1      1260 8.43497E-06-2.65341E-06-8.29320E-06-5.28834E-06-1.75573E-17 1.17026E-17
 -1      1261 1.58468E-05-5.90195E-05 8.18408E-06 2.29903E-05-1.31434E-17 5.64420E-18
 -1      1262 3.37606E-05-1.05438E-04 1.76277E-05 1.38290E-05-4.34951E-19 1.24180E-18
 -1      1263 1.16547E-04-2.49621E-05-4.18663E-05-1.56235E-05-4.48080E-19 6.07873E-18
 -1      1264 9.98202E-05-8.44883E-06-3.92873E-05-1.60054E-05-1.05509E-18-8.49733E-19
 -1      1265 1.03444E-04-8.74825E-06-4.08526E-05-2.22552E-05-1.43953E-18 6.76197E-19
 -1      1266 9.23086E-05-5.27816E-06-3.73453E-05-1.04876E-05-9.68476E-19-2.99940E-18
 -1      1267 9.51215E-05-5.34008E-06-3.83868E-05-1.35996E-05-1.11152E-18-2.09561E-18
 -1      1268 1.01746E-04-1.30517E-05-3.80687E-05-1.43464E-05-1.79447E-18-6.58409E-19
 -1      1269 8.68747E-05-3.88004E-06-3.55862E-05-5.92471E-06-6.50680E-19-3.95215E-18
 -1      1270 8.92764E-05-3.89368E-06-3.64963E-05-8.14525E-06-8.16222E-19-3.53088E-18
 -1      1271 9.39374E-05-9.12881E-06-3.64237E-05-9.57631E-06-1.47402E-18-2.43554E-18
 -1      1272 8.20172E-05-2.85501E-06-3.39492E-05-2.43604E-06-3.94506E-19-4.44081E-18
 -1      1273 8.42377E-05-2.87745E-06-3.47821E-05-4.06766E-06-4.62692E-19-4.23215E-18
 -1      1274 8.78930E-05-6.80624E-06-3.48288E-05-5.34377E-06-9.02792E-19-3.29890E-18
 -1      1275 7.75968E-05-1.91151E-06-3.24813E-05-3.46161E-08-1.38384E-19-4.61953E-18
 -1      1276 7.96045E-05-1.94353E-06-3.32141E-05-1.11261E-06-2.24464E-19-4.52727E-18
 -1      1277 8.25074E-05-4.92491E-06-3.33206E-05-2.09342E-06-5.16147E-19-3.72983E-18
 -1      1278 7.36926E-05-9.83291E-07-3.12329E-05 1.33888E-06 5.92394E-20-4.70019E-18
 -1      1279 7.53962E-05-1.02215E-06-3.18354E-05 7.68704E-07 8.15269E-21-4.69123E-18
 -1      1280 7.75693E-05-3.14724E-06-3.19584E-05 1.46275E-07-1.19180E-19-3.95365E-18
 -1      1281 7.08568E-05-1.92625E-07-3.03717E-05 1.72296E-06 2.38387E-19-4.64532E-18
 -1      1282 7.19884E-05-2.25576E-07-3.07572E-05 1.60413E-06 1.75892E-19-4.67695E-18
 -1      1283 7.33632E-05-1.51621E-06-3.08489E-05 1.35614E-06 1.80570E-19-3.95969E-18
 -1      1284 6.95967E-05 2.89826E-07-3.00330E-05 1.41086E-06 4.30960E-19-4.54558E-18
 -1      1285 6.99395E-05 2.73105E-07-3.01360E-05 1.57086E-06 3.64092E-19-4.60754E-18
 -1      1286 7.05158E-05-3.03553E-07-3.01435E-05 1.63091E-06 5.12217E-19-3.94787E-18
 -1      1287 7.02458E-05 3.26079E-07-3.02996E-05 8.89325E-07 5.94114E-19-4.34844E-18
 -1      1288 6.96860E-05 3.31259E-07-3.00864E-05 1.07569E-06 5.14215E-19-4.48383E-18
 -1      1289 6.95920E-05 2.00782E-07-2.99619E-05 1.31293E-06 7.74895E-19-3.80235E-18
 -1      1290 7.28243E-05-1.20974E-07-3.11720E-05 7.31836E-07 7.60053E-19-4.04406E-18
 -1      1291 7.13960E-05-9.33634E-08-3.06526E-05 6.69778E-07 6.92714E-19-4.24497E-18
 -1      1292 7.08961E-05-1.71831E-07-3.03640E-05 9.28892E-07 1.06448E-18-3.61451E-18
 -1      1293 7.69586E-05-9.53605E-07-3.25416E-05 1.42953E-06 9.34595E-19-3.44940E-18
 -1      1294 7.48670E-05-9.18566E-07-3.17817E-05 9.03397E-07 8.50792E-19-3.78469E-18
 -1      1295 7.43118E-05-1.37632E-06-3.13175E-05 1.04657E-06 1.31426E-18-3.28584E-18
 -1      1296 8.23637E-05-2.08465E-06-3.43315E-05 3.36750E-06 1.16996E-18-2.60288E-18
 -1      1297 7.97297E-05-2.04416E-06-3.33673E-05 2.18988E-06 1.06509E-18-3.11682E-18
 -1      1298 7.94570E-05-3.23877E-06-3.27330E-05 2.11688E-06 1.63877E-18-2.64248E-18
 -1      1299 8.86478E-05-3.46134E-06-3.64008E-05 6.79721E-06 1.37696E-18-1.20956E-18
 -1      1300 8.56412E-05-3.42450E-06-3.52963E-05 4.82912E-06 1.25975E-18-2.02748E-18
 -1      1301 8.59424E-05-5.63470E-06-3.44931E-05 4.44322E-06 1.93679E-18-1.66220E-18
 -1      1302 9.59322E-05-5.31155E-06-3.86888E-05 1.20777E-05 1.48686E-18 1.07150E-18
 -1      1303 9.24625E-05-5.25669E-06-3.74433E-05 9.01636E-06 1.36542E-18-2.83121E-19
 -1      1304 9.35625E-05-8.69269E-06-3.64448E-05 8.16842E-06 2.17653E-18-1.67607E-19
 -1      1305 1.05913E-04-9.17330E-06-4.12838E-05 2.02895E-05 1.17653E-18 5.09787E-18
 -1      1306 1.01068E-04-8.56371E-06-3.97535E-05 1.50077E-05 1.15588E-18 2.67938E-18
 -1      1307 1.03064E-04-1.34371E-05-3.84342E-05 1.32332E-05 2.10636E-18 2.34183E-18
 -1      1308 1.37361E-04-2.83640E-05-4.35349E-05 2.65138E-05 4.67986E-19 1.20810E-17
 -1      1309 1.13736E-04-1.76441E-05-4.17921E-05 2.03568E-05 5.25160E-19 7.30725E-18
 -1      1310 1.16142E-04-2.35377E-05-3.97014E-05 1.63873E-05 1.82190E-18 5.93283E-18
 -1      1311 1.18751E-04-3.28216E-05-3.95957E-05 4.61333E-06 9.00555E-19 1.18652E-17
 -1      1312 1.19163E-04-3.45991E-05-3.77034E-05-6.08238E-06-1.21020E-18 6.55455E-18
 -1      1313 1.13807E-04-3.26738E-05-3.53216E-05-3.36840E-06-1.10432E-18 5.11272E-18
 -1      1314 1.11773E-04-3.28518E-05-3.40683E-05-1.15694E-06-8.60956E-19 4.63796E-18
 -1      1315 1.10748E-04-3.29510E-05-3.33758E-05-8.34649E-07-8.38099E-19 3.33985E-18
 -1      1316 1.14014E-04-3.26982E-05-3.52150E-05-5.12064E-06-1.90254E-18 2.63427E-18
 -1      1317 1.09721E-04-3.28012E-05-3.29410E-05-8.22524E-08-6.50190E-19 3.00747E-18
 -1      1318 1.09631E-04-3.29201E-05-3.28202E-05-9.83592E-08-5.83149E-19 2.12282E-18
 -1      1319 1.10700E-04-3.28538E-05-3.34616E-05-1.23112E-06-1.39504E-18 1.90426E-18
 -1      1320 1.09172E-04-3.28578E-05-3.26450E-05-1.62377E-07-4.13415E-19 1.81448E-18
 -1      1321 1.08963E-04-3.28682E-05-3.25634E-05-2.77344E-07-3.18668E-19 1.14349E-18
 -1      1322 1.09495E-04-3.29638E-05-3.27896E-05-4.25568E-07-9.86400E-19 1.35607E-18
 -1      1323 1.08454E-04-3.27748E-05-3.23799E-05-8.17767E-07-2.03996E-19 1.05647E-18
 -1      1324 1.07547E-04-3.25314E-05-3.21105E-05-1.01840E-06-3.60783E-19 6.77540E-19
 -1      1325 1.08663E-04-3.29706E-05-3.23971E-05-1.13614E-06-5.54151E-19 8.87671E-19
 -1      1326 1.06615E-04-3.22914E-05-3.18035E-05-1.81741E-06-2.75001E-19 5.63171E-19
 -1      1327 1.04722E-04-3.16911E-05-3.12644E-05-2.05557E-06-2.09469E-19 1.79995E-19
 -1      1328 1.07342E-04-3.27081E-05-3.19254E-05-2.74179E-06-5.70000E-19 7.05382E-19
 -1      1329 1.03216E-04-3.12307E-05-3.08086E-05-2.80828E-06-2.70584E-19 7.27654E-20
 -1      1330 1.00419E-04-3.02813E-05-3.00347E-05-2.98974E-06-4.10775E-19-5.18543E-19
 -1      1331 1.05002E-04-3.19631E-05-3.12411E-05-4.63483E-06-4.75583E-19 3.11324E-19
 -1      1332 9.84805E-05-2.96219E-05-2.94890E-05-3.29287E-06-3.35630E-19-7.01740E-19
 -1      1333 9.53365E-05-2.85073E-05-2.86404E-05-3.29904E-06-3.71815E-19-1.31534E-18
 -1      1334 1.01599E-04-3.06613E-05-3.03695E-05-5.95936E-06-7.20231E-19-3.88179E-20
 -1      1335 9.34322E-05-2.78102E-05-2.81363E-05-2.81445E-06-5.17100E-19-1.53535E-18
 -1      1336 9.08858E-05-2.68787E-05-2.74626E-05-2.57422E-06-6.49396E-19-2.07452E-18
 -1      1337 9.77269E-05-2.90235E-05-2.94719E-05-5.78864E-06-7.32009E-19-4.62268E-19
 -1      1338 8.96717E-05-2.64098E-05-2.71574E-05-1.28424E-06-3.24844E-19-2.18765E-18
 -1      1339 8.86723E-05-2.60324E-05-2.68989E-05-8.50024E-07 1.21331E-19-2.44253E-18
 -1      1340 9.45413E-05-2.75886E-05-2.87887E-05-3.64975E-06-7.08378E-19-3.05137E-19
 -1      1341 8.86618E-05-2.60171E-05-2.69037E-05 8.23774E-07 1.17268E-19-2.83015E-18
 -1      1342 8.96589E-05-2.63756E-05-2.71710E-05 1.27650E-06-1.70055E-19-2.86999E-18
 -1      1343 9.32731E-05-2.69819E-05-2.85391E-05-2.17851E-08-1.24223E-19-1.07821E-18
 -1      1344 9.08953E-05-2.68357E-05-2.74932E-05 2.67033E-06-3.08062E-19-3.08921E-18
 -1      1345 9.35637E-05-2.78004E-05-2.82053E-05 2.95150E-06-1.17916E-19-3.32741E-18
 -1      1346 9.45154E-05-2.75175E-05-2.88174E-05 3.73791E-06-4.69865E-19-1.88192E-18
 -1      1347 9.55799E-05-2.85313E-05-2.87438E-05 3.56768E-06 7.24660E-20-3.41503E-18
 -1      1348 9.90082E-05-2.97444E-05-2.96715E-05 3.59706E-06 1.14593E-19-3.02412E-18
 -1      1349 9.78189E-05-2.89663E-05-2.95460E-05 6.17086E-06-9.64757E-20-2.21789E-18
 -1      1350 1.01118E-04-3.04645E-05-3.02650E-05 3.36988E-06 9.41365E-20-3.07870E-18
 -1      1351 1.04305E-04-3.15534E-05-3.11456E-05 3.20109E-06-1.29781E-19-3.00736E-18
 -1      1352 1.01968E-04-3.07148E-05-3.05083E-05 6.59415E-06 6.39444E-20-2.24773E-18
 -1      1353 1.05956E-04-3.20676E-05-3.16434E-05 2.42022E-06-4.15986E-19-2.89532E-18
 -1      1354 1.08228E-04-3.28068E-05-3.22881E-05 2.16726E-06-5.75023E-19-3.42122E-18
 -1      1355 1.05685E-04-3.21658E-05-3.14419E-05 5.32127E-06-3.56177E-19-2.18238E-18
 -1      1356 1.09165E-04-3.30540E-05-3.26004E-05 1.21975E-06-3.68870E-19-3.49589E-18
 -1      1357 1.10307E-04-3.33941E-05-3.29372E-05 9.80081E-07-1.02048E-19-3.82945E-18
 -1      1358 1.08171E-04-3.30151E-05-3.21378E-05 3.20387E-06-6.58462E-19-2.09854E-18
 -1      1359 1.10536E-04-3.34083E-05-3.30450E-05 1.51393E-07-1.52631E-20-3.84424E-18
 -1      1360 1.10679E-04-3.34171E-05-3.30993E-05-2.53174E-08 7.40889E-20-3.79698E-18
 -1      1361 1.09216E-04-3.32579E-05-3.24954E-05 1.05978E-06-1.33169E-19-2.36132E-18
 -1      1362 1.10355E-04-3.32695E-05-3.30346E-05-6.07888E-07-3.45596E-19-3.95941E-18
 -1      1363 1.09789E-04-3.30574E-05-3.28824E-05-7.12934E-07-4.43733E-19-4.37735E-18
 -1      1364 1.09018E-04-3.30503E-05-3.25198E-05-6.25248E-07-3.29297E-19-2.72209E-18
 -1      1365 1.09111E-04-3.28180E-05-3.26994E-05-1.04197E-06-3.86393E-20-4.52816E-18
 -1      1366 1.08143E-04-3.24895E-05-3.24255E-05-1.08800E-06-2.41537E-22-4.80014E-18
 -1      1367 1.07947E-04-3.25772E-05-3.22825E-05-1.70291E-06-5.27424E-19-3.13109E-18
 -1      1368 1.07288E-04-3.22127E-05-3.21785E-05-1.21510E-06-9.65154E-20-4.83810E-18
 -1      1369 1.06160E-04-3.18457E-05-3.18539E-05-1.22070E-06-3.08069E-19-4.70311E-18
 -1      1370 1.06382E-04-3.19880E-05-3.18779E-05-2.23471E-06-1.37345E-19-3.55453E-18
 -1      1371 1.05263E-04-3.15681E-05-3.15863E-05-1.21170E-06 3.04706E-19-4.09597E-18
 -1      1372 1.04141E-04-3.12121E-05-3.12601E-05-1.19358E-06 5.22131E-19-3.50556E-18
 -1      1373 1.04625E-04-3.13815E-05-3.13935E-05-2.36471E-06 3.42144E-19-3.44323E-18
 -1      1374 1.03287E-04-3.09556E-05-3.10010E-05-1.10597E-06 3.39321E-19-3.47215E-18
 -1      1375 1.02267E-04-3.06374E-05-3.07022E-05-1.07641E-06-2.39288E-19-3.41739E-18
 -1      1376 1.02886E-04-3.08151E-05-3.08958E-05-2.24102E-06 5.26198E-19-3.03582E-18
 -1      1377 1.01506E-04-3.04128E-05-3.04688E-05-9.52243E-07-4.53376E-19-3.01330E-18
 -1      1378 1.00631E-04-3.01436E-05-3.02112E-05-9.19182E-07-4.11931E-19-3.83309E-18
 -1      1379 1.01292E-04-3.03168E-05-3.04281E-05-1.98215E-06-2.52832E-19-2.25849E-18
 -1      1380 9.99819E-05-2.99547E-05-3.00111E-05-7.85731E-07-1.30368E-19-3.61491E-18
 -1      1381 9.92629E-05-2.97358E-05-2.97986E-05-7.53764E-07-4.86826E-19-3.87659E-18
 -1      1382 9.99056E-05-2.98965E-05-3.00143E-05-1.67021E-06-4.85888E-19-1.63178E-18
 -1      1383 9.87295E-05-2.95819E-05-2.96335E-05-6.26856E-07-1.26289E-19-4.10596E-18
 -1      1384 9.81585E-05-2.94098E-05-2.94642E-05-5.98315E-07 3.14784E-19-3.84496E-18
 -1      1385 9.87462E-05-2.95531E-05-2.96638E-05-1.35610E-06-4.06820E-19-2.08449E-18
 -1      1386 9.77329E-05-2.92877E-05-2.93321E-05-4.85916E-07 4.14433E-19-3.71934E-18
 -1      1387 9.72924E-05-2.91561E-05-2.92012E-05-4.61718E-07 2.84943E-19-3.64104E-18
 -1      1388 9.78070E-05-2.92801E-05-2.93771E-05-1.06785E-06 2.15181E-19-1.32141E-18
 -1      1389 9.69615E-05-2.90617E-05-2.90984E-05-3.66823E-07-3.72348E-19-3.96808E-18
 -1      1390 9.66309E-05-2.89638E-05-2.89998E-05-3.47064E-07-3.60071E-19-4.29656E-18
 -1      1391 9.70666E-05-2.90681E-05-2.91493E-05-8.18318E-07-3.01903E-19-2.32792E-18
 -1      1392 9.63799E-05-2.88924E-05-2.89217E-05-2.69760E-07 1.81739E-19-4.25676E-18
 -1      1393 9.61384E-05-2.88215E-05-2.88495E-05-2.54104E-07 1.47347E-19-4.00204E-18
 -1      1394 9.64972E-05-2.89073E-05-2.89729E-05-6.11066E-07 1.00083E-19-2.68516E-18
 -1      1395 9.59525E-05-2.87689E-05-2.87917E-05-1.92934E-07 2.64548E-19-3.87379E-18
 -1      1396 9.57811E-05-2.87190E-05-2.87402E-05-1.80847E-07 3.69422E-19-3.21206E-18
 -1      1397 9.60697E-05-2.87881E-05-2.88396E-05-4.44379E-07 2.70997E-19-1.61366E-18
 -1      1398 9.56470E-05-2.86812E-05-2.86985E-05-1.33664E-07-3.08625E-20-2.77153E-18
 -1      1399 9.55294E-05-2.86474E-05-2.86631E-05-1.24556E-07 1.64450E-20-2.50826E-18
 -1      1400 9.57567E-05-2.87020E-05-2.87413E-05-3.13905E-07 5.22161E-19-1.44406E-18
 -1      1401 9.54355E-05-2.86210E-05-2.86339E-05-8.90273E-08 1.92550E-19-2.58515E-18
 -1      1402 9.53582E-05-2.85992E-05-2.86104E-05-8.23288E-08 2.69571E-19-2.50882E-18
 -1      1403 9.55334E-05-2.86414E-05-2.86707E-05-2.14256E-07-2.08265E-19-1.03611E-18
 -1      1404 9.52948E-05-2.85814E-05-2.85907E-05-5.62161E-08-1.48447E-19-2.97401E-18
 -1      1405 9.52468E-05-2.85682E-05-2.85760E-05-5.14164E-08-7.91685E-19-3.64402E-18
 -1      1406 9.53792E-05-2.86002E-05-2.86216E-05-1.39944E-07-4.15239E-19-2.11562E-18
 -1      1407 9.52060E-05-2.85568E-05-2.85633E-05-3.27172E-08-4.98663E-19-3.37197E-18
 -1      1408 9.51789E-05-2.85497E-05-2.85550E-05-2.93787E-08 1.98180E-19-4.01371E-18
 -1      1409 9.52768E-05-2.85735E-05-2.85886E-05-8.58780E-08-6.44085E-19-1.55179E-18
 -1      1410 9.51544E-05-2.85429E-05-2.85473E-05-1.63810E-08 5.30489E-19-3.75741E-18
 -1      1411 9.51417E-05-2.85399E-05-2.85433E-05-1.41418E-08 6.25894E-19-3.27225E-18
 -1      1412 9.52124E-05-2.85572E-05-2.85676E-05-4.75982E-08 2.06934E-19-1.18093E-18
 -1      1413 9.51286E-05-2.85363E-05-2.85392E-05-5.43091E-09-5.57111E-19-3.86852E-18
 -1      1414 9.51255E-05-2.85360E-05-2.85381E-05-3.99954E-09-4.50652E-19-4.32417E-18
 -1      1415 9.51752E-05-2.85483E-05-2.85551E-05-2.13482E-08-1.82237E-19-2.80520E-18
 -1      1416 9.51202E-05-2.85346E-05-2.85364E-05 1.56259E-09 1.48116E-19-4.46124E-18
 -1      1417 9.51231E-05-2.85360E-05-2.85371E-05 2.41506E-09-3.83162E-20-4.05296E-18
 -1      1418 9.51568E-05-2.85444E-05-2.85486E-05-4.05994E-09-3.22338E-19-3.46025E-18
 -1      1419 9.51228E-05-2.85360E-05-2.85370E-05 5.72251E-09 2.29124E-19-4.47750E-18
 -1      1420 9.51292E-05-2.85383E-05-2.85388E-05 6.17220E-09 2.27954E-19-4.22403E-18
 -1      1421 9.51510E-05-2.85438E-05-2.85462E-05 6.71046E-09 4.82643E-19-4.37177E-18
 -1      1422 9.51320E-05-2.85392E-05-2.85397E-05 7.91203E-09-3.96793E-20-3.65079E-18
 -1      1423 9.51401E-05-2.85419E-05-2.85420E-05 8.09145E-09 1.81710E-19-3.67322E-18
 -1      1424 9.51533E-05-2.85453E-05-2.85465E-05 1.28655E-08 2.56309E-19-4.67863E-18
 -1      1425 9.51447E-05-2.85433E-05-2.85434E-05 8.78004E-09-8.13817E-20-3.51058E-18
 -1      1426 9.51534E-05-2.85461E-05-2.85459E-05 8.78664E-09-5.44944E-19-4.09596E-18
 -1      1427 9.51604E-05-2.85479E-05-2.85483E-05 1.58544E-08-2.68206E-20-3.72680E-18
 -1      1428 9.51588E-05-2.85477E-05-2.85476E-05 8.80277E-09-1.90098E-19-3.59018E-18
 -1      1429 9.51673E-05-2.85504E-05-2.85500E-05 8.70623E-09-3.85947E-19-4.21631E-18
 -1      1430 9.51700E-05-2.85511E-05-2.85510E-05 1.67557E-08-3.81776E-19-3.39392E-18
 -1      1431 9.51728E-05-2.85520E-05-2.85518E-05 8.31951E-09-1.62922E-19-4.23613E-18
 -1      1432 9.51808E-05-2.85545E-05-2.85541E-05 8.16786E-09-2.79059E-19-4.27053E-18
 -1      1433 9.51805E-05-2.85545E-05-2.85540E-05 1.63515E-08-3.53903E-19-4.22987E-18
 -1      1434 9.51861E-05-2.85560E-05-2.85557E-05 7.56201E-09-4.29394E-19-3.88664E-18
 -1      1435 9.51933E-05-2.85583E-05-2.85578E-05 7.38641E-09 1.40384E-19-3.91939E-18
 -1      1436 9.51911E-05-2.85577E-05-2.85571E-05 1.51892E-08 2.36836E-19-2.23142E-18
 -1      1437 9.51982E-05-2.85597E-05-2.85594E-05 6.67741E-09 3.80084E-19-3.31154E-18
 -1      1438 9.52045E-05-2.85616E-05-2.85612E-05 6.49560E-09 7.00569E-19-3.10435E-18
 -1      1439 9.52011E-05-2.85608E-05-2.85601E-05 1.36317E-08 5.25177E-19-1.24317E-18
 -1      1440 9.52089E-05-2.85629E-05-2.85626E-05 5.74472E-09 9.58813E-19-3.89906E-18
 -1      1441 9.52143E-05-2.85645E-05-2.85641E-05 5.56322E-09 9.51347E-19-2.33749E-18
 -1      1442 9.52101E-05-2.85635E-05-2.85628E-05 1.18947E-08 8.67397E-19-2.65679E-19
 -1      1443 9.52180E-05-2.85656E-05-2.85653E-05 4.78623E-09 1.17633E-18-2.78689E-18
 -1      1444 9.52224E-05-2.85670E-05-2.85666E-05 4.60164E-09 7.96056E-19-1.41329E-18
 -1      1445 9.52180E-05-2.85658E-05-2.85652E-05 1.00736E-08 1.40127E-18-4.75383E-19
 -1      1446 9.52255E-05-2.85679E-05-2.85675E-05 3.77378E-09 6.67566E-19-1.65456E-18
 -1      1447 9.52289E-05-2.85690E-05-2.85685E-05 3.57132E-09 7.96663E-19-7.25912E-19
 -1      1448 9.52247E-05-2.85679E-05-2.85671E-05 8.16277E-09 1.49555E-18-2.19748E-18
 -1      1449 9.52313E-05-2.85697E-05-2.85693E-05 2.64082E-09 4.73565E-19-3.54082E-19
 -1      1450 9.52336E-05-2.85704E-05-2.85699E-05 2.39396E-09 5.71981E-19 3.17566E-19
 -1      1451 9.52300E-05-2.85695E-05-2.85687E-05 6.06963E-09 6.71202E-19-7.09618E-19
 -1      1452 9.52353E-05-2.85710E-05-2.85704E-05 1.31314E-09 7.57304E-19 1.52399E-19
 -1      1453 9.52363E-05-2.85712E-05-2.85708E-05 1.01864E-09 6.63273E-19 1.16067E-18
 -1      1454 9.52339E-05-2.85708E-05-2.85698E-05 3.70356E-09 9.45756E-19-7.83718E-19
 -1      1455 9.52372E-05-2.85712E-05-2.85712E-05-1.08967E-10-1.34121E-18 1.72079E-18
 -1      1456 9.52366E-05-2.85715E-05-2.85707E-05 9.43583E-10-9.14897E-20-7.42259E-19
 -1      1457 1.16593E-04-3.44632E-05-3.56794E-05 9.13029E-07 8.72841E-19 9.90184E-18
 -1      1458 1.20095E-04-3.46527E-05-3.74268E-05 2.24369E-06 7.27760E-19 1.12606E-17
 -1      1459 1.18964E-04-3.19720E-05-3.76575E-05 8.81196E-06 1.42132E-18 7.64701E-18
 -1      1460 1.15568E-04-3.45662E-05-3.47517E-05-6.05014E-07 6.70731E-19 8.17805E-18
 -1      1461 1.15462E-04-3.40906E-05-3.50627E-05-3.37130E-07 6.21630E-19 9.14129E-18
 -1      1462 1.15992E-04-3.40528E-05-3.53213E-05 1.25957E-06 1.31555E-18 6.28853E-18
 -1      1463 1.16679E-04-3.50637E-05-3.49218E-05-1.00570E-06 3.51889E-19 7.06997E-18
 -1      1464 1.15680E-04-3.45928E-05-3.47288E-05-9.27298E-07 3.96446E-19 7.69725E-18
 -1      1465 1.15329E-04-3.44351E-05-3.47014E-05-1.14965E-06 9.62613E-19 5.27569E-18
 -1      1466 1.17964E-04-3.55778E-05-3.52230E-05-6.18034E-07 3.41401E-19 6.48638E-18
 -1      1467 1.17116E-04-3.52667E-05-3.50232E-05-7.30989E-07 1.95033E-19 6.83540E-18
 -1      1468 1.16035E-04-3.49639E-05-3.47151E-05-1.44206E-06 4.88381E-19 4.46262E-18
 -1      1469 1.17881E-04-3.56757E-05-3.51150E-05 5.08900E-07 6.57906E-20 5.97955E-18
 -1      1470 1.18024E-04-3.57524E-05-3.52008E-05 1.75756E-07 1.16699E-19 6.23088E-18
 -1      1471 1.16672E-04-3.54456E-05-3.47346E-05-2.39324E-07 3.50811E-19 4.19565E-18
 -1      1472 1.15163E-04-3.49150E-05-3.42603E-05 2.22192E-06-1.48032E-19 6.25640E-18
 -1      1473 1.17003E-04-3.56122E-05-3.48169E-05 1.69215E-06-1.53267E-19 6.04852E-18
 -1      1474 1.16047E-04-3.55039E-05-3.43971E-05 2.24806E-06-2.48538E-19 4.41959E-18
 -1      1475 1.09279E-04-3.30307E-05-3.25904E-05 3.95521E-06 3.63596E-19 5.70932E-18
 -1      1476 1.13054E-04-3.44223E-05-3.36410E-05 3.38867E-06 1.76851E-19 6.20547E-18
 -1      1477 1.13285E-04-3.47134E-05-3.35401E-05 5.39914E-06 1.60500E-19 4.31406E-18
 -1      1478 1.01218E-04-3.02722E-05-3.04488E-05 4.69318E-06 2.77245E-19 4.75037E-18
 -1      1479 1.06214E-04-3.20697E-05-3.17633E-05 4.39701E-06 4.53484E-19 5.28898E-18
 -1      1480 1.08291E-04-3.28462E-05-3.22557E-05 7.80612E-06 6.96579E-19 3.96144E-18
 -1      1481 9.38130E-05-2.76300E-05-2.85761E-05 3.49467E-06 3.21515E-19 4.12780E-18
 -1      1482 9.82253E-05-2.91251E-05-2.96867E-05 3.75712E-06 1.36028E-19 4.23887E-18
 -1      1483 1.02301E-04-3.02613E-05-3.09132E-05 7.63169E-06 5.47620E-19 3.24766E-18
 -1      1484 9.06112E-05-2.64682E-05-2.77875E-05 4.58933E-07-5.90276E-20 3.89249E-18
 -1      1485 9.23199E-05-2.68687E-05-2.81995E-05 1.25891E-06 2.16245E-19 3.75267E-18
 -1      1486 9.78065E-05-2.80999E-05-3.00244E-05 3.95202E-06 3.52683E-19 2.40981E-18
 -1      1487 9.34650E-05-2.75185E-05-2.84826E-05-2.91289E-06 7.43774E-19 2.94794E-18
 -1      1488 9.14886E-05-2.65551E-05-2.79805E-05-1.99371E-06 3.31216E-19 3.26419E-18
 -1      1489 9.72117E-05-2.76932E-05-2.99758E-05-1.89745E-06 4.55333E-19 1.77203E-18
 -1      1490 1.00997E-04-3.02085E-05-3.03696E-05-4.82479E-06 6.27089E-19 1.33154E-18
 -1      1491 9.62848E-05-2.83826E-05-2.91699E-05-4.26532E-06 6.54154E-19 2.13463E-18
 -1      1492 1.00957E-04-2.93794E-05-3.08010E-05-6.86592E-06 1.16951E-18 7.21301E-19
 -1      1493 1.09712E-04-3.31816E-05-3.26686E-05-4.64841E-06 4.12796E-19 4.75397E-20
 -1      1494 1.04386E-04-3.13397E-05-3.12678E-05-4.60749E-06 4.10265E-19 5.87947E-19
 -1      1495 1.07118E-04-3.21394E-05-3.21723E-05-8.61757E-06 9.85266E-19-7.96264E-19
 -1      1496 1.16453E-04-3.53351E-05-3.45801E-05-3.05013E-06 6.45069E-20-2.42040E-19
 -1      1497 1.12378E-04-3.40887E-05-3.34533E-05-3.36717E-06 2.15193E-19 9.22207E-20
 -1      1498 1.12976E-04-3.45631E-05-3.35844E-05-7.11418E-06 4.74762E-19-1.11914E-18
 -1      1499 1.19822E-04-3.62903E-05-3.56477E-05-1.11932E-06-1.33434E-19-1.01790E-19
 -1      1500 1.17788E-04-3.57960E-05-3.50410E-05-1.53422E-06 8.75091E-20-1.75918E-19
 -1      1501 1.16691E-04-3.58613E-05-3.45990E-05-3.92577E-06 2.05710E-19-5.37601E-19
 -1      1502 1.20040E-04-3.62280E-05-3.58322E-05 4.16161E-07-8.43129E-20 2.63414E-19
 -1      1503 1.19877E-04-3.63324E-05-3.57416E-05 7.40080E-08-3.02689E-19-1.58091E-19
 -1      1504 1.17819E-04-3.60385E-05-3.50095E-05-7.24092E-07-2.09045E-19-9.83343E-19
 -1      1505 1.18084E-04-3.55224E-05-3.53525E-05 1.33703E-06 5.26335E-19-3.17346E-19
 -1      1506 1.19185E-04-3.59808E-05-3.56338E-05 1.12133E-06 3.92934E-19 1.93739E-19
 -1      1507 1.16846E-04-3.54730E-05-3.48467E-05 1.59264E-06 3.79027E-19-1.02621E-18
 -1      1508 1.14994E-04-3.45145E-05-3.44947E-05 1.72794E-06-2.21612E-19-7.85345E-19
 -1      1509 1.16732E-04-3.51198E-05-3.49775E-05 1.62412E-06 3.17677E-19-2.28289E-19
 -1      1510 1.14563E-04-3.45481E-05-3.42762E-05 2.86587E-06 6.53972E-19-6.10241E-19
 -1      1511 1.11555E-04-3.34388E-05-3.34977E-05 1.76665E-06-2.67878E-19 2.51886E-19
 -1      1512 1.13470E-04-3.40574E-05-3.40468E-05 1.73901E-06-2.51033E-19-1.14058E-19
 -1      1513 1.11685E-04-3.35250E-05-3.34893E-05 3.31374E-06-4.98746E-19-1.25520E-19
 -1      1514 1.08251E-04-3.24293E-05-3.25187E-05 1.61323E-06-2.73952E-19 1.27629E-18
 -1      1515 1.10069E-04-3.29908E-05-3.30491E-05 1.62904E-06-2.56557E-19 6.39801E-19
 -1      1516 1.08716E-04-3.25482E-05-3.26407E-05 3.23880E-06-4.08336E-19 4.34197E-19
 -1      1517 1.05327E-04-3.15485E-05-3.16415E-05 1.37825E-06 4.20252E-19 9.12003E-19
 -1      1518 1.06917E-04-3.20247E-05-3.21100E-05 1.41454E-06 2.36847E-19 1.44207E-18
 -1      1519 1.05956E-04-3.16844E-05-3.18308E-05 2.89182E-06-1.56235E-19 9.10560E-19
 -1      1520 1.02871E-04-3.08155E-05-3.08996E-05 1.12695E-06 2.30271E-20 1.80484E-19
 -1      1521 1.04190E-04-3.12020E-05-3.12909E-05 1.16985E-06 1.65970E-19 1.03847E-18
 -1      1522 1.03549E-04-3.09558E-05-3.11129E-05 2.44029E-06 4.84883E-19 1.22103E-18
 -1      1523 1.00883E-04-3.02256E-05-3.02963E-05 8.92787E-07-2.44828E-19 4.85912E-19
 -1      1524 1.01939E-04-3.05296E-05-3.06109E-05 9.34828E-07-1.18861E-19 2.30724E-19
 -1      1525 1.01538E-04-3.03610E-05-3.05069E-05 1.98094E-06 7.63653E-21 9.10147E-19
 -1      1526 9.93178E-05-2.97631E-05-2.98200E-05 6.89890E-07-7.15658E-19 2.73985E-18
 -1      1527 1.00140E-04-2.99963E-05-3.00657E-05 7.27579E-07-8.06499E-19 1.40588E-18
 -1      1528 9.99125E-05-2.98874E-05-3.00133E-05 1.56218E-06-1.10942E-18 1.62440E-18
 -1      1529 9.81129E-05-2.94083E-05-2.94528E-05 5.21785E-07-3.60560E-20 3.90613E-18
 -1      1530 9.87383E-05-2.95835E-05-2.96402E-05 5.53868E-07-1.34063E-19 3.07965E-18
 -1      1531 9.86303E-05-2.95181E-05-2.96220E-05 1.20332E-06-8.65512E-19 3.26622E-18
 -1      1532 9.72045E-05-2.91415E-05-2.91755E-05 3.86731E-07 1.04498E-19 3.84443E-18
 -1      1533 9.76706E-05-2.92704E-05-2.93155E-05 4.13125E-07 6.13967E-20 4.11428E-18
 -1      1534 9.76407E-05-2.92357E-05-2.93187E-05 9.07776E-07 1.13823E-19 3.56928E-18
 -1      1535 9.65330E-05-2.89448E-05-2.89703E-05 2.80740E-07 2.05776E-19 3.08458E-18
 -1      1536 9.68734E-05-2.90377E-05-2.90728E-05 3.01918E-07 4.85879E-19 3.78968E-18
 -1      1537 9.68918E-05-2.90235E-05-2.90885E-05 6.71198E-07 5.55172E-19 2.94207E-18
 -1      1538 9.60471E-05-2.88028E-05-2.88217E-05 1.99175E-07 5.82831E-20 2.61538E-18
 -1      1539 9.62902E-05-2.88682E-05-2.88950E-05 2.15829E-07-1.38547E-19 2.60681E-18
 -1      1540 9.63360E-05-2.88672E-05-2.89170E-05 4.85985E-07 8.73660E-20 3.41053E-18
 -1      1541 9.57036E-05-2.87028E-05-2.87164E-05 1.37529E-07 3.77987E-19 1.36171E-18
 -1      1542 9.58728E-05-2.87474E-05-2.87676E-05 1.50394E-07 6.67335E-19 1.94241E-18
 -1      1543 9.59319E-05-2.87544E-05-2.87919E-05 3.43734E-07 9.02509E-19 2.22389E-18
 -1      1544 9.54675E-05-2.86343E-05-2.86439E-05 9.17665E-08 5.05904E-21 1.16970E-18
 -1      1545 9.55815E-05-2.86637E-05-2.86785E-05 1.01538E-07-8.81861E-20 8.37709E-19
 -1      1546 9.56448E-05-2.86749E-05-2.87026E-05 2.36422E-07 1.81320E-19 3.17714E-19
 -1      1547 9.53110E-05-2.85891E-05-2.85957E-05 5.84388E-08-2.27946E-19 1.39297E-18
 -1      1548 9.53846E-05-2.86075E-05-2.86182E-05 6.57329E-08-1.31875E-20 1.86450E-18
 -1      1549 9.54462E-05-2.86205E-05-2.86406E-05 1.56920E-07-3.40404E-19 1.45880E-18
 -1      1550 9.52122E-05-2.85608E-05-2.85652E-05 3.46848E-08-4.23490E-19 2.78918E-18
 -1      1551 9.52569E-05-2.85714E-05-2.85790E-05 4.00301E-08-1.03961E-18 1.38676E-18
 -1      1552 9.53135E-05-2.85846E-05-2.85989E-05 9.91558E-08-9.65722E-19 1.97731E-18
 -1      1553 9.51545E-05-2.85445E-05-2.85473E-05 1.81822E-08 2.76735E-19 2.93884E-18
 -1      1554 9.51790E-05-2.85497E-05-2.85549E-05 2.20189E-08 1.90697E-19 3.47262E-18
 -1      1555 9.52289E-05-2.85622E-05-2.85721E-05 5.81027E-08-4.43300E-19 1.43259E-18
 -1      1556 9.51252E-05-2.85364E-05-2.85381E-05 7.07935E-09-2.09352E-19 3.51168E-18
 -1      1557 9.51359E-05-2.85380E-05-2.85415E-05 9.76700E-09 1.06787E-19 3.38039E-18
 -1      1558 9.51786E-05-2.85493E-05-2.85559E-05 2.96851E-08-2.33958E-20 2.02277E-18
 -1      1559 9.51149E-05-2.85338E-05-2.85347E-05-7.70532E-11 4.23277E-19 1.52113E-18
 -1      1560 9.51166E-05-2.85332E-05-2.85354E-05 1.75036E-09 3.35428E-19 2.33413E-18
 -1      1561 9.51522E-05-2.85430E-05-2.85472E-05 1.06572E-08 1.24673E-18 1.83367E-18
 -1      1562 9.51167E-05-2.85347E-05-2.85350E-05-4.41041E-09 1.17839E-18-7.10940E-19
 -1      1563 9.51129E-05-2.85327E-05-2.85340E-05-3.21499E-09 9.43472E-19 6.51230E-19
 -1      1564 9.51420E-05-2.85410E-05-2.85435E-05-1.52528E-09 1.42919E-18 3.89418E-19
 -1      1565 9.51258E-05-2.85376E-05-2.85376E-05-6.77563E-09-1.00062E-19-8.98418E-19
 -1      1566 9.51188E-05-2.85350E-05-2.85357E-05-6.03458E-09-2.20740E-19-8.06185E-19
 -1      1567 9.51421E-05-2.85418E-05-2.85432E-05-8.82609E-09 4.78221E-19 8.82837E-20
 -1      1568 9.51388E-05-2.85417E-05-2.85415E-05-7.81236E-09-1.95729E-19-7.37540E-19
 -1      1569 9.51303E-05-2.85388E-05-2.85390E-05-7.38965E-09 1.40295E-19-4.12302E-19
 -1      1570 9.51485E-05-2.85443E-05-2.85448E-05-1.27366E-08-1.89647E-19-4.97203E-19
 -1      1571 9.51533E-05-2.85461E-05-2.85458E-05-7.98999E-09-2.37762E-19 1.56876E-18
 -1      1572 9.51445E-05-2.85432E-05-2.85432E-05-7.78326E-09-6.20559E-19 4.78400E-19
 -1      1573 9.51585E-05-2.85476E-05-2.85476E-05-1.43697E-08-9.26921E-19 5.72117E-19
 -1      1574 9.51680E-05-2.85506E-05-2.85502E-05-7.64468E-09-8.74529E-19 1.91959E-18
 -1      1575 9.51595E-05-2.85479E-05-2.85477E-05-7.57855E-09-3.63012E-19 1.75631E-18
 -1      1576 9.51699E-05-2.85512E-05-2.85509E-05-1.45391E-08-9.17818E-19 2.44707E-18
 -1      1577 9.51820E-05-2.85548E-05-2.85544E-05-7.00912E-09-4.43625E-19 2.81244E-18
 -1      1578 9.51741E-05-2.85523E-05-2.85521E-05-7.02974E-09-6.78762E-19 1.73801E-18
 -1      1579 9.51817E-05-2.85548E-05-2.85544E-05-1.38239E-08-6.82393E-19 2.78730E-18
 -1      1580 9.51948E-05-2.85586E-05-2.85583E-05-6.23562E-09-1.20038E-18 3.36599E-18
 -1      1581 9.51876E-05-2.85564E-05-2.85562E-05-6.30641E-09-4.71512E-19 2.49598E-18
 -1      1582 9.51930E-05-2.85583E-05-2.85578E-05-1.26205E-08-7.20552E-19 2.36166E-18
 -1      1583 9.52061E-05-2.85620E-05-2.85617E-05-5.41294E-09 2.21274E-18 2.16429E-18
 -1      1584 9.51998E-05-2.85601E-05-2.85598E-05-5.51168E-09 8.29149E-19 3.10012E-18
 -1      1585 9.52033E-05-2.85614E-05-2.85608E-05-1.11822E-08 6.45698E-19 2.13331E-18
 -1      1586 9.52158E-05-2.85649E-05-2.85646E-05-4.57716E-09 1.45558E-18-6.90516E-19
 -1      1587 9.52105E-05-2.85633E-05-2.85630E-05-4.69465E-09 1.82179E-18 1.26845E-18
 -1      1588 9.52125E-05-2.85641E-05-2.85636E-05-9.64790E-09 3.17087E-18 7.33364E-19
 -1      1589 9.52238E-05-2.85673E-05-2.85670E-05-3.71796E-09 9.95414E-19-3.45779E-18
 -1      1590 9.52195E-05-2.85660E-05-2.85657E-05-3.85776E-09 8.06984E-19-1.53923E-18
 -1      1591 9.52203E-05-2.85665E-05-2.85659E-05-8.05973E-09 1.76567E-18 5.02939E-19
 -1      1592 9.52302E-05-2.85692E-05-2.85689E-05-2.78444E-09-1.16575E-18-2.50591E-18
 -1      1593 9.52268E-05-2.85683E-05-2.85679E-05-2.96369E-09-4.05180E-19-2.87895E-18
 -1      1594 9.52268E-05-2.85684E-05-2.85679E-05-6.37754E-09-2.67453E-19 9.18461E-19
 -1      1595 9.52345E-05-2.85706E-05-2.85702E-05-1.68859E-09-3.57999E-19-4.31794E-19
 -1      1596 9.52323E-05-2.85700E-05-2.85695E-05-1.94728E-09-5.21494E-19-1.18421E-18
 -1      1597 9.52318E-05-2.85700E-05-2.85693E-05-4.49980E-09-1.38498E-18 1.55605E-18
 -1      1598 9.52367E-05-2.85712E-05-2.85709E-05-4.84749E-10 7.48070E-19-3.65096E-19
 -1      1599 9.52359E-05-2.85711E-05-2.85706E-05-7.89562E-10 2.51871E-19-9.05188E-19
 -1      1600 9.52352E-05-2.85711E-05-2.85703E-05-2.33318E-09 3.41416E-19 2.16622E-18
 -1      1601 9.52372E-05-2.85712E-05-2.85712E-05 5.14316E-11-1.06338E-20-2.23337E-19
 -1      1602 9.52374E-05-2.85731E-05-2.85704E-05-1.37287E-09 4.57176E-18 3.46266E-18
 -1      1603 9.52371E-05-2.85720E-05-2.85707E-05-1.05736E-09 5.07119E-19 3.28998E-18
 -1      1604 9.52386E-05-2.85767E-05-2.85693E-05-2.48209E-09 6.37494E-18-7.81488E-19
 -1      1605 9.52379E-05-2.85746E-05-2.85700E-05-2.29147E-09 6.19316E-18 6.46096E-19
 -1      1606 9.52375E-05-2.85744E-05-2.85699E-05-3.59318E-09 1.97792E-18 3.19508E-18
 -1      1607 9.52402E-05-2.85815E-05-2.85680E-05-3.08252E-09 4.83489E-18-1.47147E-18
 -1      1608 9.52393E-05-2.85788E-05-2.85688E-05-3.00810E-09 7.40168E-18-1.35884E-18
 -1      1609 9.52389E-05-2.85780E-05-2.85689E-05-5.32043E-09 3.60816E-18-7.07839E-19
 -1      1610 9.52419E-05-2.85866E-05-2.85665E-05-3.14237E-09 5.18284E-18 5.70041E-19
 -1      1611 9.52409E-05-2.85837E-05-2.85674E-05-3.17422E-09 4.39999E-18 1.46036E-18
 -1      1612 9.52404E-05-2.85822E-05-2.85678E-05-6.04709E-09 5.32983E-18-5.03629E-19
 -1      1613 9.52433E-05-2.85912E-05-2.85652E-05-2.74609E-09 2.75715E-18 8.66253E-20
 -1      1614 9.52425E-05-2.85887E-05-2.85659E-05-2.85730E-09 3.97648E-18-1.42728E-18
 -1      1615 9.52419E-05-2.85864E-05-2.85666E-05-5.79515E-09 3.20085E-18-1.45928E-18
 -1      1616 9.52445E-05-2.85948E-05-2.85641E-05-1.98730E-09 1.84896E-18-4.79293E-19
 -1      1617 9.52439E-05-2.85929E-05-2.85647E-05-2.16058E-09 1.49668E-18 5.98054E-19
 -1      1618 9.52432E-05-2.85902E-05-2.85656E-05-4.74059E-09 1.44877E-18-9.64854E-19
 -1      1619 9.52452E-05-2.85970E-05-2.85635E-05-9.89609E-10 3.27782E-19-9.49552E-20
 -1      1620 9.52449E-05-2.85960E-05-2.85638E-05-1.19853E-09 1.55653E-18 6.73279E-19
 -1      1621 9.52441E-05-2.85930E-05-2.85648E-05-3.07893E-09 6.20888E-19 2.68582E-19
 -1      1622 9.52453E-05-2.85973E-05-2.85634E-05 1.21357E-10 9.65628E-20 5.28733E-19
 -1      1623 9.52453E-05-2.85973E-05-2.85634E-05-9.92777E-11 2.27646E-19 1.08784E-18
 -1      1624 9.52446E-05-2.85945E-05-2.85644E-05-1.05251E-09-1.73911E-19-6.83594E-19
 -1      1625 9.52448E-05-2.85959E-05-2.85638E-05 1.21876E-09-8.76146E-19-8.31046E-19
 -1      1626 9.52452E-05-2.85969E-05-2.85635E-05 1.01051E-09-1.27302E-18 8.84809E-19
 -1      1627 9.52446E-05-2.85945E-05-2.85644E-05 1.09419E-09-7.05006E-19 7.27836E-20
 -1      1628 9.52439E-05-2.85929E-05-2.85647E-05 2.17599E-09-2.39064E-18-3.15129E-18
 -1      1629 9.52445E-05-2.85948E-05-2.85642E-05 2.00440E-09 2.29628E-19-3.07526E-18
 -1      1630 9.52441E-05-2.85929E-05-2.85649E-05 3.11524E-09-1.27056E-18-1.42951E-18
 -1      1631 9.52425E-05-2.85886E-05-2.85659E-05 2.85878E-09-3.25640E-18 6.64873E-19
 -1      1632 9.52433E-05-2.85912E-05-2.85652E-05 2.74981E-09-2.00151E-18-2.64988E-18
 -1      1633 9.52432E-05-2.85902E-05-2.85656E-05 4.75638E-09-1.78363E-19-3.10388E-18
 -1      1634 9.52409E-05-2.85836E-05-2.85674E-05 3.17237E-09-1.50406E-18 9.50292E-19
 -1      1635 9.52418E-05-2.85865E-05-2.85666E-05 3.14269E-09-3.44268E-18 2.93570E-18
 -1      1636 9.52419E-05-2.85864E-05-2.85667E-05 5.79811E-09-6.65017E-20 1.66462E-18
 -1      1637 9.52393E-05-2.85787E-05-2.85688E-05 3.00507E-09 1.28395E-18 1.43464E-18
 -1      1638 9.52402E-05-2.85814E-05-2.85680E-05 3.07432E-09-1.07446E-18 1.69661E-18
 -1      1639 9.52404E-05-2.85821E-05-2.85678E-05 6.03766E-09 8.82765E-19 2.74597E-18
 -1      1640 9.52379E-05-2.85746E-05-2.85700E-05 2.28344E-09 1.66454E-18 3.36193E-19
 -1      1641 9.52386E-05-2.85767E-05-2.85694E-05 2.47812E-09 1.84137E-18 8.19796E-19
 -1      1642 9.52388E-05-2.85779E-05-2.85689E-05 5.29516E-09 3.60332E-19 1.44557E-18
 -1      1643 9.52370E-05-2.85724E-05-2.85706E-05 1.61185E-09 5.90030E-20-1.86393E-18
 -1      1644 9.52373E-05-2.85734E-05-2.85702E-05 2.06716E-09 1.90112E-18-1.71809E-18
 -1      1645 9.52374E-05-2.85747E-05-2.85697E-05 4.27757E-09 2.33917E-19-2.33910E-19
 -1      1646 9.52360E-05-2.85724E-05-2.85701E-05 3.20968E-09 1.49874E-19-2.85593E-18
 -1      1647 2.00218E-05-6.47802E-05 1.35040E-05-5.78712E-06 6.82709E-18 3.08659E-18
 -1      1648 2.28853E-05-7.33752E-05 1.53831E-05 1.67110E-06 3.68216E-18 2.11250E-18
 -1      1649 1.95125E-05-4.01739E-05 4.48450E-06 1.55797E-06 1.08759E-17 6.34258E-18
 -1      1650 2.39831E-05-6.18462E-05 1.01320E-05-1.32074E-06 7.78889E-18 4.37572E-18
 -1      1651 3.33985E-05-1.44381E-05-1.03879E-05 2.51944E-05 1.27622E-17 1.00221E-17
 -1      1652 2.86751E-05-3.47618E-05-2.21565E-06 8.96029E-06 1.12469E-17 7.73383E-18
 -1      1653 7.46577E-05-5.41558E-06-2.92296E-05 5.61290E-05 1.10800E-17 1.02872E-17
 -1      1654 5.14693E-05-1.27844E-05-1.91962E-05 3.34377E-05 1.26267E-17 9.63500E-18
 -1      1655 1.36540E-04-1.59668E-05-4.83828E-05 7.56302E-05 8.02140E-18 9.52150E-18
 -1      1656 9.60764E-05-5.48527E-06-3.87331E-05 6.12751E-05 1.02559E-17 1.06015E-17
 -1      1657 2.05455E-04-4.17287E-05-6.44093E-05 6.91397E-05 4.18201E-18 4.66122E-18
 -1      1658 1.60891E-04-2.10147E-05-5.68246E-05 7.55712E-05 6.97023E-18 7.98074E-18
 -1      1659 2.52727E-04-6.37775E-05-7.40446E-05 2.97776E-05 2.27810E-18-1.37135E-18
 -1      1660 2.24894E-04-4.84701E-05-7.00212E-05 5.78184E-05 3.19554E-18 2.80707E-18
 -1      1661 2.52358E-04-6.23679E-05-7.50925E-05-2.27538E-05 2.80622E-18-7.00962E-18
 -1      1662 2.56527E-04-6.44833E-05-7.55450E-05 1.30497E-05 2.30393E-18-3.17870E-18
 -1      1663 2.07295E-04-4.05647E-05-6.69234E-05-5.98051E-05 5.67491E-18-1.11436E-17
 -1      1664 2.40119E-04-5.77638E-05-7.19966E-05-3.59390E-05 3.63292E-18-8.38139E-18
 -1      1665 1.44264E-04-1.49451E-05-5.31599E-05-7.48006E-05 9.02598E-18-1.34780E-17
 -1      1666 1.89148E-04-3.47558E-05-6.11530E-05-7.32985E-05 6.79278E-18-1.28800E-17
 -1      1667 8.42399E-05-1.02467E-05-3.25760E-05-5.00326E-05 9.95094E-18-1.08657E-17
 -1      1668 1.23702E-04-1.65488E-05-4.36152E-05-6.87814E-05 8.85827E-18-1.19677E-17
 -1      1669 3.74374E-05-1.54178E-05-1.31951E-05-2.33966E-05 1.08285E-17-8.84048E-18
 -1      1670 5.37987E-05-3.15317E-06-2.26434E-05-4.57702E-05 1.13096E-17-1.12206E-17
 -1      1671 2.45376E-05-4.29591E-05 2.39932E-06-2.80828E-06 8.32040E-18-5.19909E-18
 -1      1672 2.44162E-05-2.04055E-05-5.07712E-06-1.45562E-05 1.04888E-17-7.60170E-18
 -1      1673 2.31738E-05-6.57485E-05 1.20796E-05 4.79262E-07 2.77234E-18-3.07918E-18
 -1      1674 1.86036E-05-4.82502E-05 7.74099E-06 1.94016E-06 6.69241E-18-4.70140E-18
 -1      1675 2.15794E-05-7.16961E-05 1.51970E-05-3.77100E-06-3.20941E-18-2.48710E-18
 -1      1676 2.10621E-05-7.02688E-05 1.47773E-05 6.02736E-06 1.21528E-18-2.56312E-18
 -1      1677 1.85214E-05-4.96252E-05 8.71707E-06-9.54738E-08-8.18234E-18-4.75000E-18
 -1      1678 2.26079E-05-6.56651E-05 1.27088E-05 2.76960E-06-4.49902E-18-2.99892E-18
 -1      1679 2.18749E-05-2.32404E-05-2.82714E-06 1.18067E-05-1.21736E-17-7.45685E-18
 -1      1680 2.37387E-05-4.58064E-05 4.08595E-06 2.95800E-06-1.03219E-17-5.27776E-18
 -1      1681 4.53049E-05-2.99044E-06-1.92508E-05 4.05709E-05-1.24692E-17-1.09792E-17
 -1      1682 3.33666E-05-1.81009E-05-1.03888E-05 2.01256E-05-1.23997E-17-8.61433E-18
 -1      1683 9.62295E-05-4.64850E-06-3.77178E-05 6.81396E-05-1.04465E-17-1.17797E-17
 -1      1684 6.57594E-05-3.39461E-06-2.81522E-05 4.80739E-05-1.18991E-17-1.10961E-17
 -1      1685 1.64339E-04-2.56048E-05-5.53862E-05 7.48105E-05-7.17776E-18-1.00399E-17
 -1      1686 1.20983E-04-9.42654E-06-4.65412E-05 6.88680E-05-9.60620E-18-1.13172E-17
 -1      1687 2.23667E-04-5.03932E-05-6.84620E-05 5.60306E-05-4.14525E-18-5.92076E-18
 -1      1688 1.86104E-04-3.06442E-05-6.26762E-05 7.23184E-05-6.30849E-18-9.34193E-18
 -1      1689 2.48107E-04-6.13821E-05-7.40309E-05 8.05052E-06-2.72194E-18-2.35263E-19
 -1      1690 2.32468E-04-5.27185E-05-7.17443E-05 3.97237E-05-3.50206E-18-4.15808E-18
 -1      1691 2.35756E-04-5.41448E-05-7.21865E-05-4.29362E-05-2.91760E-18 5.27744E-18
 -1      1692 2.52574E-04-6.38580E-05-7.45703E-05-8.02278E-06-2.16311E-18 1.66008E-18
 -1      1693 1.78321E-04-2.80579E-05-6.08206E-05-7.03962E-05-5.60122E-18 8.96838E-18
 -1      1694 2.19627E-04-4.88800E-05-6.75426E-05-5.54025E-05-3.56034E-18 6.79998E-18
 -1      1695 1.09816E-04-4.48247E-06-4.40995E-05-6.99964E-05-8.54656E-18 1.04583E-17
 -1      1696 1.54241E-04-2.03829E-05-5.33659E-05-7.89850E-05-6.46794E-18 1.05320E-17
 -1      1697 5.84160E-05-7.43685E-06-2.37404E-05-4.09636E-05-1.10368E-17 9.08951E-18
 -1      1698 8.78266E-05-4.56049E-06-3.43801E-05-6.42357E-05-9.53759E-18 9.30042E-18
 -1      1699 2.90931E-05-2.72318E-05-5.17271E-06-1.28500E-05-1.17661E-17 7.26077E-18
 -1      1700 3.65482E-05-7.30910E-06-1.41725E-05-3.21242E-05-1.19567E-17 9.35378E-18
 -1      1701 2.45607E-05-5.79868E-05 8.65146E-06-1.31516E-06-5.23297E-18 4.99560E-18
 -1      1702 2.07434E-05-3.45720E-05 2.09471E-06-6.70373E-06-9.90351E-18 6.95096E-18
 -1      1703 2.32830E-05-7.46095E-05 1.55214E-05-2.72366E-06 2.32913E-18 2.67133E-18
 -1      1704 1.96087E-05-6.37580E-05 1.31672E-05 5.45297E-06-3.00188E-18 3.85400E-18
 -1      1705 1.14215E-04-3.46344E-05-3.35453E-05 4.32426E-05 6.94906E-18 4.87467E-18
 -1      1706 7.25641E-05-3.77076E-05-1.62702E-05 3.88315E-05 6.50437E-18 5.79794E-18
 -1      1707 9.52369E-05-2.85714E-05-2.85709E-05-4.50810E-10-1.03298E-19 8.01624E-19
 -1      1708 9.52366E-05-2.85722E-05-2.85705E-05-1.80696E-09 1.34630E-18 3.82573E-18
 -1      1709 1.79541E-05-4.63859E-05 8.03418E-06 1.31930E-05 3.70238E-18 4.64301E-18
 -1      1710 3.85529E-05-4.22529E-05-1.54911E-06 2.71394E-05 5.59719E-18 6.12736E-18
 -1      1711 1.14683E-05-4.83176E-05 1.13785E-05-8.32307E-07 1.73758E-18 4.86451E-18
 -1      1712 1.57315E-04-3.27321E-05-5.05987E-05 4.24730E-05 6.53317E-18 3.40338E-18
 -1      1713 1.95320E-04-3.45143E-05-6.40331E-05 3.10534E-05 5.14583E-18 8.37716E-19
 -1      1714 2.14720E-04-3.59390E-05-7.08223E-05 9.85024E-06 4.39695E-18-1.97782E-18
 -1      1715 2.06111E-04-3.25661E-05-6.92311E-05-1.10555E-05 4.57906E-18-4.66885E-18
 -1      1716 1.84703E-04-3.26328E-05-6.09938E-05-3.15228E-05 5.79318E-18-6.97362E-18
 -1      1717 1.47537E-04-3.60645E-05-4.61146E-05-3.88839E-05 5.72848E-18-7.37427E-18
 -1      1718 1.02368E-04-3.57846E-05-2.83173E-05-4.25479E-05 5.68740E-18-7.25653E-18
 -1      1719 5.54447E-05-3.52042E-05-1.09008E-05-3.40268E-05 5.84114E-18-6.91814E-18
 -1      1720 2.85385E-05-4.16862E-05 1.97549E-06-2.16122E-05 3.79217E-18-5.69788E-18
 -1      1721 1.35769E-05-4.59533E-05 9.48787E-06-8.74588E-06 1.08272E-18-5.23720E-18
 -1      1722 1.19563E-05-4.38973E-05 9.66269E-06 8.50960E-06-1.98206E-18-5.14700E-18
 -1      1723 2.51324E-05-4.05570E-05 3.11704E-06 2.17309E-05-4.41685E-18-5.47903E-18
 -1      1724 4.92252E-05-3.49564E-05-8.57799E-06 3.30126E-05-7.15573E-18-6.57763E-18
 -1      1725 8.61840E-05-3.04326E-05-2.43019E-05 4.37017E-05-7.43949E-18-7.25738E-18
 -1      1726 1.30727E-04-3.10125E-05-4.11252E-05 4.48032E-05-6.88130E-18-6.38748E-18
 -1      1727 1.71101E-04-3.16321E-05-5.62703E-05 3.78878E-05-6.43152E-18-4.97801E-18
 -1      1728 1.97736E-04-3.15355E-05-6.64249E-05 2.20999E-05-5.43456E-18-2.87906E-18
 -1      1729 2.06916E-04-3.16708E-05-6.99968E-05-1.05306E-06-4.36095E-18-1.69883E-19
 -1      1730 1.97850E-04-3.24957E-05-6.61011E-05-2.17673E-05-4.23771E-18 2.39753E-18
 -1      1731 1.66305E-04-3.05718E-05-5.47244E-05-4.03564E-05-4.75418E-18 4.68409E-18
 -1      1732 1.22820E-04-3.08238E-05-3.81919E-05-4.58895E-05-5.99953E-18 5.69206E-18
 -1      1733 7.85289E-05-3.35897E-05-2.00732E-05-4.15638E-05-6.75593E-18 5.25542E-18
 -1      1734 4.21306E-05-3.98384E-05-3.87999E-06-2.98825E-05-5.52181E-18 6.56472E-18
 -1      1735 2.01723E-05-4.58576E-05 7.21884E-06-1.71042E-05-1.53567E-18 6.81586E-18
 -1      1736 1.18830E-04-2.69106E-05-3.94828E-05-1.43236E-05-1.47098E-18 4.96001E-18
 -1      1737 9.47661E-05-1.27397E-05-3.52949E-05-7.39726E-06-1.42754E-18-2.09289E-18
 -1      1738 9.80353E-05-1.42272E-05-3.60599E-05-9.65634E-06-1.76470E-18-1.51825E-18
 -1      1739 1.01869E-04-1.69566E-05-3.65715E-05-1.11052E-05-1.85603E-18-7.44913E-19
 -1      1740 1.05295E-04-1.93671E-05-3.73132E-05-1.33064E-05-2.08097E-18 2.32511E-19
 -1      1741 1.02376E-04-1.97501E-05-3.54378E-05-8.67560E-06-1.84724E-18-9.54580E-19
 -1      1742 8.27982E-05-7.09342E-06-3.25313E-05-8.75547E-07-4.50787E-19-3.05771E-18
 -1      1743 8.55117E-05-8.02635E-06-3.32375E-05-2.27282E-06-6.76257E-19-2.96256E-18
 -1      1744 7.73721E-05-4.56511E-06-3.12776E-05 1.15809E-06-5.61821E-20-3.24150E-18
 -1      1745 7.98935E-05-5.46189E-06-3.19018E-05 2.41594E-07-2.35965E-19-3.18394E-18
 -1      1746 8.27490E-05-8.62322E-06-3.18169E-05 2.62916E-07-3.60141E-19-3.00862E-18
 -1      1747 7.28477E-05-2.30146E-06-3.02962E-05 2.08266E-06 3.78654E-19-3.25158E-18
 -1      1748 7.48400E-05-3.05555E-06-3.07573E-05 1.67721E-06 1.84686E-19-3.26671E-18
 -1      1749 7.70030E-05-5.50526E-06-3.06765E-05 2.00249E-06 9.80176E-20-3.15668E-18
 -1      1750 6.99760E-05-7.03992E-07-2.97324E-05 1.99637E-06 7.36879E-19-3.15358E-18
 -1      1751 7.10764E-05-1.16424E-06-2.99608E-05 1.99940E-06 5.53377E-19-3.23049E-18
 -1      1752 7.24130E-05-2.86094E-06-2.98234E-05 2.52700E-06 5.35767E-19-3.13552E-18
 -1      1753 6.94320E-05-1.91664E-07-2.96973E-05 1.31312E-06 1.01007E-18-3.06875E-18
 -1      1754 6.93602E-05-2.29851E-07-2.96447E-05 1.49861E-06 8.78297E-19-3.14940E-18
 -1      1755 6.98430E-05-1.24397E-06-2.93997E-05 1.99349E-06 8.86829E-19-3.06996E-18
 -1      1756 7.14995E-05-9.71400E-07-3.02317E-05 6.77454E-07 1.33825E-18-2.95182E-18
 -1      1757 7.01879E-05-5.49399E-07-2.98876E-05 7.49442E-07 1.18806E-18-3.04068E-18
 -1      1758 6.99663E-05-1.12677E-06-2.95001E-05 9.51719E-07 1.20695E-18-2.97115E-18
 -1      1759 7.58508E-05-2.89263E-06-3.12676E-05 7.31256E-07 1.63929E-18-2.58672E-18
 -1      1760 7.35190E-05-2.09518E-06-3.06776E-05 4.28895E-07 1.46921E-18-2.81923E-18
 -1      1761 7.29076E-05-2.61478E-06-3.01336E-05 1.69066E-07 1.49214E-18-2.79035E-18
 -1      1762 8.20601E-05-5.73230E-06-3.27250E-05 1.90647E-06 1.98253E-18-1.80389E-18
 -1      1763 7.89085E-05-4.62102E-06-3.19290E-05 1.04379E-06 1.74839E-18-2.27154E-18
 -1      1764 7.82633E-05-5.45236E-06-3.12318E-05 2.82888E-07 1.79695E-18-2.31913E-18
 -1      1765 8.94977E-05-9.27664E-06-3.44335E-05 4.33855E-06 2.28867E-18-8.47880E-19
 -1      1766 8.58039E-05-7.87927E-06-3.35160E-05 2.84511E-06 2.08238E-18-1.38884E-18
 -1      1767 8.54122E-05-9.27798E-06-3.26689E-05 1.59389E-06 2.10527E-18-1.47505E-18
 -1      1768 9.80016E-05-1.38267E-05-3.62093E-05 7.84473E-06 2.48392E-18 5.49486E-19
 -1      1769 9.37591E-05-1.18880E-05-3.52522E-05 5.74562E-06 2.34353E-18-2.83280E-19
 -1      1770 9.37305E-05-1.38921E-05-3.42488E-05 3.94215E-06 2.39338E-18-4.10586E-19
 -1      1771 1.08452E-04-2.08529E-05-3.77272E-05 1.14532E-05 2.22639E-18 3.12788E-18
 -1      1772 1.03015E-04-1.73657E-05-3.69014E-05 9.29393E-06 2.36338E-18 1.58713E-18
 -1      1773 1.03136E-04-1.97700E-05-3.57176E-05 6.57221E-06 2.47070E-18 1.09315E-18
 -1      1774 1.17390E-04-2.99891E-05-3.78902E-05 9.55379E-06 1.80545E-18 6.01478E-18
 -1      1775 1.12122E-04-2.39499E-05-3.77971E-05 1.13368E-05 2.01737E-18 4.16359E-18
 -1      1776 1.11025E-04-2.62699E-05-3.63828E-05 6.98571E-06 2.23921E-18 3.09847E-18
 -1      1777 1.15497E-04-3.14215E-05-3.62211E-05 4.55784E-06 1.85288E-18 5.41260E-18
 -1      1778 1.12574E-04-2.33439E-05-3.79436E-05-1.53203E-05-1.93388E-18 1.95993E-18
 -1      1779 1.14405E-04-3.33063E-05-3.47824E-05-2.94494E-07 1.45933E-18 4.34565E-18
 -1      1780 1.15422E-04-3.29579E-05-3.53819E-05 1.85034E-06 1.55147E-18 4.90171E-18
 -1      1781 1.13702E-04-3.08278E-05-3.55303E-05 3.26355E-06 1.88195E-18 3.53602E-18
 -1      1782 1.12060E-04-2.65947E-05-3.63523E-05-1.06388E-05-1.98944E-18 1.30718E-18
 -1      1783 1.11093E-04-3.18541E-05-3.38448E-05-2.90317E-06-1.48607E-18 1.19599E-18
 -1      1784 1.09912E-04-3.22145E-05-3.33021E-05-1.67734E-06-1.26098E-18 8.17678E-19
 -1      1785 1.09669E-04-3.27252E-05-3.28866E-05-9.76851E-07-1.09866E-18 9.48167E-19
 -1      1786 1.09188E-04-3.30459E-05-3.26432E-05-9.42435E-07-8.95833E-19 6.57748E-19
 -1      1787 1.09150E-04-3.19007E-05-3.31335E-05-2.10352E-06-1.29546E-18 2.85837E-19
 -1      1788 1.09146E-04-3.34136E-05-3.24081E-05-1.23951E-06-6.97482E-19 7.38639E-19
 -1      1789 1.08634E-04-3.35652E-05-3.22076E-05-1.88245E-06-5.71595E-19 5.36150E-19
 -1      1790 1.09072E-04-3.33919E-05-3.24515E-05-1.51982E-06-9.54079E-19 2.63910E-19
 -1      1791 1.08579E-04-3.37893E-05-3.20363E-05-2.89409E-06-5.30765E-19 6.01292E-19
 -1      1792 1.07676E-04-3.36303E-05-3.17749E-05-3.92215E-06-4.28274E-19 4.17280E-19
 -1      1793 1.09139E-04-3.43592E-05-3.20464E-05-2.88977E-06-6.86813E-19 3.32704E-19
 -1      1794 1.07302E-04-3.35193E-05-3.16274E-05-5.24471E-06-5.29538E-19 3.85236E-19
 -1      1795 1.05848E-04-3.28986E-05-3.12834E-05-6.24699E-06-5.82666E-19 3.30174E-19
 -1      1796 1.08789E-04-3.45918E-05-3.17788E-05-5.45334E-06-5.50293E-19 2.02907E-19
 -1      1797 1.04937E-04-3.22811E-05-3.11587E-05-7.26625E-06-5.91011E-19 3.33817E-19
 -1      1798 1.03055E-04-3.11896E-05-3.07745E-05-7.69474E-06-6.99097E-19 2.28997E-19
 -1      1799 1.07480E-04-3.36402E-05-3.16148E-05-8.10134E-06-7.39453E-19 2.35399E-19
 -1      1800 1.01667E-04-3.01079E-05-3.06876E-05-7.67969E-06-8.10180E-19 1.14336E-19
 -1      1801 9.98074E-05-2.88317E-05-3.03511E-05-7.05161E-06-7.92264E-19 1.09347E-19
 -1      1802 1.05033E-04-3.13556E-05-3.15548E-05-9.32581E-06-7.93995E-19 5.26798E-19
 -1      1803 9.84399E-05-2.77095E-05-3.03112E-05-5.56241E-06-8.60579E-19-1.32078E-19
 -1      1804 9.72501E-05-2.67975E-05-3.01171E-05-3.82966E-06-6.01724E-19-1.70727E-19
 -1      1805 1.02050E-04-2.83935E-05-3.15835E-05-7.73331E-06-9.39267E-19 2.38673E-19
 -1      1806 9.66213E-05-2.62593E-05-3.01155E-05-1.17964E-06-6.55683E-19-6.50912E-19
 -1      1807 9.66061E-05-2.62052E-05-3.01238E-05 1.08708E-06-6.55511E-19-1.17480E-18
 -1      1808 9.98745E-05-2.61781E-05-3.16466E-05-3.10147E-06-1.02659E-18-6.87089E-19
 -1      1809 9.71180E-05-2.66127E-05-3.01462E-05 3.83824E-06-5.75810E-19-1.67046E-18
 -1      1810 9.83207E-05-2.74700E-05-3.03584E-05 5.71186E-06-3.95789E-19-1.72765E-18
 -1      1811 9.97446E-05-2.59966E-05-3.16719E-05 3.01409E-06-9.03380E-19-1.58089E-18
 -1      1812 9.96730E-05-2.85696E-05-3.04058E-05 7.41406E-06-5.14682E-19-1.89299E-18
 -1      1813 1.01630E-04-2.98954E-05-3.07645E-05 8.20954E-06-3.41731E-19-2.04612E-18
 -1      1814 1.01778E-04-2.80120E-05-3.16392E-05 8.01736E-06-6.48364E-19-1.96440E-18
 -1      1815 1.03079E-04-3.10485E-05-3.08417E-05 8.37965E-06-1.54172E-19-2.03449E-18
 -1      1816 1.05112E-04-3.22620E-05-3.12489E-05 8.03381E-06 9.02454E-21-1.94270E-18
 -1      1817 1.04819E-04-3.10392E-05-3.15965E-05 1.00237E-05-1.93595E-19-2.02005E-18
 -1      1818 1.06069E-04-3.29856E-05-3.13415E-05 6.99159E-06-2.27845E-19-2.04369E-18
 -1      1819 1.07642E-04-3.37414E-05-3.16939E-05 5.91739E-06-5.00060E-19-1.84993E-18
 -1      1820 1.07407E-04-3.35877E-05-3.15936E-05 8.93102E-06-3.29635E-19-1.85556E-18
 -1      1821 1.07929E-04-3.39268E-05-3.17680E-05 4.34049E-06-7.15134E-19-2.04001E-18
 -1      1822 1.08800E-04-3.41820E-05-3.19935E-05 3.06135E-06-4.48127E-19-1.93769E-18
 -1      1823 1.08726E-04-3.48451E-05-3.16257E-05 5.94079E-06-5.93979E-19-2.14762E-18
 -1      1824 1.08537E-04-3.39744E-05-3.20169E-05 1.53693E-06-3.12324E-19-2.17277E-18
 -1      1825 1.08722E-04-3.38619E-05-3.20914E-05 4.27262E-07-1.70409E-19-2.14038E-18
 -1      1826 1.08735E-04-3.48517E-05-3.16411E-05 2.48247E-06-6.14238E-19-2.14341E-18
 -1      1827 1.08124E-04-3.34651E-05-3.20495E-05-7.31784E-07-6.84009E-19-2.56525E-18
 -1      1828 1.07781E-04-3.31509E-05-3.19889E-05-1.50968E-06-6.42177E-19-2.91629E-18
 -1      1829 1.07813E-04-3.40830E-05-3.15882E-05-4.68523E-07-7.52351E-19-2.24512E-18
 -1      1830 1.07029E-04-3.27145E-05-3.18854E-05-2.22962E-06-3.42744E-19-3.05026E-18
 -1      1831 1.06351E-04-3.23257E-05-3.17270E-05-2.66857E-06-3.76028E-19-3.09668E-18
 -1      1832 1.06390E-04-3.30209E-05-3.14420E-05-2.51473E-06-7.76054E-19-2.56349E-18
 -1      1833 1.05563E-04-3.19274E-05-3.15779E-05-3.00862E-06-2.05886E-19-3.08578E-18
 -1      1834 1.04721E-04-3.15402E-05-3.13633E-05-3.17698E-06 9.36914E-20-3.00639E-18
 -1      1835 1.04787E-04-3.19751E-05-3.12078E-05-3.65773E-06-2.19122E-19-2.80751E-18
 -1      1836 1.03966E-04-3.12076E-05-3.11887E-05-3.24191E-06 3.96242E-19-2.74912E-18
 -1      1837 1.03087E-04-3.08593E-05-3.09532E-05-3.22653E-06 8.12271E-19-2.49695E-18
 -1      1838 1.03197E-04-3.10845E-05-3.09107E-05-4.08387E-06 4.44776E-19-2.63246E-18
 -1      1839 1.02401E-04-3.05942E-05-3.07716E-05-3.11861E-06 8.53651E-19-2.26804E-18
 -1      1840 1.01567E-04-3.02987E-05-3.05406E-05-2.99590E-06 3.56997E-19-2.17285E-18
 -1      1841 1.01726E-04-3.03824E-05-3.05822E-05-4.02125E-06 8.66147E-19-1.30807E-18
 -1      1842 1.00965E-04-3.00924E-05-3.03659E-05-2.79575E-06 2.07770E-19-1.57879E-18
 -1      1843 1.00221E-04-2.98510E-05-3.01549E-05-2.62219E-06 1.25480E-19-9.11362E-19
 -1      1844 1.00422E-04-2.98520E-05-3.02509E-05-3.66984E-06 5.82903E-19-1.12320E-18
 -1      1845 9.97085E-05-2.96928E-05-2.99961E-05-2.38583E-06-2.76098E-19-8.39915E-19
 -1      1846 9.90736E-05-2.95011E-05-2.98130E-05-2.19857E-06-3.81784E-19-8.73431E-19
 -1      1847 9.93011E-05-2.94612E-05-2.99381E-05-3.17879E-06 1.76310E-19-5.86912E-19
 -1      1848 9.86477E-05-2.93808E-05-2.96746E-05-1.96116E-06-5.74236E-19-2.13771E-19
 -1      1849 9.81249E-05-2.92321E-05-2.95216E-05-1.78213E-06-1.06145E-19-1.69913E-19
 -1      1850 9.83626E-05-2.91774E-05-2.96572E-05-2.64774E-06 5.83295E-20 3.17627E-21
 -1      1851 9.77785E-05-2.91416E-05-2.94052E-05-1.56347E-06 2.19187E-19-1.76144E-19
 -1      1852 9.73603E-05-2.90287E-05-2.92814E-05-1.40400E-06-5.54128E-20-2.80053E-19
 -1      1853 9.75939E-05-2.89737E-05-2.94145E-05-2.13697E-06-1.35076E-19 4.63918E-19
 -1      1854 9.70844E-05-2.89613E-05-2.91862E-05-1.21349E-06-9.11776E-20-4.55413E-19
 -1      1855 9.67584E-05-2.88773E-05-2.90886E-05-1.07806E-06-5.84320E-21-6.31356E-19
 -1      1856 9.69772E-05-2.88290E-05-2.92115E-05-1.67861E-06 9.71313E-20 3.55456E-19
 -1      1857 9.65428E-05-2.88279E-05-2.90128E-05-9.18580E-07-1.65164E-19-7.49656E-19
 -1      1858 9.62948E-05-2.87668E-05-2.89378E-05-8.07597E-07 1.19562E-19-6.37136E-19
 -1      1859 9.64920E-05-2.87277E-05-2.90462E-05-1.28624E-06-2.21907E-19 1.08386E-18
 -1      1860 9.61297E-05-2.87311E-05-2.88786E-05-6.78210E-07 3.80704E-19-1.01848E-18
 -1      1861 9.59455E-05-2.86878E-05-2.88224E-05-5.89855E-07 6.95053E-19-8.12388E-19
 -1      1862 9.61176E-05-2.86579E-05-2.89150E-05-9.62053E-07-7.34139E-20-1.34463E-19
 -1      1863 9.58217E-05-2.86626E-05-2.87773E-05-4.87619E-07 5.51433E-19-1.15903E-18
 -1      1864 9.56883E-05-2.86328E-05-2.87361E-05-4.19035E-07 2.13481E-19-1.04348E-18
 -1      1865 9.58345E-05-2.86111E-05-2.88131E-05-7.01785E-07 3.87225E-19-3.97512E-19
 -1      1866 9.55974E-05-2.86154E-05-2.87026E-05-3.40154E-07-5.73668E-19-7.44541E-19
 -1      1867 9.55035E-05-2.85957E-05-2.86732E-05-2.88161E-07-6.23791E-19-1.15947E-18
 -1      1868 9.56249E-05-2.85808E-05-2.87356E-05-4.97991E-07-6.16376E-20-5.61429E-19
 -1      1869 9.54385E-05-2.85842E-05-2.86488E-05-2.28676E-07-7.73082E-19-1.11245E-18
 -1      1870 9.53747E-05-2.85718E-05-2.86286E-05-1.90177E-07-8.77356E-19-9.22938E-19
 -1      1871 9.54733E-05-2.85621E-05-2.86781E-05-3.42067E-07-6.30602E-19-4.09507E-19
 -1      1872 9.53295E-05-2.85645E-05-2.86113E-05-1.46349E-07-5.97855E-19-7.66954E-19
 -1      1873 9.52879E-05-2.85574E-05-2.85979E-05-1.18543E-07 2.71608E-19-3.66878E-20
 -1      1874 9.53664E-05-2.85516E-05-2.86364E-05-2.25449E-07-3.78173E-19 4.17400E-19
 -1      1875 9.52576E-05-2.85531E-05-2.85861E-05-8.70509E-08 3.02940E-19 1.15793E-19
 -1      1876 9.52323E-05-2.85496E-05-2.85776E-05-6.75239E-08-4.11781E-21 2.04105E-19
 -1      1877 9.52936E-05-2.85466E-05-2.86070E-05-1.40266E-07 4.10340E-19 5.87947E-19
 -1      1878 9.52130E-05-2.85474E-05-2.85698E-05-4.55327E-08-1.27352E-18-4.10199E-19
 -1      1879 9.51991E-05-2.85463E-05-2.85650E-05-3.22728E-08-1.04483E-18-9.52990E-19
 -1      1880 9.52461E-05-2.85452E-05-2.85869E-05-7.96426E-08-7.30664E-19-1.48224E-19
 -1      1881 9.51877E-05-2.85455E-05-2.85602E-05-1.74414E-08-5.78741E-19-1.85634E-18
 -1      1882 9.51816E-05-2.85460E-05-2.85578E-05-8.81951E-09-3.46126E-19-1.95045E-18
 -1      1883 9.52168E-05-2.85461E-05-2.85738E-05-3.77872E-08-1.34087E-18-1.75480E-19
 -1      1884 9.51757E-05-2.85461E-05-2.85551E-05 7.37414E-10-2.63052E-19-2.22299E-18
 -1      1885 9.51748E-05-2.85474E-05-2.85543E-05 6.00967E-09 4.85011E-20-2.98431E-18
 -1      1886 9.52006E-05-2.85482E-05-2.85657E-05-9.96283E-09-4.89578E-19-1.38862E-18
 -1      1887 9.51726E-05-2.85480E-05-2.85531E-05 1.17756E-08 6.71000E-19-2.41989E-18
 -1      1888 9.51749E-05-2.85499E-05-2.85534E-05 1.46947E-08 5.08571E-19-1.71895E-18
 -1      1889 9.51933E-05-2.85510E-05-2.85613E-05 7.61189E-09 5.62819E-19-3.06064E-19
 -1      1890 9.51751E-05-2.85508E-05-2.85531E-05 1.78117E-08 3.97797E-19-2.46817E-18
 -1      1891 9.51792E-05-2.85528E-05-2.85541E-05 1.91317E-08 4.12205E-19-1.76271E-18
 -1      1892 9.51919E-05-2.85540E-05-2.85593E-05 1.78888E-08 2.59064E-19-4.71781E-19
 -1      1893 9.51809E-05-2.85538E-05-2.85544E-05 2.04596E-08-5.47398E-20-1.42745E-18
 -1      1894 9.51859E-05-2.85558E-05-2.85557E-05 2.07374E-08-2.14214E-19-1.01560E-18
 -1      1895 9.51942E-05-2.85570E-05-2.85589E-05 2.31220E-08 5.74584E-19-5.67713E-19
 -1      1896 9.51884E-05-2.85569E-05-2.85564E-05 2.09075E-08-4.80247E-19-1.52118E-18
 -1      1897 9.51936E-05-2.85587E-05-2.85578E-05 2.05432E-08 1.73780E-19-1.34333E-18
 -1      1898 9.51986E-05-2.85598E-05-2.85595E-05 2.49935E-08-6.55866E-19 3.72492E-19
 -1      1899 9.51965E-05-2.85598E-05-2.85586E-05 2.00046E-08 6.51229E-19-1.65556E-18
 -1      1900 9.52016E-05-2.85615E-05-2.85600E-05 1.92736E-08 7.04424E-19-8.56988E-19
 -1      1901 9.52041E-05-2.85623E-05-2.85608E-05 2.47246E-08 3.41782E-19-6.37235E-19
 -1      1902 9.52045E-05-2.85624E-05-2.85609E-05 1.83314E-08 1.29672E-18-1.08718E-18
 -1      1903 9.52092E-05-2.85639E-05-2.85623E-05 1.74113E-08 1.03027E-18 1.10752E-19
 -1      1904 9.52099E-05-2.85645E-05-2.85623E-05 2.31700E-08 1.30270E-18-6.43000E-19
 -1      1905 9.52119E-05-2.85648E-05-2.85631E-05 1.62563E-08 7.07330E-19 6.31540E-19
 -1      1906 9.52162E-05-2.85661E-05-2.85643E-05 1.52458E-08 1.93271E-18 1.72274E-18
 -1      1907 9.52156E-05-2.85665E-05-2.85639E-05 2.08943E-08 1.51260E-18 9.14428E-19
 -1      1908 9.52187E-05-2.85668E-05-2.85651E-05 1.39775E-08 7.64936E-19 1.56900E-18
 -1      1909 9.52223E-05-2.85680E-05-2.85662E-05 1.29104E-08 5.37924E-19 8.90261E-19
 -1      1910 9.52209E-05-2.85682E-05-2.85655E-05 1.82322E-08 8.52530E-19 1.81885E-18
 -1      1911 9.52245E-05-2.85687E-05-2.85669E-05 1.15592E-08 7.21972E-19-4.55907E-19
 -1      1912 9.52275E-05-2.85696E-05-2.85677E-05 1.04186E-08 6.98483E-19-1.02919E-18
 -1      1913 9.52257E-05-2.85697E-05-2.85668E-05 1.53367E-08-1.23587E-19 1.55432E-18
 -1      1914 9.52294E-05-2.85703E-05-2.85683E-05 8.96534E-09 1.08351E-18-1.74461E-18
 -1      1915 9.52317E-05-2.85711E-05-2.85689E-05 7.69296E-09 5.16307E-19-8.81403E-19
 -1      1916 9.52298E-05-2.85711E-05-2.85680E-05 1.22335E-08 4.13644E-19-1.57701E-19
 -1      1917 9.52331E-05-2.85715E-05-2.85693E-05 6.19134E-09 4.25655E-19-1.87970E-18
 -1      1918 9.52348E-05-2.85721E-05-2.85698E-05 4.80981E-09 3.34692E-19-2.62087E-18
 -1      1919 9.52355E-05-2.85730E-05-2.85696E-05 5.66305E-09 9.88679E-20-2.79685E-18
 -1      1920 9.52331E-05-2.85723E-05-2.85689E-05 8.96683E-09 1.46551E-19-1.68005E-18
 -1      1921 1.14625E-04-3.42865E-05-3.44247E-05-1.87349E-06 9.86929E-19 3.64454E-18
 -1      1922 1.14565E-04-3.39056E-05-3.45181E-05-1.19111E-06 1.21946E-18 4.17238E-18
 -1      1923 1.13467E-04-3.30836E-05-3.44740E-05-8.33313E-07 1.46465E-18 2.91451E-18
 -1      1924 1.15469E-04-3.52671E-05-3.43896E-05-1.43164E-06 6.26310E-19 3.20851E-18
 -1      1925 1.15114E-04-3.48639E-05-3.43630E-05-1.69508E-06 5.99802E-19 3.43967E-18
 -1      1926 1.14067E-04-3.45164E-05-3.41096E-05-1.92883E-06 8.70668E-19 2.66437E-18
 -1      1927 1.16017E-04-3.61093E-05-3.42790E-05 8.17783E-07 1.17215E-19 3.41015E-18
 -1      1928 1.16009E-04-3.58625E-05-3.43470E-05-3.18479E-07 2.75564E-19 3.25701E-18
 -1      1929 1.15166E-04-3.59063E-05-3.39718E-05-6.72385E-07 3.70107E-19 2.43975E-18
 -1      1930 1.15319E-04-3.62974E-05-3.38886E-05 4.51624E-06-3.08651E-19 3.42511E-18
 -1      1931 1.16172E-04-3.64896E-05-3.41660E-05 2.66838E-06-2.25681E-19 3.42962E-18
 -1      1932 1.15937E-04-3.69750E-05-3.38195E-05 2.62929E-06-1.81861E-19 2.61420E-18
 -1      1933 1.12647E-04-3.51604E-05-3.32001E-05 8.46248E-06 5.68194E-19 3.33808E-18
 -1      1934 1.14620E-04-3.60555E-05-3.36940E-05 6.50133E-06 7.10714E-20 3.39949E-18
 -1      1935 1.15421E-04-3.69497E-05-3.35826E-05 7.16603E-06 8.84488E-20 2.56125E-18
 -1      1936 1.08041E-04-3.24022E-05-3.23894E-05 1.04240E-05 9.24474E-19 3.30324E-18
 -1      1937 1.10882E-04-3.39797E-05-3.29814E-05 9.45657E-06 8.45752E-19 3.48397E-18
 -1      1938 1.12902E-04-3.50281E-05-3.33250E-05 1.10080E-05 7.78883E-19 2.65814E-18
 -1      1939 1.02968E-04-2.89093E-05-3.17407E-05 8.15478E-06 9.33152E-19 2.22414E-18
 -1      1940 1.05742E-04-3.05707E-05-3.22266E-05 9.23840E-06 9.33397E-19 2.90855E-18
 -1      1941 1.08703E-04-3.13437E-05-3.31571E-05 1.13591E-05 1.14741E-18 2.46644E-18
 -1      1942 1.00129E-04-2.67973E-05-3.14918E-05 1.58979E-06 4.28175E-19 1.64350E-18
 -1      1943 1.01499E-04-2.75452E-05-3.16796E-05 4.65933E-06 7.44277E-19 1.91095E-18
 -1      1944 1.04790E-04-2.76747E-05-3.31214E-05 6.43111E-06 9.83961E-19 1.76442E-18
 -1      1945 1.01533E-04-2.77338E-05-3.17246E-05-6.04346E-06 1.16748E-18 3.87306E-19
 -1      1946 1.00667E-04-2.70152E-05-3.15337E-05-2.57758E-06 8.05158E-19 8.58944E-19
 -1      1947 1.03788E-04-2.66031E-05-3.31707E-05-2.16842E-06 1.08860E-18 4.93043E-19
 -1      1948 1.06450E-04-3.10690E-05-3.23580E-05-1.05733E-05 1.59459E-18-3.83918E-19
 -1      1949 1.03758E-04-2.93651E-05-3.18568E-05-8.56678E-06 1.32598E-18 2.64698E-22
 -1      1950 1.06523E-04-2.90304E-05-3.32568E-05-9.76961E-06 1.55010E-18-1.05266E-18
 -1      1951 1.12036E-04-3.45325E-05-3.31953E-05-1.03947E-05 1.17183E-18-1.52833E-18
 -1      1952 1.08832E-04-3.28485E-05-3.25664E-05-1.04335E-05 1.45719E-18-8.17387E-19
 -1      1953 1.11078E-04-3.31222E-05-3.34001E-05-1.25219E-05 1.84403E-18-1.55996E-18
 -1      1954 1.15898E-04-3.65358E-05-3.39542E-05-6.88690E-06-1.46378E-20-8.75197E-19
 -1      1955 1.13414E-04-3.55317E-05-3.34136E-05-8.32996E-06 4.18911E-19-1.07492E-18
 -1      1956 1.14819E-04-3.63394E-05-3.36121E-05-1.02808E-05 4.86091E-19-9.98275E-19
 -1      1957 1.17227E-04-3.68594E-05-3.43897E-05-2.49318E-06 1.64252E-19-8.56057E-19
 -1      1958 1.16026E-04-3.66071E-05-3.40893E-05-4.30881E-06 6.35275E-21-8.84696E-19
 -1      1959 1.16386E-04-3.75248E-05-3.37987E-05-5.49426E-06 1.61466E-20-1.08177E-18
 -1      1960 1.16453E-04-3.61108E-05-3.44020E-05 1.09323E-06-4.68846E-20-1.41672E-18
 -1      1961 1.16468E-04-3.63679E-05-3.43796E-05-4.01819E-07-9.94867E-20-9.65611E-19
 -1      1962 1.15882E-04-3.69962E-05-3.38264E-05-6.95858E-07 1.03788E-19-1.33113E-18
 -1      1963 1.14375E-04-3.49280E-05-3.40401E-05 3.31205E-06 7.22512E-19-1.22789E-18
 -1      1964 1.15247E-04-3.54318E-05-3.42443E-05 2.37123E-06 3.61531E-19-1.39105E-18
 -1      1965 1.14054E-04-3.56468E-05-3.36233E-05 2.78738E-06 6.80028E-19-1.07722E-18
 -1      1966 1.11695E-04-3.37018E-05-3.34301E-05 4.30511E-06-1.46689E-19-3.56475E-19
 -1      1967 1.13030E-04-3.42750E-05-3.37741E-05 3.86668E-06 5.51772E-19-5.61503E-19
 -1      1968 1.11601E-04-3.41533E-05-3.32064E-05 4.72290E-06 2.85774E-19-5.10109E-19
 -1      1969 1.08893E-04-3.26034E-05-3.27051E-05 4.45291E-06-8.96745E-19-2.33596E-20
 -1      1970 1.10384E-04-3.31519E-05-3.31075E-05 4.36552E-06-6.14847E-19-2.92051E-19
 -1      1971 1.08993E-04-3.28354E-05-3.26470E-05 5.42190E-06-3.81622E-19-3.16751E-19
 -1      1972 1.06251E-04-3.16818E-05-3.19681E-05 4.11826E-06-6.69101E-19 4.17015E-20
 -1      1973 1.07701E-04-3.21650E-05-3.23704E-05 4.23494E-06-5.73187E-19 4.47405E-20
 -1      1974 1.06497E-04-3.17768E-05-3.20268E-05 5.32107E-06-5.68820E-19-3.70825E-19
 -1      1975 1.03911E-04-3.09340E-05-3.12840E-05 3.56317E-06-6.96155E-20 1.03568E-18
 -1      1976 1.05212E-04-3.13395E-05-3.16517E-05 3.77633E-06-5.71904E-19 3.34270E-19
 -1      1977 1.04251E-04-3.09588E-05-3.14122E-05 4.78945E-06-6.86643E-19 5.76204E-19
 -1      1978 1.01924E-04-3.03388E-05-3.06855E-05 2.94930E-06 3.17037E-19 1.29904E-18
 -1      1979 1.03033E-04-3.06685E-05-3.10028E-05 3.19165E-06 6.33223E-19 1.75060E-18
 -1      1980 1.02309E-04-3.03354E-05-3.08465E-05 4.08055E-06 1.64154E-19 1.72695E-18
 -1      1981 1.00290E-04-2.98721E-05-3.01833E-05 2.36417E-06-4.02686E-19 1.00122E-18
 -1      1982 1.01201E-04-3.01337E-05-3.04462E-05 2.59862E-06-5.57851E-20 1.08269E-18
 -1      1983 1.00681E-04-2.98620E-05-3.03520E-05 3.34620E-06 2.23082E-19 1.25500E-18
 -1      1984 9.89796E-05-2.95108E-05-2.97748E-05 1.84803E-06-1.97138E-18 1.80588E-18
 -1      1985 9.97069E-05-2.97144E-05-2.99862E-05 2.05697E-06-1.51508E-18 9.71366E-19
 -1      1986 9.93511E-05-2.95033E-05-2.99359E-05 2.66619E-06-1.27292E-18 1.31059E-18
 -1      1987 9.79503E-05-2.92350E-05-2.94508E-05 1.41391E-06-5.01096E-19 2.68546E-18
 -1      1988 9.85179E-05-2.93905E-05-2.96166E-05 1.59110E-06-1.17853E-18 2.08812E-18
 -1      1989 9.82865E-05-2.92325E-05-2.95960E-05 2.07524E-06-1.57235E-18 1.88699E-18
 -1      1990 9.71576E-05-2.90274E-05-2.91992E-05 1.06048E-06 6.25154E-19 2.24331E-18
 -1      1991 9.75915E-05-2.91442E-05-2.93266E-05 1.20577E-06 4.78772E-19 2.84892E-18
 -1      1992 9.74509E-05-2.90296E-05-2.93250E-05 1.58238E-06-3.41055E-20 1.99375E-18
 -1      1993 9.65582E-05-2.88738E-05-2.90077E-05 7.79739E-07 6.56571E-19 2.92898E-18
 -1      1994 9.68836E-05-2.89598E-05-2.91037E-05 8.95918E-07 5.56796E-19 2.05211E-18
 -1      1995 9.68068E-05-2.88793E-05-2.91134E-05 1.18321E-06 7.66565E-19 1.44975E-18
 -1      1996 9.61135E-05-2.87623E-05-2.88647E-05 5.61205E-07 8.04576E-19 1.83773E-18
 -1      1997 9.63527E-05-2.88243E-05-2.89355E-05 6.52222E-07 4.33622E-19 2.46294E-18
 -1      1998 9.63192E-05-2.87696E-05-2.89513E-05 8.67244E-07 8.39281E-19 1.95135E-18
 -1      1999 9.57903E-05-2.86830E-05-2.87599E-05 3.94170E-07 8.49712E-19 1.91273E-18
 -1      2000 9.59624E-05-2.87268E-05-2.88112E-05 4.64187E-07 1.05039E-18 2.36117E-18
 -1      2001 9.59569E-05-2.86910E-05-2.88296E-05 6.21976E-07 8.09089E-19 1.25382E-18
 -1      2002 9.55606E-05-2.86282E-05-2.86849E-05 2.68737E-07 1.40650E-19 1.33651E-18
 -1      2003 9.56814E-05-2.86582E-05-2.87211E-05 3.21668E-07 4.14930E-20 1.78359E-18
 -1      2004 9.56930E-05-2.86361E-05-2.87398E-05 4.34976E-07 3.72808E-19 2.94467E-18
 -1      2005 9.54019E-05-2.85915E-05-2.86326E-05 1.76257E-07-1.14636E-18 1.83887E-18
 -1      2006 9.54842E-05-2.86113E-05-2.86574E-05 2.15562E-07-4.18531E-19 1.42080E-18
 -1      2007 9.55051E-05-2.85989E-05-2.86751E-05 2.94908E-07-4.13918E-19 2.23218E-18
 -1      2008 9.52959E-05-2.85682E-05-2.85972E-05 1.09428E-07-6.75084E-19 9.76869E-19
 -1      2009 9.53498E-05-2.85806E-05-2.86136E-05 1.38058E-07-9.39270E-19 1.06690E-18
 -1      2010 9.53750E-05-2.85747E-05-2.86296E-05 1.91928E-07-6.02165E-19 4.43299E-19
 -1      2011 9.52285E-05-2.85543E-05-2.85743E-05 6.22393E-08-7.13356E-19 1.36118E-18
 -1      2012 9.52619E-05-2.85615E-05-2.85846E-05 8.26434E-08-7.77223E-19 5.49168E-19
 -1      2013 9.52880E-05-2.85598E-05-2.85985E-05 1.17755E-07-5.66976E-19-2.74450E-19
 -1      2014 9.51886E-05-2.85471E-05-2.85603E-05 2.98395E-08 8.81455E-19 1.28332E-18
 -1      2015 9.52074E-05-2.85506E-05-2.85663E-05 4.40089E-08-6.93755E-20 1.51802E-18
 -1      2016 9.52324E-05-2.85516E-05-2.85780E-05 6.55911E-08-2.93145E-19 2.03230E-19
 -1      2017 9.51678E-05-2.85443E-05-2.85527E-05 8.37790E-09 1.83060E-18 4.52835E-19
 -1      2018 9.51767E-05-2.85454E-05-2.85557E-05 1.79038E-08 1.66888E-18 1.19547E-18
 -1      2019 9.51994E-05-2.85479E-05-2.85653E-05 2.99576E-08 1.77287E-18 1.99988E-19
 -1      2020 9.51599E-05-2.85443E-05-2.85493E-05-5.15308E-09 1.65908E-18-4.58762E-19
 -1      2021 9.51622E-05-2.85440E-05-2.85503E-05 9.80464E-10 1.32197E-18-3.28354E-19
 -1      2022 9.51820E-05-2.85472E-05-2.85581E-05 6.51525E-09 2.04049E-18-1.50814E-19
 -1      2023 9.51603E-05-2.85462E-05-2.85487E-05-1.30658E-08-6.68633E-19-5.55936E-19
 -1      2024 9.51585E-05-2.85449E-05-2.85484E-05-9.35648E-09 6.29139E-19-3.95123E-20
 -1      2025 9.51753E-05-2.85484E-05-2.85546E-05-8.11850E-09 9.70169E-19 1.33245E-19
 -1      2026 9.51657E-05-2.85489E-05-2.85499E-05-1.71088E-08-3.14215E-19 3.70569E-19
 -1      2027 9.51616E-05-2.85472E-05-2.85489E-05-1.50867E-08-5.29067E-19-1.04549E-19
 -1      2028 9.51754E-05-2.85506E-05-2.85537E-05-1.65379E-08-6.38987E-19 1.81522E-19
 -1      2029 9.51740E-05-2.85521E-05-2.85521E-05-1.85798E-08-1.90797E-18 1.18979E-18
 -1      2030 9.51686E-05-2.85502E-05-2.85506E-05-1.76940E-08-1.66082E-18-6.49658E-20
 -1      2031 9.51797E-05-2.85533E-05-2.85543E-05-2.06988E-08-1.48015E-18 3.76712E-19
 -1      2032 9.51834E-05-2.85554E-05-2.85548E-05-1.84203E-08-8.00960E-19 2.26325E-18
 -1      2033 9.51776E-05-2.85535E-05-2.85532E-05-1.82680E-08-1.22014E-18 1.92789E-18
 -1      2034 9.51864E-05-2.85562E-05-2.85559E-05-2.20466E-08-2.20631E-18 8.58269E-19
 -1      2035 9.51931E-05-2.85586E-05-2.85576E-05-1.72928E-08-2.46247E-19 2.73922E-18
 -1      2036 9.51873E-05-2.85567E-05-2.85560E-05-1.75883E-08-4.21393E-19 2.34347E-18
 -1      2037 9.51940E-05-2.85590E-05-2.85579E-05-2.16238E-08-7.77216E-19 1.10405E-18
 -1      2038 9.52023E-05-2.85614E-05-2.85603E-05-1.56424E-08-8.05489E-19 1.95572E-18
 -1      2039 9.51969E-05-2.85597E-05-2.85588E-05-1.61922E-08-5.26513E-19 2.47442E-18
 -1      2040 9.52019E-05-2.85616E-05-2.85602E-05-2.01566E-08-3.88881E-19 2.18648E-18
 -1      2041 9.52108E-05-2.85640E-05-2.85629E-05-1.37424E-08 2.50149E-18 5.61890E-19
 -1      2042 9.52059E-05-2.85625E-05-2.85615E-05-1.44269E-08 3.55431E-19 1.07215E-18
 -1      2043 9.52094E-05-2.85640E-05-2.85624E-05-1.81236E-08 9.35479E-19 6.79985E-19
 -1      2044 9.52182E-05-2.85663E-05-2.85651E-05-1.17280E-08 2.57614E-18 1.74138E-18
 -1      2045 9.52139E-05-2.85650E-05-2.85639E-05-1.24889E-08 3.13640E-18 2.15655E-18
 -1      2046 9.52163E-05-2.85661E-05-2.85644E-05-1.58071E-08 2.11817E-18 2.86435E-18
 -1      2047 9.52246E-05-2.85682E-05-2.85670E-05-9.61827E-09 1.23072E-18 3.29217E-18
 -1      2048 9.52210E-05-2.85671E-05-2.85660E-05-1.04514E-08 1.36538E-18 3.03424E-18
 -1      2049 9.52224E-05-2.85680E-05-2.85662E-05-1.33315E-08 8.77880E-19 4.93248E-18
 -1      2050 9.52297E-05-2.85699E-05-2.85685E-05-7.34710E-09-2.02724E-18 3.80984E-18
 -1      2051 9.52269E-05-2.85690E-05-2.85677E-05-8.28978E-09-2.09447E-19 3.66520E-18
 -1      2052 9.52276E-05-2.85696E-05-2.85677E-05-1.06947E-08 2.27037E-19 4.67112E-18
 -1      2053 9.52336E-05-2.85712E-05-2.85696E-05-4.81394E-09-8.26075E-19 3.04254E-18
 -1      2054 9.52316E-05-2.85705E-05-2.85691E-05-5.92546E-09-1.28916E-18 3.16695E-18
 -1      2055 9.52318E-05-2.85710E-05-2.85689E-05-7.83315E-09-1.08115E-18 5.44976E-18
 -1      2056 9.52359E-05-2.85720E-05-2.85703E-05-2.73886E-09 3.41846E-19 4.26873E-18
 -1      2057 9.52345E-05-2.85716E-05-2.85699E-05-3.95979E-09-6.40842E-19 3.48440E-18
 -1      2058 9.52346E-05-2.85721E-05-2.85696E-05-5.37665E-09-7.84775E-19 4.83229E-18
 -1      2059 9.52362E-05-2.85727E-05-2.85700E-05-3.45934E-09 9.08613E-19 4.98058E-18
 -1      2060 9.52407E-05-2.85828E-05-2.85677E-05-8.23276E-09 3.84078E-18-2.39378E-19
 -1      2061 9.52397E-05-2.85806E-05-2.85682E-05-8.12794E-09 4.06771E-18-1.56332E-18
 -1      2062 9.52388E-05-2.85788E-05-2.85686E-05-7.69701E-09 2.71206E-18-5.19500E-19
 -1      2063 9.52378E-05-2.85768E-05-2.85690E-05-6.98419E-09 1.55617E-18 1.60178E-18
 -1      2064 9.52389E-05-2.85793E-05-2.85684E-05-1.00383E-08 1.69753E-18-6.59839E-19
 -1      2065 9.52373E-05-2.85755E-05-2.85693E-05-5.95130E-09 1.03400E-18 1.81101E-18
 -1      2066 9.52366E-05-2.85739E-05-2.85697E-05-4.78118E-09 4.63474E-19 3.75998E-18
 -1      2067 9.52359E-05-2.85736E-05-2.85695E-05-5.83064E-09-3.46056E-19 3.62288E-18
 -1      2068 9.52371E-05-2.85761E-05-2.85690E-05-8.36667E-09-1.13476E-19 2.01890E-18
 -1      2069 9.52424E-05-2.85865E-05-2.85668E-05-7.58684E-09 2.32275E-18-3.42268E-18
 -1      2070 9.52415E-05-2.85845E-05-2.85673E-05-7.99199E-09 3.59231E-18-9.35426E-19
 -1      2071 9.52410E-05-2.85830E-05-2.85677E-05-1.02124E-08 2.42719E-18-9.29386E-19
 -1      2072 9.52438E-05-2.85896E-05-2.85660E-05-5.93880E-09 1.30751E-18-1.71856E-18
 -1      2073 9.52431E-05-2.85880E-05-2.85664E-05-6.76175E-09 2.01140E-18-2.32702E-18
 -1      2074 9.52428E-05-2.85863E-05-2.85671E-05-9.00572E-09 2.31609E-18-3.24487E-18
 -1      2075 9.52447E-05-2.85918E-05-2.85655E-05-3.56721E-09 1.77885E-19-1.26197E-19
 -1      2076 9.52443E-05-2.85907E-05-2.85658E-05-4.67274E-09 1.14675E-18-7.42187E-19
 -1      2077 9.52443E-05-2.85889E-05-2.85666E-05-6.65258E-09 1.50629E-18-1.90024E-18
 -1      2078 9.52451E-05-2.85927E-05-2.85653E-05-7.83778E-10-1.02512E-18-3.62592E-19
 -1      2079 9.52450E-05-2.85924E-05-2.85654E-05-2.03144E-09-4.07127E-19-3.67935E-19
 -1      2080 9.52452E-05-2.85906E-05-2.85663E-05-3.50823E-09-3.62721E-19-9.30193E-19
 -1      2081 9.52450E-05-2.85923E-05-2.85654E-05 2.08709E-09-1.25231E-18-1.37380E-18
 -1      2082 9.52451E-05-2.85927E-05-2.85653E-05 8.41186E-10-4.37955E-19-1.22619E-18
 -1      2083 9.52455E-05-2.85912E-05-2.85661E-05 3.63673E-11-1.11885E-18-4.65138E-19
 -1      2084 9.52443E-05-2.85907E-05-2.85658E-05 4.71874E-09-1.39742E-18-1.82286E-18
 -1      2085 9.52447E-05-2.85918E-05-2.85655E-05 3.61879E-09-1.58134E-18-6.07170E-19
 -1      2086 9.52452E-05-2.85906E-05-2.85663E-05 3.57614E-09-1.24775E-18-1.42234E-18
 -1      2087 9.52431E-05-2.85880E-05-2.85665E-05 6.76375E-09-5.56266E-19-1.92369E-18
 -1      2088 9.52438E-05-2.85896E-05-2.85660E-05 5.95950E-09-9.69414E-19-2.37292E-18
 -1      2089 9.52443E-05-2.85889E-05-2.85666E-05 6.68553E-09-1.41227E-18-1.79968E-18
 -1      2090 9.52415E-05-2.85844E-05-2.85673E-05 7.99134E-09 1.67171E-18 2.88203E-18
 -1      2091 9.52424E-05-2.85865E-05-2.85668E-05 7.58691E-09 8.42852E-19 6.48190E-19
 -1      2092 9.52428E-05-2.85863E-05-2.85671E-05 9.00929E-09 8.82217E-19-4.36225E-19
 -1      2093 9.52397E-05-2.85805E-05-2.85682E-05 8.11403E-09 2.18778E-18 2.58808E-18
 -1      2094 9.52406E-05-2.85827E-05-2.85677E-05 8.22581E-09 1.93915E-18 2.70556E-18
 -1      2095 9.52410E-05-2.85829E-05-2.85677E-05 1.02075E-08 1.89213E-18 2.84668E-18
 -1      2096 9.52378E-05-2.85766E-05-2.85691E-05 6.99342E-09 1.30131E-19 2.22305E-19
 -1      2097 9.52388E-05-2.85787E-05-2.85686E-05 7.67343E-09 6.65899E-19 1.31025E-18
 -1      2098 9.52388E-05-2.85793E-05-2.85684E-05 1.00052E-08 9.32522E-19 6.05083E-19
 -1      2099 5.72199E-05-3.98459E-05-7.80435E-06 3.91810E-05 2.36322E-18 4.18230E-18
 -1      2100 4.23539E-05-4.03231E-05-2.02061E-06 3.21327E-05 1.67543E-18 4.21420E-18
 -1      2101 1.16585E-05-3.13750E-05 7.25363E-06 3.49785E-06 1.62524E-18 4.48207E-18
 -1      2102 1.27142E-05-3.28379E-05 7.31012E-06-7.22435E-06 2.36428E-19 5.36341E-18
 -1      2103 2.84632E-05-3.47520E-05 1.94343E-06 2.68112E-05 2.35687E-18 4.45730E-18
 -1      2104 1.93713E-05-3.41006E-05 5.12819E-06 1.76208E-05 1.63795E-18 3.61768E-18
 -1      2105 4.42951E-05-3.51605E-05-4.24602E-06 3.60288E-05-6.28922E-20 3.86543E-18
 -1      2106 9.21140E-05-4.47511E-05-2.04712E-05 4.21994E-05 3.28733E-18 2.96313E-18
 -1      2107 7.27769E-05-4.55742E-05-1.27569E-05 3.77166E-05 2.46741E-18 3.65230E-18
 -1      2108 7.60958E-05-4.73612E-05-1.23969E-05 4.17442E-05-2.85874E-19 2.77922E-18
 -1      2109 1.33846E-04-4.49562E-05-3.75287E-05 3.43234E-05 4.48335E-18 1.33196E-18
 -1      2110 1.13893E-04-4.71732E-05-2.91679E-05 3.33133E-05 4.10769E-18 1.69068E-18
 -1      2111 8.85440E-05-9.69593E-06-3.39024E-05-3.81939E-06-8.81927E-19-2.72002E-18
 -1      2112 9.14544E-05-1.07575E-05-3.46618E-05-5.66768E-06-1.18525E-18-2.40155E-18
 -1      2113 9.54644E-05-1.53933E-05-3.43682E-05-5.76192E-06-1.33870E-18-1.99725E-18
 -1      2114 8.89537E-05-1.18639E-05-3.30906E-05-2.49227E-06-8.27693E-19-2.67263E-18
 -1      2115 1.79591E-04-3.09576E-05-6.24709E-05 9.80247E-06 4.83868E-18-1.35610E-18
 -1      2116 1.67552E-04-3.19496E-05-5.75847E-05 1.53316E-05 5.24906E-18 7.75035E-20
 -1      2117 1.83859E-04-2.49966E-05-6.70755E-05-4.21483E-07 4.81792E-18-2.46521E-18
 -1      2118 1.82279E-04-2.61016E-05-6.57628E-05 7.16311E-06 4.88230E-18-1.35652E-18
 -1      2119 1.72006E-04-2.34136E-05-6.31804E-05-5.05619E-06 4.59134E-18-3.43514E-18
 -1      2120 1.80338E-04-2.39013E-05-6.58283E-05-1.17833E-06 4.80141E-18-2.73338E-18
 -1      2121 1.62944E-04-3.46536E-05-5.45147E-05-1.79540E-05 4.83015E-18-4.42575E-18
 -1      2122 1.72530E-04-3.18128E-05-5.96324E-05-9.83424E-06 4.41939E-18-3.70916E-18
 -1      2123 1.38937E-04-4.52632E-05-4.03297E-05-2.32910E-05 3.52027E-18-3.60582E-18
 -1      2124 1.56924E-04-4.09216E-05-4.86314E-05-2.45420E-05 4.46111E-18-4.33300E-18
 -1      2125 1.54923E-04-4.09764E-05-4.82669E-05-3.46659E-06 3.10596E-18-1.44504E-18
 -1      2126 9.67056E-05-4.45678E-05-2.31382E-05-3.73481E-05 3.54822E-18-5.39602E-18
 -1      2127 1.21007E-04-4.76230E-05-3.17928E-05-3.55802E-05 3.07727E-18-4.62861E-18
 -1      2128 5.87976E-05-4.12173E-05-9.05425E-06-3.53255E-05 2.99426E-18-5.09591E-18
 -1      2129 7.65915E-05-3.96441E-05-1.63349E-05-4.19736E-05 3.70789E-18-5.66242E-18
 -1      2130 2.99608E-05-3.59677E-05 1.18948E-06-2.66429E-05 1.49035E-18-4.92592E-18
 -1      2131 4.22944E-05-3.60758E-05-3.61190E-06-3.37306E-05 3.00188E-18-5.02778E-18
 -1      2132 1.31027E-05-3.00223E-05 6.01221E-06-6.87425E-06-1.00691E-19-5.29396E-18
 -1      2133 1.77202E-05-2.82057E-05 3.72174E-06-1.75069E-05 1.27034E-18-5.41339E-18
 -1      2134 1.53392E-05-2.48838E-05 3.58155E-06 1.53141E-05-8.40892E-19-5.28760E-18
 -1      2135 1.22187E-05-2.89866E-05 5.95546E-06 3.75358E-06 8.13416E-20-5.40280E-18
 -1      2136 1.55941E-05-1.76461E-05 6.10598E-07-2.04382E-06 3.21661E-19-6.09398E-18
 -1      2137 3.78636E-05-3.47432E-05-2.39445E-06 3.34986E-05-3.45081E-18-5.01147E-18
 -1      2138 2.68348E-05-3.26973E-05 1.52464E-06 2.77570E-05-1.77030E-18-4.77557E-18
 -1      2139 6.99619E-05-3.77677E-05-1.41436E-05 4.26055E-05-4.28683E-18-4.94085E-18
 -1      2140 5.39446E-05-3.96939E-05-7.46193E-06 3.61144E-05-3.54864E-18-4.71064E-18
 -1      2141 1.07952E-04-4.09186E-05-2.85892E-05 4.22431E-05-4.73364E-18-4.39102E-18
 -1      2142 8.74144E-05-4.15806E-05-2.06638E-05 3.89757E-05-4.46895E-18-4.95260E-18
 -1      2143 1.43570E-04-4.02637E-05-4.37680E-05 3.15919E-05-5.17219E-18-3.31275E-18
 -1      2144 1.23928E-04-4.09380E-05-3.59354E-05 3.35516E-05-4.97187E-18-3.94760E-18
 -1      2145 1.68302E-04-3.34439E-05-5.67956E-05 1.79478E-05-5.47967E-18-2.17772E-18
 -1      2146 1.52491E-04-3.46359E-05-5.04636E-05 2.00803E-05-5.56374E-18-2.61310E-18
 -1      2147 1.73342E-04-2.42139E-05-6.33231E-05 4.31197E-06-5.06610E-18-1.44483E-18
 -1      2148 1.70230E-04-2.75202E-05-6.04407E-05 1.24642E-05-5.38988E-18-2.32002E-18
 -1      2149 1.55731E-04-2.65779E-05-5.45204E-05-3.62026E-07-5.11883E-18-8.42163E-19
 -1      2150 1.78684E-04-2.27465E-05-6.57819E-05-3.48456E-06-4.52993E-18-3.39766E-19
 -1      2151 1.74479E-04-2.04806E-05-6.53700E-05 2.91721E-06-4.90983E-18-1.47744E-18
 -1      2152 1.68174E-04-2.63897E-05-6.02057E-05-1.15578E-05-3.99800E-18 7.14896E-19
 -1      2153 1.78507E-04-2.61119E-05-6.42297E-05-6.24456E-06-4.23389E-18-3.47919E-19
 -1      2154 1.49480E-04-3.58205E-05-4.84710E-05-2.58625E-05-3.72414E-18 2.27471E-18
 -1      2155 1.64914E-04-3.45659E-05-5.50767E-05-1.94298E-05-3.50650E-18 1.36711E-18
 -1      2156 1.19963E-04-4.23156E-05-3.36643E-05-3.35651E-05-3.90186E-18 2.35941E-18
 -1      2157 1.40464E-04-3.99807E-05-4.22863E-05-3.49732E-05-3.70895E-18 3.07176E-18
 -1      2158 1.47588E-04-4.44749E-05-4.34994E-05-1.53126E-05-2.51897E-18-1.05879E-20
 -1      2159 7.93899E-05-4.36889E-05-1.63468E-05-3.87831E-05-4.09540E-18 3.25324E-18
 -1      2160 1.00775E-04-4.29343E-05-2.47897E-05-4.29073E-05-4.00435E-18 2.32172E-18
 -1      2161 4.69488E-05-4.02891E-05-3.85429E-06-3.56703E-05-2.08370E-18 5.68094E-18
 -1      2162 6.16891E-05-3.90630E-05-1.01803E-05-4.10938E-05-4.01494E-18 4.91602E-18
 -1      2163 8.38925E-05-4.84988E-05-1.53207E-05-4.25694E-05-1.17526E-18 2.33043E-18
 -1      2164 1.83109E-05-3.65062E-05 6.06773E-06-1.72439E-05 3.98741E-19 6.59585E-18
 -1      2165 2.74453E-05-3.46705E-05 1.93738E-06-2.76806E-05-1.36457E-18 7.46660E-18
 -1      2166 1.63339E-04-3.81700E-05-5.25250E-05 2.44999E-05 5.42587E-18 1.59242E-19
 -1      2167 1.44181E-04-3.94769E-05-4.49888E-05 2.62653E-05 5.40513E-18 1.05032E-18
 -1      2168 1.10213E-04-2.87759E-05-3.49929E-05-6.47200E-06-1.84582E-18 8.48939E-19
 -1      2169 1.59080E-04-2.34721E-05-5.73647E-05 2.29945E-06 4.30716E-18-1.93251E-18
 -1      2170 1.59041E-04-3.56492E-05-5.19534E-05 3.79960E-06 5.06388E-18-1.53779E-18
 -1      2171 1.08220E-04-2.75176E-05-3.46613E-05-6.44081E-06-1.79593E-18-1.71921E-20
 -1      2172 1.95157E-05-2.51552E-05 1.96738E-06 1.38103E-05 4.83656E-19 4.85519E-18
 -1      2173 9.52370E-05-2.85754E-05-2.85693E-05 6.74879E-09 3.41584E-20-6.69508E-19
 -1      2174 1.14326E-04-5.56820E-05-2.50323E-05 3.41845E-05 1.36076E-18 7.31625E-19
 -1      2175 1.81435E-05-2.56155E-05 2.61727E-06-1.53763E-05 2.82168E-19 6.66403E-18
 -1      2176 1.45118E-04-5.05754E-05-4.00822E-05 1.70557E-05 3.39660E-18-1.23836E-18
 -1      2177 4.31121E-05-3.68240E-05-3.19739E-06-3.52440E-05-3.98953E-19 6.49208E-18
 -1      2178 5.87862E-05-3.90111E-05-8.88440E-06-4.26454E-05 8.09763E-19 4.53734E-18
 -1      2179 3.92403E-05-3.00959E-05-3.61858E-06-3.51626E-05 1.22523E-18 6.69071E-18
 -1      2180 1.21447E-04-5.25421E-05-2.93502E-05-3.24709E-05-2.00196E-18 5.25372E-19
 -1      2181 1.57514E-04-2.88518E-05-5.42978E-05-2.77597E-06-3.56664E-18-7.25907E-19
 -1      2182 1.57231E-04-1.51221E-05-6.01378E-05-1.46744E-06-5.08601E-18-1.22036E-18
 -1      2183 1.49393E-04-4.24805E-05-4.52193E-05 1.28342E-05-4.30465E-18-9.65618E-19
 -1      2184 1.25818E-04-5.08638E-05-3.18442E-05 3.08178E-05-3.09654E-18-2.23087E-18
 -1      2185 9.19379E-05-4.83268E-05-1.88028E-05 4.14967E-05-1.82197E-18-3.40391E-18
 -1      2186 2.46969E-05-2.55830E-05 2.89538E-08 2.35794E-05-3.24414E-19-5.08792E-18
 -1      2187 2.39698E-05-1.61860E-05-2.93442E-06 1.96893E-05 6.73391E-19-5.31174E-18
 -1      2188 3.45803E-05-2.40911E-05-4.63497E-06 3.23748E-05 5.74712E-19-4.63729E-18
 -1      2189 2.90386E-05-2.72528E-05-1.28620E-06-2.61914E-05 3.44954E-19-5.51990E-18
 -1      2190 6.10403E-05-4.12283E-05-9.05854E-06-4.02022E-05 9.49524E-19-4.73539E-18
 -1      2191 1.35197E-04-5.14702E-05-3.55870E-05-2.50426E-05 2.42844E-18-3.23694E-18
 -1      2192 1.43305E-04-5.49848E-05-3.83918E-05-1.09052E-05 1.30967E-18-9.10137E-19
 -1      2193 1.29618E-04-5.68215E-05-3.07530E-05-2.49249E-05 9.70912E-19-1.97105E-18
 -1      2194 1.62395E-04-2.06528E-05-5.96020E-05-2.52457E-06 5.44557E-18-1.32794E-18
 -1      2195 1.59805E-04-1.39200E-05-6.15353E-05 7.51741E-07 5.11396E-18-1.89394E-18
 -1      2196 9.93545E-05-5.08789E-05-2.06600E-05-3.91503E-05 1.35864E-18-4.22108E-18
 -1      2197 5.61280E-05-3.82798E-05-8.05680E-06 4.11841E-05-1.01559E-18-4.42829E-18
 -1      2198 1.57476E-04-1.44966E-05-6.03363E-05 1.27221E-06-4.80437E-18-1.24577E-18
 -1      2199 1.11363E-04-3.21414E-05-3.39616E-05-1.55460E-06 1.33863E-18 1.87861E-18
 -1      2200 1.11239E-04-3.10156E-05-3.43022E-05-1.72384E-07 1.58042E-18 2.08553E-18
 -1      2201 7.63933E-05-6.60436E-06-2.99694E-05 3.44350E-06 3.55393E-19-2.96800E-18
 -1      2202 7.92932E-05-8.10709E-06-3.04858E-05 2.83707E-06 4.34080E-20-2.98975E-18
 -1      2203 8.26017E-05-1.02744E-05-3.10555E-05 2.00358E-06-1.36617E-19-2.91367E-18
 -1      2204 8.58086E-05-1.19131E-05-3.16707E-05 8.10906E-07-4.12211E-19-2.80736E-18
 -1      2205 8.21693E-05-1.14654E-05-3.03246E-05 3.59540E-06 7.02409E-20-2.71649E-18
 -1      2206 6.91132E-05-1.83741E-06-2.88654E-05 2.18344E-06 1.00860E-18-2.96347E-18
 -1      2207 6.98816E-05-2.30319E-06-2.89562E-05 2.66392E-06 8.34864E-19-2.96664E-18
 -1      2208 6.99583E-05-2.09068E-06-2.90920E-05 4.52196E-07 1.35762E-18-2.85089E-18
 -1      2209 6.91185E-05-1.72874E-06-2.89041E-05 1.00924E-06 1.14273E-18-2.94197E-18
 -1      2210 6.90869E-05-2.74902E-06-2.83927E-05 1.71141E-06 1.08574E-18-2.87289E-18
 -1      2211 7.39664E-05-4.29226E-06-2.98474E-05-7.61006E-07 1.57488E-18-2.72405E-18
 -1      2212 7.16753E-05-3.17702E-06-2.94066E-05-5.38080E-07 1.38232E-18-2.83734E-18
 -1      2213 7.08936E-05-3.73629E-06-2.87471E-05-5.88660E-07 1.31908E-18-2.76572E-18
 -1      2214 8.05496E-05-8.06947E-06-3.10531E-05-7.77401E-07 1.84227E-18-2.06411E-18
 -1      2215 7.71190E-05-6.34039E-06-3.04014E-05-1.13413E-06 1.64649E-18-2.45161E-18
 -1      2216 7.60290E-05-6.88129E-06-2.96256E-05-2.02554E-06 1.48839E-18-2.45484E-18
 -1      2217 8.86410E-05-1.27979E-05-3.25228E-05 5.65710E-07 2.12135E-18-1.22088E-18
 -1      2218 8.45714E-05-1.06477E-05-3.17556E-05-3.78187E-07 1.92936E-18-1.65710E-18
 -1      2219 8.35738E-05-1.15080E-05-3.08956E-05-1.97511E-06 1.72212E-18-1.70612E-18
 -1      2220 9.74787E-05-1.82197E-05-3.40465E-05 2.76190E-06 2.35038E-18-1.63980E-19
 -1      2221 9.30562E-05-1.56229E-05-3.32623E-05 1.49511E-06 2.17897E-18-7.21910E-19
 -1      2222 9.22852E-05-1.68384E-05-3.23427E-05-6.18275E-07 1.97205E-18-8.42245E-19
 -1      2223 1.12671E-04-3.44929E-05-3.35405E-05-2.44303E-06 6.83870E-19 1.73669E-18
 -1      2224 1.12178E-04-3.34294E-05-3.36654E-05-2.43013E-06 9.77511E-19 1.83706E-18
 -1      2225 1.09461E-04-3.16672E-05-3.33852E-05-2.25763E-06 1.25089E-18 9.74065E-19
 -1      2226 1.07897E-04-3.02435E-05-3.32205E-05-2.71248E-06-1.19116E-18-3.36401E-19
 -1      2227 1.07867E-04-3.15705E-05-3.27521E-05-1.58615E-06-1.05811E-18-3.31133E-19
 -1      2228 1.46739E-04-2.76269E-05-5.14581E-05 8.65517E-06 3.33392E-18-6.61109E-19
 -1      2229 1.43898E-04-1.83455E-05-5.45096E-05 8.17912E-06 4.08778E-18-4.61739E-19
 -1      2230 1.08755E-04-3.29300E-05-3.24110E-05-1.32257E-06-9.10223E-19-1.31221E-19
 -1      2231 1.08761E-04-3.38311E-05-3.21543E-05-1.43202E-06-7.68479E-19-1.73413E-19
 -1      2232 1.07313E-04-3.18315E-05-3.24125E-05-1.36742E-06-9.72832E-19-7.22287E-19
 -1      2233 1.09711E-04-3.49453E-05-3.19884E-05-2.11416E-06-6.09826E-19 1.05254E-19
 -1      2234 1.09677E-04-3.55160E-05-3.18370E-05-3.13831E-06-4.59178E-19 5.33008E-20
 -1      2235 1.09121E-04-3.47536E-05-3.19044E-05-1.50484E-06-6.52928E-19-3.82409E-19
 -1      2236 1.10483E-04-3.61382E-05-3.18393E-05-4.65127E-06-4.63737E-19 1.32727E-19
 -1      2237 1.10089E-04-3.60598E-05-3.17689E-05-6.09799E-06-5.39079E-19 1.24554E-19
 -1      2238 1.10975E-04-3.68905E-05-3.17661E-05-3.67340E-06-4.88158E-19-3.90417E-20
 -1      2239 1.10324E-04-3.58233E-05-3.19502E-05-7.91303E-06-6.82312E-19 2.00920E-19
 -1      2240 1.09344E-04-3.47743E-05-3.19612E-05-9.11026E-06-7.22864E-19 4.72816E-21
 -1      2241 1.12110E-04-3.73468E-05-3.20288E-05-7.13748E-06-6.78609E-19-2.21023E-21
 -1      2242 1.08592E-04-3.33679E-05-3.23020E-05-1.02545E-05-7.16802E-19 1.45749E-19
 -1      2243 1.07097E-04-3.13978E-05-3.23859E-05-1.03491E-05-9.14667E-19 1.76034E-19
 -1      2244 1.11612E-04-3.52590E-05-3.26949E-05-1.04054E-05-7.05678E-19 2.25197E-19
 -1      2245 1.05479E-04-2.91379E-05-3.27921E-05-9.66983E-06-1.21847E-18 6.09930E-20
 -1      2246 1.04031E-04-2.70479E-05-3.29045E-05-8.04476E-06-1.25382E-18-3.59198E-19
 -1      2247 1.09108E-04-3.05870E-05-3.36279E-05-1.11799E-05-1.16432E-18-1.70980E-19
 -1      2248 1.02541E-04-2.51546E-05-3.32094E-05-5.18813E-06-1.28611E-18-5.36460E-19
 -1      2249 1.01877E-04-2.41314E-05-3.32761E-05-2.13791E-06-1.38782E-18-7.34500E-19
 -1      2250 1.05830E-04-2.53520E-05-3.45127E-05-7.63252E-06-1.48309E-18-2.59437E-19
 -1      2251 1.01743E-04-2.39762E-05-3.32994E-05 1.86287E-06-1.24816E-18-1.17238E-18
 -1      2252 1.02282E-04-2.47419E-05-3.32638E-05 5.01440E-06-1.00466E-18-1.49119E-18
 -1      2253 1.04114E-04-2.28031E-05-3.49215E-05-2.21644E-07-1.72234E-18-7.92535E-19
 -1      2254 1.03567E-04-2.64199E-05-3.29839E-05 8.16880E-06-8.17115E-19-1.66666E-18
 -1      2255 1.05002E-04-2.84862E-05-3.28730E-05 1.00415E-05-5.53374E-19-1.72192E-18
 -1      2256 1.05355E-04-2.47333E-05-3.46018E-05 7.48053E-06-1.03017E-18-1.02377E-18
 -1      2257 1.06660E-04-3.08321E-05-3.24308E-05 1.09860E-05-3.85218E-19-1.91190E-18
 -1      2258 1.08201E-04-3.29572E-05-3.23190E-05 1.10486E-05-1.28537E-19-1.60055E-18
 -1      2259 1.08498E-04-2.98187E-05-3.37008E-05 1.17236E-05-7.23957E-19-1.40584E-18
 -1      2260 1.09066E-04-3.46072E-05-3.18995E-05 9.95990E-06-2.44278E-19-2.15386E-18
 -1      2261 1.10096E-04-3.59093E-05-3.18307E-05 8.68606E-06-4.56617E-19-2.16536E-18
 -1      2262 1.11150E-04-3.48901E-05-3.26331E-05 1.12547E-05-3.72354E-19-2.37014E-18
 -1      2263 1.09884E-04-3.64115E-05-3.15262E-05 6.58549E-06-7.25427E-19-2.01617E-18
 -1      2264 1.10200E-04-3.67270E-05-3.14930E-05 4.77618E-06-6.31607E-19-1.98219E-18
 -1      2265 1.11830E-04-3.76797E-05-3.17460E-05 7.67964E-06-5.65033E-19-2.44677E-18
 -1      2266 1.09234E-04-3.63263E-05-3.13037E-05 2.64095E-06-5.05864E-19-1.67758E-18
 -1      2267 1.08964E-04-3.59573E-05-3.12736E-05 9.40439E-07-5.57765E-19-1.43512E-18
 -1      2268 1.10602E-04-3.79090E-05-3.11499E-05 3.18790E-06-3.59377E-19-1.82538E-18
 -1      2269 1.07714E-04-3.51339E-05-3.11590E-05-7.08917E-07-8.96545E-19-1.32521E-18
 -1      2270 1.07088E-04-3.44638E-05-3.11045E-05-1.98201E-06-9.11199E-19-1.48651E-18
 -1      2271 1.08322E-04-3.64907E-05-3.07989E-05-7.04520E-07-7.93327E-19-1.25889E-18
 -1      2272 1.05878E-04-3.35890E-05-3.10200E-05-3.02251E-06-9.96680E-19-1.39114E-18
 -1      2273 1.05095E-04-3.28850E-05-3.09291E-05-3.80487E-06-7.91307E-19-1.43657E-18
 -1      2274 1.05816E-04-3.44811E-05-3.05913E-05-3.41016E-06-1.03108E-18-1.08543E-18
 -1      2275 1.04065E-04-3.21442E-05-3.08463E-05-4.31774E-06-6.63196E-19-1.46790E-18
 -1      2276 1.03252E-04-3.15353E-05-3.07222E-05-4.68002E-06-1.31283E-19-1.51718E-18
 -1      2277 1.03548E-04-3.25688E-05-3.04371E-05-4.94053E-06-7.11415E-19-8.17673E-19
 -1      2278 1.02427E-04-3.09812E-05-3.06296E-05-4.80776E-06 5.96633E-19-1.93404E-18
 -1      2279 1.01655E-04-3.05055E-05-3.04837E-05-4.86548E-06 8.33153E-19-1.25123E-18
 -1      2280 1.01676E-04-3.10434E-05-3.02850E-05-5.54446E-06-1.42140E-19-4.80996E-19
 -1      2281 1.01011E-04-3.01236E-05-3.03810E-05-4.74584E-06 8.11275E-19-1.38943E-18
 -1      2282 1.00315E-04-2.97735E-05-3.02265E-05-4.61095E-06 8.58227E-19-1.60831E-18
 -1      2283 1.00197E-04-2.99512E-05-3.01158E-05-5.51175E-06 7.37415E-19-1.24831E-18
 -1      2284 9.98149E-05-2.95258E-05-3.01188E-05-4.35298E-06 1.01584E-18-1.79493E-18
 -1      2285 9.92092E-05-2.92778E-05-2.99673E-05-4.11425E-06 8.18777E-19-1.37394E-18
 -1      2286 9.90475E-05-2.92288E-05-2.99302E-05-5.09260E-06 8.65473E-19-2.09387E-18
 -1      2287 9.88195E-05-2.91254E-05-2.98607E-05-3.79500E-06 6.03689E-19-1.32067E-18
 -1      2288 9.83064E-05-2.89542E-05-2.97204E-05-3.51486E-06 4.49234E-19-8.92531E-19
 -1      2289 9.81553E-05-2.87826E-05-2.97373E-05-4.47431E-06 7.32593E-19-1.62785E-18
 -1      2290 9.80013E-05-2.88655E-05-2.96202E-05-3.18441E-06 3.71414E-19-1.04519E-18
 -1      2291 9.75763E-05-2.87498E-05-2.94958E-05-2.90269E-06 3.04141E-19-4.18714E-19
 -1      2292 9.74604E-05-2.85271E-05-2.95479E-05-3.78508E-06 5.16840E-19-1.53860E-18
 -1      2293 9.73370E-05-2.87020E-05-2.94055E-05-2.59086E-06-8.39530E-20-2.47096E-19
 -1      2294 9.69923E-05-2.86255E-05-2.92993E-05-2.33044E-06 7.08828E-20-1.34089E-19
 -1      2295 9.69176E-05-2.83956E-05-2.93709E-05-3.10581E-06 3.49050E-19-1.44423E-18
 -1      2296 9.68048E-05-2.86029E-05-2.92207E-05-2.05285E-06-1.02314E-20-2.76115E-19
 -1      2297 9.65308E-05-2.85537E-05-2.91325E-05-1.82491E-06 5.46303E-20-3.03447E-19
 -1      2298 9.64935E-05-2.83408E-05-2.92121E-05-2.48279E-06-1.57492E-19-1.37295E-18
 -1      2299 9.63847E-05-2.85460E-05-2.90661E-05-1.58784E-06 6.52521E-21-1.61980E-19
 -1      2300 9.61710E-05-2.85156E-05-2.89948E-05-1.39605E-06-8.35417E-20 2.37572E-19
 -1      2301 9.61634E-05-2.83310E-05-2.90743E-05-1.93847E-06 7.28746E-20-1.50153E-18
 -1      2302 9.60583E-05-2.85163E-05-2.89401E-05-1.19998E-06-4.72969E-19-1.38333E-19
 -1      2303 9.58948E-05-2.84986E-05-2.88837E-05-1.04355E-06-1.59817E-19-2.03405E-19
 -1      2304 9.59083E-05-2.83457E-05-2.89582E-05-1.47983E-06-3.57331E-19-5.12032E-19
 -1      2305 9.58088E-05-2.85037E-05-2.88398E-05-8.85677E-07 1.07450E-19-5.05525E-20
 -1      2306 9.56863E-05-2.84944E-05-2.87962E-05-7.61382E-07-2.22793E-20-6.34656E-19
 -1      2307 9.57132E-05-2.83721E-05-2.88628E-05-1.10449E-06-3.11517E-19-4.03892E-20
 -1      2308 9.56216E-05-2.85014E-05-2.87616E-05-6.37223E-07-1.46544E-19-6.51149E-19
 -1      2309 9.55318E-05-2.84976E-05-2.87287E-05-5.40762E-07-3.51104E-19-1.27769E-18
 -1      2310 9.55658E-05-2.84027E-05-2.87862E-05-8.04887E-07-4.25689E-19-5.95464E-19
 -1      2311 9.54840E-05-2.85051E-05-2.87019E-05-4.45245E-07-1.00905E-19-6.96090E-19
 -1      2312 9.54197E-05-2.85047E-05-2.86776E-05-3.72046E-07 1.30466E-20-6.16884E-20
 -1      2313 9.54564E-05-2.84331E-05-2.87259E-05-5.71095E-07 1.07997E-19-4.67487E-19
 -1      2314 9.53851E-05-2.85119E-05-2.86574E-05-3.00139E-07-3.03174E-19 8.05329E-20
 -1      2315 9.53404E-05-2.85136E-05-2.86399E-05-2.45833E-07-4.97969E-20 6.87106E-19
 -1      2316 9.53765E-05-2.84608E-05-2.86795E-05-3.92549E-07-4.09591E-20-2.87845E-19
 -1      2317 9.53159E-05-2.85200E-05-2.86249E-05-1.92902E-07-2.92798E-19-3.53134E-20
 -1      2318 9.52859E-05-2.85227E-05-2.86126E-05-1.53569E-07 6.98148E-20-8.91942E-19
 -1      2319 9.53195E-05-2.84850E-05-2.86444E-05-2.59116E-07-5.23487E-19-4.56611E-19
 -1      2320 9.52691E-05-2.85282E-05-2.86019E-05-1.15546E-07-7.61683E-20-1.41349E-18
 -1      2321 9.52500E-05-2.85314E-05-2.85935E-05-8.78175E-08-1.21679E-18-1.18013E-18
 -1      2322 9.52799E-05-2.85053E-05-2.86185E-05-1.61647E-07-6.61165E-19-1.65709E-18
 -1      2323 9.52389E-05-2.85360E-05-2.85860E-05-6.12591E-08-1.78323E-18-5.83037E-19
 -1      2324 9.52275E-05-2.85393E-05-2.85806E-05-4.23320E-08-1.32905E-18-1.07700E-18
 -1      2325 9.52533E-05-2.85219E-05-2.85998E-05-9.22286E-08-1.19745E-18-1.48949E-18
 -1      2326 9.52206E-05-2.85430E-05-2.85754E-05-2.44056E-08-8.35173E-19-2.43453E-19
 -1      2327 9.52147E-05-2.85461E-05-2.85722E-05-1.20077E-08 2.55927E-19 4.12588E-19
 -1      2328 9.52363E-05-2.85351E-05-2.85867E-05-4.42318E-08-4.86812E-19 9.06580E-20
 -1      2329 9.52107E-05-2.85490E-05-2.85688E-05-4.38421E-10 8.05844E-19 3.11496E-19
 -1      2330 9.52085E-05-2.85518E-05-2.85671E-05 7.22893E-09 7.05755E-19 5.52509E-19
 -1      2331 9.52262E-05-2.85454E-05-2.85778E-05-1.22495E-08 4.54899E-19 1.50966E-18
 -1      2332 9.52066E-05-2.85541E-05-2.85651E-05 1.42281E-08-6.94936E-20-2.01265E-20
 -1      2333 9.52068E-05-2.85566E-05-2.85643E-05 1.85579E-08-1.00702E-19-6.05574E-19
 -1      2334 9.52208E-05-2.85532E-05-2.85721E-05 8.02720E-09-7.58938E-23 2.64173E-19
 -1      2335 9.52062E-05-2.85583E-05-2.85632E-05 2.23610E-08 2.91830E-19-8.76227E-19
 -1      2336 9.52078E-05-2.85604E-05-2.85632E-05 2.44088E-08 6.51711E-19-1.28235E-18
 -1      2337 9.52188E-05-2.85591E-05-2.85686E-05 1.99586E-08-6.19329E-20 2.87301E-19
 -1      2338 9.52082E-05-2.85617E-05-2.85627E-05 2.60486E-08 1.91352E-19-1.00251E-18
 -1      2339 9.52106E-05-2.85634E-05-2.85630E-05 2.65947E-08-3.95112E-19-4.14967E-19
 -1      2340 9.52189E-05-2.85635E-05-2.85667E-05 2.61088E-08 4.25868E-19-4.54671E-19
 -1      2341 9.52114E-05-2.85644E-05-2.85630E-05 2.68281E-08-2.69470E-19 1.51873E-19
 -1      2342 9.52143E-05-2.85659E-05-2.85636E-05 2.64323E-08 4.75212E-19 2.35387E-19
 -1      2343 9.52202E-05-2.85666E-05-2.85659E-05 2.83890E-08 9.40082E-20 1.02046E-18
 -1      2344 9.52154E-05-2.85666E-05-2.85638E-05 2.57959E-08 9.68613E-19 4.94320E-19
 -1      2345 9.52182E-05-2.85678E-05-2.85645E-05 2.48428E-08 1.61704E-18 2.38644E-19
 -1      2346 9.52223E-05-2.85689E-05-2.85658E-05 2.81842E-08 4.82118E-19 2.53876E-18
 -1      2347 9.52195E-05-2.85684E-05-2.85648E-05 2.36991E-08 1.99262E-18 2.90603E-19
 -1      2348 9.52222E-05-2.85693E-05-2.85655E-05 2.24351E-08 1.51468E-18 9.85704E-19
 -1      2349 9.52248E-05-2.85705E-05-2.85661E-05 2.64613E-08 1.51023E-18 4.38084E-19
 -1      2350 9.52235E-05-2.85698E-05-2.85659E-05 2.10103E-08 5.62221E-19 8.80227E-19
 -1      2351 9.52260E-05-2.85707E-05-2.85666E-05 1.95728E-08 9.76513E-20 1.12596E-18
 -1      2352 9.52274E-05-2.85718E-05-2.85667E-05 2.38578E-08 7.82691E-19 6.33044E-19
 -1      2353 9.52272E-05-2.85711E-05-2.85669E-05 1.79798E-08 8.11334E-19 1.58648E-18
 -1      2354 9.52294E-05-2.85719E-05-2.85675E-05 1.64188E-08 3.61533E-19 1.51751E-18
 -1      2355 9.52299E-05-2.85728E-05-2.85673E-05 2.07520E-08 6.33495E-19 8.74946E-19
 -1      2356 9.52305E-05-2.85723E-05-2.85678E-05 1.47151E-08-5.28106E-19 1.57368E-18
 -1      2357 9.52324E-05-2.85731E-05-2.85683E-05 1.30342E-08-8.50244E-19 1.90858E-19
 -1      2358 9.52322E-05-2.85738E-05-2.85679E-05 1.73219E-08-3.14529E-20 4.60709E-19
 -1      2359 5.63091E-05-3.48345E-05-8.94591E-06 3.93379E-05-1.00924E-18 2.77403E-18
 -1      2360 4.20659E-05-2.83938E-05-5.51293E-06 3.22611E-05-1.04312E-18 3.44065E-18
 -1      2361 1.16274E-04-3.88128E-05-3.32807E-05 3.05970E-06-1.58428E-19 1.80685E-18
 -1      2362 1.16089E-04-3.81887E-05-3.33458E-05 9.26862E-07-8.63146E-20 1.89384E-18
 -1      2363 1.16937E-04-3.90495E-05-3.34322E-05 8.36854E-06 1.68318E-19 1.76663E-18
 -1      2364 1.17654E-04-3.95408E-05-3.34735E-05 5.91619E-06-1.15375E-19 1.77316E-18
 -1      2365 1.17968E-04-4.09683E-05-3.30193E-05 3.91660E-06-1.02107E-20 1.20377E-18
 -1      2366 1.15371E-04-3.61613E-05-3.39298E-05 1.26868E-05 9.33094E-19 2.17410E-18
 -1      2367 1.17207E-04-3.82896E-05-3.38870E-05 1.12177E-05 4.43329E-19 1.97719E-18
 -1      2368 1.19751E-04-4.07104E-05-3.38458E-05 1.00618E-05 2.60220E-19 1.42058E-18
 -1      2369 1.11498E-04-3.02753E-05-3.47476E-05 1.24328E-05 1.52434E-18 1.93926E-18
 -1      2370 1.13914E-04-3.34644E-05-3.46178E-05 1.35044E-05 1.41792E-18 2.24034E-18
 -1      2371 1.18481E-04-3.60598E-05-3.53103E-05 1.44091E-05 1.17444E-18 1.77556E-18
 -1      2372 1.07755E-04-2.48629E-05-3.55019E-05 5.58983E-06 1.31751E-18 1.10983E-18
 -1      2373 1.09323E-04-2.70842E-05-3.53826E-05 9.45395E-06 1.33682E-18 1.45773E-18
 -1      2374 1.14414E-04-2.82406E-05-3.70170E-05 1.25394E-05 1.82705E-18 1.32158E-18
 -1      2375 1.07574E-04-2.45744E-05-3.56747E-05-5.00730E-06 1.97245E-18-3.97249E-19
 -1      2376 1.07022E-04-2.39065E-05-3.56850E-05-3.65908E-07 1.74079E-18 4.11168E-19
 -1      2377 1.11066E-04-2.25963E-05-3.80623E-05 3.11726E-06 2.12730E-18 1.48873E-19
 -1      2378 1.11402E-04-2.98146E-05-3.51385E-05-1.28753E-05 2.20742E-18-1.72156E-18
 -1      2379 1.09111E-04-2.67777E-05-3.52647E-05-1.01327E-05 2.04709E-18-1.13632E-18
 -1      2380 1.12073E-04-2.44232E-05-3.76841E-05-8.71539E-06 2.56331E-18-7.57499E-19
 -1      2381 1.15866E-04-3.60355E-05-3.43317E-05-1.38648E-05 1.42560E-18-1.51158E-18
 -1      2382 1.13533E-04-3.30930E-05-3.44235E-05-1.40142E-05 2.04474E-18-1.84279E-18
 -1      2383 1.16441E-04-3.21893E-05-3.61587E-05-1.52042E-05 2.08191E-18-1.54110E-18
 -1      2384 1.18021E-04-3.95505E-05-3.36638E-05-9.56427E-06-1.93676E-19-1.10762E-18
 -1      2385 1.16624E-04-3.80784E-05-3.36823E-05-1.17506E-05 5.67850E-19-1.17429E-18
 -1      2386 1.19437E-04-3.87188E-05-3.45563E-05-1.37939E-05 6.74099E-19-1.33027E-18
 -1      2387 1.17233E-04-3.96115E-05-3.32531E-05-3.51948E-06 5.38859E-20-1.46342E-18
 -1      2388 1.17036E-04-3.96354E-05-3.32525E-05-6.15556E-06 1.18730E-19-1.14105E-18
 -1      2389 1.19262E-04-4.17340E-05-3.32129E-05-7.59390E-06 8.74512E-20-1.94461E-18
 -1      2390 1.14730E-04-3.77442E-05-3.29693E-05 1.58790E-06 1.07484E-19-1.53861E-18
 -1      2391 1.15418E-04-3.85640E-05-3.30262E-05-5.40815E-07 4.29538E-20-1.52867E-18
 -1      2392 1.16339E-04-4.07103E-05-3.24376E-05-9.91181E-07 1.23945E-19-2.07012E-18
 -1      2393 1.11690E-04-3.54089E-05-3.26720E-05 4.84960E-06 5.01844E-19-9.58964E-19
 -1      2394 1.12843E-04-3.64229E-05-3.28193E-05 3.52869E-06 3.67844E-19-8.33613E-19
 -1      2395 1.12501E-04-3.78685E-05-3.20257E-05 3.91346E-06 1.39120E-19-1.34623E-18
 -1      2396 1.08764E-04-3.33698E-05-3.22993E-05 6.40072E-06-2.76159E-19-1.27844E-19
 -1      2397 1.10077E-04-3.42748E-05-3.25265E-05 5.80183E-06 3.66309E-19-1.52157E-19
 -1      2398 1.08899E-04-3.48941E-05-3.17518E-05 6.71815E-06-1.47536E-19-7.87381E-19
 -1      2399 1.06187E-04-3.18389E-05-3.18566E-05 6.73611E-06-7.12173E-19 3.70403E-19
 -1      2400 1.07485E-04-3.25483E-05-3.21315E-05 6.64337E-06-4.62078E-19 4.33137E-19
 -1      2401 1.05941E-04-3.25360E-05-3.14844E-05 7.82878E-06-7.19547E-19 5.72172E-19
 -1      2402 1.03997E-04-3.07692E-05-3.13790E-05 6.34418E-06-8.60825E-19 1.08871E-18
 -1      2403 1.05188E-04-3.12942E-05-3.16681E-05 6.54927E-06-9.75236E-19 6.77075E-19
 -1      2404 1.03625E-04-3.09103E-05-3.11793E-05 7.81948E-06-1.23277E-18 1.27545E-18
 -1      2405 1.02163E-04-3.00445E-05-3.09051E-05 5.59043E-06-6.56353E-19 8.14460E-19
 -1      2406 1.03208E-04-3.04243E-05-3.11827E-05 5.93832E-06-5.63576E-19 1.06621E-18
 -1      2407 1.01818E-04-2.98781E-05-3.08419E-05 7.17440E-06-7.64384E-19 1.68864E-18
 -1      2408 1.00644E-04-2.95565E-05-3.04637E-05 4.71141E-06 3.24136E-19 8.38508E-19
 -1      2409 1.01531E-04-2.98300E-05-3.07143E-05 5.10301E-06-1.77359E-19 5.51551E-19
 -1      2410 1.00393E-04-2.92563E-05-3.04945E-05 6.23495E-06-5.18651E-20 4.83462E-19
 -1      2411 9.93999E-05-2.92259E-05-3.00723E-05 3.84379E-06-3.81173E-19 1.53415E-18
 -1      2412 1.00133E-04-2.94229E-05-3.02884E-05 4.22301E-06 3.46461E-19 1.34626E-18
 -1      2413 9.92533E-05-2.88948E-05-3.01597E-05 5.21583E-06-9.09477E-20 6.79875E-19
 -1      2414 9.83926E-05-2.89994E-05-2.97377E-05 3.05711E-06-1.63496E-18 1.91218E-18
 -1      2415 9.89859E-05-2.91415E-05-2.99179E-05 3.39644E-06-7.68167E-19 1.46858E-18
 -1      2416 9.83365E-05-2.86902E-05-2.98538E-05 4.23902E-06-7.36438E-19 2.26267E-18
 -1      2417 9.75885E-05-2.88431E-05-2.94602E-05 2.37976E-06-9.37078E-19 9.90457E-19
 -1      2418 9.80590E-05-2.89453E-05-2.96064E-05 2.66892E-06-1.53320E-18 1.31822E-18
 -1      2419 9.75994E-05-2.85779E-05-2.95855E-05 3.36522E-06-9.96054E-19 8.27504E-19
 -1      2420 9.69560E-05-2.87350E-05-2.92356E-05 1.81678E-06 1.59525E-19 4.95694E-19
 -1      2421 9.73223E-05-2.88080E-05-2.93516E-05 2.05504E-06-4.60451E-19 4.58056E-19
 -1      2422 9.70104E-05-2.85190E-05-2.93579E-05 2.61764E-06-3.25271E-19-6.89230E-19
 -1      2423 9.64662E-05-2.86610E-05-2.90576E-05 1.36103E-06 9.98496E-19 1.36234E-19
 -1      2424 9.67464E-05-2.87123E-05-2.91478E-05 1.55242E-06 7.95948E-19 1.56569E-19
 -1      2425 9.65450E-05-2.84911E-05-2.91699E-05 1.99804E-06 7.70171E-19-1.33415E-18
 -1      2426 9.60931E-05-2.86111E-05-2.89194E-05 9.99894E-07 1.21331E-18-2.44065E-19
 -1      2427 9.63035E-05-2.86464E-05-2.89881E-05 1.15047E-06 1.01447E-18 2.94399E-19
 -1      2428 9.61820E-05-2.84810E-05-2.90181E-05 1.49696E-06 1.12021E-18-1.68876E-18
 -1      2429 9.58139E-05-2.85786E-05-2.88139E-05 7.19034E-07 8.75368E-20 9.97943E-19
 -1      2430 9.59690E-05-2.86022E-05-2.88653E-05 8.35338E-07 6.09176E-19 3.44519E-19
 -1      2431 9.59033E-05-2.84812E-05-2.88981E-05 1.09997E-06 4.31237E-19-7.36978E-19
 -1      2432 9.56090E-05-2.85585E-05-2.87349E-05 5.04415E-07-6.25357E-19 2.60768E-18
 -1      2433 9.57209E-05-2.85735E-05-2.87727E-05 5.92680E-07 3.78281E-19 1.76301E-18
 -1      2434 9.56928E-05-2.84870E-05-2.88049E-05 7.91146E-07-6.05866E-19 1.35929E-18
 -1      2435 9.54619E-05-2.85470E-05-2.86770E-05 3.43265E-07 3.72304E-20 1.62270E-18
 -1      2436 9.55406E-05-2.85560E-05-2.87041E-05 4.09069E-07-1.36444E-19 2.24407E-18
 -1      2437 9.55369E-05-2.84957E-05-2.87339E-05 5.55064E-07 1.49043E-19 1.74721E-18
 -1      2438 9.53590E-05-2.85416E-05-2.86353E-05 2.24477E-07-2.72193E-20-2.68847E-19
 -1      2439 9.54127E-05-2.85464E-05-2.86543E-05 2.72609E-07-1.99502E-19 7.31777E-19
 -1      2440 9.54237E-05-2.85056E-05-2.86807E-05 3.77726E-07 5.37830E-19 1.03199E-18
 -1      2441 9.52892E-05-2.85402E-05-2.86062E-05 1.38680E-07-6.68602E-19-1.52046E-19
 -1      2442 9.53245E-05-2.85421E-05-2.86191E-05 1.73142E-07-3.40909E-19 2.85241E-19
 -1      2443 9.53436E-05-2.85156E-05-2.86418E-05 2.46958E-07-3.75636E-19-2.12668E-20
 -1      2444 9.52440E-05-2.85412E-05-2.85865E-05 7.81532E-08 5.68418E-19-5.12924E-19
 -1      2445 9.52659E-05-2.85413E-05-2.85948E-05 1.02215E-07-3.20022E-19-2.24141E-19
 -1      2446 9.52885E-05-2.85251E-05-2.86138E-05 1.52482E-07-1.08091E-19 4.20209E-19
 -1      2447 9.52163E-05-2.85438E-05-2.85737E-05 3.66544E-08 2.13308E-18-7.61095E-20
 -1      2448 9.52288E-05-2.85427E-05-2.85788E-05 5.29409E-08 1.27258E-18-5.78865E-19
 -1      2449 9.52521E-05-2.85337E-05-2.85943E-05 8.58201E-08 9.84113E-19-2.62720E-19
 -1      2450 9.52012E-05-2.85471E-05-2.85658E-05 9.22416E-09 1.28793E-18-7.13367E-20
 -1      2451 9.52071E-05-2.85454E-05-2.85687E-05 1.98057E-08 2.19865E-18 2.10379E-19
 -1      2452 9.52293E-05-2.85412E-05-2.85811E-05 4.01090E-08 1.77438E-18-4.07975E-19
 -1      2453 9.51945E-05-2.85506E-05-2.85615E-05-8.01394E-09 3.38829E-19 6.31895E-19
 -1      2454 9.51961E-05-2.85486E-05-2.85628E-05-1.52938E-09 1.18634E-18 3.80892E-20
 -1      2455 9.52161E-05-2.85477E-05-2.85726E-05 9.89261E-09 1.24735E-18-1.99007E-19
 -1      2456 9.51934E-05-2.85541E-05-2.85596E-05-1.80402E-08-1.20198E-18 4.64662E-19
 -1      2457 9.51923E-05-2.85521E-05-2.85598E-05-1.44247E-08-8.01424E-19 7.93166E-20
 -1      2458 9.52096E-05-2.85530E-05-2.85674E-05-9.09656E-09-1.64239E-19-7.53223E-19
 -1      2459 9.51958E-05-2.85574E-05-2.85592E-05-2.31059E-08-2.00268E-18 6.82455E-19
 -1      2460 9.51931E-05-2.85554E-05-2.85588E-05-2.14386E-08-1.02886E-18 5.31073E-19
 -1      2461 9.52077E-05-2.85575E-05-2.85646E-05-2.01401E-08-1.33054E-18-4.14295E-19
 -1      2462 9.52002E-05-2.85603E-05-2.85599E-05-2.48777E-08-2.00401E-18 5.20863E-19
 -1      2463 9.51966E-05-2.85585E-05-2.85591E-05-2.44827E-08-2.60131E-18 8.84825E-20
 -1      2464 9.52086E-05-2.85610E-05-2.85633E-05-2.57166E-08-1.88466E-18-3.09354E-19
 -1      2465 9.52055E-05-2.85628E-05-2.85611E-05-2.45586E-08-1.32028E-18 1.19510E-18
 -1      2466 9.52017E-05-2.85613E-05-2.85602E-05-2.49537E-08-1.52375E-18 6.89153E-19
 -1      2467 9.52112E-05-2.85639E-05-2.85632E-05-2.76594E-08-1.87055E-18-1.24290E-18
 -1      2468 9.52112E-05-2.85650E-05-2.85626E-05-2.29872E-08-1.07580E-19 1.09940E-18
 -1      2469 9.52074E-05-2.85637E-05-2.85616E-05-2.38419E-08-7.95642E-19 1.43484E-18
 -1      2470 9.52147E-05-2.85662E-05-2.85637E-05-2.72896E-08-9.90159E-19 6.23649E-19
 -1      2471 9.52167E-05-2.85669E-05-2.85642E-05-2.07156E-08 1.36065E-18 1.00339E-18
 -1      2472 9.52131E-05-2.85658E-05-2.85632E-05-2.18193E-08 5.90315E-19 1.11969E-18
 -1      2473 9.52185E-05-2.85680E-05-2.85645E-05-2.55251E-08 4.20035E-19-7.66646E-21
 -1      2474 9.52218E-05-2.85686E-05-2.85657E-05-1.80704E-08 9.84346E-19 4.06767E-18
 -1      2475 9.52186E-05-2.85676E-05-2.85648E-05-1.93079E-08 7.76147E-19 2.55608E-18
 -1      2476 9.52224E-05-2.85695E-05-2.85655E-05-2.29678E-08 8.60733E-20 1.94180E-18
 -1      2477 9.52264E-05-2.85701E-05-2.85670E-05-1.52007E-08 9.31346E-19 3.46662E-18
 -1      2478 9.52236E-05-2.85692E-05-2.85662E-05-1.65337E-08 1.15046E-18 4.16943E-18
 -1      2479 9.52261E-05-2.85708E-05-2.85666E-05-1.99732E-08 9.05770E-19 2.89178E-18
 -1      2480 9.52303E-05-2.85715E-05-2.85681E-05-1.21147E-08-3.04793E-19 3.78576E-18
 -1      2481 9.52280E-05-2.85706E-05-2.85675E-05-1.35664E-08 6.92083E-19 4.28583E-18
 -1      2482 9.52295E-05-2.85719E-05-2.85675E-05-1.67185E-08 3.34039E-19 2.97018E-18
 -1      2483 9.52336E-05-2.85727E-05-2.85690E-05-8.79438E-09-1.66618E-18 4.57625E-18
 -1      2484 9.52317E-05-2.85720E-05-2.85685E-05-1.03735E-08-9.53271E-19 4.81506E-18
 -1      2485 9.52325E-05-2.85731E-05-2.85683E-05-1.32213E-08-8.01335E-19 3.64157E-18
 -1      2486 9.52349E-05-2.85732E-05-2.85693E-05-6.81115E-09-7.80347E-19 3.71205E-18
 -1      2487 9.52439E-05-2.85864E-05-2.85675E-05-9.93846E-09 2.06207E-18-3.09301E-18
 -1      2488 9.52428E-05-2.85849E-05-2.85677E-05-1.09266E-08 2.76290E-18-4.16336E-18
 -1      2489 9.52455E-05-2.85887E-05-2.85672E-05-6.92867E-09 4.03553E-19-1.13121E-18
 -1      2490 9.52448E-05-2.85876E-05-2.85673E-05-8.43397E-09 1.31933E-18-2.27846E-18
 -1      2491 9.52449E-05-2.85864E-05-2.85680E-05-1.04373E-08 1.72651E-18-3.18763E-18
 -1      2492 9.52391E-05-2.85798E-05-2.85682E-05-1.20526E-08 1.02466E-18 2.32947E-19
 -1      2493 9.52378E-05-2.85779E-05-2.85685E-05-1.16329E-08 3.60010E-20 6.29181E-19
 -1      2494 9.52417E-05-2.85833E-05-2.85678E-05-1.17518E-08 2.02796E-18-1.21584E-18
 -1      2495 9.52405E-05-2.85816E-05-2.85681E-05-1.20612E-08 1.39044E-18 4.04386E-20
 -1      2496 9.52396E-05-2.85803E-05-2.85683E-05-1.38252E-08 5.95876E-19 4.89298E-19
 -1      2497 9.52426E-05-2.85836E-05-2.85681E-05-1.29231E-08 1.88469E-18-1.74840E-18
 -1      2498 9.52464E-05-2.85900E-05-2.85670E-05-3.13201E-09-6.25870E-19-8.25221E-19
 -1      2499 9.52460E-05-2.85894E-05-2.85671E-05-4.95515E-09-4.70064E-19-6.75272E-19
 -1      2500 9.52466E-05-2.85884E-05-2.85678E-05-6.73790E-09-2.64999E-19-1.39474E-18
 -1      2501 9.52466E-05-2.85902E-05-2.85670E-05 1.00711E-09-1.22092E-18-1.25226E-18
 -1      2502 9.52466E-05-2.85902E-05-2.85670E-05-9.21193E-10-1.07696E-18-3.26170E-19
 -1      2503 9.52474E-05-2.85894E-05-2.85678E-05-2.29548E-09-6.60141E-19-9.14122E-19
 -1      2504 9.52460E-05-2.85894E-05-2.85671E-05 5.03217E-09-1.03435E-18-9.06038E-19
 -1      2505 9.52464E-05-2.85900E-05-2.85670E-05 3.21495E-09-6.05640E-19-1.29229E-18
 -1      2506 9.52474E-05-2.85894E-05-2.85678E-05 2.39329E-09-8.17431E-19-9.60510E-19
 -1      2507 9.52447E-05-2.85876E-05-2.85674E-05 8.44023E-09 1.73229E-19-2.55312E-18
 -1      2508 9.52455E-05-2.85886E-05-2.85672E-05 6.96591E-09-3.20581E-19-1.11883E-18
 -1      2509 9.52466E-05-2.85884E-05-2.85678E-05 6.78868E-09 2.30963E-19-8.50524E-19
 -1      2510 9.52428E-05-2.85849E-05-2.85677E-05 1.09336E-08 1.92545E-18 1.71477E-18
 -1      2511 9.52439E-05-2.85864E-05-2.85675E-05 9.94532E-09 1.15264E-18-2.05935E-18
 -1      2512 9.52449E-05-2.85864E-05-2.85680E-05 1.04418E-08 1.30714E-18-1.01887E-18
 -1      2513 9.52404E-05-2.85815E-05-2.85681E-05 1.20192E-08 8.31091E-19 2.22750E-18
 -1      2514 9.52417E-05-2.85833E-05-2.85678E-05 1.17515E-08 1.04208E-18 2.92454E-18
 -1      2515 9.52425E-05-2.85836E-05-2.85681E-05 1.29510E-08 1.33254E-18 7.86401E-19
 -1      2516 9.52377E-05-2.85779E-05-2.85685E-05 1.15469E-08-7.20972E-19-1.00477E-19
 -1      2517 9.52391E-05-2.85798E-05-2.85683E-05 1.20666E-08 2.34832E-19 9.46039E-19
 -1      2518 9.52397E-05-2.85802E-05-2.85683E-05 1.37869E-08-2.50857E-19 8.38698E-19
 -1      2519 8.98444E-05-5.06826E-05-1.68399E-05 4.14768E-05-1.21761E-18 1.69968E-18
 -1      2520 7.39965E-05-4.42044E-05-1.24858E-05 4.06412E-05-1.44758E-18 2.13950E-18
 -1      2521 1.27223E-04-5.92957E-05-2.94219E-05 2.62411E-05 6.15793E-19-1.45912E-18
 -1      2522 1.08403E-04-5.66379E-05-2.20507E-05 3.36622E-05-4.19917E-19-2.30075E-19
 -1      2523 1.14498E-04-3.68636E-05-3.33409E-05-8.49370E-07 1.19842E-19 1.83851E-18
 -1      2524 1.13922E-04-3.58234E-05-3.34080E-05-2.00876E-06 3.40142E-19 1.78402E-18
 -1      2525 1.14775E-04-3.84381E-05-3.27632E-05-8.13256E-07 1.54524E-19 1.19588E-18
 -1      2526 9.52360E-05-2.85750E-05-2.85690E-05 8.52071E-09 2.56087E-19 2.29609E-19
 -1      2527 1.93994E-05-1.79292E-05-4.77664E-07-1.04544E-05-1.02438E-19 5.50698E-18
 -1      2528 2.63844E-05-2.21364E-05-1.54411E-06-2.43261E-05 1.71736E-19 7.04138E-18
 -1      2529 1.04949E-04-2.40243E-05-3.47252E-05-6.97107E-06-1.65124E-18-8.18829E-19
 -1      2530 1.06484E-04-2.80178E-05-3.36708E-05-3.84860E-06-1.39106E-18-5.63766E-19
 -1      2531 1.04989E-04-2.73795E-05-3.32379E-05-3.20808E-06-1.14831E-18-9.76298E-19
 -1      2532 1.01191E-04-2.11859E-05-3.43208E-05-6.04276E-06-1.53899E-18-1.32017E-18
 -1      2533 1.47072E-04-3.36385E-05-4.87982E-05 2.82428E-06-2.69155E-18-1.50010E-18
 -1      2534 1.47246E-04-2.43592E-05-5.32413E-05 5.88909E-06-3.47241E-18-1.83489E-18
 -1      2535 1.47205E-04-4.14984E-05-4.58658E-05 1.46565E-06-3.73594E-18 2.18111E-19
 -1      2536 1.42103E-04-4.87128E-05-4.00751E-05 9.40974E-06-2.83147E-18 2.13876E-20
 -1      2537 3.01284E-05-1.89095E-05-4.44032E-06-2.34450E-05-2.09429E-19-5.07606E-18
 -1      2538 4.39119E-05-2.76656E-05-6.68724E-06-3.51461E-05-1.24937E-20-4.42511E-18
 -1      2539 1.49088E-04-1.65233E-05-5.73030E-05-5.53924E-06 5.29480E-18-1.93356E-18
 -1      2540 1.48100E-04-2.17378E-05-5.45208E-05-7.87167E-06 5.25838E-18-1.86453E-18
 -1      2541 7.15213E-05-3.53847E-06-2.91882E-05 3.43473E-06 7.38655E-19-3.01135E-18
 -1      2542 7.36154E-05-4.66592E-06-2.95251E-05 3.45916E-06 5.27966E-19-3.05871E-18
 -1      2543 7.56848E-05-7.34211E-06-2.92928E-05 4.53288E-06 4.86576E-19-2.83219E-18
 -1      2544 7.09018E-05-4.12309E-06-2.85977E-05 3.77054E-06 8.11137E-19-2.91126E-18
 -1      2545 1.42928E-04-1.13701E-05-5.69417E-05 2.11953E-06 4.95133E-18-1.18807E-18
 -1      2546 1.47277E-04-1.28957E-05-5.79586E-05-2.28954E-06 5.15674E-18-1.50158E-18
 -1      2547 1.36860E-04-1.31475E-05-5.32751E-05-5.84710E-06 4.95154E-18-1.45748E-18
 -1      2548 9.37854E-05-5.08631E-05-1.84135E-05-3.87575E-05 1.19008E-19-3.52630E-18
 -1      2549 1.10982E-04-5.50185E-05-2.42594E-05-3.48073E-05 2.82697E-19-2.73761E-18
 -1      2550 1.50093E-04-3.33562E-05-5.06256E-05-6.83113E-06 4.28789E-18-2.42124E-18
 -1      2551 1.49129E-04-4.17629E-05-4.62949E-05-2.18193E-06 3.95543E-18-2.44623E-18
 -1      2552 1.45975E-04-4.39591E-05-4.41550E-05 2.48026E-06 2.17539E-18-4.06788E-19
 -1      2553 1.49019E-04-3.60846E-05-4.88933E-05 5.89951E-06 2.86467E-18-6.83556E-19
 -1      2554 1.39924E-04-3.04796E-05-4.69718E-05 1.37669E-05 2.63575E-18 3.23037E-19
 -1      2555 7.01794E-05-3.98607E-05-1.29987E-05 4.38090E-05 7.91976E-20-3.39141E-18
 -1      2556 5.39614E-05-3.32260E-05-8.60080E-06 3.93257E-05 5.95252E-19-3.90927E-18
 -1      2557 5.87440E-05-3.70629E-05-9.25654E-06-3.93764E-05-6.31040E-20-3.83695E-18
 -1      2558 7.67002E-05-4.39538E-05-1.40408E-05-4.25797E-05 2.36534E-19-3.93018E-18
 -1      2559 9.12653E-05-4.84548E-05-1.79951E-05-3.91026E-05-6.46074E-19-3.16457E-18
 -1      2560 1.99764E-05-1.21705E-05-2.88981E-06 4.06715E-06 5.05890E-19-5.62896E-18
 -1      2561 2.07735E-05-1.35198E-05-2.72400E-06-9.67527E-06 4.30610E-19-5.59868E-18
 -1      2562 1.45799E-04-1.48618E-05-5.64228E-05 5.12581E-06-4.27794E-18-1.81074E-18
 -1      2563 1.44841E-04-1.11073E-05-5.78069E-05 2.26694E-06-4.57737E-18-1.73944E-18
 -1      2564 1.06561E-04-5.24201E-05-2.32543E-05 3.80450E-05-6.56027E-19-1.86951E-18
 -1      2565 8.97032E-05-4.81622E-05-1.76998E-05 4.05747E-05-1.90582E-21-2.48212E-18
 -1      2566 1.33374E-04-5.43815E-05-3.41963E-05 2.24726E-05-1.92785E-18-6.09864E-19
 -1      2567 1.19847E-04-5.50761E-05-2.78147E-05 2.93698E-05-1.10686E-18-1.10093E-18
 -1      2568 1.17610E-04-5.59078E-05-2.61123E-05 2.93443E-05 3.76718E-19-5.89853E-19
 -1      2569 1.45280E-04-2.35282E-05-5.28101E-05-6.46470E-06-4.55810E-18-6.57086E-19
 -1      2570 1.45958E-04-3.05600E-05-4.97143E-05-5.45983E-06-4.24469E-18-2.02864E-19
 -1      2571 1.43880E-04-1.07268E-05-5.75359E-05-1.94914E-06-4.74084E-18-1.39655E-18
 -1      2572 1.43768E-04-1.45277E-05-5.57666E-05-5.06115E-06-4.97907E-18-9.90182E-19
 -1      2573 1.41102E-04-5.03442E-05-3.89330E-05-1.08287E-05-1.27902E-18-1.02703E-18
 -1      2574 1.46697E-04-4.46409E-05-4.42274E-05-4.84613E-06-1.87168E-18-1.46346E-18
 -1      2575 1.15790E-04-5.60274E-05-2.55179E-05-3.16964E-05-6.59839E-19-6.76568E-19
 -1      2576 1.32607E-04-5.56380E-05-3.33015E-05-2.39239E-05-8.83773E-19-5.37019E-19
 -1      2577 8.08149E-05-4.73073E-05-1.41398E-05-4.18192E-05 5.68359E-19 1.64605E-18
 -1      2578 9.72287E-05-5.23299E-05-1.94730E-05-4.16119E-05-3.69095E-19-5.22924E-19
 -1      2579 1.47873E-04-5.03962E-05-4.21160E-05 5.91291E-06 3.00097E-18-2.68128E-18
 -1      2580 1.39084E-04-5.58221E-05-3.57580E-05 1.19956E-05 1.55499E-18-2.45915E-18
 -1      2581 1.44620E-04-4.74527E-05-4.16632E-05-5.39906E-06 2.42918E-18-3.44277E-18
 -1      2582 1.11148E-04-3.00462E-05-3.47833E-05 1.39483E-06 1.91755E-18 2.28664E-18
 -1      2583 1.11287E-04-2.83246E-05-3.55753E-05 4.35331E-06 2.08709E-18 2.71339E-18
 -1      2584 1.08057E-04-2.53461E-05-3.55135E-05 4.96648E-06 2.28519E-18 1.91419E-18
 -1      2585 1.08562E-04-2.87738E-05-3.42476E-05 5.84325E-07 1.85683E-18 1.35282E-18
 -1      2586 2.90966E-05-2.01590E-05-3.45744E-06 2.23808E-05-5.84241E-19 3.83198E-18
 -1      2587 2.13691E-05-1.64984E-05-1.59769E-06 5.60222E-06-8.41090E-19 4.67033E-18
 -1      2588 8.91277E-05-1.56772E-05-3.15039E-05 1.26382E-06-4.16183E-19-2.48711E-18
 -1      2589 8.91944E-05-1.40121E-05-3.22729E-05-5.59808E-07-5.53265E-19-2.62490E-18
 -1      2590 9.23943E-05-1.56908E-05-3.29249E-05-2.14480E-06-8.97382E-19-2.39203E-18
 -1      2591 1.11723E-04-3.50516E-05-3.29080E-05-2.91031E-06 5.54920E-19 9.05045E-19
 -1      2592 1.03560E-04-2.21610E-05-3.49319E-05 4.10831E-06 2.28297E-18 8.10677E-19
 -1      2593 4.21322E-05-2.19609E-05-8.07378E-06 2.55740E-05-1.71016E-18 3.56707E-18
 -1      2594 7.45495E-05-4.28567E-05-1.31461E-05-4.23742E-05 1.60407E-18 2.34395E-18
 -1      2595 1.12550E-04-5.64802E-05-2.37435E-05-3.28902E-05 6.46498E-19-1.17446E-18
 -1      2596 1.42764E-04-3.99550E-05-4.41385E-05 5.38319E-06-1.65966E-18-2.18894E-18
 -1      2597 1.35586E-04-1.54874E-05-5.18016E-05 7.10512E-06 4.10959E-18 1.41825E-19
 -1      2598 1.36899E-04-5.56354E-05-3.47698E-05-1.26219E-05-2.84815E-19-1.87999E-18
 -1      2599 1.35324E-04-9.67136E-06-5.41573E-05 1.88186E-07-4.53925E-18-1.75047E-18
 -1      2600 3.98100E-05-2.51703E-05-5.85583E-06-3.01464E-05 1.37802E-18 5.92584E-18
 -1      2601 7.10999E-05-3.92990E-05-1.31550E-05 3.85955E-05-2.10339E-18 1.63213E-18
 -1      2602 9.52344E-05-2.85739E-05-2.85688E-05 1.00986E-08-4.99267E-19 4.85080E-20
 -1      2603 9.52364E-05-2.85762E-05-2.85686E-05 1.12053E-08-5.12032E-19 8.52545E-20
 -1      2604 9.52364E-05-2.85767E-05-2.85685E-05 1.33680E-08-1.14308E-18 6.43443E-19
 -1      2605 9.52331E-05-2.85734E-05-2.85685E-05 1.17705E-08-9.95162E-19 5.27490E-19
 -1      2606 9.52351E-05-2.85743E-05-2.85690E-05-9.32730E-09-6.58398E-19 2.99493E-18
 -1      2607 1.34761E-04-5.95551E-05-3.21080E-05 1.38862E-05 2.53898E-19-2.87494E-18
 -1      2608 9.52359E-05-2.85756E-05-2.85687E-05-1.04507E-08-2.97019E-19 2.10231E-18
 -1      2609 1.37627E-04-5.40015E-05-3.57848E-05 1.08290E-05-1.39363E-18 5.24737E-19
 -1      2610 1.06288E-04-5.53058E-05-2.15372E-05 3.40178E-05-1.46028E-18-9.02222E-20
 -1      2611 1.41719E-04-3.75105E-05-4.48297E-05-6.32750E-06-3.26235E-18 2.80580E-19
 -1      2612 1.38795E-04-1.94942E-05-5.13721E-05 8.99092E-06-3.49295E-18-2.07025E-18
 -1      2613 1.02815E-04-2.34439E-05-3.39741E-05 1.58835E-06 2.03365E-18 5.11092E-19
 -1      2614 9.79708E-05-1.92395E-05-3.37813E-05-4.48901E-06-1.23221E-18-1.76522E-18
 -1      2615 5.91609E-05-3.16530E-05-1.14370E-05-3.66303E-05-6.95414E-19-3.86416E-18
 -1      2616 2.80886E-05-1.46822E-05-5.13177E-06-1.93313E-06-7.87132E-19 5.01528E-18
 -1      2617 1.45622E-04-5.04504E-05-4.09122E-05-2.91179E-07 1.62490E-18-4.58668E-19
 -1      2618 1.41424E-04-4.48856E-05-4.17306E-05 1.01466E-05 1.56066E-18 1.79147E-19
 -1      2619 1.40398E-04-5.43400E-05-3.69054E-05-3.93846E-06 9.24589E-19-1.49501E-19
 -1      2620 1.17719E-04-5.71457E-05-2.55336E-05-2.86817E-05-4.12293E-19-1.71304E-18
 -1      2621 1.23465E-04-5.79178E-05-2.78660E-05-2.72262E-05 2.87144E-19-1.97687E-18
 -1      2622 1.31405E-04-5.96631E-05-3.13197E-05-1.66838E-05-9.11619E-20-7.12990E-19
 -1      2623 3.32190E-05-1.48409E-05-7.34559E-06-1.78765E-05-1.20385E-19-5.12603E-18
 -1      2624 4.97530E-05-2.66223E-05-9.38553E-06 3.59084E-05 1.23836E-18-4.16317E-18
 -1      2625 1.42332E-04-2.79540E-05-4.91909E-05-1.19577E-05 4.23982E-18-2.42760E-18
 -1      2626 8.72432E-05-4.52113E-05-1.76298E-05 4.02606E-05 1.15302E-18-2.42071E-18
 -1      2627 2.53382E-05-1.26656E-05-4.82569E-06 1.17714E-05 9.05266E-19-5.49851E-18
 -1      2628 2.84811E-05-9.16177E-06-7.73473E-06 5.24461E-06 7.86814E-19-5.28358E-18
 -1      2629 3.13930E-05-1.30339E-05-7.64297E-06 1.98543E-05 1.27870E-18-4.83148E-18
 -1      2630 1.36688E-04-1.80330E-05-5.11132E-05-9.25694E-06-4.37598E-18-5.01232E-19
 -1      2631 9.52359E-05-2.85761E-05-2.85685E-05-1.27481E-08-3.95427E-19 2.36204E-18
 -1      2632 9.52341E-05-2.85746E-05-2.85683E-05 1.42035E-08-1.62513E-18-2.19159E-19
 -1      2633 1.27975E-04-1.21196E-05-5.02733E-05-4.01745E-06 4.35947E-18-6.92185E-19
 -1      2634 1.30539E-04-1.57451E-05-4.97101E-05-9.94231E-06 4.49605E-18-1.51031E-18
 -1      2635 7.10689E-05-5.23508E-06-2.81929E-05-1.96573E-06 1.25178E-18-2.67956E-18
 -1      2636 6.90852E-05-4.15949E-06-2.78696E-05-8.78149E-07 1.20835E-18-2.71616E-18
 -1      2637 6.80320E-05-3.49348E-06-2.76845E-05 1.23160E-06 1.19579E-18-2.74527E-18
 -1      2638 6.81125E-05-3.60301E-06-2.76531E-05 2.52306E-06 1.03255E-18-2.77514E-18
 -1      2639 6.81046E-05-4.81751E-06-2.70560E-05-1.52738E-07 1.13270E-18-2.71597E-18
 -1      2640 8.66105E-05-1.49727E-05-3.06757E-05-3.60067E-06 1.59335E-18-1.39611E-18
 -1      2641 8.21754E-05-1.24065E-05-2.99619E-05-4.02842E-06 1.48134E-18-1.85645E-18
 -1      2642 9.59067E-05-2.07708E-05-3.21772E-05-2.05530E-06 1.76478E-18-6.01015E-19
 -1      2643 9.12890E-05-1.79870E-05-3.14489E-05-2.90794E-06 1.66404E-18-1.00759E-18
 -1      2644 9.00725E-05-1.89143E-05-3.05150E-05-5.13518E-06 1.40892E-18-1.10701E-18
 -1      2645 1.07182E-04-3.10745E-05-3.26441E-05-3.56011E-06 1.07797E-18 3.96145E-19
 -1      2646 1.06288E-04-2.91290E-05-3.29961E-05-2.44320E-06 1.35825E-18 4.31349E-19
 -1      2647 9.81310E-05-2.12458E-05-3.29630E-05-2.51041E-06-1.02224E-18-1.68627E-18
 -1      2648 1.10373E-04-3.54652E-05-3.21470E-05-4.20068E-06 3.61799E-19 4.29882E-19
 -1      2649 1.08964E-04-3.33348E-05-3.23224E-05-4.38677E-06 6.45559E-19 4.08411E-19
 -1      2650 1.05216E-04-3.09806E-05-3.18564E-05-4.97233E-06 9.29248E-19-1.67173E-21
 -1      2651 1.08274E-04-3.41416E-05-3.16745E-05-7.27660E-08-4.39170E-19-5.52247E-19
 -1      2652 1.09192E-04-3.57928E-05-3.15199E-05-6.02887E-07-4.01022E-19-3.78278E-19
 -1      2653 1.11272E-04-3.75602E-05-3.15211E-05-1.63851E-06-4.04847E-19-2.12177E-19
 -1      2654 1.12099E-04-3.85904E-05-3.15664E-05-3.04135E-06-4.43904E-19-2.39894E-19
 -1      2655 1.09975E-04-3.72080E-05-3.12420E-05 1.77571E-07-3.90551E-19-3.50916E-19
 -1      2656 1.13986E-04-3.95143E-05-3.18860E-05-5.15330E-06-3.89803E-19 1.22505E-19
 -1      2657 1.14189E-04-3.92576E-05-3.21721E-05-7.02016E-06-4.90307E-19 3.05403E-19
 -1      2658 1.14087E-04-4.04623E-05-3.15955E-05-2.81909E-06-2.78835E-19-6.82424E-22
 -1      2659 1.15013E-04-3.84033E-05-3.28747E-05-9.56276E-06-6.13659E-19 5.50267E-19
 -1      2660 1.14108E-04-3.62789E-05-3.33866E-05-1.08667E-05-7.03633E-19 4.87932E-19
 -1      2661 1.17001E-04-4.06882E-05-3.27249E-05-7.63779E-06-4.59909E-19 4.93999E-19
 -1      2662 1.13249E-04-3.32904E-05-3.43865E-05-1.23508E-05-1.05257E-18 4.50092E-19
 -1      2663 1.11392E-04-2.95640E-05-3.50076E-05-1.18661E-05-1.55581E-18 2.73294E-19
 -1      2664 1.17013E-04-3.61834E-05-3.46883E-05-1.20956E-05-1.07344E-18 6.78169E-19
 -1      2665 1.09160E-04-2.57653E-05-3.59636E-05-1.00207E-05-1.56039E-18 1.36951E-19
 -1      2666 1.07646E-04-2.25350E-05-3.64421E-05-7.32609E-06-1.53305E-18 1.16785E-19
 -1      2667 1.13344E-04-2.69904E-05-3.70058E-05-1.25663E-05-1.57966E-18 8.11352E-19
 -1      2668 1.06094E-04-2.03571E-05-3.69090E-05-2.33026E-06-1.89758E-18-4.40683E-19
 -1      2669 1.06127E-04-2.01876E-05-3.69324E-05 1.77562E-06-1.82698E-18-4.54880E-19
 -1      2670 1.09623E-04-1.94202E-05-3.85841E-05-6.13770E-06-2.07976E-18 2.17740E-19
 -1      2671 1.07007E-04-2.16807E-05-3.65679E-05 6.77119E-06-1.47040E-18-7.66145E-19
 -1      2672 1.08407E-04-2.45222E-05-3.61364E-05 9.99781E-06-1.21733E-18-9.26297E-19
 -1      2673 1.09313E-04-1.93230E-05-3.87016E-05 4.68105E-06-1.84402E-18-1.63292E-19
 -1      2674 1.10650E-04-2.84553E-05-3.51551E-05 1.21820E-05-1.32508E-18-1.15860E-18
 -1      2675 1.12354E-04-3.23251E-05-3.44802E-05 1.29208E-05-9.46085E-19-1.63334E-18
 -1      2676 1.12754E-04-2.61565E-05-3.71219E-05 1.23723E-05-1.46145E-18-1.24953E-18
 -1      2677 1.13671E-04-3.56847E-05-3.33872E-05 1.17955E-05-7.87334E-19-1.99110E-18
 -1      2678 1.14572E-04-3.82720E-05-3.27749E-05 1.04626E-05-6.13392E-19-2.20530E-18
 -1      2679 1.16192E-04-3.52887E-05-3.46384E-05 1.32304E-05-1.28696E-18-1.77308E-18
 -1      2680 1.14003E-04-3.96473E-05-3.19040E-05 7.68755E-06-3.44694E-19-2.27056E-18
 -1      2681 1.13827E-04-4.03884E-05-3.14710E-05 5.44291E-06-2.66045E-19-2.05716E-18
 -1      2682 1.16802E-04-4.08917E-05-3.25434E-05 8.60882E-06-4.97405E-19-1.77362E-18
 -1      2683 1.11992E-04-3.99612E-05-3.09306E-05 2.65321E-06-3.31344E-19-1.90322E-18
 -1      2684 1.11029E-04-3.93574E-05-3.06746E-05 5.08040E-07-1.65134E-19-1.77901E-18
 -1      2685 1.14237E-04-4.20240E-05-3.09802E-05 2.62596E-06-2.13488E-19-1.71538E-18
 -1      2686 1.08851E-04-3.80354E-05-3.03985E-05-1.51495E-06-3.00953E-19-1.72811E-18
 -1      2687 1.07576E-04-3.68507E-05-3.02628E-05-3.10168E-06-7.37938E-19-1.24773E-18
 -1      2688 1.10099E-04-3.99521E-05-3.01111E-05-2.17283E-06-3.04418E-19-1.92885E-18
 -1      2689 1.05653E-04-3.53868E-05-3.01448E-05-4.27455E-06-8.53671E-19-8.13950E-19
 -1      2690 1.04412E-04-3.41653E-05-3.00663E-05-5.24086E-06-7.73642E-19-8.20142E-19
 -1      2691 1.05949E-04-3.67315E-05-2.97143E-05-5.18567E-06-4.36350E-19-7.17921E-19
 -1      2692 1.02942E-04-3.29277E-05-3.00217E-05-5.75508E-06-4.86437E-19-3.16238E-19
 -1      2693 1.01885E-04-3.19166E-05-2.99590E-05-6.20521E-06-3.64704E-19-1.43908E-19
 -1      2694 1.02558E-04-3.36539E-05-2.95699E-05-6.69244E-06-2.49763E-19-1.61246E-20
 -1      2695 1.00853E-04-3.10126E-05-2.99371E-05-6.27684E-06-4.67454E-19 9.46077E-20
 -1      2696 1.00009E-04-3.02735E-05-2.98700E-05-6.35592E-06-5.24699E-20 1.43081E-19
 -1      2697 1.00076E-04-3.12384E-05-2.95298E-05-7.14045E-06-9.37839E-20 4.77739E-19
 -1      2698 9.93242E-05-2.96816E-05-2.98456E-05-6.15986E-06 3.55044E-20-3.28898E-19
 -1      2699 9.86676E-05-2.91873E-05-2.97687E-05-6.00198E-06 1.04810E-19-1.27608E-18
 -1      2700 9.83815E-05-2.95636E-05-2.95113E-05-6.92104E-06-4.20813E-19 3.16050E-19
 -1      2701 9.82272E-05-2.88378E-05-2.97335E-05-5.66308E-06 4.58465E-19-1.41702E-18
 -1      2702 9.77200E-05-2.85316E-05-2.96488E-05-5.37266E-06 7.74276E-19-1.51015E-18
 -1      2703 9.72725E-05-2.85182E-05-2.94772E-05-6.32407E-06-5.89883E-22-8.10070E-19
 -1      2704 9.74412E-05-2.83513E-05-2.96031E-05-4.97322E-06 9.88465E-19-1.75725E-18
 -1      2705 9.70482E-05-2.81773E-05-2.95158E-05-4.62457E-06 8.13461E-19-1.56025E-18
 -1      2706 9.65637E-05-2.79367E-05-2.94182E-05-5.54409E-06 7.63859E-19-1.23058E-18
 -1      2707 9.68720E-05-2.81063E-05-2.94634E-05-4.21692E-06 7.37647E-19-1.35613E-18
 -1      2708 9.65660E-05-2.80193E-05-2.93785E-05-3.85905E-06 5.53341E-19-1.06418E-18
 -1      2709 9.61148E-05-2.76686E-05-2.93382E-05-4.70716E-06 1.04003E-18-2.03130E-18
 -1      2710 9.64533E-05-2.80137E-05-2.93236E-05-3.47453E-06 2.44456E-19-1.22832E-18
 -1      2711 9.62144E-05-2.79810E-05-2.92449E-05-3.13713E-06 1.45839E-19-1.09094E-18
 -1      2712 9.58296E-05-2.75971E-05-2.92452E-05-3.89185E-06 3.78997E-19-4.82338E-19
 -1      2713 9.61408E-05-2.80109E-05-2.91913E-05-2.79267E-06-3.12178E-19-7.31354E-19
 -1      2714 9.59544E-05-2.80100E-05-2.91212E-05-2.49164E-06-4.00103E-19-1.14187E-18
 -1      2715 9.56459E-05-2.76390E-05-2.91478E-05-3.14372E-06-8.52854E-21-6.57519E-19
 -1      2716 9.59049E-05-2.80563E-05-2.90715E-05-2.19452E-06 1.25856E-19-9.36241E-19
 -1      2717 9.57602E-05-2.80726E-05-2.90110E-05-1.93647E-06 4.90149E-19-5.24552E-19
 -1      2718 9.55248E-05-2.77390E-05-2.90526E-05-2.48569E-06 4.16287E-19 9.03095E-21
 -1      2719 9.57258E-05-2.81238E-05-2.89666E-05-1.68777E-06 2.86266E-19-5.41639E-19
 -1      2720 9.56143E-05-2.81480E-05-2.89160E-05-1.47339E-06 1.06120E-19 8.12510E-20
 -1      2721 9.54427E-05-2.78623E-05-2.89644E-05-1.92556E-06 7.43423E-19-3.34979E-20
 -1      2722 9.55897E-05-2.81975E-05-2.88777E-05-1.27043E-06-9.91761E-20 3.69058E-20
 -1      2723 9.55049E-05-2.82240E-05-2.88362E-05-1.09694E-06-3.94805E-19 1.37100E-19
 -1      2724 9.53855E-05-2.79881E-05-2.88858E-05-1.46151E-06 3.33959E-20-3.64022E-19
 -1      2725 9.54869E-05-2.82685E-05-2.88040E-05-9.35007E-07-6.36390E-19 2.89048E-19
 -1      2726 9.54233E-05-2.82942E-05-2.87708E-05-7.97828E-07-3.56510E-19 3.15514E-19
 -1      2727 9.53446E-05-2.81050E-05-2.88180E-05-1.08600E-06-4.14852E-19 2.50783E-19
 -1      2728 9.54099E-05-2.83323E-05-2.87444E-05-6.71303E-07 4.71972E-20 4.60510E-19
 -1      2729 9.53629E-05-2.83555E-05-2.87184E-05-5.65161E-07 3.62770E-19 7.46314E-19
 -1      2730 9.53148E-05-2.82076E-05-2.87611E-05-7.88587E-07-1.88986E-20 3.38461E-19
 -1      2731 9.53528E-05-2.83869E-05-2.86972E-05-4.68291E-07-2.98581E-19-2.75166E-19
 -1      2732 9.53188E-05-2.84070E-05-2.86772E-05-3.87885E-07-3.90651E-19-4.85179E-19
 -1      2733 9.52929E-05-2.82942E-05-2.87145E-05-5.57783E-07-3.74147E-19 2.95374E-19
 -1      2734 9.53113E-05-2.84323E-05-2.86605E-05-3.15232E-07-3.29242E-19-7.57794E-19
 -1      2735 9.52872E-05-2.84490E-05-2.86455E-05-2.55629E-07-6.84446E-19-7.81887E-19
 -1      2736 9.52766E-05-2.83649E-05-2.86771E-05-3.82234E-07-2.98475E-19-5.61007E-19
 -1      2737 9.52816E-05-2.84688E-05-2.86326E-05-2.02312E-07-1.18047E-18-7.67674E-19
 -1      2738 9.52651E-05-2.84823E-05-2.86215E-05-1.59150E-07-1.16687E-18-1.29362E-18
 -1      2739 9.52645E-05-2.84212E-05-2.86477E-05-2.51451E-07-1.23247E-18 1.80525E-19
 -1      2740 9.52609E-05-2.84975E-05-2.86118E-05-1.20953E-07-1.19813E-18-1.19376E-18
 -1      2741 9.52500E-05-2.85083E-05-2.86039E-05-9.05130E-08-9.82522E-19-5.32701E-19
 -1      2742 9.52556E-05-2.84650E-05-2.86250E-05-1.56159E-07-1.20746E-18-7.07143E-19
 -1      2743 9.52470E-05-2.85196E-05-2.85967E-05-6.39028E-08-6.21562E-19-5.61734E-19
 -1      2744 9.52402E-05-2.85280E-05-2.85911E-05-4.31032E-08-2.18118E-19 3.65403E-19
 -1      2745 9.52491E-05-2.84983E-05-2.86078E-05-8.84393E-08-5.23765E-19 1.97463E-20
 -1      2746 9.52380E-05-2.85363E-05-2.85859E-05-2.51918E-08-2.80715E-19 2.81682E-19
 -1      2747 9.52341E-05-2.85426E-05-2.85821E-05-1.15428E-08-2.16464E-21-3.86379E-19
 -1      2748 9.52445E-05-2.85231E-05-2.85952E-05-4.17134E-08-6.25736E-19-1.28679E-18
 -1      2749 9.52325E-05-2.85486E-05-2.85785E-05-2.20907E-11-2.13945E-19-5.35790E-19
 -1      2750 9.52307E-05-2.85533E-05-2.85761E-05 8.44405E-09-7.43124E-19-8.64955E-19
 -1      2751 9.52412E-05-2.85412E-05-2.85860E-05-1.06458E-08-7.75159E-19-1.85517E-18
 -1      2752 9.52296E-05-2.85574E-05-2.85736E-05 1.53802E-08-7.80217E-19-7.35612E-19
 -1      2753 9.52291E-05-2.85609E-05-2.85721E-05 2.01857E-08-9.46985E-20-9.57276E-19
 -1      2754 9.52390E-05-2.85539E-05-2.85795E-05 8.99836E-09-6.26096E-19-1.62314E-18
 -1      2755 9.52284E-05-2.85636E-05-2.85705E-05 2.39213E-08 1.09655E-18-1.02799E-18
 -1      2756 9.52287E-05-2.85661E-05-2.85697E-05 2.62179E-08 8.78452E-19-7.72032E-19
 -1      2757 9.52376E-05-2.85627E-05-2.85751E-05 2.05101E-08 3.35035E-19-1.54663E-18
 -1      2758 9.52283E-05-2.85679E-05-2.85687E-05 2.77899E-08 5.54049E-19-1.40062E-19
 -1      2759 9.52292E-05-2.85696E-05-2.85684E-05 2.84277E-08 4.20831E-19 5.56620E-19
 -1      2760 9.52367E-05-2.85685E-05-2.85722E-05 2.63934E-08 1.09428E-18-1.45104E-18
 -1      2761 9.52289E-05-2.85707E-05-2.85678E-05 2.85930E-08 4.07556E-19 8.68479E-19
 -1      2762 9.52300E-05-2.85719E-05-2.85678E-05 2.81801E-08 4.52083E-19 6.94275E-19
 -1      2763 9.52363E-05-2.85722E-05-2.85704E-05 2.85085E-08 6.69151E-19-1.00724E-18
 -1      2764 9.52300E-05-2.85725E-05-2.85675E-05 2.74727E-08 6.37370E-19 7.88118E-19
 -1      2765 9.52312E-05-2.85733E-05-2.85676E-05 2.64259E-08 1.82963E-18 7.57872E-19
 -1      2766 9.52361E-05-2.85744E-05-2.85693E-05 2.81988E-08 8.06692E-19 4.68745E-20
 -1      2767 9.52312E-05-2.85737E-05-2.85675E-05 2.52043E-08 1.29058E-18 4.19155E-19
 -1      2768 9.52325E-05-2.85743E-05-2.85678E-05 2.37900E-08 1.31308E-19 9.87002E-19
 -1      2769 9.52361E-05-2.85757E-05-2.85688E-05 2.63987E-08 1.03292E-18-1.83205E-20
 -1      2770 9.52326E-05-2.85745E-05-2.85678E-05 2.22837E-08-1.44496E-19 6.25257E-19
 -1      2771 9.52338E-05-2.85751E-05-2.85680E-05 2.06558E-08-2.63116E-19-5.82027E-19
 -1      2772 9.52364E-05-2.85765E-05-2.85685E-05 2.37205E-08-2.89697E-19 1.18318E-19
 -1      2773 9.52341E-05-2.85754E-05-2.85680E-05 1.89475E-08-3.95094E-19-8.38400E-19
 -1      2774 9.52352E-05-2.85759E-05-2.85683E-05 1.71421E-08-6.09565E-19-1.92090E-18
 -1      2775 9.52368E-05-2.85771E-05-2.85684E-05 2.05663E-08-7.86272E-19-1.86751E-18
 -1      2776 1.37209E-04-5.15697E-05-3.73046E-05 1.89169E-06-1.34085E-18 1.14021E-18
 -1      2777 1.31769E-04-5.59363E-05-3.24482E-05 1.21281E-05-1.56807E-19 8.52009E-19
 -1      2778 1.19515E-04-4.37163E-05-3.25761E-05 2.85748E-06-2.05511E-19 1.03409E-18
 -1      2779 1.18066E-04-4.25088E-05-3.22882E-05 1.10457E-07-1.33125E-19 9.84189E-19
 -1      2780 1.17051E-04-2.49609E-05-3.95460E-05 1.21457E-05 2.33543E-18 1.12659E-18
 -1      2781 1.19688E-04-3.06140E-05-3.85608E-05 1.50484E-05 2.18910E-18 1.69093E-18
 -1      2782 1.17800E-04-2.15435E-05-4.16355E-05-1.10095E-05 3.18908E-18-9.45891E-19
 -1      2783 1.16213E-04-1.82006E-05-4.23482E-05-5.83177E-06 2.92179E-18-5.28734E-19
 -1      2784 1.23947E-04-4.40477E-05-3.43711E-05-1.13692E-05 2.89738E-19-1.48531E-18
 -1      2785 1.22860E-04-4.06451E-05-3.52391E-05-1.40712E-05 8.16606E-19-1.38652E-18
 -1      2786 1.20683E-04-4.49231E-05-3.24213E-05-3.46632E-06-2.30083E-19-2.14789E-18
 -1      2787 1.21641E-04-4.47707E-05-3.30194E-05-6.93844E-06 1.18228E-19-1.84153E-18
 -1      2788 1.25372E-04-4.70891E-05-3.35764E-05-7.20362E-06 2.59086E-19-1.57311E-18
 -1      2789 1.15279E-04-4.17043E-05-3.14475E-05 3.08682E-06-8.73614E-20-1.57378E-18
 -1      2790 1.17162E-04-4.32984E-05-3.17401E-05 2.68054E-07-1.00337E-19-1.64593E-18
 -1      2791 1.19314E-04-4.63082E-05-3.13728E-05 1.10487E-06-1.89252E-19-1.62110E-18
 -1      2792 1.10020E-04-3.74307E-05-3.10401E-05 7.04211E-06-1.95306E-19-7.38078E-19
 -1      2793 1.12005E-04-3.93754E-05-3.11848E-05 5.28645E-06-1.28584E-19-1.00168E-18
 -1      2794 1.12357E-04-4.16407E-05-3.04057E-05 6.71892E-06-3.64867E-19-6.93000E-19
 -1      2795 1.05898E-04-3.37934E-05-3.08575E-05 8.79919E-06-7.09900E-19 2.65733E-19
 -1      2796 1.07594E-04-3.54145E-05-3.09638E-05 7.98097E-06-4.31828E-19-3.80113E-19
 -1      2797 1.06651E-04-3.65859E-05-3.01060E-05 9.47549E-06-6.31407E-19 4.90897E-19
 -1      2798 1.02969E-04-3.12468E-05-3.07147E-05 9.10008E-06-1.31376E-18 1.11176E-18
 -1      2799 1.04304E-04-3.23859E-05-3.08318E-05 8.93837E-06-7.91996E-19 7.20709E-19
 -1      2800 1.02679E-04-3.26580E-05-3.00598E-05 1.02824E-05-1.14296E-18 9.00682E-19
 -1      2801 1.00952E-04-2.96626E-05-3.05422E-05 8.55984E-06-8.93782E-19 8.86440E-19
 -1      2802 1.01982E-04-3.03876E-05-3.06806E-05 8.79730E-06-1.14942E-18 8.20327E-19
 -1      2803 1.00146E-04-3.00828E-05-3.00555E-05 9.95683E-06-9.18493E-19 4.22303E-19
 -1      2804 9.95485E-05-2.87687E-05-3.03317E-05 7.59855E-06-5.09431E-19 3.86909E-19
 -1      2805 1.00350E-04-2.91981E-05-3.04844E-05 8.04192E-06-8.68936E-19 5.00047E-19
 -1      2806 9.85884E-05-2.85918E-05-3.00131E-05 9.04245E-06-7.02286E-19 2.78944E-20
 -1      2807 9.85394E-05-2.83146E-05-3.00976E-05 6.48206E-06 1.70532E-20 5.82250E-19
 -1      2808 9.91737E-05-2.85538E-05-3.02530E-05 7.00327E-06 1.45064E-19 7.95136E-19
 -1      2809 9.76290E-05-2.78375E-05-2.99178E-05 7.87185E-06-4.89961E-19-1.47463E-19
 -1      2810 9.77839E-05-2.81192E-05-2.98590E-05 5.36714E-06-3.94123E-19 1.32355E-18
 -1      2811 9.82920E-05-2.82433E-05-3.00071E-05 5.88886E-06-2.62766E-19 4.81054E-19
 -1      2812 9.70149E-05-2.75331E-05-2.97817E-05 6.64273E-06-2.34214E-19 7.75608E-19
 -1      2813 9.71993E-05-2.80658E-05-2.96317E-05 4.33854E-06-5.66833E-19 1.37726E-18
 -1      2814 9.76082E-05-2.81233E-05-2.97658E-05 4.81886E-06-1.95969E-19 1.49137E-18
 -1      2815 9.65960E-05-2.74798E-05-2.96236E-05 5.46785E-06-3.61720E-19 2.71548E-19
 -1      2816 9.67380E-05-2.80846E-05-2.94257E-05 3.43563E-06-5.89729E-19 5.37006E-21
 -1      2817 9.70661E-05-2.81049E-05-2.95425E-05 3.85544E-06-5.31193E-19 1.09128E-18
 -1      2818 9.62901E-05-2.75535E-05-2.94606E-05 4.40656E-06-1.95535E-19 8.02419E-19
 -1      2819 9.63715E-05-2.81359E-05-2.92461E-05 2.67024E-06 3.47730E-19-1.23680E-18
 -1      2820 9.66326E-05-2.81363E-05-2.93447E-05 3.02418E-06-7.62081E-20-5.09592E-19
 -1      2821 9.60543E-05-2.76816E-05-2.93046E-05 3.48458E-06-1.18803E-19 1.63239E-19
 -1      2822 9.60810E-05-2.81985E-05-2.90944E-05 2.03850E-06 1.10906E-18-1.39420E-18
 -1      2823 9.62863E-05-2.81889E-05-2.91754E-05 2.32890E-06 9.10255E-19-1.04262E-18
 -1      2824 9.58668E-05-2.78244E-05-2.91630E-05 2.70689E-06 3.89579E-19-1.14764E-18
 -1      2825 9.58530E-05-2.82614E-05-2.89692E-05 1.52832E-06 1.05054E-18-1.17003E-18
 -1      2826 9.60121E-05-2.82473E-05-2.90345E-05 1.76140E-06 1.23893E-18-1.27160E-18
 -1      2827 9.57159E-05-2.79617E-05-2.90394E-05 2.06636E-06 1.16063E-18-9.06527E-19
 -1      2828 9.56763E-05-2.83192E-05-2.88684E-05 1.12409E-06-7.32930E-19 1.91592E-19
 -1      2829 9.57977E-05-2.83037E-05-2.89198E-05 1.30761E-06 9.67536E-20-8.50405E-19
 -1      2830 9.55949E-05-2.80845E-05-2.89348E-05 1.54942E-06 1.88642E-19-2.92783E-19
 -1      2831 9.55415E-05-2.83700E-05-2.87886E-05 8.09388E-07-5.30626E-19 3.21248E-19
 -1      2832 9.56325E-05-2.83548E-05-2.88284E-05 9.51357E-07-6.12151E-19 3.45079E-19
 -1      2833 9.54989E-05-2.81897E-05-2.88484E-05 1.13981E-06-6.94148E-19-6.25392E-19
 -1      2834 9.54407E-05-2.84131E-05-2.87266E-05 5.68546E-07 5.46297E-19 4.81822E-19
 -1      2835 9.55075E-05-2.83991E-05-2.87569E-05 6.76485E-07-4.88762E-20 3.10599E-19
 -1      2836 9.54239E-05-2.82770E-05-2.87786E-05 8.20817E-07-3.18286E-19-1.03859E-18
 -1      2837 9.53667E-05-2.84489E-05-2.86794E-05 3.87410E-07 5.53493E-19-1.40751E-20
 -1      2838 9.54148E-05-2.84365E-05-2.87020E-05 4.68030E-07 1.02254E-18 4.96739E-19
 -1      2839 9.53664E-05-2.83480E-05-2.87233E-05 5.76582E-07 8.58455E-19-1.02235E-18
 -1      2840 9.53138E-05-2.84781E-05-2.86441E-05 2.53674E-07-1.36550E-19-6.62382E-19
 -1      2841 9.53474E-05-2.84674E-05-2.86606E-05 3.12751E-07 5.03591E-19-1.26491E-19
 -1      2842 9.53233E-05-2.84048E-05-2.86803E-05 3.92819E-07 6.75543E-19-1.14156E-19
 -1      2843 9.52769E-05-2.85015E-05-2.86182E-05 1.56932E-07 1.71758E-19-1.42582E-18
 -1      2844 9.52997E-05-2.84925E-05-2.86300E-05 1.99306E-07-3.76079E-19-1.60409E-18
 -1      2845 9.52916E-05-2.84493E-05-2.86475E-05 2.57100E-07 6.13540E-19-1.94281E-18
 -1      2846 9.52521E-05-2.85199E-05-2.85996E-05 8.85813E-08 1.37739E-18-1.34904E-18
 -1      2847 9.52669E-05-2.85125E-05-2.86078E-05 1.18223E-07 4.85906E-19-1.38280E-18
 -1      2848 9.52689E-05-2.84838E-05-2.86228E-05 1.58903E-07 3.71723E-19-2.82035E-18
 -1      2849 9.52363E-05-2.85343E-05-2.85866E-05 4.16468E-08 1.42239E-18-9.30586E-19
 -1      2850 9.52453E-05-2.85282E-05-2.85922E-05 6.17504E-08 1.81134E-18-8.25849E-19
 -1      2851 9.52532E-05-2.85100E-05-2.86047E-05 8.95185E-08 1.27856E-18-1.26183E-18
 -1      2852 9.52269E-05-2.85452E-05-2.85779E-05 1.05697E-08 1.29648E-18-5.95755E-19
 -1      2853 9.52318E-05-2.85404E-05-2.85814E-05 2.36641E-08 1.67708E-18-8.11768E-19
 -1      2854 9.52426E-05-2.85296E-05-2.85917E-05 4.18743E-08 1.75951E-18-9.79215E-19
 -1      2855 9.52219E-05-2.85535E-05-2.85722E-05-9.00365E-09-5.12735E-19-6.63026E-19
 -1      2856 9.52241E-05-2.85497E-05-2.85743E-05-9.51409E-10 6.74436E-19-3.44360E-20
 -1      2857 9.52360E-05-2.85441E-05-2.85825E-05 1.03319E-08 8.18956E-19-2.48609E-19
 -1      2858 9.52201E-05-2.85596E-05-2.85688E-05-2.04256E-08-8.43974E-19-5.47436E-19
 -1      2859 9.52203E-05-2.85567E-05-2.85699E-05-1.59113E-08-1.51300E-18-2.95633E-19
 -1      2860 9.52321E-05-2.85545E-05-2.85763E-05-9.52790E-09-7.84223E-19 2.02614E-19
 -1      2861 9.52202E-05-2.85640E-05-2.85669E-05-2.62301E-08-2.35098E-18-7.23272E-19
 -1      2862 9.52193E-05-2.85618E-05-2.85674E-05-2.41252E-08-9.52779E-19-8.23262E-21
 -1      2863 9.52302E-05-2.85618E-05-2.85723E-05-2.11085E-08-1.37190E-18 6.85830E-19
 -1      2864 9.52215E-05-2.85672E-05-2.85661E-05-2.82919E-08-1.31240E-18-1.47939E-18
 -1      2865 9.52200E-05-2.85655E-05-2.85661E-05-2.77688E-08-1.90456E-18-1.11174E-18
 -1      2866 9.52295E-05-2.85668E-05-2.85699E-05-2.69819E-08-1.51746E-18 2.12989E-19
 -1      2867 9.52235E-05-2.85694E-05-2.85660E-05-2.79620E-08-2.92374E-19-1.29036E-18
 -1      2868 9.52217E-05-2.85681E-05-2.85658E-05-2.84313E-08-1.47848E-18-1.46573E-18
 -1      2869 9.52297E-05-2.85701E-05-2.85685E-05-2.90497E-08-1.02207E-18-1.24428E-18
 -1      2870 9.52258E-05-2.85710E-05-2.85663E-05-2.61780E-08-6.90808E-20-5.96023E-19
 -1      2871 9.52239E-05-2.85700E-05-2.85659E-05-2.72378E-08 2.33169E-19-1.05323E-18
 -1      2872 9.52304E-05-2.85722E-05-2.85678E-05-2.86803E-08-5.61311E-19-1.34477E-18
 -1      2873 9.52282E-05-2.85722E-05-2.85668E-05-2.35544E-08 4.32632E-19-6.68205E-19
 -1      2874 9.52263E-05-2.85714E-05-2.85664E-05-2.49492E-08 4.71788E-20-3.59140E-19
 -1      2875 9.52314E-05-2.85736E-05-2.85677E-05-2.68219E-08 1.13657E-19-1.43190E-18
 -1      2876 9.52305E-05-2.85732E-05-2.85674E-05-2.04560E-08 3.83981E-19 1.03928E-18
 -1      2877 9.52288E-05-2.85725E-05-2.85670E-05-2.20425E-08 2.21084E-19 5.30289E-19
 -1      2878 9.52326E-05-2.85745E-05-2.85678E-05-2.40957E-08-4.61608E-19-2.51249E-18
 -1      2879 9.52327E-05-2.85741E-05-2.85680E-05-1.70508E-08-1.38857E-18 3.13533E-18
 -1      2880 9.52312E-05-2.85735E-05-2.85676E-05-1.87657E-08-2.62778E-19 1.79261E-18
 -1      2881 9.52339E-05-2.85753E-05-2.85680E-05-2.08743E-08-8.66446E-19-8.96112E-20
 -1      2882 9.52350E-05-2.85754E-05-2.85684E-05-1.40170E-08-4.23614E-19 2.76513E-18
 -1      2883 9.52337E-05-2.85748E-05-2.85681E-05-1.58866E-08-9.00953E-19 2.29829E-18
 -1      2884 9.52356E-05-2.85763E-05-2.85683E-05-1.78565E-08-9.26137E-19 1.49653E-18
 -1      2885 9.52373E-05-2.85777E-05-2.85684E-05-1.51785E-08-8.44562E-19 9.98327E-19
 -1      2886 1.37208E-04-5.76950E-05-3.45669E-05 4.71219E-06 2.80368E-19-3.70206E-18
 -1      2887 1.28628E-04-5.94972E-05-2.92731E-05 1.55170E-05-7.95258E-19-3.10882E-18
 -1      2888 9.52491E-05-2.85892E-05-2.85685E-05-1.30989E-09-5.13834E-19-1.37964E-18
 -1      2889 9.52489E-05-2.85889E-05-2.85685E-05-3.71449E-09 3.62821E-20-1.50395E-18
 -1      2890 9.52353E-05-2.85761E-05-2.85683E-05 1.59850E-08-4.32348E-19-1.18984E-18
 -1      2891 9.52361E-05-2.85764E-05-2.85684E-05 1.46304E-08-9.74592E-19-7.13582E-20
 -1      2892 9.52373E-05-2.85776E-05-2.85684E-05 1.75891E-08-3.11459E-19-1.95937E-18
 -1      2893 9.52466E-05-2.85867E-05-2.85685E-05-1.06567E-08 1.48595E-18-3.92414E-18
 -1      2894 9.52454E-05-2.85855E-05-2.85685E-05-1.23016E-08 2.19750E-18-3.56067E-18
 -1      2895 9.52489E-05-2.85889E-05-2.85685E-05 3.82382E-09-1.33992E-19 1.40553E-19
 -1      2896 9.52491E-05-2.85892E-05-2.85685E-05 1.42314E-09-6.06559E-19-2.35047E-19
 -1      2897 9.52506E-05-2.85889E-05-2.85693E-05 6.42171E-11-1.23448E-21-1.10230E-18
 -1      2898 9.52484E-05-2.85884E-05-2.85685E-05-6.31437E-09 7.86192E-19-1.61144E-18
 -1      2899 9.52476E-05-2.85877E-05-2.85685E-05-8.46394E-09 1.27374E-18-2.12277E-18
 -1      2900 9.52482E-05-2.85870E-05-2.85691E-05-1.04228E-08 2.24265E-18-3.73401E-18
 -1      2901 9.52500E-05-2.85884E-05-2.85693E-05-5.45520E-09 1.12330E-18-1.95680E-18
 -1      2902 9.52476E-05-2.85876E-05-2.85685E-05 8.48034E-09 3.99848E-19-1.35155E-18
 -1      2903 9.52483E-05-2.85884E-05-2.85685E-05 6.37417E-09-1.48393E-19-3.37746E-19
 -1      2904 9.52500E-05-2.85884E-05-2.85693E-05 5.52997E-09 2.60510E-19-7.16525E-19
 -1      2905 9.52454E-05-2.85855E-05-2.85685E-05 1.23122E-08 1.44090E-18-3.32411E-19
 -1      2906 9.52466E-05-2.85867E-05-2.85685E-05 1.06665E-08 4.71186E-19-1.00642E-18
 -1      2907 9.52482E-05-2.85869E-05-2.85691E-05 1.04409E-08 2.68157E-19-3.97892E-19
 -1      2908 9.52423E-05-2.85825E-05-2.85685E-05 1.48437E-08 8.93585E-19 1.27878E-19
 -1      2909 9.52440E-05-2.85841E-05-2.85685E-05 1.38253E-08 1.47832E-18 4.37811E-19
 -1      2910 9.52454E-05-2.85845E-05-2.85690E-05 1.42841E-08 7.60009E-21 5.56894E-19
 -1      2911 9.52377E-05-2.85781E-05-2.85684E-05 1.50739E-08-3.99087E-19-1.41255E-20
 -1      2912 1.34636E-04-3.30906E-05-4.43546E-05-1.10861E-05-2.93920E-18 4.09011E-19
 -1      2913 1.38033E-04-4.26727E-05-4.09671E-05-7.12595E-06-2.25385E-18 9.85840E-19
 -1      2914 1.02809E-04-2.61597E-05-3.28852E-05-2.24940E-06-1.07748E-18-1.28649E-18
 -1      2915 1.04403E-04-2.85955E-05-3.24436E-05-1.15416E-06-8.63095E-19-1.07806E-18
 -1      2916 1.05468E-04-3.07337E-05-3.20678E-05-4.47378E-07-7.09960E-19-9.02680E-19
 -1      2917 9.76399E-05-2.26948E-05-3.21126E-05-2.45004E-07-6.13788E-19-1.70142E-18
 -1      2918 8.29903E-05-4.34996E-05-1.68311E-05 3.81886E-05-2.30065E-18 1.07838E-18
 -1      2919 6.66851E-05-3.37624E-05-1.36895E-05 3.55263E-05-2.24347E-18 1.37516E-18
 -1      2920 1.38988E-04-4.35924E-05-4.15094E-05-1.10230E-05 1.98179E-18-3.10787E-18
 -1      2921 1.39381E-04-5.07847E-05-3.80976E-05-6.30532E-06 1.03391E-18-3.53499E-18
 -1      2922 1.32688E-04-2.30421E-05-4.72684E-05 1.24123E-05-3.08934E-18-2.32701E-18
 -1      2923 1.30133E-04-1.50478E-05-5.00757E-05 9.05194E-06-3.82499E-18-2.02695E-18
 -1      2924 1.14025E-04-5.74802E-05-2.46109E-05 2.86333E-05-1.32518E-18-1.79457E-18
 -1      2925 9.88780E-05-5.08858E-05-2.00860E-05 3.43169E-05-2.31949E-18 3.03132E-19
 -1      2926 3.45403E-05-1.22316E-05-9.10433E-06 3.37221E-06-9.85066E-19 3.87031E-18
 -1      2927 3.37703E-05-1.34332E-05-8.04495E-06-1.25288E-05-4.06893E-19 4.86536E-18
 -1      2928 1.14712E-04-4.01133E-05-3.20460E-05-2.15220E-06 7.67293E-20 6.05660E-19
 -1      2929 1.12973E-04-3.79810E-05-3.20380E-05-3.69081E-06 8.81402E-20 5.78828E-19
 -1      2930 1.09615E-04-3.65905E-05-3.13713E-05-5.65804E-06 1.87589E-19-1.77066E-20
 -1      2931 1.15714E-04-4.25261E-05-3.14733E-05-3.38909E-06-2.28296E-19 4.18826E-19
 -1      2932 1.21705E-04-3.61479E-05-3.66856E-05 1.49328E-05 1.52209E-18 1.74221E-18
 -1      2933 1.23450E-04-4.08218E-05-3.56138E-05 1.37312E-05 7.40843E-19 1.59270E-18
 -1      2934 1.25241E-04-3.44382E-05-3.90477E-05 1.59417E-05 1.90625E-18 1.76516E-18
 -1      2935 1.22893E-04-4.34113E-05-3.40965E-05 9.71777E-06 3.51454E-19 1.32501E-18
 -1      2936 1.22608E-04-4.46379E-05-3.34003E-05 6.69315E-06 3.72595E-20 1.34075E-18
 -1      2937 1.22378E-04-4.65581E-05-3.26030E-05 2.51692E-06-1.54992E-19 9.90188E-19
 -1      2938 3.43404E-05-9.68419E-06-1.00017E-05-9.81968E-06 2.14643E-19-4.79336E-18
 -1      2939 4.34132E-05-1.53124E-05-1.15866E-05-2.29630E-05-3.26108E-19-4.40394E-18
 -1      2940 9.72782E-05-4.72924E-05-2.15239E-05 3.59373E-05 1.60862E-18-1.20612E-18
 -1      2941 8.12163E-05-3.85456E-05-1.76437E-05 3.73552E-05 1.99582E-18-2.18656E-18
 -1      2942 1.03047E-04-2.50869E-05-3.34259E-05-3.15754E-07 1.81109E-18 2.77503E-19
 -1      2943 5.79608E-05-2.63666E-05-1.30909E-05-3.34070E-05-6.32098E-19-3.68745E-18
 -1      2944 7.27517E-05-3.64189E-05-1.52437E-05-3.82108E-05-6.44169E-19-3.22307E-18
 -1      2945 1.33117E-04-2.31025E-05-4.78662E-05-1.33988E-05 4.20467E-18-2.06941E-18
 -1      2946 1.36002E-04-3.26070E-05-4.46430E-05-1.49735E-05 3.24308E-18-2.60590E-18
 -1      2947 7.78252E-05-9.45705E-06-2.92627E-05-3.77030E-06 1.45133E-18-2.18756E-18
 -1      2948 7.41950E-05-7.41794E-06-2.86894E-05-3.38088E-06 1.31025E-18-2.52061E-18
 -1      2949 7.25707E-05-7.71429E-06-2.77602E-05-3.98096E-06 1.18495E-18-2.52738E-18
 -1      2950 8.05601E-05-1.29082E-05-2.90024E-05-5.66535E-06 1.23452E-18-1.87807E-18
 -1      2951 6.08446E-05-2.85170E-05-1.38030E-05 3.74123E-05 1.72721E-18-3.46648E-18
 -1      2952 4.49866E-05-1.90352E-05-1.03443E-05 2.95026E-05 1.70921E-18-4.16719E-18
 -1      2953 5.40432E-05-2.44410E-05-1.22518E-05 3.00730E-05-1.98957E-18 2.03341E-18
 -1      2954 4.30043E-05-1.67582E-05-1.07736E-05 1.93127E-05-1.60486E-18 3.01173E-18
 -1      2955 1.31783E-04-3.20368E-05-4.30935E-05 1.46253E-05 2.44147E-18 1.07928E-18
 -1      2956 1.28678E-04-2.56344E-05-4.49764E-05 1.41268E-05 2.93095E-18 1.17293E-18
 -1      2957 8.15873E-05-1.28112E-05-2.95348E-05 5.64366E-06 3.56798E-19-2.53351E-18
 -1      2958 8.53293E-05-1.49648E-05-3.01207E-05 4.73679E-06 1.05430E-19-2.50762E-18
 -1      2959 8.57228E-05-4.36774E-05-1.77001E-05-3.74191E-05-9.21678E-19-2.85376E-18
 -1      2960 1.00541E-04-5.04248E-05-2.14114E-05-3.49413E-05-9.60218E-19-2.35279E-18
 -1      2961 8.43008E-05-3.94668E-05-1.87501E-05-3.43567E-05-9.50371E-19-2.74116E-18
 -1      2962 4.03643E-05-1.93870E-05-8.59777E-06-2.52762E-05 1.26557E-18 4.93270E-18
 -1      2963 5.35933E-05-2.85269E-05-1.04317E-05-3.61691E-05 2.16766E-18 4.28927E-18
 -1      2964 1.32016E-04-5.80390E-05-3.14789E-05-1.43392E-05 2.53633E-19-1.98142E-18
 -1      2965 1.37336E-04-5.39451E-05-3.63538E-05-4.44180E-06-1.03192E-19-2.41531E-18
 -1      2966 1.27891E-04-1.44619E-05-4.93936E-05-8.28095E-06-4.39695E-18-4.27487E-19
 -1      2967 1.30683E-04-2.16075E-05-4.70183E-05-1.25568E-05-3.93119E-18 9.49736E-20
 -1      2968 1.25854E-04-5.74889E-05-2.95672E-05 2.08555E-05 3.15520E-19 4.02658E-19
 -1      2969 1.14637E-04-5.42562E-05-2.56123E-05 2.76313E-05 9.56618E-19-1.34281E-19
 -1      2970 1.29126E-04-5.53993E-05-3.15030E-05 1.10759E-05 4.83921E-19 8.11775E-19
 -1      2971 6.86786E-05-3.65940E-05-1.32753E-05-3.88880E-05 2.63057E-18 2.70013E-18
 -1      2972 8.70052E-05-4.57811E-05-1.77858E-05-3.97456E-05 2.31579E-18 2.22770E-19
 -1      2973 6.87573E-05-3.20981E-05-1.51974E-05-3.46022E-05 2.58599E-18 2.39821E-18
 -1      2974 1.27599E-04-1.80781E-05-4.74651E-05 1.00728E-05 3.45378E-18 8.32845E-19
 -1      2975 1.26730E-04-1.28313E-05-4.95128E-05 2.72411E-06 4.02108E-18 1.44168E-19
 -1      2976 1.22072E-04-1.49065E-05-4.63402E-05-5.66607E-07 3.53827E-18 1.89259E-20
 -1      2977 1.21668E-04-2.11356E-05-4.33685E-05 1.18100E-05 3.00443E-18 1.17399E-18
 -1      2978 1.27913E-04-9.94572E-06-5.11261E-05 4.13527E-06-4.15427E-18-1.91731E-18
 -1      2979 1.26577E-04-9.24688E-06-5.08383E-05-2.74914E-06-4.44968E-18-1.35319E-18
 -1      2980 1.38125E-04-4.47648E-05-4.00014E-05 6.34722E-06-7.34378E-19-2.52162E-18
 -1      2981 1.35778E-04-3.55308E-05-4.37632E-05 1.06926E-05-1.56436E-18-2.39086E-18
 -1      2982 1.05919E-04-5.41339E-05-2.17693E-05-3.38649E-05 1.31036E-18-1.48634E-18
 -1      2983 1.21043E-04-5.88251E-05-2.70614E-05-2.63963E-05 5.00808E-19-1.79963E-18
 -1      2984 4.38685E-05-1.49940E-05-1.17932E-05 2.34243E-05 1.63869E-18-4.25422E-18
 -1      2985 6.84163E-05-5.20596E-06-2.70307E-05 4.15709E-06 1.00525E-18-2.73653E-18
 -1      2986 6.93704E-05-4.64313E-06-2.78011E-05 4.43815E-06 9.57241E-19-2.82326E-18
 -1      2987 7.14315E-05-5.88881E-06-2.80545E-05 5.26441E-06 8.31388E-19-2.85739E-18
 -1      2988 9.95390E-05-4.91947E-05-2.11481E-05-3.31535E-05 1.99932E-18-5.43345E-19
 -1      2989 6.63741E-05-2.89398E-05-1.55941E-05 3.00032E-05-2.51786E-18 1.03963E-18
 -1      2990 1.05016E-04-3.13321E-05-3.16192E-05 6.43654E-07-5.28699E-19-8.78101E-19
 -1      2991 1.26429E-04-2.16129E-05-4.52972E-05-1.28549E-05 3.88449E-18-1.50327E-18
 -1      2992 1.21928E-04-1.29720E-05-4.69835E-05-5.73815E-06-3.81610E-18-6.37710E-19
 -1      2993 1.26121E-04-5.78415E-05-2.91219E-05-1.72677E-05 8.87055E-19-1.89079E-18
 -1      2994 9.52454E-05-2.85846E-05-2.85690E-05-1.42848E-08 7.30043E-19-2.23717E-18
 -1      2995 9.52439E-05-2.85841E-05-2.85685E-05-1.38273E-08 1.15959E-18-2.87384E-18
 -1      2996 9.52423E-05-2.85825E-05-2.85685E-05-1.47306E-08 6.53891E-19-4.76104E-19
 -1      2997 1.34498E-04-4.74567E-05-3.74261E-05-4.34770E-06-1.02367E-18 1.11935E-18
 -1      2998 1.23380E-04-1.37882E-05-4.73710E-05 7.35398E-06-3.72356E-18-1.96025E-18
 -1      2999 1.26803E-04-4.50202E-05-3.50796E-05 1.08781E-05 4.92940E-19 1.27899E-18
 -1      3000 1.14774E-04-1.80553E-05-4.17321E-05 1.42476E-06 2.78208E-18 3.53860E-19
 -1      3001 1.15998E-04-2.03688E-05-4.13975E-05 7.59077E-06 2.57445E-18 6.91013E-19
 -1      3002 1.28501E-04-3.82973E-05-3.89011E-05-1.53563E-05 1.65166E-18-1.83197E-18
 -1      3003 1.23321E-04-3.34819E-05-3.88116E-05-1.63316E-05 2.22166E-18-1.76485E-18
 -1      3004 1.20392E-04-2.71636E-05-4.01339E-05-1.53985E-05 3.04927E-18-1.78994E-18
 -1      3005 1.34764E-04-5.35531E-05-3.49968E-05-2.88886E-06 2.49517E-19-3.44038E-18
 -1      3006 1.33779E-04-4.05467E-05-4.03907E-05 1.34534E-05 1.57792E-18 1.01014E-18
 -1      3007 9.52408E-05-2.85811E-05-2.85684E-05-1.52849E-08-3.51347E-19 1.00680E-18
 -1      3008 9.52390E-05-2.85793E-05-2.85685E-05-1.53143E-08-1.23812E-18 1.86286E-18
 -1      3009 9.52383E-05-2.85786E-05-2.85685E-05-1.68004E-08-1.57767E-18 1.52807E-18
 -1      3010 9.52420E-05-2.85817E-05-2.85687E-05-1.64083E-08-1.11736E-18 1.04887E-18
 -1      3011 1.29798E-04-2.97461E-05-4.32000E-05 1.33896E-05-1.89841E-18-2.53326E-18
 -1      3012 9.52395E-05-2.85799E-05-2.85684E-05 1.50802E-08-1.46107E-19 2.02925E-19
 -1      3013 9.52406E-05-2.85805E-05-2.85686E-05 1.64036E-08 3.16801E-19-4.97901E-19
 -1      3014 1.28660E-04-2.74404E-05-4.33914E-05-1.34839E-05-2.90331E-18 7.31201E-19
 -1      3015 4.29229E-05-1.37403E-05-1.18893E-05 1.10055E-05-1.06371E-18 3.33466E-18
 -1      3016 4.56012E-05-1.21677E-05-1.40779E-05 1.69387E-06-4.00144E-19 2.99977E-18
 -1      3017 5.29844E-05-1.64159E-05-1.53945E-05 1.53161E-05-1.28137E-18 2.28752E-18
 -1      3018 1.21685E-04-5.70054E-05-2.75246E-05 1.85136E-05-1.29194E-18-2.85138E-18
 -1      3019 1.37634E-04-5.73800E-05-3.43031E-05-7.06003E-06 2.87991E-19-3.50989E-19
 -1      3020 1.37488E-04-5.35012E-05-3.64106E-05 3.28980E-06 4.90234E-19 1.84230E-20
 -1      3021 1.31766E-04-5.77663E-05-3.16073E-05-1.09400E-05-2.82697E-20-5.58406E-19
 -1      3022 9.40179E-05-4.61749E-05-2.01093E-05 3.29905E-05-2.44845E-18 2.04029E-19
 -1      3023 1.11155E-04-5.41758E-05-2.41906E-05-2.92430E-05-9.01137E-19-1.80957E-18
 -1      3024 1.19343E-04-5.60682E-05-2.72856E-05-2.14423E-05-8.34830E-19-1.08865E-18
 -1      3025 1.05143E-04-4.95956E-05-2.35173E-05-2.91841E-05-1.06329E-18-1.85858E-18
 -1      3026 4.60606E-05-1.69482E-05-1.18951E-05-1.86279E-05 6.97399E-19 4.01345E-18
 -1      3027 1.08225E-04-4.98527E-05-2.48602E-05 2.73512E-05 1.73970E-18-3.50797E-19
 -1      3028 5.22061E-05-1.42847E-05-1.59255E-05-1.99695E-05-1.25573E-19-3.93468E-18
 -1      3029 5.39026E-05-1.98394E-05-1.40388E-05-2.67896E-05-5.16055E-19-3.93267E-18
 -1      3030 6.52903E-05-2.48711E-05-1.72187E-05-2.89994E-05-6.40860E-19-3.23990E-18
 -1      3031 3.46422E-05-8.11273E-06-1.07454E-05-3.43947E-06 5.93347E-19-4.78457E-18
 -1      3032 4.31409E-05-8.71902E-06-1.43619E-05-8.56556E-06 2.69737E-19-4.20912E-18
 -1      3033 3.66544E-05-7.63335E-06-1.21579E-05 4.45638E-06 9.87303E-19-4.57885E-18
 -1      3034 7.46155E-05-3.16901E-05-1.79397E-05 3.38807E-05 2.17613E-18-2.45057E-18
 -1      3035 7.44507E-05-8.16203E-06-2.84778E-05 6.11600E-06 7.34035E-19-2.69449E-18
 -1      3036 7.77622E-05-1.01001E-05-2.89461E-05 6.06756E-06 5.23498E-19-2.60175E-18
 -1      3037 8.07364E-05-1.37208E-05-2.87135E-05 7.50367E-06 5.57649E-19-2.43985E-18
 -1      3038 7.32043E-05-8.64701E-06-2.76469E-05 7.08609E-06 8.66442E-19-2.67470E-18
 -1      3039 1.00168E-04-2.41463E-05-3.26176E-05-1.89063E-06 1.66281E-18-2.29096E-19
 -1      3040 8.87804E-05-1.89030E-05-2.99727E-05 5.59243E-06 1.49650E-19-2.26366E-18
 -1      3041 8.91544E-05-1.74668E-05-3.07534E-05 3.36691E-06-8.31585E-20-2.39853E-18
 -1      3042 9.26915E-05-1.95535E-05-3.13610E-05 1.94606E-06-3.56369E-19-2.24545E-18
 -1      3043 9.92257E-05-2.52066E-05-3.17508E-05-4.19737E-06 1.40843E-18-4.58777E-19
 -1      3044 1.34779E-04-4.96143E-05-3.66239E-05 2.65190E-06-1.00181E-19-2.44157E-18
 -1      3045 9.39385E-05-2.29324E-05-3.03748E-05-6.74014E-06 1.15627E-18-8.45485E-19
 -1      3046 8.88501E-05-1.99183E-05-2.95683E-05-7.50573E-06 1.03660E-18-1.21478E-18
 -1      3047 7.72074E-05-3.40097E-05-1.83025E-05 3.14879E-05-2.27915E-18 4.41939E-19
 -1      3048 6.52245E-05-2.51378E-05-1.69980E-05 2.60724E-05-2.09130E-18 8.17863E-19
 -1      3049 1.27821E-04-5.30379E-05-3.24127E-05 5.63463E-06 3.26554E-19 1.13521E-18
 -1      3050 1.24259E-04-5.37352E-05-2.99549E-05 1.22662E-05 9.14260E-19 8.22443E-19
 -1      3051 1.13706E-04-4.11710E-05-3.09816E-05 8.11307E-07 1.92468E-20 9.50679E-20
 -1      3052 1.15693E-04-4.26954E-05-3.13477E-05-9.70388E-07 1.16500E-20 2.69620E-19
 -1      3053 1.18961E-04-4.37889E-05-3.21513E-05-4.01093E-06-2.71675E-19 6.62370E-19
 -1      3054 1.19918E-04-4.30007E-05-3.30284E-05-6.54169E-06-5.64564E-19 5.21415E-19
 -1      3055 1.18170E-04-4.52134E-05-3.14022E-05 3.14243E-07 1.52466E-20 5.79053E-19
 -1      3056 1.23494E-04-3.49295E-05-3.81847E-05-1.34857E-05-1.38749E-18 1.36274E-18
 -1      3057 1.20855E-04-2.85775E-05-3.98088E-05-1.23580E-05-2.02293E-18 1.10112E-18
 -1      3058 1.16092E-04-2.04451E-05-4.16207E-05-1.07419E-05-2.66667E-18 4.15880E-19
 -1      3059 1.14067E-04-1.63458E-05-4.22689E-05-5.74355E-06-3.00691E-18 3.06884E-20
 -1      3060 1.10521E-04-1.57437E-05-4.06894E-05 2.23284E-06-2.70103E-18-1.17698E-19
 -1      3061 1.11503E-04-1.82106E-05-4.03707E-05 7.65686E-06-2.08555E-18-7.01874E-19
 -1      3062 1.14794E-04-2.29826E-05-3.94554E-05 1.21260E-05-1.81032E-18-1.82618E-18
 -1      3063 1.16661E-04-2.85765E-05-3.81840E-05 1.38537E-05-1.78015E-18-2.04552E-18
 -1      3064 1.22773E-04-3.47177E-05-3.79000E-05 1.35141E-05-1.43000E-18-2.19307E-18
 -1      3065 1.24377E-04-4.05765E-05-3.60983E-05 1.15729E-05-8.88716E-19-2.09224E-18
 -1      3066 1.16344E-04-4.46320E-05-3.07747E-05 9.76736E-07-3.69995E-19-1.16108E-18
 -1      3067 1.14365E-04-4.37619E-05-3.01722E-05-1.65344E-06-1.75218E-19-1.31854E-18
 -1      3068 1.10925E-04-4.18201E-05-2.96587E-05-3.93262E-06 3.40914E-20-1.27806E-18
 -1      3069 1.08683E-04-3.99593E-05-2.93689E-05-5.67370E-06-1.81402E-19-1.05790E-18
 -1      3070 1.12321E-04-4.41545E-05-2.93406E-05-5.60935E-06-8.50325E-20-1.12017E-18
 -1      3071 1.05848E-04-3.77708E-05-2.91937E-05-6.72613E-06 2.84542E-20-3.27431E-19
 -1      3072 1.03881E-04-3.58667E-05-2.90878E-05-7.64388E-06-3.15751E-20 1.09009E-19
 -1      3073 1.06063E-04-3.93630E-05-2.86787E-05-8.54195E-06 4.54257E-19-4.68469E-19
 -1      3074 1.01881E-04-3.40337E-05-2.90771E-05-7.88826E-06-1.00897E-19 3.82074E-19
 -1      3075 1.00379E-04-3.24914E-05-2.90559E-05-8.21814E-06 1.66676E-19 5.66444E-19
 -1      3076 1.01271E-04-3.48510E-05-2.85340E-05-9.42682E-06 2.00192E-19 3.04241E-19
 -1      3077 9.91075E-05-3.11710E-05-2.91081E-05-8.02282E-06-1.16822E-19 5.17410E-19
 -1      3078 9.80557E-05-3.00752E-05-2.91132E-05-7.97565E-06-9.03928E-20 5.30729E-19
 -1      3079 9.80686E-05-3.14031E-05-2.86152E-05-9.21149E-06-9.45782E-20 4.19630E-19
 -1      3080 9.73239E-05-2.92297E-05-2.91737E-05-7.56651E-06-4.66740E-19 3.62142E-19
 -1      3081 9.66275E-05-2.85291E-05-2.91754E-05-7.30083E-06-6.09482E-19 1.22096E-19
 -1      3082 9.61281E-05-2.90736E-05-2.87635E-05-8.43793E-06-1.74440E-19-2.80563E-19
 -1      3083 9.62504E-05-2.80479E-05-2.92205E-05-6.80818E-06-4.68276E-19 1.15628E-19
 -1      3084 9.58038E-05-2.76446E-05-2.92086E-05-6.42926E-06-7.07369E-22-3.96575E-19
 -1      3085 9.50632E-05-2.76678E-05-2.88980E-05-7.44535E-06-4.35377E-19-8.17769E-20
 -1      3086 9.56455E-05-2.74175E-05-2.92321E-05-5.92036E-06 2.30932E-19-4.56066E-19
 -1      3087 9.53637E-05-2.72196E-05-2.92061E-05-5.49743E-06 6.60900E-19-1.16192E-18
 -1      3088 9.45546E-05-2.69273E-05-2.89901E-05-6.39642E-06-2.18424E-19-6.22294E-20
 -1      3089 9.53307E-05-2.71565E-05-2.92099E-05-5.01000E-06 1.33490E-18-1.28876E-18
 -1      3090 9.51535E-05-2.70904E-05-2.91734E-05-4.58727E-06 1.46539E-18-1.31088E-18
 -1      3091 9.43784E-05-2.66338E-05-2.90362E-05-5.37710E-06 9.85853E-19-7.81253E-20
 -1      3092 9.51855E-05-2.71248E-05-2.91620E-05-4.14178E-06 9.81018E-19-6.54830E-19
 -1      3093 9.50731E-05-2.71372E-05-2.91197E-05-3.74611E-06 6.24834E-19-2.17754E-20
 -1      3094 9.43853E-05-2.66189E-05-2.90434E-05-4.43374E-06 1.80797E-18 4.15811E-20
 -1      3095 9.51336E-05-2.72231E-05-2.90983E-05-3.35261E-06 1.79823E-19 1.38388E-19
 -1      3096 9.50608E-05-2.72779E-05-2.90542E-05-2.99873E-06 4.57047E-19 5.68508E-19
 -1      3097 9.44816E-05-2.67625E-05-2.90221E-05-3.59012E-06 3.76253E-19 5.90823E-19
 -1      3098 9.51289E-05-2.73856E-05-2.90274E-05-2.66062E-06 2.29442E-19-2.00850E-19
 -1      3099 9.50804E-05-2.74593E-05-2.89846E-05-2.35492E-06 4.47419E-19 1.16625E-21
 -1      3100 9.46117E-05-2.69839E-05-2.89826E-05-2.85617E-06-6.40147E-20 3.34288E-19
 -1      3101 9.51450E-05-2.75704E-05-2.89558E-05-2.07125E-06 6.22385E-19-4.89142E-19
 -1      3102 9.51118E-05-2.76487E-05-2.89163E-05-1.81456E-06 4.71089E-19-2.95467E-19
 -1      3103 9.47448E-05-2.72317E-05-2.89335E-05-2.23265E-06 9.45789E-20-1.17056E-18
 -1      3104 9.51678E-05-2.77530E-05-2.88880E-05-1.58161E-06 2.54712E-19-2.60025E-19
 -1      3105 9.51443E-05-2.78275E-05-2.88530E-05-1.37126E-06 1.12826E-19-1.62733E-19
 -1      3106 9.48656E-05-2.74752E-05-2.88810E-05-1.71424E-06 1.46638E-19-1.40312E-18
 -1      3107 9.51902E-05-2.79199E-05-2.88268E-05-1.18374E-06-4.86389E-19 4.67379E-19
 -1      3108 9.51731E-05-2.79865E-05-2.87967E-05-1.01510E-06-5.68329E-19 5.24363E-19
 -1      3109 9.49676E-05-2.76976E-05-2.88296E-05-1.29175E-06 2.65793E-20 3.51477E-20
 -1      3110 9.52091E-05-2.80649E-05-2.87733E-05-8.66991E-07-3.43979E-19 6.81732E-19
 -1      3111 9.51965E-05-2.81220E-05-2.87482E-05-7.34534E-07-6.04512E-20 1.29169E-19
 -1      3112 9.50495E-05-2.78909E-05-2.87820E-05-9.53934E-07-5.62945E-19 8.40168E-19
 -1      3113 9.52237E-05-2.81865E-05-2.87280E-05-6.19720E-07-7.97785E-19 7.01582E-19
 -1      3114 9.52143E-05-2.82337E-05-2.87075E-05-5.17724E-07-9.73243E-19 5.62485E-19
 -1      3115 9.51128E-05-2.80532E-05-2.87397E-05-6.88758E-07-2.36969E-19 2.24772E-19
 -1      3116 9.52341E-05-2.82854E-05-2.86905E-05-4.30385E-07-6.01172E-19 2.23172E-19
 -1      3117 9.52271E-05-2.83235E-05-2.86741E-05-3.53400E-07-1.82058E-19-2.90479E-19
 -1      3118 9.51600E-05-2.81854E-05-2.87034E-05-4.84403E-07-9.32356E-19 8.00845E-21
 -1      3119 9.52410E-05-2.83639E-05-2.86602E-05-2.88260E-07-5.67543E-19-7.40910E-19
 -1      3120 9.52357E-05-2.83939E-05-2.86473E-05-2.31357E-07-1.94943E-18-6.07645E-19
 -1      3121 9.51940E-05-2.82907E-05-2.86729E-05-3.29865E-07-1.04265E-18-1.27010E-18
 -1      3122 9.52451E-05-2.84248E-05-2.86362E-05-1.83799E-07-1.60286E-18-3.19130E-19
 -1      3123 9.52412E-05-2.84479E-05-2.86263E-05-1.42693E-07-6.17025E-19-6.29748E-19
 -1      3124 9.52176E-05-2.83725E-05-2.86480E-05-2.15309E-07-1.17965E-18-4.58669E-19
 -1      3125 9.52472E-05-2.84711E-05-2.86175E-05-1.08795E-07-1.10181E-18-3.15091E-19
 -1      3126 9.52443E-05-2.84885E-05-2.86100E-05-7.98681E-08-1.05605E-18-1.11816E-18
 -1      3127 9.52332E-05-2.84348E-05-2.86280E-05-1.32228E-07-9.83381E-19-8.83343E-19
 -1      3128 9.52478E-05-2.85055E-05-2.86033E-05-5.63823E-08-6.72107E-19-1.18062E-18
 -1      3129 9.52458E-05-2.85183E-05-2.85978E-05-3.66604E-08-4.59735E-19-8.65347E-19
 -1      3130 9.52430E-05-2.84812E-05-2.86123E-05-7.34612E-08-9.07629E-19-1.31824E-18
 -1      3131 9.52475E-05-2.85304E-05-2.85926E-05-2.09545E-08-9.55900E-19-1.52685E-18
 -1      3132 9.52461E-05-2.85397E-05-2.85886E-05-8.04502E-09-1.42896E-18-1.72978E-18
 -1      3133 9.52484E-05-2.85149E-05-2.86002E-05-3.31193E-08-1.22676E-18-4.28096E-19
 -1      3134 9.52466E-05-2.85480E-05-2.85848E-05 1.97080E-09-7.77804E-19-1.69276E-18
 -1      3135 9.52457E-05-2.85545E-05-2.85820E-05 9.95136E-09-3.86533E-19-1.49638E-18
 -1      3136 9.52510E-05-2.85388E-05-2.85910E-05-6.46141E-09-9.11545E-19-7.10851E-19
 -1      3137 9.52455E-05-2.85601E-05-2.85793E-05 1.59034E-08 1.14538E-20-4.92642E-19
 -1      3138 9.52448E-05-2.85645E-05-2.85774E-05 2.04072E-08 1.04031E-18-9.80633E-19
 -1      3139 9.52516E-05-2.85552E-05-2.85842E-05 1.02528E-08 4.09785E-19-7.40474E-19
 -1      3140 9.52442E-05-2.85680E-05-2.85754E-05 2.35350E-08 1.73365E-18-1.22580E-18
 -1      3141 9.52438E-05-2.85709E-05-2.85741E-05 2.56574E-08 9.09090E-19-1.40283E-18
 -1      3142 9.52509E-05-2.85661E-05-2.85793E-05 1.99154E-08 1.13669E-18-9.65281E-19
 -1      3143 9.52429E-05-2.85730E-05-2.85728E-05 2.68851E-08 7.14549E-19-1.54427E-18
 -1      3144 9.52427E-05-2.85748E-05-2.85720E-05 2.74317E-08 7.08614E-19-9.93472E-19
 -1      3145 9.52495E-05-2.85729E-05-2.85757E-05 2.47159E-08 1.50808E-18-1.33384E-18
 -1      3146 9.52418E-05-2.85759E-05-2.85711E-05 2.74298E-08 8.16477E-19-1.56239E-18
 -1      3147 9.52417E-05-2.85769E-05-2.85706E-05 2.69750E-08 1.33624E-18-1.17609E-18
 -1      3148 9.52478E-05-2.85769E-05-2.85733E-05 2.62732E-08 9.04858E-19-1.01928E-18
 -1      3149 9.52408E-05-2.85774E-05-2.85700E-05 2.62137E-08 8.65334E-19-1.18410E-18
 -1      3150 9.52408E-05-2.85781E-05-2.85697E-05 2.51486E-08 4.06212E-19-1.30594E-18
 -1      3151 9.52460E-05-2.85791E-05-2.85716E-05 2.57507E-08 8.46874E-19-1.87309E-18
 -1      3152 9.52400E-05-2.85783E-05-2.85693E-05 2.39454E-08-4.09573E-19-5.04577E-19
 -1      3153 9.52401E-05-2.85786E-05-2.85692E-05 2.25171E-08-1.08359E-18-9.82189E-19
 -1      3154 9.52443E-05-2.85801E-05-2.85704E-05 2.39547E-08 3.38529E-19-1.13632E-18
 -1      3155 9.52394E-05-2.85787E-05-2.85689E-05 2.10395E-08-1.55067E-18-3.98237E-19
 -1      3156 9.52395E-05-2.85791E-05-2.85688E-05 1.94702E-08-1.09825E-18-1.52973E-18
 -1      3157 9.52429E-05-2.85806E-05-2.85696E-05 2.14109E-08-1.04987E-18-1.47273E-18
 -1      3158 8.10247E-05-3.39345E-05-1.96922E-05-3.11665E-05-7.75565E-19-2.54788E-18
 -1      3159 9.20696E-05-4.11046E-05-2.17018E-05-3.11949E-05-9.05743E-19-2.21467E-18
 -1      3160 1.24824E-04-5.00494E-05-3.20748E-05-7.28847E-07-2.84815E-19 5.74758E-19
 -1      3161 1.21262E-04-4.81357E-05-3.11601E-05-4.06610E-06-6.01288E-19 4.30055E-19
 -1      3162 1.02618E-04-3.44982E-05-2.91270E-05 1.19692E-05-1.10822E-18 8.26792E-19
 -1      3163 1.05126E-04-3.70775E-05-2.91525E-05 1.14027E-05-8.82458E-19 2.66424E-19
 -1      3164 9.90841E-05-3.06713E-05-2.92898E-05 1.14908E-05-1.11270E-18 5.65675E-19
 -1      3165 1.00722E-04-3.23978E-05-2.92615E-05 1.15589E-05-8.53699E-19 8.67484E-19
 -1      3166 9.84724E-05-3.26025E-05-2.83094E-05 1.34366E-05-1.04588E-18 7.51884E-19
 -1      3167 9.71319E-05-2.84041E-05-2.94447E-05 1.04087E-05-6.89385E-19-6.15120E-20
 -1      3168 9.81423E-05-2.94330E-05-2.94277E-05 1.08147E-05-7.84484E-19 2.75138E-19
 -1      3169 9.57899E-05-2.90231E-05-2.86535E-05 1.20599E-05-7.12114E-19 1.24830E-19
 -1      3170 9.61351E-05-2.72344E-05-2.95296E-05 9.09145E-06-6.41062E-19-7.72492E-20
 -1      3171 9.67472E-05-2.77746E-05-2.95432E-05 9.65650E-06-7.76894E-19 2.67060E-19
 -1      3172 9.45544E-05-2.70506E-05-2.89463E-05 1.05005E-05-8.04256E-19 1.80801E-19
 -1      3173 9.56661E-05-2.67565E-05-2.95384E-05 7.73414E-06-6.14451E-19 3.82130E-19
 -1      3174 9.60446E-05-2.69910E-05-2.95807E-05 8.35198E-06-5.09723E-19 9.42597E-20
 -1      3175 9.41279E-05-2.61458E-05-2.91396E-05 8.95958E-06-4.39672E-19-3.02634E-21
 -1      3176 9.54645E-05-2.66764E-05-2.94881E-05 6.43858E-06-7.91849E-19 7.32660E-19
 -1      3177 9.57119E-05-2.67349E-05-2.95498E-05 7.04591E-06-6.38321E-19 7.86194E-19
 -1      3178 9.41054E-05-2.58861E-05-2.92360E-05 7.51921E-06-7.65813E-19 7.17517E-19
 -1      3179 9.53866E-05-2.68033E-05-2.94005E-05 5.25832E-06-1.70304E-19 1.22289E-18
 -1      3180 9.55604E-05-2.67690E-05-2.94716E-05 5.81923E-06-3.42883E-19 8.47557E-19
 -1      3181 9.42552E-05-2.59825E-05-2.92571E-05 6.21188E-06-4.67689E-19 9.66993E-19
 -1      3182 9.53591E-05-2.70220E-05-2.92943E-05 4.21897E-06-3.80503E-19 1.00792E-18
 -1      3183 9.54896E-05-2.69448E-05-2.93671E-05 4.71539E-06-8.31838E-20 1.13314E-18
 -1      3184 9.44557E-05-2.62525E-05-2.92272E-05 5.05226E-06-9.77699E-20 1.62754E-18
 -1      3185 9.53478E-05-2.72672E-05-2.91834E-05 3.32823E-06 5.20791E-19-4.55931E-19
 -1      3186 9.54504E-05-2.71755E-05-2.92525E-05 3.75375E-06 3.77112E-19 2.60539E-19
 -1      3187 9.46493E-05-2.65880E-05-2.91669E-05 4.04527E-06 3.69662E-19 6.40655E-19
 -1      3188 9.53391E-05-2.75047E-05-2.90769E-05 2.58221E-06 1.35081E-19-9.50225E-19
 -1      3189 9.54216E-05-2.74135E-05-2.91392E-05 2.93773E-06 2.55661E-19-8.41167E-19
 -1      3190 9.48133E-05-2.69286E-05-2.90918E-05 3.18830E-06 5.26862E-19-5.81567E-19
 -1      3191 9.53287E-05-2.77182E-05-2.89800E-05 1.96989E-06 9.43290E-19-8.49090E-19
 -1      3192 9.53953E-05-2.76348E-05-2.90341E-05 2.26056E-06 6.96241E-19-1.00535E-18
 -1      3193 9.49425E-05-2.72437E-05-2.90128E-05 2.47288E-06 5.17858E-19-1.04089E-18
 -1      3194 9.53165E-05-2.79017E-05-2.88952E-05 1.47649E-06-5.67856E-19-4.72000E-19
 -1      3195 9.53699E-05-2.78291E-05-2.89409E-05 1.70963E-06 7.13254E-19-3.98673E-19
 -1      3196 9.50397E-05-2.75198E-05-2.89366E-05 1.88640E-06 1.79756E-19-5.61103E-19
 -1      3197 9.53034E-05-2.80546E-05-2.88234E-05 1.08576E-06-5.16282E-19-7.24416E-19
 -1      3198 9.53457E-05-2.79935E-05-2.88610E-05 1.26946E-06-5.72815E-19-5.90543E-19
 -1      3199 9.51102E-05-2.77532E-05-2.88671E-05 1.41393E-06-1.74825E-19-6.37968E-19
 -1      3200 9.52907E-05-2.81793E-05-2.87639E-05 7.81489E-07-1.20625E-20-1.29104E-18
 -1      3201 9.53235E-05-2.81290E-05-2.87942E-05 9.23781E-07-3.28815E-19-5.68459E-19
 -1      3202 9.51599E-05-2.79456E-05-2.88062E-05 1.03970E-06-4.38779E-19 9.69340E-20
 -1      3203 9.52791E-05-2.82789E-05-2.87158E-05 5.48520E-07 1.79514E-19-8.96132E-19
 -1      3204 9.53041E-05-2.82383E-05-2.87398E-05 6.56868E-07-3.45614E-19-1.38435E-18
 -1      3205 9.51941E-05-2.81008E-05-2.87545E-05 7.48179E-07-9.72502E-20-1.34785E-18
 -1      3206 9.52691E-05-2.83572E-05-2.86775E-05 3.73234E-07 5.83014E-19-2.16509E-19
 -1      3207 9.52878E-05-2.83250E-05-2.86962E-05 4.54280E-07 1.01220E-18-2.08684E-19
 -1      3208 9.52168E-05-2.82238E-05-2.87116E-05 5.24904E-07 1.40604E-20-1.20768E-18
 -1      3209 9.52608E-05-2.84178E-05-2.86477E-05 2.43796E-07 1.58180E-18-1.75990E-18
 -1      3210 9.52744E-05-2.83927E-05-2.86619E-05 3.03265E-07 1.52535E-18-3.95034E-19
 -1      3211 9.52315E-05-2.83197E-05-2.86768E-05 3.56880E-07 1.39729E-18-1.48060E-18
 -1      3212 9.52542E-05-2.84639E-05-2.86249E-05 1.50177E-07 7.04833E-19-2.09411E-18
 -1      3213 9.52638E-05-2.84446E-05-2.86355E-05 1.92885E-07 7.91605E-19-2.10200E-18
 -1      3214 9.52404E-05-2.83932E-05-2.86490E-05 2.32800E-07 1.10558E-18-5.95508E-19
 -1      3215 9.52490E-05-2.84984E-05-2.86077E-05 8.40703E-08 1.12063E-18-2.31251E-18
 -1      3216 9.52556E-05-2.84839E-05-2.86155E-05 1.13978E-07 5.76918E-19-2.73245E-18
 -1      3217 9.52454E-05-2.84487E-05-2.86274E-05 1.43070E-07 7.94773E-19-1.85741E-18
 -1      3218 9.52451E-05-2.85238E-05-2.85951E-05 3.87230E-08 8.33468E-19-5.35591E-20
 -1      3219 9.52494E-05-2.85130E-05-2.86007E-05 5.90298E-08 1.47382E-18-1.12527E-18
 -1      3220 9.52477E-05-2.84898E-05-2.86108E-05 7.97318E-08 3.61358E-19-1.71848E-18
 -1      3221 9.52422E-05-2.85420E-05-2.85859E-05 8.74770E-09-9.79691E-20 8.54284E-19
 -1      3222 9.52449E-05-2.85341E-05-2.85899E-05 2.19899E-08-1.09546E-20 3.02093E-19
 -1      3223 9.52484E-05-2.85197E-05-2.85982E-05 3.63101E-08-3.67422E-20 5.69720E-19
 -1      3224 9.52402E-05-2.85548E-05-2.85795E-05-1.00795E-08-1.35635E-18 1.80532E-18
 -1      3225 9.52417E-05-2.85492E-05-2.85822E-05-1.92482E-09-2.62733E-19 1.66844E-18
 -1      3226 9.52481E-05-2.85409E-05-2.85890E-05 7.63518E-09-1.09176E-18 2.51264E-18
 -1      3227 9.52387E-05-2.85635E-05-2.85751E-05-2.10112E-08-1.45623E-18 1.76283E-18
 -1      3228 9.52394E-05-2.85596E-05-2.85769E-05-1.64310E-08-1.49325E-18 1.60516E-18
 -1      3229 9.52471E-05-2.85555E-05-2.85823E-05-1.03474E-08-1.39719E-18 3.70683E-18
 -1      3230 9.52378E-05-2.85692E-05-2.85723E-05-2.65043E-08-8.34842E-19-6.98229E-19
 -1      3231 9.52380E-05-2.85666E-05-2.85733E-05-2.43633E-08-8.40175E-19-5.43169E-20
 -1      3232 9.52459E-05-2.85652E-05-2.85775E-05-2.07597E-08-4.57349E-19 8.02868E-19
 -1      3233 9.52373E-05-2.85728E-05-2.85705E-05-2.83732E-08-4.65038E-19-1.84778E-18
 -1      3234 9.52371E-05-2.85711E-05-2.85711E-05-2.78398E-08-8.23495E-19-1.51060E-18
 -1      3235 9.52445E-05-2.85715E-05-2.85742E-05-2.59589E-08-2.65053E-19-1.53812E-18
 -1      3236 9.52370E-05-2.85749E-05-2.85694E-05-2.79212E-08-9.64635E-19-2.12370E-18
 -1      3237 9.52366E-05-2.85738E-05-2.85697E-05-2.84045E-08-8.32768E-19-2.63391E-18
 -1      3238 9.52432E-05-2.85752E-05-2.85721E-05-2.76841E-08-8.46653E-19-3.28504E-18
 -1      3239 9.52369E-05-2.85761E-05-2.85689E-05-2.60495E-08-1.06909E-19-1.92112E-18
 -1      3240 9.52363E-05-2.85754E-05-2.85689E-05-2.71474E-08 2.09636E-20-1.44896E-18
 -1      3241 9.52420E-05-2.85773E-05-2.85706E-05-2.71836E-08-7.11050E-19-2.66642E-18
 -1      3242 9.52370E-05-2.85768E-05-2.85686E-05-2.33479E-08-1.05379E-18-2.20320E-18
 -1      3243 9.52364E-05-2.85763E-05-2.85686E-05-2.48024E-08-8.70300E-19-2.04632E-18
 -1      3244 9.52410E-05-2.85783E-05-2.85697E-05-2.53165E-08-4.68497E-19 1.65985E-21
 -1      3245 9.52372E-05-2.85774E-05-2.85685E-05-2.01749E-08-1.24664E-18-6.52107E-19
 -1      3246 9.52366E-05-2.85770E-05-2.85684E-05-2.18273E-08-1.22066E-18-1.07172E-18
 -1      3247 9.52402E-05-2.85789E-05-2.85692E-05-2.26537E-08-1.75924E-18-1.32677E-18
 -1      3248 9.52382E-05-2.85783E-05-2.85685E-05-1.78157E-08-1.52894E-18 6.20434E-19
 -1      3249 9.52373E-05-2.85776E-05-2.85685E-05-1.91716E-08-1.59355E-18 4.93138E-19
 -1      3250 9.52400E-05-2.85793E-05-2.85689E-05-2.00956E-08-1.90914E-18 1.14862E-20
 -1      3251 9.52402E-05-2.85799E-05-2.85687E-05-1.79625E-08-2.41133E-18 1.79252E-18
 -1      3252 9.52515E-05-2.85881E-05-2.85700E-05 7.24032E-09 3.23382E-19-5.92069E-19
 -1      3253 9.52521E-05-2.85886E-05-2.85700E-05 4.58453E-09 6.32820E-19-9.33521E-19
 -1      3254 1.18872E-04-1.56054E-05-4.45162E-05 9.38237E-06-3.34822E-18-1.87067E-18
 -1      3255 1.16463E-04-1.23874E-05-4.52042E-05 3.78212E-06-3.40835E-18-1.20146E-18
 -1      3256 9.52455E-05-2.85837E-05-2.85694E-05 1.61718E-08-4.05693E-19 5.01908E-19
 -1      3257 9.52474E-05-2.85851E-05-2.85695E-05 1.46015E-08-5.02112E-19 5.92915E-19
 -1      3258 9.52525E-05-2.85889E-05-2.85701E-05 1.47186E-09 6.43357E-19-8.02025E-19
 -1      3259 9.52525E-05-2.85889E-05-2.85701E-05-1.37745E-09 6.22704E-19-1.04102E-18
 -1      3260 9.52540E-05-2.85887E-05-2.85709E-05 3.20301E-09 7.52862E-19-1.05243E-18
 -1      3261 9.76964E-05-2.45040E-05-3.13865E-05 1.89148E-06-4.47296E-19-1.66825E-18
 -1      3262 9.52491E-05-2.85864E-05-2.85698E-05 1.23272E-08-2.48228E-19-4.34441E-20
 -1      3263 9.52504E-05-2.85874E-05-2.85699E-05 1.00539E-08 1.08168E-19-6.94950E-20
 -1      3264 9.52525E-05-2.85877E-05-2.85706E-05 9.24943E-09 3.32872E-19-1.09113E-20
 -1      3265 9.52496E-05-2.85857E-05-2.85702E-05 1.43862E-08-4.26914E-19-1.74357E-19
 -1      3266 1.08450E-04-4.01317E-05-2.91539E-05 1.10422E-05-6.66033E-19-3.97569E-19
 -1      3267 1.11843E-04-4.33013E-05-2.93905E-05 9.40860E-06-6.76786E-19-7.05871E-19
 -1      3268 1.03522E-04-3.82791E-05-2.80773E-05 1.40928E-05-1.21939E-18-9.64625E-20
 -1      3269 1.16877E-04-4.68957E-05-2.98274E-05 7.46996E-06-7.17364E-19-1.58093E-18
 -1      3270 1.20582E-04-4.94177E-05-3.05611E-05 4.29750E-06-6.36678E-19-1.89131E-18
 -1      3271 1.11678E-04-4.57446E-05-2.83839E-05 1.27665E-05-1.21217E-18-1.91813E-18
 -1      3272 1.32839E-04-3.79286E-05-4.08816E-05-1.48237E-05 1.90053E-18-2.50404E-18
 -1      3273 1.32755E-04-4.49629E-05-3.78144E-05 1.11102E-05 1.18267E-18 1.09455E-18
 -1      3274 1.32188E-04-4.94642E-05-3.56631E-05 6.41612E-06 5.15036E-19 6.86891E-19
 -1      3275 9.32163E-05-4.38117E-05-2.07910E-05-3.19214E-05 1.85326E-18 1.52995E-20
 -1      3276 1.08626E-04-5.26778E-05-2.42533E-05-2.78242E-05 1.27590E-18-8.67838E-19
 -1      3277 1.08122E-04-3.61199E-05-3.07471E-05 2.94222E-06-1.11195E-19-5.97535E-19
 -1      3278 1.10303E-04-3.86647E-05-3.07494E-05 2.22340E-06-1.08126E-19-4.43050E-19
 -1      3279 1.11241E-04-4.05696E-05-3.03511E-05 4.24019E-06 2.46999E-19-1.40528E-19
 -1      3280 1.01275E-04-2.85038E-05-3.11266E-05 2.69617E-06-2.43004E-19-1.36374E-18
 -1      3281 1.04278E-04-3.27166E-05-3.07055E-05 3.52413E-06-1.17570E-19-1.05399E-18
 -1      3282 1.03867E-04-3.35742E-05-3.01269E-05 5.60668E-06 9.68901E-20-9.59596E-19
 -1      3283 9.62418E-05-2.53930E-05-3.03687E-05 4.98672E-06 1.48347E-20-1.69304E-18
 -1      3284 1.25081E-04-5.65754E-05-2.96573E-05 1.16176E-05-8.45392E-19-3.35653E-18
 -1      3285 1.14525E-04-5.36835E-05-2.57020E-05 2.20314E-05-1.67702E-18-2.49098E-18
 -1      3286 1.19819E-04-5.55564E-05-2.72402E-05-1.89816E-05 7.70403E-19-1.75950E-18
 -1      3287 1.27308E-04-5.59378E-05-3.08958E-05-9.40540E-06 3.95088E-19-2.09672E-18
 -1      3288 4.91127E-05-1.43599E-05-1.46168E-05-1.27135E-05 1.84097E-19 2.81850E-18
 -1      3289 5.61700E-05-2.00943E-05-1.51301E-05-2.41395E-05 1.79052E-18 2.65502E-18
 -1      3290 1.01153E-04-4.83399E-05-2.28468E-05 2.90501E-05-2.14405E-18-6.71644E-19
 -1      3291 8.82804E-05-4.06233E-05-2.00975E-05 3.11531E-05-2.21057E-18 3.13376E-19
 -1      3292 8.63651E-05-3.65199E-05-2.10585E-05 2.77176E-05-2.06321E-18 4.81856E-19
 -1      3293 8.22329E-05-3.32147E-05-2.10534E-05 3.03509E-05 2.39755E-18-1.59782E-18
 -1      3294 6.67891E-05-2.34994E-05-1.78888E-05 2.99066E-05 2.22185E-18-2.78451E-18
 -1      3295 6.44294E-05-2.56482E-05-1.62429E-05-2.85844E-05 2.16417E-18 2.62125E-18
 -1      3296 7.64439E-05-3.36939E-05-1.83981E-05-3.24122E-05 2.25965E-18 1.57707E-18
 -1      3297 6.65623E-05-2.29300E-05-1.83390E-05-2.25801E-05 1.68979E-18 2.25165E-18
 -1      3298 6.68155E-05-5.75813E-06-2.61383E-05-1.84625E-06 1.06681E-18-2.78002E-18
 -1      3299 6.56292E-05-5.11731E-06-2.59509E-05 4.57568E-07 1.03496E-18-2.79525E-18
 -1      3300 1.13794E-04-5.09760E-05-2.71187E-05 2.15608E-05 1.38728E-18 4.77382E-20
 -1      3301 9.92966E-05-4.30542E-05-2.38105E-05 2.76093E-05 2.01758E-18-7.88641E-19
 -1      3302 1.15868E-04-4.94145E-05-2.84220E-05 1.51806E-05 1.24699E-18 2.17287E-19
 -1      3303 5.12903E-05-1.55999E-05-1.53381E-05 2.45381E-05 1.89360E-18-3.61831E-18
 -1      3304 4.15961E-05-9.66177E-06-1.29880E-05 1.50748E-05 1.52586E-18-4.31394E-18
 -1      3305 4.53908E-05-8.25485E-06-1.54648E-05 7.48465E-06 1.16279E-18-4.07142E-18
 -1      3306 1.02154E-04-2.88397E-05-3.13564E-05-5.86044E-06 9.85929E-19-2.87730E-19
 -1      3307 9.76414E-05-2.56546E-05-3.08661E-05-6.22900E-06 1.08500E-18-5.75357E-19
 -1      3308 9.68644E-05-2.69636E-05-2.99566E-05-8.58180E-06 7.59203E-19-7.26333E-19
 -1      3309 1.04004E-04-3.17365E-05-3.10016E-05-6.98866E-06 6.32879E-19-2.84261E-19
 -1      3310 1.21160E-04-3.91265E-05-3.52520E-05-1.06626E-05-6.76683E-19 1.16479E-18
 -1      3311 1.28730E-04-4.24639E-05-3.72435E-05-9.63947E-06-9.61435E-19 1.43329E-18
 -1      3312 1.29768E-04-4.94681E-05-3.43296E-05-2.56979E-06-7.84300E-20 1.53697E-18
 -1      3313 1.21806E-04-4.23570E-05-3.40478E-05-8.95711E-06-4.88586E-19 9.18250E-19
 -1      3314 1.28182E-04-4.58558E-05-3.55313E-05 7.36692E-06-3.03053E-19-1.71019E-18
 -1      3315 1.20770E-04-4.41301E-05-3.28656E-05 7.07674E-06-3.59777E-19-1.45572E-18
 -1      3316 1.20196E-04-4.57108E-05-3.19208E-05 4.21878E-06-9.32398E-20-1.34685E-18
 -1      3317 1.29335E-04-5.29678E-05-3.26595E-05-1.01506E-06 3.04419E-19-1.96483E-18
 -1      3318 6.59089E-05-5.47215E-06-2.59633E-05 4.06177E-06 1.13408E-18-2.67185E-18
 -1      3319 6.75419E-05-6.48851E-06-2.61401E-05 6.13131E-06 1.03092E-18-2.70697E-18
 -1      3320 6.45217E-05-6.02747E-06-2.49478E-05 2.52072E-06 1.05749E-18-2.79363E-18
 -1      3321 6.99522E-05-2.44709E-05-1.92694E-05 2.25966E-05-1.78196E-18 4.38154E-19
 -1      3322 6.04374E-05-1.98037E-05-1.69651E-05 2.06369E-05-1.60518E-18 1.13079E-18
 -1      3323 5.78141E-05-1.65327E-05-1.76608E-05 1.35786E-05-8.58388E-19 1.77194E-18
 -1      3324 1.08438E-04-4.90531E-05-2.52749E-05 2.20446E-05-1.65516E-18-1.79591E-18
 -1      3325 9.52475E-05-2.85852E-05-2.85695E-05-1.45598E-08 4.80766E-22-3.13176E-18
 -1      3326 9.52456E-05-2.85838E-05-2.85694E-05-1.61457E-08-7.58805E-19-4.51398E-19
 -1      3327 1.23278E-04-4.59881E-05-3.33594E-05-4.78403E-06-2.97031E-19 1.15912E-18
 -1      3328 1.19661E-04-4.76845E-05-3.09881E-05-3.56376E-07-1.77718E-19-9.24080E-19
 -1      3329 1.13310E-04-1.38154E-05-4.32021E-05 5.02812E-07-2.99754E-18-5.24433E-19
 -1      3330 1.16689E-04-1.99673E-05-4.17561E-05 1.05389E-05-2.60505E-18-1.86625E-18
 -1      3331 1.01253E-04-4.47445E-05-2.40030E-05-2.60189E-05-9.25039E-19-1.82866E-18
 -1      3332 7.52720E-05-2.74974E-05-2.01353E-05-2.67334E-05-5.26431E-19-2.83571E-18
 -1      3333 1.16267E-04-4.71996E-05-2.97521E-05-9.87477E-06-6.53684E-19-1.12516E-19
 -1      3334 1.15694E-04-4.45342E-05-3.05517E-05-6.41968E-06-5.39428E-19 1.56018E-19
 -1      3335 1.12105E-04-4.10320E-05-3.03289E-05-8.00240E-06-3.60697E-19-9.71209E-20
 -1      3336 1.26489E-04-5.17102E-05-3.19779E-05-2.31597E-07-2.88309E-19-2.31105E-18
 -1      3337 1.28790E-04-5.05267E-05-3.36061E-05-4.68117E-06 3.00789E-19-2.39095E-18
 -1      3338 1.22854E-04-2.31244E-05-4.33198E-05 1.31618E-05-2.46614E-18-2.42511E-18
 -1      3339 9.52505E-05-2.85874E-05-2.85699E-05-1.00041E-08 1.74694E-18-2.45146E-18
 -1      3340 9.52491E-05-2.85864E-05-2.85698E-05-1.22995E-08 1.94426E-18-3.86460E-18
 -1      3341 9.52495E-05-2.85857E-05-2.85702E-05-1.43491E-08 4.33834E-19-1.76933E-18
 -1      3342 9.52522E-05-2.85886E-05-2.85700E-05-4.47921E-09 1.09746E-18-2.84361E-18
 -1      3343 9.52515E-05-2.85881E-05-2.85700E-05-7.19165E-09 2.12745E-18-3.04214E-18
 -1      3344 9.52525E-05-2.85877E-05-2.85706E-05-9.16206E-09 1.49874E-18-2.59893E-18
 -1      3345 9.52541E-05-2.85887E-05-2.85709E-05-3.13073E-09 1.76559E-18-2.03040E-18
 -1      3346 8.35493E-05-1.65066E-05-2.86624E-05-7.95734E-06 1.01455E-18-1.71067E-18
 -1      3347 7.84594E-05-1.35479E-05-2.79106E-05-7.83987E-06 9.41585E-19-2.00242E-18
 -1      3348 8.70890E-05-2.07450E-05-2.84713E-05-9.87941E-06 7.26430E-19-1.41177E-18
 -1      3349 9.52395E-05-2.85792E-05-2.85687E-05 1.82863E-08-1.24308E-18-1.25355E-18
 -1      3350 9.52431E-05-2.85819E-05-2.85691E-05 1.79073E-08-8.99121E-19-3.53038E-19
 -1      3351 1.25272E-04-5.57484E-05-2.96801E-05-1.32009E-05-5.71483E-19-5.61424E-19
 -1      3352 1.27905E-04-5.36299E-05-3.20896E-05-4.07942E-06-3.16592E-19 1.42143E-20
 -1      3353 9.52449E-05-2.85826E-05-2.85696E-05 1.83918E-08-1.57126E-18-3.94945E-19
 -1      3354 5.10985E-05-1.31338E-05-1.58375E-05-5.93356E-06-2.86072E-20 2.76959E-18
 -1      3355 5.84582E-05-1.56035E-05-1.83547E-05-1.15034E-05 8.39999E-19 1.71421E-18
 -1      3356 5.53778E-05-1.35536E-05-1.77955E-05 6.42820E-07-3.83574E-19 2.12547E-18
 -1      3357 8.81381E-05-3.77639E-05-2.12758E-05-2.82800E-05 1.65831E-18 8.44532E-19
 -1      3358 1.08879E-04-3.77711E-05-3.04845E-05-7.88025E-06-4.07238E-20-2.14705E-19
 -1      3359 1.06100E-04-3.44309E-05-3.06261E-05-7.93470E-06 2.44121E-19-2.73288E-19
 -1      3360 1.02521E-04-3.25196E-05-3.00717E-05-9.14669E-06 3.90009E-19-4.49202E-19
 -1      3361 1.07621E-04-3.89568E-05-2.94949E-05-1.06268E-05-2.68817E-19-3.29502E-19
 -1      3362 5.00989E-05-1.04752E-05-1.64128E-05-1.37774E-05 1.93772E-19-3.95151E-18
 -1      3363 5.67944E-05-1.42428E-05-1.83196E-05-1.79510E-05-1.24209E-19-3.54012E-18
 -1      3364 1.23862E-04-5.20111E-05-3.07652E-05-4.57942E-06 1.33543E-19-1.67882E-18
 -1      3365 8.81444E-05-2.06951E-05-2.89527E-05 8.69219E-06 5.06302E-19-2.00016E-18
 -1      3366 9.24075E-05-2.31807E-05-2.96240E-05 7.16194E-06 3.05362E-19-2.00931E-18
 -1      3367 9.58694E-05-2.74463E-05-2.93649E-05 8.20382E-06 2.72126E-19-1.56881E-18
 -1      3368 4.79410E-05-8.21971E-06-1.68283E-05-7.49046E-06 4.60336E-19-3.94696E-18
 -1      3369 1.13926E-04-5.19446E-05-2.63901E-05-1.96429E-05 8.90443E-19-1.20902E-18
 -1      3370 7.34961E-05-9.96584E-06-2.71232E-05-6.34911E-06 1.04752E-18-2.32851E-18
 -1      3371 6.96953E-05-7.90739E-06-2.65765E-05-4.91354E-06 9.68313E-19-2.59332E-18
 -1      3372 6.77678E-05-8.08859E-06-2.54995E-05-4.61918E-06 9.01885E-19-2.68593E-18
 -1      3373 7.56986E-05-1.34252E-05-2.67077E-05-9.27380E-06 8.04033E-19-2.19044E-18
 -1      3374 1.25735E-04-4.90298E-05-3.28260E-05-4.84982E-07 3.50731E-19 1.17168E-18
 -1      3375 6.18325E-05-1.79111E-05-1.85662E-05 2.35198E-05 1.91175E-18-3.02301E-18
 -1      3376 9.14192E-05-3.67771E-05-2.31813E-05 2.80047E-05 2.04916E-18-1.23186E-18
 -1      3377 8.35960E-05-2.93536E-05-2.29991E-05 2.50936E-05 1.95569E-18-1.71560E-18
 -1      3378 9.79894E-05-3.84928E-05-2.53546E-05 2.24151E-05 1.90725E-18-9.14001E-19
 -1      3379 1.26773E-04-3.26055E-05-4.04337E-05 1.36769E-05-1.47024E-18-2.72771E-18
 -1      3380 7.85243E-05-1.46127E-05-2.74830E-05 1.02847E-05 9.35369E-19-2.26191E-18
 -1      3381 8.31044E-05-1.73308E-05-2.81308E-05 9.87263E-06 7.28458E-19-2.13294E-18
 -1      3382 8.63612E-05-2.17840E-05-2.77188E-05 1.20512E-05 8.22366E-19-1.83524E-18
 -1      3383 4.96914E-05-8.37338E-06-1.77243E-05 1.10981E-05 1.41339E-18-3.53885E-18
 -1      3384 4.73518E-05-6.72037E-06-1.69910E-05 1.32000E-06 9.07490E-19-3.80635E-18
 -1      3385 1.23394E-04-4.87811E-05-3.17667E-05 1.45810E-06 3.38396E-19 9.78886E-19
 -1      3386 1.05476E-04-4.01824E-05-2.79675E-05-1.10061E-05 5.07889E-19-6.87792E-19
 -1      3387 1.02570E-04-3.74066E-05-2.78325E-05-1.15279E-05 6.10281E-19-3.34676E-19
 -1      3388 1.00139E-04-3.49499E-05-2.79012E-05-1.11615E-05 3.85125E-19-1.90011E-19
 -1      3389 9.80605E-05-3.27942E-05-2.79294E-05-1.10602E-05 1.23974E-19-1.36938E-19
 -1      3390 9.87181E-05-3.56434E-05-2.71723E-05-1.35279E-05 6.91829E-19-7.82480E-19
 -1      3391 9.67072E-05-3.10846E-05-2.80923E-05-1.02860E-05-3.76914E-19-8.19562E-20
 -1      3392 9.54086E-05-2.96093E-05-2.81808E-05-9.89197E-06-3.40475E-19-3.89987E-20
 -1      3393 9.49164E-05-3.09921E-05-2.74581E-05-1.18810E-05-7.07612E-20-4.29591E-19
 -1      3394 9.47563E-05-2.85511E-05-2.83500E-05-9.09199E-06-1.47422E-19-4.21223E-19
 -1      3395 9.40180E-05-2.76439E-05-2.84407E-05-8.58013E-06 2.69358E-20-4.63164E-19
 -1      3396 9.30626E-05-2.81637E-05-2.78418E-05-1.00950E-05-5.72543E-19-1.32513E-19
 -1      3397 9.37892E-05-2.70581E-05-2.85820E-05-7.83699E-06-1.01595E-19-5.87437E-19
 -1      3398 9.34101E-05-2.65591E-05-2.86521E-05-7.29509E-06-2.31761E-19-3.33248E-19
 -1      3399 9.22520E-05-2.65141E-05-2.81872E-05-8.44931E-06-1.49728E-19-3.88500E-19
 -1      3400 9.34287E-05-2.63016E-05-2.87565E-05-6.63185E-06-6.36128E-20-2.54184E-19
 -1      3401 9.32702E-05-2.60811E-05-2.88004E-05-6.10409E-06 3.01342E-19 2.31460E-19
 -1      3402 9.20834E-05-2.56906E-05-2.84591E-05-6.99783E-06 1.56354E-19-4.63525E-19
 -1      3403 9.34179E-05-2.60351E-05-2.88693E-05-5.52499E-06 7.29473E-19 4.99603E-19
 -1      3404 9.33855E-05-2.59920E-05-2.88894E-05-5.03409E-06 1.48107E-18 7.95050E-19
 -1      3405 9.22726E-05-2.54183E-05-2.86519E-05-5.74490E-06 7.66769E-19 5.24709E-19
 -1      3406 9.35887E-05-2.60720E-05-2.89289E-05-4.53466E-06 1.85905E-18 6.77521E-19
 -1      3407 9.36217E-05-2.61334E-05-2.89303E-05-4.09233E-06 1.55722E-18 6.97315E-19
 -1      3408 9.26346E-05-2.54871E-05-2.87752E-05-4.67205E-06 1.46901E-18 7.50552E-19
 -1      3409 9.38369E-05-2.62801E-05-2.89475E-05-3.66634E-06 6.74959E-19 1.14742E-19
 -1      3410 9.38986E-05-2.63962E-05-2.89360E-05-3.27794E-06-7.35369E-21 1.82257E-19
 -1      3411 9.30574E-05-2.57492E-05-2.88431E-05-3.75871E-06 4.22915E-19-1.91179E-19
 -1      3412 9.41016E-05-2.65704E-05-2.89375E-05-2.91901E-06-5.57844E-19-2.08948E-19
 -1      3413 9.41709E-05-2.67089E-05-2.89181E-05-2.58569E-06-6.91898E-19-8.22605E-19
 -1      3414 9.34765E-05-2.61047E-05-2.88702E-05-2.98714E-06-1.59023E-19-8.39709E-19
 -1      3415 9.43499E-05-2.68861E-05-2.89094E-05-2.28734E-06-5.36780E-19-5.82593E-19
 -1      3416 9.44157E-05-2.70268E-05-2.88860E-05-2.00728E-06 4.15660E-20-8.69683E-19
 -1      3417 9.38578E-05-2.64889E-05-2.88693E-05-2.34207E-06-6.62876E-19-4.28338E-19
 -1      3418 9.45665E-05-2.71927E-05-2.88714E-05-1.76290E-06 2.56988E-19-7.00102E-19
 -1      3419 9.46236E-05-2.73241E-05-2.88469E-05-1.53220E-06 2.15751E-19-4.66453E-19
 -1      3420 9.41863E-05-2.68621E-05-2.88506E-05-1.80947E-06 1.87596E-19-1.34417E-21
 -1      3421 9.47461E-05-2.74713E-05-2.88295E-05-1.33508E-06 2.17252E-19-3.45916E-19
 -1      3422 9.47929E-05-2.75876E-05-2.88058E-05-1.14860E-06 1.40220E-19-8.46694E-20
 -1      3423 9.44582E-05-2.72022E-05-2.88218E-05-1.37582E-06 4.72379E-19 4.44744E-19
 -1      3424 9.48896E-05-2.77132E-05-2.87877E-05-9.92093E-07-1.49098E-20-1.58757E-19
 -1      3425 9.49264E-05-2.78123E-05-2.87659E-05-8.44091E-07 3.66025E-19 8.05597E-20
 -1      3426 9.46760E-05-2.74987E-05-2.87886E-05-1.02795E-06 4.02513E-19-6.70420E-19
 -1      3427 9.50006E-05-2.79163E-05-2.87486E-05-7.21840E-07-9.25717E-20 3.60804E-20
 -1      3428 9.50284E-05-2.79981E-05-2.87294E-05-6.06481E-07-5.27138E-19-1.79414E-19
 -1      3429 9.48458E-05-2.77487E-05-2.87547E-05-7.53184E-07 1.30812E-19-6.36750E-19
 -1      3430 9.50840E-05-2.80821E-05-2.87136E-05-5.12581E-07-8.65910E-19-1.41227E-19
 -1      3431 9.51044E-05-2.81480E-05-2.86972E-05-4.24295E-07-8.11795E-19-7.19779E-20
 -1      3432 9.49748E-05-2.79536E-05-2.87225E-05-5.39619E-07-6.17055E-19-1.17073E-19
 -1      3433 9.51449E-05-2.82143E-05-2.86834E-05-3.53438E-07-1.31186E-18-6.63682E-19
 -1      3434 9.51592E-05-2.82661E-05-2.86697E-05-2.87144E-07-1.89736E-18-1.39443E-18
 -1      3435 9.50703E-05-2.81177E-05-2.86933E-05-3.76394E-07-1.46697E-18-4.17941E-19
 -1      3436 9.51879E-05-2.83173E-05-2.86579E-05-2.34687E-07-7.06315E-19-7.94058E-19
 -1      3437 9.51975E-05-2.83572E-05-2.86468E-05-1.85910E-07-3.16928E-19-5.18650E-19
 -1      3438 9.51390E-05-2.82463E-05-2.86679E-05-2.53854E-07-8.32092E-19-9.77366E-19
 -1      3439 9.52171E-05-2.83959E-05-2.86370E-05-1.47891E-07-9.40657E-19-3.63126E-19
 -1      3440 9.52233E-05-2.84260E-05-2.86281E-05-1.12807E-07-7.64259E-19-7.24766E-19
 -1      3441 9.51870E-05-2.83449E-05-2.86464E-05-1.63629E-07-5.16946E-19-1.57947E-19
 -1      3442 9.52361E-05-2.84547E-05-2.86201E-05-8.59155E-08-7.01458E-19-8.19016E-19
 -1      3443 9.52398E-05-2.84769E-05-2.86131E-05-6.13372E-08-4.43930E-19-2.47018E-19
 -1      3444 9.52193E-05-2.84190E-05-2.86285E-05-9.86304E-08-4.63348E-19 1.85015E-21
 -1      3445 9.52476E-05-2.84976E-05-2.86068E-05-4.28672E-08-1.11610E-18 1.57202E-19
 -1      3446 9.52495E-05-2.85136E-05-2.86014E-05-2.61943E-08-1.42818E-18 1.18998E-19
 -1      3447 9.52399E-05-2.84735E-05-2.86141E-05-5.29791E-08-7.61431E-19-5.52860E-20
 -1      3448 9.52539E-05-2.85281E-05-2.85965E-05-1.39747E-08-1.28532E-18-1.30496E-20
 -1      3449 9.52545E-05-2.85393E-05-2.85924E-05-3.13003E-09-6.63063E-19 1.89423E-20
 -1      3450 9.52520E-05-2.85126E-05-2.86026E-05-2.18953E-08-1.36336E-18 1.05476E-18
 -1      3451 9.52564E-05-2.85492E-05-2.85886E-05 4.54849E-09 3.00720E-19-2.70106E-19
 -1      3452 9.52563E-05-2.85568E-05-2.85856E-05 1.11914E-08 9.73627E-19-2.03817E-19
 -1      3453 9.52583E-05-2.85398E-05-2.85937E-05-1.56577E-09-3.19395E-19 2.99420E-19
 -1      3454 9.52566E-05-2.85632E-05-2.85827E-05 1.56492E-08 1.14155E-18-1.06530E-19
 -1      3455 9.52560E-05-2.85682E-05-2.85806E-05 1.93384E-08 1.78514E-18-2.72716E-19
 -1      3456 9.52605E-05-2.85581E-05-2.85868E-05 1.09956E-08 9.23520E-19 5.22295E-19
 -1      3457 9.52553E-05-2.85721E-05-2.85784E-05 2.15748E-08 1.42595E-18-8.57787E-19
 -1      3458 9.52545E-05-2.85752E-05-2.85769E-05 2.32470E-08 8.62648E-19-4.49441E-19
 -1      3459 9.52602E-05-2.85699E-05-2.85816E-05 1.80818E-08 1.13931E-18-4.39335E-19
 -1      3460 9.52532E-05-2.85774E-05-2.85753E-05 2.40021E-08 1.22509E-18-7.11431E-19
 -1      3461 9.52523E-05-2.85792E-05-2.85742E-05 2.43440E-08 1.22066E-18-3.29212E-19
 -1      3462 9.52583E-05-2.85770E-05-2.85777E-05 2.14173E-08 6.85685E-19-1.28696E-18
 -1      3463 9.52508E-05-2.85802E-05-2.85730E-05 2.41512E-08 4.47428E-19 4.00826E-20
 -1      3464 9.52498E-05-2.85811E-05-2.85723E-05 2.36482E-08 7.30126E-19-4.88477E-19
 -1      3465 9.52556E-05-2.85810E-05-2.85749E-05 2.22729E-08 1.02394E-18-4.33003E-19
 -1      3466 9.52483E-05-2.85815E-05-2.85714E-05 2.28733E-08 9.39912E-19-3.88124E-19
 -1      3467 9.52474E-05-2.85819E-05-2.85709E-05 2.18461E-08 3.95668E-19-2.18955E-19
 -1      3468 9.52526E-05-2.85829E-05-2.85728E-05 2.15473E-08 9.83235E-19 1.26065E-18
 -1      3469 9.52465E-05-2.85822E-05-2.85704E-05 2.08183E-08-1.41154E-19-8.04884E-19
 -1      3470 9.52458E-05-2.85824E-05-2.85700E-05 1.95121E-08-1.18368E-18-3.48701E-19
 -1      3471 9.52485E-05-2.85842E-05-2.85704E-05 1.77193E-08-5.70426E-19-1.39819E-19
 -1      3472 9.52502E-05-2.85837E-05-2.85714E-05 1.98625E-08-1.86308E-19 1.14518E-18
 -1      3473 1.22899E-04-5.27842E-05-3.01336E-05 7.36500E-06-5.28893E-19-2.73663E-18
 -1      3474 1.31710E-04-4.72319E-05-3.64482E-05-1.19717E-05 2.66872E-19-2.03494E-18
 -1      3475 9.37269E-05-2.94653E-05-2.75132E-05 1.41004E-05-1.28748E-18 2.36012E-19
 -1      3476 9.56427E-05-3.17698E-05-2.73028E-05 1.49040E-05-1.25073E-18-6.65880E-20
 -1      3477 9.21218E-05-2.49376E-05-2.88064E-05 8.35606E-06-8.09626E-19 5.36628E-19
 -1      3478 9.22082E-05-2.51569E-05-2.87182E-05 9.09282E-06-4.62800E-19 2.80518E-21
 -1      3479 9.25748E-05-2.49935E-05-2.89764E-05 6.92066E-06-9.04350E-19 6.70597E-19
 -1      3480 9.25252E-05-2.49813E-05-2.89358E-05 7.59041E-06-5.71897E-19 7.87525E-19
 -1      3481 9.06384E-05-2.40119E-05-2.85456E-05 7.71642E-06-6.92453E-19 3.59310E-19
 -1      3482 9.30804E-05-2.53111E-05-2.90558E-05 5.67260E-06-3.96393E-19 5.08914E-19
 -1      3483 9.29812E-05-2.51797E-05-2.90497E-05 6.27163E-06-9.16054E-19 2.22615E-19
 -1      3484 9.14572E-05-2.42966E-05-2.87737E-05 6.34222E-06-5.32046E-19-1.60473E-20
 -1      3485 9.35536E-05-2.57411E-05-2.90729E-05 4.59224E-06 1.23839E-19 7.65735E-19
 -1      3486 9.34478E-05-2.55583E-05-2.90891E-05 5.11855E-06-2.71186E-19 7.05125E-19
 -1      3487 9.22305E-05-2.47780E-05-2.88996E-05 5.17748E-06-5.45159E-19-5.66921E-19
 -1      3488 9.39599E-05-2.61959E-05-2.90505E-05 3.66680E-06 5.37029E-19 2.78584E-21
 -1      3489 9.38659E-05-2.60011E-05-2.90795E-05 4.12057E-06 7.19501E-19 7.59959E-19
 -1      3490 9.29059E-05-2.53293E-05-2.89542E-05 4.18342E-06 3.07287E-19-4.18616E-19
 -1      3491 9.42911E-05-2.66280E-05-2.90058E-05 2.88506E-06 3.41613E-19-2.63511E-19
 -1      3492 9.42150E-05-2.64425E-05-2.90406E-05 3.26891E-06 2.69788E-19-1.22545E-19
 -1      3493 9.34683E-05-2.58771E-05-2.89620E-05 3.33792E-06 5.03914E-19-2.36332E-19
 -1      3494 9.45518E-05-2.70145E-05-2.89505E-05 2.23497E-06 4.01599E-19-2.11352E-19
 -1      3495 9.44936E-05-2.68484E-05-2.89866E-05 2.55369E-06 6.25745E-19 2.92183E-20
 -1      3496 9.39213E-05-2.63821E-05-2.89410E-05 2.62587E-06 2.32319E-19-8.05417E-19
 -1      3497 9.47519E-05-2.73468E-05-2.88927E-05 1.70311E-06-3.33948E-21 6.53716E-21
 -1      3498 9.47090E-05-2.72039E-05-2.89271E-05 1.96307E-06 2.59939E-19 1.58304E-19
 -1      3499 9.42774E-05-2.68265E-05-2.89043E-05 2.03430E-06-7.84184E-20 5.12507E-19
 -1      3500 9.49022E-05-2.76245E-05-2.88371E-05 1.27510E-06-6.31349E-19 4.22491E-19
 -1      3501 9.48716E-05-2.75050E-05-2.88683E-05 1.48348E-06-8.17253E-20 3.43484E-19
 -1      3502 9.45516E-05-2.72048E-05-2.88606E-05 1.55029E-06-2.98946E-20 6.60384E-19
 -1      3503 9.50131E-05-2.78514E-05-2.87865E-05 9.36300E-07 4.43734E-19-4.15841E-19
 -1      3504 9.49918E-05-2.77537E-05-2.88137E-05 1.10054E-06-2.65144E-19 6.67378E-20
 -1      3505 9.47591E-05-2.75189E-05-2.88156E-05 1.16060E-06-1.43045E-19-1.53347E-19
 -1      3506 9.50933E-05-2.80334E-05-2.87422E-05 6.72542E-07-3.14281E-20-4.82466E-19
 -1      3507 9.50790E-05-2.79549E-05-2.87652E-05 7.99825E-07 7.36607E-19-4.48013E-19
 -1      3508 9.49134E-05-2.77743E-05-2.87728E-05 8.51976E-07 2.35095E-19-1.14721E-18
 -1      3509 9.51502E-05-2.81768E-05-2.87046E-05 4.70672E-07-2.05736E-20-1.59772E-18
 -1      3510 9.51409E-05-2.81149E-05-2.87236E-05 5.67632E-07-3.42371E-19-1.47809E-18
 -1      3511 9.50261E-05-2.79784E-05-2.87341E-05 6.11610E-07 2.75386E-19-8.11041E-19
 -1      3512 9.51896E-05-2.82879E-05-2.86734E-05 3.18901E-07 1.54935E-18-1.48103E-18
 -1      3513 9.51838E-05-2.82399E-05-2.86888E-05 3.91440E-07 7.96769E-19-1.58354E-18
 -1      3514 9.51069E-05-2.81385E-05-2.87003E-05 4.27605E-07 6.00586E-19-2.34386E-18
 -1      3515 9.52161E-05-2.83727E-05-2.86481E-05 2.06968E-07 5.45878E-19-1.02266E-18
 -1      3516 9.52128E-05-2.83361E-05-2.86603E-05 2.60184E-07 1.44777E-18-8.02543E-19
 -1      3517 9.51635E-05-2.82623E-05-2.86717E-05 2.89268E-07 8.69880E-19-1.20236E-18
 -1      3518 9.52333E-05-2.84363E-05-2.86279E-05 1.26162E-07 7.32627E-19-8.25292E-19
 -1      3519 9.52316E-05-2.84088E-05-2.86375E-05 1.64354E-07 6.81349E-19-9.80660E-19
 -1      3520 9.52020E-05-2.83563E-05-2.86480E-05 1.87271E-07 4.79070E-19-6.63667E-19
 -1      3521 9.52437E-05-2.84831E-05-2.86122E-05 6.92527E-08 4.81378E-19-1.01873E-18
 -1      3522 9.52431E-05-2.84628E-05-2.86195E-05 9.59679E-08 6.64606E-19-1.14602E-18
 -1      3523 9.52273E-05-2.84265E-05-2.86289E-05 1.13680E-07 5.96943E-19-4.22637E-19
 -1      3524 9.52495E-05-2.85168E-05-2.86001E-05 3.03594E-08-1.32937E-18 1.02577E-18
 -1      3525 9.52495E-05-2.85022E-05-2.86055E-05 4.84650E-08-7.60765E-19-2.15252E-19
 -1      3526 9.52430E-05-2.84778E-05-2.86137E-05 6.18986E-08-8.11706E-19 5.32695E-19
 -1      3527 9.52521E-05-2.85404E-05-2.85909E-05 4.78638E-09-2.07400E-18 2.52107E-18
 -1      3528 9.52526E-05-2.85302E-05-2.85950E-05 1.65596E-08-1.71499E-18 2.03989E-18
 -1      3529 9.52520E-05-2.85146E-05-2.86018E-05 2.65567E-08-2.23619E-18 1.61450E-18
 -1      3530 9.52527E-05-2.85566E-05-2.85842E-05-1.11459E-08-7.80152E-19 1.51636E-18
 -1      3531 9.52533E-05-2.85495E-05-2.85871E-05-3.92979E-09-1.06995E-18 2.15977E-18
 -1      3532 9.52563E-05-2.85403E-05-2.85927E-05 3.36433E-09-1.22334E-18 1.95589E-18
 -1      3533 9.52519E-05-2.85671E-05-2.85792E-05-2.02675E-08-2.14364E-19 1.78840E-19
 -1      3534 9.52526E-05-2.85625E-05-2.85813E-05-1.62505E-08-5.45984E-20 1.26694E-18
 -1      3535 9.52576E-05-2.85576E-05-2.85858E-05-1.10403E-08-9.36208E-20 8.16628E-19
 -1      3536 9.52504E-05-2.85737E-05-2.85757E-05-2.47123E-08 1.91151E-19-1.57026E-19
 -1      3537 9.52511E-05-2.85708E-05-2.85772E-05-2.28767E-08-2.70160E-19 8.68789E-20
 -1      3538 9.52569E-05-2.85688E-05-2.85807E-05-1.92424E-08 8.10036E-20 1.05593E-18
 -1      3539 9.52485E-05-2.85775E-05-2.85733E-05-2.60500E-08-1.22794E-18-9.58859E-19
 -1      3540 9.52492E-05-2.85758E-05-2.85742E-05-2.56526E-08-4.07144E-19-9.75615E-19
 -1      3541 9.52550E-05-2.85757E-05-2.85769E-05-2.31901E-08 1.76482E-19 1.04125E-18
 -1      3542 9.52466E-05-2.85795E-05-2.85716E-05-2.54026E-08-1.46615E-18 2.13715E-19
 -1      3543 9.52472E-05-2.85786E-05-2.85722E-05-2.59166E-08-1.58510E-18-9.17655E-19
 -1      3544 9.52526E-05-2.85795E-05-2.85742E-05-2.43128E-08-1.59264E-18 2.24635E-19
 -1      3545 9.52448E-05-2.85804E-05-2.85704E-05-2.35442E-08-1.08835E-18 1.46672E-18
 -1      3546 9.52453E-05-2.85799E-05-2.85709E-05-2.46200E-08-9.74168E-19 1.29972E-18
 -1      3547 9.52500E-05-2.85814E-05-2.85723E-05-2.36360E-08-2.30956E-18 2.44050E-18
 -1      3548 9.52432E-05-2.85808E-05-2.85696E-05-2.09874E-08-1.60671E-18 1.03827E-18
 -1      3549 9.52436E-05-2.85805E-05-2.85699E-05-2.23725E-08-8.90953E-19 1.87289E-18
 -1      3550 9.52475E-05-2.85822E-05-2.85709E-05-2.18844E-08-9.15637E-19 3.42282E-18
 -1      3551 9.73436E-05-3.44115E-05-2.68940E-05 1.63151E-05-1.61423E-18-1.95228E-19
 -1      3552 1.00545E-04-3.79801E-05-2.67770E-05 1.67459E-05-1.52539E-18-6.34290E-19
 -1      3553 9.18768E-05-3.13321E-05-2.60581E-05 1.72996E-05-1.58511E-18-9.62004E-19
 -1      3554 9.52439E-05-2.85826E-05-2.85691E-05-1.70350E-08-1.63074E-18 3.79441E-19
 -1      3555 9.52420E-05-2.85812E-05-2.85689E-05-1.76297E-08-2.46596E-18 2.70565E-18
 -1      3556 9.52420E-05-2.85809E-05-2.85691E-05-1.87185E-08-2.78344E-18 1.67907E-18
 -1      3557 9.52458E-05-2.85833E-05-2.85696E-05-1.75210E-08-1.89276E-18 2.21933E-19
 -1      3558 1.18562E-04-4.90661E-05-3.00438E-05 8.73707E-06 7.16894E-19 2.88362E-19
 -1      3559 1.10308E-04-4.49527E-05-2.78219E-05 1.56560E-05 1.24455E-18-2.25317E-19
 -1      3560 1.18907E-04-5.20938E-05-2.84300E-05-1.55095E-05-7.79231E-19-7.43975E-19
 -1      3561 1.32900E-04-5.19501E-05-3.48474E-05-4.74860E-06 2.40604E-19-3.21475E-18
 -1      3562 9.52560E-05-2.85886E-05-2.85717E-05 4.95759E-09 9.14639E-19-7.52903E-19
 -1      3563 9.52564E-05-2.85889E-05-2.85718E-05 1.79374E-09 4.68164E-19 2.18188E-19
 -1      3564 6.56002E-05-1.98556E-05-1.93138E-05-1.84499E-05 8.47026E-19 1.78565E-18
 -1      3565 7.20636E-05-2.50909E-05-2.02003E-05-2.31888E-05 1.31084E-18 2.07401E-18
 -1      3566 1.31104E-04-5.66643E-05-3.17020E-05 4.67401E-06-4.46082E-19-3.54107E-18
 -1      3567 1.24056E-04-5.50494E-05-2.97302E-05 9.76382E-06-6.75853E-19-2.71690E-18
 -1      3568 7.00768E-05-2.04829E-05-2.06981E-05-2.22568E-05-3.56707E-19-2.93590E-18
 -1      3569 8.23690E-05-2.94862E-05-2.28008E-05-2.46852E-05-4.04141E-19-2.21573E-18
 -1      3570 9.18975E-05-2.53879E-05-2.85150E-05 1.00118E-05-5.51496E-19-3.47909E-19
 -1      3571 9.22800E-05-2.60150E-05-2.83695E-05 1.08065E-05-8.27319E-19-5.32763E-19
 -1      3572 8.98944E-05-2.41325E-05-2.81792E-05 9.37140E-06-9.11571E-19-5.12631E-19
 -1      3573 9.22371E-05-2.67239E-05-2.80795E-05 1.19323E-05-4.88071E-19-3.79696E-19
 -1      3574 9.31859E-05-2.80240E-05-2.78825E-05 1.27573E-05-6.28340E-19-3.95179E-20
 -1      3575 8.94663E-05-2.49906E-05-2.76390E-05 1.14259E-05-4.19561E-19-8.38716E-19
 -1      3576 1.12989E-04-4.61354E-05-2.86470E-05-8.78238E-06-1.05826E-19-7.61946E-19
 -1      3577 1.09402E-04-4.32770E-05-2.81682E-05-1.04888E-05 2.28530E-19-7.79981E-19
 -1      3578 1.04766E-04-4.17604E-05-2.72249E-05-1.41663E-05 3.67073E-19-4.63459E-19
 -1      3579 1.19365E-04-5.01570E-05-2.95127E-05-7.06076E-06-9.79977E-20-1.44111E-18
 -1      3580 9.82845E-05-2.95977E-05-2.93822E-05-1.05631E-05 4.19630E-19-8.18815E-19
 -1      3581 9.41173E-05-2.68381E-05-2.88119E-05-1.13230E-05 4.76398E-19-1.09234E-18
 -1      3582 1.00535E-04-3.28946E-05-2.89550E-05-1.19506E-05 1.94705E-19-9.11060E-19
 -1      3583 5.23148E-05-7.87652E-06-1.88237E-05-3.33126E-06 6.94749E-19-3.61556E-18
 -1      3584 7.05392E-05-9.00092E-06-2.64495E-05 8.74880E-06 1.11049E-18-2.71548E-18
 -1      3585 7.43180E-05-1.13232E-05-2.69317E-05 9.51864E-06 9.77041E-19-2.60700E-18
 -1      3586 7.66725E-05-1.50823E-05-2.63249E-05 1.22726E-05 1.12128E-18-2.33407E-18
 -1      3587 6.81569E-05-8.93265E-06-2.53229E-05 9.02204E-06 1.13489E-18-2.70409E-18
 -1      3588 1.14652E-04-4.42450E-05-3.00064E-05 6.16727E-06 5.35910E-19 2.58941E-20
 -1      3589 1.18392E-04-4.64147E-05-3.08203E-05 3.53209E-06 3.63450E-19 3.73975E-19
 -1      3590 9.23720E-05-3.87087E-05-2.30510E-05 2.55186E-05-1.95900E-18-1.62736E-19
 -1      3591 8.29085E-05-3.23657E-05-2.15369E-05 2.52478E-05-1.93649E-18 5.76935E-19
 -1      3592 1.29844E-04-5.10754E-05-3.36616E-05 3.18989E-06 1.92832E-20 6.01645E-19
 -1      3593 8.29106E-05-3.24744E-05-2.14007E-05-2.58164E-05 1.51714E-18 1.37127E-18
 -1      3594 9.67902E-05-4.22827E-05-2.35351E-05-2.56567E-05 1.32674E-18 2.06994E-20
 -1      3595 6.60306E-05-1.64290E-05-2.10503E-05-1.74196E-05-4.40192E-20-3.01009E-18
 -1      3596 1.07066E-04-4.62921E-05-2.57372E-05-1.97478E-05 1.16289E-18-6.02889E-19
 -1      3597 1.14796E-04-4.97888E-05-2.80464E-05-1.32757E-05 3.98737E-19-1.40851E-18
 -1      3598 6.88077E-05-1.97377E-05-2.12053E-05 2.31369E-05 1.97031E-18-2.45385E-18
 -1      3599 5.78683E-05-1.20271E-05-1.90784E-05 1.75802E-05 1.75811E-18-3.33567E-18
 -1      3600 1.18191E-04-5.14131E-05-2.83296E-05 1.30978E-05-1.01908E-18-2.42036E-18
 -1      3601 1.08345E-04-4.73774E-05-2.61567E-05-2.22693E-05-8.37345E-19-1.37971E-18
 -1      3602 1.13956E-04-4.74352E-05-2.84524E-05-1.40741E-05-8.47509E-19-6.89458E-19
 -1      3603 1.07929E-04-4.23186E-05-2.79804E-05-1.52826E-05-6.34322E-19-6.89425E-19
 -1      3604 9.67603E-05-3.89116E-05-2.45322E-05-2.37135E-05-6.78672E-19-1.60854E-18
 -1      3605 1.10543E-04-4.68910E-05-2.73176E-05 1.58655E-05-1.48337E-18-2.01984E-18
 -1      3606 1.10819E-04-4.86476E-05-2.67585E-05 1.80722E-05-1.44201E-18-2.17261E-18
 -1      3607 1.00485E-04-4.29847E-05-2.43761E-05 2.35157E-05-1.75504E-18-1.30122E-18
 -1      3608 1.05700E-04-4.21806E-05-2.70079E-05 1.67412E-05-1.39062E-18-1.56035E-18
 -1      3609 7.68518E-05-2.74182E-05-2.10267E-05 2.34109E-05-1.45065E-18 5.71483E-19
 -1      3610 7.09775E-05-2.24079E-05-2.08562E-05 1.88181E-05-1.21087E-18 6.37551E-19
 -1      3611 8.34060E-05-2.97865E-05-2.29083E-05 2.14769E-05-1.60963E-18 2.31796E-19
 -1      3612 9.52539E-05-2.85874E-05-2.85714E-05 1.11084E-08 1.72046E-19-5.35619E-19
 -1      3613 9.52551E-05-2.85881E-05-2.85715E-05 8.27767E-09 9.46969E-19-1.24771E-18
 -1      3614 9.52574E-05-2.85883E-05-2.85725E-05 6.95313E-09 1.07363E-18-4.97502E-19
 -1      3615 6.49502E-05-1.78507E-05-2.00594E-05-1.27062E-05 4.86567E-19 1.64837E-18
 -1      3616 6.11553E-05-6.12946E-06-2.36597E-05 1.16975E-06 1.07861E-18-2.84164E-18
 -1      3617 6.17118E-05-6.59378E-06-2.36207E-05 4.67050E-06 1.09588E-18-2.79610E-18
 -1      3618 9.07161E-05-3.25513E-05-2.47622E-05-2.10395E-05-4.98849E-19-1.79641E-18
 -1      3619 9.81507E-05-3.84443E-05-2.56823E-05 1.95889E-05-1.84546E-18-1.02895E-18
 -1      3620 9.52584E-05-2.85888E-05-2.85727E-05 6.22630E-11 6.23459E-19-7.26559E-19
 -1      3621 9.52564E-05-2.85889E-05-2.85718E-05-1.70200E-09 7.70255E-19-1.81625E-18
 -1      3622 9.52560E-05-2.85887E-05-2.85717E-05-4.84439E-09 1.57281E-18-4.05278E-18
 -1      3623 8.57601E-05-2.36804E-05-2.67445E-05 1.52951E-05 1.20412E-18-1.65852E-18
 -1      3624 9.18080E-05-2.69305E-05-2.76438E-05 1.35654E-05 9.46129E-19-1.65621E-18
 -1      3625 8.98247E-05-2.71186E-05-2.69091E-05 1.40326E-05-8.07045E-19-5.20988E-19
 -1      3626 9.52420E-05-2.85806E-05-2.85692E-05-1.97210E-08-2.50356E-18 1.07558E-18
 -1      3627 9.52472E-05-2.85834E-05-2.85702E-05-1.85644E-08-1.38165E-18 9.45626E-19
 -1      3628 9.52451E-05-2.85823E-05-2.85698E-05-1.95487E-08-2.27155E-18 1.73559E-18
 -1      3629 8.84742E-05-2.33622E-05-2.78627E-05-1.19704E-05 4.01897E-19-1.46702E-18
 -1      3630 9.52505E-05-2.85855E-05-2.85707E-05 1.54070E-08-4.91670E-19-5.74891E-19
 -1      3631 9.52519E-05-2.85863E-05-2.85709E-05-1.42255E-08 8.39788E-19-9.77272E-19
 -1      3632 9.52498E-05-2.85850E-05-2.85706E-05-1.65192E-08-1.49452E-19-1.78098E-19
 -1      3633 9.52493E-05-2.85839E-05-2.85709E-05-1.87006E-08-2.21822E-19 1.66639E-18
 -1      3634 1.01623E-04-4.16549E-05-2.55577E-05-1.91296E-05 1.01235E-18-1.65817E-19
 -1      3635 1.01997E-04-3.28750E-05-2.95933E-05 7.94713E-06 3.33306E-19-1.12117E-18
 -1      3636 1.06011E-04-3.67726E-05-2.96371E-05 7.42282E-06 3.16374E-19-7.22331E-19
 -1      3637 1.09734E-04-4.01280E-05-2.97999E-05 6.64498E-06 5.79864E-19-3.34112E-19
 -1      3638 9.78559E-05-3.06450E-05-2.88058E-05 1.03250E-05 6.94613E-19-1.27507E-18
 -1      3639 5.76713E-05-1.38829E-05-1.84024E-05 6.44557E-06-8.82493E-19 2.34075E-18
 -1      3640 6.07348E-05-1.44605E-05-1.98084E-05 2.53664E-07-4.50383E-19 1.49309E-18
 -1      3641 6.30793E-05-1.67710E-05-1.97369E-05 1.12887E-05-1.16769E-18 1.46269E-18
 -1      3642 9.68851E-05-3.91294E-05-2.46633E-05 2.18713E-05-1.89676E-18-9.04545E-19
 -1      3643 6.36075E-05-1.00990E-05-2.27453E-05-9.66040E-06 5.13831E-19-2.97087E-18
 -1      3644 5.97022E-05-7.78981E-06-2.21962E-05-5.78739E-06 6.63994E-19-3.16638E-18
 -1      3645 8.16883E-05-2.94507E-05-2.21993E-05-2.20634E-05 1.01858E-18 1.45809E-18
 -1      3646 1.08368E-04-4.07020E-05-2.91369E-05 1.01183E-05 7.34536E-19-6.03008E-19
 -1      3647 5.74468E-05-9.84191E-06-2.02587E-05 1.21407E-05 1.42578E-18-3.24017E-18
 -1      3648 9.79520E-05-3.28399E-05-2.79215E-05 1.33425E-05 9.30711E-19-1.16765E-18
 -1      3649 7.31864E-05-1.59372E-05-2.46182E-05-1.36593E-05 2.50530E-19-2.38744E-18
 -1      3650 5.57872E-05-7.49057E-06-2.04857E-05-3.21382E-06 6.79890E-19-3.31627E-18
 -1      3651 8.72268E-05-2.68193E-05-2.58720E-05-1.72700E-05-4.55694E-20-1.55206E-18
 -1      3652 9.92280E-05-3.55550E-05-2.73447E-05-1.66421E-05-3.28119E-19-1.05044E-18
 -1      3653 9.29249E-05-3.01975E-05-2.68250E-05-1.28999E-05 2.81145E-19-3.10027E-21
 -1      3654 9.14657E-05-2.84380E-05-2.70111E-05-1.19783E-05-8.82742E-20 1.32065E-19
 -1      3655 9.11664E-05-2.72910E-05-2.73366E-05-1.06375E-05-3.56828E-19 8.09146E-20
 -1      3656 9.05247E-05-2.62785E-05-2.75435E-05-9.74038E-06-6.70469E-19 1.12381E-19
 -1      3657 8.87280E-05-2.64345E-05-2.66932E-05-1.16874E-05-4.90559E-20-2.89761E-20
 -1      3658 9.06328E-05-2.56817E-05-2.78101E-05-8.66436E-06-4.02767E-19 5.36080E-19
 -1      3659 9.04104E-05-2.51510E-05-2.79799E-05-7.87938E-06-1.82220E-19 7.14229E-20
 -1      3660 8.85939E-05-2.48281E-05-2.73320E-05-9.14852E-06-3.41693E-19 9.67367E-19
 -1      3661 9.07248E-05-2.49278E-05-2.81823E-05-7.03252E-06 3.85263E-20 3.08619E-19
 -1      3662 9.07489E-05-2.47244E-05-2.83082E-05-6.36503E-06 5.44572E-19 7.02660E-19
 -1      3663 8.90722E-05-2.41303E-05-2.78304E-05-7.20469E-06 8.74822E-20 1.00989E-18
 -1      3664 9.11469E-05-2.47325E-05-2.84529E-05-5.69290E-06 8.23167E-19 7.98681E-19
 -1      3665 9.12987E-05-2.47354E-05-2.85383E-05-5.12762E-06 9.70093E-19 8.06694E-19
 -1      3666 8.98089E-05-2.40019E-05-2.81975E-05-5.70562E-06 5.74193E-19 1.23778E-18
 -1      3667 9.17131E-05-2.48807E-05-2.86357E-05-4.58773E-06 1.08868E-18 7.24773E-19
 -1      3668 9.19192E-05-2.50042E-05-2.86879E-05-4.10892E-06 1.12879E-18 8.44768E-20
 -1      3669 9.06313E-05-2.42228E-05-2.84539E-05-4.52550E-06 8.81965E-19 8.78991E-19
 -1      3670 9.23128E-05-2.52218E-05-2.87487E-05-3.67115E-06 6.17151E-19-4.22720E-19
 -1      3671 9.25302E-05-2.54076E-05-2.87755E-05-3.26665E-06-4.65929E-20-3.47797E-19
 -1      3672 9.14420E-05-2.46393E-05-2.86226E-05-3.58225E-06 2.47860E-19-5.77862E-19
 -1      3673 9.28835E-05-2.56541E-05-2.88093E-05-2.91023E-06-1.18423E-19-5.51276E-19
 -1      3674 9.30882E-05-2.58634E-05-2.88181E-05-2.57077E-06-1.60014E-19-4.72274E-19
 -1      3675 9.21877E-05-2.51474E-05-2.87250E-05-2.82026E-06 5.98487E-20-2.14377E-19
 -1      3676 9.33928E-05-2.61106E-05-2.88327E-05-2.28099E-06 8.20729E-20-3.35028E-19
 -1      3677 9.35732E-05-2.63193E-05-2.88294E-05-1.99895E-06 2.92755E-19 7.11630E-19
 -1      3678 9.28428E-05-2.56780E-05-2.87791E-05-2.20210E-06 8.71843E-20-1.12662E-19
 -1      3679 9.38276E-05-2.65503E-05-2.88312E-05-1.76469E-06-1.14012E-19 8.59012E-19
 -1      3680 9.39796E-05-2.67440E-05-2.88205E-05-1.53323E-06 2.44468E-19 9.21449E-19
 -1      3681 9.33984E-05-2.61878E-05-2.87997E-05-1.70136E-06 2.14411E-19 4.15947E-19
 -1      3682 9.41865E-05-2.69497E-05-2.88142E-05-1.34552E-06 3.34912E-19 2.76397E-19
 -1      3683 9.43100E-05-2.71211E-05-2.87995E-05-1.15817E-06 8.37650E-22 3.68729E-19
 -1      3684 9.38564E-05-2.66515E-05-2.87981E-05-1.29805E-06-7.03085E-20 3.65805E-19
 -1      3685 9.44742E-05-2.72977E-05-2.87886E-05-1.00943E-06-2.16413E-19-3.89566E-19
 -1      3686 9.45717E-05-2.74441E-05-2.87724E-05-8.60009E-07 3.13471E-20-8.54079E-19
 -1      3687 9.42246E-05-2.70568E-05-2.87830E-05-9.76091E-07-3.21076E-19-1.48310E-19
 -1      3688 9.46992E-05-2.75915E-05-2.87593E-05-7.43638E-07 6.17596E-19-8.11602E-19
 -1      3689 9.47741E-05-2.77129E-05-2.87432E-05-6.26287E-07 6.63188E-19-9.82689E-21
 -1      3690 9.45139E-05-2.74003E-05-2.87605E-05-7.21901E-07 2.05428E-19-6.52596E-19
 -1      3691 9.48709E-05-2.78329E-05-2.87297E-05-5.36513E-07-1.12667E-19 5.76786E-20
 -1      3692 9.49270E-05-2.79312E-05-2.87146E-05-4.45823E-07-5.82984E-19 3.13263E-19
 -1      3693 9.47362E-05-2.76839E-05-2.87348E-05-5.23756E-07 6.30808E-21 2.12802E-19
 -1      3694 9.49989E-05-2.80267E-05-2.87016E-05-3.77624E-07-1.30235E-18 1.35590E-19
 -1      3695 9.50398E-05-2.81045E-05-2.86881E-05-3.08718E-07-1.89655E-18-1.61227E-19
 -1      3696 9.49033E-05-2.79126E-05-2.87089E-05-3.71462E-07-1.02343E-18 4.85052E-19
 -1      3697 9.50919E-05-2.81790E-05-2.86763E-05-2.57775E-07-1.45606E-18 2.73985E-19
 -1      3698 9.51209E-05-2.82394E-05-2.86647E-05-2.06364E-07-1.97038E-19 3.11849E-19
 -1      3699 9.50260E-05-2.80933E-05-2.86844E-05-2.56208E-07-1.26922E-18 7.53712E-19
 -1      3700 9.51575E-05-2.82963E-05-2.86543E-05-1.69019E-07-1.00156E-19 4.88068E-20
 -1      3701 9.51774E-05-2.83422E-05-2.86445E-05-1.31419E-07-2.12911E-19 3.46477E-19
 -1      3702 9.51138E-05-2.82332E-05-2.86624E-05-1.70459E-07-2.86638E-19 8.53238E-19
 -1      3703 9.52024E-05-2.83848E-05-2.86357E-05-1.04623E-07-3.89720E-19 2.62533E-19
 -1      3704 9.52153E-05-2.84189E-05-2.86276E-05-7.77423E-08-3.05887E-19 2.07724E-19
 -1      3705 9.51748E-05-2.83394E-05-2.86433E-05-1.07873E-07-6.62596E-20 5.39711E-19
 -1      3706 9.52316E-05-2.84501E-05-2.86203E-05-5.89961E-08-1.72053E-19 5.52070E-20
 -1      3707 9.52396E-05-2.84749E-05-2.86138E-05-4.02868E-08-6.50110E-19 9.21186E-19
 -1      3708 9.52156E-05-2.84183E-05-2.86271E-05-6.31871E-08-1.89398E-19 7.45993E-19
 -1      3709 9.52495E-05-2.84972E-05-2.86079E-05-2.75765E-08-1.67155E-18 1.55080E-18
 -1      3710 9.52539E-05-2.85148E-05-2.86028E-05-1.49820E-08-1.43277E-18 1.16517E-18
 -1      3711 9.52415E-05-2.84757E-05-2.86138E-05-3.21088E-08-6.32844E-19 8.64554E-19
 -1      3712 9.52594E-05-2.85302E-05-2.85980E-05-6.71097E-09-7.03426E-19 9.61236E-19
 -1      3713 9.52614E-05-2.85423E-05-2.85940E-05 1.39904E-09 3.62402E-19 1.06432E-18
 -1      3714 9.52567E-05-2.85163E-05-2.86029E-05-1.11932E-08-8.37852E-19 5.27266E-19
 -1      3715 9.52637E-05-2.85527E-05-2.85903E-05 6.47512E-09 9.87301E-19 1.03206E-18
 -1      3716 9.52641E-05-2.85607E-05-2.85873E-05 1.13690E-08 8.76554E-19 4.84537E-19
 -1      3717 9.52644E-05-2.85441E-05-2.85944E-05 2.27955E-09 6.41064E-19 1.80406E-18
 -1      3718 9.52644E-05-2.85673E-05-2.85844E-05 1.42023E-08 6.13337E-19 2.70686E-19
 -1      3719 9.52637E-05-2.85723E-05-2.85821E-05 1.68472E-08 8.40510E-20-4.13685E-19
 -1      3720 9.52670E-05-2.85625E-05-2.85876E-05 1.04200E-08 1.17327E-19 9.63763E-19
 -1      3721 9.52628E-05-2.85762E-05-2.85799E-05 1.81492E-08 2.96004E-19-8.13256E-19
 -1      3722 9.52616E-05-2.85792E-05-2.85782E-05 1.92657E-08 9.71469E-19-7.37822E-19
 -1      3723 9.52664E-05-2.85741E-05-2.85825E-05 1.48332E-08 3.53924E-19-2.22902E-19
 -1      3724 9.52599E-05-2.85813E-05-2.85765E-05 1.95641E-08 2.03007E-18-4.76547E-20
 -1      3725 9.52584E-05-2.85828E-05-2.85753E-05 1.96802E-08 1.83836E-18 9.53235E-19
 -1      3726 9.52639E-05-2.85808E-05-2.85785E-05 1.67163E-08 1.68228E-18 7.85305E-19
 -1      3727 9.52565E-05-2.85838E-05-2.85740E-05 1.93631E-08 7.86251E-19 8.00032E-19
 -1      3728 9.52549E-05-2.85845E-05-2.85730E-05 1.88517E-08 1.04058E-18 9.31940E-19
 -1      3729 9.52603E-05-2.85843E-05-2.85755E-05 1.69529E-08 1.46532E-18 1.00700E-19
 -1      3730 7.39532E-05-1.64709E-05-2.44755E-05 1.60020E-05 1.42489E-18-2.34065E-18
 -1      3731 7.83694E-05-2.17820E-05-2.42204E-05 1.87861E-05 1.46224E-18-2.01947E-18
 -1      3732 9.04411E-05-2.37016E-05-2.86192E-05 5.45547E-06-6.85741E-19 2.21267E-19
 -1      3733 9.00279E-05-2.34603E-05-2.85241E-05 6.04640E-06-4.82569E-19-2.64883E-19
 -1      3734 8.57461E-05-2.41809E-05-2.64186E-05 1.26945E-05-3.65351E-19-4.75954E-19
 -1      3735 8.63852E-05-2.55343E-05-2.60107E-05 1.41088E-05-9.85824E-19-5.03464E-19
 -1      3736 8.92645E-05-2.31614E-05-2.83505E-05 6.66489E-06-6.21570E-19-5.72759E-19
 -1      3737 8.88496E-05-2.30442E-05-2.81925E-05 7.36821E-06-6.37779E-19-4.76328E-19
 -1      3738 8.83830E-05-2.25332E-05-2.82028E-05 5.71116E-06-7.35569E-19-5.13197E-19
 -1      3739 9.23253E-05-2.50148E-05-2.88583E-05 3.58632E-06 3.64208E-19-6.55702E-19
 -1      3740 9.20100E-05-2.47145E-05-2.88390E-05 4.01960E-06-8.34107E-20-7.52786E-19
 -1      3741 9.30272E-05-2.56429E-05-2.88879E-05 2.85917E-06 2.74399E-19-2.79768E-19
 -1      3742 9.27698E-05-2.53596E-05-2.88883E-05 3.22828E-06 6.73785E-19-5.68724E-20
 -1      3743 9.19548E-05-2.47654E-05-2.87855E-05 3.07262E-06 2.30305E-19-2.22671E-19
 -1      3744 9.35882E-05-2.62071E-05-2.88849E-05 2.24750E-06-2.56476E-19-9.62464E-20
 -1      3745 9.33839E-05-2.59533E-05-2.88971E-05 2.55809E-06-1.04356E-19-2.76875E-19
 -1      3746 9.27473E-05-2.54541E-05-2.88321E-05 2.45235E-06 1.29112E-19 5.26639E-19
 -1      3747 9.40286E-05-2.66962E-05-2.88626E-05 1.73949E-06-4.54028E-19 1.34839E-19
 -1      3748 9.38699E-05-2.64767E-05-2.88811E-05 1.99694E-06-4.54669E-20 1.29756E-19
 -1      3749 9.33785E-05-2.60642E-05-2.88429E-05 1.92963E-06-3.68972E-19 5.18746E-20
 -1      3750 9.43687E-05-2.71089E-05-2.88303E-05 1.32392E-06 1.23616E-19-1.53742E-19
 -1      3751 9.42477E-05-2.69241E-05-2.88513E-05 1.53385E-06-1.01539E-21 1.99052E-19
 -1      3752 9.38736E-05-2.65889E-05-2.88317E-05 1.49457E-06 4.14693E-19-4.65322E-19
 -1      3753 9.46272E-05-2.74494E-05-2.87942E-05 9.89413E-07 1.57188E-19-6.99115E-19
 -1      3754 9.45365E-05-2.72973E-05-2.88153E-05 1.15778E-06-5.18104E-20 2.17399E-19
 -1      3755 9.42563E-05-2.70293E-05-2.88081E-05 1.13796E-06 1.16004E-19-7.65518E-19
 -1      3756 9.48206E-05-2.77252E-05-2.87581E-05 7.24634E-07 1.01187E-19-3.38314E-19
 -1      3757 9.47538E-05-2.76023E-05-2.87779E-05 8.57390E-07 3.37894E-19-5.74929E-19
 -1      3758 9.45476E-05-2.73916E-05-2.87787E-05 8.50457E-07 6.50257E-20 1.02157E-19
 -1      3759 9.49628E-05-2.79446E-05-2.87243E-05 5.18600E-07 4.14642E-19-4.64481E-19
 -1      3760 9.49146E-05-2.78470E-05-2.87421E-05 6.21500E-07 4.82570E-19 1.35631E-20
 -1      3761 9.47660E-05-2.76840E-05-2.87476E-05 6.22613E-07 3.61902E-19 5.92628E-20
 -1      3762 9.50655E-05-2.81162E-05-2.86942E-05 3.61082E-07 8.52718E-19-5.74439E-19
 -1      3763 9.50313E-05-2.80400E-05-2.87095E-05 4.39445E-07 5.08971E-19-1.19452E-19
 -1      3764 9.49268E-05-2.79161E-05-2.87175E-05 4.45191E-07 5.54757E-19 4.35426E-19
 -1      3765 9.51379E-05-2.82484E-05-2.86682E-05 2.42870E-07-3.78922E-19 6.15247E-19
 -1      3766 9.51143E-05-2.81898E-05-2.86811E-05 3.01447E-07 9.93070E-20 5.95001E-20
 -1      3767 9.50430E-05-2.80973E-05-2.86901E-05 3.09506E-07-1.16962E-19 2.53063E-18
 -1      3768 9.51876E-05-2.83483E-05-2.86463E-05 1.55914E-07 2.08487E-19 1.27537E-18
 -1      3769 9.51719E-05-2.83041E-05-2.86569E-05 1.98826E-07 4.26220E-19 1.23816E-18
 -1      3770 9.51250E-05-2.82365E-05-2.86659E-05 2.07690E-07-6.82217E-19 3.00090E-18
 -1      3771 9.52206E-05-2.84226E-05-2.86283E-05 9.33632E-08 4.58333E-19 1.45167E-18
 -1      3772 9.52105E-05-2.83899E-05-2.86369E-05 1.24094E-07 1.57866E-19 1.15148E-18
 -1      3773 9.51814E-05-2.83414E-05-2.86453E-05 1.32833E-07 2.59356E-19 3.18969E-18
 -1      3774 9.52413E-05-2.84767E-05-2.86138E-05 4.95224E-08-1.91734E-18 1.41781E-18
 -1      3775 9.52353E-05-2.84529E-05-2.86206E-05 7.09521E-08-3.74944E-19 8.56623E-19
 -1      3776 9.52187E-05-2.84192E-05-2.86282E-05 7.90348E-08-1.11866E-19 2.06387E-18
 -1      3777 9.52534E-05-2.85152E-05-2.86024E-05 1.97552E-08-2.20763E-18 7.03742E-19
 -1      3778 9.52502E-05-2.84983E-05-2.86077E-05 3.42157E-08-2.18823E-18 5.63680E-19
 -1      3779 9.52422E-05-2.84756E-05-2.86142E-05 4.13820E-08-1.56613E-18 2.51765E-19
 -1      3780 9.52595E-05-2.85419E-05-2.85935E-05 3.62948E-10-1.06903E-18 4.34276E-19
 -1      3781 9.52582E-05-2.85302E-05-2.85975E-05 9.70601E-09-1.64042E-18 1.12634E-18
 -1      3782 9.52559E-05-2.85155E-05-2.86030E-05 1.58688E-08-1.91496E-18 9.88889E-20
 -1      3783 9.52616E-05-2.85597E-05-2.85866E-05-1.15483E-08-4.29611E-20 8.48987E-19
 -1      3784 9.52615E-05-2.85519E-05-2.85897E-05-5.88007E-09-4.90030E-19 1.05833E-18
 -1      3785 9.52627E-05-2.85430E-05-2.85942E-05-7.01704E-10-1.08567E-18 3.98568E-19
 -1      3786 9.52610E-05-2.85710E-05-2.85815E-05-1.81989E-08 8.97517E-19 6.13990E-19
 -1      3787 9.52618E-05-2.85661E-05-2.85837E-05-1.51034E-08 4.46937E-19 1.20244E-18
 -1      3788 9.52650E-05-2.85612E-05-2.85873E-05-1.08302E-08-4.38307E-21 1.76732E-18
 -1      3789 9.52590E-05-2.85778E-05-2.85777E-05-2.12611E-08-1.76281E-19 6.31341E-19
 -1      3790 9.52601E-05-2.85749E-05-2.85793E-05-1.99134E-08 9.45230E-19 7.46253E-19
 -1      3791 9.52643E-05-2.85727E-05-2.85821E-05-1.64363E-08 8.35443E-19 1.53182E-18
 -1      3792 9.52561E-05-2.85815E-05-2.85748E-05-2.19482E-08-2.33572E-18 1.72511E-18
 -1      3793 9.52574E-05-2.85799E-05-2.85760E-05-2.17533E-08-1.57955E-18 6.38168E-19
 -1      3794 9.52619E-05-2.85795E-05-2.85782E-05-1.89634E-08-8.73180E-19 1.40845E-18
 -1      3795 9.52530E-05-2.85832E-05-2.85727E-05-2.11225E-08-1.51416E-18 1.90760E-18
 -1      3796 9.52543E-05-2.85825E-05-2.85736E-05-2.16667E-08-2.00354E-18 1.75016E-18
 -1      3797 9.52586E-05-2.85831E-05-2.85753E-05-1.94573E-08-1.46858E-18 1.45564E-18
 -1      3798 9.52505E-05-2.85838E-05-2.85714E-05-1.94836E-08-1.33862E-18 1.34823E-18
 -1      3799 9.52517E-05-2.85835E-05-2.85721E-05-2.04496E-08-1.45535E-18 1.41598E-18
 -1      3800 9.52556E-05-2.85847E-05-2.85733E-05-1.86500E-08-1.51498E-18-8.87508E-19
 -1      3801 9.52532E-05-2.85853E-05-2.85720E-05-1.73555E-08-1.00607E-18-7.98862E-19
 -1      3802 9.52522E-05-2.85850E-05-2.85716E-05 1.73407E-08-6.21829E-19-7.27075E-19
 -1      3803 9.52531E-05-2.85865E-05-2.85714E-05 1.40054E-08-6.29875E-19-8.90700E-19
 -1      3804 9.52557E-05-2.85869E-05-2.85723E-05 1.30675E-08-2.44159E-19-1.45438E-18
 -1      3805 9.52530E-05-2.85846E-05-2.85721E-05 1.82747E-08 1.77181E-19 3.42485E-19
 -1      3806 9.75949E-05-3.77073E-05-2.54724E-05-1.86939E-05 7.83680E-19 4.61128E-19
 -1      3807 7.98880E-05-2.00529E-05-2.55721E-05-1.50720E-05 2.78747E-19-1.99580E-18
 -1      3808 9.14658E-05-2.43501E-05-2.87773E-05 4.44383E-06-2.37701E-19-7.50860E-19
 -1      3809 9.10940E-05-2.40574E-05-2.87272E-05 4.94905E-06-4.42514E-19-2.52231E-19
 -1      3810 8.97899E-05-2.32508E-05-2.85013E-05 4.66841E-06-4.56973E-19 2.91958E-20
 -1      3811 8.79860E-05-2.28792E-05-2.79287E-05 8.15596E-06-1.33829E-18-3.24382E-19
 -1      3812 8.76553E-05-2.30041E-05-2.76877E-05 9.02192E-06-1.38386E-18-7.47883E-19
 -1      3813 8.67596E-05-2.19753E-05-2.77428E-05 7.01829E-06-1.01523E-18-6.04701E-19
 -1      3814 6.49582E-05-1.58223E-05-2.09424E-05-7.54201E-06 2.68278E-19 1.12294E-18
 -1      3815 7.04592E-05-1.96460E-05-2.17978E-05-1.38395E-05 4.39883E-19 1.66892E-18
 -1      3816 5.51866E-05-6.21869E-06-2.06428E-05 4.37337E-06 1.08907E-18-3.15601E-18
 -1      3817 9.18666E-05-3.41259E-05-2.45124E-05 2.11492E-05-2.03833E-18-3.68750E-19
 -1      3818 8.67287E-05-2.30973E-05-2.73027E-05 1.00839E-05-6.61939E-19-6.15771E-19
 -1      3819 8.66451E-05-2.36540E-05-2.69603E-05 1.11958E-05-3.04786E-20-4.61043E-19
 -1      3820 8.49548E-05-2.17481E-05-2.70630E-05 8.75883E-06-8.75538E-19-8.91407E-20
 -1      3821 1.04358E-04-3.84113E-05-2.82217E-05-1.44005E-05-3.91078E-19-7.40684E-19
 -1      3822 1.07115E-04-4.09878E-05-2.82461E-05 1.32195E-05 1.11160E-18-6.28318E-19
 -1      3823 1.02548E-04-4.05818E-05-2.66078E-05 1.94201E-05 1.53629E-18-8.60678E-19
 -1      3824 8.47547E-05-2.76753E-05-2.41103E-05 2.21279E-05 1.73857E-18-1.71014E-18
 -1      3825 7.89296E-05-2.57166E-05-2.27563E-05-1.87431E-05 9.09505E-19 1.54278E-18
 -1      3826 8.81017E-05-3.27308E-05-2.38621E-05-2.11638E-05 8.51341E-19 1.27531E-18
 -1      3827 9.48266E-05-3.41657E-05-2.60090E-05 1.95989E-05 1.55556E-18-1.18839E-18
 -1      3828 6.04590E-05-9.57558E-06-2.17214E-05 1.02593E-05 1.36660E-18-3.03407E-18
 -1      3829 9.41326E-05-3.39001E-05-2.57055E-05-1.67080E-05 6.51183E-19 5.16706E-19
 -1      3830 9.16856E-05-3.11379E-05-2.58912E-05-1.56271E-05 7.35387E-19 4.67422E-19
 -1      3831 8.60767E-05-2.98176E-05-2.40168E-05 1.96984E-05-1.71831E-18-1.81232E-19
 -1      3832 6.40899E-05-9.72040E-06-2.32960E-05 1.13502E-05 1.38144E-18-2.81787E-18
 -1      3833 9.52551E-05-2.85882E-05-2.85715E-05-8.19807E-09 1.45601E-18-3.03920E-18
 -1      3834 9.52539E-05-2.85874E-05-2.85714E-05-1.10637E-08 8.88017E-19-1.87705E-18
 -1      3835 9.52574E-05-2.85883E-05-2.85725E-05-6.82505E-09 1.41321E-19-3.99045E-18
 -1      3836 9.52543E-05-2.85867E-05-2.85718E-05-1.34228E-08-6.46707E-19-1.71495E-18
 -1      3837 6.81235E-05-1.88077E-05-2.09261E-05 1.43136E-05-1.18941E-18 9.38115E-19
 -1      3838 6.62251E-05-1.64563E-05-2.14342E-05 8.14771E-06-1.17414E-18 1.64703E-18
 -1      3839 7.41041E-05-2.13441E-05-2.24737E-05 1.51603E-05-1.13759E-18 7.24835E-19
 -1      3840 9.52566E-05-2.85857E-05-2.85733E-05 1.63520E-08 4.26701E-19-4.28790E-19
 -1      3841 6.83158E-05-1.27845E-05-2.38083E-05 1.44042E-05 1.45386E-18-2.68480E-18
 -1      3842 9.52606E-05-2.85887E-05-2.85737E-05 1.79881E-09 2.66396E-19 3.18045E-20
 -1      3843 9.52607E-05-2.85887E-05-2.85737E-05-1.65945E-09 5.12444E-19-2.32188E-18
 -1      3844 9.09763E-05-2.40178E-05-2.86840E-05 3.80369E-06-7.77550E-22-4.53237E-19
 -1      3845 7.48439E-05-2.00437E-05-2.35499E-05-1.12040E-05-5.02595E-20 8.66730E-19
 -1      3846 7.64266E-05-2.25530E-05-2.29857E-05-1.56009E-05 4.12361E-19 1.69544E-18
 -1      3847 8.23666E-05-2.53513E-05-2.44114E-05-1.52293E-05 4.46393E-19 1.15899E-18
 -1      3848 8.45818E-05-2.70430E-05-2.46379E-05 1.74329E-05-1.54761E-18-6.54561E-19
 -1      3849 6.46150E-05-1.49669E-05-2.11690E-05-3.67107E-06-2.88865E-19 4.17260E-19
 -1      3850 6.98331E-05-1.67993E-05-2.26817E-05-5.16693E-06-1.13340E-19 6.55998E-19
 -1      3851 6.57205E-05-1.51181E-05-2.16364E-05 1.75385E-06-8.34837E-19 7.67743E-19
 -1      3852 8.75283E-05-2.82442E-05-2.53901E-05-1.55658E-05 6.67990E-19 8.89079E-19
 -1      3853 8.00566E-05-2.37244E-05-2.41132E-05 1.59123E-05-1.21057E-18 1.84958E-19
 -1      3854 1.02392E-04-3.62905E-05-2.81834E-05 1.29506E-05 9.85244E-19-9.17031E-19
 -1      3855 8.31046E-05-2.21483E-05-2.60909E-05 1.12275E-05-5.54649E-19-3.43804E-19
 -1      3856 9.52590E-05-2.85879E-05-2.85734E-05 8.91219E-09 1.35731E-19-1.62684E-18
 -1      3857 9.52602E-05-2.85884E-05-2.85736E-05 5.54913E-09-1.84792E-19-3.69756E-20
 -1      3858 9.52624E-05-2.85882E-05-2.85747E-05 3.80056E-09 4.64817E-19-1.43904E-18
 -1      3859 9.51665E-05-3.25598E-05-2.69247E-05 1.66573E-05 1.32019E-18-1.27805E-18
 -1      3860 9.07968E-05-3.07850E-05-2.58447E-05 1.97181E-05 1.57507E-18-1.30851E-18
 -1      3861 8.65156E-05-2.37232E-05-2.68929E-05-8.98457E-06 1.52022E-19 5.58081E-19
 -1      3862 8.66824E-05-2.32992E-05-2.71941E-05-7.89388E-06-1.86607E-20 9.77438E-19
 -1      3863 8.74655E-05-2.32222E-05-2.75176E-05-6.91718E-06-2.15582E-20 5.50313E-19
 -1      3864 8.77981E-05-2.31187E-05-2.77429E-05-6.10355E-06 1.15832E-19 5.73682E-19
 -1      3865 8.55258E-05-2.22053E-05-2.71166E-05-6.71477E-06-8.90003E-20 4.03721E-19
 -1      3866 8.85422E-05-2.32434E-05-2.79756E-05-5.37739E-06 1.37692E-19 1.06587E-18
 -1      3867 8.89489E-05-2.33390E-05-2.81366E-05-4.74980E-06 8.06068E-19 1.14078E-18
 -1      3868 8.70468E-05-2.23930E-05-2.76922E-05-5.06878E-06 2.60843E-19 9.67389E-19
 -1      3869 8.96243E-05-2.35822E-05-2.82986E-05-4.20726E-06 6.95340E-19 7.09158E-19
 -1      3870 9.00442E-05-2.37923E-05-2.84080E-05-3.71255E-06 1.02443E-19-5.59726E-20
 -1      3871 8.84660E-05-2.28670E-05-2.80993E-05-3.87444E-06 3.88258E-19 7.52057E-19
 -1      3872 9.06407E-05-2.40961E-05-2.85164E-05-3.29739E-06-1.92743E-19-1.61051E-19
 -1      3873 9.10378E-05-2.43635E-05-2.85861E-05-2.90115E-06-3.22175E-20-4.08751E-19
 -1      3874 8.97323E-05-2.34871E-05-2.83782E-05-2.98146E-06-1.06243E-19-1.28996E-19
 -1      3875 9.15529E-05-2.46884E-05-2.86548E-05-2.57838E-06 1.70080E-19-3.63077E-19
 -1      3876 9.19084E-05-2.49747E-05-2.86952E-05-2.25803E-06 1.18706E-20-2.14924E-19
 -1      3877 9.08372E-05-2.41692E-05-2.85614E-05-2.29850E-06 1.46066E-19 8.23665E-22
 -1      3878 9.23438E-05-2.52938E-05-2.87350E-05-2.00482E-06-4.48205E-20 7.86101E-20
 -1      3879 9.26500E-05-2.55737E-05-2.87545E-05-1.74512E-06 3.49781E-19 1.60965E-20
 -1      3880 9.17809E-05-2.48538E-05-2.86742E-05-1.76830E-06 3.42141E-19-7.38901E-19
 -1      3881 9.30105E-05-2.58699E-05-2.87742E-05-1.54582E-06 1.87127E-19-3.77094E-19
 -1      3882 9.32661E-05-2.61282E-05-2.87795E-05-1.33584E-06 3.36765E-19 2.23742E-19
 -1      3883 9.25705E-05-2.55011E-05-2.87368E-05-1.35317E-06 8.15362E-21-2.18396E-19
 -1      3884 9.35588E-05-2.63922E-05-2.87855E-05-1.17917E-06 3.08010E-19-2.44898E-19
 -1      3885 9.37667E-05-2.66207E-05-2.87817E-05-1.01051E-06-1.52599E-19 2.10241E-19
 -1      3886 9.32182E-05-2.60871E-05-2.87646E-05-1.02713E-06 1.43474E-19-8.85835E-19
 -1      3887 9.39998E-05-2.68484E-05-2.87790E-05-8.87963E-07-4.09321E-19 4.01503E-19
 -1      3888 9.41648E-05-2.70442E-05-2.87698E-05-7.53768E-07-5.15264E-19 4.04268E-19
 -1      3889 9.37392E-05-2.65997E-05-2.87694E-05-7.71404E-07-3.37162E-19-3.27527E-20
 -1      3890 9.43469E-05-2.72354E-05-2.87619E-05-6.58656E-07 1.70944E-20 4.18850E-19
 -1      3891 9.44751E-05-2.73987E-05-2.87501E-05-5.53098E-07 7.42488E-19 8.09782E-19
 -1      3892 9.41505E-05-2.70358E-05-2.87598E-05-5.71822E-07-6.18977E-20 6.32621E-19
 -1      3893 9.46147E-05-2.75554E-05-2.87395E-05-4.80023E-07 2.73288E-19 4.63580E-19
 -1      3894 9.47120E-05-2.76884E-05-2.87268E-05-3.98063E-07-5.33692E-19 5.39928E-19
 -1      3895 9.44691E-05-2.73978E-05-2.87421E-05-4.17257E-07 1.23988E-19 6.46612E-19
 -1      3896 9.48169E-05-2.78143E-05-2.87153E-05-3.42593E-07-9.62031E-19 9.12476E-19
 -1      3897 9.48892E-05-2.79203E-05-2.87027E-05-2.79863E-07-1.27251E-18 8.96183E-19
 -1      3898 9.47111E-05-2.76918E-05-2.87205E-05-2.98749E-07-4.68458E-19 1.73869E-18
 -1      3899 9.49664E-05-2.80194E-05-2.86914E-05-2.38343E-07-1.08195E-18 9.59535E-19
 -1      3900 9.50188E-05-2.81022E-05-2.86798E-05-1.91082E-07-8.48721E-19 1.33738E-18
 -1      3901 9.48911E-05-2.79258E-05-2.86979E-05-2.08972E-07-8.87434E-19 1.26585E-18
 -1      3902 9.50741E-05-2.81787E-05-2.86693E-05-1.60501E-07-1.12746E-18 1.24743E-18
 -1      3903 9.51110E-05-2.82422E-05-2.86591E-05-1.25510E-07-3.55781E-19 1.24488E-18
 -1      3904 9.50221E-05-2.81085E-05-2.86762E-05-1.41905E-07-8.51951E-19 2.16026E-18
 -1      3905 9.51497E-05-2.83000E-05-2.86497E-05-1.03404E-07-1.03473E-19 1.09642E-18
 -1      3906 9.51748E-05-2.83477E-05-2.86409E-05-7.80032E-08-4.77321E-19 1.06351E-18
 -1      3907 9.51150E-05-2.82484E-05-2.86564E-05-9.26061E-08-2.98281E-19 1.40823E-18
 -1      3908 9.52008E-05-2.83906E-05-2.86328E-05-6.23730E-08-3.18391E-19 6.49608E-19
 -1      3909 9.52172E-05-2.84257E-05-2.86254E-05-4.43515E-08 2.49545E-19 1.02084E-18
 -1      3910 9.51788E-05-2.83535E-05-2.86389E-05-5.70449E-08-6.97598E-19 4.93764E-19
 -1      3911 9.52339E-05-2.84567E-05-2.86187E-05-3.35964E-08-5.07182E-19 8.27480E-20
 -1      3912 9.52440E-05-2.84819E-05-2.86126E-05-2.11587E-08-1.15111E-18 3.94504E-19
 -1      3913 9.52210E-05-2.84307E-05-2.86241E-05-3.19623E-08-9.95003E-19 7.02866E-19
 -1      3914 9.52539E-05-2.85038E-05-2.86071E-05-1.40116E-08-3.88962E-19-2.36570E-19
 -1      3915 9.52595E-05-2.85214E-05-2.86022E-05-5.72385E-09-1.38937E-19 1.71735E-20
 -1      3916 9.52473E-05-2.84862E-05-2.86117E-05-1.47528E-08-9.15534E-19 3.80549E-19
 -1      3917 9.52647E-05-2.85364E-05-2.85978E-05-1.19620E-09 7.72614E-19 1.08046E-18
 -1      3918 9.52671E-05-2.85483E-05-2.85939E-05 4.06788E-09 1.17924E-18 1.71549E-18
 -1      3919 9.52622E-05-2.85249E-05-2.86016E-05-3.35979E-09 1.06847E-18 1.69689E-19
 -1      3920 9.52692E-05-2.85581E-05-2.85904E-05 6.73676E-09-1.78638E-19 1.82466E-18
 -1      3921 9.52695E-05-2.85658E-05-2.85874E-05 9.84668E-09-5.94494E-19 7.84938E-19
 -1      3922 9.52694E-05-2.85511E-05-2.85935E-05 3.81770E-09 8.05770E-19 9.60404E-19
 -1      3923 9.52695E-05-2.85719E-05-2.85846E-05 1.12349E-08-2.67039E-19 7.75915E-19
 -1      3924 9.52686E-05-2.85766E-05-2.85823E-05 1.28489E-08 5.15540E-19 3.72946E-19
 -1      3925 9.52713E-05-2.85680E-05-2.85871E-05 8.01440E-09-5.79473E-19 2.09468E-18
 -1      3926 9.52673E-05-2.85801E-05-2.85802E-05 1.33525E-08 1.23718E-18 7.55218E-19
 -1      3927 9.52656E-05-2.85827E-05-2.85784E-05 1.39747E-08 1.94799E-18 4.70463E-19
 -1      3928 9.52699E-05-2.85783E-05-2.85821E-05 1.01235E-08 8.58654E-19 9.48387E-19
 -1      3929 9.52637E-05-2.85845E-05-2.85767E-05 1.39263E-08 1.51070E-18-5.25964E-19
 -1      3930 9.52617E-05-2.85857E-05-2.85754E-05 1.38503E-08 5.12640E-19-1.04957E-18
 -1      3931 9.52666E-05-2.85841E-05-2.85783E-05 1.09318E-08 9.22302E-19-5.59950E-19
 -1      3932 9.06038E-05-2.38411E-05-2.86252E-05 3.01164E-06 2.43803E-20-9.31228E-19
 -1      3933 9.00562E-05-2.34411E-05-2.85522E-05 3.36927E-06-1.21794E-19-9.21850E-19
 -1      3934 9.25353E-05-2.53731E-05-2.87919E-05 1.95036E-06-4.59678E-19 1.00528E-18
 -1      3935 9.21772E-05-2.50360E-05-2.87763E-05 2.21260E-06-1.34682E-19 5.56337E-19
 -1      3936 9.16742E-05-2.46462E-05-2.87364E-05 2.43971E-06-4.22649E-19 4.18817E-19
 -1      3937 9.12277E-05-2.42714E-05-2.86977E-05 2.74648E-06-3.01155E-19-2.57116E-19
 -1      3938 9.15477E-05-2.45556E-05-2.86997E-05 1.90421E-06-7.67940E-19 3.56401E-19
 -1      3939 9.37559E-05-2.65528E-05-2.88066E-05 1.18882E-06 4.68882E-19 8.18687E-20
 -1      3940 9.35360E-05-2.63029E-05-2.88146E-05 1.37325E-06 2.13610E-19 2.36239E-20
 -1      3941 9.41708E-05-2.70065E-05-2.87889E-05 9.04009E-07-3.79060E-19 7.04954E-19
 -1      3942 9.40023E-05-2.67986E-05-2.88016E-05 1.05488E-06 2.91777E-19 7.98060E-19
 -1      3943 9.37061E-05-2.65225E-05-2.87879E-05 9.37528E-07-1.78950E-19 9.14430E-19
 -1      3944 9.44871E-05-2.73783E-05-2.87642E-05 6.74151E-07 3.53882E-19 4.28600E-19
 -1      3945 9.43599E-05-2.72086E-05-2.87790E-05 7.95417E-07-1.20535E-19 6.14376E-19
 -1      3946 9.41362E-05-2.69866E-05-2.87745E-05 7.13981E-07-1.20686E-19 1.14894E-18
 -1      3947 9.47244E-05-2.76775E-05-2.87370E-05 4.91992E-07 1.02029E-19 2.49076E-19
 -1      3948 9.46299E-05-2.75413E-05-2.87520E-05 5.87735E-07 5.38303E-19 4.49567E-19
 -1      3949 9.44641E-05-2.73660E-05-2.87535E-05 5.32814E-07 2.66438E-19 1.87342E-19
 -1      3950 9.48994E-05-2.79142E-05-2.87100E-05 3.50273E-07-2.70937E-19 1.21957E-18
 -1      3951 9.48306E-05-2.78068E-05-2.87241E-05 4.24509E-07-1.34316E-19 4.09984E-19
 -1      3952 9.47100E-05-2.76706E-05-2.87291E-05 3.88829E-07 1.81819E-19 4.84370E-19
 -1      3953 9.50261E-05-2.80984E-05-2.86848E-05 2.42076E-07-6.24568E-19 1.56896E-18
 -1      3954 9.49769E-05-2.80151E-05-2.86976E-05 2.98579E-07-2.73598E-19 1.63915E-18
 -1      3955 9.48913E-05-2.79111E-05-2.87043E-05 2.76601E-07-5.62197E-19 7.12002E-19
 -1      3956 9.51155E-05-2.82393E-05-2.86623E-05 1.61088E-07-9.76631E-19 1.33094E-18
 -1      3957 9.50813E-05-2.81758E-05-2.86735E-05 2.03263E-07-6.27944E-19 1.39123E-18
 -1      3958 9.50223E-05-2.80979E-05-2.86808E-05 1.90835E-07-6.72694E-19-2.77208E-19
 -1      3959 9.51770E-05-2.83452E-05-2.86430E-05 1.01742E-07 7.08371E-19 1.95512E-18
 -1      3960 9.51539E-05-2.82977E-05-2.86524E-05 1.32565E-07-4.25539E-19 1.64353E-18
 -1      3961 9.51147E-05-2.82405E-05-2.86597E-05 1.26619E-07-6.30965E-19 6.45318E-21
 -1      3962 9.52177E-05-2.84233E-05-2.86267E-05 5.92767E-08-1.03183E-19 1.65749E-18
 -1      3963 9.52028E-05-2.83884E-05-2.86345E-05 8.12740E-08 1.04457E-18 2.07873E-18
 -1      3964 9.51780E-05-2.83473E-05-2.86412E-05 7.95802E-08 4.90081E-19 5.54667E-19
 -1      3965 9.52433E-05-2.84797E-05-2.86134E-05 2.97227E-08-1.73756E-18 6.72738E-19
 -1      3966 9.52343E-05-2.84546E-05-2.86197E-05 4.49893E-08-1.34003E-18 1.17580E-18
 -1      3967 9.52198E-05-2.84259E-05-2.86257E-05 4.59547E-08-2.66505E-19 1.20125E-18
 -1      3968 9.52581E-05-2.85193E-05-2.86026E-05 9.84898E-09-2.00837E-18 6.33586E-19
 -1      3969 9.52532E-05-2.85018E-05-2.86076E-05 2.00822E-08-1.31298E-18 9.82572E-19
 -1      3970 9.52458E-05-2.84823E-05-2.86128E-05 2.25929E-08-1.39191E-18 1.45227E-18
 -1      3971 9.52655E-05-2.85464E-05-2.85941E-05-2.91997E-09-1.33324E-18 1.52225E-18
 -1      3972 9.52634E-05-2.85345E-05-2.85980E-05 3.62733E-09-2.03834E-18 6.73872E-19
 -1      3973 9.52608E-05-2.85219E-05-2.86023E-05 6.92384E-09-1.68821E-18 7.58807E-19
 -1      3974 9.52679E-05-2.85641E-05-2.85874E-05-1.05936E-08 3.73232E-19 1.55082E-18
 -1      3975 9.52676E-05-2.85564E-05-2.85904E-05-6.68430E-09-9.06981E-19 1.52111E-18
 -1      3976 9.52680E-05-2.85487E-05-2.85940E-05-3.10358E-09-1.21555E-18 1.23020E-18
 -1      3977 9.52670E-05-2.85752E-05-2.85823E-05-1.47045E-08 7.35491E-19 1.24467E-18
 -1      3978 9.52679E-05-2.85704E-05-2.85846E-05-1.26349E-08 1.71284E-18 1.56953E-18
 -1      3979 9.52701E-05-2.85661E-05-2.85874E-05-9.08675E-09 6.29827E-19 9.17539E-19
 -1      3980 9.52643E-05-2.85815E-05-2.85783E-05-1.64219E-08-7.73679E-19 5.13843E-19
 -1      3981 9.52658E-05-2.85788E-05-2.85801E-05-1.55976E-08-4.56914E-19 5.67962E-19
 -1      3982 9.52689E-05-2.85769E-05-2.85823E-05-1.22534E-08 4.24587E-19 8.06550E-19
 -1      3983 9.52606E-05-2.85847E-05-2.85754E-05-1.65795E-08-1.50620E-18-7.79537E-19
 -1      3984 9.52624E-05-2.85834E-05-2.85767E-05-1.65299E-08-1.24018E-18 3.34147E-19
 -1      3985 9.52658E-05-2.85829E-05-2.85784E-05-1.35128E-08-5.86485E-19-2.92876E-19
 -1      3986 8.34703E-05-2.06889E-05-2.69478E-05 6.78934E-06-9.37998E-19-1.26409E-19
 -1      3987 8.24942E-05-2.05776E-05-2.65268E-05 7.68709E-06-6.51150E-19 1.91914E-19
 -1      3988 8.57654E-05-2.13184E-05-2.76497E-05 5.47369E-06-6.82170E-19-6.39909E-20
 -1      3989 8.48802E-05-2.10383E-05-2.73598E-05 6.13133E-06-7.19108E-19 9.70495E-20
 -1      3990 8.27939E-05-1.99672E-05-2.68784E-05 5.12365E-06-7.04674E-19 1.93321E-19
 -1      3991 8.43152E-05-2.51187E-05-2.54395E-05-1.31493E-05 5.75652E-20 7.99952E-19
 -1      3992 9.52585E-05-2.85871E-05-2.85735E-05 1.18726E-08-3.04747E-19-1.38894E-18
 -1      3993 8.55715E-05-2.47396E-05-2.60517E-05-1.16076E-05-6.76402E-20 3.95401E-19
 -1      3994 8.54060E-05-2.38332E-05-2.64365E-05-1.01081E-05-9.76731E-20 7.12283E-20
 -1      3995 8.36784E-05-2.21731E-05-2.63140E-05-8.72009E-06 4.76289E-19 5.49104E-19
 -1      3996 8.12000E-05-2.22412E-05-2.51907E-05-1.12233E-05-2.92697E-19 8.28523E-19
 -1      3997 9.52604E-05-2.85867E-05-2.85744E-05 1.21078E-08 1.68032E-20-7.94468E-19
 -1      3998 7.64647E-05-2.04709E-05-2.40901E-05 1.21041E-05-9.25075E-19 6.93657E-19
 -1      3999 9.52624E-05-2.85882E-05-2.85747E-05-3.64736E-09 4.72245E-19-2.95466E-18
 -1      4000 9.52601E-05-2.85885E-05-2.85736E-05-5.39014E-09 3.93434E-19-4.44228E-18
 -1      4001 9.52591E-05-2.85880E-05-2.85734E-05-8.69614E-09 9.73184E-21-3.06211E-18
 -1      4002 8.92886E-05-2.29837E-05-2.84326E-05 3.68096E-06-9.47635E-20-3.45459E-19
 -1      4003 8.86300E-05-2.25810E-05-2.83097E-05 4.10240E-06-3.86251E-19 1.18051E-19
 -1      4004 8.90616E-05-2.27931E-05-2.83823E-05 2.83533E-06 1.80832E-19-9.17168E-19
 -1      4005 9.52577E-05-2.85874E-05-2.85730E-05-1.16585E-08-1.78753E-19-1.57837E-18
 -1      4006 9.52555E-05-2.85863E-05-2.85725E-05-1.48410E-08-9.42249E-19-1.80430E-18
 -1      4007 9.52567E-05-2.85860E-05-2.85732E-05-1.55940E-08-9.07158E-19-1.39782E-18
 -1      4008 9.52604E-05-2.85875E-05-2.85741E-05-1.02960E-08-4.63415E-19-2.93013E-18
 -1      4009 8.07181E-05-2.03848E-05-2.59278E-05 8.68990E-06-5.09983E-19 4.68495E-19
 -1      4010 7.98403E-05-2.05908E-05-2.53544E-05 9.97075E-06-6.12636E-19 3.72218E-19
 -1      4011 7.96446E-05-1.91393E-05-2.58407E-05 6.58647E-06-4.75626E-19 7.76006E-19
 -1      4012 8.76897E-05-2.21189E-05-2.81232E-05 4.47952E-06-9.16840E-19-2.86306E-20
 -1      4013 8.69161E-05-2.17505E-05-2.79301E-05 4.99201E-06-5.02118E-19-1.05480E-19
 -1      4014 8.73761E-05-2.18310E-05-2.80669E-05 3.42140E-06-4.91078E-19 1.19053E-19
 -1      4015 9.32194E-05-2.60095E-05-2.88108E-05 1.53549E-06 1.74776E-19-2.23492E-20
 -1      4016 9.29367E-05-2.57156E-05-2.88099E-05 1.75710E-06-2.51058E-19 1.38156E-19
 -1      4017 9.31501E-05-2.59652E-05-2.87868E-05 1.20804E-06 1.47440E-19-6.60210E-19
 -1      4018 7.45323E-05-1.84633E-05-2.39425E-05 9.22460E-06-6.78589E-19 1.11964E-18
 -1      4019 9.52633E-05-2.85871E-05-2.85756E-05 9.31671E-09 4.60688E-19-1.55838E-18
 -1      4020 9.04351E-05-2.37110E-05-2.85817E-05 2.33677E-06-6.75826E-19-3.35660E-19
 -1      4021 7.33424E-05-1.80406E-05-2.35952E-05-7.75608E-06-1.15377E-19 6.69143E-19
 -1      4022 7.75928E-05-2.03808E-05-2.45286E-05-9.55540E-06-1.40965E-19 1.01401E-18
 -1      4023 8.53122E-05-2.08680E-05-2.75876E-05 4.14642E-06-9.08935E-19 3.56544E-19
 -1      4024 9.52580E-05-2.85856E-05-2.85739E-05-1.60732E-08-5.86013E-19-6.73553E-19
 -1      4025 6.92209E-05-1.65167E-05-2.25732E-05 4.66374E-06-7.70459E-19 1.13121E-18
 -1      4026 9.52613E-05-2.85860E-05-2.85752E-05-1.34046E-08-9.97491E-19-1.27606E-18
 -1      4027 9.52650E-05-2.85878E-05-2.85760E-05-1.88302E-09 6.23531E-19-2.62193E-18
 -1      4028 9.52645E-05-2.85875E-05-2.85758E-05-5.51058E-09 6.59253E-19-4.02130E-18
 -1      4029 9.24410E-05-2.53096E-05-2.87619E-05 1.52925E-06 7.60409E-20 3.67010E-19
 -1      4030 7.23909E-05-1.71746E-05-2.37349E-05-4.19338E-06-4.86988E-19 4.33694E-19
 -1      4031 9.52644E-05-2.85874E-05-2.85758E-05 5.55121E-09 5.16296E-19-1.02410E-18
 -1      4032 9.52650E-05-2.85877E-05-2.85760E-05 1.97313E-09 1.09930E-18-8.91077E-19
 -1      4033 9.52670E-05-2.85867E-05-2.85773E-05 7.62024E-11 1.63737E-18-1.18655E-18
 -1      4034 9.52658E-05-2.85862E-05-2.85770E-05 7.28298E-09 1.19938E-18-1.43219E-18
 -1      4035 8.57162E-05-2.16336E-05-2.74629E-05-4.34717E-06 1.41208E-19 7.79550E-19
 -1      4036 8.64714E-05-2.18836E-05-2.77103E-05-3.73841E-06 6.16948E-19 8.30800E-19
 -1      4037 8.74465E-05-2.22510E-05-2.79414E-05-3.25474E-06 3.26074E-19 5.54150E-19
 -1      4038 8.81264E-05-2.25786E-05-2.81134E-05-2.80856E-06 2.09135E-20-2.84370E-20
 -1      4039 8.63213E-05-2.14916E-05-2.77322E-05-2.55505E-06 1.83520E-19-3.06060E-19
 -1      4040 8.89394E-05-2.29771E-05-2.82712E-05-2.45879E-06-7.74154E-20-4.16878E-19
 -1      4041 8.95388E-05-2.33404E-05-2.83867E-05-2.12165E-06-3.91135E-19-1.31241E-19
 -1      4042 8.80811E-05-2.23566E-05-2.81282E-05-1.85960E-06-4.10480E-19-9.70723E-19
 -1      4043 9.02167E-05-2.37435E-05-2.84907E-05-1.86586E-06-1.40729E-19-3.88341E-19
 -1      4044 9.07341E-05-2.41119E-05-2.85644E-05-1.60587E-06 5.07398E-19-4.11528E-19
 -1      4045 8.95532E-05-2.32283E-05-2.83947E-05-1.36038E-06-1.90196E-19-1.12586E-18
 -1      4046 9.12953E-05-2.44987E-05-2.86295E-05-1.41711E-06 7.73782E-19-1.22334E-18
 -1      4047 9.17328E-05-2.48506E-05-2.86730E-05-1.21388E-06 3.26787E-19-1.14876E-18
 -1      4048 9.07792E-05-2.40684E-05-2.85669E-05-9.98398E-07-1.25098E-19-9.46191E-19
 -1      4049 9.21922E-05-2.52067E-05-2.87104E-05-1.07371E-06-2.04492E-19-1.30446E-18
 -1      4050 9.25548E-05-2.55285E-05-2.87326E-05-9.13654E-07-2.16501E-19-1.47126E-18
 -1      4051 9.17907E-05-2.48482E-05-2.86715E-05-7.33445E-07-1.12728E-19-1.98992E-18
 -1      4052 9.29260E-05-2.58455E-05-2.87508E-05-8.09207E-07-1.32790E-19-1.14982E-18
 -1      4053 9.32206E-05-2.61296E-05-2.87587E-05-6.82867E-07-2.38228E-19-1.54141E-18
 -1      4054 9.26149E-05-2.55490E-05-2.87285E-05-5.38034E-07-2.25712E-19-2.43895E-18
 -1      4055 9.35160E-05-2.64038E-05-2.87641E-05-6.04993E-07 1.61535E-19-1.52053E-18
 -1      4056 9.37509E-05-2.66477E-05-2.87627E-05-5.05473E-07-4.40270E-20-9.25372E-19
 -1      4057 9.32768E-05-2.61612E-05-2.87531E-05-3.93138E-07 1.92295E-19-1.88022E-18
 -1      4058 9.39824E-05-2.68791E-05-2.87599E-05-4.47530E-07-5.68546E-19-2.48725E-19
 -1      4059 9.41661E-05-2.70832E-05-2.87529E-05-3.69560E-07-4.45511E-20-2.38785E-19
 -1      4060 9.38004E-05-2.66829E-05-2.87565E-05-2.85377E-07 8.30026E-20-1.35790E-18
 -1      4061 9.43444E-05-2.72741E-05-2.87455E-05-3.26646E-07 2.86681E-19-5.55205E-20
 -1      4062 9.44854E-05-2.74413E-05-2.87355E-05-2.66049E-07 4.33697E-20 2.44645E-20
 -1      4063 9.42077E-05-2.71177E-05-2.87467E-05-2.05190E-07-2.93932E-19-1.38294E-18
 -1      4064 9.46203E-05-2.75957E-05-2.87257E-05-2.34492E-07-5.44121E-19 6.03465E-19
 -1      4065 9.47264E-05-2.77298E-05-2.87145E-05-1.87874E-07-8.90799E-19 4.92875E-19
 -1      4066 9.45193E-05-2.74728E-05-2.87297E-05-1.45636E-07 6.46591E-20-4.30325E-19
 -1      4067 9.48265E-05-2.78523E-05-2.87039E-05-1.64896E-07-8.38634E-19 9.28448E-19
 -1      4068 9.49046E-05-2.79578E-05-2.86927E-05-1.29463E-07-4.55728E-19 1.16522E-18
 -1      4069 9.47532E-05-2.77572E-05-2.87093E-05-1.01602E-07-4.86576E-19-2.58930E-19
 -1      4070 9.49774E-05-2.80532E-05-2.86822E-05-1.12944E-07-7.16271E-19 1.76890E-18
 -1      4071 9.50335E-05-2.81347E-05-2.86718E-05-8.63844E-08-7.47269E-19 1.81611E-18
 -1      4072 9.49252E-05-2.79808E-05-2.86882E-05-6.92721E-08-3.04715E-19 9.29669E-19
 -1      4073 9.50850E-05-2.82076E-05-2.86620E-05-7.47021E-08-5.86348E-19 1.71446E-18
 -1      4074 9.51243E-05-2.82694E-05-2.86527E-05-5.51089E-08-5.62485E-19 9.54677E-19
 -1      4075 9.50490E-05-2.81534E-05-2.86679E-05-4.57697E-08-9.42845E-19 9.13686E-19
 -1      4076 9.51597E-05-2.83240E-05-2.86441E-05-4.70182E-08-5.96804E-19 7.89378E-19
 -1      4077 9.51862E-05-2.83699E-05-2.86360E-05-3.28293E-08-9.26294E-19 1.13455E-18
 -1      4078 9.51356E-05-2.82842E-05-2.86495E-05-2.89062E-08-8.56511E-19 1.05028E-18
 -1      4079 9.52096E-05-2.84100E-05-2.86285E-05-2.73770E-08-1.50976E-18 1.36762E-18
 -1      4080 9.52266E-05-2.84433E-05-2.86217E-05-1.73242E-08-1.58866E-18 1.36904E-18
 -1      4081 9.51943E-05-2.83814E-05-2.86334E-05-1.70085E-08-1.09075E-18 1.25438E-18
 -1      4082 9.52413E-05-2.84720E-05-2.86155E-05-1.37837E-08-1.50837E-18 1.54760E-18
 -1      4083 9.52515E-05-2.84956E-05-2.86098E-05-6.84953E-09-9.37066E-19 1.49153E-18
 -1      4084 9.52322E-05-2.84520E-05-2.86197E-05-8.79528E-09-1.33361E-18 1.83465E-18
 -1      4085 9.52599E-05-2.85156E-05-2.86047E-05-4.67041E-09 1.51613E-19 1.74451E-18
 -1      4086 9.52653E-05-2.85318E-05-2.86002E-05-4.95355E-11 1.61661E-18 1.65304E-18
 -1      4087 9.52551E-05-2.85021E-05-2.86083E-05-3.28574E-09-1.37169E-19 2.06201E-18
 -1      4088 9.52694E-05-2.85453E-05-2.85960E-05 1.18053E-09 1.14867E-18 2.23834E-19
 -1      4089 9.52716E-05-2.85560E-05-2.85924E-05 4.11705E-09 1.19659E-19-1.39166E-19
 -1      4090 9.52676E-05-2.85365E-05-2.85990E-05 2.67808E-10 5.60824E-19 8.64032E-19
 -1      4091 9.52727E-05-2.85647E-05-2.85891E-05 4.69807E-09-2.53457E-20-1.54832E-19
 -1      4092 9.52728E-05-2.85714E-05-2.85863E-05 6.43265E-09-2.98181E-19 3.58298E-19
 -1      4093 9.52728E-05-2.85593E-05-2.85915E-05 2.42964E-09 4.23248E-19-1.22926E-18
 -1      4094 9.52720E-05-2.85767E-05-2.85837E-05 6.65332E-09-3.79802E-19 6.72528E-19
 -1      4095 9.52708E-05-2.85806E-05-2.85815E-05 7.47310E-09 2.64449E-19-9.87488E-19
 -1      4096 9.52732E-05-2.85736E-05-2.85856E-05 3.65358E-09-1.11680E-19-8.36465E-19
 -1      4097 9.52696E-05-2.85828E-05-2.85800E-05 7.18970E-09 6.15946E-19-1.36895E-18
 -1      4098 9.52676E-05-2.85850E-05-2.85782E-05 7.51974E-09 7.19414E-19-2.14708E-18
 -1      4099 9.52684E-05-2.85853E-05-2.85785E-05 3.89760E-09 1.14132E-18-1.00278E-18
 -1      4100 9.52714E-05-2.85815E-05-2.85815E-05 4.18156E-09 4.00519E-19-1.29496E-18
 -1      4101 7.30009E-05-1.71332E-05-2.40038E-05 3.47696E-06-3.84222E-19 7.97558E-19
 -1      4102 8.51572E-05-2.07868E-05-2.76151E-05 2.64140E-06-8.54298E-19 3.85100E-19
 -1      4103 8.39906E-05-2.02892E-05-2.73199E-05 2.93767E-06-6.68316E-19 1.83413E-19
 -1      4104 7.89949E-05-2.03689E-05-2.52003E-05-8.30631E-06-4.51715E-20 1.02490E-18
 -1      4105 9.41316E-05-2.70264E-05-2.87633E-05 4.99297E-07-3.14815E-20 1.60336E-19
 -1      4106 9.39442E-05-2.68122E-05-2.87719E-05 5.89670E-07-2.48472E-20 4.63916E-19
 -1      4107 9.36973E-05-2.65675E-05-2.87749E-05 6.55864E-07-2.69039E-19 4.65117E-19
 -1      4108 9.34527E-05-2.63081E-05-2.87779E-05 7.64648E-07 6.73929E-20 1.01078E-19
 -1      4109 9.37322E-05-2.65938E-05-2.87639E-05 4.33872E-07-1.82968E-19-7.95811E-19
 -1      4110 9.47109E-05-2.76999E-05-2.87214E-05 2.70308E-07 4.26328E-19 1.05219E-19
 -1      4111 9.46059E-05-2.75615E-05-2.87336E-05 3.28808E-07 6.74490E-19 3.65720E-20
 -1      4112 9.48937E-05-2.79357E-05-2.86981E-05 1.91173E-07-2.72658E-19 1.21960E-19
 -1      4113 9.48173E-05-2.78272E-05-2.87101E-05 2.36817E-07 1.43810E-19 6.38974E-19
 -1      4114 9.47287E-05-2.77182E-05-2.87150E-05 1.81654E-07 3.14329E-19 4.71355E-20
 -1      4115 9.50255E-05-2.81181E-05-2.86759E-05 1.30787E-07-8.99703E-19-2.67926E-19
 -1      4116 9.49711E-05-2.80345E-05-2.86871E-05 1.65688E-07-8.54297E-19-2.61093E-19
 -1      4117 9.49078E-05-2.79511E-05-2.86930E-05 1.28755E-07-3.36116E-19 3.32126E-19
 -1      4118 9.51183E-05-2.82568E-05-2.86559E-05 8.57068E-08-2.91343E-19-8.62539E-19
 -1      4119 9.50806E-05-2.81936E-05-2.86658E-05 1.11845E-07-5.05845E-19-8.65003E-19
 -1      4120 9.50365E-05-2.81310E-05-2.86719E-05 8.81725E-08-4.76260E-19-9.18647E-19
 -1      4121 9.51817E-05-2.83604E-05-2.86384E-05 5.28291E-08 1.13977E-19-4.51884E-19
 -1      4122 9.51564E-05-2.83134E-05-2.86469E-05 7.19773E-08-1.89444E-19-7.76778E-19
 -1      4123 9.51268E-05-2.82674E-05-2.86528E-05 5.77656E-08 8.76576E-20-1.52673E-18
 -1      4124 9.52232E-05-2.84361E-05-2.86235E-05 2.94677E-08-4.84360E-19 3.96392E-19
 -1      4125 9.52070E-05-2.84019E-05-2.86306E-05 4.31558E-08 1.60112E-19 2.86541E-19
 -1      4126 9.51881E-05-2.83689E-05-2.86360E-05 3.55381E-08-6.81697E-19-5.79756E-19
 -1      4127 9.52489E-05-2.84902E-05-2.86112E-05 1.33690E-08-9.55685E-19-2.65243E-19
 -1      4128 9.52393E-05-2.84660E-05-2.86170E-05 2.28786E-08-4.72161E-19 5.54320E-19
 -1      4129 9.52280E-05-2.84428E-05-2.86217E-05 1.97244E-08-3.98708E-19-5.63248E-19
 -1      4130 9.52634E-05-2.85279E-05-2.86011E-05 2.69315E-09-2.08588E-18-5.19278E-19
 -1      4131 9.52583E-05-2.85111E-05-2.86058E-05 9.07039E-09-1.93814E-18 2.24247E-19
 -1      4132 9.52524E-05-2.84954E-05-2.86099E-05 8.82324E-09-1.20470E-18-2.88690E-19
 -1      4133 9.52702E-05-2.85531E-05-2.85931E-05-4.02587E-09-3.80983E-19-3.35510E-20
 -1      4134 9.52682E-05-2.85420E-05-2.85969E-05 5.28665E-11-1.10899E-18-1.04329E-19
 -1      4135 9.52659E-05-2.85318E-05-2.86002E-05 1.59802E-09-1.64279E-18-1.38822E-18
 -1      4136 9.52718E-05-2.85694E-05-2.85868E-05-7.92951E-09 6.11164E-19-6.28161E-20
 -1      4137 9.52719E-05-2.85623E-05-2.85897E-05-5.50086E-09 7.73563E-20-7.58142E-19
 -1      4138 9.52718E-05-2.85561E-05-2.85924E-05-2.94446E-09 4.24610E-20-2.20456E-18
 -1      4139 9.52703E-05-2.85792E-05-2.85819E-05-9.89137E-09 6.64035E-19-4.39255E-19
 -1      4140 9.52715E-05-2.85750E-05-2.85841E-05-8.59251E-09 7.62556E-19 3.69670E-20
 -1      4141 9.52728E-05-2.85716E-05-2.85863E-05-5.56822E-09 4.78354E-19-1.58203E-18
 -1      4142 9.03932E-05-2.37569E-05-2.85702E-05 1.59769E-06-8.23276E-19-3.88771E-19
 -1      4143 8.97695E-05-2.33081E-05-2.84911E-05 1.78215E-06 1.15062E-19-4.46512E-19
 -1      4144 8.24796E-05-1.97275E-05-2.69350E-05 3.13387E-06-7.98423E-19 5.14506E-19
 -1      4145 8.10023E-05-1.92501E-05-2.65009E-05 3.58928E-06-6.70951E-19 4.97523E-19
 -1      4146 8.27014E-05-1.95588E-05-2.69800E-05 1.51581E-06-4.18359E-19 4.61148E-19
 -1      4147 7.68849E-05-1.81269E-05-2.52379E-05 4.08016E-06-2.41031E-19 9.80624E-19
 -1      4148 7.34143E-05-1.67952E-05-2.41568E-05-2.53244E-07-3.15708E-19 4.62854E-19
 -1      4149 7.60795E-05-1.79443E-05-2.49427E-05-2.66203E-06-4.68366E-19 5.25349E-19
 -1      4150 7.88180E-05-1.85962E-05-2.58681E-05 3.37510E-06-5.45757E-19 7.70489E-19
 -1      4151 9.52631E-05-2.85866E-05-2.85756E-05-1.05376E-08-5.72328E-19-2.96051E-18
 -1      4152 9.24198E-05-2.53619E-05-2.87468E-05 1.06403E-06 1.10284E-19 2.00752E-19
 -1      4153 9.20201E-05-2.50040E-05-2.87250E-05 1.21137E-06-5.40878E-19 8.02059E-20
 -1      4154 9.15178E-05-2.46077E-05-2.86852E-05 1.31594E-06-7.26177E-19-2.31792E-19
 -1      4155 9.10160E-05-2.42015E-05-2.86402E-05 1.48200E-06-1.08737E-18-3.27463E-19
 -1      4156 9.15864E-05-2.46336E-05-2.86720E-05 8.35618E-07-7.29019E-19-8.83496E-19
 -1      4157 8.90015E-05-2.28223E-05-2.83775E-05 1.90790E-06 2.16129E-19-4.85477E-19
 -1      4158 8.82319E-05-2.23408E-05-2.82494E-05 2.11304E-06 7.84353E-20-1.67578E-19
 -1      4159 8.91118E-05-2.28250E-05-2.83708E-05 1.14341E-06 1.87461E-19-1.79588E-19
 -1      4160 8.72845E-05-2.18241E-05-2.80744E-05 2.24985E-06-3.47493E-19-2.42655E-19
 -1      4161 8.63377E-05-2.13245E-05-2.78769E-05 2.48575E-06-7.22338E-19-1.96906E-19
 -1      4162 8.53377E-05-2.07037E-05-2.76338E-05 1.41486E-06-4.21949E-19-4.96853E-19
 -1      4163 8.74257E-05-2.17960E-05-2.80769E-05 1.28734E-06-2.25289E-19-6.44728E-19
 -1      4164 9.31358E-05-2.60146E-05-2.87724E-05 8.43794E-07 4.25876E-19 1.09880E-19
 -1      4165 9.28211E-05-2.57067E-05-2.87659E-05 9.71836E-07 5.74069E-19 4.46912E-19
 -1      4166 9.31794E-05-2.60427E-05-2.87600E-05 5.52779E-07 1.21965E-19-1.24097E-19
 -1      4167 9.44627E-05-2.74004E-05-2.87441E-05 3.71826E-07 2.79504E-19-3.17118E-19
 -1      4168 9.43212E-05-2.72267E-05-2.87554E-05 4.45297E-07 1.54629E-19-1.90082E-19
 -1      4169 9.41596E-05-2.70503E-05-2.87539E-05 3.32661E-07 1.07940E-19-9.22778E-19
 -1      4170 9.44850E-05-2.74215E-05-2.87362E-05 2.49001E-07 2.09594E-19-1.13025E-18
 -1      4171 8.36903E-05-2.12222E-05-2.67812E-05-5.91724E-06 1.69030E-19 5.90818E-19
 -1      4172 8.45212E-05-2.13147E-05-2.71310E-05-5.03022E-06-1.29157E-19 8.20980E-19
 -1      4173 8.42038E-05-2.06724E-05-2.71594E-05-3.53158E-06 2.68383E-19 5.34441E-20
 -1      4174 9.52657E-05-2.85858E-05-2.85771E-05-8.77215E-09 5.94635E-22-2.95445E-18
 -1      4175 9.52688E-05-2.85855E-05-2.85786E-05 2.11507E-10 1.86692E-18-1.62937E-18
 -1      4176 7.80961E-05-1.88822E-05-2.52591E-05-5.68469E-06-2.72027E-19 1.02106E-18
 -1      4177 8.09926E-05-2.07236E-05-2.58431E-05-7.43166E-06 3.68550E-19 7.21526E-19
 -1      4178 8.21767E-05-2.08743E-05-2.63267E-05-6.53411E-06 5.95826E-19 6.18960E-19
 -1      4179 8.15258E-05-1.98061E-05-2.63607E-05-4.58224E-06 2.93013E-19-4.98128E-20
 -1      4180 9.04799E-05-2.37755E-05-2.85588E-05 9.90053E-07-8.80957E-19-8.82170E-19
 -1      4181 9.52668E-05-2.85845E-05-2.85781E-05-1.04405E-08-2.90124E-19-1.67691E-18
 -1      4182 9.52686E-05-2.85824E-05-2.85798E-05-1.00134E-08 4.14365E-19-4.39334E-19
 -1      4183 7.91892E-05-1.83474E-05-2.59728E-05 1.17236E-06-5.54578E-19 1.30297E-18
 -1      4184 9.24743E-05-2.53902E-05-2.87334E-05 6.87892E-07-3.44974E-20 6.47090E-19
 -1      4185 9.52681E-05-2.85854E-05-2.85784E-05-5.58699E-09 8.73205E-19-3.10689E-18
 -1      4186 9.52708E-05-2.85808E-05-2.85815E-05-6.76478E-09 3.12204E-19-1.33734E-18
 -1      4187 9.52701E-05-2.85838E-05-2.85798E-05-1.69555E-09 1.09013E-18-1.20085E-18
 -1      4188 7.79785E-05-1.85031E-05-2.55717E-05-2.28734E-06-3.93695E-19 5.29902E-19
 -1      4189 9.04953E-05-2.39178E-05-2.85521E-05-1.03566E-07-7.80209E-19-6.07263E-19
 -1      4190 8.98565E-05-2.34612E-05-2.84753E-05-7.29722E-08-2.77168E-19-8.16231E-19
 -1      4191 8.75281E-05-2.20716E-05-2.80844E-05-4.53222E-07-2.20032E-19-8.68492E-19
 -1      4192 8.83705E-05-2.25261E-05-2.82464E-05-2.21376E-07-3.80532E-20-7.54717E-19
 -1      4193 8.91588E-05-2.30219E-05-2.83686E-05-2.36176E-07-3.41814E-20-8.14770E-19
 -1      4194 9.10698E-05-2.43274E-05-2.86188E-05 1.19478E-08-8.84174E-19-1.35983E-18
 -1      4195 9.15849E-05-2.47374E-05-2.86637E-05-2.71372E-08-5.18262E-19-1.38712E-18
 -1      4196 9.20533E-05-2.51074E-05-2.87022E-05 5.51273E-08-3.24570E-19-1.59258E-18
 -1      4197 9.24650E-05-2.54669E-05-2.87250E-05 1.31415E-08-1.38753E-19-1.22799E-18
 -1      4198 9.28422E-05-2.57918E-05-2.87441E-05 7.20897E-08 1.10441E-19-1.31279E-18
 -1      4199 9.31676E-05-2.61000E-05-2.87523E-05 3.11239E-08 3.41502E-19-1.45703E-18
 -1      4200 9.34671E-05-2.63784E-05-2.87583E-05 7.36118E-08 1.59678E-19-1.64562E-18
 -1      4201 9.37210E-05-2.66371E-05-2.87572E-05 3.61183E-08 1.59211E-19-2.02178E-18
 -1      4202 9.39552E-05-2.68703E-05-2.87550E-05 6.68999E-08 4.35913E-20-1.71371E-18
 -1      4203 9.41504E-05-2.70833E-05-2.87483E-05 3.41663E-08-1.36820E-19-1.94906E-18
 -1      4204 9.43305E-05-2.72748E-05-2.87412E-05 5.65554E-08-1.30395E-19-1.86043E-18
 -1      4205 9.44782E-05-2.74469E-05-2.87317E-05 2.90253E-08-9.10300E-20-1.28587E-18
 -1      4206 9.46143E-05-2.76011E-05-2.87221E-05 4.53472E-08 1.61187E-19-1.45557E-18
 -1      4207 9.47242E-05-2.77378E-05-2.87114E-05 2.29061E-08 2.51959E-19-8.56431E-19
 -1      4208 9.48250E-05-2.78597E-05-2.87009E-05 3.48063E-08 7.19029E-20 8.92534E-20
 -1      4209 9.49051E-05-2.79663E-05-2.86902E-05 1.70094E-08-8.32722E-19 9.29075E-20
 -1      4210 9.49783E-05-2.80610E-05-2.86798E-05 2.56646E-08-5.33449E-19-1.37112E-19
 -1      4211 9.50354E-05-2.81427E-05-2.86698E-05 1.19037E-08 1.45913E-19-6.83538E-19
 -1      4212 9.50872E-05-2.82149E-05-2.86602E-05 1.81647E-08-2.61439E-19-3.10888E-19
 -1      4213 9.51267E-05-2.82764E-05-2.86512E-05 7.78203E-09-4.79808E-19 1.71965E-19
 -1      4214 9.51623E-05-2.83303E-05-2.86426E-05 1.22716E-08-5.57157E-19 5.37131E-19
 -1      4215 9.51887E-05-2.83758E-05-2.86348E-05 4.63052E-09-1.18916E-18 6.11348E-19
 -1      4216 9.52122E-05-2.84152E-05-2.86274E-05 7.80936E-09-1.15637E-18 2.55812E-19
 -1      4217 9.52290E-05-2.84480E-05-2.86209E-05 2.33419E-09-8.82320E-19 7.07192E-19
 -1      4218 9.52436E-05-2.84763E-05-2.86147E-05 4.54601E-09-5.08772E-19 1.16011E-18
 -1      4219 9.52536E-05-2.84993E-05-2.86092E-05 7.40499E-10-9.82685E-19 7.74812E-19
 -1      4220 9.52619E-05-2.85189E-05-2.86041E-05 2.24342E-09-6.50916E-19 2.27120E-19
 -1      4221 9.52671E-05-2.85347E-05-2.85997E-05-3.05328E-10-2.90698E-19-5.91678E-19
 -1      4222 9.52711E-05-2.85478E-05-2.85956E-05 6.83582E-10-2.03019E-19-1.85373E-18
 -1      4223 9.52730E-05-2.85581E-05-2.85921E-05-9.42952E-10 6.14095E-19-1.64305E-18
 -1      4224 9.52740E-05-2.85666E-05-2.85888E-05-3.28901E-10 6.77242E-19-1.24222E-18
 -1      4225 9.52739E-05-2.85730E-05-2.85861E-05-1.32203E-09 2.73875E-19-1.33026E-18
 -1      4226 9.52730E-05-2.85780E-05-2.85835E-05-1.13384E-09 1.71331E-19-8.31092E-19
 -1      4227 9.52719E-05-2.85809E-05-2.85819E-05-1.36714E-09 3.39943E-19-1.37547E-18
 -1      4228 8.00595E-05-1.90706E-05-2.61932E-05-1.66745E-06-3.72607E-19 9.89788E-20
 -1      4229 8.30969E-05-2.01126E-05-2.70428E-05-1.30032E-06 4.96532E-20-6.20883E-19
 -1      4230 8.43293E-05-2.05481E-05-2.73850E-05-8.41674E-07-2.06088E-20-3.93338E-19
 -1      4231 8.16016E-05-1.95660E-05-2.66444E-05-1.41210E-06-1.27950E-19-2.35119E-19
 -1      4232 8.65547E-05-2.15459E-05-2.78983E-05-4.63366E-07-2.58896E-19-9.45221E-19
 -1      4233 8.55382E-05-2.10943E-05-2.76602E-05-7.93285E-07-1.85686E-19-5.65976E-19
 -3
    1PSTEP                         4           1           1          
  100CL  101 1.000000000        4233                     0    1           1
 -4  ERROR       1    1
 -5  STR(%)      1    1    0    0
 -1         1 1.29434E+01
 -1         2 2.55766E+01
 -1         3 2.03819E-04
 -1         4 2.37315E-04
 -1         5 1.22827E+01
 -1         6 1.20571E+01
 -1         7 1.20571E+01
 -1         8 3.91608E+00
 -1         9 2.50730E+00
 -1        10 2.00723E+00
 -1        11 1.77929E+00
 -1        12 1.59430E+00
 -1        13 1.39847E+00
 -1        14 1.04556E+00
 -1        15 6.76266E-01
 -1        16 1.25265E+00
 -1        17 1.66924E+00
 -1        18 2.00680E+00
 -1        19 2.29676E+00
 -1        20 2.75991E+00
 -1        21 3.86023E+00
 -1        22 7.93174E+00
 -1        23 1.20571E+01
 -1        24 3.12753E+00
 -1        25 1.73167E+00
 -1        26 5.66542E-01
 -1        27 4.98725E-01
 -1        28 8.96623E-01
 -1        29 1.32082E+00
 -1        30 2.19889E+00
 -1        31 3.19223E+00
 -1        32 3.56738E+00
 -1        33 3.58678E+00
 -1        34 3.58678E+00
 -1        35 3.26232E+00
 -1        36 2.24643E+00
 -1        37 1.48298E+00
 -1        38 1.10711E+00
 -1        39 1.10711E+00
 -1        40 1.04223E+00
 -1        41 1.04223E+00
 -1        42 9.56592E-01
 -1        43 8.02957E-01
 -1        44 6.38877E-01
 -1        45 5.06044E-01
 -1        46 4.16693E-01
 -1        47 3.53405E-01
 -1        48 2.88348E-01
 -1        49 2.27678E-01
 -1        50 1.74541E-01
 -1        51 1.30066E-01
 -1        52 9.84693E-02
 -1        53 8.26645E-02
 -1        54 6.76434E-02
 -1        55 5.41206E-02
 -1        56 4.24120E-02
 -1        57 3.25768E-02
 -1        58 2.45191E-02
 -1        59 1.95110E-02
 -1        60 1.60453E-02
 -1        61 1.29189E-02
 -1        62 1.01945E-02
 -1        63 7.88049E-03
 -1        64 6.08065E-03
 -1        65 4.61280E-03
 -1        66 3.37463E-03
 -1        67 2.72331E-03
 -1        68 2.30384E-03
 -1        69 1.85411E-03
 -1        70 1.42949E-03
 -1        71 1.04717E-03
 -1        72 1.22827E+01
 -1        73 2.31684E+00
 -1        74 1.07002E+00
 -1        75 6.73926E-01
 -1        76 9.74638E-01
 -1        77 1.46134E+00
 -1        78 1.56953E+00
 -1        79 2.16928E+00
 -1        80 3.15052E+00
 -1        81 4.25834E+00
 -1        82 4.81656E+00
 -1        83 4.81656E+00
 -1        84 4.55563E+00
 -1        85 2.91659E+00
 -1        86 1.74509E+00
 -1        87 1.38278E+00
 -1        88 1.62139E+00
 -1        89 1.62139E+00
 -1        90 1.59976E+00
 -1        91 1.41289E+00
 -1        92 1.18653E+00
 -1        93 9.75272E-01
 -1        94 7.67721E-01
 -1        95 5.82632E-01
 -1        96 4.27574E-01
 -1        97 3.26131E-01
 -1        98 2.49462E-01
 -1        99 1.86429E-01
 -1       100 1.36111E-01
 -1       101 9.69140E-02
 -1       102 6.70382E-02
 -1       103 4.91493E-02
 -1       104 4.07438E-02
 -1       105 3.30778E-02
 -1       106 2.63479E-02
 -1       107 2.06101E-02
 -1       108 1.74899E-02
 -1       109 1.51407E-02
 -1       110 1.27664E-02
 -1       111 1.05256E-02
 -1       112 8.50285E-03
 -1       113 6.81427E-03
 -1       114 5.42423E-03
 -1       115 4.20212E-03
 -1       116 3.13475E-03
 -1       117 2.29219E-03
 -1       118 1.84398E-03
 -1       119 1.30432E-03
 -1       120 7.66753E-04
 -1       121 3.50346E-04
 -1       122 3.50346E-04
 -1       123 2.66673E-04
 -1       124 1.18928E-04
 -1       125 1.60698E-04
 -1       126 2.42274E-04
 -1       127 2.89485E-04
 -1       128 3.02652E-04
 -1       129 3.02652E-04
 -1       130 2.88734E-04
 -1       131 2.38888E-04
 -1       132 1.59269E-04
 -1       133 1.20934E-04
 -1       134 2.67929E-04
 -1       135 4.64610E-04
 -1       136 5.41335E-04
 -1       137 2.55766E+01
 -1       138 4.85066E+01
 -1       139 4.85066E+01
 -1       140 2.23897E+01
 -1       141 1.17905E+01
 -1       142 1.20743E+01
 -1       143 1.20743E+01
 -1       144 1.32153E+01
 -1       145 1.32153E+01
 -1       146 1.40996E+01
 -1       147 3.20694E+01
 -1       148 3.23853E+01
 -1       149 2.78177E+01
 -1       150 2.61289E+01
 -1       151 2.71265E+01
 -1       152 2.71265E+01
 -1       153 3.76248E+01
 -1       154 3.76248E+01
 -1       155 1.44134E+01
 -1       156 1.21485E+01
 -1       157 1.29434E+01
 -1       158 1.26639E+01
 -1       159 1.26639E+01
 -1       160 1.82533E+01
 -1       161 4.60384E+01
 -1       162 4.60384E+01
 -1       163 2.49581E+01
 -1       164 6.13969E+00
 -1       165 2.86796E+00
 -1       166 2.17324E+00
 -1       167 1.79793E+00
 -1       168 1.59430E+00
 -1       169 1.53357E+00
 -1       170 1.30856E+00
 -1       171 8.52486E-01
 -1       172 1.00299E+00
 -1       173 1.52250E+00
 -1       174 1.86559E+00
 -1       175 2.03726E+00
 -1       176 2.37304E+00
 -1       177 3.00594E+00
 -1       178 4.02786E+00
 -1       179 1.22827E+01
 -1       180 3.12753E+00
 -1       181 1.73167E+00
 -1       182 7.93696E-01
 -1       183 3.18914E-01
 -1       184 5.00946E-01
 -1       185 9.34746E-01
 -1       186 1.48472E+00
 -1       187 2.19889E+00
 -1       188 3.19223E+00
 -1       189 3.56738E+00
 -1       190 3.58678E+00
 -1       191 3.26232E+00
 -1       192 2.24643E+00
 -1       193 1.48298E+00
 -1       194 1.07030E+00
 -1       195 1.10711E+00
 -1       196 1.00620E+00
 -1       197 1.04223E+00
 -1       198 9.56592E-01
 -1       199 8.02957E-01
 -1       200 6.68822E-01
 -1       201 5.73923E-01
 -1       202 4.76865E-01
 -1       203 3.78052E-01
 -1       204 2.88348E-01
 -1       205 2.27678E-01
 -1       206 1.78077E-01
 -1       207 1.37649E-01
 -1       208 1.03691E-01
 -1       209 8.26645E-02
 -1       210 6.76434E-02
 -1       211 5.41206E-02
 -1       212 4.24120E-02
 -1       213 3.25768E-02
 -1       214 2.50760E-02
 -1       215 1.95110E-02
 -1       216 1.60453E-02
 -1       217 1.29189E-02
 -1       218 1.01945E-02
 -1       219 8.18363E-03
 -1       220 6.41997E-03
 -1       221 5.12311E-03
 -1       222 3.97959E-03
 -1       223 2.97947E-03
 -1       224 2.30384E-03
 -1       225 1.85411E-03
 -1       226 1.42949E-03
 -1       227 1.04717E-03
 -1       228 2.31684E+00
 -1       229 1.08636E+00
 -1       230 6.28591E-01
 -1       231 6.73926E-01
 -1       232 9.74638E-01
 -1       233 1.46134E+00
 -1       234 1.56953E+00
 -1       235 2.16928E+00
 -1       236 3.15052E+00
 -1       237 4.25834E+00
 -1       238 4.81656E+00
 -1       239 4.55563E+00
 -1       240 2.91659E+00
 -1       241 1.74509E+00
 -1       242 1.26811E+00
 -1       243 1.38278E+00
 -1       244 1.62139E+00
 -1       245 1.59976E+00
 -1       246 1.41289E+00
 -1       247 1.18653E+00
 -1       248 9.82588E-01
 -1       249 7.96166E-01
 -1       250 6.21056E-01
 -1       251 4.68687E-01
 -1       252 3.42879E-01
 -1       253 2.49462E-01
 -1       254 1.86429E-01
 -1       255 1.36366E-01
 -1       256 9.95093E-02
 -1       257 7.08852E-02
 -1       258 4.91493E-02
 -1       259 4.07438E-02
 -1       260 3.30778E-02
 -1       261 2.63479E-02
 -1       262 2.06101E-02
 -1       263 1.74899E-02
 -1       264 1.51407E-02
 -1       265 1.27664E-02
 -1       266 1.05256E-02
 -1       267 8.50285E-03
 -1       268 6.81427E-03
 -1       269 5.42423E-03
 -1       270 4.20212E-03
 -1       271 3.19081E-03
 -1       272 2.31920E-03
 -1       273 1.84398E-03
 -1       274 1.30432E-03
 -1       275 7.67303E-04
 -1       276 4.35428E-04
 -1       277 4.35428E-04
 -1       278 3.92154E-04
 -1       279 2.58956E-04
 -1       280 4.22275E-04
 -1       281 5.23038E-04
 -1       282 5.62396E-04
 -1       283 5.62396E-04
 -1       284 5.62130E-04
 -1       285 5.19563E-04
 -1       286 4.21898E-04
 -1       287 2.60364E-04
 -1       288 3.91460E-04
 -1       289 3.91460E-04
 -1       290 5.59040E-04
 -1       291 3.07496E+01
 -1       292 2.97261E+01
 -1       293 4.85066E+01
 -1       294 2.44204E+01
 -1       295 1.16354E+01
 -1       296 1.17905E+01
 -1       297 1.20743E+01
 -1       298 1.19957E+01
 -1       299 1.32153E+01
 -1       300 1.18107E+01
 -1       301 1.40996E+01
 -1       302 3.23853E+01
 -1       303 3.23853E+01
 -1       304 3.02200E+01
 -1       305 3.28996E+01
 -1       306 3.28996E+01
 -1       307 3.48238E+01
 -1       308 3.76248E+01
 -1       309 1.44134E+01
 -1       310 1.12921E+01
 -1       311 1.21485E+01
 -1       312 1.29434E+01
 -1       313 1.23417E+01
 -1       314 1.26639E+01
 -1       315 1.10279E+01
 -1       316 1.96351E+01
 -1       317 4.60384E+01
 -1       318 2.73419E+01
 -1       319 3.07496E+01
 -1       320 1.97679E+00
 -1       321 2.81639E+00
 -1       322 1.60006E+00
 -1       323 1.60006E+00
 -1       324 1.57576E+00
 -1       325 1.28783E+00
 -1       326 9.63012E-01
 -1       327 1.43320E+00
 -1       328 1.86095E+00
 -1       329 1.96163E+00
 -1       330 2.04537E+00
 -1       331 2.35407E+00
 -1       332 2.20868E+00
 -1       333 1.75022E+00
 -1       334 1.38118E+00
 -1       335 1.16980E+00
 -1       336 7.34272E-01
 -1       337 4.61622E-01
 -1       338 6.15841E-01
 -1       339 1.13072E+00
 -1       340 1.59919E+00
 -1       341 2.00012E+00
 -1       342 2.26971E+00
 -1       343 2.13635E+00
 -1       344 2.26661E+00
 -1       345 1.99230E+00
 -1       346 1.52696E+00
 -1       347 1.01195E+00
 -1       348 5.61268E-01
 -1       349 5.64934E-01
 -1       350 7.07487E-01
 -1       351 7.81452E-01
 -1       352 7.50133E-01
 -1       353 6.67889E-01
 -1       354 5.95124E-01
 -1       355 5.22488E-01
 -1       356 4.36608E-01
 -1       357 3.50290E-01
 -1       358 2.71158E-01
 -1       359 2.02952E-01
 -1       360 1.46808E-01
 -1       361 1.03691E-01
 -1       362 7.60981E-02
 -1       363 5.47466E-02
 -1       364 4.11398E-02
 -1       365 3.45181E-02
 -1       366 2.82857E-02
 -1       367 2.26894E-02
 -1       368 1.78364E-02
 -1       369 1.37688E-02
 -1       370 1.15381E-02
 -1       371 9.68653E-03
 -1       372 7.92882E-03
 -1       373 6.39712E-03
 -1       374 5.14393E-03
 -1       375 4.02138E-03
 -1       376 3.14222E-03
 -1       377 2.38787E-03
 -1       378 1.73738E-03
 -1       379 1.29690E-03
 -1       380 9.17633E-04
 -1       381 1.16775E+00
 -1       382 1.01640E+00
 -1       383 7.78941E-01
 -1       384 8.45580E-01
 -1       385 1.41191E+00
 -1       386 2.20222E+00
 -1       387 2.40697E+00
 -1       388 2.61151E+00
 -1       389 2.69579E+00
 -1       390 2.73465E+00
 -1       391 2.06122E+00
 -1       392 1.11990E+00
 -1       393 8.74421E-01
 -1       394 1.09182E+00
 -1       395 1.19590E+00
 -1       396 1.21241E+00
 -1       397 1.14601E+00
 -1       398 1.02619E+00
 -1       399 8.95498E-01
 -1       400 7.42355E-01
 -1       401 5.91328E-01
 -1       402 4.55685E-01
 -1       403 3.40960E-01
 -1       404 2.47991E-01
 -1       405 1.82802E-01
 -1       406 1.36366E-01
 -1       407 9.95093E-02
 -1       408 7.08852E-02
 -1       409 4.90962E-02
 -1       410 3.28334E-02
 -1       411 2.64547E-02
 -1       412 2.24098E-02
 -1       413 1.85318E-02
 -1       414 1.49977E-02
 -1       415 1.18914E-02
 -1       416 9.68801E-03
 -1       417 8.28720E-03
 -1       418 6.88886E-03
 -1       419 5.57815E-03
 -1       420 4.62651E-03
 -1       421 3.72954E-03
 -1       422 2.91195E-03
 -1       423 2.18362E-03
 -1       424 1.61254E-03
 -1       425 1.21622E-03
 -1       426 7.67303E-04
 -1       427 4.59348E-04
 -1       428 8.54786E-04
 -1       429 8.54786E-04
 -1       430 5.65868E-04
 -1       431 7.10671E-04
 -1       432 7.74628E-04
 -1       433 7.74628E-04
 -1       434 7.71978E-04
 -1       435 7.71978E-04
 -1       436 7.09788E-04
 -1       437 5.70441E-04
 -1       438 4.52840E-04
 -1       439 7.29218E-04
 -1       440 2.97261E+01
 -1       441 3.39551E+01
 -1       442 3.39551E+01
 -1       443 1.69251E+01
 -1       444 1.06465E+01
 -1       445 2.32156E+00
 -1       446 1.02176E+01
 -1       447 1.06744E+01
 -1       448 1.13907E+01
 -1       449 8.77755E+00
 -1       450 7.74858E+00
 -1       451 1.19820E+01
 -1       452 2.16316E+01
 -1       453 2.57005E+01
 -1       454 3.02200E+01
 -1       455 3.28996E+01
 -1       456 2.56660E+01
 -1       457 2.34636E+01
 -1       458 1.35801E+01
 -1       459 7.45468E+00
 -1       460 8.55310E+00
 -1       461 9.99547E+00
 -1       462 1.09210E+01
 -1       463 1.05133E+01
 -1       464 7.90395E+00
 -1       465 9.07025E+00
 -1       466 1.58329E+01
 -1       467 2.73419E+01
 -1       468 2.82188E+01
 -1       469 7.49923E+00
 -1       470 2.35981E+01
 -1       471 2.56660E+01
 -1       472 6.66054E+00
 -1       473 2.26348E+00
 -1       474 1.77605E+00
 -1       475 1.77043E+00
 -1       476 1.35929E+00
 -1       477 1.56781E+00
 -1       478 2.01952E+00
 -1       479 2.10596E+00
 -1       480 2.10596E+00
 -1       481 2.35407E+00
 -1       482 1.51445E+00
 -1       483 1.03075E+00
 -1       484 6.52765E+00
 -1       485 1.33101E+00
 -1       486 9.54514E-01
 -1       487 1.06330E+00
 -1       488 1.34852E+00
 -1       489 1.59252E+00
 -1       490 1.81647E+00
 -1       491 2.43118E+00
 -1       492 2.19694E+00
 -1       493 2.04187E+00
 -1       494 1.54267E+00
 -1       495 1.37619E+00
 -1       496 1.06183E+00
 -1       497 1.00457E+00
 -1       498 8.12278E-01
 -1       499 8.29722E-01
 -1       500 7.79319E-01
 -1       501 6.94829E-01
 -1       502 6.29194E-01
 -1       503 5.59421E-01
 -1       504 4.76610E-01
 -1       505 3.91479E-01
 -1       506 3.11618E-01
 -1       507 2.41097E-01
 -1       508 1.81520E-01
 -1       509 1.32922E-01
 -1       510 9.44409E-02
 -1       511 6.47753E-02
 -1       512 4.24871E-02
 -1       513 2.83257E-02
 -1       514 1.96809E-02
 -1       515 1.75469E-02
 -1       516 1.51275E-02
 -1       517 1.26833E-02
 -1       518 1.03747E-02
 -1       519 8.29010E-03
 -1       520 7.13486E-03
 -1       521 6.03821E-03
 -1       522 4.95362E-03
 -1       523 3.99574E-03
 -1       524 3.16265E-03
 -1       525 2.40933E-03
 -1       526 1.80056E-03
 -1       527 1.32006E-03
 -1       528 1.79886E+01
 -1       529 1.49681E+00
 -1       530 1.76439E+00
 -1       531 1.91562E+00
 -1       532 2.40697E+00
 -1       533 3.15991E+00
 -1       534 4.78881E+00
 -1       535 4.37945E+00
 -1       536 2.72547E+00
 -1       537 1.84118E+00
 -1       538 1.77319E+00
 -1       539 1.44981E+00
 -1       540 1.44466E+00
 -1       541 1.32631E+00
 -1       542 1.16453E+00
 -1       543 1.07013E+00
 -1       544 9.44336E-01
 -1       545 7.94566E-01
 -1       546 6.44267E-01
 -1       547 5.06834E-01
 -1       548 3.88396E-01
 -1       549 2.90494E-01
 -1       550 2.12096E-01
 -1       551 1.50926E-01
 -1       552 1.04279E-01
 -1       553 6.94717E-02
 -1       554 4.67132E-02
 -1       555 3.28751E-02
 -1       556 2.64547E-02
 -1       557 2.24098E-02
 -1       558 1.85318E-02
 -1       559 1.49977E-02
 -1       560 1.18914E-02
 -1       561 9.68801E-03
 -1       562 8.28720E-03
 -1       563 6.88886E-03
 -1       564 5.57267E-03
 -1       565 4.50183E-03
 -1       566 3.53868E-03
 -1       567 2.70088E-03
 -1       568 2.05823E-03
 -1       569 1.49031E-03
 -1       570 1.05443E-03
 -1       571 8.95678E-04
 -1       572 9.87998E-04
 -1       573 9.27259E-04
 -1       574 7.11961E-04
 -1       575 9.87998E-04
 -1       576 9.82788E-04
 -1       577 9.86905E-04
 -1       578 9.86905E-04
 -1       579 8.95118E-04
 -1       580 9.75224E-04
 -1       581 8.15751E-04
 -1       582 1.21839E+01
 -1       583 9.07692E+00
 -1       584 1.48718E+00
 -1       585 2.82188E+01
 -1       586 2.32156E+00
 -1       587 5.57396E+00
 -1       588 4.96819E+00
 -1       589 2.57005E+01
 -1       590 7.28119E+00
 -1       591 1.77605E+00
 -1       592 8.33928E+00
 -1       593 9.71593E+00
 -1       594 4.96177E+00
 -1       595 4.34691E+00
 -1       596 1.74120E+01
 -1       597 1.59963E+01
 -1       598 2.06351E+01
 -1       599 6.92665E+00
 -1       600 1.06198E+01
 -1       601 6.49470E+00
 -1       602 5.43661E+00
 -1       603 7.19824E+00
 -1       604 5.03259E+00
 -1       605 8.70661E+00
 -1       606 1.41256E+01
 -1       607 6.16630E+00
 -1       608 2.35407E+00
 -1       609 3.39551E+01
 -1       610 2.32156E+00
 -1       611 8.08455E-04
 -1       612 3.58157E+00
 -1       613 6.83127E+00
 -1       614 1.72031E+01
 -1       615 5.44901E+00
 -1       616 2.38197E+00
 -1       617 2.28167E+00
 -1       618 2.53253E+00
 -1       619 2.24321E+00
 -1       620 2.26348E+00
 -1       621 1.51445E+00
 -1       622 1.86104E+00
 -1       623 1.51423E+00
 -1       624 1.81302E+00
 -1       625 1.53395E+00
 -1       626 3.01065E+00
 -1       627 4.93535E+00
 -1       628 5.12078E+00
 -1       629 2.92517E+00
 -1       630 3.91843E+00
 -1       631 3.36749E+00
 -1       632 2.01835E+00
 -1       633 1.58084E+00
 -1       634 1.24384E+00
 -1       635 1.13639E+00
 -1       636 9.80058E-01
 -1       637 8.13016E-01
 -1       638 7.08836E-01
 -1       639 6.12228E-01
 -1       640 5.12718E-01
 -1       641 4.18511E-01
 -1       642 3.33970E-01
 -1       643 2.60952E-01
 -1       644 1.99748E-01
 -1       645 1.49722E-01
 -1       646 1.09738E-01
 -1       647 7.84426E-02
 -1       648 5.44409E-02
 -1       649 3.64110E-02
 -1       650 2.31624E-02
 -1       651 1.36636E-02
 -1       652 9.90468E-03
 -1       653 9.58148E-03
 -1       654 8.76043E-03
 -1       655 7.68410E-03
 -1       656 6.51622E-03
 -1       657 5.38857E-03
 -1       658 4.64108E-03
 -1       659 3.85474E-03
 -1       660 3.08978E-03
 -1       661 2.38184E-03
 -1       662 1.80056E-03
 -1       663 1.32006E-03
 -1       664 3.41826E+00
 -1       665 2.43457E+00
 -1       666 4.34691E+00
 -1       667 2.72547E+00
 -1       668 2.89453E+00
 -1       669 2.43801E+00
 -1       670 2.06734E+00
 -1       671 1.70152E+00
 -1       672 1.37141E+00
 -1       673 1.21268E+00
 -1       674 1.03099E+00
 -1       675 8.51756E-01
 -1       676 6.87771E-01
 -1       677 5.44468E-01
 -1       678 4.23206E-01
 -1       679 3.23161E-01
 -1       680 2.42361E-01
 -1       681 1.78332E-01
 -1       682 1.28484E-01
 -1       683 9.03405E-02
 -1       684 6.16622E-02
 -1       685 4.04978E-02
 -1       686 2.51969E-02
 -1       687 1.64192E-02
 -1       688 1.35323E-02
 -1       689 1.22103E-02
 -1       690 1.06163E-02
 -1       691 8.95576E-03
 -1       692 7.35582E-03
 -1       693 6.12464E-03
 -1       694 5.19102E-03
 -1       695 4.29132E-03
 -1       696 3.43404E-03
 -1       697 2.71827E-03
 -1       698 2.06805E-03
 -1       699 1.51648E-03
 -1       700 1.24478E-03
 -1       701 6.63576E+00
 -1       702 1.21495E-03
 -1       703 1.57787E-03
 -1       704 1.20911E-03
 -1       705 1.20820E-03
 -1       706 1.21495E-03
 -1       707 1.20820E-03
 -1       708 1.19311E-03
 -1       709 1.57787E-03
 -1       710 4.93535E+00
 -1       711 2.10248E+00
 -1       712 1.05723E+01
 -1       713 2.93542E+00
 -1       714 4.32021E+00
 -1       715 7.51675E+00
 -1       716 1.29531E+01
 -1       717 1.95090E+00
 -1       718 3.58157E+00
 -1       719 3.56637E+00
 -1       720 1.52945E+01
 -1       721 1.10747E+01
 -1       722 1.21149E+01
 -1       723 4.37945E+00
 -1       724 2.53253E+00
 -1       725 1.47957E+01
 -1       726 1.38039E+01
 -1       727 2.18231E+00
 -1       728 8.13901E+00
 -1       729 1.67641E+01
 -1       730 5.43405E+00
 -1       731 5.12078E+00
 -1       732 7.19023E+00
 -1       733 1.08936E+01
 -1       734 5.06265E+00
 -1       735 5.67129E+00
 -1       736 3.91843E+00
 -1       737 8.25978E+00
 -1       738 2.23878E+00
 -1       739 1.05051E-03
 -1       740 9.38485E-04
 -1       741 1.05529E+01
 -1       742 4.33557E+00
 -1       743 5.65986E+00
 -1       744 8.87802E+00
 -1       745 1.20726E+01
 -1       746 2.23878E+00
 -1       747 2.07869E+00
 -1       748 3.17278E+00
 -1       749 8.39810E+00
 -1       750 4.68245E+00
 -1       751 2.49318E+00
 -1       752 2.54970E+00
 -1       753 4.18944E+00
 -1       754 3.91843E+00
 -1       755 2.72451E+00
 -1       756 2.07370E+00
 -1       757 1.60272E+00
 -1       758 1.31273E+00
 -1       759 1.04779E+00
 -1       760 8.62130E-01
 -1       761 6.96923E-01
 -1       762 5.62270E-01
 -1       763 4.44585E-01
 -1       764 3.47440E-01
 -1       765 2.76173E-01
 -1       766 2.13415E-01
 -1       767 1.60525E-01
 -1       768 1.17441E-01
 -1       769 8.39809E-02
 -1       770 5.89863E-02
 -1       771 4.03277E-02
 -1       772 2.71519E-02
 -1       773 1.74929E-02
 -1       774 1.05625E-02
 -1       775 5.97845E-03
 -1       776 5.75090E-03
 -1       777 5.92460E-03
 -1       778 5.63142E-03
 -1       779 5.06942E-03
 -1       780 4.37579E-03
 -1       781 3.77285E-03
 -1       782 3.23644E-03
 -1       783 2.66536E-03
 -1       784 2.10362E-03
 -1       785 1.72953E-03
 -1       786 8.87802E+00
 -1       787 4.17495E+00
 -1       788 2.38169E+00
 -1       789 1.89545E+00
 -1       790 1.49868E+00
 -1       791 1.16537E+00
 -1       792 9.18636E-01
 -1       793 7.15540E-01
 -1       794 5.63754E-01
 -1       795 4.36914E-01
 -1       796 3.30949E-01
 -1       797 2.45257E-01
 -1       798 1.83096E-01
 -1       799 1.35195E-01
 -1       800 9.80447E-02
 -1       801 6.95933E-02
 -1       802 4.81162E-02
 -1       803 3.21660E-02
 -1       804 2.05391E-02
 -1       805 1.22460E-02
 -1       806 7.66314E-03
 -1       807 7.57218E-03
 -1       808 7.27541E-03
 -1       809 6.60930E-03
 -1       810 5.75869E-03
 -1       811 4.84618E-03
 -1       812 4.18463E-03
 -1       813 3.52926E-03
 -1       814 2.86601E-03
 -1       815 2.23804E-03
 -1       816 1.66427E-03
 -1       817 1.24374E-03
 -1       818 1.42926E-03
 -1       819 1.72953E-03
 -1       820 1.37196E-03
 -1       821 1.42926E-03
 -1       822 3.26507E+00
 -1       823 3.47883E+00
 -1       824 7.38210E+00
 -1       825 1.92903E+00
 -1       826 2.51275E+00
 -1       827 5.53739E+00
 -1       828 4.98900E+00
 -1       829 9.95365E+00
 -1       830 5.97643E+00
 -1       831 1.03457E+01
 -1       832 7.66930E+00
 -1       833 6.35775E+00
 -1       834 5.63364E+00
 -1       835 1.08982E+01
 -1       836 1.80389E+00
 -1       837 2.97422E+00
 -1       838 3.36749E+00
 -1       839 3.28902E+00
 -1       840 6.38538E+00
 -1       841 1.25730E-03
 -1       842 3.08435E+00
 -1       843 3.67996E+00
 -1       844 1.46447E-03
 -1       845 1.46447E-03
 -1       846 3.89970E+00
 -1       847 9.16747E+00
 -1       848 2.11722E+00
 -1       849 8.58323E+00
 -1       850 2.76363E+00
 -1       851 6.35775E+00
 -1       852 4.90965E+00
 -1       853 4.98327E+00
 -1       854 7.05671E+00
 -1       855 4.00060E+00
 -1       856 2.71736E+00
 -1       857 1.45558E+00
 -1       858 1.09216E+00
 -1       859 8.24175E-01
 -1       860 6.55811E-01
 -1       861 5.34433E-01
 -1       862 4.34556E-01
 -1       863 3.45671E-01
 -1       864 2.69512E-01
 -1       865 2.06037E-01
 -1       866 1.54336E-01
 -1       867 1.13087E-01
 -1       868 8.08205E-02
 -1       869 5.60842E-02
 -1       870 3.86004E-02
 -1       871 2.55486E-02
 -1       872 1.60153E-02
 -1       873 9.23503E-03
 -1       874 4.67270E-03
 -1       875 3.31520E-03
 -1       876 3.99838E-03
 -1       877 4.13771E-03
 -1       878 3.93514E-03
 -1       879 3.53462E-03
 -1       880 3.04984E-03
 -1       881 2.66919E-03
 -1       882 2.23555E-03
 -1       883 1.83518E-03
 -1       884 3.32219E+00
 -1       885 1.12187E+00
 -1       886 8.96399E-01
 -1       887 7.05111E-01
 -1       888 5.47366E-01
 -1       889 4.19446E-01
 -1       890 3.17077E-01
 -1       891 2.36134E-01
 -1       892 1.72903E-01
 -1       893 1.24138E-01
 -1       894 8.70512E-02
 -1       895 6.05044E-02
 -1       896 4.09404E-02
 -1       897 2.65839E-02
 -1       898 1.63703E-02
 -1       899 9.25030E-03
 -1       900 4.74798E-03
 -1       901 4.46431E-03
 -1       902 4.91065E-03
 -1       903 4.84488E-03
 -1       904 4.47092E-03
 -1       905 3.93073E-03
 -1       906 3.38452E-03
 -1       907 2.93128E-03
 -1       908 2.42903E-03
 -1       909 2.08888E-03
 -1       910 4.33143E+00
 -1       911 1.42519E-03
 -1       912 3.16436E+00
 -1       913 1.67294E-03
 -1       914 5.84086E+00
 -1       915 8.58323E+00
 -1       916 1.43042E+00
 -1       917 1.95197E+00
 -1       918 4.44994E+00
 -1       919 5.12221E+00
 -1       920 4.62885E+00
 -1       921 4.58189E+00
 -1       922 6.10956E+00
 -1       923 7.79792E+00
 -1       924 6.18508E+00
 -1       925 3.77893E+00
 -1       926 4.34480E+00
 -1       927 1.67294E-03
 -1       928 4.53385E+00
 -1       929 1.58081E-03
 -1       930 7.79792E+00
 -1       931 2.05224E-03
 -1       932 3.17646E+00
 -1       933 4.67264E+00
 -1       934 2.58241E+00
 -1       935 1.63124E+00
 -1       936 1.02544E+00
 -1       937 8.24175E-01
 -1       938 6.55811E-01
 -1       939 5.16795E-01
 -1       940 4.03735E-01
 -1       941 3.12362E-01
 -1       942 2.38899E-01
 -1       943 1.80255E-01
 -1       944 1.33878E-01
 -1       945 9.76194E-02
 -1       946 6.96432E-02
 -1       947 4.83778E-02
 -1       948 3.28767E-02
 -1       949 2.19749E-02
 -1       950 1.40011E-02
 -1       951 8.29851E-03
 -1       952 4.63269E-03
 -1       953 2.58004E-03
 -1       954 2.76375E-03
 -1       955 3.08043E-03
 -1       956 3.05634E-03
 -1       957 2.82456E-03
 -1       958 2.47560E-03
 -1       959 2.13984E-03
 -1       960 8.19910E-01
 -1       961 3.32491E+00
 -1       962 1.07822E+00
 -1       963 4.78202E-01
 -1       964 3.63722E-01
 -1       965 2.74515E-01
 -1       966 2.04918E-01
 -1       967 1.50828E-01
 -1       968 1.09113E-01
 -1       969 7.72827E-02
 -1       970 5.33117E-02
 -1       971 3.64351E-02
 -1       972 2.41552E-02
 -1       973 1.52335E-02
 -1       974 8.89618E-03
 -1       975 4.65796E-03
 -1       976 2.56458E-03
 -1       977 3.33681E-03
 -1       978 3.57116E-03
 -1       979 3.46300E-03
 -1       980 3.15096E-03
 -1       981 2.73176E-03
 -1       982 2.38372E-03
 -1       983 2.08888E-03
 -1       984 2.07243E-03
 -1       985 6.26186E-01
 -1       986 1.43042E+00
 -1       987 4.23321E+00
 -1       988 1.90178E+00
 -1       989 3.60112E+00
 -1       990 4.54031E+00
 -1       991 1.86705E-03
 -1       992 3.77454E+00
 -1       993 1.68322E-03
 -1       994 3.39304E+00
 -1       995 4.23321E+00
 -1       996 2.07243E-03
 -1       997 1.50228E+00
 -1       998 1.02544E+00
 -1       999 7.75287E-01
 -1      1000 5.81816E-01
 -1      1001 4.40432E-01
 -1      1002 3.34164E-01
 -1      1003 2.52902E-01
 -1      1004 1.90176E-01
 -1      1005 1.41609E-01
 -1      1006 1.04077E-01
 -1      1007 7.52456E-02
 -1      1008 5.33003E-02
 -1      1009 3.67952E-02
 -1      1010 2.51533E-02
 -1      1011 1.75990E-02
 -1      1012 1.18980E-02
 -1      1013 7.68200E-03
 -1      1014 4.63269E-03
 -1      1015 2.48263E-03
 -1      1016 1.99144E-03
 -1      1017 2.32014E-03
 -1      1018 2.35771E-03
 -1      1019 2.21340E-03
 -1      1020 2.04161E-03
 -1      1021 4.88690E-01
 -1      1022 2.83393E-01
 -1      1023 3.72250E-01
 -1      1024 1.60621E-01
 -1      1025 1.18671E-01
 -1      1026 8.61938E-02
 -1      1027 6.13069E-02
 -1      1028 4.24850E-02
 -1      1029 2.88349E-02
 -1      1030 1.93275E-02
 -1      1031 1.23705E-02
 -1      1032 7.82707E-03
 -1      1033 4.70021E-03
 -1      1034 2.53170E-03
 -1      1035 2.33448E-03
 -1      1036 2.66106E-03
 -1      1037 2.67115E-03
 -1      1038 2.48570E-03
 -1      1039 2.19119E-03
 -1      1040 1.76306E+00
 -1      1041 1.18164E+00
 -1      1042 2.20928E+00
 -1      1043 1.71479E-03
 -1      1044 6.46055E-01
 -1      1045 1.88448E-03
 -1      1046 3.55847E+00
 -1      1047 8.67867E-01
 -1      1048 2.14443E-01
 -1      1049 2.74314E+00
 -1      1050 1.68322E-03
 -1      1051 1.75939E-03
 -1      1052 8.31790E-01
 -1      1053 5.94431E-01
 -1      1054 4.34008E-01
 -1      1055 3.38559E-01
 -1      1056 2.64899E-01
 -1      1057 2.05706E-01
 -1      1058 1.58059E-01
 -1      1059 1.19872E-01
 -1      1060 8.95237E-02
 -1      1061 6.56745E-02
 -1      1062 4.71791E-02
 -1      1063 3.30474E-02
 -1      1064 2.29325E-02
 -1      1065 1.57538E-02
 -1      1066 1.04082E-02
 -1      1067 6.50751E-03
 -1      1068 3.72598E-03
 -1      1069 1.79585E-03
 -1      1070 1.48901E-03
 -1      1071 1.90134E-03
 -1      1072 1.78166E-03
 -1      1073 2.04161E-03
 -1      1074 8.72510E-01
 -1      1075 1.16070E-01
 -1      1076 1.53967E-01
 -1      1077 6.22288E-02
 -1      1078 4.42156E-02
 -1      1079 3.12069E-02
 -1      1080 2.13480E-02
 -1      1081 1.40233E-02
 -1      1082 8.69870E-03
 -1      1083 4.92337E-03
 -1      1084 2.50242E-03
 -1      1085 1.70557E-03
 -1      1086 1.99607E-03
 -1      1087 2.03522E-03
 -1      1088 4.14825E-01
 -1      1089 1.40234E+00
 -1      1090 2.74314E+00
 -1      1091 2.58554E-01
 -1      1092 3.28865E-01
 -1      1093 5.20864E-01
 -1      1094 6.51712E-01
 -1      1095 2.00935E-01
 -1      1096 8.58947E-02
 -1      1097 1.17081E+00
 -1      1098 1.66097E+00
 -1      1099 1.90534E-03
 -1      1100 1.20571E+01
 -1      1101 7.98660E+00
 -1      1102 3.21169E+00
 -1      1103 2.25726E+00
 -1      1104 1.89326E+00
 -1      1105 1.68680E+00
 -1      1106 1.49639E+00
 -1      1107 1.22201E+00
 -1      1108 8.60911E-01
 -1      1109 9.64456E-01
 -1      1110 1.46094E+00
 -1      1111 1.83802E+00
 -1      1112 2.15178E+00
 -1      1113 2.52833E+00
 -1      1114 3.31007E+00
 -1      1115 5.89598E+00
 -1      1116 1.01072E+01
 -1      1117 1.20571E+01
 -1      1118 7.59233E+00
 -1      1119 2.42960E+00
 -1      1120 1.14911E+00
 -1      1121 5.32634E-01
 -1      1122 6.97674E-01
 -1      1123 1.10872E+00
 -1      1124 1.75986E+00
 -1      1125 2.69556E+00
 -1      1126 3.37980E+00
 -1      1127 3.57708E+00
 -1      1128 3.58678E+00
 -1      1129 3.42455E+00
 -1      1130 2.75437E+00
 -1      1131 1.86470E+00
 -1      1132 1.29504E+00
 -1      1133 1.10711E+00
 -1      1134 1.07467E+00
 -1      1135 1.04223E+00
 -1      1136 9.99413E-01
 -1      1137 8.79774E-01
 -1      1138 7.20917E-01
 -1      1139 5.72461E-01
 -1      1140 4.61368E-01
 -1      1141 3.85049E-01
 -1      1142 3.20876E-01
 -1      1143 2.58013E-01
 -1      1144 2.01110E-01
 -1      1145 1.52304E-01
 -1      1146 1.14268E-01
 -1      1147 9.05669E-02
 -1      1148 7.51539E-02
 -1      1149 6.08820E-02
 -1      1150 4.82663E-02
 -1      1151 3.74944E-02
 -1      1152 2.85480E-02
 -1      1153 2.20151E-02
 -1      1154 1.77781E-02
 -1      1155 1.44821E-02
 -1      1156 1.15567E-02
 -1      1157 9.03748E-03
 -1      1158 6.98057E-03
 -1      1159 5.34672E-03
 -1      1160 3.99371E-03
 -1      1161 3.04897E-03
 -1      1162 2.51358E-03
 -1      1163 2.07897E-03
 -1      1164 1.64180E-03
 -1      1165 1.23833E-03
 -1      1166 6.42245E-04
 -1      1167 1.22827E+01
 -1      1168 7.29977E+00
 -1      1169 1.69343E+00
 -1      1170 8.71972E-01
 -1      1171 8.24282E-01
 -1      1172 1.21799E+00
 -1      1173 1.51544E+00
 -1      1174 1.86941E+00
 -1      1175 2.65990E+00
 -1      1176 3.70443E+00
 -1      1177 4.53745E+00
 -1      1178 4.81656E+00
 -1      1179 4.68609E+00
 -1      1180 3.73611E+00
 -1      1181 2.33084E+00
 -1      1182 1.56393E+00
 -1      1183 1.50208E+00
 -1      1184 1.62139E+00
 -1      1185 1.61057E+00
 -1      1186 1.50633E+00
 -1      1187 1.29971E+00
 -1      1188 1.08090E+00
 -1      1189 8.71496E-01
 -1      1190 6.75176E-01
 -1      1191 5.05103E-01
 -1      1192 3.76853E-01
 -1      1193 2.87797E-01
 -1      1194 2.17945E-01
 -1      1195 1.61270E-01
 -1      1196 1.16513E-01
 -1      1197 8.19761E-02
 -1      1198 5.80938E-02
 -1      1199 4.49466E-02
 -1      1200 3.69108E-02
 -1      1201 2.97129E-02
 -1      1202 2.34790E-02
 -1      1203 1.90500E-02
 -1      1204 1.63153E-02
 -1      1205 1.39535E-02
 -1      1206 1.16460E-02
 -1      1207 9.51425E-03
 -1      1208 7.65856E-03
 -1      1209 6.11925E-03
 -1      1210 4.81317E-03
 -1      1211 3.66843E-03
 -1      1212 2.71347E-03
 -1      1213 2.06809E-03
 -1      1214 1.57415E-03
 -1      1215 1.03554E-03
 -1      1216 4.85286E-04
 -1      1217 2.77083E-04
 -1      1218 3.50346E-04
 -1      1219 3.08510E-04
 -1      1220 1.92801E-04
 -1      1221 1.39813E-04
 -1      1222 2.01486E-04
 -1      1223 2.65880E-04
 -1      1224 2.96068E-04
 -1      1225 3.02652E-04
 -1      1226 2.95693E-04
 -1      1227 2.63811E-04
 -1      1228 1.99079E-04
 -1      1229 1.40102E-04
 -1      1230 1.94431E-04
 -1      1231 3.66269E-04
 -1      1232 5.02972E-04
 -1      1233 3.89325E-04
 -1      1234 2.55766E+01
 -1      1235 3.70416E+01
 -1      1236 4.85066E+01
 -1      1237 3.54481E+01
 -1      1238 1.70901E+01
 -1      1239 1.19324E+01
 -1      1240 1.20743E+01
 -1      1241 1.26448E+01
 -1      1242 1.32153E+01
 -1      1243 1.36575E+01
 -1      1244 2.30845E+01
 -1      1245 3.22274E+01
 -1      1246 3.01015E+01
 -1      1247 2.69733E+01
 -1      1248 2.66277E+01
 -1      1249 2.71265E+01
 -1      1250 3.23757E+01
 -1      1251 3.76248E+01
 -1      1252 2.60191E+01
 -1      1253 1.32810E+01
 -1      1254 1.25460E+01
 -1      1255 1.29434E+01
 -1      1256 1.28037E+01
 -1      1257 1.26639E+01
 -1      1258 1.54586E+01
 -1      1259 3.21458E+01
 -1      1260 4.60384E+01
 -1      1261 3.54982E+01
 -1      1262 2.52674E+01
 -1      1263 1.20571E+01
 -1      1264 5.02788E+00
 -1      1265 9.09841E+00
 -1      1266 2.68763E+00
 -1      1267 3.39202E+00
 -1      1268 4.50383E+00
 -1      1269 2.09024E+00
 -1      1270 2.34027E+00
 -1      1271 2.52060E+00
 -1      1272 1.78861E+00
 -1      1273 1.90258E+00
 -1      1274 1.98559E+00
 -1      1275 1.59430E+00
 -1      1276 1.68680E+00
 -1      1277 1.69612E+00
 -1      1278 1.46602E+00
 -1      1279 1.56394E+00
 -1      1280 1.56394E+00
 -1      1281 1.17706E+00
 -1      1282 1.35352E+00
 -1      1283 1.42107E+00
 -1      1284 7.64376E-01
 -1      1285 9.49021E-01
 -1      1286 1.08052E+00
 -1      1287 1.12782E+00
 -1      1288 8.39628E-01
 -1      1289 9.27738E-01
 -1      1290 1.59587E+00
 -1      1291 1.38757E+00
 -1      1292 1.26274E+00
 -1      1293 1.93619E+00
 -1      1294 1.76741E+00
 -1      1295 1.69404E+00
 -1      1296 2.16701E+00
 -1      1297 2.02203E+00
 -1      1298 1.95142E+00
 -1      1299 2.56647E+00
 -1      1300 2.33490E+00
 -1      1301 2.20515E+00
 -1      1302 3.43308E+00
 -1      1303 2.88293E+00
 -1      1304 2.68949E+00
 -1      1305 5.97980E+00
 -1      1306 3.94404E+00
 -1      1307 3.51690E+00
 -1      1308 1.22827E+01
 -1      1309 1.01072E+01
 -1      1310 8.15528E+00
 -1      1311 1.22827E+01
 -1      1312 7.59233E+00
 -1      1313 3.12753E+00
 -1      1314 2.42960E+00
 -1      1315 1.73167E+00
 -1      1316 2.42960E+00
 -1      1317 1.26268E+00
 -1      1318 6.80119E-01
 -1      1319 1.26268E+00
 -1      1320 4.42728E-01
 -1      1321 4.08820E-01
 -1      1322 5.56305E-01
 -1      1323 4.99835E-01
 -1      1324 6.98784E-01
 -1      1325 4.09930E-01
 -1      1326 9.15684E-01
 -1      1327 1.12778E+00
 -1      1328 7.17846E-01
 -1      1329 1.40277E+00
 -1      1330 1.84180E+00
 -1      1331 1.20973E+00
 -1      1332 2.19889E+00
 -1      1333 2.69556E+00
 -1      1334 1.84180E+00
 -1      1335 3.19223E+00
 -1      1336 3.37980E+00
 -1      1337 2.69556E+00
 -1      1338 3.56738E+00
 -1      1339 3.57708E+00
 -1      1340 3.37980E+00
 -1      1341 3.58678E+00
 -1      1342 3.58678E+00
 -1      1343 3.57708E+00
 -1      1344 3.42455E+00
 -1      1345 3.26232E+00
 -1      1346 3.42455E+00
 -1      1347 2.75437E+00
 -1      1348 2.24643E+00
 -1      1349 2.75437E+00
 -1      1350 1.86470E+00
 -1      1351 1.48298E+00
 -1      1352 1.86470E+00
 -1      1353 1.27664E+00
 -1      1354 1.08871E+00
 -1      1355 1.27664E+00
 -1      1356 1.10711E+00
 -1      1357 1.10711E+00
 -1      1358 1.08871E+00
 -1      1359 1.05665E+00
 -1      1360 1.02422E+00
 -1      1361 1.05665E+00
 -1      1362 1.04223E+00
 -1      1363 1.04223E+00
 -1      1364 1.02422E+00
 -1      1365 9.99413E-01
 -1      1366 9.56592E-01
 -1      1367 9.99413E-01
 -1      1368 8.79774E-01
 -1      1369 8.02957E-01
 -1      1370 8.79774E-01
 -1      1371 7.35889E-01
 -1      1372 6.53850E-01
 -1      1373 7.35889E-01
 -1      1374 6.06400E-01
 -1      1375 5.39984E-01
 -1      1376 6.21373E-01
 -1      1377 4.91455E-01
 -1      1378 4.46779E-01
 -1      1379 5.25394E-01
 -1      1380 3.97372E-01
 -1      1381 3.65728E-01
 -1      1382 4.27458E-01
 -1      1383 3.20876E-01
 -1      1384 2.88348E-01
 -1      1385 3.33200E-01
 -1      1386 2.58013E-01
 -1      1387 2.27678E-01
 -1      1388 2.58013E-01
 -1      1389 2.02878E-01
 -1      1390 1.76309E-01
 -1      1391 2.02878E-01
 -1      1392 1.56095E-01
 -1      1393 1.33858E-01
 -1      1394 1.57863E-01
 -1      1395 1.16879E-01
 -1      1396 1.01080E-01
 -1      1397 1.20670E-01
 -1      1398 9.05669E-02
 -1      1399 8.26645E-02
 -1      1400 9.31779E-02
 -1      1401 7.51539E-02
 -1      1402 6.76434E-02
 -1      1403 7.51539E-02
 -1      1404 6.08820E-02
 -1      1405 5.41206E-02
 -1      1406 6.08820E-02
 -1      1407 4.82663E-02
 -1      1408 4.24120E-02
 -1      1409 4.82663E-02
 -1      1410 3.74944E-02
 -1      1411 3.25768E-02
 -1      1412 3.74944E-02
 -1      1413 2.88264E-02
 -1      1414 2.47976E-02
 -1      1415 2.88264E-02
 -1      1416 2.20151E-02
 -1      1417 1.95110E-02
 -1      1418 2.22935E-02
 -1      1419 1.77781E-02
 -1      1420 1.60453E-02
 -1      1421 1.77781E-02
 -1      1422 1.44821E-02
 -1      1423 1.29189E-02
 -1      1424 1.44821E-02
 -1      1425 1.15567E-02
 -1      1426 1.01945E-02
 -1      1427 1.15567E-02
 -1      1428 9.18905E-03
 -1      1429 8.03206E-03
 -1      1430 9.18905E-03
 -1      1431 7.15023E-03
 -1      1432 6.25031E-03
 -1      1433 7.30180E-03
 -1      1434 5.60188E-03
 -1      1435 4.86795E-03
 -1      1436 5.77154E-03
 -1      1437 4.29619E-03
 -1      1438 3.67711E-03
 -1      1439 4.55135E-03
 -1      1440 3.17705E-03
 -1      1441 2.85139E-03
 -1      1442 3.47953E-03
 -1      1443 2.51358E-03
 -1      1444 2.30384E-03
 -1      1445 2.64165E-03
 -1      1446 2.07897E-03
 -1      1447 1.85411E-03
 -1      1448 2.07897E-03
 -1      1449 1.64180E-03
 -1      1450 1.42949E-03
 -1      1451 1.64180E-03
 -1      1452 1.23833E-03
 -1      1453 1.04717E-03
 -1      1454 1.23833E-03
 -1      1455 7.94255E-04
 -1      1456 7.94255E-04
 -1      1457 2.31684E+00
 -1      1458 7.29977E+00
 -1      1459 7.29977E+00
 -1      1460 1.07819E+00
 -1      1461 1.70160E+00
 -1      1462 1.70160E+00
 -1      1463 6.51259E-01
 -1      1464 8.49304E-01
 -1      1465 8.57476E-01
 -1      1466 8.24282E-01
 -1      1467 6.73926E-01
 -1      1468 6.51259E-01
 -1      1469 1.21799E+00
 -1      1470 9.74638E-01
 -1      1471 8.24282E-01
 -1      1472 1.51544E+00
 -1      1473 1.46134E+00
 -1      1474 1.21799E+00
 -1      1475 1.86941E+00
 -1      1476 1.56953E+00
 -1      1477 1.51544E+00
 -1      1478 2.65990E+00
 -1      1479 2.16928E+00
 -1      1480 1.86941E+00
 -1      1481 3.70443E+00
 -1      1482 3.15052E+00
 -1      1483 2.65990E+00
 -1      1484 4.53745E+00
 -1      1485 4.25834E+00
 -1      1486 3.70443E+00
 -1      1487 4.81656E+00
 -1      1488 4.81656E+00
 -1      1489 4.53745E+00
 -1      1490 4.55563E+00
 -1      1491 4.68609E+00
 -1      1492 4.68609E+00
 -1      1493 2.91659E+00
 -1      1494 3.73611E+00
 -1      1495 3.73611E+00
 -1      1496 1.74509E+00
 -1      1497 2.33084E+00
 -1      1498 2.33084E+00
 -1      1499 1.32544E+00
 -1      1500 1.50660E+00
 -1      1501 1.50660E+00
 -1      1502 1.50208E+00
 -1      1503 1.38278E+00
 -1      1504 1.32544E+00
 -1      1505 1.62139E+00
 -1      1506 1.62139E+00
 -1      1507 1.50208E+00
 -1      1508 1.59976E+00
 -1      1509 1.61057E+00
 -1      1510 1.61057E+00
 -1      1511 1.41289E+00
 -1      1512 1.50633E+00
 -1      1513 1.50633E+00
 -1      1514 1.18653E+00
 -1      1515 1.29971E+00
 -1      1516 1.29971E+00
 -1      1517 9.78930E-01
 -1      1518 1.08456E+00
 -1      1519 1.08456E+00
 -1      1520 7.81943E-01
 -1      1521 8.85719E-01
 -1      1522 8.89377E-01
 -1      1523 6.01844E-01
 -1      1524 6.94388E-01
 -1      1525 7.08611E-01
 -1      1526 4.48131E-01
 -1      1527 5.25660E-01
 -1      1528 5.44872E-01
 -1      1529 3.34505E-01
 -1      1530 3.85226E-01
 -1      1531 4.05783E-01
 -1      1532 2.49462E-01
 -1      1533 2.87797E-01
 -1      1534 2.96170E-01
 -1      1535 1.86429E-01
 -1      1536 2.17945E-01
 -1      1537 2.17945E-01
 -1      1538 1.36239E-01
 -1      1539 1.61398E-01
 -1      1540 1.61398E-01
 -1      1541 9.82116E-02
 -1      1542 1.17810E-01
 -1      1543 1.17938E-01
 -1      1544 6.89617E-02
 -1      1545 8.38996E-02
 -1      1546 8.51972E-02
 -1      1547 4.91493E-02
 -1      1548 5.80938E-02
 -1      1549 6.00173E-02
 -1      1550 4.07438E-02
 -1      1551 4.49466E-02
 -1      1552 4.49466E-02
 -1      1553 3.30778E-02
 -1      1554 3.69108E-02
 -1      1555 3.69108E-02
 -1      1556 2.63479E-02
 -1      1557 2.97129E-02
 -1      1558 2.97129E-02
 -1      1559 2.06101E-02
 -1      1560 2.34790E-02
 -1      1561 2.34790E-02
 -1      1562 1.74899E-02
 -1      1563 1.90500E-02
 -1      1564 1.90500E-02
 -1      1565 1.51407E-02
 -1      1566 1.63153E-02
 -1      1567 1.63153E-02
 -1      1568 1.27664E-02
 -1      1569 1.39535E-02
 -1      1570 1.39535E-02
 -1      1571 1.05256E-02
 -1      1572 1.16460E-02
 -1      1573 1.16460E-02
 -1      1574 8.50285E-03
 -1      1575 9.51425E-03
 -1      1576 9.51425E-03
 -1      1577 6.81427E-03
 -1      1578 7.65856E-03
 -1      1579 7.65856E-03
 -1      1580 5.42423E-03
 -1      1581 6.11925E-03
 -1      1582 6.11925E-03
 -1      1583 4.20212E-03
 -1      1584 4.81317E-03
 -1      1585 4.81317E-03
 -1      1586 3.16278E-03
 -1      1587 3.69646E-03
 -1      1588 3.69646E-03
 -1      1589 2.30570E-03
 -1      1590 2.72698E-03
 -1      1591 2.75500E-03
 -1      1592 1.84398E-03
 -1      1593 2.06809E-03
 -1      1594 2.08159E-03
 -1      1595 1.30432E-03
 -1      1596 1.57415E-03
 -1      1597 1.57415E-03
 -1      1598 7.67028E-04
 -1      1599 1.03581E-03
 -1      1600 1.03581E-03
 -1      1601 5.58550E-04
 -1      1602 3.92887E-04
 -1      1603 3.92887E-04
 -1      1604 3.51050E-04
 -1      1605 3.92887E-04
 -1      1606 4.35428E-04
 -1      1607 2.55541E-04
 -1      1608 3.29413E-04
 -1      1609 4.13791E-04
 -1      1610 2.09827E-04
 -1      1611 1.88942E-04
 -1      1612 3.25555E-04
 -1      1613 3.32275E-04
 -1      1614 2.91486E-04
 -1      1615 3.40615E-04
 -1      1616 4.06261E-04
 -1      1617 3.82656E-04
 -1      1618 4.72657E-04
 -1      1619 4.32524E-04
 -1      1620 4.25940E-04
 -1      1621 5.42717E-04
 -1      1622 4.32524E-04
 -1      1623 4.32524E-04
 -1      1624 5.62396E-04
 -1      1625 4.25432E-04
 -1      1626 4.32391E-04
 -1      1627 5.62263E-04
 -1      1628 3.79226E-04
 -1      1629 4.04149E-04
 -1      1630 5.40847E-04
 -1      1631 2.90584E-04
 -1      1632 3.30393E-04
 -1      1633 4.70731E-04
 -1      1634 1.90649E-04
 -1      1635 2.09817E-04
 -1      1636 3.41131E-04
 -1      1637 3.29694E-04
 -1      1638 2.56197E-04
 -1      1639 3.25912E-04
 -1      1640 4.28035E-04
 -1      1641 3.29694E-04
 -1      1642 3.91460E-04
 -1      1643 5.50188E-04
 -1      1644 5.11825E-04
 -1      1645 4.75250E-04
 -1      1646 8.03107E-04
 -1      1647 2.81631E+01
 -1      1648 2.81631E+01
 -1      1649 3.91164E+01
 -1      1650 2.76514E+01
 -1      1651 4.85066E+01
 -1      1652 4.85066E+01
 -1      1653 2.34050E+01
 -1      1654 3.64635E+01
 -1      1655 1.17130E+01
 -1      1656 1.70126E+01
 -1      1657 1.19324E+01
 -1      1658 1.17905E+01
 -1      1659 1.20743E+01
 -1      1660 1.20743E+01
 -1      1661 1.26055E+01
 -1      1662 1.20350E+01
 -1      1663 1.32153E+01
 -1      1664 1.32153E+01
 -1      1665 1.29552E+01
 -1      1666 1.25130E+01
 -1      1667 2.30845E+01
 -1      1668 1.40996E+01
 -1      1669 3.23853E+01
 -1      1670 3.22274E+01
 -1      1671 3.01015E+01
 -1      1672 3.23853E+01
 -1      1673 2.81744E+01
 -1      1674 2.90189E+01
 -1      1675 3.00131E+01
 -1      1676 2.95142E+01
 -1      1677 3.00131E+01
 -1      1678 3.00131E+01
 -1      1679 3.62243E+01
 -1      1680 3.09752E+01
 -1      1681 3.76248E+01
 -1      1682 3.76248E+01
 -1      1683 1.44134E+01
 -1      1684 2.60191E+01
 -1      1685 1.17203E+01
 -1      1686 1.28527E+01
 -1      1687 1.25460E+01
 -1      1688 1.21485E+01
 -1      1689 1.29434E+01
 -1      1690 1.29434E+01
 -1      1691 1.25028E+01
 -1      1692 1.26426E+01
 -1      1693 1.26639E+01
 -1      1694 1.26639E+01
 -1      1695 1.46406E+01
 -1      1696 1.18459E+01
 -1      1697 3.28367E+01
 -1      1698 1.89442E+01
 -1      1699 4.60384E+01
 -1      1700 4.60384E+01
 -1      1701 2.61500E+01
 -1      1702 3.66901E+01
 -1      1703 2.81631E+01
 -1      1704 2.78539E+01
 -1      1705 1.80279E+01
 -1      1706 3.64635E+01
 -1      1707 5.58825E-04
 -1      1708 6.01365E-04
 -1      1709 3.02379E+01
 -1      1710 3.91164E+01
 -1      1711 3.07496E+01
 -1      1712 1.17130E+01
 -1      1713 1.19324E+01
 -1      1714 1.20350E+01
 -1      1715 1.26055E+01
 -1      1716 1.25130E+01
 -1      1717 1.29552E+01
 -1      1718 2.32425E+01
 -1      1719 3.23853E+01
 -1      1720 3.13027E+01
 -1      1721 3.15598E+01
 -1      1722 3.28996E+01
 -1      1723 3.38617E+01
 -1      1724 3.62243E+01
 -1      1725 2.60191E+01
 -1      1726 1.28527E+01
 -1      1727 1.17203E+01
 -1      1728 1.25460E+01
 -1      1729 1.26426E+01
 -1      1730 1.25028E+01
 -1      1731 1.18459E+01
 -1      1732 1.53315E+01
 -1      1733 3.28367E+01
 -1      1734 3.66901E+01
 -1      1735 2.90457E+01
 -1      1736 9.09841E+00
 -1      1737 2.07502E+00
 -1      1738 2.42237E+00
 -1      1739 2.84217E+00
 -1      1740 4.47804E+00
 -1      1741 2.39659E+00
 -1      1742 1.59718E+00
 -1      1743 1.69900E+00
 -1      1744 1.56682E+00
 -1      1745 1.59718E+00
 -1      1746 1.60006E+00
 -1      1747 1.44216E+00
 -1      1748 1.55466E+00
 -1      1749 1.58791E+00
 -1      1750 1.07016E+00
 -1      1751 1.29820E+00
 -1      1752 1.43179E+00
 -1      1753 9.83001E-01
 -1      1754 9.07749E-01
 -1      1755 1.12542E+00
 -1      1756 1.47785E+00
 -1      1757 1.21810E+00
 -1      1758 1.19811E+00
 -1      1759 1.86327E+00
 -1      1760 1.69172E+00
 -1      1761 1.64707E+00
 -1      1762 1.99945E+00
 -1      1763 1.91361E+00
 -1      1764 1.91129E+00
 -1      1765 2.20920E+00
 -1      1766 2.04131E+00
 -1      1767 2.00350E+00
 -1      1768 2.68001E+00
 -1      1769 2.36355E+00
 -1      1770 2.19972E+00
 -1      1771 3.11827E+00
 -1      1772 2.60731E+00
 -1      1773 2.28138E+00
 -1      1774 7.01646E+00
 -1      1775 2.88904E+00
 -1      1776 1.97945E+00
 -1      1777 2.03353E+00
 -1      1778 4.63361E+00
 -1      1779 1.23377E+00
 -1      1780 1.84901E+00
 -1      1781 1.56570E+00
 -1      1782 2.97196E+00
 -1      1783 1.45074E+00
 -1      1784 9.81749E-01
 -1      1785 7.63984E-01
 -1      1786 5.26593E-01
 -1      1787 9.52037E-01
 -1      1788 3.90268E-01
 -1      1789 4.81284E-01
 -1      1790 5.97947E-01
 -1      1791 5.58393E-01
 -1      1792 7.75293E-01
 -1      1793 5.38731E-01
 -1      1794 1.03273E+00
 -1      1795 1.30772E+00
 -1      1796 8.73279E-01
 -1      1797 1.54196E+00
 -1      1798 1.89904E+00
 -1      1799 1.36496E+00
 -1      1800 2.09951E+00
 -1      1801 2.59618E+00
 -1      1802 1.79966E+00
 -1      1803 2.73097E+00
 -1      1804 2.91855E+00
 -1      1805 2.13492E+00
 -1      1806 2.85187E+00
 -1      1807 2.86156E+00
 -1      1808 2.20303E+00
 -1      1809 2.92669E+00
 -1      1810 2.76446E+00
 -1      1811 2.20148E+00
 -1      1812 2.62731E+00
 -1      1813 2.11936E+00
 -1      1814 2.12945E+00
 -1      1815 1.88669E+00
 -1      1816 1.50497E+00
 -1      1817 1.75963E+00
 -1      1818 1.24746E+00
 -1      1819 1.04113E+00
 -1      1820 1.26946E+00
 -1      1821 8.15786E-01
 -1      1822 8.34188E-01
 -1      1823 7.86610E-01
 -1      1824 8.36021E-01
 -1      1825 7.85567E-01
 -1      1826 5.63101E-01
 -1      1827 8.56844E-01
 -1      1828 8.74860E-01
 -1      1829 6.36210E-01
 -1      1830 9.11843E-01
 -1      1831 8.69022E-01
 -1      1832 7.44469E-01
 -1      1833 8.53362E-01
 -1      1834 7.76545E-01
 -1      1835 7.65792E-01
 -1      1836 7.35423E-01
 -1      1837 6.68355E-01
 -1      1838 7.09011E-01
 -1      1839 6.31973E-01
 -1      1840 5.84524E-01
 -1      1841 6.31507E-01
 -1      1842 5.48206E-01
 -1      1843 4.99677E-01
 -1      1844 5.58806E-01
 -1      1845 4.56736E-01
 -1      1846 4.07330E-01
 -1      1847 4.79548E-01
 -1      1848 3.64171E-01
 -1      1849 3.19319E-01
 -1      1850 3.93449E-01
 -1      1851 2.79752E-01
 -1      1852 2.49418E-01
 -1      1853 3.10724E-01
 -1      1854 2.15315E-01
 -1      1855 1.90515E-01
 -1      1856 2.37055E-01
 -1      1857 1.62442E-01
 -1      1858 1.42228E-01
 -1      1859 1.74880E-01
 -1      1860 1.20670E-01
 -1      1861 1.03691E-01
 -1      1862 1.25249E-01
 -1      1863 8.98947E-02
 -1      1864 7.93813E-02
 -1      1865 8.98947E-02
 -1      1866 6.87055E-02
 -1      1867 6.11950E-02
 -1      1868 6.54224E-02
 -1      1869 5.43916E-02
 -1      1870 4.76302E-02
 -1      1871 4.79432E-02
 -1      1872 4.43193E-02
 -1      1873 3.84650E-02
 -1      1874 3.78289E-02
 -1      1875 3.53489E-02
 -1      1876 3.04313E-02
 -1      1877 3.14019E-02
 -1      1878 2.76331E-02
 -1      1879 2.38827E-02
 -1      1880 2.54876E-02
 -1      1881 2.14562E-02
 -1      1882 1.86737E-02
 -1      1883 2.02629E-02
 -1      1884 1.66399E-02
 -1      1885 1.49070E-02
 -1      1886 1.58026E-02
 -1      1887 1.37917E-02
 -1      1888 1.22285E-02
 -1      1889 1.26534E-02
 -1      1890 1.13027E-02
 -1      1891 9.94051E-03
 -1      1892 1.06123E-02
 -1      1893 9.06165E-03
 -1      1894 8.05623E-03
 -1      1895 8.80768E-03
 -1      1896 7.29037E-03
 -1      1897 6.40854E-03
 -1      1898 7.16297E-03
 -1      1899 5.78195E-03
 -1      1900 5.13352E-03
 -1      1901 5.77052E-03
 -1      1902 4.57224E-03
 -1      1903 4.00048E-03
 -1      1904 4.58265E-03
 -1      1905 3.56090E-03
 -1      1906 3.06084E-03
 -1      1907 3.58180E-03
 -1      1908 2.68367E-03
 -1      1909 2.34586E-03
 -1      1910 2.76505E-03
 -1      1911 2.02061E-03
 -1      1912 1.79574E-03
 -1      1913 2.06263E-03
 -1      1914 1.57550E-03
 -1      1915 1.36320E-03
 -1      1916 1.51714E-03
 -1      1917 1.17356E-03
 -1      1918 9.82403E-04
 -1      1919 7.38336E-04
 -1      1920 1.10727E-03
 -1      1921 8.98173E-01
 -1      1922 1.12706E+00
 -1      1923 1.27447E+00
 -1      1924 8.45162E-01
 -1      1925 8.22495E-01
 -1      1926 1.09208E+00
 -1      1927 8.76789E-01
 -1      1928 7.26433E-01
 -1      1929 8.97670E-01
 -1      1930 1.15346E+00
 -1      1931 9.10109E-01
 -1      1932 8.12261E-01
 -1      1933 1.49072E+00
 -1      1934 1.43663E+00
 -1      1935 1.12875E+00
 -1      1936 2.18575E+00
 -1      1937 1.88588E+00
 -1      1938 1.80707E+00
 -1      1939 2.77874E+00
 -1      1940 2.28813E+00
 -1      1941 2.30460E+00
 -1      1942 3.43492E+00
 -1      1943 2.88101E+00
 -1      1944 2.50924E+00
 -1      1945 3.75618E+00
 -1      1946 3.47707E+00
 -1      1947 2.65365E+00
 -1      1948 3.64514E+00
 -1      1949 3.77561E+00
 -1      1950 2.71522E+00
 -1      1951 2.48890E+00
 -1      1952 3.30842E+00
 -1      1953 2.39793E+00
 -1      1954 1.43249E+00
 -1      1955 2.01824E+00
 -1      1956 1.59056E+00
 -1      1957 1.07126E+00
 -1      1958 1.30975E+00
 -1      1959 9.97159E-01
 -1      1960 1.23730E+00
 -1      1961 1.17997E+00
 -1      1962 9.83121E-01
 -1      1963 1.40864E+00
 -1      1964 1.28934E+00
 -1      1965 1.14386E+00
 -1      1966 1.40609E+00
 -1      1967 1.41690E+00
 -1      1968 1.20416E+00
 -1      1969 1.27945E+00
 -1      1970 1.37289E+00
 -1      1971 1.17921E+00
 -1      1972 1.10636E+00
 -1      1973 1.21954E+00
 -1      1974 1.08610E+00
 -1      1975 9.39043E-01
 -1      1976 1.04101E+00
 -1      1977 9.60846E-01
 -1      1978 7.69261E-01
 -1      1979 8.62472E-01
 -1      1980 8.18926E-01
 -1      1981 6.06192E-01
 -1      1982 6.93747E-01
 -1      1983 6.66842E-01
 -1      1984 4.62186E-01
 -1      1985 5.38371E-01
 -1      1986 5.23507E-01
 -1      1987 3.41919E-01
 -1      1988 4.04824E-01
 -1      1989 3.98323E-01
 -1      1990 2.48726E-01
 -1      1991 2.95435E-01
 -1      1992 2.94476E-01
 -1      1993 1.84616E-01
 -1      1994 2.16132E-01
 -1      1995 2.15397E-01
 -1      1996 1.36366E-01
 -1      1997 1.61398E-01
 -1      1998 1.59584E-01
 -1      1999 9.95093E-02
 -1      2000 1.17938E-01
 -1      2001 1.17938E-01
 -1      2002 7.08852E-02
 -1      2003 8.51972E-02
 -1      2004 8.51972E-02
 -1      2005 4.91227E-02
 -1      2006 5.99907E-02
 -1      2007 5.99907E-02
 -1      2008 3.67886E-02
 -1      2009 4.09914E-02
 -1      2010 4.09648E-02
 -1      2011 2.97663E-02
 -1      2012 3.35993E-02
 -1      2013 2.96441E-02
 -1      2014 2.43788E-02
 -1      2015 2.77438E-02
 -1      2016 2.44322E-02
 -1      2017 1.95710E-02
 -1      2018 2.24398E-02
 -1      2019 2.04708E-02
 -1      2020 1.62438E-02
 -1      2021 1.78039E-02
 -1      2022 1.67648E-02
 -1      2023 1.35160E-02
 -1      2024 1.46906E-02
 -1      2025 1.34445E-02
 -1      2026 1.12272E-02
 -1      2027 1.24144E-02
 -1      2028 1.07897E-02
 -1      2029 9.40642E-03
 -1      2030 1.05268E-02
 -1      2031 8.98761E-03
 -1      2032 7.69585E-03
 -1      2033 8.70725E-03
 -1      2034 7.58803E-03
 -1      2035 6.19621E-03
 -1      2036 7.04050E-03
 -1      2037 6.23350E-03
 -1      2038 5.02537E-03
 -1      2039 5.72039E-03
 -1      2040 5.10233E-03
 -1      2041 3.96583E-03
 -1      2042 4.57688E-03
 -1      2043 4.17802E-03
 -1      2044 3.05138E-03
 -1      2045 3.55703E-03
 -1      2046 3.32074E-03
 -1      2047 2.25141E-03
 -1      2048 2.68721E-03
 -1      2049 2.54779E-03
 -1      2050 1.72826E-03
 -1      2051 1.96587E-03
 -1      2052 1.89808E-03
 -1      2053 1.26027E-03
 -1      2054 1.53010E-03
 -1      2055 1.41438E-03
 -1      2056 7.67303E-04
 -1      2057 1.03581E-03
 -1      2058 9.91759E-04
 -1      2059 6.01365E-04
 -1      2060 3.59152E-04
 -1      2061 4.25751E-04
 -1      2062 6.23470E-04
 -1      2063 6.45107E-04
 -1      2064 6.57067E-04
 -1      2065 6.45107E-04
 -1      2066 6.45107E-04
 -1      2067 8.11044E-04
 -1      2068 8.54786E-04
 -1      2069 4.94072E-04
 -1      2070 4.12412E-04
 -1      2071 5.12608E-04
 -1      2072 6.16855E-04
 -1      2073 5.66473E-04
 -1      2074 6.38270E-04
 -1      2075 6.68512E-04
 -1      2076 6.48833E-04
 -1      2077 7.42650E-04
 -1      2078 6.68512E-04
 -1      2079 6.68512E-04
 -1      2080 7.74628E-04
 -1      2081 6.67054E-04
 -1      2082 6.67187E-04
 -1      2083 7.73303E-04
 -1      2084 6.45770E-04
 -1      2085 6.67054E-04
 -1      2086 7.71978E-04
 -1      2087 5.65843E-04
 -1      2088 6.14676E-04
 -1      2089 7.40883E-04
 -1      2090 4.15402E-04
 -1      2091 4.96169E-04
 -1      2092 6.40114E-04
 -1      2093 4.22150E-04
 -1      2094 3.56602E-04
 -1      2095 5.11640E-04
 -1      2096 5.60339E-04
 -1      2097 5.60339E-04
 -1      2098 5.91029E-04
 -1      2099 3.91164E+01
 -1      2100 2.97261E+01
 -1      2101 3.23524E+01
 -1      2102 3.23524E+01
 -1      2103 3.18406E+01
 -1      2104 3.23524E+01
 -1      2105 3.18406E+01
 -1      2106 2.06727E+01
 -1      2107 3.27158E+01
 -1      2108 2.33256E+01
 -1      2109 1.11410E+01
 -1      2110 1.75334E+01
 -1      2111 2.05974E+00
 -1      2112 2.24740E+00
 -1      2113 2.14917E+00
 -1      2114 1.96081E+00
 -1      2115 1.11460E+01
 -1      2116 1.10041E+01
 -1      2117 1.13350E+01
 -1      2118 1.13743E+01
 -1      2119 1.23030E+01
 -1      2120 1.16932E+01
 -1      2121 1.02941E+01
 -1      2122 1.09964E+01
 -1      2123 1.09241E+01
 -1      2124 9.77964E+00
 -1      2125 8.26306E+00
 -1      2126 2.21837E+01
 -1      2127 1.30408E+01
 -1      2128 2.70085E+01
 -1      2129 2.70085E+01
 -1      2130 2.79603E+01
 -1      2131 2.90429E+01
 -1      2132 3.15598E+01
 -1      2133 3.02200E+01
 -1      2134 3.28996E+01
 -1      2135 3.28996E+01
 -1      2136 3.15598E+01
 -1      2137 3.02449E+01
 -1      2138 2.92828E+01
 -1      2139 3.05442E+01
 -1      2140 2.91437E+01
 -1      2141 1.39967E+01
 -1      2142 2.56024E+01
 -1      2143 9.37337E+00
 -1      2144 1.09341E+01
 -1      2145 1.03508E+01
 -1      2146 9.92258E+00
 -1      2147 1.14694E+01
 -1      2148 1.10720E+01
 -1      2149 9.27428E+00
 -1      2150 1.16313E+01
 -1      2151 1.19322E+01
 -1      2152 1.15886E+01
 -1      2153 1.14275E+01
 -1      2154 9.46591E+00
 -1      2155 1.02839E+01
 -1      2156 1.43527E+01
 -1      2157 1.00491E+01
 -1      2158 8.48710E+00
 -1      2159 3.09357E+01
 -1      2160 1.77340E+01
 -1      2161 2.73419E+01
 -1      2162 3.66901E+01
 -1      2163 2.15874E+01
 -1      2164 2.94842E+01
 -1      2165 2.77803E+01
 -1      2166 9.64489E+00
 -1      2167 9.56733E+00
 -1      2168 2.27403E+00
 -1      2169 1.00841E+01
 -1      2170 8.85844E+00
 -1      2171 1.99310E+00
 -1      2172 3.39551E+01
 -1      2173 6.44129E-04
 -1      2174 1.37858E+01
 -1      2175 3.10870E+01
 -1      2176 9.07285E+00
 -1      2177 2.54700E+01
 -1      2178 2.54700E+01
 -1      2179 2.59084E+01
 -1      2180 1.24516E+01
 -1      2181 9.20860E+00
 -1      2182 1.04582E+01
 -1      2183 8.00389E+00
 -1      2184 1.05174E+01
 -1      2185 1.85219E+01
 -1      2186 2.92828E+01
 -1      2187 2.92828E+01
 -1      2188 2.56660E+01
 -1      2189 2.79603E+01
 -1      2190 2.36660E+01
 -1      2191 1.03801E+01
 -1      2192 7.20456E+00
 -1      2193 9.32128E+00
 -1      2194 1.04460E+01
 -1      2195 1.10325E+01
 -1      2196 1.68068E+01
 -1      2197 2.45648E+01
 -1      2198 1.07171E+01
 -1      2199 1.71562E+00
 -1      2200 1.82233E+00
 -1      2201 1.67591E+00
 -1      2202 1.68806E+00
 -1      2203 1.68525E+00
 -1      2204 1.68525E+00
 -1      2205 1.77324E+00
 -1      2206 1.16115E+00
 -1      2207 1.32356E+00
 -1      2208 1.50051E+00
 -1      2209 1.26541E+00
 -1      2210 1.46355E+00
 -1      2211 1.94024E+00
 -1      2212 1.72636E+00
 -1      2213 1.79367E+00
 -1      2214 2.03380E+00
 -1      2215 1.98345E+00
 -1      2216 2.06274E+00
 -1      2217 2.07567E+00
 -1      2218 2.03380E+00
 -1      2219 2.10596E+00
 -1      2220 2.35407E+00
 -1      2221 2.19972E+00
 -1      2222 2.23002E+00
 -1      2223 1.26542E+00
 -1      2224 1.34110E+00
 -1      2225 1.88896E+00
 -1      2226 1.10028E+00
 -1      2227 8.82513E-01
 -1      2228 7.65260E+00
 -1      2229 8.95916E+00
 -1      2230 1.03264E+00
 -1      2231 8.96316E-01
 -1      2232 1.18088E+00
 -1      2233 7.08068E-01
 -1      2234 7.85177E-01
 -1      2235 1.14276E+00
 -1      2236 8.39569E-01
 -1      2237 1.09701E+00
 -1      2238 1.00891E+00
 -1      2239 1.23962E+00
 -1      2240 1.47386E+00
 -1      2241 1.20591E+00
 -1      2242 1.59586E+00
 -1      2243 1.79632E+00
 -1      2244 1.47052E+00
 -1      2245 1.90830E+00
 -1      2246 2.04309E+00
 -1      2247 1.70450E+00
 -1      2248 2.35045E+00
 -1      2249 2.28376E+00
 -1      2250 2.12382E+00
 -1      2251 2.16665E+00
 -1      2252 2.23178E+00
 -1      2253 2.31406E+00
 -1      2254 2.15424E+00
 -1      2255 2.01708E+00
 -1      2256 2.11940E+00
 -1      2257 1.76748E+00
 -1      2258 1.53482E+00
 -1      2259 1.79227E+00
 -1      2260 1.45157E+00
 -1      2261 1.19407E+00
 -1      2262 1.45943E+00
 -1      2263 1.03689E+00
 -1      2264 8.11548E-01
 -1      2265 1.21901E+00
 -1      2266 7.82921E-01
 -1      2267 7.84754E-01
 -1      2268 1.03320E+00
 -1      2269 6.88606E-01
 -1      2270 7.59882E-01
 -1      2271 9.08426E-01
 -1      2272 7.68605E-01
 -1      2273 8.05587E-01
 -1      2274 8.21000E-01
 -1      2275 7.80385E-01
 -1      2276 7.64726E-01
 -1      2277 8.04521E-01
 -1      2278 7.22481E-01
 -1      2279 6.81359E-01
 -1      2280 7.37074E-01
 -1      2281 6.48542E-01
 -1      2282 6.12159E-01
 -1      2283 6.62012E-01
 -1      2284 5.77272E-01
 -1      2285 5.40955E-01
 -1      2286 5.94307E-01
 -1      2287 4.99549E-01
 -1      2288 4.56609E-01
 -1      2289 5.18015E-01
 -1      2290 4.14043E-01
 -1      2291 3.70884E-01
 -1      2292 4.34044E-01
 -1      2293 3.30954E-01
 -1      2294 2.91388E-01
 -1      2295 3.51549E-01
 -1      2296 2.56127E-01
 -1      2297 2.22024E-01
 -1      2298 2.76357E-01
 -1      2299 1.92236E-01
 -1      2300 1.64164E-01
 -1      2301 2.11308E-01
 -1      2302 1.39865E-01
 -1      2303 1.18307E-01
 -1      2304 1.57221E-01
 -1      2305 9.90661E-02
 -1      2306 8.52695E-02
 -1      2307 1.13682E-01
 -1      2308 7.04367E-02
 -1      2309 5.97610E-02
 -1      2310 7.96081E-02
 -1      2311 4.86169E-02
 -1      2312 4.18135E-02
 -1      2313 5.36312E-02
 -1      2314 3.47328E-02
 -1      2315 3.14219E-02
 -1      2316 3.54064E-02
 -1      2317 2.70995E-02
 -1      2318 2.39833E-02
 -1      2319 2.40033E-02
 -1      2320 2.29163E-02
 -1      2321 2.01182E-02
 -1      2322 1.86139E-02
 -1      2323 1.89085E-02
 -1      2324 1.64819E-02
 -1      2325 1.63372E-02
 -1      2326 1.52598E-02
 -1      2327 1.32260E-02
 -1      2328 1.39054E-02
 -1      2329 1.20717E-02
 -1      2330 1.09564E-02
 -1      2331 1.15290E-02
 -1      2332 9.91411E-03
 -1      2333 8.98831E-03
 -1      2334 9.33241E-03
 -1      2335 8.41070E-03
 -1      2336 7.53184E-03
 -1      2337 7.71248E-03
 -1      2338 6.98352E-03
 -1      2339 6.21767E-03
 -1      2340 6.58654E-03
 -1      2341 5.67537E-03
 -1      2342 5.04878E-03
 -1      2343 5.49592E-03
 -1      2344 4.56983E-03
 -1      2345 4.00856E-03
 -1      2346 4.47468E-03
 -1      2347 3.59202E-03
 -1      2348 3.15244E-03
 -1      2349 3.57920E-03
 -1      2350 2.77578E-03
 -1      2351 2.39860E-03
 -1      2352 2.78599E-03
 -1      2353 2.09422E-03
 -1      2354 1.76897E-03
 -1      2355 2.10495E-03
 -1      2356 1.52872E-03
 -1      2357 1.30848E-03
 -1      2358 1.56031E-03
 -1      2359 2.38574E+01
 -1      2360 2.59719E+01
 -1      2361 1.17119E+00
 -1      2362 1.13787E+00
 -1      2363 1.58815E+00
 -1      2364 1.30498E+00
 -1      2365 1.63060E+00
 -1      2366 2.05892E+00
 -1      2367 1.66377E+00
 -1      2368 1.84000E+00
 -1      2369 2.40697E+00
 -1      2370 2.30460E+00
 -1      2371 2.16129E+00
 -1      2372 2.88571E+00
 -1      2373 2.78344E+00
 -1      2374 2.78344E+00
 -1      2375 3.74230E+00
 -1      2376 3.70016E+00
 -1      2377 3.97436E+00
 -1      2378 3.55705E+00
 -1      2379 3.53762E+00
 -1      2380 4.58413E+00
 -1      2381 2.39334E+00
 -1      2382 2.73006E+00
 -1      2383 3.55246E+00
 -1      2384 1.48054E+00
 -1      2385 1.95120E+00
 -1      2386 2.28332E+00
 -1      2387 1.32381E+00
 -1      2388 1.44655E+00
 -1      2389 1.80719E+00
 -1      2390 1.27081E+00
 -1      2391 1.16211E+00
 -1      2392 1.61150E+00
 -1      2393 1.32028E+00
 -1      2394 1.26824E+00
 -1      2395 1.44723E+00
 -1      2396 1.26936E+00
 -1      2397 1.26111E+00
 -1      2398 1.38549E+00
 -1      2399 1.15527E+00
 -1      2400 1.18847E+00
 -1      2401 1.24542E+00
 -1      2402 1.04816E+00
 -1      2403 1.10807E+00
 -1      2404 1.11733E+00
 -1      2405 9.19917E-01
 -1      2406 9.85265E-01
 -1      2407 1.00723E+00
 -1      2408 7.68461E-01
 -1      2409 8.45032E-01
 -1      2410 8.69451E-01
 -1      2411 6.17798E-01
 -1      2412 6.93311E-01
 -1      2413 7.19417E-01
 -1      2414 4.81260E-01
 -1      2415 5.49081E-01
 -1      2416 5.75551E-01
 -1      2417 3.64678E-01
 -1      2418 4.22041E-01
 -1      2419 4.47615E-01
 -1      2420 2.69242E-01
 -1      2421 3.15727E-01
 -1      2422 3.39445E-01
 -1      2423 1.97449E-01
 -1      2424 2.30043E-01
 -1      2425 2.51295E-01
 -1      2426 1.43646E-01
 -1      2427 1.66864E-01
 -1      2428 1.81511E-01
 -1      2429 1.01894E-01
 -1      2430 1.20323E-01
 -1      2431 1.27603E-01
 -1      2432 7.01784E-02
 -1      2433 8.44905E-02
 -1      2434 8.68755E-02
 -1      2435 4.79047E-02
 -1      2436 5.87992E-02
 -1      2437 5.80924E-02
 -1      2438 3.28543E-02
 -1      2439 4.09856E-02
 -1      2440 3.97941E-02
 -1      2441 2.64547E-02
 -1      2442 2.96441E-02
 -1      2443 2.96649E-02
 -1      2444 2.24098E-02
 -1      2445 2.44322E-02
 -1      2446 2.44322E-02
 -1      2447 1.85318E-02
 -1      2448 2.04708E-02
 -1      2449 2.04708E-02
 -1      2450 1.49977E-02
 -1      2451 1.67648E-02
 -1      2452 1.67648E-02
 -1      2453 1.18914E-02
 -1      2454 1.34445E-02
 -1      2455 1.34445E-02
 -1      2456 9.68801E-03
 -1      2457 1.07897E-02
 -1      2458 1.07897E-02
 -1      2459 8.28720E-03
 -1      2460 8.98761E-03
 -1      2461 8.98761E-03
 -1      2462 6.88886E-03
 -1      2463 7.58803E-03
 -1      2464 7.58803E-03
 -1      2465 5.57541E-03
 -1      2466 6.23076E-03
 -1      2467 6.23076E-03
 -1      2468 4.56417E-03
 -1      2469 5.03999E-03
 -1      2470 5.03725E-03
 -1      2471 3.63411E-03
 -1      2472 4.08259E-03
 -1      2473 4.02026E-03
 -1      2474 2.80642E-03
 -1      2475 3.21521E-03
 -1      2476 3.11978E-03
 -1      2477 2.12092E-03
 -1      2478 2.48509E-03
 -1      2479 2.37955E-03
 -1      2480 1.55143E-03
 -1      2481 1.83697E-03
 -1      2482 1.77427E-03
 -1      2483 1.13532E-03
 -1      2484 1.33348E-03
 -1      2485 1.27237E-03
 -1      2486 1.03550E-03
 -1      2487 8.03174E-04
 -1      2488 7.30773E-04
 -1      2489 8.81313E-04
 -1      2490 8.49334E-04
 -1      2491 9.41838E-04
 -1      2492 6.93304E-04
 -1      2493 8.91022E-04
 -1      2494 6.38915E-04
 -1      2495 5.85655E-04
 -1      2496 8.19610E-04
 -1      2497 8.03819E-04
 -1      2498 8.81313E-04
 -1      2499 8.81313E-04
 -1      2500 9.87998E-04
 -1      2501 8.77383E-04
 -1      2502 8.78708E-04
 -1      2503 9.85393E-04
 -1      2504 8.79441E-04
 -1      2505 8.79441E-04
 -1      2506 9.84846E-04
 -1      2507 8.48347E-04
 -1      2508 8.79441E-04
 -1      2509 9.86905E-04
 -1      2510 7.32779E-04
 -1      2511 8.02453E-04
 -1      2512 9.41011E-04
 -1      2513 7.14032E-04
 -1      2514 7.72832E-04
 -1      2515 9.35171E-04
 -1      2516 7.72484E-04
 -1      2517 6.34295E-04
 -1      2518 8.95487E-04
 -1      2519 1.45545E+01
 -1      2520 2.09550E+01
 -1      2521 9.86170E+00
 -1      2522 1.30010E+01
 -1      2523 1.13306E+00
 -1      2524 1.25179E+00
 -1      2525 1.49199E+00
 -1      2526 8.23425E-04
 -1      2527 3.10870E+01
 -1      2528 2.82188E+01
 -1      2529 2.56897E+00
 -1      2530 1.74568E+00
 -1      2531 1.67616E+00
 -1      2532 2.14917E+00
 -1      2533 6.73895E+00
 -1      2534 8.04360E+00
 -1      2535 6.76065E+00
 -1      2536 6.21144E+00
 -1      2537 2.79603E+01
 -1      2538 2.57005E+01
 -1      2539 8.97777E+00
 -1      2540 8.74941E+00
 -1      2541 1.53194E+00
 -1      2542 1.67591E+00
 -1      2543 1.77605E+00
 -1      2544 1.56767E+00
 -1      2545 9.86498E+00
 -1      2546 9.50682E+00
 -1      2547 7.81023E+00
 -1      2548 1.56737E+01
 -1      2549 1.08490E+01
 -1      2550 7.58970E+00
 -1      2551 6.23050E+00
 -1      2552 6.04774E+00
 -1      2553 6.56223E+00
 -1      2554 5.43728E+00
 -1      2555 2.04378E+01
 -1      2556 2.15390E+01
 -1      2557 2.08484E+01
 -1      2558 1.88139E+01
 -1      2559 1.28561E+01
 -1      2560 2.67673E+01
 -1      2561 2.54276E+01
 -1      2562 8.71995E+00
 -1      2563 8.92381E+00
 -1      2564 1.20999E+01
 -1      2565 1.70417E+01
 -1      2566 6.97469E+00
 -1      2567 1.00374E+01
 -1      2568 8.55727E+00
 -1      2569 7.71604E+00
 -1      2570 6.99486E+00
 -1      2571 9.05961E+00
 -1      2572 8.59685E+00
 -1      2573 7.05142E+00
 -1      2574 6.46827E+00
 -1      2575 1.22698E+01
 -1      2576 8.88843E+00
 -1      2577 2.07337E+01
 -1      2578 1.49793E+01
 -1      2579 6.83277E+00
 -1      2580 8.40639E+00
 -1      2581 5.56403E+00
 -1      2582 1.86762E+00
 -1      2583 2.05214E+00
 -1      2584 2.28138E+00
 -1      2585 2.30878E+00
 -1      2586 3.39551E+01
 -1      2587 3.39551E+01
 -1      2588 2.04599E+00
 -1      2589 1.96081E+00
 -1      2590 2.32156E+00
 -1      2591 1.50081E+00
 -1      2592 2.35407E+00
 -1      2593 2.59719E+01
 -1      2594 1.88618E+01
 -1      2595 1.14161E+01
 -1      2596 5.30327E+00
 -1      2597 7.43347E+00
 -1      2598 6.86960E+00
 -1      2599 7.06245E+00
 -1      2600 2.59084E+01
 -1      2601 1.50862E+01
 -1      2602 8.63044E-04
 -1      2603 7.68836E-04
 -1      2604 8.12103E-04
 -1      2605 1.05268E-03
 -1      2606 9.54606E-04
 -1      2607 7.62161E+00
 -1      2608 9.54606E-04
 -1      2609 5.73145E+00
 -1      2610 1.06304E+01
 -1      2611 5.20240E+00
 -1      2612 6.25031E+00
 -1      2613 2.35407E+00
 -1      2614 2.32156E+00
 -1      2615 2.08484E+01
 -1      2616 3.10870E+01
 -1      2617 5.66507E+00
 -1      2618 3.96424E+00
 -1      2619 5.12105E+00
 -1      2620 8.27360E+00
 -1      2621 9.40665E+00
 -1      2622 6.74591E+00
 -1      2623 2.31678E+01
 -1      2624 2.15390E+01
 -1      2625 6.12148E+00
 -1      2626 1.40159E+01
 -1      2627 2.50513E+01
 -1      2628 1.89191E+01
 -1      2629 2.14346E+01
 -1      2630 6.31743E+00
 -1      2631 9.90842E-04
 -1      2632 1.06426E-03
 -1      2633 6.89414E+00
 -1      2634 6.36510E+00
 -1      2635 2.20075E+00
 -1      2636 1.97489E+00
 -1      2637 1.92474E+00
 -1      2638 1.82048E+00
 -1      2639 2.33182E+00
 -1      2640 2.31924E+00
 -1      2641 2.31924E+00
 -1      2642 2.29864E+00
 -1      2643 2.17459E+00
 -1      2644 2.38787E+00
 -1      2645 1.88896E+00
 -1      2646 2.26348E+00
 -1      2647 2.32156E+00
 -1      2648 1.50081E+00
 -1      2649 1.51445E+00
 -1      2650 1.88896E+00
 -1      2651 1.59602E+00
 -1      2652 1.40778E+00
 -1      2653 1.23437E+00
 -1      2654 1.28876E+00
 -1      2655 1.68763E+00
 -1      2656 1.43816E+00
 -1      2657 1.58077E+00
 -1      2658 1.66362E+00
 -1      2659 1.44124E+00
 -1      2660 1.56323E+00
 -1      2661 1.67348E+00
 -1      2662 2.30158E+00
 -1      2663 2.41356E+00
 -1      2664 2.27230E+00
 -1      2665 3.37591E+00
 -1      2666 3.68326E+00
 -1      2667 3.97300E+00
 -1      2668 3.77598E+00
 -1      2669 3.65886E+00
 -1      2670 5.02807E+00
 -1      2671 2.56105E+00
 -1      2672 2.48352E+00
 -1      2673 4.02297E+00
 -1      2674 2.98015E+00
 -1      2675 2.73055E+00
 -1      2676 3.42180E+00
 -1      2677 2.45508E+00
 -1      2678 2.37184E+00
 -1      2679 3.64296E+00
 -1      2680 1.69727E+00
 -1      2681 1.54009E+00
 -1      2682 2.69292E+00
 -1      2683 1.32134E+00
 -1      2684 1.29271E+00
 -1      2685 1.79959E+00
 -1      2686 1.12421E+00
 -1      2687 1.02806E+00
 -1      2688 1.41234E+00
 -1      2689 9.74336E-01
 -1      2690 9.83058E-01
 -1      2691 1.19012E+00
 -1      2692 9.04890E-01
 -1      2693 8.79688E-01
 -1      2694 1.05823E+00
 -1      2695 7.96168E-01
 -1      2696 7.53923E-01
 -1      2697 8.96537E-01
 -1      2698 7.01833E-01
 -1      2699 6.69015E-01
 -1      2700 7.60926E-01
 -1      2701 6.20711E-01
 -1      2702 5.85824E-01
 -1      2703 6.60532E-01
 -1      2704 5.36069E-01
 -1      2705 4.94664E-01
 -1      2706 5.62473E-01
 -1      2707 4.47561E-01
 -1      2708 4.04995E-01
 -1      2709 4.65615E-01
 -1      2710 3.62725E-01
 -1      2711 3.22794E-01
 -1      2712 3.76241E-01
 -1      2713 2.86285E-01
 -1      2714 2.51024E-01
 -1      2715 2.97461E-01
 -1      2716 2.20422E-01
 -1      2717 1.90634E-01
 -1      2718 2.30350E-01
 -1      2719 1.65621E-01
 -1      2720 1.41322E-01
 -1      2721 1.74735E-01
 -1      2722 1.21330E-01
 -1      2723 1.02090E-01
 -1      2724 1.29730E-01
 -1      2725 8.64418E-02
 -1      2726 7.16090E-02
 -1      2727 9.40905E-02
 -1      2728 5.96081E-02
 -1      2729 4.84640E-02
 -1      2730 6.64418E-02
 -1      2731 3.94491E-02
 -1      2732 3.23684E-02
 -1      2733 4.54259E-02
 -1      2734 2.57441E-02
 -1      2735 2.14216E-02
 -1      2736 2.97867E-02
 -1      2737 1.66722E-02
 -1      2738 1.56053E-02
 -1      2739 1.84130E-02
 -1      2740 1.37258E-02
 -1      2741 1.25161E-02
 -1      2742 1.17841E-02
 -1      2743 1.23545E-02
 -1      2744 1.11324E-02
 -1      2745 9.74308E-03
 -1      2746 1.07219E-02
 -1      2747 9.56758E-03
 -1      2748 9.17095E-03
 -1      2749 9.02942E-03
 -1      2750 7.98710E-03
 -1      2751 8.22226E-03
 -1      2752 7.40316E-03
 -1      2753 6.82554E-03
 -1      2754 7.10016E-03
 -1      2755 6.26172E-03
 -1      2756 5.71339E-03
 -1      2757 5.95239E-03
 -1      2758 5.33965E-03
 -1      2759 4.79735E-03
 -1      2760 5.01482E-03
 -1      2761 4.40418E-03
 -1      2762 3.92524E-03
 -1      2763 4.24791E-03
 -1      2764 3.54276E-03
 -1      2765 3.12621E-03
 -1      2766 3.47226E-03
 -1      2767 2.77225E-03
 -1      2768 2.39559E-03
 -1      2769 2.73581E-03
 -1      2770 2.10495E-03
 -1      2771 1.80056E-03
 -1      2772 2.09120E-03
 -1      2773 1.56031E-03
 -1      2774 1.32006E-03
 -1      2775 1.56031E-03
 -1      2776 4.19323E+00
 -1      2777 4.95648E+00
 -1      2778 2.09948E+00
 -1      2779 1.96569E+00
 -1      2780 3.75341E+00
 -1      2781 3.37694E+00
 -1      2782 4.91423E+00
 -1      2783 5.11891E+00
 -1      2784 2.28332E+00
 -1      2785 2.72547E+00
 -1      2786 2.33386E+00
 -1      2787 2.36785E+00
 -1      2788 2.81000E+00
 -1      2789 1.94391E+00
 -1      2790 2.10560E+00
 -1      2791 2.66627E+00
 -1      2792 1.75600E+00
 -1      2793 1.75857E+00
 -1      2794 2.25267E+00
 -1      2795 1.51391E+00
 -1      2796 1.57309E+00
 -1      2797 1.88443E+00
 -1      2798 1.26797E+00
 -1      2799 1.34886E+00
 -1      2800 1.53647E+00
 -1      2801 1.14141E+00
 -1      2802 1.18860E+00
 -1      2803 1.29205E+00
 -1      2804 9.87664E-01
 -1      2805 1.05056E+00
 -1      2806 1.12184E+00
 -1      2807 8.23161E-01
 -1      2808 8.98046E-01
 -1      2809 9.41374E-01
 -1      2810 6.66019E-01
 -1      2811 7.41169E-01
 -1      2812 7.69764E-01
 -1      2813 5.25651E-01
 -1      2814 5.94367E-01
 -1      2815 6.16119E-01
 -1      2816 4.05801E-01
 -1      2817 4.65020E-01
 -1      2818 4.83837E-01
 -1      2819 3.06827E-01
 -1      2820 3.55778E-01
 -1      2821 3.73184E-01
 -1      2822 2.27228E-01
 -1      2823 2.66428E-01
 -1      2824 2.82761E-01
 -1      2825 1.64629E-01
 -1      2826 1.95214E-01
 -1      2827 2.10347E-01
 -1      2828 1.16382E-01
 -1      2829 1.39705E-01
 -1      2830 1.53408E-01
 -1      2831 7.99061E-02
 -1      2832 9.73100E-02
 -1      2833 1.09412E-01
 -1      2834 5.41877E-02
 -1      2835 6.55669E-02
 -1      2836 7.60014E-02
 -1      2837 3.66865E-02
 -1      2838 4.36055E-02
 -1      2839 5.10800E-02
 -1      2840 2.58258E-02
 -1      2841 2.90360E-02
 -1      2842 3.28473E-02
 -1      2843 1.94145E-02
 -1      2844 2.14369E-02
 -1      2845 2.08080E-02
 -1      2846 1.60321E-02
 -1      2847 1.79710E-02
 -1      2848 1.49757E-02
 -1      2849 1.36040E-02
 -1      2850 1.53711E-02
 -1      2851 1.28713E-02
 -1      2852 1.12538E-02
 -1      2853 1.28070E-02
 -1      2854 1.14133E-02
 -1      2855 9.32189E-03
 -1      2856 1.04236E-02
 -1      2857 9.78604E-03
 -1      2858 7.82151E-03
 -1      2859 8.52192E-03
 -1      2860 8.15579E-03
 -1      2861 6.50675E-03
 -1      2862 7.20592E-03
 -1      2863 6.74023E-03
 -1      2864 5.38184E-03
 -1      2865 6.03994E-03
 -1      2866 5.65783E-03
 -1      2867 4.39658E-03
 -1      2868 4.93199E-03
 -1      2869 4.74117E-03
 -1      2870 3.48636E-03
 -1      2871 3.96794E-03
 -1      2872 3.86268E-03
 -1      2873 2.70957E-03
 -1      2874 3.12847E-03
 -1      2875 3.07616E-03
 -1      2876 2.06314E-03
 -1      2877 2.38446E-03
 -1      2878 2.39316E-03
 -1      2879 1.50340E-03
 -1      2880 1.78735E-03
 -1      2881 1.79226E-03
 -1      2882 1.14960E-03
 -1      2883 1.36755E-03
 -1      2884 1.38063E-03
 -1      2885 1.08602E-03
 -1      2886 6.40103E+00
 -1      2887 7.85634E+00
 -1      2888 1.09887E-03
 -1      2889 1.10147E-03
 -1      2890 1.44897E-03
 -1      2891 1.19316E-03
 -1      2892 1.44897E-03
 -1      2893 1.09855E-03
 -1      2894 1.05239E-03
 -1      2895 1.09755E-03
 -1      2896 1.09549E-03
 -1      2897 1.21157E-03
 -1      2898 1.10147E-03
 -1      2899 1.10147E-03
 -1      2900 1.21203E-03
 -1      2901 1.21495E-03
 -1      2902 1.09755E-03
 -1      2903 1.09755E-03
 -1      2904 1.20820E-03
 -1      2905 1.04411E-03
 -1      2906 1.09001E-03
 -1      2907 1.20065E-03
 -1      2908 1.27655E-03
 -1      2909 1.23649E-03
 -1      2910 1.38549E-03
 -1      2911 1.19681E-03
 -1      2912 5.18598E+00
 -1      2913 4.95177E+00
 -1      2914 2.21202E+00
 -1      2915 1.56662E+00
 -1      2916 1.71674E+00
 -1      2917 2.21202E+00
 -1      2918 1.13781E+01
 -1      2919 1.42805E+01
 -1      2920 3.94859E+00
 -1      2921 4.55086E+00
 -1      2922 4.94708E+00
 -1      2923 5.62343E+00
 -1      2924 8.29683E+00
 -1      2925 9.85032E+00
 -1      2926 2.34541E+01
 -1      2927 2.05860E+01
 -1      2928 1.72385E+00
 -1      2929 1.71904E+00
 -1      2930 1.73267E+00
 -1      2931 2.19273E+00
 -1      2932 2.99427E+00
 -1      2933 2.74859E+00
 -1      2934 3.96424E+00
 -1      2935 2.74100E+00
 -1      2936 2.66538E+00
 -1      2937 3.00047E+00
 -1      2938 1.79648E+01
 -1      2939 2.04975E+01
 -1      2940 1.08472E+01
 -1      2941 1.42433E+01
 -1      2942 2.30878E+00
 -1      2943 1.89077E+01
 -1      2944 1.40556E+01
 -1      2945 5.83032E+00
 -1      2946 4.67061E+00
 -1      2947 2.31924E+00
 -1      2948 2.27603E+00
 -1      2949 2.45725E+00
 -1      2950 2.53253E+00
 -1      2951 1.61039E+01
 -1      2952 2.02309E+01
 -1      2953 1.58962E+01
 -1      2954 2.38795E+01
 -1      2955 4.34691E+00
 -1      2956 5.43728E+00
 -1      2957 1.97918E+00
 -1      2958 1.97637E+00
 -1      2959 1.20677E+01
 -1      2960 8.92747E+00
 -1      2961 1.01270E+01
 -1      2962 2.24915E+01
 -1      2963 2.01811E+01
 -1      2964 7.07033E+00
 -1      2965 5.23332E+00
 -1      2966 6.15951E+00
 -1      2967 5.27870E+00
 -1      2968 6.84247E+00
 -1      2969 8.90503E+00
 -1      2970 5.30424E+00
 -1      2971 1.72458E+01
 -1      2972 1.25096E+01
 -1      2973 1.38288E+01
 -1      2974 5.79515E+00
 -1      2975 6.70096E+00
 -1      2976 5.25583E+00
 -1      2977 4.70478E+00
 -1      2978 6.29897E+00
 -1      2979 6.43476E+00
 -1      2980 4.47551E+00
 -1      2981 4.74619E+00
 -1      2982 1.11927E+01
 -1      2983 8.48320E+00
 -1      2984 1.59994E+01
 -1      2985 2.26022E+00
 -1      2986 1.79904E+00
 -1      2987 2.00742E+00
 -1      2988 9.57667E+00
 -1      2989 1.21881E+01
 -1      2990 1.98176E+00
 -1      2991 4.91423E+00
 -1      2992 5.39603E+00
 -1      2993 6.84691E+00
 -1      2994 1.12981E-03
 -1      2995 9.73094E-04
 -1      2996 8.81235E-04
 -1      2997 4.17681E+00
 -1      2998 4.99575E+00
 -1      2999 3.57397E+00
 -1      3000 4.92573E+00
 -1      3001 4.11128E+00
 -1      3002 3.55246E+00
 -1      3003 3.55246E+00
 -1      3004 4.37945E+00
 -1      3005 4.78559E+00
 -1      3006 3.96424E+00
 -1      3007 8.25223E-04
 -1      3008 9.32872E-04
 -1      3009 1.09163E-03
 -1      3010 9.94497E-04
 -1      3011 4.11932E+00
 -1      3012 1.27655E-03
 -1      3013 1.57787E-03
 -1      3014 5.02807E+00
 -1      3015 2.22540E+01
 -1      3016 1.17530E+01
 -1      3017 1.21784E+01
 -1      3018 7.07625E+00
 -1      3019 5.49805E+00
 -1      3020 3.95857E+00
 -1      3021 5.58342E+00
 -1      3022 9.04453E+00
 -1      3023 7.68790E+00
 -1      3024 6.24557E+00
 -1      3025 6.89943E+00
 -1      3026 1.48586E+01
 -1      3027 9.13244E+00
 -1      3028 1.20862E+01
 -1      3029 1.72893E+01
 -1      3030 1.04965E+01
 -1      3031 1.63539E+01
 -1      3032 1.36835E+01
 -1      3033 1.46379E+01
 -1      3034 1.29352E+01
 -1      3035 2.00742E+00
 -1      3036 2.00742E+00
 -1      3037 2.21055E+00
 -1      3038 2.23878E+00
 -1      3039 2.30878E+00
 -1      3040 2.13050E+00
 -1      3041 1.92456E+00
 -1      3042 2.20012E+00
 -1      3043 2.25334E+00
 -1      3044 4.67624E+00
 -1      3045 2.70799E+00
 -1      3046 2.85265E+00
 -1      3047 9.48520E+00
 -1      3048 1.11010E+01
 -1      3049 4.05036E+00
 -1      3050 5.93634E+00
 -1      3051 2.00370E+00
 -1      3052 2.15310E+00
 -1      3053 2.18136E+00
 -1      3054 2.04182E+00
 -1      3055 2.52144E+00
 -1      3056 3.97300E+00
 -1      3057 4.93535E+00
 -1      3058 5.02807E+00
 -1      3059 5.12078E+00
 -1      3060 4.65511E+00
 -1      3061 3.55730E+00
 -1      3062 3.42180E+00
 -1      3063 3.91843E+00
 -1      3064 3.91843E+00
 -1      3065 3.64296E+00
 -1      3066 2.37143E+00
 -1      3067 2.15268E+00
 -1      3068 1.82727E+00
 -1      3069 1.65877E+00
 -1      3070 2.39911E+00
 -1      3071 1.42328E+00
 -1      3072 1.36956E+00
 -1      3073 1.83821E+00
 -1      3074 1.22456E+00
 -1      3075 1.14639E+00
 -1      3076 1.45773E+00
 -1      3077 1.01393E+00
 -1      3078 9.30404E-01
 -1      3079 1.18026E+00
 -1      3080 8.37573E-01
 -1      3081 7.85483E-01
 -1      3082 9.54961E-01
 -1      3083 7.02879E-01
 -1      3084 6.54575E-01
 -1      3085 7.79526E-01
 -1      3086 5.87249E-01
 -1      3087 5.37494E-01
 -1      3088 6.29596E-01
 -1      3089 4.78652E-01
 -1      3090 4.31548E-01
 -1      3091 5.03428E-01
 -1      3092 3.82976E-01
 -1      3093 3.40705E-01
 -1      3094 3.96013E-01
 -1      3095 3.05072E-01
 -1      3096 2.68562E-01
 -1      3097 3.11807E-01
 -1      3098 2.37184E-01
 -1      3099 2.06582E-01
 -1      3100 2.44794E-01
 -1      3101 1.80136E-01
 -1      3102 1.55123E-01
 -1      3103 1.86970E-01
 -1      3104 1.33581E-01
 -1      3105 1.13590E-01
 -1      3106 1.38983E-01
 -1      3107 9.68596E-02
 -1      3108 8.12118E-02
 -1      3109 1.00711E-01
 -1      3110 6.87145E-02
 -1      3111 5.67136E-02
 -1      3112 7.14836E-02
 -1      3113 4.73843E-02
 -1      3114 3.83693E-02
 -1      3115 4.96570E-02
 -1      3116 3.17814E-02
 -1      3117 2.51571E-02
 -1      3118 3.37398E-02
 -1      3119 2.03277E-02
 -1      3120 1.55783E-02
 -1      3121 2.23224E-02
 -1      3122 1.21131E-02
 -1      3123 1.02336E-02
 -1      3124 1.40277E-02
 -1      3125 7.94156E-03
 -1      3126 7.77996E-03
 -1      3127 8.27050E-03
 -1      3128 7.66619E-03
 -1      3129 7.25566E-03
 -1      3130 5.86467E-03
 -1      3131 7.34251E-03
 -1      3132 6.80435E-03
 -1      3133 5.83775E-03
 -1      3134 6.65776E-03
 -1      3135 6.07382E-03
 -1      3136 5.77801E-03
 -1      3137 5.79282E-03
 -1      3138 5.22900E-03
 -1      3139 5.35042E-03
 -1      3140 4.88218E-03
 -1      3141 4.50844E-03
 -1      3142 4.72261E-03
 -1      3143 4.20696E-03
 -1      3144 3.81379E-03
 -1      3145 4.07432E-03
 -1      3146 3.54559E-03
 -1      3147 3.16311E-03
 -1      3148 3.50464E-03
 -1      3149 2.87757E-03
 -1      3150 2.52360E-03
 -1      3151 2.95090E-03
 -1      3152 2.24273E-03
 -1      3153 1.95209E-03
 -1      3154 2.38449E-03
 -1      3155 1.76505E-03
 -1      3156 1.52480E-03
 -1      3157 1.91658E-03
 -1      3158 1.04965E+01
 -1      3159 8.50851E+00
 -1      3160 3.87066E+00
 -1      3161 3.30476E+00
 -1      3162 2.04160E+00
 -1      3163 2.22451E+00
 -1      3164 1.63343E+00
 -1      3165 1.79849E+00
 -1      3166 2.13857E+00
 -1      3167 1.35568E+00
 -1      3168 1.43505E+00
 -1      3169 1.69707E+00
 -1      3170 1.09818E+00
 -1      3171 1.18903E+00
 -1      3172 1.33203E+00
 -1      3173 8.85196E-01
 -1      3174 9.74813E-01
 -1      3175 1.04200E+00
 -1      3176 7.01656E-01
 -1      3177 7.83648E-01
 -1      3178 8.17088E-01
 -1      3179 5.54111E-01
 -1      3180 6.25763E-01
 -1      3181 6.39647E-01
 -1      3182 4.30060E-01
 -1      3183 4.90691E-01
 -1      3184 5.00334E-01
 -1      3185 3.27055E-01
 -1      3186 3.77078E-01
 -1      3187 3.83931E-01
 -1      3188 2.43809E-01
 -1      3189 2.84209E-01
 -1      3190 2.88103E-01
 -1      3191 1.80714E-01
 -1      3192 2.12729E-01
 -1      3193 2.14176E-01
 -1      3194 1.31839E-01
 -1      3195 1.56763E-01
 -1      3196 1.59146E-01
 -1      3197 9.41926E-02
 -1      3198 1.13264E-01
 -1      3199 1.16620E-01
 -1      3200 6.56278E-02
 -1      3201 7.99669E-02
 -1      3202 8.38190E-02
 -1      3203 4.43070E-02
 -1      3204 5.48892E-02
 -1      3205 5.88547E-02
 -1      3206 2.86815E-02
 -1      3207 3.63319E-02
 -1      3208 4.01411E-02
 -1      3209 1.84791E-02
 -1      3210 2.28680E-02
 -1      3211 2.63526E-02
 -1      3212 1.28892E-02
 -1      3213 1.43326E-02
 -1      3214 1.63925E-02
 -1      3215 9.93673E-03
 -1      3216 1.05977E-02
 -1      3217 9.95457E-03
 -1      3218 9.09425E-03
 -1      3219 9.89125E-03
 -1      3220 7.61766E-03
 -1      3221 8.11559E-03
 -1      3222 8.94587E-03
 -1      3223 7.42379E-03
 -1      3224 6.98256E-03
 -1      3225 7.78253E-03
 -1      3226 6.94235E-03
 -1      3227 5.94167E-03
 -1      3228 6.55726E-03
 -1      3229 6.18399E-03
 -1      3230 5.01860E-03
 -1      3231 5.48541E-03
 -1      3232 5.30244E-03
 -1      3233 4.23797E-03
 -1      3234 4.68782E-03
 -1      3235 4.51541E-03
 -1      3236 3.48165E-03
 -1      3237 3.91029E-03
 -1      3238 3.85694E-03
 -1      3239 2.79214E-03
 -1      3240 3.15003E-03
 -1      3241 3.19764E-03
 -1      3242 2.15304E-03
 -1      3243 2.47815E-03
 -1      3244 2.55203E-03
 -1      3245 1.59037E-03
 -1      3246 1.86616E-03
 -1      3247 1.95115E-03
 -1      3248 1.24426E-03
 -1      3249 1.38011E-03
 -1      3250 1.45400E-03
 -1      3251 1.09111E-03
 -1      3252 1.31873E-03
 -1      3253 1.31873E-03
 -1      3254 4.25482E+00
 -1      3255 4.93036E+00
 -1      3256 1.65370E-03
 -1      3257 1.46132E-03
 -1      3258 1.29008E-03
 -1      3259 1.29345E-03
 -1      3260 1.40061E-03
 -1      3261 2.09058E+00
 -1      3262 1.31119E-03
 -1      3263 1.31873E-03
 -1      3264 1.42926E-03
 -1      3265 1.57939E-03
 -1      3266 2.66620E+00
 -1      3267 2.85154E+00
 -1      3268 2.82338E+00
 -1      3269 2.95842E+00
 -1      3270 3.18668E+00
 -1      3271 3.37195E+00
 -1      3272 3.65743E+00
 -1      3273 3.58157E+00
 -1      3274 3.57397E+00
 -1      3275 9.13783E+00
 -1      3276 7.82094E+00
 -1      3277 1.89503E+00
 -1      3278 1.72163E+00
 -1      3279 2.21110E+00
 -1      3280 2.30761E+00
 -1      3281 2.18689E+00
 -1      3282 2.22089E+00
 -1      3283 2.29572E+00
 -1      3284 6.08658E+00
 -1      3285 6.52707E+00
 -1      3286 6.62439E+00
 -1      3287 5.21152E+00
 -1      3288 1.14534E+01
 -1      3289 1.33589E+01
 -1      3290 6.74659E+00
 -1      3291 8.27437E+00
 -1      3292 7.18726E+00
 -1      3293 1.07102E+01
 -1      3294 1.25707E+01
 -1      3295 1.22167E+01
 -1      3296 9.28144E+00
 -1      3297 8.81148E+00
 -1      3298 4.36986E+00
 -1      3299 4.31971E+00
 -1      3300 6.41194E+00
 -1      3301 8.35415E+00
 -1      3302 5.15805E+00
 -1      3303 1.28470E+01
 -1      3304 1.40507E+01
 -1      3305 1.14854E+01
 -1      3306 2.03369E+00
 -1      3307 2.02355E+00
 -1      3308 2.48834E+00
 -1      3309 1.65917E+00
 -1      3310 2.99244E+00
 -1      3311 3.95479E+00
 -1      3312 3.19624E+00
 -1      3313 2.25409E+00
 -1      3314 3.64296E+00
 -1      3315 3.36749E+00
 -1      3316 2.69292E+00
 -1      3317 4.40077E+00
 -1      3318 2.78534E+00
 -1      3319 2.76390E+00
 -1      3320 4.82338E+00
 -1      3321 7.39174E+00
 -1      3322 1.00946E+01
 -1      3323 8.46912E+00
 -1      3324 5.75691E+00
 -1      3325 1.23321E-03
 -1      3326 1.15391E-03
 -1      3327 2.76196E+00
 -1      3328 3.04600E+00
 -1      3329 5.39603E+00
 -1      3330 4.05393E+00
 -1      3331 7.26894E+00
 -1      3332 8.87802E+00
 -1      3333 3.62965E+00
 -1      3334 2.75946E+00
 -1      3335 2.51763E+00
 -1      3336 3.28725E+00
 -1      3337 3.20272E+00
 -1      3338 4.11932E+00
 -1      3339 1.33971E-03
 -1      3340 1.33679E-03
 -1      3341 1.36089E-03
 -1      3342 1.33971E-03
 -1      3343 1.33971E-03
 -1      3344 1.46447E-03
 -1      3345 1.41822E-03
 -1      3346 3.21612E+00
 -1      3347 3.21612E+00
 -1      3348 3.53624E+00
 -1      3349 1.65370E-03
 -1      3350 1.65370E-03
 -1      3351 5.50311E+00
 -1      3352 4.25526E+00
 -1      3353 1.72953E-03
 -1      3354 1.10603E+01
 -1      3355 9.56056E+00
 -1      3356 9.86017E+00
 -1      3357 7.52570E+00
 -1      3358 2.03406E+00
 -1      3359 1.81583E+00
 -1      3360 1.96056E+00
 -1      3361 2.60079E+00
 -1      3362 1.19388E+01
 -1      3363 8.73063E+00
 -1      3364 4.17825E+00
 -1      3365 2.47297E+00
 -1      3366 2.42116E+00
 -1      3367 2.63819E+00
 -1      3368 1.03279E+01
 -1      3369 6.18555E+00
 -1      3370 4.44514E+00
 -1      3371 4.36986E+00
 -1      3372 6.35775E+00
 -1      3373 5.12873E+00
 -1      3374 3.82834E+00
 -1      3375 1.06220E+01
 -1      3376 7.99215E+00
 -1      3377 7.62770E+00
 -1      3378 5.27165E+00
 -1      3379 3.91843E+00
 -1      3380 3.61103E+00
 -1      3381 3.58279E+00
 -1      3382 3.87345E+00
 -1      3383 8.97746E+00
 -1      3384 9.56466E+00
 -1      3385 3.61607E+00
 -1      3386 3.03715E+00
 -1      3387 2.80166E+00
 -1      3388 2.16004E+00
 -1      3389 2.01505E+00
 -1      3390 3.35898E+00
 -1      3391 1.38415E+00
 -1      3392 1.25169E+00
 -1      3393 2.08647E+00
 -1      3394 1.06998E+00
 -1      3395 9.77147E-01
 -1      3396 1.27387E+00
 -1      3397 8.43152E-01
 -1      3398 7.60549E-01
 -1      3399 9.58170E-01
 -1      3400 6.76367E-01
 -1      3401 6.09041E-01
 -1      3402 7.39993E-01
 -1      3403 5.48352E-01
 -1      3404 4.89509E-01
 -1      3405 5.95122E-01
 -1      3406 4.39571E-01
 -1      3407 3.90998E-01
 -1      3408 4.84495E-01
 -1      3409 3.46556E-01
 -1      3410 3.10922E-01
 -1      3411 3.90114E-01
 -1      3412 2.72842E-01
 -1      3413 2.41464E-01
 -1      3414 3.07591E-01
 -1      3415 2.09726E-01
 -1      3416 1.83281E-01
 -1      3417 2.37774E-01
 -1      3418 1.57430E-01
 -1      3419 1.35888E-01
 -1      3420 1.80187E-01
 -1      3421 1.15264E-01
 -1      3422 9.85338E-02
 -1      3423 1.33711E-01
 -1      3424 8.24007E-02
 -1      3425 6.99034E-02
 -1      3426 9.69536E-02
 -1      3427 5.75352E-02
 -1      3428 4.82060E-02
 -1      3429 6.84524E-02
 -1      3430 3.94641E-02
 -1      3431 3.28761E-02
 -1      3432 4.73423E-02
 -1      3433 2.63502E-02
 -1      3434 2.15208E-02
 -1      3435 3.20745E-02
 -1      3436 1.67541E-02
 -1      3437 1.32889E-02
 -1      3438 2.07819E-02
 -1      3439 9.89879E-03
 -1      3440 7.60674E-03
 -1      3441 1.26252E-02
 -1      3442 5.32557E-03
 -1      3443 5.21180E-03
 -1      3444 6.95387E-03
 -1      3445 4.53305E-03
 -1      3446 4.61990E-03
 -1      3447 3.99395E-03
 -1      3448 4.96149E-03
 -1      3449 4.81490E-03
 -1      3450 3.65679E-03
 -1      3451 4.88457E-03
 -1      3452 4.60357E-03
 -1      3453 4.06805E-03
 -1      3454 4.50228E-03
 -1      3455 4.15547E-03
 -1      3456 4.03643E-03
 -1      3457 3.95521E-03
 -1      3458 3.65373E-03
 -1      3459 3.73488E-03
 -1      3460 3.41134E-03
 -1      3461 3.14314E-03
 -1      3462 3.29223E-03
 -1      3463 2.95281E-03
 -1      3464 2.66727E-03
 -1      3465 2.85951E-03
 -1      3466 2.45045E-03
 -1      3467 2.16959E-03
 -1      3468 2.45237E-03
 -1      3469 1.96940E-03
 -1      3470 1.78236E-03
 -1      3471 1.78236E-03
 -1      3472 2.03537E-03
 -1      3473 3.57940E+00
 -1      3474 2.83044E+00
 -1      3475 2.60882E+00
 -1      3476 2.85194E+00
 -1      3477 1.02025E+00
 -1      3478 1.14362E+00
 -1      3479 8.05969E-01
 -1      3480 9.07517E-01
 -1      3481 1.00913E+00
 -1      3482 6.34433E-01
 -1      3483 7.10326E-01
 -1      3484 8.00755E-01
 -1      3485 4.92140E-01
 -1      3486 5.55560E-01
 -1      3487 6.26239E-01
 -1      3488 3.75197E-01
 -1      3489 4.28180E-01
 -1      3490 4.83406E-01
 -1      3491 2.81167E-01
 -1      3492 3.24013E-01
 -1      3493 3.68262E-01
 -1      3494 2.09615E-01
 -1      3495 2.40696E-01
 -1      3496 2.76606E-01
 -1      3497 1.54049E-01
 -1      3498 1.78000E-01
 -1      3499 2.04519E-01
 -1      3500 1.11092E-01
 -1      3501 1.29667E-01
 -1      3502 1.48521E-01
 -1      3503 7.83223E-02
 -1      3504 9.25479E-02
 -1      3505 1.05595E-01
 -1      3506 5.43103E-02
 -1      3507 6.50489E-02
 -1      3508 7.37778E-02
 -1      3509 3.65532E-02
 -1      3510 4.45283E-02
 -1      3511 5.07224E-02
 -1      3512 2.35615E-02
 -1      3513 2.93750E-02
 -1      3514 3.37622E-02
 -1      3515 1.43081E-02
 -1      3516 1.84547E-02
 -1      3517 2.14771E-02
 -1      3518 8.45672E-03
 -1      3519 1.07482E-02
 -1      3520 1.28103E-02
 -1      3521 6.16008E-03
 -1      3522 6.20556E-03
 -1      3523 6.99914E-03
 -1      3524 5.86986E-03
 -1      3525 6.01825E-03
 -1      3526 4.60614E-03
 -1      3527 5.75997E-03
 -1      3528 6.09303E-03
 -1      3529 4.68748E-03
 -1      3530 5.30178E-03
 -1      3531 5.72709E-03
 -1      3532 4.87776E-03
 -1      3533 4.65855E-03
 -1      3534 5.11481E-03
 -1      3535 4.65790E-03
 -1      3536 4.05768E-03
 -1      3537 4.38846E-03
 -1      3538 4.20083E-03
 -1      3539 3.45689E-03
 -1      3540 3.78458E-03
 -1      3541 3.65763E-03
 -1      3542 2.89864E-03
 -1      3543 3.23027E-03
 -1      3544 3.15790E-03
 -1      3545 2.33354E-03
 -1      3546 2.64752E-03
 -1      3547 2.68016E-03
 -1      3548 1.87657E-03
 -1      3549 2.16346E-03
 -1      3550 2.25896E-03
 -1      3551 3.35656E+00
 -1      3552 3.79825E+00
 -1      3553 3.82681E+00
 -1      3554 1.23785E-03
 -1      3555 1.18184E-03
 -1      3556 1.33447E-03
 -1      3557 1.34125E-03
 -1      3558 3.92341E+00
 -1      3559 4.39900E+00
 -1      3560 4.91741E+00
 -1      3561 3.30769E+00
 -1      3562 1.55110E-03
 -1      3563 1.52245E-03
 -1      3564 7.89726E+00
 -1      3565 6.75508E+00
 -1      3566 5.15786E+00
 -1      3567 4.60868E+00
 -1      3568 8.73063E+00
 -1      3569 8.73063E+00
 -1      3570 1.29790E+00
 -1      3571 1.46455E+00
 -1      3572 1.27615E+00
 -1      3573 1.72533E+00
 -1      3574 1.92371E+00
 -1      3575 1.69120E+00
 -1      3576 3.58723E+00
 -1      3577 3.26182E+00
 -1      3578 4.22527E+00
 -1      3579 3.85675E+00
 -1      3580 3.46305E+00
 -1      3581 4.14749E+00
 -1      3582 3.61971E+00
 -1      3583 7.81997E+00
 -1      3584 3.43381E+00
 -1      3585 3.43381E+00
 -1      3586 4.80606E+00
 -1      3587 3.95893E+00
 -1      3588 2.82877E+00
 -1      3589 2.85703E+00
 -1      3590 5.27916E+00
 -1      3591 6.48999E+00
 -1      3592 3.95097E+00
 -1      3593 6.88943E+00
 -1      3594 6.74583E+00
 -1      3595 8.58323E+00
 -1      3596 5.91602E+00
 -1      3597 4.71947E+00
 -1      3598 9.07183E+00
 -1      3599 9.34807E+00
 -1      3600 4.50811E+00
 -1      3601 5.92247E+00
 -1      3602 5.18001E+00
 -1      3603 4.63471E+00
 -1      3604 7.53155E+00
 -1      3605 3.62888E+00
 -1      3606 4.65816E+00
 -1      3607 4.87768E+00
 -1      3608 3.52200E+00
 -1      3609 6.37145E+00
 -1      3610 5.36509E+00
 -1      3611 4.46334E+00
 -1      3612 1.55110E-03
 -1      3613 1.55110E-03
 -1      3614 1.67294E-03
 -1      3615 7.50417E+00
 -1      3616 5.44580E+00
 -1      3617 3.91143E+00
 -1      3618 7.38415E+00
 -1      3619 4.05518E+00
 -1      3620 1.62687E-03
 -1      3621 1.47638E-03
 -1      3622 1.52264E-03
 -1      3623 6.39060E+00
 -1      3624 5.28077E+00
 -1      3625 2.63708E+00
 -1      3626 1.54473E-03
 -1      3627 1.67309E-03
 -1      3628 1.75703E-03
 -1      3629 4.51095E+00
 -1      3630 1.63222E-03
 -1      3631 1.75835E-03
 -1      3632 1.65477E-03
 -1      3633 2.07056E-03
 -1      3634 5.27975E+00
 -1      3635 2.84460E+00
 -1      3636 2.55274E+00
 -1      3637 2.83482E+00
 -1      3638 2.97004E+00
 -1      3639 7.61275E+00
 -1      3640 6.92006E+00
 -1      3641 5.52901E+00
 -1      3642 4.18041E+00
 -1      3643 7.47049E+00
 -1      3644 7.47049E+00
 -1      3645 5.97521E+00
 -1      3646 3.17041E+00
 -1      3647 7.42731E+00
 -1      3648 5.48719E+00
 -1      3649 7.47049E+00
 -1      3650 6.55854E+00
 -1      3651 6.85272E+00
 -1      3652 5.65364E+00
 -1      3653 2.64988E+00
 -1      3654 2.01899E+00
 -1      3655 1.54341E+00
 -1      3656 1.36170E+00
 -1      3657 2.10682E+00
 -1      3658 1.05880E+00
 -1      3659 9.24809E-01
 -1      3660 1.32834E+00
 -1      3661 8.24175E-01
 -1      3662 7.39993E-01
 -1      3663 9.24809E-01
 -1      3664 6.55811E-01
 -1      3665 5.95122E-01
 -1      3666 7.39993E-01
 -1      3667 5.25614E-01
 -1      3668 4.75676E-01
 -1      3669 5.86303E-01
 -1      3670 4.19146E-01
 -1      3671 3.74703E-01
 -1      3672 4.60265E-01
 -1      3673 3.29017E-01
 -1      3674 2.90937E-01
 -1      3675 3.58049E-01
 -1      3676 2.54205E-01
 -1      3677 2.22468E-01
 -1      3678 2.75631E-01
 -1      3679 1.93146E-01
 -1      3680 1.67295E-01
 -1      3681 2.09577E-01
 -1      3682 1.44107E-01
 -1      3683 1.23482E-01
 -1      3684 1.57067E-01
 -1      3685 1.05353E-01
 -1      3686 8.92200E-02
 -1      3687 1.15749E-01
 -1      3688 7.52319E-02
 -1      3689 6.28637E-02
 -1      3690 8.36313E-02
 -1      3691 5.22310E-02
 -1      3692 4.34891E-02
 -1      3693 5.90105E-02
 -1      3694 3.57385E-02
 -1      3695 2.92126E-02
 -1      3696 4.06272E-02
 -1      3697 2.37617E-02
 -1      3698 1.89951E-02
 -1      3699 2.74258E-02
 -1      3700 1.50082E-02
 -1      3701 1.16181E-02
 -1      3702 1.79880E-02
 -1      3703 8.76677E-03
 -1      3704 6.48561E-03
 -1      3705 1.11498E-02
 -1      3706 4.65269E-03
 -1      3707 3.97394E-03
 -1      3708 6.46560E-03
 -1      3709 2.94762E-03
 -1      3710 3.28921E-03
 -1      3711 3.60636E-03
 -1      3712 3.38107E-03
 -1      3713 3.45073E-03
 -1      3714 2.67190E-03
 -1      3715 3.60907E-03
 -1      3716 3.50778E-03
 -1      3717 2.92209E-03
 -1      3718 3.49574E-03
 -1      3719 3.29548E-03
 -1      3720 3.06839E-03
 -1      3721 3.17959E-03
 -1      3722 2.93720E-03
 -1      3723 2.94045E-03
 -1      3724 2.76272E-03
 -1      3725 2.57239E-03
 -1      3726 2.65008E-03
 -1      3727 2.40451E-03
 -1      3728 2.18770E-03
 -1      3729 2.30772E-03
 -1      3730 6.39060E+00
 -1      3731 7.79792E+00
 -1      3732 7.62510E-01
 -1      3733 8.58154E-01
 -1      3734 2.63844E+00
 -1      3735 3.32355E+00
 -1      3736 9.87311E-01
 -1      3737 1.10005E+00
 -1      3738 9.49066E-01
 -1      3739 4.48824E-01
 -1      3740 5.12784E-01
 -1      3741 3.40399E-01
 -1      3742 3.91584E-01
 -1      3743 4.20962E-01
 -1      3744 2.55325E-01
 -1      3745 2.95796E-01
 -1      3746 3.19119E-01
 -1      3747 1.88911E-01
 -1      3748 2.20526E-01
 -1      3749 2.39717E-01
 -1      3750 1.37483E-01
 -1      3751 1.61866E-01
 -1      3752 1.77873E-01
 -1      3753 9.80822E-02
 -1      3754 1.16626E-01
 -1      3755 1.29971E-01
 -1      3756 6.88935E-02
 -1      3757 8.21669E-02
 -1      3758 9.31979E-02
 -1      3759 4.71261E-02
 -1      3760 5.69081E-02
 -1      3761 6.52972E-02
 -1      3762 3.15095E-02
 -1      3763 3.86878E-02
 -1      3764 4.48734E-02
 -1      3765 2.02627E-02
 -1      3766 2.53695E-02
 -1      3767 3.02951E-02
 -1      3768 1.22419E-02
 -1      3769 1.58019E-02
 -1      3770 1.96944E-02
 -1      3771 6.82208E-03
 -1      3772 9.07324E-03
 -1      3773 1.20648E-02
 -1      3774 4.56114E-03
 -1      3775 4.70297E-03
 -1      3776 6.77707E-03
 -1      3777 3.73761E-03
 -1      3778 3.51445E-03
 -1      3779 3.61127E-03
 -1      3780 4.09084E-03
 -1      3781 4.12373E-03
 -1      3782 2.95069E-03
 -1      3783 4.02104E-03
 -1      3784 4.20802E-03
 -1      3785 3.45398E-03
 -1      3786 3.69687E-03
 -1      3787 3.96696E-03
 -1      3788 3.51708E-03
 -1      3789 3.26774E-03
 -1      3790 3.54085E-03
 -1      3791 3.30698E-03
 -1      3792 2.83152E-03
 -1      3793 3.05814E-03
 -1      3794 2.94136E-03
 -1      3795 2.40638E-03
 -1      3796 2.65750E-03
 -1      3797 2.55774E-03
 -1      3798 2.08888E-03
 -1      3799 2.25896E-03
 -1      3800 2.23630E-03
 -1      3801 2.07056E-03
 -1      3802 1.95381E-03
 -1      3803 1.75085E-03
 -1      3804 1.87268E-03
 -1      3805 2.15399E-03
 -1      3806 5.05508E+00
 -1      3807 6.24147E+00
 -1      3808 5.86776E-01
 -1      3809 6.65649E-01
 -1      3810 7.23048E-01
 -1      3811 1.27615E+00
 -1      3812 1.43042E+00
 -1      3813 1.25432E+00
 -1      3814 6.70034E+00
 -1      3815 5.03704E+00
 -1      3816 5.79528E+00
 -1      3817 4.45666E+00
 -1      3818 1.66610E+00
 -1      3819 1.92687E+00
 -1      3820 1.66610E+00
 -1      3821 4.15115E+00
 -1      3822 3.38274E+00
 -1      3823 4.61738E+00
 -1      3824 9.07183E+00
 -1      3825 5.19058E+00
 -1      3826 5.32493E+00
 -1      3827 4.25538E+00
 -1      3828 6.16588E+00
 -1      3829 4.27045E+00
 -1      3830 3.62883E+00
 -1      3831 4.33811E+00
 -1      3832 5.54347E+00
 -1      3833 1.66576E-03
 -1      3834 1.66576E-03
 -1      3835 1.72393E-03
 -1      3836 1.95964E-03
 -1      3837 5.07996E+00
 -1      3838 4.22359E+00
 -1      3839 4.05967E+00
 -1      3840 2.10614E-03
 -1      3841 6.21338E+00
 -1      3842 1.67808E-03
 -1      3843 1.63202E-03
 -1      3844 5.52194E-01
 -1      3845 3.81313E+00
 -1      3846 4.61695E+00
 -1      3847 3.96667E+00
 -1      3848 3.83349E+00
 -1      3849 6.70034E+00
 -1      3850 4.23321E+00
 -1      3851 4.45292E+00
 -1      3852 3.56136E+00
 -1      3853 3.83486E+00
 -1      3854 3.38879E+00
 -1      3855 2.61334E+00
 -1      3856 1.87268E-03
 -1      3857 1.87268E-03
 -1      3858 1.87783E-03
 -1      3859 5.69952E+00
 -1      3860 6.35378E+00
 -1      3861 1.56676E+00
 -1      3862 1.26386E+00
 -1      3863 1.02544E+00
 -1      3864 9.24809E-01
 -1      3865 1.26386E+00
 -1      3866 7.99731E-01
 -1      3867 7.15549E-01
 -1      3868 9.00365E-01
 -1      3869 6.18814E-01
 -1      3870 5.49306E-01
 -1      3871 6.78552E-01
 -1      3872 4.78613E-01
 -1      3873 4.22083E-01
 -1      3874 5.11124E-01
 -1      3875 3.68950E-01
 -1      3876 3.23263E-01
 -1      3877 3.87298E-01
 -1      3878 2.82632E-01
 -1      3879 2.45900E-01
 -1      3880 2.93533E-01
 -1      3881 2.14538E-01
 -1      3882 1.85216E-01
 -1      3883 2.21539E-01
 -1      3884 1.60932E-01
 -1      3885 1.37744E-01
 -1      3886 1.65893E-01
 -1      3887 1.18978E-01
 -1      3888 1.00848E-01
 -1      3889 1.22843E-01
 -1      3890 8.64325E-02
 -1      3891 7.24444E-02
 -1      3892 8.96614E-02
 -1      3893 6.14718E-02
 -1      3894 5.08391E-02
 -1      3895 6.42729E-02
 -1      3896 4.25865E-02
 -1      3897 3.48359E-02
 -1      3898 4.50478E-02
 -1      3899 2.90150E-02
 -1      3900 2.35641E-02
 -1      3901 3.09742E-02
 -1      3902 1.97869E-02
 -1      3903 1.58001E-02
 -1      3904 2.13761E-02
 -1      3905 1.29496E-02
 -1      3906 1.00983E-02
 -1      3907 1.47485E-02
 -1      3908 7.99025E-03
 -1      3909 6.15734E-03
 -1      3910 9.79002E-03
 -1      3911 4.63269E-03
 -1      3912 3.60636E-03
 -1      3913 6.15734E-03
 -1      3914 2.53134E-03
 -1      3915 2.62319E-03
 -1      3916 3.55766E-03
 -1      3917 2.37760E-03
 -1      3918 2.53594E-03
 -1      3919 2.23704E-03
 -1      3920 2.70029E-03
 -1      3921 2.68824E-03
 -1      3922 2.15579E-03
 -1      3923 2.70703E-03
 -1      3924 2.59114E-03
 -1      3925 2.33893E-03
 -1      3926 2.51898E-03
 -1      3927 2.34450E-03
 -1      3928 2.28556E-03
 -1      3929 2.25861E-03
 -1      3930 2.09072E-03
 -1      3931 2.12750E-03
 -1      3932 4.83446E-01
 -1      3933 5.57438E-01
 -1      3934 2.78954E-01
 -1      3935 3.23557E-01
 -1      3936 3.67986E-01
 -1      3937 4.25226E-01
 -1      3938 3.27822E-01
 -1      3939 1.55724E-01
 -1      3940 1.82769E-01
 -1      3941 1.13892E-01
 -1      3942 1.34750E-01
 -1      3943 1.39646E-01
 -1      3944 8.17382E-02
 -1      3945 9.76535E-02
 -1      3946 1.02433E-01
 -1      3947 5.73093E-02
 -1      3948 6.92948E-02
 -1      3949 7.37504E-02
 -1      3950 3.94600E-02
 -1      3951 4.78983E-02
 -1      3952 5.18960E-02
 -1      3953 2.64950E-02
 -1      3954 3.26350E-02
 -1      3955 3.56599E-02
 -1      3956 1.72805E-02
 -1      3957 2.17413E-02
 -1      3958 2.40812E-02
 -1      3959 1.06333E-02
 -1      3960 1.38020E-02
 -1      3961 1.58490E-02
 -1      3962 6.24252E-03
 -1      3963 8.36163E-03
 -1      3964 1.00988E-02
 -1      3965 3.63239E-03
 -1      3966 4.67909E-03
 -1      3967 6.26364E-03
 -1      3968 2.93425E-03
 -1      3969 2.54814E-03
 -1      3970 3.61595E-03
 -1      3971 2.95282E-03
 -1      3972 2.83564E-03
 -1      3973 2.43309E-03
 -1      3974 3.06203E-03
 -1      3975 3.11611E-03
 -1      3976 2.49777E-03
 -1      3977 2.91106E-03
 -1      3978 3.06708E-03
 -1      3979 2.66610E-03
 -1      3980 2.60873E-03
 -1      3981 2.81833E-03
 -1      3982 2.57842E-03
 -1      3983 2.28746E-03
 -1      3984 2.46147E-03
 -1      3985 2.33844E-03
 -1      3986 1.59674E+00
 -1      3987 1.83242E+00
 -1      3988 1.12993E+00
 -1      3989 1.30603E+00
 -1      3990 1.47235E+00
 -1      3991 2.98772E+00
 -1      3992 2.07243E-03
 -1      3993 2.39584E+00
 -1      3994 1.92026E+00
 -1      3995 1.85578E+00
 -1      3996 2.80116E+00
 -1      3997 2.10614E-03
 -1      3998 3.54973E+00
 -1      3999 1.69901E-03
 -1      4000 1.64780E-03
 -1      4001 1.79092E-03
 -1      4002 6.36120E-01
 -1      4003 7.32982E-01
 -1      4004 5.67372E-01
 -1      4005 1.87576E-03
 -1      4006 1.96836E-03
 -1      4007 1.98668E-03
 -1      4008 1.79964E-03
 -1      4009 2.73012E+00
 -1      4010 3.44169E+00
 -1      4011 2.66077E+00
 -1      4012 8.43888E-01
 -1      4013 9.73045E-01
 -1      4014 7.56961E-01
 -1      4015 2.09681E-01
 -1      4016 2.44479E-01
 -1      4017 1.87532E-01
 -1      4018 3.66650E+00
 -1      4019 2.05702E-03
 -1      4020 4.30470E-01
 -1      4021 3.48817E+00
 -1      4022 3.06809E+00
 -1      4023 1.02475E+00
 -1      4024 2.13410E-03
 -1      4025 4.00388E+00
 -1      4026 2.03784E-03
 -1      4027 1.68322E-03
 -1      4028 1.69901E-03
 -1      4029 2.48918E-01
 -1      4030 3.48817E+00
 -1      4031 1.91591E-03
 -1      4032 1.72130E-03
 -1      4033 1.72130E-03
 -1      4034 1.90050E-03
 -1      4035 9.28616E-01
 -1      4036 8.03539E-01
 -1      4037 6.84859E-01
 -1      4038 5.88124E-01
 -1      4039 7.13111E-01
 -1      4040 5.07912E-01
 -1      4041 4.37220E-01
 -1      4042 5.14219E-01
 -1      4043 3.89495E-01
 -1      4044 3.36362E-01
 -1      4045 3.86283E-01
 -1      4046 2.99532E-01
 -1      4047 2.58901E-01
 -1      4048 3.01729E-01
 -1      4049 2.29304E-01
 -1      4050 1.97941E-01
 -1      4051 2.35303E-01
 -1      4052 1.74118E-01
 -1      4053 1.49834E-01
 -1      4054 1.81883E-01
 -1      4055 1.30741E-01
 -1      4056 1.11975E-01
 -1      4057 1.38966E-01
 -1      4058 9.68004E-02
 -1      4059 8.23846E-02
 -1      4060 1.04698E-01
 -1      4061 7.04600E-02
 -1      4062 5.94874E-02
 -1      4063 7.75991E-02
 -1      4064 5.02397E-02
 -1      4065 4.19872E-02
 -1      4066 5.64268E-02
 -1      4067 3.49213E-02
 -1      4068 2.91003E-02
 -1      4069 4.01133E-02
 -1      4070 2.40429E-02
 -1      4071 2.02658E-02
 -1      4072 2.79900E-02
 -1      4073 1.66764E-02
 -1      4074 1.38259E-02
 -1      4075 1.93432E-02
 -1      4076 1.11531E-02
 -1      4077 9.04512E-03
 -1      4078 1.30810E-02
 -1      4079 7.09476E-03
 -1      4080 5.57010E-03
 -1      4081 8.45788E-03
 -1      4082 4.17933E-03
 -1      4083 3.10431E-03
 -1      4084 5.11675E-03
 -1      4085 2.13924E-03
 -1      4086 1.89365E-03
 -1      4087 2.76091E-03
 -1      4088 1.74023E-03
 -1      4089 1.90458E-03
 -1      4090 1.64243E-03
 -1      4091 2.11074E-03
 -1      4092 2.12952E-03
 -1      4093 1.69517E-03
 -1      4094 2.06969E-03
 -1      4095 1.99753E-03
 -1      4096 1.84150E-03
 -1      4097 2.12750E-03
 -1      4098 2.04161E-03
 -1      4099 1.90050E-03
 -1      4100 1.91163E-03
 -1      4101 3.89584E+00
 -1      4102 8.70188E-01
 -1      4103 1.02708E+00
 -1      4104 2.47621E+00
 -1      4105 1.01132E-01
 -1      4106 1.17371E-01
 -1      4107 1.36319E-01
 -1      4108 1.57294E-01
 -1      4109 1.35018E-01
 -1      4110 5.23569E-02
 -1      4111 6.17679E-02
 -1      4112 3.65253E-02
 -1      4113 4.33503E-02
 -1      4114 5.32222E-02
 -1      4115 2.52672E-02
 -1      4116 3.00209E-02
 -1      4117 3.77113E-02
 -1      4118 1.68593E-02
 -1      4119 2.03378E-02
 -1      4120 2.62775E-02
 -1      4121 1.09252E-02
 -1      4122 1.31969E-02
 -1      4123 1.76856E-02
 -1      4124 6.69945E-03
 -1      4125 8.26288E-03
 -1      4126 1.13610E-02
 -1      4127 3.72753E-03
 -1      4128 4.81179E-03
 -1      4129 6.81103E-03
 -1      4130 2.41845E-03
 -1      4131 2.51706E-03
 -1      4132 3.71289E-03
 -1      4133 2.18331E-03
 -1      4134 2.02002E-03
 -1      4135 2.10399E-03
 -1      4136 2.33361E-03
 -1      4137 2.32856E-03
 -1      4138 1.85082E-03
 -1      4139 2.26046E-03
 -1      4140 2.35319E-03
 -1      4141 2.01564E-03
 -1      4142 3.93538E-01
 -1      4143 4.51757E-01
 -1      4144 1.29199E+00
 -1      4145 1.58270E+00
 -1      4146 1.13743E+00
 -1      4147 3.15080E+00
 -1      4148 3.48817E+00
 -1      4149 2.74314E+00
 -1      4150 2.25310E+00
 -1      4151 1.95299E-03
 -1      4152 2.36498E-01
 -1      4153 2.70974E-01
 -1      4154 3.06129E-01
 -1      4155 3.50557E-01
 -1      4156 2.93709E-01
 -1      4157 5.04777E-01
 -1      4158 5.83460E-01
 -1      4159 4.67845E-01
 -1      4160 6.48884E-01
 -1      4161 7.59789E-01
 -1      4162 7.62111E-01
 -1      4163 5.86288E-01
 -1      4164 1.80778E-01
 -1      4165 2.07689E-01
 -1      4166 1.77451E-01
 -1      4167 7.36008E-02
 -1      4168 8.60442E-02
 -1      4169 1.00982E-01
 -1      4170 7.40617E-02
 -1      4171 1.33655E+00
 -1      4172 1.09813E+00
 -1      4173 1.00130E+00
 -1      4174 1.93720E-03
 -1      4175 1.86241E-03
 -1      4176 2.20205E+00
 -1      4177 1.93512E+00
 -1      4178 1.58162E+00
 -1      4179 1.41589E+00
 -1      4180 3.71845E-01
 -1      4181 2.04826E-03
 -1      4182 2.19552E-03
 -1      4183 2.07274E+00
 -1      4184 2.29744E-01
 -1      4185 1.79428E-03
 -1      4186 1.97028E-03
 -1      4187 1.97347E-03
 -1      4188 2.20205E+00
 -1      4189 3.33712E-01
 -1      4190 3.76692E-01
 -1      4191 5.57648E-01
 -1      4192 4.77436E-01
 -1      4193 4.24416E-01
 -1      4194 2.96882E-01
 -1      4195 2.61727E-01
 -1      4196 2.32130E-01
 -1      4197 2.03321E-01
 -1      4198 1.79497E-01
 -1      4199 1.56013E-01
 -1      4200 1.36919E-01
 -1      4201 1.17971E-01
 -1      4202 1.02797E-01
 -1      4203 8.77092E-02
 -1      4204 7.57846E-02
 -1      4205 6.39516E-02
 -1      4206 5.47040E-02
 -1      4207 4.56974E-02
 -1      4208 3.86315E-02
 -1      4209 3.21272E-02
 -1      4210 2.70697E-02
 -1      4211 2.21403E-02
 -1      4212 1.85509E-02
 -1      4213 1.48885E-02
 -1      4214 1.22158E-02
 -1      4215 9.55347E-03
 -1      4216 7.60311E-03
 -1      4217 5.71544E-03
 -1      4218 4.32467E-03
 -1      4219 3.11420E-03
 -1      4220 2.14914E-03
 -1      4221 1.75071E-03
 -1      4222 1.59729E-03
 -1      4223 1.74254E-03
 -1      4224 1.94870E-03
 -1      4225 1.96828E-03
 -1      4226 1.90844E-03
 -1      4227 2.03841E-03
 -1      4228 1.53166E+00
 -1      4229 1.02166E+00
 -1      4230 8.52150E-01
 -1      4231 1.28658E+00
 -1      4232 6.23072E-01
 -1      4233 7.41751E-01
 -3
 9999
