    1C
    1UUSER                                                              
    1UDATE              27.october.2022                                 
    1UTIME              00:51:36                                        
    1UHOST                                                              
    1UPGM               CalculiX                                        
    1UVERSION           Version 2.17                             
    1UCOMPILETIME       Thu Jul 23 21:43:50 CEST 2020                    
    1UDIR                                                               
    1UDBN                                                               
    1UMAT    1SOLIDMATERIAL                                             
    2C                          4292                                     1
 -1         1 1.25455E+02 2.57340E+01 0.00000E+00
 -1         2 1.36367E+02 1.99293E+01 0.00000E+00
 -1         3 1.50000E+02 0.00000E+00 0.00000E+00
 -1         4 1.50000E+02 5.00000E+01 0.00000E+00
 -1         5 0.00000E+00 0.00000E+00 0.00000E+00
 -1         6 0.00000E+00 5.00000E+01 0.00000E+00
 -1         7 0.00000E+00 4.70500E+01 0.00000E+00
 -1         8 0.00000E+00 4.41000E+01 0.00000E+00
 -1         9 0.00000E+00 4.11500E+01 0.00000E+00
 -1        10 0.00000E+00 3.82000E+01 0.00000E+00
 -1        11 0.00000E+00 3.52500E+01 0.00000E+00
 -1        12 0.00000E+00 3.23500E+01 0.00000E+00
 -1        13 0.00000E+00 2.94000E+01 0.00000E+00
 -1        14 0.00000E+00 2.64500E+01 0.00000E+00
 -1        15 0.00000E+00 2.35000E+01 0.00000E+00
 -1        16 0.00000E+00 2.05500E+01 0.00000E+00
 -1        17 0.00000E+00 1.76000E+01 0.00000E+00
 -1        18 0.00000E+00 1.47000E+01 0.00000E+00
 -1        19 0.00000E+00 1.17500E+01 0.00000E+00
 -1        20 0.00000E+00 8.80000E+00 0.00000E+00
 -1        21 0.00000E+00 5.85000E+00 0.00000E+00
 -1        22 0.00000E+00 2.90000E+00 0.00000E+00
 -1        23 3.15000E+00 5.00000E+01 0.00000E+00
 -1        24 6.15000E+00 5.00000E+01 0.00000E+00
 -1        25 9.15000E+00 5.00000E+01 0.00000E+00
 -1        26 1.21500E+01 5.00000E+01 0.00000E+00
 -1        27 1.51500E+01 5.00000E+01 0.00000E+00
 -1        28 1.81500E+01 5.00000E+01 0.00000E+00
 -1        29 2.11500E+01 5.00000E+01 0.00000E+00
 -1        30 2.41500E+01 5.00000E+01 0.00000E+00
 -1        31 2.71500E+01 5.00000E+01 0.00000E+00
 -1        32 3.01500E+01 5.00000E+01 0.00000E+00
 -1        33 3.31500E+01 5.00000E+01 0.00000E+00
 -1        34 3.61500E+01 5.00000E+01 0.00000E+00
 -1        35 3.91500E+01 5.00000E+01 0.00000E+00
 -1        36 4.21500E+01 5.00000E+01 0.00000E+00
 -1        37 4.51500E+01 5.00000E+01 0.00000E+00
 -1        38 4.81500E+01 5.00000E+01 0.00000E+00
 -1        39 5.11500E+01 5.00000E+01 0.00000E+00
 -1        40 5.41500E+01 5.00000E+01 0.00000E+00
 -1        41 5.71500E+01 5.00000E+01 0.00000E+00
 -1        42 6.01500E+01 5.00000E+01 0.00000E+00
 -1        43 6.31500E+01 5.00000E+01 0.00000E+00
 -1        44 6.61500E+01 5.00000E+01 0.00000E+00
 -1        45 6.91500E+01 5.00000E+01 0.00000E+00
 -1        46 7.21500E+01 5.00000E+01 0.00000E+00
 -1        47 7.51500E+01 5.00000E+01 0.00000E+00
 -1        48 7.81500E+01 5.00000E+01 0.00000E+00
 -1        49 8.11500E+01 5.00000E+01 0.00000E+00
 -1        50 8.41500E+01 5.00000E+01 0.00000E+00
 -1        51 8.71500E+01 5.00000E+01 0.00000E+00
 -1        52 9.01500E+01 5.00000E+01 0.00000E+00
 -1        53 9.31500E+01 5.00000E+01 0.00000E+00
 -1        54 9.61500E+01 5.00000E+01 0.00000E+00
 -1        55 9.91500E+01 5.00000E+01 0.00000E+00
 -1        56 1.02150E+02 5.00000E+01 0.00000E+00
 -1        57 1.05150E+02 5.00000E+01 0.00000E+00
 -1        58 1.08150E+02 5.00000E+01 0.00000E+00
 -1        59 1.11150E+02 5.00000E+01 0.00000E+00
 -1        60 1.14150E+02 5.00000E+01 0.00000E+00
 -1        61 1.17150E+02 5.00000E+01 0.00000E+00
 -1        62 1.20150E+02 5.00000E+01 0.00000E+00
 -1        63 1.23150E+02 5.00000E+01 0.00000E+00
 -1        64 1.26150E+02 5.00000E+01 0.00000E+00
 -1        65 1.29150E+02 5.00000E+01 0.00000E+00
 -1        66 1.32150E+02 5.00000E+01 0.00000E+00
 -1        67 1.35150E+02 5.00000E+01 0.00000E+00
 -1        68 1.38150E+02 5.00000E+01 0.00000E+00
 -1        69 1.41150E+02 5.00000E+01 0.00000E+00
 -1        70 1.44150E+02 5.00000E+01 0.00000E+00
 -1        71 1.47150E+02 5.00000E+01 0.00000E+00
 -1        72 3.15000E+00 0.00000E+00 0.00000E+00
 -1        73 6.15000E+00 0.00000E+00 0.00000E+00
 -1        74 9.15000E+00 0.00000E+00 0.00000E+00
 -1        75 1.21500E+01 0.00000E+00 0.00000E+00
 -1        76 1.51500E+01 0.00000E+00 0.00000E+00
 -1        77 1.81500E+01 0.00000E+00 0.00000E+00
 -1        78 2.11500E+01 0.00000E+00 0.00000E+00
 -1        79 2.41500E+01 0.00000E+00 0.00000E+00
 -1        80 2.71500E+01 0.00000E+00 0.00000E+00
 -1        81 3.01500E+01 0.00000E+00 0.00000E+00
 -1        82 3.31500E+01 0.00000E+00 0.00000E+00
 -1        83 3.61500E+01 0.00000E+00 0.00000E+00
 -1        84 3.91500E+01 0.00000E+00 0.00000E+00
 -1        85 4.21500E+01 0.00000E+00 0.00000E+00
 -1        86 4.51500E+01 0.00000E+00 0.00000E+00
 -1        87 4.81500E+01 0.00000E+00 0.00000E+00
 -1        88 5.11500E+01 0.00000E+00 0.00000E+00
 -1        89 5.41500E+01 0.00000E+00 0.00000E+00
 -1        90 5.71500E+01 0.00000E+00 0.00000E+00
 -1        91 6.01500E+01 0.00000E+00 0.00000E+00
 -1        92 6.31500E+01 0.00000E+00 0.00000E+00
 -1        93 6.61500E+01 0.00000E+00 0.00000E+00
 -1        94 6.91500E+01 0.00000E+00 0.00000E+00
 -1        95 7.21500E+01 0.00000E+00 0.00000E+00
 -1        96 7.51500E+01 0.00000E+00 0.00000E+00
 -1        97 7.81500E+01 0.00000E+00 0.00000E+00
 -1        98 8.11500E+01 0.00000E+00 0.00000E+00
 -1        99 8.41500E+01 0.00000E+00 0.00000E+00
 -1       100 8.71500E+01 0.00000E+00 0.00000E+00
 -1       101 9.01500E+01 0.00000E+00 0.00000E+00
 -1       102 9.31500E+01 0.00000E+00 0.00000E+00
 -1       103 9.61500E+01 0.00000E+00 0.00000E+00
 -1       104 9.91500E+01 0.00000E+00 0.00000E+00
 -1       105 1.02150E+02 0.00000E+00 0.00000E+00
 -1       106 1.05150E+02 0.00000E+00 0.00000E+00
 -1       107 1.08150E+02 0.00000E+00 0.00000E+00
 -1       108 1.11150E+02 0.00000E+00 0.00000E+00
 -1       109 1.14150E+02 0.00000E+00 0.00000E+00
 -1       110 1.17150E+02 0.00000E+00 0.00000E+00
 -1       111 1.20150E+02 0.00000E+00 0.00000E+00
 -1       112 1.23150E+02 0.00000E+00 0.00000E+00
 -1       113 1.26150E+02 0.00000E+00 0.00000E+00
 -1       114 1.29150E+02 0.00000E+00 0.00000E+00
 -1       115 1.32150E+02 0.00000E+00 0.00000E+00
 -1       116 1.35150E+02 0.00000E+00 0.00000E+00
 -1       117 1.38000E+02 0.00000E+00 0.00000E+00
 -1       118 1.41000E+02 0.00000E+00 0.00000E+00
 -1       119 1.44000E+02 0.00000E+00 0.00000E+00
 -1       120 1.47000E+02 0.00000E+00 0.00000E+00
 -1       121 1.50000E+02 3.00000E+00 0.00000E+00
 -1       122 1.50000E+02 5.95000E+00 0.00000E+00
 -1       123 1.50000E+02 8.90000E+00 0.00000E+00
 -1       124 1.50000E+02 1.18500E+01 0.00000E+00
 -1       125 1.50000E+02 1.48000E+01 0.00000E+00
 -1       126 1.50000E+02 1.77500E+01 0.00000E+00
 -1       127 1.50000E+02 2.05000E+01 0.00000E+00
 -1       128 1.50000E+02 2.34500E+01 0.00000E+00
 -1       129 1.50000E+02 2.64000E+01 0.00000E+00
 -1       130 1.50000E+02 2.93500E+01 0.00000E+00
 -1       131 1.50000E+02 3.23000E+01 0.00000E+00
 -1       132 1.50000E+02 3.52500E+01 0.00000E+00
 -1       133 1.50000E+02 3.82000E+01 0.00000E+00
 -1       134 1.50000E+02 4.11500E+01 0.00000E+00
 -1       135 1.50000E+02 4.41000E+01 0.00000E+00
 -1       136 1.50000E+02 4.70500E+01 0.00000E+00
 -1       137 1.36228E+02 1.85419E+01 0.00000E+00
 -1       138 1.35785E+02 1.71354E+01 0.00000E+00
 -1       139 1.35069E+02 1.58688E+01 0.00000E+00
 -1       140 1.34148E+02 1.48170E+01 0.00000E+00
 -1       141 1.32980E+02 1.39337E+01 0.00000E+00
 -1       142 1.31579E+02 1.32880E+01 0.00000E+00
 -1       143 1.30119E+02 1.29699E+01 0.00000E+00
 -1       144 1.28627E+02 1.29685E+01 0.00000E+00
 -1       145 1.27231E+02 1.32632E+01 0.00000E+00
 -1       146 1.25873E+02 1.38633E+01 0.00000E+00
 -1       147 1.24769E+02 1.46510E+01 0.00000E+00
 -1       148 1.23820E+02 1.56595E+01 0.00000E+00
 -1       149 1.23074E+02 1.68628E+01 0.00000E+00
 -1       150 1.22582E+02 1.82088E+01 0.00000E+00
 -1       151 1.22376E+02 1.95668E+01 0.00000E+00
 -1       152 1.22450E+02 2.10073E+01 0.00000E+00
 -1       153 1.22817E+02 2.23993E+01 0.00000E+00
 -1       154 1.23446E+02 2.36629E+01 0.00000E+00
 -1       155 1.24349E+02 2.48100E+01 0.00000E+00
 -1       156 1.26756E+02 2.64241E+01 0.00000E+00
 -1       157 1.28267E+02 2.68425E+01 0.00000E+00
 -1       158 1.29781E+02 2.69171E+01 0.00000E+00
 -1       159 1.31240E+02 2.66740E+01 0.00000E+00
 -1       160 1.32726E+02 2.60709E+01 0.00000E+00
 -1       161 1.33928E+02 2.52397E+01 0.00000E+00
 -1       162 1.34948E+02 2.41544E+01 0.00000E+00
 -1       163 1.35701E+02 2.29086E+01 0.00000E+00
 -1       164 1.36190E+02 2.14940E+01 0.00000E+00
 -1       165 2.59800E+00 4.55750E+01 0.00000E+00
 -1       166 2.59800E+00 4.26250E+01 0.00000E+00
 -1       167 2.59800E+00 3.96750E+01 0.00000E+00
 -1       168 2.59800E+00 3.67250E+01 0.00000E+00
 -1       169 2.59800E+00 3.38250E+01 0.00000E+00
 -1       170 2.59800E+00 3.08750E+01 0.00000E+00
 -1       171 2.59800E+00 2.79250E+01 0.00000E+00
 -1       172 2.59800E+00 2.49750E+01 0.00000E+00
 -1       173 2.59800E+00 2.20250E+01 0.00000E+00
 -1       174 2.59800E+00 1.90750E+01 0.00000E+00
 -1       175 2.59800E+00 1.61750E+01 0.00000E+00
 -1       176 2.59800E+00 1.32250E+01 0.00000E+00
 -1       177 2.59800E+00 1.02750E+01 0.00000E+00
 -1       178 2.59800E+00 7.32500E+00 0.00000E+00
 -1       179 2.59800E+00 4.37500E+00 0.00000E+00
 -1       180 2.87400E+00 2.18750E+00 0.00000E+00
 -1       181 4.65000E+00 4.74020E+01 0.00000E+00
 -1       182 7.65000E+00 4.74020E+01 0.00000E+00
 -1       183 1.06500E+01 4.74020E+01 0.00000E+00
 -1       184 1.36500E+01 4.74020E+01 0.00000E+00
 -1       185 1.66500E+01 4.74020E+01 0.00000E+00
 -1       186 1.96500E+01 4.74020E+01 0.00000E+00
 -1       187 2.26500E+01 4.74020E+01 0.00000E+00
 -1       188 2.56500E+01 4.74020E+01 0.00000E+00
 -1       189 2.86500E+01 4.74020E+01 0.00000E+00
 -1       190 3.16500E+01 4.74020E+01 0.00000E+00
 -1       191 3.46500E+01 4.74020E+01 0.00000E+00
 -1       192 3.76500E+01 4.74020E+01 0.00000E+00
 -1       193 4.06500E+01 4.74020E+01 0.00000E+00
 -1       194 4.36500E+01 4.74020E+01 0.00000E+00
 -1       195 4.66500E+01 4.74020E+01 0.00000E+00
 -1       196 4.96500E+01 4.74020E+01 0.00000E+00
 -1       197 5.26500E+01 4.74020E+01 0.00000E+00
 -1       198 5.56500E+01 4.74020E+01 0.00000E+00
 -1       199 5.86500E+01 4.74020E+01 0.00000E+00
 -1       200 6.16500E+01 4.74020E+01 0.00000E+00
 -1       201 6.46500E+01 4.74020E+01 0.00000E+00
 -1       202 6.76500E+01 4.74020E+01 0.00000E+00
 -1       203 7.06500E+01 4.74020E+01 0.00000E+00
 -1       204 7.36500E+01 4.74020E+01 0.00000E+00
 -1       205 7.66500E+01 4.74020E+01 0.00000E+00
 -1       206 7.96500E+01 4.74020E+01 0.00000E+00
 -1       207 8.26500E+01 4.74020E+01 0.00000E+00
 -1       208 8.56500E+01 4.74020E+01 0.00000E+00
 -1       209 8.86500E+01 4.74020E+01 0.00000E+00
 -1       210 9.16500E+01 4.74020E+01 0.00000E+00
 -1       211 9.46500E+01 4.74020E+01 0.00000E+00
 -1       212 9.76500E+01 4.74020E+01 0.00000E+00
 -1       213 1.00650E+02 4.74020E+01 0.00000E+00
 -1       214 1.03650E+02 4.74020E+01 0.00000E+00
 -1       215 1.06650E+02 4.74020E+01 0.00000E+00
 -1       216 1.09650E+02 4.74020E+01 0.00000E+00
 -1       217 1.12650E+02 4.74020E+01 0.00000E+00
 -1       218 1.15650E+02 4.74020E+01 0.00000E+00
 -1       219 1.18650E+02 4.74020E+01 0.00000E+00
 -1       220 1.21650E+02 4.74020E+01 0.00000E+00
 -1       221 1.24650E+02 4.74020E+01 0.00000E+00
 -1       222 1.27650E+02 4.74020E+01 0.00000E+00
 -1       223 1.30650E+02 4.74020E+01 0.00000E+00
 -1       224 1.33650E+02 4.74020E+01 0.00000E+00
 -1       225 1.36650E+02 4.74020E+01 0.00000E+00
 -1       226 1.39650E+02 4.74020E+01 0.00000E+00
 -1       227 1.42650E+02 4.74020E+01 0.00000E+00
 -1       228 1.45650E+02 4.74020E+01 0.00000E+00
 -1       229 5.87400E+00 2.18750E+00 0.00000E+00
 -1       230 8.87400E+00 2.18750E+00 0.00000E+00
 -1       231 1.18740E+01 2.18750E+00 0.00000E+00
 -1       232 1.48740E+01 2.18750E+00 0.00000E+00
 -1       233 1.78740E+01 2.18750E+00 0.00000E+00
 -1       234 2.08740E+01 2.18750E+00 0.00000E+00
 -1       235 2.38740E+01 2.18750E+00 0.00000E+00
 -1       236 2.68740E+01 2.18750E+00 0.00000E+00
 -1       237 2.98740E+01 2.18750E+00 0.00000E+00
 -1       238 3.28740E+01 2.18750E+00 0.00000E+00
 -1       239 3.58740E+01 2.18750E+00 0.00000E+00
 -1       240 3.88740E+01 2.18750E+00 0.00000E+00
 -1       241 4.18740E+01 2.18750E+00 0.00000E+00
 -1       242 4.48740E+01 2.18750E+00 0.00000E+00
 -1       243 4.78740E+01 2.18750E+00 0.00000E+00
 -1       244 5.08740E+01 2.18750E+00 0.00000E+00
 -1       245 5.38740E+01 2.18750E+00 0.00000E+00
 -1       246 5.68740E+01 2.18750E+00 0.00000E+00
 -1       247 5.98740E+01 2.18750E+00 0.00000E+00
 -1       248 6.28740E+01 2.18750E+00 0.00000E+00
 -1       249 6.58740E+01 2.18750E+00 0.00000E+00
 -1       250 6.88740E+01 2.18750E+00 0.00000E+00
 -1       251 7.18740E+01 2.18750E+00 0.00000E+00
 -1       252 7.48740E+01 2.18750E+00 0.00000E+00
 -1       253 7.78740E+01 2.18750E+00 0.00000E+00
 -1       254 8.08740E+01 2.18750E+00 0.00000E+00
 -1       255 8.38740E+01 2.18750E+00 0.00000E+00
 -1       256 8.68740E+01 2.18750E+00 0.00000E+00
 -1       257 8.98740E+01 2.18750E+00 0.00000E+00
 -1       258 9.28740E+01 2.18750E+00 0.00000E+00
 -1       259 9.58740E+01 2.18750E+00 0.00000E+00
 -1       260 9.88740E+01 2.18750E+00 0.00000E+00
 -1       261 1.01874E+02 2.18750E+00 0.00000E+00
 -1       262 1.04874E+02 2.18750E+00 0.00000E+00
 -1       263 1.07874E+02 2.18750E+00 0.00000E+00
 -1       264 1.10874E+02 2.18750E+00 0.00000E+00
 -1       265 1.13874E+02 2.18750E+00 0.00000E+00
 -1       266 1.16874E+02 2.18750E+00 0.00000E+00
 -1       267 1.19874E+02 2.18750E+00 0.00000E+00
 -1       268 1.22874E+02 2.18750E+00 0.00000E+00
 -1       269 1.25874E+02 2.18750E+00 0.00000E+00
 -1       270 1.28874E+02 2.18750E+00 0.00000E+00
 -1       271 1.31874E+02 2.18750E+00 0.00000E+00
 -1       272 1.34874E+02 2.18750E+00 0.00000E+00
 -1       273 1.37724E+02 2.18750E+00 0.00000E+00
 -1       274 1.40724E+02 2.18750E+00 0.00000E+00
 -1       275 1.43724E+02 2.18750E+00 0.00000E+00
 -1       276 1.46724E+02 2.18750E+00 0.00000E+00
 -1       277 1.47402E+02 4.47500E+00 0.00000E+00
 -1       278 1.47402E+02 7.42500E+00 0.00000E+00
 -1       279 1.47402E+02 1.03750E+01 0.00000E+00
 -1       280 1.47402E+02 1.33250E+01 0.00000E+00
 -1       281 1.47402E+02 1.62750E+01 0.00000E+00
 -1       282 1.47402E+02 1.90250E+01 0.00000E+00
 -1       283 1.47402E+02 2.19750E+01 0.00000E+00
 -1       284 1.47402E+02 2.49250E+01 0.00000E+00
 -1       285 1.47402E+02 2.78750E+01 0.00000E+00
 -1       286 1.47402E+02 3.08250E+01 0.00000E+00
 -1       287 1.47402E+02 3.37750E+01 0.00000E+00
 -1       288 1.47402E+02 3.67250E+01 0.00000E+00
 -1       289 1.47402E+02 3.96750E+01 0.00000E+00
 -1       290 1.47402E+02 4.26250E+01 0.00000E+00
 -1       291 1.46526E+02 4.50135E+01 0.00000E+00
 -1       292 1.37504E+02 1.91149E+01 0.00000E+00
 -1       293 1.37243E+02 1.74494E+01 0.00000E+00
 -1       294 1.36555E+02 1.58640E+01 0.00000E+00
 -1       295 1.35521E+02 1.45445E+01 0.00000E+00
 -1       296 1.34396E+02 1.32744E+01 0.00000E+00
 -1       297 1.32892E+02 1.22815E+01 0.00000E+00
 -1       298 1.31125E+02 1.18625E+01 0.00000E+00
 -1       299 1.29374E+02 1.16730E+01 0.00000E+00
 -1       300 1.27679E+02 1.19296E+01 0.00000E+00
 -1       301 1.26028E+02 1.23778E+01 0.00000E+00
 -1       302 1.24617E+02 1.32701E+01 0.00000E+00
 -1       303 1.23412E+02 1.43243E+01 0.00000E+00
 -1       304 1.22417E+02 1.56225E+01 0.00000E+00
 -1       305 1.21689E+02 1.71191E+01 0.00000E+00
 -1       306 1.21280E+02 1.87065E+01 0.00000E+00
 -1       307 1.21203E+02 2.03493E+01 0.00000E+00
 -1       308 1.21380E+02 2.20336E+01 0.00000E+00
 -1       309 1.21971E+02 2.36084E+01 0.00000E+00
 -1       310 1.22879E+02 2.50384E+01 0.00000E+00
 -1       311 1.24071E+02 2.62666E+01 0.00000E+00
 -1       312 1.25419E+02 2.73722E+01 0.00000E+00
 -1       313 1.27166E+02 2.78825E+01 0.00000E+00
 -1       314 1.28964E+02 2.80907E+01 0.00000E+00
 -1       315 1.30710E+02 2.79915E+01 0.00000E+00
 -1       316 1.32502E+02 2.76510E+01 0.00000E+00
 -1       317 1.34016E+02 2.66525E+01 0.00000E+00
 -1       318 1.35321E+02 2.55275E+01 0.00000E+00
 -1       319 1.36362E+02 2.41588E+01 0.00000E+00
 -1       320 1.37171E+02 2.26244E+01 0.00000E+00
 -1       321 1.37650E+02 2.08669E+01 0.00000E+00
 -1       322 5.19600E+00 4.11500E+01 0.00000E+00
 -1       323 5.19600E+00 4.41000E+01 0.00000E+00
 -1       324 5.19600E+00 3.52750E+01 0.00000E+00
 -1       325 5.19600E+00 3.23250E+01 0.00000E+00
 -1       326 5.19600E+00 2.93750E+01 0.00000E+00
 -1       327 5.19600E+00 2.64250E+01 0.00000E+00
 -1       328 5.19600E+00 2.34750E+01 0.00000E+00
 -1       329 5.19600E+00 2.05250E+01 0.00000E+00
 -1       330 5.19600E+00 1.76250E+01 0.00000E+00
 -1       331 5.19600E+00 1.46750E+01 0.00000E+00
 -1       332 5.19600E+00 1.17250E+01 0.00000E+00
 -1       333 5.19600E+00 8.77500E+00 0.00000E+00
 -1       334 5.19600E+00 5.82500E+00 0.00000E+00
 -1       335 5.53500E+00 4.00625E+00 0.00000E+00
 -1       336 8.53500E+00 4.00625E+00 0.00000E+00
 -1       337 9.15000E+00 4.48040E+01 0.00000E+00
 -1       338 1.21500E+01 4.48040E+01 0.00000E+00
 -1       339 1.51500E+01 4.48040E+01 0.00000E+00
 -1       340 1.81500E+01 4.48040E+01 0.00000E+00
 -1       341 2.11500E+01 4.48040E+01 0.00000E+00
 -1       342 2.41500E+01 4.48040E+01 0.00000E+00
 -1       343 2.71500E+01 4.48040E+01 0.00000E+00
 -1       344 3.01500E+01 4.48040E+01 0.00000E+00
 -1       345 3.31500E+01 4.48040E+01 0.00000E+00
 -1       346 3.61500E+01 4.48040E+01 0.00000E+00
 -1       347 3.91500E+01 4.48040E+01 0.00000E+00
 -1       348 4.21500E+01 4.48040E+01 0.00000E+00
 -1       349 4.51500E+01 4.48040E+01 0.00000E+00
 -1       350 4.81500E+01 4.48040E+01 0.00000E+00
 -1       351 5.11500E+01 4.48040E+01 0.00000E+00
 -1       352 5.41500E+01 4.48040E+01 0.00000E+00
 -1       353 5.71500E+01 4.48040E+01 0.00000E+00
 -1       354 6.01500E+01 4.48040E+01 0.00000E+00
 -1       355 6.31500E+01 4.48040E+01 0.00000E+00
 -1       356 6.61500E+01 4.48040E+01 0.00000E+00
 -1       357 6.91500E+01 4.48040E+01 0.00000E+00
 -1       358 7.21500E+01 4.48040E+01 0.00000E+00
 -1       359 7.51500E+01 4.48040E+01 0.00000E+00
 -1       360 7.81500E+01 4.48040E+01 0.00000E+00
 -1       361 8.11500E+01 4.48040E+01 0.00000E+00
 -1       362 8.41500E+01 4.48040E+01 0.00000E+00
 -1       363 8.71500E+01 4.48040E+01 0.00000E+00
 -1       364 9.01500E+01 4.48040E+01 0.00000E+00
 -1       365 9.31500E+01 4.48040E+01 0.00000E+00
 -1       366 9.61500E+01 4.48040E+01 0.00000E+00
 -1       367 9.91500E+01 4.48040E+01 0.00000E+00
 -1       368 1.02150E+02 4.48040E+01 0.00000E+00
 -1       369 1.05150E+02 4.48040E+01 0.00000E+00
 -1       370 1.08150E+02 4.48040E+01 0.00000E+00
 -1       371 1.11150E+02 4.48040E+01 0.00000E+00
 -1       372 1.14150E+02 4.48040E+01 0.00000E+00
 -1       373 1.17150E+02 4.48040E+01 0.00000E+00
 -1       374 1.20150E+02 4.48040E+01 0.00000E+00
 -1       375 1.23150E+02 4.48040E+01 0.00000E+00
 -1       376 1.26150E+02 4.48040E+01 0.00000E+00
 -1       377 1.29150E+02 4.48040E+01 0.00000E+00
 -1       378 1.32150E+02 4.48040E+01 0.00000E+00
 -1       379 1.35150E+02 4.48040E+01 0.00000E+00
 -1       380 1.38150E+02 4.48040E+01 0.00000E+00
 -1       381 1.41150E+02 4.48040E+01 0.00000E+00
 -1       382 1.43838E+02 4.49087E+01 0.00000E+00
 -1       383 1.15350E+01 4.00625E+00 0.00000E+00
 -1       384 1.45350E+01 4.00625E+00 0.00000E+00
 -1       385 1.75350E+01 4.00625E+00 0.00000E+00
 -1       386 2.05350E+01 4.00625E+00 0.00000E+00
 -1       387 2.35350E+01 4.00625E+00 0.00000E+00
 -1       388 2.65350E+01 4.00625E+00 0.00000E+00
 -1       389 2.95350E+01 4.00625E+00 0.00000E+00
 -1       390 3.25350E+01 4.00625E+00 0.00000E+00
 -1       391 3.55350E+01 4.00625E+00 0.00000E+00
 -1       392 3.85350E+01 4.00625E+00 0.00000E+00
 -1       393 4.15350E+01 4.00625E+00 0.00000E+00
 -1       394 4.45350E+01 4.00625E+00 0.00000E+00
 -1       395 4.75350E+01 4.00625E+00 0.00000E+00
 -1       396 5.05350E+01 4.00625E+00 0.00000E+00
 -1       397 5.35350E+01 4.00625E+00 0.00000E+00
 -1       398 5.65350E+01 4.00625E+00 0.00000E+00
 -1       399 5.95350E+01 4.00625E+00 0.00000E+00
 -1       400 6.25350E+01 4.00625E+00 0.00000E+00
 -1       401 6.55350E+01 4.00625E+00 0.00000E+00
 -1       402 6.85350E+01 4.00625E+00 0.00000E+00
 -1       403 7.15350E+01 4.00625E+00 0.00000E+00
 -1       404 7.45350E+01 4.00625E+00 0.00000E+00
 -1       405 7.75350E+01 4.00625E+00 0.00000E+00
 -1       406 8.05350E+01 4.00625E+00 0.00000E+00
 -1       407 8.35350E+01 4.00625E+00 0.00000E+00
 -1       408 8.65350E+01 4.00625E+00 0.00000E+00
 -1       409 8.95350E+01 4.00625E+00 0.00000E+00
 -1       410 9.25350E+01 4.00625E+00 0.00000E+00
 -1       411 9.55350E+01 4.00625E+00 0.00000E+00
 -1       412 9.85350E+01 4.00625E+00 0.00000E+00
 -1       413 1.01535E+02 4.00625E+00 0.00000E+00
 -1       414 1.04535E+02 4.00625E+00 0.00000E+00
 -1       415 1.07535E+02 4.00625E+00 0.00000E+00
 -1       416 1.10535E+02 4.00625E+00 0.00000E+00
 -1       417 1.13535E+02 4.00625E+00 0.00000E+00
 -1       418 1.16535E+02 4.00625E+00 0.00000E+00
 -1       419 1.19535E+02 4.00625E+00 0.00000E+00
 -1       420 1.22535E+02 4.00625E+00 0.00000E+00
 -1       421 1.25535E+02 4.00625E+00 0.00000E+00
 -1       422 1.28535E+02 4.00625E+00 0.00000E+00
 -1       423 1.31535E+02 4.00625E+00 0.00000E+00
 -1       424 1.34535E+02 4.00625E+00 0.00000E+00
 -1       425 1.37385E+02 4.00625E+00 0.00000E+00
 -1       426 1.40385E+02 4.00625E+00 0.00000E+00
 -1       427 1.43385E+02 4.00625E+00 0.00000E+00
 -1       428 1.45393E+02 4.24062E+00 0.00000E+00
 -1       429 1.44804E+02 1.18500E+01 0.00000E+00
 -1       430 1.44804E+02 8.90000E+00 0.00000E+00
 -1       431 1.45099E+02 6.57031E+00 0.00000E+00
 -1       432 1.44804E+02 1.48000E+01 0.00000E+00
 -1       433 1.44804E+02 1.75500E+01 0.00000E+00
 -1       434 1.44804E+02 2.05000E+01 0.00000E+00
 -1       435 1.44804E+02 2.34500E+01 0.00000E+00
 -1       436 1.44804E+02 2.64000E+01 0.00000E+00
 -1       437 1.44804E+02 2.93500E+01 0.00000E+00
 -1       438 1.44804E+02 3.23000E+01 0.00000E+00
 -1       439 1.44804E+02 3.52500E+01 0.00000E+00
 -1       440 1.44804E+02 3.82000E+01 0.00000E+00
 -1       441 1.44804E+02 4.11500E+01 0.00000E+00
 -1       442 1.38242E+02 1.60742E+01 0.00000E+00
 -1       443 1.39202E+02 1.98556E+01 0.00000E+00
 -1       444 1.38941E+02 1.81901E+01 0.00000E+00
 -1       445 1.37124E+02 1.43530E+01 0.00000E+00
 -1       446 1.35999E+02 1.30829E+01 0.00000E+00
 -1       447 5.19600E+00 3.82125E+01 0.00000E+00
 -1       448 1.32308E+02 1.08108E+01 0.00000E+00
 -1       449 1.30407E+02 1.03125E+01 0.00000E+00
 -1       450 1.28333E+02 1.05197E+01 0.00000E+00
 -1       451 1.26404E+02 1.04985E+01 0.00000E+00
 -1       452 1.24540E+02 1.15869E+01 0.00000E+00
 -1       453 1.23161E+02 1.28214E+01 0.00000E+00
 -1       454 1.21686E+02 1.40319E+01 0.00000E+00
 -1       455 1.20812E+02 1.57677E+01 0.00000E+00
 -1       456 1.20230E+02 1.75892E+01 0.00000E+00
 -1       457 1.19779E+02 1.94588E+01 0.00000E+00
 -1       458 1.19752E+02 2.13539E+01 0.00000E+00
 -1       459 1.20462E+02 2.32761E+01 0.00000E+00
 -1       460 1.21119E+02 2.51531E+01 0.00000E+00
 -1       461 1.22484E+02 2.66134E+01 0.00000E+00
 -1       462 1.23870E+02 2.78866E+01 0.00000E+00
 -1       463 1.25882E+02 2.90323E+01 0.00000E+00
 -1       464 1.27877E+02 2.96071E+01 0.00000E+00
 -1       465 1.29925E+02 2.95861E+01 0.00000E+00
 -1       466 1.31863E+02 2.91770E+01 0.00000E+00
 -1       467 1.34111E+02 2.84436E+01 0.00000E+00
 -1       468 1.35570E+02 2.71352E+01 0.00000E+00
 -1       469 1.36940E+02 2.56785E+01 0.00000E+00
 -1       470 1.38135E+02 2.41130E+01 0.00000E+00
 -1       471 1.38742E+02 2.21084E+01 0.00000E+00
 -1       472 1.34358E+02 1.16962E+01 0.00000E+00
 -1       473 1.00350E+01 6.60425E+00 0.00000E+00
 -1       474 7.79400E+00 3.08500E+01 0.00000E+00
 -1       475 7.79400E+00 3.38000E+01 0.00000E+00
 -1       476 7.79400E+00 2.49500E+01 0.00000E+00
 -1       477 7.79400E+00 2.20000E+01 0.00000E+00
 -1       478 7.79400E+00 1.91000E+01 0.00000E+00
 -1       479 7.79400E+00 1.61500E+01 0.00000E+00
 -1       480 7.79400E+00 1.32000E+01 0.00000E+00
 -1       481 7.79400E+00 1.02500E+01 0.00000E+00
 -1       482 1.30350E+01 6.60425E+00 0.00000E+00
 -1       483 1.06500E+01 4.22060E+01 0.00000E+00
 -1       484 1.27387E+02 8.79409E+00 0.00000E+00
 -1       485 1.36500E+01 4.22060E+01 0.00000E+00
 -1       486 1.66500E+01 4.22060E+01 0.00000E+00
 -1       487 1.96500E+01 4.22060E+01 0.00000E+00
 -1       488 2.26500E+01 4.22060E+01 0.00000E+00
 -1       489 2.56500E+01 4.22060E+01 0.00000E+00
 -1       490 2.86500E+01 4.22060E+01 0.00000E+00
 -1       491 3.16500E+01 4.22060E+01 0.00000E+00
 -1       492 3.46500E+01 4.22060E+01 0.00000E+00
 -1       493 3.76500E+01 4.22060E+01 0.00000E+00
 -1       494 4.06500E+01 4.22060E+01 0.00000E+00
 -1       495 4.36500E+01 4.22060E+01 0.00000E+00
 -1       496 4.66500E+01 4.22060E+01 0.00000E+00
 -1       497 4.96500E+01 4.22060E+01 0.00000E+00
 -1       498 5.26500E+01 4.22060E+01 0.00000E+00
 -1       499 5.56500E+01 4.22060E+01 0.00000E+00
 -1       500 5.86500E+01 4.22060E+01 0.00000E+00
 -1       501 6.16500E+01 4.22060E+01 0.00000E+00
 -1       502 6.46500E+01 4.22060E+01 0.00000E+00
 -1       503 6.76500E+01 4.22060E+01 0.00000E+00
 -1       504 7.06500E+01 4.22060E+01 0.00000E+00
 -1       505 7.36500E+01 4.22060E+01 0.00000E+00
 -1       506 7.66500E+01 4.22060E+01 0.00000E+00
 -1       507 7.96500E+01 4.22060E+01 0.00000E+00
 -1       508 8.26500E+01 4.22060E+01 0.00000E+00
 -1       509 8.56500E+01 4.22060E+01 0.00000E+00
 -1       510 8.86500E+01 4.22060E+01 0.00000E+00
 -1       511 9.16500E+01 4.22060E+01 0.00000E+00
 -1       512 9.46500E+01 4.22060E+01 0.00000E+00
 -1       513 9.76500E+01 4.22060E+01 0.00000E+00
 -1       514 1.00650E+02 4.22060E+01 0.00000E+00
 -1       515 1.03650E+02 4.22060E+01 0.00000E+00
 -1       516 1.06650E+02 4.22060E+01 0.00000E+00
 -1       517 1.09650E+02 4.22060E+01 0.00000E+00
 -1       518 1.12650E+02 4.22060E+01 0.00000E+00
 -1       519 1.15650E+02 4.22060E+01 0.00000E+00
 -1       520 1.18650E+02 4.22060E+01 0.00000E+00
 -1       521 1.21650E+02 4.22060E+01 0.00000E+00
 -1       522 1.24650E+02 4.22060E+01 0.00000E+00
 -1       523 1.27650E+02 4.22060E+01 0.00000E+00
 -1       524 1.30650E+02 4.22060E+01 0.00000E+00
 -1       525 1.33650E+02 4.22060E+01 0.00000E+00
 -1       526 1.36650E+02 4.22060E+01 0.00000E+00
 -1       527 1.39650E+02 4.22060E+01 0.00000E+00
 -1       528 1.90350E+01 6.60425E+00 0.00000E+00
 -1       529 2.20350E+01 6.60425E+00 0.00000E+00
 -1       530 2.50350E+01 6.60425E+00 0.00000E+00
 -1       531 2.80350E+01 6.60425E+00 0.00000E+00
 -1       532 3.10350E+01 6.60425E+00 0.00000E+00
 -1       533 3.40350E+01 6.60425E+00 0.00000E+00
 -1       534 3.70350E+01 6.60425E+00 0.00000E+00
 -1       535 4.00350E+01 6.60425E+00 0.00000E+00
 -1       536 4.30350E+01 6.60425E+00 0.00000E+00
 -1       537 4.60350E+01 6.60425E+00 0.00000E+00
 -1       538 4.90350E+01 6.60425E+00 0.00000E+00
 -1       539 5.20350E+01 6.60425E+00 0.00000E+00
 -1       540 5.50350E+01 6.60425E+00 0.00000E+00
 -1       541 5.80350E+01 6.60425E+00 0.00000E+00
 -1       542 6.10350E+01 6.60425E+00 0.00000E+00
 -1       543 6.40350E+01 6.60425E+00 0.00000E+00
 -1       544 6.70350E+01 6.60425E+00 0.00000E+00
 -1       545 7.00350E+01 6.60425E+00 0.00000E+00
 -1       546 7.30350E+01 6.60425E+00 0.00000E+00
 -1       547 7.60350E+01 6.60425E+00 0.00000E+00
 -1       548 7.90350E+01 6.60425E+00 0.00000E+00
 -1       549 8.20350E+01 6.60425E+00 0.00000E+00
 -1       550 8.50350E+01 6.60425E+00 0.00000E+00
 -1       551 8.80350E+01 6.60425E+00 0.00000E+00
 -1       552 9.10350E+01 6.60425E+00 0.00000E+00
 -1       553 9.40350E+01 6.60425E+00 0.00000E+00
 -1       554 9.70350E+01 6.60425E+00 0.00000E+00
 -1       555 1.00035E+02 6.60425E+00 0.00000E+00
 -1       556 1.03035E+02 6.60425E+00 0.00000E+00
 -1       557 1.06035E+02 6.60425E+00 0.00000E+00
 -1       558 1.09035E+02 6.60425E+00 0.00000E+00
 -1       559 1.12035E+02 6.60425E+00 0.00000E+00
 -1       560 1.15035E+02 6.60425E+00 0.00000E+00
 -1       561 1.18035E+02 6.60425E+00 0.00000E+00
 -1       562 1.21035E+02 6.60425E+00 0.00000E+00
 -1       563 1.24035E+02 6.60425E+00 0.00000E+00
 -1       564 1.30035E+02 6.39164E+00 0.00000E+00
 -1       565 1.33035E+02 6.39164E+00 0.00000E+00
 -1       566 1.35885E+02 6.39164E+00 0.00000E+00
 -1       567 1.38885E+02 6.39164E+00 0.00000E+00
 -1       568 1.41885E+02 6.39164E+00 0.00000E+00
 -1       569 1.42419E+02 1.61750E+01 0.00000E+00
 -1       570 1.42419E+02 1.91250E+01 0.00000E+00
 -1       571 1.42206E+02 1.03750E+01 0.00000E+00
 -1       572 1.42206E+02 1.33250E+01 0.00000E+00
 -1       573 1.42419E+02 2.20750E+01 0.00000E+00
 -1       574 1.42419E+02 2.50250E+01 0.00000E+00
 -1       575 1.42419E+02 2.79750E+01 0.00000E+00
 -1       576 1.42419E+02 3.09250E+01 0.00000E+00
 -1       577 1.42419E+02 3.38750E+01 0.00000E+00
 -1       578 1.42419E+02 3.68250E+01 0.00000E+00
 -1       579 1.42419E+02 3.97750E+01 0.00000E+00
 -1       580 1.39403E+02 1.40970E+01 0.00000E+00
 -1       581 1.40816E+02 2.13593E+01 0.00000E+00
 -1       582 1.60350E+01 6.60425E+00 0.00000E+00
 -1       583 1.40518E+02 1.87963E+01 0.00000E+00
 -1       584 1.38278E+02 1.28269E+01 0.00000E+00
 -1       585 7.92300E+00 4.16780E+01 0.00000E+00
 -1       586 1.40210E+02 2.33640E+01 0.00000E+00
 -1       587 7.79400E+00 2.79000E+01 0.00000E+00
 -1       588 1.29462E+02 8.58688E+00 0.00000E+00
 -1       589 1.33913E+02 9.90965E+00 0.00000E+00
 -1       590 1.31792E+02 8.90261E+00 0.00000E+00
 -1       591 1.24607E+02 9.56162E+00 0.00000E+00
 -1       592 1.22707E+02 1.09263E+01 0.00000E+00
 -1       593 1.21231E+02 1.21369E+01 0.00000E+00
 -1       594 1.19792E+02 1.41661E+01 0.00000E+00
 -1       595 1.19126E+02 1.62329E+01 0.00000E+00
 -1       596 1.18500E+02 1.81616E+01 0.00000E+00
 -1       597 1.18051E+02 2.03821E+01 0.00000E+00
 -1       598 1.18734E+02 2.28219E+01 0.00000E+00
 -1       599 1.19329E+02 2.47256E+01 0.00000E+00
 -1       600 1.20671E+02 2.69403E+01 0.00000E+00
 -1       601 1.22130E+02 2.83895E+01 0.00000E+00
 -1       602 1.23861E+02 3.02411E+01 0.00000E+00
 -1       603 1.26359E+02 3.11288E+01 0.00000E+00
 -1       604 1.28922E+02 3.16468E+01 0.00000E+00
 -1       605 1.31214E+02 3.08957E+01 0.00000E+00
 -1       606 1.33493E+02 3.03612E+01 0.00000E+00
 -1       607 1.36210E+02 2.93155E+01 0.00000E+00
 -1       608 1.37580E+02 2.78589E+01 0.00000E+00
 -1       609 1.38768E+02 2.58350E+01 0.00000E+00
 -1       610 1.40220E+02 1.65938E+01 0.00000E+00
 -1       611 7.61550E+00 6.21462E+00 0.00000E+00
 -1       612 1.36177E+02 1.12075E+01 0.00000E+00
 -1       613 7.79400E+00 3.67375E+01 0.00000E+00
 -1       614 1.41784E+02 4.22895E+01 0.00000E+00
 -1       615 7.85850E+00 3.92077E+01 0.00000E+00
 -1       616 1.03920E+01 2.05500E+01 0.00000E+00
 -1       617 1.03920E+01 2.35000E+01 0.00000E+00
 -1       618 1.03920E+01 1.46750E+01 0.00000E+00
 -1       619 1.03920E+01 1.17250E+01 0.00000E+00
 -1       620 1.15350E+01 9.20225E+00 0.00000E+00
 -1       621 1.35648E+02 3.19081E+01 0.00000E+00
 -1       622 1.51500E+01 3.96080E+01 0.00000E+00
 -1       623 1.81500E+01 3.96080E+01 0.00000E+00
 -1       624 2.11500E+01 3.96080E+01 0.00000E+00
 -1       625 2.41500E+01 3.96080E+01 0.00000E+00
 -1       626 2.71500E+01 3.96080E+01 0.00000E+00
 -1       627 3.01500E+01 3.96080E+01 0.00000E+00
 -1       628 3.31500E+01 3.96080E+01 0.00000E+00
 -1       629 3.61500E+01 3.96080E+01 0.00000E+00
 -1       630 3.91500E+01 3.96080E+01 0.00000E+00
 -1       631 4.21500E+01 3.96080E+01 0.00000E+00
 -1       632 4.51500E+01 3.96080E+01 0.00000E+00
 -1       633 4.81500E+01 3.96080E+01 0.00000E+00
 -1       634 5.11500E+01 3.96080E+01 0.00000E+00
 -1       635 5.41500E+01 3.96080E+01 0.00000E+00
 -1       636 5.71500E+01 3.96080E+01 0.00000E+00
 -1       637 6.01500E+01 3.96080E+01 0.00000E+00
 -1       638 6.31500E+01 3.96080E+01 0.00000E+00
 -1       639 6.61500E+01 3.96080E+01 0.00000E+00
 -1       640 6.91500E+01 3.96080E+01 0.00000E+00
 -1       641 7.21500E+01 3.96080E+01 0.00000E+00
 -1       642 7.51500E+01 3.96080E+01 0.00000E+00
 -1       643 7.81500E+01 3.96080E+01 0.00000E+00
 -1       644 8.11500E+01 3.96080E+01 0.00000E+00
 -1       645 8.41500E+01 3.96080E+01 0.00000E+00
 -1       646 8.71500E+01 3.96080E+01 0.00000E+00
 -1       647 9.01500E+01 3.96080E+01 0.00000E+00
 -1       648 9.31500E+01 3.96080E+01 0.00000E+00
 -1       649 9.61500E+01 3.96080E+01 0.00000E+00
 -1       650 9.91500E+01 3.96080E+01 0.00000E+00
 -1       651 1.02150E+02 3.96080E+01 0.00000E+00
 -1       652 1.05150E+02 3.96080E+01 0.00000E+00
 -1       653 1.08150E+02 3.96080E+01 0.00000E+00
 -1       654 1.11150E+02 3.96080E+01 0.00000E+00
 -1       655 1.14150E+02 3.96080E+01 0.00000E+00
 -1       656 1.17150E+02 3.96080E+01 0.00000E+00
 -1       657 1.20150E+02 3.96080E+01 0.00000E+00
 -1       658 1.23150E+02 3.96080E+01 0.00000E+00
 -1       659 1.26150E+02 3.96080E+01 0.00000E+00
 -1       660 1.29150E+02 3.96080E+01 0.00000E+00
 -1       661 1.32150E+02 3.96080E+01 0.00000E+00
 -1       662 1.35150E+02 3.96080E+01 0.00000E+00
 -1       663 1.38150E+02 3.96080E+01 0.00000E+00
 -1       664 2.35350E+01 9.20225E+00 0.00000E+00
 -1       665 1.32822E+02 3.26246E+01 0.00000E+00
 -1       666 2.05350E+01 9.20225E+00 0.00000E+00
 -1       667 2.95350E+01 9.20225E+00 0.00000E+00
 -1       668 3.25350E+01 9.20225E+00 0.00000E+00
 -1       669 3.55350E+01 9.20225E+00 0.00000E+00
 -1       670 3.85350E+01 9.20225E+00 0.00000E+00
 -1       671 4.15350E+01 9.20225E+00 0.00000E+00
 -1       672 4.45350E+01 9.20225E+00 0.00000E+00
 -1       673 4.75350E+01 9.20225E+00 0.00000E+00
 -1       674 5.05350E+01 9.20225E+00 0.00000E+00
 -1       675 5.35350E+01 9.20225E+00 0.00000E+00
 -1       676 5.65350E+01 9.20225E+00 0.00000E+00
 -1       677 5.95350E+01 9.20225E+00 0.00000E+00
 -1       678 6.25350E+01 9.20225E+00 0.00000E+00
 -1       679 6.55350E+01 9.20225E+00 0.00000E+00
 -1       680 6.85350E+01 9.20225E+00 0.00000E+00
 -1       681 7.15350E+01 9.20225E+00 0.00000E+00
 -1       682 7.45350E+01 9.20225E+00 0.00000E+00
 -1       683 7.75350E+01 9.20225E+00 0.00000E+00
 -1       684 8.05350E+01 9.20225E+00 0.00000E+00
 -1       685 8.35350E+01 9.20225E+00 0.00000E+00
 -1       686 8.65350E+01 9.20225E+00 0.00000E+00
 -1       687 8.95350E+01 9.20225E+00 0.00000E+00
 -1       688 9.25350E+01 9.20225E+00 0.00000E+00
 -1       689 9.55350E+01 9.20225E+00 0.00000E+00
 -1       690 9.85350E+01 9.20225E+00 0.00000E+00
 -1       691 1.01535E+02 9.20225E+00 0.00000E+00
 -1       692 1.04535E+02 9.20225E+00 0.00000E+00
 -1       693 1.07535E+02 9.20225E+00 0.00000E+00
 -1       694 1.10535E+02 9.20225E+00 0.00000E+00
 -1       695 1.13535E+02 9.20225E+00 0.00000E+00
 -1       696 1.16535E+02 9.20225E+00 0.00000E+00
 -1       697 1.19535E+02 9.20225E+00 0.00000E+00
 -1       698 1.40201E+02 2.65000E+01 0.00000E+00
 -1       699 1.40033E+02 2.94500E+01 0.00000E+00
 -1       700 1.40033E+02 3.24000E+01 0.00000E+00
 -1       701 1.40033E+02 3.53500E+01 0.00000E+00
 -1       702 1.05855E+01 3.97357E+01 0.00000E+00
 -1       703 1.38275E+02 1.06589E+01 0.00000E+00
 -1       704 1.75350E+01 9.20225E+00 0.00000E+00
 -1       705 1.37385E+02 8.94461E+00 0.00000E+00
 -1       706 2.65350E+01 9.20225E+00 0.00000E+00
 -1       707 1.28678E+01 3.96719E+01 0.00000E+00
 -1       708 1.03920E+01 1.76125E+01 0.00000E+00
 -1       709 1.03920E+01 3.23250E+01 0.00000E+00
 -1       710 1.45350E+01 9.20225E+00 0.00000E+00
 -1       711 1.17827E+02 1.46739E+01 0.00000E+00
 -1       712 1.27268E+02 3.32332E+01 0.00000E+00
 -1       713 1.40284E+02 3.96915E+01 0.00000E+00
 -1       714 1.18681E+02 1.19381E+01 0.00000E+00
 -1       715 1.17200E+02 1.66026E+01 0.00000E+00
 -1       716 1.16676E+02 1.89485E+01 0.00000E+00
 -1       717 1.16579E+02 2.21096E+01 0.00000E+00
 -1       718 1.17395E+02 2.42858E+01 0.00000E+00
 -1       719 1.18247E+02 2.68953E+01 0.00000E+00
 -1       720 1.20192E+02 2.88817E+01 0.00000E+00
 -1       721 1.21743E+02 3.04867E+01 0.00000E+00
 -1       722 1.24423E+02 3.26168E+01 0.00000E+00
 -1       723 1.37841E+02 3.06790E+01 0.00000E+00
 -1       724 1.30530E+02 3.33756E+01 0.00000E+00
 -1       725 1.35898E+02 9.07051E+00 0.00000E+00
 -1       726 1.21871E+02 8.76529E+00 0.00000E+00
 -1       727 1.40242E+02 1.16009E+01 0.00000E+00
 -1       728 1.03920E+01 3.52625E+01 0.00000E+00
 -1       729 1.03920E+01 2.64500E+01 0.00000E+00
 -1       730 1.03920E+01 2.93875E+01 0.00000E+00
 -1       731 1.34101E+02 8.48219E+00 0.00000E+00
 -1       732 1.40385E+02 8.77704E+00 0.00000E+00
 -1       733 1.22305E+02 3.28624E+01 0.00000E+00
 -1       734 1.15205E+02 2.06760E+01 0.00000E+00
 -1       735 1.29900E+01 1.32000E+01 0.00000E+00
 -1       736 1.32367E+02 3.51076E+01 0.00000E+00
 -1       737 1.96500E+01 3.70100E+01 0.00000E+00
 -1       738 2.26500E+01 3.70100E+01 0.00000E+00
 -1       739 2.56500E+01 3.70100E+01 0.00000E+00
 -1       740 2.86500E+01 3.70100E+01 0.00000E+00
 -1       741 3.16500E+01 3.70100E+01 0.00000E+00
 -1       742 3.46500E+01 3.70100E+01 0.00000E+00
 -1       743 3.76500E+01 3.70100E+01 0.00000E+00
 -1       744 4.06500E+01 3.70100E+01 0.00000E+00
 -1       745 4.36500E+01 3.70100E+01 0.00000E+00
 -1       746 4.66500E+01 3.70100E+01 0.00000E+00
 -1       747 4.96500E+01 3.70100E+01 0.00000E+00
 -1       748 5.26500E+01 3.70100E+01 0.00000E+00
 -1       749 5.56500E+01 3.70100E+01 0.00000E+00
 -1       750 5.86500E+01 3.70100E+01 0.00000E+00
 -1       751 6.16500E+01 3.70100E+01 0.00000E+00
 -1       752 6.46500E+01 3.70100E+01 0.00000E+00
 -1       753 6.76500E+01 3.70100E+01 0.00000E+00
 -1       754 7.06500E+01 3.70100E+01 0.00000E+00
 -1       755 7.36500E+01 3.70100E+01 0.00000E+00
 -1       756 7.66500E+01 3.70100E+01 0.00000E+00
 -1       757 7.96500E+01 3.70100E+01 0.00000E+00
 -1       758 8.26500E+01 3.70100E+01 0.00000E+00
 -1       759 8.56500E+01 3.70100E+01 0.00000E+00
 -1       760 8.86500E+01 3.70100E+01 0.00000E+00
 -1       761 9.16500E+01 3.70100E+01 0.00000E+00
 -1       762 9.46500E+01 3.70100E+01 0.00000E+00
 -1       763 9.76500E+01 3.70100E+01 0.00000E+00
 -1       764 1.00650E+02 3.70100E+01 0.00000E+00
 -1       765 1.03650E+02 3.70100E+01 0.00000E+00
 -1       766 1.06650E+02 3.70100E+01 0.00000E+00
 -1       767 1.09650E+02 3.70100E+01 0.00000E+00
 -1       768 1.12650E+02 3.70100E+01 0.00000E+00
 -1       769 1.15650E+02 3.70100E+01 0.00000E+00
 -1       770 1.18650E+02 3.70100E+01 0.00000E+00
 -1       771 1.21650E+02 3.70100E+01 0.00000E+00
 -1       772 1.24650E+02 3.70100E+01 0.00000E+00
 -1       773 1.27650E+02 3.70100E+01 0.00000E+00
 -1       774 1.33650E+02 3.70100E+01 0.00000E+00
 -1       775 1.36650E+02 3.70100E+01 0.00000E+00
 -1       776 2.20350E+01 1.18003E+01 0.00000E+00
 -1       777 3.40350E+01 1.18003E+01 0.00000E+00
 -1       778 3.10350E+01 1.18003E+01 0.00000E+00
 -1       779 4.00350E+01 1.18003E+01 0.00000E+00
 -1       780 4.30350E+01 1.18003E+01 0.00000E+00
 -1       781 4.60350E+01 1.18003E+01 0.00000E+00
 -1       782 4.90350E+01 1.18003E+01 0.00000E+00
 -1       783 5.20350E+01 1.18003E+01 0.00000E+00
 -1       784 5.50350E+01 1.18003E+01 0.00000E+00
 -1       785 5.80350E+01 1.18003E+01 0.00000E+00
 -1       786 6.10350E+01 1.18003E+01 0.00000E+00
 -1       787 6.40350E+01 1.18003E+01 0.00000E+00
 -1       788 6.70350E+01 1.18003E+01 0.00000E+00
 -1       789 7.00350E+01 1.18003E+01 0.00000E+00
 -1       790 7.30350E+01 1.18003E+01 0.00000E+00
 -1       791 7.60350E+01 1.18003E+01 0.00000E+00
 -1       792 7.90350E+01 1.18003E+01 0.00000E+00
 -1       793 8.20350E+01 1.18003E+01 0.00000E+00
 -1       794 8.50350E+01 1.18003E+01 0.00000E+00
 -1       795 8.80350E+01 1.18003E+01 0.00000E+00
 -1       796 9.10350E+01 1.18003E+01 0.00000E+00
 -1       797 9.40350E+01 1.18003E+01 0.00000E+00
 -1       798 9.70350E+01 1.18003E+01 0.00000E+00
 -1       799 1.00035E+02 1.18003E+01 0.00000E+00
 -1       800 1.03035E+02 1.18003E+01 0.00000E+00
 -1       801 1.06035E+02 1.18003E+01 0.00000E+00
 -1       802 1.09035E+02 1.18003E+01 0.00000E+00
 -1       803 1.12035E+02 1.18003E+01 0.00000E+00
 -1       804 1.15035E+02 1.18003E+01 0.00000E+00
 -1       805 1.35193E+02 3.43911E+01 0.00000E+00
 -1       806 1.15381E+02 2.37995E+01 0.00000E+00
 -1       807 1.25376E+02 3.50925E+01 0.00000E+00
 -1       808 1.90350E+01 1.18003E+01 0.00000E+00
 -1       809 1.04888E+01 3.74991E+01 0.00000E+00
 -1       810 1.15264E+02 1.74019E+01 0.00000E+00
 -1       811 1.37435E+02 3.38750E+01 0.00000E+00
 -1       812 1.15723E+02 1.50566E+01 0.00000E+00
 -1       813 3.70350E+01 1.18003E+01 0.00000E+00
 -1       814 1.66500E+01 3.70100E+01 0.00000E+00
 -1       815 1.37625E+01 1.12011E+01 0.00000E+00
 -1       816 1.29900E+01 2.20250E+01 0.00000E+00
 -1       817 1.28802E+02 3.55201E+01 0.00000E+00
 -1       818 1.16190E+02 2.61229E+01 0.00000E+00
 -1       819 1.17994E+02 2.90885E+01 0.00000E+00
 -1       820 1.19614E+02 3.09925E+01 0.00000E+00
 -1       821 1.29900E+01 2.49750E+01 0.00000E+00
 -1       822 1.29900E+01 1.61375E+01 0.00000E+00
 -1       823 1.43678E+01 3.70739E+01 0.00000E+00
 -1       824 1.30650E+02 3.70100E+01 0.00000E+00
 -1       825 2.50350E+01 1.18003E+01 0.00000E+00
 -1       826 2.80350E+01 1.18003E+01 0.00000E+00
 -1       827 1.29900E+01 3.08563E+01 0.00000E+00
 -1       828 1.29900E+01 3.37938E+01 0.00000E+00
 -1       829 1.29900E+01 1.90812E+01 0.00000E+00
 -1       830 1.13793E+02 1.91294E+01 0.00000E+00
 -1       831 1.63988E+01 1.15007E+01 0.00000E+00
 -1       832 1.14007E+02 2.23658E+01 0.00000E+00
 -1       833 1.15938E+02 2.83161E+01 0.00000E+00
 -1       834 1.12723E+02 1.50566E+01 0.00000E+00
 -1       835 1.29900E+01 2.79188E+01 0.00000E+00
 -1       836 2.41500E+01 3.44120E+01 0.00000E+00
 -1       837 2.71500E+01 3.44120E+01 0.00000E+00
 -1       838 3.01500E+01 3.44120E+01 0.00000E+00
 -1       839 3.31500E+01 3.44120E+01 0.00000E+00
 -1       840 3.61500E+01 3.44120E+01 0.00000E+00
 -1       841 3.91500E+01 3.44120E+01 0.00000E+00
 -1       842 4.21500E+01 3.44120E+01 0.00000E+00
 -1       843 4.51500E+01 3.44120E+01 0.00000E+00
 -1       844 4.81500E+01 3.44120E+01 0.00000E+00
 -1       845 5.11500E+01 3.44120E+01 0.00000E+00
 -1       846 5.41500E+01 3.44120E+01 0.00000E+00
 -1       847 5.71500E+01 3.44120E+01 0.00000E+00
 -1       848 6.01500E+01 3.44120E+01 0.00000E+00
 -1       849 6.31500E+01 3.44120E+01 0.00000E+00
 -1       850 6.61500E+01 3.44120E+01 0.00000E+00
 -1       851 6.91500E+01 3.44120E+01 0.00000E+00
 -1       852 7.21500E+01 3.44120E+01 0.00000E+00
 -1       853 7.51500E+01 3.44120E+01 0.00000E+00
 -1       854 7.81500E+01 3.44120E+01 0.00000E+00
 -1       855 8.11500E+01 3.44120E+01 0.00000E+00
 -1       856 8.41500E+01 3.44120E+01 0.00000E+00
 -1       857 8.71500E+01 3.44120E+01 0.00000E+00
 -1       858 9.01500E+01 3.44120E+01 0.00000E+00
 -1       859 9.31500E+01 3.44120E+01 0.00000E+00
 -1       860 9.61500E+01 3.44120E+01 0.00000E+00
 -1       861 9.91500E+01 3.44120E+01 0.00000E+00
 -1       862 1.02150E+02 3.44120E+01 0.00000E+00
 -1       863 1.05150E+02 3.44120E+01 0.00000E+00
 -1       864 1.08150E+02 3.44120E+01 0.00000E+00
 -1       865 1.11150E+02 3.44120E+01 0.00000E+00
 -1       866 1.14150E+02 3.44120E+01 0.00000E+00
 -1       867 1.17150E+02 3.44120E+01 0.00000E+00
 -1       868 1.81500E+01 3.44120E+01 0.00000E+00
 -1       869 4.45350E+01 1.43982E+01 0.00000E+00
 -1       870 4.15350E+01 1.43982E+01 0.00000E+00
 -1       871 5.05350E+01 1.43982E+01 0.00000E+00
 -1       872 5.35350E+01 1.43982E+01 0.00000E+00
 -1       873 5.65350E+01 1.43982E+01 0.00000E+00
 -1       874 5.95350E+01 1.43982E+01 0.00000E+00
 -1       875 6.25350E+01 1.43982E+01 0.00000E+00
 -1       876 6.55350E+01 1.43982E+01 0.00000E+00
 -1       877 6.85350E+01 1.43982E+01 0.00000E+00
 -1       878 7.15350E+01 1.43982E+01 0.00000E+00
 -1       879 7.45350E+01 1.43982E+01 0.00000E+00
 -1       880 7.75350E+01 1.43982E+01 0.00000E+00
 -1       881 8.05350E+01 1.43982E+01 0.00000E+00
 -1       882 8.35350E+01 1.43982E+01 0.00000E+00
 -1       883 8.65350E+01 1.43982E+01 0.00000E+00
 -1       884 8.95350E+01 1.43982E+01 0.00000E+00
 -1       885 9.25350E+01 1.43982E+01 0.00000E+00
 -1       886 9.55350E+01 1.43982E+01 0.00000E+00
 -1       887 9.85350E+01 1.43982E+01 0.00000E+00
 -1       888 1.01535E+02 1.43982E+01 0.00000E+00
 -1       889 1.04535E+02 1.43982E+01 0.00000E+00
 -1       890 1.07535E+02 1.43982E+01 0.00000E+00
 -1       891 1.10129E+02 1.47274E+01 0.00000E+00
 -1       892 1.19132E+02 3.40013E+01 0.00000E+00
 -1       893 2.05350E+01 1.43982E+01 0.00000E+00
 -1       894 4.75350E+01 1.43982E+01 0.00000E+00
 -1       895 3.25350E+01 1.43982E+01 0.00000E+00
 -1       896 2.11500E+01 3.44120E+01 0.00000E+00
 -1       897 1.13691E+02 2.56907E+01 0.00000E+00
 -1       898 1.17115E+02 3.14776E+01 0.00000E+00
 -1       899 1.55880E+01 1.46687E+01 0.00000E+00
 -1       900 1.12317E+02 2.42571E+01 0.00000E+00
 -1       901 1.58678E+01 3.44759E+01 0.00000E+00
 -1       902 2.35350E+01 1.43982E+01 0.00000E+00
 -1       903 2.95350E+01 1.43982E+01 0.00000E+00
 -1       904 3.85350E+01 1.43982E+01 0.00000E+00
 -1       905 1.55880E+01 2.93875E+01 0.00000E+00
 -1       906 1.55880E+01 2.05531E+01 0.00000E+00
 -1       907 1.75351E+01 1.43983E+01 0.00000E+00
 -1       908 1.12594E+02 2.08192E+01 0.00000E+00
 -1       909 1.55880E+01 2.35031E+01 0.00000E+00
 -1       910 3.55350E+01 1.43982E+01 0.00000E+00
 -1       911 1.13438E+02 2.78839E+01 0.00000E+00
 -1       912 1.15058E+02 3.07051E+01 0.00000E+00
 -1       913 1.11961E+02 1.69284E+01 0.00000E+00
 -1       914 1.55880E+01 2.64453E+01 0.00000E+00
 -1       915 2.56500E+01 3.18140E+01 0.00000E+00
 -1       916 2.86500E+01 3.18140E+01 0.00000E+00
 -1       917 3.16500E+01 3.18140E+01 0.00000E+00
 -1       918 3.46500E+01 3.18140E+01 0.00000E+00
 -1       919 3.76500E+01 3.18140E+01 0.00000E+00
 -1       920 4.06500E+01 3.18140E+01 0.00000E+00
 -1       921 4.36500E+01 3.18140E+01 0.00000E+00
 -1       922 4.66500E+01 3.18140E+01 0.00000E+00
 -1       923 4.96500E+01 3.18140E+01 0.00000E+00
 -1       924 5.26500E+01 3.18140E+01 0.00000E+00
 -1       925 5.56500E+01 3.18140E+01 0.00000E+00
 -1       926 5.86500E+01 3.18140E+01 0.00000E+00
 -1       927 6.16500E+01 3.18140E+01 0.00000E+00
 -1       928 6.46500E+01 3.18140E+01 0.00000E+00
 -1       929 6.76500E+01 3.18140E+01 0.00000E+00
 -1       930 7.06500E+01 3.18140E+01 0.00000E+00
 -1       931 7.36500E+01 3.18140E+01 0.00000E+00
 -1       932 7.66500E+01 3.18140E+01 0.00000E+00
 -1       933 7.96500E+01 3.18140E+01 0.00000E+00
 -1       934 8.26500E+01 3.18140E+01 0.00000E+00
 -1       935 8.56500E+01 3.18140E+01 0.00000E+00
 -1       936 8.86500E+01 3.18140E+01 0.00000E+00
 -1       937 9.16500E+01 3.18140E+01 0.00000E+00
 -1       938 9.46500E+01 3.18140E+01 0.00000E+00
 -1       939 9.76500E+01 3.18140E+01 0.00000E+00
 -1       940 1.00650E+02 3.18140E+01 0.00000E+00
 -1       941 1.03650E+02 3.18140E+01 0.00000E+00
 -1       942 1.06650E+02 3.18140E+01 0.00000E+00
 -1       943 1.09650E+02 3.18140E+01 0.00000E+00
 -1       944 1.12650E+02 3.18140E+01 0.00000E+00
 -1       945 5.50350E+01 1.69963E+01 0.00000E+00
 -1       946 5.20350E+01 1.69963E+01 0.00000E+00
 -1       947 6.10350E+01 1.69963E+01 0.00000E+00
 -1       948 6.40350E+01 1.69963E+01 0.00000E+00
 -1       949 6.70350E+01 1.69963E+01 0.00000E+00
 -1       950 7.00350E+01 1.69963E+01 0.00000E+00
 -1       951 7.30350E+01 1.69963E+01 0.00000E+00
 -1       952 7.60350E+01 1.69963E+01 0.00000E+00
 -1       953 7.90350E+01 1.69963E+01 0.00000E+00
 -1       954 8.20350E+01 1.69963E+01 0.00000E+00
 -1       955 8.50350E+01 1.69963E+01 0.00000E+00
 -1       956 8.80350E+01 1.69963E+01 0.00000E+00
 -1       957 9.10350E+01 1.69963E+01 0.00000E+00
 -1       958 9.40350E+01 1.69963E+01 0.00000E+00
 -1       959 9.70350E+01 1.69963E+01 0.00000E+00
 -1       960 1.00035E+02 1.69963E+01 0.00000E+00
 -1       961 1.03035E+02 1.69963E+01 0.00000E+00
 -1       962 1.06035E+02 1.69963E+01 0.00000E+00
 -1       963 1.96500E+01 3.18140E+01 0.00000E+00
 -1       964 1.90351E+01 1.69963E+01 0.00000E+00
 -1       965 4.30350E+01 1.69963E+01 0.00000E+00
 -1       966 1.55880E+01 1.76109E+01 0.00000E+00
 -1       967 5.80350E+01 1.69963E+01 0.00000E+00
 -1       968 2.65350E+01 1.43982E+01 0.00000E+00
 -1       969 2.26500E+01 3.18140E+01 0.00000E+00
 -1       970 1.73115E+01 1.73036E+01 0.00000E+00
 -1       971 1.12064E+02 2.64503E+01 0.00000E+00
 -1       972 1.10905E+02 2.27105E+01 0.00000E+00
 -1       973 1.83220E+01 3.17891E+01 0.00000E+00
 -1       974 3.10350E+01 1.69963E+01 0.00000E+00
 -1       975 4.00350E+01 1.69963E+01 0.00000E+00
 -1       976 4.90350E+01 1.69963E+01 0.00000E+00
 -1       977 1.08629E+02 1.73254E+01 0.00000E+00
 -1       978 3.40350E+01 1.69963E+01 0.00000E+00
 -1       979 2.20351E+01 1.69963E+01 0.00000E+00
 -1       980 4.60350E+01 1.69963E+01 0.00000E+00
 -1       981 1.11433E+02 1.98194E+01 0.00000E+00
 -1       982 1.81860E+01 2.20281E+01 0.00000E+00
 -1       983 1.81860E+01 2.79164E+01 0.00000E+00
 -1       984 1.77488E+01 1.96659E+01 0.00000E+00
 -1       985 2.71500E+01 2.92160E+01 0.00000E+00
 -1       986 3.01500E+01 2.92160E+01 0.00000E+00
 -1       987 3.31500E+01 2.92160E+01 0.00000E+00
 -1       988 3.61500E+01 2.92160E+01 0.00000E+00
 -1       989 3.91500E+01 2.92160E+01 0.00000E+00
 -1       990 4.21500E+01 2.92160E+01 0.00000E+00
 -1       991 4.51500E+01 2.92160E+01 0.00000E+00
 -1       992 4.81500E+01 2.92160E+01 0.00000E+00
 -1       993 5.11500E+01 2.92160E+01 0.00000E+00
 -1       994 5.41500E+01 2.92160E+01 0.00000E+00
 -1       995 5.71500E+01 2.92160E+01 0.00000E+00
 -1       996 6.01500E+01 2.92160E+01 0.00000E+00
 -1       997 6.31500E+01 2.92160E+01 0.00000E+00
 -1       998 6.61500E+01 2.92160E+01 0.00000E+00
 -1       999 6.91500E+01 2.92160E+01 0.00000E+00
 -1      1000 7.21500E+01 2.92160E+01 0.00000E+00
 -1      1001 7.51500E+01 2.92160E+01 0.00000E+00
 -1      1002 7.81500E+01 2.92160E+01 0.00000E+00
 -1      1003 8.11500E+01 2.92160E+01 0.00000E+00
 -1      1004 8.41500E+01 2.92160E+01 0.00000E+00
 -1      1005 8.71500E+01 2.92160E+01 0.00000E+00
 -1      1006 9.01500E+01 2.92160E+01 0.00000E+00
 -1      1007 9.31500E+01 2.92160E+01 0.00000E+00
 -1      1008 9.61500E+01 2.92160E+01 0.00000E+00
 -1      1009 9.91500E+01 2.92160E+01 0.00000E+00
 -1      1010 1.02150E+02 2.92160E+01 0.00000E+00
 -1      1011 1.05150E+02 2.92160E+01 0.00000E+00
 -1      1012 1.08150E+02 2.92160E+01 0.00000E+00
 -1      1013 5.65350E+01 1.95942E+01 0.00000E+00
 -1      1014 2.80350E+01 1.69963E+01 0.00000E+00
 -1      1015 2.50350E+01 1.69963E+01 0.00000E+00
 -1      1016 6.55350E+01 1.95942E+01 0.00000E+00
 -1      1017 6.25350E+01 1.95942E+01 0.00000E+00
 -1      1018 7.15350E+01 1.95942E+01 0.00000E+00
 -1      1019 7.45350E+01 1.95942E+01 0.00000E+00
 -1      1020 7.75350E+01 1.95942E+01 0.00000E+00
 -1      1021 8.05350E+01 1.95942E+01 0.00000E+00
 -1      1022 8.35350E+01 1.95942E+01 0.00000E+00
 -1      1023 8.65350E+01 1.95942E+01 0.00000E+00
 -1      1024 8.95350E+01 1.95942E+01 0.00000E+00
 -1      1025 9.25350E+01 1.95942E+01 0.00000E+00
 -1      1026 9.55350E+01 1.95942E+01 0.00000E+00
 -1      1027 9.85350E+01 1.95942E+01 0.00000E+00
 -1      1028 1.01535E+02 1.95942E+01 0.00000E+00
 -1      1029 1.04535E+02 1.95942E+01 0.00000E+00
 -1      1030 1.81860E+01 2.49703E+01 0.00000E+00
 -1      1031 2.41500E+01 2.92160E+01 0.00000E+00
 -1      1032 4.45350E+01 1.95942E+01 0.00000E+00
 -1      1033 3.70350E+01 1.69963E+01 0.00000E+00
 -1      1034 6.85350E+01 1.95942E+01 0.00000E+00
 -1      1035 5.35350E+01 1.95942E+01 0.00000E+00
 -1      1036 5.95350E+01 1.95942E+01 0.00000E+00
 -1      1037 1.10097E+02 2.48662E+01 0.00000E+00
 -1      1038 4.15350E+01 1.95942E+01 0.00000E+00
 -1      1039 2.07840E+01 2.64434E+01 0.00000E+00
 -1      1040 1.11150E+02 2.92160E+01 0.00000E+00
 -1      1041 5.05350E+01 1.95942E+01 0.00000E+00
 -1      1042 1.07129E+02 1.99234E+01 0.00000E+00
 -1      1043 2.07840E+01 2.35012E+01 0.00000E+00
 -1      1044 2.07488E+01 1.96659E+01 0.00000E+00
 -1      1045 3.25350E+01 1.95942E+01 0.00000E+00
 -1      1046 2.11500E+01 2.92160E+01 0.00000E+00
 -1      1047 4.75350E+01 1.95942E+01 0.00000E+00
 -1      1048 2.95350E+01 1.95942E+01 0.00000E+00
 -1      1049 2.37487E+01 1.96659E+01 0.00000E+00
 -1      1050 3.55350E+01 1.95942E+01 0.00000E+00
 -1      1051 3.16500E+01 2.66180E+01 0.00000E+00
 -1      1052 3.46500E+01 2.66180E+01 0.00000E+00
 -1      1053 3.76500E+01 2.66180E+01 0.00000E+00
 -1      1054 4.06500E+01 2.66180E+01 0.00000E+00
 -1      1055 4.36500E+01 2.66180E+01 0.00000E+00
 -1      1056 4.66500E+01 2.66180E+01 0.00000E+00
 -1      1057 4.96500E+01 2.66180E+01 0.00000E+00
 -1      1058 5.26500E+01 2.66180E+01 0.00000E+00
 -1      1059 5.56500E+01 2.66180E+01 0.00000E+00
 -1      1060 5.86500E+01 2.66180E+01 0.00000E+00
 -1      1061 6.16500E+01 2.66180E+01 0.00000E+00
 -1      1062 6.46500E+01 2.66180E+01 0.00000E+00
 -1      1063 6.76500E+01 2.66180E+01 0.00000E+00
 -1      1064 7.06500E+01 2.66180E+01 0.00000E+00
 -1      1065 7.36500E+01 2.66180E+01 0.00000E+00
 -1      1066 7.66500E+01 2.66180E+01 0.00000E+00
 -1      1067 7.96500E+01 2.66180E+01 0.00000E+00
 -1      1068 8.26500E+01 2.66180E+01 0.00000E+00
 -1      1069 8.56500E+01 2.66180E+01 0.00000E+00
 -1      1070 8.86500E+01 2.66180E+01 0.00000E+00
 -1      1071 9.16500E+01 2.66180E+01 0.00000E+00
 -1      1072 9.46500E+01 2.66180E+01 0.00000E+00
 -1      1073 9.76500E+01 2.66180E+01 0.00000E+00
 -1      1074 1.00650E+02 2.66180E+01 0.00000E+00
 -1      1075 1.03650E+02 2.66180E+01 0.00000E+00
 -1      1076 1.06650E+02 2.66180E+01 0.00000E+00
 -1      1077 7.00350E+01 2.21922E+01 0.00000E+00
 -1      1078 6.40350E+01 2.21922E+01 0.00000E+00
 -1      1079 7.60350E+01 2.21922E+01 0.00000E+00
 -1      1080 7.30350E+01 2.21922E+01 0.00000E+00
 -1      1081 8.20350E+01 2.21922E+01 0.00000E+00
 -1      1082 8.50350E+01 2.21922E+01 0.00000E+00
 -1      1083 8.80350E+01 2.21922E+01 0.00000E+00
 -1      1084 9.10350E+01 2.21922E+01 0.00000E+00
 -1      1085 9.40350E+01 2.21922E+01 0.00000E+00
 -1      1086 9.70350E+01 2.21922E+01 0.00000E+00
 -1      1087 1.00035E+02 2.21922E+01 0.00000E+00
 -1      1088 1.03035E+02 2.21922E+01 0.00000E+00
 -1      1089 1.08424E+02 2.30099E+01 0.00000E+00
 -1      1090 1.09123E+02 2.70411E+01 0.00000E+00
 -1      1091 2.33820E+01 2.49723E+01 0.00000E+00
 -1      1092 6.10350E+01 2.21922E+01 0.00000E+00
 -1      1093 5.80350E+01 2.21922E+01 0.00000E+00
 -1      1094 7.90350E+01 2.21922E+01 0.00000E+00
 -1      1095 5.50350E+01 2.21922E+01 0.00000E+00
 -1      1096 2.35654E+01 2.23191E+01 0.00000E+00
 -1      1097 2.86500E+01 2.66180E+01 0.00000E+00
 -1      1098 2.56500E+01 2.66180E+01 0.00000E+00
 -1      1099 6.70350E+01 2.21922E+01 0.00000E+00
 -1      1100 4.30350E+01 2.21922E+01 0.00000E+00
 -1      1101 1.07537E+02 2.48140E+01 0.00000E+00
 -1      1102 5.20350E+01 2.21922E+01 0.00000E+00
 -1      1103 2.66419E+01 1.96301E+01 0.00000E+00
 -1      1104 1.05629E+02 2.25214E+01 0.00000E+00
 -1      1105 4.60350E+01 2.21922E+01 0.00000E+00
 -1      1106 3.85350E+01 1.95942E+01 0.00000E+00
 -1      1107 3.40350E+01 2.21922E+01 0.00000E+00
 -1      1108 3.10350E+01 2.21922E+01 0.00000E+00
 -1      1109 4.00350E+01 2.21922E+01 0.00000E+00
 -1      1110 2.71500E+01 2.40200E+01 0.00000E+00
 -1      1111 3.61500E+01 2.40200E+01 0.00000E+00
 -1      1112 5.11500E+01 2.40200E+01 0.00000E+00
 -1      1113 4.90350E+01 2.21922E+01 0.00000E+00
 -1      1114 4.81500E+01 2.40200E+01 0.00000E+00
 -1      1115 0.00000E+00 4.85250E+01 0.00000E+00
 -1      1116 0.00000E+00 4.55750E+01 0.00000E+00
 -1      1117 0.00000E+00 4.26250E+01 0.00000E+00
 -1      1118 0.00000E+00 3.96750E+01 0.00000E+00
 -1      1119 0.00000E+00 3.67250E+01 0.00000E+00
 -1      1120 0.00000E+00 3.38000E+01 0.00000E+00
 -1      1121 0.00000E+00 3.08750E+01 0.00000E+00
 -1      1122 0.00000E+00 2.79250E+01 0.00000E+00
 -1      1123 0.00000E+00 2.49750E+01 0.00000E+00
 -1      1124 0.00000E+00 2.20250E+01 0.00000E+00
 -1      1125 0.00000E+00 1.90750E+01 0.00000E+00
 -1      1126 0.00000E+00 1.61500E+01 0.00000E+00
 -1      1127 0.00000E+00 1.32250E+01 0.00000E+00
 -1      1128 0.00000E+00 1.02750E+01 0.00000E+00
 -1      1129 0.00000E+00 7.32500E+00 0.00000E+00
 -1      1130 0.00000E+00 4.37500E+00 0.00000E+00
 -1      1131 0.00000E+00 1.45000E+00 0.00000E+00
 -1      1132 1.57500E+00 5.00000E+01 0.00000E+00
 -1      1133 4.65000E+00 5.00000E+01 0.00000E+00
 -1      1134 7.65000E+00 5.00000E+01 0.00000E+00
 -1      1135 1.06500E+01 5.00000E+01 0.00000E+00
 -1      1136 1.36500E+01 5.00000E+01 0.00000E+00
 -1      1137 1.66500E+01 5.00000E+01 0.00000E+00
 -1      1138 1.96500E+01 5.00000E+01 0.00000E+00
 -1      1139 2.26500E+01 5.00000E+01 0.00000E+00
 -1      1140 2.56500E+01 5.00000E+01 0.00000E+00
 -1      1141 2.86500E+01 5.00000E+01 0.00000E+00
 -1      1142 3.16500E+01 5.00000E+01 0.00000E+00
 -1      1143 3.46500E+01 5.00000E+01 0.00000E+00
 -1      1144 3.76500E+01 5.00000E+01 0.00000E+00
 -1      1145 4.06500E+01 5.00000E+01 0.00000E+00
 -1      1146 4.36500E+01 5.00000E+01 0.00000E+00
 -1      1147 4.66500E+01 5.00000E+01 0.00000E+00
 -1      1148 4.96500E+01 5.00000E+01 0.00000E+00
 -1      1149 5.26500E+01 5.00000E+01 0.00000E+00
 -1      1150 5.56500E+01 5.00000E+01 0.00000E+00
 -1      1151 5.86500E+01 5.00000E+01 0.00000E+00
 -1      1152 6.16500E+01 5.00000E+01 0.00000E+00
 -1      1153 6.46500E+01 5.00000E+01 0.00000E+00
 -1      1154 6.76500E+01 5.00000E+01 0.00000E+00
 -1      1155 7.06500E+01 5.00000E+01 0.00000E+00
 -1      1156 7.36500E+01 5.00000E+01 0.00000E+00
 -1      1157 7.66500E+01 5.00000E+01 0.00000E+00
 -1      1158 7.96500E+01 5.00000E+01 0.00000E+00
 -1      1159 8.26500E+01 5.00000E+01 0.00000E+00
 -1      1160 8.56500E+01 5.00000E+01 0.00000E+00
 -1      1161 8.86500E+01 5.00000E+01 0.00000E+00
 -1      1162 9.16500E+01 5.00000E+01 0.00000E+00
 -1      1163 9.46500E+01 5.00000E+01 0.00000E+00
 -1      1164 9.76500E+01 5.00000E+01 0.00000E+00
 -1      1165 1.00650E+02 5.00000E+01 0.00000E+00
 -1      1166 1.03650E+02 5.00000E+01 0.00000E+00
 -1      1167 1.06650E+02 5.00000E+01 0.00000E+00
 -1      1168 1.09650E+02 5.00000E+01 0.00000E+00
 -1      1169 1.12650E+02 5.00000E+01 0.00000E+00
 -1      1170 1.15650E+02 5.00000E+01 0.00000E+00
 -1      1171 1.18650E+02 5.00000E+01 0.00000E+00
 -1      1172 1.21650E+02 5.00000E+01 0.00000E+00
 -1      1173 1.24650E+02 5.00000E+01 0.00000E+00
 -1      1174 1.27650E+02 5.00000E+01 0.00000E+00
 -1      1175 1.30650E+02 5.00000E+01 0.00000E+00
 -1      1176 1.33650E+02 5.00000E+01 0.00000E+00
 -1      1177 1.36650E+02 5.00000E+01 0.00000E+00
 -1      1178 1.39650E+02 5.00000E+01 0.00000E+00
 -1      1179 1.42650E+02 5.00000E+01 0.00000E+00
 -1      1180 1.45650E+02 5.00000E+01 0.00000E+00
 -1      1181 1.48575E+02 5.00000E+01 0.00000E+00
 -1      1182 1.57500E+00 0.00000E+00 0.00000E+00
 -1      1183 4.65000E+00 0.00000E+00 0.00000E+00
 -1      1184 7.65000E+00 0.00000E+00 0.00000E+00
 -1      1185 1.06500E+01 0.00000E+00 0.00000E+00
 -1      1186 1.36500E+01 0.00000E+00 0.00000E+00
 -1      1187 1.66500E+01 0.00000E+00 0.00000E+00
 -1      1188 1.96500E+01 0.00000E+00 0.00000E+00
 -1      1189 2.26500E+01 0.00000E+00 0.00000E+00
 -1      1190 2.56500E+01 0.00000E+00 0.00000E+00
 -1      1191 2.86500E+01 0.00000E+00 0.00000E+00
 -1      1192 3.16500E+01 0.00000E+00 0.00000E+00
 -1      1193 3.46500E+01 0.00000E+00 0.00000E+00
 -1      1194 3.76500E+01 0.00000E+00 0.00000E+00
 -1      1195 4.06500E+01 0.00000E+00 0.00000E+00
 -1      1196 4.36500E+01 0.00000E+00 0.00000E+00
 -1      1197 4.66500E+01 0.00000E+00 0.00000E+00
 -1      1198 4.96500E+01 0.00000E+00 0.00000E+00
 -1      1199 5.26500E+01 0.00000E+00 0.00000E+00
 -1      1200 5.56500E+01 0.00000E+00 0.00000E+00
 -1      1201 5.86500E+01 0.00000E+00 0.00000E+00
 -1      1202 6.16500E+01 0.00000E+00 0.00000E+00
 -1      1203 6.46500E+01 0.00000E+00 0.00000E+00
 -1      1204 6.76500E+01 0.00000E+00 0.00000E+00
 -1      1205 7.06500E+01 0.00000E+00 0.00000E+00
 -1      1206 7.36500E+01 0.00000E+00 0.00000E+00
 -1      1207 7.66500E+01 0.00000E+00 0.00000E+00
 -1      1208 7.96500E+01 0.00000E+00 0.00000E+00
 -1      1209 8.26500E+01 0.00000E+00 0.00000E+00
 -1      1210 8.56500E+01 0.00000E+00 0.00000E+00
 -1      1211 8.86500E+01 0.00000E+00 0.00000E+00
 -1      1212 9.16500E+01 0.00000E+00 0.00000E+00
 -1      1213 9.46500E+01 0.00000E+00 0.00000E+00
 -1      1214 9.76500E+01 0.00000E+00 0.00000E+00
 -1      1215 1.00650E+02 0.00000E+00 0.00000E+00
 -1      1216 1.03650E+02 0.00000E+00 0.00000E+00
 -1      1217 1.06650E+02 0.00000E+00 0.00000E+00
 -1      1218 1.09650E+02 0.00000E+00 0.00000E+00
 -1      1219 1.12650E+02 0.00000E+00 0.00000E+00
 -1      1220 1.15650E+02 0.00000E+00 0.00000E+00
 -1      1221 1.18650E+02 0.00000E+00 0.00000E+00
 -1      1222 1.21650E+02 0.00000E+00 0.00000E+00
 -1      1223 1.24650E+02 0.00000E+00 0.00000E+00
 -1      1224 1.27650E+02 0.00000E+00 0.00000E+00
 -1      1225 1.30650E+02 0.00000E+00 0.00000E+00
 -1      1226 1.33650E+02 0.00000E+00 0.00000E+00
 -1      1227 1.36575E+02 0.00000E+00 0.00000E+00
 -1      1228 1.39500E+02 0.00000E+00 0.00000E+00
 -1      1229 1.42500E+02 0.00000E+00 0.00000E+00
 -1      1230 1.45500E+02 0.00000E+00 0.00000E+00
 -1      1231 1.48500E+02 0.00000E+00 0.00000E+00
 -1      1232 1.50000E+02 1.50000E+00 0.00000E+00
 -1      1233 1.50000E+02 4.47500E+00 0.00000E+00
 -1      1234 1.50000E+02 7.42500E+00 0.00000E+00
 -1      1235 1.50000E+02 1.03750E+01 0.00000E+00
 -1      1236 1.50000E+02 1.33250E+01 0.00000E+00
 -1      1237 1.50000E+02 1.62750E+01 0.00000E+00
 -1      1238 1.50000E+02 1.91250E+01 0.00000E+00
 -1      1239 1.50000E+02 2.19750E+01 0.00000E+00
 -1      1240 1.50000E+02 2.49250E+01 0.00000E+00
 -1      1241 1.50000E+02 2.78750E+01 0.00000E+00
 -1      1242 1.50000E+02 3.08250E+01 0.00000E+00
 -1      1243 1.50000E+02 3.37750E+01 0.00000E+00
 -1      1244 1.50000E+02 3.67250E+01 0.00000E+00
 -1      1245 1.50000E+02 3.96750E+01 0.00000E+00
 -1      1246 1.50000E+02 4.26250E+01 0.00000E+00
 -1      1247 1.50000E+02 4.55750E+01 0.00000E+00
 -1      1248 1.50000E+02 4.85250E+01 0.00000E+00
 -1      1249 1.36332E+02 1.92321E+01 0.00000E+00
 -1      1250 1.36044E+02 1.78270E+01 0.00000E+00
 -1      1251 1.35460E+02 1.64834E+01 0.00000E+00
 -1      1252 1.34635E+02 1.53199E+01 0.00000E+00
 -1      1253 1.33587E+02 1.43447E+01 0.00000E+00
 -1      1254 1.32297E+02 1.35721E+01 0.00000E+00
 -1      1255 1.30857E+02 1.30899E+01 0.00000E+00
 -1      1256 1.29373E+02 1.29293E+01 0.00000E+00
 -1      1257 1.27922E+02 1.30802E+01 0.00000E+00
 -1      1258 1.26536E+02 1.35272E+01 0.00000E+00
 -1      1259 1.25302E+02 1.42303E+01 0.00000E+00
 -1      1260 1.24270E+02 1.51317E+01 0.00000E+00
 -1      1261 1.23417E+02 1.62422E+01 0.00000E+00
 -1      1262 1.22793E+02 1.75232E+01 0.00000E+00
 -1      1263 1.22446E+02 1.88827E+01 0.00000E+00
 -1      1264 1.22376E+02 2.02890E+01 0.00000E+00
 -1      1265 1.22598E+02 2.17128E+01 0.00000E+00
 -1      1266 1.23099E+02 2.30470E+01 0.00000E+00
 -1      1267 1.23867E+02 2.42601E+01 0.00000E+00
 -1      1268 1.24878E+02 2.53005E+01 0.00000E+00
 -1      1269 1.26087E+02 2.61134E+01 0.00000E+00
 -1      1270 1.27500E+02 2.66758E+01 0.00000E+00
 -1      1271 1.29022E+02 2.69208E+01 0.00000E+00
 -1      1272 1.30517E+02 2.68342E+01 0.00000E+00
 -1      1273 1.32000E+02 2.64151E+01 0.00000E+00
 -1      1274 1.33348E+02 2.56867E+01 0.00000E+00
 -1      1275 1.34467E+02 2.47242E+01 0.00000E+00
 -1      1276 1.35357E+02 2.35511E+01 0.00000E+00
 -1      1277 1.35983E+02 2.22144E+01 0.00000E+00
 -1      1278 1.36322E+02 2.07166E+01 0.00000E+00
 -1      1279 1.57500E+00 4.85250E+01 0.00000E+00
 -1      1280 1.29900E+00 4.48375E+01 0.00000E+00
 -1      1281 1.29900E+00 4.63125E+01 0.00000E+00
 -1      1282 1.29900E+00 4.18875E+01 0.00000E+00
 -1      1283 1.29900E+00 4.33625E+01 0.00000E+00
 -1      1284 2.59800E+00 4.41000E+01 0.00000E+00
 -1      1285 1.29900E+00 3.89375E+01 0.00000E+00
 -1      1286 1.29900E+00 4.04125E+01 0.00000E+00
 -1      1287 2.59800E+00 4.11500E+01 0.00000E+00
 -1      1288 1.29900E+00 3.59875E+01 0.00000E+00
 -1      1289 1.29900E+00 3.74625E+01 0.00000E+00
 -1      1290 2.59800E+00 3.82000E+01 0.00000E+00
 -1      1291 1.29900E+00 3.30875E+01 0.00000E+00
 -1      1292 1.29900E+00 3.45375E+01 0.00000E+00
 -1      1293 2.59800E+00 3.52750E+01 0.00000E+00
 -1      1294 1.29900E+00 3.01375E+01 0.00000E+00
 -1      1295 1.29900E+00 3.16125E+01 0.00000E+00
 -1      1296 2.59800E+00 3.23500E+01 0.00000E+00
 -1      1297 1.29900E+00 2.71875E+01 0.00000E+00
 -1      1298 1.29900E+00 2.86625E+01 0.00000E+00
 -1      1299 2.59800E+00 2.94000E+01 0.00000E+00
 -1      1300 1.29900E+00 2.42375E+01 0.00000E+00
 -1      1301 1.29900E+00 2.57125E+01 0.00000E+00
 -1      1302 2.59800E+00 2.64500E+01 0.00000E+00
 -1      1303 1.29900E+00 2.12875E+01 0.00000E+00
 -1      1304 1.29900E+00 2.27625E+01 0.00000E+00
 -1      1305 2.59800E+00 2.35000E+01 0.00000E+00
 -1      1306 1.29900E+00 1.83375E+01 0.00000E+00
 -1      1307 1.29900E+00 1.98125E+01 0.00000E+00
 -1      1308 2.59800E+00 2.05500E+01 0.00000E+00
 -1      1309 1.29900E+00 1.54375E+01 0.00000E+00
 -1      1310 1.29900E+00 1.68875E+01 0.00000E+00
 -1      1311 2.59800E+00 1.76250E+01 0.00000E+00
 -1      1312 1.29900E+00 1.24875E+01 0.00000E+00
 -1      1313 1.29900E+00 1.39625E+01 0.00000E+00
 -1      1314 2.59800E+00 1.47000E+01 0.00000E+00
 -1      1315 1.29900E+00 9.53750E+00 0.00000E+00
 -1      1316 1.29900E+00 1.10125E+01 0.00000E+00
 -1      1317 2.59800E+00 1.17500E+01 0.00000E+00
 -1      1318 1.29900E+00 6.58750E+00 0.00000E+00
 -1      1319 1.29900E+00 8.06250E+00 0.00000E+00
 -1      1320 2.59800E+00 8.80000E+00 0.00000E+00
 -1      1321 1.29900E+00 3.63750E+00 0.00000E+00
 -1      1322 1.29900E+00 5.11250E+00 0.00000E+00
 -1      1323 2.59800E+00 5.85000E+00 0.00000E+00
 -1      1324 1.43700E+00 1.09375E+00 0.00000E+00
 -1      1325 1.43700E+00 2.54375E+00 0.00000E+00
 -1      1326 2.73600E+00 3.28125E+00 0.00000E+00
 -1      1327 3.01200E+00 1.09375E+00 0.00000E+00
 -1      1328 3.90000E+00 4.87010E+01 0.00000E+00
 -1      1329 5.40000E+00 4.87010E+01 0.00000E+00
 -1      1330 6.90000E+00 4.87010E+01 0.00000E+00
 -1      1331 8.40000E+00 4.87010E+01 0.00000E+00
 -1      1332 6.15000E+00 4.74020E+01 0.00000E+00
 -1      1333 9.90000E+00 4.87010E+01 0.00000E+00
 -1      1334 1.14000E+01 4.87010E+01 0.00000E+00
 -1      1335 9.15000E+00 4.74020E+01 0.00000E+00
 -1      1336 1.29000E+01 4.87010E+01 0.00000E+00
 -1      1337 1.44000E+01 4.87010E+01 0.00000E+00
 -1      1338 1.21500E+01 4.74020E+01 0.00000E+00
 -1      1339 1.59000E+01 4.87010E+01 0.00000E+00
 -1      1340 1.74000E+01 4.87010E+01 0.00000E+00
 -1      1341 1.51500E+01 4.74020E+01 0.00000E+00
 -1      1342 1.89000E+01 4.87010E+01 0.00000E+00
 -1      1343 2.04000E+01 4.87010E+01 0.00000E+00
 -1      1344 1.81500E+01 4.74020E+01 0.00000E+00
 -1      1345 2.19000E+01 4.87010E+01 0.00000E+00
 -1      1346 2.34000E+01 4.87010E+01 0.00000E+00
 -1      1347 2.11500E+01 4.74020E+01 0.00000E+00
 -1      1348 2.49000E+01 4.87010E+01 0.00000E+00
 -1      1349 2.64000E+01 4.87010E+01 0.00000E+00
 -1      1350 2.41500E+01 4.74020E+01 0.00000E+00
 -1      1351 2.79000E+01 4.87010E+01 0.00000E+00
 -1      1352 2.94000E+01 4.87010E+01 0.00000E+00
 -1      1353 2.71500E+01 4.74020E+01 0.00000E+00
 -1      1354 3.09000E+01 4.87010E+01 0.00000E+00
 -1      1355 3.24000E+01 4.87010E+01 0.00000E+00
 -1      1356 3.01500E+01 4.74020E+01 0.00000E+00
 -1      1357 3.39000E+01 4.87010E+01 0.00000E+00
 -1      1358 3.54000E+01 4.87010E+01 0.00000E+00
 -1      1359 3.31500E+01 4.74020E+01 0.00000E+00
 -1      1360 3.69000E+01 4.87010E+01 0.00000E+00
 -1      1361 3.84000E+01 4.87010E+01 0.00000E+00
 -1      1362 3.61500E+01 4.74020E+01 0.00000E+00
 -1      1363 3.99000E+01 4.87010E+01 0.00000E+00
 -1      1364 4.14000E+01 4.87010E+01 0.00000E+00
 -1      1365 3.91500E+01 4.74020E+01 0.00000E+00
 -1      1366 4.29000E+01 4.87010E+01 0.00000E+00
 -1      1367 4.44000E+01 4.87010E+01 0.00000E+00
 -1      1368 4.21500E+01 4.74020E+01 0.00000E+00
 -1      1369 4.59000E+01 4.87010E+01 0.00000E+00
 -1      1370 4.74000E+01 4.87010E+01 0.00000E+00
 -1      1371 4.51500E+01 4.74020E+01 0.00000E+00
 -1      1372 4.89000E+01 4.87010E+01 0.00000E+00
 -1      1373 5.04000E+01 4.87010E+01 0.00000E+00
 -1      1374 4.81500E+01 4.74020E+01 0.00000E+00
 -1      1375 5.19000E+01 4.87010E+01 0.00000E+00
 -1      1376 5.34000E+01 4.87010E+01 0.00000E+00
 -1      1377 5.11500E+01 4.74020E+01 0.00000E+00
 -1      1378 5.49000E+01 4.87010E+01 0.00000E+00
 -1      1379 5.64000E+01 4.87010E+01 0.00000E+00
 -1      1380 5.41500E+01 4.74020E+01 0.00000E+00
 -1      1381 5.79000E+01 4.87010E+01 0.00000E+00
 -1      1382 5.94000E+01 4.87010E+01 0.00000E+00
 -1      1383 5.71500E+01 4.74020E+01 0.00000E+00
 -1      1384 6.09000E+01 4.87010E+01 0.00000E+00
 -1      1385 6.24000E+01 4.87010E+01 0.00000E+00
 -1      1386 6.01500E+01 4.74020E+01 0.00000E+00
 -1      1387 6.39000E+01 4.87010E+01 0.00000E+00
 -1      1388 6.54000E+01 4.87010E+01 0.00000E+00
 -1      1389 6.31500E+01 4.74020E+01 0.00000E+00
 -1      1390 6.69000E+01 4.87010E+01 0.00000E+00
 -1      1391 6.84000E+01 4.87010E+01 0.00000E+00
 -1      1392 6.61500E+01 4.74020E+01 0.00000E+00
 -1      1393 6.99000E+01 4.87010E+01 0.00000E+00
 -1      1394 7.14000E+01 4.87010E+01 0.00000E+00
 -1      1395 6.91500E+01 4.74020E+01 0.00000E+00
 -1      1396 7.29000E+01 4.87010E+01 0.00000E+00
 -1      1397 7.44000E+01 4.87010E+01 0.00000E+00
 -1      1398 7.21500E+01 4.74020E+01 0.00000E+00
 -1      1399 7.59000E+01 4.87010E+01 0.00000E+00
 -1      1400 7.74000E+01 4.87010E+01 0.00000E+00
 -1      1401 7.51500E+01 4.74020E+01 0.00000E+00
 -1      1402 7.89000E+01 4.87010E+01 0.00000E+00
 -1      1403 8.04000E+01 4.87010E+01 0.00000E+00
 -1      1404 7.81500E+01 4.74020E+01 0.00000E+00
 -1      1405 8.19000E+01 4.87010E+01 0.00000E+00
 -1      1406 8.34000E+01 4.87010E+01 0.00000E+00
 -1      1407 8.11500E+01 4.74020E+01 0.00000E+00
 -1      1408 8.49000E+01 4.87010E+01 0.00000E+00
 -1      1409 8.64000E+01 4.87010E+01 0.00000E+00
 -1      1410 8.41500E+01 4.74020E+01 0.00000E+00
 -1      1411 8.79000E+01 4.87010E+01 0.00000E+00
 -1      1412 8.94000E+01 4.87010E+01 0.00000E+00
 -1      1413 8.71500E+01 4.74020E+01 0.00000E+00
 -1      1414 9.09000E+01 4.87010E+01 0.00000E+00
 -1      1415 9.24000E+01 4.87010E+01 0.00000E+00
 -1      1416 9.01500E+01 4.74020E+01 0.00000E+00
 -1      1417 9.39000E+01 4.87010E+01 0.00000E+00
 -1      1418 9.54000E+01 4.87010E+01 0.00000E+00
 -1      1419 9.31500E+01 4.74020E+01 0.00000E+00
 -1      1420 9.69000E+01 4.87010E+01 0.00000E+00
 -1      1421 9.84000E+01 4.87010E+01 0.00000E+00
 -1      1422 9.61500E+01 4.74020E+01 0.00000E+00
 -1      1423 9.99000E+01 4.87010E+01 0.00000E+00
 -1      1424 1.01400E+02 4.87010E+01 0.00000E+00
 -1      1425 9.91500E+01 4.74020E+01 0.00000E+00
 -1      1426 1.02900E+02 4.87010E+01 0.00000E+00
 -1      1427 1.04400E+02 4.87010E+01 0.00000E+00
 -1      1428 1.02150E+02 4.74020E+01 0.00000E+00
 -1      1429 1.05900E+02 4.87010E+01 0.00000E+00
 -1      1430 1.07400E+02 4.87010E+01 0.00000E+00
 -1      1431 1.05150E+02 4.74020E+01 0.00000E+00
 -1      1432 1.08900E+02 4.87010E+01 0.00000E+00
 -1      1433 1.10400E+02 4.87010E+01 0.00000E+00
 -1      1434 1.08150E+02 4.74020E+01 0.00000E+00
 -1      1435 1.11900E+02 4.87010E+01 0.00000E+00
 -1      1436 1.13400E+02 4.87010E+01 0.00000E+00
 -1      1437 1.11150E+02 4.74020E+01 0.00000E+00
 -1      1438 1.14900E+02 4.87010E+01 0.00000E+00
 -1      1439 1.16400E+02 4.87010E+01 0.00000E+00
 -1      1440 1.14150E+02 4.74020E+01 0.00000E+00
 -1      1441 1.17900E+02 4.87010E+01 0.00000E+00
 -1      1442 1.19400E+02 4.87010E+01 0.00000E+00
 -1      1443 1.17150E+02 4.74020E+01 0.00000E+00
 -1      1444 1.20900E+02 4.87010E+01 0.00000E+00
 -1      1445 1.22400E+02 4.87010E+01 0.00000E+00
 -1      1446 1.20150E+02 4.74020E+01 0.00000E+00
 -1      1447 1.23900E+02 4.87010E+01 0.00000E+00
 -1      1448 1.25400E+02 4.87010E+01 0.00000E+00
 -1      1449 1.23150E+02 4.74020E+01 0.00000E+00
 -1      1450 1.26900E+02 4.87010E+01 0.00000E+00
 -1      1451 1.28400E+02 4.87010E+01 0.00000E+00
 -1      1452 1.26150E+02 4.74020E+01 0.00000E+00
 -1      1453 1.29900E+02 4.87010E+01 0.00000E+00
 -1      1454 1.31400E+02 4.87010E+01 0.00000E+00
 -1      1455 1.29150E+02 4.74020E+01 0.00000E+00
 -1      1456 1.32900E+02 4.87010E+01 0.00000E+00
 -1      1457 1.34400E+02 4.87010E+01 0.00000E+00
 -1      1458 1.32150E+02 4.74020E+01 0.00000E+00
 -1      1459 1.35900E+02 4.87010E+01 0.00000E+00
 -1      1460 1.37400E+02 4.87010E+01 0.00000E+00
 -1      1461 1.35150E+02 4.74020E+01 0.00000E+00
 -1      1462 1.38900E+02 4.87010E+01 0.00000E+00
 -1      1463 1.40400E+02 4.87010E+01 0.00000E+00
 -1      1464 1.38150E+02 4.74020E+01 0.00000E+00
 -1      1465 1.41900E+02 4.87010E+01 0.00000E+00
 -1      1466 1.43400E+02 4.87010E+01 0.00000E+00
 -1      1467 1.41150E+02 4.74020E+01 0.00000E+00
 -1      1468 1.44900E+02 4.87010E+01 0.00000E+00
 -1      1469 1.46400E+02 4.87010E+01 0.00000E+00
 -1      1470 1.44150E+02 4.74020E+01 0.00000E+00
 -1      1471 1.48575E+02 4.85250E+01 0.00000E+00
 -1      1472 1.47825E+02 4.72260E+01 0.00000E+00
 -1      1473 6.01200E+00 1.09375E+00 0.00000E+00
 -1      1474 4.51200E+00 1.09375E+00 0.00000E+00
 -1      1475 4.37400E+00 2.18750E+00 0.00000E+00
 -1      1476 9.01200E+00 1.09375E+00 0.00000E+00
 -1      1477 7.51200E+00 1.09375E+00 0.00000E+00
 -1      1478 7.37400E+00 2.18750E+00 0.00000E+00
 -1      1479 1.20120E+01 1.09375E+00 0.00000E+00
 -1      1480 1.05120E+01 1.09375E+00 0.00000E+00
 -1      1481 1.03740E+01 2.18750E+00 0.00000E+00
 -1      1482 1.50120E+01 1.09375E+00 0.00000E+00
 -1      1483 1.35120E+01 1.09375E+00 0.00000E+00
 -1      1484 1.33740E+01 2.18750E+00 0.00000E+00
 -1      1485 1.80120E+01 1.09375E+00 0.00000E+00
 -1      1486 1.65120E+01 1.09375E+00 0.00000E+00
 -1      1487 1.63740E+01 2.18750E+00 0.00000E+00
 -1      1488 2.10120E+01 1.09375E+00 0.00000E+00
 -1      1489 1.95120E+01 1.09375E+00 0.00000E+00
 -1      1490 1.93740E+01 2.18750E+00 0.00000E+00
 -1      1491 2.40120E+01 1.09375E+00 0.00000E+00
 -1      1492 2.25120E+01 1.09375E+00 0.00000E+00
 -1      1493 2.23740E+01 2.18750E+00 0.00000E+00
 -1      1494 2.70120E+01 1.09375E+00 0.00000E+00
 -1      1495 2.55120E+01 1.09375E+00 0.00000E+00
 -1      1496 2.53740E+01 2.18750E+00 0.00000E+00
 -1      1497 3.00120E+01 1.09375E+00 0.00000E+00
 -1      1498 2.85120E+01 1.09375E+00 0.00000E+00
 -1      1499 2.83740E+01 2.18750E+00 0.00000E+00
 -1      1500 3.30120E+01 1.09375E+00 0.00000E+00
 -1      1501 3.15120E+01 1.09375E+00 0.00000E+00
 -1      1502 3.13740E+01 2.18750E+00 0.00000E+00
 -1      1503 3.60120E+01 1.09375E+00 0.00000E+00
 -1      1504 3.45120E+01 1.09375E+00 0.00000E+00
 -1      1505 3.43740E+01 2.18750E+00 0.00000E+00
 -1      1506 3.90120E+01 1.09375E+00 0.00000E+00
 -1      1507 3.75120E+01 1.09375E+00 0.00000E+00
 -1      1508 3.73740E+01 2.18750E+00 0.00000E+00
 -1      1509 4.20120E+01 1.09375E+00 0.00000E+00
 -1      1510 4.05120E+01 1.09375E+00 0.00000E+00
 -1      1511 4.03740E+01 2.18750E+00 0.00000E+00
 -1      1512 4.50120E+01 1.09375E+00 0.00000E+00
 -1      1513 4.35120E+01 1.09375E+00 0.00000E+00
 -1      1514 4.33740E+01 2.18750E+00 0.00000E+00
 -1      1515 4.80120E+01 1.09375E+00 0.00000E+00
 -1      1516 4.65120E+01 1.09375E+00 0.00000E+00
 -1      1517 4.63740E+01 2.18750E+00 0.00000E+00
 -1      1518 5.10120E+01 1.09375E+00 0.00000E+00
 -1      1519 4.95120E+01 1.09375E+00 0.00000E+00
 -1      1520 4.93740E+01 2.18750E+00 0.00000E+00
 -1      1521 5.40120E+01 1.09375E+00 0.00000E+00
 -1      1522 5.25120E+01 1.09375E+00 0.00000E+00
 -1      1523 5.23740E+01 2.18750E+00 0.00000E+00
 -1      1524 5.70120E+01 1.09375E+00 0.00000E+00
 -1      1525 5.55120E+01 1.09375E+00 0.00000E+00
 -1      1526 5.53740E+01 2.18750E+00 0.00000E+00
 -1      1527 6.00120E+01 1.09375E+00 0.00000E+00
 -1      1528 5.85120E+01 1.09375E+00 0.00000E+00
 -1      1529 5.83740E+01 2.18750E+00 0.00000E+00
 -1      1530 6.30120E+01 1.09375E+00 0.00000E+00
 -1      1531 6.15120E+01 1.09375E+00 0.00000E+00
 -1      1532 6.13740E+01 2.18750E+00 0.00000E+00
 -1      1533 6.60120E+01 1.09375E+00 0.00000E+00
 -1      1534 6.45120E+01 1.09375E+00 0.00000E+00
 -1      1535 6.43740E+01 2.18750E+00 0.00000E+00
 -1      1536 6.90120E+01 1.09375E+00 0.00000E+00
 -1      1537 6.75120E+01 1.09375E+00 0.00000E+00
 -1      1538 6.73740E+01 2.18750E+00 0.00000E+00
 -1      1539 7.20120E+01 1.09375E+00 0.00000E+00
 -1      1540 7.05120E+01 1.09375E+00 0.00000E+00
 -1      1541 7.03740E+01 2.18750E+00 0.00000E+00
 -1      1542 7.50120E+01 1.09375E+00 0.00000E+00
 -1      1543 7.35120E+01 1.09375E+00 0.00000E+00
 -1      1544 7.33740E+01 2.18750E+00 0.00000E+00
 -1      1545 7.80120E+01 1.09375E+00 0.00000E+00
 -1      1546 7.65120E+01 1.09375E+00 0.00000E+00
 -1      1547 7.63740E+01 2.18750E+00 0.00000E+00
 -1      1548 8.10120E+01 1.09375E+00 0.00000E+00
 -1      1549 7.95120E+01 1.09375E+00 0.00000E+00
 -1      1550 7.93740E+01 2.18750E+00 0.00000E+00
 -1      1551 8.40120E+01 1.09375E+00 0.00000E+00
 -1      1552 8.25120E+01 1.09375E+00 0.00000E+00
 -1      1553 8.23740E+01 2.18750E+00 0.00000E+00
 -1      1554 8.70120E+01 1.09375E+00 0.00000E+00
 -1      1555 8.55120E+01 1.09375E+00 0.00000E+00
 -1      1556 8.53740E+01 2.18750E+00 0.00000E+00
 -1      1557 9.00120E+01 1.09375E+00 0.00000E+00
 -1      1558 8.85120E+01 1.09375E+00 0.00000E+00
 -1      1559 8.83740E+01 2.18750E+00 0.00000E+00
 -1      1560 9.30120E+01 1.09375E+00 0.00000E+00
 -1      1561 9.15120E+01 1.09375E+00 0.00000E+00
 -1      1562 9.13740E+01 2.18750E+00 0.00000E+00
 -1      1563 9.60120E+01 1.09375E+00 0.00000E+00
 -1      1564 9.45120E+01 1.09375E+00 0.00000E+00
 -1      1565 9.43740E+01 2.18750E+00 0.00000E+00
 -1      1566 9.90120E+01 1.09375E+00 0.00000E+00
 -1      1567 9.75120E+01 1.09375E+00 0.00000E+00
 -1      1568 9.73740E+01 2.18750E+00 0.00000E+00
 -1      1569 1.02012E+02 1.09375E+00 0.00000E+00
 -1      1570 1.00512E+02 1.09375E+00 0.00000E+00
 -1      1571 1.00374E+02 2.18750E+00 0.00000E+00
 -1      1572 1.05012E+02 1.09375E+00 0.00000E+00
 -1      1573 1.03512E+02 1.09375E+00 0.00000E+00
 -1      1574 1.03374E+02 2.18750E+00 0.00000E+00
 -1      1575 1.08012E+02 1.09375E+00 0.00000E+00
 -1      1576 1.06512E+02 1.09375E+00 0.00000E+00
 -1      1577 1.06374E+02 2.18750E+00 0.00000E+00
 -1      1578 1.11012E+02 1.09375E+00 0.00000E+00
 -1      1579 1.09512E+02 1.09375E+00 0.00000E+00
 -1      1580 1.09374E+02 2.18750E+00 0.00000E+00
 -1      1581 1.14012E+02 1.09375E+00 0.00000E+00
 -1      1582 1.12512E+02 1.09375E+00 0.00000E+00
 -1      1583 1.12374E+02 2.18750E+00 0.00000E+00
 -1      1584 1.17012E+02 1.09375E+00 0.00000E+00
 -1      1585 1.15512E+02 1.09375E+00 0.00000E+00
 -1      1586 1.15374E+02 2.18750E+00 0.00000E+00
 -1      1587 1.20012E+02 1.09375E+00 0.00000E+00
 -1      1588 1.18512E+02 1.09375E+00 0.00000E+00
 -1      1589 1.18374E+02 2.18750E+00 0.00000E+00
 -1      1590 1.23012E+02 1.09375E+00 0.00000E+00
 -1      1591 1.21512E+02 1.09375E+00 0.00000E+00
 -1      1592 1.21374E+02 2.18750E+00 0.00000E+00
 -1      1593 1.26012E+02 1.09375E+00 0.00000E+00
 -1      1594 1.24512E+02 1.09375E+00 0.00000E+00
 -1      1595 1.24374E+02 2.18750E+00 0.00000E+00
 -1      1596 1.29012E+02 1.09375E+00 0.00000E+00
 -1      1597 1.27512E+02 1.09375E+00 0.00000E+00
 -1      1598 1.27374E+02 2.18750E+00 0.00000E+00
 -1      1599 1.32012E+02 1.09375E+00 0.00000E+00
 -1      1600 1.30512E+02 1.09375E+00 0.00000E+00
 -1      1601 1.30374E+02 2.18750E+00 0.00000E+00
 -1      1602 1.35012E+02 1.09375E+00 0.00000E+00
 -1      1603 1.33512E+02 1.09375E+00 0.00000E+00
 -1      1604 1.33374E+02 2.18750E+00 0.00000E+00
 -1      1605 1.37862E+02 1.09375E+00 0.00000E+00
 -1      1606 1.36437E+02 1.09375E+00 0.00000E+00
 -1      1607 1.36299E+02 2.18750E+00 0.00000E+00
 -1      1608 1.40862E+02 1.09375E+00 0.00000E+00
 -1      1609 1.39362E+02 1.09375E+00 0.00000E+00
 -1      1610 1.39224E+02 2.18750E+00 0.00000E+00
 -1      1611 1.43862E+02 1.09375E+00 0.00000E+00
 -1      1612 1.42362E+02 1.09375E+00 0.00000E+00
 -1      1613 1.42224E+02 2.18750E+00 0.00000E+00
 -1      1614 1.46862E+02 1.09375E+00 0.00000E+00
 -1      1615 1.45362E+02 1.09375E+00 0.00000E+00
 -1      1616 1.45224E+02 2.18750E+00 0.00000E+00
 -1      1617 1.48500E+02 1.50000E+00 0.00000E+00
 -1      1618 1.48701E+02 5.21250E+00 0.00000E+00
 -1      1619 1.48701E+02 3.73750E+00 0.00000E+00
 -1      1620 1.48701E+02 8.16250E+00 0.00000E+00
 -1      1621 1.48701E+02 6.68750E+00 0.00000E+00
 -1      1622 1.47402E+02 5.95000E+00 0.00000E+00
 -1      1623 1.48701E+02 1.11125E+01 0.00000E+00
 -1      1624 1.48701E+02 9.63750E+00 0.00000E+00
 -1      1625 1.47402E+02 8.90000E+00 0.00000E+00
 -1      1626 1.48701E+02 1.40625E+01 0.00000E+00
 -1      1627 1.48701E+02 1.25875E+01 0.00000E+00
 -1      1628 1.47402E+02 1.18500E+01 0.00000E+00
 -1      1629 1.48701E+02 1.70125E+01 0.00000E+00
 -1      1630 1.48701E+02 1.55375E+01 0.00000E+00
 -1      1631 1.47402E+02 1.48000E+01 0.00000E+00
 -1      1632 1.48701E+02 1.97625E+01 0.00000E+00
 -1      1633 1.48701E+02 1.83875E+01 0.00000E+00
 -1      1634 1.47402E+02 1.76500E+01 0.00000E+00
 -1      1635 1.48701E+02 2.27125E+01 0.00000E+00
 -1      1636 1.48701E+02 2.12375E+01 0.00000E+00
 -1      1637 1.47402E+02 2.05000E+01 0.00000E+00
 -1      1638 1.48701E+02 2.56625E+01 0.00000E+00
 -1      1639 1.48701E+02 2.41875E+01 0.00000E+00
 -1      1640 1.47402E+02 2.34500E+01 0.00000E+00
 -1      1641 1.48701E+02 2.86125E+01 0.00000E+00
 -1      1642 1.48701E+02 2.71375E+01 0.00000E+00
 -1      1643 1.47402E+02 2.64000E+01 0.00000E+00
 -1      1644 1.48701E+02 3.15625E+01 0.00000E+00
 -1      1645 1.48701E+02 3.00875E+01 0.00000E+00
 -1      1646 1.47402E+02 2.93500E+01 0.00000E+00
 -1      1647 1.48701E+02 3.45125E+01 0.00000E+00
 -1      1648 1.48701E+02 3.30375E+01 0.00000E+00
 -1      1649 1.47402E+02 3.23000E+01 0.00000E+00
 -1      1650 1.48701E+02 3.74625E+01 0.00000E+00
 -1      1651 1.48701E+02 3.59875E+01 0.00000E+00
 -1      1652 1.47402E+02 3.52500E+01 0.00000E+00
 -1      1653 1.48701E+02 4.04125E+01 0.00000E+00
 -1      1654 1.48701E+02 3.89375E+01 0.00000E+00
 -1      1655 1.47402E+02 3.82000E+01 0.00000E+00
 -1      1656 1.48701E+02 4.33625E+01 0.00000E+00
 -1      1657 1.48701E+02 4.18875E+01 0.00000E+00
 -1      1658 1.47402E+02 4.11500E+01 0.00000E+00
 -1      1659 1.48263E+02 4.60317E+01 0.00000E+00
 -1      1660 1.48263E+02 4.45568E+01 0.00000E+00
 -1      1661 1.46964E+02 4.38192E+01 0.00000E+00
 -1      1662 1.46088E+02 4.62077E+01 0.00000E+00
 -1      1663 1.36866E+02 1.88284E+01 0.00000E+00
 -1      1664 1.36935E+02 1.95221E+01 0.00000E+00
 -1      1665 1.36514E+02 1.72924E+01 0.00000E+00
 -1      1666 1.36735E+02 1.79956E+01 0.00000E+00
 -1      1667 1.35812E+02 1.58664E+01 0.00000E+00
 -1      1668 1.36170E+02 1.64997E+01 0.00000E+00
 -1      1669 1.34835E+02 1.46808E+01 0.00000E+00
 -1      1670 1.35295E+02 1.52066E+01 0.00000E+00
 -1      1671 1.33688E+02 1.36040E+01 0.00000E+00
 -1      1672 1.34272E+02 1.40457E+01 0.00000E+00
 -1      1673 1.32235E+02 1.27848E+01 0.00000E+00
 -1      1674 1.32936E+02 1.31076E+01 0.00000E+00
 -1      1675 1.30622E+02 1.24162E+01 0.00000E+00
 -1      1676 1.31352E+02 1.25753E+01 0.00000E+00
 -1      1677 1.29001E+02 1.23208E+01 0.00000E+00
 -1      1678 1.29747E+02 1.23214E+01 0.00000E+00
 -1      1679 1.27455E+02 1.25964E+01 0.00000E+00
 -1      1680 1.28153E+02 1.24490E+01 0.00000E+00
 -1      1681 1.25951E+02 1.31206E+01 0.00000E+00
 -1      1682 1.26629E+02 1.28205E+01 0.00000E+00
 -1      1683 1.24693E+02 1.39605E+01 0.00000E+00
 -1      1684 1.25245E+02 1.35667E+01 0.00000E+00
 -1      1685 1.23616E+02 1.49919E+01 0.00000E+00
 -1      1686 1.24090E+02 1.44876E+01 0.00000E+00
 -1      1687 1.22745E+02 1.62427E+01 0.00000E+00
 -1      1688 1.23118E+02 1.56410E+01 0.00000E+00
 -1      1689 1.22136E+02 1.76639E+01 0.00000E+00
 -1      1690 1.22382E+02 1.69909E+01 0.00000E+00
 -1      1691 1.21828E+02 1.91366E+01 0.00000E+00
 -1      1692 1.21931E+02 1.84577E+01 0.00000E+00
 -1      1693 1.21826E+02 2.06783E+01 0.00000E+00
 -1      1694 1.21789E+02 1.99581E+01 0.00000E+00
 -1      1695 1.22099E+02 2.22165E+01 0.00000E+00
 -1      1696 1.21915E+02 2.15205E+01 0.00000E+00
 -1      1697 1.22708E+02 2.36357E+01 0.00000E+00
 -1      1698 1.22394E+02 2.30039E+01 0.00000E+00
 -1      1699 1.23614E+02 2.49242E+01 0.00000E+00
 -1      1700 1.23162E+02 2.43506E+01 0.00000E+00
 -1      1701 1.24763E+02 2.60003E+01 0.00000E+00
 -1      1702 1.24210E+02 2.55383E+01 0.00000E+00
 -1      1703 1.26087E+02 2.68981E+01 0.00000E+00
 -1      1704 1.25437E+02 2.65531E+01 0.00000E+00
 -1      1705 1.27717E+02 2.73625E+01 0.00000E+00
 -1      1706 1.26961E+02 2.71533E+01 0.00000E+00
 -1      1707 1.29372E+02 2.75039E+01 0.00000E+00
 -1      1708 1.28616E+02 2.74666E+01 0.00000E+00
 -1      1709 1.30975E+02 2.73327E+01 0.00000E+00
 -1      1710 1.30245E+02 2.74543E+01 0.00000E+00
 -1      1711 1.32614E+02 2.68610E+01 0.00000E+00
 -1      1712 1.31871E+02 2.71625E+01 0.00000E+00
 -1      1713 1.33972E+02 2.59461E+01 0.00000E+00
 -1      1714 1.33371E+02 2.63617E+01 0.00000E+00
 -1      1715 1.35135E+02 2.48409E+01 0.00000E+00
 -1      1716 1.34624E+02 2.53836E+01 0.00000E+00
 -1      1717 1.36032E+02 2.35337E+01 0.00000E+00
 -1      1718 1.35655E+02 2.41566E+01 0.00000E+00
 -1      1719 1.36680E+02 2.20592E+01 0.00000E+00
 -1      1720 1.36436E+02 2.27665E+01 0.00000E+00
 -1      1721 1.37008E+02 2.03981E+01 0.00000E+00
 -1      1722 1.36920E+02 2.11804E+01 0.00000E+00
 -1      1723 1.34959E+02 1.39094E+01 0.00000E+00
 -1      1724 1.36038E+02 1.52043E+01 0.00000E+00
 -1      1725 1.48362E+02 2.59375E+00 0.00000E+00
 -1      1726 1.47063E+02 3.33125E+00 0.00000E+00
 -1      1727 1.37373E+02 1.82821E+01 0.00000E+00
 -1      1728 1.36899E+02 1.66567E+01 0.00000E+00
 -1      1729 1.37577E+02 1.99909E+01 0.00000E+00
 -1      1730 1.33644E+02 1.27779E+01 0.00000E+00
 -1      1731 1.32008E+02 1.20720E+01 0.00000E+00
 -1      1732 1.30250E+02 1.17677E+01 0.00000E+00
 -1      1733 1.28527E+02 1.18013E+01 0.00000E+00
 -1      1734 1.26853E+02 1.21537E+01 0.00000E+00
 -1      1735 1.25323E+02 1.28239E+01 0.00000E+00
 -1      1736 1.24015E+02 1.37972E+01 0.00000E+00
 -1      1737 1.22914E+02 1.49734E+01 0.00000E+00
 -1      1738 1.22053E+02 1.63708E+01 0.00000E+00
 -1      1739 1.21485E+02 1.79128E+01 0.00000E+00
 -1      1740 1.21241E+02 1.95279E+01 0.00000E+00
 -1      1741 1.21291E+02 2.11915E+01 0.00000E+00
 -1      1742 1.21676E+02 2.28210E+01 0.00000E+00
 -1      1743 1.22425E+02 2.43234E+01 0.00000E+00
 -1      1744 1.23475E+02 2.56525E+01 0.00000E+00
 -1      1745 1.24745E+02 2.68194E+01 0.00000E+00
 -1      1746 1.26293E+02 2.76273E+01 0.00000E+00
 -1      1747 1.28065E+02 2.79866E+01 0.00000E+00
 -1      1748 1.29837E+02 2.80411E+01 0.00000E+00
 -1      1749 1.31606E+02 2.78212E+01 0.00000E+00
 -1      1750 1.33259E+02 2.71517E+01 0.00000E+00
 -1      1751 1.34669E+02 2.60900E+01 0.00000E+00
 -1      1752 1.35842E+02 2.48431E+01 0.00000E+00
 -1      1753 1.36766E+02 2.33916E+01 0.00000E+00
 -1      1754 1.37410E+02 2.17456E+01 0.00000E+00
 -1      1755 2.87400E+00 4.77875E+01 0.00000E+00
 -1      1756 3.89700E+00 4.04125E+01 0.00000E+00
 -1      1757 3.89700E+00 4.18875E+01 0.00000E+00
 -1      1758 3.89700E+00 4.33625E+01 0.00000E+00
 -1      1759 3.89700E+00 4.48375E+01 0.00000E+00
 -1      1760 5.19600E+00 4.26250E+01 0.00000E+00
 -1      1761 3.89700E+00 3.45500E+01 0.00000E+00
 -1      1762 3.89700E+00 3.60000E+01 0.00000E+00
 -1      1763 3.89700E+00 3.16000E+01 0.00000E+00
 -1      1764 3.89700E+00 3.30750E+01 0.00000E+00
 -1      1765 5.19600E+00 3.38000E+01 0.00000E+00
 -1      1766 3.89700E+00 2.86500E+01 0.00000E+00
 -1      1767 3.89700E+00 3.01250E+01 0.00000E+00
 -1      1768 5.19600E+00 3.08500E+01 0.00000E+00
 -1      1769 3.89700E+00 2.57000E+01 0.00000E+00
 -1      1770 3.89700E+00 2.71750E+01 0.00000E+00
 -1      1771 5.19600E+00 2.79000E+01 0.00000E+00
 -1      1772 3.89700E+00 2.27500E+01 0.00000E+00
 -1      1773 3.89700E+00 2.42250E+01 0.00000E+00
 -1      1774 5.19600E+00 2.49500E+01 0.00000E+00
 -1      1775 3.89700E+00 1.98000E+01 0.00000E+00
 -1      1776 3.89700E+00 2.12750E+01 0.00000E+00
 -1      1777 5.19600E+00 2.20000E+01 0.00000E+00
 -1      1778 3.89700E+00 1.69000E+01 0.00000E+00
 -1      1779 3.89700E+00 1.83500E+01 0.00000E+00
 -1      1780 5.19600E+00 1.90750E+01 0.00000E+00
 -1      1781 3.89700E+00 1.39500E+01 0.00000E+00
 -1      1782 3.89700E+00 1.54250E+01 0.00000E+00
 -1      1783 5.19600E+00 1.61500E+01 0.00000E+00
 -1      1784 3.89700E+00 1.10000E+01 0.00000E+00
 -1      1785 3.89700E+00 1.24750E+01 0.00000E+00
 -1      1786 5.19600E+00 1.32000E+01 0.00000E+00
 -1      1787 3.89700E+00 8.05000E+00 0.00000E+00
 -1      1788 3.89700E+00 9.52500E+00 0.00000E+00
 -1      1789 5.19600E+00 1.02500E+01 0.00000E+00
 -1      1790 3.89700E+00 5.10000E+00 0.00000E+00
 -1      1791 3.89700E+00 6.57500E+00 0.00000E+00
 -1      1792 5.19600E+00 7.30000E+00 0.00000E+00
 -1      1793 4.20450E+00 3.09687E+00 0.00000E+00
 -1      1794 4.06650E+00 4.19063E+00 0.00000E+00
 -1      1795 5.36550E+00 4.91563E+00 0.00000E+00
 -1      1796 5.70450E+00 3.09687E+00 0.00000E+00
 -1      1797 3.62400E+00 4.64885E+01 0.00000E+00
 -1      1798 8.70450E+00 3.09687E+00 0.00000E+00
 -1      1799 7.20450E+00 3.09687E+00 0.00000E+00
 -1      1800 7.03500E+00 4.00625E+00 0.00000E+00
 -1      1801 4.92300E+00 4.57510E+01 0.00000E+00
 -1      1802 8.40000E+00 4.61030E+01 0.00000E+00
 -1      1803 9.90000E+00 4.61030E+01 0.00000E+00
 -1      1804 1.14000E+01 4.61030E+01 0.00000E+00
 -1      1805 1.29000E+01 4.61030E+01 0.00000E+00
 -1      1806 1.06500E+01 4.48040E+01 0.00000E+00
 -1      1807 1.44000E+01 4.61030E+01 0.00000E+00
 -1      1808 1.59000E+01 4.61030E+01 0.00000E+00
 -1      1809 1.36500E+01 4.48040E+01 0.00000E+00
 -1      1810 1.74000E+01 4.61030E+01 0.00000E+00
 -1      1811 1.89000E+01 4.61030E+01 0.00000E+00
 -1      1812 1.66500E+01 4.48040E+01 0.00000E+00
 -1      1813 2.04000E+01 4.61030E+01 0.00000E+00
 -1      1814 2.19000E+01 4.61030E+01 0.00000E+00
 -1      1815 1.96500E+01 4.48040E+01 0.00000E+00
 -1      1816 2.34000E+01 4.61030E+01 0.00000E+00
 -1      1817 2.49000E+01 4.61030E+01 0.00000E+00
 -1      1818 2.26500E+01 4.48040E+01 0.00000E+00
 -1      1819 2.64000E+01 4.61030E+01 0.00000E+00
 -1      1820 2.79000E+01 4.61030E+01 0.00000E+00
 -1      1821 2.56500E+01 4.48040E+01 0.00000E+00
 -1      1822 2.94000E+01 4.61030E+01 0.00000E+00
 -1      1823 3.09000E+01 4.61030E+01 0.00000E+00
 -1      1824 2.86500E+01 4.48040E+01 0.00000E+00
 -1      1825 3.24000E+01 4.61030E+01 0.00000E+00
 -1      1826 3.39000E+01 4.61030E+01 0.00000E+00
 -1      1827 3.16500E+01 4.48040E+01 0.00000E+00
 -1      1828 3.54000E+01 4.61030E+01 0.00000E+00
 -1      1829 3.69000E+01 4.61030E+01 0.00000E+00
 -1      1830 3.46500E+01 4.48040E+01 0.00000E+00
 -1      1831 3.84000E+01 4.61030E+01 0.00000E+00
 -1      1832 3.99000E+01 4.61030E+01 0.00000E+00
 -1      1833 3.76500E+01 4.48040E+01 0.00000E+00
 -1      1834 4.14000E+01 4.61030E+01 0.00000E+00
 -1      1835 4.29000E+01 4.61030E+01 0.00000E+00
 -1      1836 4.06500E+01 4.48040E+01 0.00000E+00
 -1      1837 4.44000E+01 4.61030E+01 0.00000E+00
 -1      1838 4.59000E+01 4.61030E+01 0.00000E+00
 -1      1839 4.36500E+01 4.48040E+01 0.00000E+00
 -1      1840 4.74000E+01 4.61030E+01 0.00000E+00
 -1      1841 4.89000E+01 4.61030E+01 0.00000E+00
 -1      1842 4.66500E+01 4.48040E+01 0.00000E+00
 -1      1843 5.04000E+01 4.61030E+01 0.00000E+00
 -1      1844 5.19000E+01 4.61030E+01 0.00000E+00
 -1      1845 4.96500E+01 4.48040E+01 0.00000E+00
 -1      1846 5.34000E+01 4.61030E+01 0.00000E+00
 -1      1847 5.49000E+01 4.61030E+01 0.00000E+00
 -1      1848 5.26500E+01 4.48040E+01 0.00000E+00
 -1      1849 5.64000E+01 4.61030E+01 0.00000E+00
 -1      1850 5.79000E+01 4.61030E+01 0.00000E+00
 -1      1851 5.56500E+01 4.48040E+01 0.00000E+00
 -1      1852 5.94000E+01 4.61030E+01 0.00000E+00
 -1      1853 6.09000E+01 4.61030E+01 0.00000E+00
 -1      1854 5.86500E+01 4.48040E+01 0.00000E+00
 -1      1855 6.24000E+01 4.61030E+01 0.00000E+00
 -1      1856 6.39000E+01 4.61030E+01 0.00000E+00
 -1      1857 6.16500E+01 4.48040E+01 0.00000E+00
 -1      1858 6.54000E+01 4.61030E+01 0.00000E+00
 -1      1859 6.69000E+01 4.61030E+01 0.00000E+00
 -1      1860 6.46500E+01 4.48040E+01 0.00000E+00
 -1      1861 6.84000E+01 4.61030E+01 0.00000E+00
 -1      1862 6.99000E+01 4.61030E+01 0.00000E+00
 -1      1863 6.76500E+01 4.48040E+01 0.00000E+00
 -1      1864 7.14000E+01 4.61030E+01 0.00000E+00
 -1      1865 7.29000E+01 4.61030E+01 0.00000E+00
 -1      1866 7.06500E+01 4.48040E+01 0.00000E+00
 -1      1867 7.44000E+01 4.61030E+01 0.00000E+00
 -1      1868 7.59000E+01 4.61030E+01 0.00000E+00
 -1      1869 7.36500E+01 4.48040E+01 0.00000E+00
 -1      1870 7.74000E+01 4.61030E+01 0.00000E+00
 -1      1871 7.89000E+01 4.61030E+01 0.00000E+00
 -1      1872 7.66500E+01 4.48040E+01 0.00000E+00
 -1      1873 8.04000E+01 4.61030E+01 0.00000E+00
 -1      1874 8.19000E+01 4.61030E+01 0.00000E+00
 -1      1875 7.96500E+01 4.48040E+01 0.00000E+00
 -1      1876 8.34000E+01 4.61030E+01 0.00000E+00
 -1      1877 8.49000E+01 4.61030E+01 0.00000E+00
 -1      1878 8.26500E+01 4.48040E+01 0.00000E+00
 -1      1879 8.64000E+01 4.61030E+01 0.00000E+00
 -1      1880 8.79000E+01 4.61030E+01 0.00000E+00
 -1      1881 8.56500E+01 4.48040E+01 0.00000E+00
 -1      1882 8.94000E+01 4.61030E+01 0.00000E+00
 -1      1883 9.09000E+01 4.61030E+01 0.00000E+00
 -1      1884 8.86500E+01 4.48040E+01 0.00000E+00
 -1      1885 9.24000E+01 4.61030E+01 0.00000E+00
 -1      1886 9.39000E+01 4.61030E+01 0.00000E+00
 -1      1887 9.16500E+01 4.48040E+01 0.00000E+00
 -1      1888 9.54000E+01 4.61030E+01 0.00000E+00
 -1      1889 9.69000E+01 4.61030E+01 0.00000E+00
 -1      1890 9.46500E+01 4.48040E+01 0.00000E+00
 -1      1891 9.84000E+01 4.61030E+01 0.00000E+00
 -1      1892 9.99000E+01 4.61030E+01 0.00000E+00
 -1      1893 9.76500E+01 4.48040E+01 0.00000E+00
 -1      1894 1.01400E+02 4.61030E+01 0.00000E+00
 -1      1895 1.02900E+02 4.61030E+01 0.00000E+00
 -1      1896 1.00650E+02 4.48040E+01 0.00000E+00
 -1      1897 1.04400E+02 4.61030E+01 0.00000E+00
 -1      1898 1.05900E+02 4.61030E+01 0.00000E+00
 -1      1899 1.03650E+02 4.48040E+01 0.00000E+00
 -1      1900 1.07400E+02 4.61030E+01 0.00000E+00
 -1      1901 1.08900E+02 4.61030E+01 0.00000E+00
 -1      1902 1.06650E+02 4.48040E+01 0.00000E+00
 -1      1903 1.10400E+02 4.61030E+01 0.00000E+00
 -1      1904 1.11900E+02 4.61030E+01 0.00000E+00
 -1      1905 1.09650E+02 4.48040E+01 0.00000E+00
 -1      1906 1.13400E+02 4.61030E+01 0.00000E+00
 -1      1907 1.14900E+02 4.61030E+01 0.00000E+00
 -1      1908 1.12650E+02 4.48040E+01 0.00000E+00
 -1      1909 1.16400E+02 4.61030E+01 0.00000E+00
 -1      1910 1.17900E+02 4.61030E+01 0.00000E+00
 -1      1911 1.15650E+02 4.48040E+01 0.00000E+00
 -1      1912 1.19400E+02 4.61030E+01 0.00000E+00
 -1      1913 1.20900E+02 4.61030E+01 0.00000E+00
 -1      1914 1.18650E+02 4.48040E+01 0.00000E+00
 -1      1915 1.22400E+02 4.61030E+01 0.00000E+00
 -1      1916 1.23900E+02 4.61030E+01 0.00000E+00
 -1      1917 1.21650E+02 4.48040E+01 0.00000E+00
 -1      1918 1.25400E+02 4.61030E+01 0.00000E+00
 -1      1919 1.26900E+02 4.61030E+01 0.00000E+00
 -1      1920 1.24650E+02 4.48040E+01 0.00000E+00
 -1      1921 1.28400E+02 4.61030E+01 0.00000E+00
 -1      1922 1.29900E+02 4.61030E+01 0.00000E+00
 -1      1923 1.27650E+02 4.48040E+01 0.00000E+00
 -1      1924 1.31400E+02 4.61030E+01 0.00000E+00
 -1      1925 1.32900E+02 4.61030E+01 0.00000E+00
 -1      1926 1.30650E+02 4.48040E+01 0.00000E+00
 -1      1927 1.34400E+02 4.61030E+01 0.00000E+00
 -1      1928 1.35900E+02 4.61030E+01 0.00000E+00
 -1      1929 1.33650E+02 4.48040E+01 0.00000E+00
 -1      1930 1.37400E+02 4.61030E+01 0.00000E+00
 -1      1931 1.38900E+02 4.61030E+01 0.00000E+00
 -1      1932 1.36650E+02 4.48040E+01 0.00000E+00
 -1      1933 1.40400E+02 4.61030E+01 0.00000E+00
 -1      1934 1.41900E+02 4.61030E+01 0.00000E+00
 -1      1935 1.39650E+02 4.48040E+01 0.00000E+00
 -1      1936 1.43244E+02 4.61554E+01 0.00000E+00
 -1      1937 1.44744E+02 4.61554E+01 0.00000E+00
 -1      1938 1.45182E+02 4.49611E+01 0.00000E+00
 -1      1939 1.42494E+02 4.48564E+01 0.00000E+00
 -1      1940 1.17045E+01 3.09687E+00 0.00000E+00
 -1      1941 1.02045E+01 3.09687E+00 0.00000E+00
 -1      1942 1.00350E+01 4.00625E+00 0.00000E+00
 -1      1943 1.47045E+01 3.09687E+00 0.00000E+00
 -1      1944 1.32045E+01 3.09687E+00 0.00000E+00
 -1      1945 1.30350E+01 4.00625E+00 0.00000E+00
 -1      1946 1.77045E+01 3.09687E+00 0.00000E+00
 -1      1947 1.62045E+01 3.09687E+00 0.00000E+00
 -1      1948 1.60350E+01 4.00625E+00 0.00000E+00
 -1      1949 2.07045E+01 3.09687E+00 0.00000E+00
 -1      1950 1.92045E+01 3.09687E+00 0.00000E+00
 -1      1951 1.90350E+01 4.00625E+00 0.00000E+00
 -1      1952 2.37045E+01 3.09687E+00 0.00000E+00
 -1      1953 2.22045E+01 3.09687E+00 0.00000E+00
 -1      1954 2.20350E+01 4.00625E+00 0.00000E+00
 -1      1955 2.67045E+01 3.09687E+00 0.00000E+00
 -1      1956 2.52045E+01 3.09687E+00 0.00000E+00
 -1      1957 2.50350E+01 4.00625E+00 0.00000E+00
 -1      1958 2.97045E+01 3.09687E+00 0.00000E+00
 -1      1959 2.82045E+01 3.09687E+00 0.00000E+00
 -1      1960 2.80350E+01 4.00625E+00 0.00000E+00
 -1      1961 3.27045E+01 3.09687E+00 0.00000E+00
 -1      1962 3.12045E+01 3.09687E+00 0.00000E+00
 -1      1963 3.10350E+01 4.00625E+00 0.00000E+00
 -1      1964 3.57045E+01 3.09687E+00 0.00000E+00
 -1      1965 3.42045E+01 3.09687E+00 0.00000E+00
 -1      1966 3.40350E+01 4.00625E+00 0.00000E+00
 -1      1967 3.87045E+01 3.09687E+00 0.00000E+00
 -1      1968 3.72045E+01 3.09687E+00 0.00000E+00
 -1      1969 3.70350E+01 4.00625E+00 0.00000E+00
 -1      1970 4.17045E+01 3.09687E+00 0.00000E+00
 -1      1971 4.02045E+01 3.09687E+00 0.00000E+00
 -1      1972 4.00350E+01 4.00625E+00 0.00000E+00
 -1      1973 4.47045E+01 3.09687E+00 0.00000E+00
 -1      1974 4.32045E+01 3.09687E+00 0.00000E+00
 -1      1975 4.30350E+01 4.00625E+00 0.00000E+00
 -1      1976 4.77045E+01 3.09687E+00 0.00000E+00
 -1      1977 4.62045E+01 3.09687E+00 0.00000E+00
 -1      1978 4.60350E+01 4.00625E+00 0.00000E+00
 -1      1979 5.07045E+01 3.09687E+00 0.00000E+00
 -1      1980 4.92045E+01 3.09687E+00 0.00000E+00
 -1      1981 4.90350E+01 4.00625E+00 0.00000E+00
 -1      1982 5.37045E+01 3.09687E+00 0.00000E+00
 -1      1983 5.22045E+01 3.09687E+00 0.00000E+00
 -1      1984 5.20350E+01 4.00625E+00 0.00000E+00
 -1      1985 5.67045E+01 3.09687E+00 0.00000E+00
 -1      1986 5.52045E+01 3.09687E+00 0.00000E+00
 -1      1987 5.50350E+01 4.00625E+00 0.00000E+00
 -1      1988 5.97045E+01 3.09687E+00 0.00000E+00
 -1      1989 5.82045E+01 3.09687E+00 0.00000E+00
 -1      1990 5.80350E+01 4.00625E+00 0.00000E+00
 -1      1991 6.27045E+01 3.09687E+00 0.00000E+00
 -1      1992 6.12045E+01 3.09687E+00 0.00000E+00
 -1      1993 6.10350E+01 4.00625E+00 0.00000E+00
 -1      1994 6.57045E+01 3.09687E+00 0.00000E+00
 -1      1995 6.42045E+01 3.09687E+00 0.00000E+00
 -1      1996 6.40350E+01 4.00625E+00 0.00000E+00
 -1      1997 6.87045E+01 3.09687E+00 0.00000E+00
 -1      1998 6.72045E+01 3.09687E+00 0.00000E+00
 -1      1999 6.70350E+01 4.00625E+00 0.00000E+00
 -1      2000 7.17045E+01 3.09687E+00 0.00000E+00
 -1      2001 7.02045E+01 3.09687E+00 0.00000E+00
 -1      2002 7.00350E+01 4.00625E+00 0.00000E+00
 -1      2003 7.47045E+01 3.09687E+00 0.00000E+00
 -1      2004 7.32045E+01 3.09687E+00 0.00000E+00
 -1      2005 7.30350E+01 4.00625E+00 0.00000E+00
 -1      2006 7.77045E+01 3.09687E+00 0.00000E+00
 -1      2007 7.62045E+01 3.09687E+00 0.00000E+00
 -1      2008 7.60350E+01 4.00625E+00 0.00000E+00
 -1      2009 8.07045E+01 3.09687E+00 0.00000E+00
 -1      2010 7.92045E+01 3.09687E+00 0.00000E+00
 -1      2011 7.90350E+01 4.00625E+00 0.00000E+00
 -1      2012 8.37045E+01 3.09687E+00 0.00000E+00
 -1      2013 8.22045E+01 3.09687E+00 0.00000E+00
 -1      2014 8.20350E+01 4.00625E+00 0.00000E+00
 -1      2015 8.67045E+01 3.09687E+00 0.00000E+00
 -1      2016 8.52045E+01 3.09687E+00 0.00000E+00
 -1      2017 8.50350E+01 4.00625E+00 0.00000E+00
 -1      2018 8.97045E+01 3.09687E+00 0.00000E+00
 -1      2019 8.82045E+01 3.09687E+00 0.00000E+00
 -1      2020 8.80350E+01 4.00625E+00 0.00000E+00
 -1      2021 9.27045E+01 3.09687E+00 0.00000E+00
 -1      2022 9.12045E+01 3.09687E+00 0.00000E+00
 -1      2023 9.10350E+01 4.00625E+00 0.00000E+00
 -1      2024 9.57045E+01 3.09687E+00 0.00000E+00
 -1      2025 9.42045E+01 3.09687E+00 0.00000E+00
 -1      2026 9.40350E+01 4.00625E+00 0.00000E+00
 -1      2027 9.87045E+01 3.09687E+00 0.00000E+00
 -1      2028 9.72045E+01 3.09687E+00 0.00000E+00
 -1      2029 9.70350E+01 4.00625E+00 0.00000E+00
 -1      2030 1.01704E+02 3.09687E+00 0.00000E+00
 -1      2031 1.00204E+02 3.09687E+00 0.00000E+00
 -1      2032 1.00035E+02 4.00625E+00 0.00000E+00
 -1      2033 1.04704E+02 3.09687E+00 0.00000E+00
 -1      2034 1.03204E+02 3.09687E+00 0.00000E+00
 -1      2035 1.03035E+02 4.00625E+00 0.00000E+00
 -1      2036 1.07704E+02 3.09687E+00 0.00000E+00
 -1      2037 1.06204E+02 3.09687E+00 0.00000E+00
 -1      2038 1.06035E+02 4.00625E+00 0.00000E+00
 -1      2039 1.10704E+02 3.09687E+00 0.00000E+00
 -1      2040 1.09204E+02 3.09687E+00 0.00000E+00
 -1      2041 1.09035E+02 4.00625E+00 0.00000E+00
 -1      2042 1.13704E+02 3.09687E+00 0.00000E+00
 -1      2043 1.12204E+02 3.09687E+00 0.00000E+00
 -1      2044 1.12035E+02 4.00625E+00 0.00000E+00
 -1      2045 1.16704E+02 3.09687E+00 0.00000E+00
 -1      2046 1.15204E+02 3.09687E+00 0.00000E+00
 -1      2047 1.15035E+02 4.00625E+00 0.00000E+00
 -1      2048 1.19704E+02 3.09687E+00 0.00000E+00
 -1      2049 1.18204E+02 3.09687E+00 0.00000E+00
 -1      2050 1.18035E+02 4.00625E+00 0.00000E+00
 -1      2051 1.22704E+02 3.09687E+00 0.00000E+00
 -1      2052 1.21204E+02 3.09687E+00 0.00000E+00
 -1      2053 1.21035E+02 4.00625E+00 0.00000E+00
 -1      2054 1.25704E+02 3.09687E+00 0.00000E+00
 -1      2055 1.24204E+02 3.09687E+00 0.00000E+00
 -1      2056 1.24035E+02 4.00625E+00 0.00000E+00
 -1      2057 1.28704E+02 3.09687E+00 0.00000E+00
 -1      2058 1.27204E+02 3.09687E+00 0.00000E+00
 -1      2059 1.27035E+02 4.00625E+00 0.00000E+00
 -1      2060 1.31704E+02 3.09687E+00 0.00000E+00
 -1      2061 1.30204E+02 3.09687E+00 0.00000E+00
 -1      2062 1.30035E+02 4.00625E+00 0.00000E+00
 -1      2063 1.34704E+02 3.09687E+00 0.00000E+00
 -1      2064 1.33204E+02 3.09687E+00 0.00000E+00
 -1      2065 1.33035E+02 4.00625E+00 0.00000E+00
 -1      2066 1.37555E+02 3.09687E+00 0.00000E+00
 -1      2067 1.36130E+02 3.09687E+00 0.00000E+00
 -1      2068 1.35960E+02 4.00625E+00 0.00000E+00
 -1      2069 1.40555E+02 3.09687E+00 0.00000E+00
 -1      2070 1.39055E+02 3.09687E+00 0.00000E+00
 -1      2071 1.38885E+02 4.00625E+00 0.00000E+00
 -1      2072 1.43555E+02 3.09687E+00 0.00000E+00
 -1      2073 1.42055E+02 3.09687E+00 0.00000E+00
 -1      2074 1.41885E+02 4.00625E+00 0.00000E+00
 -1      2075 1.46059E+02 3.21406E+00 0.00000E+00
 -1      2076 1.44559E+02 3.21406E+00 0.00000E+00
 -1      2077 1.44389E+02 4.12344E+00 0.00000E+00
 -1      2078 1.46398E+02 4.35781E+00 0.00000E+00
 -1      2079 1.46103E+02 1.25875E+01 0.00000E+00
 -1      2080 1.46103E+02 1.11125E+01 0.00000E+00
 -1      2081 1.46103E+02 9.63750E+00 0.00000E+00
 -1      2082 1.46103E+02 8.16250E+00 0.00000E+00
 -1      2083 1.44804E+02 1.03750E+01 0.00000E+00
 -1      2084 1.46250E+02 6.99766E+00 0.00000E+00
 -1      2085 1.46250E+02 5.52266E+00 0.00000E+00
 -1      2086 1.45246E+02 5.40547E+00 0.00000E+00
 -1      2087 1.44951E+02 7.73516E+00 0.00000E+00
 -1      2088 1.46103E+02 1.55375E+01 0.00000E+00
 -1      2089 1.46103E+02 1.40625E+01 0.00000E+00
 -1      2090 1.44804E+02 1.33250E+01 0.00000E+00
 -1      2091 1.46103E+02 1.82875E+01 0.00000E+00
 -1      2092 1.46103E+02 1.69125E+01 0.00000E+00
 -1      2093 1.44804E+02 1.61750E+01 0.00000E+00
 -1      2094 1.46103E+02 2.12375E+01 0.00000E+00
 -1      2095 1.46103E+02 1.97625E+01 0.00000E+00
 -1      2096 1.44804E+02 1.90250E+01 0.00000E+00
 -1      2097 1.46103E+02 2.41875E+01 0.00000E+00
 -1      2098 1.46103E+02 2.27125E+01 0.00000E+00
 -1      2099 1.44804E+02 2.19750E+01 0.00000E+00
 -1      2100 1.46103E+02 2.71375E+01 0.00000E+00
 -1      2101 1.46103E+02 2.56625E+01 0.00000E+00
 -1      2102 1.44804E+02 2.49250E+01 0.00000E+00
 -1      2103 1.46103E+02 3.00875E+01 0.00000E+00
 -1      2104 1.46103E+02 2.86125E+01 0.00000E+00
 -1      2105 1.44804E+02 2.78750E+01 0.00000E+00
 -1      2106 1.46103E+02 3.30375E+01 0.00000E+00
 -1      2107 1.46103E+02 3.15625E+01 0.00000E+00
 -1      2108 1.44804E+02 3.08250E+01 0.00000E+00
 -1      2109 1.46103E+02 3.59875E+01 0.00000E+00
 -1      2110 1.46103E+02 3.45125E+01 0.00000E+00
 -1      2111 1.44804E+02 3.37750E+01 0.00000E+00
 -1      2112 1.46103E+02 3.89375E+01 0.00000E+00
 -1      2113 1.46103E+02 3.74625E+01 0.00000E+00
 -1      2114 1.44804E+02 3.67250E+01 0.00000E+00
 -1      2115 1.46103E+02 4.18875E+01 0.00000E+00
 -1      2116 1.46103E+02 4.04125E+01 0.00000E+00
 -1      2117 1.44804E+02 3.96750E+01 0.00000E+00
 -1      2118 1.37399E+02 1.59691E+01 0.00000E+00
 -1      2119 1.37742E+02 1.67618E+01 0.00000E+00
 -1      2120 1.38353E+02 1.94852E+01 0.00000E+00
 -1      2121 1.38426E+02 2.03612E+01 0.00000E+00
 -1      2122 1.38092E+02 1.78197E+01 0.00000E+00
 -1      2123 1.38223E+02 1.86525E+01 0.00000E+00
 -1      2124 1.39072E+02 1.90229E+01 0.00000E+00
 -1      2125 1.36323E+02 1.44488E+01 0.00000E+00
 -1      2126 1.36840E+02 1.51085E+01 0.00000E+00
 -1      2127 1.35198E+02 1.31786E+01 0.00000E+00
 -1      2128 1.35760E+02 1.38137E+01 0.00000E+00
 -1      2129 1.36562E+02 1.37179E+01 0.00000E+00
 -1      2130 3.89700E+00 3.74688E+01 0.00000E+00
 -1      2131 3.89700E+00 3.89437E+01 0.00000E+00
 -1      2132 5.19600E+00 3.96813E+01 0.00000E+00
 -1      2133 5.19600E+00 3.67438E+01 0.00000E+00
 -1      2134 1.31716E+02 1.13366E+01 0.00000E+00
 -1      2135 1.32600E+02 1.15461E+01 0.00000E+00
 -1      2136 1.29891E+02 1.09927E+01 0.00000E+00
 -1      2137 1.30766E+02 1.10875E+01 0.00000E+00
 -1      2138 1.28006E+02 1.12246E+01 0.00000E+00
 -1      2139 1.28853E+02 1.10964E+01 0.00000E+00
 -1      2140 1.26216E+02 1.14381E+01 0.00000E+00
 -1      2141 1.27041E+02 1.12140E+01 0.00000E+00
 -1      2142 1.24579E+02 1.24285E+01 0.00000E+00
 -1      2143 1.25284E+02 1.19823E+01 0.00000E+00
 -1      2144 1.23286E+02 1.35728E+01 0.00000E+00
 -1      2145 1.23889E+02 1.30458E+01 0.00000E+00
 -1      2146 1.22051E+02 1.48272E+01 0.00000E+00
 -1      2147 1.22549E+02 1.41781E+01 0.00000E+00
 -1      2148 1.21251E+02 1.64434E+01 0.00000E+00
 -1      2149 1.21614E+02 1.56951E+01 0.00000E+00
 -1      2150 1.20755E+02 1.81479E+01 0.00000E+00
 -1      2151 1.20960E+02 1.73541E+01 0.00000E+00
 -1      2152 1.20491E+02 1.99041E+01 0.00000E+00
 -1      2153 1.20530E+02 1.90827E+01 0.00000E+00
 -1      2154 1.20566E+02 2.16938E+01 0.00000E+00
 -1      2155 1.20477E+02 2.08516E+01 0.00000E+00
 -1      2156 1.21216E+02 2.34423E+01 0.00000E+00
 -1      2157 1.20921E+02 2.26549E+01 0.00000E+00
 -1      2158 1.21999E+02 2.50957E+01 0.00000E+00
 -1      2159 1.21545E+02 2.43807E+01 0.00000E+00
 -1      2160 1.23277E+02 2.64400E+01 0.00000E+00
 -1      2161 1.22682E+02 2.58259E+01 0.00000E+00
 -1      2162 1.24645E+02 2.76294E+01 0.00000E+00
 -1      2163 1.23970E+02 2.70766E+01 0.00000E+00
 -1      2164 1.26524E+02 2.84574E+01 0.00000E+00
 -1      2165 1.25651E+02 2.82022E+01 0.00000E+00
 -1      2166 1.28421E+02 2.88489E+01 0.00000E+00
 -1      2167 1.27522E+02 2.87448E+01 0.00000E+00
 -1      2168 1.30317E+02 2.87888E+01 0.00000E+00
 -1      2169 1.29445E+02 2.88384E+01 0.00000E+00
 -1      2170 1.32183E+02 2.84140E+01 0.00000E+00
 -1      2171 1.31287E+02 2.85842E+01 0.00000E+00
 -1      2172 1.34064E+02 2.75480E+01 0.00000E+00
 -1      2173 1.33307E+02 2.80473E+01 0.00000E+00
 -1      2174 1.35445E+02 2.63313E+01 0.00000E+00
 -1      2175 1.34793E+02 2.68938E+01 0.00000E+00
 -1      2176 1.36651E+02 2.49187E+01 0.00000E+00
 -1      2177 1.36131E+02 2.56030E+01 0.00000E+00
 -1      2178 1.37653E+02 2.33687E+01 0.00000E+00
 -1      2179 1.37249E+02 2.41359E+01 0.00000E+00
 -1      2180 1.38196E+02 2.14876E+01 0.00000E+00
 -1      2181 1.37956E+02 2.23664E+01 0.00000E+00
 -1      2182 1.33625E+02 1.19888E+01 0.00000E+00
 -1      2183 1.34377E+02 1.24853E+01 0.00000E+00
 -1      2184 1.35179E+02 1.23895E+01 0.00000E+00
 -1      2185 6.42300E+00 4.57510E+01 0.00000E+00
 -1      2186 1.27368E+02 1.05091E+01 0.00000E+00
 -1      2187 1.33333E+02 1.12535E+01 0.00000E+00
 -1      2188 7.17300E+00 4.44520E+01 0.00000E+00
 -1      2189 1.38592E+02 1.71321E+01 0.00000E+00
 -1      2190 1.37683E+02 1.52136E+01 0.00000E+00
 -1      2191 1.45665E+02 4.30817E+01 0.00000E+00
 -1      2192 1.38972E+02 2.09820E+01 0.00000E+00
 -1      2193 1.38439E+02 2.31107E+01 0.00000E+00
 -1      2194 1.37538E+02 2.48958E+01 0.00000E+00
 -1      2195 1.36255E+02 2.64068E+01 0.00000E+00
 -1      2196 1.34840E+02 2.77894E+01 0.00000E+00
 -1      2197 1.32987E+02 2.88103E+01 0.00000E+00
 -1      2198 1.30894E+02 2.93816E+01 0.00000E+00
 -1      2199 1.28901E+02 2.95966E+01 0.00000E+00
 -1      2200 1.26880E+02 2.93197E+01 0.00000E+00
 -1      2201 1.24876E+02 2.84595E+01 0.00000E+00
 -1      2202 1.23177E+02 2.72500E+01 0.00000E+00
 -1      2203 1.21801E+02 2.58832E+01 0.00000E+00
 -1      2204 1.20790E+02 2.42146E+01 0.00000E+00
 -1      2205 1.20107E+02 2.23150E+01 0.00000E+00
 -1      2206 1.19766E+02 2.04064E+01 0.00000E+00
 -1      2207 1.20004E+02 1.85240E+01 0.00000E+00
 -1      2208 1.20521E+02 1.66785E+01 0.00000E+00
 -1      2209 1.21249E+02 1.48998E+01 0.00000E+00
 -1      2210 1.22424E+02 1.34267E+01 0.00000E+00
 -1      2211 1.23851E+02 1.22041E+01 0.00000E+00
 -1      2212 1.25472E+02 1.10427E+01 0.00000E+00
 -1      2213 1.31357E+02 1.05616E+01 0.00000E+00
 -1      2214 1.29370E+02 1.04161E+01 0.00000E+00
 -1      2215 1.07850E+01 5.30525E+00 0.00000E+00
 -1      2216 9.28500E+00 5.30525E+00 0.00000E+00
 -1      2217 6.49500E+00 3.01125E+01 0.00000E+00
 -1      2218 6.49500E+00 3.15875E+01 0.00000E+00
 -1      2219 6.49500E+00 3.30625E+01 0.00000E+00
 -1      2220 6.49500E+00 3.45375E+01 0.00000E+00
 -1      2221 7.79400E+00 3.23250E+01 0.00000E+00
 -1      2222 6.49500E+00 2.42125E+01 0.00000E+00
 -1      2223 6.49500E+00 2.56875E+01 0.00000E+00
 -1      2224 6.49500E+00 2.12625E+01 0.00000E+00
 -1      2225 6.49500E+00 2.27375E+01 0.00000E+00
 -1      2226 7.79400E+00 2.34750E+01 0.00000E+00
 -1      2227 6.49500E+00 1.83625E+01 0.00000E+00
 -1      2228 6.49500E+00 1.98125E+01 0.00000E+00
 -1      2229 7.79400E+00 2.05500E+01 0.00000E+00
 -1      2230 6.49500E+00 1.54125E+01 0.00000E+00
 -1      2231 6.49500E+00 1.68875E+01 0.00000E+00
 -1      2232 7.79400E+00 1.76250E+01 0.00000E+00
 -1      2233 6.49500E+00 1.24625E+01 0.00000E+00
 -1      2234 6.49500E+00 1.39375E+01 0.00000E+00
 -1      2235 7.79400E+00 1.46750E+01 0.00000E+00
 -1      2236 6.49500E+00 9.51250E+00 0.00000E+00
 -1      2237 6.49500E+00 1.09875E+01 0.00000E+00
 -1      2238 7.79400E+00 1.17250E+01 0.00000E+00
 -1      2239 1.37850E+01 5.30525E+00 0.00000E+00
 -1      2240 1.22850E+01 5.30525E+00 0.00000E+00
 -1      2241 1.15350E+01 6.60425E+00 0.00000E+00
 -1      2242 9.90000E+00 4.35050E+01 0.00000E+00
 -1      2243 1.14000E+01 4.35050E+01 0.00000E+00
 -1      2244 1.26896E+02 9.64630E+00 0.00000E+00
 -1      2245 1.27860E+02 9.65690E+00 0.00000E+00
 -1      2246 1.29000E+01 4.35050E+01 0.00000E+00
 -1      2247 1.44000E+01 4.35050E+01 0.00000E+00
 -1      2248 1.21500E+01 4.22060E+01 0.00000E+00
 -1      2249 1.59000E+01 4.35050E+01 0.00000E+00
 -1      2250 1.74000E+01 4.35050E+01 0.00000E+00
 -1      2251 1.51500E+01 4.22060E+01 0.00000E+00
 -1      2252 1.89000E+01 4.35050E+01 0.00000E+00
 -1      2253 2.04000E+01 4.35050E+01 0.00000E+00
 -1      2254 1.81500E+01 4.22060E+01 0.00000E+00
 -1      2255 2.19000E+01 4.35050E+01 0.00000E+00
 -1      2256 2.34000E+01 4.35050E+01 0.00000E+00
 -1      2257 2.11500E+01 4.22060E+01 0.00000E+00
 -1      2258 2.49000E+01 4.35050E+01 0.00000E+00
 -1      2259 2.64000E+01 4.35050E+01 0.00000E+00
 -1      2260 2.41500E+01 4.22060E+01 0.00000E+00
 -1      2261 2.79000E+01 4.35050E+01 0.00000E+00
 -1      2262 2.94000E+01 4.35050E+01 0.00000E+00
 -1      2263 2.71500E+01 4.22060E+01 0.00000E+00
 -1      2264 3.09000E+01 4.35050E+01 0.00000E+00
 -1      2265 3.24000E+01 4.35050E+01 0.00000E+00
 -1      2266 3.01500E+01 4.22060E+01 0.00000E+00
 -1      2267 3.39000E+01 4.35050E+01 0.00000E+00
 -1      2268 3.54000E+01 4.35050E+01 0.00000E+00
 -1      2269 3.31500E+01 4.22060E+01 0.00000E+00
 -1      2270 3.69000E+01 4.35050E+01 0.00000E+00
 -1      2271 3.84000E+01 4.35050E+01 0.00000E+00
 -1      2272 3.61500E+01 4.22060E+01 0.00000E+00
 -1      2273 3.99000E+01 4.35050E+01 0.00000E+00
 -1      2274 4.14000E+01 4.35050E+01 0.00000E+00
 -1      2275 3.91500E+01 4.22060E+01 0.00000E+00
 -1      2276 4.29000E+01 4.35050E+01 0.00000E+00
 -1      2277 4.44000E+01 4.35050E+01 0.00000E+00
 -1      2278 4.21500E+01 4.22060E+01 0.00000E+00
 -1      2279 4.59000E+01 4.35050E+01 0.00000E+00
 -1      2280 4.74000E+01 4.35050E+01 0.00000E+00
 -1      2281 4.51500E+01 4.22060E+01 0.00000E+00
 -1      2282 4.89000E+01 4.35050E+01 0.00000E+00
 -1      2283 5.04000E+01 4.35050E+01 0.00000E+00
 -1      2284 4.81500E+01 4.22060E+01 0.00000E+00
 -1      2285 5.19000E+01 4.35050E+01 0.00000E+00
 -1      2286 5.34000E+01 4.35050E+01 0.00000E+00
 -1      2287 5.11500E+01 4.22060E+01 0.00000E+00
 -1      2288 5.49000E+01 4.35050E+01 0.00000E+00
 -1      2289 5.64000E+01 4.35050E+01 0.00000E+00
 -1      2290 5.41500E+01 4.22060E+01 0.00000E+00
 -1      2291 5.79000E+01 4.35050E+01 0.00000E+00
 -1      2292 5.94000E+01 4.35050E+01 0.00000E+00
 -1      2293 5.71500E+01 4.22060E+01 0.00000E+00
 -1      2294 6.09000E+01 4.35050E+01 0.00000E+00
 -1      2295 6.24000E+01 4.35050E+01 0.00000E+00
 -1      2296 6.01500E+01 4.22060E+01 0.00000E+00
 -1      2297 6.39000E+01 4.35050E+01 0.00000E+00
 -1      2298 6.54000E+01 4.35050E+01 0.00000E+00
 -1      2299 6.31500E+01 4.22060E+01 0.00000E+00
 -1      2300 6.69000E+01 4.35050E+01 0.00000E+00
 -1      2301 6.84000E+01 4.35050E+01 0.00000E+00
 -1      2302 6.61500E+01 4.22060E+01 0.00000E+00
 -1      2303 6.99000E+01 4.35050E+01 0.00000E+00
 -1      2304 7.14000E+01 4.35050E+01 0.00000E+00
 -1      2305 6.91500E+01 4.22060E+01 0.00000E+00
 -1      2306 7.29000E+01 4.35050E+01 0.00000E+00
 -1      2307 7.44000E+01 4.35050E+01 0.00000E+00
 -1      2308 7.21500E+01 4.22060E+01 0.00000E+00
 -1      2309 7.59000E+01 4.35050E+01 0.00000E+00
 -1      2310 7.74000E+01 4.35050E+01 0.00000E+00
 -1      2311 7.51500E+01 4.22060E+01 0.00000E+00
 -1      2312 7.89000E+01 4.35050E+01 0.00000E+00
 -1      2313 8.04000E+01 4.35050E+01 0.00000E+00
 -1      2314 7.81500E+01 4.22060E+01 0.00000E+00
 -1      2315 8.19000E+01 4.35050E+01 0.00000E+00
 -1      2316 8.34000E+01 4.35050E+01 0.00000E+00
 -1      2317 8.11500E+01 4.22060E+01 0.00000E+00
 -1      2318 8.49000E+01 4.35050E+01 0.00000E+00
 -1      2319 8.64000E+01 4.35050E+01 0.00000E+00
 -1      2320 8.41500E+01 4.22060E+01 0.00000E+00
 -1      2321 8.79000E+01 4.35050E+01 0.00000E+00
 -1      2322 8.94000E+01 4.35050E+01 0.00000E+00
 -1      2323 8.71500E+01 4.22060E+01 0.00000E+00
 -1      2324 9.09000E+01 4.35050E+01 0.00000E+00
 -1      2325 9.24000E+01 4.35050E+01 0.00000E+00
 -1      2326 9.01500E+01 4.22060E+01 0.00000E+00
 -1      2327 9.39000E+01 4.35050E+01 0.00000E+00
 -1      2328 9.54000E+01 4.35050E+01 0.00000E+00
 -1      2329 9.31500E+01 4.22060E+01 0.00000E+00
 -1      2330 9.69000E+01 4.35050E+01 0.00000E+00
 -1      2331 9.84000E+01 4.35050E+01 0.00000E+00
 -1      2332 9.61500E+01 4.22060E+01 0.00000E+00
 -1      2333 9.99000E+01 4.35050E+01 0.00000E+00
 -1      2334 1.01400E+02 4.35050E+01 0.00000E+00
 -1      2335 9.91500E+01 4.22060E+01 0.00000E+00
 -1      2336 1.02900E+02 4.35050E+01 0.00000E+00
 -1      2337 1.04400E+02 4.35050E+01 0.00000E+00
 -1      2338 1.02150E+02 4.22060E+01 0.00000E+00
 -1      2339 1.05900E+02 4.35050E+01 0.00000E+00
 -1      2340 1.07400E+02 4.35050E+01 0.00000E+00
 -1      2341 1.05150E+02 4.22060E+01 0.00000E+00
 -1      2342 1.08900E+02 4.35050E+01 0.00000E+00
 -1      2343 1.10400E+02 4.35050E+01 0.00000E+00
 -1      2344 1.08150E+02 4.22060E+01 0.00000E+00
 -1      2345 1.11900E+02 4.35050E+01 0.00000E+00
 -1      2346 1.13400E+02 4.35050E+01 0.00000E+00
 -1      2347 1.11150E+02 4.22060E+01 0.00000E+00
 -1      2348 1.14900E+02 4.35050E+01 0.00000E+00
 -1      2349 1.16400E+02 4.35050E+01 0.00000E+00
 -1      2350 1.14150E+02 4.22060E+01 0.00000E+00
 -1      2351 1.17900E+02 4.35050E+01 0.00000E+00
 -1      2352 1.19400E+02 4.35050E+01 0.00000E+00
 -1      2353 1.17150E+02 4.22060E+01 0.00000E+00
 -1      2354 1.20900E+02 4.35050E+01 0.00000E+00
 -1      2355 1.22400E+02 4.35050E+01 0.00000E+00
 -1      2356 1.20150E+02 4.22060E+01 0.00000E+00
 -1      2357 1.23900E+02 4.35050E+01 0.00000E+00
 -1      2358 1.25400E+02 4.35050E+01 0.00000E+00
 -1      2359 1.23150E+02 4.22060E+01 0.00000E+00
 -1      2360 1.26900E+02 4.35050E+01 0.00000E+00
 -1      2361 1.28400E+02 4.35050E+01 0.00000E+00
 -1      2362 1.26150E+02 4.22060E+01 0.00000E+00
 -1      2363 1.29900E+02 4.35050E+01 0.00000E+00
 -1      2364 1.31400E+02 4.35050E+01 0.00000E+00
 -1      2365 1.29150E+02 4.22060E+01 0.00000E+00
 -1      2366 1.32900E+02 4.35050E+01 0.00000E+00
 -1      2367 1.34400E+02 4.35050E+01 0.00000E+00
 -1      2368 1.32150E+02 4.22060E+01 0.00000E+00
 -1      2369 1.35900E+02 4.35050E+01 0.00000E+00
 -1      2370 1.37400E+02 4.35050E+01 0.00000E+00
 -1      2371 1.35150E+02 4.22060E+01 0.00000E+00
 -1      2372 1.38900E+02 4.35050E+01 0.00000E+00
 -1      2373 1.40400E+02 4.35050E+01 0.00000E+00
 -1      2374 1.38150E+02 4.22060E+01 0.00000E+00
 -1      2375 1.97850E+01 5.30525E+00 0.00000E+00
 -1      2376 1.82850E+01 5.30525E+00 0.00000E+00
 -1      2377 2.27850E+01 5.30525E+00 0.00000E+00
 -1      2378 2.12850E+01 5.30525E+00 0.00000E+00
 -1      2379 2.05350E+01 6.60425E+00 0.00000E+00
 -1      2380 2.57850E+01 5.30525E+00 0.00000E+00
 -1      2381 2.42850E+01 5.30525E+00 0.00000E+00
 -1      2382 2.35350E+01 6.60425E+00 0.00000E+00
 -1      2383 2.87850E+01 5.30525E+00 0.00000E+00
 -1      2384 2.72850E+01 5.30525E+00 0.00000E+00
 -1      2385 2.65350E+01 6.60425E+00 0.00000E+00
 -1      2386 3.17850E+01 5.30525E+00 0.00000E+00
 -1      2387 3.02850E+01 5.30525E+00 0.00000E+00
 -1      2388 2.95350E+01 6.60425E+00 0.00000E+00
 -1      2389 3.47850E+01 5.30525E+00 0.00000E+00
 -1      2390 3.32850E+01 5.30525E+00 0.00000E+00
 -1      2391 3.25350E+01 6.60425E+00 0.00000E+00
 -1      2392 3.77850E+01 5.30525E+00 0.00000E+00
 -1      2393 3.62850E+01 5.30525E+00 0.00000E+00
 -1      2394 3.55350E+01 6.60425E+00 0.00000E+00
 -1      2395 4.07850E+01 5.30525E+00 0.00000E+00
 -1      2396 3.92850E+01 5.30525E+00 0.00000E+00
 -1      2397 3.85350E+01 6.60425E+00 0.00000E+00
 -1      2398 4.37850E+01 5.30525E+00 0.00000E+00
 -1      2399 4.22850E+01 5.30525E+00 0.00000E+00
 -1      2400 4.15350E+01 6.60425E+00 0.00000E+00
 -1      2401 4.67850E+01 5.30525E+00 0.00000E+00
 -1      2402 4.52850E+01 5.30525E+00 0.00000E+00
 -1      2403 4.45350E+01 6.60425E+00 0.00000E+00
 -1      2404 4.97850E+01 5.30525E+00 0.00000E+00
 -1      2405 4.82850E+01 5.30525E+00 0.00000E+00
 -1      2406 4.75350E+01 6.60425E+00 0.00000E+00
 -1      2407 5.27850E+01 5.30525E+00 0.00000E+00
 -1      2408 5.12850E+01 5.30525E+00 0.00000E+00
 -1      2409 5.05350E+01 6.60425E+00 0.00000E+00
 -1      2410 5.57850E+01 5.30525E+00 0.00000E+00
 -1      2411 5.42850E+01 5.30525E+00 0.00000E+00
 -1      2412 5.35350E+01 6.60425E+00 0.00000E+00
 -1      2413 5.87850E+01 5.30525E+00 0.00000E+00
 -1      2414 5.72850E+01 5.30525E+00 0.00000E+00
 -1      2415 5.65350E+01 6.60425E+00 0.00000E+00
 -1      2416 6.17850E+01 5.30525E+00 0.00000E+00
 -1      2417 6.02850E+01 5.30525E+00 0.00000E+00
 -1      2418 5.95350E+01 6.60425E+00 0.00000E+00
 -1      2419 6.47850E+01 5.30525E+00 0.00000E+00
 -1      2420 6.32850E+01 5.30525E+00 0.00000E+00
 -1      2421 6.25350E+01 6.60425E+00 0.00000E+00
 -1      2422 6.77850E+01 5.30525E+00 0.00000E+00
 -1      2423 6.62850E+01 5.30525E+00 0.00000E+00
 -1      2424 6.55350E+01 6.60425E+00 0.00000E+00
 -1      2425 7.07850E+01 5.30525E+00 0.00000E+00
 -1      2426 6.92850E+01 5.30525E+00 0.00000E+00
 -1      2427 6.85350E+01 6.60425E+00 0.00000E+00
 -1      2428 7.37850E+01 5.30525E+00 0.00000E+00
 -1      2429 7.22850E+01 5.30525E+00 0.00000E+00
 -1      2430 7.15350E+01 6.60425E+00 0.00000E+00
 -1      2431 7.67850E+01 5.30525E+00 0.00000E+00
 -1      2432 7.52850E+01 5.30525E+00 0.00000E+00
 -1      2433 7.45350E+01 6.60425E+00 0.00000E+00
 -1      2434 7.97850E+01 5.30525E+00 0.00000E+00
 -1      2435 7.82850E+01 5.30525E+00 0.00000E+00
 -1      2436 7.75350E+01 6.60425E+00 0.00000E+00
 -1      2437 8.27850E+01 5.30525E+00 0.00000E+00
 -1      2438 8.12850E+01 5.30525E+00 0.00000E+00
 -1      2439 8.05350E+01 6.60425E+00 0.00000E+00
 -1      2440 8.57850E+01 5.30525E+00 0.00000E+00
 -1      2441 8.42850E+01 5.30525E+00 0.00000E+00
 -1      2442 8.35350E+01 6.60425E+00 0.00000E+00
 -1      2443 8.87850E+01 5.30525E+00 0.00000E+00
 -1      2444 8.72850E+01 5.30525E+00 0.00000E+00
 -1      2445 8.65350E+01 6.60425E+00 0.00000E+00
 -1      2446 9.17850E+01 5.30525E+00 0.00000E+00
 -1      2447 9.02850E+01 5.30525E+00 0.00000E+00
 -1      2448 8.95350E+01 6.60425E+00 0.00000E+00
 -1      2449 9.47850E+01 5.30525E+00 0.00000E+00
 -1      2450 9.32850E+01 5.30525E+00 0.00000E+00
 -1      2451 9.25350E+01 6.60425E+00 0.00000E+00
 -1      2452 9.77850E+01 5.30525E+00 0.00000E+00
 -1      2453 9.62850E+01 5.30525E+00 0.00000E+00
 -1      2454 9.55350E+01 6.60425E+00 0.00000E+00
 -1      2455 1.00785E+02 5.30525E+00 0.00000E+00
 -1      2456 9.92850E+01 5.30525E+00 0.00000E+00
 -1      2457 9.85350E+01 6.60425E+00 0.00000E+00
 -1      2458 1.03785E+02 5.30525E+00 0.00000E+00
 -1      2459 1.02285E+02 5.30525E+00 0.00000E+00
 -1      2460 1.01535E+02 6.60425E+00 0.00000E+00
 -1      2461 1.06785E+02 5.30525E+00 0.00000E+00
 -1      2462 1.05285E+02 5.30525E+00 0.00000E+00
 -1      2463 1.04535E+02 6.60425E+00 0.00000E+00
 -1      2464 1.09785E+02 5.30525E+00 0.00000E+00
 -1      2465 1.08285E+02 5.30525E+00 0.00000E+00
 -1      2466 1.07535E+02 6.60425E+00 0.00000E+00
 -1      2467 1.12785E+02 5.30525E+00 0.00000E+00
 -1      2468 1.11285E+02 5.30525E+00 0.00000E+00
 -1      2469 1.10535E+02 6.60425E+00 0.00000E+00
 -1      2470 1.15785E+02 5.30525E+00 0.00000E+00
 -1      2471 1.14285E+02 5.30525E+00 0.00000E+00
 -1      2472 1.13535E+02 6.60425E+00 0.00000E+00
 -1      2473 1.18785E+02 5.30525E+00 0.00000E+00
 -1      2474 1.17285E+02 5.30525E+00 0.00000E+00
 -1      2475 1.16535E+02 6.60425E+00 0.00000E+00
 -1      2476 1.21785E+02 5.30525E+00 0.00000E+00
 -1      2477 1.20285E+02 5.30525E+00 0.00000E+00
 -1      2478 1.19535E+02 6.60425E+00 0.00000E+00
 -1      2479 1.24785E+02 5.30525E+00 0.00000E+00
 -1      2480 1.23285E+02 5.30525E+00 0.00000E+00
 -1      2481 1.22535E+02 6.60425E+00 0.00000E+00
 -1      2482 1.30785E+02 5.19895E+00 0.00000E+00
 -1      2483 1.29285E+02 5.19895E+00 0.00000E+00
 -1      2484 1.33785E+02 5.19895E+00 0.00000E+00
 -1      2485 1.32285E+02 5.19895E+00 0.00000E+00
 -1      2486 1.31535E+02 6.39164E+00 0.00000E+00
 -1      2487 1.36635E+02 5.19895E+00 0.00000E+00
 -1      2488 1.35210E+02 5.19895E+00 0.00000E+00
 -1      2489 1.34460E+02 6.39164E+00 0.00000E+00
 -1      2490 1.39635E+02 5.19895E+00 0.00000E+00
 -1      2491 1.38135E+02 5.19895E+00 0.00000E+00
 -1      2492 1.37385E+02 6.39164E+00 0.00000E+00
 -1      2493 1.42635E+02 5.19895E+00 0.00000E+00
 -1      2494 1.41135E+02 5.19895E+00 0.00000E+00
 -1      2495 1.40385E+02 6.39164E+00 0.00000E+00
 -1      2496 1.44242E+02 5.28828E+00 0.00000E+00
 -1      2497 1.43611E+02 1.68625E+01 0.00000E+00
 -1      2498 1.43611E+02 1.54875E+01 0.00000E+00
 -1      2499 1.43611E+02 1.98125E+01 0.00000E+00
 -1      2500 1.43611E+02 1.83375E+01 0.00000E+00
 -1      2501 1.42419E+02 1.76500E+01 0.00000E+00
 -1      2502 1.43505E+02 1.11125E+01 0.00000E+00
 -1      2503 1.43505E+02 9.63750E+00 0.00000E+00
 -1      2504 1.43505E+02 1.40625E+01 0.00000E+00
 -1      2505 1.43505E+02 1.25875E+01 0.00000E+00
 -1      2506 1.42206E+02 1.18500E+01 0.00000E+00
 -1      2507 1.43611E+02 2.27625E+01 0.00000E+00
 -1      2508 1.43611E+02 2.12875E+01 0.00000E+00
 -1      2509 1.42419E+02 2.06000E+01 0.00000E+00
 -1      2510 1.43611E+02 2.57125E+01 0.00000E+00
 -1      2511 1.43611E+02 2.42375E+01 0.00000E+00
 -1      2512 1.42419E+02 2.35500E+01 0.00000E+00
 -1      2513 1.43611E+02 2.86625E+01 0.00000E+00
 -1      2514 1.43611E+02 2.71875E+01 0.00000E+00
 -1      2515 1.42419E+02 2.65000E+01 0.00000E+00
 -1      2516 1.43611E+02 3.16125E+01 0.00000E+00
 -1      2517 1.43611E+02 3.01375E+01 0.00000E+00
 -1      2518 1.42419E+02 2.94500E+01 0.00000E+00
 -1      2519 1.43611E+02 3.45625E+01 0.00000E+00
 -1      2520 1.43611E+02 3.30875E+01 0.00000E+00
 -1      2521 1.42419E+02 3.24000E+01 0.00000E+00
 -1      2522 1.43611E+02 3.75125E+01 0.00000E+00
 -1      2523 1.43611E+02 3.60375E+01 0.00000E+00
 -1      2524 1.42419E+02 3.53500E+01 0.00000E+00
 -1      2525 1.43611E+02 4.04625E+01 0.00000E+00
 -1      2526 1.43611E+02 3.89875E+01 0.00000E+00
 -1      2527 1.42419E+02 3.83000E+01 0.00000E+00
 -1      2528 1.38263E+02 1.42250E+01 0.00000E+00
 -1      2529 1.38822E+02 1.50856E+01 0.00000E+00
 -1      2530 1.44321E+02 4.30294E+01 0.00000E+00
 -1      2531 1.40009E+02 2.06075E+01 0.00000E+00
 -1      2532 1.39779E+02 2.17339E+01 0.00000E+00
 -1      2533 1.67850E+01 5.30525E+00 0.00000E+00
 -1      2534 1.52850E+01 5.30525E+00 0.00000E+00
 -1      2535 1.75350E+01 6.60425E+00 0.00000E+00
 -1      2536 1.39730E+02 1.84932E+01 0.00000E+00
 -1      2537 1.39860E+02 1.93260E+01 0.00000E+00
 -1      2538 1.37138E+02 1.29549E+01 0.00000E+00
 -1      2539 1.37701E+02 1.35899E+01 0.00000E+00
 -1      2540 1.38840E+02 1.34619E+01 0.00000E+00
 -1      2541 6.55950E+00 4.28890E+01 0.00000E+00
 -1      2542 8.53650E+00 4.32410E+01 0.00000E+00
 -1      2543 9.28650E+00 4.19420E+01 0.00000E+00
 -1      2544 6.55950E+00 4.14140E+01 0.00000E+00
 -1      2545 1.39476E+02 2.27362E+01 0.00000E+00
 -1      2546 1.39173E+02 2.37385E+01 0.00000E+00
 -1      2547 1.40513E+02 2.23617E+01 0.00000E+00
 -1      2548 6.49500E+00 2.71625E+01 0.00000E+00
 -1      2549 6.49500E+00 2.86375E+01 0.00000E+00
 -1      2550 7.79400E+00 2.93750E+01 0.00000E+00
 -1      2551 7.79400E+00 2.64250E+01 0.00000E+00
 -1      2552 1.28897E+02 9.55329E+00 0.00000E+00
 -1      2553 1.29934E+02 9.44969E+00 0.00000E+00
 -1      2554 1.28424E+02 8.69049E+00 0.00000E+00
 -1      2555 1.33110E+02 1.03602E+01 0.00000E+00
 -1      2556 1.34136E+02 1.08029E+01 0.00000E+00
 -1      2557 1.31100E+02 9.60755E+00 0.00000E+00
 -1      2558 1.32050E+02 9.85669E+00 0.00000E+00
 -1      2559 1.24574E+02 1.05743E+01 0.00000E+00
 -1      2560 1.25506E+02 1.00301E+01 0.00000E+00
 -1      2561 1.22934E+02 1.18739E+01 0.00000E+00
 -1      2562 1.23623E+02 1.12566E+01 0.00000E+00
 -1      2563 1.21459E+02 1.30844E+01 0.00000E+00
 -1      2564 1.22196E+02 1.24791E+01 0.00000E+00
 -1      2565 1.21969E+02 1.15316E+01 0.00000E+00
 -1      2566 1.20302E+02 1.49669E+01 0.00000E+00
 -1      2567 1.20739E+02 1.40990E+01 0.00000E+00
 -1      2568 1.19678E+02 1.69110E+01 0.00000E+00
 -1      2569 1.19969E+02 1.60003E+01 0.00000E+00
 -1      2570 1.19140E+02 1.88102E+01 0.00000E+00
 -1      2571 1.19365E+02 1.78754E+01 0.00000E+00
 -1      2572 1.18902E+02 2.08680E+01 0.00000E+00
 -1      2573 1.18915E+02 1.99205E+01 0.00000E+00
 -1      2574 1.19598E+02 2.30490E+01 0.00000E+00
 -1      2575 1.19243E+02 2.20879E+01 0.00000E+00
 -1      2576 1.20224E+02 2.49393E+01 0.00000E+00
 -1      2577 1.19896E+02 2.40009E+01 0.00000E+00
 -1      2578 1.21578E+02 2.67768E+01 0.00000E+00
 -1      2579 1.20895E+02 2.60467E+01 0.00000E+00
 -1      2580 1.23000E+02 2.81381E+01 0.00000E+00
 -1      2581 1.22307E+02 2.75014E+01 0.00000E+00
 -1      2582 1.24872E+02 2.96367E+01 0.00000E+00
 -1      2583 1.23866E+02 2.90638E+01 0.00000E+00
 -1      2584 1.27118E+02 3.03680E+01 0.00000E+00
 -1      2585 1.26120E+02 3.00806E+01 0.00000E+00
 -1      2586 1.29423E+02 3.06164E+01 0.00000E+00
 -1      2587 1.28400E+02 3.06269E+01 0.00000E+00
 -1      2588 1.31539E+02 3.00364E+01 0.00000E+00
 -1      2589 1.30569E+02 3.02409E+01 0.00000E+00
 -1      2590 1.33802E+02 2.94024E+01 0.00000E+00
 -1      2591 1.32678E+02 2.97691E+01 0.00000E+00
 -1      2592 1.35890E+02 2.82253E+01 0.00000E+00
 -1      2593 1.35160E+02 2.88796E+01 0.00000E+00
 -1      2594 1.37260E+02 2.67687E+01 0.00000E+00
 -1      2595 1.36575E+02 2.74970E+01 0.00000E+00
 -1      2596 1.36895E+02 2.85872E+01 0.00000E+00
 -1      2597 1.38452E+02 2.49740E+01 0.00000E+00
 -1      2598 1.37854E+02 2.57568E+01 0.00000E+00
 -1      2599 1.39231E+02 1.63340E+01 0.00000E+00
 -1      2600 1.39581E+02 1.73919E+01 0.00000E+00
 -1      2601 8.07525E+00 5.11044E+00 0.00000E+00
 -1      2602 6.57525E+00 5.11044E+00 0.00000E+00
 -1      2603 6.40575E+00 6.01981E+00 0.00000E+00
 -1      2604 8.82525E+00 6.40944E+00 0.00000E+00
 -1      2605 1.35268E+02 1.14518E+01 0.00000E+00
 -1      2606 1.36088E+02 1.21452E+01 0.00000E+00
 -1      2607 1.30627E+02 8.74474E+00 0.00000E+00
 -1      2608 7.79400E+00 3.52687E+01 0.00000E+00
 -1      2609 6.49500E+00 3.60062E+01 0.00000E+00
 -1      2610 6.49500E+00 3.74750E+01 0.00000E+00
 -1      2611 1.45350E+01 6.60425E+00 0.00000E+00
 -1      2612 6.40575E+00 7.49481E+00 0.00000E+00
 -1      2613 1.35045E+02 1.05586E+01 0.00000E+00
 -1      2614 1.39811E+02 1.53454E+01 0.00000E+00
 -1      2615 1.38174E+02 2.68470E+01 0.00000E+00
 -1      2616 1.26461E+02 6.40017E+00 0.00000E+00
 -1      2617 1.25711E+02 7.69917E+00 0.00000E+00
 -1      2618 1.27961E+02 6.40017E+00 0.00000E+00
 -1      2619 1.43492E+02 6.48098E+00 0.00000E+00
 -1      2620 1.42312E+02 1.47500E+01 0.00000E+00
 -1      2621 1.43344E+02 7.64582E+00 0.00000E+00
 -1      2622 1.34851E+02 2.98383E+01 0.00000E+00
 -1      2623 1.42811E+02 4.35991E+01 0.00000E+00
 -1      2624 1.43294E+02 4.17197E+01 0.00000E+00
 -1      2625 1.42101E+02 4.10322E+01 0.00000E+00
 -1      2626 1.41467E+02 4.35467E+01 0.00000E+00
 -1      2627 1.32353E+02 3.06285E+01 0.00000E+00
 -1      2628 1.40667E+02 2.00778E+01 0.00000E+00
 -1      2629 7.70475E+00 8.23231E+00 0.00000E+00
 -1      2630 1.40369E+02 1.76951E+01 0.00000E+00
 -1      2631 1.30068E+02 3.12713E+01 0.00000E+00
 -1      2632 6.52725E+00 3.87101E+01 0.00000E+00
 -1      2633 6.52725E+00 4.01789E+01 0.00000E+00
 -1      2634 7.89075E+00 4.04429E+01 0.00000E+00
 -1      2635 7.82625E+00 3.79726E+01 0.00000E+00
 -1      2636 1.23657E+02 1.02440E+01 0.00000E+00
 -1      2637 1.27640E+02 3.13878E+01 0.00000E+00
 -1      2638 1.25110E+02 3.06850E+01 0.00000E+00
 -1      2639 1.22996E+02 2.93153E+01 0.00000E+00
 -1      2640 1.21401E+02 2.76649E+01 0.00000E+00
 -1      2641 1.20000E+02 2.58330E+01 0.00000E+00
 -1      2642 1.19032E+02 2.37738E+01 0.00000E+00
 -1      2643 1.18392E+02 2.16020E+01 0.00000E+00
 -1      2644 1.18275E+02 1.92718E+01 0.00000E+00
 -1      2645 1.18813E+02 1.71972E+01 0.00000E+00
 -1      2646 1.20512E+02 1.31515E+01 0.00000E+00
 -1      2647 1.37228E+02 1.20172E+01 0.00000E+00
 -1      2648 1.42046E+02 8.38332E+00 0.00000E+00
 -1      2649 1.25997E+02 9.17786E+00 0.00000E+00
 -1      2650 1.39489E+02 2.45995E+01 0.00000E+00
 -1      2651 1.32853E+02 9.40613E+00 0.00000E+00
 -1      2652 1.19459E+02 1.51995E+01 0.00000E+00
 -1      2653 1.40717E+02 4.22477E+01 0.00000E+00
 -1      2654 9.09300E+00 1.98250E+01 0.00000E+00
 -1      2655 9.09300E+00 2.12750E+01 0.00000E+00
 -1      2656 9.09300E+00 2.27500E+01 0.00000E+00
 -1      2657 9.09300E+00 2.42250E+01 0.00000E+00
 -1      2658 1.03920E+01 2.20250E+01 0.00000E+00
 -1      2659 9.09300E+00 1.39375E+01 0.00000E+00
 -1      2660 9.09300E+00 1.54125E+01 0.00000E+00
 -1      2661 9.09300E+00 1.09875E+01 0.00000E+00
 -1      2662 9.09300E+00 1.24625E+01 0.00000E+00
 -1      2663 1.03920E+01 1.32000E+01 0.00000E+00
 -1      2664 1.22850E+01 7.90325E+00 0.00000E+00
 -1      2665 1.07850E+01 7.90325E+00 0.00000E+00
 -1      2666 8.91450E+00 8.42712E+00 0.00000E+00
 -1      2667 1.35929E+02 3.06118E+01 0.00000E+00
 -1      2668 1.34571E+02 3.11346E+01 0.00000E+00
 -1      2669 1.44000E+01 4.09070E+01 0.00000E+00
 -1      2670 1.59000E+01 4.09070E+01 0.00000E+00
 -1      2671 1.74000E+01 4.09070E+01 0.00000E+00
 -1      2672 1.89000E+01 4.09070E+01 0.00000E+00
 -1      2673 1.66500E+01 3.96080E+01 0.00000E+00
 -1      2674 2.04000E+01 4.09070E+01 0.00000E+00
 -1      2675 2.19000E+01 4.09070E+01 0.00000E+00
 -1      2676 1.96500E+01 3.96080E+01 0.00000E+00
 -1      2677 2.34000E+01 4.09070E+01 0.00000E+00
 -1      2678 2.49000E+01 4.09070E+01 0.00000E+00
 -1      2679 2.26500E+01 3.96080E+01 0.00000E+00
 -1      2680 2.64000E+01 4.09070E+01 0.00000E+00
 -1      2681 2.79000E+01 4.09070E+01 0.00000E+00
 -1      2682 2.56500E+01 3.96080E+01 0.00000E+00
 -1      2683 2.94000E+01 4.09070E+01 0.00000E+00
 -1      2684 3.09000E+01 4.09070E+01 0.00000E+00
 -1      2685 2.86500E+01 3.96080E+01 0.00000E+00
 -1      2686 3.24000E+01 4.09070E+01 0.00000E+00
 -1      2687 3.39000E+01 4.09070E+01 0.00000E+00
 -1      2688 3.16500E+01 3.96080E+01 0.00000E+00
 -1      2689 3.54000E+01 4.09070E+01 0.00000E+00
 -1      2690 3.69000E+01 4.09070E+01 0.00000E+00
 -1      2691 3.46500E+01 3.96080E+01 0.00000E+00
 -1      2692 3.84000E+01 4.09070E+01 0.00000E+00
 -1      2693 3.99000E+01 4.09070E+01 0.00000E+00
 -1      2694 3.76500E+01 3.96080E+01 0.00000E+00
 -1      2695 4.14000E+01 4.09070E+01 0.00000E+00
 -1      2696 4.29000E+01 4.09070E+01 0.00000E+00
 -1      2697 4.06500E+01 3.96080E+01 0.00000E+00
 -1      2698 4.44000E+01 4.09070E+01 0.00000E+00
 -1      2699 4.59000E+01 4.09070E+01 0.00000E+00
 -1      2700 4.36500E+01 3.96080E+01 0.00000E+00
 -1      2701 4.74000E+01 4.09070E+01 0.00000E+00
 -1      2702 4.89000E+01 4.09070E+01 0.00000E+00
 -1      2703 4.66500E+01 3.96080E+01 0.00000E+00
 -1      2704 5.04000E+01 4.09070E+01 0.00000E+00
 -1      2705 5.19000E+01 4.09070E+01 0.00000E+00
 -1      2706 4.96500E+01 3.96080E+01 0.00000E+00
 -1      2707 5.34000E+01 4.09070E+01 0.00000E+00
 -1      2708 5.49000E+01 4.09070E+01 0.00000E+00
 -1      2709 5.26500E+01 3.96080E+01 0.00000E+00
 -1      2710 5.64000E+01 4.09070E+01 0.00000E+00
 -1      2711 5.79000E+01 4.09070E+01 0.00000E+00
 -1      2712 5.56500E+01 3.96080E+01 0.00000E+00
 -1      2713 5.94000E+01 4.09070E+01 0.00000E+00
 -1      2714 6.09000E+01 4.09070E+01 0.00000E+00
 -1      2715 5.86500E+01 3.96080E+01 0.00000E+00
 -1      2716 6.24000E+01 4.09070E+01 0.00000E+00
 -1      2717 6.39000E+01 4.09070E+01 0.00000E+00
 -1      2718 6.16500E+01 3.96080E+01 0.00000E+00
 -1      2719 6.54000E+01 4.09070E+01 0.00000E+00
 -1      2720 6.69000E+01 4.09070E+01 0.00000E+00
 -1      2721 6.46500E+01 3.96080E+01 0.00000E+00
 -1      2722 6.84000E+01 4.09070E+01 0.00000E+00
 -1      2723 6.99000E+01 4.09070E+01 0.00000E+00
 -1      2724 6.76500E+01 3.96080E+01 0.00000E+00
 -1      2725 7.14000E+01 4.09070E+01 0.00000E+00
 -1      2726 7.29000E+01 4.09070E+01 0.00000E+00
 -1      2727 7.06500E+01 3.96080E+01 0.00000E+00
 -1      2728 7.44000E+01 4.09070E+01 0.00000E+00
 -1      2729 7.59000E+01 4.09070E+01 0.00000E+00
 -1      2730 7.36500E+01 3.96080E+01 0.00000E+00
 -1      2731 7.74000E+01 4.09070E+01 0.00000E+00
 -1      2732 7.89000E+01 4.09070E+01 0.00000E+00
 -1      2733 7.66500E+01 3.96080E+01 0.00000E+00
 -1      2734 8.04000E+01 4.09070E+01 0.00000E+00
 -1      2735 8.19000E+01 4.09070E+01 0.00000E+00
 -1      2736 7.96500E+01 3.96080E+01 0.00000E+00
 -1      2737 8.34000E+01 4.09070E+01 0.00000E+00
 -1      2738 8.49000E+01 4.09070E+01 0.00000E+00
 -1      2739 8.26500E+01 3.96080E+01 0.00000E+00
 -1      2740 8.64000E+01 4.09070E+01 0.00000E+00
 -1      2741 8.79000E+01 4.09070E+01 0.00000E+00
 -1      2742 8.56500E+01 3.96080E+01 0.00000E+00
 -1      2743 8.94000E+01 4.09070E+01 0.00000E+00
 -1      2744 9.09000E+01 4.09070E+01 0.00000E+00
 -1      2745 8.86500E+01 3.96080E+01 0.00000E+00
 -1      2746 9.24000E+01 4.09070E+01 0.00000E+00
 -1      2747 9.39000E+01 4.09070E+01 0.00000E+00
 -1      2748 9.16500E+01 3.96080E+01 0.00000E+00
 -1      2749 9.54000E+01 4.09070E+01 0.00000E+00
 -1      2750 9.69000E+01 4.09070E+01 0.00000E+00
 -1      2751 9.46500E+01 3.96080E+01 0.00000E+00
 -1      2752 9.84000E+01 4.09070E+01 0.00000E+00
 -1      2753 9.99000E+01 4.09070E+01 0.00000E+00
 -1      2754 9.76500E+01 3.96080E+01 0.00000E+00
 -1      2755 1.01400E+02 4.09070E+01 0.00000E+00
 -1      2756 1.02900E+02 4.09070E+01 0.00000E+00
 -1      2757 1.00650E+02 3.96080E+01 0.00000E+00
 -1      2758 1.04400E+02 4.09070E+01 0.00000E+00
 -1      2759 1.05900E+02 4.09070E+01 0.00000E+00
 -1      2760 1.03650E+02 3.96080E+01 0.00000E+00
 -1      2761 1.07400E+02 4.09070E+01 0.00000E+00
 -1      2762 1.08900E+02 4.09070E+01 0.00000E+00
 -1      2763 1.06650E+02 3.96080E+01 0.00000E+00
 -1      2764 1.10400E+02 4.09070E+01 0.00000E+00
 -1      2765 1.11900E+02 4.09070E+01 0.00000E+00
 -1      2766 1.09650E+02 3.96080E+01 0.00000E+00
 -1      2767 1.13400E+02 4.09070E+01 0.00000E+00
 -1      2768 1.14900E+02 4.09070E+01 0.00000E+00
 -1      2769 1.12650E+02 3.96080E+01 0.00000E+00
 -1      2770 1.16400E+02 4.09070E+01 0.00000E+00
 -1      2771 1.17900E+02 4.09070E+01 0.00000E+00
 -1      2772 1.15650E+02 3.96080E+01 0.00000E+00
 -1      2773 1.19400E+02 4.09070E+01 0.00000E+00
 -1      2774 1.20900E+02 4.09070E+01 0.00000E+00
 -1      2775 1.18650E+02 3.96080E+01 0.00000E+00
 -1      2776 1.22400E+02 4.09070E+01 0.00000E+00
 -1      2777 1.23900E+02 4.09070E+01 0.00000E+00
 -1      2778 1.21650E+02 3.96080E+01 0.00000E+00
 -1      2779 1.25400E+02 4.09070E+01 0.00000E+00
 -1      2780 1.26900E+02 4.09070E+01 0.00000E+00
 -1      2781 1.24650E+02 3.96080E+01 0.00000E+00
 -1      2782 1.28400E+02 4.09070E+01 0.00000E+00
 -1      2783 1.29900E+02 4.09070E+01 0.00000E+00
 -1      2784 1.27650E+02 3.96080E+01 0.00000E+00
 -1      2785 1.31400E+02 4.09070E+01 0.00000E+00
 -1      2786 1.32900E+02 4.09070E+01 0.00000E+00
 -1      2787 1.30650E+02 3.96080E+01 0.00000E+00
 -1      2788 1.34400E+02 4.09070E+01 0.00000E+00
 -1      2789 1.35900E+02 4.09070E+01 0.00000E+00
 -1      2790 1.33650E+02 3.96080E+01 0.00000E+00
 -1      2791 1.37400E+02 4.09070E+01 0.00000E+00
 -1      2792 1.38900E+02 4.09070E+01 0.00000E+00
 -1      2793 1.36650E+02 3.96080E+01 0.00000E+00
 -1      2794 2.42850E+01 7.90325E+00 0.00000E+00
 -1      2795 2.27850E+01 7.90325E+00 0.00000E+00
 -1      2796 1.33157E+02 3.14929E+01 0.00000E+00
 -1      2797 1.32018E+02 3.17602E+01 0.00000E+00
 -1      2798 1.24321E+02 8.08294E+00 0.00000E+00
 -1      2799 2.12850E+01 7.90325E+00 0.00000E+00
 -1      2800 1.97850E+01 7.90325E+00 0.00000E+00
 -1      2801 2.20350E+01 9.20225E+00 0.00000E+00
 -1      2802 3.02850E+01 7.90325E+00 0.00000E+00
 -1      2803 2.87850E+01 7.90325E+00 0.00000E+00
 -1      2804 3.32850E+01 7.90325E+00 0.00000E+00
 -1      2805 3.17850E+01 7.90325E+00 0.00000E+00
 -1      2806 3.10350E+01 9.20225E+00 0.00000E+00
 -1      2807 3.62850E+01 7.90325E+00 0.00000E+00
 -1      2808 3.47850E+01 7.90325E+00 0.00000E+00
 -1      2809 3.40350E+01 9.20225E+00 0.00000E+00
 -1      2810 3.92850E+01 7.90325E+00 0.00000E+00
 -1      2811 3.77850E+01 7.90325E+00 0.00000E+00
 -1      2812 3.70350E+01 9.20225E+00 0.00000E+00
 -1      2813 4.22850E+01 7.90325E+00 0.00000E+00
 -1      2814 4.07850E+01 7.90325E+00 0.00000E+00
 -1      2815 4.00350E+01 9.20225E+00 0.00000E+00
 -1      2816 4.52850E+01 7.90325E+00 0.00000E+00
 -1      2817 4.37850E+01 7.90325E+00 0.00000E+00
 -1      2818 4.30350E+01 9.20225E+00 0.00000E+00
 -1      2819 4.82850E+01 7.90325E+00 0.00000E+00
 -1      2820 4.67850E+01 7.90325E+00 0.00000E+00
 -1      2821 4.60350E+01 9.20225E+00 0.00000E+00
 -1      2822 5.12850E+01 7.90325E+00 0.00000E+00
 -1      2823 4.97850E+01 7.90325E+00 0.00000E+00
 -1      2824 4.90350E+01 9.20225E+00 0.00000E+00
 -1      2825 5.42850E+01 7.90325E+00 0.00000E+00
 -1      2826 5.27850E+01 7.90325E+00 0.00000E+00
 -1      2827 5.20350E+01 9.20225E+00 0.00000E+00
 -1      2828 5.72850E+01 7.90325E+00 0.00000E+00
 -1      2829 5.57850E+01 7.90325E+00 0.00000E+00
 -1      2830 5.50350E+01 9.20225E+00 0.00000E+00
 -1      2831 6.02850E+01 7.90325E+00 0.00000E+00
 -1      2832 5.87850E+01 7.90325E+00 0.00000E+00
 -1      2833 5.80350E+01 9.20225E+00 0.00000E+00
 -1      2834 6.32850E+01 7.90325E+00 0.00000E+00
 -1      2835 6.17850E+01 7.90325E+00 0.00000E+00
 -1      2836 6.10350E+01 9.20225E+00 0.00000E+00
 -1      2837 6.62850E+01 7.90325E+00 0.00000E+00
 -1      2838 6.47850E+01 7.90325E+00 0.00000E+00
 -1      2839 6.40350E+01 9.20225E+00 0.00000E+00
 -1      2840 6.92850E+01 7.90325E+00 0.00000E+00
 -1      2841 6.77850E+01 7.90325E+00 0.00000E+00
 -1      2842 6.70350E+01 9.20225E+00 0.00000E+00
 -1      2843 7.22850E+01 7.90325E+00 0.00000E+00
 -1      2844 7.07850E+01 7.90325E+00 0.00000E+00
 -1      2845 7.00350E+01 9.20225E+00 0.00000E+00
 -1      2846 7.52850E+01 7.90325E+00 0.00000E+00
 -1      2847 7.37850E+01 7.90325E+00 0.00000E+00
 -1      2848 7.30350E+01 9.20225E+00 0.00000E+00
 -1      2849 7.82850E+01 7.90325E+00 0.00000E+00
 -1      2850 7.67850E+01 7.90325E+00 0.00000E+00
 -1      2851 7.60350E+01 9.20225E+00 0.00000E+00
 -1      2852 8.12850E+01 7.90325E+00 0.00000E+00
 -1      2853 7.97850E+01 7.90325E+00 0.00000E+00
 -1      2854 7.90350E+01 9.20225E+00 0.00000E+00
 -1      2855 8.42850E+01 7.90325E+00 0.00000E+00
 -1      2856 8.27850E+01 7.90325E+00 0.00000E+00
 -1      2857 8.20350E+01 9.20225E+00 0.00000E+00
 -1      2858 8.72850E+01 7.90325E+00 0.00000E+00
 -1      2859 8.57850E+01 7.90325E+00 0.00000E+00
 -1      2860 8.50350E+01 9.20225E+00 0.00000E+00
 -1      2861 9.02850E+01 7.90325E+00 0.00000E+00
 -1      2862 8.87850E+01 7.90325E+00 0.00000E+00
 -1      2863 8.80350E+01 9.20225E+00 0.00000E+00
 -1      2864 9.32850E+01 7.90325E+00 0.00000E+00
 -1      2865 9.17850E+01 7.90325E+00 0.00000E+00
 -1      2866 9.10350E+01 9.20225E+00 0.00000E+00
 -1      2867 9.62850E+01 7.90325E+00 0.00000E+00
 -1      2868 9.47850E+01 7.90325E+00 0.00000E+00
 -1      2869 9.40350E+01 9.20225E+00 0.00000E+00
 -1      2870 9.92850E+01 7.90325E+00 0.00000E+00
 -1      2871 9.77850E+01 7.90325E+00 0.00000E+00
 -1      2872 9.70350E+01 9.20225E+00 0.00000E+00
 -1      2873 1.02285E+02 7.90325E+00 0.00000E+00
 -1      2874 1.00785E+02 7.90325E+00 0.00000E+00
 -1      2875 1.00035E+02 9.20225E+00 0.00000E+00
 -1      2876 1.05285E+02 7.90325E+00 0.00000E+00
 -1      2877 1.03785E+02 7.90325E+00 0.00000E+00
 -1      2878 1.03035E+02 9.20225E+00 0.00000E+00
 -1      2879 1.08285E+02 7.90325E+00 0.00000E+00
 -1      2880 1.06785E+02 7.90325E+00 0.00000E+00
 -1      2881 1.06035E+02 9.20225E+00 0.00000E+00
 -1      2882 1.11285E+02 7.90325E+00 0.00000E+00
 -1      2883 1.09785E+02 7.90325E+00 0.00000E+00
 -1      2884 1.09035E+02 9.20225E+00 0.00000E+00
 -1      2885 1.14285E+02 7.90325E+00 0.00000E+00
 -1      2886 1.12785E+02 7.90325E+00 0.00000E+00
 -1      2887 1.12035E+02 9.20225E+00 0.00000E+00
 -1      2888 1.17285E+02 7.90325E+00 0.00000E+00
 -1      2889 1.15785E+02 7.90325E+00 0.00000E+00
 -1      2890 1.15035E+02 9.20225E+00 0.00000E+00
 -1      2891 1.20285E+02 7.90325E+00 0.00000E+00
 -1      2892 1.18785E+02 7.90325E+00 0.00000E+00
 -1      2893 1.18035E+02 9.20225E+00 0.00000E+00
 -1      2894 1.28711E+02 7.59287E+00 0.00000E+00
 -1      2895 1.32414E+02 7.64712E+00 0.00000E+00
 -1      2896 1.30914E+02 7.64712E+00 0.00000E+00
 -1      2897 1.40911E+02 1.51360E+01 0.00000E+00
 -1      2898 1.40804E+02 1.37110E+01 0.00000E+00
 -1      2899 1.41618E+02 2.17172E+01 0.00000E+00
 -1      2900 1.41618E+02 2.02422E+01 0.00000E+00
 -1      2901 1.41310E+02 2.72375E+01 0.00000E+00
 -1      2902 1.41310E+02 2.57625E+01 0.00000E+00
 -1      2903 1.41226E+02 3.01875E+01 0.00000E+00
 -1      2904 1.41226E+02 2.87125E+01 0.00000E+00
 -1      2905 1.41226E+02 3.31375E+01 0.00000E+00
 -1      2906 1.41226E+02 3.16625E+01 0.00000E+00
 -1      2907 1.40033E+02 3.09250E+01 0.00000E+00
 -1      2908 1.41226E+02 3.60875E+01 0.00000E+00
 -1      2909 1.41226E+02 3.46125E+01 0.00000E+00
 -1      2910 1.40033E+02 3.38750E+01 0.00000E+00
 -1      2911 1.39400E+02 2.76425E+01 0.00000E+00
 -1      2912 1.38807E+02 2.86544E+01 0.00000E+00
 -1      2913 9.25425E+00 4.07069E+01 0.00000E+00
 -1      2914 1.06178E+01 4.09709E+01 0.00000E+00
 -1      2915 9.22200E+00 3.94717E+01 0.00000E+00
 -1      2916 1.41314E+02 2.27195E+01 0.00000E+00
 -1      2917 1.37226E+02 1.09332E+01 0.00000E+00
 -1      2918 1.38276E+02 1.17429E+01 0.00000E+00
 -1      2919 1.82850E+01 7.90325E+00 0.00000E+00
 -1      2920 1.67850E+01 7.90325E+00 0.00000E+00
 -1      2921 1.90350E+01 9.20225E+00 0.00000E+00
 -1      2922 1.38135E+02 7.66813E+00 0.00000E+00
 -1      2923 1.36635E+02 7.66813E+00 0.00000E+00
 -1      2924 2.72850E+01 7.90325E+00 0.00000E+00
 -1      2925 2.57850E+01 7.90325E+00 0.00000E+00
 -1      2926 2.50350E+01 9.20225E+00 0.00000E+00
 -1      2927 2.80350E+01 9.20225E+00 0.00000E+00
 -1      2928 1.17589E+01 4.09389E+01 0.00000E+00
 -1      2929 1.32589E+01 4.09389E+01 0.00000E+00
 -1      2930 1.40089E+01 3.96399E+01 0.00000E+00
 -1      2931 1.17266E+01 3.97038E+01 0.00000E+00
 -1      2932 9.09300E+00 1.68813E+01 0.00000E+00
 -1      2933 9.09300E+00 1.83563E+01 0.00000E+00
 -1      2934 1.03920E+01 1.90812E+01 0.00000E+00
 -1      2935 1.03920E+01 1.61437E+01 0.00000E+00
 -1      2936 9.09300E+00 3.15875E+01 0.00000E+00
 -1      2937 9.09300E+00 3.30625E+01 0.00000E+00
 -1      2938 1.52850E+01 7.90325E+00 0.00000E+00
 -1      2939 1.37850E+01 7.90325E+00 0.00000E+00
 -1      2940 1.30350E+01 9.20225E+00 0.00000E+00
 -1      2941 1.60350E+01 9.20225E+00 0.00000E+00
 -1      2942 1.18476E+02 1.54534E+01 0.00000E+00
 -1      2943 1.18809E+02 1.44200E+01 0.00000E+00
 -1      2944 1.28095E+02 3.24400E+01 0.00000E+00
 -1      2945 1.26813E+02 3.21810E+01 0.00000E+00
 -1      2946 1.20383E+02 1.06696E+01 0.00000E+00
 -1      2947 1.21121E+02 1.00643E+01 0.00000E+00
 -1      2948 1.39967E+02 4.09487E+01 0.00000E+00
 -1      2949 1.41034E+02 4.09905E+01 0.00000E+00
 -1      2950 1.39217E+02 3.96497E+01 0.00000E+00
 -1      2951 1.19236E+02 1.30521E+01 0.00000E+00
 -1      2952 1.19956E+02 1.20375E+01 0.00000E+00
 -1      2953 1.19108E+02 1.05702E+01 0.00000E+00
 -1      2954 1.18254E+02 1.33060E+01 0.00000E+00
 -1      2955 1.17850E+02 1.73821E+01 0.00000E+00
 -1      2956 1.18163E+02 1.64177E+01 0.00000E+00
 -1      2957 1.17513E+02 1.56382E+01 0.00000E+00
 -1      2958 1.17364E+02 1.96653E+01 0.00000E+00
 -1      2959 1.17588E+02 1.85550E+01 0.00000E+00
 -1      2960 1.17657E+02 2.24657E+01 0.00000E+00
 -1      2961 1.17315E+02 2.12459E+01 0.00000E+00
 -1      2962 1.18362E+02 2.45057E+01 0.00000E+00
 -1      2963 1.18064E+02 2.35538E+01 0.00000E+00
 -1      2964 1.19459E+02 2.69178E+01 0.00000E+00
 -1      2965 1.18788E+02 2.58105E+01 0.00000E+00
 -1      2966 1.21161E+02 2.86356E+01 0.00000E+00
 -1      2967 1.20432E+02 2.79110E+01 0.00000E+00
 -1      2968 1.22802E+02 3.03639E+01 0.00000E+00
 -1      2969 1.21937E+02 2.94381E+01 0.00000E+00
 -1      2970 1.25391E+02 3.18728E+01 0.00000E+00
 -1      2971 1.24142E+02 3.14289E+01 0.00000E+00
 -1      2972 1.41314E+02 2.41945E+01 0.00000E+00
 -1      2973 1.41468E+02 1.89607E+01 0.00000E+00
 -1      2974 1.41351E+02 3.97332E+01 0.00000E+00
 -1      2975 1.37710E+02 2.92690E+01 0.00000E+00
 -1      2976 1.37025E+02 2.99973E+01 0.00000E+00
 -1      2977 1.36744E+02 3.12936E+01 0.00000E+00
 -1      2978 1.38937E+02 3.00645E+01 0.00000E+00
 -1      2979 1.30872E+02 3.21357E+01 0.00000E+00
 -1      2980 1.29726E+02 3.25112E+01 0.00000E+00
 -1      2981 1.31676E+02 3.30001E+01 0.00000E+00
 -1      2982 1.34906E+02 9.49008E+00 0.00000E+00
 -1      2983 1.36038E+02 1.01390E+01 0.00000E+00
 -1      2984 1.23239E+02 9.16346E+00 0.00000E+00
 -1      2985 1.22953E+02 7.68477E+00 0.00000E+00
 -1      2986 1.21453E+02 7.68477E+00 0.00000E+00
 -1      2987 1.22289E+02 9.84581E+00 0.00000E+00
 -1      2988 1.41319E+02 1.63844E+01 0.00000E+00
 -1      2989 1.39822E+02 1.28490E+01 0.00000E+00
 -1      2990 1.41224E+02 1.24630E+01 0.00000E+00
 -1      2991 1.41224E+02 1.09880E+01 0.00000E+00
 -1      2992 1.39260E+02 1.22139E+01 0.00000E+00
 -1      2993 9.09300E+00 3.45313E+01 0.00000E+00
 -1      2994 9.09300E+00 3.60000E+01 0.00000E+00
 -1      2995 1.03920E+01 3.37938E+01 0.00000E+00
 -1      2996 1.03920E+01 2.49750E+01 0.00000E+00
 -1      2997 9.09300E+00 2.57000E+01 0.00000E+00
 -1      2998 9.09300E+00 2.71750E+01 0.00000E+00
 -1      2999 1.16938E+02 1.77755E+01 0.00000E+00
 -1      3000 9.66450E+00 9.72612E+00 0.00000E+00
 -1      3001 1.41468E+02 1.74857E+01 0.00000E+00
 -1      3002 1.39258E+02 1.11299E+01 0.00000E+00
 -1      3003 9.09300E+00 2.86437E+01 0.00000E+00
 -1      3004 9.09300E+00 3.01187E+01 0.00000E+00
 -1      3005 1.03920E+01 3.08563E+01 0.00000E+00
 -1      3006 1.03920E+01 2.79188E+01 0.00000E+00
 -1      3007 1.37086E+02 9.86473E+00 0.00000E+00
 -1      3008 1.29748E+02 7.48926E+00 0.00000E+00
 -1      3009 1.33568E+02 7.43692E+00 0.00000E+00
 -1      3010 1.32947E+02 8.69240E+00 0.00000E+00
 -1      3011 1.34993E+02 7.43692E+00 0.00000E+00
 -1      3012 1.41135E+02 7.58434E+00 0.00000E+00
 -1      3013 1.39635E+02 7.58434E+00 0.00000E+00
 -1      3014 1.41351E+02 3.82583E+01 0.00000E+00
 -1      3015 1.40159E+02 3.75207E+01 0.00000E+00
 -1      3016 1.25845E+02 3.29250E+01 0.00000E+00
 -1      3017 1.23083E+02 3.15517E+01 0.00000E+00
 -1      3018 1.22024E+02 3.16746E+01 0.00000E+00
 -1      3019 1.23364E+02 3.27396E+01 0.00000E+00
 -1      3020 1.20968E+02 2.96842E+01 0.00000E+00
 -1      3021 1.19219E+02 2.78885E+01 0.00000E+00
 -1      3022 1.17821E+02 2.55906E+01 0.00000E+00
 -1      3023 1.28899E+02 3.33044E+01 0.00000E+00
 -1      3024 1.38885E+02 8.86082E+00 0.00000E+00
 -1      3025 1.34235E+02 3.22663E+01 0.00000E+00
 -1      3026 1.09635E+01 1.04636E+01 0.00000E+00
 -1      3027 1.34007E+02 9.19592E+00 0.00000E+00
 -1      3028 1.35000E+02 8.77635E+00 0.00000E+00
 -1      3029 1.41296E+02 9.57602E+00 0.00000E+00
 -1      3030 1.16987E+02 2.31977E+01 0.00000E+00
 -1      3031 1.16628E+02 2.05291E+01 0.00000E+00
 -1      3032 1.15941E+02 1.98122E+01 0.00000E+00
 -1      3033 1.15892E+02 2.13928E+01 0.00000E+00
 -1      3034 1.40206E+02 2.49320E+01 0.00000E+00
 -1      3035 1.40313E+02 1.01890E+01 0.00000E+00
 -1      3036 1.16910E+01 1.24625E+01 0.00000E+00
 -1      3037 1.16910E+01 1.39375E+01 0.00000E+00
 -1      3038 1.32594E+02 3.38661E+01 0.00000E+00
 -1      3039 1.31448E+02 3.42416E+01 0.00000E+00
 -1      3040 1.89000E+01 3.83090E+01 0.00000E+00
 -1      3041 2.04000E+01 3.83090E+01 0.00000E+00
 -1      3042 2.19000E+01 3.83090E+01 0.00000E+00
 -1      3043 2.34000E+01 3.83090E+01 0.00000E+00
 -1      3044 2.11500E+01 3.70100E+01 0.00000E+00
 -1      3045 2.49000E+01 3.83090E+01 0.00000E+00
 -1      3046 2.64000E+01 3.83090E+01 0.00000E+00
 -1      3047 2.41500E+01 3.70100E+01 0.00000E+00
 -1      3048 2.79000E+01 3.83090E+01 0.00000E+00
 -1      3049 2.94000E+01 3.83090E+01 0.00000E+00
 -1      3050 2.71500E+01 3.70100E+01 0.00000E+00
 -1      3051 3.09000E+01 3.83090E+01 0.00000E+00
 -1      3052 3.24000E+01 3.83090E+01 0.00000E+00
 -1      3053 3.01500E+01 3.70100E+01 0.00000E+00
 -1      3054 3.39000E+01 3.83090E+01 0.00000E+00
 -1      3055 3.54000E+01 3.83090E+01 0.00000E+00
 -1      3056 3.31500E+01 3.70100E+01 0.00000E+00
 -1      3057 3.69000E+01 3.83090E+01 0.00000E+00
 -1      3058 3.84000E+01 3.83090E+01 0.00000E+00
 -1      3059 3.61500E+01 3.70100E+01 0.00000E+00
 -1      3060 3.99000E+01 3.83090E+01 0.00000E+00
 -1      3061 4.14000E+01 3.83090E+01 0.00000E+00
 -1      3062 3.91500E+01 3.70100E+01 0.00000E+00
 -1      3063 4.29000E+01 3.83090E+01 0.00000E+00
 -1      3064 4.44000E+01 3.83090E+01 0.00000E+00
 -1      3065 4.21500E+01 3.70100E+01 0.00000E+00
 -1      3066 4.59000E+01 3.83090E+01 0.00000E+00
 -1      3067 4.74000E+01 3.83090E+01 0.00000E+00
 -1      3068 4.51500E+01 3.70100E+01 0.00000E+00
 -1      3069 4.89000E+01 3.83090E+01 0.00000E+00
 -1      3070 5.04000E+01 3.83090E+01 0.00000E+00
 -1      3071 4.81500E+01 3.70100E+01 0.00000E+00
 -1      3072 5.19000E+01 3.83090E+01 0.00000E+00
 -1      3073 5.34000E+01 3.83090E+01 0.00000E+00
 -1      3074 5.11500E+01 3.70100E+01 0.00000E+00
 -1      3075 5.49000E+01 3.83090E+01 0.00000E+00
 -1      3076 5.64000E+01 3.83090E+01 0.00000E+00
 -1      3077 5.41500E+01 3.70100E+01 0.00000E+00
 -1      3078 5.79000E+01 3.83090E+01 0.00000E+00
 -1      3079 5.94000E+01 3.83090E+01 0.00000E+00
 -1      3080 5.71500E+01 3.70100E+01 0.00000E+00
 -1      3081 6.09000E+01 3.83090E+01 0.00000E+00
 -1      3082 6.24000E+01 3.83090E+01 0.00000E+00
 -1      3083 6.01500E+01 3.70100E+01 0.00000E+00
 -1      3084 6.39000E+01 3.83090E+01 0.00000E+00
 -1      3085 6.54000E+01 3.83090E+01 0.00000E+00
 -1      3086 6.31500E+01 3.70100E+01 0.00000E+00
 -1      3087 6.69000E+01 3.83090E+01 0.00000E+00
 -1      3088 6.84000E+01 3.83090E+01 0.00000E+00
 -1      3089 6.61500E+01 3.70100E+01 0.00000E+00
 -1      3090 6.99000E+01 3.83090E+01 0.00000E+00
 -1      3091 7.14000E+01 3.83090E+01 0.00000E+00
 -1      3092 6.91500E+01 3.70100E+01 0.00000E+00
 -1      3093 7.29000E+01 3.83090E+01 0.00000E+00
 -1      3094 7.44000E+01 3.83090E+01 0.00000E+00
 -1      3095 7.21500E+01 3.70100E+01 0.00000E+00
 -1      3096 7.59000E+01 3.83090E+01 0.00000E+00
 -1      3097 7.74000E+01 3.83090E+01 0.00000E+00
 -1      3098 7.51500E+01 3.70100E+01 0.00000E+00
 -1      3099 7.89000E+01 3.83090E+01 0.00000E+00
 -1      3100 8.04000E+01 3.83090E+01 0.00000E+00
 -1      3101 7.81500E+01 3.70100E+01 0.00000E+00
 -1      3102 8.19000E+01 3.83090E+01 0.00000E+00
 -1      3103 8.34000E+01 3.83090E+01 0.00000E+00
 -1      3104 8.11500E+01 3.70100E+01 0.00000E+00
 -1      3105 8.49000E+01 3.83090E+01 0.00000E+00
 -1      3106 8.64000E+01 3.83090E+01 0.00000E+00
 -1      3107 8.41500E+01 3.70100E+01 0.00000E+00
 -1      3108 8.79000E+01 3.83090E+01 0.00000E+00
 -1      3109 8.94000E+01 3.83090E+01 0.00000E+00
 -1      3110 8.71500E+01 3.70100E+01 0.00000E+00
 -1      3111 9.09000E+01 3.83090E+01 0.00000E+00
 -1      3112 9.24000E+01 3.83090E+01 0.00000E+00
 -1      3113 9.01500E+01 3.70100E+01 0.00000E+00
 -1      3114 9.39000E+01 3.83090E+01 0.00000E+00
 -1      3115 9.54000E+01 3.83090E+01 0.00000E+00
 -1      3116 9.31500E+01 3.70100E+01 0.00000E+00
 -1      3117 9.69000E+01 3.83090E+01 0.00000E+00
 -1      3118 9.84000E+01 3.83090E+01 0.00000E+00
 -1      3119 9.61500E+01 3.70100E+01 0.00000E+00
 -1      3120 9.99000E+01 3.83090E+01 0.00000E+00
 -1      3121 1.01400E+02 3.83090E+01 0.00000E+00
 -1      3122 9.91500E+01 3.70100E+01 0.00000E+00
 -1      3123 1.02900E+02 3.83090E+01 0.00000E+00
 -1      3124 1.04400E+02 3.83090E+01 0.00000E+00
 -1      3125 1.02150E+02 3.70100E+01 0.00000E+00
 -1      3126 1.05900E+02 3.83090E+01 0.00000E+00
 -1      3127 1.07400E+02 3.83090E+01 0.00000E+00
 -1      3128 1.05150E+02 3.70100E+01 0.00000E+00
 -1      3129 1.08900E+02 3.83090E+01 0.00000E+00
 -1      3130 1.10400E+02 3.83090E+01 0.00000E+00
 -1      3131 1.08150E+02 3.70100E+01 0.00000E+00
 -1      3132 1.11900E+02 3.83090E+01 0.00000E+00
 -1      3133 1.13400E+02 3.83090E+01 0.00000E+00
 -1      3134 1.11150E+02 3.70100E+01 0.00000E+00
 -1      3135 1.14900E+02 3.83090E+01 0.00000E+00
 -1      3136 1.16400E+02 3.83090E+01 0.00000E+00
 -1      3137 1.14150E+02 3.70100E+01 0.00000E+00
 -1      3138 1.17900E+02 3.83090E+01 0.00000E+00
 -1      3139 1.19400E+02 3.83090E+01 0.00000E+00
 -1      3140 1.17150E+02 3.70100E+01 0.00000E+00
 -1      3141 1.20900E+02 3.83090E+01 0.00000E+00
 -1      3142 1.22400E+02 3.83090E+01 0.00000E+00
 -1      3143 1.20150E+02 3.70100E+01 0.00000E+00
 -1      3144 1.23900E+02 3.83090E+01 0.00000E+00
 -1      3145 1.25400E+02 3.83090E+01 0.00000E+00
 -1      3146 1.23150E+02 3.70100E+01 0.00000E+00
 -1      3147 1.26900E+02 3.83090E+01 0.00000E+00
 -1      3148 1.28400E+02 3.83090E+01 0.00000E+00
 -1      3149 1.26150E+02 3.70100E+01 0.00000E+00
 -1      3150 1.32900E+02 3.83090E+01 0.00000E+00
 -1      3151 1.34400E+02 3.83090E+01 0.00000E+00
 -1      3152 1.35900E+02 3.83090E+01 0.00000E+00
 -1      3153 1.37400E+02 3.83090E+01 0.00000E+00
 -1      3154 1.35150E+02 3.70100E+01 0.00000E+00
 -1      3155 2.27850E+01 1.05013E+01 0.00000E+00
 -1      3156 2.12850E+01 1.05013E+01 0.00000E+00
 -1      3157 3.47850E+01 1.05013E+01 0.00000E+00
 -1      3158 3.32850E+01 1.05013E+01 0.00000E+00
 -1      3159 3.17850E+01 1.05013E+01 0.00000E+00
 -1      3160 3.02850E+01 1.05013E+01 0.00000E+00
 -1      3161 3.25350E+01 1.18003E+01 0.00000E+00
 -1      3162 4.07850E+01 1.05013E+01 0.00000E+00
 -1      3163 3.92850E+01 1.05013E+01 0.00000E+00
 -1      3164 4.37850E+01 1.05013E+01 0.00000E+00
 -1      3165 4.22850E+01 1.05013E+01 0.00000E+00
 -1      3166 4.15350E+01 1.18003E+01 0.00000E+00
 -1      3167 4.67850E+01 1.05013E+01 0.00000E+00
 -1      3168 4.52850E+01 1.05013E+01 0.00000E+00
 -1      3169 4.45350E+01 1.18003E+01 0.00000E+00
 -1      3170 4.97850E+01 1.05013E+01 0.00000E+00
 -1      3171 4.82850E+01 1.05013E+01 0.00000E+00
 -1      3172 4.75350E+01 1.18003E+01 0.00000E+00
 -1      3173 5.27850E+01 1.05013E+01 0.00000E+00
 -1      3174 5.12850E+01 1.05013E+01 0.00000E+00
 -1      3175 5.05350E+01 1.18003E+01 0.00000E+00
 -1      3176 5.57850E+01 1.05013E+01 0.00000E+00
 -1      3177 5.42850E+01 1.05013E+01 0.00000E+00
 -1      3178 5.35350E+01 1.18003E+01 0.00000E+00
 -1      3179 5.87850E+01 1.05013E+01 0.00000E+00
 -1      3180 5.72850E+01 1.05013E+01 0.00000E+00
 -1      3181 5.65350E+01 1.18003E+01 0.00000E+00
 -1      3182 6.17850E+01 1.05013E+01 0.00000E+00
 -1      3183 6.02850E+01 1.05013E+01 0.00000E+00
 -1      3184 5.95350E+01 1.18003E+01 0.00000E+00
 -1      3185 6.47850E+01 1.05013E+01 0.00000E+00
 -1      3186 6.32850E+01 1.05013E+01 0.00000E+00
 -1      3187 6.25350E+01 1.18003E+01 0.00000E+00
 -1      3188 6.77850E+01 1.05013E+01 0.00000E+00
 -1      3189 6.62850E+01 1.05013E+01 0.00000E+00
 -1      3190 6.55350E+01 1.18003E+01 0.00000E+00
 -1      3191 7.07850E+01 1.05013E+01 0.00000E+00
 -1      3192 6.92850E+01 1.05013E+01 0.00000E+00
 -1      3193 6.85350E+01 1.18003E+01 0.00000E+00
 -1      3194 7.37850E+01 1.05013E+01 0.00000E+00
 -1      3195 7.22850E+01 1.05013E+01 0.00000E+00
 -1      3196 7.15350E+01 1.18003E+01 0.00000E+00
 -1      3197 7.67850E+01 1.05013E+01 0.00000E+00
 -1      3198 7.52850E+01 1.05013E+01 0.00000E+00
 -1      3199 7.45350E+01 1.18003E+01 0.00000E+00
 -1      3200 7.97850E+01 1.05013E+01 0.00000E+00
 -1      3201 7.82850E+01 1.05013E+01 0.00000E+00
 -1      3202 7.75350E+01 1.18003E+01 0.00000E+00
 -1      3203 8.27850E+01 1.05013E+01 0.00000E+00
 -1      3204 8.12850E+01 1.05013E+01 0.00000E+00
 -1      3205 8.05350E+01 1.18003E+01 0.00000E+00
 -1      3206 8.57850E+01 1.05013E+01 0.00000E+00
 -1      3207 8.42850E+01 1.05013E+01 0.00000E+00
 -1      3208 8.35350E+01 1.18003E+01 0.00000E+00
 -1      3209 8.87850E+01 1.05013E+01 0.00000E+00
 -1      3210 8.72850E+01 1.05013E+01 0.00000E+00
 -1      3211 8.65350E+01 1.18003E+01 0.00000E+00
 -1      3212 9.17850E+01 1.05013E+01 0.00000E+00
 -1      3213 9.02850E+01 1.05013E+01 0.00000E+00
 -1      3214 8.95350E+01 1.18003E+01 0.00000E+00
 -1      3215 9.47850E+01 1.05013E+01 0.00000E+00
 -1      3216 9.32850E+01 1.05013E+01 0.00000E+00
 -1      3217 9.25350E+01 1.18003E+01 0.00000E+00
 -1      3218 9.77850E+01 1.05013E+01 0.00000E+00
 -1      3219 9.62850E+01 1.05013E+01 0.00000E+00
 -1      3220 9.55350E+01 1.18003E+01 0.00000E+00
 -1      3221 1.00785E+02 1.05013E+01 0.00000E+00
 -1      3222 9.92850E+01 1.05013E+01 0.00000E+00
 -1      3223 9.85350E+01 1.18003E+01 0.00000E+00
 -1      3224 1.03785E+02 1.05013E+01 0.00000E+00
 -1      3225 1.02285E+02 1.05013E+01 0.00000E+00
 -1      3226 1.01535E+02 1.18003E+01 0.00000E+00
 -1      3227 1.06785E+02 1.05013E+01 0.00000E+00
 -1      3228 1.05285E+02 1.05013E+01 0.00000E+00
 -1      3229 1.04535E+02 1.18003E+01 0.00000E+00
 -1      3230 1.09785E+02 1.05013E+01 0.00000E+00
 -1      3231 1.08285E+02 1.05013E+01 0.00000E+00
 -1      3232 1.07535E+02 1.18003E+01 0.00000E+00
 -1      3233 1.12785E+02 1.05013E+01 0.00000E+00
 -1      3234 1.11285E+02 1.05013E+01 0.00000E+00
 -1      3235 1.10535E+02 1.18003E+01 0.00000E+00
 -1      3236 1.15785E+02 1.05013E+01 0.00000E+00
 -1      3237 1.14285E+02 1.05013E+01 0.00000E+00
 -1      3238 1.13535E+02 1.18003E+01 0.00000E+00
 -1      3239 1.17608E+02 1.05702E+01 0.00000E+00
 -1      3240 1.35421E+02 3.31496E+01 0.00000E+00
 -1      3241 1.34007E+02 3.35078E+01 0.00000E+00
 -1      3242 1.33780E+02 3.47494E+01 0.00000E+00
 -1      3243 1.20703E+02 8.98377E+00 0.00000E+00
 -1      3244 1.16388E+02 2.40426E+01 0.00000E+00
 -1      3245 1.15980E+02 2.29545E+01 0.00000E+00
 -1      3246 1.26322E+02 3.41628E+01 0.00000E+00
 -1      3247 1.24899E+02 3.38546E+01 0.00000E+00
 -1      3248 1.40117E+02 2.79750E+01 0.00000E+00
 -1      3249 1.38937E+02 3.15395E+01 0.00000E+00
 -1      3250 1.97850E+01 1.05013E+01 0.00000E+00
 -1      3251 1.82850E+01 1.05013E+01 0.00000E+00
 -1      3252 2.05350E+01 1.18003E+01 0.00000E+00
 -1      3253 9.14137E+00 3.71183E+01 0.00000E+00
 -1      3254 9.17362E+00 3.83534E+01 0.00000E+00
 -1      3255 1.05371E+01 3.86174E+01 0.00000E+00
 -1      3256 1.04404E+01 3.63808E+01 0.00000E+00
 -1      3257 1.15970E+02 1.81752E+01 0.00000E+00
 -1      3258 1.16232E+02 1.70022E+01 0.00000E+00
 -1      3259 1.38734E+02 3.46125E+01 0.00000E+00
 -1      3260 1.38734E+02 3.31375E+01 0.00000E+00
 -1      3261 1.35892E+02 7.73108E+00 0.00000E+00
 -1      3262 1.16461E+02 1.58296E+01 0.00000E+00
 -1      3263 1.16775E+02 1.48652E+01 0.00000E+00
 -1      3264 3.77850E+01 1.05013E+01 0.00000E+00
 -1      3265 3.62850E+01 1.05013E+01 0.00000E+00
 -1      3266 3.55350E+01 1.18003E+01 0.00000E+00
 -1      3267 3.85350E+01 1.18003E+01 0.00000E+00
 -1      3268 1.59000E+01 3.83090E+01 0.00000E+00
 -1      3269 1.74000E+01 3.83090E+01 0.00000E+00
 -1      3270 1.81500E+01 3.70100E+01 0.00000E+00
 -1      3271 1.26488E+01 1.02017E+01 0.00000E+00
 -1      3272 1.20772E+01 1.14631E+01 0.00000E+00
 -1      3273 1.33763E+01 1.22006E+01 0.00000E+00
 -1      3274 1.41488E+01 1.02017E+01 0.00000E+00
 -1      3275 1.39484E+02 2.61675E+01 0.00000E+00
 -1      3276 1.16910E+01 2.12875E+01 0.00000E+00
 -1      3277 1.16910E+01 2.27625E+01 0.00000E+00
 -1      3278 1.29666E+02 3.44478E+01 0.00000E+00
 -1      3279 1.28035E+02 3.43766E+01 0.00000E+00
 -1      3280 1.17219E+02 2.65091E+01 0.00000E+00
 -1      3281 1.16793E+02 2.52043E+01 0.00000E+00
 -1      3282 1.19093E+02 2.89851E+01 0.00000E+00
 -1      3283 1.18120E+02 2.79919E+01 0.00000E+00
 -1      3284 1.20678E+02 3.07396E+01 0.00000E+00
 -1      3285 1.19903E+02 2.99371E+01 0.00000E+00
 -1      3286 1.36642E+02 9.00756E+00 0.00000E+00
 -1      3287 1.16910E+01 2.42375E+01 0.00000E+00
 -1      3288 1.16910E+01 2.57125E+01 0.00000E+00
 -1      3289 1.29900E+01 2.35000E+01 0.00000E+00
 -1      3290 1.30584E+02 3.53138E+01 0.00000E+00
 -1      3291 1.29900E+01 1.46687E+01 0.00000E+00
 -1      3292 1.16910E+01 1.54063E+01 0.00000E+00
 -1      3293 1.16910E+01 1.68750E+01 0.00000E+00
 -1      3294 1.36178E+01 3.83729E+01 0.00000E+00
 -1      3295 1.47589E+01 3.83409E+01 0.00000E+00
 -1      3296 1.55089E+01 3.70419E+01 0.00000E+00
 -1      3297 1.16783E+01 3.85855E+01 0.00000E+00
 -1      3298 1.29900E+02 3.83090E+01 0.00000E+00
 -1      3299 1.31400E+02 3.83090E+01 0.00000E+00
 -1      3300 2.42850E+01 1.05013E+01 0.00000E+00
 -1      3301 2.35350E+01 1.18003E+01 0.00000E+00
 -1      3302 2.57850E+01 1.05013E+01 0.00000E+00
 -1      3303 1.32150E+02 3.70100E+01 0.00000E+00
 -1      3304 2.95350E+01 1.18003E+01 0.00000E+00
 -1      3305 2.87850E+01 1.05013E+01 0.00000E+00
 -1      3306 2.72850E+01 1.05013E+01 0.00000E+00
 -1      3307 1.16858E+02 1.18692E+01 0.00000E+00
 -1      3308 1.36542E+02 3.28915E+01 0.00000E+00
 -1      3309 1.36314E+02 3.41331E+01 0.00000E+00
 -1      3310 1.27089E+02 3.53063E+01 0.00000E+00
 -1      3311 1.15786E+02 2.49612E+01 0.00000E+00
 -1      3312 1.16910E+01 3.01219E+01 0.00000E+00
 -1      3313 1.16910E+01 3.15906E+01 0.00000E+00
 -1      3314 1.38467E+02 3.83507E+01 0.00000E+00
 -1      3315 1.38342E+02 3.61800E+01 0.00000E+00
 -1      3316 1.39330E+02 9.71799E+00 0.00000E+00
 -1      3317 1.16910E+01 3.30594E+01 0.00000E+00
 -1      3318 1.16910E+01 3.45281E+01 0.00000E+00
 -1      3319 1.29900E+01 3.23250E+01 0.00000E+00
 -1      3320 1.16910E+01 1.83469E+01 0.00000E+00
 -1      3321 1.16910E+01 1.98156E+01 0.00000E+00
 -1      3322 1.29900E+01 2.05531E+01 0.00000E+00
 -1      3323 1.29900E+01 1.76094E+01 0.00000E+00
 -1      3324 1.37043E+02 3.54425E+01 0.00000E+00
 -1      3325 1.15494E+02 1.62292E+01 0.00000E+00
 -1      3326 1.37638E+02 3.22770E+01 0.00000E+00
 -1      3327 1.15235E+02 1.90389E+01 0.00000E+00
 -1      3328 1.14529E+02 1.82656E+01 0.00000E+00
 -1      3329 1.14499E+02 1.99027E+01 0.00000E+00
 -1      3330 1.69669E+01 1.03515E+01 0.00000E+00
 -1      3331 1.54669E+01 1.03515E+01 0.00000E+00
 -1      3332 1.50806E+01 1.13509E+01 0.00000E+00
 -1      3333 1.77169E+01 1.16505E+01 0.00000E+00
 -1      3334 1.20959E+02 3.19275E+01 0.00000E+00
 -1      3335 1.18804E+02 3.00405E+01 0.00000E+00
 -1      3336 1.16431E+02 1.32371E+01 0.00000E+00
 -1      3337 1.15293E+02 2.22377E+01 0.00000E+00
 -1      3338 1.14606E+02 2.15209E+01 0.00000E+00
 -1      3339 1.14694E+02 2.30826E+01 0.00000E+00
 -1      3340 1.17092E+02 2.76057E+01 0.00000E+00
 -1      3341 1.16064E+02 2.72195E+01 0.00000E+00
 -1      3342 1.16966E+02 2.87023E+01 0.00000E+00
 -1      3343 1.29150E+02 3.70100E+01 0.00000E+00
 -1      3344 1.15379E+02 1.34284E+01 0.00000E+00
 -1      3345 1.14223E+02 1.50566E+01 0.00000E+00
 -1      3346 1.13879E+02 1.34284E+01 0.00000E+00
 -1      3347 1.12379E+02 1.34284E+01 0.00000E+00
 -1      3348 1.16910E+01 2.71844E+01 0.00000E+00
 -1      3349 1.16910E+01 2.86531E+01 0.00000E+00
 -1      3350 1.29900E+01 2.93875E+01 0.00000E+00
 -1      3351 1.37830E+02 9.80178E+00 0.00000E+00
 -1      3352 2.34000E+01 3.57110E+01 0.00000E+00
 -1      3353 2.49000E+01 3.57110E+01 0.00000E+00
 -1      3354 2.64000E+01 3.57110E+01 0.00000E+00
 -1      3355 2.79000E+01 3.57110E+01 0.00000E+00
 -1      3356 2.56500E+01 3.44120E+01 0.00000E+00
 -1      3357 2.94000E+01 3.57110E+01 0.00000E+00
 -1      3358 3.09000E+01 3.57110E+01 0.00000E+00
 -1      3359 2.86500E+01 3.44120E+01 0.00000E+00
 -1      3360 3.24000E+01 3.57110E+01 0.00000E+00
 -1      3361 3.39000E+01 3.57110E+01 0.00000E+00
 -1      3362 3.16500E+01 3.44120E+01 0.00000E+00
 -1      3363 3.54000E+01 3.57110E+01 0.00000E+00
 -1      3364 3.69000E+01 3.57110E+01 0.00000E+00
 -1      3365 3.46500E+01 3.44120E+01 0.00000E+00
 -1      3366 3.84000E+01 3.57110E+01 0.00000E+00
 -1      3367 3.99000E+01 3.57110E+01 0.00000E+00
 -1      3368 3.76500E+01 3.44120E+01 0.00000E+00
 -1      3369 4.14000E+01 3.57110E+01 0.00000E+00
 -1      3370 4.29000E+01 3.57110E+01 0.00000E+00
 -1      3371 4.06500E+01 3.44120E+01 0.00000E+00
 -1      3372 4.44000E+01 3.57110E+01 0.00000E+00
 -1      3373 4.59000E+01 3.57110E+01 0.00000E+00
 -1      3374 4.36500E+01 3.44120E+01 0.00000E+00
 -1      3375 4.74000E+01 3.57110E+01 0.00000E+00
 -1      3376 4.89000E+01 3.57110E+01 0.00000E+00
 -1      3377 4.66500E+01 3.44120E+01 0.00000E+00
 -1      3378 5.04000E+01 3.57110E+01 0.00000E+00
 -1      3379 5.19000E+01 3.57110E+01 0.00000E+00
 -1      3380 4.96500E+01 3.44120E+01 0.00000E+00
 -1      3381 5.34000E+01 3.57110E+01 0.00000E+00
 -1      3382 5.49000E+01 3.57110E+01 0.00000E+00
 -1      3383 5.26500E+01 3.44120E+01 0.00000E+00
 -1      3384 5.64000E+01 3.57110E+01 0.00000E+00
 -1      3385 5.79000E+01 3.57110E+01 0.00000E+00
 -1      3386 5.56500E+01 3.44120E+01 0.00000E+00
 -1      3387 5.94000E+01 3.57110E+01 0.00000E+00
 -1      3388 6.09000E+01 3.57110E+01 0.00000E+00
 -1      3389 5.86500E+01 3.44120E+01 0.00000E+00
 -1      3390 6.24000E+01 3.57110E+01 0.00000E+00
 -1      3391 6.39000E+01 3.57110E+01 0.00000E+00
 -1      3392 6.16500E+01 3.44120E+01 0.00000E+00
 -1      3393 6.54000E+01 3.57110E+01 0.00000E+00
 -1      3394 6.69000E+01 3.57110E+01 0.00000E+00
 -1      3395 6.46500E+01 3.44120E+01 0.00000E+00
 -1      3396 6.84000E+01 3.57110E+01 0.00000E+00
 -1      3397 6.99000E+01 3.57110E+01 0.00000E+00
 -1      3398 6.76500E+01 3.44120E+01 0.00000E+00
 -1      3399 7.14000E+01 3.57110E+01 0.00000E+00
 -1      3400 7.29000E+01 3.57110E+01 0.00000E+00
 -1      3401 7.06500E+01 3.44120E+01 0.00000E+00
 -1      3402 7.44000E+01 3.57110E+01 0.00000E+00
 -1      3403 7.59000E+01 3.57110E+01 0.00000E+00
 -1      3404 7.36500E+01 3.44120E+01 0.00000E+00
 -1      3405 7.74000E+01 3.57110E+01 0.00000E+00
 -1      3406 7.89000E+01 3.57110E+01 0.00000E+00
 -1      3407 7.66500E+01 3.44120E+01 0.00000E+00
 -1      3408 8.04000E+01 3.57110E+01 0.00000E+00
 -1      3409 8.19000E+01 3.57110E+01 0.00000E+00
 -1      3410 7.96500E+01 3.44120E+01 0.00000E+00
 -1      3411 8.34000E+01 3.57110E+01 0.00000E+00
 -1      3412 8.49000E+01 3.57110E+01 0.00000E+00
 -1      3413 8.26500E+01 3.44120E+01 0.00000E+00
 -1      3414 8.64000E+01 3.57110E+01 0.00000E+00
 -1      3415 8.79000E+01 3.57110E+01 0.00000E+00
 -1      3416 8.56500E+01 3.44120E+01 0.00000E+00
 -1      3417 8.94000E+01 3.57110E+01 0.00000E+00
 -1      3418 9.09000E+01 3.57110E+01 0.00000E+00
 -1      3419 8.86500E+01 3.44120E+01 0.00000E+00
 -1      3420 9.24000E+01 3.57110E+01 0.00000E+00
 -1      3421 9.39000E+01 3.57110E+01 0.00000E+00
 -1      3422 9.16500E+01 3.44120E+01 0.00000E+00
 -1      3423 9.54000E+01 3.57110E+01 0.00000E+00
 -1      3424 9.69000E+01 3.57110E+01 0.00000E+00
 -1      3425 9.46500E+01 3.44120E+01 0.00000E+00
 -1      3426 9.84000E+01 3.57110E+01 0.00000E+00
 -1      3427 9.99000E+01 3.57110E+01 0.00000E+00
 -1      3428 9.76500E+01 3.44120E+01 0.00000E+00
 -1      3429 1.01400E+02 3.57110E+01 0.00000E+00
 -1      3430 1.02900E+02 3.57110E+01 0.00000E+00
 -1      3431 1.00650E+02 3.44120E+01 0.00000E+00
 -1      3432 1.04400E+02 3.57110E+01 0.00000E+00
 -1      3433 1.05900E+02 3.57110E+01 0.00000E+00
 -1      3434 1.03650E+02 3.44120E+01 0.00000E+00
 -1      3435 1.07400E+02 3.57110E+01 0.00000E+00
 -1      3436 1.08900E+02 3.57110E+01 0.00000E+00
 -1      3437 1.06650E+02 3.44120E+01 0.00000E+00
 -1      3438 1.10400E+02 3.57110E+01 0.00000E+00
 -1      3439 1.11900E+02 3.57110E+01 0.00000E+00
 -1      3440 1.09650E+02 3.44120E+01 0.00000E+00
 -1      3441 1.13400E+02 3.57110E+01 0.00000E+00
 -1      3442 1.14900E+02 3.57110E+01 0.00000E+00
 -1      3443 1.12650E+02 3.44120E+01 0.00000E+00
 -1      3444 1.16400E+02 3.57110E+01 0.00000E+00
 -1      3445 1.17900E+02 3.57110E+01 0.00000E+00
 -1      3446 1.15650E+02 3.44120E+01 0.00000E+00
 -1      3447 1.21977E+02 3.49362E+01 0.00000E+00
 -1      3448 1.23477E+02 3.49362E+01 0.00000E+00
 -1      3449 1.74000E+01 3.57110E+01 0.00000E+00
 -1      3450 1.89000E+01 3.57110E+01 0.00000E+00
 -1      3451 4.52850E+01 1.30992E+01 0.00000E+00
 -1      3452 4.37850E+01 1.30992E+01 0.00000E+00
 -1      3453 4.22850E+01 1.30992E+01 0.00000E+00
 -1      3454 4.07850E+01 1.30992E+01 0.00000E+00
 -1      3455 4.30350E+01 1.43982E+01 0.00000E+00
 -1      3456 5.12850E+01 1.30992E+01 0.00000E+00
 -1      3457 4.97850E+01 1.30992E+01 0.00000E+00
 -1      3458 5.42850E+01 1.30992E+01 0.00000E+00
 -1      3459 5.27850E+01 1.30992E+01 0.00000E+00
 -1      3460 5.20350E+01 1.43982E+01 0.00000E+00
 -1      3461 5.72850E+01 1.30992E+01 0.00000E+00
 -1      3462 5.57850E+01 1.30992E+01 0.00000E+00
 -1      3463 5.50350E+01 1.43982E+01 0.00000E+00
 -1      3464 6.02850E+01 1.30992E+01 0.00000E+00
 -1      3465 5.87850E+01 1.30992E+01 0.00000E+00
 -1      3466 5.80350E+01 1.43982E+01 0.00000E+00
 -1      3467 6.32850E+01 1.30992E+01 0.00000E+00
 -1      3468 6.17850E+01 1.30992E+01 0.00000E+00
 -1      3469 6.10350E+01 1.43982E+01 0.00000E+00
 -1      3470 6.62850E+01 1.30992E+01 0.00000E+00
 -1      3471 6.47850E+01 1.30992E+01 0.00000E+00
 -1      3472 6.40350E+01 1.43982E+01 0.00000E+00
 -1      3473 6.92850E+01 1.30992E+01 0.00000E+00
 -1      3474 6.77850E+01 1.30992E+01 0.00000E+00
 -1      3475 6.70350E+01 1.43982E+01 0.00000E+00
 -1      3476 7.22850E+01 1.30992E+01 0.00000E+00
 -1      3477 7.07850E+01 1.30992E+01 0.00000E+00
 -1      3478 7.00350E+01 1.43982E+01 0.00000E+00
 -1      3479 7.52850E+01 1.30992E+01 0.00000E+00
 -1      3480 7.37850E+01 1.30992E+01 0.00000E+00
 -1      3481 7.30350E+01 1.43982E+01 0.00000E+00
 -1      3482 7.82850E+01 1.30992E+01 0.00000E+00
 -1      3483 7.67850E+01 1.30992E+01 0.00000E+00
 -1      3484 7.60350E+01 1.43982E+01 0.00000E+00
 -1      3485 8.12850E+01 1.30992E+01 0.00000E+00
 -1      3486 7.97850E+01 1.30992E+01 0.00000E+00
 -1      3487 7.90350E+01 1.43982E+01 0.00000E+00
 -1      3488 8.42850E+01 1.30992E+01 0.00000E+00
 -1      3489 8.27850E+01 1.30992E+01 0.00000E+00
 -1      3490 8.20350E+01 1.43982E+01 0.00000E+00
 -1      3491 8.72850E+01 1.30992E+01 0.00000E+00
 -1      3492 8.57850E+01 1.30992E+01 0.00000E+00
 -1      3493 8.50350E+01 1.43982E+01 0.00000E+00
 -1      3494 9.02850E+01 1.30992E+01 0.00000E+00
 -1      3495 8.87850E+01 1.30992E+01 0.00000E+00
 -1      3496 8.80350E+01 1.43982E+01 0.00000E+00
 -1      3497 9.32850E+01 1.30992E+01 0.00000E+00
 -1      3498 9.17850E+01 1.30992E+01 0.00000E+00
 -1      3499 9.10350E+01 1.43982E+01 0.00000E+00
 -1      3500 9.62850E+01 1.30992E+01 0.00000E+00
 -1      3501 9.47850E+01 1.30992E+01 0.00000E+00
 -1      3502 9.40350E+01 1.43982E+01 0.00000E+00
 -1      3503 9.92850E+01 1.30992E+01 0.00000E+00
 -1      3504 9.77850E+01 1.30992E+01 0.00000E+00
 -1      3505 9.70350E+01 1.43982E+01 0.00000E+00
 -1      3506 1.02285E+02 1.30992E+01 0.00000E+00
 -1      3507 1.00785E+02 1.30992E+01 0.00000E+00
 -1      3508 1.00035E+02 1.43982E+01 0.00000E+00
 -1      3509 1.05285E+02 1.30992E+01 0.00000E+00
 -1      3510 1.03785E+02 1.30992E+01 0.00000E+00
 -1      3511 1.03035E+02 1.43982E+01 0.00000E+00
 -1      3512 1.08285E+02 1.30992E+01 0.00000E+00
 -1      3513 1.06785E+02 1.30992E+01 0.00000E+00
 -1      3514 1.06035E+02 1.43982E+01 0.00000E+00
 -1      3515 1.11082E+02 1.32638E+01 0.00000E+00
 -1      3516 1.09582E+02 1.32638E+01 0.00000E+00
 -1      3517 1.08832E+02 1.45628E+01 0.00000E+00
 -1      3518 1.11426E+02 1.48920E+01 0.00000E+00
 -1      3519 1.35922E+02 3.57006E+01 0.00000E+00
 -1      3520 1.28226E+02 3.62650E+01 0.00000E+00
 -1      3521 1.26513E+02 3.60512E+01 0.00000E+00
 -1      3522 1.20391E+02 3.55056E+01 0.00000E+00
 -1      3523 1.20718E+02 3.34318E+01 0.00000E+00
 -1      3524 1.19373E+02 3.24969E+01 0.00000E+00
 -1      3525 1.18891E+02 3.55056E+01 0.00000E+00
 -1      3526 1.29726E+02 3.62650E+01 0.00000E+00
 -1      3527 1.13994E+02 1.62292E+01 0.00000E+00
 -1      3528 1.23840E+02 3.39774E+01 0.00000E+00
 -1      3529 2.12850E+01 1.30992E+01 0.00000E+00
 -1      3530 1.97850E+01 1.30992E+01 0.00000E+00
 -1      3531 4.82850E+01 1.30992E+01 0.00000E+00
 -1      3532 4.67850E+01 1.30992E+01 0.00000E+00
 -1      3533 4.60350E+01 1.43982E+01 0.00000E+00
 -1      3534 4.90350E+01 1.43982E+01 0.00000E+00
 -1      3535 1.31508E+02 3.60588E+01 0.00000E+00
 -1      3536 1.33008E+02 3.60588E+01 0.00000E+00
 -1      3537 3.32850E+01 1.30992E+01 0.00000E+00
 -1      3538 3.17850E+01 1.30992E+01 0.00000E+00
 -1      3539 1.24283E+01 3.72865E+01 0.00000E+00
 -1      3540 1.34422E+02 3.57006E+01 0.00000E+00
 -1      3541 2.04000E+01 3.57110E+01 0.00000E+00
 -1      3542 2.19000E+01 3.57110E+01 0.00000E+00
 -1      3543 2.26500E+01 3.44120E+01 0.00000E+00
 -1      3544 1.14941E+02 2.59068E+01 0.00000E+00
 -1      3545 1.14536E+02 2.47451E+01 0.00000E+00
 -1      3546 1.18364E+02 3.12351E+01 0.00000E+00
 -1      3547 1.17554E+02 3.02830E+01 0.00000E+00
 -1      3548 1.42890E+01 1.39344E+01 0.00000E+00
 -1      3549 1.42890E+01 1.54031E+01 0.00000E+00
 -1      3550 1.29900E+01 2.64469E+01 0.00000E+00
 -1      3551 1.13004E+02 2.49739E+01 0.00000E+00
 -1      3552 1.13849E+02 2.40283E+01 0.00000E+00
 -1      3553 1.13162E+02 2.33115E+01 0.00000E+00
 -1      3554 2.65350E+01 1.18003E+01 0.00000E+00
 -1      3555 1.62589E+01 3.57429E+01 0.00000E+00
 -1      3556 1.70089E+01 3.44439E+01 0.00000E+00
 -1      3557 1.51178E+01 3.57749E+01 0.00000E+00
 -1      3558 1.18141E+02 3.42066E+01 0.00000E+00
 -1      3559 1.18123E+02 3.27394E+01 0.00000E+00
 -1      3560 1.96500E+01 3.44120E+01 0.00000E+00
 -1      3561 1.25013E+02 3.60512E+01 0.00000E+00
 -1      3562 2.42850E+01 1.30992E+01 0.00000E+00
 -1      3563 2.27850E+01 1.30992E+01 0.00000E+00
 -1      3564 2.20350E+01 1.43982E+01 0.00000E+00
 -1      3565 3.02850E+01 1.30992E+01 0.00000E+00
 -1      3566 2.87850E+01 1.30992E+01 0.00000E+00
 -1      3567 3.10350E+01 1.43982E+01 0.00000E+00
 -1      3568 4.00350E+01 1.43982E+01 0.00000E+00
 -1      3569 3.92850E+01 1.30992E+01 0.00000E+00
 -1      3570 3.77850E+01 1.30992E+01 0.00000E+00
 -1      3571 1.42890E+01 2.86531E+01 0.00000E+00
 -1      3572 1.42890E+01 3.01219E+01 0.00000E+00
 -1      3573 1.42890E+01 1.98172E+01 0.00000E+00
 -1      3574 1.42890E+01 2.12891E+01 0.00000E+00
 -1      3575 1.57279E+01 3.19317E+01 0.00000E+00
 -1      3576 1.44289E+01 3.26661E+01 0.00000E+00
 -1      3577 1.23799E+01 3.61682E+01 0.00000E+00
 -1      3578 1.90350E+01 1.43983E+01 0.00000E+00
 -1      3579 1.82850E+01 1.30993E+01 0.00000E+00
 -1      3580 1.13900E+02 2.07476E+01 0.00000E+00
 -1      3581 1.13194E+02 1.99743E+01 0.00000E+00
 -1      3582 1.13301E+02 2.15925E+01 0.00000E+00
 -1      3583 1.69669E+01 1.29495E+01 0.00000E+00
 -1      3584 1.42890E+01 2.27641E+01 0.00000E+00
 -1      3585 1.42890E+01 2.42391E+01 0.00000E+00
 -1      3586 1.55880E+01 2.20281E+01 0.00000E+00
 -1      3587 3.62850E+01 1.30992E+01 0.00000E+00
 -1      3588 3.47850E+01 1.30992E+01 0.00000E+00
 -1      3589 3.40350E+01 1.43982E+01 0.00000E+00
 -1      3590 3.70350E+01 1.43982E+01 0.00000E+00
 -1      3591 1.14814E+02 2.70034E+01 0.00000E+00
 -1      3592 1.13565E+02 2.67873E+01 0.00000E+00
 -1      3593 1.14688E+02 2.81000E+01 0.00000E+00
 -1      3594 1.16526E+02 2.98968E+01 0.00000E+00
 -1      3595 1.15498E+02 2.95106E+01 0.00000E+00
 -1      3596 1.16086E+02 3.10913E+01 0.00000E+00
 -1      3597 1.13613E+02 1.71652E+01 0.00000E+00
 -1      3598 1.12342E+02 1.59925E+01 0.00000E+00
 -1      3599 1.11045E+02 1.58279E+01 0.00000E+00
 -1      3600 1.12877E+02 1.80289E+01 0.00000E+00
 -1      3601 1.42890E+01 2.57102E+01 0.00000E+00
 -1      3602 1.42890E+01 2.71820E+01 0.00000E+00
 -1      3603 1.55880E+01 2.79164E+01 0.00000E+00
 -1      3604 1.55880E+01 2.49742E+01 0.00000E+00
 -1      3605 2.49000E+01 3.31130E+01 0.00000E+00
 -1      3606 2.64000E+01 3.31130E+01 0.00000E+00
 -1      3607 2.79000E+01 3.31130E+01 0.00000E+00
 -1      3608 2.94000E+01 3.31130E+01 0.00000E+00
 -1      3609 2.71500E+01 3.18140E+01 0.00000E+00
 -1      3610 3.09000E+01 3.31130E+01 0.00000E+00
 -1      3611 3.24000E+01 3.31130E+01 0.00000E+00
 -1      3612 3.01500E+01 3.18140E+01 0.00000E+00
 -1      3613 3.39000E+01 3.31130E+01 0.00000E+00
 -1      3614 3.54000E+01 3.31130E+01 0.00000E+00
 -1      3615 3.31500E+01 3.18140E+01 0.00000E+00
 -1      3616 3.69000E+01 3.31130E+01 0.00000E+00
 -1      3617 3.84000E+01 3.31130E+01 0.00000E+00
 -1      3618 3.61500E+01 3.18140E+01 0.00000E+00
 -1      3619 3.99000E+01 3.31130E+01 0.00000E+00
 -1      3620 4.14000E+01 3.31130E+01 0.00000E+00
 -1      3621 3.91500E+01 3.18140E+01 0.00000E+00
 -1      3622 4.29000E+01 3.31130E+01 0.00000E+00
 -1      3623 4.44000E+01 3.31130E+01 0.00000E+00
 -1      3624 4.21500E+01 3.18140E+01 0.00000E+00
 -1      3625 4.59000E+01 3.31130E+01 0.00000E+00
 -1      3626 4.74000E+01 3.31130E+01 0.00000E+00
 -1      3627 4.51500E+01 3.18140E+01 0.00000E+00
 -1      3628 4.89000E+01 3.31130E+01 0.00000E+00
 -1      3629 5.04000E+01 3.31130E+01 0.00000E+00
 -1      3630 4.81500E+01 3.18140E+01 0.00000E+00
 -1      3631 5.19000E+01 3.31130E+01 0.00000E+00
 -1      3632 5.34000E+01 3.31130E+01 0.00000E+00
 -1      3633 5.11500E+01 3.18140E+01 0.00000E+00
 -1      3634 5.49000E+01 3.31130E+01 0.00000E+00
 -1      3635 5.64000E+01 3.31130E+01 0.00000E+00
 -1      3636 5.41500E+01 3.18140E+01 0.00000E+00
 -1      3637 5.79000E+01 3.31130E+01 0.00000E+00
 -1      3638 5.94000E+01 3.31130E+01 0.00000E+00
 -1      3639 5.71500E+01 3.18140E+01 0.00000E+00
 -1      3640 6.09000E+01 3.31130E+01 0.00000E+00
 -1      3641 6.24000E+01 3.31130E+01 0.00000E+00
 -1      3642 6.01500E+01 3.18140E+01 0.00000E+00
 -1      3643 6.39000E+01 3.31130E+01 0.00000E+00
 -1      3644 6.54000E+01 3.31130E+01 0.00000E+00
 -1      3645 6.31500E+01 3.18140E+01 0.00000E+00
 -1      3646 6.69000E+01 3.31130E+01 0.00000E+00
 -1      3647 6.84000E+01 3.31130E+01 0.00000E+00
 -1      3648 6.61500E+01 3.18140E+01 0.00000E+00
 -1      3649 6.99000E+01 3.31130E+01 0.00000E+00
 -1      3650 7.14000E+01 3.31130E+01 0.00000E+00
 -1      3651 6.91500E+01 3.18140E+01 0.00000E+00
 -1      3652 7.29000E+01 3.31130E+01 0.00000E+00
 -1      3653 7.44000E+01 3.31130E+01 0.00000E+00
 -1      3654 7.21500E+01 3.18140E+01 0.00000E+00
 -1      3655 7.59000E+01 3.31130E+01 0.00000E+00
 -1      3656 7.74000E+01 3.31130E+01 0.00000E+00
 -1      3657 7.51500E+01 3.18140E+01 0.00000E+00
 -1      3658 7.89000E+01 3.31130E+01 0.00000E+00
 -1      3659 8.04000E+01 3.31130E+01 0.00000E+00
 -1      3660 7.81500E+01 3.18140E+01 0.00000E+00
 -1      3661 8.19000E+01 3.31130E+01 0.00000E+00
 -1      3662 8.34000E+01 3.31130E+01 0.00000E+00
 -1      3663 8.11500E+01 3.18140E+01 0.00000E+00
 -1      3664 8.49000E+01 3.31130E+01 0.00000E+00
 -1      3665 8.64000E+01 3.31130E+01 0.00000E+00
 -1      3666 8.41500E+01 3.18140E+01 0.00000E+00
 -1      3667 8.79000E+01 3.31130E+01 0.00000E+00
 -1      3668 8.94000E+01 3.31130E+01 0.00000E+00
 -1      3669 8.71500E+01 3.18140E+01 0.00000E+00
 -1      3670 9.09000E+01 3.31130E+01 0.00000E+00
 -1      3671 9.24000E+01 3.31130E+01 0.00000E+00
 -1      3672 9.01500E+01 3.18140E+01 0.00000E+00
 -1      3673 9.39000E+01 3.31130E+01 0.00000E+00
 -1      3674 9.54000E+01 3.31130E+01 0.00000E+00
 -1      3675 9.31500E+01 3.18140E+01 0.00000E+00
 -1      3676 9.69000E+01 3.31130E+01 0.00000E+00
 -1      3677 9.84000E+01 3.31130E+01 0.00000E+00
 -1      3678 9.61500E+01 3.18140E+01 0.00000E+00
 -1      3679 9.99000E+01 3.31130E+01 0.00000E+00
 -1      3680 1.01400E+02 3.31130E+01 0.00000E+00
 -1      3681 9.91500E+01 3.18140E+01 0.00000E+00
 -1      3682 1.02900E+02 3.31130E+01 0.00000E+00
 -1      3683 1.04400E+02 3.31130E+01 0.00000E+00
 -1      3684 1.02150E+02 3.18140E+01 0.00000E+00
 -1      3685 1.05900E+02 3.31130E+01 0.00000E+00
 -1      3686 1.07400E+02 3.31130E+01 0.00000E+00
 -1      3687 1.05150E+02 3.18140E+01 0.00000E+00
 -1      3688 1.08900E+02 3.31130E+01 0.00000E+00
 -1      3689 1.10400E+02 3.31130E+01 0.00000E+00
 -1      3690 1.08150E+02 3.18140E+01 0.00000E+00
 -1      3691 1.11900E+02 3.31130E+01 0.00000E+00
 -1      3692 1.13400E+02 3.31130E+01 0.00000E+00
 -1      3693 1.11150E+02 3.18140E+01 0.00000E+00
 -1      3694 1.46944E+01 1.23503E+01 0.00000E+00
 -1      3695 1.59934E+01 1.30847E+01 0.00000E+00
 -1      3696 5.57850E+01 1.56973E+01 0.00000E+00
 -1      3697 5.42850E+01 1.56973E+01 0.00000E+00
 -1      3698 5.27850E+01 1.56973E+01 0.00000E+00
 -1      3699 5.12850E+01 1.56973E+01 0.00000E+00
 -1      3700 5.35350E+01 1.69963E+01 0.00000E+00
 -1      3701 6.17850E+01 1.56973E+01 0.00000E+00
 -1      3702 6.02850E+01 1.56973E+01 0.00000E+00
 -1      3703 6.47850E+01 1.56973E+01 0.00000E+00
 -1      3704 6.32850E+01 1.56973E+01 0.00000E+00
 -1      3705 6.25350E+01 1.69963E+01 0.00000E+00
 -1      3706 6.77850E+01 1.56973E+01 0.00000E+00
 -1      3707 6.62850E+01 1.56973E+01 0.00000E+00
 -1      3708 6.55350E+01 1.69963E+01 0.00000E+00
 -1      3709 7.07850E+01 1.56973E+01 0.00000E+00
 -1      3710 6.92850E+01 1.56973E+01 0.00000E+00
 -1      3711 6.85350E+01 1.69963E+01 0.00000E+00
 -1      3712 7.37850E+01 1.56973E+01 0.00000E+00
 -1      3713 7.22850E+01 1.56973E+01 0.00000E+00
 -1      3714 7.15350E+01 1.69963E+01 0.00000E+00
 -1      3715 7.67850E+01 1.56973E+01 0.00000E+00
 -1      3716 7.52850E+01 1.56973E+01 0.00000E+00
 -1      3717 7.45350E+01 1.69963E+01 0.00000E+00
 -1      3718 7.97850E+01 1.56973E+01 0.00000E+00
 -1      3719 7.82850E+01 1.56973E+01 0.00000E+00
 -1      3720 7.75350E+01 1.69963E+01 0.00000E+00
 -1      3721 8.27850E+01 1.56973E+01 0.00000E+00
 -1      3722 8.12850E+01 1.56973E+01 0.00000E+00
 -1      3723 8.05350E+01 1.69963E+01 0.00000E+00
 -1      3724 8.57850E+01 1.56973E+01 0.00000E+00
 -1      3725 8.42850E+01 1.56973E+01 0.00000E+00
 -1      3726 8.35350E+01 1.69963E+01 0.00000E+00
 -1      3727 8.87850E+01 1.56973E+01 0.00000E+00
 -1      3728 8.72850E+01 1.56973E+01 0.00000E+00
 -1      3729 8.65350E+01 1.69963E+01 0.00000E+00
 -1      3730 9.17850E+01 1.56973E+01 0.00000E+00
 -1      3731 9.02850E+01 1.56973E+01 0.00000E+00
 -1      3732 8.95350E+01 1.69963E+01 0.00000E+00
 -1      3733 9.47850E+01 1.56973E+01 0.00000E+00
 -1      3734 9.32850E+01 1.56973E+01 0.00000E+00
 -1      3735 9.25350E+01 1.69963E+01 0.00000E+00
 -1      3736 9.77850E+01 1.56973E+01 0.00000E+00
 -1      3737 9.62850E+01 1.56973E+01 0.00000E+00
 -1      3738 9.55350E+01 1.69963E+01 0.00000E+00
 -1      3739 1.00785E+02 1.56973E+01 0.00000E+00
 -1      3740 9.92850E+01 1.56973E+01 0.00000E+00
 -1      3741 9.85350E+01 1.69963E+01 0.00000E+00
 -1      3742 1.03785E+02 1.56973E+01 0.00000E+00
 -1      3743 1.02285E+02 1.56973E+01 0.00000E+00
 -1      3744 1.01535E+02 1.69963E+01 0.00000E+00
 -1      3745 1.06785E+02 1.56973E+01 0.00000E+00
 -1      3746 1.05285E+02 1.56973E+01 0.00000E+00
 -1      3747 1.04535E+02 1.69963E+01 0.00000E+00
 -1      3748 1.44289E+01 3.41348E+01 0.00000E+00
 -1      3749 1.89000E+01 3.31130E+01 0.00000E+00
 -1      3750 2.04000E+01 3.31130E+01 0.00000E+00
 -1      3751 1.36789E+01 3.54338E+01 0.00000E+00
 -1      3752 1.97850E+01 1.56973E+01 0.00000E+00
 -1      3753 1.82851E+01 1.56973E+01 0.00000E+00
 -1      3754 1.65615E+01 1.45335E+01 0.00000E+00
 -1      3755 4.37850E+01 1.56973E+01 0.00000E+00
 -1      3756 4.22850E+01 1.56973E+01 0.00000E+00
 -1      3757 1.42890E+01 1.68742E+01 0.00000E+00
 -1      3758 1.42890E+01 1.83461E+01 0.00000E+00
 -1      3759 1.55880E+01 1.90820E+01 0.00000E+00
 -1      3760 1.55880E+01 1.61398E+01 0.00000E+00
 -1      3761 1.17132E+02 3.29448E+01 0.00000E+00
 -1      3762 5.87850E+01 1.56973E+01 0.00000E+00
 -1      3763 5.72850E+01 1.56973E+01 0.00000E+00
 -1      3764 5.95350E+01 1.69963E+01 0.00000E+00
 -1      3765 2.72850E+01 1.30992E+01 0.00000E+00
 -1      3766 2.57850E+01 1.30992E+01 0.00000E+00
 -1      3767 2.50350E+01 1.43982E+01 0.00000E+00
 -1      3768 2.19000E+01 3.31130E+01 0.00000E+00
 -1      3769 2.34000E+01 3.31130E+01 0.00000E+00
 -1      3770 2.41500E+01 3.18140E+01 0.00000E+00
 -1      3771 1.15632E+02 3.29448E+01 0.00000E+00
 -1      3772 1.74233E+01 1.58509E+01 0.00000E+00
 -1      3773 1.64498E+01 1.59862E+01 0.00000E+00
 -1      3774 1.64498E+01 1.74573E+01 0.00000E+00
 -1      3775 1.81733E+01 1.71499E+01 0.00000E+00
 -1      3776 1.12878E+02 2.60705E+01 0.00000E+00
 -1      3777 1.12190E+02 2.53537E+01 0.00000E+00
 -1      3778 1.12751E+02 2.71671E+01 0.00000E+00
 -1      3779 2.11500E+01 3.18140E+01 0.00000E+00
 -1      3780 1.12456E+02 2.25382E+01 0.00000E+00
 -1      3781 1.11750E+02 2.17649E+01 0.00000E+00
 -1      3782 1.11611E+02 2.34838E+01 0.00000E+00
 -1      3783 1.69550E+01 3.05883E+01 0.00000E+00
 -1      3784 1.70949E+01 3.31325E+01 0.00000E+00
 -1      3785 1.82360E+01 3.31005E+01 0.00000E+00
 -1      3786 3.17850E+01 1.56973E+01 0.00000E+00
 -1      3787 3.02850E+01 1.56973E+01 0.00000E+00
 -1      3788 1.14248E+02 2.92945E+01 0.00000E+00
 -1      3789 4.07850E+01 1.56973E+01 0.00000E+00
 -1      3790 3.92850E+01 1.56973E+01 0.00000E+00
 -1      3791 4.15350E+01 1.69963E+01 0.00000E+00
 -1      3792 1.14882E+02 3.16458E+01 0.00000E+00
 -1      3793 5.05350E+01 1.69963E+01 0.00000E+00
 -1      3794 4.97850E+01 1.56973E+01 0.00000E+00
 -1      3795 4.82850E+01 1.56973E+01 0.00000E+00
 -1      3796 1.08082E+02 1.58618E+01 0.00000E+00
 -1      3797 1.07332E+02 1.71608E+01 0.00000E+00
 -1      3798 1.09379E+02 1.60264E+01 0.00000E+00
 -1      3799 3.47850E+01 1.56973E+01 0.00000E+00
 -1      3800 3.32850E+01 1.56973E+01 0.00000E+00
 -1      3801 3.25350E+01 1.69963E+01 0.00000E+00
 -1      3802 2.80350E+01 1.43982E+01 0.00000E+00
 -1      3803 2.12850E+01 1.56973E+01 0.00000E+00
 -1      3804 2.05351E+01 1.69963E+01 0.00000E+00
 -1      3805 2.27850E+01 1.56973E+01 0.00000E+00
 -1      3806 4.67850E+01 1.56973E+01 0.00000E+00
 -1      3807 4.52850E+01 1.56973E+01 0.00000E+00
 -1      3808 4.75350E+01 1.69963E+01 0.00000E+00
 -1      3809 1.12014E+02 2.03193E+01 0.00000E+00
 -1      3810 1.12613E+02 1.94744E+01 0.00000E+00
 -1      3811 1.11697E+02 1.83739E+01 0.00000E+00
 -1      3812 1.11169E+02 2.12650E+01 0.00000E+00
 -1      3813 4.45350E+01 1.69963E+01 0.00000E+00
 -1      3814 1.68870E+01 2.12906E+01 0.00000E+00
 -1      3815 1.68870E+01 2.27656E+01 0.00000E+00
 -1      3816 1.68870E+01 2.71809E+01 0.00000E+00
 -1      3817 1.68870E+01 2.86520E+01 0.00000E+00
 -1      3818 1.66684E+01 1.86384E+01 0.00000E+00
 -1      3819 1.66684E+01 2.01095E+01 0.00000E+00
 -1      3820 1.79674E+01 2.08470E+01 0.00000E+00
 -1      3821 1.75301E+01 1.84847E+01 0.00000E+00
 -1      3822 5.65350E+01 1.69963E+01 0.00000E+00
 -1      3823 1.82540E+01 2.98527E+01 0.00000E+00
 -1      3824 2.64000E+01 3.05150E+01 0.00000E+00
 -1      3825 2.79000E+01 3.05150E+01 0.00000E+00
 -1      3826 2.94000E+01 3.05150E+01 0.00000E+00
 -1      3827 3.09000E+01 3.05150E+01 0.00000E+00
 -1      3828 2.86500E+01 2.92160E+01 0.00000E+00
 -1      3829 3.24000E+01 3.05150E+01 0.00000E+00
 -1      3830 3.39000E+01 3.05150E+01 0.00000E+00
 -1      3831 3.16500E+01 2.92160E+01 0.00000E+00
 -1      3832 3.54000E+01 3.05150E+01 0.00000E+00
 -1      3833 3.69000E+01 3.05150E+01 0.00000E+00
 -1      3834 3.46500E+01 2.92160E+01 0.00000E+00
 -1      3835 3.84000E+01 3.05150E+01 0.00000E+00
 -1      3836 3.99000E+01 3.05150E+01 0.00000E+00
 -1      3837 3.76500E+01 2.92160E+01 0.00000E+00
 -1      3838 4.14000E+01 3.05150E+01 0.00000E+00
 -1      3839 4.29000E+01 3.05150E+01 0.00000E+00
 -1      3840 4.06500E+01 2.92160E+01 0.00000E+00
 -1      3841 4.44000E+01 3.05150E+01 0.00000E+00
 -1      3842 4.59000E+01 3.05150E+01 0.00000E+00
 -1      3843 4.36500E+01 2.92160E+01 0.00000E+00
 -1      3844 4.74000E+01 3.05150E+01 0.00000E+00
 -1      3845 4.89000E+01 3.05150E+01 0.00000E+00
 -1      3846 4.66500E+01 2.92160E+01 0.00000E+00
 -1      3847 5.04000E+01 3.05150E+01 0.00000E+00
 -1      3848 5.19000E+01 3.05150E+01 0.00000E+00
 -1      3849 4.96500E+01 2.92160E+01 0.00000E+00
 -1      3850 5.34000E+01 3.05150E+01 0.00000E+00
 -1      3851 5.49000E+01 3.05150E+01 0.00000E+00
 -1      3852 5.26500E+01 2.92160E+01 0.00000E+00
 -1      3853 5.64000E+01 3.05150E+01 0.00000E+00
 -1      3854 5.79000E+01 3.05150E+01 0.00000E+00
 -1      3855 5.56500E+01 2.92160E+01 0.00000E+00
 -1      3856 5.94000E+01 3.05150E+01 0.00000E+00
 -1      3857 6.09000E+01 3.05150E+01 0.00000E+00
 -1      3858 5.86500E+01 2.92160E+01 0.00000E+00
 -1      3859 6.24000E+01 3.05150E+01 0.00000E+00
 -1      3860 6.39000E+01 3.05150E+01 0.00000E+00
 -1      3861 6.16500E+01 2.92160E+01 0.00000E+00
 -1      3862 6.54000E+01 3.05150E+01 0.00000E+00
 -1      3863 6.69000E+01 3.05150E+01 0.00000E+00
 -1      3864 6.46500E+01 2.92160E+01 0.00000E+00
 -1      3865 6.84000E+01 3.05150E+01 0.00000E+00
 -1      3866 6.99000E+01 3.05150E+01 0.00000E+00
 -1      3867 6.76500E+01 2.92160E+01 0.00000E+00
 -1      3868 7.14000E+01 3.05150E+01 0.00000E+00
 -1      3869 7.29000E+01 3.05150E+01 0.00000E+00
 -1      3870 7.06500E+01 2.92160E+01 0.00000E+00
 -1      3871 7.44000E+01 3.05150E+01 0.00000E+00
 -1      3872 7.59000E+01 3.05150E+01 0.00000E+00
 -1      3873 7.36500E+01 2.92160E+01 0.00000E+00
 -1      3874 7.74000E+01 3.05150E+01 0.00000E+00
 -1      3875 7.89000E+01 3.05150E+01 0.00000E+00
 -1      3876 7.66500E+01 2.92160E+01 0.00000E+00
 -1      3877 8.04000E+01 3.05150E+01 0.00000E+00
 -1      3878 8.19000E+01 3.05150E+01 0.00000E+00
 -1      3879 7.96500E+01 2.92160E+01 0.00000E+00
 -1      3880 8.34000E+01 3.05150E+01 0.00000E+00
 -1      3881 8.49000E+01 3.05150E+01 0.00000E+00
 -1      3882 8.26500E+01 2.92160E+01 0.00000E+00
 -1      3883 8.64000E+01 3.05150E+01 0.00000E+00
 -1      3884 8.79000E+01 3.05150E+01 0.00000E+00
 -1      3885 8.56500E+01 2.92160E+01 0.00000E+00
 -1      3886 8.94000E+01 3.05150E+01 0.00000E+00
 -1      3887 9.09000E+01 3.05150E+01 0.00000E+00
 -1      3888 8.86500E+01 2.92160E+01 0.00000E+00
 -1      3889 9.24000E+01 3.05150E+01 0.00000E+00
 -1      3890 9.39000E+01 3.05150E+01 0.00000E+00
 -1      3891 9.16500E+01 2.92160E+01 0.00000E+00
 -1      3892 9.54000E+01 3.05150E+01 0.00000E+00
 -1      3893 9.69000E+01 3.05150E+01 0.00000E+00
 -1      3894 9.46500E+01 2.92160E+01 0.00000E+00
 -1      3895 9.84000E+01 3.05150E+01 0.00000E+00
 -1      3896 9.99000E+01 3.05150E+01 0.00000E+00
 -1      3897 9.76500E+01 2.92160E+01 0.00000E+00
 -1      3898 1.01400E+02 3.05150E+01 0.00000E+00
 -1      3899 1.02900E+02 3.05150E+01 0.00000E+00
 -1      3900 1.00650E+02 2.92160E+01 0.00000E+00
 -1      3901 1.04400E+02 3.05150E+01 0.00000E+00
 -1      3902 1.05900E+02 3.05150E+01 0.00000E+00
 -1      3903 1.03650E+02 2.92160E+01 0.00000E+00
 -1      3904 1.07400E+02 3.05150E+01 0.00000E+00
 -1      3905 1.08900E+02 3.05150E+01 0.00000E+00
 -1      3906 1.06650E+02 2.92160E+01 0.00000E+00
 -1      3907 5.72850E+01 1.82952E+01 0.00000E+00
 -1      3908 5.57850E+01 1.82952E+01 0.00000E+00
 -1      3909 2.87850E+01 1.56973E+01 0.00000E+00
 -1      3910 2.72850E+01 1.56973E+01 0.00000E+00
 -1      3911 2.95350E+01 1.69963E+01 0.00000E+00
 -1      3912 2.57850E+01 1.56973E+01 0.00000E+00
 -1      3913 2.42850E+01 1.56973E+01 0.00000E+00
 -1      3914 2.35350E+01 1.69963E+01 0.00000E+00
 -1      3915 2.65350E+01 1.69963E+01 0.00000E+00
 -1      3916 6.62850E+01 1.82952E+01 0.00000E+00
 -1      3917 6.47850E+01 1.82952E+01 0.00000E+00
 -1      3918 6.32850E+01 1.82952E+01 0.00000E+00
 -1      3919 6.17850E+01 1.82952E+01 0.00000E+00
 -1      3920 6.40350E+01 1.95942E+01 0.00000E+00
 -1      3921 7.22850E+01 1.82952E+01 0.00000E+00
 -1      3922 7.07850E+01 1.82952E+01 0.00000E+00
 -1      3923 7.52850E+01 1.82952E+01 0.00000E+00
 -1      3924 7.37850E+01 1.82952E+01 0.00000E+00
 -1      3925 7.30350E+01 1.95942E+01 0.00000E+00
 -1      3926 7.82850E+01 1.82952E+01 0.00000E+00
 -1      3927 7.67850E+01 1.82952E+01 0.00000E+00
 -1      3928 7.60350E+01 1.95942E+01 0.00000E+00
 -1      3929 8.12850E+01 1.82952E+01 0.00000E+00
 -1      3930 7.97850E+01 1.82952E+01 0.00000E+00
 -1      3931 7.90350E+01 1.95942E+01 0.00000E+00
 -1      3932 8.42850E+01 1.82952E+01 0.00000E+00
 -1      3933 8.27850E+01 1.82952E+01 0.00000E+00
 -1      3934 8.20350E+01 1.95942E+01 0.00000E+00
 -1      3935 8.72850E+01 1.82952E+01 0.00000E+00
 -1      3936 8.57850E+01 1.82952E+01 0.00000E+00
 -1      3937 8.50350E+01 1.95942E+01 0.00000E+00
 -1      3938 9.02850E+01 1.82952E+01 0.00000E+00
 -1      3939 8.87850E+01 1.82952E+01 0.00000E+00
 -1      3940 8.80350E+01 1.95942E+01 0.00000E+00
 -1      3941 9.32850E+01 1.82952E+01 0.00000E+00
 -1      3942 9.17850E+01 1.82952E+01 0.00000E+00
 -1      3943 9.10350E+01 1.95942E+01 0.00000E+00
 -1      3944 9.62850E+01 1.82952E+01 0.00000E+00
 -1      3945 9.47850E+01 1.82952E+01 0.00000E+00
 -1      3946 9.40350E+01 1.95942E+01 0.00000E+00
 -1      3947 9.92850E+01 1.82952E+01 0.00000E+00
 -1      3948 9.77850E+01 1.82952E+01 0.00000E+00
 -1      3949 9.70350E+01 1.95942E+01 0.00000E+00
 -1      3950 1.02285E+02 1.82952E+01 0.00000E+00
 -1      3951 1.00785E+02 1.82952E+01 0.00000E+00
 -1      3952 1.00035E+02 1.95942E+01 0.00000E+00
 -1      3953 1.05285E+02 1.82952E+01 0.00000E+00
 -1      3954 1.03785E+02 1.82952E+01 0.00000E+00
 -1      3955 1.03035E+02 1.95942E+01 0.00000E+00
 -1      3956 1.68870E+01 2.42367E+01 0.00000E+00
 -1      3957 1.68870E+01 2.57078E+01 0.00000E+00
 -1      3958 1.81860E+01 2.34992E+01 0.00000E+00
 -1      3959 2.34000E+01 3.05150E+01 0.00000E+00
 -1      3960 2.49000E+01 3.05150E+01 0.00000E+00
 -1      3961 2.56500E+01 2.92160E+01 0.00000E+00
 -1      3962 4.52850E+01 1.82952E+01 0.00000E+00
 -1      3963 4.37850E+01 1.82952E+01 0.00000E+00
 -1      3964 3.77850E+01 1.56973E+01 0.00000E+00
 -1      3965 3.62850E+01 1.56973E+01 0.00000E+00
 -1      3966 3.55350E+01 1.69963E+01 0.00000E+00
 -1      3967 3.85350E+01 1.69963E+01 0.00000E+00
 -1      3968 6.92850E+01 1.82952E+01 0.00000E+00
 -1      3969 6.77850E+01 1.82952E+01 0.00000E+00
 -1      3970 6.70350E+01 1.95942E+01 0.00000E+00
 -1      3971 5.42850E+01 1.82952E+01 0.00000E+00
 -1      3972 5.27850E+01 1.82952E+01 0.00000E+00
 -1      3973 5.50350E+01 1.95942E+01 0.00000E+00
 -1      3974 6.02850E+01 1.82952E+01 0.00000E+00
 -1      3975 5.87850E+01 1.82952E+01 0.00000E+00
 -1      3976 5.80350E+01 1.95942E+01 0.00000E+00
 -1      3977 1.81860E+01 2.64434E+01 0.00000E+00
 -1      3978 1.10295E+02 1.71269E+01 0.00000E+00
 -1      3979 1.10031E+02 1.85724E+01 0.00000E+00
 -1      3980 1.11207E+02 2.45616E+01 0.00000E+00
 -1      3981 1.10501E+02 2.37884E+01 0.00000E+00
 -1      3982 1.83919E+01 1.83311E+01 0.00000E+00
 -1      3983 4.30350E+01 1.95942E+01 0.00000E+00
 -1      3984 4.22850E+01 1.82952E+01 0.00000E+00
 -1      3985 4.07850E+01 1.82952E+01 0.00000E+00
 -1      3986 1.94850E+01 2.57068E+01 0.00000E+00
 -1      3987 1.94850E+01 2.71799E+01 0.00000E+00
 -1      3988 1.10400E+02 3.05150E+01 0.00000E+00
 -1      3989 1.11900E+02 3.05150E+01 0.00000E+00
 -1      3990 7.00350E+01 1.95942E+01 0.00000E+00
 -1      3991 1.89860E+01 3.18015E+01 0.00000E+00
 -1      3992 1.13104E+02 2.99606E+01 0.00000E+00
 -1      3993 1.12294E+02 2.85500E+01 0.00000E+00
 -1      3994 5.12850E+01 1.82952E+01 0.00000E+00
 -1      3995 4.97850E+01 1.82952E+01 0.00000E+00
 -1      3996 5.20350E+01 1.95942E+01 0.00000E+00
 -1      3997 6.10350E+01 1.95942E+01 0.00000E+00
 -1      3998 1.06582E+02 1.84598E+01 0.00000E+00
 -1      3999 1.05832E+02 1.97588E+01 0.00000E+00
 -1      4000 1.07879E+02 1.86244E+01 0.00000E+00
 -1      4001 1.94850E+01 2.27646E+01 0.00000E+00
 -1      4002 1.94850E+01 2.42357E+01 0.00000E+00
 -1      4003 2.07840E+01 2.49723E+01 0.00000E+00
 -1      4004 1.11080E+02 2.56582E+01 0.00000E+00
 -1      4005 1.98919E+01 1.83311E+01 0.00000E+00
 -1      4006 1.92488E+01 1.96659E+01 0.00000E+00
 -1      4007 2.13919E+01 1.83311E+01 0.00000E+00
 -1      4008 3.32850E+01 1.82952E+01 0.00000E+00
 -1      4009 3.17850E+01 1.82952E+01 0.00000E+00
 -1      4010 2.04000E+01 3.05150E+01 0.00000E+00
 -1      4011 2.19000E+01 3.05150E+01 0.00000E+00
 -1      4012 1.11607E+02 2.78331E+01 0.00000E+00
 -1      4013 4.67850E+01 1.82952E+01 0.00000E+00
 -1      4014 4.60350E+01 1.95942E+01 0.00000E+00
 -1      4015 4.82850E+01 1.82952E+01 0.00000E+00
 -1      4016 3.02850E+01 1.82952E+01 0.00000E+00
 -1      4017 2.87850E+01 1.82952E+01 0.00000E+00
 -1      4018 3.10350E+01 1.95942E+01 0.00000E+00
 -1      4019 1.94674E+01 2.08470E+01 0.00000E+00
 -1      4020 2.07664E+01 2.15835E+01 0.00000E+00
 -1      4021 1.09650E+02 2.92160E+01 0.00000E+00
 -1      4022 2.26500E+01 2.92160E+01 0.00000E+00
 -1      4023 2.28919E+01 1.83311E+01 0.00000E+00
 -1      4024 2.22488E+01 1.96659E+01 0.00000E+00
 -1      4025 2.43919E+01 1.83311E+01 0.00000E+00
 -1      4026 3.47850E+01 1.82952E+01 0.00000E+00
 -1      4027 3.40350E+01 1.95942E+01 0.00000E+00
 -1      4028 3.62850E+01 1.82952E+01 0.00000E+00
 -1      4029 3.09000E+01 2.79170E+01 0.00000E+00
 -1      4030 3.24000E+01 2.79170E+01 0.00000E+00
 -1      4031 3.39000E+01 2.79170E+01 0.00000E+00
 -1      4032 3.54000E+01 2.79170E+01 0.00000E+00
 -1      4033 3.31500E+01 2.66180E+01 0.00000E+00
 -1      4034 3.69000E+01 2.79170E+01 0.00000E+00
 -1      4035 3.84000E+01 2.79170E+01 0.00000E+00
 -1      4036 3.61500E+01 2.66180E+01 0.00000E+00
 -1      4037 3.99000E+01 2.79170E+01 0.00000E+00
 -1      4038 4.14000E+01 2.79170E+01 0.00000E+00
 -1      4039 3.91500E+01 2.66180E+01 0.00000E+00
 -1      4040 4.29000E+01 2.79170E+01 0.00000E+00
 -1      4041 4.44000E+01 2.79170E+01 0.00000E+00
 -1      4042 4.21500E+01 2.66180E+01 0.00000E+00
 -1      4043 4.59000E+01 2.79170E+01 0.00000E+00
 -1      4044 4.74000E+01 2.79170E+01 0.00000E+00
 -1      4045 4.51500E+01 2.66180E+01 0.00000E+00
 -1      4046 4.89000E+01 2.79170E+01 0.00000E+00
 -1      4047 5.04000E+01 2.79170E+01 0.00000E+00
 -1      4048 4.81500E+01 2.66180E+01 0.00000E+00
 -1      4049 5.19000E+01 2.79170E+01 0.00000E+00
 -1      4050 5.34000E+01 2.79170E+01 0.00000E+00
 -1      4051 5.11500E+01 2.66180E+01 0.00000E+00
 -1      4052 5.49000E+01 2.79170E+01 0.00000E+00
 -1      4053 5.64000E+01 2.79170E+01 0.00000E+00
 -1      4054 5.41500E+01 2.66180E+01 0.00000E+00
 -1      4055 5.79000E+01 2.79170E+01 0.00000E+00
 -1      4056 5.94000E+01 2.79170E+01 0.00000E+00
 -1      4057 5.71500E+01 2.66180E+01 0.00000E+00
 -1      4058 6.09000E+01 2.79170E+01 0.00000E+00
 -1      4059 6.24000E+01 2.79170E+01 0.00000E+00
 -1      4060 6.01500E+01 2.66180E+01 0.00000E+00
 -1      4061 6.39000E+01 2.79170E+01 0.00000E+00
 -1      4062 6.54000E+01 2.79170E+01 0.00000E+00
 -1      4063 6.31500E+01 2.66180E+01 0.00000E+00
 -1      4064 6.69000E+01 2.79170E+01 0.00000E+00
 -1      4065 6.84000E+01 2.79170E+01 0.00000E+00
 -1      4066 6.61500E+01 2.66180E+01 0.00000E+00
 -1      4067 6.99000E+01 2.79170E+01 0.00000E+00
 -1      4068 7.14000E+01 2.79170E+01 0.00000E+00
 -1      4069 6.91500E+01 2.66180E+01 0.00000E+00
 -1      4070 7.29000E+01 2.79170E+01 0.00000E+00
 -1      4071 7.44000E+01 2.79170E+01 0.00000E+00
 -1      4072 7.21500E+01 2.66180E+01 0.00000E+00
 -1      4073 7.59000E+01 2.79170E+01 0.00000E+00
 -1      4074 7.74000E+01 2.79170E+01 0.00000E+00
 -1      4075 7.51500E+01 2.66180E+01 0.00000E+00
 -1      4076 7.89000E+01 2.79170E+01 0.00000E+00
 -1      4077 8.04000E+01 2.79170E+01 0.00000E+00
 -1      4078 7.81500E+01 2.66180E+01 0.00000E+00
 -1      4079 8.19000E+01 2.79170E+01 0.00000E+00
 -1      4080 8.34000E+01 2.79170E+01 0.00000E+00
 -1      4081 8.11500E+01 2.66180E+01 0.00000E+00
 -1      4082 8.49000E+01 2.79170E+01 0.00000E+00
 -1      4083 8.64000E+01 2.79170E+01 0.00000E+00
 -1      4084 8.41500E+01 2.66180E+01 0.00000E+00
 -1      4085 8.79000E+01 2.79170E+01 0.00000E+00
 -1      4086 8.94000E+01 2.79170E+01 0.00000E+00
 -1      4087 8.71500E+01 2.66180E+01 0.00000E+00
 -1      4088 9.09000E+01 2.79170E+01 0.00000E+00
 -1      4089 9.24000E+01 2.79170E+01 0.00000E+00
 -1      4090 9.01500E+01 2.66180E+01 0.00000E+00
 -1      4091 9.39000E+01 2.79170E+01 0.00000E+00
 -1      4092 9.54000E+01 2.79170E+01 0.00000E+00
 -1      4093 9.31500E+01 2.66180E+01 0.00000E+00
 -1      4094 9.69000E+01 2.79170E+01 0.00000E+00
 -1      4095 9.84000E+01 2.79170E+01 0.00000E+00
 -1      4096 9.61500E+01 2.66180E+01 0.00000E+00
 -1      4097 9.99000E+01 2.79170E+01 0.00000E+00
 -1      4098 1.01400E+02 2.79170E+01 0.00000E+00
 -1      4099 9.91500E+01 2.66180E+01 0.00000E+00
 -1      4100 1.02900E+02 2.79170E+01 0.00000E+00
 -1      4101 1.04400E+02 2.79170E+01 0.00000E+00
 -1      4102 1.02150E+02 2.66180E+01 0.00000E+00
 -1      4103 1.05900E+02 2.79170E+01 0.00000E+00
 -1      4104 1.07400E+02 2.79170E+01 0.00000E+00
 -1      4105 1.05150E+02 2.66180E+01 0.00000E+00
 -1      4106 7.07850E+01 2.08932E+01 0.00000E+00
 -1      4107 6.92850E+01 2.08932E+01 0.00000E+00
 -1      4108 2.09670E+01 2.78297E+01 0.00000E+00
 -1      4109 1.96680E+01 2.85662E+01 0.00000E+00
 -1      4110 6.47850E+01 2.08932E+01 0.00000E+00
 -1      4111 6.32850E+01 2.08932E+01 0.00000E+00
 -1      4112 1.09281E+02 1.98714E+01 0.00000E+00
 -1      4113 7.67850E+01 2.08932E+01 0.00000E+00
 -1      4114 7.52850E+01 2.08932E+01 0.00000E+00
 -1      4115 7.37850E+01 2.08932E+01 0.00000E+00
 -1      4116 7.22850E+01 2.08932E+01 0.00000E+00
 -1      4117 7.15350E+01 2.21922E+01 0.00000E+00
 -1      4118 7.45350E+01 2.21922E+01 0.00000E+00
 -1      4119 8.27850E+01 2.08932E+01 0.00000E+00
 -1      4120 8.12850E+01 2.08932E+01 0.00000E+00
 -1      4121 8.57850E+01 2.08932E+01 0.00000E+00
 -1      4122 8.42850E+01 2.08932E+01 0.00000E+00
 -1      4123 8.35350E+01 2.21922E+01 0.00000E+00
 -1      4124 8.87850E+01 2.08932E+01 0.00000E+00
 -1      4125 8.72850E+01 2.08932E+01 0.00000E+00
 -1      4126 8.65350E+01 2.21922E+01 0.00000E+00
 -1      4127 9.17850E+01 2.08932E+01 0.00000E+00
 -1      4128 9.02850E+01 2.08932E+01 0.00000E+00
 -1      4129 8.95350E+01 2.21922E+01 0.00000E+00
 -1      4130 9.47850E+01 2.08932E+01 0.00000E+00
 -1      4131 9.32850E+01 2.08932E+01 0.00000E+00
 -1      4132 9.25350E+01 2.21922E+01 0.00000E+00
 -1      4133 9.77850E+01 2.08932E+01 0.00000E+00
 -1      4134 9.62850E+01 2.08932E+01 0.00000E+00
 -1      4135 9.55350E+01 2.21922E+01 0.00000E+00
 -1      4136 1.00785E+02 2.08932E+01 0.00000E+00
 -1      4137 9.92850E+01 2.08932E+01 0.00000E+00
 -1      4138 9.85350E+01 2.21922E+01 0.00000E+00
 -1      4139 1.03785E+02 2.08932E+01 0.00000E+00
 -1      4140 1.02285E+02 2.08932E+01 0.00000E+00
 -1      4141 1.01535E+02 2.21922E+01 0.00000E+00
 -1      4142 1.09260E+02 2.39381E+01 0.00000E+00
 -1      4143 1.09664E+02 2.28602E+01 0.00000E+00
 -1      4144 1.89180E+01 2.98652E+01 0.00000E+00
 -1      4145 1.10137E+02 2.81286E+01 0.00000E+00
 -1      4146 1.10594E+02 2.67457E+01 0.00000E+00
 -1      4147 1.09610E+02 2.59537E+01 0.00000E+00
 -1      4148 1.08637E+02 2.81286E+01 0.00000E+00
 -1      4149 2.20830E+01 2.42367E+01 0.00000E+00
 -1      4150 2.20830E+01 2.57078E+01 0.00000E+00
 -1      4151 6.17850E+01 2.08932E+01 0.00000E+00
 -1      4152 6.02850E+01 2.08932E+01 0.00000E+00
 -1      4153 6.25350E+01 2.21922E+01 0.00000E+00
 -1      4154 1.09017E+02 2.13169E+01 0.00000E+00
 -1      4155 5.87850E+01 2.08932E+01 0.00000E+00
 -1      4156 5.72850E+01 2.08932E+01 0.00000E+00
 -1      4157 5.95350E+01 2.21922E+01 0.00000E+00
 -1      4158 7.97850E+01 2.08932E+01 0.00000E+00
 -1      4159 7.82850E+01 2.08932E+01 0.00000E+00
 -1      4160 8.05350E+01 2.21922E+01 0.00000E+00
 -1      4161 5.57850E+01 2.08932E+01 0.00000E+00
 -1      4162 5.42850E+01 2.08932E+01 0.00000E+00
 -1      4163 5.65350E+01 2.21922E+01 0.00000E+00
 -1      4164 2.21571E+01 2.09925E+01 0.00000E+00
 -1      4165 2.21747E+01 2.29101E+01 0.00000E+00
 -1      4166 2.34737E+01 2.36457E+01 0.00000E+00
 -1      4167 2.36570E+01 2.09925E+01 0.00000E+00
 -1      4168 2.79000E+01 2.79170E+01 0.00000E+00
 -1      4169 2.94000E+01 2.79170E+01 0.00000E+00
 -1      4170 3.01500E+01 2.66180E+01 0.00000E+00
 -1      4171 2.49000E+01 2.79170E+01 0.00000E+00
 -1      4172 2.64000E+01 2.79170E+01 0.00000E+00
 -1      4173 2.71500E+01 2.66180E+01 0.00000E+00
 -1      4174 2.24670E+01 2.78297E+01 0.00000E+00
 -1      4175 6.77850E+01 2.08932E+01 0.00000E+00
 -1      4176 6.62850E+01 2.08932E+01 0.00000E+00
 -1      4177 6.85350E+01 2.21922E+01 0.00000E+00
 -1      4178 6.55350E+01 2.21922E+01 0.00000E+00
 -1      4179 4.37850E+01 2.08932E+01 0.00000E+00
 -1      4180 4.22850E+01 2.08932E+01 0.00000E+00
 -1      4181 2.37660E+01 2.70941E+01 0.00000E+00
 -1      4182 1.07887E+02 2.68296E+01 0.00000E+00
 -1      4183 1.13854E+02 3.12596E+01 0.00000E+00
 -1      4184 1.08330E+02 2.59275E+01 0.00000E+00
 -1      4185 1.08817E+02 2.48401E+01 0.00000E+00
 -1      4186 1.07981E+02 2.39120E+01 0.00000E+00
 -1      4187 1.07094E+02 2.57160E+01 0.00000E+00
 -1      4188 5.27850E+01 2.08932E+01 0.00000E+00
 -1      4189 5.12850E+01 2.08932E+01 0.00000E+00
 -1      4190 5.35350E+01 2.21922E+01 0.00000E+00
 -1      4191 2.73384E+01 1.83132E+01 0.00000E+00
 -1      4192 2.58384E+01 1.83132E+01 0.00000E+00
 -1      4193 2.51953E+01 1.96480E+01 0.00000E+00
 -1      4194 2.80884E+01 1.96122E+01 0.00000E+00
 -1      4195 4.90350E+01 1.95942E+01 0.00000E+00
 -1      4196 7.75350E+01 2.21922E+01 0.00000E+00
 -1      4197 1.05082E+02 2.10578E+01 0.00000E+00
 -1      4198 1.04332E+02 2.23568E+01 0.00000E+00
 -1      4199 1.06379E+02 2.12224E+01 0.00000E+00
 -1      4200 4.52850E+01 2.08932E+01 0.00000E+00
 -1      4201 4.45350E+01 2.21922E+01 0.00000E+00
 -1      4202 4.67850E+01 2.08932E+01 0.00000E+00
 -1      4203 2.45160E+01 2.57951E+01 0.00000E+00
 -1      4204 3.92850E+01 1.82952E+01 0.00000E+00
 -1      4205 3.77850E+01 1.82952E+01 0.00000E+00
 -1      4206 3.70350E+01 1.95942E+01 0.00000E+00
 -1      4207 3.47850E+01 2.08932E+01 0.00000E+00
 -1      4208 3.32850E+01 2.08932E+01 0.00000E+00
 -1      4209 3.17850E+01 2.08932E+01 0.00000E+00
 -1      4210 3.02850E+01 2.08932E+01 0.00000E+00
 -1      4211 3.25350E+01 2.21922E+01 0.00000E+00
 -1      4212 4.00350E+01 1.95942E+01 0.00000E+00
 -1      4213 4.07850E+01 2.08932E+01 0.00000E+00
 -1      4214 3.92850E+01 2.08932E+01 0.00000E+00
 -1      4215 4.15350E+01 2.21922E+01 0.00000E+00
 -1      4216 2.64000E+01 2.53190E+01 0.00000E+00
 -1      4217 2.79000E+01 2.53190E+01 0.00000E+00
 -1      4218 3.54000E+01 2.53190E+01 0.00000E+00
 -1      4219 3.69000E+01 2.53190E+01 0.00000E+00
 -1      4220 3.88425E+01 2.44051E+01 0.00000E+00
 -1      4221 4.03425E+01 2.44051E+01 0.00000E+00
 -1      4222 4.18425E+01 2.44051E+01 0.00000E+00
 -1      4223 4.33425E+01 2.44051E+01 0.00000E+00
 -1      4224 4.48425E+01 2.44051E+01 0.00000E+00
 -1      4225 4.63425E+01 2.44051E+01 0.00000E+00
 -1      4226 5.04000E+01 2.53190E+01 0.00000E+00
 -1      4227 5.19000E+01 2.53190E+01 0.00000E+00
 -1      4228 5.38425E+01 2.44051E+01 0.00000E+00
 -1      4229 5.53425E+01 2.44051E+01 0.00000E+00
 -1      4230 5.68425E+01 2.44051E+01 0.00000E+00
 -1      4231 5.83425E+01 2.44051E+01 0.00000E+00
 -1      4232 5.98425E+01 2.44051E+01 0.00000E+00
 -1      4233 6.13425E+01 2.44051E+01 0.00000E+00
 -1      4234 6.28425E+01 2.44051E+01 0.00000E+00
 -1      4235 6.43425E+01 2.44051E+01 0.00000E+00
 -1      4236 6.58425E+01 2.44051E+01 0.00000E+00
 -1      4237 6.73425E+01 2.44051E+01 0.00000E+00
 -1      4238 6.88425E+01 2.44051E+01 0.00000E+00
 -1      4239 7.03425E+01 2.44051E+01 0.00000E+00
 -1      4240 7.18425E+01 2.44051E+01 0.00000E+00
 -1      4241 7.33425E+01 2.44051E+01 0.00000E+00
 -1      4242 7.48425E+01 2.44051E+01 0.00000E+00
 -1      4243 7.63425E+01 2.44051E+01 0.00000E+00
 -1      4244 7.78425E+01 2.44051E+01 0.00000E+00
 -1      4245 7.93425E+01 2.44051E+01 0.00000E+00
 -1      4246 8.08425E+01 2.44051E+01 0.00000E+00
 -1      4247 8.23425E+01 2.44051E+01 0.00000E+00
 -1      4248 8.38425E+01 2.44051E+01 0.00000E+00
 -1      4249 8.53425E+01 2.44051E+01 0.00000E+00
 -1      4250 8.68425E+01 2.44051E+01 0.00000E+00
 -1      4251 8.83425E+01 2.44051E+01 0.00000E+00
 -1      4252 8.98425E+01 2.44051E+01 0.00000E+00
 -1      4253 9.13425E+01 2.44051E+01 0.00000E+00
 -1      4254 9.28425E+01 2.44051E+01 0.00000E+00
 -1      4255 9.43425E+01 2.44051E+01 0.00000E+00
 -1      4256 9.58425E+01 2.44051E+01 0.00000E+00
 -1      4257 9.73425E+01 2.44051E+01 0.00000E+00
 -1      4258 9.88425E+01 2.44051E+01 0.00000E+00
 -1      4259 1.00342E+02 2.44051E+01 0.00000E+00
 -1      4260 1.01842E+02 2.44051E+01 0.00000E+00
 -1      4261 1.03342E+02 2.44051E+01 0.00000E+00
 -1      4262 1.04639E+02 2.45697E+01 0.00000E+00
 -1      4263 1.06139E+02 2.45697E+01 0.00000E+00
 -1      4264 1.07776E+02 2.14667E+01 0.00000E+00
 -1      4265 2.98425E+01 2.44051E+01 0.00000E+00
 -1      4266 3.13425E+01 2.44051E+01 0.00000E+00
 -1      4267 3.58425E+01 2.18071E+01 0.00000E+00
 -1      4268 3.50925E+01 2.31061E+01 0.00000E+00
 -1      4269 4.97850E+01 2.08932E+01 0.00000E+00
 -1      4270 4.82850E+01 2.08932E+01 0.00000E+00
 -1      4271 5.05350E+01 2.21922E+01 0.00000E+00
 -1      4272 1.07026E+02 2.27657E+01 0.00000E+00
 -1      4273 3.73425E+01 2.18071E+01 0.00000E+00
 -1      4274 2.52660E+01 2.44961E+01 0.00000E+00
 -1      4275 3.28425E+01 2.44051E+01 0.00000E+00
 -1      4276 3.43425E+01 2.44051E+01 0.00000E+00
 -1      4277 3.80925E+01 2.31061E+01 0.00000E+00
 -1      4278 4.74000E+01 2.53190E+01 0.00000E+00
 -1      4279 4.89000E+01 2.53190E+01 0.00000E+00
 -1      4280 2.90925E+01 2.31061E+01 0.00000E+00
 -1      4281 4.75350E+01 2.21922E+01 0.00000E+00
 -1      4282 2.53577E+01 2.31695E+01 0.00000E+00
 -1      4283 2.51036E+01 2.09746E+01 0.00000E+00
 -1      4284 4.96500E+01 2.40200E+01 0.00000E+00
 -1      4285 2.83425E+01 2.18071E+01 0.00000E+00
 -1      4286 5.30925E+01 2.31061E+01 0.00000E+00
 -1      4287 2.68959E+01 2.18250E+01 0.00000E+00
 -1      4288 4.70925E+01 2.31061E+01 0.00000E+00
 -1      4289 4.85925E+01 2.31061E+01 0.00000E+00
 -1      4290 1.06583E+02 2.36677E+01 0.00000E+00
 -1      4291 5.00925E+01 2.31061E+01 0.00000E+00
 -1      4292 5.15925E+01 2.31061E+01 0.00000E+00
 -3
    3C                          2064                                     1
 -1       165    8    0    1
 -2         6         7        23      1115      1279      1132
 -1       166    8    0    1
 -2         7         8       165      1116      1280      1281
 -1       167    8    0    1
 -2         8         9       166      1117      1282      1283
 -1       168    8    0    1
 -2         8       166       165      1283      1284      1280
 -1       169    8    0    1
 -2         9        10       167      1118      1285      1286
 -1       170    8    0    1
 -2         9       167       166      1286      1287      1282
 -1       171    8    0    1
 -2        10        11       168      1119      1288      1289
 -1       172    8    0    1
 -2        10       168       167      1289      1290      1285
 -1       173    8    0    1
 -2        11        12       169      1120      1291      1292
 -1       174    8    0    1
 -2        11       169       168      1292      1293      1288
 -1       175    8    0    1
 -2        12        13       170      1121      1294      1295
 -1       176    8    0    1
 -2        12       170       169      1295      1296      1291
 -1       177    8    0    1
 -2        13        14       171      1122      1297      1298
 -1       178    8    0    1
 -2        13       171       170      1298      1299      1294
 -1       179    8    0    1
 -2        14        15       172      1123      1300      1301
 -1       180    8    0    1
 -2        14       172       171      1301      1302      1297
 -1       181    8    0    1
 -2        15        16       173      1124      1303      1304
 -1       182    8    0    1
 -2        15       173       172      1304      1305      1300
 -1       183    8    0    1
 -2        16        17       174      1125      1306      1307
 -1       184    8    0    1
 -2        16       174       173      1307      1308      1303
 -1       185    8    0    1
 -2        17        18       175      1126      1309      1310
 -1       186    8    0    1
 -2        17       175       174      1310      1311      1306
 -1       187    8    0    1
 -2        18        19       176      1127      1312      1313
 -1       188    8    0    1
 -2        18       176       175      1313      1314      1309
 -1       189    8    0    1
 -2        19        20       177      1128      1315      1316
 -1       190    8    0    1
 -2        19       177       176      1316      1317      1312
 -1       191    8    0    1
 -2        20        21       178      1129      1318      1319
 -1       192    8    0    1
 -2        20       178       177      1319      1320      1315
 -1       193    8    0    1
 -2        21        22       179      1130      1321      1322
 -1       194    8    0    1
 -2        21       179       178      1322      1323      1318
 -1       195    8    0    1
 -2        22         5       180      1131      1324      1325
 -1       196    8    0    1
 -2       179        22       180      1321      1325      1326
 -1       197    8    0    1
 -2         5        72       180      1182      1327      1324
 -1       198    8    0    1
 -2        24        23       181      1133      1328      1329
 -1       199    8    0    1
 -2        25        24       182      1134      1330      1331
 -1       200    8    0    1
 -2        24       181       182      1329      1332      1330
 -1       201    8    0    1
 -2        26        25       183      1135      1333      1334
 -1       202    8    0    1
 -2        25       182       183      1331      1335      1333
 -1       203    8    0    1
 -2        27        26       184      1136      1336      1337
 -1       204    8    0    1
 -2        26       183       184      1334      1338      1336
 -1       205    8    0    1
 -2        28        27       185      1137      1339      1340
 -1       206    8    0    1
 -2        27       184       185      1337      1341      1339
 -1       207    8    0    1
 -2        29        28       186      1138      1342      1343
 -1       208    8    0    1
 -2        28       185       186      1340      1344      1342
 -1       209    8    0    1
 -2        30        29       187      1139      1345      1346
 -1       210    8    0    1
 -2        29       186       187      1343      1347      1345
 -1       211    8    0    1
 -2        31        30       188      1140      1348      1349
 -1       212    8    0    1
 -2        30       187       188      1346      1350      1348
 -1       213    8    0    1
 -2        32        31       189      1141      1351      1352
 -1       214    8    0    1
 -2        31       188       189      1349      1353      1351
 -1       215    8    0    1
 -2        33        32       190      1142      1354      1355
 -1       216    8    0    1
 -2        32       189       190      1352      1356      1354
 -1       217    8    0    1
 -2        34        33       191      1143      1357      1358
 -1       218    8    0    1
 -2        33       190       191      1355      1359      1357
 -1       219    8    0    1
 -2        35        34       192      1144      1360      1361
 -1       220    8    0    1
 -2        34       191       192      1358      1362      1360
 -1       221    8    0    1
 -2        36        35       193      1145      1363      1364
 -1       222    8    0    1
 -2        35       192       193      1361      1365      1363
 -1       223    8    0    1
 -2        37        36       194      1146      1366      1367
 -1       224    8    0    1
 -2        36       193       194      1364      1368      1366
 -1       225    8    0    1
 -2        38        37       195      1147      1369      1370
 -1       226    8    0    1
 -2        37       194       195      1367      1371      1369
 -1       227    8    0    1
 -2        39        38       196      1148      1372      1373
 -1       228    8    0    1
 -2        38       195       196      1370      1374      1372
 -1       229    8    0    1
 -2        40        39       197      1149      1375      1376
 -1       230    8    0    1
 -2        39       196       197      1373      1377      1375
 -1       231    8    0    1
 -2        41        40       198      1150      1378      1379
 -1       232    8    0    1
 -2        40       197       198      1376      1380      1378
 -1       233    8    0    1
 -2        42        41       199      1151      1381      1382
 -1       234    8    0    1
 -2        41       198       199      1379      1383      1381
 -1       235    8    0    1
 -2        43        42       200      1152      1384      1385
 -1       236    8    0    1
 -2        42       199       200      1382      1386      1384
 -1       237    8    0    1
 -2        44        43       201      1153      1387      1388
 -1       238    8    0    1
 -2        43       200       201      1385      1389      1387
 -1       239    8    0    1
 -2        45        44       202      1154      1390      1391
 -1       240    8    0    1
 -2        44       201       202      1388      1392      1390
 -1       241    8    0    1
 -2        46        45       203      1155      1393      1394
 -1       242    8    0    1
 -2        45       202       203      1391      1395      1393
 -1       243    8    0    1
 -2        47        46       204      1156      1396      1397
 -1       244    8    0    1
 -2        46       203       204      1394      1398      1396
 -1       245    8    0    1
 -2        48        47       205      1157      1399      1400
 -1       246    8    0    1
 -2        47       204       205      1397      1401      1399
 -1       247    8    0    1
 -2        49        48       206      1158      1402      1403
 -1       248    8    0    1
 -2        48       205       206      1400      1404      1402
 -1       249    8    0    1
 -2        50        49       207      1159      1405      1406
 -1       250    8    0    1
 -2        49       206       207      1403      1407      1405
 -1       251    8    0    1
 -2        51        50       208      1160      1408      1409
 -1       252    8    0    1
 -2        50       207       208      1406      1410      1408
 -1       253    8    0    1
 -2        52        51       209      1161      1411      1412
 -1       254    8    0    1
 -2        51       208       209      1409      1413      1411
 -1       255    8    0    1
 -2        53        52       210      1162      1414      1415
 -1       256    8    0    1
 -2        52       209       210      1412      1416      1414
 -1       257    8    0    1
 -2        54        53       211      1163      1417      1418
 -1       258    8    0    1
 -2        53       210       211      1415      1419      1417
 -1       259    8    0    1
 -2        55        54       212      1164      1420      1421
 -1       260    8    0    1
 -2        54       211       212      1418      1422      1420
 -1       261    8    0    1
 -2        56        55       213      1165      1423      1424
 -1       262    8    0    1
 -2        55       212       213      1421      1425      1423
 -1       263    8    0    1
 -2        57        56       214      1166      1426      1427
 -1       264    8    0    1
 -2        56       213       214      1424      1428      1426
 -1       265    8    0    1
 -2        58        57       215      1167      1429      1430
 -1       266    8    0    1
 -2        57       214       215      1427      1431      1429
 -1       267    8    0    1
 -2        59        58       216      1168      1432      1433
 -1       268    8    0    1
 -2        58       215       216      1430      1434      1432
 -1       269    8    0    1
 -2        60        59       217      1169      1435      1436
 -1       270    8    0    1
 -2        59       216       217      1433      1437      1435
 -1       271    8    0    1
 -2        61        60       218      1170      1438      1439
 -1       272    8    0    1
 -2        60       217       218      1436      1440      1438
 -1       273    8    0    1
 -2        62        61       219      1171      1441      1442
 -1       274    8    0    1
 -2        61       218       219      1439      1443      1441
 -1       275    8    0    1
 -2        63        62       220      1172      1444      1445
 -1       276    8    0    1
 -2        62       219       220      1442      1446      1444
 -1       277    8    0    1
 -2        64        63       221      1173      1447      1448
 -1       278    8    0    1
 -2        63       220       221      1445      1449      1447
 -1       279    8    0    1
 -2        65        64       222      1174      1450      1451
 -1       280    8    0    1
 -2        64       221       222      1448      1452      1450
 -1       281    8    0    1
 -2        66        65       223      1175      1453      1454
 -1       282    8    0    1
 -2        65       222       223      1451      1455      1453
 -1       283    8    0    1
 -2        67        66       224      1176      1456      1457
 -1       284    8    0    1
 -2        66       223       224      1454      1458      1456
 -1       285    8    0    1
 -2        68        67       225      1177      1459      1460
 -1       286    8    0    1
 -2        67       224       225      1457      1461      1459
 -1       287    8    0    1
 -2        69        68       226      1178      1462      1463
 -1       288    8    0    1
 -2        68       225       226      1460      1464      1462
 -1       289    8    0    1
 -2        70        69       227      1179      1465      1466
 -1       290    8    0    1
 -2        69       226       227      1463      1467      1465
 -1       291    8    0    1
 -2        71        70       228      1180      1468      1469
 -1       292    8    0    1
 -2        70       227       228      1466      1470      1468
 -1       293    8    0    1
 -2         4        71       136      1181      1471      1248
 -1       294    8    0    1
 -2       136        71       228      1471      1469      1472
 -1       295    8    0    1
 -2        72        73       229      1183      1473      1474
 -1       296    8    0    1
 -2        72       229       180      1474      1475      1327
 -1       297    8    0    1
 -2        73        74       230      1184      1476      1477
 -1       298    8    0    1
 -2        73       230       229      1477      1478      1473
 -1       299    8    0    1
 -2        74        75       231      1185      1479      1480
 -1       300    8    0    1
 -2        74       231       230      1480      1481      1476
 -1       301    8    0    1
 -2        75        76       232      1186      1482      1483
 -1       302    8    0    1
 -2        75       232       231      1483      1484      1479
 -1       303    8    0    1
 -2        76        77       233      1187      1485      1486
 -1       304    8    0    1
 -2        76       233       232      1486      1487      1482
 -1       305    8    0    1
 -2        77        78       234      1188      1488      1489
 -1       306    8    0    1
 -2        77       234       233      1489      1490      1485
 -1       307    8    0    1
 -2        78        79       235      1189      1491      1492
 -1       308    8    0    1
 -2        78       235       234      1492      1493      1488
 -1       309    8    0    1
 -2        79        80       236      1190      1494      1495
 -1       310    8    0    1
 -2        79       236       235      1495      1496      1491
 -1       311    8    0    1
 -2        80        81       237      1191      1497      1498
 -1       312    8    0    1
 -2        80       237       236      1498      1499      1494
 -1       313    8    0    1
 -2        81        82       238      1192      1500      1501
 -1       314    8    0    1
 -2        81       238       237      1501      1502      1497
 -1       315    8    0    1
 -2        82        83       239      1193      1503      1504
 -1       316    8    0    1
 -2        82       239       238      1504      1505      1500
 -1       317    8    0    1
 -2        83        84       240      1194      1506      1507
 -1       318    8    0    1
 -2        83       240       239      1507      1508      1503
 -1       319    8    0    1
 -2        84        85       241      1195      1509      1510
 -1       320    8    0    1
 -2        84       241       240      1510      1511      1506
 -1       321    8    0    1
 -2        85        86       242      1196      1512      1513
 -1       322    8    0    1
 -2        85       242       241      1513      1514      1509
 -1       323    8    0    1
 -2        86        87       243      1197      1515      1516
 -1       324    8    0    1
 -2        86       243       242      1516      1517      1512
 -1       325    8    0    1
 -2        87        88       244      1198      1518      1519
 -1       326    8    0    1
 -2        87       244       243      1519      1520      1515
 -1       327    8    0    1
 -2        88        89       245      1199      1521      1522
 -1       328    8    0    1
 -2        88       245       244      1522      1523      1518
 -1       329    8    0    1
 -2        89        90       246      1200      1524      1525
 -1       330    8    0    1
 -2        89       246       245      1525      1526      1521
 -1       331    8    0    1
 -2        90        91       247      1201      1527      1528
 -1       332    8    0    1
 -2        90       247       246      1528      1529      1524
 -1       333    8    0    1
 -2        91        92       248      1202      1530      1531
 -1       334    8    0    1
 -2        91       248       247      1531      1532      1527
 -1       335    8    0    1
 -2        92        93       249      1203      1533      1534
 -1       336    8    0    1
 -2        92       249       248      1534      1535      1530
 -1       337    8    0    1
 -2        93        94       250      1204      1536      1537
 -1       338    8    0    1
 -2        93       250       249      1537      1538      1533
 -1       339    8    0    1
 -2        94        95       251      1205      1539      1540
 -1       340    8    0    1
 -2        94       251       250      1540      1541      1536
 -1       341    8    0    1
 -2        95        96       252      1206      1542      1543
 -1       342    8    0    1
 -2        95       252       251      1543      1544      1539
 -1       343    8    0    1
 -2        96        97       253      1207      1545      1546
 -1       344    8    0    1
 -2        96       253       252      1546      1547      1542
 -1       345    8    0    1
 -2        97        98       254      1208      1548      1549
 -1       346    8    0    1
 -2        97       254       253      1549      1550      1545
 -1       347    8    0    1
 -2        98        99       255      1209      1551      1552
 -1       348    8    0    1
 -2        98       255       254      1552      1553      1548
 -1       349    8    0    1
 -2        99       100       256      1210      1554      1555
 -1       350    8    0    1
 -2        99       256       255      1555      1556      1551
 -1       351    8    0    1
 -2       100       101       257      1211      1557      1558
 -1       352    8    0    1
 -2       100       257       256      1558      1559      1554
 -1       353    8    0    1
 -2       101       102       258      1212      1560      1561
 -1       354    8    0    1
 -2       101       258       257      1561      1562      1557
 -1       355    8    0    1
 -2       102       103       259      1213      1563      1564
 -1       356    8    0    1
 -2       102       259       258      1564      1565      1560
 -1       357    8    0    1
 -2       103       104       260      1214      1566      1567
 -1       358    8    0    1
 -2       103       260       259      1567      1568      1563
 -1       359    8    0    1
 -2       104       105       261      1215      1569      1570
 -1       360    8    0    1
 -2       104       261       260      1570      1571      1566
 -1       361    8    0    1
 -2       105       106       262      1216      1572      1573
 -1       362    8    0    1
 -2       105       262       261      1573      1574      1569
 -1       363    8    0    1
 -2       106       107       263      1217      1575      1576
 -1       364    8    0    1
 -2       106       263       262      1576      1577      1572
 -1       365    8    0    1
 -2       107       108       264      1218      1578      1579
 -1       366    8    0    1
 -2       107       264       263      1579      1580      1575
 -1       367    8    0    1
 -2       108       109       265      1219      1581      1582
 -1       368    8    0    1
 -2       108       265       264      1582      1583      1578
 -1       369    8    0    1
 -2       109       110       266      1220      1584      1585
 -1       370    8    0    1
 -2       109       266       265      1585      1586      1581
 -1       371    8    0    1
 -2       110       111       267      1221      1587      1588
 -1       372    8    0    1
 -2       110       267       266      1588      1589      1584
 -1       373    8    0    1
 -2       111       112       268      1222      1590      1591
 -1       374    8    0    1
 -2       111       268       267      1591      1592      1587
 -1       375    8    0    1
 -2       112       113       269      1223      1593      1594
 -1       376    8    0    1
 -2       112       269       268      1594      1595      1590
 -1       377    8    0    1
 -2       113       114       270      1224      1596      1597
 -1       378    8    0    1
 -2       113       270       269      1597      1598      1593
 -1       379    8    0    1
 -2       114       115       271      1225      1599      1600
 -1       380    8    0    1
 -2       114       271       270      1600      1601      1596
 -1       381    8    0    1
 -2       115       116       272      1226      1602      1603
 -1       382    8    0    1
 -2       115       272       271      1603      1604      1599
 -1       383    8    0    1
 -2       116       117       273      1227      1605      1606
 -1       384    8    0    1
 -2       116       273       272      1606      1607      1602
 -1       385    8    0    1
 -2       117       118       274      1228      1608      1609
 -1       386    8    0    1
 -2       117       274       273      1609      1610      1605
 -1       387    8    0    1
 -2       118       119       275      1229      1611      1612
 -1       388    8    0    1
 -2       118       275       274      1612      1613      1608
 -1       389    8    0    1
 -2       119       120       276      1230      1614      1615
 -1       390    8    0    1
 -2       119       276       275      1615      1616      1611
 -1       391    8    0    1
 -2       120         3       121      1231      1232      1617
 -1       392    8    0    1
 -2       121       122       277      1233      1618      1619
 -1       393    8    0    1
 -2       122       123       278      1234      1620      1621
 -1       394    8    0    1
 -2       122       278       277      1621      1622      1618
 -1       395    8    0    1
 -2       123       124       279      1235      1623      1624
 -1       396    8    0    1
 -2       123       279       278      1624      1625      1620
 -1       397    8    0    1
 -2       124       125       280      1236      1626      1627
 -1       398    8    0    1
 -2       124       280       279      1627      1628      1623
 -1       399    8    0    1
 -2       125       126       281      1237      1629      1630
 -1       400    8    0    1
 -2       125       281       280      1630      1631      1626
 -1       401    8    0    1
 -2       126       127       282      1238      1632      1633
 -1       402    8    0    1
 -2       126       282       281      1633      1634      1629
 -1       403    8    0    1
 -2       127       128       283      1239      1635      1636
 -1       404    8    0    1
 -2       127       283       282      1636      1637      1632
 -1       405    8    0    1
 -2       128       129       284      1240      1638      1639
 -1       406    8    0    1
 -2       128       284       283      1639      1640      1635
 -1       407    8    0    1
 -2       129       130       285      1241      1641      1642
 -1       408    8    0    1
 -2       129       285       284      1642      1643      1638
 -1       409    8    0    1
 -2       130       131       286      1242      1644      1645
 -1       410    8    0    1
 -2       130       286       285      1645      1646      1641
 -1       411    8    0    1
 -2       131       132       287      1243      1647      1648
 -1       412    8    0    1
 -2       131       287       286      1648      1649      1644
 -1       413    8    0    1
 -2       132       133       288      1244      1650      1651
 -1       414    8    0    1
 -2       132       288       287      1651      1652      1647
 -1       415    8    0    1
 -2       133       134       289      1245      1653      1654
 -1       416    8    0    1
 -2       133       289       288      1654      1655      1650
 -1       417    8    0    1
 -2       134       135       290      1246      1656      1657
 -1       418    8    0    1
 -2       134       290       289      1657      1658      1653
 -1       419    8    0    1
 -2       135       136       291      1247      1659      1660
 -1       420    8    0    1
 -2       290       135       291      1656      1660      1661
 -1       421    8    0    1
 -2       136       228       291      1472      1662      1659
 -1       422    8    0    1
 -2         2       137       292      1249      1663      1664
 -1       423    8    0    1
 -2       137       138       293      1250      1665      1666
 -1       424    8    0    1
 -2       138       139       294      1251      1667      1668
 -1       425    8    0    1
 -2       139       140       295      1252      1669      1670
 -1       426    8    0    1
 -2       140       141       296      1253      1671      1672
 -1       427    8    0    1
 -2       141       142       297      1254      1673      1674
 -1       428    8    0    1
 -2       142       143       298      1255      1675      1676
 -1       429    8    0    1
 -2       143       144       299      1256      1677      1678
 -1       430    8    0    1
 -2       144       145       300      1257      1679      1680
 -1       431    8    0    1
 -2       145       146       301      1258      1681      1682
 -1       432    8    0    1
 -2       146       147       302      1259      1683      1684
 -1       433    8    0    1
 -2       147       148       303      1260      1685      1686
 -1       434    8    0    1
 -2       148       149       304      1261      1687      1688
 -1       435    8    0    1
 -2       149       150       305      1262      1689      1690
 -1       436    8    0    1
 -2       150       151       306      1263      1691      1692
 -1       437    8    0    1
 -2       151       152       307      1264      1693      1694
 -1       438    8    0    1
 -2       152       153       308      1265      1695      1696
 -1       439    8    0    1
 -2       153       154       309      1266      1697      1698
 -1       440    8    0    1
 -2       154       155       310      1267      1699      1700
 -1       441    8    0    1
 -2       155         1       311      1268      1701      1702
 -1       442    8    0    1
 -2         1       156       312      1269      1703      1704
 -1       443    8    0    1
 -2       156       157       313      1270      1705      1706
 -1       444    8    0    1
 -2       157       158       314      1271      1707      1708
 -1       445    8    0    1
 -2       158       159       315      1272      1709      1710
 -1       446    8    0    1
 -2       159       160       316      1273      1711      1712
 -1       447    8    0    1
 -2       160       161       317      1274      1713      1714
 -1       448    8    0    1
 -2       161       162       318      1275      1715      1716
 -1       449    8    0    1
 -2       162       163       319      1276      1717      1718
 -1       450    8    0    1
 -2       163       164       320      1277      1719      1720
 -1       451    8    0    1
 -2       164         2       321      1278      1721      1722
 -1       452    8    0    1
 -2       295       140       296      1669      1672      1723
 -1       453    8    0    1
 -2       294       139       295      1667      1670      1724
 -1       454    8    0    1
 -2       120       121       276      1617      1725      1614
 -1       455    8    0    1
 -2       121       277       276      1619      1726      1725
 -1       456    8    0    1
 -2       292       137       293      1663      1666      1727
 -1       457    8    0    1
 -2       293       138       294      1665      1668      1728
 -1       458    8    0    1
 -2         2       292       321      1664      1729      1721
 -1       459    8    0    1
 -2       141       297       296      1674      1730      1671
 -1       460    8    0    1
 -2       142       298       297      1676      1731      1673
 -1       461    8    0    1
 -2       143       299       298      1678      1732      1675
 -1       462    8    0    1
 -2       144       300       299      1680      1733      1677
 -1       463    8    0    1
 -2       145       301       300      1682      1734      1679
 -1       464    8    0    1
 -2       146       302       301      1684      1735      1681
 -1       465    8    0    1
 -2       147       303       302      1686      1736      1683
 -1       466    8    0    1
 -2       148       304       303      1688      1737      1685
 -1       467    8    0    1
 -2       149       305       304      1690      1738      1687
 -1       468    8    0    1
 -2       150       306       305      1692      1739      1689
 -1       469    8    0    1
 -2       151       307       306      1694      1740      1691
 -1       470    8    0    1
 -2       152       308       307      1696      1741      1693
 -1       471    8    0    1
 -2       153       309       308      1698      1742      1695
 -1       472    8    0    1
 -2       154       310       309      1700      1743      1697
 -1       473    8    0    1
 -2       155       311       310      1702      1744      1699
 -1       474    8    0    1
 -2         1       312       311      1704      1745      1701
 -1       475    8    0    1
 -2       156       313       312      1706      1746      1703
 -1       476    8    0    1
 -2       157       314       313      1708      1747      1705
 -1       477    8    0    1
 -2       158       315       314      1710      1748      1707
 -1       478    8    0    1
 -2       159       316       315      1712      1749      1709
 -1       479    8    0    1
 -2       160       317       316      1714      1750      1711
 -1       480    8    0    1
 -2       161       318       317      1716      1751      1713
 -1       481    8    0    1
 -2       162       319       318      1718      1752      1715
 -1       482    8    0    1
 -2       163       320       319      1720      1753      1717
 -1       483    8    0    1
 -2       164       321       320      1722      1754      1719
 -1       484    8    0    1
 -2        23         7       165      1279      1281      1755
 -1       485    8    0    1
 -2       166       167       322      1287      1756      1757
 -1       486    8    0    1
 -2       165       166       323      1284      1758      1759
 -1       487    8    0    1
 -2       166       322       323      1757      1760      1758
 -1       488    8    0    1
 -2       168       169       324      1293      1761      1762
 -1       489    8    0    1
 -2       169       170       325      1296      1763      1764
 -1       490    8    0    1
 -2       169       325       324      1764      1765      1761
 -1       491    8    0    1
 -2       170       171       326      1299      1766      1767
 -1       492    8    0    1
 -2       170       326       325      1767      1768      1763
 -1       493    8    0    1
 -2       171       172       327      1302      1769      1770
 -1       494    8    0    1
 -2       171       327       326      1770      1771      1766
 -1       495    8    0    1
 -2       172       173       328      1305      1772      1773
 -1       496    8    0    1
 -2       172       328       327      1773      1774      1769
 -1       497    8    0    1
 -2       173       174       329      1308      1775      1776
 -1       498    8    0    1
 -2       173       329       328      1776      1777      1772
 -1       499    8    0    1
 -2       174       175       330      1311      1778      1779
 -1       500    8    0    1
 -2       174       330       329      1779      1780      1775
 -1       501    8    0    1
 -2       175       176       331      1314      1781      1782
 -1       502    8    0    1
 -2       175       331       330      1782      1783      1778
 -1       503    8    0    1
 -2       176       177       332      1317      1784      1785
 -1       504    8    0    1
 -2       176       332       331      1785      1786      1781
 -1       505    8    0    1
 -2       177       178       333      1320      1787      1788
 -1       506    8    0    1
 -2       177       333       332      1788      1789      1784
 -1       507    8    0    1
 -2       178       179       334      1323      1790      1791
 -1       508    8    0    1
 -2       178       334       333      1791      1792      1787
 -1       509    8    0    1
 -2       179       180       335      1326      1793      1794
 -1       510    8    0    1
 -2       334       179       335      1790      1794      1795
 -1       511    8    0    1
 -2       180       229       335      1475      1796      1793
 -1       512    8    0    1
 -2       181        23       165      1328      1755      1797
 -1       513    8    0    1
 -2       229       230       336      1478      1798      1799
 -1       514    8    0    1
 -2       229       336       335      1799      1800      1796
 -1       515    8    0    1
 -2       181       165       323      1797      1759      1801
 -1       516    8    0    1
 -2       183       182       337      1335      1802      1803
 -1       517    8    0    1
 -2       184       183       338      1338      1804      1805
 -1       518    8    0    1
 -2       183       337       338      1803      1806      1804
 -1       519    8    0    1
 -2       185       184       339      1341      1807      1808
 -1       520    8    0    1
 -2       184       338       339      1805      1809      1807
 -1       521    8    0    1
 -2       186       185       340      1344      1810      1811
 -1       522    8    0    1
 -2       185       339       340      1808      1812      1810
 -1       523    8    0    1
 -2       187       186       341      1347      1813      1814
 -1       524    8    0    1
 -2       186       340       341      1811      1815      1813
 -1       525    8    0    1
 -2       188       187       342      1350      1816      1817
 -1       526    8    0    1
 -2       187       341       342      1814      1818      1816
 -1       527    8    0    1
 -2       189       188       343      1353      1819      1820
 -1       528    8    0    1
 -2       188       342       343      1817      1821      1819
 -1       529    8    0    1
 -2       190       189       344      1356      1822      1823
 -1       530    8    0    1
 -2       189       343       344      1820      1824      1822
 -1       531    8    0    1
 -2       191       190       345      1359      1825      1826
 -1       532    8    0    1
 -2       190       344       345      1823      1827      1825
 -1       533    8    0    1
 -2       192       191       346      1362      1828      1829
 -1       534    8    0    1
 -2       191       345       346      1826      1830      1828
 -1       535    8    0    1
 -2       193       192       347      1365      1831      1832
 -1       536    8    0    1
 -2       192       346       347      1829      1833      1831
 -1       537    8    0    1
 -2       194       193       348      1368      1834      1835
 -1       538    8    0    1
 -2       193       347       348      1832      1836      1834
 -1       539    8    0    1
 -2       195       194       349      1371      1837      1838
 -1       540    8    0    1
 -2       194       348       349      1835      1839      1837
 -1       541    8    0    1
 -2       196       195       350      1374      1840      1841
 -1       542    8    0    1
 -2       195       349       350      1838      1842      1840
 -1       543    8    0    1
 -2       197       196       351      1377      1843      1844
 -1       544    8    0    1
 -2       196       350       351      1841      1845      1843
 -1       545    8    0    1
 -2       198       197       352      1380      1846      1847
 -1       546    8    0    1
 -2       197       351       352      1844      1848      1846
 -1       547    8    0    1
 -2       199       198       353      1383      1849      1850
 -1       548    8    0    1
 -2       198       352       353      1847      1851      1849
 -1       549    8    0    1
 -2       200       199       354      1386      1852      1853
 -1       550    8    0    1
 -2       199       353       354      1850      1854      1852
 -1       551    8    0    1
 -2       201       200       355      1389      1855      1856
 -1       552    8    0    1
 -2       200       354       355      1853      1857      1855
 -1       553    8    0    1
 -2       202       201       356      1392      1858      1859
 -1       554    8    0    1
 -2       201       355       356      1856      1860      1858
 -1       555    8    0    1
 -2       203       202       357      1395      1861      1862
 -1       556    8    0    1
 -2       202       356       357      1859      1863      1861
 -1       557    8    0    1
 -2       204       203       358      1398      1864      1865
 -1       558    8    0    1
 -2       203       357       358      1862      1866      1864
 -1       559    8    0    1
 -2       205       204       359      1401      1867      1868
 -1       560    8    0    1
 -2       204       358       359      1865      1869      1867
 -1       561    8    0    1
 -2       206       205       360      1404      1870      1871
 -1       562    8    0    1
 -2       205       359       360      1868      1872      1870
 -1       563    8    0    1
 -2       207       206       361      1407      1873      1874
 -1       564    8    0    1
 -2       206       360       361      1871      1875      1873
 -1       565    8    0    1
 -2       208       207       362      1410      1876      1877
 -1       566    8    0    1
 -2       207       361       362      1874      1878      1876
 -1       567    8    0    1
 -2       209       208       363      1413      1879      1880
 -1       568    8    0    1
 -2       208       362       363      1877      1881      1879
 -1       569    8    0    1
 -2       210       209       364      1416      1882      1883
 -1       570    8    0    1
 -2       209       363       364      1880      1884      1882
 -1       571    8    0    1
 -2       211       210       365      1419      1885      1886
 -1       572    8    0    1
 -2       210       364       365      1883      1887      1885
 -1       573    8    0    1
 -2       212       211       366      1422      1888      1889
 -1       574    8    0    1
 -2       211       365       366      1886      1890      1888
 -1       575    8    0    1
 -2       213       212       367      1425      1891      1892
 -1       576    8    0    1
 -2       212       366       367      1889      1893      1891
 -1       577    8    0    1
 -2       214       213       368      1428      1894      1895
 -1       578    8    0    1
 -2       213       367       368      1892      1896      1894
 -1       579    8    0    1
 -2       215       214       369      1431      1897      1898
 -1       580    8    0    1
 -2       214       368       369      1895      1899      1897
 -1       581    8    0    1
 -2       216       215       370      1434      1900      1901
 -1       582    8    0    1
 -2       215       369       370      1898      1902      1900
 -1       583    8    0    1
 -2       217       216       371      1437      1903      1904
 -1       584    8    0    1
 -2       216       370       371      1901      1905      1903
 -1       585    8    0    1
 -2       218       217       372      1440      1906      1907
 -1       586    8    0    1
 -2       217       371       372      1904      1908      1906
 -1       587    8    0    1
 -2       219       218       373      1443      1909      1910
 -1       588    8    0    1
 -2       218       372       373      1907      1911      1909
 -1       589    8    0    1
 -2       220       219       374      1446      1912      1913
 -1       590    8    0    1
 -2       219       373       374      1910      1914      1912
 -1       591    8    0    1
 -2       221       220       375      1449      1915      1916
 -1       592    8    0    1
 -2       220       374       375      1913      1917      1915
 -1       593    8    0    1
 -2       222       221       376      1452      1918      1919
 -1       594    8    0    1
 -2       221       375       376      1916      1920      1918
 -1       595    8    0    1
 -2       223       222       377      1455      1921      1922
 -1       596    8    0    1
 -2       222       376       377      1919      1923      1921
 -1       597    8    0    1
 -2       224       223       378      1458      1924      1925
 -1       598    8    0    1
 -2       223       377       378      1922      1926      1924
 -1       599    8    0    1
 -2       225       224       379      1461      1927      1928
 -1       600    8    0    1
 -2       224       378       379      1925      1929      1927
 -1       601    8    0    1
 -2       226       225       380      1464      1930      1931
 -1       602    8    0    1
 -2       225       379       380      1928      1932      1930
 -1       603    8    0    1
 -2       227       226       381      1467      1933      1934
 -1       604    8    0    1
 -2       226       380       381      1931      1935      1933
 -1       605    8    0    1
 -2       228       227       382      1470      1936      1937
 -1       606    8    0    1
 -2       291       228       382      1662      1937      1938
 -1       607    8    0    1
 -2       227       381       382      1934      1939      1936
 -1       608    8    0    1
 -2       230       231       383      1481      1940      1941
 -1       609    8    0    1
 -2       230       383       336      1941      1942      1798
 -1       610    8    0    1
 -2       231       232       384      1484      1943      1944
 -1       611    8    0    1
 -2       231       384       383      1944      1945      1940
 -1       612    8    0    1
 -2       232       233       385      1487      1946      1947
 -1       613    8    0    1
 -2       232       385       384      1947      1948      1943
 -1       614    8    0    1
 -2       233       234       386      1490      1949      1950
 -1       615    8    0    1
 -2       233       386       385      1950      1951      1946
 -1       616    8    0    1
 -2       234       235       387      1493      1952      1953
 -1       617    8    0    1
 -2       234       387       386      1953      1954      1949
 -1       618    8    0    1
 -2       235       236       388      1496      1955      1956
 -1       619    8    0    1
 -2       235       388       387      1956      1957      1952
 -1       620    8    0    1
 -2       236       237       389      1499      1958      1959
 -1       621    8    0    1
 -2       236       389       388      1959      1960      1955
 -1       622    8    0    1
 -2       237       238       390      1502      1961      1962
 -1       623    8    0    1
 -2       237       390       389      1962      1963      1958
 -1       624    8    0    1
 -2       238       239       391      1505      1964      1965
 -1       625    8    0    1
 -2       238       391       390      1965      1966      1961
 -1       626    8    0    1
 -2       239       240       392      1508      1967      1968
 -1       627    8    0    1
 -2       239       392       391      1968      1969      1964
 -1       628    8    0    1
 -2       240       241       393      1511      1970      1971
 -1       629    8    0    1
 -2       240       393       392      1971      1972      1967
 -1       630    8    0    1
 -2       241       242       394      1514      1973      1974
 -1       631    8    0    1
 -2       241       394       393      1974      1975      1970
 -1       632    8    0    1
 -2       242       243       395      1517      1976      1977
 -1       633    8    0    1
 -2       242       395       394      1977      1978      1973
 -1       634    8    0    1
 -2       243       244       396      1520      1979      1980
 -1       635    8    0    1
 -2       243       396       395      1980      1981      1976
 -1       636    8    0    1
 -2       244       245       397      1523      1982      1983
 -1       637    8    0    1
 -2       244       397       396      1983      1984      1979
 -1       638    8    0    1
 -2       245       246       398      1526      1985      1986
 -1       639    8    0    1
 -2       245       398       397      1986      1987      1982
 -1       640    8    0    1
 -2       246       247       399      1529      1988      1989
 -1       641    8    0    1
 -2       246       399       398      1989      1990      1985
 -1       642    8    0    1
 -2       247       248       400      1532      1991      1992
 -1       643    8    0    1
 -2       247       400       399      1992      1993      1988
 -1       644    8    0    1
 -2       248       249       401      1535      1994      1995
 -1       645    8    0    1
 -2       248       401       400      1995      1996      1991
 -1       646    8    0    1
 -2       249       250       402      1538      1997      1998
 -1       647    8    0    1
 -2       249       402       401      1998      1999      1994
 -1       648    8    0    1
 -2       250       251       403      1541      2000      2001
 -1       649    8    0    1
 -2       250       403       402      2001      2002      1997
 -1       650    8    0    1
 -2       251       252       404      1544      2003      2004
 -1       651    8    0    1
 -2       251       404       403      2004      2005      2000
 -1       652    8    0    1
 -2       252       253       405      1547      2006      2007
 -1       653    8    0    1
 -2       252       405       404      2007      2008      2003
 -1       654    8    0    1
 -2       253       254       406      1550      2009      2010
 -1       655    8    0    1
 -2       253       406       405      2010      2011      2006
 -1       656    8    0    1
 -2       254       255       407      1553      2012      2013
 -1       657    8    0    1
 -2       254       407       406      2013      2014      2009
 -1       658    8    0    1
 -2       255       256       408      1556      2015      2016
 -1       659    8    0    1
 -2       255       408       407      2016      2017      2012
 -1       660    8    0    1
 -2       256       257       409      1559      2018      2019
 -1       661    8    0    1
 -2       256       409       408      2019      2020      2015
 -1       662    8    0    1
 -2       257       258       410      1562      2021      2022
 -1       663    8    0    1
 -2       257       410       409      2022      2023      2018
 -1       664    8    0    1
 -2       258       259       411      1565      2024      2025
 -1       665    8    0    1
 -2       258       411       410      2025      2026      2021
 -1       666    8    0    1
 -2       259       260       412      1568      2027      2028
 -1       667    8    0    1
 -2       259       412       411      2028      2029      2024
 -1       668    8    0    1
 -2       260       261       413      1571      2030      2031
 -1       669    8    0    1
 -2       260       413       412      2031      2032      2027
 -1       670    8    0    1
 -2       261       262       414      1574      2033      2034
 -1       671    8    0    1
 -2       261       414       413      2034      2035      2030
 -1       672    8    0    1
 -2       262       263       415      1577      2036      2037
 -1       673    8    0    1
 -2       262       415       414      2037      2038      2033
 -1       674    8    0    1
 -2       263       264       416      1580      2039      2040
 -1       675    8    0    1
 -2       263       416       415      2040      2041      2036
 -1       676    8    0    1
 -2       264       265       417      1583      2042      2043
 -1       677    8    0    1
 -2       264       417       416      2043      2044      2039
 -1       678    8    0    1
 -2       265       266       418      1586      2045      2046
 -1       679    8    0    1
 -2       265       418       417      2046      2047      2042
 -1       680    8    0    1
 -2       266       267       419      1589      2048      2049
 -1       681    8    0    1
 -2       266       419       418      2049      2050      2045
 -1       682    8    0    1
 -2       267       268       420      1592      2051      2052
 -1       683    8    0    1
 -2       267       420       419      2052      2053      2048
 -1       684    8    0    1
 -2       268       269       421      1595      2054      2055
 -1       685    8    0    1
 -2       268       421       420      2055      2056      2051
 -1       686    8    0    1
 -2       269       270       422      1598      2057      2058
 -1       687    8    0    1
 -2       269       422       421      2058      2059      2054
 -1       688    8    0    1
 -2       270       271       423      1601      2060      2061
 -1       689    8    0    1
 -2       270       423       422      2061      2062      2057
 -1       690    8    0    1
 -2       271       272       424      1604      2063      2064
 -1       691    8    0    1
 -2       271       424       423      2064      2065      2060
 -1       692    8    0    1
 -2       272       273       425      1607      2066      2067
 -1       693    8    0    1
 -2       272       425       424      2067      2068      2063
 -1       694    8    0    1
 -2       273       274       426      1610      2069      2070
 -1       695    8    0    1
 -2       273       426       425      2070      2071      2066
 -1       696    8    0    1
 -2       274       275       427      1613      2072      2073
 -1       697    8    0    1
 -2       274       427       426      2073      2074      2069
 -1       698    8    0    1
 -2       275       276       428      1616      2075      2076
 -1       699    8    0    1
 -2       427       275       428      2072      2076      2077
 -1       700    8    0    1
 -2       276       277       428      1726      2078      2075
 -1       701    8    0    1
 -2       279       280       429      1628      2079      2080
 -1       702    8    0    1
 -2       278       279       430      1625      2081      2082
 -1       703    8    0    1
 -2       279       429       430      2080      2083      2081
 -1       704    8    0    1
 -2       277       278       431      1622      2084      2085
 -1       705    8    0    1
 -2       428       277       431      2078      2085      2086
 -1       706    8    0    1
 -2       278       430       431      2082      2087      2084
 -1       707    8    0    1
 -2       280       281       432      1631      2088      2089
 -1       708    8    0    1
 -2       280       432       429      2089      2090      2079
 -1       709    8    0    1
 -2       281       282       433      1634      2091      2092
 -1       710    8    0    1
 -2       281       433       432      2092      2093      2088
 -1       711    8    0    1
 -2       282       283       434      1637      2094      2095
 -1       712    8    0    1
 -2       282       434       433      2095      2096      2091
 -1       713    8    0    1
 -2       283       284       435      1640      2097      2098
 -1       714    8    0    1
 -2       283       435       434      2098      2099      2094
 -1       715    8    0    1
 -2       284       285       436      1643      2100      2101
 -1       716    8    0    1
 -2       284       436       435      2101      2102      2097
 -1       717    8    0    1
 -2       285       286       437      1646      2103      2104
 -1       718    8    0    1
 -2       285       437       436      2104      2105      2100
 -1       719    8    0    1
 -2       286       287       438      1649      2106      2107
 -1       720    8    0    1
 -2       286       438       437      2107      2108      2103
 -1       721    8    0    1
 -2       287       288       439      1652      2109      2110
 -1       722    8    0    1
 -2       287       439       438      2110      2111      2106
 -1       723    8    0    1
 -2       288       289       440      1655      2112      2113
 -1       724    8    0    1
 -2       288       440       439      2113      2114      2109
 -1       725    8    0    1
 -2       289       290       441      1658      2115      2116
 -1       726    8    0    1
 -2       289       441       440      2116      2117      2112
 -1       727    8    0    1
 -2       293       294       442      1728      2118      2119
 -1       728    8    0    1
 -2       321       292       443      1729      2120      2121
 -1       729    8    0    1
 -2       292       293       444      1727      2122      2123
 -1       730    8    0    1
 -2       292       444       443      2123      2124      2120
 -1       731    8    0    1
 -2       294       295       445      1724      2125      2126
 -1       732    8    0    1
 -2       295       296       446      1723      2127      2128
 -1       733    8    0    1
 -2       295       446       445      2128      2129      2125
 -1       734    8    0    1
 -2       167       168       447      1290      2130      2131
 -1       735    8    0    1
 -2       322       167       447      1756      2131      2132
 -1       736    8    0    1
 -2       168       324       447      1762      2133      2130
 -1       737    8    0    1
 -2       297       298       448      1731      2134      2135
 -1       738    8    0    1
 -2       298       299       449      1732      2136      2137
 -1       739    8    0    1
 -2       299       300       450      1733      2138      2139
 -1       740    8    0    1
 -2       300       301       451      1734      2140      2141
 -1       741    8    0    1
 -2       301       302       452      1735      2142      2143
 -1       742    8    0    1
 -2       302       303       453      1736      2144      2145
 -1       743    8    0    1
 -2       303       304       454      1737      2146      2147
 -1       744    8    0    1
 -2       304       305       455      1738      2148      2149
 -1       745    8    0    1
 -2       305       306       456      1739      2150      2151
 -1       746    8    0    1
 -2       306       307       457      1740      2152      2153
 -1       747    8    0    1
 -2       307       308       458      1741      2154      2155
 -1       748    8    0    1
 -2       308       309       459      1742      2156      2157
 -1       749    8    0    1
 -2       309       310       460      1743      2158      2159
 -1       750    8    0    1
 -2       310       311       461      1744      2160      2161
 -1       751    8    0    1
 -2       311       312       462      1745      2162      2163
 -1       752    8    0    1
 -2       312       313       463      1746      2164      2165
 -1       753    8    0    1
 -2       313       314       464      1747      2166      2167
 -1       754    8    0    1
 -2       314       315       465      1748      2168      2169
 -1       755    8    0    1
 -2       315       316       466      1749      2170      2171
 -1       756    8    0    1
 -2       316       317       467      1750      2172      2173
 -1       757    8    0    1
 -2       317       318       468      1751      2174      2175
 -1       758    8    0    1
 -2       318       319       469      1752      2176      2177
 -1       759    8    0    1
 -2       319       320       470      1753      2178      2179
 -1       760    8    0    1
 -2       320       321       471      1754      2180      2181
 -1       761    8    0    1
 -2       296       297       472      1730      2182      2183
 -1       762    8    0    1
 -2       446       296       472      2127      2183      2184
 -1       763    8    0    1
 -2       181       323       182      1801      2185      1332
 -1       764    8    0    1
 -2       450       300       451      2138      2141      2186
 -1       765    8    0    1
 -2       297       448       472      2135      2187      2182
 -1       766    8    0    1
 -2       337       182       323      1802      2185      2188
 -1       767    8    0    1
 -2       444       293       442      2122      2119      2189
 -1       768    8    0    1
 -2       294       445       442      2126      2190      2118
 -1       769    8    0    1
 -2       441       290       291      2115      1661      2191
 -1       770    8    0    1
 -2       321       443       471      2121      2192      2180
 -1       771    8    0    1
 -2       470       320       471      2178      2181      2193
 -1       772    8    0    1
 -2       469       319       470      2176      2179      2194
 -1       773    8    0    1
 -2       468       318       469      2174      2177      2195
 -1       774    8    0    1
 -2       467       317       468      2172      2175      2196
 -1       775    8    0    1
 -2       466       316       467      2170      2173      2197
 -1       776    8    0    1
 -2       465       315       466      2168      2171      2198
 -1       777    8    0    1
 -2       464       314       465      2166      2169      2199
 -1       778    8    0    1
 -2       463       313       464      2164      2167      2200
 -1       779    8    0    1
 -2       462       312       463      2162      2165      2201
 -1       780    8    0    1
 -2       461       311       462      2160      2163      2202
 -1       781    8    0    1
 -2       460       310       461      2158      2161      2203
 -1       782    8    0    1
 -2       459       309       460      2156      2159      2204
 -1       783    8    0    1
 -2       458       308       459      2154      2157      2205
 -1       784    8    0    1
 -2       457       307       458      2152      2155      2206
 -1       785    8    0    1
 -2       456       306       457      2150      2153      2207
 -1       786    8    0    1
 -2       455       305       456      2148      2151      2208
 -1       787    8    0    1
 -2       454       304       455      2146      2149      2209
 -1       788    8    0    1
 -2       453       303       454      2144      2147      2210
 -1       789    8    0    1
 -2       452       302       453      2142      2145      2211
 -1       790    8    0    1
 -2       451       301       452      2140      2143      2212
 -1       791    8    0    1
 -2       448       298       449      2134      2137      2213
 -1       792    8    0    1
 -2       449       299       450      2136      2139      2214
 -1       793    8    0    1
 -2       336       383       473      1942      2215      2216
 -1       794    8    0    1
 -2       325       326       474      1768      2217      2218
 -1       795    8    0    1
 -2       324       325       475      1765      2219      2220
 -1       796    8    0    1
 -2       325       474       475      2218      2221      2219
 -1       797    8    0    1
 -2       327       328       476      1774      2222      2223
 -1       798    8    0    1
 -2       328       329       477      1777      2224      2225
 -1       799    8    0    1
 -2       328       477       476      2225      2226      2222
 -1       800    8    0    1
 -2       329       330       478      1780      2227      2228
 -1       801    8    0    1
 -2       329       478       477      2228      2229      2224
 -1       802    8    0    1
 -2       330       331       479      1783      2230      2231
 -1       803    8    0    1
 -2       330       479       478      2231      2232      2227
 -1       804    8    0    1
 -2       331       332       480      1786      2233      2234
 -1       805    8    0    1
 -2       331       480       479      2234      2235      2230
 -1       806    8    0    1
 -2       332       333       481      1789      2236      2237
 -1       807    8    0    1
 -2       332       481       480      2237      2238      2233
 -1       808    8    0    1
 -2       383       384       482      1945      2239      2240
 -1       809    8    0    1
 -2       383       482       473      2240      2241      2215
 -1       810    8    0    1
 -2       338       337       483      1806      2242      2243
 -1       811    8    0    1
 -2       450       451       484      2186      2244      2245
 -1       812    8    0    1
 -2       339       338       485      1809      2246      2247
 -1       813    8    0    1
 -2       338       483       485      2243      2248      2246
 -1       814    8    0    1
 -2       340       339       486      1812      2249      2250
 -1       815    8    0    1
 -2       339       485       486      2247      2251      2249
 -1       816    8    0    1
 -2       341       340       487      1815      2252      2253
 -1       817    8    0    1
 -2       340       486       487      2250      2254      2252
 -1       818    8    0    1
 -2       342       341       488      1818      2255      2256
 -1       819    8    0    1
 -2       341       487       488      2253      2257      2255
 -1       820    8    0    1
 -2       343       342       489      1821      2258      2259
 -1       821    8    0    1
 -2       342       488       489      2256      2260      2258
 -1       822    8    0    1
 -2       344       343       490      1824      2261      2262
 -1       823    8    0    1
 -2       343       489       490      2259      2263      2261
 -1       824    8    0    1
 -2       345       344       491      1827      2264      2265
 -1       825    8    0    1
 -2       344       490       491      2262      2266      2264
 -1       826    8    0    1
 -2       346       345       492      1830      2267      2268
 -1       827    8    0    1
 -2       345       491       492      2265      2269      2267
 -1       828    8    0    1
 -2       347       346       493      1833      2270      2271
 -1       829    8    0    1
 -2       346       492       493      2268      2272      2270
 -1       830    8    0    1
 -2       348       347       494      1836      2273      2274
 -1       831    8    0    1
 -2       347       493       494      2271      2275      2273
 -1       832    8    0    1
 -2       349       348       495      1839      2276      2277
 -1       833    8    0    1
 -2       348       494       495      2274      2278      2276
 -1       834    8    0    1
 -2       350       349       496      1842      2279      2280
 -1       835    8    0    1
 -2       349       495       496      2277      2281      2279
 -1       836    8    0    1
 -2       351       350       497      1845      2282      2283
 -1       837    8    0    1
 -2       350       496       497      2280      2284      2282
 -1       838    8    0    1
 -2       352       351       498      1848      2285      2286
 -1       839    8    0    1
 -2       351       497       498      2283      2287      2285
 -1       840    8    0    1
 -2       353       352       499      1851      2288      2289
 -1       841    8    0    1
 -2       352       498       499      2286      2290      2288
 -1       842    8    0    1
 -2       354       353       500      1854      2291      2292
 -1       843    8    0    1
 -2       353       499       500      2289      2293      2291
 -1       844    8    0    1
 -2       355       354       501      1857      2294      2295
 -1       845    8    0    1
 -2       354       500       501      2292      2296      2294
 -1       846    8    0    1
 -2       356       355       502      1860      2297      2298
 -1       847    8    0    1
 -2       355       501       502      2295      2299      2297
 -1       848    8    0    1
 -2       357       356       503      1863      2300      2301
 -1       849    8    0    1
 -2       356       502       503      2298      2302      2300
 -1       850    8    0    1
 -2       358       357       504      1866      2303      2304
 -1       851    8    0    1
 -2       357       503       504      2301      2305      2303
 -1       852    8    0    1
 -2       359       358       505      1869      2306      2307
 -1       853    8    0    1
 -2       358       504       505      2304      2308      2306
 -1       854    8    0    1
 -2       360       359       506      1872      2309      2310
 -1       855    8    0    1
 -2       359       505       506      2307      2311      2309
 -1       856    8    0    1
 -2       361       360       507      1875      2312      2313
 -1       857    8    0    1
 -2       360       506       507      2310      2314      2312
 -1       858    8    0    1
 -2       362       361       508      1878      2315      2316
 -1       859    8    0    1
 -2       361       507       508      2313      2317      2315
 -1       860    8    0    1
 -2       363       362       509      1881      2318      2319
 -1       861    8    0    1
 -2       362       508       509      2316      2320      2318
 -1       862    8    0    1
 -2       364       363       510      1884      2321      2322
 -1       863    8    0    1
 -2       363       509       510      2319      2323      2321
 -1       864    8    0    1
 -2       365       364       511      1887      2324      2325
 -1       865    8    0    1
 -2       364       510       511      2322      2326      2324
 -1       866    8    0    1
 -2       366       365       512      1890      2327      2328
 -1       867    8    0    1
 -2       365       511       512      2325      2329      2327
 -1       868    8    0    1
 -2       367       366       513      1893      2330      2331
 -1       869    8    0    1
 -2       366       512       513      2328      2332      2330
 -1       870    8    0    1
 -2       368       367       514      1896      2333      2334
 -1       871    8    0    1
 -2       367       513       514      2331      2335      2333
 -1       872    8    0    1
 -2       369       368       515      1899      2336      2337
 -1       873    8    0    1
 -2       368       514       515      2334      2338      2336
 -1       874    8    0    1
 -2       370       369       516      1902      2339      2340
 -1       875    8    0    1
 -2       369       515       516      2337      2341      2339
 -1       876    8    0    1
 -2       371       370       517      1905      2342      2343
 -1       877    8    0    1
 -2       370       516       517      2340      2344      2342
 -1       878    8    0    1
 -2       372       371       518      1908      2345      2346
 -1       879    8    0    1
 -2       371       517       518      2343      2347      2345
 -1       880    8    0    1
 -2       373       372       519      1911      2348      2349
 -1       881    8    0    1
 -2       372       518       519      2346      2350      2348
 -1       882    8    0    1
 -2       374       373       520      1914      2351      2352
 -1       883    8    0    1
 -2       373       519       520      2349      2353      2351
 -1       884    8    0    1
 -2       375       374       521      1917      2354      2355
 -1       885    8    0    1
 -2       374       520       521      2352      2356      2354
 -1       886    8    0    1
 -2       376       375       522      1920      2357      2358
 -1       887    8    0    1
 -2       375       521       522      2355      2359      2357
 -1       888    8    0    1
 -2       377       376       523      1923      2360      2361
 -1       889    8    0    1
 -2       376       522       523      2358      2362      2360
 -1       890    8    0    1
 -2       378       377       524      1926      2363      2364
 -1       891    8    0    1
 -2       377       523       524      2361      2365      2363
 -1       892    8    0    1
 -2       379       378       525      1929      2366      2367
 -1       893    8    0    1
 -2       378       524       525      2364      2368      2366
 -1       894    8    0    1
 -2       380       379       526      1932      2369      2370
 -1       895    8    0    1
 -2       379       525       526      2367      2371      2369
 -1       896    8    0    1
 -2       381       380       527      1935      2372      2373
 -1       897    8    0    1
 -2       380       526       527      2370      2374      2372
 -1       898    8    0    1
 -2       385       386       528      1951      2375      2376
 -1       899    8    0    1
 -2       386       387       529      1954      2377      2378
 -1       900    8    0    1
 -2       386       529       528      2378      2379      2375
 -1       901    8    0    1
 -2       387       388       530      1957      2380      2381
 -1       902    8    0    1
 -2       387       530       529      2381      2382      2377
 -1       903    8    0    1
 -2       388       389       531      1960      2383      2384
 -1       904    8    0    1
 -2       388       531       530      2384      2385      2380
 -1       905    8    0    1
 -2       389       390       532      1963      2386      2387
 -1       906    8    0    1
 -2       389       532       531      2387      2388      2383
 -1       907    8    0    1
 -2       390       391       533      1966      2389      2390
 -1       908    8    0    1
 -2       390       533       532      2390      2391      2386
 -1       909    8    0    1
 -2       391       392       534      1969      2392      2393
 -1       910    8    0    1
 -2       391       534       533      2393      2394      2389
 -1       911    8    0    1
 -2       392       393       535      1972      2395      2396
 -1       912    8    0    1
 -2       392       535       534      2396      2397      2392
 -1       913    8    0    1
 -2       393       394       536      1975      2398      2399
 -1       914    8    0    1
 -2       393       536       535      2399      2400      2395
 -1       915    8    0    1
 -2       394       395       537      1978      2401      2402
 -1       916    8    0    1
 -2       394       537       536      2402      2403      2398
 -1       917    8    0    1
 -2       395       396       538      1981      2404      2405
 -1       918    8    0    1
 -2       395       538       537      2405      2406      2401
 -1       919    8    0    1
 -2       396       397       539      1984      2407      2408
 -1       920    8    0    1
 -2       396       539       538      2408      2409      2404
 -1       921    8    0    1
 -2       397       398       540      1987      2410      2411
 -1       922    8    0    1
 -2       397       540       539      2411      2412      2407
 -1       923    8    0    1
 -2       398       399       541      1990      2413      2414
 -1       924    8    0    1
 -2       398       541       540      2414      2415      2410
 -1       925    8    0    1
 -2       399       400       542      1993      2416      2417
 -1       926    8    0    1
 -2       399       542       541      2417      2418      2413
 -1       927    8    0    1
 -2       400       401       543      1996      2419      2420
 -1       928    8    0    1
 -2       400       543       542      2420      2421      2416
 -1       929    8    0    1
 -2       401       402       544      1999      2422      2423
 -1       930    8    0    1
 -2       401       544       543      2423      2424      2419
 -1       931    8    0    1
 -2       402       403       545      2002      2425      2426
 -1       932    8    0    1
 -2       402       545       544      2426      2427      2422
 -1       933    8    0    1
 -2       403       404       546      2005      2428      2429
 -1       934    8    0    1
 -2       403       546       545      2429      2430      2425
 -1       935    8    0    1
 -2       404       405       547      2008      2431      2432
 -1       936    8    0    1
 -2       404       547       546      2432      2433      2428
 -1       937    8    0    1
 -2       405       406       548      2011      2434      2435
 -1       938    8    0    1
 -2       405       548       547      2435      2436      2431
 -1       939    8    0    1
 -2       406       407       549      2014      2437      2438
 -1       940    8    0    1
 -2       406       549       548      2438      2439      2434
 -1       941    8    0    1
 -2       407       408       550      2017      2440      2441
 -1       942    8    0    1
 -2       407       550       549      2441      2442      2437
 -1       943    8    0    1
 -2       408       409       551      2020      2443      2444
 -1       944    8    0    1
 -2       408       551       550      2444      2445      2440
 -1       945    8    0    1
 -2       409       410       552      2023      2446      2447
 -1       946    8    0    1
 -2       409       552       551      2447      2448      2443
 -1       947    8    0    1
 -2       410       411       553      2026      2449      2450
 -1       948    8    0    1
 -2       410       553       552      2450      2451      2446
 -1       949    8    0    1
 -2       411       412       554      2029      2452      2453
 -1       950    8    0    1
 -2       411       554       553      2453      2454      2449
 -1       951    8    0    1
 -2       412       413       555      2032      2455      2456
 -1       952    8    0    1
 -2       412       555       554      2456      2457      2452
 -1       953    8    0    1
 -2       413       414       556      2035      2458      2459
 -1       954    8    0    1
 -2       413       556       555      2459      2460      2455
 -1       955    8    0    1
 -2       414       415       557      2038      2461      2462
 -1       956    8    0    1
 -2       414       557       556      2462      2463      2458
 -1       957    8    0    1
 -2       415       416       558      2041      2464      2465
 -1       958    8    0    1
 -2       415       558       557      2465      2466      2461
 -1       959    8    0    1
 -2       416       417       559      2044      2467      2468
 -1       960    8    0    1
 -2       416       559       558      2468      2469      2464
 -1       961    8    0    1
 -2       417       418       560      2047      2470      2471
 -1       962    8    0    1
 -2       417       560       559      2471      2472      2467
 -1       963    8    0    1
 -2       418       419       561      2050      2473      2474
 -1       964    8    0    1
 -2       418       561       560      2474      2475      2470
 -1       965    8    0    1
 -2       419       420       562      2053      2476      2477
 -1       966    8    0    1
 -2       419       562       561      2477      2478      2473
 -1       967    8    0    1
 -2       420       421       563      2056      2479      2480
 -1       968    8    0    1
 -2       420       563       562      2480      2481      2476
 -1       969    8    0    1
 -2       422       423       564      2062      2482      2483
 -1       970    8    0    1
 -2       423       424       565      2065      2484      2485
 -1       971    8    0    1
 -2       423       565       564      2485      2486      2482
 -1       972    8    0    1
 -2       424       425       566      2068      2487      2488
 -1       973    8    0    1
 -2       424       566       565      2488      2489      2484
 -1       974    8    0    1
 -2       425       426       567      2071      2490      2491
 -1       975    8    0    1
 -2       425       567       566      2491      2492      2487
 -1       976    8    0    1
 -2       426       427       568      2074      2493      2494
 -1       977    8    0    1
 -2       426       568       567      2494      2495      2490
 -1       978    8    0    1
 -2       427       428       431      2077      2086      2496
 -1       979    8    0    1
 -2       432       433       569      2093      2497      2498
 -1       980    8    0    1
 -2       433       434       570      2096      2499      2500
 -1       981    8    0    1
 -2       433       570       569      2500      2501      2497
 -1       982    8    0    1
 -2       430       429       571      2083      2502      2503
 -1       983    8    0    1
 -2       429       432       572      2090      2504      2505
 -1       984    8    0    1
 -2       429       572       571      2505      2506      2502
 -1       985    8    0    1
 -2       434       435       573      2099      2507      2508
 -1       986    8    0    1
 -2       434       573       570      2508      2509      2499
 -1       987    8    0    1
 -2       435       436       574      2102      2510      2511
 -1       988    8    0    1
 -2       435       574       573      2511      2512      2507
 -1       989    8    0    1
 -2       436       437       575      2105      2513      2514
 -1       990    8    0    1
 -2       436       575       574      2514      2515      2510
 -1       991    8    0    1
 -2       437       438       576      2108      2516      2517
 -1       992    8    0    1
 -2       437       576       575      2517      2518      2513
 -1       993    8    0    1
 -2       438       439       577      2111      2519      2520
 -1       994    8    0    1
 -2       438       577       576      2520      2521      2516
 -1       995    8    0    1
 -2       439       440       578      2114      2522      2523
 -1       996    8    0    1
 -2       439       578       577      2523      2524      2519
 -1       997    8    0    1
 -2       440       441       579      2117      2525      2526
 -1       998    8    0    1
 -2       440       579       578      2526      2527      2522
 -1       999    8    0    1
 -2       442       445       580      2190      2528      2529
 -1      1000    8    0    1
 -2       441       291       382      2191      1938      2530
 -1      1001    8    0    1
 -2       471       443       581      2192      2531      2532
 -1      1002    8    0    1
 -2       384       385       582      1948      2533      2534
 -1      1003    8    0    1
 -2       385       528       582      2376      2535      2533
 -1      1004    8    0    1
 -2       443       444       583      2124      2536      2537
 -1      1005    8    0    1
 -2       445       446       584      2129      2538      2539
 -1      1006    8    0    1
 -2       445       584       580      2539      2540      2528
 -1      1007    8    0    1
 -2       337       323       585      2188      2541      2542
 -1      1008    8    0    1
 -2       483       337       585      2242      2542      2543
 -1      1009    8    0    1
 -2       323       322       585      1760      2544      2541
 -1      1010    8    0    1
 -2       470       471       586      2193      2545      2546
 -1      1011    8    0    1
 -2       471       581       586      2532      2547      2545
 -1      1012    8    0    1
 -2       326       327       587      1771      2548      2549
 -1      1013    8    0    1
 -2       474       326       587      2217      2549      2550
 -1      1014    8    0    1
 -2       327       476       587      2223      2551      2548
 -1      1015    8    0    1
 -2       449       450       588      2214      2552      2553
 -1      1016    8    0    1
 -2       450       484       588      2245      2554      2552
 -1      1017    8    0    1
 -2       472       448       589      2187      2555      2556
 -1      1018    8    0    1
 -2       448       449       590      2213      2557      2558
 -1      1019    8    0    1
 -2       451       452       591      2212      2559      2560
 -1      1020    8    0    1
 -2       452       453       592      2211      2561      2562
 -1      1021    8    0    1
 -2       453       454       593      2210      2563      2564
 -1      1022    8    0    1
 -2       453       593       592      2564      2565      2561
 -1      1023    8    0    1
 -2       454       455       594      2209      2566      2567
 -1      1024    8    0    1
 -2       455       456       595      2208      2568      2569
 -1      1025    8    0    1
 -2       456       457       596      2207      2570      2571
 -1      1026    8    0    1
 -2       457       458       597      2206      2572      2573
 -1      1027    8    0    1
 -2       458       459       598      2205      2574      2575
 -1      1028    8    0    1
 -2       459       460       599      2204      2576      2577
 -1      1029    8    0    1
 -2       460       461       600      2203      2578      2579
 -1      1030    8    0    1
 -2       461       462       601      2202      2580      2581
 -1      1031    8    0    1
 -2       462       463       602      2201      2582      2583
 -1      1032    8    0    1
 -2       463       464       603      2200      2584      2585
 -1      1033    8    0    1
 -2       464       465       604      2199      2586      2587
 -1      1034    8    0    1
 -2       465       466       605      2198      2588      2589
 -1      1035    8    0    1
 -2       466       467       606      2197      2590      2591
 -1      1036    8    0    1
 -2       467       468       607      2196      2592      2593
 -1      1037    8    0    1
 -2       468       469       608      2195      2594      2595
 -1      1038    8    0    1
 -2       468       608       607      2595      2596      2592
 -1      1039    8    0    1
 -2       469       470       609      2194      2597      2598
 -1      1040    8    0    1
 -2       444       442       610      2189      2599      2600
 -1      1041    8    0    1
 -2       335       336       611      1800      2601      2602
 -1      1042    8    0    1
 -2       334       335       611      1795      2602      2603
 -1      1043    8    0    1
 -2       336       473       611      2216      2604      2601
 -1      1044    8    0    1
 -2       446       472       612      2184      2605      2606
 -1      1045    8    0    1
 -2       449       588       590      2553      2607      2557
 -1      1046    8    0    1
 -2       324       475       613      2220      2608      2609
 -1      1047    8    0    1
 -2       324       613       447      2609      2610      2133
 -1      1048    8    0    1
 -2       482       384       582      2239      2534      2611
 -1      1049    8    0    1
 -2       333       334       611      1792      2603      2612
 -1      1050    8    0    1
 -2       612       472       589      2605      2556      2613
 -1      1051    8    0    1
 -2       610       442       580      2599      2529      2614
 -1      1052    8    0    1
 -2       608       469       609      2594      2598      2615
 -1      1053    8    0    1
 -2       563       421       484      2479      2616      2617
 -1      1054    8    0    1
 -2       421       422       484      2059      2618      2616
 -1      1055    8    0    1
 -2       427       431       568      2496      2619      2493
 -1      1056    8    0    1
 -2       432       569       572      2498      2620      2504
 -1      1057    8    0    1
 -2       431       430       568      2087      2621      2619
 -1      1058    8    0    1
 -2       606       467       607      2590      2593      2622
 -1      1059    8    0    1
 -2       441       382       614      2530      2623      2624
 -1      1060    8    0    1
 -2       579       441       614      2525      2624      2625
 -1      1061    8    0    1
 -2       382       381       614      1939      2626      2623
 -1      1062    8    0    1
 -2       605       466       606      2588      2591      2627
 -1      1063    8    0    1
 -2       581       443       583      2531      2537      2628
 -1      1064    8    0    1
 -2       333       611       481      2612      2629      2236
 -1      1065    8    0    1
 -2       583       444       610      2536      2600      2630
 -1      1066    8    0    1
 -2       604       465       605      2586      2589      2631
 -1      1067    8    0    1
 -2       322       447       615      2132      2632      2633
 -1      1068    8    0    1
 -2       585       322       615      2544      2633      2634
 -1      1069    8    0    1
 -2       447       613       615      2610      2635      2632
 -1      1070    8    0    1
 -2       591       452       592      2559      2562      2636
 -1      1071    8    0    1
 -2       603       464       604      2584      2587      2637
 -1      1072    8    0    1
 -2       602       463       603      2582      2585      2638
 -1      1073    8    0    1
 -2       601       462       602      2580      2583      2639
 -1      1074    8    0    1
 -2       600       461       601      2578      2581      2640
 -1      1075    8    0    1
 -2       599       460       600      2576      2579      2641
 -1      1076    8    0    1
 -2       598       459       599      2574      2577      2642
 -1      1077    8    0    1
 -2       597       458       598      2572      2575      2643
 -1      1078    8    0    1
 -2       596       457       597      2570      2573      2644
 -1      1079    8    0    1
 -2       595       456       596      2568      2571      2645
 -1      1080    8    0    1
 -2       593       454       594      2563      2567      2646
 -1      1081    8    0    1
 -2       584       446       612      2538      2606      2647
 -1      1082    8    0    1
 -2       568       430       571      2621      2503      2648
 -1      1083    8    0    1
 -2       484       451       591      2244      2560      2649
 -1      1084    8    0    1
 -2       470       586       609      2546      2650      2597
 -1      1085    8    0    1
 -2       589       448       590      2555      2558      2651
 -1      1086    8    0    1
 -2       594       455       595      2566      2569      2652
 -1      1087    8    0    1
 -2       614       381       527      2626      2373      2653
 -1      1088    8    0    1
 -2       477       478       616      2229      2654      2655
 -1      1089    8    0    1
 -2       476       477       617      2226      2656      2657
 -1      1090    8    0    1
 -2       477       616       617      2655      2658      2656
 -1      1091    8    0    1
 -2       479       480       618      2235      2659      2660
 -1      1092    8    0    1
 -2       480       481       619      2238      2661      2662
 -1      1093    8    0    1
 -2       480       619       618      2662      2663      2659
 -1      1094    8    0    1
 -2       473       482       620      2241      2664      2665
 -1      1095    8    0    1
 -2       611       473       481      2604      2666      2629
 -1      1096    8    0    1
 -2       606       607       621      2622      2667      2668
 -1      1097    8    0    1
 -2       486       485       622      2251      2669      2670
 -1      1098    8    0    1
 -2       487       486       623      2254      2671      2672
 -1      1099    8    0    1
 -2       486       622       623      2670      2673      2671
 -1      1100    8    0    1
 -2       488       487       624      2257      2674      2675
 -1      1101    8    0    1
 -2       487       623       624      2672      2676      2674
 -1      1102    8    0    1
 -2       489       488       625      2260      2677      2678
 -1      1103    8    0    1
 -2       488       624       625      2675      2679      2677
 -1      1104    8    0    1
 -2       490       489       626      2263      2680      2681
 -1      1105    8    0    1
 -2       489       625       626      2678      2682      2680
 -1      1106    8    0    1
 -2       491       490       627      2266      2683      2684
 -1      1107    8    0    1
 -2       490       626       627      2681      2685      2683
 -1      1108    8    0    1
 -2       492       491       628      2269      2686      2687
 -1      1109    8    0    1
 -2       491       627       628      2684      2688      2686
 -1      1110    8    0    1
 -2       493       492       629      2272      2689      2690
 -1      1111    8    0    1
 -2       492       628       629      2687      2691      2689
 -1      1112    8    0    1
 -2       494       493       630      2275      2692      2693
 -1      1113    8    0    1
 -2       493       629       630      2690      2694      2692
 -1      1114    8    0    1
 -2       495       494       631      2278      2695      2696
 -1      1115    8    0    1
 -2       494       630       631      2693      2697      2695
 -1      1116    8    0    1
 -2       496       495       632      2281      2698      2699
 -1      1117    8    0    1
 -2       495       631       632      2696      2700      2698
 -1      1118    8    0    1
 -2       497       496       633      2284      2701      2702
 -1      1119    8    0    1
 -2       496       632       633      2699      2703      2701
 -1      1120    8    0    1
 -2       498       497       634      2287      2704      2705
 -1      1121    8    0    1
 -2       497       633       634      2702      2706      2704
 -1      1122    8    0    1
 -2       499       498       635      2290      2707      2708
 -1      1123    8    0    1
 -2       498       634       635      2705      2709      2707
 -1      1124    8    0    1
 -2       500       499       636      2293      2710      2711
 -1      1125    8    0    1
 -2       499       635       636      2708      2712      2710
 -1      1126    8    0    1
 -2       501       500       637      2296      2713      2714
 -1      1127    8    0    1
 -2       500       636       637      2711      2715      2713
 -1      1128    8    0    1
 -2       502       501       638      2299      2716      2717
 -1      1129    8    0    1
 -2       501       637       638      2714      2718      2716
 -1      1130    8    0    1
 -2       503       502       639      2302      2719      2720
 -1      1131    8    0    1
 -2       502       638       639      2717      2721      2719
 -1      1132    8    0    1
 -2       504       503       640      2305      2722      2723
 -1      1133    8    0    1
 -2       503       639       640      2720      2724      2722
 -1      1134    8    0    1
 -2       505       504       641      2308      2725      2726
 -1      1135    8    0    1
 -2       504       640       641      2723      2727      2725
 -1      1136    8    0    1
 -2       506       505       642      2311      2728      2729
 -1      1137    8    0    1
 -2       505       641       642      2726      2730      2728
 -1      1138    8    0    1
 -2       507       506       643      2314      2731      2732
 -1      1139    8    0    1
 -2       506       642       643      2729      2733      2731
 -1      1140    8    0    1
 -2       508       507       644      2317      2734      2735
 -1      1141    8    0    1
 -2       507       643       644      2732      2736      2734
 -1      1142    8    0    1
 -2       509       508       645      2320      2737      2738
 -1      1143    8    0    1
 -2       508       644       645      2735      2739      2737
 -1      1144    8    0    1
 -2       510       509       646      2323      2740      2741
 -1      1145    8    0    1
 -2       509       645       646      2738      2742      2740
 -1      1146    8    0    1
 -2       511       510       647      2326      2743      2744
 -1      1147    8    0    1
 -2       510       646       647      2741      2745      2743
 -1      1148    8    0    1
 -2       512       511       648      2329      2746      2747
 -1      1149    8    0    1
 -2       511       647       648      2744      2748      2746
 -1      1150    8    0    1
 -2       513       512       649      2332      2749      2750
 -1      1151    8    0    1
 -2       512       648       649      2747      2751      2749
 -1      1152    8    0    1
 -2       514       513       650      2335      2752      2753
 -1      1153    8    0    1
 -2       513       649       650      2750      2754      2752
 -1      1154    8    0    1
 -2       515       514       651      2338      2755      2756
 -1      1155    8    0    1
 -2       514       650       651      2753      2757      2755
 -1      1156    8    0    1
 -2       516       515       652      2341      2758      2759
 -1      1157    8    0    1
 -2       515       651       652      2756      2760      2758
 -1      1158    8    0    1
 -2       517       516       653      2344      2761      2762
 -1      1159    8    0    1
 -2       516       652       653      2759      2763      2761
 -1      1160    8    0    1
 -2       518       517       654      2347      2764      2765
 -1      1161    8    0    1
 -2       517       653       654      2762      2766      2764
 -1      1162    8    0    1
 -2       519       518       655      2350      2767      2768
 -1      1163    8    0    1
 -2       518       654       655      2765      2769      2767
 -1      1164    8    0    1
 -2       520       519       656      2353      2770      2771
 -1      1165    8    0    1
 -2       519       655       656      2768      2772      2770
 -1      1166    8    0    1
 -2       521       520       657      2356      2773      2774
 -1      1167    8    0    1
 -2       520       656       657      2771      2775      2773
 -1      1168    8    0    1
 -2       522       521       658      2359      2776      2777
 -1      1169    8    0    1
 -2       521       657       658      2774      2778      2776
 -1      1170    8    0    1
 -2       523       522       659      2362      2779      2780
 -1      1171    8    0    1
 -2       522       658       659      2777      2781      2779
 -1      1172    8    0    1
 -2       524       523       660      2365      2782      2783
 -1      1173    8    0    1
 -2       523       659       660      2780      2784      2782
 -1      1174    8    0    1
 -2       525       524       661      2368      2785      2786
 -1      1175    8    0    1
 -2       524       660       661      2783      2787      2785
 -1      1176    8    0    1
 -2       526       525       662      2371      2788      2789
 -1      1177    8    0    1
 -2       525       661       662      2786      2790      2788
 -1      1178    8    0    1
 -2       527       526       663      2374      2791      2792
 -1      1179    8    0    1
 -2       526       662       663      2789      2793      2791
 -1      1180    8    0    1
 -2       529       530       664      2382      2794      2795
 -1      1181    8    0    1
 -2       605       606       665      2627      2796      2797
 -1      1182    8    0    1
 -2       563       484       591      2617      2649      2798
 -1      1183    8    0    1
 -2       528       529       666      2379      2799      2800
 -1      1184    8    0    1
 -2       529       664       666      2795      2801      2799
 -1      1185    8    0    1
 -2       531       532       667      2388      2802      2803
 -1      1186    8    0    1
 -2       532       533       668      2391      2804      2805
 -1      1187    8    0    1
 -2       532       668       667      2805      2806      2802
 -1      1188    8    0    1
 -2       533       534       669      2394      2807      2808
 -1      1189    8    0    1
 -2       533       669       668      2808      2809      2804
 -1      1190    8    0    1
 -2       534       535       670      2397      2810      2811
 -1      1191    8    0    1
 -2       534       670       669      2811      2812      2807
 -1      1192    8    0    1
 -2       535       536       671      2400      2813      2814
 -1      1193    8    0    1
 -2       535       671       670      2814      2815      2810
 -1      1194    8    0    1
 -2       536       537       672      2403      2816      2817
 -1      1195    8    0    1
 -2       536       672       671      2817      2818      2813
 -1      1196    8    0    1
 -2       537       538       673      2406      2819      2820
 -1      1197    8    0    1
 -2       537       673       672      2820      2821      2816
 -1      1198    8    0    1
 -2       538       539       674      2409      2822      2823
 -1      1199    8    0    1
 -2       538       674       673      2823      2824      2819
 -1      1200    8    0    1
 -2       539       540       675      2412      2825      2826
 -1      1201    8    0    1
 -2       539       675       674      2826      2827      2822
 -1      1202    8    0    1
 -2       540       541       676      2415      2828      2829
 -1      1203    8    0    1
 -2       540       676       675      2829      2830      2825
 -1      1204    8    0    1
 -2       541       542       677      2418      2831      2832
 -1      1205    8    0    1
 -2       541       677       676      2832      2833      2828
 -1      1206    8    0    1
 -2       542       543       678      2421      2834      2835
 -1      1207    8    0    1
 -2       542       678       677      2835      2836      2831
 -1      1208    8    0    1
 -2       543       544       679      2424      2837      2838
 -1      1209    8    0    1
 -2       543       679       678      2838      2839      2834
 -1      1210    8    0    1
 -2       544       545       680      2427      2840      2841
 -1      1211    8    0    1
 -2       544       680       679      2841      2842      2837
 -1      1212    8    0    1
 -2       545       546       681      2430      2843      2844
 -1      1213    8    0    1
 -2       545       681       680      2844      2845      2840
 -1      1214    8    0    1
 -2       546       547       682      2433      2846      2847
 -1      1215    8    0    1
 -2       546       682       681      2847      2848      2843
 -1      1216    8    0    1
 -2       547       548       683      2436      2849      2850
 -1      1217    8    0    1
 -2       547       683       682      2850      2851      2846
 -1      1218    8    0    1
 -2       548       549       684      2439      2852      2853
 -1      1219    8    0    1
 -2       548       684       683      2853      2854      2849
 -1      1220    8    0    1
 -2       549       550       685      2442      2855      2856
 -1      1221    8    0    1
 -2       549       685       684      2856      2857      2852
 -1      1222    8    0    1
 -2       550       551       686      2445      2858      2859
 -1      1223    8    0    1
 -2       550       686       685      2859      2860      2855
 -1      1224    8    0    1
 -2       551       552       687      2448      2861      2862
 -1      1225    8    0    1
 -2       551       687       686      2862      2863      2858
 -1      1226    8    0    1
 -2       552       553       688      2451      2864      2865
 -1      1227    8    0    1
 -2       552       688       687      2865      2866      2861
 -1      1228    8    0    1
 -2       553       554       689      2454      2867      2868
 -1      1229    8    0    1
 -2       553       689       688      2868      2869      2864
 -1      1230    8    0    1
 -2       554       555       690      2457      2870      2871
 -1      1231    8    0    1
 -2       554       690       689      2871      2872      2867
 -1      1232    8    0    1
 -2       555       556       691      2460      2873      2874
 -1      1233    8    0    1
 -2       555       691       690      2874      2875      2870
 -1      1234    8    0    1
 -2       556       557       692      2463      2876      2877
 -1      1235    8    0    1
 -2       556       692       691      2877      2878      2873
 -1      1236    8    0    1
 -2       557       558       693      2466      2879      2880
 -1      1237    8    0    1
 -2       557       693       692      2880      2881      2876
 -1      1238    8    0    1
 -2       558       559       694      2469      2882      2883
 -1      1239    8    0    1
 -2       558       694       693      2883      2884      2879
 -1      1240    8    0    1
 -2       559       560       695      2472      2885      2886
 -1      1241    8    0    1
 -2       559       695       694      2886      2887      2882
 -1      1242    8    0    1
 -2       560       561       696      2475      2888      2889
 -1      1243    8    0    1
 -2       560       696       695      2889      2890      2885
 -1      1244    8    0    1
 -2       561       562       697      2478      2891      2892
 -1      1245    8    0    1
 -2       561       697       696      2892      2893      2888
 -1      1246    8    0    1
 -2       422       564       484      2483      2894      2618
 -1      1247    8    0    1
 -2       564       565       590      2486      2895      2896
 -1      1248    8    0    1
 -2       572       569       580      2620      2897      2898
 -1      1249    8    0    1
 -2       570       573       581      2509      2899      2900
 -1      1250    8    0    1
 -2       574       575       698      2515      2901      2902
 -1      1251    8    0    1
 -2       575       576       699      2518      2903      2904
 -1      1252    8    0    1
 -2       576       577       700      2521      2905      2906
 -1      1253    8    0    1
 -2       576       700       699      2906      2907      2903
 -1      1254    8    0    1
 -2       577       578       701      2524      2908      2909
 -1      1255    8    0    1
 -2       577       701       700      2909      2910      2905
 -1      1256    8    0    1
 -2       608       609       699      2615      2911      2912
 -1      1257    8    0    1
 -2       483       585       702      2543      2913      2914
 -1      1258    8    0    1
 -2       585       615       702      2634      2915      2913
 -1      1259    8    0    1
 -2       581       573       586      2899      2916      2547
 -1      1260    8    0    1
 -2       584       612       703      2647      2917      2918
 -1      1261    8    0    1
 -2       582       528       704      2535      2919      2920
 -1      1262    8    0    1
 -2       528       666       704      2800      2921      2919
 -1      1263    8    0    1
 -2       566       567       705      2492      2922      2923
 -1      1264    8    0    1
 -2       530       531       706      2385      2924      2925
 -1      1265    8    0    1
 -2       664       530       706      2794      2925      2926
 -1      1266    8    0    1
 -2       531       667       706      2803      2927      2924
 -1      1267    8    0    1
 -2       485       483       707      2248      2928      2929
 -1      1268    8    0    1
 -2       622       485       707      2669      2929      2930
 -1      1269    8    0    1
 -2       483       702       707      2914      2931      2928
 -1      1270    8    0    1
 -2       478       479       708      2232      2932      2933
 -1      1271    8    0    1
 -2       616       478       708      2654      2933      2934
 -1      1272    8    0    1
 -2       479       618       708      2660      2935      2932
 -1      1273    8    0    1
 -2       475       474       709      2221      2936      2937
 -1      1274    8    0    1
 -2       482       582       710      2611      2938      2939
 -1      1275    8    0    1
 -2       620       482       710      2664      2939      2940
 -1      1276    8    0    1
 -2       582       704       710      2920      2941      2938
 -1      1277    8    0    1
 -2       594       595       711      2652      2942      2943
 -1      1278    8    0    1
 -2       603       604       712      2637      2944      2945
 -1      1279    8    0    1
 -2       592       593       697      2565      2946      2947
 -1      1280    8    0    1
 -2       614       527       713      2653      2948      2949
 -1      1281    8    0    1
 -2       527       663       713      2792      2950      2948
 -1      1282    8    0    1
 -2       593       594       714      2646      2951      2952
 -1      1283    8    0    1
 -2       697       593       714      2946      2952      2953
 -1      1284    8    0    1
 -2       594       711       714      2943      2954      2951
 -1      1285    8    0    1
 -2       595       596       715      2645      2955      2956
 -1      1286    8    0    1
 -2       595       715       711      2956      2957      2942
 -1      1287    8    0    1
 -2       596       597       716      2644      2958      2959
 -1      1288    8    0    1
 -2       597       598       717      2643      2960      2961
 -1      1289    8    0    1
 -2       598       599       718      2642      2962      2963
 -1      1290    8    0    1
 -2       599       600       719      2641      2964      2965
 -1      1291    8    0    1
 -2       600       601       720      2640      2966      2967
 -1      1292    8    0    1
 -2       601       602       721      2639      2968      2969
 -1      1293    8    0    1
 -2       602       603       722      2638      2970      2971
 -1      1294    8    0    1
 -2       586       573       574      2916      2512      2972
 -1      1295    8    0    1
 -2       581       583       570      2628      2973      2900
 -1      1296    8    0    1
 -2       579       614       713      2625      2949      2974
 -1      1297    8    0    1
 -2       607       608       723      2596      2975      2976
 -1      1298    8    0    1
 -2       621       607       723      2667      2976      2977
 -1      1299    8    0    1
 -2       608       699       723      2912      2978      2975
 -1      1300    8    0    1
 -2       604       605       724      2631      2979      2980
 -1      1301    8    0    1
 -2       605       665       724      2797      2981      2979
 -1      1302    8    0    1
 -2       612       589       725      2613      2982      2983
 -1      1303    8    0    1
 -2       563       591       726      2798      2984      2985
 -1      1304    8    0    1
 -2       562       563       726      2481      2985      2986
 -1      1305    8    0    1
 -2       591       592       726      2636      2987      2984
 -1      1306    8    0    1
 -2       580       569       610      2897      2988      2614
 -1      1307    8    0    1
 -2       572       580       727      2898      2989      2990
 -1      1308    8    0    1
 -2       571       572       727      2506      2990      2991
 -1      1309    8    0    1
 -2       580       584       727      2540      2992      2989
 -1      1310    8    0    1
 -2       613       475       728      2608      2993      2994
 -1      1311    8    0    1
 -2       475       709       728      2937      2995      2993
 -1      1312    8    0    1
 -2       476       617       729      2657      2996      2997
 -1      1313    8    0    1
 -2       476       729       587      2997      2998      2551
 -1      1314    8    0    1
 -2       596       716       715      2959      2999      2955
 -1      1315    8    0    1
 -2       481       473       620      2666      2665      3000
 -1      1316    8    0    1
 -2       583       610       569      2630      2988      3001
 -1      1317    8    0    1
 -2       584       703       727      2918      3002      2992
 -1      1318    8    0    1
 -2       474       587       730      2550      3003      3004
 -1      1319    8    0    1
 -2       709       474       730      2936      3004      3005
 -1      1320    8    0    1
 -2       587       729       730      2998      3006      3003
 -1      1321    8    0    1
 -2       612       725       703      2983      3007      2917
 -1      1322    8    0    1
 -2       484       564       588      2894      3008      2554
 -1      1323    8    0    1
 -2       590       565       731      2895      3009      3010
 -1      1324    8    0    1
 -2       564       590       588      2896      2607      3008
 -1      1325    8    0    1
 -2       565       566       731      2489      3011      3009
 -1      1326    8    0    1
 -2       567       568       732      2495      3012      3013
 -1      1327    8    0    1
 -2       579       713       578      2974      3014      2527
 -1      1328    8    0    1
 -2       570       583       569      2973      3001      2501
 -1      1329    8    0    1
 -2       701       578       713      2908      3014      3015
 -1      1330    8    0    1
 -2       722       603       712      2970      2945      3016
 -1      1331    8    0    1
 -2       721       602       733      2968      3017      3018
 -1      1332    8    0    1
 -2       602       722       733      2971      3019      3017
 -1      1333    8    0    1
 -2       720       601       721      2966      2969      3020
 -1      1334    8    0    1
 -2       719       600       720      2964      2967      3021
 -1      1335    8    0    1
 -2       718       599       719      2962      2965      3022
 -1      1336    8    0    1
 -2       604       724       712      2980      3023      2944
 -1      1337    8    0    1
 -2       705       567       732      2922      3013      3024
 -1      1338    8    0    1
 -2       665       606       621      2796      2668      3025
 -1      1339    8    0    1
 -2       481       620       619      3000      3026      2661
 -1      1340    8    0    1
 -2       590       731       589      3010      3027      2651
 -1      1341    8    0    1
 -2       589       731       725      3027      3028      2982
 -1      1342    8    0    1
 -2       568       571       732      2648      3029      3012
 -1      1343    8    0    1
 -2       717       598       718      2960      2963      3030
 -1      1344    8    0    1
 -2       716       597       734      2958      3031      3032
 -1      1345    8    0    1
 -2       597       717       734      2961      3033      3031
 -1      1346    8    0    1
 -2       586       574       698      2972      2902      3034
 -1      1347    8    0    1
 -2       732       571       727      3029      2991      3035
 -1      1348    8    0    1
 -2       618       619       735      2663      3036      3037
 -1      1349    8    0    1
 -2       724       665       736      2981      3038      3039
 -1      1350    8    0    1
 -2       624       623       737      2676      3040      3041
 -1      1351    8    0    1
 -2       625       624       738      2679      3042      3043
 -1      1352    8    0    1
 -2       624       737       738      3041      3044      3042
 -1      1353    8    0    1
 -2       626       625       739      2682      3045      3046
 -1      1354    8    0    1
 -2       625       738       739      3043      3047      3045
 -1      1355    8    0    1
 -2       627       626       740      2685      3048      3049
 -1      1356    8    0    1
 -2       626       739       740      3046      3050      3048
 -1      1357    8    0    1
 -2       628       627       741      2688      3051      3052
 -1      1358    8    0    1
 -2       627       740       741      3049      3053      3051
 -1      1359    8    0    1
 -2       629       628       742      2691      3054      3055
 -1      1360    8    0    1
 -2       628       741       742      3052      3056      3054
 -1      1361    8    0    1
 -2       630       629       743      2694      3057      3058
 -1      1362    8    0    1
 -2       629       742       743      3055      3059      3057
 -1      1363    8    0    1
 -2       631       630       744      2697      3060      3061
 -1      1364    8    0    1
 -2       630       743       744      3058      3062      3060
 -1      1365    8    0    1
 -2       632       631       745      2700      3063      3064
 -1      1366    8    0    1
 -2       631       744       745      3061      3065      3063
 -1      1367    8    0    1
 -2       633       632       746      2703      3066      3067
 -1      1368    8    0    1
 -2       632       745       746      3064      3068      3066
 -1      1369    8    0    1
 -2       634       633       747      2706      3069      3070
 -1      1370    8    0    1
 -2       633       746       747      3067      3071      3069
 -1      1371    8    0    1
 -2       635       634       748      2709      3072      3073
 -1      1372    8    0    1
 -2       634       747       748      3070      3074      3072
 -1      1373    8    0    1
 -2       636       635       749      2712      3075      3076
 -1      1374    8    0    1
 -2       635       748       749      3073      3077      3075
 -1      1375    8    0    1
 -2       637       636       750      2715      3078      3079
 -1      1376    8    0    1
 -2       636       749       750      3076      3080      3078
 -1      1377    8    0    1
 -2       638       637       751      2718      3081      3082
 -1      1378    8    0    1
 -2       637       750       751      3079      3083      3081
 -1      1379    8    0    1
 -2       639       638       752      2721      3084      3085
 -1      1380    8    0    1
 -2       638       751       752      3082      3086      3084
 -1      1381    8    0    1
 -2       640       639       753      2724      3087      3088
 -1      1382    8    0    1
 -2       639       752       753      3085      3089      3087
 -1      1383    8    0    1
 -2       641       640       754      2727      3090      3091
 -1      1384    8    0    1
 -2       640       753       754      3088      3092      3090
 -1      1385    8    0    1
 -2       642       641       755      2730      3093      3094
 -1      1386    8    0    1
 -2       641       754       755      3091      3095      3093
 -1      1387    8    0    1
 -2       643       642       756      2733      3096      3097
 -1      1388    8    0    1
 -2       642       755       756      3094      3098      3096
 -1      1389    8    0    1
 -2       644       643       757      2736      3099      3100
 -1      1390    8    0    1
 -2       643       756       757      3097      3101      3099
 -1      1391    8    0    1
 -2       645       644       758      2739      3102      3103
 -1      1392    8    0    1
 -2       644       757       758      3100      3104      3102
 -1      1393    8    0    1
 -2       646       645       759      2742      3105      3106
 -1      1394    8    0    1
 -2       645       758       759      3103      3107      3105
 -1      1395    8    0    1
 -2       647       646       760      2745      3108      3109
 -1      1396    8    0    1
 -2       646       759       760      3106      3110      3108
 -1      1397    8    0    1
 -2       648       647       761      2748      3111      3112
 -1      1398    8    0    1
 -2       647       760       761      3109      3113      3111
 -1      1399    8    0    1
 -2       649       648       762      2751      3114      3115
 -1      1400    8    0    1
 -2       648       761       762      3112      3116      3114
 -1      1401    8    0    1
 -2       650       649       763      2754      3117      3118
 -1      1402    8    0    1
 -2       649       762       763      3115      3119      3117
 -1      1403    8    0    1
 -2       651       650       764      2757      3120      3121
 -1      1404    8    0    1
 -2       650       763       764      3118      3122      3120
 -1      1405    8    0    1
 -2       652       651       765      2760      3123      3124
 -1      1406    8    0    1
 -2       651       764       765      3121      3125      3123
 -1      1407    8    0    1
 -2       653       652       766      2763      3126      3127
 -1      1408    8    0    1
 -2       652       765       766      3124      3128      3126
 -1      1409    8    0    1
 -2       654       653       767      2766      3129      3130
 -1      1410    8    0    1
 -2       653       766       767      3127      3131      3129
 -1      1411    8    0    1
 -2       655       654       768      2769      3132      3133
 -1      1412    8    0    1
 -2       654       767       768      3130      3134      3132
 -1      1413    8    0    1
 -2       656       655       769      2772      3135      3136
 -1      1414    8    0    1
 -2       655       768       769      3133      3137      3135
 -1      1415    8    0    1
 -2       657       656       770      2775      3138      3139
 -1      1416    8    0    1
 -2       656       769       770      3136      3140      3138
 -1      1417    8    0    1
 -2       658       657       771      2778      3141      3142
 -1      1418    8    0    1
 -2       657       770       771      3139      3143      3141
 -1      1419    8    0    1
 -2       659       658       772      2781      3144      3145
 -1      1420    8    0    1
 -2       658       771       772      3142      3146      3144
 -1      1421    8    0    1
 -2       660       659       773      2784      3147      3148
 -1      1422    8    0    1
 -2       659       772       773      3145      3149      3147
 -1      1423    8    0    1
 -2       662       661       774      2790      3150      3151
 -1      1424    8    0    1
 -2       663       662       775      2793      3152      3153
 -1      1425    8    0    1
 -2       662       774       775      3151      3154      3152
 -1      1426    8    0    1
 -2       666       664       776      2801      3155      3156
 -1      1427    8    0    1
 -2       668       669       777      2809      3157      3158
 -1      1428    8    0    1
 -2       667       668       778      2806      3159      3160
 -1      1429    8    0    1
 -2       668       777       778      3158      3161      3159
 -1      1430    8    0    1
 -2       670       671       779      2815      3162      3163
 -1      1431    8    0    1
 -2       671       672       780      2818      3164      3165
 -1      1432    8    0    1
 -2       671       780       779      3165      3166      3162
 -1      1433    8    0    1
 -2       672       673       781      2821      3167      3168
 -1      1434    8    0    1
 -2       672       781       780      3168      3169      3164
 -1      1435    8    0    1
 -2       673       674       782      2824      3170      3171
 -1      1436    8    0    1
 -2       673       782       781      3171      3172      3167
 -1      1437    8    0    1
 -2       674       675       783      2827      3173      3174
 -1      1438    8    0    1
 -2       674       783       782      3174      3175      3170
 -1      1439    8    0    1
 -2       675       676       784      2830      3176      3177
 -1      1440    8    0    1
 -2       675       784       783      3177      3178      3173
 -1      1441    8    0    1
 -2       676       677       785      2833      3179      3180
 -1      1442    8    0    1
 -2       676       785       784      3180      3181      3176
 -1      1443    8    0    1
 -2       677       678       786      2836      3182      3183
 -1      1444    8    0    1
 -2       677       786       785      3183      3184      3179
 -1      1445    8    0    1
 -2       678       679       787      2839      3185      3186
 -1      1446    8    0    1
 -2       678       787       786      3186      3187      3182
 -1      1447    8    0    1
 -2       679       680       788      2842      3188      3189
 -1      1448    8    0    1
 -2       679       788       787      3189      3190      3185
 -1      1449    8    0    1
 -2       680       681       789      2845      3191      3192
 -1      1450    8    0    1
 -2       680       789       788      3192      3193      3188
 -1      1451    8    0    1
 -2       681       682       790      2848      3194      3195
 -1      1452    8    0    1
 -2       681       790       789      3195      3196      3191
 -1      1453    8    0    1
 -2       682       683       791      2851      3197      3198
 -1      1454    8    0    1
 -2       682       791       790      3198      3199      3194
 -1      1455    8    0    1
 -2       683       684       792      2854      3200      3201
 -1      1456    8    0    1
 -2       683       792       791      3201      3202      3197
 -1      1457    8    0    1
 -2       684       685       793      2857      3203      3204
 -1      1458    8    0    1
 -2       684       793       792      3204      3205      3200
 -1      1459    8    0    1
 -2       685       686       794      2860      3206      3207
 -1      1460    8    0    1
 -2       685       794       793      3207      3208      3203
 -1      1461    8    0    1
 -2       686       687       795      2863      3209      3210
 -1      1462    8    0    1
 -2       686       795       794      3210      3211      3206
 -1      1463    8    0    1
 -2       687       688       796      2866      3212      3213
 -1      1464    8    0    1
 -2       687       796       795      3213      3214      3209
 -1      1465    8    0    1
 -2       688       689       797      2869      3215      3216
 -1      1466    8    0    1
 -2       688       797       796      3216      3217      3212
 -1      1467    8    0    1
 -2       689       690       798      2872      3218      3219
 -1      1468    8    0    1
 -2       689       798       797      3219      3220      3215
 -1      1469    8    0    1
 -2       690       691       799      2875      3221      3222
 -1      1470    8    0    1
 -2       690       799       798      3222      3223      3218
 -1      1471    8    0    1
 -2       691       692       800      2878      3224      3225
 -1      1472    8    0    1
 -2       691       800       799      3225      3226      3221
 -1      1473    8    0    1
 -2       692       693       801      2881      3227      3228
 -1      1474    8    0    1
 -2       692       801       800      3228      3229      3224
 -1      1475    8    0    1
 -2       693       694       802      2884      3230      3231
 -1      1476    8    0    1
 -2       693       802       801      3231      3232      3227
 -1      1477    8    0    1
 -2       694       695       803      2887      3233      3234
 -1      1478    8    0    1
 -2       694       803       802      3234      3235      3230
 -1      1479    8    0    1
 -2       695       696       804      2890      3236      3237
 -1      1480    8    0    1
 -2       695       804       803      3237      3238      3233
 -1      1481    8    0    1
 -2       696       697       714      2893      2953      3239
 -1      1482    8    0    1
 -2       665       621       805      3025      3240      3241
 -1      1483    8    0    1
 -2       665       805       736      3241      3242      3038
 -1      1484    8    0    1
 -2       697       562       726      2891      2986      3243
 -1      1485    8    0    1
 -2       717       718       806      3030      3244      3245
 -1      1486    8    0    1
 -2       722       712       807      3016      3246      3247
 -1      1487    8    0    1
 -2       575       699       698      2904      3248      2901
 -1      1488    8    0    1
 -2       699       700       723      2907      3249      2978
 -1      1489    8    0    1
 -2       704       666       808      2921      3250      3251
 -1      1490    8    0    1
 -2       666       776       808      3156      3252      3250
 -1      1491    8    0    1
 -2       615       613       809      2635      3253      3254
 -1      1492    8    0    1
 -2       702       615       809      2915      3254      3255
 -1      1493    8    0    1
 -2       613       728       809      2994      3256      3253
 -1      1494    8    0    1
 -2       715       716       810      2999      3257      3258
 -1      1495    8    0    1
 -2       700       701       811      2910      3259      3260
 -1      1496    8    0    1
 -2       731       566       725      3011      3261      3028
 -1      1497    8    0    1
 -2       711       715       812      2957      3262      3263
 -1      1498    8    0    1
 -2       669       670       813      2812      3264      3265
 -1      1499    8    0    1
 -2       777       669       813      3157      3265      3266
 -1      1500    8    0    1
 -2       670       779       813      3163      3267      3264
 -1      1501    8    0    1
 -2       623       622       814      2673      3268      3269
 -1      1502    8    0    1
 -2       623       814       737      3269      3270      3040
 -1      1503    8    0    1
 -2       619       620       815      3026      3271      3272
 -1      1504    8    0    1
 -2       735       619       815      3036      3272      3273
 -1      1505    8    0    1
 -2       620       710       815      2940      3274      3271
 -1      1506    8    0    1
 -2       609       586       698      2650      3034      3275
 -1      1507    8    0    1
 -2       592       697       726      2947      3243      2987
 -1      1508    8    0    1
 -2       617       616       816      2658      3276      3277
 -1      1509    8    0    1
 -2       712       724       817      3023      3278      3279
 -1      1510    8    0    1
 -2       718       719       818      3022      3280      3281
 -1      1511    8    0    1
 -2       719       720       819      3021      3282      3283
 -1      1512    8    0    1
 -2       720       721       820      3020      3284      3285
 -1      1513    8    0    1
 -2       725       566       705      3261      2923      3286
 -1      1514    8    0    1
 -2       729       617       821      2996      3287      3288
 -1      1515    8    0    1
 -2       617       816       821      3277      3289      3287
 -1      1516    8    0    1
 -2       724       736       817      3039      3290      3278
 -1      1517    8    0    1
 -2       618       735       822      3037      3291      3292
 -1      1518    8    0    1
 -2       618       822       708      3292      3293      2935
 -1      1519    8    0    1
 -2       622       707       823      2930      3294      3295
 -1      1520    8    0    1
 -2       622       823       814      3295      3296      3268
 -1      1521    8    0    1
 -2       702       809       707      3255      3297      2931
 -1      1522    8    0    1
 -2       661       660       824      2787      3298      3299
 -1      1523    8    0    1
 -2       776       664       825      3155      3300      3301
 -1      1524    8    0    1
 -2       664       706       825      2926      3302      3300
 -1      1525    8    0    1
 -2       661       824       774      3299      3303      3150
 -1      1526    8    0    1
 -2       667       778       826      3160      3304      3305
 -1      1527    8    0    1
 -2       667       826       706      3305      3306      2927
 -1      1528    8    0    1
 -2       696       714       804      3239      3307      3236
 -1      1529    8    0    1
 -2       805       621       811      3240      3308      3309
 -1      1530    8    0    1
 -2       807       712       817      3246      3279      3310
 -1      1531    8    0    1
 -2       806       718       818      3244      3281      3311
 -1      1532    8    0    1
 -2       709       730       827      3005      3312      3313
 -1      1533    8    0    1
 -2       701       713       775      3015      3314      3315
 -1      1534    8    0    1
 -2       732       727       703      3035      3002      3316
 -1      1535    8    0    1
 -2       728       709       828      2995      3317      3318
 -1      1536    8    0    1
 -2       709       827       828      3313      3319      3317
 -1      1537    8    0    1
 -2       699       609       698      2911      3275      3248
 -1      1538    8    0    1
 -2       616       708       829      2934      3320      3321
 -1      1539    8    0    1
 -2       816       616       829      3276      3321      3322
 -1      1540    8    0    1
 -2       708       822       829      3293      3323      3320
 -1      1541    8    0    1
 -2       811       701       775      3259      3315      3324
 -1      1542    8    0    1
 -2       715       810       812      3258      3325      3262
 -1      1543    8    0    1
 -2       700       811       723      3260      3326      3249
 -1      1544    8    0    1
 -2       810       716       830      3257      3327      3328
 -1      1545    8    0    1
 -2       716       734       830      3032      3329      3327
 -1      1546    8    0    1
 -2       710       704       831      2941      3330      3331
 -1      1547    8    0    1
 -2       815       710       831      3274      3331      3332
 -1      1548    8    0    1
 -2       704       808       831      3251      3333      3330
 -1      1549    8    0    1
 -2       721       733       820      3018      3334      3284
 -1      1550    8    0    1
 -2       819       720       820      3282      3285      3335
 -1      1551    8    0    1
 -2       621       723       811      2977      3326      3308
 -1      1552    8    0    1
 -2       714       711       804      2954      3336      3307
 -1      1553    8    0    1
 -2       734       717       832      3033      3337      3338
 -1      1554    8    0    1
 -2       717       806       832      3245      3339      3337
 -1      1555    8    0    1
 -2       818       719       833      3280      3340      3341
 -1      1556    8    0    1
 -2       719       819       833      3283      3342      3340
 -1      1557    8    0    1
 -2       824       660       773      3298      3148      3343
 -1      1558    8    0    1
 -2       804       711       812      3336      3263      3344
 -1      1559    8    0    1
 -2       804       812       834      3344      3345      3346
 -1      1560    8    0    1
 -2       804       834       803      3346      3347      3238
 -1      1561    8    0    1
 -2       730       729       835      3006      3348      3349
 -1      1562    8    0    1
 -2       730       835       827      3349      3350      3312
 -1      1563    8    0    1
 -2       703       725       705      3007      3286      3351
 -1      1564    8    0    1
 -2       739       738       836      3047      3352      3353
 -1      1565    8    0    1
 -2       740       739       837      3050      3354      3355
 -1      1566    8    0    1
 -2       739       836       837      3353      3356      3354
 -1      1567    8    0    1
 -2       741       740       838      3053      3357      3358
 -1      1568    8    0    1
 -2       740       837       838      3355      3359      3357
 -1      1569    8    0    1
 -2       742       741       839      3056      3360      3361
 -1      1570    8    0    1
 -2       741       838       839      3358      3362      3360
 -1      1571    8    0    1
 -2       743       742       840      3059      3363      3364
 -1      1572    8    0    1
 -2       742       839       840      3361      3365      3363
 -1      1573    8    0    1
 -2       744       743       841      3062      3366      3367
 -1      1574    8    0    1
 -2       743       840       841      3364      3368      3366
 -1      1575    8    0    1
 -2       745       744       842      3065      3369      3370
 -1      1576    8    0    1
 -2       744       841       842      3367      3371      3369
 -1      1577    8    0    1
 -2       746       745       843      3068      3372      3373
 -1      1578    8    0    1
 -2       745       842       843      3370      3374      3372
 -1      1579    8    0    1
 -2       747       746       844      3071      3375      3376
 -1      1580    8    0    1
 -2       746       843       844      3373      3377      3375
 -1      1581    8    0    1
 -2       748       747       845      3074      3378      3379
 -1      1582    8    0    1
 -2       747       844       845      3376      3380      3378
 -1      1583    8    0    1
 -2       749       748       846      3077      3381      3382
 -1      1584    8    0    1
 -2       748       845       846      3379      3383      3381
 -1      1585    8    0    1
 -2       750       749       847      3080      3384      3385
 -1      1586    8    0    1
 -2       749       846       847      3382      3386      3384
 -1      1587    8    0    1
 -2       751       750       848      3083      3387      3388
 -1      1588    8    0    1
 -2       750       847       848      3385      3389      3387
 -1      1589    8    0    1
 -2       752       751       849      3086      3390      3391
 -1      1590    8    0    1
 -2       751       848       849      3388      3392      3390
 -1      1591    8    0    1
 -2       753       752       850      3089      3393      3394
 -1      1592    8    0    1
 -2       752       849       850      3391      3395      3393
 -1      1593    8    0    1
 -2       754       753       851      3092      3396      3397
 -1      1594    8    0    1
 -2       753       850       851      3394      3398      3396
 -1      1595    8    0    1
 -2       755       754       852      3095      3399      3400
 -1      1596    8    0    1
 -2       754       851       852      3397      3401      3399
 -1      1597    8    0    1
 -2       756       755       853      3098      3402      3403
 -1      1598    8    0    1
 -2       755       852       853      3400      3404      3402
 -1      1599    8    0    1
 -2       757       756       854      3101      3405      3406
 -1      1600    8    0    1
 -2       756       853       854      3403      3407      3405
 -1      1601    8    0    1
 -2       758       757       855      3104      3408      3409
 -1      1602    8    0    1
 -2       757       854       855      3406      3410      3408
 -1      1603    8    0    1
 -2       759       758       856      3107      3411      3412
 -1      1604    8    0    1
 -2       758       855       856      3409      3413      3411
 -1      1605    8    0    1
 -2       760       759       857      3110      3414      3415
 -1      1606    8    0    1
 -2       759       856       857      3412      3416      3414
 -1      1607    8    0    1
 -2       761       760       858      3113      3417      3418
 -1      1608    8    0    1
 -2       760       857       858      3415      3419      3417
 -1      1609    8    0    1
 -2       762       761       859      3116      3420      3421
 -1      1610    8    0    1
 -2       761       858       859      3418      3422      3420
 -1      1611    8    0    1
 -2       763       762       860      3119      3423      3424
 -1      1612    8    0    1
 -2       762       859       860      3421      3425      3423
 -1      1613    8    0    1
 -2       764       763       861      3122      3426      3427
 -1      1614    8    0    1
 -2       763       860       861      3424      3428      3426
 -1      1615    8    0    1
 -2       765       764       862      3125      3429      3430
 -1      1616    8    0    1
 -2       764       861       862      3427      3431      3429
 -1      1617    8    0    1
 -2       766       765       863      3128      3432      3433
 -1      1618    8    0    1
 -2       765       862       863      3430      3434      3432
 -1      1619    8    0    1
 -2       767       766       864      3131      3435      3436
 -1      1620    8    0    1
 -2       766       863       864      3433      3437      3435
 -1      1621    8    0    1
 -2       768       767       865      3134      3438      3439
 -1      1622    8    0    1
 -2       767       864       865      3436      3440      3438
 -1      1623    8    0    1
 -2       769       768       866      3137      3441      3442
 -1      1624    8    0    1
 -2       768       865       866      3439      3443      3441
 -1      1625    8    0    1
 -2       770       769       867      3140      3444      3445
 -1      1626    8    0    1
 -2       769       866       867      3442      3446      3444
 -1      1627    8    0    1
 -2       772       771       733      3146      3447      3448
 -1      1628    8    0    1
 -2       737       814       868      3270      3449      3450
 -1      1629    8    0    1
 -2       780       781       869      3169      3451      3452
 -1      1630    8    0    1
 -2       779       780       870      3166      3453      3454
 -1      1631    8    0    1
 -2       780       869       870      3452      3455      3453
 -1      1632    8    0    1
 -2       782       783       871      3175      3456      3457
 -1      1633    8    0    1
 -2       783       784       872      3178      3458      3459
 -1      1634    8    0    1
 -2       783       872       871      3459      3460      3456
 -1      1635    8    0    1
 -2       784       785       873      3181      3461      3462
 -1      1636    8    0    1
 -2       784       873       872      3462      3463      3458
 -1      1637    8    0    1
 -2       785       786       874      3184      3464      3465
 -1      1638    8    0    1
 -2       785       874       873      3465      3466      3461
 -1      1639    8    0    1
 -2       786       787       875      3187      3467      3468
 -1      1640    8    0    1
 -2       786       875       874      3468      3469      3464
 -1      1641    8    0    1
 -2       787       788       876      3190      3470      3471
 -1      1642    8    0    1
 -2       787       876       875      3471      3472      3467
 -1      1643    8    0    1
 -2       788       789       877      3193      3473      3474
 -1      1644    8    0    1
 -2       788       877       876      3474      3475      3470
 -1      1645    8    0    1
 -2       789       790       878      3196      3476      3477
 -1      1646    8    0    1
 -2       789       878       877      3477      3478      3473
 -1      1647    8    0    1
 -2       790       791       879      3199      3479      3480
 -1      1648    8    0    1
 -2       790       879       878      3480      3481      3476
 -1      1649    8    0    1
 -2       791       792       880      3202      3482      3483
 -1      1650    8    0    1
 -2       791       880       879      3483      3484      3479
 -1      1651    8    0    1
 -2       792       793       881      3205      3485      3486
 -1      1652    8    0    1
 -2       792       881       880      3486      3487      3482
 -1      1653    8    0    1
 -2       793       794       882      3208      3488      3489
 -1      1654    8    0    1
 -2       793       882       881      3489      3490      3485
 -1      1655    8    0    1
 -2       794       795       883      3211      3491      3492
 -1      1656    8    0    1
 -2       794       883       882      3492      3493      3488
 -1      1657    8    0    1
 -2       795       796       884      3214      3494      3495
 -1      1658    8    0    1
 -2       795       884       883      3495      3496      3491
 -1      1659    8    0    1
 -2       796       797       885      3217      3497      3498
 -1      1660    8    0    1
 -2       796       885       884      3498      3499      3494
 -1      1661    8    0    1
 -2       797       798       886      3220      3500      3501
 -1      1662    8    0    1
 -2       797       886       885      3501      3502      3497
 -1      1663    8    0    1
 -2       798       799       887      3223      3503      3504
 -1      1664    8    0    1
 -2       798       887       886      3504      3505      3500
 -1      1665    8    0    1
 -2       799       800       888      3226      3506      3507
 -1      1666    8    0    1
 -2       799       888       887      3507      3508      3503
 -1      1667    8    0    1
 -2       800       801       889      3229      3509      3510
 -1      1668    8    0    1
 -2       800       889       888      3510      3511      3506
 -1      1669    8    0    1
 -2       801       802       890      3232      3512      3513
 -1      1670    8    0    1
 -2       801       890       889      3513      3514      3509
 -1      1671    8    0    1
 -2       802       803       891      3235      3515      3516
 -1      1672    8    0    1
 -2       890       802       891      3512      3516      3517
 -1      1673    8    0    1
 -2       803       834       891      3347      3518      3515
 -1      1674    8    0    1
 -2       805       811       775      3309      3324      3519
 -1      1675    8    0    1
 -2       807       817       773      3310      3520      3521
 -1      1676    8    0    1
 -2       703       705       732      3351      3024      3316
 -1      1677    8    0    1
 -2       733       771       892      3447      3522      3523
 -1      1678    8    0    1
 -2       820       733       892      3334      3523      3524
 -1      1679    8    0    1
 -2       771       770       892      3143      3525      3522
 -1      1680    8    0    1
 -2       773       817       824      3520      3526      3343
 -1      1681    8    0    1
 -2       812       810       834      3325      3527      3345
 -1      1682    8    0    1
 -2       722       807       733      3247      3528      3019
 -1      1683    8    0    1
 -2       808       776       893      3252      3529      3530
 -1      1684    8    0    1
 -2       781       782       894      3172      3531      3532
 -1      1685    8    0    1
 -2       869       781       894      3451      3532      3533
 -1      1686    8    0    1
 -2       782       871       894      3457      3534      3531
 -1      1687    8    0    1
 -2       774       824       736      3303      3535      3536
 -1      1688    8    0    1
 -2       778       777       895      3161      3537      3538
 -1      1689    8    0    1
 -2       707       809       823      3297      3539      3294
 -1      1690    8    0    1
 -2       775       774       805      3154      3540      3519
 -1      1691    8    0    1
 -2       738       737       896      3044      3541      3542
 -1      1692    8    0    1
 -2       738       896       836      3542      3543      3352
 -1      1693    8    0    1
 -2       806       818       897      3311      3544      3545
 -1      1694    8    0    1
 -2       736       824       817      3535      3526      3290
 -1      1695    8    0    1
 -2       819       820       898      3335      3546      3547
 -1      1696    8    0    1
 -2       805       774       736      3540      3536      3242
 -1      1697    8    0    1
 -2       822       735       899      3291      3548      3549
 -1      1698    8    0    1
 -2       835       729       821      3348      3288      3550
 -1      1699    8    0    1
 -2       806       897       900      3545      3551      3552
 -1      1700    8    0    1
 -2       806       900       832      3552      3553      3339
 -1      1701    8    0    1
 -2       825       706       826      3302      3306      3554
 -1      1702    8    0    1
 -2       868       814       901      3449      3555      3556
 -1      1703    8    0    1
 -2       814       823       901      3296      3557      3555
 -1      1704    8    0    1
 -2       770       867       892      3445      3558      3525
 -1      1705    8    0    1
 -2       898       820       892      3546      3524      3559
 -1      1706    8    0    1
 -2       737       868       896      3450      3560      3541
 -1      1707    8    0    1
 -2       773       772       807      3149      3561      3521
 -1      1708    8    0    1
 -2       776       825       902      3301      3562      3563
 -1      1709    8    0    1
 -2       776       902       893      3563      3564      3529
 -1      1710    8    0    1
 -2       826       778       903      3304      3565      3566
 -1      1711    8    0    1
 -2       778       895       903      3538      3567      3565
 -1      1712    8    0    1
 -2       779       870       904      3454      3568      3569
 -1      1713    8    0    1
 -2       779       904       813      3569      3570      3267
 -1      1714    8    0    1
 -2       827       835       905      3350      3571      3572
 -1      1715    8    0    1
 -2       816       829       906      3322      3573      3574
 -1      1716    8    0    1
 -2       827       905       901      3572      3575      3576
 -1      1717    8    0    1
 -2       809       728       823      3256      3577      3539
 -1      1718    8    0    1
 -2       808       893       907      3530      3578      3579
 -1      1719    8    0    1
 -2       830       734       908      3329      3580      3581
 -1      1720    8    0    1
 -2       734       832       908      3338      3582      3580
 -1      1721    8    0    1
 -2       831       808       907      3333      3579      3583
 -1      1722    8    0    1
 -2       821       816       909      3289      3584      3585
 -1      1723    8    0    1
 -2       816       906       909      3574      3586      3584
 -1      1724    8    0    1
 -2       777       813       910      3266      3587      3588
 -1      1725    8    0    1
 -2       895       777       910      3537      3588      3589
 -1      1726    8    0    1
 -2       813       904       910      3570      3590      3587
 -1      1727    8    0    1
 -2       713       663       775      2950      3153      3314
 -1      1728    8    0    1
 -2       897       818       911      3544      3591      3592
 -1      1729    8    0    1
 -2       818       833       911      3341      3593      3591
 -1      1730    8    0    1
 -2       833       819       912      3342      3594      3595
 -1      1731    8    0    1
 -2       819       898       912      3547      3596      3594
 -1      1732    8    0    1
 -2       834       810       913      3527      3597      3598
 -1      1733    8    0    1
 -2       891       834       913      3518      3598      3599
 -1      1734    8    0    1
 -2       810       830       913      3328      3600      3597
 -1      1735    8    0    1
 -2       835       821       914      3550      3601      3602
 -1      1736    8    0    1
 -2       905       835       914      3571      3602      3603
 -1      1737    8    0    1
 -2       821       909       914      3585      3604      3601
 -1      1738    8    0    1
 -2       837       836       915      3356      3605      3606
 -1      1739    8    0    1
 -2       838       837       916      3359      3607      3608
 -1      1740    8    0    1
 -2       837       915       916      3606      3609      3607
 -1      1741    8    0    1
 -2       839       838       917      3362      3610      3611
 -1      1742    8    0    1
 -2       838       916       917      3608      3612      3610
 -1      1743    8    0    1
 -2       840       839       918      3365      3613      3614
 -1      1744    8    0    1
 -2       839       917       918      3611      3615      3613
 -1      1745    8    0    1
 -2       841       840       919      3368      3616      3617
 -1      1746    8    0    1
 -2       840       918       919      3614      3618      3616
 -1      1747    8    0    1
 -2       842       841       920      3371      3619      3620
 -1      1748    8    0    1
 -2       841       919       920      3617      3621      3619
 -1      1749    8    0    1
 -2       843       842       921      3374      3622      3623
 -1      1750    8    0    1
 -2       842       920       921      3620      3624      3622
 -1      1751    8    0    1
 -2       844       843       922      3377      3625      3626
 -1      1752    8    0    1
 -2       843       921       922      3623      3627      3625
 -1      1753    8    0    1
 -2       845       844       923      3380      3628      3629
 -1      1754    8    0    1
 -2       844       922       923      3626      3630      3628
 -1      1755    8    0    1
 -2       846       845       924      3383      3631      3632
 -1      1756    8    0    1
 -2       845       923       924      3629      3633      3631
 -1      1757    8    0    1
 -2       847       846       925      3386      3634      3635
 -1      1758    8    0    1
 -2       846       924       925      3632      3636      3634
 -1      1759    8    0    1
 -2       848       847       926      3389      3637      3638
 -1      1760    8    0    1
 -2       847       925       926      3635      3639      3637
 -1      1761    8    0    1
 -2       849       848       927      3392      3640      3641
 -1      1762    8    0    1
 -2       848       926       927      3638      3642      3640
 -1      1763    8    0    1
 -2       850       849       928      3395      3643      3644
 -1      1764    8    0    1
 -2       849       927       928      3641      3645      3643
 -1      1765    8    0    1
 -2       851       850       929      3398      3646      3647
 -1      1766    8    0    1
 -2       850       928       929      3644      3648      3646
 -1      1767    8    0    1
 -2       852       851       930      3401      3649      3650
 -1      1768    8    0    1
 -2       851       929       930      3647      3651      3649
 -1      1769    8    0    1
 -2       853       852       931      3404      3652      3653
 -1      1770    8    0    1
 -2       852       930       931      3650      3654      3652
 -1      1771    8    0    1
 -2       854       853       932      3407      3655      3656
 -1      1772    8    0    1
 -2       853       931       932      3653      3657      3655
 -1      1773    8    0    1
 -2       855       854       933      3410      3658      3659
 -1      1774    8    0    1
 -2       854       932       933      3656      3660      3658
 -1      1775    8    0    1
 -2       856       855       934      3413      3661      3662
 -1      1776    8    0    1
 -2       855       933       934      3659      3663      3661
 -1      1777    8    0    1
 -2       857       856       935      3416      3664      3665
 -1      1778    8    0    1
 -2       856       934       935      3662      3666      3664
 -1      1779    8    0    1
 -2       858       857       936      3419      3667      3668
 -1      1780    8    0    1
 -2       857       935       936      3665      3669      3667
 -1      1781    8    0    1
 -2       859       858       937      3422      3670      3671
 -1      1782    8    0    1
 -2       858       936       937      3668      3672      3670
 -1      1783    8    0    1
 -2       860       859       938      3425      3673      3674
 -1      1784    8    0    1
 -2       859       937       938      3671      3675      3673
 -1      1785    8    0    1
 -2       861       860       939      3428      3676      3677
 -1      1786    8    0    1
 -2       860       938       939      3674      3678      3676
 -1      1787    8    0    1
 -2       862       861       940      3431      3679      3680
 -1      1788    8    0    1
 -2       861       939       940      3677      3681      3679
 -1      1789    8    0    1
 -2       863       862       941      3434      3682      3683
 -1      1790    8    0    1
 -2       862       940       941      3680      3684      3682
 -1      1791    8    0    1
 -2       864       863       942      3437      3685      3686
 -1      1792    8    0    1
 -2       863       941       942      3683      3687      3685
 -1      1793    8    0    1
 -2       865       864       943      3440      3688      3689
 -1      1794    8    0    1
 -2       864       942       943      3686      3690      3688
 -1      1795    8    0    1
 -2       866       865       944      3443      3691      3692
 -1      1796    8    0    1
 -2       865       943       944      3689      3693      3691
 -1      1797    8    0    1
 -2       899       735       831      3548      3694      3695
 -1      1798    8    0    1
 -2       872       873       945      3463      3696      3697
 -1      1799    8    0    1
 -2       871       872       946      3460      3698      3699
 -1      1800    8    0    1
 -2       872       945       946      3697      3700      3698
 -1      1801    8    0    1
 -2       874       875       947      3469      3701      3702
 -1      1802    8    0    1
 -2       875       876       948      3472      3703      3704
 -1      1803    8    0    1
 -2       875       948       947      3704      3705      3701
 -1      1804    8    0    1
 -2       876       877       949      3475      3706      3707
 -1      1805    8    0    1
 -2       876       949       948      3707      3708      3703
 -1      1806    8    0    1
 -2       877       878       950      3478      3709      3710
 -1      1807    8    0    1
 -2       877       950       949      3710      3711      3706
 -1      1808    8    0    1
 -2       878       879       951      3481      3712      3713
 -1      1809    8    0    1
 -2       878       951       950      3713      3714      3709
 -1      1810    8    0    1
 -2       879       880       952      3484      3715      3716
 -1      1811    8    0    1
 -2       879       952       951      3716      3717      3712
 -1      1812    8    0    1
 -2       880       881       953      3487      3718      3719
 -1      1813    8    0    1
 -2       880       953       952      3719      3720      3715
 -1      1814    8    0    1
 -2       881       882       954      3490      3721      3722
 -1      1815    8    0    1
 -2       881       954       953      3722      3723      3718
 -1      1816    8    0    1
 -2       882       883       955      3493      3724      3725
 -1      1817    8    0    1
 -2       882       955       954      3725      3726      3721
 -1      1818    8    0    1
 -2       883       884       956      3496      3727      3728
 -1      1819    8    0    1
 -2       883       956       955      3728      3729      3724
 -1      1820    8    0    1
 -2       884       885       957      3499      3730      3731
 -1      1821    8    0    1
 -2       884       957       956      3731      3732      3727
 -1      1822    8    0    1
 -2       885       886       958      3502      3733      3734
 -1      1823    8    0    1
 -2       885       958       957      3734      3735      3730
 -1      1824    8    0    1
 -2       886       887       959      3505      3736      3737
 -1      1825    8    0    1
 -2       886       959       958      3737      3738      3733
 -1      1826    8    0    1
 -2       887       888       960      3508      3739      3740
 -1      1827    8    0    1
 -2       887       960       959      3740      3741      3736
 -1      1828    8    0    1
 -2       888       889       961      3511      3742      3743
 -1      1829    8    0    1
 -2       888       961       960      3743      3744      3739
 -1      1830    8    0    1
 -2       889       890       962      3514      3745      3746
 -1      1831    8    0    1
 -2       889       962       961      3746      3747      3742
 -1      1832    8    0    1
 -2       733       807       772      3528      3561      3448
 -1      1833    8    0    1
 -2       827       901       828      3576      3748      3319
 -1      1834    8    0    1
 -2       896       868       963      3560      3749      3750
 -1      1835    8    0    1
 -2       823       728       828      3577      3318      3751
 -1      1836    8    0    1
 -2       907       893       964      3578      3752      3753
 -1      1837    8    0    1
 -2       831       907       899      3583      3754      3695
 -1      1838    8    0    1
 -2       870       869       965      3455      3755      3756
 -1      1839    8    0    1
 -2       829       822       966      3323      3757      3758
 -1      1840    8    0    1
 -2       906       829       966      3573      3758      3759
 -1      1841    8    0    1
 -2       822       899       966      3549      3760      3757
 -1      1842    8    0    1
 -2       892       867       898      3558      3761      3559
 -1      1843    8    0    1
 -2       873       874       967      3466      3762      3763
 -1      1844    8    0    1
 -2       874       947       967      3702      3764      3762
 -1      1845    8    0    1
 -2       825       826       968      3554      3765      3766
 -1      1846    8    0    1
 -2       825       968       902      3766      3767      3562
 -1      1847    8    0    1
 -2       735       815       831      3273      3332      3694
 -1      1848    8    0    1
 -2       828       901       823      3748      3557      3751
 -1      1849    8    0    1
 -2       836       896       969      3543      3768      3769
 -1      1850    8    0    1
 -2       836       969       915      3769      3770      3605
 -1      1851    8    0    1
 -2       898       867       866      3761      3446      3771
 -1      1852    8    0    1
 -2       899       907       970      3754      3772      3773
 -1      1853    8    0    1
 -2       966       899       970      3760      3773      3774
 -1      1854    8    0    1
 -2       907       964       970      3753      3775      3772
 -1      1855    8    0    1
 -2       900       897       971      3551      3776      3777
 -1      1856    8    0    1
 -2       897       911       971      3592      3778      3776
 -1      1857    8    0    1
 -2       969       896       963      3768      3750      3779
 -1      1858    8    0    1
 -2       908       832       972      3582      3780      3781
 -1      1859    8    0    1
 -2       832       900       972      3553      3782      3780
 -1      1860    8    0    1
 -2       901       905       973      3575      3783      3784
 -1      1861    8    0    1
 -2       868       901       973      3556      3784      3785
 -1      1862    8    0    1
 -2       903       895       974      3567      3786      3787
 -1      1863    8    0    1
 -2       911       833       912      3593      3595      3788
 -1      1864    8    0    1
 -2       904       870       975      3568      3789      3790
 -1      1865    8    0    1
 -2       870       965       975      3756      3791      3789
 -1      1866    8    0    1
 -2       898       866       944      3771      3692      3792
 -1      1867    8    0    1
 -2       871       946       976      3699      3793      3794
 -1      1868    8    0    1
 -2       871       976       894      3794      3795      3534
 -1      1869    8    0    1
 -2       962       890       977      3745      3796      3797
 -1      1870    8    0    1
 -2       890       891       977      3517      3798      3796
 -1      1871    8    0    1
 -2       895       910       978      3589      3799      3800
 -1      1872    8    0    1
 -2       895       978       974      3800      3801      3786
 -1      1873    8    0    1
 -2       826       903       968      3566      3802      3765
 -1      1874    8    0    1
 -2       964       893       979      3752      3803      3804
 -1      1875    8    0    1
 -2       893       902       979      3564      3805      3803
 -1      1876    8    0    1
 -2       869       894       980      3533      3806      3807
 -1      1877    8    0    1
 -2       894       976       980      3795      3808      3806
 -1      1878    8    0    1
 -2       830       908       981      3581      3809      3810
 -1      1879    8    0    1
 -2       913       830       981      3600      3810      3811
 -1      1880    8    0    1
 -2       908       972       981      3781      3812      3809
 -1      1881    8    0    1
 -2       965       869       980      3755      3807      3813
 -1      1882    8    0    1
 -2       909       906       982      3586      3814      3815
 -1      1883    8    0    1
 -2       905       914       983      3603      3816      3817
 -1      1884    8    0    1
 -2       906       966       984      3759      3818      3819
 -1      1885    8    0    1
 -2       982       906       984      3814      3819      3820
 -1      1886    8    0    1
 -2       966       970       984      3774      3821      3818
 -1      1887    8    0    1
 -2       873       967       945      3763      3822      3696
 -1      1888    8    0    1
 -2       973       905       983      3783      3817      3823
 -1      1889    8    0    1
 -2       916       915       985      3609      3824      3825
 -1      1890    8    0    1
 -2       917       916       986      3612      3826      3827
 -1      1891    8    0    1
 -2       916       985       986      3825      3828      3826
 -1      1892    8    0    1
 -2       918       917       987      3615      3829      3830
 -1      1893    8    0    1
 -2       917       986       987      3827      3831      3829
 -1      1894    8    0    1
 -2       919       918       988      3618      3832      3833
 -1      1895    8    0    1
 -2       918       987       988      3830      3834      3832
 -1      1896    8    0    1
 -2       920       919       989      3621      3835      3836
 -1      1897    8    0    1
 -2       919       988       989      3833      3837      3835
 -1      1898    8    0    1
 -2       921       920       990      3624      3838      3839
 -1      1899    8    0    1
 -2       920       989       990      3836      3840      3838
 -1      1900    8    0    1
 -2       922       921       991      3627      3841      3842
 -1      1901    8    0    1
 -2       921       990       991      3839      3843      3841
 -1      1902    8    0    1
 -2       923       922       992      3630      3844      3845
 -1      1903    8    0    1
 -2       922       991       992      3842      3846      3844
 -1      1904    8    0    1
 -2       924       923       993      3633      3847      3848
 -1      1905    8    0    1
 -2       923       992       993      3845      3849      3847
 -1      1906    8    0    1
 -2       925       924       994      3636      3850      3851
 -1      1907    8    0    1
 -2       924       993       994      3848      3852      3850
 -1      1908    8    0    1
 -2       926       925       995      3639      3853      3854
 -1      1909    8    0    1
 -2       925       994       995      3851      3855      3853
 -1      1910    8    0    1
 -2       927       926       996      3642      3856      3857
 -1      1911    8    0    1
 -2       926       995       996      3854      3858      3856
 -1      1912    8    0    1
 -2       928       927       997      3645      3859      3860
 -1      1913    8    0    1
 -2       927       996       997      3857      3861      3859
 -1      1914    8    0    1
 -2       929       928       998      3648      3862      3863
 -1      1915    8    0    1
 -2       928       997       998      3860      3864      3862
 -1      1916    8    0    1
 -2       930       929       999      3651      3865      3866
 -1      1917    8    0    1
 -2       929       998       999      3863      3867      3865
 -1      1918    8    0    1
 -2       931       930      1000      3654      3868      3869
 -1      1919    8    0    1
 -2       930       999      1000      3866      3870      3868
 -1      1920    8    0    1
 -2       932       931      1001      3657      3871      3872
 -1      1921    8    0    1
 -2       931      1000      1001      3869      3873      3871
 -1      1922    8    0    1
 -2       933       932      1002      3660      3874      3875
 -1      1923    8    0    1
 -2       932      1001      1002      3872      3876      3874
 -1      1924    8    0    1
 -2       934       933      1003      3663      3877      3878
 -1      1925    8    0    1
 -2       933      1002      1003      3875      3879      3877
 -1      1926    8    0    1
 -2       935       934      1004      3666      3880      3881
 -1      1927    8    0    1
 -2       934      1003      1004      3878      3882      3880
 -1      1928    8    0    1
 -2       936       935      1005      3669      3883      3884
 -1      1929    8    0    1
 -2       935      1004      1005      3881      3885      3883
 -1      1930    8    0    1
 -2       937       936      1006      3672      3886      3887
 -1      1931    8    0    1
 -2       936      1005      1006      3884      3888      3886
 -1      1932    8    0    1
 -2       938       937      1007      3675      3889      3890
 -1      1933    8    0    1
 -2       937      1006      1007      3887      3891      3889
 -1      1934    8    0    1
 -2       939       938      1008      3678      3892      3893
 -1      1935    8    0    1
 -2       938      1007      1008      3890      3894      3892
 -1      1936    8    0    1
 -2       940       939      1009      3681      3895      3896
 -1      1937    8    0    1
 -2       939      1008      1009      3893      3897      3895
 -1      1938    8    0    1
 -2       941       940      1010      3684      3898      3899
 -1      1939    8    0    1
 -2       940      1009      1010      3896      3900      3898
 -1      1940    8    0    1
 -2       942       941      1011      3687      3901      3902
 -1      1941    8    0    1
 -2       941      1010      1011      3899      3903      3901
 -1      1942    8    0    1
 -2       943       942      1012      3690      3904      3905
 -1      1943    8    0    1
 -2       942      1011      1012      3902      3906      3904
 -1      1944    8    0    1
 -2       945       967      1013      3822      3907      3908
 -1      1945    8    0    1
 -2       968       903      1014      3802      3909      3910
 -1      1946    8    0    1
 -2       903       974      1014      3787      3911      3909
 -1      1947    8    0    1
 -2       902       968      1015      3767      3912      3913
 -1      1948    8    0    1
 -2       979       902      1015      3805      3913      3914
 -1      1949    8    0    1
 -2       968      1014      1015      3910      3915      3912
 -1      1950    8    0    1
 -2       948       949      1016      3708      3916      3917
 -1      1951    8    0    1
 -2       947       948      1017      3705      3918      3919
 -1      1952    8    0    1
 -2       948      1016      1017      3917      3920      3918
 -1      1953    8    0    1
 -2       950       951      1018      3714      3921      3922
 -1      1954    8    0    1
 -2       951       952      1019      3717      3923      3924
 -1      1955    8    0    1
 -2       951      1019      1018      3924      3925      3921
 -1      1956    8    0    1
 -2       952       953      1020      3720      3926      3927
 -1      1957    8    0    1
 -2       952      1020      1019      3927      3928      3923
 -1      1958    8    0    1
 -2       953       954      1021      3723      3929      3930
 -1      1959    8    0    1
 -2       953      1021      1020      3930      3931      3926
 -1      1960    8    0    1
 -2       954       955      1022      3726      3932      3933
 -1      1961    8    0    1
 -2       954      1022      1021      3933      3934      3929
 -1      1962    8    0    1
 -2       955       956      1023      3729      3935      3936
 -1      1963    8    0    1
 -2       955      1023      1022      3936      3937      3932
 -1      1964    8    0    1
 -2       956       957      1024      3732      3938      3939
 -1      1965    8    0    1
 -2       956      1024      1023      3939      3940      3935
 -1      1966    8    0    1
 -2       957       958      1025      3735      3941      3942
 -1      1967    8    0    1
 -2       957      1025      1024      3942      3943      3938
 -1      1968    8    0    1
 -2       958       959      1026      3738      3944      3945
 -1      1969    8    0    1
 -2       958      1026      1025      3945      3946      3941
 -1      1970    8    0    1
 -2       959       960      1027      3741      3947      3948
 -1      1971    8    0    1
 -2       959      1027      1026      3948      3949      3944
 -1      1972    8    0    1
 -2       960       961      1028      3744      3950      3951
 -1      1973    8    0    1
 -2       960      1028      1027      3951      3952      3947
 -1      1974    8    0    1
 -2       961       962      1029      3747      3953      3954
 -1      1975    8    0    1
 -2       961      1029      1028      3954      3955      3950
 -1      1976    8    0    1
 -2       914       909      1030      3604      3956      3957
 -1      1977    8    0    1
 -2       909       982      1030      3815      3958      3956
 -1      1978    8    0    1
 -2       915       969      1031      3770      3959      3960
 -1      1979    8    0    1
 -2       915      1031       985      3960      3961      3824
 -1      1980    8    0    1
 -2       965       980      1032      3813      3962      3963
 -1      1981    8    0    1
 -2       910       904      1033      3590      3964      3965
 -1      1982    8    0    1
 -2       978       910      1033      3799      3965      3966
 -1      1983    8    0    1
 -2       904       975      1033      3790      3967      3964
 -1      1984    8    0    1
 -2       949       950      1034      3711      3968      3969
 -1      1985    8    0    1
 -2       949      1034      1016      3969      3970      3916
 -1      1986    8    0    1
 -2       946       945      1035      3700      3971      3972
 -1      1987    8    0    1
 -2       945      1013      1035      3908      3973      3971
 -1      1988    8    0    1
 -2       967       947      1036      3764      3974      3975
 -1      1989    8    0    1
 -2       967      1036      1013      3975      3976      3907
 -1      1990    8    0    1
 -2       983       914      1030      3816      3957      3977
 -1      1991    8    0    1
 -2       891       913       977      3599      3978      3798
 -1      1992    8    0    1
 -2       913       981       977      3811      3979      3978
 -1      1993    8    0    1
 -2       972       900      1037      3782      3980      3981
 -1      1994    8    0    1
 -2       970       964       984      3775      3982      3821
 -1      1995    8    0    1
 -2       965      1032      1038      3963      3983      3984
 -1      1996    8    0    1
 -2       965      1038       975      3984      3985      3791
 -1      1997    8    0    1
 -2       983      1030      1039      3977      3986      3987
 -1      1998    8    0    1
 -2       944       943      1040      3693      3988      3989
 -1      1999    8    0    1
 -2       950      1018      1034      3922      3990      3968
 -1      2000    8    0    1
 -2       868       973       963      3785      3991      3749
 -1      2001    8    0    1
 -2       911       912      1040      3788      3992      3993
 -1      2002    8    0    1
 -2       976       946      1041      3793      3994      3995
 -1      2003    8    0    1
 -2       946      1035      1041      3972      3996      3994
 -1      2004    8    0    1
 -2       947      1017      1036      3919      3997      3974
 -1      2005    8    0    1
 -2      1029       962      1042      3953      3998      3999
 -1      2006    8    0    1
 -2       962       977      1042      3797      4000      3998
 -1      2007    8    0    1
 -2      1030       982      1043      3958      4001      4002
 -1      2008    8    0    1
 -2      1030      1043      1039      4002      4003      3986
 -1      2009    8    0    1
 -2      1037       900       971      3980      3777      4004
 -1      2010    8    0    1
 -2       984       964      1044      3982      4005      4006
 -1      2011    8    0    1
 -2       964       979      1044      3804      4007      4005
 -1      2012    8    0    1
 -2       974       978      1045      3801      4008      4009
 -1      2013    8    0    1
 -2       969       963      1046      3779      4010      4011
 -1      2014    8    0    1
 -2       911      1040       971      3993      4012      3778
 -1      2015    8    0    1
 -2      1032       980      1047      3962      4013      4014
 -1      2016    8    0    1
 -2       980       976      1047      3808      4015      4013
 -1      2017    8    0    1
 -2      1014       974      1048      3911      4016      4017
 -1      2018    8    0    1
 -2       974      1045      1048      4009      4018      4016
 -1      2019    8    0    1
 -2       982       984      1044      3820      4006      4019
 -1      2020    8    0    1
 -2       982      1044      1043      4019      4020      4001
 -1      2021    8    0    1
 -2      1040       943      1012      3988      3905      4021
 -1      2022    8    0    1
 -2       969      1046      1031      4011      4022      3959
 -1      2023    8    0    1
 -2      1044       979      1049      4007      4023      4024
 -1      2024    8    0    1
 -2       979      1015      1049      3914      4025      4023
 -1      2025    8    0    1
 -2      1045       978      1050      4008      4026      4027
 -1      2026    8    0    1
 -2       978      1033      1050      3966      4028      4026
 -1      2027    8    0    1
 -2       987       986      1051      3831      4029      4030
 -1      2028    8    0    1
 -2       988       987      1052      3834      4031      4032
 -1      2029    8    0    1
 -2       987      1051      1052      4030      4033      4031
 -1      2030    8    0    1
 -2       989       988      1053      3837      4034      4035
 -1      2031    8    0    1
 -2       988      1052      1053      4032      4036      4034
 -1      2032    8    0    1
 -2       990       989      1054      3840      4037      4038
 -1      2033    8    0    1
 -2       989      1053      1054      4035      4039      4037
 -1      2034    8    0    1
 -2       991       990      1055      3843      4040      4041
 -1      2035    8    0    1
 -2       990      1054      1055      4038      4042      4040
 -1      2036    8    0    1
 -2       992       991      1056      3846      4043      4044
 -1      2037    8    0    1
 -2       991      1055      1056      4041      4045      4043
 -1      2038    8    0    1
 -2       993       992      1057      3849      4046      4047
 -1      2039    8    0    1
 -2       992      1056      1057      4044      4048      4046
 -1      2040    8    0    1
 -2       994       993      1058      3852      4049      4050
 -1      2041    8    0    1
 -2       993      1057      1058      4047      4051      4049
 -1      2042    8    0    1
 -2       995       994      1059      3855      4052      4053
 -1      2043    8    0    1
 -2       994      1058      1059      4050      4054      4052
 -1      2044    8    0    1
 -2       996       995      1060      3858      4055      4056
 -1      2045    8    0    1
 -2       995      1059      1060      4053      4057      4055
 -1      2046    8    0    1
 -2       997       996      1061      3861      4058      4059
 -1      2047    8    0    1
 -2       996      1060      1061      4056      4060      4058
 -1      2048    8    0    1
 -2       998       997      1062      3864      4061      4062
 -1      2049    8    0    1
 -2       997      1061      1062      4059      4063      4061
 -1      2050    8    0    1
 -2       999       998      1063      3867      4064      4065
 -1      2051    8    0    1
 -2       998      1062      1063      4062      4066      4064
 -1      2052    8    0    1
 -2      1000       999      1064      3870      4067      4068
 -1      2053    8    0    1
 -2       999      1063      1064      4065      4069      4067
 -1      2054    8    0    1
 -2      1001      1000      1065      3873      4070      4071
 -1      2055    8    0    1
 -2      1000      1064      1065      4068      4072      4070
 -1      2056    8    0    1
 -2      1002      1001      1066      3876      4073      4074
 -1      2057    8    0    1
 -2      1001      1065      1066      4071      4075      4073
 -1      2058    8    0    1
 -2      1003      1002      1067      3879      4076      4077
 -1      2059    8    0    1
 -2      1002      1066      1067      4074      4078      4076
 -1      2060    8    0    1
 -2      1004      1003      1068      3882      4079      4080
 -1      2061    8    0    1
 -2      1003      1067      1068      4077      4081      4079
 -1      2062    8    0    1
 -2      1005      1004      1069      3885      4082      4083
 -1      2063    8    0    1
 -2      1004      1068      1069      4080      4084      4082
 -1      2064    8    0    1
 -2      1006      1005      1070      3888      4085      4086
 -1      2065    8    0    1
 -2      1005      1069      1070      4083      4087      4085
 -1      2066    8    0    1
 -2      1007      1006      1071      3891      4088      4089
 -1      2067    8    0    1
 -2      1006      1070      1071      4086      4090      4088
 -1      2068    8    0    1
 -2      1008      1007      1072      3894      4091      4092
 -1      2069    8    0    1
 -2      1007      1071      1072      4089      4093      4091
 -1      2070    8    0    1
 -2      1009      1008      1073      3897      4094      4095
 -1      2071    8    0    1
 -2      1008      1072      1073      4092      4096      4094
 -1      2072    8    0    1
 -2      1010      1009      1074      3900      4097      4098
 -1      2073    8    0    1
 -2      1009      1073      1074      4095      4099      4097
 -1      2074    8    0    1
 -2      1011      1010      1075      3903      4100      4101
 -1      2075    8    0    1
 -2      1010      1074      1075      4098      4102      4100
 -1      2076    8    0    1
 -2      1012      1011      1076      3906      4103      4104
 -1      2077    8    0    1
 -2      1011      1075      1076      4101      4105      4103
 -1      2078    8    0    1
 -2      1034      1018      1077      3990      4106      4107
 -1      2079    8    0    1
 -2       983      1039      1046      3987      4108      4109
 -1      2080    8    0    1
 -2      1017      1016      1078      3920      4110      4111
 -1      2081    8    0    1
 -2       977       981      1042      3979      4112      4000
 -1      2082    8    0    1
 -2      1019      1020      1079      3928      4113      4114
 -1      2083    8    0    1
 -2      1018      1019      1080      3925      4115      4116
 -1      2084    8    0    1
 -2      1077      1018      1080      4106      4116      4117
 -1      2085    8    0    1
 -2      1019      1079      1080      4114      4118      4115
 -1      2086    8    0    1
 -2      1021      1022      1081      3934      4119      4120
 -1      2087    8    0    1
 -2      1022      1023      1082      3937      4121      4122
 -1      2088    8    0    1
 -2      1022      1082      1081      4122      4123      4119
 -1      2089    8    0    1
 -2      1023      1024      1083      3940      4124      4125
 -1      2090    8    0    1
 -2      1023      1083      1082      4125      4126      4121
 -1      2091    8    0    1
 -2      1024      1025      1084      3943      4127      4128
 -1      2092    8    0    1
 -2      1024      1084      1083      4128      4129      4124
 -1      2093    8    0    1
 -2      1025      1026      1085      3946      4130      4131
 -1      2094    8    0    1
 -2      1025      1085      1084      4131      4132      4127
 -1      2095    8    0    1
 -2      1026      1027      1086      3949      4133      4134
 -1      2096    8    0    1
 -2      1026      1086      1085      4134      4135      4130
 -1      2097    8    0    1
 -2      1027      1028      1087      3952      4136      4137
 -1      2098    8    0    1
 -2      1027      1087      1086      4137      4138      4133
 -1      2099    8    0    1
 -2      1028      1029      1088      3955      4139      4140
 -1      2100    8    0    1
 -2      1028      1088      1087      4140      4141      4136
 -1      2101    8    0    1
 -2       972      1037      1089      3981      4142      4143
 -1      2102    8    0    1
 -2      1046       963       983      4010      4144      4109
 -1      2103    8    0    1
 -2       971      1040      1090      4012      4145      4146
 -1      2104    8    0    1
 -2      1037       971      1090      4004      4146      4147
 -1      2105    8    0    1
 -2      1040      1012      1090      4021      4148      4145
 -1      2106    8    0    1
 -2      1039      1043      1091      4003      4149      4150
 -1      2107    8    0    1
 -2      1036      1017      1092      3997      4151      4152
 -1      2108    8    0    1
 -2      1017      1078      1092      4111      4153      4151
 -1      2109    8    0    1
 -2       981       972      1042      3812      4154      4112
 -1      2110    8    0    1
 -2      1013      1036      1093      3976      4155      4156
 -1      2111    8    0    1
 -2      1036      1092      1093      4152      4157      4155
 -1      2112    8    0    1
 -2      1020      1021      1094      3931      4158      4159
 -1      2113    8    0    1
 -2      1021      1081      1094      4120      4160      4158
 -1      2114    8    0    1
 -2      1035      1013      1095      3973      4161      4162
 -1      2115    8    0    1
 -2      1013      1093      1095      4156      4163      4161
 -1      2116    8    0    1
 -2      1043      1044      1096      4020      4164      4165
 -1      2117    8    0    1
 -2      1091      1043      1096      4149      4165      4166
 -1      2118    8    0    1
 -2      1044      1049      1096      4024      4167      4164
 -1      2119    8    0    1
 -2       986       985      1097      3828      4168      4169
 -1      2120    8    0    1
 -2       986      1097      1051      4169      4170      4029
 -1      2121    8    0    1
 -2       985      1031      1098      3961      4171      4172
 -1      2122    8    0    1
 -2       985      1098      1097      4172      4173      4168
 -1      2123    8    0    1
 -2      1046      1039      1031      4108      4174      4022
 -1      2124    8    0    1
 -2      1016      1034      1099      3970      4175      4176
 -1      2125    8    0    1
 -2      1034      1077      1099      4107      4177      4175
 -1      2126    8    0    1
 -2      1016      1099      1078      4176      4178      4110
 -1      2127    8    0    1
 -2      1038      1032      1100      3983      4179      4180
 -1      2128    8    0    1
 -2      1031      1039      1091      4174      4150      4181
 -1      2129    8    0    1
 -2      1012      1076      1090      4104      4182      4148
 -1      2130    8    0    1
 -2       944      1040       912      3989      3992      4183
 -1      2131    8    0    1
 -2      1037      1090      1101      4147      4184      4185
 -1      2132    8    0    1
 -2      1089      1037      1101      4142      4185      4186
 -1      2133    8    0    1
 -2      1090      1076      1101      4182      4187      4184
 -1      2134    8    0    1
 -2      1041      1035      1102      3996      4188      4189
 -1      2135    8    0    1
 -2      1035      1095      1102      4162      4190      4188
 -1      2136    8    0    1
 -2      1015      1014      1103      3915      4191      4192
 -1      2137    8    0    1
 -2      1049      1015      1103      4025      4192      4193
 -1      2138    8    0    1
 -2      1014      1048      1103      4017      4194      4191
 -1      2139    8    0    1
 -2       976      1041      1047      3995      4195      4015
 -1      2140    8    0    1
 -2      1079      1020      1094      4113      4159      4196
 -1      2141    8    0    1
 -2      1088      1029      1104      4139      4197      4198
 -1      2142    8    0    1
 -2      1029      1042      1104      3999      4199      4197
 -1      2143    8    0    1
 -2       983       963       973      4144      3991      3823
 -1      2144    8    0    1
 -2      1100      1032      1105      4179      4200      4201
 -1      2145    8    0    1
 -2      1032      1047      1105      4014      4202      4200
 -1      2146    8    0    1
 -2      1031      1091      1098      4181      4203      4171
 -1      2147    8    0    1
 -2      1033       975      1106      3967      4204      4205
 -1      2148    8    0    1
 -2      1033      1106      1050      4205      4206      4028
 -1      2149    8    0    1
 -2      1045      1050      1107      4027      4207      4208
 -1      2150    8    0    1
 -2      1048      1045      1108      4018      4209      4210
 -1      2151    8    0    1
 -2      1045      1107      1108      4208      4211      4209
 -1      2152    8    0    1
 -2       975      1038      1106      3985      4212      4204
 -1      2153    8    0    1
 -2       898       944       912      3792      4183      3596
 -1      2154    8    0    1
 -2      1106      1038      1109      4212      4213      4214
 -1      2155    8    0    1
 -2      1038      1100      1109      4180      4215      4213
 -1      2156    8    0    1
 -2      1097      1098      1110      4173      4216      4217
 -1      2157    8    0    1
 -2      1053      1052      1111      4036      4218      4219
 -1      2158    8    0    1
 -2      1054      1053      1109      4039      4220      4221
 -1      2159    8    0    1
 -2      1055      1054      1100      4042      4222      4223
 -1      2160    8    0    1
 -2      1056      1055      1105      4045      4224      4225
 -1      2161    8    0    1
 -2      1058      1057      1112      4051      4226      4227
 -1      2162    8    0    1
 -2      1059      1058      1095      4054      4228      4229
 -1      2163    8    0    1
 -2      1060      1059      1093      4057      4230      4231
 -1      2164    8    0    1
 -2      1061      1060      1092      4060      4232      4233
 -1      2165    8    0    1
 -2      1062      1061      1078      4063      4234      4235
 -1      2166    8    0    1
 -2      1063      1062      1099      4066      4236      4237
 -1      2167    8    0    1
 -2      1064      1063      1077      4069      4238      4239
 -1      2168    8    0    1
 -2      1065      1064      1080      4072      4240      4241
 -1      2169    8    0    1
 -2      1066      1065      1079      4075      4242      4243
 -1      2170    8    0    1
 -2      1067      1066      1094      4078      4244      4245
 -1      2171    8    0    1
 -2      1068      1067      1081      4081      4246      4247
 -1      2172    8    0    1
 -2      1069      1068      1082      4084      4248      4249
 -1      2173    8    0    1
 -2      1070      1069      1083      4087      4250      4251
 -1      2174    8    0    1
 -2      1071      1070      1084      4090      4252      4253
 -1      2175    8    0    1
 -2      1072      1071      1085      4093      4254      4255
 -1      2176    8    0    1
 -2      1073      1072      1086      4096      4256      4257
 -1      2177    8    0    1
 -2      1074      1073      1087      4099      4258      4259
 -1      2178    8    0    1
 -2      1075      1074      1088      4102      4260      4261
 -1      2179    8    0    1
 -2      1076      1075      1104      4105      4262      4263
 -1      2180    8    0    1
 -2      1082      1083      1069      4126      4250      4249
 -1      2181    8    0    1
 -2      1077      1063      1099      4238      4237      4177
 -1      2182    8    0    1
 -2      1099      1062      1078      4236      4235      4178
 -1      2183    8    0    1
 -2      1092      1060      1093      4232      4231      4157
 -1      2184    8    0    1
 -2      1042       972      1089      4154      4143      4264
 -1      2185    8    0    1
 -2      1088      1074      1087      4260      4259      4141
 -1      2186    8    0    1
 -2      1084      1070      1083      4252      4251      4129
 -1      2187    8    0    1
 -2      1081      1082      1068      4123      4248      4247
 -1      2188    8    0    1
 -2      1084      1085      1071      4132      4254      4253
 -1      2189    8    0    1
 -2      1085      1086      1072      4135      4256      4255
 -1      2190    8    0    1
 -2      1086      1087      1073      4138      4258      4257
 -1      2191    8    0    1
 -2      1093      1059      1095      4230      4229      4163
 -1      2192    8    0    1
 -2      1078      1061      1092      4234      4233      4153
 -1      2193    8    0    1
 -2      1051      1097      1108      4170      4265      4266
 -1      2194    8    0    1
 -2      1107      1050      1111      4207      4267      4268
 -1      2195    8    0    1
 -2      1079      1094      1066      4196      4244      4243
 -1      2196    8    0    1
 -2      1047      1041      1113      4195      4269      4270
 -1      2197    8    0    1
 -2      1041      1102      1113      4189      4271      4269
 -1      2198    8    0    1
 -2      1042      1089      1104      4264      4272      4199
 -1      2199    8    0    1
 -2      1100      1054      1109      4222      4221      4215
 -1      2200    8    0    1
 -2      1094      1081      1067      4160      4246      4245
 -1      2201    8    0    1
 -2      1050      1106      1111      4206      4273      4267
 -1      2202    8    0    1
 -2      1098      1091      1110      4203      4274      4216
 -1      2203    8    0    1
 -2      1079      1065      1080      4242      4241      4118
 -1      2204    8    0    1
 -2      1055      1100      1105      4223      4201      4224
 -1      2205    8    0    1
 -2      1064      1077      1080      4239      4117      4240
 -1      2206    8    0    1
 -2      1075      1088      1104      4261      4198      4262
 -1      2207    8    0    1
 -2      1108      1107      1051      4211      4275      4266
 -1      2208    8    0    1
 -2      1051      1107      1052      4275      4276      4033
 -1      2209    8    0    1
 -2      1053      1111      1109      4219      4277      4220
 -1      2210    8    0    1
 -2      1057      1056      1114      4048      4278      4279
 -1      2211    8    0    1
 -2      1108      1097      1110      4265      4217      4280
 -1      2212    8    0    1
 -2      1047      1113      1105      4270      4281      4202
 -1      2213    8    0    1
 -2      1111      1106      1109      4273      4214      4277
 -1      2214    8    0    1
 -2      1091      1096      1110      4166      4282      4274
 -1      2215    8    0    1
 -2      1049      1103      1096      4193      4283      4167
 -1      2216    8    0    1
 -2      1112      1057      1114      4226      4279      4284
 -1      2217    8    0    1
 -2      1107      1111      1052      4268      4218      4276
 -1      2218    8    0    1
 -2      1048      1108      1110      4210      4280      4285
 -1      2219    8    0    1
 -2      1095      1058      1112      4228      4227      4286
 -1      2220    8    0    1
 -2      1048      1110      1103      4285      4287      4194
 -1      2221    8    0    1
 -2      1114      1056      1105      4278      4225      4288
 -1      2222    8    0    1
 -2      1103      1110      1096      4287      4282      4283
 -1      2223    8    0    1
 -2      1114      1105      1113      4288      4281      4289
 -1      2224    8    0    1
 -2      1089      1101      1104      4186      4290      4272
 -1      2225    8    0    1
 -2      1114      1113      1112      4289      4291      4284
 -1      2226    8    0    1
 -2      1095      1112      1102      4286      4292      4190
 -1      2227    8    0    1
 -2      1076      1104      1101      4263      4290      4187
 -1      2228    8    0    1
 -2      1112      1113      1102      4291      4271      4292
 -3
    1PSTEP                         1           1           1          
  100CL  101 1.000000000        4292                     0    1           1
 -4  DISP        4    1
 -5  D1          1    2    1    0
 -5  D2          1    2    2    0
 -5  D3          1    2    3    0
 -5  ALL         1    2    0    0    1ALL
 -1         1 1.15808E-02-3.92996E-04-8.06363E-14
 -1         2 1.55528E-02 5.66000E-04-9.17524E-14
 -1         3 1.47628E-02 6.06651E-04-1.03513E-13
 -1         4 1.40263E-02 1.44705E-04-1.09075E-13
 -1         5 0.00000E+00 0.00000E+00 0.00000E+00
 -1         6 0.00000E+00 0.00000E+00 0.00000E+00
 -1         7 0.00000E+00 0.00000E+00 0.00000E+00
 -1         8 0.00000E+00 0.00000E+00 0.00000E+00
 -1         9 0.00000E+00 0.00000E+00 0.00000E+00
 -1        10 0.00000E+00 0.00000E+00 0.00000E+00
 -1        11 0.00000E+00 0.00000E+00 0.00000E+00
 -1        12 0.00000E+00 0.00000E+00 0.00000E+00
 -1        13 0.00000E+00 0.00000E+00 0.00000E+00
 -1        14 0.00000E+00 0.00000E+00 0.00000E+00
 -1        15 0.00000E+00 0.00000E+00 0.00000E+00
 -1        16 0.00000E+00 0.00000E+00 0.00000E+00
 -1        17 0.00000E+00 0.00000E+00 0.00000E+00
 -1        18 0.00000E+00 0.00000E+00 0.00000E+00
 -1        19 0.00000E+00 0.00000E+00 0.00000E+00
 -1        20 0.00000E+00 0.00000E+00 0.00000E+00
 -1        21 0.00000E+00 0.00000E+00 0.00000E+00
 -1        22 0.00000E+00 0.00000E+00 0.00000E+00
 -1        23 4.11416E-04-2.60736E-04 2.82130E-17
 -1        24 7.03442E-04-4.00982E-04-7.27737E-17
 -1        25 9.73560E-04-4.98363E-04-2.99030E-16
 -1        26 1.23811E-03-5.67121E-04-6.48153E-16
 -1        27 1.50171E-03-6.16403E-04-1.11604E-15
 -1        28 1.76645E-03-6.51597E-04-1.69999E-15
 -1        29 2.03329E-03-6.76416E-04-2.39680E-15
 -1        30 2.30259E-03-6.93562E-04-3.20721E-15
 -1        31 2.57441E-03-7.05061E-04-4.12954E-15
 -1        32 2.84861E-03-7.12447E-04-5.16184E-15
 -1        33 3.12494E-03-7.16881E-04-6.29960E-15
 -1        34 3.40314E-03-7.19234E-04-7.53929E-15
 -1        35 3.68290E-03-7.20149E-04-8.88306E-15
 -1        36 3.96397E-03-7.20090E-04-1.03227E-14
 -1        37 4.24607E-03-7.19380E-04-1.18566E-14
 -1        38 4.52900E-03-7.18235E-04-1.34867E-14
 -1        39 4.81258E-03-7.16785E-04-1.52115E-14
 -1        40 5.09666E-03-7.15093E-04-1.70283E-14
 -1        41 5.38114E-03-7.13177E-04-1.89398E-14
 -1        42 5.66597E-03-7.11015E-04-2.09466E-14
 -1        43 5.95113E-03-7.08562E-04-2.30478E-14
 -1        44 6.23666E-03-7.05757E-04-2.52435E-14
 -1        45 6.52266E-03-7.02537E-04-2.75368E-14
 -1        46 6.80927E-03-6.98853E-04-2.99209E-14
 -1        47 7.09674E-03-6.94683E-04-3.23827E-14
 -1        48 7.38536E-03-6.90062E-04-3.49159E-14
 -1        49 7.67555E-03-6.85113E-04-3.75209E-14
 -1        50 7.96779E-03-6.80087E-04-4.02027E-14
 -1        51 8.26265E-03-6.75416E-04-4.29554E-14
 -1        52 8.56076E-03-6.71770E-04-4.57867E-14
 -1        53 8.86273E-03-6.70121E-04-4.86870E-14
 -1        54 9.16907E-03-6.71789E-04-5.16430E-14
 -1        55 9.48000E-03-6.78454E-04-5.46579E-14
 -1        56 9.79519E-03-6.92081E-04-5.77170E-14
 -1        57 1.01135E-02-7.14708E-04-6.08248E-14
 -1        58 1.04327E-02-7.47999E-04-6.39587E-14
 -1        59 1.07489E-02-7.92519E-04-6.71080E-14
 -1        60 1.10571E-02-8.46729E-04-7.02595E-14
 -1        61 1.13512E-02-9.05919E-04-7.34131E-14
 -1        62 1.16260E-02-9.61539E-04-7.65814E-14
 -1        63 1.18781E-02-1.00160E-03-7.97850E-14
 -1        64 1.21086E-02-1.01268E-03-8.30196E-14
 -1        65 1.23234E-02-9.83250E-04-8.62903E-14
 -1        66 1.25320E-02-9.07126E-04-8.95898E-14
 -1        67 1.27449E-02-7.85300E-04-9.29050E-14
 -1        68 1.29707E-02-6.25288E-04-9.62149E-14
 -1        69 1.32143E-02-4.38725E-04-9.95055E-14
 -1        70 1.34767E-02-2.38838E-04-1.02762E-13
 -1        71 1.37550E-02-3.83039E-05-1.05996E-13
 -1        72 4.13859E-04 2.61441E-04 5.98920E-17
 -1        73 7.03263E-04 4.03685E-04 1.23091E-17
 -1        74 9.74095E-04 5.00134E-04-1.42017E-16
 -1        75 1.23894E-03 5.68832E-04-4.06796E-16
 -1        76 1.50266E-03 6.18163E-04-7.83255E-16
 -1        77 1.76747E-03 6.53448E-04-1.27353E-15
 -1        78 2.03435E-03 6.78378E-04-1.87666E-15
 -1        79 2.30368E-03 6.95646E-04-2.59234E-15
 -1        80 2.57551E-03 7.07273E-04-3.41795E-15
 -1        81 2.84972E-03 7.14790E-04-4.35424E-15
 -1        82 3.12606E-03 7.19357E-04-5.39593E-15
 -1        83 3.40426E-03 7.21845E-04-6.53690E-15
 -1        84 3.68402E-03 7.22895E-04-7.78137E-15
 -1        85 3.96509E-03 7.22972E-04-9.13006E-15
 -1        86 4.24719E-03 7.22398E-04-1.05816E-14
 -1        87 4.53011E-03 7.21388E-04-1.21338E-14
 -1        88 4.81367E-03 7.20070E-04-1.37797E-14
 -1        89 5.09773E-03 7.18507E-04-1.55191E-14
 -1        90 5.38219E-03 7.16712E-04-1.73513E-14
 -1        91 5.66698E-03 7.14655E-04-1.92730E-14
 -1        92 5.95208E-03 7.12281E-04-2.12836E-14
 -1        93 6.23753E-03 7.09511E-04-2.33804E-14
 -1        94 6.52343E-03 7.06253E-04-2.55617E-14
 -1        95 6.80993E-03 7.02414E-04-2.78191E-14
 -1        96 7.09729E-03 6.97910E-04-3.01479E-14
 -1        97 7.38587E-03 6.92685E-04-3.25444E-14
 -1        98 7.67616E-03 6.86740E-04-3.50054E-14
 -1        99 7.96886E-03 6.80169E-04-3.75202E-14
 -1       100 8.26486E-03 6.73220E-04-4.01007E-14
 -1       101 8.56537E-03 6.66389E-04-4.27516E-14
 -1       102 8.87195E-03 6.60549E-04-4.54696E-14
 -1       103 9.18657E-03 6.57156E-04-4.82452E-14
 -1       104 9.51166E-03 6.58541E-04-5.10787E-14
 -1       105 9.85005E-03 6.68319E-04-5.39661E-14
 -1       106 1.02047E-02 6.91891E-04-5.69108E-14
 -1       107 1.05778E-02 7.36927E-04-5.99064E-14
 -1       108 1.09695E-02 8.13424E-04-6.29495E-14
 -1       109 1.13750E-02 9.32429E-04-6.60383E-14
 -1       110 1.17819E-02 1.10189E-03-6.91666E-14
 -1       111 1.21679E-02 1.31832E-03-7.23221E-14
 -1       112 1.25056E-02 1.55625E-03-7.54773E-14
 -1       113 1.27769E-02 1.76440E-03-7.86244E-14
 -1       114 1.29896E-02 1.88183E-03-8.17669E-14
 -1       115 1.31799E-02 1.87211E-03-8.48972E-14
 -1       116 1.33895E-02 1.74551E-03-8.79993E-14
 -1       117 1.36248E-02 1.55724E-03-9.09485E-14
 -1       118 1.39028E-02 1.33040E-03-9.40899E-14
 -1       119 1.41919E-02 1.09605E-03-9.72357E-14
 -1       120 1.44784E-02 8.55494E-04-1.00372E-13
 -1       121 1.50145E-02 5.19787E-04-1.03922E-13
 -1       122 1.52735E-02 4.37732E-04-1.04331E-13
 -1       123 1.55495E-02 3.75934E-04-1.04763E-13
 -1       124 1.58292E-02 3.58945E-04-1.05175E-13
 -1       125 1.60746E-02 4.07915E-04-1.05528E-13
 -1       126 1.62288E-02 5.22846E-04-1.05863E-13
 -1       127 1.62468E-02 6.61636E-04-1.06167E-13
 -1       128 1.61196E-02 7.94758E-04-1.06477E-13
 -1       129 1.58757E-02 8.66697E-04-1.06791E-13
 -1       130 1.55757E-02 8.60193E-04-1.07092E-13
 -1       131 1.52747E-02 7.87492E-04-1.07385E-13
 -1       132 1.50042E-02 6.75208E-04-1.07677E-13
 -1       133 1.47725E-02 5.49399E-04-1.07973E-13
 -1       134 1.45727E-02 4.28375E-04-1.08256E-13
 -1       135 1.43909E-02 3.21524E-04-1.08523E-13
 -1       136 1.42120E-02 2.29244E-04-1.08796E-13
 -1       137 1.55076E-02 7.76025E-04-9.14534E-14
 -1       138 1.53375E-02 9.88425E-04-9.08433E-14
 -1       139 1.50593E-02 1.18057E-03-8.99587E-14
 -1       140 1.47051E-02 1.33959E-03-8.88831E-14
 -1       141 1.42635E-02 1.46931E-03-8.75664E-14
 -1       142 1.37461E-02 1.55503E-03-8.60283E-14
 -1       143 1.32150E-02 1.57850E-03-8.44584E-14
 -1       144 1.26834E-02 1.54061E-03-8.28885E-14
 -1       145 1.21939E-02 1.45052E-03-8.14508E-14
 -1       146 1.17286E-02 1.31050E-03-8.00704E-14
 -1       147 1.13566E-02 1.15272E-03-7.89691E-14
 -1       148 1.10426E-02 9.72737E-04-7.80522E-14
 -1       149 1.08000E-02 7.78262E-04-7.73744E-14
 -1       150 1.06423E-02 5.77906E-04-7.69724E-14
 -1       151 1.05781E-02 3.88370E-04-7.68743E-14
 -1       152 1.06037E-02 1.96419E-04-7.70703E-14
 -1       153 1.07228E-02 1.79121E-05-7.75665E-14
 -1       154 1.09260E-02-1.40608E-04-7.83348E-14
 -1       155 1.12189E-02-2.81946E-04-7.93927E-14
 -1       156 1.20097E-02-4.72853E-04-8.20672E-14
 -1       157 1.25177E-02-5.14475E-04-8.37071E-14
 -1       158 1.30372E-02-5.09056E-04-8.53227E-14
 -1       159 1.35514E-02-4.60241E-04-8.68646E-14
 -1       160 1.40891E-02-3.60092E-04-8.84050E-14
 -1       161 1.45427E-02-2.30855E-04-8.96233E-14
 -1       162 1.49435E-02-6.62308E-05-9.06242E-14
 -1       163 1.52530E-02 1.20756E-04-9.13180E-14
 -1       164 1.54650E-02 3.32509E-04-9.17169E-14
 -1       165 2.40427E-04-1.25503E-04-2.64342E-17
 -1       166 2.25282E-04-9.45991E-05-4.31987E-17
 -1       167 2.19531E-04-7.27633E-05-5.19570E-17
 -1       168 2.16710E-04-5.50867E-05-5.65479E-17
 -1       169 2.15209E-04-3.99507E-05-5.83165E-17
 -1       170 2.14369E-04-2.59036E-05-5.90077E-17
 -1       171 2.13947E-04-1.26381E-05-5.86181E-17
 -1       172 2.13824E-04 2.72757E-07-5.79032E-17
 -1       173 2.13967E-04 1.31961E-05-5.63379E-17
 -1       174 2.14411E-04 2.65016E-05-5.40475E-17
 -1       175 2.15259E-04 4.03774E-05-5.08728E-17
 -1       176 2.16815E-04 5.58949E-05-4.57838E-17
 -1       177 2.19678E-04 7.37970E-05-3.79166E-17
 -1       178 2.25459E-04 9.60008E-05-2.53161E-17
 -1       179 2.39357E-04 1.27584E-04-4.65868E-18
 -1       180 2.97738E-04 1.85494E-04 1.78995E-17
 -1       181 4.68676E-04-2.63540E-04-7.10864E-17
 -1       182 7.66855E-04-3.82132E-04-2.58088E-16
 -1       183 1.05075E-03-4.65018E-04-5.61485E-16
 -1       184 1.32818E-03-5.23807E-04-9.80823E-16
 -1       185 1.60284E-03-5.65525E-04-1.51459E-15
 -1       186 1.87678E-03-5.94860E-04-2.16069E-15
 -1       187 2.15115E-03-6.15121E-04-2.91806E-15
 -1       188 2.42654E-03-6.28738E-04-3.78539E-15
 -1       189 2.70320E-03-6.37529E-04-4.76170E-15
 -1       190 2.98121E-03-6.42862E-04-5.84466E-15
 -1       191 3.26050E-03-6.45760E-04-7.03060E-15
 -1       192 3.54096E-03-6.46981E-04-8.31753E-15
 -1       193 3.82244E-03-6.47071E-04-9.70403E-15
 -1       194 4.10478E-03-6.46417E-04-1.11853E-14
 -1       195 4.38785E-03-6.45279E-04-1.27628E-14
 -1       196 4.67151E-03-6.43818E-04-1.44358E-14
 -1       197 4.95565E-03-6.42122E-04-1.62005E-14
 -1       198 5.24020E-03-6.40221E-04-1.80566E-14
 -1       199 5.52509E-03-6.38099E-04-2.00097E-14
 -1       200 5.81033E-03-6.35714E-04-2.20545E-14
 -1       201 6.09592E-03-6.32998E-04-2.41942E-14
 -1       202 6.38192E-03-6.29876E-04-2.64290E-14
 -1       203 6.66845E-03-6.26275E-04-2.87572E-14
 -1       204 6.95566E-03-6.22139E-04-3.11681E-14
 -1       205 7.24377E-03-6.17456E-04-3.36537E-14
 -1       206 7.53306E-03-6.12277E-04-3.62133E-14
 -1       207 7.82386E-03-6.06765E-04-3.88463E-14
 -1       208 8.11657E-03-6.01236E-04-4.15555E-14
 -1       209 8.41162E-03-5.96223E-04-4.43378E-14
 -1       210 8.70944E-03-5.92540E-04-4.71920E-14
 -1       211 9.01042E-03-5.91355E-04-5.01057E-14
 -1       212 9.31477E-03-5.94228E-04-5.30773E-14
 -1       213 9.62244E-03-6.03110E-04-5.60989E-14
 -1       214 9.93292E-03-6.20218E-04-5.91664E-14
 -1       215 1.02450E-02-6.47726E-04-6.22752E-14
 -1       216 1.05568E-02-6.87171E-04-6.54077E-14
 -1       217 1.08654E-02-7.38523E-04-6.85487E-14
 -1       218 1.11673E-02-7.98998E-04-7.16967E-14
 -1       219 1.14586E-02-8.61948E-04-7.48509E-14
 -1       220 1.17365E-02-9.16480E-04-7.80319E-14
 -1       221 1.20001E-02-9.48603E-04-8.12430E-14
 -1       222 1.22512E-02-9.44227E-04-8.44866E-14
 -1       223 1.24947E-02-8.93244E-04-8.77579E-14
 -1       224 1.27368E-02-7.92770E-04-9.10507E-14
 -1       225 1.29835E-02-6.47795E-04-9.43475E-14
 -1       226 1.32387E-02-4.69121E-04-9.76355E-14
 -1       227 1.35040E-02-2.70262E-04-1.00900E-13
 -1       228 1.37789E-02-6.51779E-05-1.04141E-13
 -1       229 6.04629E-04 3.31025E-04-4.93007E-17
 -1       230 8.93763E-04 4.32640E-04-2.17220E-16
 -1       231 1.17270E-03 5.04395E-04-4.91249E-16
 -1       232 1.44709E-03 5.55501E-04-8.73833E-16
 -1       233 1.71997E-03 5.91782E-04-1.36715E-15
 -1       234 1.99293E-03 6.17222E-04-1.97206E-15
 -1       235 2.26682E-03 6.34697E-04-2.68893E-15
 -1       236 2.54205E-03 6.46346E-04-3.51468E-15
 -1       237 2.81875E-03 6.53778E-04-4.44744E-15
 -1       238 3.09690E-03 6.58204E-04-5.48393E-15
 -1       239 3.37639E-03 6.60527E-04-6.62216E-15
 -1       240 3.65706E-03 6.61411E-04-7.86287E-15
 -1       241 3.93875E-03 6.61333E-04-9.20573E-15
 -1       242 4.22128E-03 6.60624E-04-1.06494E-14
 -1       243 4.50451E-03 6.59500E-04-1.21912E-14
 -1       244 4.78830E-03 6.58091E-04-1.38283E-14
 -1       245 5.07255E-03 6.56457E-04-1.55593E-14
 -1       246 5.35718E-03 6.54607E-04-1.73820E-14
 -1       247 5.64215E-03 6.52508E-04-1.92951E-14
 -1       248 5.92746E-03 6.50095E-04-2.12991E-14
 -1       249 6.21314E-03 6.47281E-04-2.33925E-14
 -1       250 6.49928E-03 6.43963E-04-2.55673E-14
 -1       251 6.78602E-03 6.40032E-04-2.78157E-14
 -1       252 7.07359E-03 6.35383E-04-3.01366E-14
 -1       253 7.36229E-03 6.29934E-04-3.25293E-14
 -1       254 7.65253E-03 6.23648E-04-3.49877E-14
 -1       255 7.94486E-03 6.16570E-04-3.75067E-14
 -1       256 8.24002E-03 6.08885E-04-4.00863E-14
 -1       257 8.53891E-03 6.01000E-04-4.27376E-14
 -1       258 8.84271E-03 5.93677E-04-4.54558E-14
 -1       259 9.15283E-03 5.88227E-04-4.82326E-14
 -1       260 9.47096E-03 5.86805E-04-5.10673E-14
 -1       261 9.79898E-03 5.92830E-04-5.39599E-14
 -1       262 1.01387E-02 6.11529E-04-5.69077E-14
 -1       263 1.04916E-02 6.50530E-04-5.99036E-14
 -1       264 1.08576E-02 7.20138E-04-6.29435E-14
 -1       265 1.12343E-02 8.32446E-04-6.60253E-14
 -1       266 1.16151E-02 9.97639E-04-6.91453E-14
 -1       267 1.19883E-02 1.21564E-03-7.22937E-14
 -1       268 1.23386E-02 1.46401E-03-7.54559E-14
 -1       269 1.26540E-02 1.69070E-03-7.86125E-14
 -1       270 1.29354E-02 1.82749E-03-8.17606E-14
 -1       271 1.32002E-02 1.82999E-03-8.48926E-14
 -1       272 1.34704E-02 1.70587E-03-8.80114E-14
 -1       273 1.37422E-02 1.51524E-03-9.09715E-14
 -1       274 1.40400E-02 1.28649E-03-9.41045E-14
 -1       275 1.43393E-02 1.05317E-03-9.72499E-14
 -1       276 1.46325E-02 8.15361E-04-1.00393E-13
 -1       277 1.48944E-02 6.96644E-04-1.01420E-13
 -1       278 1.51658E-02 6.21955E-04-1.01826E-13
 -1       279 1.54560E-02 5.65741E-04-1.02223E-13
 -1       280 1.57399E-02 5.41356E-04-1.02595E-13
 -1       281 1.59634E-02 5.56409E-04-1.02945E-13
 -1       282 1.60591E-02 5.98899E-04-1.03250E-13
 -1       283 1.60024E-02 6.50538E-04-1.03566E-13
 -1       284 1.57950E-02 6.78025E-04-1.03868E-13
 -1       285 1.54967E-02 6.62626E-04-1.04164E-13
 -1       286 1.51761E-02 6.04492E-04-1.04458E-13
 -1       287 1.48800E-02 5.15992E-04-1.04744E-13
 -1       288 1.46267E-02 4.12157E-04-1.05032E-13
 -1       289 1.44138E-02 3.05095E-04-1.05315E-13
 -1       290 1.42282E-02 2.02485E-04-1.05591E-13
 -1       291 1.40028E-02 6.55134E-05-1.04867E-13
 -1       292 1.55744E-02 6.30659E-04-9.28501E-14
 -1       293 1.54217E-02 7.51487E-04-9.23993E-14
 -1       294 1.51168E-02 9.11845E-04-9.15065E-14
 -1       295 1.47322E-02 1.11144E-03-9.02798E-14
 -1       296 1.42817E-02 1.31106E-03-8.89557E-14
 -1       297 1.38168E-02 1.51239E-03-8.72652E-14
 -1       298 1.33865E-02 1.63990E-03-8.53661E-14
 -1       299 1.29684E-02 1.65517E-03-8.35071E-14
 -1       300 1.25561E-02 1.55385E-03-8.17570E-14
 -1       301 1.21478E-02 1.36741E-03-8.00608E-14
 -1       302 1.17296E-02 1.14119E-03-7.86560E-14
 -1       303 1.13481E-02 9.18061E-04-7.74801E-14
 -1       304 1.10038E-02 7.15064E-04-7.65485E-14
 -1       305 1.07347E-02 5.47480E-04-7.59191E-14
 -1       306 1.05788E-02 4.17653E-04-7.56322E-14
 -1       307 1.05494E-02 3.08358E-04-7.56950E-14
 -1       308 1.06523E-02 2.00575E-04-7.60242E-14
 -1       309 1.08736E-02 7.47057E-05-7.67725E-14
 -1       310 1.11854E-02-7.80038E-05-7.78454E-14
 -1       311 1.15557E-02-2.49993E-04-7.92044E-14
 -1       312 1.19617E-02-4.15452E-04-8.07152E-14
 -1       313 1.23641E-02-5.47889E-04-8.26108E-14
 -1       314 1.27820E-02-5.98046E-04-8.45458E-14
 -1       315 1.31993E-02-5.54807E-04-8.64045E-14
 -1       316 1.36332E-02-4.18200E-04-8.82959E-14
 -1       317 1.41183E-02-2.18416E-04-8.98372E-14
 -1       318 1.45760E-02-2.00720E-06-9.11352E-14
 -1       319 1.50008E-02 2.02555E-04-9.21224E-14
 -1       320 1.53416E-02 3.79516E-04-9.28403E-14
 -1       321 1.55547E-02 5.18270E-04-9.31784E-14
 -1       322 4.55315E-04-1.64713E-04-1.75847E-16
 -1       323 4.74298E-04-2.12955E-04-1.49129E-16
 -1       324 4.40431E-04-9.39859E-05-1.99354E-16
 -1       325 4.37455E-04-6.48886E-05-2.02888E-16
 -1       326 4.35824E-04-3.78914E-05-2.03711E-16
 -1       327 4.35110E-04-1.20127E-05-2.02278E-16
 -1       328 4.35142E-04 1.35311E-05-1.98843E-16
 -1       329 4.35923E-04 3.94678E-05-1.93489E-16
 -1       330 4.37598E-04 6.61168E-05-1.85504E-16
 -1       331 4.40667E-04 9.53863E-05-1.73899E-16
 -1       332 4.46070E-04 1.28296E-04-1.57335E-16
 -1       333 4.55921E-04 1.67276E-04-1.32784E-16
 -1       334 4.75930E-04 2.17023E-04-9.65990E-17
 -1       335 5.32068E-04 2.69954E-04-7.92213E-17
 -1       336 8.24581E-04 3.73485E-04-2.54361E-16
 -1       337 8.63355E-04-3.57380E-04-4.63466E-16
 -1       338 1.14974E-03-4.26141E-04-8.38254E-16
 -1       339 1.43256E-03-4.75329E-04-1.32479E-15
 -1       340 1.71331E-03-5.10094E-04-1.92177E-15
 -1       341 1.99313E-03-5.34237E-04-2.62870E-15
 -1       342 2.27277E-03-5.50585E-04-3.44399E-15
 -1       343 2.55270E-03-5.61261E-04-4.36610E-15
 -1       344 2.83318E-03-5.67861E-04-5.39449E-15
 -1       345 3.11431E-03-5.71583E-04-6.52719E-15
 -1       346 3.39614E-03-5.73314E-04-7.75982E-15
 -1       347 3.67861E-03-5.73702E-04-9.09163E-15
 -1       348 3.96168E-03-5.73209E-04-1.05212E-14
 -1       349 4.24527E-03-5.72149E-04-1.20464E-14
 -1       350 4.52930E-03-5.70725E-04-1.36677E-14
 -1       351 4.81371E-03-5.69053E-04-1.53809E-14
 -1       352 5.09844E-03-5.67185E-04-1.71843E-14
 -1       353 5.38347E-03-5.65121E-04-1.90799E-14
 -1       354 5.66877E-03-5.62823E-04-2.10716E-14
 -1       355 5.95435E-03-5.60228E-04-2.31566E-14
 -1       356 6.24024E-03-5.57255E-04-2.53345E-14
 -1       357 6.52652E-03-5.53818E-04-2.76069E-14
 -1       358 6.81327E-03-5.49841E-04-2.99676E-14
 -1       359 7.10064E-03-5.45271E-04-3.24041E-14
 -1       360 7.38880E-03-5.40109E-04-3.49165E-14
 -1       361 7.67798E-03-5.34438E-04-3.75043E-14
 -1       362 7.96843E-03-5.28468E-04-4.01657E-14
 -1       363 8.26047E-03-5.22593E-04-4.29023E-14
 -1       364 8.55444E-03-5.17454E-04-4.57083E-14
 -1       365 8.85067E-03-5.14014E-04-4.85807E-14
 -1       366 9.14950E-03-5.13621E-04-5.15124E-14
 -1       367 9.45118E-03-5.18052E-04-5.44976E-14
 -1       368 9.75581E-03-5.29473E-04-5.75286E-14
 -1       369 1.00632E-02-5.50276E-04-6.06072E-14
 -1       370 1.03728E-02-5.82676E-04-6.37165E-14
 -1       371 1.06833E-02-6.27982E-04-6.68434E-14
 -1       372 1.09928E-02-6.85489E-04-6.99840E-14
 -1       373 1.12983E-02-7.51093E-04-7.31294E-14
 -1       374 1.15965E-02-8.16093E-04-7.62887E-14
 -1       375 1.18848E-02-8.67082E-04-7.94779E-14
 -1       376 1.21624E-02-8.87975E-04-8.26978E-14
 -1       377 1.24313E-02-8.64344E-04-8.59469E-14
 -1       378 1.26964E-02-7.88454E-04-8.92131E-14
 -1       379 1.29627E-02-6.61981E-04-9.24928E-14
 -1       380 1.32334E-02-4.94660E-04-9.57757E-14
 -1       381 1.35093E-02-3.00222E-04-9.90405E-14
 -1       382 1.37547E-02-1.17608E-04-1.01959E-13
 -1       383 1.11010E-03 4.47810E-04-5.32719E-16
 -1       384 1.39089E-03 5.00887E-04-9.17164E-16
 -1       385 1.66925E-03 5.38526E-04-1.41033E-15
 -1       386 1.94669E-03 5.64852E-04-2.01332E-15
 -1       387 2.22417E-03 5.82878E-04-2.72630E-15
 -1       388 2.50221E-03 5.94845E-04-3.54801E-15
 -1       389 2.78109E-03 6.02439E-04-4.47481E-15
 -1       390 3.06090E-03 6.06925E-04-5.50477E-15
 -1       391 3.34164E-03 6.09245E-04-6.63640E-15
 -1       392 3.62325E-03 6.10090E-04-7.86982E-15
 -1       393 3.90563E-03 6.09956E-04-9.20418E-15
 -1       394 4.18867E-03 6.09187E-04-1.06379E-14
 -1       395 4.47228E-03 6.08007E-04-1.21697E-14
 -1       396 4.75636E-03 6.06550E-04-1.37963E-14
 -1       397 5.04082E-03 6.04880E-04-1.55174E-14
 -1       398 5.32563E-03 6.03005E-04-1.73283E-14
 -1       399 5.61075E-03 6.00891E-04-1.92328E-14
 -1       400 5.89618E-03 5.98471E-04-2.12292E-14
 -1       401 6.18195E-03 5.95654E-04-2.33141E-14
 -1       402 6.46814E-03 5.92330E-04-2.54810E-14
 -1       403 6.75487E-03 5.88381E-04-2.77223E-14
 -1       404 7.04230E-03 5.83691E-04-3.00357E-14
 -1       405 7.33069E-03 5.78158E-04-3.24213E-14
 -1       406 7.62034E-03 5.71724E-04-3.48747E-14
 -1       407 7.91169E-03 5.64401E-04-3.73919E-14
 -1       408 8.20526E-03 5.56328E-04-3.99711E-14
 -1       409 8.50171E-03 5.47850E-04-4.26196E-14
 -1       410 8.80188E-03 5.39640E-04-4.53370E-14
 -1       411 9.10675E-03 5.32884E-04-4.81133E-14
 -1       412 9.41746E-03 5.29557E-04-5.09472E-14
 -1       413 9.73533E-03 5.32824E-04-5.38399E-14
 -1       414 1.00617E-02 5.47571E-04-5.67889E-14
 -1       415 1.03981E-02 5.81013E-04-5.97843E-14
 -1       416 1.07455E-02 6.43126E-04-6.28225E-14
 -1       417 1.11044E-02 7.46201E-04-6.58991E-14
 -1       418 1.14734E-02 9.02106E-04-6.90120E-14
 -1       419 1.18473E-02 1.11503E-03-7.21572E-14
 -1       420 1.22152E-02 1.36875E-03-7.53219E-14
 -1       421 1.25633E-02 1.61434E-03-7.84852E-14
 -1       422 1.28855E-02 1.77505E-03-8.16422E-14
 -1       423 1.31937E-02 1.79424E-03-8.47777E-14
 -1       424 1.35053E-02 1.67334E-03-8.79021E-14
 -1       425 1.38115E-02 1.48026E-03-9.08686E-14
 -1       426 1.41368E-02 1.25106E-03-9.40009E-14
 -1       427 1.44532E-02 1.02212E-03-9.71464E-14
 -1       428 1.46770E-02 8.61404E-04-9.92857E-14
 -1       429 1.53558E-02 6.77489E-04-9.96737E-14
 -1       430 1.50513E-02 7.60634E-04-9.92962E-14
 -1       431 1.48563E-02 8.13260E-04-9.92970E-14
 -1       432 1.56435E-02 6.20793E-04-1.00030E-13
 -1       433 1.58294E-02 6.01524E-04-1.00347E-13
 -1       434 1.58648E-02 6.04896E-04-1.00667E-13
 -1       435 1.57087E-02 5.99732E-04-1.00971E-13
 -1       436 1.54172E-02 5.58566E-04-1.01260E-13
 -1       437 1.50782E-02 4.80128E-04-1.01546E-13
 -1       438 1.47574E-02 3.79832E-04-1.01826E-13
 -1       439 1.44827E-02 2.72798E-04-1.02101E-13
 -1       440 1.42556E-02 1.67590E-04-1.02380E-13
 -1       441 1.40641E-02 6.76724E-05-1.02655E-13
 -1       442 1.52662E-02 7.51086E-04-9.32911E-14
 -1       443 1.56171E-02 5.85601E-04-9.47032E-14
 -1       444 1.55523E-02 6.36559E-04-9.42567E-14
 -1       445 1.48606E-02 9.32230E-04-9.19263E-14
 -1       446 1.44737E-02 1.12592E-03-9.06015E-14
 -1       447 4.45682E-04-1.26456E-04-1.91169E-16
 -1       448 1.35211E-02 1.60978E-03-8.64639E-14
 -1       449 1.31568E-02 1.69943E-03-8.44155E-14
 -1       450 1.27858E-02 1.64545E-03-8.22673E-14
 -1       451 1.24500E-02 1.48494E-03-8.02289E-14
 -1       452 1.20207E-02 1.21273E-03-7.83797E-14
 -1       453 1.16209E-02 9.61309E-04-7.70500E-14
 -1       454 1.12360E-02 7.15425E-04-7.56044E-14
 -1       455 1.08863E-02 5.39432E-04-7.48514E-14
 -1       456 1.06411E-02 4.20202E-04-7.44115E-14
 -1       457 1.05294E-02 3.37628E-04-7.41090E-14
 -1       458 1.05638E-02 2.75493E-04-7.42474E-14
 -1       459 1.07548E-02 1.85531E-04-7.51539E-14
 -1       460 1.10527E-02 6.16597E-05-7.59918E-14
 -1       461 1.14188E-02-1.15811E-04-7.75462E-14
 -1       462 1.17891E-02-3.02101E-04-7.91088E-14
 -1       463 1.22267E-02-5.10258E-04-8.13274E-14
 -1       464 1.25904E-02-6.22379E-04-8.34985E-14
 -1       465 1.29433E-02-6.24114E-04-8.56890E-14
 -1       466 1.33101E-02-5.16582E-04-8.77352E-14
 -1       467 1.37855E-02-2.75091E-04-9.00866E-14
 -1       468 1.42422E-02-4.00925E-05-9.15371E-14
 -1       469 1.47179E-02 1.97564E-04-9.28672E-14
 -1       470 1.51362E-02 3.87730E-04-9.39912E-14
 -1       471 1.54698E-02 5.06966E-04-9.44436E-14
 -1       472 1.39814E-02 1.38723E-03-8.87177E-14
 -1       473 9.31324E-04 3.46004E-04-4.61203E-16
 -1       474 6.65789E-04-7.51148E-05-4.31946E-16
 -1       475 6.69765E-04-1.15866E-04-4.27826E-16
 -1       476 6.63109E-04 1.10447E-06-4.27010E-16
 -1       477 6.63833E-04 3.87574E-05-4.18783E-16
 -1       478 6.65980E-04 7.68030E-05-4.06220E-16
 -1       479 6.70085E-04 1.17708E-04-3.88188E-16
 -1       480 6.77110E-04 1.62321E-04-3.62974E-16
 -1       481 6.89045E-04 2.12684E-04-3.28113E-16
 -1       482 1.21723E-03 4.06500E-04-8.13186E-16
 -1       483 9.76357E-04-3.28604E-04-6.90891E-16
 -1       484 1.26892E-02 1.62037E-03-8.10519E-14
 -1       485 1.26228E-03-3.83491E-04-1.13172E-15
 -1       486 1.54733E-03-4.23262E-04-1.68147E-15
 -1       487 1.83148E-03-4.51353E-04-2.33976E-15
 -1       488 2.11504E-03-4.70670E-04-3.10493E-15
 -1       489 2.39833E-03-4.83509E-04-3.97514E-15
 -1       490 2.68160E-03-4.91645E-04-4.95020E-15
 -1       491 2.96501E-03-4.96428E-04-6.02876E-15
 -1       492 3.24864E-03-4.98872E-04-7.20887E-15
 -1       493 3.53254E-03-4.99724E-04-8.48743E-15
 -1       494 3.81672E-03-4.99525E-04-9.86437E-15
 -1       495 4.10117E-03-4.98648E-04-1.13370E-14
 -1       496 4.38585E-03-4.97342E-04-1.29044E-14
 -1       497 4.67075E-03-4.95760E-04-1.45662E-14
 -1       498 4.95584E-03-4.93978E-04-1.63190E-14
 -1       499 5.24110E-03-4.92016E-04-1.81626E-14
 -1       500 5.52653E-03-4.89852E-04-2.00988E-14
 -1       501 5.81213E-03-4.87430E-04-2.21304E-14
 -1       502 6.09791E-03-4.84674E-04-2.42541E-14
 -1       503 6.38391E-03-4.81495E-04-2.64703E-14
 -1       504 6.67017E-03-4.77802E-04-2.87782E-14
 -1       505 6.95676E-03-4.73521E-04-3.11672E-14
 -1       506 7.24378E-03-4.68610E-04-3.36332E-14
 -1       507 7.53135E-03-4.63085E-04-3.61730E-14
 -1       508 7.81964E-03-4.57060E-04-3.87878E-14
 -1       509 8.10885E-03-4.50792E-04-4.14774E-14
 -1       510 8.39924E-03-4.44735E-04-4.42408E-14
 -1       511 8.69113E-03-4.39613E-04-4.70704E-14
 -1       512 8.98490E-03-4.36490E-04-4.99605E-14
 -1       513 9.28106E-03-4.36837E-04-5.29083E-14
 -1       514 9.58016E-03-4.42568E-04-5.59063E-14
 -1       515 9.88282E-03-4.56002E-04-5.89493E-14
 -1       516 1.01896E-02-4.79686E-04-6.20341E-14
 -1       517 1.05007E-02-5.15975E-04-6.51447E-14
 -1       518 1.08158E-02-5.66212E-04-6.82732E-14
 -1       519 1.11330E-02-6.29385E-04-7.14067E-14
 -1       520 1.14491E-02-7.00302E-04-7.45504E-14
 -1       521 1.17597E-02-7.67893E-04-7.77182E-14
 -1       522 1.20609E-02-8.15140E-04-8.09183E-14
 -1       523 1.23519E-02-8.22621E-04-8.41447E-14
 -1       524 1.26363E-02-7.75489E-04-8.73919E-14
 -1       525 1.29201E-02-6.70226E-04-9.06550E-14
 -1       526 1.32074E-02-5.15540E-04-9.39239E-14
 -1       527 1.34988E-02-3.26895E-04-9.71825E-14
 -1       528 1.78414E-03 4.81111E-04-1.83499E-15
 -1       529 2.06616E-03 5.02508E-04-2.50675E-15
 -1       530 2.34794E-03 5.16890E-04-3.28521E-15
 -1       531 2.62981E-03 5.26172E-04-4.16894E-15
 -1       532 2.91198E-03 5.31806E-04-5.15602E-15
 -1       533 3.19455E-03 5.34884E-04-6.24473E-15
 -1       534 3.47757E-03 5.36209E-04-7.43432E-15
 -1       535 3.76102E-03 5.36366E-04-8.72368E-15
 -1       536 4.04487E-03 5.35765E-04-1.01120E-14
 -1       537 4.32908E-03 5.34681E-04-1.15968E-14
 -1       538 4.61361E-03 5.33286E-04-1.31784E-14
 -1       539 4.89841E-03 5.31673E-04-1.48523E-14
 -1       540 5.18345E-03 5.29869E-04-1.66194E-14
 -1       541 5.46872E-03 5.27858E-04-1.84799E-14
 -1       542 5.75421E-03 5.25583E-04-2.04341E-14
 -1       543 6.03994E-03 5.22960E-04-2.24772E-14
 -1       544 6.32594E-03 5.19882E-04-2.46057E-14
 -1       545 6.61228E-03 5.16230E-04-2.68124E-14
 -1       546 6.89906E-03 5.11878E-04-2.90902E-14
 -1       547 7.18639E-03 5.06708E-04-3.14443E-14
 -1       548 7.47444E-03 5.00628E-04-3.38663E-14
 -1       549 7.76341E-03 4.93600E-04-3.63583E-14
 -1       550 8.05356E-03 4.85677E-04-3.89123E-14
 -1       551 8.34517E-03 4.77069E-04-4.15353E-14
 -1       552 8.63861E-03 4.68234E-04-4.42280E-14
 -1       553 8.93427E-03 4.60016E-04-4.69849E-14
 -1       554 9.23263E-03 4.53846E-04-4.97994E-14
 -1       555 9.53429E-03 4.52031E-04-5.26730E-14
 -1       556 9.84009E-03 4.58151E-04-5.56028E-14
 -1       557 1.01513E-02 4.77567E-04-5.85835E-14
 -1       558 1.04702E-02 5.17995E-04-6.16066E-14
 -1       559 1.08003E-02 5.89960E-04-6.46671E-14
 -1       560 1.11467E-02 7.06614E-04-6.77619E-14
 -1       561 1.15145E-02 8.81416E-04-7.08962E-14
 -1       562 1.19034E-02 1.11974E-03-7.40536E-14
 -1       563 1.23005E-02 1.39855E-03-7.72325E-14
 -1       564 1.30517E-02 1.75763E-03-8.35216E-14
 -1       565 1.34115E-02 1.68524E-03-8.66506E-14
 -1       566 1.37651E-02 1.50070E-03-8.96250E-14
 -1       567 1.41384E-02 1.26906E-03-9.27532E-14
 -1       568 1.44928E-02 1.04662E-03-9.58947E-14
 -1       569 1.55701E-02 6.38560E-04-9.76867E-14
 -1       570 1.57292E-02 6.00275E-04-9.80113E-14
 -1       571 1.49191E-02 8.52299E-04-9.67496E-14
 -1       572 1.52546E-02 7.27139E-04-9.71226E-14
 -1       573 1.56472E-02 5.77383E-04-9.83131E-14
 -1       574 1.53586E-02 5.18243E-04-9.86055E-14
 -1       575 1.49877E-02 4.12518E-04-9.88840E-14
 -1       576 1.46363E-02 2.84216E-04-9.91589E-14
 -1       577 1.43416E-02 1.57941E-04-9.94262E-14
 -1       578 1.41042E-02 4.35942E-05-9.96920E-14
 -1       579 1.39092E-02-5.88947E-05-9.99579E-14
 -1       580 1.50646E-02 7.95727E-04-9.42767E-14
 -1       581 1.56127E-02 5.70122E-04-9.65538E-14
 -1       582 1.50137E-03 4.50191E-04-1.27061E-15
 -1       583 1.56376E-02 6.06205E-04-9.59789E-14
 -1       584 1.47409E-02 9.38971E-04-9.29466E-14
 -1       585 7.12713E-04-2.51847E-04-3.91092E-16
 -1       586 1.53925E-02 5.12372E-04-9.61109E-14
 -1       587 6.63719E-04-3.65126E-05-4.31540E-16
 -1       588 1.29873E-02 1.71903E-03-8.32042E-14
 -1       589 1.37109E-02 1.51247E-03-8.80228E-14
 -1       590 1.33285E-02 1.68494E-03-8.56797E-14
 -1       591 1.22324E-02 1.32620E-03-7.82069E-14
 -1       592 1.18181E-02 1.03044E-03-7.63479E-14
 -1       593 1.14654E-02 7.96962E-04-7.49134E-14
 -1       594 1.10324E-02 5.57302E-04-7.36054E-14
 -1       595 1.07328E-02 4.25670E-04-7.31123E-14
 -1       596 1.05515E-02 3.46460E-04-7.26386E-14
 -1       597 1.04936E-02 2.92135E-04-7.23707E-14
 -1       598 1.06292E-02 2.33373E-04-7.32972E-14
 -1       599 1.08488E-02 1.49367E-04-7.40748E-14
 -1       600 1.12397E-02-2.17049E-05-7.56551E-14
 -1       601 1.15884E-02-1.97745E-04-7.73019E-14
 -1       602 1.19820E-02-4.18445E-04-7.92690E-14
 -1       603 1.23783E-02-5.94109E-04-8.19871E-14
 -1       604 1.27364E-02-6.56857E-04-8.47680E-14
 -1       605 1.30869E-02-5.87203E-04-8.71719E-14
 -1       606 1.34653E-02-4.08053E-04-8.95781E-14
 -1       607 1.39953E-02-9.36390E-05-9.24072E-14
 -1       608 1.44052E-02 1.23056E-04-9.37412E-14
 -1       609 1.48921E-02 3.37396E-04-9.48195E-14
 -1       610 1.54622E-02 6.60631E-04-9.54243E-14
 -1       611 7.03869E-04 2.90868E-04-2.43871E-16
 -1       612 1.42061E-02 1.22681E-03-9.05544E-14
 -1       613 6.76577E-04-1.60035E-04-4.17760E-16
 -1       614 1.37026E-02-1.83235E-04-9.95012E-14
 -1       615 6.91827E-04-2.02865E-04-4.08917E-16
 -1       616 8.99715E-04 7.41036E-05-7.11711E-16
 -1       617 8.97618E-04 2.51757E-05-7.27998E-16
 -1       618 9.11815E-04 1.78211E-04-6.55715E-16
 -1       619 9.24213E-04 2.36773E-04-6.11825E-16
 -1       620 1.04892E-03 3.13903E-04-6.96688E-16
 -1       621 1.36485E-02-2.70564E-04-9.20172E-14
 -1       622 1.38332E-03-3.37065E-04-1.44258E-15
 -1       623 1.66953E-03-3.67994E-04-2.05259E-15
 -1       624 1.95574E-03-3.89810E-04-2.76866E-15
 -1       625 2.24179E-03-4.04660E-04-3.58899E-15
 -1       626 2.52764E-03-4.14337E-04-4.51178E-15
 -1       627 2.81336E-03-4.20264E-04-5.53725E-15
 -1       628 3.09898E-03-4.23537E-04-6.66441E-15
 -1       629 3.38455E-03-4.24978E-04-7.89068E-15
 -1       630 3.67009E-03-4.25192E-04-9.21571E-15
 -1       631 3.95564E-03-4.24607E-04-1.06357E-14
 -1       632 4.24121E-03-4.23516E-04-1.21502E-14
 -1       633 4.52679E-03-4.22105E-04-1.37592E-14
 -1       634 4.81240E-03-4.20481E-04-1.54604E-14
 -1       635 5.09803E-03-4.18686E-04-1.72542E-14
 -1       636 5.38370E-03-4.16716E-04-1.91374E-14
 -1       637 5.66940E-03-4.14531E-04-2.11149E-14
 -1       638 5.95513E-03-4.12064E-04-2.31868E-14
 -1       639 6.24091E-03-4.09232E-04-2.53505E-14
 -1       640 6.52674E-03-4.05943E-04-2.76026E-14
 -1       641 6.81265E-03-4.02109E-04-2.99433E-14
 -1       642 7.09866E-03-3.97658E-04-3.23591E-14
 -1       643 7.38482E-03-3.92558E-04-3.48530E-14
 -1       644 7.67119E-03-3.86840E-04-3.74212E-14
 -1       645 7.95788E-03-3.80633E-04-4.00644E-14
 -1       646 8.24506E-03-3.74213E-04-4.27838E-14
 -1       647 8.53298E-03-3.68055E-04-4.55717E-14
 -1       648 8.82202E-03-3.62903E-04-4.84251E-14
 -1       649 9.11274E-03-3.59838E-04-5.13329E-14
 -1       650 9.40597E-03-3.60357E-04-5.42948E-14
 -1       651 9.70281E-03-3.66426E-04-5.73052E-14
 -1       652 1.00046E-02-3.80497E-04-6.03592E-14
 -1       653 1.03130E-02-4.05413E-04-6.34485E-14
 -1       654 1.06293E-02-4.44069E-04-6.65626E-14
 -1       655 1.09536E-02-4.98550E-04-6.96884E-14
 -1       656 1.12841E-02-5.68325E-04-7.28148E-14
 -1       657 1.16160E-02-6.47297E-04-7.59671E-14
 -1       658 1.19422E-02-7.20683E-04-7.91472E-14
 -1       659 1.22573E-02-7.64885E-04-8.23535E-14
 -1       660 1.25616E-02-7.54485E-04-8.55831E-14
 -1       661 1.28623E-02-6.75770E-04-8.88311E-14
 -1       662 1.31671E-02-5.34402E-04-9.20884E-14
 -1       663 1.34776E-02-3.50054E-04-9.53355E-14
 -1       664 2.19075E-03 4.37545E-04-3.01713E-15
 -1       665 1.32169E-02-5.15469E-04-8.90332E-14
 -1       666 1.90575E-03 4.20743E-04-2.27936E-15
 -1       667 2.76021E-03 4.55581E-04-4.80231E-15
 -1       668 3.04489E-03 4.59584E-04-5.84876E-15
 -1       669 3.32964E-03 4.61548E-04-6.99460E-15
 -1       670 3.61449E-03 4.62137E-04-8.24078E-15
 -1       671 3.89946E-03 4.61824E-04-9.58493E-15
 -1       672 4.18455E-03 4.60937E-04-1.10251E-14
 -1       673 4.46975E-03 4.59688E-04-1.25608E-14
 -1       674 4.75506E-03 4.58199E-04-1.41898E-14
 -1       675 5.04048E-03 4.56525E-04-1.59145E-14
 -1       676 5.32599E-03 4.54670E-04-1.77316E-14
 -1       677 5.61161E-03 4.52593E-04-1.96420E-14
 -1       678 5.89732E-03 4.50226E-04-2.16429E-14
 -1       679 6.18316E-03 4.47472E-04-2.37317E-14
 -1       680 6.46913E-03 4.44222E-04-2.59015E-14
 -1       681 6.75526E-03 4.40354E-04-2.81463E-14
 -1       682 7.04158E-03 4.35752E-04-3.04629E-14
 -1       683 7.32814E-03 4.30314E-04-3.28564E-14
 -1       684 7.61496E-03 4.23977E-04-3.53190E-14
 -1       685 7.90208E-03 4.16752E-04-3.78478E-14
 -1       686 8.18952E-03 4.08764E-04-4.04454E-14
 -1       687 8.47727E-03 4.00328E-04-4.31132E-14
 -1       688 8.76529E-03 3.92040E-04-4.58487E-14
 -1       689 9.05353E-03 3.84913E-04-4.86431E-14
 -1       690 9.34196E-03 3.80555E-04-5.14983E-14
 -1       691 9.63072E-03 3.81410E-04-5.44108E-14
 -1       692 9.92039E-03 3.91053E-04-5.73746E-14
 -1       693 1.02126E-02 4.14591E-04-6.03831E-14
 -1       694 1.05111E-02 4.59258E-04-6.34282E-14
 -1       695 1.08228E-02 5.35390E-04-6.65084E-14
 -1       696 1.11591E-02 6.57999E-04-6.96284E-14
 -1       697 1.15329E-02 8.47447E-04-7.27804E-14
 -1       698 1.49437E-02 3.79832E-04-9.63984E-14
 -1       699 1.45152E-02 2.09462E-04-9.64896E-14
 -1       700 1.41913E-02 5.67221E-05-9.67523E-14
 -1       701 1.39438E-02-7.19126E-05-9.70076E-14
 -1       702 9.50411E-04-2.70021E-04-7.18155E-16
 -1       703 1.44491E-02 1.08137E-03-9.26708E-14
 -1       704 1.62039E-03 3.96229E-04-1.64687E-15
 -1       705 1.41458E-02 1.25677E-03-9.15224E-14
 -1       706 2.47553E-03 4.48635E-04-3.85791E-15
 -1       707 1.16644E-03-3.07487E-04-1.04933E-15
 -1       708 9.04177E-04 1.24603E-04-6.88211E-16
 -1       709 9.03803E-04-1.22192E-04-7.39192E-16
 -1       710 1.33467E-03 3.61542E-04-1.11955E-15
 -1       711 1.08087E-02 4.41686E-04-7.15853E-14
 -1       712 1.24961E-02-6.59000E-04-8.31083E-14
 -1       713 1.36950E-02-2.07381E-04-9.76495E-14
 -1       714 1.11766E-02 6.22509E-04-7.21907E-14
 -1       715 1.05996E-02 3.57522E-04-7.11233E-14
 -1       716 1.04620E-02 2.98511E-04-7.08004E-14
 -1       717 1.04894E-02 2.41960E-04-7.09776E-14
 -1       718 1.06668E-02 1.83735E-04-7.20087E-14
 -1       719 1.09639E-02 5.51550E-05-7.31025E-14
 -1       720 1.13663E-02-1.24439E-04-7.52919E-14
 -1       721 1.16874E-02-3.00947E-04-7.70424E-14
 -1       722 1.21279E-02-5.44487E-04-8.00292E-14
 -1       723 1.40730E-02-2.23284E-05-9.42639E-14
 -1       724 1.28945E-02-6.39708E-04-8.66226E-14
 -1       725 1.39426E-02 1.37683E-03-8.99879E-14
 -1       726 1.18861E-02 1.07858E-03-7.52031E-14
 -1       727 1.48246E-02 8.95110E-04-9.48461E-14
 -1       728 9.11209E-04-1.75558E-04-7.28997E-16
 -1       729 8.97555E-04-2.31547E-05-7.37742E-16
 -1       730 8.99503E-04-7.18186E-05-7.41540E-16
 -1       731 1.36410E-02 1.55273E-03-8.80352E-14
 -1       732 1.45318E-02 1.04103E-03-9.46324E-14
 -1       733 1.18485E-02-4.52424E-04-7.77989E-14
 -1       734 1.03922E-02 2.51692E-04-6.94207E-14
 -1       735 1.16152E-03 2.43614E-04-9.83585E-16
 -1       736 1.30475E-02-5.85508E-04-8.87317E-14
 -1       737 1.79728E-03-3.09522E-04-2.43770E-15
 -1       738 2.08494E-03-3.25640E-04-3.20872E-15
 -1       739 2.37272E-03-3.36468E-04-4.08131E-15
 -1       740 2.66041E-03-3.43359E-04-5.05442E-15
 -1       741 2.94790E-03-3.47407E-04-6.12887E-15
 -1       742 3.23515E-03-3.49456E-04-7.30322E-15
 -1       743 3.52216E-03-3.50141E-04-8.57593E-15
 -1       744 3.80895E-03-3.49926E-04-9.94534E-15
 -1       745 4.09554E-03-3.49131E-04-1.14067E-14
 -1       746 4.38195E-03-3.47973E-04-1.29620E-14
 -1       747 4.66821E-03-3.46582E-04-1.46108E-14
 -1       748 4.95433E-03-3.45023E-04-1.63530E-14
 -1       749 5.24034E-03-3.43311E-04-1.81869E-14
 -1       750 5.52624E-03-3.41425E-04-2.01112E-14
 -1       751 5.81204E-03-3.39315E-04-2.21310E-14
 -1       752 6.09771E-03-3.36908E-04-2.42434E-14
 -1       753 6.38327E-03-3.34120E-04-2.64460E-14
 -1       754 6.66867E-03-3.30860E-04-2.87320E-14
 -1       755 6.95389E-03-3.27045E-04-3.11007E-14
 -1       756 7.23892E-03-3.22607E-04-3.35472E-14
 -1       757 7.52374E-03-3.17515E-04-3.60696E-14
 -1       758 7.80835E-03-3.11797E-04-3.86658E-14
 -1       759 8.09281E-03-3.05571E-04-4.13369E-14
 -1       760 8.37727E-03-2.99087E-04-4.40820E-14
 -1       761 8.66200E-03-2.92775E-04-4.68971E-14
 -1       762 8.94750E-03-2.87307E-04-4.97720E-14
 -1       763 9.23458E-03-2.83673E-04-5.26976E-14
 -1       764 9.52446E-03-2.83283E-04-5.56730E-14
 -1       765 9.81894E-03-2.88082E-04-5.86931E-14
 -1       766 1.01204E-02-3.00706E-04-6.17575E-14
 -1       767 1.04316E-02-3.24608E-04-6.48527E-14
 -1       768 1.07552E-02-3.63977E-04-6.79656E-14
 -1       769 1.10925E-02-4.22902E-04-7.10852E-14
 -1       770 1.14412E-02-5.02721E-04-7.42221E-14
 -1       771 1.17938E-02-5.96168E-04-7.73837E-14
 -1       772 1.21384E-02-6.80314E-04-8.05705E-14
 -1       773 1.24696E-02-7.19849E-04-8.37860E-14
 -1       774 1.31150E-02-5.55665E-04-9.02635E-14
 -1       775 1.34487E-02-3.71964E-04-9.35053E-14
 -1       776 2.03273E-03 3.57701E-04-2.74377E-15
 -1       777 3.17999E-03 3.86060E-04-6.55419E-15
 -1       778 2.89343E-03 3.83397E-04-5.45046E-15
 -1       779 3.75266E-03 3.87238E-04-9.05780E-15
 -1       780 4.03881E-03 3.86642E-04-1.04554E-14
 -1       781 4.32487E-03 3.85625E-04-1.19461E-14
 -1       782 4.61085E-03 3.84339E-04-1.35316E-14
 -1       783 4.89678E-03 3.82865E-04-1.52109E-14
 -1       784 5.18265E-03 3.81228E-04-1.69858E-14
 -1       785 5.46848E-03 3.79411E-04-1.88535E-14
 -1       786 5.75427E-03 3.77360E-04-2.08114E-14
 -1       787 6.04002E-03 3.75001E-04-2.28590E-14
 -1       788 6.32572E-03 3.72239E-04-2.49912E-14
 -1       789 6.61135E-03 3.68968E-04-2.71991E-14
 -1       790 6.89686E-03 3.65085E-04-2.94826E-14
 -1       791 7.18222E-03 3.60493E-04-3.18423E-14
 -1       792 7.46734E-03 3.55131E-04-3.42778E-14
 -1       793 7.75209E-03 3.48989E-04-3.67818E-14
 -1       794 8.03631E-03 3.42151E-04-3.93518E-14
 -1       795 8.31974E-03 3.34845E-04-4.19937E-14
 -1       796 8.60205E-03 3.27506E-04-4.47045E-14
 -1       797 8.88280E-03 3.20865E-04-4.74806E-14
 -1       798 9.16147E-03 3.16049E-04-5.03164E-14
 -1       799 9.43751E-03 3.14698E-04-5.32106E-14
 -1       800 9.71055E-03 3.19077E-04-5.61580E-14
 -1       801 9.98077E-03 3.32206E-04-5.91518E-14
 -1       802 1.02496E-02 3.58045E-04-6.21873E-14
 -1       803 1.05213E-02 4.02278E-04-6.52520E-14
 -1       804 1.08051E-02 4.75066E-04-6.83557E-14
 -1       805 1.34206E-02-3.93405E-04-9.17261E-14
 -1       806 1.05014E-02 1.88011E-04-6.98670E-14
 -1       807 1.22454E-02-6.50728E-04-8.12136E-14
 -1       808 1.74569E-03 3.39111E-04-2.04579E-15
 -1       809 9.28890E-04-2.20908E-04-7.27418E-16
 -1       810 1.04534E-02 3.05045E-04-6.91790E-14
 -1       811 1.37353E-02-2.05923E-04-9.40983E-14
 -1       812 1.06206E-02 3.71975E-04-6.94203E-14
 -1       813 3.46639E-03 3.87167E-04-7.75679E-15
 -1       814 1.51020E-03-2.86539E-04-1.77060E-15
 -1       815 1.24623E-03 3.00838E-04-1.05561E-15
 -1       816 1.13819E-03 5.90523E-05-1.10008E-15
 -1       817 1.26315E-02-6.94784E-04-8.49190E-14
 -1       818 1.07059E-02 1.08894E-04-7.08923E-14
 -1       819 1.11045E-02-6.58125E-05-7.29963E-14
 -1       820 1.14216E-02-2.30563E-04-7.48314E-14
 -1       821 1.13682E-03 1.19603E-06-1.11827E-15
 -1       822 1.14977E-03 1.79104E-04-1.03437E-15
 -1       823 1.29304E-03-2.64932E-04-1.33332E-15
 -1       824 1.27908E-02-6.80411E-04-8.70186E-14
 -1       825 2.31978E-03 3.70308E-04-3.54457E-15
 -1       826 2.60669E-03 3.78463E-04-4.44702E-15
 -1       827 1.14193E-03-1.15183E-04-1.12919E-15
 -1       828 1.14923E-03-1.76160E-04-1.12112E-15
 -1       829 1.14232E-03 1.17930E-04-1.07248E-15
 -1       830 1.03287E-02 2.57161E-04-6.78132E-14
 -1       831 1.49561E-03 3.24150E-04-1.50937E-15
 -1       832 1.03618E-02 2.06681E-04-6.83196E-14
 -1       833 1.08242E-02 6.92720E-06-7.07924E-14
 -1       834 1.04045E-02 3.20882E-04-6.63070E-14
 -1       835 1.13803E-03-5.65128E-05-1.12789E-15
 -1       836 2.21826E-03-2.58933E-04-3.65924E-15
 -1       837 2.50731E-03-2.66276E-04-4.58207E-15
 -1       838 2.79631E-03-2.70808E-04-5.60391E-15
 -1       839 3.08505E-03-2.73322E-04-6.72619E-15
 -1       840 3.37345E-03-2.74432E-04-7.94689E-15
 -1       841 3.66148E-03-2.74594E-04-9.26366E-15
 -1       842 3.94913E-03-2.74139E-04-1.06749E-14
 -1       843 4.23644E-03-2.73291E-04-1.21778E-14
 -1       844 4.52342E-03-2.72195E-04-1.37740E-14
 -1       845 4.81013E-03-2.70933E-04-1.54629E-14
 -1       846 5.09657E-03-2.69538E-04-1.72463E-14
 -1       847 5.38277E-03-2.68007E-04-1.91213E-14
 -1       848 5.66873E-03-2.66307E-04-2.10883E-14
 -1       849 5.95444E-03-2.64382E-04-2.31498E-14
 -1       850 6.23987E-03-2.62164E-04-2.53003E-14
 -1       851 6.52498E-03-2.59570E-04-2.75379E-14
 -1       852 6.80969E-03-2.56515E-04-2.98576E-14
 -1       853 7.09394E-03-2.52918E-04-3.22548E-14
 -1       854 7.37764E-03-2.48709E-04-3.47302E-14
 -1       855 7.66071E-03-2.43844E-04-3.72816E-14
 -1       856 7.94308E-03-2.38325E-04-3.99072E-14
 -1       857 8.22478E-03-2.32219E-04-4.26060E-14
 -1       858 8.50590E-03-2.25689E-04-4.53794E-14
 -1       859 8.78675E-03-2.19038E-04-4.82186E-14
 -1       860 9.06791E-03-2.12762E-04-5.11103E-14
 -1       861 9.35042E-03-2.07636E-04-5.40544E-14
 -1       862 9.63591E-03-2.04860E-04-5.70435E-14
 -1       863 9.92685E-03-2.06290E-04-6.00751E-14
 -1       864 1.02267E-02-2.14830E-04-6.31449E-14
 -1       865 1.05399E-02-2.34988E-04-6.62443E-14
 -1       866 1.08713E-02-2.73342E-04-6.93553E-14
 -1       867 1.12236E-02-3.38010E-04-7.24800E-14
 -1       868 1.64155E-03-2.31775E-04-2.11525E-15
 -1       869 4.17916E-03 3.11007E-04-1.13340E-14
 -1       870 3.89215E-03 3.11724E-04-9.88562E-15
 -1       871 4.75245E-03 3.08789E-04-1.45113E-14
 -1       872 5.03878E-03 3.07434E-04-1.62428E-14
 -1       873 5.32493E-03 3.05932E-04-1.80669E-14
 -1       874 5.61090E-03 3.04253E-04-1.99842E-14
 -1       875 5.89668E-03 3.02343E-04-2.19901E-14
 -1       876 6.18226E-03 3.00128E-04-2.40821E-14
 -1       877 6.46757E-03 2.97525E-04-2.62535E-14
 -1       878 6.75255E-03 2.94450E-04-2.85015E-14
 -1       879 7.03709E-03 2.90825E-04-3.08290E-14
 -1       880 7.32103E-03 2.86598E-04-3.32339E-14
 -1       881 7.60416E-03 2.81762E-04-3.57117E-14
 -1       882 7.88619E-03 2.76384E-04-3.82569E-14
 -1       883 8.16674E-03 2.70642E-04-4.08707E-14
 -1       884 8.44530E-03 2.64878E-04-4.35563E-14
 -1       885 8.72121E-03 2.59650E-04-4.63116E-14
 -1       886 8.99366E-03 2.55795E-04-4.91280E-14
 -1       887 9.26165E-03 2.54479E-04-5.20025E-14
 -1       888 9.52404E-03 2.57216E-04-5.49320E-14
 -1       889 9.77967E-03 2.65832E-04-5.79114E-14
 -1       890 1.00276E-02 2.82419E-04-6.09358E-14
 -1       891 1.02226E-02 2.97602E-04-6.36102E-14
 -1       892 1.14594E-02-3.77922E-04-7.45286E-14
 -1       893 1.87586E-03 2.78774E-04-2.46723E-15
 -1       894 4.46592E-03 3.09996E-04-1.28760E-14
 -1       895 3.02933E-03 3.09881E-04-6.11270E-15
 -1       896 1.92948E-03-2.47805E-04-2.83648E-15
 -1       897 1.04699E-02 1.15141E-04-6.82598E-14
 -1       898 1.11257E-02-1.81870E-04-7.22455E-14
 -1       899 1.40127E-03 2.37063E-04-1.44169E-15
 -1       900 1.03077E-02 1.44376E-04-6.67242E-14
 -1       901 1.42386E-03-2.17061E-04-1.63575E-15
 -1       902 2.16415E-03 2.92098E-04-3.22777E-15
 -1       903 2.74111E-03 3.06624E-04-5.05166E-15
 -1       904 3.60485E-03 3.11972E-04-8.53004E-15
 -1       905 1.38384E-03-9.70962E-05-1.59497E-15
 -1       906 1.38413E-03 1.00056E-04-1.53940E-15
 -1       907 1.58829E-03 2.59706E-04-1.80870E-15
 -1       908 1.02562E-02 2.16670E-04-6.67240E-14
 -1       909 1.38095E-03 3.40387E-05-1.56919E-15
 -1       910 3.31725E-03 3.11486E-04-7.27237E-15
 -1       911 1.05512E-02 3.26894E-05-6.81635E-14
 -1       912 1.08511E-02-1.05257E-04-7.00472E-14
 -1       913 1.02750E-02 2.72196E-04-6.57099E-14
 -1       914 1.38086E-03-3.12921E-05-1.58742E-15
 -1       915 2.35515E-03-1.89813E-04-4.11908E-15
 -1       916 2.64513E-03-1.94273E-04-5.09022E-15
 -1       917 2.93501E-03-1.96913E-04-6.16021E-15
 -1       918 3.22458E-03-1.98257E-04-7.32838E-15
 -1       919 3.51371E-03-1.98709E-04-8.59242E-15
 -1       920 3.80237E-03-1.98568E-04-9.95229E-15
 -1       921 4.09054E-03-1.98044E-04-1.14036E-14
 -1       922 4.37827E-03-1.97278E-04-1.29489E-14
 -1       923 4.66558E-03-1.96356E-04-1.45865E-14
 -1       924 4.95251E-03-1.95322E-04-1.63181E-14
 -1       925 5.23908E-03-1.94186E-04-1.81427E-14
 -1       926 5.52530E-03-1.92932E-04-2.00583E-14
 -1       927 5.81116E-03-1.91524E-04-2.20681E-14
 -1       928 6.09663E-03-1.89912E-04-2.41678E-14
 -1       929 6.38165E-03-1.88031E-04-2.63551E-14
 -1       930 6.66613E-03-1.85807E-04-2.86272E-14
 -1       931 6.94996E-03-1.83159E-04-3.09795E-14
 -1       932 7.23301E-03-1.80006E-04-3.34072E-14
 -1       933 7.51511E-03-1.76265E-04-3.59107E-14
 -1       934 7.79612E-03-1.71863E-04-3.84902E-14
 -1       935 8.07589E-03-1.66744E-04-4.11443E-14
 -1       936 8.35436E-03-1.60878E-04-4.38720E-14
 -1       937 8.63156E-03-1.54281E-04-4.66726E-14
 -1       938 8.90775E-03-1.47041E-04-4.95315E-14
 -1       939 9.18352E-03-1.39373E-04-5.24407E-14
 -1       940 9.45996E-03-1.31712E-04-5.54023E-14
 -1       941 9.73894E-03-1.24913E-04-5.84047E-14
 -1       942 1.00234E-02-1.20633E-04-6.14490E-14
 -1       943 1.03179E-02-1.22062E-04-6.45260E-14
 -1       944 1.06290E-02-1.35246E-04-6.76245E-14
 -1       945 5.18106E-03 2.32066E-04-1.72836E-14
 -1       946 4.89452E-03 2.33204E-04-1.55018E-14
 -1       947 5.75324E-03 2.29372E-04-2.11241E-14
 -1       948 6.03883E-03 2.27735E-04-2.31767E-14
 -1       949 6.32404E-03 2.25830E-04-2.53111E-14
 -1       950 6.60876E-03 2.23595E-04-2.75222E-14
 -1       951 6.89285E-03 2.20978E-04-2.98156E-14
 -1       952 7.17613E-03 2.17943E-04-3.21889E-14
 -1       953 7.45835E-03 2.14493E-04-3.46374E-14
 -1       954 7.73917E-03 2.10692E-04-3.71569E-14
 -1       955 8.01814E-03 2.06693E-04-3.97464E-14
 -1       956 8.29471E-03 2.02778E-04-4.24051E-14
 -1       957 8.56816E-03 1.99403E-04-4.51355E-14
 -1       958 8.83756E-03 1.97235E-04-4.79329E-14
 -1       959 9.10178E-03 1.97187E-04-5.07882E-14
 -1       960 9.35938E-03 2.00409E-04-5.36991E-14
 -1       961 9.60854E-03 2.08232E-04-5.66593E-14
 -1       962 9.84700E-03 2.22049E-04-5.96688E-14
 -1       963 1.77670E-03-1.72720E-04-2.47554E-15
 -1       964 1.72165E-03 2.02482E-04-2.18961E-15
 -1       965 4.03291E-03 2.35807E-04-1.07222E-14
 -1       966 1.39069E-03 1.67363E-04-1.49747E-15
 -1       967 5.46730E-03 2.30799E-04-1.91584E-14
 -1       968 2.45267E-03 3.01002E-04-4.09001E-15
 -1       969 2.06547E-03-1.82875E-04-3.24747E-15
 -1       970 1.55570E-03 1.85412E-04-1.82758E-15
 -1       971 1.03670E-02 7.85936E-05-6.66346E-14
 -1       972 1.01707E-02 1.63625E-04-6.51394E-14
 -1       973 1.64931E-03-1.66357E-04-2.16607E-15
 -1       974 2.87848E-03 2.33342E-04-5.67142E-15
 -1       975 3.74494E-03 2.36197E-04-9.31444E-15
 -1       976 4.60767E-03 2.34227E-04-1.38149E-14
 -1       977 1.00349E-02 2.33714E-04-6.23327E-14
 -1       978 3.16771E-03 2.35277E-04-6.78812E-15
 -1       979 2.01007E-03 2.15233E-04-2.90974E-15
 -1       980 4.32048E-03 2.35114E-04-1.22227E-14
 -1       981 1.01867E-02 2.19171E-04-6.54360E-14
 -1       982 1.62918E-03 7.32635E-05-2.08743E-15
 -1       983 1.62899E-03-7.01431E-05-2.13368E-15
 -1       984 1.59128E-03 1.29652E-04-1.95980E-15
 -1       985 2.49521E-03-1.18480E-04-4.58748E-15
 -1       986 2.78579E-03-1.20700E-04-5.60507E-15
 -1       987 3.07619E-03-1.21932E-04-6.72072E-15
 -1       988 3.36619E-03-1.22470E-04-7.93345E-15
 -1       989 3.65568E-03-1.22534E-04-9.24002E-15
 -1       990 3.94463E-03-1.22289E-04-1.06411E-14
 -1       991 4.23303E-03-1.21846E-04-1.21342E-14
 -1       992 4.52091E-03-1.21278E-04-1.37218E-14
 -1       993 4.80832E-03-1.20625E-04-1.54019E-14
 -1       994 5.09528E-03-1.19904E-04-1.71747E-14
 -1       995 5.38181E-03-1.19112E-04-1.90415E-14
 -1       996 5.66791E-03-1.18231E-04-2.09995E-14
 -1       997 5.95354E-03-1.17229E-04-2.30482E-14
 -1       998 6.23865E-03-1.16065E-04-2.51849E-14
 -1       999 6.52315E-03-1.14683E-04-2.74087E-14
 -1      1000 6.80689E-03-1.13021E-04-2.97146E-14
 -1      1001 7.08973E-03-1.11002E-04-3.20960E-14
 -1      1002 7.37145E-03-1.08537E-04-3.45544E-14
 -1      1003 7.65182E-03-1.05522E-04-3.70870E-14
 -1      1004 7.93059E-03-1.01834E-04-3.96948E-14
 -1      1005 8.20751E-03-9.73288E-05-4.23782E-14
 -1      1006 8.48240E-03-9.18402E-05-4.51349E-14
 -1      1007 8.75515E-03-8.51805E-05-4.79563E-14
 -1      1008 9.02583E-03-7.71568E-05-5.08328E-14
 -1      1009 9.29483E-03-6.76135E-05-5.37633E-14
 -1      1010 9.56301E-03-5.65360E-05-5.67389E-14
 -1      1011 9.83202E-03-4.42912E-05-5.97563E-14
 -1      1012 1.01048E-02-3.21193E-05-6.28117E-14
 -1      1013 5.32358E-03 1.56917E-04-1.83344E-14
 -1      1014 2.58896E-03 2.29807E-04-4.65206E-15
 -1      1015 2.29937E-03 2.24033E-04-3.73092E-15
 -1      1016 6.18077E-03 1.53719E-04-2.43686E-14
 -1      1017 5.89550E-03 1.54933E-04-2.22721E-14
 -1      1018 6.74945E-03 1.50675E-04-2.88064E-14
 -1      1019 7.03253E-03 1.48802E-04-3.11455E-14
 -1      1020 7.31444E-03 1.46707E-04-3.35636E-14
 -1      1021 7.59486E-03 1.44456E-04-3.60548E-14
 -1      1022 7.87334E-03 1.42184E-04-3.86177E-14
 -1      1023 8.14935E-03 1.40132E-04-4.12521E-14
 -1      1024 8.42221E-03 1.38677E-04-4.39559E-14
 -1      1025 8.69107E-03 1.38371E-04-4.67307E-14
 -1      1026 8.95489E-03 1.39967E-04-4.95689E-14
 -1      1027 9.21233E-03 1.44423E-04-5.24584E-14
 -1      1028 9.46167E-03 1.52871E-04-5.53999E-14
 -1      1029 9.70061E-03 1.66558E-04-5.83901E-14
 -1      1030 1.62743E-03 1.59896E-06-2.11713E-15
 -1      1031 2.20483E-03-1.14912E-04-3.66846E-15
 -1      1032 4.17482E-03 1.59697E-04-1.15691E-14
 -1      1033 3.45654E-03 2.36106E-04-8.00258E-15
 -1      1034 6.46546E-03 1.52309E-04-2.65473E-14
 -1      1035 5.03701E-03 1.57747E-04-1.65023E-14
 -1      1036 5.60975E-03 1.55988E-04-2.02601E-14
 -1      1037 1.01578E-02 1.06879E-04-6.44849E-14
 -1      1038 3.88649E-03 1.60069E-04-1.01101E-14
 -1      1039 1.87697E-03-3.65051E-05-2.74258E-15
 -1      1040 1.03865E-02-2.35915E-05-6.58947E-14
 -1      1041 4.75004E-03 1.58493E-04-1.47640E-14
 -1      1042 9.89421E-03 1.77588E-04-6.10410E-14
 -1      1043 1.87708E-03 3.98570E-05-2.71450E-15
 -1      1044 1.87897E-03 1.39831E-04-2.64612E-15
 -1      1045 3.01846E-03 1.58863E-04-6.30514E-15
 -1      1046 1.91523E-03-1.09545E-04-2.84897E-15
 -1      1047 4.46266E-03 1.59153E-04-1.31205E-14
 -1      1048 2.72827E-03 1.56944E-04-5.22980E-15
 -1      1049 2.16832E-03 1.47064E-04-3.43353E-15
 -1      1050 3.30829E-03 1.59836E-04-7.47645E-15
 -1      1051 2.92891E-03-4.58713E-05-6.12565E-15
 -1      1052 3.21948E-03-4.61641E-05-7.28470E-15
 -1      1053 3.50955E-03-4.62370E-05-8.53974E-15
 -1      1054 3.79908E-03-4.61535E-05-9.88882E-15
 -1      1055 4.08801E-03-4.59761E-05-1.13312E-14
 -1      1056 4.37638E-03-4.57349E-05-1.28680E-14
 -1      1057 4.66420E-03-4.54566E-05-1.44971E-14
 -1      1058 4.95151E-03-4.51483E-05-1.62194E-14
 -1      1059 5.23836E-03-4.48111E-05-1.80346E-14
 -1      1060 5.52472E-03-4.44416E-05-1.99430E-14
 -1      1061 5.81059E-03-4.40254E-05-2.19421E-14
 -1      1062 6.09592E-03-4.35426E-05-2.40280E-14
 -1      1063 6.38062E-03-4.29646E-05-2.62011E-14
 -1      1064 6.66455E-03-4.22524E-05-2.84587E-14
 -1      1065 6.94755E-03-4.13526E-05-3.07953E-14
 -1      1066 7.22939E-03-4.01922E-05-3.32101E-14
 -1      1067 7.50979E-03-3.86711E-05-3.56962E-14
 -1      1068 7.78843E-03-3.66518E-05-3.82561E-14
 -1      1069 8.06496E-03-3.39466E-05-4.08924E-14
 -1      1070 8.33898E-03-3.03033E-05-4.36043E-14
 -1      1071 8.61012E-03-2.53902E-05-4.63870E-14
 -1      1072 8.87801E-03-1.87858E-05-4.92280E-14
 -1      1073 9.14238E-03-9.98190E-06-5.21248E-14
 -1      1074 9.40311E-03 1.58114E-06-5.50704E-14
 -1      1075 9.66035E-03 1.64189E-05-5.80608E-14
 -1      1076 9.91478E-03 3.47275E-05-6.10955E-14
 -1      1077 6.60671E-03 7.97122E-05-2.77972E-14
 -1      1078 6.03771E-03 8.10752E-05-2.34287E-14
 -1      1079 7.17203E-03 7.80601E-05-3.24903E-14
 -1      1080 6.88994E-03 7.89099E-05-3.01042E-14
 -1      1081 7.73147E-03 7.65414E-05-3.74853E-14
 -1      1082 8.00797E-03 7.61953E-05-4.00923E-14
 -1      1083 8.28159E-03 7.64981E-05-4.27730E-14
 -1      1084 8.55164E-03 7.78924E-05-4.55238E-14
 -1      1085 8.81732E-03 8.09857E-05-4.83393E-14
 -1      1086 9.07763E-03 8.65678E-05-5.12113E-14
 -1      1087 9.33135E-03 9.56052E-05-5.41331E-14
 -1      1088 9.57684E-03 1.09173E-04-5.71054E-14
 -1      1089 9.99806E-03 1.32132E-04-6.26229E-14
 -1      1090 1.01348E-02 3.99139E-05-6.36523E-14
 -1      1091 2.12727E-03 1.75012E-06-3.41852E-15
 -1      1092 5.75225E-03 8.16346E-05-2.13698E-14
 -1      1093 5.46628E-03 8.21262E-05-1.93969E-14
 -1      1094 7.45267E-03 7.72298E-05-3.49529E-14
 -1      1095 5.17983E-03 8.25624E-05-1.75128E-14
 -1      1096 2.14643E-03 7.41071E-05-3.43340E-15
 -1      1097 2.63805E-03-4.52463E-05-5.06265E-15
 -1      1098 2.34724E-03-4.41603E-05-4.09749E-15
 -1      1099 6.32258E-03 8.04363E-05-2.55715E-14
 -1      1100 4.02928E-03 8.38121E-05-1.09165E-14
 -1      1101 9.95574E-03 8.56578E-05-6.18614E-14
 -1      1102 4.89292E-03 8.29518E-05-1.57238E-14
 -1      1103 2.44819E-03 1.52818E-04-4.28570E-15
 -1      1104 9.78225E-03 1.18977E-04-5.97392E-14
 -1      1105 4.31768E-03 8.35950E-05-1.24270E-14
 -1      1106 3.59766E-03 1.60170E-04-8.74562E-15
 -1      1107 3.16072E-03 8.34653E-05-6.95202E-15
 -1      1108 2.87018E-03 8.26753E-05-5.82246E-15
 -1      1109 3.74031E-03 8.39102E-05-9.49964E-15
 -1      1110 2.49239E-03 2.88813E-05-4.53435E-15
 -1      1111 3.36445E-03 3.00889E-05-7.85156E-15
 -1      1112 4.80793E-03 3.00539E-05-1.52746E-14
 -1      1113 4.60555E-03 8.32985E-05-1.40290E-14
 -1      1114 4.52034E-03 3.01289E-05-1.36044E-14
 -1      1115 0.00000E+00 0.00000E+00 0.00000E+00
 -1      1116 0.00000E+00 0.00000E+00 0.00000E+00
 -1      1117 0.00000E+00 0.00000E+00 0.00000E+00
 -1      1118 0.00000E+00 0.00000E+00 0.00000E+00
 -1      1119 0.00000E+00 0.00000E+00 0.00000E+00
 -1      1120 0.00000E+00 0.00000E+00 0.00000E+00
 -1      1121 0.00000E+00 0.00000E+00 0.00000E+00
 -1      1122 0.00000E+00 0.00000E+00 0.00000E+00
 -1      1123 0.00000E+00 0.00000E+00 0.00000E+00
 -1      1124 0.00000E+00 0.00000E+00 0.00000E+00
 -1      1125 0.00000E+00 0.00000E+00 0.00000E+00
 -1      1126 0.00000E+00 0.00000E+00 0.00000E+00
 -1      1127 0.00000E+00 0.00000E+00 0.00000E+00
 -1      1128 0.00000E+00 0.00000E+00 0.00000E+00
 -1      1129 0.00000E+00 0.00000E+00 0.00000E+00
 -1      1130 0.00000E+00 0.00000E+00 0.00000E+00
 -1      1131 0.00000E+00 0.00000E+00 0.00000E+00
 -1      1132 2.11679E-04-1.48330E-04 1.18178E-17
 -1      1133 5.51682E-04-3.37503E-04-3.96140E-17
 -1      1134 8.33543E-04-4.58990E-04-2.00361E-16
 -1      1135 1.10317E-03-5.40671E-04-4.88718E-16
 -1      1136 1.36864E-03-5.97930E-04-8.97990E-16
 -1      1137 1.63353E-03-6.38664E-04-1.42430E-15
 -1      1138 1.89967E-03-6.67524E-04-2.06499E-15
 -1      1139 2.16792E-03-6.87635E-04-2.81819E-15
 -1      1140 2.43858E-03-7.01289E-04-3.68431E-15
 -1      1141 2.71163E-03-7.10215E-04-4.66089E-15
 -1      1142 2.98691E-03-7.15729E-04-5.74603E-15
 -1      1143 3.26418E-03-7.18823E-04-6.93477E-15
 -1      1144 3.54315E-03-7.20233E-04-8.22628E-15
 -1      1145 3.82355E-03-7.20498E-04-9.61712E-15
 -1      1146 4.10512E-03-7.19999E-04-1.11038E-14
 -1      1147 4.38763E-03-7.18995E-04-1.26855E-14
 -1      1148 4.67087E-03-7.17650E-04-1.43625E-14
 -1      1149 4.95469E-03-7.16054E-04-1.61327E-14
 -1      1150 5.23896E-03-7.14242E-04-1.79964E-14
 -1      1151 5.52362E-03-7.12206E-04-1.99565E-14
 -1      1152 5.80862E-03-7.09909E-04-2.20120E-14
 -1      1153 6.09398E-03-7.07292E-04-2.41602E-14
 -1      1154 6.37976E-03-7.04289E-04-2.64025E-14
 -1      1155 6.66608E-03-7.00835E-04-2.87412E-14
 -1      1156 6.95315E-03-6.96887E-04-3.11653E-14
 -1      1157 7.24124E-03-6.92442E-04-3.36621E-14
 -1      1158 7.53069E-03-6.87563E-04-3.62301E-14
 -1      1159 7.82194E-03-6.82422E-04-3.88709E-14
 -1      1160 8.11554E-03-6.77343E-04-4.15905E-14
 -1      1161 8.41206E-03-6.72859E-04-4.43820E-14
 -1      1162 8.71212E-03-6.69779E-04-4.72438E-14
 -1      1163 9.01625E-03-6.69250E-04-5.01713E-14
 -1      1164 9.32482E-03-6.72798E-04-5.31572E-14
 -1      1165 9.63775E-03-6.82316E-04-5.61939E-14
 -1      1166 9.95432E-03-6.99940E-04-5.92759E-14
 -1      1167 1.02728E-02-7.27733E-04-6.23956E-14
 -1      1168 1.05902E-02-7.67098E-04-6.55355E-14
 -1      1169 1.09022E-02-8.17856E-04-6.86870E-14
 -1      1170 1.12033E-02-8.77099E-04-7.18401E-14
 -1      1171 1.14877E-02-9.38155E-04-7.50011E-14
 -1      1172 1.17512E-02-9.90304E-04-7.81843E-14
 -1      1173 1.19927E-02-1.01998E-03-8.14050E-14
 -1      1174 1.22155E-02-1.01368E-03-8.46603E-14
 -1      1175 1.24274E-02-9.61752E-04-8.79431E-14
 -1      1176 1.26383E-02-8.61411E-04-9.12502E-14
 -1      1177 1.28579E-02-7.17326E-04-9.45595E-14
 -1      1178 1.30927E-02-5.39831E-04-9.78570E-14
 -1      1179 1.33457E-02-3.42145E-04-1.01134E-13
 -1      1180 1.36161E-02-1.38314E-04-1.04382E-13
 -1      1181 1.38920E-02 5.48812E-05-1.07538E-13
 -1      1182 2.28437E-04 1.60709E-04 3.04119E-17
 -1      1183 5.53851E-04 3.42133E-04 2.36763E-17
 -1      1184 8.34470E-04 4.61154E-04-7.79406E-17
 -1      1185 1.10407E-03 5.42356E-04-2.88371E-16
 -1      1186 1.36954E-03 5.99611E-04-6.10067E-16
 -1      1187 1.63448E-03 6.40433E-04-1.04459E-15
 -1      1188 1.90068E-03 6.69399E-04-1.59206E-15
 -1      1189 2.16897E-03 6.89629E-04-2.25078E-15
 -1      1190 2.43965E-03 7.03410E-04-3.02114E-15
 -1      1191 2.71272E-03 7.12469E-04-3.90044E-15
 -1      1192 2.98802E-03 7.18119E-04-4.88982E-15
 -1      1193 3.26529E-03 7.21350E-04-5.98143E-15
 -1      1194 3.54427E-03 7.22898E-04-7.17384E-15
 -1      1195 3.82467E-03 7.23302E-04-8.47030E-15
 -1      1196 4.10624E-03 7.22941E-04-9.86892E-15
 -1      1197 4.38873E-03 7.22074E-04-1.13722E-14
 -1      1198 4.67197E-03 7.20866E-04-1.29705E-14
 -1      1199 4.95577E-03 7.19403E-04-1.46630E-14
 -1      1200 5.24002E-03 7.17720E-04-1.64489E-14
 -1      1201 5.52464E-03 7.15802E-04-1.83273E-14
 -1      1202 5.80960E-03 7.13604E-04-2.02926E-14
 -1      1203 6.09489E-03 7.11054E-04-2.23452E-14
 -1      1204 6.38058E-03 7.08063E-04-2.44809E-14
 -1      1205 6.66681E-03 7.04532E-04-2.67008E-14
 -1      1206 6.95378E-03 7.00366E-04-2.89946E-14
 -1      1207 7.24180E-03 6.95483E-04-3.13572E-14
 -1      1208 7.53131E-03 6.89842E-04-3.37835E-14
 -1      1209 7.82289E-03 6.83466E-04-3.62712E-14
 -1      1210 8.11736E-03 6.76496E-04-3.88192E-14
 -1      1211 8.41575E-03 6.69256E-04-4.14351E-14
 -1      1212 8.71944E-03 6.62363E-04-4.41204E-14
 -1      1213 9.03020E-03 6.56890E-04-4.68664E-14
 -1      1214 9.35020E-03 6.54611E-04-4.96704E-14
 -1      1215 9.68202E-03 6.58365E-04-5.25285E-14
 -1      1216 1.00285E-02 6.72557E-04-5.54458E-14
 -1      1217 1.03920E-02 7.03769E-04-5.84158E-14
 -1      1218 1.07739E-02 7.61259E-04-6.14319E-14
 -1      1219 1.11719E-02 8.56681E-04-6.44988E-14
 -1      1220 1.15779E-02 1.00162E-03-6.76078E-14
 -1      1221 1.19749E-02 1.20096E-03-7.07509E-14
 -1      1222 1.23381E-02 1.44171E-03-7.39044E-14
 -1      1223 1.26433E-02 1.68311E-03-7.70511E-14
 -1      1224 1.28839E-02 1.86179E-03-8.01914E-14
 -1      1225 1.30827E-02 1.92030E-03-8.33327E-14
 -1      1226 1.32810E-02 1.84373E-03-8.64495E-14
 -1      1227 1.35045E-02 1.67182E-03-8.94747E-14
 -1      1228 1.37624E-02 1.45357E-03-9.25157E-14
 -1      1229 1.40473E-02 1.21776E-03-9.56617E-14
 -1      1230 1.43351E-02 9.79649E-04-9.88077E-14
 -1      1231 1.46196E-02 7.34559E-04-1.01943E-13
 -1      1232 1.48869E-02 5.66427E-04-1.03714E-13
 -1      1233 1.51413E-02 4.81771E-04-1.04113E-13
 -1      1234 1.54119E-02 4.09323E-04-1.04543E-13
 -1      1235 1.56993E-02 3.68494E-04-1.04970E-13
 -1      1236 1.59773E-02 3.82698E-04-1.05352E-13
 -1      1237 1.61931E-02 4.63811E-04-1.05688E-13
 -1      1238 1.62852E-02 5.91642E-04-1.06014E-13
 -1      1239 1.62295E-02 7.28764E-04-1.06321E-13
 -1      1240 1.60296E-02 8.31502E-04-1.06634E-13
 -1      1241 1.57394E-02 8.62963E-04-1.06946E-13
 -1      1242 1.54241E-02 8.21928E-04-1.07241E-13
 -1      1243 1.51304E-02 7.28891E-04-1.07533E-13
 -1      1244 1.48776E-02 6.10215E-04-1.07834E-13
 -1      1245 1.46644E-02 4.87516E-04-1.08121E-13
 -1      1246 1.44779E-02 3.74234E-04-1.08390E-13
 -1      1247 1.43015E-02 2.75441E-04-1.08658E-13
 -1      1248 1.41211E-02 1.88185E-04-1.08941E-13
 -1      1249 1.55997E-02 6.57500E-04-9.16352E-14
 -1      1250 1.54738E-02 8.45186E-04-9.11787E-14
 -1      1251 1.52163E-02 1.03912E-03-9.04285E-14
 -1      1252 1.48668E-02 1.22569E-03-8.94362E-14
 -1      1253 1.44476E-02 1.39682E-03-8.82390E-14
 -1      1254 1.39648E-02 1.53860E-03-8.68082E-14
 -1      1255 1.34561E-02 1.61975E-03-8.52479E-14
 -1      1256 1.29518E-02 1.62004E-03-8.36646E-14
 -1      1257 1.24667E-02 1.54242E-03-8.21455E-14
 -1      1258 1.20017E-02 1.39888E-03-8.07255E-14
 -1      1259 1.15799E-02 1.21827E-03-7.94818E-14
 -1      1260 1.12178E-02 1.02612E-03-7.84708E-14
 -1      1261 1.09115E-02 8.29256E-04-7.76712E-14
 -1      1262 1.06838E-02 6.39093E-04-7.71317E-14
 -1      1263 1.05566E-02 4.64755E-04-7.68803E-14
 -1      1264 1.05346E-02 3.00588E-04-7.69225E-14
 -1      1265 1.06213E-02 1.38977E-04-7.72689E-14
 -1      1266 1.08080E-02-1.80151E-05-7.79106E-14
 -1      1267 1.10840E-02-1.72741E-04-7.88355E-14
 -1      1268 1.14335E-02-3.18475E-04-7.99960E-14
 -1      1269 1.18364E-02-4.41556E-04-8.13404E-14
 -1      1270 1.22946E-02-5.30528E-04-8.28808E-14
 -1      1271 1.27849E-02-5.63943E-04-8.45141E-14
 -1      1272 1.32749E-02-5.32792E-04-8.60990E-14
 -1      1273 1.37833E-02-4.36324E-04-8.76499E-14
 -1      1274 1.42777E-02-2.90440E-04-8.90295E-14
 -1      1275 1.47236E-02-1.16764E-04-9.01488E-14
 -1      1276 1.51103E-02 7.25875E-05-9.10028E-14
 -1      1277 1.54052E-02 2.66256E-04-9.15577E-14
 -1      1278 1.55795E-02 4.65610E-04-9.17888E-14
 -1      1279 1.66713E-04-1.10336E-04-5.93601E-18
 -1      1280 1.12549E-04-5.69637E-05-2.61564E-17
 -1      1281 1.17633E-04-6.75736E-05-2.05050E-17
 -1      1282 1.08420E-04-4.34801E-05-3.53585E-17
 -1      1283 1.10285E-04-4.95925E-05-3.25938E-17
 -1      1284 2.26339E-04-1.07601E-04-7.66666E-17
 -1      1285 1.06848E-04-3.36086E-05-4.00748E-17
 -1      1286 1.07694E-04-3.83338E-05-3.87602E-17
 -1      1287 2.19106E-04-8.24492E-05-9.28619E-17
 -1      1288 1.06065E-04-2.53388E-05-4.29209E-17
 -1      1289 1.06500E-04-2.93706E-05-4.22974E-17
 -1      1290 2.15882E-04-6.32623E-05-1.01996E-16
 -1      1291 1.05654E-04-1.80832E-05-4.39780E-17
 -1      1292 1.05885E-04-2.16501E-05-4.37340E-17
 -1      1293 2.14207E-04-4.71687E-05-1.06726E-16
 -1      1294 1.05432E-04-1.12339E-05-4.46420E-17
 -1      1295 1.05556E-04-1.46179E-05-4.46691E-17
 -1      1296 2.13282E-04-3.27395E-05-1.09057E-16
 -1      1297 1.05331E-04-4.68682E-06-4.43032E-17
 -1      1298 1.05384E-04-7.93875E-06-4.44116E-17
 -1      1299 2.12782E-04-1.91817E-05-1.09613E-16
 -1      1300 1.05320E-04 1.74220E-06-4.38424E-17
 -1      1301 1.05318E-04-1.46981E-06-4.41406E-17
 -1      1302 2.12566E-04-6.15757E-06-1.09017E-16
 -1      1303 1.05393E-04 8.22100E-06-4.26769E-17
 -1      1304 1.05336E-04 4.96251E-06-4.29751E-17
 -1      1305 2.12574E-04 6.70559E-06-1.07173E-16
 -1      1306 1.05572E-04 1.49256E-05-4.10642E-17
 -1      1307 1.05444E-04 1.15268E-05-4.15520E-17
 -1      1308 2.12807E-04 1.97560E-05-1.04056E-16
 -1      1309 1.05908E-04 2.19425E-05-3.86247E-17
 -1      1310 1.05672E-04 1.83521E-05-3.94379E-17
 -1      1311 2.13323E-04 3.32537E-05-9.95704E-17
 -1      1312 1.06536E-04 2.98081E-05-3.49791E-17
 -1      1313 1.06094E-04 2.57316E-05-3.62801E-17
 -1      1314 2.14270E-04 4.77782E-05-9.31736E-17
 -1      1315 1.07729E-04 3.89069E-05-2.95039E-17
 -1      1316 1.06876E-04 3.41131E-05-3.16180E-17
 -1      1317 2.15981E-04 6.41894E-05-8.38766E-17
 -1      1318 1.10272E-04 5.03354E-05-2.10335E-17
 -1      1319 1.08432E-04 4.41508E-05-2.46385E-17
 -1      1320 2.19215E-04 8.36880E-05-7.00395E-17
 -1      1321 1.16948E-04 6.76116E-05-7.81981E-18
 -1      1322 1.12196E-04 5.77653E-05-1.42030E-17
 -1      1323 2.26335E-04 1.09427E-04-4.97649E-17
 -1      1324 1.57591E-04 1.09855E-04 1.28207E-17
 -1      1325 1.35674E-04 8.60844E-05 2.57498E-19
 -1      1326 2.56063E-04 1.52078E-04-2.54245E-17
 -1      1327 3.35111E-04 2.20727E-04 8.78204E-18
 -1      1328 4.21578E-04-2.61724E-04-5.19062E-17
 -1      1329 5.74693E-04-3.36780E-04-1.06103E-16
 -1      1330 7.21899E-04-3.97378E-04-1.93720E-16
 -1      1331 8.65087E-04-4.46671E-04-3.11966E-16
 -1      1332 6.12136E-04-3.30868E-04-1.82187E-16
 -1      1333 1.00513E-03-4.87742E-04-4.59675E-16
 -1      1334 1.14300E-03-5.21732E-04-6.37335E-16
 -1      1335 9.05405E-04-4.31559E-04-4.26932E-16
 -1      1336 1.27952E-03-5.50509E-04-8.44024E-16
 -1      1337 1.41520E-03-5.74552E-04-1.08037E-15
 -1      1338 1.18788E-03-5.00981E-04-7.88310E-16
 -1      1339 1.55047E-03-5.94928E-04-1.34535E-15
 -1      1340 1.68560E-03-6.11970E-04-1.63860E-15
 -1      1341 1.46486E-03-5.49767E-04-1.26487E-15
 -1      1342 1.82082E-03-6.26306E-04-1.96021E-15
 -1      1343 1.95624E-03-6.38229E-04-2.31014E-15
 -1      1344 1.73960E-03-5.84099E-04-1.85492E-15
 -1      1345 2.09199E-03-6.48143E-04-2.68748E-15
 -1      1346 2.22812E-03-6.56297E-04-3.09278E-15
 -1      1347 2.01397E-03-6.07961E-04-2.55628E-15
 -1      1348 2.36467E-03-6.62968E-04-3.52629E-15
 -1      1349 2.50165E-03-6.68361E-04-3.98713E-15
 -1      1350 2.28896E-03-6.24170E-04-3.36848E-15
 -1      1351 2.63909E-03-6.72673E-04-4.47519E-15
 -1      1352 2.77696E-03-6.76067E-04-4.99026E-15
 -1      1353 2.56503E-03-6.34806E-04-4.28990E-15
 -1      1354 2.91527E-03-6.78686E-04-5.53152E-15
 -1      1355 3.05399E-03-6.80658E-04-6.10003E-15
 -1      1356 2.84238E-03-6.41428E-04-5.31937E-15
 -1      1357 3.19311E-03-6.82083E-04-6.69348E-15
 -1      1358 3.33259E-03-6.83061E-04-7.31233E-15
 -1      1359 3.12102E-03-6.45206E-04-6.45325E-15
 -1      1360 3.47242E-03-6.83663E-04-7.95697E-15
 -1      1361 3.61257E-03-6.83964E-04-8.62625E-15
 -1      1362 3.40089E-03-6.47011E-04-7.68897E-15
 -1      1363 3.75301E-03-6.84011E-04-9.32055E-15
 -1      1364 3.89372E-03-6.83860E-04-1.00388E-14
 -1      1365 3.68184E-03-6.47478E-04-9.02586E-15
 -1      1366 4.03467E-03-6.83542E-04-1.07807E-14
 -1      1367 4.17584E-03-6.83095E-04-1.15468E-14
 -1      1368 3.96373E-03-6.47061E-04-1.04594E-14
 -1      1369 4.31721E-03-6.82538E-04-1.23365E-14
 -1      1370 4.45876E-03-6.81898E-04-1.31502E-14
 -1      1371 4.24642E-03-6.46071E-04-1.19889E-14
 -1      1372 4.60047E-03-6.81182E-04-1.39870E-14
 -1      1373 4.74231E-03-6.80409E-04-1.48473E-14
 -1      1374 4.52977E-03-6.44710E-04-1.36133E-14
 -1      1375 4.88429E-03-6.79577E-04-1.57312E-14
 -1      1376 5.02638E-03-6.78697E-04-1.66377E-14
 -1      1377 4.81366E-03-6.43096E-04-1.53316E-14
 -1      1378 5.16858E-03-6.77764E-04-1.75690E-14
 -1      1379 5.31087E-03-6.76781E-04-1.85233E-14
 -1      1380 5.09799E-03-6.41281E-04-1.71425E-14
 -1      1381 5.45325E-03-6.75740E-04-1.95004E-14
 -1      1382 5.59573E-03-6.74640E-04-2.05017E-14
 -1      1383 5.38271E-03-6.39266E-04-1.90469E-14
 -1      1384 5.73829E-03-6.73469E-04-2.15270E-14
 -1      1385 5.88094E-03-6.72224E-04-2.25771E-14
 -1      1386 5.66777E-03-6.37019E-04-2.10458E-14
 -1      1387 6.02369E-03-6.70890E-04-2.36491E-14
 -1      1388 6.16654E-03-6.69465E-04-2.47440E-14
 -1      1389 5.95319E-03-6.34479E-04-2.31389E-14
 -1      1390 6.30950E-03-6.67932E-04-2.58645E-14
 -1      1391 6.45260E-03-6.66290E-04-2.70063E-14
 -1      1392 6.23900E-03-6.31570E-04-2.53268E-14
 -1      1393 6.59584E-03-6.64521E-04-2.81719E-14
 -1      1394 6.73925E-03-6.62629E-04-2.93607E-14
 -1      1395 6.52529E-03-6.28212E-04-2.76079E-14
 -1      1396 6.88286E-03-6.60598E-04-3.05676E-14
 -1      1397 7.02669E-03-6.58438E-04-3.17945E-14
 -1      1398 6.81219E-03-6.24332E-04-2.99751E-14
 -1      1399 7.17079E-03-6.56138E-04-3.30409E-14
 -1      1400 7.31519E-03-6.53717E-04-3.43041E-14
 -1      1401 7.09989E-03-6.19888E-04-3.24223E-14
 -1      1402 7.45993E-03-6.51174E-04-3.55863E-14
 -1      1403 7.60507E-03-6.48543E-04-3.68854E-14
 -1      1404 7.38863E-03-6.14887E-04-3.49445E-14
 -1      1405 7.75065E-03-6.45837E-04-3.82045E-14
 -1      1406 7.89673E-03-6.43110E-04-3.95430E-14
 -1      1407 7.67873E-03-6.09421E-04-3.75416E-14
 -1      1408 8.04339E-03-6.40398E-04-4.09000E-14
 -1      1409 8.19066E-03-6.37780E-04-4.22763E-14
 -1      1410 7.97054E-03-6.03713E-04-4.02128E-14
 -1      1411 8.33863E-03-6.35325E-04-4.36697E-14
 -1      1412 8.48735E-03-6.33144E-04-4.50786E-14
 -1      1413 8.26447E-03-5.98170E-04-4.29582E-14
 -1      1414 8.63688E-03-6.31352E-04-4.65074E-14
 -1      1415 8.78728E-03-6.30095E-04-4.79528E-14
 -1      1416 8.56095E-03-5.93451E-04-4.57744E-14
 -1      1417 8.93859E-03-6.29546E-04-4.94132E-14
 -1      1418 9.09084E-03-6.29889E-04-5.08882E-14
 -1      1419 8.86036E-03-5.90540E-04-4.86574E-14
 -1      1420 9.24404E-03-6.31365E-04-5.23756E-14
 -1      1421 9.39819E-03-6.34187E-04-5.38778E-14
 -1      1422 9.16299E-03-5.90811E-04-5.15988E-14
 -1      1423 9.55323E-03-6.38667E-04-5.53935E-14
 -1      1424 9.70909E-03-6.45028E-04-5.69199E-14
 -1      1425 9.46890E-03-5.96062E-04-5.45954E-14
 -1      1426 9.86562E-03-6.53634E-04-5.84577E-14
 -1      1427 1.00227E-02-6.64676E-04-6.00050E-14
 -1      1428 9.77780E-03-6.08473E-04-5.76419E-14
 -1      1429 1.01799E-02-6.78515E-04-6.15586E-14
 -1      1430 1.03372E-02-6.95240E-04-6.31203E-14
 -1      1431 1.00888E-02-6.30406E-04-6.07273E-14
 -1      1432 1.04940E-02-7.15106E-04-6.46884E-14
 -1      1433 1.06499E-02-7.37998E-04-6.62588E-14
 -1      1434 1.04005E-02-6.63962E-04-6.38437E-14
 -1      1435 1.08044E-02-7.63901E-04-6.78306E-14
 -1      1436 1.09570E-02-7.92367E-04-6.94073E-14
 -1      1437 1.07103E-02-7.10204E-04-6.69793E-14
 -1      1438 1.11072E-02-8.22920E-04-7.09822E-14
 -1      1439 1.12542E-02-8.54667E-04-7.25575E-14
 -1      1440 1.10152E-02-7.68024E-04-7.01236E-14
 -1      1441 1.13978E-02-8.86517E-04-7.41386E-14
 -1      1442 1.15373E-02-9.17105E-04-7.57240E-14
 -1      1443 1.13117E-02-8.32845E-04-7.32769E-14
 -1      1444 1.16726E-02-9.44744E-04-7.73149E-14
 -1      1445 1.18035E-02-9.67738E-04-7.89132E-14
 -1      1446 1.15963E-02-8.95690E-04-7.64447E-14
 -1      1447 1.19301E-02-9.84091E-04-8.05217E-14
 -1      1448 1.20527E-02-9.92127E-04-8.21397E-14
 -1      1449 1.18672E-02-9.43450E-04-7.96412E-14
 -1      1450 1.21720E-02-9.90082E-04-8.37645E-14
 -1      1451 1.22886E-02-9.76765E-04-8.53960E-14
 -1      1452 1.21248E-02-9.61051E-04-8.28705E-14
 -1      1453 1.24035E-02-9.51224E-04-8.70345E-14
 -1      1454 1.25175E-02-9.13121E-04-8.86770E-14
 -1      1455 1.23725E-02-9.35361E-04-8.61281E-14
 -1      1456 1.26318E-02-8.62621E-04-9.03245E-14
 -1      1457 1.27471E-02-8.00314E-04-9.19763E-14
 -1      1458 1.26157E-02-8.59328E-04-8.94071E-14
 -1      1459 1.28644E-02-7.27353E-04-9.36275E-14
 -1      1460 1.29842E-02-6.45019E-04-9.52746E-14
 -1      1461 1.28605E-02-7.34171E-04-9.26980E-14
 -1      1462 1.31070E-02-5.55037E-04-9.69195E-14
 -1      1463 1.32331E-02-4.59026E-04-9.85604E-14
 -1      1464 1.31117E-02-5.68492E-04-9.59872E-14
 -1      1465 1.33626E-02-3.58875E-04-1.00197E-13
 -1      1466 1.34953E-02-2.56295E-04-1.01826E-13
 -1      1467 1.33721E-02-3.75277E-04-9.92632E-14
 -1      1468 1.36312E-02-1.53086E-04-1.03451E-13
 -1      1469 1.37698E-02-5.10573E-05-1.05069E-13
 -1      1470 1.36420E-02-1.68879E-04-1.02519E-13
 -1      1471 1.39857E-02 9.73460E-05-1.07399E-13
 -1      1472 1.39950E-02 8.64073E-05-1.06469E-13
 -1      1473 6.43139E-04 3.71990E-04-4.77862E-17
 -1      1474 4.92995E-04 3.03673E-04-6.15285E-18
 -1      1475 4.44924E-04 2.65873E-04-3.15638E-17
 -1      1476 9.28766E-04 4.71948E-04-2.10539E-16
 -1      1477 7.87881E-04 4.26459E-04-1.15833E-16
 -1      1478 7.44820E-04 3.90684E-04-1.47817E-16
 -1      1479 1.20370E-03 5.41371E-04-4.80491E-16
 -1      1480 1.06701E-03 5.09689E-04-3.31712E-16
 -1      1481 1.03091E-03 4.76121E-04-3.69455E-16
 -1      1482 1.47431E-03 5.90582E-04-8.61344E-16
 -1      1483 1.33923E-03 5.68115E-04-6.57162E-16
 -1      1484 1.30887E-03 5.35953E-04-6.98524E-16
 -1      1485 1.74390E-03 6.25505E-04-1.35361E-15
 -1      1486 1.60906E-03 6.09589E-04-1.09307E-15
 -1      1487 1.58315E-03 5.78260E-04-1.13711E-15
 -1      1488 2.01418E-03 6.50011E-04-1.95781E-15
 -1      1489 1.87887E-03 6.38888E-04-1.64178E-15
 -1      1490 1.85637E-03 6.08021E-04-1.68634E-15
 -1      1491 2.28594E-03 6.66850E-04-2.67296E-15
 -1      1492 2.14984E-03 6.59257E-04-2.30163E-15
 -1      1493 2.12995E-03 6.28623E-04-2.34720E-15
 -1      1494 2.55951E-03 6.78072E-04-3.49750E-15
 -1      1495 2.42249E-03 6.73062E-04-3.07154E-15
 -1      1496 2.40458E-03 6.42520E-04-3.11754E-15
 -1      1497 2.83493E-03 6.85222E-04-4.43086E-15
 -1      1498 2.69699E-03 6.82079E-04-3.95085E-15
 -1      1499 2.68058E-03 6.51545E-04-3.99583E-15
 -1      1500 3.11211E-03 6.89469E-04-5.46919E-15
 -1      1501 2.97331E-03 6.87650E-04-4.93724E-15
 -1      1502 2.95801E-03 6.57076E-04-4.98026E-15
 -1      1503 3.39088E-03 6.91683E-04-6.60955E-15
 -1      1504 3.25131E-03 6.90786E-04-6.02636E-15
 -1      1505 3.23681E-03 6.60148E-04-6.06751E-15
 -1      1506 3.67101E-03 6.92508E-04-7.85232E-15
 -1      1507 3.53079E-03 6.92238E-04-7.21797E-15
 -1      1508 3.51688E-03 6.61525E-04-7.25681E-15
 -1      1509 3.95231E-03 6.92404E-04-9.19662E-15
 -1      1510 3.81153E-03 6.92550E-04-8.51211E-15
 -1      1511 3.79804E-03 6.61762E-04-8.54899E-15
 -1      1512 4.23455E-03 6.91690E-04-1.06437E-14
 -1      1513 4.09332E-03 6.92109E-04-9.90715E-15
 -1      1514 4.08013E-03 6.61251E-04-9.94094E-15
 -1      1515 4.51757E-03 6.90575E-04-1.21899E-14
 -1      1516 4.37597E-03 6.91174E-04-1.14045E-14
 -1      1517 4.36299E-03 6.60256E-04-1.14339E-14
 -1      1518 4.80120E-03 6.89183E-04-1.38308E-14
 -1      1519 4.65931E-03 6.89909E-04-1.29988E-14
 -1      1520 4.64649E-03 6.58940E-04-1.30230E-14
 -1      1521 5.08532E-03 6.87571E-04-1.55662E-14
 -1      1522 4.94320E-03 6.88403E-04-1.46870E-14
 -1      1523 4.93049E-03 6.57393E-04-1.47074E-14
 -1      1524 5.36984E-03 6.85745E-04-1.73938E-14
 -1      1525 5.22753E-03 6.86685E-04-1.64683E-14
 -1      1526 5.21493E-03 6.55643E-04-1.64842E-14
 -1      1527 5.65472E-03 6.83671E-04-1.93121E-14
 -1      1528 5.51224E-03 6.84741E-04-1.83423E-14
 -1      1529 5.49972E-03 6.53673E-04-1.83535E-14
 -1      1530 5.93994E-03 6.81286E-04-2.13189E-14
 -1      1531 5.79729E-03 6.82521E-04-2.03040E-14
 -1      1532 5.78487E-03 6.51431E-04-2.03123E-14
 -1      1533 6.22555E-03 6.78503E-04-2.34101E-14
 -1      1534 6.08270E-03 6.79948E-04-2.23541E-14
 -1      1535 6.07037E-03 6.48837E-04-2.23596E-14
 -1      1536 6.51164E-03 6.75222E-04-2.55854E-14
 -1      1537 6.36853E-03 6.76929E-04-2.44877E-14
 -1      1538 6.35630E-03 6.45791E-04-2.44912E-14
 -1      1539 6.79836E-03 6.71335E-04-2.78384E-14
 -1      1540 6.65491E-03 6.73356E-04-2.67025E-14
 -1      1541 6.64277E-03 6.42181E-04-2.67019E-14
 -1      1542 7.08596E-03 6.66742E-04-3.01646E-14
 -1      1543 6.94204E-03 6.69126E-04-2.89929E-14
 -1      1544 6.92997E-03 6.37894E-04-2.89873E-14
 -1      1545 7.37479E-03 6.61363E-04-3.25564E-14
 -1      1546 7.23020E-03 6.64144E-04-3.13519E-14
 -1      1547 7.21816E-03 6.32825E-04-3.13446E-14
 -1      1548 7.66531E-03 6.55165E-04-3.50136E-14
 -1      1549 7.51981E-03 6.58352E-04-3.37777E-14
 -1      1550 7.50771E-03 6.26901E-04-3.37683E-14
 -1      1551 7.95815E-03 6.48200E-04-3.75315E-14
 -1      1552 7.81140E-03 6.51752E-04-3.62645E-14
 -1      1553 7.79910E-03 6.20103E-04-3.62566E-14
 -1      1554 8.25414E-03 6.40654E-04-4.01144E-14
 -1      1555 8.10569E-03 6.44454E-04-3.88150E-14
 -1      1556 8.09297E-03 6.12518E-04-3.88067E-14
 -1      1557 8.55436E-03 6.32939E-04-4.27636E-14
 -1      1558 8.40365E-03 6.36744E-04-4.14304E-14
 -1      1559 8.39015E-03 6.04397E-04-4.14232E-14
 -1      1560 8.86016E-03 6.25817E-04-4.54817E-14
 -1      1561 8.70647E-03 6.29191E-04-4.41139E-14
 -1      1562 8.69168E-03 5.96264E-04-4.41065E-14
 -1      1563 9.17324E-03 6.20602E-04-4.82562E-14
 -1      1564 9.01568E-03 6.22801E-04-4.68626E-14
 -1      1565 8.99885E-03 5.89070E-04-4.68539E-14
 -1      1566 9.49560E-03 6.19458E-04-5.10894E-14
 -1      1567 9.33313E-03 6.19272E-04-4.96652E-14
 -1      1568 9.31319E-03 5.84439E-04-4.96595E-14
 -1      1569 9.82944E-03 6.25831E-04-5.39792E-14
 -1      1570 9.66093E-03 6.21352E-04-5.25265E-14
 -1      1571 9.63642E-03 5.85032E-04-5.25212E-14
 -1      1572 1.01769E-02 6.45038E-04-5.69239E-14
 -1      1573 1.00013E-02 6.33353E-04-5.54447E-14
 -1      1574 9.97034E-03 5.95066E-04-5.54410E-14
 -1      1575 1.05394E-02 6.84915E-04-5.99177E-14
 -1      1576 1.03562E-02 6.61794E-04-5.84149E-14
 -1      1577 1.03164E-02 6.20977E-04-5.84122E-14
 -1      1578 1.09164E-02 7.56169E-04-6.29590E-14
 -1      1579 1.07262E-02 7.15971E-04-6.14319E-14
 -1      1580 1.06753E-02 6.72041E-04-6.14295E-14
 -1      1581 1.13041E-02 8.71475E-04-6.60423E-14
 -1      1582 1.11093E-02 8.07835E-04-6.44966E-14
 -1      1583 1.10458E-02 7.60389E-04-6.44919E-14
 -1      1584 1.16931E-02 1.04147E-03-6.91674E-14
 -1      1585 1.14993E-02 9.49779E-04-6.75997E-14
 -1      1586 1.14236E-02 8.99028E-04-6.75912E-14
 -1      1587 1.20679E-02 1.26571E-03-7.23133E-14
 -1      1588 1.18836E-02 1.14824E-03-7.07382E-14
 -1      1589 1.18003E-02 1.09573E-03-7.07248E-14
 -1      1590 1.24096E-02 1.51978E-03-7.54676E-14
 -1      1591 1.22442E-02 1.39219E-03-7.38906E-14
 -1      1592 1.21626E-02 1.34146E-03-7.38776E-14
 -1      1593 1.27050E-02 1.74873E-03-7.86144E-14
 -1      1594 1.25634E-02 1.64167E-03-7.70421E-14
 -1      1595 1.24962E-02 1.59762E-03-7.70321E-14
 -1      1596 1.29578E-02 1.88354E-03-8.17589E-14
 -1      1597 1.28354E-02 1.83120E-03-8.01870E-14
 -1      1598 1.27940E-02 1.79718E-03-8.01827E-14
 -1      1599 1.31921E-02 1.87912E-03-8.48903E-14
 -1      1600 1.30753E-02 1.89860E-03-8.33269E-14
 -1      1601 1.30659E-02 1.87347E-03-8.33234E-14
 -1      1602 1.34355E-02 1.74664E-03-8.80059E-14
 -1      1603 1.33113E-02 1.82579E-03-8.64496E-14
 -1      1604 1.33328E-02 1.80479E-03-8.64495E-14
 -1      1605 1.36884E-02 1.54878E-03-9.09637E-14
 -1      1606 1.35593E-02 1.65320E-03-8.94844E-14
 -1      1607 1.36048E-02 1.63222E-03-8.94905E-14
 -1      1608 1.39733E-02 1.31466E-03-9.40971E-14
 -1      1609 1.38293E-02 1.43306E-03-9.25274E-14
 -1      1610 1.38908E-02 1.41097E-03-9.25369E-14
 -1      1611 1.42651E-02 1.07816E-03-9.72380E-14
 -1      1612 1.41192E-02 1.19651E-03-9.56672E-14
 -1      1613 1.41903E-02 1.17439E-03-9.56757E-14
 -1      1614 1.45541E-02 8.38353E-04-1.00383E-13
 -1      1615 1.44102E-02 9.59308E-04-9.88090E-14
 -1      1616 1.44864E-02 9.38597E-04-9.88170E-14
 -1      1617 1.47440E-02 6.91969E-04-1.02149E-13
 -1      1618 1.50835E-02 5.74762E-04-1.02869E-13
 -1      1619 1.49530E-02 6.13124E-04-1.02662E-13
 -1      1620 1.53618E-02 5.10093E-04-1.03286E-13
 -1      1621 1.52197E-02 5.39782E-04-1.03075E-13
 -1      1622 1.50274E-02 6.62641E-04-1.01615E-13
 -1      1623 1.56566E-02 4.74552E-04-1.03690E-13
 -1      1624 1.55085E-02 4.87603E-04-1.03493E-13
 -1      1625 1.53139E-02 5.96908E-04-1.02019E-13
 -1      1626 1.59337E-02 4.82587E-04-1.04059E-13
 -1      1627 1.58005E-02 4.72435E-04-1.03882E-13
 -1      1628 1.56139E-02 5.55151E-04-1.02411E-13
 -1      1629 1.61324E-02 5.37802E-04-1.04402E-13
 -1      1630 1.60470E-02 5.04867E-04-1.04232E-13
 -1      1631 1.58854E-02 5.48705E-04-1.02774E-13
 -1      1632 1.61914E-02 6.17108E-04-1.04706E-13
 -1      1633 1.61797E-02 5.75789E-04-1.04555E-13
 -1      1634 1.60571E-02 5.77201E-04-1.03101E-13
 -1      1635 1.60933E-02 7.00071E-04-1.05019E-13
 -1      1636 1.61629E-02 6.61282E-04-1.04864E-13
 -1      1637 1.60825E-02 6.24432E-04-1.03410E-13
 -1      1638 1.58552E-02 7.46855E-04-1.05330E-13
 -1      1639 1.59883E-02 7.29637E-04-1.05174E-13
 -1      1640 1.59398E-02 6.64190E-04-1.03719E-13
 -1      1641 1.55430E-02 7.39822E-04-1.05628E-13
 -1      1642 1.57040E-02 7.50255E-04-1.05482E-13
 -1      1643 1.56680E-02 6.69034E-04-1.04020E-13
 -1      1644 1.52228E-02 6.82220E-04-1.05921E-13
 -1      1645 1.53807E-02 7.16458E-04-1.05775E-13
 -1      1646 1.53407E-02 6.30746E-04-1.04314E-13
 -1      1647 1.49350E-02 5.89917E-04-1.06212E-13
 -1      1648 1.50734E-02 6.39194E-04-1.06066E-13
 -1      1649 1.50211E-02 5.56918E-04-1.04602E-13
 -1      1650 1.46922E-02 4.81068E-04-1.06505E-13
 -1      1651 1.48080E-02 5.36513E-04-1.06357E-13
 -1      1652 1.47424E-02 4.61401E-04-1.04889E-13
 -1      1653 1.44882E-02 3.70080E-04-1.06785E-13
 -1      1654 1.45861E-02 4.25143E-04-1.06648E-13
 -1      1655 1.45103E-02 3.57072E-04-1.05173E-13
 -1      1656 1.43077E-02 2.65661E-04-1.07056E-13
 -1      1657 1.43960E-02 3.16704E-04-1.06921E-13
 -1      1658 1.43149E-02 2.53105E-04-1.05453E-13
 -1      1659 1.41082E-02 1.51143E-04-1.06830E-13
 -1      1660 1.41952E-02 1.97474E-04-1.06695E-13
 -1      1661 1.41133E-02 1.33820E-04-1.05227E-13
 -1      1662 1.38917E-02-2.21170E-07-1.04504E-13
 -1      1663 1.55987E-02 6.60826E-04-9.21467E-14
 -1      1664 1.56300E-02 6.04596E-04-9.22997E-14
 -1      1665 1.54051E-02 7.99614E-04-9.16166E-14
 -1      1666 1.55157E-02 7.30371E-04-9.19201E-14
 -1      1667 1.50732E-02 9.75890E-04-9.07260E-14
 -1      1668 1.52399E-02 8.90441E-04-9.11721E-14
 -1      1669 1.46739E-02 1.18159E-03-8.95717E-14
 -1      1670 1.48655E-02 1.08733E-03-9.01106E-14
 -1      1671 1.42133E-02 1.38568E-03-8.82546E-14
 -1      1672 1.44237E-02 1.28714E-03-8.89136E-14
 -1      1673 1.37383E-02 1.57425E-03-8.66426E-14
 -1      1674 1.39529E-02 1.49293E-03-8.74122E-14
 -1      1675 1.32975E-02 1.67480E-03-8.49121E-14
 -1      1676 1.34997E-02 1.64167E-03-8.56948E-14
 -1      1677 1.28660E-02 1.66088E-03-8.31913E-14
 -1      1678 1.30628E-02 1.68184E-03-8.39802E-14
 -1      1679 1.24443E-02 1.53869E-03-8.15874E-14
 -1      1680 1.26361E-02 1.60574E-03-8.23092E-14
 -1      1681 1.20185E-02 1.33526E-03-8.00485E-14
 -1      1682 1.22192E-02 1.43817E-03-8.07380E-14
 -1      1683 1.16059E-02 1.11027E-03-7.88000E-14
 -1      1684 1.17876E-02 1.21444E-03-7.93465E-14
 -1      1685 1.12273E-02 8.88845E-04-7.77570E-14
 -1      1686 1.13987E-02 9.89999E-04-7.82119E-14
 -1      1687 1.08960E-02 6.90566E-04-7.69578E-14
 -1      1688 1.10412E-02 7.78435E-04-7.72937E-14
 -1      1689 1.06507E-02 5.27875E-04-7.64443E-14
 -1      1690 1.07514E-02 5.98494E-04-7.66446E-14
 -1      1691 1.05262E-02 4.00949E-04-7.62473E-14
 -1      1692 1.05681E-02 4.55523E-04-7.62966E-14
 -1      1693 1.05293E-02 2.86518E-04-7.63715E-14
 -1      1694 1.05112E-02 3.38964E-04-7.62753E-14
 -1      1695 1.06642E-02 1.70181E-04-7.67843E-14
 -1      1696 1.05860E-02 2.25703E-04-7.65331E-14
 -1      1697 1.09096E-02 3.46125E-05-7.75508E-14
 -1      1698 1.07848E-02 9.96244E-05-7.71620E-14
 -1      1699 1.12430E-02-1.28046E-04-7.86210E-14
 -1      1700 1.10796E-02-4.99111E-05-7.80937E-14
 -1      1701 1.16250E-02-3.02091E-04-7.99234E-14
 -1      1702 1.14458E-02-2.21739E-04-7.93017E-14
 -1      1703 1.20398E-02-4.62220E-04-8.13981E-14
 -1      1704 1.18535E-02-3.89460E-04-8.06808E-14
 -1      1705 1.24619E-02-5.81284E-04-8.31626E-14
 -1      1706 1.22608E-02-5.34631E-04-8.23449E-14
 -1      1707 1.28909E-02-6.12086E-04-8.49327E-14
 -1      1708 1.26935E-02-6.08709E-04-8.41253E-14
 -1      1709 1.33206E-02-5.51129E-04-8.66305E-14
 -1      1710 1.31218E-02-5.90695E-04-8.58602E-14
 -1      1711 1.37814E-02-3.95863E-04-8.83440E-14
 -1      1712 1.35590E-02-4.80109E-04-8.75758E-14
 -1      1713 1.42638E-02-1.94820E-04-8.97200E-14
 -1      1714 1.40510E-02-2.91014E-04-8.91124E-14
 -1      1715 1.47236E-02 2.23138E-05-9.08708E-14
 -1      1716 1.45124E-02-7.87993E-05-9.03693E-14
 -1      1717 1.51334E-02 2.21993E-04-9.17159E-14
 -1      1718 1.49532E-02 1.33642E-04-9.13691E-14
 -1      1719 1.54492E-02 3.95126E-04-9.22754E-14
 -1      1720 1.53167E-02 3.22306E-04-9.20772E-14
 -1      1721 1.56201E-02 5.37651E-04-9.24700E-14
 -1      1722 1.55636E-02 4.76826E-04-9.24521E-14
 -1      1723 1.44711E-02 1.18261E-03-8.96104E-14
 -1      1724 1.49204E-02 9.62519E-04-9.08869E-14
 -1      1725 1.48228E-02 6.72727E-04-1.02151E-13
 -1      1726 1.47613E-02 7.59135E-04-1.00900E-13
 -1      1727 1.55604E-02 6.62022E-04-9.26217E-14
 -1      1728 1.53021E-02 7.81966E-04-9.19489E-14
 -1      1729 1.56382E-02 5.73153E-04-9.30178E-14
 -1      1730 1.40004E-02 1.41731E-03-8.81065E-14
 -1      1731 1.35669E-02 1.61824E-03-8.63141E-14
 -1      1732 1.31652E-02 1.70753E-03-8.44348E-14
 -1      1733 1.27835E-02 1.66022E-03-8.26230E-14
 -1      1734 1.23919E-02 1.49230E-03-8.08934E-14
 -1      1735 1.19863E-02 1.25170E-03-7.93434E-14
 -1      1736 1.15731E-02 9.98081E-04-7.80568E-14
 -1      1737 1.11847E-02 7.67732E-04-7.70076E-14
 -1      1738 1.08474E-02 5.82482E-04-7.62334E-14
 -1      1739 1.06112E-02 4.50681E-04-7.57748E-14
 -1      1740 1.05083E-02 3.58318E-04-7.56582E-14
 -1      1741 1.05512E-02 2.76987E-04-7.58497E-14
 -1      1742 1.07352E-02 1.81570E-04-7.63903E-14
 -1      1743 1.10313E-02 4.72283E-05-7.73084E-14
 -1      1744 1.13998E-02-1.28212E-04-7.85290E-14
 -1      1745 1.18062E-02-3.22103E-04-7.99647E-14
 -1      1746 1.22028E-02-5.03839E-04-8.16678E-14
 -1      1747 1.25945E-02-6.19292E-04-8.35795E-14
 -1      1748 1.29851E-02-6.28750E-04-8.54716E-14
 -1      1749 1.33875E-02-5.25764E-04-8.73459E-14
 -1      1750 1.38278E-02-3.25809E-04-8.90601E-14
 -1      1751 1.43108E-02-8.63130E-05-9.04782E-14
 -1      1752 1.47789E-02 1.46752E-04-9.16232E-14
 -1      1753 1.51980E-02 3.42746E-04-9.24793E-14
 -1      1754 1.55087E-02 4.83787E-04-9.30145E-14
 -1      1755 2.85268E-04-1.76215E-04-4.65936E-17
 -1      1756 3.32158E-04-1.16758E-04-1.47262E-16
 -1      1757 3.36266E-04-1.32962E-04-1.38561E-16
 -1      1758 3.42224E-04-1.51966E-04-1.27787E-16
 -1      1759 3.51794E-04-1.73978E-04-1.12472E-16
 -1      1760 4.58325E-04-1.88025E-04-2.01052E-16
 -1      1761 3.24547E-04-6.53520E-05-1.64243E-16
 -1      1762 3.25699E-04-7.66429E-05-1.62007E-16
 -1      1763 3.23053E-04-4.38657E-05-1.67008E-16
 -1      1764 3.23707E-04-5.43507E-05-1.65747E-16
 -1      1765 4.36484E-04-7.92539E-05-2.43566E-16
 -1      1766 3.22266E-04-2.37577E-05-1.67143E-16
 -1      1767 3.22599E-04-3.36657E-05-1.67414E-16
 -1      1768 4.34483E-04-5.12909E-05-2.46222E-16
 -1      1769 3.21971E-04-4.33448E-06-1.65883E-16
 -1      1770 3.22068E-04-1.39811E-05-1.66669E-16
 -1      1771 4.33460E-04-2.49102E-05-2.46141E-16
 -1      1772 3.22094E-04 1.49723E-05-1.62481E-16
 -1      1773 3.21980E-04 5.31538E-06-1.64473E-16
 -1      1774 4.33162E-04 7.57090E-07-2.43390E-16
 -1      1775 3.22663E-04 3.47107E-05-1.57575E-16
 -1      1776 3.22310E-04 2.47699E-05-1.60421E-16
 -1      1777 4.33519E-04 2.64534E-05-2.38253E-16
 -1      1778 3.23795E-04 5.51389E-05-1.50311E-16
 -1      1779 3.23130E-04 4.47807E-05-1.54377E-16
 -1      1780 4.34599E-04 5.26963E-05-2.30596E-16
 -1      1781 3.25858E-04 7.77829E-05-1.39916E-16
 -1      1782 3.24657E-04 6.62053E-05-1.45690E-16
 -1      1783 4.36660E-04 8.05650E-05-2.19443E-16
 -1      1784 3.29554E-04 1.03617E-04-1.24792E-16
 -1      1785 3.27402E-04 9.02681E-05-1.33303E-16
 -1      1786 4.40317E-04 1.11526E-04-2.03505E-16
 -1      1787 3.36597E-04 1.35075E-04-1.02579E-16
 -1      1788 3.32411E-04 1.18576E-04-1.15034E-16
 -1      1789 4.46798E-04 1.47291E-04-1.80750E-16
 -1      1790 3.52330E-04 1.77573E-04-6.99581E-17
 -1      1791 3.42832E-04 1.54725E-04-8.81456E-17
 -1      1792 4.59344E-04 1.91414E-04-1.47980E-16
 -1      1793 4.07736E-04 2.33659E-04-4.63767E-17
 -1      1794 3.78122E-04 2.02633E-04-6.17724E-17
 -1      1795 4.95897E-04 2.43956E-04-1.18381E-16
 -1      1796 5.58599E-04 3.02468E-04-9.35938E-17
 -1      1797 3.40056E-04-1.90884E-04-8.18437E-17
 -1      1798 8.53656E-04 4.07068E-04-2.66443E-16
 -1      1799 7.07233E-04 3.59333E-04-1.67103E-16
 -1      1800 6.73463E-04 3.28764E-04-1.83108E-16
 -1      1801 4.59000E-04-2.36686E-04-1.46123E-16
 -1      1802 8.07312E-04-3.74071E-04-3.90774E-16
 -1      1803 9.52596E-04-4.15250E-04-5.46424E-16
 -1      1804 1.09545E-03-4.49932E-04-7.30224E-16
 -1      1805 1.23714E-03-4.78826E-04-9.42456E-16
 -1      1806 1.00402E-03-3.97859E-04-6.70118E-16
 -1      1807 1.37757E-03-5.03312E-04-1.18284E-15
 -1      1808 1.51728E-03-5.23689E-04-1.45162E-15
 -1      1809 1.28974E-03-4.55818E-04-1.09988E-15
 -1      1810 1.65647E-03-5.40876E-04-1.74834E-15
 -1      1811 1.79534E-03-5.55111E-04-2.07287E-15
 -1      1812 1.57218E-03-4.96773E-04-1.64103E-15
 -1      1813 1.93408E-03-5.67004E-04-2.42451E-15
 -1      1814 2.07277E-03-5.76758E-04-2.80380E-15
 -1      1815 1.85284E-03-5.25339E-04-2.29280E-15
 -1      1816 2.21155E-03-5.84792E-04-3.21086E-15
 -1      1817 2.35041E-03-5.91277E-04-3.64486E-15
 -1      1818 2.13278E-03-5.44855E-04-3.05348E-15
 -1      1819 2.48949E-03-5.96510E-04-4.10560E-15
 -1      1820 2.62873E-03-6.00633E-04-4.59315E-15
 -1      1821 2.41270E-03-5.57782E-04-3.92217E-15
 -1      1822 2.76823E-03-6.03858E-04-5.10784E-15
 -1      1823 2.90793E-03-6.06297E-04-5.64827E-15
 -1      1824 2.69297E-03-5.65956E-04-4.89718E-15
 -1      1825 3.04790E-03-6.08105E-04-6.21434E-15
 -1      1826 3.18807E-03-6.09370E-04-6.80605E-15
 -1      1827 2.97382E-03-5.70755E-04-5.97714E-15
 -1      1828 3.32850E-03-6.10200E-04-7.42317E-15
 -1      1829 3.46913E-03-6.10662E-04-8.06533E-15
 -1      1830 3.25532E-03-5.73202E-04-7.15877E-15
 -1      1831 3.60998E-03-6.10833E-04-8.73276E-15
 -1      1832 3.75102E-03-6.10763E-04-9.42424E-15
 -1      1833 3.53747E-03-5.74051E-04-8.44129E-15
 -1      1834 3.89225E-03-6.10502E-04-1.01397E-14
 -1      1835 4.03364E-03-6.10087E-04-1.08792E-14
 -1      1836 3.82024E-03-5.73842E-04-9.82180E-15
 -1      1837 4.17520E-03-6.09549E-04-1.16429E-14
 -1      1838 4.31690E-03-6.08914E-04-1.24306E-14
 -1      1839 4.10356E-03-5.72953E-04-1.12989E-14
 -1      1840 4.45874E-03-6.08200E-04-1.32410E-14
 -1      1841 4.60069E-03-6.07422E-04-1.40752E-14
 -1      1842 4.38736E-03-5.71634E-04-1.28707E-14
 -1      1843 4.74275E-03-6.06587E-04-1.49337E-14
 -1      1844 4.88492E-03-6.05705E-04-1.58142E-14
 -1      1845 4.67157E-03-5.70037E-04-1.45369E-14
 -1      1846 5.02718E-03-6.04775E-04-1.67181E-14
 -1      1847 5.16953E-03-6.03801E-04-1.76452E-14
 -1      1848 4.95614E-03-5.68240E-04-1.62960E-14
 -1      1849 5.31196E-03-6.02774E-04-1.85964E-14
 -1      1850 5.45447E-03-6.01697E-04-1.95698E-14
 -1      1851 5.24102E-03-5.66261E-04-1.81467E-14
 -1      1852 5.59707E-03-6.00555E-04-2.05664E-14
 -1      1853 5.73974E-03-5.99348E-04-2.15876E-14
 -1      1854 5.52618E-03-5.64078E-04-2.00908E-14
 -1      1855 5.88250E-03-5.98060E-04-2.26322E-14
 -1      1856 6.02534E-03-5.96686E-04-2.37003E-14
 -1      1857 5.81163E-03-5.61636E-04-2.21279E-14
 -1      1858 6.16828E-03-5.95210E-04-2.47928E-14
 -1      1859 6.31133E-03-5.93627E-04-2.59081E-14
 -1      1860 6.09738E-03-5.58858E-04-2.42610E-14
 -1      1861 6.45448E-03-5.91920E-04-2.70462E-14
 -1      1862 6.59778E-03-5.90087E-04-2.82059E-14
 -1      1863 6.38348E-03-5.55654E-04-2.64867E-14
 -1      1864 6.74121E-03-5.88109E-04-2.93858E-14
 -1      1865 6.88483E-03-5.85991E-04-3.05863E-14
 -1      1866 6.67002E-03-5.51939E-04-2.88005E-14
 -1      1867 7.02862E-03-5.83719E-04-3.18079E-14
 -1      1868 7.17264E-03-5.81301E-04-3.30482E-14
 -1      1869 6.95710E-03-5.47638E-04-3.11966E-14
 -1      1870 7.31690E-03-5.78732E-04-3.43065E-14
 -1      1871 7.46146E-03-5.76032E-04-3.55835E-14
 -1      1872 7.24490E-03-5.42716E-04-3.36718E-14
 -1      1873 7.60631E-03-5.73210E-04-3.68804E-14
 -1      1874 7.75154E-03-5.70297E-04-3.81951E-14
 -1      1875 7.53360E-03-5.37203E-04-3.62216E-14
 -1      1876 7.89714E-03-5.67328E-04-3.95280E-14
 -1      1877 8.04321E-03-5.64351E-04-4.08802E-14
 -1      1878 7.82345E-03-5.31231E-04-3.88467E-14
 -1      1879 8.18974E-03-5.61432E-04-4.22505E-14
 -1      1880 8.33683E-03-5.58647E-04-4.36383E-14
 -1      1881 8.11472E-03-5.25087E-04-4.15452E-14
 -1      1882 8.48446E-03-5.56105E-04-4.50437E-14
 -1      1883 8.63275E-03-5.53912E-04-4.64654E-14
 -1      1884 8.40774E-03-5.19273E-04-4.43157E-14
 -1      1885 8.78168E-03-5.52237E-04-4.79039E-14
 -1      1886 8.93132E-03-5.51220E-04-4.93584E-14
 -1      1887 8.70283E-03-5.14582E-04-4.71542E-14
 -1      1888 9.08167E-03-5.51101E-04-5.08270E-14
 -1      1889 9.23277E-03-5.52058E-04-5.23075E-14
 -1      1890 9.00032E-03-5.12171E-04-5.00560E-14
 -1      1891 9.38463E-03-5.54403E-04-5.38014E-14
 -1      1892 9.53719E-03-5.58349E-04-5.53100E-14
 -1      1893 9.30048E-03-5.13627E-04-5.30129E-14
 -1      1894 9.69049E-03-5.64267E-04-5.68296E-14
 -1      1895 9.84435E-03-5.72389E-04-5.83602E-14
 -1      1896 9.60350E-03-5.20981E-04-5.60212E-14
 -1      1897 9.99884E-03-5.83101E-04-5.99000E-14
 -1      1898 1.01536E-02-5.96613E-04-6.14463E-14
 -1      1899 9.90933E-03-5.36628E-04-5.90738E-14
 -1      1900 1.03087E-02-6.13238E-04-6.30022E-14
 -1      1901 1.04637E-02-6.33087E-04-6.45642E-14
 -1      1902 1.02176E-02-5.63058E-04-6.21655E-14
 -1      1903 1.06186E-02-6.56259E-04-6.61285E-14
 -1      1904 1.07727E-02-6.82641E-04-6.76965E-14
 -1      1905 1.05276E-02-6.02296E-04-6.52810E-14
 -1      1906 1.09261E-02-7.11931E-04-6.92671E-14
 -1      1907 1.10780E-02-7.43637E-04-7.08394E-14
 -1      1908 1.08376E-02-6.54957E-04-6.84123E-14
 -1      1909 1.12283E-02-7.76870E-04-7.24170E-14
 -1      1910 1.13763E-02-8.10613E-04-7.39952E-14
 -1      1911 1.11452E-02-7.18904E-04-7.15562E-14
 -1      1912 1.15220E-02-8.43311E-04-7.55794E-14
 -1      1913 1.16648E-02-8.73403E-04-7.71678E-14
 -1      1914 1.14475E-02-7.87791E-04-7.47119E-14
 -1      1915 1.18046E-02-8.98818E-04-7.87634E-14
 -1      1916 1.19416E-02-9.17694E-04-8.03670E-14
 -1      1917 1.17411E-02-8.50192E-04-7.78885E-14
 -1      1918 1.20754E-02-9.27898E-04-8.19796E-14
 -1      1919 1.22072E-02-9.27761E-04-8.36010E-14
 -1      1920 1.20240E-02-8.90472E-04-8.10923E-14
 -1      1921 1.23364E-02-9.15731E-04-8.52262E-14
 -1      1922 1.24648E-02-8.90925E-04-8.68570E-14
 -1      1923 1.22969E-02-8.92183E-04-8.43269E-14
 -1      1924 1.25920E-02-8.52902E-04-8.84956E-14
 -1      1925 1.27198E-02-8.01861E-04-9.01339E-14
 -1      1926 1.25634E-02-8.43284E-04-8.75849E-14
 -1      1927 1.28476E-02-7.38580E-04-9.17740E-14
 -1      1928 1.29771E-02-6.64174E-04-9.34176E-14
 -1      1929 1.28287E-02-7.40555E-04-9.08566E-14
 -1      1930 1.31076E-02-5.80294E-04-9.50584E-14
 -1      1931 1.32401E-02-4.88512E-04-9.66961E-14
 -1      1932 1.30971E-02-5.90315E-04-9.41314E-14
 -1      1933 1.33741E-02-3.90824E-04-9.83319E-14
 -1      1934 1.35100E-02-2.88887E-04-9.99633E-14
 -1      1935 1.33706E-02-4.05261E-04-9.74040E-14
 -1      1936 1.36302E-02-1.96997E-04-1.01423E-13
 -1      1937 1.37690E-02-9.20961E-05-1.03046E-13
 -1      1938 1.38781E-02-2.61719E-05-1.03409E-13
 -1      1939 1.36315E-02-2.12495E-04-1.00495E-13
 -1      1940 1.13875E-03 4.80027E-04-5.42928E-16
 -1      1941 9.96957E-04 4.46777E-04-3.91275E-16
 -1      1942 9.64565E-04 4.17320E-04-4.09720E-16
 -1      1943 1.41791E-03 5.31512E-04-9.27792E-16
 -1      1944 1.27873E-03 5.08060E-04-7.21631E-16
 -1      1945 1.24908E-03 4.79920E-04-7.41432E-16
 -1      1946 1.69434E-03 5.67822E-04-1.42097E-15
 -1      1947 1.55628E-03 5.51319E-04-1.16067E-15
 -1      1948 1.52939E-03 5.24142E-04-1.18061E-15
 -1      1949 1.96996E-03 5.93137E-04-2.02525E-15
 -1      1950 1.83216E-03 5.81684E-04-1.70919E-15
 -1      1951 1.80768E-03 5.55144E-04-1.72883E-15
 -1      1952 2.24586E-03 6.10418E-04-2.73935E-15
 -1      1953 2.10783E-03 6.02657E-04-2.36864E-15
 -1      1954 2.08535E-03 5.76520E-04-2.38664E-15
 -1      1955 2.52259E-03 6.21846E-04-3.56141E-15
 -1      1956 2.38410E-03 6.16770E-04-3.13692E-15
 -1      1957 2.36322E-03 5.90879E-04-3.15309E-15
 -1      1958 2.80040E-03 6.29056E-04-4.49014E-15
 -1      1959 2.66135E-03 6.25908E-04-4.01240E-15
 -1      1960 2.64174E-03 6.00156E-04-4.02606E-15
 -1      1961 3.07936E-03 6.33272E-04-5.52312E-15
 -1      1962 2.93974E-03 6.31486E-04-4.99415E-15
 -1      1963 2.92111E-03 6.05803E-04-5.00427E-15
 -1      1964 3.35943E-03 6.35408E-04-6.65788E-15
 -1      1965 3.21926E-03 6.34562E-04-6.07763E-15
 -1      1966 3.20140E-03 6.08903E-04-6.08515E-15
 -1      1967 3.64052E-03 6.36132E-04-7.89555E-15
 -1      1968 3.49986E-03 6.35919E-04-7.26363E-15
 -1      1969 3.48257E-03 6.10256E-04-7.26764E-15
 -1      1970 3.92250E-03 6.35921E-04-9.23279E-15
 -1      1971 3.78141E-03 6.36124E-04-8.55163E-15
 -1      1972 3.76455E-03 6.10442E-04-8.55162E-15
 -1      1973 4.20524E-03 6.35106E-04-1.06713E-14
 -1      1974 4.06378E-03 6.35577E-04-9.93957E-15
 -1      1975 4.04725E-03 6.09868E-04-9.93483E-15
 -1      1976 4.48861E-03 6.33902E-04-1.22070E-14
 -1      1977 4.34685E-03 6.34545E-04-1.14274E-14
 -1      1978 4.33057E-03 6.08809E-04-1.14179E-14
 -1      1979 4.77251E-03 6.32436E-04-1.38394E-14
 -1      1980 4.63050E-03 6.33198E-04-1.30116E-14
 -1      1981 4.61439E-03 6.07437E-04-1.29972E-14
 -1      1982 5.05684E-03 6.30764E-04-1.55653E-14
 -1      1983 4.91463E-03 6.31625E-04-1.46909E-14
 -1      1984 4.89866E-03 6.05843E-04-1.46721E-14
 -1      1985 5.34155E-03 6.28893E-04-1.73820E-14
 -1      1986 5.19915E-03 6.29855E-04-1.64618E-14
 -1      1987 5.18329E-03 6.04057E-04-1.64376E-14
 -1      1988 5.62659E-03 6.26784E-04-1.92922E-14
 -1      1989 5.48403E-03 6.27871E-04-1.83258E-14
 -1      1990 5.46825E-03 6.02063E-04-1.82961E-14
 -1      1991 5.91198E-03 6.24369E-04-2.12919E-14
 -1      1992 5.76924E-03 6.25619E-04-2.02805E-14
 -1      1993 5.75353E-03 5.99806E-04-2.02470E-14
 -1      1994 6.19774E-03 6.21556E-04-2.33774E-14
 -1      1995 6.05481E-03 6.23017E-04-2.23237E-14
 -1      1996 6.03915E-03 5.97202E-04-2.22859E-14
 -1      1997 6.48395E-03 6.18233E-04-2.55447E-14
 -1      1998 6.34078E-03 6.19962E-04-2.44514E-14
 -1      1999 6.32515E-03 5.94147E-04-2.44093E-14
 -1      2000 6.77077E-03 6.14282E-04-2.77897E-14
 -1      2001 6.62728E-03 6.16339E-04-2.66587E-14
 -1      2002 6.61163E-03 5.90520E-04-2.66131E-14
 -1      2003 7.05838E-03 6.09584E-04-3.01087E-14
 -1      2004 6.91446E-03 6.12027E-04-2.89396E-14
 -1      2005 6.89875E-03 5.86198E-04-2.88909E-14
 -1      2006 7.34706E-03 6.04039E-04-3.24951E-14
 -1      2007 7.20256E-03 6.06916E-04-3.12936E-14
 -1      2008 7.18672E-03 5.81063E-04-3.12410E-14
 -1      2009 7.63719E-03 5.97585E-04-3.49504E-14
 -1      2010 7.49192E-03 6.00918E-04-3.37145E-14
 -1      2011 7.47580E-03 5.75019E-04-3.36592E-14
 -1      2012 7.92927E-03 5.90231E-04-3.74666E-14
 -1      2013 7.78295E-03 5.94004E-04-3.62006E-14
 -1      2014 7.76639E-03 5.68024E-04-3.61437E-14
 -1      2015 8.22393E-03 5.82112E-04-4.00503E-14
 -1      2016 8.07623E-03 5.86237E-04-3.87499E-14
 -1      2017 8.05896E-03 5.60126E-04-3.86918E-14
 -1      2018 8.52196E-03 5.73570E-04-4.27000E-14
 -1      2019 8.37245E-03 5.77844E-04-4.13673E-14
 -1      2020 8.35410E-03 5.51525E-04-4.13078E-14
 -1      2021 8.82437E-03 5.65271E-04-4.54139E-14
 -1      2022 8.67253E-03 5.69310E-04-4.40476E-14
 -1      2023 8.65256E-03 5.42674E-04-4.39896E-14
 -1      2024 9.13232E-03 5.58406E-04-4.81900E-14
 -1      2025 8.97754E-03 5.61536E-04-4.67942E-14
 -1      2026 8.95524E-03 5.34425E-04-4.67335E-14
 -1      2027 9.44720E-03 5.54975E-04-5.10247E-14
 -1      2028 9.28876E-03 5.56075E-04-4.96015E-14
 -1      2029 9.26316E-03 5.28259E-04-4.95396E-14
 -1      2030 9.77049E-03 5.58219E-04-5.39158E-14
 -1      2031 9.60764E-03 5.55486E-04-5.24626E-14
 -1      2032 9.57753E-03 5.26625E-04-5.24029E-14
 -1      2033 1.01036E-02 5.73208E-04-5.68627E-14
 -1      2034 9.93568E-03 5.63849E-04-5.53830E-14
 -1      2035 9.89959E-03 5.33441E-04-5.53232E-14
 -1      2036 1.04478E-02 6.07535E-04-5.98556E-14
 -1      2037 1.02743E-02 5.87412E-04-5.83528E-14
 -1      2038 1.02307E-02 5.54730E-04-5.82936E-14
 -1      2039 1.08035E-02 6.71814E-04-6.28936E-14
 -1      2040 1.06243E-02 6.35252E-04-6.13682E-14
 -1      2041 1.05719E-02 5.99295E-04-6.13070E-14
 -1      2042 1.11695E-02 7.79183E-04-6.59729E-14
 -1      2043 1.09855E-02 7.19424E-04-6.44302E-14
 -1      2044 1.09243E-02 6.79005E-04-6.43655E-14
 -1      2045 1.15423E-02 9.42067E-04-6.90886E-14
 -1      2046 1.13559E-02 8.53374E-04-6.75254E-14
 -1      2047 1.12877E-02 8.07612E-04-6.74604E-14
 -1      2048 1.19144E-02 1.16380E-03-7.22313E-14
 -1      2049 1.17297E-02 1.04637E-03-7.06583E-14
 -1      2050 1.16597E-02 9.95909E-04-7.05901E-14
 -1      2051 1.22733E-02 1.42494E-03-7.53886E-14
 -1      2052 1.20970E-02 1.29219E-03-7.38090E-14
 -1      2053 1.20330E-02 1.24079E-03-7.37415E-14
 -1      2054 1.26058E-02 1.67221E-03-7.85451E-14
 -1      2055 1.24436E-02 1.55491E-03-7.69675E-14
 -1      2056 1.23937E-02 1.50966E-03-7.69021E-14
 -1      2057 1.29074E-02 1.82851E-03-8.16944E-14
 -1      2058 1.27585E-02 1.76568E-03-8.01210E-14
 -1      2059 1.27272E-02 1.73310E-03-8.00600E-14
 -1      2060 1.31951E-02 1.83889E-03-8.48293E-14
 -1      2061 1.30511E-02 1.85224E-03-8.32646E-14
 -1      2062 1.30372E-02 1.83085E-03-8.32048E-14
 -1      2063 1.34871E-02 1.71015E-03-8.79540E-14
 -1      2064 1.33390E-02 1.78851E-03-8.63922E-14
 -1      2065 1.33435E-02 1.77182E-03-8.63351E-14
 -1      2066 1.37768E-02 1.51067E-03-9.09208E-14
 -1      2067 1.36307E-02 1.61629E-03-8.94361E-14
 -1      2068 1.36531E-02 1.59873E-03-8.93814E-14
 -1      2069 1.40883E-02 1.27560E-03-9.40533E-14
 -1      2070 1.39328E-02 1.39439E-03-9.24860E-14
 -1      2071 1.39720E-02 1.37559E-03-9.24314E-14
 -1      2072 1.43955E-02 1.04174E-03-9.71928E-14
 -1      2073 1.42434E-02 1.15868E-03-9.56228E-14
 -1      2074 1.42957E-02 1.14104E-03-9.55700E-14
 -1      2075 1.46538E-02 8.42499E-04-9.98331E-14
 -1      2076 1.45060E-02 9.60253E-04-9.82614E-14
 -1      2077 1.45653E-02 9.45224E-04-9.82090E-14
 -1      2078 1.47858E-02 7.83601E-04-1.00345E-13
 -1      2079 1.55681E-02 6.09226E-04-1.01131E-13
 -1      2080 1.54161E-02 6.33715E-04-1.00945E-13
 -1      2081 1.52629E-02 6.66053E-04-1.00753E-13
 -1      2082 1.51126E-02 7.01628E-04-1.00555E-13
 -1      2083 1.52092E-02 7.17439E-04-9.94807E-14
 -1      2084 1.50134E-02 7.22589E-04-1.00553E-13
 -1      2085 1.48753E-02 7.62145E-04-1.00352E-13
 -1      2086 1.47644E-02 8.40826E-04-9.92831E-14
 -1      2087 1.49530E-02 7.89866E-04-9.92890E-14
 -1      2088 1.58344E-02 5.84864E-04-1.01487E-13
 -1      2089 1.57108E-02 5.92465E-04-1.01311E-13
 -1      2090 1.55217E-02 6.42585E-04-9.98507E-14
 -1      2091 1.59794E-02 5.93678E-04-1.01796E-13
 -1      2092 1.59237E-02 5.87136E-04-1.01642E-13
 -1      2093 1.57761E-02 6.03952E-04-1.00187E-13
 -1      2094 1.59655E-02 6.18795E-04-1.02113E-13
 -1      2095 1.59964E-02 6.07974E-04-1.01957E-13
 -1      2096 1.59018E-02 6.00647E-04-1.00505E-13
 -1      2097 1.57743E-02 6.27328E-04-1.02419E-13
 -1      2098 1.58890E-02 6.28294E-04-1.02267E-13
 -1      2099 1.58371E-02 6.07309E-04-1.00818E-13
 -1      2100 1.54687E-02 5.97723E-04-1.02714E-13
 -1      2101 1.56305E-02 6.17893E-04-1.02568E-13
 -1      2102 1.55941E-02 5.86627E-04-1.01117E-13
 -1      2103 1.51299E-02 5.30816E-04-1.03002E-13
 -1      2104 1.52991E-02 5.67560E-04-1.02859E-13
 -1      2105 1.52576E-02 5.23659E-04-1.01406E-13
 -1      2106 1.48158E-02 4.40054E-04-1.03285E-13
 -1      2107 1.49678E-02 4.86656E-04-1.03143E-13
 -1      2108 1.49134E-02 4.29977E-04-1.01690E-13
 -1      2109 1.45497E-02 3.38697E-04-1.03567E-13
 -1      2110 1.46766E-02 3.89333E-04-1.03427E-13
 -1      2111 1.46096E-02 3.23920E-04-1.01967E-13
 -1      2112 1.43301E-02 2.35621E-04-1.03847E-13
 -1      2113 1.44348E-02 2.86541E-04-1.03705E-13
 -1      2114 1.43585E-02 2.17328E-04-1.02242E-13
 -1      2115 1.41437E-02 1.35829E-04-1.04121E-13
 -1      2116 1.42337E-02 1.84931E-04-1.03985E-13
 -1      2117 1.41521E-02 1.15159E-04-1.02516E-13
 -1      2118 1.51992E-02 7.68581E-04-9.23942E-14
 -1      2119 1.53673E-02 7.06346E-04-9.28424E-14
 -1      2120 1.56485E-02 5.90371E-04-9.37757E-14
 -1      2121 1.56399E-02 5.72192E-04-9.39457E-14
 -1      2122 1.55285E-02 6.45246E-04-9.33246E-14
 -1      2123 1.56114E-02 6.16845E-04-9.35505E-14
 -1      2124 1.56444E-02 5.97447E-04-9.44815E-14
 -1      2125 1.47702E-02 9.67289E-04-9.10953E-14
 -1      2126 1.49755E-02 8.68587E-04-9.17124E-14
 -1      2127 1.43348E-02 1.19081E-03-8.97713E-14
 -1      2128 1.45564E-02 1.07540E-03-9.04330E-14
 -1      2129 1.46464E-02 9.90663E-04-9.12581E-14
 -1      2130 3.27203E-04-8.89446E-05-1.58483E-16
 -1      2131 3.29316E-04-1.02120E-04-1.53415E-16
 -1      2132 4.46347E-04-1.45088E-04-2.23522E-16
 -1      2133 4.40031E-04-1.09914E-04-2.36668E-16
 -1      2134 1.34285E-02 1.66730E-03-8.59131E-14
 -1      2135 1.36098E-02 1.58545E-03-8.68611E-14
 -1      2136 1.30731E-02 1.73216E-03-8.39558E-14
 -1      2137 1.32345E-02 1.71869E-03-8.48863E-14
 -1      2138 1.27156E-02 1.64448E-03-8.19975E-14
 -1      2139 1.28775E-02 1.70263E-03-8.28787E-14
 -1      2140 1.23689E-02 1.44275E-03-8.01290E-14
 -1      2141 1.25378E-02 1.55405E-03-8.09767E-14
 -1      2142 1.19428E-02 1.15954E-03-7.85044E-14
 -1      2143 1.21337E-02 1.29127E-03-7.92037E-14
 -1      2144 1.15315E-02 8.97776E-04-7.72551E-14
 -1      2145 1.17223E-02 1.02070E-03-7.78401E-14
 -1      2146 1.11401E-02 6.60971E-04-7.60755E-14
 -1      2147 1.13219E-02 7.61160E-04-7.65362E-14
 -1      2148 1.07967E-02 4.98394E-04-7.53887E-14
 -1      2149 1.09451E-02 5.66953E-04-7.56994E-14
 -1      2150 1.05733E-02 3.98080E-04-7.50225E-14
 -1      2151 1.06612E-02 4.37282E-04-7.51675E-14
 -1      2152 1.04968E-02 3.34165E-04-7.48976E-14
 -1      2153 1.05130E-02 3.57390E-04-7.48676E-14
 -1      2154 1.05760E-02 2.78394E-04-7.51291E-14
 -1      2155 1.05186E-02 3.03775E-04-7.49652E-14
 -1      2156 1.08061E-02 1.86021E-04-7.59588E-14
 -1      2157 1.06834E-02 2.31939E-04-7.55808E-14
 -1      2158 1.11412E-02 4.89535E-05-7.69217E-14
 -1      2159 1.09751E-02 1.21023E-04-7.63826E-14
 -1      2160 1.15303E-02-1.46170E-04-7.83783E-14
 -1      2161 1.13434E-02-5.09376E-05-7.77002E-14
 -1      2162 1.19228E-02-3.51262E-04-7.99152E-14
 -1      2163 1.17350E-02-2.51241E-04-7.91588E-14
 -1      2164 1.23329E-02-5.54350E-04-8.19756E-14
 -1      2165 1.21591E-02-4.70611E-04-8.10286E-14
 -1      2166 1.26919E-02-6.56378E-04-8.40243E-14
 -1      2167 1.25292E-02-6.21133E-04-8.30594E-14
 -1      2168 1.30411E-02-6.35553E-04-8.60437E-14
 -1      2169 1.28812E-02-6.60307E-04-8.51140E-14
 -1      2170 1.34161E-02-4.92201E-04-8.80124E-14
 -1      2171 1.32365E-02-5.76620E-04-8.70659E-14
 -1      2172 1.38829E-02-2.36651E-04-8.99542E-14
 -1      2173 1.36673E-02-3.57603E-04-8.91854E-14
 -1      2174 1.43578E-02 1.75255E-05-9.13277E-14
 -1      2175 1.41334E-02-1.06583E-04-9.06801E-14
 -1      2176 1.48401E-02 2.54367E-04-9.24894E-14
 -1      2177 1.46174E-02 1.49765E-04-9.19933E-14
 -1      2178 1.52560E-02 4.31980E-04-9.34129E-14
 -1      2179 1.50682E-02 3.60160E-04-9.30543E-14
 -1      2180 1.55597E-02 5.33223E-04-9.38129E-14
 -1      2181 1.54403E-02 4.94738E-04-9.36402E-14
 -1      2182 1.38537E-02 1.45913E-03-8.79872E-14
 -1      2183 1.40671E-02 1.33700E-03-8.88323E-14
 -1      2184 1.41857E-02 1.24440E-03-8.96551E-14
 -1      2185 6.07940E-04-2.98092E-04-2.37088E-16
 -1      2186 1.26417E-02 1.60723E-03-8.12357E-14
 -1      2187 1.37081E-02 1.52429E-03-8.75879E-14
 -1      2188 6.63662E-04-2.92376E-04-3.18498E-16
 -1      2189 1.54619E-02 6.53806E-04-9.37730E-14
 -1      2190 1.50779E-02 7.91701E-04-9.26049E-14
 -1      2191 1.40314E-02 6.60698E-05-1.03760E-13
 -1      2192 1.56151E-02 5.65674E-04-9.45757E-14
 -1      2193 1.53450E-02 4.88893E-04-9.42176E-14
 -1      2194 1.49341E-02 3.42165E-04-9.34261E-14
 -1      2195 1.44554E-02 1.14431E-04-9.21975E-14
 -1      2196 1.39692E-02-1.48920E-04-9.08069E-14
 -1      2197 1.35100E-02-4.21347E-04-8.89058E-14
 -1      2198 1.31067E-02-6.15197E-04-8.67081E-14
 -1      2199 1.27740E-02-6.71424E-04-8.45939E-14
 -1      2200 1.24420E-02-6.00351E-04-8.24182E-14
 -1      2201 1.20532E-02-4.13411E-04-8.02218E-14
 -1      2202 1.16420E-02-1.85833E-04-7.83305E-14
 -1      2203 1.12508E-02 1.52560E-05-7.67725E-14
 -1      2204 1.08933E-02 1.68160E-04-7.55735E-14
 -1      2205 1.06205E-02 2.65192E-04-7.46993E-14
 -1      2206 1.04973E-02 3.14415E-04-7.41784E-14
 -1      2207 1.05364E-02 3.59377E-04-7.42638E-14
 -1      2208 1.07318E-02 4.40120E-04-7.46372E-14
 -1      2209 1.10565E-02 5.79886E-04-7.52309E-14
 -1      2210 1.14488E-02 7.97344E-04-7.63218E-14
 -1      2211 1.18633E-02 1.06995E-03-7.77031E-14
 -1      2212 1.22818E-02 1.36459E-03-7.92914E-14
 -1      2213 1.33127E-02 1.70474E-03-8.54350E-14
 -1      2214 1.29780E-02 1.73171E-03-8.33322E-14
 -1      2215 1.01667E-03 3.99755E-04-5.28942E-16
 -1      2216 8.72196E-04 3.63375E-04-3.84201E-16
 -1      2217 5.47743E-04-5.52795E-05-3.49709E-16
 -1      2218 5.48785E-04-7.19904E-05-3.48801E-16
 -1      2219 5.50209E-04-8.93090E-05-3.46850E-16
 -1      2220 5.52080E-04-1.07283E-04-3.43963E-16
 -1      2221 6.65245E-04-9.54626E-05-4.71072E-16
 -1      2222 5.46356E-04 8.85330E-06-3.43950E-16
 -1      2223 5.46336E-04-6.97843E-06-3.46769E-16
 -1      2224 5.47115E-04 4.08531E-05-3.36387E-16
 -1      2225 5.46612E-04 2.47841E-05-3.40602E-16
 -1      2226 6.61282E-04 1.99242E-05-4.64011E-16
 -1      2227 5.48951E-04 7.34648E-05-3.24868E-16
 -1      2228 5.47883E-04 5.69773E-05-3.31142E-16
 -1      2229 6.62615E-04 5.77684E-05-4.52925E-16
 -1      2230 5.52356E-04 1.08929E-04-3.08306E-16
 -1      2231 5.50425E-04 9.08580E-05-3.17319E-16
 -1      2232 6.65490E-04 9.72267E-05-4.36486E-16
 -1      2233 5.58254E-04 1.48257E-04-2.85186E-16
 -1      2234 5.54926E-04 1.28035E-04-2.97722E-16
 -1      2235 6.70598E-04 1.39989E-04-4.13474E-16
 -1      2236 5.68603E-04 1.93852E-04-2.52809E-16
 -1      2237 5.62754E-04 1.70135E-04-2.70549E-16
 -1      2238 6.79271E-04 1.87526E-04-3.81761E-16
 -1      2239 1.30216E-03 4.56693E-04-8.97801E-16
 -1      2240 1.15982E-03 4.30753E-04-6.99988E-16
 -1      2241 1.07184E-03 3.81273E-04-6.55007E-16
 -1      2242 9.15256E-04-3.46321E-04-6.08386E-16
 -1      2243 1.05936E-03-3.79643E-04-7.98474E-16
 -1      2244 1.26091E-02 1.58408E-03-8.06276E-14
 -1      2245 1.27524E-02 1.66967E-03-8.16475E-14
 -1      2246 1.20262E-03-4.08020E-04-1.01614E-15
 -1      2247 1.34544E-03-4.31897E-04-1.26117E-15
 -1      2248 1.11705E-03-3.60460E-04-9.31574E-16
 -1      2249 1.48762E-03-4.52113E-04-1.53369E-15
 -1      2250 1.62942E-03-4.68956E-04-1.83397E-15
 -1      2251 1.40337E-03-4.07216E-04-1.42631E-15
 -1      2252 1.77085E-03-4.83093E-04-2.16111E-15
 -1      2253 1.91204E-03-4.94741E-04-2.51547E-15
 -1      2254 1.68852E-03-4.40459E-04-2.02953E-15
 -1      2255 2.05308E-03-5.04395E-04-2.89646E-15
 -1      2256 2.19401E-03-5.12230E-04-3.30488E-15
 -1      2257 1.97272E-03-4.63521E-04-2.74039E-15
 -1      2258 2.33493E-03-5.18608E-04-3.73928E-15
 -1      2259 2.47583E-03-5.23673E-04-4.20047E-15
 -1      2260 2.25637E-03-4.79048E-04-3.55742E-15
 -1      2261 2.61679E-03-5.27688E-04-4.68774E-15
 -1      2262 2.75779E-03-5.30769E-04-5.20149E-15
 -1      2263 2.53980E-03-4.89079E-04-4.47981E-15
 -1      2264 2.89890E-03-5.33107E-04-5.74124E-15
 -1      2265 3.04009E-03-5.34794E-04-6.30606E-15
 -1      2266 2.82323E-03-4.95171E-04-5.50627E-15
 -1      2267 3.18140E-03-5.35968E-04-6.89592E-15
 -1      2268 3.32281E-03-5.36698E-04-7.51141E-15
 -1      2269 3.10681E-03-4.98494E-04-6.63492E-15
 -1      2270 3.46434E-03-5.37082E-04-8.15155E-15
 -1      2271 3.60596E-03-5.37173E-04-8.81630E-15
 -1      2272 3.39062E-03-4.99918E-04-7.86372E-15
 -1      2273 3.74771E-03-5.37037E-04-9.50559E-15
 -1      2274 3.88955E-03-5.36713E-04-1.02189E-14
 -1      2275 3.67468E-03-5.00074E-04-9.19120E-15
 -1      2276 4.03149E-03-5.36245E-04-1.09560E-14
 -1      2277 4.17352E-03-5.35659E-04-1.17173E-14
 -1      2278 3.95900E-03-4.99410E-04-1.06153E-14
 -1      2279 4.31564E-03-5.34982E-04-1.25028E-14
 -1      2280 4.45783E-03-5.34231E-04-1.33108E-14
 -1      2281 4.24357E-03-4.98228E-04-1.21351E-14
 -1      2282 4.60011E-03-5.33420E-04-1.41421E-14
 -1      2283 4.74245E-03-5.32559E-04-1.49976E-14
 -1      2284 4.52836E-03-4.96723E-04-1.37495E-14
 -1      2285 4.88487E-03-5.31652E-04-1.58756E-14
 -1      2286 5.02734E-03-5.30703E-04-1.67762E-14
 -1      2287 4.81336E-03-4.95002E-04-1.54563E-14
 -1      2288 5.16988E-03-5.29708E-04-1.76998E-14
 -1      2289 5.31247E-03-5.28668E-04-1.86472E-14
 -1      2290 5.09854E-03-4.93109E-04-1.72554E-14
 -1      2291 5.45512E-03-5.27574E-04-1.96173E-14
 -1      2292 5.59783E-03-5.26421E-04-2.06099E-14
 -1      2293 5.38389E-03-4.91036E-04-1.91455E-14
 -1      2294 5.74059E-03-5.25198E-04-2.16270E-14
 -1      2295 5.88342E-03-5.23899E-04-2.26678E-14
 -1      2296 5.66941E-03-4.88741E-04-2.11292E-14
 -1      2297 6.02631E-03-5.22507E-04-2.37319E-14
 -1      2298 6.16927E-03-5.21017E-04-2.48199E-14
 -1      2299 5.95511E-03-4.86153E-04-2.32066E-14
 -1      2300 6.31231E-03-5.19411E-04-2.59314E-14
 -1      2301 6.45543E-03-5.17685E-04-2.70642E-14
 -1      2302 6.24101E-03-4.83185E-04-2.53780E-14
 -1      2303 6.59864E-03-5.15819E-04-2.82189E-14
 -1      2304 6.74197E-03-5.13811E-04-2.93932E-14
 -1      2305 6.52715E-03-4.79742E-04-2.76391E-14
 -1      2306 6.88540E-03-5.11647E-04-3.05889E-14
 -1      2307 7.02898E-03-5.09327E-04-3.18050E-14
 -1      2308 6.81359E-03-4.75734E-04-2.99854E-14
 -1      2309 7.17271E-03-5.06843E-04-3.30402E-14
 -1      2310 7.31661E-03-5.04203E-04-3.42942E-14
 -1      2311 7.10042E-03-4.71094E-04-3.24111E-14
 -1      2312 7.46070E-03-5.01409E-04-3.55665E-14
 -1      2313 7.60503E-03-4.98480E-04-3.68584E-14
 -1      2314 7.38774E-03-4.65801E-04-3.49147E-14
 -1      2315 7.74958E-03-4.95437E-04-3.81680E-14
 -1      2316 7.89443E-03-4.92312E-04-3.94959E-14
 -1      2317 7.67569E-03-4.59908E-04-3.74919E-14
 -1      2318 8.03957E-03-4.89154E-04-4.08435E-14
 -1      2319 8.18508E-03-4.86016E-04-4.22083E-14
 -1      2320 7.96444E-03-4.53587E-04-4.01438E-14
 -1      2321 8.33094E-03-4.82983E-04-4.35918E-14
 -1      2322 8.47725E-03-4.80136E-04-4.49920E-14
 -1      2323 8.25423E-03-4.47179E-04-4.28704E-14
 -1      2324 8.62400E-03-4.77608E-04-4.64092E-14
 -1      2325 8.77127E-03-4.75519E-04-4.78419E-14
 -1      2326 8.54533E-03-4.41262E-04-4.56666E-14
 -1      2327 8.91908E-03-4.74059E-04-4.92886E-14
 -1      2328 9.06750E-03-4.73391E-04-5.07510E-14
 -1      2329 8.83809E-03-4.36726E-04-4.85263E-14
 -1      2330 9.21657E-03-4.73772E-04-5.22264E-14
 -1      2331 9.36632E-03-4.75418E-04-5.37149E-14
 -1      2332 9.13295E-03-4.34845E-04-5.14426E-14
 -1      2333 9.51683E-03-4.78642E-04-5.52169E-14
 -1      2334 9.66807E-03-4.83716E-04-5.67301E-14
 -1      2335 9.43043E-03-4.37341E-04-5.44156E-14
 -1      2336 9.82018E-03-4.90986E-04-5.82535E-14
 -1      2337 9.97301E-03-5.00760E-04-5.97863E-14
 -1      2338 9.73115E-03-4.46397E-04-5.74347E-14
 -1      2339 1.01268E-02-5.13366E-04-6.13296E-14
 -1      2340 1.02812E-02-5.29103E-04-6.28800E-14
 -1      2341 1.00357E-02-4.64566E-04-6.04962E-14
 -1      2342 1.04365E-02-5.48178E-04-6.44352E-14
 -1      2343 1.05922E-02-5.70779E-04-6.59956E-14
 -1      2344 1.03447E-02-4.94497E-04-6.35912E-14
 -1      2345 1.07485E-02-5.96850E-04-6.75595E-14
 -1      2346 1.09048E-02-6.26286E-04-6.91265E-14
 -1      2347 1.06580E-02-5.38324E-04-6.67078E-14
 -1      2348 1.10611E-02-6.58586E-04-7.06955E-14
 -1      2349 1.12167E-02-6.93111E-04-7.22679E-14
 -1      2350 1.09747E-02-5.96574E-04-6.98379E-14
 -1      2351 1.13714E-02-7.28759E-04-7.38467E-14
 -1      2352 1.15244E-02-7.64093E-04-7.54290E-14
 -1      2353 1.12923E-02-6.66488E-04-7.29795E-14
 -1      2354 1.16755E-02-7.97385E-04-7.70141E-14
 -1      2355 1.18242E-02-8.26400E-04-7.86067E-14
 -1      2356 1.16066E-02-7.40008E-04-7.61405E-14
 -1      2357 1.19700E-02-8.49016E-04-8.02063E-14
 -1      2358 1.21135E-02-8.62704E-04-8.18158E-14
 -1      2359 1.19129E-02-8.02516E-04-7.93235E-14
 -1      2360 1.22541E-02-8.65491E-04-8.34303E-14
 -1      2361 1.23932E-02-8.55483E-04-8.50506E-14
 -1      2362 1.22083E-02-8.34442E-04-8.25353E-14
 -1      2363 1.25304E-02-8.31609E-04-8.66772E-14
 -1      2364 1.26677E-02-7.93424E-04-8.83082E-14
 -1      2365 1.24943E-02-8.17029E-04-8.57725E-14
 -1      2366 1.28045E-02-7.41177E-04-8.99412E-14
 -1      2367 1.29425E-02-6.75982E-04-9.15743E-14
 -1      2368 1.27766E-02-7.40216E-04-8.90262E-14
 -1      2369 1.30812E-02-5.99210E-04-9.32087E-14
 -1      2370 1.32213E-02-5.12807E-04-9.48413E-14
 -1      2371 1.30612E-02-6.07096E-04-9.22891E-14
 -1      2372 1.33624E-02-4.18649E-04-9.64748E-14
 -1      2373 1.35045E-02-3.18737E-04-9.81054E-14
 -1      2374 1.33505E-02-4.31092E-04-9.55496E-14
 -1      2375 1.86539E-03 5.25205E-04-1.95642E-15
 -1      2376 1.72514E-03 5.12454E-04-1.65100E-15
 -1      2377 2.14549E-03 5.44491E-04-2.64807E-15
 -1      2378 2.00549E-03 5.35824E-04-2.28875E-15
 -1      2379 1.92468E-03 4.94587E-04-2.18833E-15
 -1      2380 2.42558E-03 5.57292E-04-3.44664E-15
 -1      2381 2.28552E-03 5.51597E-04-3.03413E-15
 -1      2382 2.20680E-03 5.11854E-04-2.91310E-15
 -1      2383 2.70601E-03 5.65415E-04-4.35081E-15
 -1      2384 2.56575E-03 5.61856E-04-3.88574E-15
 -1      2385 2.48876E-03 5.23178E-04-3.74353E-15
 -1      2386 2.98700E-03 5.70217E-04-5.35908E-15
 -1      2387 2.84644E-03 5.68169E-04-4.84176E-15
 -1      2388 2.77087E-03 5.30230E-04-4.67809E-15
 -1      2389 3.26862E-03 5.72710E-04-6.46872E-15
 -1      2390 3.12774E-03 5.71705E-04-5.90154E-15
 -1      2391 3.05329E-03 5.34266E-04-5.71595E-15
 -1      2392 3.55088E-03 5.73633E-04-7.68000E-15
 -1      2393 3.40968E-03 5.73333E-04-7.06153E-15
 -1      2394 3.33611E-03 5.36220E-04-6.85471E-15
 -1      2395 3.83373E-03 5.73521E-04-8.99094E-15
 -1      2396 3.69224E-03 5.73682E-04-8.32314E-15
 -1      2397 3.61936E-03 5.36775E-04-8.09376E-15
 -1      2398 4.11712E-03 5.72743E-04-1.04015E-14
 -1      2399 3.97537E-03 5.73198E-04-9.68378E-15
 -1      2400 3.90302E-03 5.36415E-04-9.43229E-15
 -1      2401 4.40098E-03 5.71545E-04-1.19095E-14
 -1      2402 4.25900E-03 5.72185E-04-1.11440E-14
 -1      2403 4.18705E-03 5.35474E-04-1.08693E-14
 -1      2404 4.68523E-03 5.70073E-04-1.35136E-14
 -1      2405 4.54306E-03 5.70836E-04-1.26994E-14
 -1      2406 4.47141E-03 5.34168E-04-1.24025E-14
 -1      2407 4.96983E-03 5.68400E-04-1.52111E-14
 -1      2408 4.82749E-03 5.69258E-04-1.43505E-14
 -1      2409 4.75607E-03 5.32621E-04-1.40301E-14
 -1      2410 5.25474E-03 5.66541E-04-1.70006E-14
 -1      2411 5.11225E-03 5.67493E-04-1.60948E-14
 -1      2412 5.04099E-03 5.30890E-04-1.57517E-14
 -1      2413 5.53992E-03 5.64467E-04-1.88836E-14
 -1      2414 5.39730E-03 5.65533E-04-1.79298E-14
 -1      2415 5.32615E-03 5.28974E-04-1.75659E-14
 -1      2416 5.82539E-03 5.62112E-04-2.08573E-14
 -1      2417 5.68262E-03 5.63328E-04-1.98585E-14
 -1      2418 5.61154E-03 5.26832E-04-1.94722E-14
 -1      2419 6.11116E-03 5.59384E-04-2.29195E-14
 -1      2420 5.96823E-03 5.60799E-04-2.18784E-14
 -1      2421 5.89715E-03 5.24390E-04-2.14699E-14
 -1      2422 6.39730E-03 5.56170E-04-2.50643E-14
 -1      2423 6.25418E-03 5.57842E-04-2.39822E-14
 -1      2424 6.18304E-03 5.21549E-04-2.35555E-14
 -1      2425 6.68388E-03 5.52344E-04-2.72874E-14
 -1      2426 6.54052E-03 5.54338E-04-2.61662E-14
 -1      2427 6.46923E-03 5.18189E-04-2.57212E-14
 -1      2428 6.97106E-03 5.47778E-04-2.95853E-14
 -1      2429 6.82738E-03 5.50157E-04-2.84269E-14
 -1      2430 6.75582E-03 5.14182E-04-2.79631E-14
 -1      2431 7.25901E-03 5.42352E-04-3.19521E-14
 -1      2432 7.11492E-03 5.45175E-04-3.07598E-14
 -1      2433 7.04291E-03 5.09399E-04-3.02782E-14
 -1      2434 7.54797E-03 5.35976E-04-3.43909E-14
 -1      2435 7.40333E-03 5.39281E-04-3.31639E-14
 -1      2436 7.33066E-03 5.03721E-04-3.26669E-14
 -1      2437 7.83825E-03 5.28616E-04-3.68923E-14
 -1      2438 7.69291E-03 5.32411E-04-3.56336E-14
 -1      2439 7.61923E-03 4.97068E-04-3.51237E-14
 -1      2440 8.13024E-03 5.20342E-04-3.94631E-14
 -1      2441 7.98398E-03 5.24577E-04-3.81694E-14
 -1      2442 7.90886E-03 4.89424E-04-3.76461E-14
 -1      2443 8.42441E-03 5.11394E-04-4.21007E-14
 -1      2444 8.27699E-03 5.15922E-04-4.07731E-14
 -1      2445 8.19982E-03 4.80890E-04-4.02365E-14
 -1      2446 8.72132E-03 5.02291E-04-4.48007E-14
 -1      2447 8.57245E-03 5.06811E-04-4.34427E-14
 -1      2448 8.49244E-03 4.71755E-04-4.28941E-14
 -1      2449 9.02164E-03 4.93985E-04-4.75660E-14
 -1      2450 8.87096E-03 4.97955E-04-4.61751E-14
 -1      2451 8.78706E-03 4.62612E-04-4.56165E-14
 -1      2452 9.32612E-03 4.88112E-04-5.03914E-14
 -1      2453 9.17324E-03 4.90614E-04-4.89711E-14
 -1      2454 9.08411E-03 4.54523E-04-4.84018E-14
 -1      2455 9.63566E-03 4.87339E-04-5.32736E-14
 -1      2456 9.48013E-03 4.86884E-04-5.18257E-14
 -1      2457 9.38408E-03 4.49263E-04-5.12460E-14
 -1      2458 9.95130E-03 4.95873E-04-5.62108E-14
 -1      2459 9.79257E-03 4.90130E-04-5.47347E-14
 -1      2460 9.68762E-03 4.49676E-04-5.41467E-14
 -1      2461 1.02744E-02 5.20091E-04-5.91957E-14
 -1      2462 1.01118E-02 5.05549E-04-5.76980E-14
 -1      2463 9.99574E-03 4.60152E-04-5.70998E-14
 -1      2464 1.06068E-02 5.69183E-04-6.22236E-14
 -1      2465 1.04394E-02 5.40837E-04-6.07048E-14
 -1      2466 1.03101E-02 4.87225E-04-6.00999E-14
 -1      2467 1.09511E-02 6.55391E-04-6.52933E-14
 -1      2468 1.07776E-02 6.06699E-04-6.37532E-14
 -1      2469 1.06338E-02 5.40200E-04-6.31411E-14
 -1      2470 1.13102E-02 7.92890E-04-6.83969E-14
 -1      2471 1.11292E-02 7.16662E-04-6.68415E-14
 -1      2472 1.09715E-02 6.31587E-04-6.62201E-14
 -1      2473 1.16850E-02 9.92821E-04-7.15334E-14
 -1      2474 1.14967E-02 8.84500E-04-6.99615E-14
 -1      2475 1.13298E-02 7.76519E-04-6.93329E-14
 -1      2476 1.20695E-02 1.25066E-03-7.46900E-14
 -1      2477 1.18780E-02 1.11566E-03-7.31094E-14
 -1      2478 1.17125E-02 9.87644E-04-7.24767E-14
 -1      2479 1.24470E-02 1.52834E-03-7.78560E-14
 -1      2480 1.22609E-02 1.39171E-03-7.62728E-14
 -1      2481 1.21124E-02 1.26135E-03-7.56420E-14
 -1      2482 1.31250E-02 1.80747E-03-8.41423E-14
 -1      2483 1.29605E-02 1.79860E-03-8.25738E-14
 -1      2484 1.34549E-02 1.70245E-03-8.72747E-14
 -1      2485 1.32863E-02 1.77262E-03-8.57100E-14
 -1      2486 1.32240E-02 1.77070E-03-8.50806E-14
 -1      2487 1.37846E-02 1.50451E-03-9.02425E-14
 -1      2488 1.36181E-02 1.60982E-03-8.87578E-14
 -1      2489 1.35756E-02 1.62112E-03-8.81336E-14
 -1      2490 1.41359E-02 1.26839E-03-9.33796E-14
 -1      2491 1.39619E-02 1.38679E-03-9.18109E-14
 -1      2492 1.39437E-02 1.39466E-03-9.11851E-14
 -1      2493 1.44723E-02 1.04024E-03-9.65183E-14
 -1      2494 1.43074E-02 1.15298E-03-9.49486E-14
 -1      2495 1.43143E-02 1.15919E-03-9.43227E-14
 -1      2496 1.46513E-02 9.18979E-04-9.82137E-14
 -1      2497 1.57347E-02 6.06955E-04-9.90079E-14
 -1      2498 1.56264E-02 6.25675E-04-9.88514E-14
 -1      2499 1.58321E-02 5.98220E-04-9.93320E-14
 -1      2500 1.58113E-02 6.01251E-04-9.91731E-14
 -1      2501 1.57069E-02 6.06696E-04-9.78417E-14
 -1      2502 1.51498E-02 7.54952E-04-9.82106E-14
 -1      2503 1.49899E-02 8.10146E-04-9.80207E-14
 -1      2504 1.54754E-02 6.58894E-04-9.85734E-14
 -1      2505 1.53147E-02 7.02212E-04-9.83917E-14
 -1      2506 1.50905E-02 7.79108E-04-9.69370E-14
 -1      2507 1.57026E-02 5.90745E-04-9.96383E-14
 -1      2508 1.57942E-02 5.99644E-04-9.94864E-14
 -1      2509 1.57532E-02 5.93390E-04-9.81578E-14
 -1      2510 1.54005E-02 5.41278E-04-9.99309E-14
 -1      2511 1.55654E-02 5.73149E-04-9.97860E-14
 -1      2512 1.55457E-02 5.65046E-04-9.84560E-14
 -1      2513 1.50366E-02 4.45684E-04-1.00213E-13
 -1      2514 1.52194E-02 4.97228E-04-1.00073E-13
 -1      2515 1.51864E-02 4.81108E-04-9.87420E-14
 -1      2516 1.46953E-02 3.28831E-04-1.00490E-13
 -1      2517 1.48605E-02 3.87367E-04-1.00353E-13
 -1      2518 1.48063E-02 3.54750E-04-9.90203E-14
 -1      2519 1.44084E-02 2.11658E-04-1.00762E-13
 -1      2520 1.45449E-02 2.68828E-04-1.00626E-13
 -1      2521 1.44764E-02 2.20305E-04-9.92902E-14
 -1      2522 1.41758E-02 1.02519E-04-1.01033E-13
 -1      2523 1.42863E-02 1.55481E-04-1.00900E-13
 -1      2524 1.42104E-02 9.69200E-05-9.95578E-14
 -1      2525 1.39840E-02 2.09497E-06-1.01304E-13
 -1      2526 1.40760E-02 5.10401E-05-1.01169E-13
 -1      2527 1.39972E-02-1.19536E-05-9.98240E-14
 -1      2528 1.49574E-02 8.15396E-04-9.30939E-14
 -1      2529 1.51670E-02 7.34600E-04-9.37810E-14
 -1      2530 1.39051E-02-2.84463E-05-1.02303E-13
 -1      2531 1.56616E-02 5.80052E-04-9.56266E-14
 -1      2532 1.55802E-02 5.66830E-04-9.54938E-14
 -1      2533 1.58461E-03 4.97022E-04-1.37302E-15
 -1      2534 1.44366E-03 4.78695E-04-1.12185E-15
 -1      2535 1.64193E-03 4.69165E-04-1.57041E-15
 -1      2536 1.56359E-02 6.00347E-04-9.51109E-14
 -1      2537 1.56720E-02 5.93238E-04-9.53373E-14
 -1      2538 1.45860E-02 9.93381E-04-9.17684E-14
 -1      2539 1.47773E-02 8.97341E-04-9.24330E-14
 -1      2540 1.49027E-02 8.34546E-04-9.36063E-14
 -1      2541 5.88559E-04-2.37953E-04-2.92911E-16
 -1      2542 7.81361E-04-3.04801E-04-4.64486E-16
 -1      2543 8.40818E-04-2.93550E-04-5.65588E-16
 -1      2544 5.78984E-04-2.10127E-04-3.09892E-16
 -1      2545 1.54576E-02 5.38184E-04-9.52734E-14
 -1      2546 1.52887E-02 4.96698E-04-9.50494E-14
 -1      2547 1.55502E-02 5.64236E-04-9.63273E-14
 -1      2548 5.46550E-04-2.28925E-05-3.48598E-16
 -1      2549 5.47009E-04-3.89275E-05-3.49615E-16
 -1      2550 6.62462E-04-5.57978E-05-4.73363E-16
 -1      2551 6.61229E-04-1.76997E-05-4.70788E-16
 -1      2552 1.29105E-02 1.72897E-03-8.27250E-14
 -1      2553 1.30588E-02 1.75349E-03-8.38009E-14
 -1      2554 1.28490E-02 1.71654E-03-8.21186E-14
 -1      2555 1.35860E-02 1.58511E-03-8.72428E-14
 -1      2556 1.37931E-02 1.45991E-03-8.83697E-14
 -1      2557 1.32352E-02 1.73452E-03-8.50435E-14
 -1      2558 1.33856E-02 1.68159E-03-8.60689E-14
 -1      2559 1.21802E-02 1.27196E-03-7.82814E-14
 -1      2560 1.23714E-02 1.41972E-03-7.92045E-14
 -1      2561 1.17687E-02 9.72403E-04-7.66905E-14
 -1      2562 1.19562E-02 1.10666E-03-7.73523E-14
 -1      2563 1.13795E-02 7.19126E-04-7.52598E-14
 -1      2564 1.15738E-02 8.41690E-04-7.59747E-14
 -1      2565 1.16658E-02 8.90086E-04-7.56271E-14
 -1      2566 1.09634E-02 5.07068E-04-7.42348E-14
 -1      2567 1.11404E-02 5.88615E-04-7.46065E-14
 -1      2568 1.06666E-02 3.93484E-04-7.37665E-14
 -1      2569 1.07944E-02 4.38410E-04-7.39847E-14
 -1      2570 1.05064E-02 3.34916E-04-7.33748E-14
 -1      2571 1.05673E-02 3.55851E-04-7.35272E-14
 -1      2572 1.04958E-02 3.01319E-04-7.33100E-14
 -1      2573 1.04790E-02 3.12926E-04-7.32414E-14
 -1      2574 1.06738E-02 2.48923E-04-7.42232E-14
 -1      2575 1.05711E-02 2.76780E-04-7.37712E-14
 -1      2576 1.09507E-02 1.51298E-04-7.50357E-14
 -1      2577 1.07997E-02 2.06356E-04-7.46132E-14
 -1      2578 1.13549E-02-2.95684E-05-7.66024E-14
 -1      2579 1.11688E-02 5.84951E-05-7.58271E-14
 -1      2580 1.17254E-02-2.29508E-04-7.82067E-14
 -1      2581 1.15479E-02-1.29278E-04-7.74273E-14
 -1      2582 1.21386E-02-4.70214E-04-8.03029E-14
 -1      2583 1.19441E-02-3.56308E-04-7.91913E-14
 -1      2584 1.25022E-02-6.36733E-04-8.27485E-14
 -1      2585 1.23499E-02-5.73659E-04-8.16649E-14
 -1      2586 1.28317E-02-6.78076E-04-8.52289E-14
 -1      2587 1.26894E-02-6.76390E-04-8.41367E-14
 -1      2588 1.31655E-02-5.83805E-04-8.74512E-14
 -1      2589 1.30123E-02-6.43306E-04-8.64269E-14
 -1      2590 1.35745E-02-3.52927E-04-8.98269E-14
 -1      2591 1.33623E-02-4.84633E-04-8.86515E-14
 -1      2592 1.40670E-02-4.90124E-05-9.19631E-14
 -1      2593 1.38557E-02-1.75821E-04-9.12379E-14
 -1      2594 1.45266E-02 1.95562E-04-9.32957E-14
 -1      2595 1.42925E-02 7.37642E-05-9.26318E-14
 -1      2596 1.41724E-02 2.99418E-05-9.30647E-14
 -1      2597 1.50133E-02 4.02931E-04-9.44004E-14
 -1      2598 1.47952E-02 3.14547E-04-9.38366E-14
 -1      2599 1.53896E-02 6.63106E-04-9.43511E-14
 -1      2600 1.55410E-02 6.25359E-04-9.48365E-14
 -1      2601 7.57946E-04 3.34174E-04-2.81134E-16
 -1      2602 6.11519E-04 2.84818E-04-1.82973E-16
 -1      2603 5.84790E-04 2.58048E-04-1.91728E-16
 -1      2604 8.13767E-04 3.22842E-04-3.74267E-16
 -1      2605 1.40578E-02 1.29838E-03-8.96298E-14
 -1      2606 1.42931E-02 1.15577E-03-9.05712E-14
 -1      2607 1.31475E-02 1.75506E-03-8.44367E-14
 -1      2608 6.70183E-04-1.37933E-04-4.63252E-16
 -1      2609 5.54565E-04-1.26182E-04-3.39504E-16
 -1      2610 5.57782E-04-1.46154E-04-3.33080E-16
 -1      2611 1.35789E-03 4.32675E-04-1.05975E-15
 -1      2612 5.72282E-04 2.27850E-04-2.17952E-16
 -1      2613 1.39201E-02 1.37834E-03-8.92865E-14
 -1      2614 1.52945E-02 6.92265E-04-9.48446E-14
 -1      2615 1.46382E-02 2.63124E-04-9.42730E-14
 -1      2616 1.26273E-02 1.63498E-03-7.97611E-14
 -1      2617 1.25006E-02 1.53258E-03-7.91346E-14
 -1      2618 1.28104E-02 1.73039E-03-8.13383E-14
 -1      2619 1.46776E-02 9.31553E-04-9.75896E-14
 -1      2620 1.54417E-02 6.63584E-04-9.73986E-14
 -1      2621 1.47715E-02 8.98507E-04-9.75901E-14
 -1      2622 1.36970E-02-2.60188E-04-9.09856E-14
 -1      2623 1.37289E-02-1.53341E-04-1.00724E-13
 -1      2624 1.38794E-02-6.12507E-05-1.01076E-13
 -1      2625 1.38005E-02-1.25297E-04-9.97262E-14
 -1      2626 1.36038E-02-2.46365E-04-9.92667E-14
 -1      2627 1.32508E-02-5.30943E-04-8.83704E-14
 -1      2628 1.56928E-02 5.87423E-04-9.62590E-14
 -1      2629 6.89566E-04 2.51197E-04-3.21547E-16
 -1      2630 1.56027E-02 6.11747E-04-9.56941E-14
 -1      2631 1.29012E-02-6.65435E-04-8.59694E-14
 -1      2632 5.64285E-04-1.64919E-04-3.29028E-16
 -1      2633 5.69730E-04-1.87987E-04-3.18552E-16
 -1      2634 6.97853E-04-2.27729E-04-4.38262E-16
 -1      2635 6.80699E-04-1.81632E-04-4.52587E-16
 -1      2636 1.20609E-02 1.17809E-03-7.72703E-14
 -1      2637 1.25758E-02-6.66600E-04-8.33797E-14
 -1      2638 1.22131E-02-5.27581E-04-8.06299E-14
 -1      2639 1.18262E-02-3.03944E-04-7.82873E-14
 -1      2640 1.14374E-02-8.25093E-05-7.64802E-14
 -1      2641 1.10429E-02 1.03699E-04-7.48674E-14
 -1      2642 1.07187E-02 2.24889E-04-7.36876E-14
 -1      2643 1.05161E-02 2.83107E-04-7.28386E-14
 -1      2644 1.04768E-02 3.12735E-04-7.25107E-14
 -1      2645 1.06066E-02 3.59475E-04-7.28792E-14
 -1      2646 1.12525E-02 6.37838E-04-7.42635E-14
 -1      2647 1.44540E-02 1.05818E-03-9.17456E-14
 -1      2648 1.46941E-02 9.48866E-04-9.63254E-14
 -1      2649 1.24910E-02 1.50745E-03-7.96206E-14
 -1      2650 1.51746E-02 4.68801E-04-9.54613E-14
 -1      2651 1.34858E-02 1.63650E-03-8.68512E-14
 -1      2652 1.08655E-02 4.53669E-04-7.33661E-14
 -1      2653 1.35986E-02-2.60356E-04-9.83377E-14
 -1      2654 7.80145E-04 7.73150E-05-5.87068E-16
 -1      2655 7.78879E-04 5.54582E-05-5.95552E-16
 -1      2656 7.78029E-04 3.35516E-05-6.02383E-16
 -1      2657 7.77604E-04 1.18930E-05-6.07953E-16
 -1      2658 8.96432E-04 4.96696E-05-7.58820E-16
 -1      2659 7.91520E-04 1.73096E-04-5.34186E-16
 -1      2660 7.87505E-04 1.47685E-04-5.50842E-16
 -1      2661 8.03407E-04 2.28289E-04-4.92892E-16
 -1      2662 7.96772E-04 1.99899E-04-5.15254E-16
 -1      2663 9.14823E-04 2.07790E-04-6.70240E-16
 -1      2664 1.12986E-03 3.61910E-04-7.87930E-16
 -1      2665 9.86250E-04 3.32844E-04-6.06801E-16
 -1      2666 8.03115E-04 2.78195E-04-4.28517E-16
 -1      2667 1.37812E-02-1.87476E-04-9.22060E-14
 -1      2668 1.35345E-02-3.46168E-04-9.07927E-14
 -1      2669 1.32018E-03-3.62721E-04-1.31885E-15
 -1      2670 1.46340E-03-3.81713E-04-1.59523E-15
 -1      2671 1.60645E-03-3.97795E-04-1.89834E-15
 -1      2672 1.74938E-03-4.11211E-04-2.22836E-15
 -1      2673 1.52499E-03-3.55383E-04-1.76791E-15
 -1      2674 1.89216E-03-4.22426E-04-2.58466E-15
 -1      2675 2.03481E-03-4.31629E-04-2.96760E-15
 -1      2676 1.81167E-03-3.81297E-04-2.43002E-15
 -1      2677 2.17737E-03-4.39195E-04-3.37682E-15
 -1      2678 2.31984E-03-4.45278E-04-3.81196E-15
 -1      2679 2.09813E-03-3.99170E-04-3.19741E-15
 -1      2680 2.46225E-03-4.50167E-04-4.27322E-15
 -1      2681 2.60462E-03-4.53984E-04-4.76022E-15
 -1      2682 2.38430E-03-4.11024E-04-4.06827E-15
 -1      2683 2.74698E-03-4.56947E-04-5.27357E-15
 -1      2684 2.88931E-03-4.59153E-04-5.81218E-15
 -1      2685 2.67025E-03-4.18479E-04-5.04246E-15
 -1      2686 3.03166E-03-4.60762E-04-6.37562E-15
 -1      2687 3.17401E-03-4.61849E-04-6.96410E-15
 -1      2688 2.95602E-03-4.22795E-04-6.11841E-15
 -1      2689 3.31638E-03-4.62529E-04-7.57826E-15
 -1      2690 3.45877E-03-4.62859E-04-8.21694E-15
 -1      2691 3.24169E-03-4.24926E-04-7.29477E-15
 -1      2692 3.60120E-03-4.62921E-04-8.87898E-15
 -1      2693 3.74364E-03-4.62754E-04-9.56609E-15
 -1      2694 3.52730E-03-4.25578E-04-8.56943E-15
 -1      2695 3.88612E-03-4.62416E-04-1.02780E-14
 -1      2696 4.02863E-03-4.61934E-04-1.10124E-14
 -1      2697 3.81288E-03-4.25260E-04-9.94192E-15
 -1      2698 4.17117E-03-4.61345E-04-1.17706E-14
 -1      2699 4.31373E-03-4.60666E-04-1.25532E-14
 -1      2700 4.09846E-03-4.24324E-04-1.14090E-14
 -1      2701 4.45634E-03-4.59921E-04-1.33592E-14
 -1      2702 4.59896E-03-4.59118E-04-1.41875E-14
 -1      2703 4.38404E-03-4.23003E-04-1.29705E-14
 -1      2704 4.74161E-03-4.58268E-04-1.50394E-14
 -1      2705 4.88429E-03-4.57375E-04-1.59147E-14
 -1      2706 4.66965E-03-4.21439E-04-1.46252E-14
 -1      2707 5.02700E-03-4.56442E-04-1.68121E-14
 -1      2708 5.16973E-03-4.55468E-04-1.77333E-14
 -1      2709 4.95528E-03-4.19700E-04-1.63719E-14
 -1      2710 5.31249E-03-4.54448E-04-1.86771E-14
 -1      2711 5.45527E-03-4.53379E-04-1.96437E-14
 -1      2712 5.24093E-03-4.17801E-04-1.82104E-14
 -1      2713 5.59808E-03-4.52250E-04-2.06345E-14
 -1      2714 5.74092E-03-4.51056E-04-2.16481E-14
 -1      2715 5.52662E-03-4.15715E-04-2.01421E-14
 -1      2716 5.88378E-03-4.49783E-04-2.26847E-14
 -1      2717 6.02667E-03-4.48425E-04-2.37454E-14
 -1      2718 5.81235E-03-4.13386E-04-2.21666E-14
 -1      2719 6.16960E-03-4.46964E-04-2.48289E-14
 -1      2720 6.31257E-03-4.45394E-04-2.59361E-14
 -1      2721 6.09812E-03-4.10734E-04-2.42839E-14
 -1      2722 6.45557E-03-4.43698E-04-2.70642E-14
 -1      2723 6.59862E-03-4.41868E-04-2.82131E-14
 -1      2724 6.38394E-03-4.07667E-04-2.64917E-14
 -1      2725 6.74172E-03-4.39890E-04-2.93850E-14
 -1      2726 6.88488E-03-4.37758E-04-3.05750E-14
 -1      2727 6.66983E-03-4.04090E-04-2.87872E-14
 -1      2728 7.02810E-03-4.35463E-04-3.17862E-14
 -1      2729 7.17140E-03-4.33003E-04-3.30164E-14
 -1      2730 6.95580E-03-3.99917E-04-3.11646E-14
 -1      2731 7.31478E-03-4.30375E-04-3.42647E-14
 -1      2732 7.45826E-03-4.27584E-04-3.55327E-14
 -1      2733 7.24189E-03-3.95086E-04-3.36190E-14
 -1      2734 7.60185E-03-4.24644E-04-3.68194E-14
 -1      2735 7.74558E-03-4.21568E-04-3.81245E-14
 -1      2736 7.52816E-03-3.89589E-04-3.61498E-14
 -1      2737 7.88944E-03-4.18388E-04-3.94486E-14
 -1      2738 8.03350E-03-4.15137E-04-4.07906E-14
 -1      2739 7.81469E-03-3.83494E-04-3.87559E-14
 -1      2740 8.17774E-03-4.11872E-04-4.21516E-14
 -1      2741 8.32224E-03-4.08650E-04-4.35313E-14
 -1      2742 8.10159E-03-3.76993E-04-4.14362E-14
 -1      2743 8.46698E-03-4.05565E-04-4.49276E-14
 -1      2744 8.61207E-03-4.02705E-04-4.63394E-14
 -1      2745 8.38908E-03-3.70449E-04-4.41904E-14
 -1      2746 8.75751E-03-4.00210E-04-4.77663E-14
 -1      2747 8.90340E-03-3.98212E-04-4.92080E-14
 -1      2748 8.67747E-03-3.64461E-04-4.70097E-14
 -1      2749 9.04979E-03-3.96900E-04-5.06634E-14
 -1      2750 9.19677E-03-3.96468E-04-5.21326E-14
 -1      2751 8.96722E-03-3.59938E-04-4.98883E-14
 -1      2752 9.34446E-03-3.97153E-04-5.36167E-14
 -1      2753 9.49292E-03-3.99225E-04-5.51130E-14
 -1      2754 9.25902E-03-3.58174E-04-5.28220E-14
 -1      2755 9.64234E-03-4.02959E-04-5.66207E-14
 -1      2756 9.79277E-03-4.08711E-04-5.81378E-14
 -1      2757 9.55386E-03-3.60922E-04-5.58074E-14
 -1      2758 9.94446E-03-4.16767E-04-5.96659E-14
 -1      2759 1.00974E-02-4.27565E-04-6.12035E-14
 -1      2760 9.85302E-03-3.70447E-04-5.88386E-14
 -1      2761 1.02519E-02-4.41349E-04-6.27485E-14
 -1      2762 1.04078E-02-4.58591E-04-6.43008E-14
 -1      2763 1.01581E-02-3.89501E-04-6.19081E-14
 -1      2764 1.05655E-02-4.79412E-04-6.58558E-14
 -1      2765 1.07244E-02-5.04175E-04-6.74162E-14
 -1      2766 1.04707E-02-4.21160E-04-6.50055E-14
 -1      2767 1.08851E-02-5.32745E-04-6.89792E-14
 -1      2768 1.10466E-02-5.65092E-04-7.05434E-14
 -1      2769 1.07917E-02-4.68267E-04-6.81220E-14
 -1      2770 1.12091E-02-6.00632E-04-7.21141E-14
 -1      2771 1.13713E-02-6.38528E-04-7.36897E-14
 -1      2772 1.11204E-02-5.32129E-04-7.12502E-14
 -1      2773 1.15332E-02-6.77553E-04-7.52682E-14
 -1      2774 1.16935E-02-7.15537E-04-7.68515E-14
 -1      2775 1.14535E-02-6.10074E-04-7.43954E-14
 -1      2776 1.18516E-02-7.50644E-04-7.84429E-14
 -1      2777 1.20069E-02-7.79263E-04-8.00397E-14
 -1      2778 1.17841E-02-6.91982E-04-7.75622E-14
 -1      2779 1.21589E-02-7.99171E-04-8.16436E-14
 -1      2780 1.23083E-02-8.06817E-04-8.32547E-14
 -1      2781 1.21047E-02-7.57376E-04-8.07550E-14
 -1      2782 1.24548E-02-8.00326E-04-8.48708E-14
 -1      2783 1.26005E-02-7.77789E-04-8.64918E-14
 -1      2784 1.24119E-02-7.79368E-04-8.39725E-14
 -1      2785 1.27450E-02-7.38760E-04-8.81173E-14
 -1      2786 1.28907E-02-6.84057E-04-8.97452E-14
 -1      2787 1.27107E-02-7.35915E-04-8.72110E-14
 -1      2788 1.30372E-02-6.14808E-04-9.13735E-14
 -1      2789 1.31857E-02-5.33774E-04-9.30007E-14
 -1      2790 1.30106E-02-6.22650E-04-9.04610E-14
 -1      2791 1.33353E-02-4.42837E-04-9.46276E-14
 -1      2792 1.34860E-02-3.44926E-04-9.62535E-14
 -1      2793 1.33175E-02-4.54496E-04-9.37110E-14
 -1      2794 2.26926E-03 4.78579E-04-3.18200E-15
 -1      2795 2.12744E-03 4.71721E-04-2.79038E-15
 -1      2796 1.33081E-02-4.83215E-04-8.93019E-14
 -1      2797 1.31405E-02-5.75921E-04-8.80990E-14
 -1      2798 1.22969E-02 1.37289E-03-7.77122E-14
 -1      2799 1.98551E-03 4.63242E-04-2.42521E-15
 -1      2800 1.84346E-03 4.52979E-04-2.08598E-15
 -1      2801 2.04766E-03 4.31314E-04-2.66615E-15
 -1      2802 2.83634E-03 4.94588E-04-5.00855E-15
 -1      2803 2.69457E-03 4.91968E-04-4.51311E-15
 -1      2804 3.12002E-03 4.97939E-04-6.07588E-15
 -1      2805 2.97816E-03 4.96551E-04-5.52944E-15
 -1      2806 2.90244E-03 4.58577E-04-5.34250E-15
 -1      2807 3.40391E-03 4.99427E-04-7.24318E-15
 -1      2808 3.26195E-03 4.98877E-04-6.64678E-15
 -1      2809 3.18722E-03 4.61308E-04-6.43824E-15
 -1      2810 3.68805E-03 4.99674E-04-8.51005E-15
 -1      2811 3.54596E-03 4.99678E-04-7.86436E-15
 -1      2812 3.47207E-03 4.62388E-04-7.63402E-15
 -1      2813 3.97244E-03 4.99118E-04-9.87541E-15
 -1      2814 3.83022E-03 4.99477E-04-9.18050E-15
 -1      2815 3.75700E-03 4.62378E-04-8.92847E-15
 -1      2816 4.25706E-03 4.98057E-04-1.13386E-14
 -1      2817 4.11473E-03 4.98638E-04-1.05948E-14
 -1      2818 4.04205E-03 4.61669E-04-1.03209E-14
 -1      2819 4.54190E-03 4.96679E-04-1.28963E-14
 -1      2820 4.39946E-03 4.97400E-04-1.21053E-14
 -1      2821 4.32720E-03 4.60523E-04-1.18089E-14
 -1      2822 4.82693E-03 4.95087E-04-1.45484E-14
 -1      2823 4.68440E-03 4.95905E-04-1.37113E-14
 -1      2824 4.61247E-03 4.59102E-04-1.33920E-14
 -1      2825 5.11215E-03 4.93319E-04-1.62949E-14
 -1      2826 4.96952E-03 4.94224E-04-1.54094E-14
 -1      2827 4.89783E-03 4.57488E-04-1.50686E-14
 -1      2828 5.39753E-03 4.91365E-04-1.81326E-14
 -1      2829 5.25482E-03 4.92367E-04-1.72022E-14
 -1      2830 5.18331E-03 4.55706E-04-1.68393E-14
 -1      2831 5.68308E-03 4.89174E-04-2.00640E-14
 -1      2832 5.54028E-03 4.90303E-04-1.90871E-14
 -1      2833 5.46888E-03 4.53733E-04-1.87021E-14
 -1      2834 5.96881E-03 4.86664E-04-2.20850E-14
 -1      2835 5.82592E-03 4.87963E-04-2.10629E-14
 -1      2836 5.75455E-03 4.51511E-04-2.06574E-14
 -1      2837 6.25474E-03 4.83729E-04-2.41911E-14
 -1      2838 6.11175E-03 4.85255E-04-2.31272E-14
 -1      2839 6.04034E-03 4.48953E-04-2.27001E-14
 -1      2840 6.54092E-03 4.80251E-04-2.63763E-14
 -1      2841 6.39780E-03 4.82064E-04-2.52741E-14
 -1      2842 6.32626E-03 4.45952E-04-2.48278E-14
 -1      2843 6.82741E-03 4.76098E-04-2.86394E-14
 -1      2844 6.68412E-03 4.78264E-04-2.74991E-14
 -1      2845 6.61234E-03 4.42387E-04-2.70345E-14
 -1      2846 7.11427E-03 4.71144E-04-3.09736E-14
 -1      2847 6.97078E-03 4.73726E-04-2.97978E-14
 -1      2848 6.89860E-03 4.38130E-04-2.93157E-14
 -1      2849 7.40161E-03 4.65280E-04-3.33825E-14
 -1      2850 7.25786E-03 4.68329E-04-3.21685E-14
 -1      2851 7.18507E-03 4.33065E-04-3.16712E-14
 -1      2852 7.68953E-03 4.58441E-04-3.58575E-14
 -1      2853 7.54548E-03 4.61982E-04-3.46118E-14
 -1      2854 7.47181E-03 4.27095E-04-3.40987E-14
 -1      2855 7.97818E-03 4.50637E-04-3.84015E-14
 -1      2856 7.83374E-03 4.54654E-04-3.71212E-14
 -1      2857 7.75883E-03 4.20176E-04-3.65959E-14
 -1      2858 8.26769E-03 4.42009E-04-4.10136E-14
 -1      2859 8.12280E-03 4.46411E-04-3.96987E-14
 -1      2860 8.04616E-03 4.12353E-04-3.91600E-14
 -1      2861 8.55821E-03 4.32904E-04-4.36903E-14
 -1      2862 8.41278E-03 4.37487E-04-4.23430E-14
 -1      2863 8.33380E-03 4.03815E-04-4.17915E-14
 -1      2864 8.84988E-03 4.23994E-04-4.64345E-14
 -1      2865 8.70385E-03 4.28374E-04-4.50556E-14
 -1      2866 8.62170E-03 3.94973E-04-4.44917E-14
 -1      2867 9.14288E-03 4.16442E-04-4.92399E-14
 -1      2868 8.99616E-03 4.19966E-04-4.78290E-14
 -1      2869 8.90981E-03 3.86579E-04-4.72562E-14
 -1      2870 9.43744E-03 4.12132E-04-5.21040E-14
 -1      2871 9.28989E-03 4.13750E-04-5.06637E-14
 -1      2872 9.19803E-03 3.79878E-04-5.00804E-14
 -1      2873 9.73402E-03 4.14001E-04-5.50213E-14
 -1      2874 9.58537E-03 4.12087E-04-5.35565E-14
 -1      2875 9.48636E-03 3.76817E-04-5.29626E-14
 -1      2876 1.00336E-02 4.26460E-04-5.79907E-14
 -1      2877 9.88328E-03 4.18579E-04-5.65005E-14
 -1      2878 9.77509E-03 3.80316E-04-5.58994E-14
 -1      2879 1.03384E-02 4.55949E-04-6.10038E-14
 -1      2880 1.01851E-02 4.38555E-04-5.94923E-14
 -1      2881 1.00653E-02 3.94616E-04-5.88839E-14
 -1      2882 1.06525E-02 5.11586E-04-6.40577E-14
 -1      2883 1.04939E-02 4.79672E-04-6.25269E-14
 -1      2884 1.03595E-02 4.25760E-04-6.19107E-14
 -1      2885 1.09835E-02 6.05895E-04-6.71464E-14
 -1      2886 1.08155E-02 5.52568E-04-6.55971E-14
 -1      2887 1.06636E-02 4.82329E-04-6.49742E-14
 -1      2888 1.13417E-02 7.55602E-04-7.02694E-14
 -1      2889 1.11591E-02 6.72020E-04-6.87028E-14
 -1      2890 1.09877E-02 5.77157E-04-6.80719E-14
 -1      2891 1.17353E-02 9.76948E-04-7.34222E-14
 -1      2892 1.15353E-02 8.55788E-04-7.18441E-14
 -1      2893 1.13469E-02 7.29848E-04-7.12076E-14
 -1      2894 1.28951E-02 1.74252E-03-8.22791E-14
 -1      2895 1.33576E-02 1.71260E-03-8.61629E-14
 -1      2896 1.31654E-02 1.76448E-03-8.45955E-14
 -1      2897 1.53599E-02 6.74076E-04-9.59719E-14
 -1      2898 1.51651E-02 7.38679E-04-9.56934E-14
 -1      2899 1.56612E-02 5.82855E-04-9.74275E-14
 -1      2900 1.57259E-02 5.93396E-04-9.72776E-14
 -1      2901 1.49646E-02 4.10150E-04-9.76372E-14
 -1      2902 1.51727E-02 4.76685E-04-9.74969E-14
 -1      2903 1.45705E-02 2.52344E-04-9.78194E-14
 -1      2904 1.47547E-02 3.28901E-04-9.76851E-14
 -1      2905 1.42611E-02 1.06530E-04-9.80841E-14
 -1      2906 1.44072E-02 1.76097E-04-9.79518E-14
 -1      2907 1.43331E-02 1.36104E-04-9.66144E-14
 -1      2908 1.40195E-02-1.78007E-05-9.83450E-14
 -1      2909 1.41334E-02 4.12983E-05-9.82139E-14
 -1      2910 1.40506E-02-1.19877E-05-9.68733E-14
 -1      2911 1.46740E-02 2.93981E-04-9.56487E-14
 -1      2912 1.44421E-02 1.87661E-04-9.51061E-14
 -1      2913 8.28046E-04-2.65253E-04-5.79208E-16
 -1      2914 9.59665E-04-3.00502E-04-7.41255E-16
 -1      2915 8.17442E-04-2.38626E-04-5.89752E-16
 -1      2916 1.55575E-02 5.69067E-04-9.72080E-14
 -1      2917 1.43072E-02 1.13836E-03-9.16073E-14
 -1      2918 1.45715E-02 9.92712E-04-9.28068E-14
 -1      2919 1.70125E-03 4.40510E-04-1.77350E-15
 -1      2920 1.55879E-03 4.25632E-04-1.48761E-15
 -1      2921 1.76215E-03 4.11190E-04-1.98195E-15
 -1      2922 1.41289E-02 1.26818E-03-9.21381E-14
 -1      2923 1.39265E-02 1.39198E-03-9.05692E-14
 -1      2924 2.55280E-03 4.88519E-04-4.04368E-15
 -1      2925 2.41105E-03 4.84135E-04-3.60024E-15
 -1      2926 2.33277E-03 4.44794E-04-3.45508E-15
 -1      2927 2.61766E-03 4.53421E-04-4.34733E-15
 -1      2928 1.06819E-03-3.21560E-04-8.97299E-16
 -1      2929 1.21151E-03-3.46796E-04-1.12603E-15
 -1      2930 1.27291E-03-3.24827E-04-1.27258E-15
 -1      2931 1.05581E-03-2.91323E-04-9.11177E-16
 -1      2932 7.84350E-04 1.23433E-04-5.64842E-16
 -1      2933 7.81955E-04 1.00000E-04-5.76945E-16
 -1      2934 8.99556E-04 9.94287E-05-7.38287E-16
 -1      2935 9.05310E-04 1.51560E-04-7.09366E-16
 -1      2936 7.81682E-04-9.79432E-05-6.15800E-16
 -1      2937 7.84002E-04-1.21292E-04-6.12872E-16
 -1      2938 1.41611E-03 4.07808E-04-1.22821E-15
 -1      2939 1.27305E-03 3.86776E-04-9.94959E-16
 -1      2940 1.18969E-03 3.41455E-04-9.27589E-16
 -1      2941 1.47613E-03 3.82160E-04-1.40236E-15
 -1      2942 1.07640E-02 4.05377E-04-7.23536E-14
 -1      2943 1.09118E-02 4.63289E-04-7.26002E-14
 -1      2944 1.26203E-02-6.86148E-04-8.39432E-14
 -1      2945 1.24628E-02-6.52237E-04-8.25541E-14
 -1      2946 1.15322E-02 8.02247E-04-7.38496E-14
 -1      2947 1.16961E-02 9.13187E-04-7.45585E-14
 -1      2948 1.35912E-02-2.73333E-04-9.74122E-14
 -1      2949 1.36960E-02-1.99943E-04-9.85693E-14
 -1      2950 1.35821E-02-2.85333E-04-9.64909E-14
 -1      2951 1.11187E-02 5.60600E-04-7.29046E-14
 -1      2952 1.13286E-02 6.74566E-04-7.35504E-14
 -1      2953 1.13693E-02 7.14988E-04-7.24921E-14
 -1      2954 1.09864E-02 5.00752E-04-7.18945E-14
 -1      2955 1.05537E-02 3.35282E-04-7.18836E-14
 -1      2956 1.06479E-02 3.63512E-04-7.21190E-14
 -1      2957 1.06829E-02 3.73906E-04-7.13588E-14
 -1      2958 1.04480E-02 2.96706E-04-7.15904E-14
 -1      2959 1.04809E-02 3.10582E-04-7.17214E-14
 -1      2960 1.05381E-02 2.60351E-04-7.21376E-14
 -1      2961 1.04660E-02 2.75721E-04-7.16794E-14
 -1      2962 1.07475E-02 1.99044E-04-7.30427E-14
 -1      2963 1.06381E-02 2.33181E-04-7.26532E-14
 -1      2964 1.11082E-02 5.19162E-05-7.43821E-14
 -1      2965 1.09166E-02 1.32110E-04-7.35934E-14
 -1      2966 1.15004E-02-1.37570E-04-7.62982E-14
 -1      2967 1.13302E-02-4.89354E-05-7.54769E-14
 -1      2968 1.18599E-02-3.53762E-04-7.81569E-14
 -1      2969 1.16766E-02-2.37467E-04-7.71747E-14
 -1      2970 1.22724E-02-5.83234E-04-8.10141E-14
 -1      2971 1.20932E-02-4.93242E-04-7.96543E-14
 -1      2972 1.53886E-02 5.34243E-04-9.73520E-14
 -1      2973 1.57179E-02 5.95705E-04-9.69858E-14
 -1      2974 1.37984E-02-1.37428E-04-9.88011E-14
 -1      2975 1.42026E-02 6.07743E-05-9.39934E-14
 -1      2976 1.40098E-02-4.87873E-05-9.33254E-14
 -1      2977 1.38371E-02-1.48434E-04-9.31378E-14
 -1      2978 1.42813E-02 1.06166E-04-9.53710E-14
 -1      2979 1.29742E-02-6.41971E-04-8.68967E-14
 -1      2980 1.28217E-02-6.79773E-04-8.56954E-14
 -1      2981 1.30418E-02-6.09806E-04-8.78263E-14
 -1      2982 1.38020E-02 1.45304E-03-8.90033E-14
 -1      2983 1.40351E-02 1.30238E-03-9.02646E-14
 -1      2984 1.20791E-02 1.19730E-03-7.66986E-14
 -1      2985 1.21205E-02 1.24691E-03-7.62167E-14
 -1      2986 1.19113E-02 1.09627E-03-7.46289E-14
 -1      2987 1.18859E-02 1.04522E-03-7.57717E-14
 -1      2988 1.55381E-02 6.29396E-04-9.65451E-14
 -1      2989 1.49355E-02 8.23887E-04-9.45614E-14
 -1      2990 1.50508E-02 7.88621E-04-9.59830E-14
 -1      2991 1.48709E-02 8.65400E-04-9.57992E-14
 -1      2992 1.47723E-02 8.94383E-04-9.38957E-14
 -1      2993 7.87061E-04-1.45442E-04-6.08170E-16
 -1      2994 7.90931E-04-1.70617E-04-6.01393E-16
 -1      2995 9.04837E-04-1.49032E-04-7.73416E-16
 -1      2996 8.95403E-04 1.00990E-06-7.72237E-16
 -1      2997 7.77575E-04-9.71856E-06-6.12086E-16
 -1      2998 7.77939E-04-3.13608E-05-6.15149E-16
 -1      2999 1.04955E-02 3.13166E-04-7.09667E-14
 -1      3000 8.64869E-04 2.66514E-04-5.28345E-16
 -1      3001 1.56440E-02 6.11118E-04-9.68248E-14
 -1      3002 1.46309E-02 9.69670E-04-9.37561E-14
 -1      3003 7.78719E-04-5.31408E-05-6.16613E-16
 -1      3004 7.79939E-04-7.53241E-05-6.16803E-16
 -1      3005 8.99263E-04-9.70789E-05-7.80002E-16
 -1      3006 8.96301E-04-4.75186E-05-7.79284E-16
 -1      3007 1.41712E-02 1.22526E-03-9.13249E-14
 -1      3008 1.30218E-02 1.77314E-03-8.33533E-14
 -1      3009 1.35001E-02 1.64666E-03-8.73411E-14
 -1      3010 1.34673E-02 1.65236E-03-8.68554E-14
 -1      3011 1.36890E-02 1.54144E-03-8.88272E-14
 -1      3012 1.45071E-02 1.04723E-03-9.52658E-14
 -1      3013 1.43207E-02 1.15654E-03-9.36965E-14
 -1      3014 1.38870E-02-8.79999E-05-9.86733E-14
 -1      3015 1.38041E-02-1.47878E-04-9.73231E-14
 -1      3016 1.23320E-02-6.29457E-04-8.15726E-14
 -1      3017 1.19462E-02-4.34905E-04-7.85380E-14
 -1      3018 1.17984E-02-3.78356E-04-7.74248E-14
 -1      3019 1.20064E-02-5.05124E-04-7.89193E-14
 -1      3020 1.15509E-02-1.99285E-04-7.61698E-14
 -1      3021 1.11716E-02-5.95424E-06-7.42019E-14
 -1      3022 1.08054E-02 1.49257E-04-7.25610E-14
 -1      3023 1.27002E-02-6.92536E-04-8.48671E-14
 -1      3024 1.43328E-02 1.14241E-03-9.30760E-14
 -1      3025 1.34095E-02-4.14532E-04-9.05225E-14
 -1      3026 9.82958E-04 2.75752E-04-6.88780E-16
 -1      3027 1.36450E-02 1.54946E-03-8.80295E-14
 -1      3028 1.37673E-02 1.47956E-03-8.90078E-14
 -1      3029 1.47233E-02 9.37926E-04-9.56942E-14
 -1      3030 1.05519E-02 2.34643E-04-7.14971E-14
 -1      3031 1.04268E-02 2.76499E-04-7.08963E-14
 -1      3032 1.04013E-02 2.73820E-04-7.01134E-14
 -1      3033 1.04168E-02 2.55772E-04-7.02020E-14
 -1      3034 1.51899E-02 4.76806E-04-9.62501E-14
 -1      3035 1.46646E-02 9.61213E-04-9.47435E-14
 -1      3036 1.04026E-03 2.43233E-04-8.20890E-16
 -1      3037 1.03363E-03 2.11512E-04-8.47087E-16
 -1      3038 1.31161E-02-5.70278E-04-8.88817E-14
 -1      3039 1.29683E-02-6.35525E-04-8.76760E-14
 -1      3040 1.73166E-03-3.40454E-04-2.27681E-15
 -1      3041 1.87532E-03-3.50669E-04-2.63496E-15
 -1      3042 2.01898E-03-3.59169E-04-3.01929E-15
 -1      3043 2.16262E-03-3.66108E-04-3.42962E-15
 -1      3044 1.94012E-03-3.19359E-04-2.84304E-15
 -1      3045 2.30622E-03-3.71763E-04-3.86503E-15
 -1      3046 2.44976E-03-3.76261E-04-4.32618E-15
 -1      3047 2.22814E-03-3.32501E-04-3.66390E-15
 -1      3048 2.59325E-03-3.79824E-04-4.81332E-15
 -1      3049 2.73668E-03-3.82552E-04-5.32593E-15
 -1      3050 2.51610E-03-3.41061E-04-4.58636E-15
 -1      3051 2.88006E-03-3.84616E-04-5.86323E-15
 -1      3052 3.02337E-03-3.86092E-04-6.42538E-15
 -1      3053 2.80385E-03-3.46273E-04-5.61001E-15
 -1      3054 3.16665E-03-3.87110E-04-7.01331E-15
 -1      3055 3.30988E-03-3.87726E-04-7.62587E-15
 -1      3056 3.09134E-03-3.49108E-04-6.73428E-15
 -1      3057 3.45307E-03-3.88035E-04-8.26215E-15
 -1      3058 3.59621E-03-3.88078E-04-8.92273E-15
 -1      3059 3.37855E-03-3.50306E-04-7.95711E-15
 -1      3060 3.73933E-03-3.87922E-04-9.60743E-15
 -1      3061 3.88241E-03-3.87595E-04-1.03168E-14
 -1      3062 3.66551E-03-3.50409E-04-9.27679E-15
 -1      3063 4.02547E-03-3.87144E-04-1.10492E-14
 -1      3064 4.16850E-03-3.86585E-04-1.18047E-14
 -1      3065 3.95224E-03-3.49805E-04-1.06917E-14
 -1      3066 4.31151E-03-3.85950E-04-1.25844E-14
 -1      3067 4.45450E-03-3.85247E-04-1.33872E-14
 -1      3068 4.23876E-03-3.48756E-04-1.22008E-14
 -1      3069 4.59748E-03-3.84495E-04-1.42129E-14
 -1      3070 4.74043E-03-3.83697E-04-1.50614E-14
 -1      3071 4.52512E-03-3.47430E-04-1.38033E-14
 -1      3072 4.88338E-03-3.82862E-04-1.59341E-14
 -1      3073 5.02631E-03-3.81987E-04-1.68290E-14
 -1      3074 4.81132E-03-3.45920E-04-1.54979E-14
 -1      3075 5.16924E-03-3.81075E-04-1.77463E-14
 -1      3076 5.31215E-03-3.80121E-04-1.86876E-14
 -1      3077 5.09740E-03-3.44263E-04-1.72857E-14
 -1      3078 5.45505E-03-3.79120E-04-1.96526E-14
 -1      3079 5.59794E-03-3.78064E-04-2.06402E-14
 -1      3080 5.38337E-03-3.42452E-04-1.91653E-14
 -1      3081 5.74083E-03-3.76945E-04-2.16510E-14
 -1      3082 5.88370E-03-3.75755E-04-2.26846E-14
 -1      3083 5.66923E-03-3.40448E-04-2.11375E-14
 -1      3084 6.02657E-03-3.74480E-04-2.37415E-14
 -1      3085 6.16943E-03-3.73112E-04-2.48219E-14
 -1      3086 5.95498E-03-3.38185E-04-2.32031E-14
 -1      3087 6.31228E-03-3.71637E-04-2.59249E-14
 -1      3088 6.45512E-03-3.70044E-04-2.70483E-14
 -1      3089 6.24060E-03-3.35583E-04-2.53600E-14
 -1      3090 6.59794E-03-3.68320E-04-2.81932E-14
 -1      3091 6.74076E-03-3.66455E-04-2.93598E-14
 -1      3092 6.52609E-03-3.32548E-04-2.76037E-14
 -1      3093 6.88356E-03-3.64439E-04-3.05457E-14
 -1      3094 7.02636E-03-3.62262E-04-3.17513E-14
 -1      3095 6.81142E-03-3.28990E-04-2.99307E-14
 -1      3096 7.16914E-03-3.59920E-04-3.29765E-14
 -1      3097 7.31192E-03-3.57408E-04-3.42200E-14
 -1      3098 7.09655E-03-3.24826E-04-3.23363E-14
 -1      3099 7.45469E-03-3.54729E-04-3.54833E-14
 -1      3100 7.59747E-03-3.51884E-04-3.67661E-14
 -1      3101 7.38147E-03-3.20000E-04-3.48208E-14
 -1      3102 7.74024E-03-3.48891E-04-3.80670E-14
 -1      3103 7.88305E-03-3.45760E-04-3.93863E-14
 -1      3104 7.66617E-03-3.14502E-04-3.73811E-14
 -1      3105 8.02588E-03-3.42530E-04-4.07244E-14
 -1      3106 8.16878E-03-3.39225E-04-4.20803E-14
 -1      3107 7.95067E-03-3.08395E-04-4.00151E-14
 -1      3108 8.31175E-03-3.35909E-04-4.34549E-14
 -1      3109 8.45485E-03-3.32632E-04-4.48478E-14
 -1      3110 8.23507E-03-3.01853E-04-4.27237E-14
 -1      3111 8.59811E-03-3.29487E-04-4.62539E-14
 -1      3112 8.74162E-03-3.26562E-04-4.76772E-14
 -1      3113 8.51956E-03-2.95203E-04-4.55013E-14
 -1      3114 8.88541E-03-3.23983E-04-4.91146E-14
 -1      3115 9.02962E-03-3.21894E-04-5.05656E-14
 -1      3116 8.80452E-03-2.88985E-04-4.83430E-14
 -1      3117 9.17433E-03-3.20456E-04-5.20306E-14
 -1      3118 9.31971E-03-3.19888E-04-5.35090E-14
 -1      3119 9.09061E-03-2.84019E-04-5.12417E-14
 -1      3120 9.46592E-03-3.20384E-04-5.49984E-14
 -1      3121 9.61315E-03-3.22272E-04-5.65001E-14
 -1      3122 9.37884E-03-2.81498E-04-5.41932E-14
 -1      3123 9.76166E-03-3.25765E-04-5.80140E-14
 -1      3124 9.91165E-03-3.31332E-04-5.95369E-14
 -1      3125 9.67077E-03-2.83096E-04-5.71902E-14
 -1      3126 1.00635E-02-3.39187E-04-6.10684E-14
 -1      3127 1.02173E-02-3.49968E-04-6.26084E-14
 -1      3128 9.96856E-03-2.91120E-04-6.02320E-14
 -1      3129 1.03737E-02-3.63859E-04-6.41576E-14
 -1      3130 1.05324E-02-3.81638E-04-6.57094E-14
 -1      3131 1.02749E-02-3.08681E-04-6.33077E-14
 -1      3132 1.06942E-02-4.03417E-04-6.72641E-14
 -1      3133 1.08585E-02-4.29912E-04-6.88236E-14
 -1      3134 1.05930E-02-3.39825E-04-6.64087E-14
 -1      3135 1.10259E-02-4.61052E-04-7.03867E-14
 -1      3136 1.11951E-02-4.96998E-04-7.19546E-14
 -1      3137 1.09249E-02-3.89212E-04-6.95243E-14
 -1      3138 1.13665E-02-5.37149E-04-7.35249E-14
 -1      3139 1.15380E-02-5.80468E-04-7.51016E-14
 -1      3140 1.12703E-02-4.60267E-04-7.26551E-14
 -1      3141 1.17094E-02-6.25935E-04-7.66844E-14
 -1      3142 1.18784E-02-6.69294E-04-7.82726E-14
 -1      3143 1.16239E-02-5.51624E-04-7.58076E-14
 -1      3144 1.20446E-02-7.08458E-04-7.98670E-14
 -1      3145 1.22070E-02-7.37820E-04-8.14670E-14
 -1      3146 1.19749E-02-6.49621E-04-7.89810E-14
 -1      3147 1.23647E-02-7.54393E-04-8.30763E-14
 -1      3148 1.25202E-02-7.53140E-04-8.46900E-14
 -1      3149 1.23113E-02-7.21335E-04-8.21811E-14
 -1      3150 1.29801E-02-6.31552E-04-8.95511E-14
 -1      3151 1.31373E-02-5.55594E-04-9.11728E-14
 -1      3152 1.32967E-02-4.66180E-04-9.27945E-14
 -1      3153 1.34581E-02-3.68483E-04-9.44152E-14
 -1      3154 1.32739E-02-4.79521E-04-9.18815E-14
 -1      3155 2.11107E-03 3.98760E-04-2.91172E-15
 -1      3156 1.96785E-03 3.90827E-04-2.54058E-15
 -1      3157 3.25492E-03 4.24370E-04-6.80359E-15
 -1      3158 3.11207E-03 4.23506E-04-6.22911E-15
 -1      3159 2.96918E-03 4.22189E-04-5.67915E-15
 -1      3160 2.82628E-03 4.20358E-04-5.15438E-15
 -1      3161 3.03654E-03 3.85497E-04-6.01927E-15
 -1      3162 3.82622E-03 4.24889E-04-9.34909E-15
 -1      3163 3.68341E-03 4.25094E-04-8.67588E-15
 -1      3164 4.11185E-03 4.24071E-04-1.07676E-14
 -1      3165 3.96904E-03 4.24541E-04-1.00467E-14
 -1      3166 3.89574E-03 3.87252E-04-9.77277E-15
 -1      3167 4.39748E-03 4.22877E-04-1.22806E-14
 -1      3168 4.25466E-03 4.23512E-04-1.15121E-14
 -1      3169 4.18187E-03 3.86362E-04-1.12159E-14
 -1      3170 4.68312E-03 4.21444E-04-1.38882E-14
 -1      3171 4.54030E-03 4.22186E-04-1.30725E-14
 -1      3172 4.46790E-03 3.85152E-04-1.27545E-14
 -1      3173 4.96878E-03 4.19836E-04-1.55909E-14
 -1      3174 4.82595E-03 4.20660E-04-1.47285E-14
 -1      3175 4.75387E-03 3.83733E-04-1.43875E-14
 -1      3176 5.25447E-03 4.18063E-04-1.73857E-14
 -1      3177 5.11162E-03 4.18971E-04-1.64763E-14
 -1      3178 5.03978E-03 3.82154E-04-1.61147E-14
 -1      3179 5.54019E-03 4.16095E-04-1.92741E-14
 -1      3180 5.39732E-03 4.17106E-04-1.83186E-14
 -1      3181 5.32564E-03 3.80413E-04-1.79354E-14
 -1      3182 5.82594E-03 4.13868E-04-2.12525E-14
 -1      3183 5.68306E-03 4.15018E-04-2.02526E-14
 -1      3184 5.61146E-03 3.78473E-04-1.98483E-14
 -1      3185 6.11174E-03 4.11291E-04-2.33198E-14
 -1      3186 5.96883E-03 4.12628E-04-2.22762E-14
 -1      3187 5.89725E-03 3.76266E-04-2.18510E-14
 -1      3188 6.39758E-03 4.08258E-04-2.54659E-14
 -1      3189 6.25465E-03 4.09838E-04-2.43822E-14
 -1      3190 6.18299E-03 3.73703E-04-2.39388E-14
 -1      3191 6.68346E-03 4.04652E-04-2.76939E-14
 -1      3192 6.54051E-03 4.06533E-04-2.65707E-14
 -1      3193 6.46867E-03 3.70679E-04-2.61071E-14
 -1      3194 6.96938E-03 4.00353E-04-2.99949E-14
 -1      3195 6.82641E-03 4.02595E-04-2.88353E-14
 -1      3196 6.75427E-03 3.67083E-04-2.83540E-14
 -1      3197 7.25533E-03 3.95254E-04-3.23710E-14
 -1      3198 7.11234E-03 3.97909E-04-3.11733E-14
 -1      3199 7.03974E-03 3.62808E-04-3.06757E-14
 -1      3200 7.54127E-03 3.89281E-04-3.48186E-14
 -1      3201 7.39829E-03 3.92380E-04-3.35860E-14
 -1      3202 7.32501E-03 3.57765E-04-3.30726E-14
 -1      3203 7.82715E-03 3.82419E-04-3.73355E-14
 -1      3204 7.68421E-03 3.85961E-04-3.60683E-14
 -1      3205 7.60998E-03 3.51904E-04-3.55417E-14
 -1      3206 8.11287E-03 3.74754E-04-3.99214E-14
 -1      3207 7.97002E-03 3.78681E-04-3.86198E-14
 -1      3208 7.89450E-03 3.45246E-04-3.80788E-14
 -1      3209 8.39828E-03 3.66527E-04-4.25745E-14
 -1      3210 8.25560E-03 3.70695E-04-4.12403E-14
 -1      3211 8.17834E-03 3.37924E-04-4.06859E-14
 -1      3212 8.68315E-03 3.58220E-04-4.52956E-14
 -1      3213 8.54077E-03 3.62355E-04-4.39258E-14
 -1      3214 8.46120E-03 3.30240E-04-4.33612E-14
 -1      3215 8.96720E-03 3.50656E-04-4.80793E-14
 -1      3216 8.82526E-03 3.54297E-04-4.66796E-14
 -1      3217 8.74267E-03 3.22742E-04-4.61020E-14
 -1      3218 9.25009E-03 3.45139E-04-5.09250E-14
 -1      3219 9.10876E-03 3.47566E-04-4.94959E-14
 -1      3220 9.02223E-03 3.16316E-04-4.89083E-14
 -1      3221 9.53155E-03 3.43621E-04-5.38271E-14
 -1      3222 9.39095E-03 3.43764E-04-5.23701E-14
 -1      3223 9.29930E-03 3.12294E-04-5.17730E-14
 -1      3224 9.81168E-03 3.48900E-04-5.67783E-14
 -1      3225 9.67168E-03 3.45233E-04-5.52954E-14
 -1      3226 9.57334E-03 3.12564E-04-5.46913E-14
 -1      3227 1.00914E-02 3.64862E-04-5.97776E-14
 -1      3228 9.95139E-03 3.55260E-04-5.82724E-14
 -1      3229 9.84416E-03 3.19671E-04-5.76588E-14
 -1      3230 1.03738E-02 3.96924E-04-6.28158E-14
 -1      3231 1.02319E-02 3.78380E-04-6.12910E-14
 -1      3232 1.01125E-02 3.36944E-04-6.06716E-14
 -1      3233 1.06654E-02 4.52913E-04-6.58897E-14
 -1      3234 1.05177E-02 4.20968E-04-6.43496E-14
 -1      3235 1.03813E-02 3.68858E-04-6.37212E-14
 -1      3236 1.09787E-02 5.45487E-04-6.89988E-14
 -1      3237 1.08181E-02 4.92714E-04-6.74402E-14
 -1      3238 1.06577E-02 4.22040E-04-6.68062E-14
 -1      3239 1.11831E-02 6.23338E-04-7.09143E-14
 -1      3240 1.35097E-02-3.44484E-04-9.18705E-14
 -1      3241 1.33078E-02-4.68068E-04-9.03769E-14
 -1      3242 1.32198E-02-5.12365E-04-9.02300E-14
 -1      3243 1.17216E-02 9.47510E-04-7.39915E-14
 -1      3244 1.05711E-02 2.05462E-04-7.09389E-14
 -1      3245 1.04816E-02 2.28244E-04-7.04260E-14
 -1      3246 1.23795E-02-6.71955E-04-8.21679E-14
 -1      3247 1.22094E-02-6.14548E-04-8.06289E-14
 -1      3248 1.47169E-02 3.12731E-04-9.64395E-14
 -1      3249 1.41196E-02 2.14979E-05-9.54994E-14
 -1      3250 1.82457E-03 3.81149E-04-2.19522E-15
 -1      3251 1.68122E-03 3.69551E-04-1.87571E-15
 -1      3252 1.88824E-03 3.50437E-04-2.41377E-15
 -1      3253 7.99186E-04-1.91549E-04-6.00323E-16
 -1      3254 8.07207E-04-2.15422E-04-5.94631E-16
 -1      3255 9.36493E-04-2.46240E-04-7.60243E-16
 -1      3256 9.17266E-04-1.98722E-04-7.66423E-16
 -1      3257 1.04375E-02 2.94103E-04-6.99919E-14
 -1      3258 1.05071E-02 3.15269E-04-7.01509E-14
 -1      3259 1.38327E-02-1.42006E-04-9.55450E-14
 -1      3260 1.39479E-02-7.64317E-05-9.54216E-14
 -1      3261 1.38275E-02 1.45188E-03-8.97993E-14
 -1      3262 1.05998E-02 3.47000E-04-7.02754E-14
 -1      3263 1.07023E-02 3.82777E-04-7.05054E-14
 -1      3264 3.54059E-03 4.25104E-04-8.02694E-15
 -1      3265 3.39776E-03 4.24888E-04-7.40296E-15
 -1      3266 3.32310E-03 3.87189E-04-7.17196E-15
 -1      3267 3.60949E-03 3.87628E-04-8.42299E-15
 -1      3268 1.44457E-03-3.13717E-04-1.63912E-15
 -1      3269 1.58807E-03-3.28200E-04-1.94487E-15
 -1      3270 1.65234E-03-3.00128E-04-2.12532E-15
 -1      3271 1.14501E-03 3.10534E-04-9.00349E-16
 -1      3272 1.08236E-03 2.71609E-04-8.52210E-16
 -1      3273 1.20146E-03 2.73044E-04-1.05414E-15
 -1      3274 1.28818E-03 3.32504E-04-1.12155E-15
 -1      3275 1.49161E-02 3.87471E-04-9.56027E-14
 -1      3276 1.01649E-03 6.81932E-05-9.32848E-16
 -1      3277 1.01532E-03 4.12160E-05-9.42795E-16
 -1      3278 1.27576E-02-6.92433E-04-8.57737E-14
 -1      3279 1.25763E-02-7.02070E-04-8.40183E-14
 -1      3280 1.08291E-02 1.07271E-04-7.20008E-14
 -1      3281 1.06849E-02 1.66836E-04-7.14530E-14
 -1      3282 1.12458E-02-7.36216E-05-7.41493E-14
 -1      3283 1.10472E-02 1.36476E-05-7.30582E-14
 -1      3284 1.15713E-02-2.53849E-04-7.59395E-14
 -1      3285 1.14181E-02-1.65468E-04-7.50663E-14
 -1      3286 1.40255E-02 1.31806E-03-9.07508E-14
 -1      3287 1.01472E-03 1.44454E-05-9.50791E-16
 -1      3288 1.01468E-03-1.22264E-05-9.56930E-16
 -1      3289 1.13540E-03 3.01602E-05-1.14698E-15
 -1      3290 1.28346E-02-6.76751E-04-8.68264E-14
 -1      3291 1.15304E-03 2.11784E-04-1.04512E-15
 -1      3292 1.02828E-03 1.81138E-04-8.69368E-16
 -1      3293 1.02410E-03 1.51813E-04-8.89236E-16
 -1      3294 1.22715E-03-2.88298E-04-1.22367E-15
 -1      3295 1.33579E-03-3.01813E-04-1.42361E-15
 -1      3296 1.39984E-03-2.77608E-04-1.57928E-15
 -1      3297 1.04420E-03-2.64763E-04-9.18021E-16
 -1      3298 1.26727E-02-7.32615E-04-8.63062E-14
 -1      3299 1.28262E-02-6.91885E-04-8.79279E-14
 -1      3300 2.25423E-03 4.05261E-04-3.30908E-15
 -1      3301 2.17559E-03 3.65655E-04-3.16235E-15
 -1      3302 2.39732E-03 4.10470E-04-3.73233E-15
 -1      3303 1.29478E-02-6.41563E-04-8.86410E-14
 -1      3304 2.74978E-03 3.81941E-04-4.96635E-15
 -1      3305 2.68333E-03 4.17868E-04-4.65502E-15
 -1      3306 2.54035E-03 4.14636E-04-4.18100E-15
 -1      3307 1.09854E-02 5.18231E-04-7.02718E-14
 -1      3308 1.36759E-02-2.41861E-04-9.30526E-14
 -1      3309 1.35635E-02-3.09215E-04-9.29096E-14
 -1      3310 1.24487E-02-7.04117E-04-8.30697E-14
 -1      3311 1.05890E-02 1.68544E-04-7.03840E-14
 -1      3312 1.01801E-03-9.29775E-05-9.63991E-16
 -1      3313 1.02040E-03-1.20679E-04-9.62487E-16
 -1      3314 1.35713E-02-2.96514E-04-9.55715E-14
 -1      3315 1.36824E-02-2.31887E-04-9.52533E-14
 -1      3316 1.44791E-02 1.05526E-03-9.36502E-14
 -1      3317 1.02363E-03-1.49097E-04-9.58774E-16
 -1      3318 1.02769E-03-1.78350E-04-9.52404E-16
 -1      3319 1.14324E-03-1.45894E-04-1.16338E-15
 -1      3320 1.02079E-03 1.23276E-04-9.06203E-16
 -1      3321 1.01831E-03 9.55085E-05-9.20691E-16
 -1      3322 1.13807E-03 8.86093E-05-1.12360E-15
 -1      3323 1.14369E-03 1.48751E-04-1.09000E-15
 -1      3324 1.35731E-02-3.00188E-04-9.37956E-14
 -1      3325 1.05143E-02 3.21782E-04-6.93034E-14
 -1      3326 1.38742E-02-1.20104E-04-9.41744E-14
 -1      3327 1.03821E-02 2.73294E-04-6.93059E-14
 -1      3328 1.03694E-02 2.73722E-04-6.84965E-14
 -1      3329 1.03405E-02 2.54726E-04-6.86185E-14
 -1      3330 1.55632E-03 3.61475E-04-1.61159E-15
 -1      3331 1.41295E-03 3.45289E-04-1.34163E-15
 -1      3332 1.36910E-03 3.15041E-04-1.30526E-15
 -1      3333 1.61928E-03 3.33868E-04-1.79984E-15
 -1      3334 1.16570E-02-3.39274E-04-7.63185E-14
 -1      3335 1.12764E-02-1.33471E-04-7.39209E-14
 -1      3336 1.08181E-02 4.37851E-04-6.99748E-14
 -1      3337 1.04143E-02 2.33941E-04-6.96477E-14
 -1      3338 1.03596E-02 2.34804E-04-6.88713E-14
 -1      3339 1.04141E-02 2.08849E-04-6.90939E-14
 -1      3340 1.09019E-02 5.06144E-05-7.19499E-14
 -1      3341 1.07669E-02 7.48193E-05-7.08468E-14
 -1      3342 1.09653E-02-1.07332E-05-7.18993E-14
 -1      3343 1.26316E-02-7.26113E-04-8.54048E-14
 -1      3344 1.07087E-02 4.04006E-04-6.88958E-14
 -1      3345 1.05034E-02 3.30406E-04-6.78649E-14
 -1      3346 1.05817E-02 3.73516E-04-6.73377E-14
 -1      3347 1.04560E-02 3.48952E-04-6.57881E-14
 -1      3348 1.01521E-03-3.89270E-05-9.61118E-16
 -1      3349 1.01630E-03-6.57632E-05-9.63436E-16
 -1      3350 1.13781E-03-8.59607E-05-1.16682E-15
 -1      3351 1.42746E-02 1.16537E-03-9.20939E-14
 -1      3352 2.15032E-03-2.93410E-04-3.46442E-15
 -1      3353 2.29467E-03-2.98330E-04-3.90031E-15
 -1      3354 2.43901E-03-3.02297E-04-4.36185E-15
 -1      3355 2.58332E-03-3.05409E-04-4.84859E-15
 -1      3356 2.36209E-03-2.63638E-04-4.13955E-15
 -1      3357 2.72758E-03-3.07830E-04-5.35925E-15
 -1      3358 2.87177E-03-3.09636E-04-5.89563E-15
 -1      3359 2.65133E-03-2.69361E-04-5.11143E-15
 -1      3360 3.01588E-03-3.10956E-04-6.45745E-15
 -1      3361 3.15991E-03-3.11846E-04-7.04398E-15
 -1      3362 2.94036E-03-2.72701E-04-6.18311E-15
 -1      3363 3.30386E-03-3.12405E-04-7.65414E-15
 -1      3364 3.44772E-03-3.12672E-04-8.28904E-15
 -1      3365 3.22905E-03-2.74361E-04-7.35394E-15
 -1      3366 3.59150E-03-3.12722E-04-8.94827E-15
 -1      3367 3.73520E-03-3.12580E-04-9.63094E-15
 -1      3368 3.51735E-03-2.74876E-04-8.62183E-15
 -1      3369 3.87882E-03-3.12299E-04-1.03368E-14
 -1      3370 4.02236E-03-3.11897E-04-1.10665E-14
 -1      3371 3.80525E-03-2.74636E-04-9.98501E-15
 -1      3372 4.16584E-03-3.11410E-04-1.18207E-14
 -1      3373 4.30925E-03-3.10846E-04-1.25965E-14
 -1      3374 4.09277E-03-2.73914E-04-1.14422E-14
 -1      3375 4.45260E-03-3.10229E-04-1.33962E-14
 -1      3376 4.59589E-03-3.09563E-04-1.42191E-14
 -1      3377 4.37995E-03-2.72891E-04-1.29923E-14
 -1      3378 4.73913E-03-3.08860E-04-1.50659E-14
 -1      3379 4.88232E-03-3.08120E-04-1.59350E-14
 -1      3380 4.66682E-03-2.71677E-04-1.46360E-14
 -1      3381 5.02546E-03-3.07349E-04-1.68271E-14
 -1      3382 5.16855E-03-3.06542E-04-1.77422E-14
 -1      3383 4.95341E-03-2.70325E-04-1.63717E-14
 -1      3384 5.31160E-03-3.05699E-04-1.86811E-14
 -1      3385 5.45460E-03-3.04812E-04-1.96434E-14
 -1      3386 5.23974E-03-2.68848E-04-1.82003E-14
 -1      3387 5.59756E-03-3.03878E-04-2.06285E-14
 -1      3388 5.74048E-03-3.02888E-04-2.16369E-14
 -1      3389 5.52584E-03-2.67224E-04-2.01217E-14
 -1      3390 5.88334E-03-3.01833E-04-2.26669E-14
 -1      3391 6.02616E-03-3.00703E-04-2.37211E-14
 -1      3392 5.81169E-03-2.65407E-04-2.21354E-14
 -1      3393 6.16893E-03-2.99488E-04-2.47981E-14
 -1      3394 6.31164E-03-2.98176E-04-2.58973E-14
 -1      3395 6.09727E-03-2.63331E-04-2.42399E-14
 -1      3396 6.45429E-03-2.96758E-04-2.70174E-14
 -1      3397 6.59688E-03-2.95219E-04-2.81579E-14
 -1      3398 6.38255E-03-2.60919E-04-2.64335E-14
 -1      3399 6.73938E-03-2.93551E-04-2.93186E-14
 -1      3400 6.88182E-03-2.91740E-04-3.05001E-14
 -1      3401 6.66747E-03-2.58082E-04-2.87113E-14
 -1      3402 7.02415E-03-2.89781E-04-3.17018E-14
 -1      3403 7.16641E-03-2.87660E-04-3.29216E-14
 -1      3404 6.95196E-03-2.54734E-04-3.10695E-14
 -1      3405 7.30855E-03-2.85377E-04-3.41619E-14
 -1      3406 7.45059E-03-2.82919E-04-3.54213E-14
 -1      3407 7.23593E-03-2.50793E-04-3.35066E-14
 -1      3408 7.59252E-03-2.80298E-04-3.66980E-14
 -1      3409 7.73434E-03-2.77503E-04-3.79948E-14
 -1      3410 7.51930E-03-2.46197E-04-3.60196E-14
 -1      3411 7.87603E-03-2.74557E-04-3.93084E-14
 -1      3412 8.01763E-03-2.71460E-04-4.06421E-14
 -1      3413 7.80199E-03-2.40917E-04-3.86058E-14
 -1      3414 8.15912E-03-2.68247E-04-4.19947E-14
 -1      3415 8.30055E-03-2.64935E-04-4.33654E-14
 -1      3416 8.08396E-03-2.34979E-04-4.12686E-14
 -1      3417 8.44191E-03-2.61577E-04-4.47524E-14
 -1      3418 8.58329E-03-2.58213E-04-4.61556E-14
 -1      3419 8.36526E-03-2.28487E-04-4.40047E-14
 -1      3420 8.72471E-03-2.54917E-04-4.75739E-14
 -1      3421 8.86627E-03-2.51766E-04-4.90083E-14
 -1      3422 8.64609E-03-2.21660E-04-4.68080E-14
 -1      3423 9.00805E-03-2.48857E-04-5.04572E-14
 -1      3424 9.15022E-03-2.46327E-04-5.19173E-14
 -1      3425 8.92688E-03-2.14880E-04-4.96727E-14
 -1      3426 9.29290E-03-2.44293E-04-5.33892E-14
 -1      3427 9.43633E-03-2.42988E-04-5.48748E-14
 -1      3428 9.20843E-03-2.08757E-04-5.25887E-14
 -1      3429 9.58074E-03-2.42542E-04-5.63718E-14
 -1      3430 9.72644E-03-2.43339E-04-5.78803E-14
 -1      3431 9.49211E-03-2.04243E-04-5.55556E-14
 -1      3432 9.87379E-03-2.45522E-04-5.93982E-14
 -1      3433 1.00232E-02-2.49699E-04-6.09239E-14
 -1      3434 9.78001E-03-2.02816E-04-5.85659E-14
 -1      3435 1.01751E-02-2.56015E-04-6.24601E-14
 -1      3436 1.03299E-02-2.65419E-04-6.40047E-14
 -1      3437 1.00752E-02-2.06788E-04-6.16155E-14
 -1      3438 1.04884E-02-2.78068E-04-6.55534E-14
 -1      3439 1.06507E-02-2.95285E-04-6.71045E-14
 -1      3440 1.03819E-02-2.19844E-04-6.46978E-14
 -1      3441 1.08176E-02-3.17309E-04-6.86613E-14
 -1      3442 1.09887E-02-3.45513E-04-7.02229E-14
 -1      3443 1.07052E-02-2.47862E-04-6.78012E-14
 -1      3444 1.11650E-02-3.79619E-04-7.17876E-14
 -1      3445 1.13445E-02-4.20971E-04-7.33587E-14
 -1      3446 1.10499E-02-2.98801E-04-7.09206E-14
 -1      3447 1.18423E-02-5.31608E-04-7.75993E-14
 -1      3448 1.20283E-02-5.91189E-04-7.91877E-14
 -1      3449 1.57397E-03-2.60684E-04-1.97585E-15
 -1      3450 1.71776E-03-2.71166E-04-2.30940E-15
 -1      3451 4.25210E-03 3.48551E-04-1.16673E-14
 -1      3452 4.10885E-03 3.49057E-04-1.09209E-14
 -1      3453 3.96554E-03 3.49474E-04-1.01978E-14
 -1      3454 3.82219E-03 3.49790E-04-9.49796E-15
 -1      3455 4.03564E-03 3.11598E-04-1.06253E-14
 -1      3456 4.82472E-03 3.45980E-04-1.48901E-14
 -1      3457 4.68162E-03 3.46689E-04-1.40483E-14
 -1      3458 5.11083E-03 3.44456E-04-1.66415E-14
 -1      3459 4.96779E-03 3.45237E-04-1.57544E-14
 -1      3460 4.89567E-03 3.08214E-04-1.53943E-14
 -1      3461 5.39682E-03 3.42774E-04-1.84878E-14
 -1      3462 5.25384E-03 3.43637E-04-1.75525E-14
 -1      3463 5.18193E-03 3.06768E-04-1.71713E-14
 -1      3464 5.68270E-03 3.40890E-04-2.04242E-14
 -1      3465 5.53977E-03 3.41861E-04-1.94443E-14
 -1      3466 5.46800E-03 3.05168E-04-1.90412E-14
 -1      3467 5.96847E-03 3.38736E-04-2.24500E-14
 -1      3468 5.82560E-03 3.39851E-04-2.14257E-14
 -1      3469 5.75389E-03 3.03368E-04-2.10019E-14
 -1      3470 6.25410E-03 3.36225E-04-2.45576E-14
 -1      3471 6.11130E-03 3.37531E-04-2.34944E-14
 -1      3472 6.03959E-03 3.01300E-04-2.30496E-14
 -1      3473 6.53955E-03 3.33259E-04-2.67486E-14
 -1      3474 6.39685E-03 3.34805E-04-2.56437E-14
 -1      3475 6.32505E-03 2.98883E-04-2.51815E-14
 -1      3476 6.82478E-03 3.29737E-04-2.90159E-14
 -1      3477 6.68220E-03 3.31574E-04-2.78730E-14
 -1      3478 6.61022E-03 2.96029E-04-2.73922E-14
 -1      3479 7.10970E-03 3.25567E-04-3.13588E-14
 -1      3480 6.96728E-03 3.27739E-04-3.01770E-14
 -1      3481 6.89500E-03 2.92649E-04-2.96794E-14
 -1      3482 7.39417E-03 3.20684E-04-3.37770E-14
 -1      3483 7.25199E-03 3.23220E-04-3.25584E-14
 -1      3484 7.17927E-03 2.88673E-04-3.20448E-14
 -1      3485 7.67802E-03 3.15068E-04-3.62674E-14
 -1      3486 7.53617E-03 3.17970E-04-3.50136E-14
 -1      3487 7.46282E-03 2.84060E-04-3.44853E-14
 -1      3488 7.96099E-03 3.08781E-04-3.88260E-14
 -1      3489 7.81962E-03 3.12007E-04-3.75374E-14
 -1      3490 7.74542E-03 2.78827E-04-3.69964E-14
 -1      3491 8.24276E-03 3.02008E-04-4.14545E-14
 -1      3492 8.10204E-03 3.05448E-04-4.01316E-14
 -1      3493 8.02671E-03 2.73082E-04-3.95766E-14
 -1      3494 8.52285E-03 2.95114E-04-4.41509E-14
 -1      3495 8.38303E-03 2.98560E-04-4.27951E-14
 -1      3496 8.30624E-03 2.67066E-04-4.22259E-14
 -1      3497 8.80068E-03 2.88711E-04-4.69141E-14
 -1      3498 8.66207E-03 2.91824E-04-4.55242E-14
 -1      3499 8.58341E-03 2.61207E-04-4.49458E-14
 -1      3500 9.07551E-03 2.83736E-04-4.97397E-14
 -1      3501 8.93849E-03 2.86005E-04-4.83184E-14
 -1      3502 8.85744E-03 2.56178E-04-4.77291E-14
 -1      3503 9.34650E-03 2.81523E-04-5.26231E-14
 -1      3504 9.21150E-03 2.82228E-04-5.11748E-14
 -1      3505 9.12739E-03 2.52952E-04-5.05744E-14
 -1      3506 9.61277E-03 2.83849E-04-5.55568E-14
 -1      3507 9.48021E-03 2.82046E-04-5.40839E-14
 -1      3508 9.39212E-03 2.52839E-04-5.34736E-14
 -1      3509 9.87372E-03 2.92940E-04-5.85414E-14
 -1      3510 9.74383E-03 2.87456E-04-5.70440E-14
 -1      3511 9.65037E-03 2.57457E-04-5.64263E-14
 -1      3512 1.01295E-02 3.11479E-04-6.15671E-14
 -1      3513 1.00020E-02 3.00895E-04-6.00493E-14
 -1      3514 9.90096E-03 2.68624E-04-5.94245E-14
 -1      3515 1.03572E-02 3.35791E-04-6.44378E-14
 -1      3516 1.02317E-02 3.19184E-04-6.29034E-14
 -1      3517 1.01212E-02 2.83105E-04-6.22742E-14
 -1      3518 1.03076E-02 2.99720E-04-6.49594E-14
 -1      3519 1.34251E-02-3.91087E-04-9.26108E-14
 -1      3520 1.25525E-02-7.24312E-04-8.43581E-14
 -1      3521 1.23706E-02-7.08402E-04-8.25050E-14
 -1      3522 1.16470E-02-4.94800E-04-7.59626E-14
 -1      3523 1.16645E-02-4.10007E-04-7.61668E-14
 -1      3524 1.14626E-02-3.02180E-04-7.46875E-14
 -1      3525 1.14630E-02-4.42310E-04-7.43842E-14
 -1      3526 1.27135E-02-7.08513E-04-8.59714E-14
 -1      3527 1.04217E-02 3.01600E-04-6.77445E-14
 -1      3528 1.20740E-02-5.73583E-04-7.95098E-14
 -1      3529 1.95312E-03 3.19019E-04-2.63759E-15
 -1      3530 1.80914E-03 3.10424E-04-2.28634E-15
 -1      3531 4.53849E-03 3.47356E-04-1.32309E-14
 -1      3532 4.39532E-03 3.47982E-04-1.24376E-14
 -1      3533 4.32256E-03 3.10674E-04-1.21211E-14
 -1      3534 4.60922E-03 3.09522E-04-1.37103E-14
 -1      3535 1.29107E-02-6.54065E-04-8.78771E-14
 -1      3536 1.30756E-02-5.85062E-04-8.94967E-14
 -1      3537 3.10452E-03 3.48496E-04-6.36316E-15
 -1      3538 2.96080E-03 3.47310E-04-5.80951E-15
 -1      3539 1.10813E-03-2.46621E-04-1.04403E-15
 -1      3540 1.32503E-02-4.92614E-04-9.09956E-14
 -1      3541 1.86180E-03-2.79998E-04-2.66875E-15
 -1      3542 2.00602E-03-2.87339E-04-3.05401E-15
 -1      3543 2.07289E-03-2.54634E-04-3.26747E-15
 -1      3544 1.05799E-02 1.28533E-04-6.95786E-14
 -1      3545 1.04818E-02 1.63739E-04-6.90673E-14
 -1      3546 1.12817E-02-1.93657E-04-7.35405E-14
 -1      3547 1.11307E-02-1.13733E-04-7.26281E-14
 -1      3548 1.27926E-03 2.42871E-04-1.23592E-15
 -1      3549 1.27310E-03 2.08671E-04-1.26464E-15
 -1      3550 1.13532E-03-2.76929E-05-1.16122E-15
 -1      3551 1.03780E-02 1.40097E-04-6.74956E-14
 -1      3552 1.03989E-02 1.75893E-04-6.82951E-14
 -1      3553 1.03260E-02 1.82866E-04-6.75223E-14
 -1      3554 2.46280E-03 3.75691E-04-4.01389E-15
 -1      3555 1.46499E-03-2.52280E-04-1.73922E-15
 -1      3556 1.53109E-03-2.25749E-04-1.90314E-15
 -1      3557 1.35627E-03-2.42687E-04-1.51744E-15
 -1      3558 1.13489E-02-3.53623E-04-7.35107E-14
 -1      3559 1.13075E-02-2.73838E-04-7.33920E-14
 -1      3560 1.78418E-03-2.41275E-04-2.49705E-15
 -1      3561 1.22014E-02-6.76802E-04-8.08997E-14
 -1      3562 2.24119E-03 3.31971E-04-3.41757E-15
 -1      3563 2.09714E-03 3.26156E-04-3.01465E-15
 -1      3564 2.01903E-03 2.86919E-04-2.86666E-15
 -1      3565 2.81699E-03 3.45629E-04-5.28085E-15
 -1      3566 2.67313E-03 3.43387E-04-4.77779E-15
 -1      3567 2.88491E-03 3.08995E-04-5.59965E-15
 -1      3568 3.74845E-03 3.12163E-04-9.22365E-15
 -1      3569 3.67878E-03 3.49964E-04-8.82219E-15
 -1      3570 3.53532E-03 3.49975E-04-8.17056E-15
 -1      3571 1.25863E-03-7.63269E-05-1.38854E-15
 -1      3572 1.26074E-03-1.07778E-04-1.38936E-15
 -1      3573 1.26107E-03 1.10643E-04-1.33110E-15
 -1      3574 1.25885E-03 7.90918E-05-1.34737E-15
 -1      3575 1.40076E-03-1.56559E-04-1.65545E-15
 -1      3576 1.27968E-03-1.64504E-04-1.40950E-15
 -1      3577 1.09846E-03-2.21230E-04-1.04619E-15
 -1      3578 1.73072E-03 2.70991E-04-2.15796E-15
 -1      3579 1.66529E-03 3.00107E-04-1.96022E-15
 -1      3580 1.03130E-02 2.36204E-04-6.80716E-14
 -1      3581 1.02754E-02 2.36494E-04-6.72694E-14
 -1      3582 1.02921E-02 2.16415E-04-6.75215E-14
 -1      3583 1.53986E-03 2.93361E-04-1.69094E-15
 -1      3584 1.25738E-03 4.78122E-05-1.36085E-15
 -1      3585 1.25664E-03 1.67492E-05-1.37153E-15
 -1      3586 1.38054E-03 6.71590E-05-1.59123E-15
 -1      3587 3.39178E-03 3.49764E-04-7.54354E-15
 -1      3588 3.24819E-03 3.49299E-04-6.94124E-15
 -1      3589 3.17309E-03 3.11249E-04-6.71015E-15
 -1      3590 3.46094E-03 3.12153E-04-7.91808E-15
 -1      3591 1.06328E-02 8.38811E-05-6.95294E-14
 -1      3592 1.05075E-02 8.54829E-05-6.82168E-14
 -1      3593 1.06836E-02 3.43301E-05-6.94798E-14
 -1      3594 1.09856E-02-7.19170E-05-7.15256E-14
 -1      3595 1.08456E-02-3.85939E-05-7.04233E-14
 -1      3596 1.09914E-02-1.32390E-04-7.11485E-14
 -1      3597 1.03571E-02 2.79619E-04-6.74411E-14
 -1      3598 1.03253E-02 2.87144E-04-6.60138E-14
 -1      3599 1.02416E-02 2.77257E-04-6.46618E-14
 -1      3600 1.02873E-02 2.59165E-04-6.67631E-14
 -1      3601 1.25660E-03-1.41672E-05-1.37955E-15
 -1      3602 1.25725E-03-4.51527E-05-1.38527E-15
 -1      3603 1.38036E-03-6.43014E-05-1.62857E-15
 -1      3604 1.37894E-03 1.37448E-06-1.61550E-15
 -1      3605 2.28552E-03-2.25226E-04-3.91980E-15
 -1      3606 2.43039E-03-2.28420E-04-4.38090E-15
 -1      3607 2.57526E-03-2.30962E-04-4.86655E-15
 -1      3608 2.72011E-03-2.32918E-04-5.37653E-15
 -1      3609 2.49947E-03-1.92722E-04-4.62395E-15
 -1      3610 2.86491E-03-2.34404E-04-5.91156E-15
 -1      3611 3.00962E-03-2.35471E-04-6.47219E-15
 -1      3612 2.78960E-03-1.96131E-04-5.64364E-15
 -1      3613 3.15423E-03-2.36212E-04-7.05679E-15
 -1      3614 3.29874E-03-2.36662E-04-7.66526E-15
 -1      3615 3.07948E-03-1.98001E-04-6.76191E-15
 -1      3616 3.44314E-03-2.36893E-04-8.29828E-15
 -1      3617 3.58743E-03-2.36928E-04-8.95508E-15
 -1      3618 3.36895E-03-1.98800E-04-7.97755E-15
 -1      3619 3.73160E-03-2.36823E-04-9.63560E-15
 -1      3620 3.87566E-03-2.36589E-04-1.03389E-14
 -1      3621 3.65792E-03-1.98876E-04-9.28862E-15
 -1      3622 4.01961E-03-2.36268E-04-1.10660E-14
 -1      3623 4.16346E-03-2.35866E-04-1.18176E-14
 -1      3624 3.94640E-03-1.98482E-04-1.06938E-14
 -1      3625 4.30720E-03-2.35411E-04-1.25909E-14
 -1      3626 4.45085E-03-2.34903E-04-1.33876E-14
 -1      3627 4.23440E-03-1.97792E-04-1.21921E-14
 -1      3628 4.59442E-03-2.34362E-04-1.42087E-14
 -1      3629 4.73789E-03-2.33785E-04-1.50527E-14
 -1      3630 4.52195E-03-1.96916E-04-1.37841E-14
 -1      3631 4.88128E-03-2.33182E-04-1.59196E-14
 -1      3632 5.02459E-03-2.32549E-04-1.68091E-14
 -1      3633 4.80909E-03-1.95916E-04-1.54693E-14
 -1      3634 5.16783E-03-2.31889E-04-1.77215E-14
 -1      3635 5.31099E-03-2.31197E-04-1.86583E-14
 -1      3636 5.09586E-03-1.94816E-04-1.72469E-14
 -1      3637 5.45407E-03-2.30472E-04-1.96179E-14
 -1      3638 5.59708E-03-2.29705E-04-2.06009E-14
 -1      3639 5.38227E-03-1.93613E-04-1.91170E-14
 -1      3640 5.74001E-03-2.28893E-04-2.16071E-14
 -1      3641 5.88286E-03-2.28025E-04-2.26342E-14
 -1      3642 5.66833E-03-1.92277E-04-2.10799E-14
 -1      3643 6.02563E-03-2.27096E-04-2.36847E-14
 -1      3644 6.16830E-03-2.26094E-04-2.47582E-14
 -1      3645 5.95401E-03-1.90764E-04-2.31338E-14
 -1      3646 6.31088E-03-2.25013E-04-2.58534E-14
 -1      3647 6.45334E-03-2.23837E-04-2.69697E-14
 -1      3648 6.23926E-03-1.89015E-04-2.52764E-14
 -1      3649 6.59569E-03-2.22562E-04-2.81065E-14
 -1      3650 6.73791E-03-2.21171E-04-2.92635E-14
 -1      3651 6.52403E-03-1.86956E-04-2.75044E-14
 -1      3652 6.87998E-03-2.19659E-04-3.04411E-14
 -1      3653 7.02189E-03-2.18008E-04-3.16386E-14
 -1      3654 6.80819E-03-1.84510E-04-2.98161E-14
 -1      3655 7.16363E-03-2.16218E-04-3.28549E-14
 -1      3656 7.30519E-03-2.14267E-04-3.40904E-14
 -1      3657 7.09163E-03-1.81590E-04-3.22066E-14
 -1      3658 7.44653E-03-2.12161E-04-3.53445E-14
 -1      3659 7.58766E-03-2.09878E-04-3.66165E-14
 -1      3660 7.37419E-03-1.78112E-04-3.46723E-14
 -1      3661 7.72855E-03-2.07429E-04-3.79081E-14
 -1      3662 7.86921E-03-2.04794E-04-3.92187E-14
 -1      3663 7.65572E-03-1.73992E-04-3.72137E-14
 -1      3664 8.00960E-03-2.01992E-04-4.05473E-14
 -1      3665 8.14975E-03-1.99006E-04-4.18952E-14
 -1      3666 7.93605E-03-1.69161E-04-3.98301E-14
 -1      3667 8.28964E-03-1.95866E-04-4.32609E-14
 -1      3668 8.42931E-03-1.92565E-04-4.46442E-14
 -1      3669 8.21508E-03-1.63565E-04-4.25196E-14
 -1      3670 8.56875E-03-1.89141E-04-4.60437E-14
 -1      3671 8.70806E-03-1.85607E-04-4.74585E-14
 -1      3672 8.49277E-03-1.57186E-04-4.52811E-14
 -1      3673 8.84723E-03-1.82010E-04-4.88898E-14
 -1      3674 8.98643E-03-1.78396E-04-5.03343E-14
 -1      3675 8.76925E-03-1.50058E-04-4.81094E-14
 -1      3676 9.12569E-03-1.74823E-04-5.17904E-14
 -1      3677 9.26527E-03-1.71395E-04-5.32590E-14
 -1      3678 9.04495E-03-1.42305E-04-5.09928E-14
 -1      3679 9.40526E-03-1.68176E-04-5.47390E-14
 -1      3680 9.54603E-03-1.65383E-04-5.62337E-14
 -1      3681 9.32069E-03-1.34202E-04-5.39267E-14
 -1      3682 9.68778E-03-1.63077E-04-5.77366E-14
 -1      3683 9.83103E-03-1.61684E-04-5.92487E-14
 -1      3684 9.59797E-03-1.26315E-04-5.69075E-14
 -1      3685 9.97613E-03-1.61265E-04-6.07720E-14
 -1      3686 1.01238E-02-1.62589E-04-6.23035E-14
 -1      3687 9.87927E-03-1.19770E-04-5.99305E-14
 -1      3688 1.02745E-02-1.65715E-04-6.38428E-14
 -1      3689 1.04293E-02-1.72077E-04-6.53875E-14
 -1      3690 1.01685E-02-1.16769E-04-6.29882E-14
 -1      3691 1.05889E-02-1.81860E-04-6.69377E-14
 -1      3692 1.07540E-02-1.97228E-04-6.84921E-14
 -1      3693 1.04714E-02-1.21704E-04-6.60765E-14
 -1      3694 1.32612E-03 2.85567E-04-1.26688E-15
 -1      3695 1.44602E-03 2.80950E-04-1.51180E-15
 -1      3696 5.25307E-03 2.69106E-04-1.77033E-14
 -1      3697 5.10993E-03 2.69795E-04-1.67908E-14
 -1      3698 4.96672E-03 2.70448E-04-1.59003E-14
 -1      3699 4.82345E-03 2.71072E-04-1.50340E-14
 -1      3700 5.03786E-03 2.32709E-04-1.64096E-14
 -1      3701 5.82504E-03 2.65931E-04-2.15822E-14
 -1      3702 5.68215E-03 2.66802E-04-2.05787E-14
 -1      3703 6.11062E-03 2.63988E-04-2.36521E-14
 -1      3704 5.96787E-03 2.64997E-04-2.26068E-14
 -1      3705 5.89615E-03 2.28603E-04-2.21636E-14
 -1      3706 6.39587E-03 2.61714E-04-2.58049E-14
 -1      3707 6.25329E-03 2.62898E-04-2.47185E-14
 -1      3708 6.18157E-03 2.26824E-04-2.42568E-14
 -1      3709 6.68069E-03 2.59031E-04-2.80366E-14
 -1      3710 6.53833E-03 2.60430E-04-2.69104E-14
 -1      3711 6.46655E-03 2.24742E-04-2.64304E-14
 -1      3712 6.96496E-03 2.55871E-04-3.03464E-14
 -1      3713 6.82290E-03 2.57516E-04-2.91826E-14
 -1      3714 6.75098E-03 2.22294E-04-2.86844E-14
 -1      3715 7.24850E-03 2.52183E-04-3.27343E-14
 -1      3716 7.10683E-03 2.54097E-04-3.15311E-14
 -1      3717 7.03469E-03 2.19431E-04-3.10175E-14
 -1      3718 7.53107E-03 2.47959E-04-3.51955E-14
 -1      3719 7.38992E-03 2.50141E-04-3.39551E-14
 -1      3720 7.31745E-03 2.16131E-04-3.34263E-14
 -1      3721 7.81234E-03 2.43256E-04-3.77284E-14
 -1      3722 7.67189E-03 2.45668E-04-3.64537E-14
 -1      3723 7.59898E-03 2.12416E-04-3.59095E-14
 -1      3724 8.09187E-03 2.38228E-04-4.03313E-14
 -1      3725 7.95234E-03 2.40778E-04-3.90215E-14
 -1      3726 7.87887E-03 2.08386E-04-3.84652E-14
 -1      3727 8.36910E-03 2.33175E-04-4.30030E-14
 -1      3728 8.23080E-03 2.35695E-04-4.16582E-14
 -1      3729 8.15661E-03 2.04247E-04-4.10899E-14
 -1      3730 8.64330E-03 2.28587E-04-4.57441E-14
 -1      3731 8.50662E-03 2.30807E-04-4.43657E-14
 -1      3732 8.43154E-03 2.00354E-04-4.37841E-14
 -1      3733 8.91355E-03 2.25190E-04-4.85474E-14
 -1      3734 8.77897E-03 2.26716E-04-4.71371E-14
 -1      3735 8.70282E-03 1.97257E-04-4.65456E-14
 -1      3736 9.17867E-03 2.23989E-04-5.14122E-14
 -1      3737 9.04681E-03 2.24288E-04-4.99725E-14
 -1      3738 8.96939E-03 1.95735E-04-4.93689E-14
 -1      3739 9.43727E-03 2.26256E-04-5.43284E-14
 -1      3740 9.30886E-03 2.24666E-04-5.28647E-14
 -1      3741 9.22989E-03 1.96813E-04-5.22514E-14
 -1      3742 9.68765E-03 2.33456E-04-5.72983E-14
 -1      3743 9.56355E-03 2.29237E-04-5.58067E-14
 -1      3744 9.48264E-03 2.01727E-04-5.51859E-14
 -1      3745 9.92778E-03 2.47019E-04-6.03085E-14
 -1      3746 9.80905E-03 2.39510E-04-5.87979E-14
 -1      3747 9.72546E-03 2.11789E-04-5.81681E-14
 -1      3748 1.28423E-03-1.97690E-04-1.40292E-15
 -1      3749 1.70740E-03-2.03454E-04-2.32813E-15
 -1      3750 1.85156E-03-2.10483E-04-2.68818E-15
 -1      3751 1.21811E-03-2.20022E-04-1.26305E-15
 -1      3752 1.79719E-03 2.40980E-04-2.36123E-15
 -1      3753 1.65318E-03 2.32442E-04-2.02938E-15
 -1      3754 1.49315E-03 2.49648E-04-1.65342E-15
 -1      3755 4.10603E-03 2.73634E-04-1.10562E-14
 -1      3756 3.96231E-03 2.73982E-04-1.03299E-14
 -1      3757 1.26808E-03 1.75305E-04-1.28981E-15
 -1      3758 1.26413E-03 1.42656E-04-1.31203E-15
 -1      3759 1.38532E-03 1.33955E-04-1.55465E-15
 -1      3760 1.39376E-03 2.02640E-04-1.50539E-15
 -1      3761 1.11896E-02-2.56693E-04-7.23696E-14
 -1      3762 5.53918E-03 2.67616E-04-1.95974E-14
 -1      3763 5.39616E-03 2.68383E-04-1.86382E-14
 -1      3764 5.61037E-03 2.30141E-04-2.01561E-14
 -1      3765 2.52919E-03 3.40437E-04-4.29935E-15
 -1      3766 2.38521E-03 3.36695E-04-3.84565E-15
 -1      3767 2.30772E-03 2.97758E-04-3.67732E-15
 -1      3768 1.99603E-03-2.16376E-04-3.07321E-15
 -1      3769 2.14071E-03-2.21239E-04-3.48370E-15
 -1      3770 2.20938E-03-1.87181E-04-3.70312E-15
 -1      3771 1.10074E-02-2.22811E-04-7.08027E-14
 -1      3772 1.57004E-03 2.23002E-04-1.85382E-15
 -1      3773 1.47646E-03 2.12849E-04-1.66425E-15
 -1      3774 1.47152E-03 1.77143E-04-1.69255E-15
 -1      3775 1.63722E-03 1.94738E-04-2.03821E-15
 -1      3776 1.04149E-02 1.05585E-04-6.74508E-14
 -1      3777 1.03298E-02 1.20226E-04-6.66830E-14
 -1      3778 1.04527E-02 6.62000E-05-6.74023E-14
 -1      3779 1.91982E-03-1.78785E-04-2.88235E-15
 -1      3780 1.02598E-02 1.89242E-04-6.67276E-14
 -1      3781 1.02024E-02 1.93006E-04-6.59327E-14
 -1      3782 1.02273E-02 1.59759E-04-6.59341E-14
 -1      3783 1.51435E-03-1.31182E-04-1.90647E-15
 -1      3784 1.53457E-03-1.93791E-04-1.92880E-15
 -1      3785 1.64368E-03-1.99638E-04-2.17713E-15
 -1      3786 2.95352E-03 2.72040E-04-5.92160E-15
 -1      3787 2.80903E-03 2.70614E-04-5.38930E-15
 -1      3788 1.06994E-02-2.15504E-05-6.91085E-14
 -1      3789 3.81849E-03 2.74233E-04-9.62754E-15
 -1      3790 3.67458E-03 2.74375E-04-8.94929E-15
 -1      3791 3.88887E-03 2.36218E-04-1.00345E-14
 -1      3792 1.08741E-02-1.43569E-04-6.99321E-14
 -1      3793 4.75114E-03 2.33808E-04-1.46742E-14
 -1      3794 4.68011E-03 2.71663E-04-1.41914E-14
 -1      3795 4.53671E-03 2.72223E-04-1.33721E-14
 -1      3796 1.00233E-02 2.52278E-04-6.16394E-14
 -1      3797 9.93711E-03 2.23964E-04-6.10030E-14
 -1      3798 1.01155E-02 2.58589E-04-6.29776E-14
 -1      3799 3.24224E-03 2.73758E-04-7.05958E-15
 -1      3800 3.09793E-03 2.73074E-04-6.47874E-15
 -1      3801 3.02278E-03 2.34819E-04-6.24683E-15
 -1      3802 2.59642E-03 3.04771E-04-4.58886E-15
 -1      3803 1.94147E-03 2.48165E-04-2.71839E-15
 -1      3804 1.86458E-03 2.10065E-04-2.56995E-15
 -1      3805 2.08596E-03 2.54122E-04-3.10074E-15
 -1      3806 4.39323E-03 2.72742E-04-1.25761E-14
 -1      3807 4.24967E-03 2.73219E-04-1.18041E-14
 -1      3808 4.46409E-03 2.34791E-04-1.30343E-14
 -1      3809 1.02091E-02 2.18160E-04-6.60811E-14
 -1      3810 1.02467E-02 2.36078E-04-6.66252E-14
 -1      3811 1.02104E-02 2.41393E-04-6.55788E-14
 -1      3812 1.01618E-02 1.93719E-04-6.52932E-14
 -1      3813 4.17668E-03 2.35621E-04-1.14880E-14
 -1      3814 1.50478E-03 8.79136E-05-1.83851E-15
 -1      3815 1.50312E-03 5.31754E-05-1.85534E-15
 -1      3816 1.50298E-03-5.02340E-05-1.88655E-15
 -1      3817 1.50454E-03-8.48709E-05-1.89117E-15
 -1      3818 1.48910E-03 1.50059E-04-1.75581E-15
 -1      3819 1.48591E-03 1.15059E-04-1.77851E-15
 -1      3820 1.60856E-03 1.01893E-04-2.05910E-15
 -1      3821 1.57175E-03 1.58131E-04-1.92854E-15
 -1      3822 5.32426E-03 2.31495E-04-1.82368E-14
 -1      3823 1.63698E-03-1.18288E-04-2.18797E-15
 -1      3824 2.42408E-03-1.54757E-04-4.38390E-15
 -1      3825 2.56933E-03-1.56555E-04-4.86862E-15
 -1      3826 2.71457E-03-1.57962E-04-5.37790E-15
 -1      3827 2.85977E-03-1.59012E-04-5.91131E-15
 -1      3828 2.63988E-03-1.19971E-04-5.11479E-15
 -1      3829 3.00490E-03-1.59784E-04-6.47014E-15
 -1      3830 3.14993E-03-1.60303E-04-7.05294E-15
 -1      3831 2.93056E-03-1.21615E-04-6.18083E-15
 -1      3832 3.29485E-03-1.60634E-04-7.65950E-15
 -1      3833 3.43963E-03-1.60789E-04-8.29019E-15
 -1      3834 3.22090E-03-1.22431E-04-7.34449E-15
 -1      3835 3.58429E-03-1.60819E-04-8.94499E-15
 -1      3836 3.72881E-03-1.60733E-04-9.62255E-15
 -1      3837 3.51076E-03-1.22677E-04-8.60358E-15
 -1      3838 3.87320E-03-1.60568E-04-1.03238E-14
 -1      3839 4.01745E-03-1.60328E-04-1.10486E-14
 -1      3840 3.80005E-03-1.22542E-04-9.95706E-15
 -1      3841 4.16158E-03-1.60040E-04-1.17969E-14
 -1      3842 4.30558E-03-1.59704E-04-1.25685E-14
 -1      3843 4.08879E-03-1.22165E-04-1.14044E-14
 -1      3844 4.44946E-03-1.59339E-04-1.33626E-14
 -1      3845 4.59322E-03-1.58941E-04-1.41812E-14
 -1      3846 4.37697E-03-1.21635E-04-1.29448E-14
 -1      3847 4.73688E-03-1.58524E-04-1.50224E-14
 -1      3848 4.88042E-03-1.58083E-04-1.58870E-14
 -1      3849 4.66465E-03-1.21007E-04-1.45779E-14
 -1      3850 5.02387E-03-1.57624E-04-1.67749E-14
 -1      3851 5.16721E-03-1.57141E-04-1.76849E-14
 -1      3852 4.95186E-03-1.20309E-04-1.63049E-14
 -1      3853 5.31045E-03-1.56639E-04-1.86190E-14
 -1      3854 5.45360E-03-1.56109E-04-1.95767E-14
 -1      3855 5.23863E-03-1.19545E-04-1.81243E-14
 -1      3856 5.59664E-03-1.55551E-04-2.05565E-14
 -1      3857 5.73958E-03-1.54957E-04-2.15599E-14
 -1      3858 5.52496E-03-1.18705E-04-2.00362E-14
 -1      3859 5.88241E-03-1.54324E-04-2.25856E-14
 -1      3860 6.02513E-03-1.53643E-04-2.36325E-14
 -1      3861 5.81084E-03-1.17762E-04-2.20399E-14
 -1      3862 6.16772E-03-1.52910E-04-2.47029E-14
 -1      3863 6.31017E-03-1.52112E-04-2.57945E-14
 -1      3864 6.09622E-03-1.16678E-04-2.41322E-14
 -1      3865 6.45248E-03-1.51246E-04-2.69064E-14
 -1      3866 6.59463E-03-1.50297E-04-2.80394E-14
 -1      3867 6.38104E-03-1.15404E-04-2.63113E-14
 -1      3868 6.73660E-03-1.49263E-04-2.91934E-14
 -1      3869 6.87837E-03-1.48124E-04-3.03673E-14
 -1      3870 6.66517E-03-1.13880E-04-2.85739E-14
 -1      3871 7.01992E-03-1.46880E-04-3.15604E-14
 -1      3872 7.16123E-03-1.45507E-04-3.27724E-14
 -1      3873 6.94847E-03-1.12035E-04-3.09167E-14
 -1      3874 7.30228E-03-1.44009E-04-3.40038E-14
 -1      3875 7.44304E-03-1.42357E-04-3.52531E-14
 -1      3876 7.23074E-03-1.09783E-04-3.33370E-14
 -1      3877 7.58347E-03-1.40556E-04-3.65232E-14
 -1      3878 7.72357E-03-1.38574E-04-3.78096E-14
 -1      3879 7.51176E-03-1.07026E-04-3.58341E-14
 -1      3880 7.86330E-03-1.36420E-04-3.91152E-14
 -1      3881 8.00265E-03-1.34057E-04-4.04398E-14
 -1      3882 7.79129E-03-1.03647E-04-3.84039E-14
 -1      3883 8.14157E-03-1.31498E-04-4.17829E-14
 -1      3884 8.28008E-03-1.28702E-04-4.31448E-14
 -1      3885 8.06906E-03-9.95075E-05-4.10486E-14
 -1      3886 8.41814E-03-1.25687E-04-4.45229E-14
 -1      3887 8.55579E-03-1.22411E-04-4.59180E-14
 -1      3888 8.34484E-03-9.44435E-05-4.37664E-14
 -1      3889 8.69300E-03-1.18893E-04-4.73298E-14
 -1      3890 8.82985E-03-1.15100E-04-4.87562E-14
 -1      3891 8.61847E-03-8.82637E-05-4.65531E-14
 -1      3892 8.96632E-03-1.11050E-04-5.01962E-14
 -1      3893 9.10259E-03-1.06733E-04-5.16500E-14
 -1      3894 8.88992E-03-8.07539E-05-4.94006E-14
 -1      3895 9.23864E-03-1.02162E-04-5.31151E-14
 -1      3896 9.37478E-03-9.73803E-05-5.45916E-14
 -1      3897 9.15940E-03-7.16964E-05-5.23035E-14
 -1      3898 9.51102E-03-9.23950E-05-5.60798E-14
 -1      3899 9.64785E-03-8.73649E-05-5.75797E-14
 -1      3900 9.42753E-03-6.09294E-05-5.52535E-14
 -1      3901 9.78534E-03-8.22858E-05-5.90894E-14
 -1      3902 9.92427E-03-7.75695E-05-6.06088E-14
 -1      3903 9.69554E-03-4.84893E-05-5.82482E-14
 -1      3904 1.00648E-02-7.32261E-05-6.21365E-14
 -1      3905 1.02081E-02-7.01174E-05-6.36714E-14
 -1      3906 9.96575E-03-3.49710E-05-6.12839E-14
 -1      3907 5.39549E-03 1.93949E-04-1.87734E-14
 -1      3908 5.25233E-03 1.94495E-04-1.78358E-14
 -1      3909 2.66446E-03 2.68685E-04-4.88196E-15
 -1      3910 2.51984E-03 2.66194E-04-4.39926E-15
 -1      3911 2.73325E-03 2.32233E-04-5.17904E-15
 -1      3912 2.37519E-03 2.63003E-04-3.94137E-15
 -1      3913 2.23054E-03 2.59034E-04-3.50818E-15
 -1      3914 2.15378E-03 2.20653E-04-3.33941E-15
 -1      3915 2.44349E-03 2.27752E-04-4.20956E-15
 -1      3916 6.25245E-03 1.89832E-04-2.48631E-14
 -1      3917 6.10989E-03 1.90649E-04-2.37950E-14
 -1      3918 5.96722E-03 1.91404E-04-2.27481E-14
 -1      3919 5.82444E-03 1.92106E-04-2.17219E-14
 -1      3920 6.03826E-03 1.54354E-04-2.33346E-14
 -1      3921 6.82113E-03 1.85850E-04-2.93361E-14
 -1      3922 6.67922E-03 1.86966E-04-2.81872E-14
 -1      3923 7.10424E-03 1.83366E-04-3.16920E-14
 -1      3924 6.96281E-03 1.84654E-04-3.05050E-14
 -1      3925 6.89117E-03 1.49717E-04-2.99916E-14
 -1      3926 7.38621E-03 1.80552E-04-3.41213E-14
 -1      3927 7.24539E-03 1.82003E-04-3.28971E-14
 -1      3928 7.17368E-03 1.47695E-04-3.23688E-14
 -1      3929 7.66668E-03 1.77465E-04-3.66270E-14
 -1      3930 7.52665E-03 1.79043E-04-3.53647E-14
 -1      3931 7.45485E-03 1.45463E-04-3.48212E-14
 -1      3932 7.94520E-03 1.74246E-04-3.92049E-14
 -1      3933 7.80621E-03 1.75869E-04-3.79070E-14
 -1      3934 7.73429E-03 1.43116E-04-3.73488E-14
 -1      3935 8.22120E-03 1.71150E-04-4.18512E-14
 -1      3936 8.08355E-03 1.72676E-04-4.05184E-14
 -1      3937 8.01149E-03 1.40836E-04-3.99468E-14
 -1      3938 8.49394E-03 1.68588E-04-4.45674E-14
 -1      3939 8.35802E-03 1.69791E-04-4.32011E-14
 -1      3940 8.28585E-03 1.38925E-04-4.26163E-14
 -1      3941 8.76250E-03 1.67162E-04-4.73496E-14
 -1      3942 8.62880E-03 1.67717E-04-4.59513E-14
 -1      3943 8.55658E-03 1.37842E-04-4.53547E-14
 -1      3944 9.02570E-03 1.67698E-04-5.01938E-14
 -1      3945 8.89484E-03 1.67167E-04-4.87644E-14
 -1      3946 8.82270E-03 1.38240E-04-4.81585E-14
 -1      3947 9.28207E-03 1.71239E-04-5.30927E-14
 -1      3948 9.15484E-03 1.69081E-04-5.16371E-14
 -1      3949 9.08299E-03 1.40984E-04-5.10209E-14
 -1      3950 9.52965E-03 1.78996E-04-5.60416E-14
 -1      3951 9.40709E-03 1.74604E-04-5.45606E-14
 -1      3952 9.33585E-03 1.47141E-04-5.39344E-14
 -1      3953 9.76579E-03 1.92174E-04-5.90387E-14
 -1      3954 9.64934E-03 1.84997E-04-5.75354E-14
 -1      3955 9.57920E-03 1.57908E-04-5.68983E-14
 -1      3956 1.50228E-03 1.86985E-05-1.86858E-15
 -1      3957 1.50223E-03-1.57191E-05-1.87894E-15
 -1      3958 1.62651E-03 3.75008E-05-2.13890E-15
 -1      3959 2.13381E-03-1.49659E-04-3.48913E-15
 -1      3960 2.27889E-03-1.52477E-04-3.92404E-15
 -1      3961 2.34916E-03-1.17161E-04-4.14718E-15
 -1      3962 4.24759E-03 1.97573E-04-1.19226E-14
 -1      3963 4.10365E-03 1.97883E-04-1.11719E-14
 -1      3964 3.53056E-03 2.74363E-04-8.29546E-15
 -1      3965 3.38646E-03 2.74178E-04-7.66559E-15
 -1      3966 3.31192E-03 2.36079E-04-7.41264E-15
 -1      3967 3.60063E-03 2.36443E-04-8.67535E-15
 -1      3968 6.53713E-03 1.87996E-04-2.70594E-14
 -1      3969 6.39486E-03 1.88952E-04-2.59514E-14
 -1      3970 6.32326E-03 1.53033E-04-2.54720E-14
 -1      3971 5.10908E-03 1.95011E-04-1.69214E-14
 -1      3972 4.96574E-03 1.95504E-04-1.60291E-14
 -1      3973 5.18037E-03 1.57379E-04-1.74344E-14
 -1      3974 5.68155E-03 1.92760E-04-2.07174E-14
 -1      3975 5.53857E-03 1.93374E-04-1.97347E-14
 -1      3976 5.46676E-03 1.56492E-04-1.93131E-14
 -1      3977 1.62641E-03-3.43392E-05-2.16195E-15
 -1      3978 1.01487E-02 2.47062E-04-6.40203E-14
 -1      3979 1.01013E-02 2.22751E-04-6.38852E-14
 -1      3980 1.02279E-02 1.30768E-04-6.56042E-14
 -1      3981 1.01559E-02 1.40113E-04-6.48156E-14
 -1      3982 1.65465E-03 1.66017E-04-2.10890E-15
 -1      3983 4.03061E-03 1.60014E-04-1.08554E-14
 -1      3984 3.95959E-03 1.98132E-04-1.04437E-14
 -1      3985 3.81541E-03 1.98316E-04-9.73859E-15
 -1      3986 1.75059E-03-1.69407E-05-2.45420E-15
 -1      3987 1.75138E-03-5.42001E-05-2.46370E-15
 -1      3988 1.03546E-02-6.81826E-05-6.52148E-14
 -1      3989 1.05058E-02-6.93914E-05-6.67616E-14
 -1      3990 6.60762E-03 1.51495E-04-2.76910E-14
 -1      3991 1.71166E-03-1.70190E-04-2.35308E-15
 -1      3992 1.06098E-02-4.79411E-05-6.79683E-14
 -1      3993 1.04693E-02 1.20355E-05-6.70306E-14
 -1      3994 4.82230E-03 1.95971E-04-1.51609E-14
 -1      3995 4.67878E-03 1.96416E-04-1.43167E-14
 -1      3996 4.89358E-03 1.58177E-04-1.56499E-14
 -1      3997 5.75273E-03 1.55494E-04-2.12809E-14
 -1      3998 9.86140E-03 1.97261E-04-6.03637E-14
 -1      3999 9.79388E-03 1.70357E-04-5.97205E-14
 -1      4000 9.95357E-03 2.03386E-04-6.16945E-14
 -1      4001 1.75154E-03 5.74435E-05-2.42537E-15
 -1      4002 1.75064E-03 2.02250E-05-2.44147E-15
 -1      4003 1.87543E-03 1.67707E-06-2.76370E-15
 -1      4004 1.02527E-02 1.00732E-04-6.55614E-14
 -1      4005 1.79865E-03 1.72327E-04-2.44733E-15
 -1      4006 1.73357E-03 1.35560E-04-2.32433E-15
 -1      4007 1.94307E-03 1.77653E-04-2.81136E-15
 -1      4008 3.09265E-03 1.97342E-04-6.57630E-15
 -1      4009 2.94775E-03 1.96544E-04-6.01612E-15
 -1      4010 1.84438E-03-1.42067E-04-2.69447E-15
 -1      4011 1.98894E-03-1.46207E-04-3.07904E-15
 -1      4012 1.03762E-02 3.55798E-05-6.62692E-14
 -1      4013 4.39143E-03 1.97223E-04-1.26967E-14
 -1      4014 4.31873E-03 1.59523E-04-1.23603E-14
 -1      4015 4.53515E-03 1.96832E-04-1.34949E-14
 -1      4016 2.80276E-03 1.95422E-04-5.48014E-15
 -1      4017 2.65770E-03 1.93942E-04-4.96891E-15
 -1      4018 2.87292E-03 1.58305E-04-5.78536E-15
 -1      4019 1.75232E-03 1.06115E-04-2.39456E-15
 -1      4020 1.87612E-03 8.99912E-05-2.71697E-15
 -1      4021 1.02423E-02-2.21354E-05-6.43527E-14
 -1      4022 2.05886E-03-1.12758E-04-3.27890E-15
 -1      4023 2.08779E-03 1.82102E-04-3.20028E-15
 -1      4024 2.02248E-03 1.44162E-04-3.05981E-15
 -1      4025 2.23271E-03 1.85762E-04-3.61417E-15
 -1      4026 3.23744E-03 1.97892E-04-7.16023E-15
 -1      4027 3.16308E-03 1.59661E-04-6.90860E-15
 -1      4028 3.38212E-03 1.98221E-04-7.76909E-15
 -1      4029 2.85655E-03-8.35627E-05-5.89482E-15
 -1      4030 3.00193E-03-8.39657E-05-6.45156E-15
 -1      4031 3.14721E-03-8.42444E-05-7.03272E-15
 -1      4032 3.29237E-03-8.44060E-05-7.63713E-15
 -1      4033 3.07382E-03-4.61095E-05-6.72335E-15
 -1      4034 3.43740E-03-8.44865E-05-8.26474E-15
 -1      4035 3.58228E-03-8.44842E-05-8.91702E-15
 -1      4036 3.36426E-03-4.62779E-05-7.92980E-15
 -1      4037 3.72703E-03-8.44289E-05-9.59283E-15
 -1      4038 3.87162E-03-8.43207E-05-1.02914E-14
 -1      4039 3.65416E-03-4.62462E-05-9.23090E-15
 -1      4040 4.01607E-03-8.41819E-05-1.10144E-14
 -1      4041 4.16037E-03-8.40076E-05-1.17604E-14
 -1      4042 3.94347E-03-4.61040E-05-1.06270E-14
 -1      4043 4.30453E-03-8.38147E-05-1.25291E-14
 -1      4044 4.44856E-03-8.35981E-05-1.33214E-14
 -1      4045 4.23217E-03-4.58858E-05-1.21164E-14
 -1      4046 4.59245E-03-8.33714E-05-1.41368E-14
 -1      4047 4.73622E-03-8.31268E-05-1.49760E-14
 -1      4048 4.52030E-03-4.56219E-05-1.36989E-14
 -1      4049 4.87986E-03-8.28743E-05-1.58388E-14
 -1      4050 5.02339E-03-8.26072E-05-1.67238E-14
 -1      4051 4.80790E-03-4.53216E-05-1.53745E-14
 -1      4052 5.16680E-03-8.23310E-05-1.76326E-14
 -1      4053 5.31010E-03-8.20395E-05-1.85645E-14
 -1      4054 5.09500E-03-4.49942E-05-1.71439E-14
 -1      4055 5.45328E-03-8.17361E-05-1.95192E-14
 -1      4056 5.59635E-03-8.14132E-05-2.04972E-14
 -1      4057 5.38163E-03-4.46400E-05-1.90057E-14
 -1      4058 5.73929E-03-8.10722E-05-2.14974E-14
 -1      4059 5.88210E-03-8.07051E-05-2.25198E-14
 -1      4060 5.66776E-03-4.42473E-05-2.09583E-14
 -1      4061 6.02478E-03-8.03119E-05-2.35646E-14
 -1      4062 6.16731E-03-7.98834E-05-2.46309E-14
 -1      4063 5.95338E-03-4.37991E-05-2.29997E-14
 -1      4064 6.30969E-03-7.94185E-05-2.57201E-14
 -1      4065 6.45189E-03-7.89059E-05-2.68287E-14
 -1      4066 6.23841E-03-4.32711E-05-2.51301E-14
 -1      4067 6.59389E-03-7.83442E-05-2.79581E-14
 -1      4068 6.73569E-03-7.77192E-05-2.91076E-14
 -1      4069 6.52274E-03-4.26294E-05-2.73452E-14
 -1      4070 6.87725E-03-7.70293E-05-3.02764E-14
 -1      4071 7.01854E-03-7.62560E-05-3.14663E-14
 -1      4072 6.80622E-03-4.18278E-05-2.96395E-14
 -1      4073 7.15954E-03-7.53979E-05-3.26742E-14
 -1      4074 7.30022E-03-7.44312E-05-3.39015E-14
 -1      4075 7.08864E-03-4.08034E-05-3.20147E-14
 -1      4076 7.44054E-03-7.33542E-05-3.51478E-14
 -1      4077 7.58047E-03-7.21363E-05-3.64125E-14
 -1      4078 7.36974E-03-3.94693E-05-3.44653E-14
 -1      4079 7.71996E-03-7.07753E-05-3.76950E-14
 -1      4080 7.85899E-03-6.92320E-05-3.89957E-14
 -1      4081 7.64924E-03-3.77060E-05-3.69889E-14
 -1      4082 7.99749E-03-6.75030E-05-4.03168E-14
 -1      4083 8.13546E-03-6.55392E-05-4.16559E-14
 -1      4084 7.92677E-03-3.53491E-05-3.95872E-14
 -1      4085 8.27282E-03-6.33339E-05-4.30132E-14
 -1      4086 8.40957E-03-6.08281E-05-4.43871E-14
 -1      4087 8.20195E-03-3.21746E-05-4.22615E-14
 -1      4088 8.54564E-03-5.80093E-05-4.57785E-14
 -1      4089 8.68105E-03-5.48095E-05-4.71857E-14
 -1      4090 8.47439E-03-2.78819E-05-4.50056E-14
 -1      4091 8.81573E-03-5.12073E-05-4.86074E-14
 -1      4092 8.94975E-03-4.71312E-05-5.00443E-14
 -1      4093 8.74368E-03-2.20776E-05-4.78163E-14
 -1      4094 9.08302E-03-4.25464E-05-5.14935E-14
 -1      4095 9.21569E-03-3.73912E-05-5.29551E-14
 -1      4096 9.00950E-03-1.42655E-05-5.06844E-14
 -1      4097 9.34766E-03-3.16139E-05-5.44285E-14
 -1      4098 9.47923E-03-2.51914E-05-5.59124E-14
 -1      4099 9.27162E-03-3.85216E-06-5.36037E-14
 -1      4100 9.61023E-03-1.80590E-05-5.74092E-14
 -1      4101 9.74124E-03-1.02877E-05-5.89166E-14
 -1      4102 9.53001E-03 9.80201E-06-5.65696E-14
 -1      4103 9.87202E-03-1.80131E-06-6.04330E-14
 -1      4104 1.00036E-02 7.07804E-06-6.19587E-14
 -1      4105 9.78499E-03 2.72534E-05-5.95810E-14
 -1      4106 6.67807E-03 1.15257E-04-2.83261E-14
 -1      4107 6.53615E-03 1.15872E-04-2.71945E-14
 -1      4108 1.89458E-03-7.30583E-05-2.83034E-15
 -1      4109 1.77050E-03-8.97681E-05-2.51295E-15
 -1      4110 6.10928E-03 1.17468E-04-2.39228E-14
 -1      4111 5.96666E-03 1.17930E-04-2.28744E-14
 -1      4112 1.00381E-02 1.95935E-04-6.32364E-14
 -1      4113 7.24309E-03 1.12428E-04-3.30494E-14
 -1      4114 7.10229E-03 1.13190E-04-3.18408E-14
 -1      4115 6.96117E-03 1.13913E-04-3.06499E-14
 -1      4116 6.81974E-03 1.14608E-04-2.94774E-14
 -1      4117 6.74850E-03 7.92939E-05-2.89643E-14
 -1      4118 7.03116E-03 7.84453E-05-3.13107E-14
 -1      4119 7.80197E-03 1.09359E-04-3.80738E-14
 -1      4120 7.66300E-03 1.10106E-04-3.67899E-14
 -1      4121 8.07798E-03 1.08121E-04-4.06943E-14
 -1      4122 7.94031E-03 1.08702E-04-3.93759E-14
 -1      4123 7.86985E-03 7.61804E-05-3.88022E-14
 -1      4124 8.35089E-03 1.07497E-04-4.33856E-14
 -1      4125 8.21487E-03 1.07725E-04-4.20303E-14
 -1      4126 8.14483E-03 7.60715E-05-4.14448E-14
 -1      4127 8.61990E-03 1.07986E-04-4.61464E-14
 -1      4128 8.48594E-03 1.07591E-04-4.47575E-14
 -1      4129 8.41654E-03 7.68119E-05-4.41581E-14
 -1      4130 8.88403E-03 1.10277E-04-4.89694E-14
 -1      4131 8.75265E-03 1.08894E-04-4.75504E-14
 -1      4132 8.68420E-03 7.89313E-05-4.69408E-14
 -1      4133 9.14206E-03 1.15263E-04-5.18493E-14
 -1      4134 9.01391E-03 1.12426E-04-5.04028E-14
 -1      4135 8.94689E-03 8.31425E-05-4.97823E-14
 -1      4136 9.39240E-03 1.24021E-04-5.47772E-14
 -1      4137 9.26833E-03 1.19183E-04-5.33070E-14
 -1      4138 9.20346E-03 9.03543E-05-5.26785E-14
 -1      4139 9.63292E-03 1.37742E-04-5.77582E-14
 -1      4140 9.51410E-03 1.30320E-04-5.62628E-14
 -1      4141 9.45244E-03 1.01655E-04-5.56237E-14
 -1      4142 1.00681E-02 1.23847E-04-6.35557E-14
 -1      4143 1.00790E-02 1.49733E-04-6.38815E-14
 -1      4144 1.70063E-03-1.20774E-04-2.33900E-15
 -1      4145 1.02531E-02 1.70277E-05-6.47752E-14
 -1      4146 1.02480E-02 6.47188E-05-6.51436E-14
 -1      4147 1.01421E-02 7.86251E-05-6.40714E-14
 -1      4148 1.01181E-02 8.34170E-06-6.32358E-14
 -1      4149 2.00084E-03 2.13540E-05-3.09007E-15
 -1      4150 2.00080E-03-1.79117E-05-3.10540E-15
 -1      4151 5.82392E-03 1.18358E-04-2.18458E-14
 -1      4152 5.68104E-03 1.18761E-04-2.08394E-14
 -1      4153 5.89510E-03 8.13671E-05-2.24133E-14
 -1      4154 1.00200E-02 1.70693E-04-6.30911E-14
 -1      4155 5.53805E-03 1.19135E-04-1.98551E-14
 -1      4156 5.39494E-03 1.19490E-04-1.88917E-14
 -1      4157 5.60937E-03 8.18968E-05-2.03986E-14
 -1      4158 7.52349E-03 1.10868E-04-3.55248E-14
 -1      4159 7.38350E-03 1.11658E-04-3.42784E-14
 -1      4160 7.59223E-03 7.67640E-05-3.62318E-14
 -1      4161 5.25172E-03 1.19824E-04-1.79518E-14
 -1      4162 5.10840E-03 1.20142E-04-1.70353E-14
 -1      4163 5.32313E-03 8.23650E-05-1.84713E-14
 -1      4164 2.01113E-03 1.08251E-04-3.06129E-15
 -1      4165 2.01047E-03 5.68651E-05-3.09671E-15
 -1      4166 2.13555E-03 3.79635E-05-3.45997E-15
 -1      4167 2.15611E-03 1.10787E-04-3.46717E-15
 -1      4168 2.56563E-03-8.22499E-05-4.85518E-15
 -1      4169 2.71110E-03-8.29940E-05-5.36280E-15
 -1      4170 2.78294E-03-4.56767E-05-5.61247E-15
 -1      4171 2.27481E-03-8.00529E-05-3.91430E-15
 -1      4172 2.42018E-03-8.12725E-05-4.37278E-15
 -1      4173 2.49188E-03-4.48735E-05-4.59942E-15
 -1      4174 2.03931E-03-7.50609E-05-3.22350E-15
 -1      4175 6.39404E-03 1.16441E-04-2.60839E-14
 -1      4176 6.25174E-03 1.16975E-04-2.49927E-14
 -1      4177 6.46480E-03 8.00715E-05-2.66980E-14
 -1      4178 6.18028E-03 8.07622E-05-2.45144E-14
 -1      4179 4.10191E-03 1.21880E-04-1.12706E-14
 -1      4180 3.95762E-03 1.22029E-04-1.05402E-14
 -1      4181 2.16423E-03-5.63459E-05-3.57886E-15
 -1      4182 1.00205E-02 4.09624E-05-6.23752E-14
 -1      4183 1.07423E-02-1.12685E-04-6.88356E-14
 -1      4184 1.00370E-02 6.82015E-05-6.27598E-14
 -1      4185 1.00521E-02 9.93248E-05-6.31736E-14
 -1      4186 9.97107E-03 1.11759E-04-6.22459E-14
 -1      4187 9.93128E-03 6.32687E-05-6.14839E-14
 -1      4188 4.96496E-03 1.20441E-04-1.61413E-14
 -1      4189 4.82142E-03 1.20728E-04-1.52715E-14
 -1      4190 5.03643E-03 8.27835E-05-1.66356E-14
 -1      4191 2.51772E-03 1.91574E-04-4.49945E-15
 -1      4192 2.37263E-03 1.89164E-04-4.03667E-15
 -1      4193 2.30737E-03 1.50507E-04-3.87948E-15
 -1      4194 2.58759E-03 1.55353E-04-4.77672E-15
 -1      4195 4.60638E-03 1.58897E-04-1.39585E-14
 -1      4196 7.31253E-03 7.75716E-05-3.37355E-14
 -1      4197 9.73306E-03 1.42752E-04-5.90749E-14
 -1      4198 9.67652E-03 1.13782E-04-5.84285E-14
 -1      4199 9.83064E-03 1.48843E-04-6.03998E-14
 -1      4200 4.24607E-03 1.21701E-04-1.20239E-14
 -1      4201 4.17345E-03 8.37602E-05-1.16880E-14
 -1      4202 4.39009E-03 1.21487E-04-1.28005E-14
 -1      4203 2.23617E-03-2.09393E-05-3.78353E-15
 -1      4204 3.67111E-03 1.98404E-04-9.05794E-15
 -1      4205 3.52668E-03 1.98389E-04-8.40159E-15
 -1      4206 3.45278E-03 1.60231E-04-8.12809E-15
 -1      4207 3.23405E-03 1.21795E-04-7.24406E-15
 -1      4208 3.08893E-03 1.21434E-04-6.65699E-15
 -1      4209 2.94370E-03 1.20897E-04-6.09365E-15
 -1      4210 2.79839E-03 1.20178E-04-5.55419E-15
 -1      4211 3.01505E-03 8.32484E-05-6.40536E-15
 -1      4212 3.74197E-03 1.60295E-04-9.44392E-15
 -1      4213 3.81318E-03 1.22126E-04-9.83285E-15
 -1      4214 3.66861E-03 1.22176E-04-9.14995E-15
 -1      4215 3.88471E-03 8.39392E-05-1.02251E-14
 -1      4216 2.41872E-03-7.92796E-06-4.34724E-15
 -1      4217 2.56425E-03-7.99767E-06-4.82744E-15
 -1      4218 3.29144E-03-8.09340E-06-7.59738E-15
 -1      4219 3.43656E-03-8.06793E-06-8.22256E-15
 -1      4220 3.62433E-03 1.88674E-05-9.04834E-15
 -1      4221 3.76911E-03 1.88961E-05-9.72768E-15
 -1      4222 3.91373E-03 1.89047E-05-1.04307E-14
 -1      4223 4.05820E-03 1.89181E-05-1.11576E-14
 -1      4224 4.20252E-03 1.89152E-05-1.19074E-14
 -1      4225 4.34670E-03 1.89147E-05-1.26804E-14
 -1      4226 4.73599E-03-7.66007E-06-1.49139E-14
 -1      4227 4.87968E-03-7.60105E-06-1.57736E-14
 -1      4228 5.06560E-03 1.88578E-05-1.68947E-14
 -1      4229 5.20900E-03 1.88419E-05-1.78077E-14
 -1      4230 5.35228E-03 1.88196E-05-1.87430E-14
 -1      4231 5.49544E-03 1.88001E-05-1.97026E-14
 -1      4232 5.63848E-03 1.87750E-05-2.06834E-14
 -1      4233 5.78138E-03 1.87530E-05-2.16865E-14
 -1      4234 5.92415E-03 1.87259E-05-2.27116E-14
 -1      4235 6.06677E-03 1.87038E-05-2.37586E-14
 -1      4236 6.20923E-03 1.86778E-05-2.48264E-14
 -1      4237 6.35151E-03 1.86608E-05-2.59158E-14
 -1      4238 6.49360E-03 1.86428E-05-2.70262E-14
 -1      4239 6.63548E-03 1.86416E-05-2.81558E-14
 -1      4240 6.77712E-03 1.86449E-05-2.93067E-14
 -1      4241 6.91849E-03 1.86781E-05-3.04770E-14
 -1      4242 7.05955E-03 1.87260E-05-3.16676E-14
 -1      4243 7.20029E-03 1.88252E-05-3.28766E-14
 -1      4244 7.34064E-03 1.89565E-05-3.41041E-14
 -1      4245 7.48057E-03 1.91720E-05-3.53506E-14
 -1      4246 7.62003E-03 1.94479E-05-3.66141E-14
 -1      4247 7.75898E-03 1.98570E-05-3.78967E-14
 -1      4248 7.89733E-03 2.03704E-05-3.91987E-14
 -1      4249 8.03506E-03 2.10878E-05-4.05189E-14
 -1      4250 8.17206E-03 2.19744E-05-4.18562E-14
 -1      4251 8.30830E-03 2.31642E-05-4.32124E-14
 -1      4252 8.44366E-03 2.46152E-05-4.45862E-14
 -1      4253 8.57812E-03 2.65042E-05-4.59764E-14
 -1      4254 8.71152E-03 2.87790E-05-4.73819E-14
 -1      4255 8.84388E-03 3.16681E-05-4.88024E-14
 -1      4256 8.97497E-03 3.51038E-05-5.02378E-14
 -1      4257 9.10487E-03 3.93759E-05-5.16857E-14
 -1      4258 9.23326E-03 4.43893E-05-5.31451E-14
 -1      4259 9.36031E-03 5.05070E-05-5.46165E-14
 -1      4260 9.48556E-03 5.75851E-05-5.61018E-14
 -1      4261 9.60934E-03 6.60612E-05-5.75977E-14
 -1      4262 9.71617E-03 7.08169E-05-5.89125E-14
 -1      4263 9.83690E-03 8.19092E-05-6.04283E-14
 -1      4264 9.93321E-03 1.56548E-04-6.18378E-14
 -1      4265 2.75282E-03 1.83568E-05-5.47254E-15
 -1      4266 2.89833E-03 1.85119E-05-6.00866E-15
 -1      4267 3.33551E-03 9.51389E-05-7.69824E-15
 -1      4268 3.26215E-03 5.69084E-05-7.42509E-15
 -1      4269 4.67776E-03 1.20998E-04-1.44240E-14
 -1      4270 4.53399E-03 1.21253E-04-1.35999E-14
 -1      4271 4.74927E-03 8.31602E-05-1.48920E-14
 -1      4272 9.88568E-03 1.26338E-04-6.11836E-14
 -1      4273 3.48047E-03 9.52510E-05-8.32724E-15
 -1      4274 2.30880E-03 1.51303E-05-3.98977E-15
 -1      4275 3.04376E-03 1.86172E-05-6.56891E-15
 -1      4276 3.18910E-03 1.87138E-05-7.15338E-15
 -1      4277 3.55222E-03 5.70816E-05-8.68644E-15
 -1      4278 4.44823E-03-7.77170E-06-1.32638E-14
 -1      4279 4.59218E-03-7.71402E-06-1.40771E-14
 -1      4280 2.68059E-03 5.56831E-05-5.19071E-15
 -1      4281 4.46162E-03 8.34916E-05-1.32434E-14
 -1      4282 2.31831E-03 5.22058E-05-3.99737E-15
 -1      4283 2.29615E-03 1.13274E-04-3.88155E-15
 -1      4284 4.66417E-03 3.01035E-05-1.44562E-14
 -1      4285 2.60898E-03 9.26538E-05-4.91252E-15
 -1      4286 4.99397E-03 5.64233E-05-1.64047E-14
 -1      4287 2.46870E-03 9.11475E-05-4.44553E-15
 -1      4288 4.41893E-03 5.68555E-05-1.30379E-14
 -1      4289 4.56288E-03 5.67582E-05-1.38441E-14
 -1      4290 9.86090E-03 1.04671E-04-6.08064E-14
 -1      4291 4.70670E-03 5.66563E-05-1.46740E-14
 -1      4292 4.85040E-03 5.65432E-05-1.55279E-14
 -3
    1PSTEP                         2           1           1          
  100CL  101 1.000000000        4292                     0    1           1
 -4  STRESS      6    1
 -5  SXX         1    4    1    1
 -5  SYY         1    4    2    2
 -5  SZZ         1    4    3    3
 -5  SXY         1    4    1    2
 -5  SYZ         1    4    2    3
 -5  SZX         1    4    3    1
 -1         1 2.84300E+01 1.16220E+01 1.30195E+00 1.77398E+01 2.60070E-13 4.99933E-13
 -1         2-9.62337E-01-3.16268E+01-4.44205E+00 1.78651E-01-6.68979E-13-3.16830E-13
 -1         3 1.99501E+01-4.67944E-02 9.33225E-02-4.94918E-02 7.66587E-13 6.97755E-13
 -1         4 2.00573E+01 6.18113E-02 5.18562E-03-5.91904E-02-2.83500E-13 5.39332E-13
 -1         5 3.27687E+01 6.14287E+00 2.74233E+00 6.22421E+00-4.06966E-14 2.64790E-12
 -1         6 3.57526E+01 1.22634E+01 5.12526E+00-8.64644E+00-1.57097E-13 2.28884E-12
 -1         7 2.08201E+01 6.10007E+00-1.28531E-01-4.72496E+00-2.42861E-14 3.53086E-13
 -1         8 1.96726E+01 5.93516E+00 5.08079E-02-3.27395E+00-2.64719E-14-2.29582E-13
 -1         9 1.91375E+01 5.77209E+00 4.90203E-02-2.52606E+00-2.31724E-14-5.38435E-13
 -1        10 1.88960E+01 5.69230E+00 5.12557E-02-1.95054E+00-1.18386E-14-6.80100E-13
 -1        11 1.87734E+01 5.65125E+00 5.04067E-02-1.45539E+00-1.19162E-14-7.40250E-13
 -1        12 1.87095E+01 5.62941E+00 4.87709E-02-1.01465E+00-4.17873E-15-7.61484E-13
 -1        13 1.86757E+01 5.61790E+00 4.73982E-02-5.95040E-01-3.42131E-15-7.48523E-13
 -1        14 1.86615E+01 5.61303E+00 4.66698E-02-1.91101E-01 5.61988E-15-7.37943E-13
 -1        15 1.86620E+01 5.61319E+00 4.67115E-02 2.08091E-01 6.78396E-15-7.08518E-13
 -1        16 1.86772E+01 5.61839E+00 4.75351E-02 6.12865E-01 1.22580E-14-6.83184E-13
 -1        17 1.87123E+01 5.63018E+00 4.90553E-02 1.03445E+00 1.38546E-14-6.40417E-13
 -1        18 1.87775E+01 5.65231E+00 5.08126E-02 1.47840E+00 1.82658E-14-5.55663E-13
 -1        19 1.89011E+01 5.69382E+00 5.15348E-02 1.97945E+00 2.87574E-14-4.26881E-13
 -1        20 1.91431E+01 5.77467E+00 4.88049E-02 2.56306E+00 3.09232E-14-2.03325E-13
 -1        21 1.96684E+01 5.94988E+00 4.59702E-02 3.30815E+00 3.77059E-14 1.99313E-13
 -1        22 2.12028E+01 6.38178E+00 1.39759E-01 4.52263E+00 6.06459E-15 9.76386E-13
 -1        23 2.30312E+01-1.37932E+00-9.38325E-01-7.11092E-01-1.01405E-13 1.75118E-12
 -1        24 1.93690E+01-9.94705E-02-3.09816E-01 6.32139E-02-2.48551E-14 1.31468E-12
 -1        25 1.86812E+01-5.63198E-02-6.87571E-02 6.07580E-02-1.53100E-14 8.56074E-13
 -1        26 1.84795E+01-2.20880E-02-6.43246E-03 3.29955E-02-7.58150E-15 5.24115E-13
 -1        27 1.84914E+01-1.18009E-02 1.59748E-03 2.26158E-02-8.54015E-15 3.16826E-13
 -1        28 1.86062E+01-6.23613E-03 1.78450E-03 1.63257E-02-1.54770E-16 1.73524E-13
 -1        29 1.87667E+01-3.07846E-03 1.72631E-03 1.21859E-02 2.92996E-14 7.82820E-14
 -1        30 1.89416E+01-1.21873E-03 1.91548E-03 9.23491E-03-5.95064E-15 1.42828E-14
 -1        31 1.91130E+01-1.18334E-04 2.08255E-03 7.01712E-03-6.64593E-15-9.27075E-14
 -1        32 1.92712E+01 5.13376E-04 2.12053E-03 5.30055E-03-2.63735E-14-2.35485E-13
 -1        33 1.94112E+01 8.45917E-04 2.03759E-03 3.95405E-03 5.47725E-14-3.17636E-13
 -1        34 1.95311E+01 9.84795E-04 1.87175E-03 2.89403E-03-2.06105E-14-3.58373E-13
 -1        35 1.96311E+01 9.98636E-04 1.65841E-03 2.06106E-03 2.82159E-14-3.78013E-13
 -1        36 1.97126E+01 9.32871E-04 1.42326E-03 1.40953E-03-3.10553E-14-3.71728E-13
 -1        37 1.97777E+01 8.17227E-04 1.18247E-03 9.02900E-04-2.32068E-14-3.97379E-13
 -1        38 1.98288E+01 6.70228E-04 9.44358E-04 5.11697E-04-2.49477E-14-5.11020E-13
 -1        39 1.98687E+01 5.02173E-04 7.10961E-04 2.12591E-04-1.17239E-14-5.24165E-13
 -1        40 1.99002E+01 3.17257E-04 4.79308E-04-1.18758E-05-1.74853E-14-5.46398E-13
 -1        41 1.99261E+01 1.15204E-04 2.42474E-04-1.73238E-04 1.78943E-15-7.62590E-13
 -1        42 1.99495E+01-1.07342E-04-9.51148E-06-2.76784E-04-1.81669E-14-8.89558E-13
 -1        43 1.99737E+01-3.55452E-04-2.88746E-04-3.21008E-04-2.22404E-14-7.96663E-13
 -1        44 2.00024E+01-6.34388E-04-6.08304E-04-2.96870E-04-1.42568E-14-7.63889E-13
 -1        45 2.00398E+01-9.47639E-04-9.80585E-04-1.86955E-04-4.27944E-14-9.48572E-13
 -1        46 2.00906E+01-1.29425E-03-1.41472E-03 3.53047E-05 7.03868E-14-1.09856E-12
 -1        47 2.01603E+01-1.66508E-03-1.91239E-03 4.05943E-04-1.86425E-14-7.73043E-13
 -1        48 2.02548E+01-2.03750E-03-2.46123E-03 9.69570E-04-1.20641E-14-5.68171E-13
 -1        49 2.03805E+01-2.36841E-03-3.02466E-03 1.77595E-03 3.25845E-14-4.65977E-13
 -1        50 2.05434E+01-2.58522E-03-3.52678E-03 2.87177E-03-5.46504E-14-5.78294E-13
 -1        51 2.07486E+01-2.57573E-03-3.83148E-03 4.28408E-03-1.73342E-14-5.37012E-13
 -1        52 2.09976E+01-2.17919E-03-3.71609E-03 5.99007E-03-1.33741E-14-7.32741E-13
 -1        53 2.12867E+01-1.18412E-03-2.84496E-03 7.86651E-03-3.44005E-14-9.98764E-13
 -1        54 2.16026E+01 6.55859E-04-7.58609E-04 9.61310E-03-7.68021E-14-1.10389E-12
 -1        55 2.19178E+01 3.56968E-03 3.08622E-03 1.06514E-02-9.59129E-15-1.03582E-12
 -1        56 2.21853E+01 7.65514E-03 9.16351E-03 1.00249E-02-5.12670E-15-1.10422E-12
 -1        57 2.23351E+01 1.26852E-02 1.75305E-02 6.37577E-03 1.70413E-14-9.33547E-13
 -1        58 2.22751E+01 1.78546E-02 2.72463E-02-1.84459E-03 1.67923E-14-7.13677E-13
 -1        59 2.19034E+01 2.15812E-02 3.57222E-02-1.57155E-02-1.47657E-14-7.23311E-13
 -1        60 2.11366E+01 2.16296E-02 3.85582E-02-3.46233E-02-1.76079E-14-3.72438E-13
 -1        61 1.99550E+01 1.58547E-02 3.06725E-02-5.48203E-02 9.06588E-14-1.24116E-13
 -1        62 1.84530E+01 3.61684E-03 9.37319E-03-6.90009E-02-5.50495E-14-2.06276E-13
 -1        63 1.68625E+01-1.27909E-02-2.17779E-02-6.85913E-02-5.53585E-14-4.85455E-13
 -1        64 1.55132E+01-2.81283E-02-5.20548E-02-4.89342E-02 7.83260E-14-8.25376E-13
 -1        65 1.47224E+01-3.65259E-02-6.84500E-02-1.40837E-02-1.92175E-14-7.36515E-13
 -1        66 1.46623E+01-3.49514E-02-6.43965E-02 2.39317E-02 2.12259E-14-9.25393E-13
 -1        67 1.52920E+01-2.49808E-02-4.43448E-02 5.26106E-02 1.35126E-14-8.67029E-13
 -1        68 1.64010E+01-1.10080E-02-1.87330E-02 6.68615E-02-2.70690E-14-5.23269E-13
 -1        69 1.77175E+01 3.54164E-03 6.77074E-03 6.96807E-02 3.17420E-14-6.06796E-13
 -1        70 1.89732E+01 1.47923E-02 3.42444E-02 5.99196E-02 2.00402E-13 6.79214E-14
 -1        71 1.98669E+01-4.59539E-04 5.04276E-02 3.05494E-02 8.97941E-14 5.38888E-13
 -1        72 2.10436E+01-4.04900E-01-9.80436E-01-3.11661E-01 4.19977E-14 2.44824E-12
 -1        73 1.93336E+01-6.58834E-02-2.91120E-01-5.38427E-02 1.05319E-14 1.93630E-12
 -1        74 1.86908E+01-2.05073E-02-6.42685E-02-2.03504E-02 1.26274E-14 1.56609E-12
 -1        75 1.84886E+01-9.88051E-03-9.31347E-03-1.54516E-02 3.67208E-15 1.24817E-12
 -1        76 1.85004E+01-5.16703E-03 6.74866E-04-1.23858E-02 1.19854E-14 9.90416E-13
 -1        77 1.86144E+01-2.61440E-03 1.73867E-03-1.01192E-02 1.55624E-15 8.73843E-13
 -1        78 1.87739E+01-1.14222E-03 1.87625E-03-8.38540E-03-3.23820E-15 8.31628E-13
 -1        79 1.89478E+01-2.75487E-04 2.07222E-03-6.95865E-03-1.81888E-15 7.66291E-13
 -1        80 1.91183E+01 2.27310E-04 2.21691E-03-5.73335E-03 1.24245E-14 6.79288E-13
 -1        81 1.92756E+01 5.01370E-04 2.23294E-03-4.66792E-03 2.47428E-14 4.94805E-13
 -1        82 1.94147E+01 6.28718E-04 2.13110E-03-3.74352E-03-1.43554E-14 3.97927E-13
 -1        83 1.95339E+01 6.61596E-04 1.94899E-03-2.94788E-03 2.73898E-14 4.26460E-13
 -1        84 1.96332E+01 6.34262E-04 1.72185E-03-2.26933E-03 1.69704E-14 2.65984E-13
 -1        85 1.97141E+01 5.69194E-04 1.47534E-03-1.69501E-03-4.75744E-15 1.51410E-13
 -1        86 1.97786E+01 4.80620E-04 1.22571E-03-1.21075E-03 8.98772E-15-6.89654E-14
 -1        87 1.98291E+01 3.76703E-04 9.81246E-04-8.01513E-04-3.89805E-14-2.10932E-14
 -1        88 1.98683E+01 2.60971E-04 7.43839E-04-4.52180E-04-1.41339E-14 1.84421E-14
 -1        89 1.98988E+01 1.33277E-04 5.10140E-04-1.48126E-04 4.78968E-14-8.55473E-14
 -1        90 1.99237E+01-9.56726E-06 2.72351E-04 1.24219E-04-1.61512E-14-1.16689E-13
 -1        91 1.99458E+01-1.73434E-04 1.86200E-05 3.76913E-04 2.07826E-14-2.77132E-14
 -1        92 1.99685E+01-3.66718E-04-2.66963E-04 6.20034E-04-1.30827E-14 5.34552E-14
 -1        93 1.99956E+01-6.00367E-04-6.04791E-04 8.61095E-04 1.03562E-14 1.20388E-13
 -1        94 2.00316E+01-8.88045E-04-1.02067E-03 1.10420E-03 1.26883E-14-2.74016E-13
 -1        95 2.00819E+01-1.24634E-03-1.54733E-03 1.34859E-03 1.57601E-14-2.17459E-13
 -1        96 2.01534E+01-1.69479E-03-2.22666E-03 1.58613E-03 4.83716E-14 1.33469E-14
 -1        97 2.02548E+01-2.25527E-03-3.11251E-03 1.79670E-03-2.21998E-14 2.57317E-13
 -1        98 2.03974E+01-2.94969E-03-4.27366E-03 1.93980E-03-3.03242E-14 3.98764E-13
 -1        99 2.05952E+01-3.79394E-03-5.79523E-03 1.93977E-03-3.89142E-14 9.21481E-14
 -1       100 2.08666E+01-4.78407E-03-7.77392E-03 1.65968E-03-3.80287E-14 9.02854E-14
 -1       101 2.12341E+01-5.86770E-03-1.02957E-02 8.57752E-04 3.27179E-14-1.05966E-13
 -1       102 2.17252E+01-6.88895E-03-1.33695E-02-8.81278E-04-2.42432E-14-7.29395E-14
 -1       103 2.23715E+01-7.49155E-03-1.67602E-02-4.24027E-03-4.27800E-14 1.13285E-13
 -1       104 2.32040E+01-6.96934E-03-1.96173E-02-1.02597E-02 2.90571E-14 2.30507E-13
 -1       105 2.42431E+01-4.09144E-03-1.97632E-02-2.02999E-02 3.96999E-14 2.45245E-13
 -1       106 2.54753E+01 2.94331E-03-1.26323E-02-3.55344E-02-3.30924E-14 3.21670E-14
 -1       107 2.68097E+01 1.59889E-02 9.50728E-03-5.52298E-02 8.36966E-15 1.54488E-13
 -1       108 2.80114E+01 3.49625E-02 5.54924E-02-7.27439E-02 7.98021E-14 1.54095E-14
 -1       109 2.86294E+01 5.36951E-02 1.25068E-01-6.97368E-02 9.81572E-14-2.80838E-14
 -1       110 2.80052E+01 5.67898E-02 1.88905E-01-1.60053E-02-6.71637E-14-1.12053E-13
 -1       111 2.55274E+01 2.68292E-02 1.77340E-01 1.08066E-01 5.86020E-14 1.11883E-13
 -1       112 2.12437E+01-3.28806E-02 2.27385E-02 2.59008E-01-1.07762E-13 7.45279E-13
 -1       113 1.64858E+01-7.22044E-02-2.18870E-01 3.06600E-01 1.03625E-13 1.00407E-12
 -1       114 1.35137E+01-6.71703E-02-3.41406E-01 1.60122E-01-4.10375E-14 3.37723E-13
 -1       115 1.36589E+01-2.45319E-02-2.52628E-01-8.22515E-02 4.31022E-14 8.65745E-13
 -1       116 1.61142E+01 1.58614E-02-3.02531E-02-2.19764E-01-4.56486E-14 1.17466E-12
 -1       117 1.86921E+01 3.18837E-02 1.27809E-01-1.91055E-01 9.80145E-14 7.51781E-13
 -1       118 2.01334E+01 1.98179E-02 1.40819E-01-7.44100E-02-3.21527E-14 2.95462E-13
 -1       119 2.02355E+01 4.98803E-04 6.04833E-02 2.11623E-02 1.12333E-13 3.03427E-13
 -1       120 1.99514E+01 3.08341E-02 3.35318E-02 6.12762E-03-4.70814E-13 6.88772E-13
 -1       121 1.99801E+01-8.55745E-03-5.07912E-02-4.10191E-02 8.00400E-13-4.15771E-13
 -1       122 1.99271E+01 6.68340E-01-1.60482E-01 1.45156E-02-6.42243E-13 8.47018E-14
 -1       123 1.99281E+01 2.92311E+00-1.91169E-01 1.36961E-01-1.30263E-12 3.41819E-14
 -1       124 1.99736E+01 6.96874E+00-1.06359E-01 2.74638E-01-3.96003E-13 1.75813E-13
 -1       125 2.00650E+01 1.19652E+01 1.12758E-01 3.22635E-01 2.02977E-13-2.66159E-13
 -1       126 2.01343E+01 1.58357E+01 3.36065E-01 1.69658E-01-6.03788E-13-1.59361E-13
 -1       127 2.01796E+01 1.65639E+01 4.07748E-01-6.08841E-02-1.52014E-13 1.13326E-13
 -1       128 2.01134E+01 1.36292E+01 2.48890E-01-2.91843E-01-3.24740E-13-2.99341E-13
 -1       129 2.00169E+01 8.30658E+00 1.73551E-03-3.42582E-01-6.52811E-13 1.13478E-14
 -1       130 1.99393E+01 2.93575E+00-1.66489E-01-2.43342E-01-1.88793E-13 5.81419E-14
 -1       131 1.99093E+01-8.63359E-01-2.03921E-01-1.03294E-01-1.78454E-13 8.42850E-14
 -1       132 1.99183E+01-2.68200E+00-1.59164E-01 3.47382E-03-6.01282E-13-4.42354E-15
 -1       133 1.99456E+01-2.90183E+00-9.16404E-02 6.15289E-02-2.06673E-13 2.52823E-13
 -1       134 1.99789E+01-2.15045E+00-2.75992E-02 8.65283E-02 4.35554E-13-1.53128E-13
 -1       135 2.00094E+01-1.06614E+00 2.23185E-02 1.00889E-01 3.02765E-13-2.00499E-13
 -1       136 2.00152E+01-2.16055E-01 3.74939E-02 4.83104E-02-4.46451E-13-1.13848E-13
 -1       137-1.73506E+00-2.65549E+01-4.08949E+00-4.84704E+00 3.61933E-14 3.54966E-13
 -1       138-2.06897E+00-1.23395E+01-2.93470E+00-4.22085E+00 8.44991E-13 1.88988E-13
 -1       139 2.92891E+00 2.97734E+00-1.27821E+00 3.35740E+00 3.88023E-13 5.54945E-13
 -1       140 1.63209E+01 1.19835E+01 5.30834E-01 1.38291E+01 8.66085E-13 1.06859E-12
 -1       141 3.77088E+01 1.26056E+01 2.27919E+00 2.10528E+01 6.18061E-13 7.31859E-13
 -1       142 6.05936E+01 7.23576E+00 3.69248E+00 1.93307E+01-3.28071E-14 2.65787E-13
 -1       143 7.40835E+01 1.85271E+00 4.34822E+00 7.77030E+00 1.96509E-14-7.76407E-13
 -1       144 7.17592E+01 1.62844E+00 4.07865E+00-7.03640E+00-2.86238E-14-7.88536E-13
 -1       145 5.56830E+01 5.92371E+00 3.03429E+00-1.69836E+01 2.07778E-13-7.29028E-13
 -1       146 3.28545E+01 9.94467E+00 1.48394E+00-1.76814E+01 7.41573E-13-1.27010E-12
 -1       147 1.38200E+01 8.86515E+00-8.47305E-02-1.10689E+01 9.81659E-13-1.20215E-12
 -1       148 1.78929E+00 1.12031E+00-1.50267E+00-1.86136E+00 1.09435E-12-8.65530E-13
 -1       149-2.49887E+00-1.13348E+01-2.62190E+00 4.69813E+00 8.40050E-13-4.17416E-13
 -1       150-1.93910E+00-2.30915E+01-3.33217E+00 5.39545E+00 1.16401E-12-4.23821E-13
 -1       151-7.58140E-01-2.83242E+01-3.57044E+00 1.39164E+00 7.03045E-13-3.46528E-14
 -1       152-1.17466E+00-2.46400E+01-3.32527E+00-3.47480E+00 8.07632E-13 8.53241E-14
 -1       153-1.88701E+00-1.34954E+01-2.59690E+00-4.22611E+00 4.73621E-13 1.07747E-13
 -1       154 7.46808E-01-3.79177E-01-1.51501E+00 8.20587E-01-8.25229E-13-6.12455E-13
 -1       155 1.07178E+01 9.31773E+00-1.44063E-01 1.00092E+01-4.20164E-13-2.57905E-13
 -1       156 4.95998E+01 8.00066E+00 2.59025E+00 1.89527E+01 2.74836E-13 4.71900E-13
 -1       157 6.75889E+01 2.41556E+00 3.53772E+00 1.04071E+01 7.95822E-14 5.32713E-13
 -1       158 7.23412E+01 1.03735E+00 3.82237E+00-4.17389E+00 8.84015E-15 1.90348E-13
 -1       159 6.23064E+01 5.45161E+00 3.45792E+00-1.68520E+01 9.03028E-14-4.98601E-13
 -1       160 4.11623E+01 1.16930E+01 2.42043E+00-2.12438E+01 3.38007E-13-5.80869E-13
 -1       161 1.98648E+01 1.32347E+01 9.60637E-01-1.59884E+01 7.26141E-13-7.73825E-13
 -1       162 4.69223E+00 5.86878E+00-7.72608E-01-5.45700E+00 1.21736E-12-9.25759E-13
 -1       163-1.46962E+00-8.76283E+00-2.46796E+00 2.98041E+00 1.23634E-12-6.65912E-13
 -1       164-1.79634E+00-2.42403E+01-3.83991E+00 4.66867E+00 1.65146E-12-3.96627E-13
 -1       165 2.10148E+01 3.69370E+00-5.73933E-02-3.60956E+00-3.40998E-13 6.22280E-14
 -1       166 1.99908E+01 4.20847E+00-4.59564E-02-2.80783E+00-3.03899E-13-2.99778E-13
 -1       167 1.95105E+01 4.47661E+00-3.13496E-02-2.19532E+00-2.42802E-13-5.01309E-13
 -1       168 1.92675E+01 4.61531E+00-2.34949E-02-1.67413E+00-1.75165E-13-5.90736E-13
 -1       169 1.91365E+01 4.69700E+00-1.95324E-02-1.21863E+00-1.06671E-13-6.25539E-13
 -1       170 1.90624E+01 4.74798E+00-1.74365E-02-7.91737E-01-5.29445E-14-6.28326E-13
 -1       171 1.90250E+01 4.77584E+00-1.64231E-02-3.86712E-01 1.15569E-14-6.24703E-13
 -1       172 1.90141E+01 4.78437E+00-1.61305E-02 8.26426E-03 5.38898E-14-6.05236E-13
 -1       173 1.90267E+01 4.77456E+00-1.64631E-02 4.03582E-01 1.13596E-13-5.81439E-13
 -1       174 1.90661E+01 4.74502E+00-1.75169E-02 8.09677E-01 1.64180E-13-5.48369E-13
 -1       175 1.91410E+01 4.69260E+00-1.96855E-02 1.23104E+00 2.16494E-13-4.87462E-13
 -1       176 1.92769E+01 4.60545E+00-2.40054E-02 1.69764E+00 2.86723E-13-3.84149E-13
 -1       177 1.95243E+01 4.45964E+00-3.28493E-02 2.22596E+00 3.40135E-13-2.39335E-13
 -1       178 2.00143E+01 4.18388E+00-4.72090E-02 2.84622E+00 3.76412E-13 3.95482E-14
 -1       179 2.11363E+01 3.46365E+00-5.97733E-02 3.53624E+00 3.51483E-13 5.21909E-13
 -1       180 2.24208E+01 1.14331E+00-3.36464E-01 3.01447E+00 2.60728E-13 1.13755E-12
 -1       181 2.19734E+01 8.58181E-01 6.90532E-04-1.95879E+00-2.94320E-13 5.09887E-13
 -1       182 2.04491E+01 1.90342E-01-9.92065E-03-7.63778E-01-2.59251E-13 3.51853E-13
 -1       183 1.96740E+01 1.01660E-01 1.36160E-02-2.85246E-01-2.04904E-13 2.38543E-13
 -1       184 1.93346E+01 4.71876E-02 1.00119E-02-6.75206E-02-1.40534E-13 9.64593E-14
 -1       185 1.92053E+01 2.25948E-02 5.15948E-03 3.98000E-02-1.01130E-13 5.50536E-15
 -1       186 1.91924E+01 9.54264E-03 2.42799E-03 9.24780E-02-6.04424E-14-6.98963E-15
 -1       187 1.92414E+01 2.13154E-03 1.12576E-03 1.14887E-01-4.68699E-14-5.12428E-14
 -1       188 1.93210E+01-2.11574E-03 4.91456E-04 1.19806E-01-5.42499E-14-6.59972E-14
 -1       189 1.94123E+01-4.43487E-03 1.55094E-04 1.14644E-01-7.45833E-14-5.38741E-14
 -1       190 1.95041E+01-5.52943E-03-3.30824E-05 1.03993E-01-5.74820E-14-1.09390E-13
 -1       191 1.95900E+01-5.83887E-03-1.36111E-04 9.07866E-02-4.81449E-14-2.20760E-13
 -1       192 1.96667E+01-5.65235E-03-1.85468E-04 7.69114E-02-3.55826E-14-2.13957E-13
 -1       193 1.97329E+01-5.16346E-03-1.99780E-04 6.35608E-02-9.66195E-15-2.73592E-13
 -1       194 1.97886E+01-4.49965E-03-1.91033E-04 5.14680E-02-5.06804E-14-2.82451E-13
 -1       195 1.98346E+01-3.74020E-03-1.67024E-04 4.10681E-02-7.85508E-14-2.62946E-13
 -1       196 1.98723E+01-2.92827E-03-1.32642E-04 3.26152E-02-1.52779E-14-3.19362E-13
 -1       197 1.99035E+01-2.07962E-03-9.06833E-05 2.62712E-02-2.78070E-14-3.37631E-13
 -1       198 1.99301E+01-1.18926E-03-4.24472E-05 2.21716E-02-8.02686E-14-3.85397E-13
 -1       199 1.99543E+01-2.36793E-04 1.17837E-05 2.04749E-02-1.10951E-13-4.26690E-13
 -1       200 1.99787E+01 8.08748E-04 7.23042E-05 2.13978E-02 3.63504E-14-4.81203E-13
 -1       201 2.00059E+01 1.98359E-03 1.39525E-04 2.52357E-02-5.89836E-14-4.84885E-13
 -1       202 2.00390E+01 3.32264E-03 2.13419E-04 3.23674E-02-1.46898E-13-4.84292E-13
 -1       203 2.00814E+01 4.85032E-03 2.92810E-04 4.32381E-02 2.29108E-14-4.24577E-13
 -1       204 2.01370E+01 6.56701E-03 3.74428E-04 5.83126E-02 1.36699E-13-3.72496E-13
 -1       205 2.02099E+01 8.42884E-03 4.51675E-04 7.79846E-02 3.66198E-14-3.76889E-13
 -1       206 2.03044E+01 1.03184E-02 5.13093E-04 1.02423E-01 1.00572E-14-4.14359E-13
 -1       207 2.04244E+01 1.20030E-02 5.40658E-04 1.31327E-01 3.83957E-14-5.07542E-13
 -1       208 2.05733E+01 1.30803E-02 5.08322E-04 1.63569E-01-7.71177E-15-4.70406E-13
 -1       209 2.07521E+01 1.29117E-02 3.81721E-04 1.96682E-01-8.72629E-14-3.38708E-13
 -1       210 2.09589E+01 1.05579E-02 1.20775E-04 2.26205E-01-2.20748E-13-4.56456E-13
 -1       211 2.11861E+01 4.75098E-03-3.12205E-04 2.44931E-01-7.55346E-14-4.64230E-13
 -1       212 2.14184E+01-6.02549E-03-9.35915E-04 2.42238E-01-6.88590E-15-4.49965E-13
 -1       213 2.16298E+01-2.32126E-02-1.72382E-03 2.03963E-01-2.27867E-14-5.15004E-13
 -1       214 2.17820E+01-4.74194E-02-2.57198E-03 1.13602E-01 1.40824E-13-2.76144E-13
 -1       215 2.18242E+01-7.70649E-02-3.27801E-03-4.39133E-02 7.08444E-14-4.07455E-13
 -1       216 2.16982E+01-1.06546E-01-3.56598E-03-2.74624E-01-1.57960E-14-3.50123E-13
 -1       217 2.13497E+01-1.24853E-01-3.17755E-03-5.64114E-01 9.61479E-14-3.62041E-13
 -1       218 2.07494E+01-1.16708E-01-1.98598E-03-8.65801E-01 5.11897E-14-1.76768E-13
 -1       219 1.99198E+01-6.88631E-02-1.82741E-04-1.09810E+00-8.83816E-14-2.79150E-13
 -1       220 1.89573E+01 1.84523E-02 1.70469E-03-1.16299E+00-1.73739E-13-3.21875E-13
 -1       221 1.80301E+01 1.22229E-01 3.19774E-03-9.90604E-01-2.17710E-13-5.57119E-13
 -1       222 1.73351E+01 2.01718E-01 4.14531E-03-5.89938E-01 1.61126E-13-5.09884E-13
 -1       223 1.70232E+01 2.21814E-01 4.56954E-03-6.51301E-02-7.42852E-15-1.65468E-13
 -1       224 1.71334E+01 1.78574E-01 4.36934E-03 4.30182E-01 7.67758E-14-1.26020E-13
 -1       225 1.75837E+01 1.00192E-01 3.16392E-03 7.72814E-01 2.18038E-13-4.95099E-14
 -1       226 1.82221E+01 2.00692E-02 1.25588E-03 9.17709E-01 4.85958E-14-1.05127E-13
 -1       227 1.88909E+01-5.62786E-02-9.42326E-05 8.75797E-01 3.00698E-13-1.63908E-13
 -1       228 1.94862E+01-1.58211E-01 1.90030E-03 6.47867E-01 3.45657E-13-1.92583E-13
 -1       229 2.09651E+01 2.77010E-01-5.13291E-02 1.16453E+00 2.48659E-13 9.81704E-13
 -1       230 1.98708E+01 1.26846E-01 8.31130E-03 4.42833E-01 2.15663E-13 7.73605E-13
 -1       231 1.93648E+01 5.80757E-02 1.27346E-02 1.49764E-01 1.69875E-13 5.90480E-13
 -1       232 1.91556E+01 2.77341E-02 7.62812E-03 1.04531E-02 1.35991E-13 4.72931E-13
 -1       233 1.91062E+01 1.30884E-02 3.82224E-03-5.87209E-02 3.91310E-14 4.00487E-13
 -1       234 1.91425E+01 5.13960E-03 1.90458E-03-9.11900E-02 2.18582E-14 3.56948E-13
 -1       235 1.92221E+01 5.92152E-04 1.00112E-03-1.02978E-01 4.63807E-14 3.73492E-13
 -1       236 1.93202E+01-2.00019E-03 5.40374E-04-1.02795E-01 6.40813E-14 3.39389E-13
 -1       237 1.94221E+01-3.38360E-03 2.76734E-04-9.58368E-02 1.11353E-13 2.66268E-13
 -1       238 1.95194E+01-3.99502E-03 1.15837E-04-8.53690E-02 5.08019E-14 2.36227E-13
 -1       239 1.96074E+01-4.11229E-03 1.76469E-05-7.34833E-02 3.98963E-14 1.20715E-13
 -1       240 1.96841E+01-3.91986E-03-3.89350E-05-6.15154E-02 6.27707E-14 1.05962E-13
 -1       241 1.97489E+01-3.54127E-03-6.70408E-05-5.02982E-02 8.66759E-14 7.50018E-14
 -1       242 1.98025E+01-3.05710E-03-7.54258E-05-4.03316E-02 6.42898E-14 3.92032E-14
 -1       243 1.98462E+01-2.51610E-03-6.99667E-05-3.19041E-02-6.00448E-14 1.38335E-14
 -1       244 1.98816E+01-1.94277E-03-5.44775E-05-2.51827E-02 1.92988E-14-7.43519E-14
 -1       245 1.99108E+01-1.34263E-03-3.12445E-05-2.02829E-02 5.31280E-14-1.41957E-13
 -1       246 1.99359E+01-7.05811E-04-1.38165E-06-1.73230E-02 5.83919E-14-1.91304E-13
 -1       247 1.99594E+01-9.24378E-06 3.49126E-05-1.64697E-02-7.86054E-14-2.88594E-13
 -1       248 1.99841E+01 7.82323E-04 7.81657E-05-1.79776E-02-1.20415E-13-4.56662E-14
 -1       249 2.00131E+01 1.71637E-03 1.29477E-04-2.22271E-02 3.83206E-14-3.80268E-14
 -1       250 2.00502E+01 2.85370E-03 1.90353E-04-2.97627E-02 1.76650E-13-4.05732E-14
 -1       251 2.01001E+01 4.27066E-03 2.62468E-04-4.13359E-02-3.55295E-14-1.82513E-13
 -1       252 2.01683E+01 6.06217E-03 3.47228E-04-5.79533E-02-1.35528E-13-1.39854E-13
 -1       253 2.02618E+01 8.34503E-03 4.44918E-04-8.09328E-02-1.08590E-13 9.18442E-14
 -1       254 2.03893E+01 1.12595E-02 5.53038E-04-1.11961E-01-6.45968E-15 9.68176E-14
 -1       255 2.05615E+01 1.49648E-02 6.63159E-04-1.53142E-01 1.02191E-13 4.12819E-15
 -1       256 2.07915E+01 1.96174E-02 7.55259E-04-2.06989E-01-9.51325E-14 1.57673E-14
 -1       257 2.10948E+01 2.53100E-02 7.88465E-04-2.76284E-01 7.30744E-14-4.55790E-14
 -1       258 2.14892E+01 3.19263E-02 6.88435E-04-3.63609E-01-7.06385E-14-9.55524E-15
 -1       259 2.19931E+01 3.88245E-02 3.37507E-04-4.70174E-01-4.54027E-14 1.43670E-13
 -1       260 2.26221E+01 4.42102E-02-4.10551E-04-5.93293E-01 5.31981E-14-4.75696E-14
 -1       261 2.33818E+01 4.40193E-02-1.63774E-03-7.21416E-01 1.05986E-13-1.72960E-13
 -1       262 2.42541E+01 3.02831E-02-3.11419E-03-8.25524E-01-2.53082E-14-1.26606E-13
 -1       263 2.51755E+01-1.03187E-02-3.89960E-03-8.46813E-01-8.19785E-14-7.08704E-14
 -1       264 2.60087E+01-9.45779E-02-2.00790E-03-6.85820E-01 2.93168E-16 1.47963E-13
 -1       265 2.65177E+01-2.29569E-01 4.66675E-03-2.12135E-01 4.31651E-14 2.13251E-13
 -1       266 2.63790E+01-3.79230E-01 1.39295E-02 6.63204E-01-7.13388E-14 1.84588E-13
 -1       267 2.52908E+01-4.26043E-01 1.46412E-02 1.81704E+00-7.06423E-14 5.14071E-13
 -1       268 2.32304E+01-2.08492E-01-7.71376E-03 2.73001E+00-1.69661E-13 4.41130E-13
 -1       269 2.07478E+01 2.99707E-01-5.21727E-02 2.62060E+00 1.00080E-13 2.20468E-13
 -1       270 1.89919E+01 6.57652E-01-6.99221E-02 1.21962E+00-4.20844E-14 6.72585E-13
 -1       271 1.86941E+01 5.69552E-01-5.00885E-02-5.81101E-01-2.88432E-14 6.75635E-13
 -1       272 1.95747E+01 1.06148E-01-9.10507E-03-1.52273E+00 2.55282E-14 3.27141E-13
 -1       273 2.05479E+01-2.51994E-01 1.68292E-02-1.28100E+00 2.40349E-13 5.14045E-13
 -1       274 2.09916E+01-3.17270E-01 1.72386E-02-4.41108E-01-5.97890E-14 6.58936E-13
 -1       275 2.07626E+01-1.27337E-01 5.42823E-03 1.80934E-01 1.37828E-14 4.42803E-13
 -1       276 2.02740E+01 1.02131E-01 1.88036E-03 2.19091E-01-1.67303E-13 1.52195E-13
 -1       277 2.03506E+01 4.91885E-01 3.52305E-03 6.02363E-01 2.16815E-13-7.92031E-13
 -1       278 2.05490E+01 1.41532E+00 2.49561E-03 1.65450E+00 1.31135E-13-4.95977E-13
 -1       279 2.05007E+01 3.14660E+00-4.42759E-03 2.89647E+00 1.37858E-13 3.96915E-13
 -1       280 2.00433E+01 5.62215E+00-1.01909E-03 3.54838E+00 9.46083E-14 1.06148E-13
 -1       281 1.92979E+01 8.08806E+00 1.15042E-02 2.75158E+00 6.75709E-14-5.40843E-13
 -1       282 1.88042E+01 9.33032E+00 1.97953E-02 6.08718E-01-1.37402E-13 1.23020E-13
 -1       283 1.89484E+01 8.72766E+00 1.56084E-02-2.10969E+00-2.33445E-13 4.09395E-15
 -1       284 1.96449E+01 6.35907E+00 4.37104E-03-3.80029E+00-1.83215E-13-2.27525E-13
 -1       285 2.03123E+01 3.37108E+00-1.65186E-03-3.84197E+00-1.66683E-13 1.62693E-13
 -1       286 2.06028E+01 8.35967E-01 2.18492E-03-2.74869E+00-1.89477E-13 1.15256E-13
 -1       287 2.05660E+01-7.62219E-01 8.24749E-03-1.36125E+00-4.39271E-13-2.96676E-13
 -1       288 2.03878E+01-1.43345E+00 1.05728E-02-2.26132E-01-2.77144E-13 4.53659E-13
 -1       289 2.01973E+01-1.42422E+00 8.49671E-03 4.76610E-01-1.42845E-13 1.75728E-13
 -1       290 2.00028E+01-1.02085E+00 3.90961E-03 7.38369E-01 1.48982E-13-2.75739E-14
 -1       291 1.98288E+01-5.43119E-01 2.57534E-03 8.48313E-01 1.66245E-13-5.07458E-13
 -1       292-1.06625E+00-1.36981E+01-1.29269E+00 1.16164E+00 3.70565E-13 8.90121E-14
 -1       293 3.07054E+00-1.10442E+01-1.01060E+00 4.36865E+00 1.29174E-13 4.34222E-13
 -1       294 1.09927E+01-7.13750E+00-6.02698E-01 6.81462E+00 4.51028E-13 2.91725E-13
 -1       295 2.06332E+01-2.06933E+00-1.16627E-01 8.40306E+00 1.09912E-14 3.52274E-13
 -1       296 3.22796E+01 1.50471E+00 3.59460E-01 8.29973E+00 1.52101E-13-1.91347E-13
 -1       297 4.16523E+01 5.01363E+00 6.78789E-01 6.35970E+00 1.35617E-13-1.59206E-13
 -1       298 4.92888E+01 7.38618E+00 1.12527E+00 4.78482E+00 3.61058E-13-2.52159E-13
 -1       299 5.11897E+01 7.55133E+00 1.20037E+00 1.40226E+00 1.96759E-13-5.22443E-13
 -1       300 4.84660E+01 5.98167E+00 1.08570E+00-2.44225E+00 8.49737E-14-9.25204E-13
 -1       301 3.99364E+01 3.35607E+00 6.28309E-01-4.71549E+00 5.18450E-13-6.01019E-13
 -1       302 2.93480E+01 3.75453E-01 1.92580E-01-6.52071E+00 5.81146E-13-4.94382E-13
 -1       303 1.84981E+01-3.29775E+00-2.68615E-01-6.06335E+00 6.12843E-13-5.44564E-13
 -1       304 9.06941E+00-7.34697E+00-6.47639E-01-4.49246E+00 5.22749E-13-6.51854E-13
 -1       305 2.30862E+00-1.10999E+01-9.26678E-01-2.42639E+00 5.23886E-13-6.24084E-14
 -1       306-1.12614E+00-1.33429E+01-1.05613E+00-5.86833E-01 4.46018E-13-2.95930E-13
 -1       307-1.51483E+00-1.33947E+01-1.05181E+00 1.16953E+00 4.04655E-13 8.51264E-14
 -1       308 1.50966E+00-1.07693E+01-8.17228E-01 3.35983E+00 3.60878E-13 1.38639E-13
 -1       309 7.56038E+00-7.23308E+00-5.63011E-01 5.41496E+00 3.54328E-13-7.82187E-13
 -1       310 1.62561E+01-3.11875E+00-2.39036E-01 7.06952E+00-1.89238E-13 1.85463E-13
 -1       311 2.67024E+01 8.47889E-01 1.48517E-01 7.78992E+00-1.72307E-13 3.62543E-13
 -1       312 3.67960E+01 3.50096E+00 4.12512E-01 5.91757E+00 1.92634E-13-8.88734E-14
 -1       313 4.57349E+01 6.30914E+00 8.42535E-01 4.28524E+00 4.31044E-14 5.90361E-14
 -1       314 5.11590E+01 7.29507E+00 1.13694E+00 4.28376E-01 1.80966E-13 7.36078E-14
 -1       315 5.01369E+01 7.37568E+00 1.11355E+00-4.15040E+00 4.86902E-13-2.04434E-13
 -1       316 4.27643E+01 6.21820E+00 7.61399E-01-6.79150E+00 3.03098E-13-4.67487E-13
 -1       317 3.34306E+01 3.85635E+00 5.29841E-01-9.37999E+00 6.04100E-13-7.49734E-13
 -1       318 2.22172E+01-2.59436E-01 3.64802E-02-8.93656E+00 6.73073E-13-4.45199E-13
 -1       319 1.19471E+01-5.52807E+00-5.02540E-01-7.18770E+00 6.52922E-13-4.92564E-13
 -1       320 4.23072E+00-1.00906E+01-8.94194E-01-5.15664E+00 6.97220E-13-2.51986E-13
 -1       321-6.03926E-01-1.22122E+01-1.08690E+00-2.24595E+00 4.82239E-13-7.67442E-13
 -1       322 2.01372E+01 3.00088E+00-2.19834E-02-2.09650E+00-3.23319E-13-2.80895E-13
 -1       323 2.07577E+01 2.20825E+00-1.76814E-02-2.36365E+00-3.66859E-13-7.05078E-14
 -1       324 1.95830E+01 3.69181E+00-1.56010E-02-1.31661E+00-1.81092E-13-4.60899E-13
 -1       325 1.94594E+01 3.84884E+00-1.37107E-02-9.23190E-01-1.00410E-13-4.84747E-13
 -1       326 1.93901E+01 3.93978E+00-1.27168E-02-5.43592E-01-2.35884E-14-4.90115E-13
 -1       327 1.93595E+01 3.98109E+00-1.22928E-02-1.73169E-01 4.62300E-14-4.81154E-13
 -1       328 1.93608E+01 3.97948E+00-1.23085E-02 1.94294E-01 1.00314E-13-4.55775E-13
 -1       329 1.93944E+01 3.93455E+00-1.27547E-02 5.65091E-01 1.62227E-13-4.37555E-13
 -1       330 1.94655E+01 3.84124E+00-1.37626E-02 9.38884E-01 2.30717E-13-3.96200E-13
 -1       331 1.95928E+01 3.67893E+00-1.56511E-02 1.33279E+00 3.09434E-13-2.99807E-13
 -1       332 1.98088E+01 3.41016E+00-1.88295E-02 1.73798E+00 3.71033E-13-1.99254E-13
 -1       333 2.01799E+01 2.95528E+00-2.29387E-02 2.12653E+00 4.23008E-13-2.70183E-14
 -1       334 2.07502E+01 2.12942E+00-3.04676E-02 2.32156E+00 4.24258E-13 2.85499E-13
 -1       335 2.10969E+01 1.18769E+00-2.49198E-02 1.92142E+00 3.64419E-13 5.50738E-13
 -1       336 2.03935E+01 4.89292E-01 8.33336E-03 9.26813E-01 2.98084E-13 4.20932E-13
 -1       337 2.04601E+01 6.75074E-01 1.25896E-02-1.02420E+00-2.91744E-13-2.46089E-14
 -1       338 2.00382E+01 3.37191E-01 7.18636E-03-4.57127E-01-2.41562E-13-1.28800E-14
 -1       339 1.97843E+01 1.76636E-01 4.10412E-03-1.48094E-01-1.91683E-13-5.73437E-14
 -1       340 1.96492E+01 9.05446E-02 1.87774E-03 2.31752E-02-1.02689E-13-1.30917E-13
 -1       341 1.95941E+01 4.13769E-02 7.82844E-04 1.14355E-01-7.82230E-14-1.44679E-13
 -1       342 1.95889E+01 1.23626E-02 2.69558E-04 1.57504E-01-5.30483E-14-1.33401E-13
 -1       343 1.96130E+01-4.67797E-03 1.29003E-05 1.71508E-01-1.70275E-14-1.42327E-13
 -1       344 1.96525E+01-1.42072E-02-1.22056E-04 1.68102E-01-8.88485E-14-1.02584E-13
 -1       345 1.96982E+01-1.88942E-02-1.90181E-04 1.54845E-01-1.08264E-13-7.85318E-14
 -1       346 1.97445E+01-2.04443E-02-2.17318E-04 1.36689E-01-6.80334E-14-1.30396E-13
 -1       347 1.97882E+01-1.99879E-02-2.18369E-04 1.16877E-01-8.43941E-14-1.66507E-13
 -1       348 1.98276E+01-1.82804E-02-2.02906E-04 9.75075E-02-9.42359E-15-1.37751E-13
 -1       349 1.98620E+01-1.58147E-02-1.77158E-04 7.99165E-02-6.77633E-14-1.20954E-13
 -1       350 1.98917E+01-1.28926E-02-1.44994E-04 6.49433E-02-1.15852E-13-2.19884E-13
 -1       351 1.99172E+01-9.67375E-03-1.08538E-04 5.31307E-02-3.63221E-14-2.59907E-13
 -1       352 1.99397E+01-6.21132E-03-6.86356E-05 4.48710E-02-5.64023E-14-3.39575E-13
 -1       353 1.99605E+01-2.47919E-03-2.52011E-05 4.05147E-02-7.37384E-14-1.82624E-13
 -1       354 1.99811E+01 1.60461E-03 2.24676E-05 4.04488E-02-1.24002E-13-2.44310E-13
 -1       355 2.00032E+01 6.15508E-03 7.53919E-05 4.51483E-02-9.06579E-14-3.69704E-13
 -1       356 2.00290E+01 1.12944E-02 1.34561E-04 5.51984E-02 1.18917E-15-3.23002E-13
 -1       357 2.00607E+01 1.71187E-02 2.00475E-04 7.12840E-02-2.91291E-14-5.66727E-14
 -1       358 2.01007E+01 2.36516E-02 2.72516E-04 9.41345E-02 1.48439E-14-4.92938E-14
 -1       359 2.01519E+01 3.07771E-02 3.48059E-04 1.24408E-01-4.18217E-16-3.23541E-13
 -1       360 2.02170E+01 3.81446E-02 4.21251E-04 1.62492E-01 1.27800E-13-4.02095E-13
 -1       361 2.02991E+01 4.50349E-02 4.81412E-04 2.08182E-01-2.83435E-14-3.19264E-13
 -1       362 2.04005E+01 5.01845E-02 5.11102E-04 2.60214E-01 3.77509E-14-3.33276E-13
 -1       363 2.05232E+01 5.15704E-02 4.84183E-04 3.15597E-01-2.75872E-14-4.17379E-13
 -1       364 2.06677E+01 4.61868E-02 3.64669E-04 3.68746E-01-1.92656E-13-3.61231E-13
 -1       365 2.08325E+01 2.99002E-02 1.08007E-04 4.10437E-01-8.67446E-14-1.60115E-13
 -1       366 2.10128E+01-2.42831E-03-3.32467E-04 4.26772E-01-1.04166E-13-3.63247E-14
 -1       367 2.11995E+01-5.62009E-02-9.89994E-04 3.98548E-01-1.26903E-14-2.23313E-14
 -1       368 2.13774E+01-1.35165E-01-1.85655E-03 3.01876E-01 1.28717E-13-3.20067E-14
 -1       369 2.15237E+01-2.37681E-01-2.83762E-03 1.11427E-01 5.19675E-14-2.12052E-14
 -1       370 2.16063E+01-3.50962E-01-3.70770E-03-1.91758E-01 6.20660E-14-4.20877E-14
 -1       371 2.15843E+01-4.44845E-01-4.12886E-03-6.06265E-01 1.34815E-13 1.91054E-14
 -1       372 2.14126E+01-4.70184E-01-3.73443E-03-1.09112E+00 1.83289E-13-6.75614E-14
 -1       373 2.10568E+01-3.70682E-01-2.13853E-03-1.54936E+00-1.45501E-13-1.78526E-13
 -1       374 2.05207E+01-1.15641E-01 5.03930E-04-1.83197E+00-1.21760E-13-1.45006E-13
 -1       375 1.98778E+01 2.55770E-01 3.17956E-03-1.78446E+00-2.15799E-13-8.81050E-14
 -1       376 1.92751E+01 6.18765E-01 5.12652E-03-1.33607E+00-4.56237E-14 8.58915E-14
 -1       377 1.88787E+01 8.15902E-01 5.98951E-03-5.76534E-01 2.41238E-13 7.48062E-14
 -1       378 1.87790E+01 7.63806E-01 6.01661E-03 2.58832E-01 1.24828E-13 1.50414E-13
 -1       379 1.89325E+01 5.15722E-01 5.07772E-03 9.17044E-01 2.48211E-13 2.54820E-13
 -1       380 1.92048E+01 2.06402E-01 2.87836E-03 1.26324E+00-1.01298E-13 2.80301E-13
 -1       381 1.94613E+01-6.92768E-02-5.59877E-04 1.31026E+00 2.61068E-14 8.66880E-14
 -1       382 1.96215E+01-2.83654E-01-2.35903E-03 1.15887E+00 1.42026E-13-2.68816E-13
 -1       383 1.98921E+01 2.28512E-01 1.07963E-02 3.98127E-01 2.55657E-13 3.49770E-13
 -1       384 1.96038E+01 1.15371E-01 6.17596E-03 1.19406E-01 1.84083E-13 2.81133E-13
 -1       385 1.94695E+01 5.76753E-02 2.80793E-03-2.94475E-02 8.95675E-14 2.22650E-13
 -1       386 1.94300E+01 2.57643E-02 1.17701E-03-1.06318E-01 2.50317E-14 1.30229E-13
 -1       387 1.94460E+01 7.27789E-03 4.47360E-04-1.41479E-01 4.23605E-14 1.19344E-13
 -1       388 1.94923E+01-3.46501E-03 9.91335E-05-1.51855E-01 9.57556E-14 1.05221E-13
 -1       389 1.95527E+01-9.42943E-03-8.35759E-05-1.47646E-01 1.48140E-13 9.45413E-14
 -1       390 1.96172E+01-1.23415E-02-1.80314E-04-1.35290E-01 7.11545E-14 1.15374E-13
 -1       391 1.96798E+01-1.32880E-02-2.25002E-04-1.18954E-01 7.70304E-14 7.31277E-14
 -1       392 1.97371E+01-1.29848E-02-2.36247E-04-1.01340E-01 7.23329E-14 1.86728E-14
 -1       393 1.97875E+01-1.19104E-02-2.25945E-04-8.41797E-02 1.24555E-13 3.17338E-14
 -1       394 1.98306E+01-1.03784E-02-2.01982E-04-6.85589E-02 4.94872E-14 5.24544E-14
 -1       395 1.98670E+01-8.58234E-03-1.69392E-04-5.51430E-02 3.07596E-14 1.54234E-14
 -1       396 1.98975E+01-6.62477E-03-1.31044E-04-4.43472E-02 8.02414E-14-4.91774E-14
 -1       397 1.99236E+01-4.53779E-03-8.81586E-05-3.64636E-02 9.35065E-14-1.48840E-13
 -1       398 1.99468E+01-2.29701E-03-4.06251E-05-3.17605E-02 1.41934E-13-1.54784E-13
 -1       399 1.99690E+01 1.69637E-04 1.27709E-05-3.05637E-02-2.49071E-14-2.64250E-13
 -1       400 1.99926E+01 2.97717E-03 7.42227E-05-3.33253E-02-1.75566E-13-3.40759E-13
 -1       401 2.00199E+01 6.28240E-03 1.46854E-04-4.06867E-02 3.69230E-14-3.50937E-13
 -1       402 2.00541E+01 1.02860E-02 2.34725E-04-5.35402E-02 1.72945E-13-2.97776E-13
 -1       403 2.00989E+01 1.52377E-02 3.42860E-04-7.30930E-02 5.35478E-14-2.68857E-13
 -1       404 2.01584E+01 2.14429E-02 4.77214E-04-1.00935E-01-2.39719E-13-2.82911E-13
 -1       405 2.02380E+01 2.92686E-02 6.44423E-04-1.39113E-01-2.10047E-13-2.43365E-13
 -1       406 2.03441E+01 3.91410E-02 8.50982E-04-1.90195E-01-1.26876E-14-1.96452E-13
 -1       407 2.04842E+01 5.15175E-02 1.10115E-03-2.57306E-01 1.79176E-13 4.54796E-16
 -1       408 2.06672E+01 6.68007E-02 1.39227E-03-3.44071E-01-8.62971E-15-1.04099E-13
 -1       409 2.09031E+01 8.51205E-02 1.70528E-03-4.54330E-01 1.17931E-14-1.39519E-13
 -1       410 2.12027E+01 1.05852E-01 1.98750E-03-5.91378E-01-6.30973E-15 8.30120E-14
 -1       411 2.15769E+01 1.26631E-01 2.12561E-03-7.56231E-01-2.82311E-14-1.59280E-13
 -1       412 2.20347E+01 1.41495E-01 1.91363E-03-9.44114E-01 1.07085E-13-2.62130E-13
 -1       413 2.25805E+01 1.37762E-01 1.04011E-03-1.13793E+00-1.63463E-14-1.52979E-13
 -1       414 2.32101E+01 9.17314E-02-8.39731E-04-1.29738E+00-4.11200E-15 1.44942E-13
 -1       415 2.39046E+01-3.44804E-02-3.89467E-03-1.34387E+00-4.64666E-14 2.75401E-13
 -1       416 2.46225E+01-2.86982E-01-7.74896E-03-1.14681E+00 3.23333E-14 8.21595E-14
 -1       417 2.52846E+01-6.85275E-01-1.06522E-02-5.31321E-01-5.58225E-14 4.65674E-14
 -1       418 2.57430E+01-1.13304E+00-1.09446E-02 6.43951E-01-7.63348E-14 1.75395E-13
 -1       419 2.57468E+01-1.30948E+00-1.41844E-02 2.27669E+00-2.41504E-13 9.70855E-14
 -1       420 2.50315E+01-7.38986E-01-2.56565E-02 3.73768E+00-7.50291E-14 1.16476E-13
 -1       421 2.35874E+01 6.28704E-01-3.41342E-02 3.93060E+00-2.45741E-14 4.11515E-13
 -1       422 2.21704E+01 1.97493E+00-6.93274E-02 2.14499E+00-1.95049E-13 5.46939E-13
 -1       423 2.18971E+01 1.81481E+00-4.91079E-02-5.17750E-01 9.82894E-14 3.04454E-13
 -1       424 2.23566E+01 4.21151E-01-2.94508E-02-1.96371E+00 9.92036E-14 2.05067E-13
 -1       425 2.26835E+01-7.31997E-01-1.39329E-02-1.63515E+00-6.30042E-14 3.24122E-13
 -1       426 2.23770E+01-9.82727E-01-9.00591E-03-4.12350E-01 1.97559E-14 3.35288E-13
 -1       427 2.15551E+01-4.69925E-01-2.75878E-03 5.24122E-01 2.26631E-13-8.66624E-14
 -1       428 2.09427E+01 3.43625E-02-1.76066E-03 7.74167E-01 1.86632E-13-4.17531E-13
 -1       429 2.11791E+01 1.07534E+00 2.35366E-02 5.06518E+00 3.45807E-13 4.22690E-13
 -1       430 2.19992E+01 8.27151E-02 1.12099E-02 3.32117E+00 5.36571E-13 3.78213E-14
 -1       431 2.15560E+01 5.40245E-02 8.44083E-03 1.81472E+00 4.41320E-13-3.22875E-13
 -1       432 1.88737E+01 2.90266E+00 3.65810E-02 5.30861E+00 5.33571E-14-5.90897E-13
 -1       433 1.63909E+01 4.66171E+00 5.30940E-02 3.09881E+00 1.79942E-13-5.85136E-13
 -1       434 1.55497E+01 5.16934E+00 5.46728E-02-1.26859E+00-7.68400E-14 2.13666E-13
 -1       435 1.73656E+01 3.76034E+00 4.57117E-02-5.05574E+00 1.14582E-13-2.42938E-13
 -1       436 2.00904E+01 1.57217E+00 2.62992E-02-6.20576E+00 2.40838E-13 7.00091E-14
 -1       437 2.18173E+01-8.87287E-02 1.78118E-02-5.01710E+00-2.94708E-14 6.91344E-14
 -1       438 2.21675E+01-8.85010E-01 1.68554E-02-2.94480E+00-2.77889E-13-2.79302E-13
 -1       439 2.17203E+01-1.08411E+00 1.59423E-02-1.04685E+00-3.06145E-13 1.04701E-13
 -1       440 2.10521E+01-9.83768E-01 1.20812E-02 2.58633E-01-3.96484E-13 5.41671E-13
 -1       441 2.04058E+01-7.55428E-01 3.74063E-03 9.72034E-01-9.51739E-14 4.50458E-13
 -1       442 1.21900E+01-6.72786E+00-5.29528E-02 8.64345E+00 3.59407E-13 2.84231E-13
 -1       443 2.47189E+00-4.01612E+00-2.31174E-02-1.98488E-01 3.73558E-13-3.52468E-13
 -1       444 4.41129E+00-5.09653E+00-5.95841E-02 4.78826E+00 5.24081E-13 4.19886E-13
 -1       445 2.16409E+01-6.90540E+00-1.91753E-02 8.39699E+00 3.13305E-13 1.66069E-13
 -1       446 2.89016E+01-4.84305E+00-4.07995E-03 6.18489E+00 3.16414E-14-3.31637E-13
 -1       447 1.97907E+01 3.43328E+00-1.87088E-02-1.71928E+00-2.55640E-13-4.14454E-13
 -1       448 3.85809E+01 5.53960E+00 1.21645E-01 9.73256E-01 1.20043E-13-3.28210E-13
 -1       449 3.86243E+01 8.38663E+00 8.58323E-02 1.18819E+00 4.67321E-13-2.54803E-13
 -1       450 3.94703E+01 7.61553E+00 1.33796E-01 2.12048E+00 2.11275E-13-3.18481E-13
 -1       451 3.63385E+01 3.65892E+00-8.60191E-03 2.75164E+00-7.98250E-14-1.58928E-13
 -1       452 3.36671E+01-1.72963E+00-7.01383E-03-1.50189E-01 1.16176E-13-2.80331E-14
 -1       453 2.74495E+01-5.30399E+00-3.33424E-02-3.56285E+00 2.76779E-13 5.78565E-14
 -1       454 1.96414E+01-7.52095E+00-3.91164E-02-5.76728E+00 2.00368E-13-2.74693E-13
 -1       455 1.03960E+01-7.61120E+00-7.98470E-02-6.17331E+00 2.74919E-13-5.00815E-13
 -1       456 3.34086E+00-7.15846E+00-1.20733E-01-3.91953E+00 2.12816E-13-2.93959E-13
 -1       457 7.01060E-01-5.99301E+00-4.77622E-02-1.17380E-01 1.05280E-13-3.10862E-14
 -1       458 2.48191E+00-5.75459E+00-1.40972E-02 4.12049E+00 1.73500E-13 2.25014E-13
 -1       459 8.17359E+00-6.77096E+00-5.99907E-02 6.96970E+00 2.61985E-13-6.28463E-13
 -1       460 1.71493E+01-6.63219E+00-7.23337E-03 7.53270E+00 2.94820E-13-8.01616E-14
 -1       461 2.53232E+01-4.91025E+00-1.07107E-02 5.67382E+00-1.79037E-13 4.09131E-13
 -1       462 3.18223E+01-1.61703E+00-1.39663E-02 2.73050E+00-4.57238E-14-3.18023E-13
 -1       463 3.62240E+01 3.84802E+00 1.16253E-02-2.68802E-01-5.01682E-14-2.49578E-13
 -1       464 3.74633E+01 7.96364E+00-1.09857E-02-1.21636E+00-1.06526E-13-1.20869E-13
 -1       465 3.84748E+01 9.13249E+00 2.79968E-02-8.40259E-01 2.58710E-13 3.46737E-13
 -1       466 3.84914E+01 7.01550E+00 8.04423E-02-1.10900E+00 2.46289E-13 3.08920E-13
 -1       467 3.52312E+01 1.53534E+00 2.27553E-02-2.55413E+00 4.55611E-13 1.84991E-13
 -1       468 3.05455E+01-2.76620E+00 4.09252E-02-5.87711E+00 2.76182E-13-1.10995E-13
 -1       469 2.25002E+01-5.83126E+00-1.23551E-02-8.56069E+00 1.92152E-13-2.05252E-13
 -1       470 1.38960E+01-6.34968E+00-3.19375E-02-9.37338E+00 2.68147E-13-6.81191E-14
 -1       471 5.54529E+00-5.51313E+00-6.63676E-02-6.49952E+00 6.28941E-14-3.03285E-13
 -1       472 3.53920E+01-1.05033E-01 6.31723E-02 2.72719E+00-5.32371E-14-3.52024E-13
 -1       473 2.03744E+01 8.32055E-01 4.01122E-03 9.71255E-01 3.05880E-13 1.24247E-13
 -1       474 1.97315E+01 3.10457E+00-5.41958E-03-6.33468E-01-5.87098E-14-4.33453E-13
 -1       475 1.98286E+01 2.93050E+00-6.02900E-03-9.50244E-01-1.32435E-13-4.15379E-13
 -1       476 1.96638E+01 3.22709E+00-5.02336E-03 8.79811E-03 6.94279E-14-4.26632E-13
 -1       477 1.96824E+01 3.19407E+00-5.10254E-03 3.30232E-01 1.27859E-13-4.05872E-13
 -1       478 1.97364E+01 3.09722E+00-5.41336E-03 6.45471E-01 1.86429E-13-3.69818E-13
 -1       479 1.98353E+01 2.91932E+00-5.94517E-03 9.60945E-01 2.66348E-13-2.97171E-13
 -1       480 1.99911E+01 2.63416E+00-6.52723E-03 1.25602E+00 3.17386E-13-2.15710E-13
 -1       481 2.02338E+01 2.18792E+00-5.70375E-03 1.50073E+00 3.61760E-13-1.03651E-13
 -1       482 2.01129E+01 4.53667E-01 5.07594E-03 4.63306E-01 2.33842E-13 8.67205E-14
 -1       483 2.03417E+01 9.73168E-01 2.72356E-03-9.37382E-01-2.49727E-13-1.69432E-13
 -1       484 3.15600E+01 5.15884E+00-1.58118E-01 4.05310E+00-1.37293E-13 1.13465E-13
 -1       485 2.01714E+01 5.47393E-01 2.33707E-03-4.67202E-01-2.30849E-13-1.50159E-13
 -1       486 2.00253E+01 3.03782E-01 9.75604E-04-1.65531E-01-1.71708E-13-1.30390E-13
 -1       487 1.99247E+01 1.61702E-01 4.33338E-04 1.59381E-02-1.26493E-13-1.52919E-13
 -1       488 1.98659E+01 7.53451E-02 1.53513E-04 1.18489E-01-7.81092E-14-1.73693E-13
 -1       489 1.98384E+01 2.25418E-02 2.03940E-05 1.69744E-01-5.68146E-14-1.93205E-13
 -1       490 1.98322E+01-9.06360E-03-4.75482E-05 1.88247E-01-5.36702E-14-2.43430E-13
 -1       491 1.98392E+01-2.68714E-02-8.27273E-05 1.86530E-01-9.62427E-14-2.42322E-13
 -1       492 1.98537E+01-3.55912E-02-9.82391E-05 1.73094E-01-9.86669E-14-2.33936E-13
 -1       493 1.98717E+01-3.83463E-02-1.01044E-04 1.53693E-01-4.99917E-14-1.49432E-13
 -1       494 1.98908E+01-3.72449E-02-9.56945E-05 1.32182E-01-1.65237E-14-9.37611E-14
 -1       495 1.99094E+01-3.37003E-02-8.52674E-05 1.11110E-01-7.11518E-14-1.43231E-13
 -1       496 1.99268E+01-2.86269E-02-7.17734E-05 9.21435E-02-1.25393E-13-1.08668E-13
 -1       497 1.99428E+01-2.25716E-02-5.63832E-05 7.63775E-02-1.59609E-13-5.11512E-14
 -1       498 1.99576E+01-1.58074E-02-3.96424E-05 6.45700E-02-1.56913E-13-1.70448E-13
 -1       499 1.99718E+01-8.40355E-03-2.16224E-05 5.73128E-02-1.78484E-14-1.82103E-13
 -1       500 1.99858E+01-2.80954E-04-2.07485E-06 5.51591E-02-1.31314E-13-2.17971E-13
 -1       501 2.00008E+01 8.73663E-03 1.94523E-05 5.87118E-02-1.04552E-13-1.21093E-13
 -1       502 2.00177E+01 1.88702E-02 4.34809E-05 6.86755E-02 4.26378E-15-1.66200E-13
 -1       503 2.00377E+01 3.03233E-02 7.04437E-05 8.58684E-02 7.42927E-14-4.38594E-14
 -1       504 2.00624E+01 4.32009E-02 1.00461E-04 1.11188E-01 4.19281E-17-8.25356E-14
 -1       505 2.00931E+01 5.73960E-02 1.33026E-04 1.45515E-01-1.42709E-13-1.31953E-13
 -1       506 2.01318E+01 7.24302E-02 1.66555E-04 1.89535E-01-1.83482E-14-1.70861E-13
 -1       507 2.01803E+01 8.72332E-02 1.97772E-04 2.43454E-01 3.19641E-14-3.17943E-13
 -1       508 2.02407E+01 9.98470E-02 2.20904E-04 3.06554E-01 2.45672E-14-4.15685E-13
 -1       509 2.03153E+01 1.07057E-01 2.26728E-04 3.76586E-01-4.86523E-14-4.07399E-13
 -1       510 2.04067E+01 1.03976E-01 2.01646E-04 4.48923E-01-1.68127E-14-2.77715E-13
 -1       511 2.05177E+01 8.36823E-02 1.27200E-04 5.15520E-01 1.87722E-14-1.63239E-13
 -1       512 2.06513E+01 3.71417E-02-1.91837E-05 5.63696E-01 1.60369E-14 2.85961E-14
 -1       513 2.08108E+01-4.61306E-02-2.60953E-04 5.74978E-01-3.25081E-14 1.30567E-13
 -1       514 2.09986E+01-1.75864E-01-6.14078E-04 5.24467E-01 4.45464E-14 1.90365E-13
 -1       515 2.12147E+01-3.56132E-01-1.07246E-03 3.81677E-01 2.54315E-15 1.04394E-13
 -1       516 2.14520E+01-5.76562E-01-1.56085E-03 1.14627E-01-4.36189E-14 1.12944E-14
 -1       517 2.16888E+01-7.99790E-01-1.90023E-03-2.99988E-01 1.87213E-13 8.12590E-14
 -1       518 2.18797E+01-9.49774E-01-1.95415E-03-8.57055E-01 8.92508E-14-5.87589E-14
 -1       519 2.19525E+01-9.14364E-01-1.70759E-03-1.49345E+00-1.19556E-13-2.37993E-13
 -1       520 2.18276E+01-5.82695E-01-4.98529E-04-2.06063E+00-2.09586E-13-2.33198E-13
 -1       521 2.14699E+01 6.88750E-02 1.37713E-03-2.33195E+00-6.20538E-14 7.12603E-15
 -1       522 2.09607E+01 8.77231E-01 1.78566E-03-2.09332E+00-6.74012E-14 1.33144E-13
 -1       523 2.04986E+01 1.51252E+00 8.11636E-04-1.30845E+00 1.66184E-14-4.62565E-14
 -1       524 2.02808E+01 1.66229E+00 5.18175E-04-2.26196E-01 1.58618E-13 7.82549E-14
 -1       525 2.03279E+01 1.29013E+00 1.19486E-03 7.41197E-01 1.54398E-13 4.31086E-13
 -1       526 2.04689E+01 6.55890E-01 2.26063E-03 1.29507E+00 2.01606E-13 3.10771E-13
 -1       527 2.04955E+01 6.47102E-02 1.05040E-03 1.40153E+00-1.78491E-13 2.10738E-13
 -1       528 1.98108E+01 1.29001E-01 1.00133E-03-2.05052E-02 1.17185E-13 1.78018E-14
 -1       529 1.97530E+01 5.95366E-02 3.64574E-04-1.19010E-01 2.97654E-14-2.73383E-14
 -1       530 1.97342E+01 1.77336E-02 8.35675E-05-1.67095E-01 5.90931E-14-1.51485E-14
 -1       531 1.97402E+01-7.07805E-03-5.30734E-05-1.83657E-01 1.34099E-13 1.03049E-14
 -1       532 1.97604E+01-2.10105E-02-1.23167E-04-1.81018E-01 1.11409E-13 1.91432E-14
 -1       533 1.97878E+01-2.78495E-02-1.55705E-04-1.67359E-01 9.24052E-14-1.05854E-14
 -1       534 1.98176E+01-3.00628E-02-1.64760E-04-1.48140E-01 1.03465E-13-2.18538E-14
 -1       535 1.98470E+01-2.93036E-02-1.58839E-04-1.26984E-01 9.12787E-14-8.70588E-14
 -1       536 1.98744E+01-2.66790E-02-1.43604E-04-1.06263E-01 5.63903E-14-7.96655E-14
 -1       537 1.98990E+01-2.29067E-02-1.22761E-04-8.75079E-02 6.89393E-14-2.30331E-14
 -1       538 1.99209E+01-1.84174E-02-9.84883E-05-7.17079E-02 5.86760E-14 3.48591E-15
 -1       539 1.99404E+01-1.34229E-02-7.18718E-05-5.95362E-02 1.69846E-13 1.76972E-16
 -1       540 1.99584E+01-7.96445E-03-4.31011E-05-5.15210E-02 1.06357E-13 6.79584E-14
 -1       541 1.99758E+01-1.94488E-03-1.16491E-05-4.81802E-02 4.27523E-14 1.73781E-13
 -1       542 1.99940E+01 4.85082E-03 2.36176E-05-5.01309E-02-9.58342E-14 1.17933E-13
 -1       543 2.00143E+01 1.27446E-02 6.43829E-05-5.81826E-02 5.09704E-14-9.11245E-14
 -1       544 2.00386E+01 2.21620E-02 1.12884E-04-7.34199E-02 1.10581E-13-1.89213E-13
 -1       545 2.00690E+01 3.36356E-02 1.71937E-04-9.72795E-02 4.90141E-14-1.38631E-13
 -1       546 2.01078E+01 4.78119E-02 2.44957E-04-1.31624E-01-5.40505E-15-8.50683E-14
 -1       547 2.01577E+01 6.54576E-02 3.35936E-04-1.78812E-01-9.15035E-14-3.14950E-13
 -1       548 2.02218E+01 8.74499E-02 4.49257E-04-2.41752E-01-4.44131E-14-4.14371E-13
 -1       549 2.03033E+01 1.14727E-01 5.89070E-04-3.23928E-01 1.64172E-14-4.28447E-13
 -1       550 2.04058E+01 1.48139E-01 7.57744E-04-4.29329E-01 3.68397E-14-4.41219E-13
 -1       551 2.05327E+01 1.88098E-01 9.52410E-04-5.62210E-01-3.97206E-14-2.26095E-13
 -1       552 2.06873E+01 2.33808E-01 1.15801E-03-7.26478E-01-9.25077E-15-1.06485E-13
 -1       553 2.08725E+01 2.81738E-01 1.33459E-03-9.24410E-01 1.00990E-13-1.04156E-14
 -1       554 2.10915E+01 3.22760E-01 1.39724E-03-1.15417E+00 1.21335E-14-9.94019E-14
 -1       555 2.13494E+01 3.37239E-01 1.19234E-03-1.40535E+00-1.78968E-13 1.91980E-13
 -1       556 2.16579E+01 2.87661E-01 4.91920E-04-1.65147E+00-1.05205E-13 2.99825E-13
 -1       557 2.20443E+01 1.10439E-01-9.20433E-04-1.83814E+00 2.61221E-14 2.68442E-13
 -1       558 2.25650E+01-2.84898E-01-3.17754E-03-1.86678E+00 1.94628E-14 2.91951E-13
 -1       559 2.33135E+01-9.86972E-01-6.20166E-03-1.57740E+00 5.64198E-14 4.17528E-13
 -1       560 2.43936E+01-1.97372E+00-7.28490E-03-7.43729E-01-1.53955E-14 3.50717E-13
 -1       561 2.57815E+01-2.87119E+00-7.37404E-03 8.36640E-01-9.01076E-14 5.50599E-13
 -1       562 2.70829E+01-2.69526E+00-2.73868E-02 3.02812E+00-1.29998E-13 2.31671E-13
 -1       563 2.73956E+01-4.69659E-01-9.14825E-02 4.76788E+00-2.92651E-13 2.26512E-13
 -1       564 2.58391E+01 4.50666E+00-2.23969E-01 7.92085E-01 1.24067E-13 1.11067E-13
 -1       565 2.61766E+01 2.27232E+00-1.18555E-01-1.78808E+00 1.44537E-13-2.69298E-14
 -1       566 2.61705E+01-7.53819E-01-7.38407E-02-1.96769E+00-2.55625E-13 1.52402E-13
 -1       567 2.51460E+01-2.20371E+00-2.50326E-02-3.52053E-01 1.74753E-13-6.62343E-14
 -1       568 2.34790E+01-1.65477E+00-8.35645E-03 1.21875E+00 4.04187E-13-3.20978E-13
 -1       569 1.54022E+01 5.50683E-01 1.58697E-01 6.33830E+00-9.44210E-14-2.78715E-13
 -1       570 1.12585E+01 2.20984E+00 1.63340E-01 1.38233E+00 4.92601E-13-1.76192E-13
 -1       571 2.38200E+01-2.42239E+00 1.96141E-02 4.60794E+00 2.66034E-13 1.00045E-13
 -1       572 2.08638E+01-1.89858E+00 6.36799E-02 6.94769E+00-1.59258E-13-3.21462E-13
 -1       573 1.27021E+01 1.63484E+00 1.69590E-01-4.87152E+00 1.11394E-13 8.28157E-14
 -1       574 1.81835E+01-5.89414E-01 9.99052E-02-7.78452E+00 1.99448E-13-1.69035E-13
 -1       575 2.26636E+01-2.09377E+00 4.67237E-02-6.73110E+00-6.65006E-14-1.56821E-13
 -1       576 2.41112E+01-2.17286E+00 1.39382E-02-4.08936E+00-6.10484E-14-1.94867E-13
 -1       577 2.36098E+01-1.58406E+00 7.87386E-03-1.66575E+00-1.65101E-14-5.79298E-14
 -1       578 2.24122E+01-9.62649E-01 3.89742E-03-3.08632E-04-9.71242E-14 4.24539E-13
 -1       579 2.12354E+01-5.38937E-01 5.09102E-03 9.40702E-01-2.00163E-13 6.47499E-13
 -1       580 2.06531E+01-5.50993E+00 1.10117E-01 8.51796E+00-6.47329E-14-7.64076E-14
 -1       581 8.28988E+00-3.14333E-01 2.19644E-01-4.17223E+00 2.36828E-13-9.34669E-14
 -1       582 1.99256E+01 2.46413E-01 2.45854E-03 1.57937E-01 1.71954E-13 6.98085E-14
 -1       583 7.16149E+00-7.92668E-01 1.84019E-01 2.78368E+00 3.43895E-13 2.73934E-13
 -1       584 2.58256E+01-6.65717E+00 2.64069E-02 6.65521E+00 2.20539E-13-5.32758E-13
 -1       585 2.03909E+01 1.75524E+00-5.22320E-03-1.52134E+00-3.04473E-13-2.13588E-13
 -1       586 1.24835E+01-2.79978E+00 1.33682E-01-8.39647E+00-1.57929E-13-1.94553E-13
 -1       587 1.96794E+01 3.19849E+00-5.11734E-03-3.12761E-01 1.08446E-14-4.32154E-13
 -1       588 3.13823E+01 6.98639E+00-2.03609E-01 1.88901E+00 3.00732E-13 1.16717E-13
 -1       589 3.34835E+01 1.26110E+00-1.21228E-01-7.79373E-01-2.39739E-14-3.83804E-13
 -1       590 3.19294E+01 5.62815E+00-1.82929E-01-8.22535E-01 1.68074E-13-1.60753E-13
 -1       591 3.19797E+01-8.36166E-01-1.55139E-01 3.81070E+00-1.45075E-13 2.33230E-13
 -1       592 2.99992E+01-5.26740E+00-6.99715E-02 3.00947E-01 1.37595E-13 3.64014E-13
 -1       593 2.57800E+01-7.13879E+00 3.46212E-02-3.05790E+00 1.10627E-13 3.50907E-13
 -1       594 1.74688E+01-6.77802E+00 8.34806E-02-6.05607E+00 3.24324E-14-2.16438E-13
 -1       595 9.57772E+00-5.12230E+00 1.33757E-01-5.70421E+00 9.12742E-14-2.75543E-13
 -1       596 4.93091E+00-3.23351E+00 1.74287E-01-2.73515E+00-6.23460E-15-3.58547E-13
 -1       597 4.55976E+00-2.26132E+00 2.05698E-01 1.94734E+00-4.54827E-14 1.15394E-13
 -1       598 8.22508E+00-4.14934E+00 1.58693E-01 6.34615E+00-1.02002E-13-2.35104E-13
 -1       599 1.47587E+01-5.81192E+00 9.55591E-02 7.58027E+00 1.34504E-13-4.21510E-13
 -1       600 2.35457E+01-6.54701E+00 5.38697E-02 5.70326E+00 5.96190E-14 1.12597E-13
 -1       601 2.88288E+01-4.84465E+00-3.96132E-02 2.42868E+00-3.67137E-14-1.10204E-13
 -1       602 3.12563E+01-6.52915E-01-1.19483E-01-1.69112E+00 1.48419E-13 1.20688E-13
 -1       603 3.14378E+01 4.91891E+00-1.86900E-01-2.86864E+00 7.20951E-14-8.57231E-14
 -1       604 3.06009E+01 8.00145E+00-2.18670E-01-1.45591E+00 1.30174E-14-1.67946E-13
 -1       605 3.25902E+01 7.56185E+00-1.91319E-01 3.21324E-01 2.85258E-13-5.41928E-15
 -1       606 3.29080E+01 3.44925E+00-1.39979E-01 6.40379E-01 3.63695E-13 8.83738E-14
 -1       607 3.12333E+01-2.77302E+00-9.76266E-02-2.03918E+00 2.20685E-13 9.85462E-14
 -1       608 2.84536E+01-5.23285E+00 3.63867E-02-5.67451E+00 2.04142E-14 9.90874E-15
 -1       609 2.17605E+01-5.73537E+00 1.27253E-01-9.01243E+00-1.51393E-13 1.49251E-13
 -1       610 1.22100E+01-2.83541E+00 1.91164E-01 7.49041E+00 2.01242E-13 1.80703E-13
 -1       611 2.05863E+01 1.30527E+00-9.99535E-04 1.54725E+00 3.79374E-13 1.80914E-13
 -1       612 3.16022E+01-4.33556E+00-5.60999E-02 2.37682E+00-2.03431E-14-3.83138E-13
 -1       613 1.99792E+01 2.65303E+00-6.44074E-03-1.24409E+00-2.05855E-13-3.88424E-13
 -1       614 2.03850E+01-2.53679E-01 8.36853E-04 1.31180E+00-3.34556E-13 2.36098E-13
 -1       615 2.01668E+01 2.27846E+00-5.82339E-03-1.43595E+00-2.65568E-13-3.38406E-13
 -1       616 1.99590E+01 2.44967E+00-1.58588E-03 3.93882E-01 1.38264E-13-3.39208E-13
 -1       617 1.99270E+01 2.52460E+00-1.51479E-03 1.35650E-01 9.61182E-14-3.70283E-13
 -1       618 2.01197E+01 2.04625E+00-1.58437E-03 8.49780E-01 2.49432E-13-2.26149E-13
 -1       619 2.02394E+01 1.67552E+00-2.21765E-03 9.91119E-01 2.88012E-13-1.30167E-13
 -1       620 2.03196E+01 1.03695E+00 2.86177E-03 8.30781E-01 2.79473E-13-6.10127E-14
 -1       621 2.93066E+01 1.12206E-01-9.64697E-02 6.80053E-01 5.24837E-13 5.97335E-14
 -1       622 2.02391E+01 6.77016E-01 5.45836E-04-3.93168E-01-1.67701E-13-2.26208E-13
 -1       623 2.01675E+01 3.91784E-01 1.47798E-04-1.39168E-01-1.52098E-13-1.74150E-13
 -1       624 2.01020E+01 2.12291E-01 5.50734E-05 2.27605E-02-8.86002E-14-1.81027E-13
 -1       625 2.00516E+01 9.79252E-02 4.55155E-06 1.17635E-01-1.01299E-13-1.90091E-13
 -1       626 2.00164E+01 2.61136E-02-1.58076E-05 1.66223E-01-8.34380E-14-1.97171E-13
 -1       627 1.99937E+01-1.73512E-02-2.63776E-05 1.84085E-01-6.41043E-14-2.08774E-13
 -1       628 1.99805E+01-4.17482E-02-3.17595E-05 1.82534E-01-1.00865E-13-1.68310E-13
 -1       629 1.99740E+01-5.33408E-02-3.33236E-05 1.69607E-01-4.76264E-14-1.27349E-13
 -1       630 1.99720E+01-5.64305E-02-3.21847E-05 1.50905E-01-1.39192E-15-1.74809E-13
 -1       631 1.99730E+01-5.39683E-02-2.92220E-05 1.30262E-01-4.63236E-14-1.52062E-13
 -1       632 1.99758E+01-4.79339E-02-2.51534E-05 1.10258E-01-1.30906E-14-2.08735E-14
 -1       633 1.99798E+01-3.95911E-02-2.04309E-05 9.26270E-02-9.92532E-14 1.76675E-14
 -1       634 1.99846E+01-2.96708E-02-1.53448E-05 7.85533E-02-2.47745E-13 7.55483E-14
 -1       635 1.99899E+01-1.85059E-02-9.95030E-06 6.89050E-02-1.57521E-13-5.40970E-15
 -1       636 1.99958E+01-6.13422E-03-4.17409E-06 6.44041E-02-4.59894E-14-4.11679E-14
 -1       637 2.00024E+01 7.61335E-03 2.13554E-06 6.57536E-02-5.55965E-14-8.05009E-14
 -1       638 2.00099E+01 2.30277E-02 9.14672E-06 7.37219E-02-5.94243E-14 1.61313E-14
 -1       639 2.00187E+01 4.04302E-02 1.70376E-05 8.91862E-02 6.74598E-14-3.50697E-14
 -1       640 2.00291E+01 6.00609E-02 2.59476E-05 1.13132E-01 7.85706E-14-5.14727E-14
 -1       641 2.00417E+01 8.19314E-02 3.58974E-05 1.46603E-01-3.64421E-14 4.05424E-14
 -1       642 2.00573E+01 1.05621E-01 4.66766E-05 1.90578E-01-1.67372E-13 1.32357E-13
 -1       643 2.00768E+01 1.29995E-01 5.76873E-05 2.45770E-01-3.02816E-14 2.72966E-14
 -1       644 2.01016E+01 1.52831E-01 6.77246E-05 3.12307E-01 1.38369E-15-8.85709E-14
 -1       645 2.01340E+01 1.70329E-01 7.46850E-05 3.89264E-01 7.92727E-14-9.71581E-14
 -1       646 2.01770E+01 1.76535E-01 7.52037E-05 4.74025E-01-7.76845E-14-8.87798E-14
 -1       647 2.02357E+01 1.62739E-01 6.42309E-05 5.61430E-01-2.77411E-14-1.44674E-13
 -1       648 2.03174E+01 1.17036E-01 3.45346E-05 6.42678E-01 1.87010E-13 3.02622E-14
 -1       649 2.04329E+01 2.44713E-02-2.39308E-05 7.04005E-01 1.33604E-13 4.21584E-14
 -1       650 2.05965E+01-1.31473E-01-1.25047E-04 7.25157E-01 3.90106E-14 1.46266E-13
 -1       651 2.08263E+01-3.64679E-01-2.84357E-04 6.77924E-01-1.56257E-13 1.22809E-13
 -1       652 2.11397E+01-6.77550E-01-5.17764E-04 5.25479E-01 1.38960E-14 1.45331E-13
 -1       653 2.15453E+01-1.04529E+00-7.28319E-04 2.24590E-01-1.12318E-14 9.33282E-14
 -1       654 2.20253E+01-1.39320E+00-6.96490E-04-2.64210E-01-5.29821E-14-1.16812E-13
 -1       655 2.25121E+01-1.57574E+00-8.03457E-04-9.48912E-01-7.99272E-14-2.89720E-13
 -1       656 2.28738E+01-1.38636E+00-2.43709E-03-1.75389E+00-1.36418E-13-2.90192E-13
 -1       657 2.29502E+01-6.42850E-01-3.25846E-03-2.45817E+00-9.78638E-14-1.41016E-13
 -1       658 2.26682E+01 6.26370E-01-1.10586E-03-2.69271E+00-4.92089E-14-8.52743E-14
 -1       659 2.21613E+01 1.99752E+00-5.68119E-03-2.17138E+00-8.03687E-14-1.52924E-14
 -1       660 2.18074E+01 2.72945E+00-9.83751E-03-9.59215E-01 2.18873E-13 1.02200E-13
 -1       661 2.17927E+01 2.45476E+00-9.03719E-03 3.74360E-01 4.27821E-13 8.08821E-14
 -1       662 2.19686E+01 1.43277E+00-4.34053E-03 1.19369E+00 1.73214E-13 2.80304E-13
 -1       663 2.19658E+01 3.21287E-01 2.12758E-03 1.33020E+00 2.54067E-14 2.91066E-13
 -1       664 1.99734E+01 8.77262E-02 5.61837E-05-1.20096E-01 6.44526E-14-4.86735E-14
 -1       665 2.86979E+01 4.58627E+00-1.48952E-01 1.29423E+00 2.55095E-13-2.56017E-13
 -1       666 2.00272E+01 1.89261E-01 1.73117E-04-2.17320E-02 9.11107E-14-3.61410E-14
 -1       667 1.99256E+01-1.35262E-02-2.89862E-05-1.87987E-01 9.28511E-14 3.88700E-14
 -1       668 1.99208E+01-3.49564E-02-4.49949E-05-1.86192E-01 1.39354E-13 9.46047E-15
 -1       669 1.99231E+01-4.52926E-02-5.20593E-05-1.72797E-01 7.74697E-14-1.65278E-14
 -1       670 1.99295E+01-4.82965E-02-5.28996E-05-1.53504E-01 1.22559E-13 2.06286E-15
 -1       671 1.99382E+01-4.65389E-02-4.96827E-05-1.32182E-01 3.31434E-14 5.45278E-14
 -1       672 1.99478E+01-4.17419E-02-4.40051E-05-1.11414E-01 3.71167E-14 1.28693E-13
 -1       673 1.99576E+01-3.50082E-02-3.67160E-05-9.29168E-02 4.88524E-14 1.33790E-13
 -1       674 1.99674E+01-2.69746E-02-2.84297E-05-7.78500E-02 1.63592E-13 9.90796E-14
 -1       675 1.99771E+01-1.79182E-02-1.93628E-05-6.70590E-02 7.45231E-14 1.18023E-13
 -1       676 1.99871E+01-7.83438E-03-9.44128E-06-6.12587E-02-1.09533E-14 1.38152E-13
 -1       677 1.99976E+01 3.51265E-03 1.64870E-06-6.11781E-02 3.34103E-14 1.52418E-13
 -1       678 2.00093E+01 1.65573E-02 1.43822E-05-6.76783E-02 7.15711E-14 6.61016E-14
 -1       679 2.00228E+01 3.19130E-02 2.94325E-05-8.18488E-02 8.32663E-14 9.15766E-14
 -1       680 2.00389E+01 5.03636E-02 4.77001E-05-1.05088E-01 1.13899E-13 4.76444E-14
 -1       681 2.00582E+01 7.28623E-02 7.02925E-05-1.39168E-01 1.23721E-13-8.48776E-14
 -1       682 2.00815E+01 1.00531E-01 9.85593E-05-1.86290E-01 9.94295E-15-1.43706E-13
 -1       683 2.01094E+01 1.34644E-01 1.34095E-04-2.49112E-01-4.64186E-14-1.51436E-13
 -1       684 2.01421E+01 1.76567E-01 1.78684E-04-3.30751E-01-4.81806E-14-1.05730E-13
 -1       685 2.01791E+01 2.27599E-01 2.34097E-04-4.34716E-01 2.09304E-14 1.30295E-14
 -1       686 2.02194E+01 2.88598E-01 3.01527E-04-5.64742E-01-7.27183E-14 1.23054E-13
 -1       687 2.02607E+01 3.59200E-01 3.80263E-04-7.24452E-01-6.95642E-14 1.56574E-13
 -1       688 2.03000E+01 4.36280E-01 4.64786E-04-9.16735E-01 4.17675E-14 6.84015E-14
 -1       689 2.03338E+01 5.11097E-01 5.39154E-04-1.14273E+00 1.74463E-14 2.36509E-13
 -1       690 2.03616E+01 5.64328E-01 5.67960E-04-1.40024E+00-7.44847E-14 2.84005E-13
 -1       691 2.03913E+01 5.58131E-01 4.93233E-04-1.68141E+00-4.97156E-14-5.27030E-14
 -1       692 2.04523E+01 4.24982E-01 2.75885E-04-1.96903E+00-7.79976E-14-5.89136E-14
 -1       693 2.06188E+01 5.63438E-02 2.85870E-04-2.22902E+00-1.39153E-13 1.08319E-13
 -1       694 2.10404E+01-6.93227E-01 1.29126E-03-2.39168E+00-8.28619E-14 2.90397E-13
 -1       695 2.19650E+01-1.95408E+00 2.51518E-03-2.31059E+00 1.58565E-14 6.36521E-13
 -1       696 2.37526E+01-3.67925E+00 5.67036E-03-1.66193E+00-1.01181E-13 6.37470E-13
 -1       697 2.65021E+01-5.04617E+00 1.99707E-03-2.62364E-02 3.87520E-14 5.30699E-13
 -1       698 2.20507E+01-4.25814E+00 7.00972E-02-8.43980E+00-1.03098E-13-9.94708E-14
 -1       699 2.64566E+01-3.97837E+00 1.90484E-02-4.90796E+00 5.27506E-14 5.46473E-14
 -1       700 2.60029E+01-2.42710E+00-1.17973E-02-1.88169E+00-1.78297E-14-1.01785E-15
 -1       701 2.42714E+01-1.09201E+00-6.53122E-03-7.11735E-03 3.14464E-13 7.01088E-14
 -1       702 2.02879E+01 1.43072E+00 1.23332E-03-9.93693E-01-2.47209E-13-2.60975E-13
 -1       703 2.84102E+01-5.28666E+00-1.42854E-02 3.27095E+00 7.00134E-14-6.63677E-13
 -1       704 2.01056E+01 3.53095E-01 6.09277E-04 1.48268E-01 1.74145E-13-4.15070E-14
 -1       705 2.86483E+01-3.48330E+00-7.27674E-02 4.64715E-01-6.96136E-14-3.93175E-13
 -1       706 1.99414E+01 2.45549E-02 8.74651E-07-1.69912E-01 4.30993E-14-3.64247E-14
 -1       707 2.02823E+01 9.80184E-01-1.10458E-03-6.62434E-01-1.85554E-13-2.48582E-13
 -1       708 2.00231E+01 2.29510E+00-1.65486E-03 6.37439E-01 2.01193E-13-2.68488E-13
 -1       709 2.00178E+01 2.30551E+00-1.63917E-03-6.28581E-01-9.74043E-14-3.65899E-13
 -1       710 2.02063E+01 6.13935E-01 9.76147E-04 4.19597E-01 2.01385E-13-3.72560E-14
 -1       711 1.51174E+01-4.41812E+00 1.18266E-01-5.49923E+00-3.79904E-15-2.95011E-13
 -1       712 2.76622E+01 5.52254E+00-1.43522E-01-2.66537E+00 5.05498E-14 1.92242E-14
 -1       713 2.16468E+01-2.02117E-01 7.88918E-04 1.17141E+00 5.73412E-14 5.19002E-13
 -1       714 2.25195E+01-5.82700E+00 7.82680E-02-3.78204E+00-7.00065E-14 2.41512E-13
 -1       715 1.01002E+01-2.47999E+00 1.57858E-01-4.29338E+00-2.45349E-13-4.08902E-13
 -1       716 7.23371E+00-9.77841E-01 1.71223E-01-7.93392E-01-2.16829E-13 2.83454E-14
 -1       717 9.17170E+00-1.56615E+00 1.53953E-01 4.28082E+00 1.80515E-14-2.01887E-13
 -1       718 1.34185E+01-3.69801E+00 1.21705E-01 6.54601E+00 4.69902E-14-2.35811E-13
 -1       719 2.05489E+01-5.66602E+00 7.09034E-02 5.92013E+00 2.05769E-13-2.56080E-14
 -1       720 2.63012E+01-5.83335E+00 7.75696E-03 2.93161E+00 1.52715E-13 4.11979E-14
 -1       721 2.87570E+01-3.62161E+00-5.78471E-02-3.05921E-01 3.89428E-14 1.60275E-13
 -1       722 2.84386E+01 1.59164E+00-1.02103E-01-3.27131E+00 2.52728E-13-7.21645E-16
 -1       723 2.87948E+01-3.09449E+00-5.96388E-02-1.89493E+00 1.69478E-13-1.78095E-13
 -1       724 2.73205E+01 6.52349E+00-1.52484E-01-9.47265E-02 2.40995E-13-2.29776E-13
 -1       725 3.02387E+01-2.16405E+00-9.65168E-02-6.92670E-01-1.45089E-13-2.78229E-13
 -1       726 2.86669E+01-4.00586E+00-5.28122E-02 2.47064E+00 2.21524E-14 3.77282E-13
 -1       727 2.50839E+01-4.61233E+00 3.30907E-02 5.61478E+00-1.26831E-13-4.52615E-13
 -1       728 2.01187E+01 2.05609E+00-6.03362E-04-8.44407E-01-1.76020E-13-3.36701E-13
 -1       729 1.99261E+01 2.52624E+00-1.50336E-03-1.26491E-01 2.44767E-14-3.85566E-13
 -1       730 1.99560E+01 2.45520E+00-1.56212E-03-3.84573E-01-3.26243E-14-3.64517E-13
 -1       731 3.02016E+01 1.11328E+00-1.42260E-01-1.77715E+00 1.67921E-15 8.25034E-15
 -1       732 2.57742E+01-3.40165E+00 1.03054E-02 2.37177E+00 5.16190E-13-1.17818E-13
 -1       733 2.77929E+01-1.35367E+00-3.64202E-02-2.53827E+00 1.70375E-13 8.65905E-14
 -1       734 9.51803E+00-2.32000E-01 1.18300E-01 1.82854E+00-3.04886E-14 9.81958E-14
 -1       735 2.02713E+01 1.30144E+00 8.41636E-04 6.30106E-01 1.97549E-13-1.41463E-13
 -1       736 2.53701E+01 4.25949E+00-7.44453E-02 8.69430E-01 1.57084E-13-3.94944E-14
 -1       737 2.02614E+01 4.32780E-01 9.16929E-06-9.31714E-02-1.17601E-13-2.29029E-13
 -1       738 2.02212E+01 2.33897E-01-5.19176E-06 3.61930E-02-1.15418E-13-2.16547E-13
 -1       739 2.01796E+01 1.03332E-01-1.06243E-05 1.13226E-01-6.67595E-14-1.86161E-13
 -1       740 2.01419E+01 2.00905E-02-9.85735E-06 1.52597E-01-7.80677E-14-1.86977E-13
 -1       741 2.01099E+01-3.03287E-02-9.44650E-06 1.66356E-01-4.37385E-14-1.50988E-13
 -1       742 2.00838E+01-5.81289E-02-9.02318E-06 1.63766E-01-4.56011E-14-1.04206E-13
 -1       743 2.00630E+01-7.05253E-02-8.48983E-06 1.51631E-01-3.29108E-14-4.18509E-14
 -1       744 2.00470E+01-7.26068E-02-7.71400E-06 1.34795E-01-1.05426E-15-4.58524E-14
 -1       745 2.00348E+01-6.78939E-02-6.68292E-06 1.16622E-01 4.01703E-14-7.51933E-14
 -1       746 2.00259E+01-5.87346E-02-5.37925E-06 9.94209E-02-9.41954E-14-1.05546E-13
 -1       747 2.00195E+01-4.65968E-02-4.14126E-06 8.47801E-02-1.67721E-13-5.93147E-14
 -1       748 2.00151E+01-3.22888E-02-3.03320E-06 7.38304E-02-1.91152E-13 4.46433E-14
 -1       749 2.00121E+01-1.61232E-02-1.92206E-06 6.74446E-02-8.72959E-14 6.71021E-14
 -1       750 2.00100E+01 1.95220E-03-6.23736E-07 6.63954E-02-1.10590E-13 6.50089E-14
 -1       751 2.00084E+01 2.22313E-02 8.56365E-07 7.14694E-02-1.15186E-14 5.03322E-14
 -1       752 2.00069E+01 4.51272E-02 2.51716E-06 8.35387E-02 2.51914E-14 3.84208E-14
 -1       753 2.00050E+01 7.10381E-02 4.41045E-06 1.03596E-01 7.10007E-14 2.84726E-14
 -1       754 2.00024E+01 1.00179E-01 6.60183E-06 1.32753E-01 2.38281E-14-1.56296E-14
 -1       755 1.99989E+01 1.32359E-01 9.13711E-06 1.72190E-01-5.80278E-14-3.49741E-15
 -1       756 1.99944E+01 1.66673E-01 1.20209E-05 2.23047E-01-9.89915E-14 5.63149E-15
 -1       757 1.99895E+01 2.01090E-01 1.51861E-05 2.86252E-01-1.19841E-13-4.58794E-14
 -1       758 1.99853E+01 2.31919E-01 1.84491E-05 3.62249E-01 3.69842E-15-1.42002E-13
 -1       759 1.99846E+01 2.53134E-01 2.14423E-05 4.50616E-01 5.19556E-14-1.41277E-13
 -1       760 1.99923E+01 2.55603E-01 2.34950E-05 5.49538E-01-7.28025E-14 9.39477E-14
 -1       761 2.00165E+01 2.26318E-01 2.33159E-05 6.55069E-01 8.58101E-14 2.29394E-13
 -1       762 2.00705E+01 1.47906E-01 1.80259E-05 7.60094E-01 3.39095E-14 9.12382E-14
 -1       763 2.01739E+01-1.05999E-03 7.65160E-07 8.52783E-01-4.21615E-14-1.14980E-13
 -1       764 2.03548E+01-2.43869E-01-4.48906E-05 9.14197E-01 3.26656E-14-3.52479E-13
 -1       765 2.06492E+01-5.99669E-01-1.41965E-04 9.14654E-01 2.15115E-14-6.12424E-14
 -1       766 2.10972E+01-1.07048E+00-3.42636E-04 8.08848E-01-3.86860E-14-2.83986E-15
 -1       767 2.17296E+01-1.61633E+00-3.48798E-04 5.31761E-01-1.34460E-13 2.25277E-13
 -1       768 2.25378E+01-2.11498E+00 4.76140E-04 4.90353E-03-2.60171E-13 2.19609E-13
 -1       769 2.34240E+01-2.31764E+00-2.19449E-04-8.21889E-01-1.97087E-13 2.75108E-14
 -1       770 2.41744E+01-1.84519E+00-4.00268E-03-1.89468E+00 8.83061E-15-5.54999E-14
 -1       771 2.44985E+01-4.25369E-01-5.50670E-03-2.86722E+00 1.79338E-13 6.92823E-14
 -1       772 2.41426E+01 1.79601E+00-4.21581E-02-3.03208E+00 7.66245E-14 1.36356E-13
 -1       773 2.36737E+01 3.67119E+00-4.15527E-02-1.95862E+00 1.32504E-13 2.13380E-13
 -1       774 2.37501E+01 2.69436E+00-3.38354E-02 1.08647E+00 3.70103E-13 9.43137E-14
 -1       775 2.38711E+01 7.68266E-01-1.38389E-02 1.28162E+00 1.53382E-13 1.37466E-13
 -1       776 2.01701E+01 2.23812E-01 4.60595E-06-3.28322E-02 6.93888E-14-8.34273E-14
 -1       777 2.00402E+01-5.08839E-02-1.37555E-05-1.73547E-01 7.85570E-14-5.51104E-14
 -1       778 2.00609E+01-2.45639E-02-1.17632E-05-1.75909E-01 1.08844E-13-6.47492E-14
 -1       779 2.00155E+01-6.55928E-02-1.33679E-05-1.42920E-01 2.98383E-14-7.82842E-14
 -1       780 2.00090E+01-6.19852E-02-1.24312E-05-1.23436E-01-1.06556E-14-1.35956E-13
 -1       781 2.00052E+01-5.43345E-02-1.07942E-05-1.04808E-01 3.42020E-14-1.24024E-13
 -1       782 2.00035E+01-4.40128E-02-8.78455E-06-8.87005E-02 8.74903E-14-1.36500E-13
 -1       783 2.00033E+01-3.17618E-02-6.54707E-06-7.62850E-02 4.22580E-14 1.02030E-13
 -1       784 2.00043E+01-1.78420E-02-4.13071E-06-6.84697E-02 8.27697E-14 1.29186E-13
 -1       785 2.00063E+01-2.13263E-03-1.39577E-06-6.60659E-02-2.70487E-14 9.58871E-15
 -1       786 2.00090E+01 1.58052E-02 1.69854E-06-6.99224E-02-2.61399E-14 9.13472E-14
 -1       787 2.00121E+01 3.66797E-02 5.23788E-06-8.10333E-02 2.43087E-14 3.41959E-13
 -1       788 2.00153E+01 6.14361E-02 9.47504E-06-1.00615E-01 1.31377E-13 3.26290E-13
 -1       789 2.00183E+01 9.12372E-02 1.46586E-05-1.30161E-01 1.84633E-13 2.60820E-13
 -1       790 2.00201E+01 1.27447E-01 2.11071E-05-1.71471E-01 1.07038E-13 2.73961E-13
 -1       791 2.00197E+01 1.71601E-01 2.92227E-05-2.26656E-01-5.12555E-15 2.29493E-13
 -1       792 2.00151E+01 2.25343E-01 3.95189E-05-2.98104E-01-1.68952E-15 2.43639E-13
 -1       793 2.00035E+01 2.90269E-01 5.26646E-05-3.88394E-01-9.32941E-14 9.02198E-14
 -1       794 1.99808E+01 3.67619E-01 6.95287E-05-5.00167E-01-8.16574E-14 1.08612E-13
 -1       795 1.99411E+01 4.57632E-01 9.11491E-05-6.35930E-01-1.03528E-13 1.31228E-13
 -1       796 1.98770E+01 5.58333E-01 1.18342E-04-7.97857E-01 8.45773E-15 1.42637E-13
 -1       797 1.97793E+01 6.63342E-01 1.50196E-04-9.87677E-01-7.76021E-14 4.93551E-14
 -1       798 1.96388E+01 7.58090E-01 1.80453E-04-1.20694E+00-9.00126E-14 4.37345E-14
 -1       799 1.94502E+01 8.13667E-01 1.92124E-04-1.45814E+00 9.75500E-14 1.26061E-13
 -1       800 1.92199E+01 7.77403E-01 2.06931E-04-1.74737E+00-9.88773E-14 1.82346E-13
 -1       801 1.89813E+01 5.60419E-01 3.97896E-04-2.08866E+00-6.24350E-14 7.99982E-14
 -1       802 1.88259E+01 1.55958E-02 1.72749E-03-2.51248E+00-2.63816E-13 1.64153E-14
 -1       803 1.89529E+01-1.06027E+00 6.58702E-03-3.04566E+00-1.91096E-13-2.76064E-14
 -1       804 1.99047E+01-2.85370E+00 4.41844E-02-3.58883E+00-1.99239E-13 1.45378E-13
 -1       805 2.63857E+01 1.61080E+00-4.97432E-02 1.35133E+00 3.19742E-13-1.18085E-13
 -1       806 1.31594E+01-1.87384E+00 8.47849E-02 4.98284E+00 1.37433E-13-9.99513E-14
 -1       807 2.57061E+01 2.78136E+00-7.14074E-02-3.15386E+00 9.31217E-14-3.56603E-14
 -1       808 2.02200E+01 4.13544E-01-1.54459E-04 1.10584E-01 1.31393E-13-6.25599E-14
 -1       809 2.02116E+01 1.77389E+00 7.61338E-04-9.53058E-01-2.13460E-13-3.08875E-13
 -1       810 1.07247E+01-6.46030E-01 1.03777E-01-2.43641E+00-2.94902E-13-2.27745E-13
 -1       811 2.65013E+01-6.18410E-01-3.48260E-02 4.75583E-01 3.65474E-13 3.75954E-13
 -1       812 1.42795E+01-2.19293E+00 6.81566E-02-4.32012E+00-3.25651E-13-5.16427E-13
 -1       813 2.00256E+01-6.29827E-02-1.41003E-05-1.60816E-01 8.06067E-14-7.59578E-14
 -1       814 2.02871E+01 7.32500E-01-2.26812E-05-2.90926E-01-1.18966E-13-2.74037E-13
 -1       815 2.02762E+01 9.43746E-01 1.33938E-05 5.52208E-01 1.93500E-13-7.64670E-14
 -1       816 2.01374E+01 1.88900E+00-3.29510E-04 1.98986E-01 1.14348E-13-3.31247E-13
 -1       817 2.47820E+01 5.05516E+00-7.29285E-02-1.42626E+00 2.19519E-13 1.14323E-13
 -1       818 1.75592E+01-3.78611E+00 6.64829E-02 5.61997E+00 3.81396E-14-3.45973E-14
 -1       819 2.37230E+01-5.37152E+00 1.03867E-02 3.54906E+00 1.29672E-13 1.21407E-13
 -1       820 2.66380E+01-4.67164E+00-2.31096E-02 6.94664E-01 7.35900E-14 1.94266E-13
 -1       821 2.01257E+01 1.92725E+00-3.02657E-04 3.27051E-03 5.98748E-14-3.14365E-13
 -1       822 2.02181E+01 1.58251E+00-2.75965E-04 5.33685E-01 1.65991E-13-2.30451E-13
 -1       823 2.02916E+01 1.03339E+00-3.51496E-04-4.94535E-01-1.60256E-13-2.89176E-13
 -1       824 2.35216E+01 4.05819E+00-3.35381E-02-2.15227E-01 2.41928E-13 1.60231E-13
 -1       825 2.01252E+01 1.00738E-01-6.17953E-06-1.17381E-01 3.80490E-14-1.06715E-13
 -1       826 2.00888E+01 2.27253E-02-8.49987E-06-1.60557E-01 7.88376E-15-1.14842E-13
 -1       827 2.01694E+01 1.78105E+00-4.32260E-04-3.77863E-01-4.94474E-14-3.10852E-13
 -1       828 2.02163E+01 1.59292E+00 9.83666E-06-5.31754E-01-1.24800E-13-2.66331E-13
 -1       829 2.01700E+01 1.77560E+00-3.53618E-04 3.81331E-01 1.51316E-13-2.59994E-13
 -1       830 1.10630E+01 3.26651E-01 7.21940E-02-1.86802E-01-1.77380E-13 3.22135E-13
 -1       831 2.02539E+01 6.30758E-01-4.09075E-04 2.96693E-01 1.80536E-13-8.36232E-14
 -1       832 1.21603E+01-4.35715E-01 6.87326E-02 3.21214E+00 2.07997E-13 2.55698E-15
 -1       833 2.09430E+01-4.30917E+00 2.12543E-02 4.30711E+00 8.98279E-14-1.09071E-13
 -1       834 1.52473E+01-4.18817E-01 3.58379E-02-3.00993E+00-3.64290E-13-3.46266E-13
 -1       835 2.01363E+01 1.89231E+00-2.10247E-04-1.92226E-01 9.18029E-15-3.46881E-13
 -1       836 2.03032E+01 2.27015E-01 1.60665E-06 4.76352E-02-6.04271E-14-1.39140E-13
 -1       837 2.02669E+01 9.14211E-02-4.87056E-06 1.03227E-01-6.13425E-14-1.11031E-13
 -1       838 2.02275E+01 4.75699E-03-4.98474E-06 1.30740E-01-4.36801E-14-7.68549E-14
 -1       839 2.01894E+01-4.71422E-02-3.42583E-06 1.39048E-01-7.14320E-15-6.49161E-14
 -1       840 2.01547E+01-7.47222E-02-2.23094E-06 1.35134E-01-1.04662E-14-4.27556E-14
 -1       841 2.01243E+01-8.56189E-02-1.89577E-06 1.24237E-01-5.63216E-14-2.38558E-14
 -1       842 2.00987E+01-8.52879E-02-1.83906E-06 1.10117E-01-7.63126E-14-1.46550E-13
 -1       843 2.00774E+01-7.74954E-02-9.08111E-07 9.54266E-02-3.11755E-14-2.17466E-13
 -1       844 2.00599E+01-6.47210E-02-1.60317E-07 8.20119E-02-4.68448E-14-1.69999E-13
 -1       845 2.00457E+01-4.84670E-02-2.43980E-07 7.11820E-02-1.29889E-13-1.48596E-14
 -1       846 2.00338E+01-2.95005E-02-7.29525E-07 6.39023E-02-1.01019E-13 1.36735E-14
 -1       847 2.00235E+01-8.02283E-03-8.11259E-07 6.09634E-02-9.48600E-14-2.23137E-14
 -1       848 2.00137E+01 1.61664E-02-6.63927E-07 6.31191E-02-2.39557E-15 7.89759E-14
 -1       849 2.00034E+01 4.35107E-02-5.58659E-07 7.11756E-02-3.29815E-14 6.48710E-14
 -1       850 1.99917E+01 7.45448E-02-5.41520E-07 8.60504E-02 4.68704E-14-3.84780E-14
 -1       851 1.99773E+01 1.09720E-01-5.65025E-07 1.08811E-01 2.42656E-14-1.51550E-14
 -1       852 1.99592E+01 1.49180E-01-5.89549E-07 1.40686E-01-6.69384E-15-4.03316E-15
 -1       853 1.99364E+01 1.92456E-01-5.80579E-07 1.83049E-01-6.76934E-14-7.68785E-14
 -1       854 1.99082E+01 2.38071E-01-4.97575E-07 2.37368E-01-6.33031E-14-3.87637E-14
 -1       855 1.98746E+01 2.83008E-01-2.82430E-07 3.05123E-01-6.45736E-14 1.44522E-13
 -1       856 1.98368E+01 3.22031E-01 1.62497E-07 3.87670E-01 9.45298E-14 7.14179E-14
 -1       857 1.97980E+01 3.46861E-01 1.00923E-06 4.86058E-01 2.77151E-14-7.36587E-14
 -1       858 1.97646E+01 3.45240E-01 2.46806E-06 6.00740E-01 7.50179E-14-7.78320E-14
 -1       859 1.97479E+01 2.99992E-01 4.26435E-06 7.31101E-01-6.58391E-14-2.06640E-13
 -1       860 1.97664E+01 1.88356E-01 3.61049E-06 8.74573E-01-1.17089E-13-2.73006E-13
 -1       861 1.98485E+01-1.78822E-02-8.62627E-06 1.02486E+00-1.80350E-13-4.14913E-13
 -1       862 2.00361E+01-3.50305E-01-5.46016E-05 1.16833E+00 1.86966E-13-4.80188E-13
 -1       863 2.03870E+01-8.37309E-01-1.33924E-04 1.27694E+00 7.49713E-14-4.27549E-13
 -1       864 2.09740E+01-1.48845E+00-3.31040E-04 1.29599E+00 1.27455E-13-2.29130E-13
 -1       865 2.18712E+01-2.25704E+00 6.56935E-04 1.12376E+00-1.14145E-13 6.28857E-14
 -1       866 2.31036E+01-2.97692E+00 2.23708E-03 6.01529E-01-2.04692E-13 2.43449E-13
 -1       867 2.44984E+01-3.18471E+00-1.61876E-02-3.84568E-01-1.86478E-13 4.21241E-13
 -1       868 2.03314E+01 7.29304E-01 2.63462E-04-1.87893E-01-1.09213E-13-2.56768E-13
 -1       869 2.00601E+01-7.36849E-02-3.03544E-07-1.05452E-01 1.52687E-14-1.14937E-13
 -1       870 2.00774E+01-8.00431E-02 3.01347E-07-1.21823E-01 5.87519E-14-1.25539E-13
 -1       871 2.00358E+01-4.82430E-02-1.01200E-06-7.77630E-02-6.44476E-14-1.02174E-13
 -1       872 2.00275E+01-3.13352E-02-9.64959E-07-6.89312E-02-2.74727E-14-2.42315E-14
 -1       873 2.00207E+01-1.20356E-02-4.99728E-07-6.46566E-02 1.30886E-13-1.13569E-14
 -1       874 2.00147E+01 9.95830E-03 4.77706E-08-6.57343E-02-4.44556E-14 9.35706E-15
 -1       875 2.00086E+01 3.53311E-02 4.12084E-07-7.30126E-02-9.56012E-14-1.87215E-14
 -1       876 2.00014E+01 6.50744E-02 8.78489E-07-8.74640E-02 5.71470E-14-5.93974E-14
 -1       877 1.99915E+01 1.00442E-01 1.47145E-06-1.10225E-01 2.15295E-13 2.06725E-14
 -1       878 1.99775E+01 1.42910E-01 2.24001E-06-1.42609E-01 1.15160E-13 1.82894E-13
 -1       879 1.99569E+01 1.94124E-01 3.25566E-06-1.86077E-01 2.79076E-14 2.75774E-13
 -1       880 1.99267E+01 2.55822E-01 4.62739E-06-2.42177E-01 3.51008E-15 3.64467E-14
 -1       881 1.98826E+01 3.29693E-01 6.53481E-06-3.12420E-01-5.29070E-15 7.88502E-14
 -1       882 1.98191E+01 4.17119E-01 9.27390E-06-3.98126E-01-9.97531E-14 5.79769E-14
 -1       883 1.97284E+01 5.18706E-01 1.32731E-05-5.00245E-01-1.28878E-13 1.46686E-13
 -1       884 1.96007E+01 6.33449E-01 1.88888E-05-6.19239E-01-1.50193E-14 1.10053E-13
 -1       885 1.94233E+01 7.57317E-01 2.53406E-05-7.55211E-01 7.08552E-15 1.63714E-13
 -1       886 1.91811E+01 8.80922E-01 2.72158E-05-9.08645E-01-1.80051E-13 1.49988E-13
 -1       887 1.88566E+01 9.85862E-01 6.41548E-06-1.08244E+00-1.10084E-13 9.23920E-14
 -1       888 1.84321E+01 1.03927E+00-6.87339E-05-1.28643E+00 3.76316E-14 1.17804E-13
 -1       889 1.78928E+01 9.85313E-01-4.23303E-04-1.54717E+00-1.20203E-13 4.98356E-14
 -1       890 1.72433E+01 7.28625E-01 1.67185E-03-1.92057E+00-1.18419E-13 1.48687E-15
 -1       891 1.63521E+01 3.13740E-01 8.04449E-03-2.32697E+00-1.40533E-13-1.64277E-13
 -1       892 2.56689E+01-3.00676E+00-5.50833E-03-1.18098E+00-1.24658E-13 2.61776E-13
 -1       893 2.02997E+01 4.29525E-01-4.41502E-05 6.33197E-02 1.11617E-13-1.19647E-13
 -1       894 2.00465E+01-6.25993E-02-9.15693E-07-9.02903E-02 3.37243E-14-1.43157E-13
 -1       895 2.01561E+01-3.99186E-02-1.76464E-06-1.52653E-01 3.15511E-14-1.23627E-13
 -1       896 2.03292E+01 4.30239E-01-1.58928E-05-4.62863E-02-7.53617E-14-1.83400E-13
 -1       897 1.64646E+01-1.99977E+00 3.47414E-02 4.43910E+00 1.97371E-13-1.49535E-13
 -1       898 2.44161E+01-4.41083E+00-7.14213E-03 1.54686E+00-4.88960E-14-2.72526E-13
 -1       899 2.03012E+01 1.00451E+00-5.17580E-04 3.65780E-01 1.71193E-13-1.55176E-13
 -1       900 1.50521E+01-7.39907E-01 2.78531E-02 3.51462E+00 5.94659E-14-3.03464E-14
 -1       901 2.03112E+01 1.03011E+00-1.22041E-04-3.39506E-01-1.16725E-13-2.21690E-13
 -1       902 2.02681E+01 2.29186E-01-1.43116E-05-4.55406E-02 8.89317E-14-1.55539E-13
 -1       903 2.01915E+01 1.13089E-02 3.14949E-06-1.42248E-01 3.93151E-15-2.09120E-13
 -1       904 2.00989E+01-7.92235E-02 3.45686E-06-1.37334E-01 7.93405E-14-3.42499E-14
 -1       905 2.02830E+01 1.34422E+00-2.56234E-04-1.95586E-01 1.56471E-14-2.76870E-13
 -1       906 2.02828E+01 1.33843E+00-2.06165E-04 1.96166E-01 1.06431E-13-2.62037E-13
 -1       907 2.03126E+01 7.28317E-01 3.84043E-04 2.30156E-01 1.33313E-13-1.42294E-13
 -1       908 1.22876E+01 4.30012E-01 2.81446E-02 1.41936E+00 1.23659E-13 3.49056E-13
 -1       909 2.02739E+01 1.40614E+00 4.62674E-06 6.93806E-02 7.30169E-14-2.94663E-13
 -1       910 2.01251E+01-6.76366E-02 3.03845E-07-1.49035E-01 6.57707E-14-3.77912E-14
 -1       911 1.91697E+01-2.81902E+00 9.37265E-03 3.95337E+00 1.33988E-13-9.59757E-14
 -1       912 2.25235E+01-3.93627E+00 1.69014E-02 2.63894E+00 5.76579E-15-2.64866E-13
 -1       913 1.38407E+01 4.06070E-01 3.01587E-02-1.78196E+00-1.15328E-13-4.05565E-14
 -1       914 2.02735E+01 1.40736E+00 2.19128E-05-6.53427E-02 3.65047E-14-2.99448E-13
 -1       915 2.03580E+01 1.96398E-01 7.45173E-06 5.08562E-02-6.94879E-14-1.43111E-13
 -1       916 2.03225E+01 6.55722E-02-8.94888E-07 8.54298E-02 6.84604E-15-1.27910E-13
 -1       917 2.02809E+01-1.73170E-02-1.95136E-06 1.01453E-01-2.37110E-15-1.35009E-13
 -1       918 2.02382E+01-6.57014E-02-4.54588E-07 1.04769E-01 7.84312E-15-1.24143E-13
 -1       919 2.01978E+01-8.97571E-02 2.31800E-06 1.00182E-01-1.50670E-14-6.54540E-14
 -1       920 2.01613E+01-9.71696E-02 2.30468E-07 9.12325E-02-1.06046E-13-7.61087E-14
 -1       921 2.01295E+01-9.32920E-02 1.37592E-06 8.05165E-02-9.62853E-14-1.01671E-13
 -1       922 2.01022E+01-8.18661E-02 2.25574E-06 6.98885E-02 1.64833E-14-1.05969E-13
 -1       923 2.00790E+01-6.52522E-02 2.11615E-06 6.06567E-02-1.80940E-14-1.26112E-13
 -1       924 2.00591E+01-4.48482E-02 5.23111E-08 5.37677E-02-7.58507E-14-2.01115E-14
 -1       925 2.00415E+01-2.12597E-02-1.00201E-06 4.99468E-02-1.49563E-13-6.03593E-14
 -1       926 2.00249E+01 5.51742E-03-1.28294E-06 4.98508E-02 5.21498E-14-7.00178E-14
 -1       927 2.00079E+01 3.58689E-02-1.96762E-06 5.41622E-02 5.11668E-14 6.83256E-14
 -1       928 1.99889E+01 7.04013E-02-3.14580E-06 6.36449E-02-9.66569E-15 1.22298E-13
 -1       929 1.99664E+01 1.09775E-01-4.73778E-06 7.92103E-02-2.31032E-15 1.11705E-13
 -1       930 1.99384E+01 1.54490E-01-6.73903E-06 1.01974E-01 5.02041E-14 1.33615E-15
 -1       931 1.99032E+01 2.04606E-01-9.19740E-06 1.33300E-01-4.25112E-14 2.18730E-14
 -1       932 1.98589E+01 2.59392E-01-1.21824E-05 1.74848E-01-2.31525E-14 1.82541E-13
 -1       933 1.98042E+01 3.16841E-01-1.57700E-05 2.28623E-01 8.88718E-14 2.49658E-13
 -1       934 1.97385E+01 3.73065E-01-2.00262E-05 2.97036E-01-6.67465E-14 2.41968E-13
 -1       935 1.96623E+01 4.21522E-01-2.49720E-05 3.82989E-01-3.56175E-14-2.26315E-15
 -1       936 1.95788E+01 4.52086E-01-3.05762E-05 4.89971E-01 3.86947E-14-4.60875E-14
 -1       937 1.94947E+01 4.49990E-01-3.71396E-05 6.22143E-01 2.53370E-14-1.05657E-13
 -1       938 1.94224E+01 3.94689E-01-4.73662E-05 7.84296E-01-1.44500E-13-2.36700E-13
 -1       939 1.93829E+01 2.58796E-01-7.16546E-05 9.81402E-01-2.16322E-13-5.00040E-14
 -1       940 1.94101E+01 7.40150E-03-1.26911E-04 1.21702E+00-1.26337E-13-2.02078E-14
 -1       941 1.95575E+01-4.01458E-01-2.19815E-04 1.48898E+00 1.94737E-13-1.04392E-13
 -1       942 1.99067E+01-1.01233E+00 3.07287E-05 1.77873E+00 1.40419E-13-2.62950E-13
 -1       943 2.05686E+01-1.85444E+00-3.68346E-04 2.03385E+00 1.42742E-13-2.66558E-13
 -1       944 2.16987E+01-2.90277E+00 1.76861E-02 2.12362E+00-1.10918E-13-3.19702E-13
 -1       945 2.00400E+01-2.52602E-02 8.53617E-07-5.70765E-02 6.52923E-14-2.34908E-13
 -1       946 2.00549E+01-4.69740E-02-4.19667E-07-6.22382E-02 2.45180E-14-1.03186E-13
 -1       947 2.00126E+01 2.80793E-02 2.13398E-07-5.96588E-02-5.23319E-15-4.39937E-14
 -1       948 1.99973E+01 6.11700E-02-8.68849E-07-6.87910E-02-4.17670E-16-1.62333E-13
 -1       949 1.99785E+01 1.00076E-01-2.04377E-06-8.41631E-02 4.32254E-14-6.76335E-14
 -1       950 1.99540E+01 1.46262E-01-3.33487E-06-1.06608E-01 1.50881E-14 1.81374E-14
 -1       951 1.99208E+01 2.01354E-01-4.76172E-06-1.36970E-01-3.51428E-15 1.89677E-14
 -1       952 1.98753E+01 2.67027E-01-6.33774E-06-1.76017E-01 1.46267E-13 5.65338E-14
 -1       953 1.98129E+01 3.44866E-01-8.06115E-06-2.24281E-01 7.90196E-14-7.02571E-14
 -1       954 1.97273E+01 4.36129E-01-9.92489E-06-2.81864E-01-6.98860E-14-1.27463E-14
 -1       955 1.96108E+01 5.41384E-01-1.19956E-05-3.48193E-01-1.58373E-13 2.76210E-14
 -1       956 1.94530E+01 6.59949E-01-1.46983E-05-4.21803E-01-1.98003E-13 2.30269E-13
 -1       957 1.92409E+01 7.89032E-01-1.95990E-05-5.00287E-01-4.63415E-14 3.68365E-13
 -1       958 1.89575E+01 9.22469E-01-3.10184E-05-5.80678E-01-1.07328E-13 4.40050E-13
 -1       959 1.85807E+01 1.04893E+00-5.64104E-05-6.60782E-01-5.79190E-14 3.79510E-13
 -1       960 1.80815E+01 1.14957E+00-8.34456E-05-7.42118E-01-2.47481E-14 3.55862E-13
 -1       961 1.74191E+01 1.19498E+00-2.07758E-04-8.36791E-01 3.64230E-14 3.11666E-13
 -1       962 1.65313E+01 1.14349E+00 2.03163E-03-9.76764E-01 3.41646E-15 2.28023E-13
 -1       963 2.03724E+01 6.75680E-01-5.92495E-04-1.02392E-01-4.41204E-14-9.85972E-14
 -1       964 2.03554E+01 6.94524E-01-2.13481E-04 1.35896E-01 9.50077E-14-1.93177E-13
 -1       965 2.01173E+01-9.02387E-02 7.14072E-06-9.42815E-02 7.43793E-14-4.27663E-14
 -1       966 2.02964E+01 1.20480E+00-2.15876E-04 3.00957E-01 1.21010E-13-2.57546E-13
 -1       967 2.00263E+01-4.24190E-04 1.21324E-06-5.59928E-02-5.99619E-14-3.06423E-14
 -1       968 2.02299E+01 9.62603E-02 2.41741E-07-1.09921E-01 4.66125E-14-2.29773E-13
 -1       969 2.03789E+01 3.91882E-01-6.71818E-05-9.44692E-03-5.13079E-14-1.05092E-13
 -1       970 2.03365E+01 9.31608E-01 7.63780E-04 2.15877E-01 1.21104E-13-2.14220E-13
 -1       971 1.73536E+01-1.60258E+00 1.88706E-02 3.73589E+00 8.83130E-14-2.06023E-13
 -1       972 1.43825E+01 2.70053E-01 1.82977E-02 2.26713E+00-1.20160E-13-7.30891E-14
 -1       973 2.03580E+01 8.39746E-01 3.23231E-04-1.54452E-01-5.86752E-14-1.26257E-13
 -1       974 2.02589E+01-8.12347E-03 1.19194E-05-1.16185E-01 8.99626E-15-2.07723E-13
 -1       975 2.01466E+01-9.25990E-02 1.13329E-05-1.06672E-01 8.56067E-14-5.67405E-14
 -1       976 2.00721E+01-6.55654E-02 1.28312E-06-7.07710E-02-1.41695E-14 3.37089E-14
 -1       977 1.53856E+01 1.00801E+00 3.48876E-03-1.04703E+00 3.59050E-14 1.73815E-13
 -1       978 2.02183E+01-5.79889E-02 5.25593E-06-1.21333E-01-4.46049E-15-2.01500E-13
 -1       979 2.03576E+01 4.07283E-01-3.36419E-05 2.17780E-02 1.06480E-13-1.87409E-13
 -1       980 2.00927E+01-8.04368E-02 5.84056E-06-8.18207E-02 3.24078E-14-6.13716E-15
 -1       981 1.31212E+01 7.52867E-01 2.20684E-02 4.21105E-01 1.38856E-13 4.38658E-13
 -1       982 2.03673E+01 9.69049E-01 3.44009E-04 7.97410E-02 5.32745E-14-2.58758E-13
 -1       983 2.03670E+01 9.72868E-01 1.26353E-04-7.98839E-02 4.50951E-15-3.16357E-13
 -1       984 2.03528E+01 9.68927E-01 4.89927E-04 1.49209E-01 7.19318E-14-2.62476E-13
 -1       985 2.03885E+01 1.49547E-01 6.30216E-06 4.14803E-02-4.12466E-14-2.15605E-13
 -1       986 2.03511E+01 3.08586E-02-2.53007E-05 5.88702E-02 1.14717E-14-2.03504E-13
 -1       987 2.03065E+01-4.24280E-02-2.35017E-05 6.58380E-02-1.68866E-14-1.57645E-13
 -1       988 2.02606E+01-8.32808E-02 7.62726E-06 6.58764E-02 4.99389E-14-1.37872E-13
 -1       989 2.02169E+01-1.01454E-01-3.66454E-06 6.19373E-02-3.28053E-14-1.32435E-13
 -1       990 2.01772E+01-1.04026E-01 5.03984E-06 5.57203E-02-1.01436E-13-6.38847E-14
 -1       991 2.01420E+01-9.59104E-02 4.05642E-06 4.89497E-02-6.65352E-14-9.58831E-14
 -1       992 2.01115E+01-8.06721E-02 7.55192E-06 4.25667E-02 1.48299E-14-1.24847E-13
 -1       993 2.00850E+01-6.03928E-02-7.09472E-07 3.74136E-02-1.21817E-14-1.15012E-13
 -1       994 2.00616E+01-3.61604E-02-2.54705E-06 3.39994E-02-1.23014E-13-9.79448E-14
 -1       995 2.00398E+01-8.32032E-03-2.75621E-06 3.27798E-02-2.82399E-14 1.81325E-15
 -1       996 2.00181E+01 2.34048E-02-6.48127E-06 3.42926E-02 1.62591E-13-2.38498E-16
 -1       997 1.99947E+01 5.95736E-02-1.08781E-05 3.90729E-02 3.86519E-14 5.89969E-15
 -1       998 1.99676E+01 1.00984E-01-1.63544E-05 4.77802E-02 2.72880E-14 8.20792E-16
 -1       999 1.99344E+01 1.48438E-01-2.27979E-05 6.12776E-02 4.22865E-15 1.09806E-13
 -1      1000 1.98926E+01 2.02505E-01-3.02016E-05 8.07026E-02-7.59166E-14-3.37188E-14
 -1      1001 1.98398E+01 2.63217E-01-3.85632E-05 1.07565E-01 4.89176E-14-1.42231E-13
 -1      1002 1.97732E+01 3.29679E-01-4.78357E-05 1.43878E-01 4.31689E-14-8.01937E-14
 -1      1003 1.96904E+01 3.99559E-01-5.79092E-05 1.92336E-01-2.32536E-14-5.26810E-15
 -1      1004 1.95896E+01 4.68434E-01-6.86130E-05 2.56560E-01-1.78358E-13 4.32994E-14
 -1      1005 1.94701E+01 5.28995E-01-7.98045E-05 3.41424E-01-7.19710E-14 1.72863E-13
 -1      1006 1.93332E+01 5.70090E-01-9.19859E-05 4.53491E-01 1.02886E-14-5.47247E-14
 -1      1007 1.91836E+01 5.75604E-01-1.09261E-04 6.01555E-01-9.02708E-14-1.60503E-13
 -1      1008 1.90310E+01 5.23162E-01-1.49649E-04 7.97248E-01-1.47690E-13 6.87014E-14
 -1      1009 1.88932E+01 3.82509E-01-2.68995E-04 1.05550E+00-1.22564E-13 1.19730E-13
 -1      1010 1.88017E+01 1.13371E-01-5.14666E-04 1.39424E+00-1.24919E-13 1.12375E-13
 -1      1011 1.88103E+01-3.36483E-01-6.65759E-04 1.83147E+00 3.43196E-14-1.86408E-13
 -1      1012 1.90114E+01-1.03716E+00 4.07234E-04 2.37899E+00 1.29277E-13-3.49912E-13
 -1      1013 2.00420E+01-1.40287E-02 3.42482E-06-4.15707E-02 1.37277E-14 7.29790E-14
 -1      1014 2.02995E+01 7.61718E-02 1.42943E-06-9.55753E-02 5.00279E-14-1.39221E-13
 -1      1015 2.03349E+01 2.08650E-01-4.40137E-05-5.23716E-02 7.20868E-14-1.43142E-13
 -1      1016 1.99774E+01 9.11924E-02-1.09905E-05-5.57443E-02 6.30543E-15 3.17190E-14
 -1      1017 2.00017E+01 5.07948E-02-5.85308E-06-4.71380E-02-2.03501E-14-9.86492E-15
 -1      1018 1.99078E+01 1.94653E-01-2.35718E-05-8.66013E-02 5.86809E-14-5.12121E-14
 -1      1019 1.98557E+01 2.60738E-01-3.13348E-05-1.09318E-01-2.51973E-14-4.01818E-14
 -1      1020 1.97861E+01 3.38250E-01-4.03493E-05-1.36718E-01-4.59225E-14 2.49268E-13
 -1      1021 1.96933E+01 4.28138E-01-5.09268E-05-1.67991E-01-8.88052E-14 3.43634E-13
 -1      1022 1.95702E+01 5.30618E-01-6.36503E-05-2.01437E-01-8.37115E-14 1.93980E-13
 -1      1023 1.94077E+01 6.44723E-01-7.98121E-05-2.34122E-01-2.00000E-13 1.74337E-13
 -1      1024 1.91944E+01 7.67705E-01-1.02369E-04-2.61555E-01-1.15423E-13 1.09126E-13
 -1      1025 1.89156E+01 8.94293E-01-1.37293E-04-2.77501E-01-1.55210E-13 9.30518E-14
 -1      1026 1.85517E+01 1.01585E+00-1.92443E-04-2.74173E-01 2.01717E-15 1.59381E-14
 -1      1027 1.80752E+01 1.11944E+00-2.68491E-04-2.43233E-01-5.66474E-14 1.28023E-13
 -1      1028 1.74466E+01 1.18609E+00-2.20000E-04-1.77906E-01 2.22920E-14 1.42379E-13
 -1      1029 1.65993E+01 1.19448E+00 1.60059E-03-7.00236E-02 2.46556E-14 1.09185E-14
 -1      1030 2.03670E+01 9.98155E-01 5.12782E-05 1.06932E-03 2.73908E-14-2.35267E-13
 -1      1031 2.04129E+01 3.27138E-01-2.16729E-04 8.67096E-03-6.87609E-14-2.17968E-13
 -1      1032 2.01378E+01-9.53087E-02 1.42397E-05-6.35265E-02 1.94253E-14 2.08384E-15
 -1      1033 2.01804E+01-8.36498E-02 5.41717E-06-1.16646E-01 6.36593E-14-1.39885E-13
 -1      1034 1.99472E+01 1.38643E-01-1.68477E-05-6.87892E-02 2.93981E-14-9.18035E-14
 -1      1035 2.00619E+01-4.02850E-02-1.01355E-06-4.36896E-02 9.62122E-14 7.66999E-14
 -1      1036 2.00226E+01 1.60880E-02-1.26848E-06-4.25584E-02-6.15591E-14-7.46880E-14
 -1      1037 1.61678E+01-3.34454E-01 1.16739E-02 2.80123E+00-7.47472E-14 1.93196E-13
 -1      1038 2.01716E+01-1.01570E-01 1.85439E-05-7.21836E-02 2.47767E-14-4.95148E-14
 -1      1039 2.04180E+01 6.63212E-01 2.33998E-04-1.85885E-02-1.94018E-15-2.47052E-13
 -1      1040 1.95741E+01-2.07035E+00 4.43925E-03 3.02071E+00-3.61542E-14-2.94939E-13
 -1      1041 2.00837E+01-6.29509E-02-2.98959E-06-4.84804E-02 2.24709E-14-4.00063E-14
 -1      1042 1.55727E+01 1.13677E+00-3.16277E-03 1.72972E-01 1.95987E-14 9.22836E-14
 -1      1043 2.04155E+01 6.64273E-01-2.10253E-04 1.84325E-02 2.37168E-14-2.50876E-13
 -1      1044 2.03969E+01 6.01073E-01-2.01294E-04 5.63680E-02 5.63345E-14-1.92887E-13
 -1      1045 2.02967E+01-3.21370E-02 8.69719E-06-8.30817E-02-5.83162E-15-1.39250E-13
 -1      1046 2.04081E+01 5.89322E-01 5.37793E-04-4.09909E-02-5.37107E-14-2.55389E-13
 -1      1047 2.01087E+01-8.17066E-02 7.27296E-06-5.53425E-02 9.15806E-15-8.06966E-14
 -1      1048 2.03413E+01 4.42632E-02-1.09580E-04-7.26371E-02 8.24143E-14-1.83054E-13
 -1      1049 2.03968E+01 3.43020E-01 3.14088E-04-8.99747E-03 4.14647E-14-1.51609E-13
 -1      1050 2.02524E+01-7.59084E-02-5.34308E-05-8.44813E-02-2.14060E-14-1.30771E-13
 -1      1051 2.03557E+01-5.58679E-03 6.13227E-05 2.44161E-02 5.67446E-14-1.64775E-13
 -1      1052 2.03074E+01-6.52705E-02-2.27547E-05 2.58383E-02-1.88441E-14-1.42887E-13
 -1      1053 2.02606E+01-9.74390E-02 1.47542E-05 2.48051E-02-2.06233E-14-1.36002E-13
 -1      1054 2.02163E+01-1.08204E-01 1.05059E-05 2.26544E-02-8.84398E-14-1.66529E-13
 -1      1055 2.01758E+01-1.05203E-01 3.98189E-05 2.04030E-02-5.12000E-14-1.43698E-13
 -1      1056 2.01392E+01-9.27167E-02-4.91247E-05 1.79943E-02-5.04641E-15-8.75385E-14
 -1      1057 2.01081E+01-7.41328E-02 1.42750E-05 1.56883E-02 2.31858E-14-1.51821E-13
 -1      1058 2.00808E+01-5.09532E-02-6.55375E-06 1.37543E-02-3.54834E-14-1.52901E-13
 -1      1059 2.00558E+01-2.34310E-02 4.81365E-06 1.29049E-02-1.36700E-14-1.38709E-14
 -1      1060 2.00314E+01 8.13782E-03 1.02373E-05 1.31580E-02 1.02082E-13-3.49426E-14
 -1      1061 2.00059E+01 4.41688E-02 1.13241E-05 1.46888E-02 1.00218E-13-6.64236E-14
 -1      1062 1.99772E+01 8.55283E-02 1.35304E-05 1.78982E-02 7.15258E-14-9.07629E-15
 -1      1063 1.99427E+01 1.33212E-01 1.76253E-05 2.33181E-02-3.33568E-14-2.61327E-14
 -1      1064 1.98997E+01 1.88180E-01 2.41634E-05 3.17122E-02-1.47411E-13-6.89889E-14
 -1      1065 1.98449E+01 2.51120E-01 3.39848E-05 4.41958E-02-1.18769E-13-7.37514E-14
 -1      1066 1.97748E+01 3.22136E-01 4.84398E-05 6.23975E-02-5.98758E-14-3.39246E-13
 -1      1067 1.96858E+01 4.00357E-01 6.96843E-05 8.86841E-02-2.42898E-14-4.58701E-13
 -1      1068 1.95740E+01 4.83426E-01 1.01147E-04 1.26471E-01-1.99530E-14-4.30826E-13
 -1      1069 1.94356E+01 5.66871E-01 1.48202E-04 1.80639E-01-4.26162E-14-3.22012E-13
 -1      1070 1.92674E+01 6.43351E-01 2.18738E-04 2.58097E-01-8.93180E-14-1.07172E-13
 -1      1071 1.90668E+01 7.01764E-01 3.21710E-04 3.68524E-01-5.45767E-14-7.09933E-14
 -1      1072 1.88329E+01 7.26209E-01 4.56043E-04 5.25357E-01-9.47735E-14-4.60554E-14
 -1      1073 1.85672E+01 6.94634E-01 5.64836E-04 7.47113E-01-1.26024E-13 5.24115E-14
 -1      1074 1.82758E+01 5.76597E-01 5.17858E-04 1.05899E+00-1.28976E-13 1.87298E-13
 -1      1075 1.79733E+01 3.29812E-01 5.67486E-04 1.49374E+00-2.03806E-13 2.10090E-13
 -1      1076 1.76827E+01-9.72432E-02 2.81944E-03 2.08531E+00-1.42340E-13 1.45367E-13
 -1      1077 1.99120E+01 1.77271E-01-7.00422E-06-3.97963E-02-7.19211E-14-9.32255E-14
 -1      1078 1.99849E+01 7.60821E-02-1.66616E-06-2.76913E-02 2.45274E-14-7.07748E-14
 -1      1079 1.97907E+01 3.14951E-01-2.47526E-05-5.75683E-02-2.05786E-13 1.78303E-13
 -1      1080 1.98594E+01 2.40983E-01-1.37329E-05-4.82897E-02-1.09876E-13-4.21743E-14
 -1      1081 1.95840E+01 4.95125E-01-6.74850E-05-7.20231E-02-1.94824E-14 2.07042E-13
 -1      1082 1.94330E+01 5.99513E-01-1.05568E-04-7.11765E-02-3.04710E-14 1.31261E-13
 -1      1083 1.92393E+01 7.09528E-01-1.62254E-04-5.81723E-02-5.30552E-14-3.86602E-14
 -1      1084 1.89925E+01 8.19309E-01-2.48168E-04-2.50426E-02-8.03822E-14-1.12860E-13
 -1      1085 1.86795E+01 9.19851E-01-3.80583E-04 3.92535E-02-6.72942E-14-7.15655E-14
 -1      1086 1.82824E+01 9.98420E-01-5.71047E-04 1.49636E-01-6.18060E-14 8.05464E-14
 -1      1087 1.77752E+01 1.03862E+00-7.06969E-04 3.26144E-01-4.44861E-14-6.49237E-14
 -1      1088 1.71126E+01 1.01984E+00-6.91385E-04 5.94205E-01 1.43199E-14-1.38744E-13
 -1      1089 1.56695E+01 5.38286E-01 1.13212E-02 1.67933E+00-2.46482E-13 1.57013E-13
 -1      1090 1.77875E+01-7.79336E-01 4.02765E-03 2.74010E+00 1.00744E-13-1.27943E-13
 -1      1091 2.04342E+01 4.18460E-01-7.94880E-05 3.42151E-04 1.38577E-14-2.00685E-13
 -1      1092 2.00119E+01 3.59712E-02-1.12137E-06-2.44781E-02 1.75334E-14 5.19790E-14
 -1      1093 2.00360E+01 1.21851E-03 3.33348E-07-2.31073E-02 2.83532E-14 1.26401E-13
 -1      1094 1.97009E+01 3.99753E-01-4.18234E-05-6.62565E-02-1.41689E-13 1.97509E-13
 -1      1095 2.00593E+01-2.91926E-02-1.25712E-06-2.34469E-02 5.21504E-14 3.04886E-14
 -1      1096 2.04288E+01 3.88491E-01 5.05059E-04-6.12579E-04 5.09507E-14-2.20421E-13
 -1      1097 2.03970E+01 9.36751E-02-1.25766E-05 1.97269E-02-1.06391E-15-1.23772E-13
 -1      1098 2.04249E+01 2.48760E-01-2.10037E-04 8.54565E-03-2.22636E-14-1.63201E-13
 -1      1099 1.99526E+01 1.22739E-01-3.30549E-06-3.28220E-02 5.13544E-14-1.30698E-13
 -1      1100 2.01783E+01-1.05613E-01-1.40095E-05-3.69026E-02 4.22965E-14-1.19038E-13
 -1      1101 1.66824E+01 1.92117E-01-6.09961E-03 2.00505E+00-1.74579E-13 4.01166E-13
 -1      1102 2.00831E+01-5.50805E-02-2.49431E-05-2.52959E-02 3.16784E-14-5.47721E-14
 -1      1103 2.03764E+01 1.62856E-01-3.60413E-04-4.81086E-02 7.75799E-14-1.59736E-13
 -1      1104 1.64232E+01 8.83553E-01-8.55222E-04 1.02618E+00 2.66932E-14-3.09188E-14
 -1      1105 2.01424E+01-9.52124E-02-8.04959E-05-3.23632E-02 7.90190E-15-5.60043E-14
 -1      1106 2.02106E+01-9.75045E-02-4.62181E-05-7.99856E-02-1.39129E-14-8.73119E-14
 -1      1107 2.03115E+01-5.71160E-02 5.72667E-05-4.46862E-02 7.79814E-16-1.06624E-13
 -1      1108 2.03569E+01 8.56216E-03 5.25927E-05-4.03482E-02 1.32322E-14-1.52499E-13
 -1      1109 2.02187E+01-1.06260E-01 2.70042E-05-4.08217E-02-5.01119E-15-1.25017E-13
 -1      1110 2.04179E+01 1.63074E-01 5.37100E-05-8.96516E-03 3.89467E-14-1.79073E-13
 -1      1111 2.02884E+01-8.52137E-02 6.33934E-05-1.61583E-02-2.41939E-14-1.33361E-13
 -1      1112 2.00951E+01-6.34442E-02 3.82317E-05-9.22297E-03 4.29297E-15-5.70344E-14
 -1      1113 2.01103E+01-7.72945E-02-1.29057E-05-2.81014E-02-4.50838E-14-3.77876E-14
 -1      1114 2.01251E+01-8.46401E-02 1.09046E-04-1.07285E-02-6.21468E-14-1.73682E-14
 -1      1115 2.79642E+01 9.08693E+00 2.32535E+00-6.69803E+00-4.59632E-14 1.29569E-12
 -1      1116 2.05485E+01 6.22749E+00 2.09728E-01-3.90344E+00-2.28428E-14 1.22513E-13
 -1      1117 1.94351E+01 5.85308E+00 7.51708E-02-2.88744E+00-1.54321E-14-3.69291E-13
 -1      1118 1.90264E+01 5.72603E+00 6.03609E-02-2.23471E+00-1.01169E-14-5.93496E-13
 -1      1119 1.88400E+01 5.66936E+00 5.78136E-02-1.70086E+00-6.25194E-15-6.98790E-13
 -1      1120 1.87455E+01 5.64031E+00 5.55438E-02-1.23366E+00-4.04624E-15-7.37952E-13
 -1      1121 1.86962E+01 5.62499E+00 5.37454E-02-8.04008E-01-1.76898E-15-7.44961E-13
 -1      1122 1.86720E+01 5.61736E+00 5.24937E-02-3.92674E-01-5.82433E-16-7.26202E-13
 -1      1123 1.86651E+01 5.61517E+00 5.20948E-02 8.47482E-03 2.14293E-15-7.11520E-13
 -1      1124 1.86731E+01 5.61772E+00 5.26095E-02 4.10035E-01 3.65897E-15-6.82922E-13
 -1      1125 1.86984E+01 5.62573E+00 5.40033E-02 8.22721E-01 5.85729E-15-6.50216E-13
 -1      1126 1.87494E+01 5.64170E+00 5.62193E-02 1.25502E+00 8.11937E-15-5.83760E-13
 -1      1127 1.88450E+01 5.67104E+00 5.84425E-02 1.72673E+00 1.09131E-14-4.77205E-13
 -1      1128 1.90319E+01 5.72770E+00 6.04114E-02 2.26776E+00 1.45405E-14-3.01186E-13
 -1      1129 1.94320E+01 5.85037E+00 6.92527E-02 2.92797E+00 1.87905E-14 1.30434E-14
 -1      1130 2.04548E+01 6.18245E+00 1.53351E-01 3.87816E+00 2.06501E-14 5.91881E-13
 -1      1131 2.52185E+01 7.99473E+00 1.43046E+00 5.84624E+00 3.89688E-14 1.74988E-12
 -1      1132 2.88139E+01 3.61626E+00 1.27115E+00-4.21697E+00-1.77108E-13 2.03171E-12
 -1      1133 2.02296E+01-1.77722E-01-6.16304E-01-1.09884E-01-5.33809E-14 1.64041E-12
 -1      1134 1.88359E+01-9.63830E-02-2.36345E-01 6.25431E-02-2.53460E-14 1.08523E-12
 -1      1135 1.85026E+01-4.80595E-02-5.95548E-02 4.05404E-02-1.69279E-14 6.75515E-13
 -1      1136 1.84482E+01-2.46221E-02-1.51739E-02 2.68104E-02-1.03940E-14 4.22141E-13
 -1      1137 1.85306E+01-1.30617E-02-4.97881E-03 1.90850E-02-4.90840E-15 2.60708E-13
 -1      1138 1.86781E+01-6.61243E-03-1.48133E-03 1.41513E-02 6.41989E-15 1.32045E-13
 -1      1139 1.88514E+01-2.83494E-03 5.63780E-04 1.07293E-02-1.43771E-15 4.62391E-14
 -1      1140 1.90278E+01-5.93635E-04 1.89229E-03 8.19806E-03-2.31008E-15-3.07306E-14
 -1      1141 1.91944E+01 7.10304E-04 2.64865E-03 6.25017E-03-9.28197E-15-1.73491E-13
 -1      1142 1.93444E+01 1.41925E-03 2.96971E-03 4.72110E-03 6.38470E-15-3.43000E-13
 -1      1143 1.94747E+01 1.74347E-03 2.99028E-03 3.51204E-03 7.64566E-15-2.72262E-13
 -1      1144 1.95846E+01 1.81898E-03 2.81845E-03 2.55602E-03 5.68821E-15-4.10833E-13
 -1      1145 1.96751E+01 1.73608E-03 2.53190E-03 1.80300E-03-5.22951E-15-3.80717E-13
 -1      1146 1.97480E+01 1.55456E-03 2.18263E-03 1.21338E-03-1.59399E-14-3.90967E-13
 -1      1147 1.98056E+01 1.31266E-03 1.80260E-03 7.55021E-04-2.09167E-14-4.78055E-13
 -1      1148 1.98507E+01 1.03280E-03 1.40834E-03 4.02060E-04-1.70319E-14-5.14146E-13
 -1      1149 1.98858E+01 7.25629E-04 1.00448E-03 1.34477E-04-1.31557E-14-5.27673E-13
 -1      1150 1.99139E+01 3.93041E-04 5.86497E-04-6.19492E-05-1.07025E-14-6.95800E-13
 -1      1151 1.99379E+01 3.05778E-05 1.42964E-04-1.95397E-04-1.22212E-14-8.23471E-13
 -1      1152 1.99610E+01-3.70371E-04-3.42384E-04-2.67540E-04-1.29709E-14-8.75058E-13
 -1      1153 1.99867E+01-8.20266E-04-8.88396E-04-2.72912E-04-1.34523E-14-7.82342E-13
 -1      1154 2.00189E+01-1.32863E-03-1.51361E-03-1.98159E-04-1.10428E-14-7.72083E-13
 -1      1155 2.00620E+01-1.90030E-03-2.23213E-03-2.13154E-05 4.63640E-15-1.08815E-12
 -1      1156 2.01211E+01-2.53023E-03-3.04731E-03 2.88582E-04 1.91602E-14-9.49995E-13
 -1      1157 2.02020E+01-3.19592E-03-3.94229E-03 7.70973E-04-2.28425E-14-6.31071E-13
 -1      1158 2.03109E+01-3.84699E-03-4.86566E-03 1.47128E-03 2.17111E-14-5.07887E-13
 -1      1159 2.04542E+01-4.39114E-03-5.71087E-03 2.43464E-03-3.82693E-14-5.45076E-13
 -1      1160 2.06377E+01-4.67654E-03-6.28806E-03 3.69304E-03-5.55654E-17-5.48110E-13
 -1      1161 2.08651E+01-4.47245E-03-6.28898E-03 5.24145E-03-4.01250E-14-6.07052E-13
 -1      1162 2.11359E+01-3.45351E-03-5.25066E-03 6.99757E-03-3.09142E-14-9.28228E-13
 -1      1163 2.14424E+01-1.20015E-03-2.53559E-03 8.73917E-03-4.14971E-14-1.04461E-12
 -1      1164 2.17651E+01 2.76020E-03 2.63248E-03 1.00183E-02 2.87173E-15-1.11215E-12
 -1      1165 2.20675E+01 8.83094E-03 1.10045E-02 1.00664E-02 3.50403E-15-1.04071E-12
 -1      1166 2.22914E+01 1.70909E-02 2.29104E-02 7.74055E-03 3.60638E-14-1.10466E-12
 -1      1167 2.23544E+01 2.68706E-02 3.75488E-02 1.62404E-03 2.84577E-14-7.72149E-13
 -1      1168 2.21560E+01 3.62195E-02 5.20526E-02-9.54137E-03-2.72221E-15-7.54206E-13
 -1      1169 2.15964E+01 4.15591E-02 6.08679E-02-2.59354E-02 1.06005E-14-5.74946E-13
 -1      1170 2.06154E+01 3.81646E-02 5.64970E-02-4.53634E-02-5.92885E-15-2.51237E-13
 -1      1171 1.92433E+01 2.21304E-02 3.27421E-02-6.23474E-02 9.66176E-15-1.13833E-13
 -1      1172 1.76444E+01-6.19902E-03-9.79723E-03-6.90353E-02-2.06010E-14-4.13808E-13
 -1      1173 1.61135E+01-3.94397E-02-5.97031E-02-5.88683E-02-1.62773E-14-5.81798E-13
 -1      1174 1.49971E+01-6.48229E-02-9.76928E-02-3.15325E-02 3.93852E-14-8.42361E-13
 -1      1175 1.45594E+01-7.14017E-02-1.07635E-01 4.97108E-03-8.09249E-15-7.29685E-13
 -1      1176 1.48684E+01-5.77582E-02-8.76880E-02 3.83945E-02-8.37698E-15-8.82877E-13
 -1      1177 1.57836E+01-3.24647E-02-5.03237E-02 5.99174E-02-1.03450E-14-6.52964E-13
 -1      1178 1.70459E+01-6.06924E-03-9.71644E-03 6.84525E-02-3.29890E-15-6.54136E-13
 -1      1179 1.83815E+01 1.76064E-02 3.10248E-02 6.58773E-02 8.46760E-14-2.43305E-13
 -1      1180 1.95119E+01 4.21172E-02 7.52182E-02 4.79139E-02 3.96146E-14 3.82916E-13
 -1      1181 2.00011E+01 7.91791E-03 2.81206E-02-4.04771E-03 2.94743E-14 5.11824E-13
 -1      1182 2.77934E+01 5.25745E-01 3.76911E-01 1.96664E+00-2.97123E-14 2.68208E-12
 -1      1183 2.00872E+01-6.62527E-02-5.73637E-01 1.29446E-01 1.31145E-14 2.21315E-12
 -1      1184 1.89106E+01-4.06203E-02-1.93236E-01 1.94054E-02 5.00728E-15 1.77139E-12
 -1      1185 1.85315E+01-2.14365E-02-5.05781E-02 1.45319E-03 1.51454E-14 1.42123E-12
 -1      1186 1.84608E+01-1.24266E-02-1.34361E-02-4.08590E-03 3.06569E-15 1.14382E-12
 -1      1187 1.85369E+01-7.42191E-03-4.69452E-03-5.54629E-03 9.08746E-15 9.24334E-13
 -1      1188 1.86814E+01-4.34215E-03-1.96414E-03-5.74216E-03 1.51740E-15 8.69201E-13
 -1      1189 1.88530E+01-2.36527E-03-3.73241E-04-5.47113E-03-3.57049E-15 8.23884E-13
 -1      1190 1.90284E+01-1.08494E-03 7.53642E-04-4.98481E-03-3.77046E-15 7.42592E-13
 -1      1191 1.91945E+01-2.68224E-04 1.47662E-03-4.39801E-03 2.32603E-14 6.08323E-13
 -1      1192 1.93441E+01 2.32504E-04 1.86075E-03-3.77837E-03 9.32197E-15 4.10333E-13
 -1      1193 1.94742E+01 5.16149E-04 1.99491E-03-3.16838E-03-1.22321E-15 4.23055E-13
 -1      1194 1.95840E+01 6.50821E-04 1.95968E-03-2.59368E-03 2.01849E-14 3.60192E-13
 -1      1195 1.96745E+01 6.83609E-04 1.81644E-03-2.06778E-03-2.02697E-14 2.17486E-13
 -1      1196 1.97473E+01 6.46367E-04 1.60782E-03-1.59530E-03 1.66952E-14 4.17643E-14
 -1      1197 1.98048E+01 5.59422E-04 1.36074E-03-1.17442E-03 7.82387E-17-6.86290E-14
 -1      1198 1.98495E+01 4.34035E-04 1.08944E-03-7.98832E-04-1.23192E-14 5.13381E-15
 -1      1199 1.98843E+01 2.74043E-04 7.97706E-04-4.59190E-04 3.02314E-14-3.18371E-14
 -1      1200 1.99117E+01 7.69043E-05 4.80479E-04-1.44262E-04 9.09894E-15-1.32783E-13
 -1      1201 1.99349E+01-1.65762E-04 1.24711E-04 1.58260E-04-1.39659E-15-6.64727E-14
 -1      1202 1.99569E+01-4.68079E-04-2.90424E-04 4.61153E-04 2.30646E-14-2.01925E-14
 -1      1203 1.99813E+01-8.50243E-04-7.94000E-04 7.77160E-04-1.41535E-14 1.71099E-13
 -1      1204 2.00120E+01-1.33929E-03-1.42459E-03 1.11850E-03 3.03729E-14-7.64661E-14
 -1      1205 2.00542E+01-1.97027E-03-2.23240E-03 1.49616E-03 1.20681E-14-2.99204E-13
 -1      1206 2.01137E+01-2.78779E-03-3.28241E-03 1.91868E-03 2.53826E-14-1.55070E-13
 -1      1207 2.01985E+01-3.84727E-03-4.65842E-03 2.38963E-03 2.71289E-15 1.56127E-13
 -1      1208 2.03181E+01-5.21503E-03-6.46731E-03 2.90268E-03-4.22911E-14 3.02729E-13
 -1      1209 2.04851E+01-6.96437E-03-8.84130E-03 3.43180E-03 2.35895E-15 2.60472E-13
 -1      1210 2.07156E+01-9.16182E-03-1.19325E-02 3.91244E-03-2.83850E-14 1.34497E-13
 -1      1211 2.10296E+01-1.18321E-02-1.58859E-02 4.20680E-03-1.75925E-14-6.90420E-15
 -1      1212 2.14522E+01-1.48792E-02-2.07600E-02 4.04231E-03 3.41960E-14-1.71927E-13
 -1      1213 2.20130E+01-1.79267E-02-2.63320E-02 2.91095E-03-2.85132E-14 5.34156E-14
 -1      1214 2.27441E+01-2.00235E-02-3.16730E-02-7.42461E-05-4.31079E-15 1.33761E-13
 -1      1215 2.36739E+01-1.91754E-02-3.43311E-02-6.32186E-03-1.25789E-14 2.57433E-13
 -1      1216 2.48114E+01-1.17899E-02-2.90472E-02-1.77175E-02-4.78372E-15 1.39201E-13
 -1      1217 2.61148E+01 7.44042E-03-6.49245E-03-3.58795E-02 1.82184E-14 9.51461E-14
 -1      1218 2.74362E+01 4.37455E-02 4.57485E-02-5.96739E-02 7.25218E-14 2.94625E-14
 -1      1219 2.84453E+01 9.58135E-02 1.34529E-01-8.00096E-02 1.49976E-14 1.04906E-13
 -1      1220 2.85765E+01 1.43698E-01 2.39481E-01-7.44295E-02 2.05651E-14-1.45196E-13
 -1      1221 2.71303E+01 1.43046E-01 2.89720E-01-1.25200E-02 3.21965E-15-7.54119E-14
 -1      1222 2.37093E+01 5.31317E-02 1.83641E-01 1.12072E-01-1.96093E-14 3.93352E-13
 -1      1223 1.89364E+01-9.82465E-02-9.81523E-02 2.33073E-01-2.83016E-14 1.01352E-12
 -1      1224 1.47393E+01-1.74159E-01-3.67791E-01 2.41639E-01 8.77892E-14 6.70436E-13
 -1      1225 1.31782E+01-1.28098E-01-4.07306E-01 1.01110E-01-2.97644E-14 4.57356E-13
 -1      1226 1.46234E+01-1.15659E-02-1.98691E-01-8.20470E-02-6.67261E-15 1.07669E-12
 -1      1227 1.73708E+01 5.17507E-02 5.27011E-02-1.68510E-01-1.05471E-15 1.19255E-12
 -1      1228 1.95138E+01 4.84069E-02 1.62095E-01-1.36128E-01 8.06395E-14 3.78836E-13
 -1      1229 2.02659E+01 1.38192E-03 1.13596E-01-4.59547E-02-4.51093E-14 2.49613E-13
 -1      1230 2.00495E+01-3.39502E-02 1.95013E-02 6.97245E-03 9.56049E-15 3.89628E-13
 -1      1231 1.99369E+01 2.75651E-02 6.93638E-02-1.88874E-02-2.00950E-14 8.88024E-13
 -1      1232 2.00177E+01-6.67074E-02 2.03666E-02-2.56498E-02 9.64524E-13 5.67740E-14
 -1      1233 1.99000E+01 8.91159E-02-1.75928E-01-1.78043E-02 1.70980E-13-2.94324E-13
 -1      1234 1.98424E+01 1.48755E+00-2.69556E-01 7.57826E-02-1.11781E-12 8.93209E-14
 -1      1235 1.98608E+01 4.68651E+00-2.32768E-01 2.06059E-01-1.09276E-12 1.61295E-14
 -1      1236 1.99998E+01 9.47673E+00 1.09765E-03 2.99073E-01 2.68535E-13-5.91931E-15
 -1      1237 2.02130E+01 1.43237E+01 3.53791E-01 2.53430E-01-2.68674E-13-2.54565E-13
 -1      1238 2.03753E+01 1.68503E+01 5.91201E-01 4.38547E-02-3.99139E-13 5.43871E-14
 -1      1239 2.03195E+01 1.56926E+01 5.15574E-01-1.79988E-01-1.79023E-13-1.74336E-13
 -1      1240 2.01159E+01 1.11945E+01 1.92881E-01-3.19392E-01-6.74877E-13-1.38587E-13
 -1      1241 1.99161E+01 5.47281E+00-1.33248E-01-2.93339E-01-3.00426E-13 1.06678E-13
 -1      1242 1.98229E+01 7.00995E-01-2.90487E-01-1.73406E-01-1.97092E-13-4.44401E-14
 -1      1243 1.98259E+01-2.10766E+00-2.83604E-01-5.09031E-02-3.72681E-13 7.05113E-14
 -1      1244 1.98752E+01-3.03248E+00-1.97607E-01 3.07662E-02-5.27547E-13 3.15078E-14
 -1      1245 1.99338E+01-2.65151E+00-9.75415E-02 7.16582E-02 7.63417E-14 1.79206E-14
 -1      1246 2.00010E+01-1.60056E+00 1.19768E-03 8.90484E-02 4.43479E-13-1.17796E-13
 -1      1247 2.00375E+01-5.37339E-01 6.68369E-02 6.38810E-02-1.90403E-14-1.32914E-13
 -1      1248 1.99898E+01-1.68694E-02 1.90886E-02 1.37469E-02-5.03669E-13 1.00139E-13
 -1      1249-1.40459E+00-3.15313E+01-4.95692E+00-2.69767E+00-7.46792E-13 1.01121E-13
 -1      1250-2.29895E+00-2.09447E+01-4.01710E+00-5.34395E+00 6.91225E-13 2.42251E-13
 -1      1251-2.67457E-01-4.99798E+00-2.38158E+00-1.12068E+00 5.33351E-13 2.66343E-13
 -1      1252 9.12604E+00 8.15491E+00-3.13164E-01 8.54957E+00 7.57616E-13 1.00764E-12
 -1      1253 2.73521E+01 1.34410E+01 1.83802E+00 1.81370E+01 8.21343E-13 9.53460E-13
 -1      1254 5.06735E+01 1.08579E+01 3.66303E+00 2.12757E+01 2.54241E-13 4.22329E-13
 -1      1255 7.01867E+01 4.85544E+00 4.89419E+00 1.43776E+01 3.28071E-14-1.73417E-13
 -1      1256 7.58282E+01 1.89918E+00 5.05872E+00 3.04912E-01-4.05301E-14-8.38912E-13
 -1      1257 6.60239E+01 4.07468E+00 4.28407E+00-1.27968E+01 1.12715E-13-6.52589E-13
 -1      1258 4.52521E+01 8.67239E+00 2.73917E+00-1.81796E+01 5.27356E-13-1.08691E-12
 -1      1259 2.33311E+01 1.01812E+01 9.28868E-01-1.48044E+01 9.13047E-13-1.42775E-12
 -1      1260 7.22957E+00 5.38612E+00-8.38096E-01-6.33291E+00 1.09779E-12-9.57012E-13
 -1      1261-9.80570E-01-5.40507E+00-2.30913E+00 2.03191E+00 8.53317E-13-6.31162E-13
 -1      1262-2.56337E+00-1.83720E+01-3.37921E+00 5.74656E+00 1.12022E-12-4.26048E-13
 -1      1263-1.46829E+00-2.73879E+01-3.94602E+00 3.74103E+00 8.01303E-13-1.65305E-13
 -1      1264-9.63730E-01-2.83368E+01-3.94780E+00-1.21872E+00 9.25149E-13 2.50806E-14
 -1      1265-1.81671E+00-2.03770E+01-3.39245E+00-4.46029E+00 7.36855E-13 1.41137E-13
 -1      1266-1.10884E+00-7.45549E+00-2.34188E+00-2.36993E+00-2.66898E-13-3.35176E-13
 -1      1267 5.13661E+00 4.81528E+00-8.89560E-01 5.14691E+00-8.49765E-13-6.31939E-13
 -1      1268 1.95609E+01 1.13796E+01 8.42671E-01 1.43237E+01 2.81997E-14 2.78888E-13
 -1      1269 3.97984E+01 1.07439E+01 2.43362E+00 1.91083E+01 3.06644E-13 4.84945E-13
 -1      1270 6.05760E+01 5.56952E+00 3.70311E+00 1.55989E+01 1.13271E-13 3.38840E-13
 -1      1271 7.25365E+01 1.74619E+00 4.39280E+00 3.31988E+00 8.90607E-14 5.35738E-13
 -1      1272 6.98304E+01 3.37770E+00 4.37123E+00-1.10667E+01 6.43513E-14-1.99396E-13
 -1      1273 5.32793E+01 9.24780E+00 3.54124E+00-2.00077E+01 1.25011E-13-4.45644E-13
 -1      1274 3.10147E+01 1.34483E+01 2.11678E+00-1.94188E+01 5.05818E-13-7.24976E-13
 -1      1275 1.19051E+01 1.03180E+01 2.08136E-01-1.08412E+01 1.05471E-12-9.35030E-13
 -1      1276 9.65799E-01-1.51912E+00-1.81417E+00-6.59264E-01 1.09979E-12-8.26228E-13
 -1      1277-2.07981E+00-1.78251E+01-3.63776E+00 4.69072E+00 1.64047E-12-4.41092E-13
 -1      1278-1.50722E+00-3.02291E+01-4.77965E+00 2.83360E+00 5.12479E-13-4.86063E-13
 -1      1279 2.22683E+01 1.83827E+00-7.25831E-01-2.79039E+00-6.73905E-14 1.03134E-12
 -1      1280 2.03604E+01 4.69016E+00-4.87494E-02-3.30636E+00-1.72432E-13-1.05117E-13
 -1      1281 2.08681E+01 4.81071E+00-1.13346E-01-4.16070E+00-2.27235E-13 1.56625E-13
 -1      1282 1.95317E+01 4.99400E+00-1.97214E-02-2.65398E+00-1.67616E-13-4.68705E-13
 -1      1283 1.98301E+01 5.09044E+00 3.88747E-05-3.04485E+00-1.90334E-13-3.15449E-13
 -1      1284 2.05269E+01 3.95280E+00-2.59927E-02-3.07396E+00-2.97668E-13-9.14546E-14
 -1      1285 1.91852E+01 5.08419E+00-3.40144E-03-2.07026E+00-1.28890E-13-6.41889E-13
 -1      1286 1.93336E+01 5.13941E+00 1.05187E-02-2.36360E+00-1.53513E-13-5.65551E-13
 -1      1287 1.97554E+01 4.36719E+00-2.38771E-02-2.48995E+00-2.63515E-13-3.92193E-13
 -1      1288 1.90089E+01 5.13099E+00 3.46663E-03-1.56406E+00-9.54202E-14-7.19251E-13
 -1      1289 1.90872E+01 5.16074E+00 1.28111E-02-1.81401E+00-1.04498E-13-6.88442E-13
 -1      1290 1.93930E+01 4.55517E+00-1.94960E-02-1.93089E+00-1.94521E-13-5.40745E-13
 -1      1291 1.89149E+01 5.16061E+00 6.55784E-03-1.11664E+00-5.23019E-14-7.43100E-13
 -1      1292 1.89574E+01 5.17702E+00 1.27708E-02-1.33802E+00-7.00585E-14-7.28570E-13
 -1      1293 1.92052E+01 4.66153E+00-1.60402E-02-1.44428E+00-1.41363E-13-6.00516E-13
 -1      1294 1.88632E+01 5.18036E+00 8.17899E-03-6.93534E-01-2.63409E-14-7.43114E-13
 -1      1295 1.88863E+01 5.18925E+00 1.19947E-02-9.03669E-01-3.26596E-14-7.47968E-13
 -1      1296 1.91021E+01 4.72686E+00-1.39992E-02-1.00391E+00-7.11915E-14-6.24546E-13
 -1      1297 1.88392E+01 5.19226E+00 9.27527E-03-2.89037E-01 1.45754E-14-7.33313E-13
 -1      1298 1.88491E+01 5.19610E+00 1.10556E-02-4.91056E-01-7.44196E-16-7.36244E-13
 -1      1299 1.90461E+01 4.76580E+00-1.29269E-02-5.88548E-01-2.41006E-14-6.18519E-13
 -1      1300 1.88354E+01 5.19720E+00 1.02092E-02 1.08162E-01 3.51006E-14-7.10175E-13
 -1      1301 1.88351E+01 5.19706E+00 1.01365E-02-9.14064E-02 2.90359E-14-7.25819E-13
 -1      1302 1.90218E+01 4.78381E+00-1.24788E-02-1.89021E-01 3.42304E-14-6.10255E-13
 -1      1303 1.88508E+01 5.19574E+00 1.11501E-02 5.08403E-01 7.31923E-14-6.82477E-13
 -1      1304 1.88402E+01 5.19162E+00 9.21219E-03 3.05961E-01 6.11647E-14-6.98372E-13
 -1      1305 1.90227E+01 4.78317E+00-1.24952E-02 2.05684E-01 7.50365E-14-5.91575E-13
 -1      1306 1.88896E+01 5.18810E+00 1.20870E-02 9.22507E-01 1.01776E-13-6.41142E-13
 -1      1307 1.88657E+01 5.17904E+00 8.12111E-03 7.11408E-01 9.17638E-14-6.64913E-13
 -1      1308 1.90488E+01 4.76374E+00-1.29805E-02 6.05908E-01 1.30795E-13-5.58772E-13
 -1      1309 1.89618E+01 5.17516E+00 1.28967E-02 1.35560E+00 1.29261E-13-5.69232E-13
 -1      1310 1.89184E+01 5.15837E+00 6.43654E-03 1.13276E+00 1.20272E-13-6.14817E-13
 -1      1311 1.91065E+01 4.72332E+00-1.40023E-02 1.01909E+00 1.85158E-13-5.13509E-13
 -1      1312 1.90949E+01 5.15676E+00 1.28309E-02 1.84019E+00 1.76303E-13-4.51437E-13
 -1      1313 1.90152E+01 5.12636E+00 3.13256E-03 1.58741E+00 1.57377E-13-5.17256E-13
 -1      1314 1.92123E+01 4.65496E+00-1.61453E-02 1.46209E+00 2.36457E-13-4.27700E-13
 -1      1315 1.93440E+01 5.13357E+00 1.01829E-02 2.39727E+00 2.10651E-13-2.60687E-13
 -1      1316 1.91937E+01 5.07639E+00-4.38504E-03 2.09999E+00 1.92086E-13-3.77191E-13
 -1      1317 1.94054E+01 4.54253E+00-1.99823E-02 1.95772E+00 2.97372E-13-3.07015E-13
 -1      1318 1.98561E+01 5.09954E+00 6.07174E-03 3.08345E+00 2.37296E-13 8.21565E-14
 -1      1319 1.95439E+01 4.98450E+00-2.05435E-02 2.69603E+00 2.11824E-13-1.22524E-13
 -1      1320 1.97752E+01 4.34649E+00-2.45567E-02 2.52758E+00 3.41727E-13-9.21901E-14
 -1      1321 2.11042E+01 4.90707E+00 8.33448E-03 4.05365E+00 1.96065E-13 7.02882E-13
 -1      1322 2.03351E+01 4.73393E+00-4.79592E-02 3.41591E+00 1.98633E-13 3.26003E-13
 -1      1323 2.05653E+01 3.91597E+00-2.24017E-02 3.17800E+00 3.51327E-13 2.90989E-13
 -1      1324 2.72036E+01 3.20540E+00 9.29000E-01 4.58214E+00 9.31200E-14 1.82843E-12
 -1      1325 2.20210E+01 3.52223E+00-1.81991E-01 3.88477E+00 1.02696E-13 1.05038E-12
 -1      1326 2.21134E+01 2.56179E+00-3.25357E-02 3.45628E+00 3.17878E-13 8.50042E-13
 -1      1327 2.14280E+01 3.59562E-01-7.63531E-01 1.18369E+00 1.74971E-13 1.76825E-12
 -1      1328 2.20025E+01 1.31295E-01-4.00859E-01-1.28563E+00-1.81952E-13 1.10850E-12
 -1      1329 2.06800E+01 3.06721E-01-1.64783E-01-8.05708E-01-1.67061E-13 9.01230E-13
 -1      1330 2.00823E+01 1.53525E-01-7.35124E-02-4.01965E-01-1.35812E-13 8.00802E-13
 -1      1331 1.96128E+01 9.12212E-02-1.48830E-02-3.29790E-01-1.32176E-13 6.07028E-13
 -1      1332 2.09738E+01 3.69312E-01-1.04167E-01-1.27374E+00-2.97186E-13 4.35103E-13
 -1      1333 1.92555E+01 6.45118E-02 3.07032E-03-1.35145E-01-1.11961E-13 5.30173E-13
 -1      1334 1.91015E+01 4.12672E-02 1.32599E-02-1.17346E-01-1.02555E-13 3.80029E-13
 -1      1335 1.99233E+01 1.33952E-01-3.50863E-02-5.03627E-01-2.35891E-13 3.05653E-13
 -1      1336 1.89412E+01 3.15277E-02 1.32594E-02-2.78287E-02-7.55758E-14 3.03875E-13
 -1      1337 1.89220E+01 1.93879E-02 1.10672E-02-1.84524E-02-7.27539E-14 1.95399E-13
 -1      1338 1.94463E+01 5.54262E-02-8.50306E-03-1.69650E-01-1.76283E-13 1.80515E-13
 -1      1339 1.88661E+01 1.60216E-02 8.77666E-03 2.52028E-02-4.90508E-14 1.61152E-13
 -1      1340 1.89087E+01 9.08608E-03 6.43244E-03 2.98404E-02-4.45379E-14 9.26516E-14
 -1      1341 1.92377E+01 2.44069E-02-3.50818E-03-1.08010E-02-1.16216E-13 4.90918E-14
 -1      1342 1.89089E+01 7.86533E-03 4.66727E-03 5.10230E-02-2.61139E-14 5.98063E-14
 -1      1343 1.89795E+01 3.50631E-03 3.63722E-03 5.29181E-02-1.40561E-14 2.90679E-14
 -1      1344 1.91812E+01 1.02162E-02-2.22178E-03 6.79225E-02-8.23384E-14-7.80712E-15
 -1      1345 1.90092E+01 3.19039E-03 2.43821E-03 6.17190E-02 7.17471E-15 2.87444E-15
 -1      1346 1.90900E+01 3.26074E-04 2.20850E-03 6.19869E-02-2.20568E-14-1.20060E-14
 -1      1347 1.92077E+01 2.78694E-03-1.32422E-03 1.04780E-01-5.18122E-14-2.47382E-14
 -1      1348 1.91337E+01 4.38957E-04 1.32885E-03 6.36599E-02-2.51283E-14-3.06768E-14
 -1      1349 1.92147E+01-1.47603E-03 1.43724E-03 6.29739E-02-3.15896E-14-6.39558E-14
 -1      1350 1.92770E+01-1.30661E-03-5.56315E-04 1.18039E-01-6.08354E-14-6.43691E-14
 -1      1351 1.92634E+01-1.15289E-03 7.43659E-04 6.05608E-02-4.10975E-14-8.60423E-14
 -1      1352 1.93392E+01-2.42780E-03 9.67938E-04 5.93527E-02-4.84827E-14-1.31937E-13
 -1      1353 1.93654E+01-3.52123E-03 5.47178E-06 1.17659E-01-6.17886E-14-5.65409E-14
 -1      1354 1.93874E+01-2.01007E-03 4.06465E-04 5.47340E-02-5.72399E-14-1.70126E-13
 -1      1355 1.94550E+01-2.83827E-03 6.55623E-04 5.32864E-02-3.93872E-15-2.28451E-13
 -1      1356 1.94588E+01-4.59339E-03 3.60703E-04 1.09578E-01-7.72753E-14-8.22869E-14
 -1      1357 1.94997E+01-2.39215E-03 2.01633E-04 4.76614E-02 1.61539E-14-2.51760E-13
 -1      1358 1.95581E+01-2.90361E-03 4.39411E-04 4.61583E-02-3.43801E-14-2.77412E-13
 -1      1359 1.95486E+01-4.94837E-03 5.54154E-04 9.75309E-02-3.51222E-14-1.91194E-13
 -1      1360 1.95977E+01-2.46748E-03 7.67910E-05 4.02954E-02-3.66326E-14-2.95290E-13
 -1      1361 1.96467E+01-2.75353E-03 2.88999E-04 3.88536E-02-5.47007E-15-3.01462E-13
 -1      1362 1.96304E+01-4.85395E-03 6.33990E-04 8.39092E-02-5.53352E-14-2.12478E-13
 -1      1363 1.96808E+01-2.34854E-03 4.10235E-06 3.32376E-02 2.28619E-14-3.08667E-13
 -1      1364 1.97209E+01-2.47450E-03 1.86257E-04 3.19279E-02-2.01332E-14-2.97867E-13
 -1      1365 1.97020E+01-4.48612E-03 6.38252E-04 7.02416E-02-8.26677E-15-2.56986E-13
 -1      1366 1.97494E+01-2.11030E-03-3.34034E-05 2.68552E-02-3.62115E-14-3.25472E-13
 -1      1367 1.97816E+01-2.12272E-03 1.19065E-04 2.57179E-02-3.36757E-14-3.46746E-13
 -1      1368 1.97629E+01-3.96096E-03 5.93986E-04 5.74836E-02-4.88872E-14-2.68410E-13
 -1      1369 1.98050E+01-1.80102E-03-4.68969E-05 2.13627E-02-5.32519E-14-3.39337E-13
 -1      1370 1.98305E+01-1.73227E-03 7.89018E-05 2.04193E-02-6.04079E-14-4.10119E-13
 -1      1371 1.98135E+01-3.35224E-03 5.19349E-04 4.62131E-02-5.55443E-14-2.79321E-13
 -1      1372 1.98496E+01-1.44911E-03-4.40154E-05 1.68826E-02-1.92294E-14-3.85465E-13
 -1      1373 1.98697E+01-1.32073E-03 5.96558E-05 1.61444E-02-1.83316E-14-4.17961E-13
 -1      1374 1.98550E+01-2.70246E-03 4.25739E-04 3.67704E-02-5.41196E-14-2.83299E-13
 -1      1375 1.98854E+01-1.06798E-03-3.01178E-05 1.34898E-02-1.63351E-14-4.19945E-13
 -1      1376 1.99013E+01-8.93262E-04 5.69025E-05 1.29645E-02-2.57174E-14-4.38668E-13
 -1      1377 1.98890E+01-2.03044E-03 3.19461E-04 2.93598E-02-2.95849E-14-3.32158E-13
 -1      1378 1.99146E+01-6.59615E-04-9.11028E-06 1.12457E-02-5.69527E-14-4.71813E-13
 -1      1379 1.99279E+01-4.45792E-04 6.73780E-05 1.09428E-02-4.75090E-14-5.57304E-13
 -1      1380 1.99175E+01-1.33701E-03 2.02983E-04 2.41274E-02-7.24346E-14-3.78847E-13
 -1      1381 1.99400E+01-2.17401E-04 1.59341E-05 1.02239E-02-1.90841E-14-5.84510E-13
 -1      1382 1.99520E+01 3.23542E-05 8.85335E-05 1.01583E-02-6.31322E-14-6.55461E-13
 -1      1383 1.99424E+01-6.09322E-04 7.59068E-05 2.12182E-02-6.75753E-14-4.30329E-13
 -1      1384 1.99641E+01 2.71440E-04 4.22589E-05 1.05282E-02 7.39759E-15-6.81990E-13
 -1      1385 1.99767E+01 5.55954E-04 1.18105E-04 1.07229E-02-4.81819E-15-6.59178E-13
 -1      1386 1.99662E+01 1.75311E-04-6.42149E-05 2.08186E-02-6.92478E-14-4.37693E-13
 -1      1387 1.99902E+01 8.23308E-04 6.69521E-05 1.23040E-02-2.86255E-14-6.17156E-13
 -1      1388 2.00051E+01 1.14109E-03 1.53645E-04 1.27917E-02-3.33954E-14-6.49022E-13
 -1      1389 1.99914E+01 1.04568E-03-2.21083E-04 2.31840E-02-1.16020E-14-4.95769E-13
 -1      1390 2.00216E+01 1.45520E-03 8.64812E-05 1.57416E-02-6.28789E-14-6.17965E-13
 -1      1391 2.00408E+01 1.80160E-03 1.91980E-04 1.65644E-02-8.22327E-14-7.23816E-13
 -1      1392 2.00209E+01 2.03216E-03-3.98786E-04 2.86520E-02-9.96265E-14-4.77615E-13
 -1      1393 2.00620E+01 2.18059E-03 9.62329E-05 2.10690E-02-3.42496E-14-7.42813E-13
 -1      1394 2.00879E+01 2.54407E-03 2.28564E-04 2.22760E-02 5.24831E-14-7.87874E-13
 -1      1395 2.00579E+01 3.16066E-03-6.00721E-04 3.76361E-02-9.06625E-14-4.66593E-13
 -1      1396 2.01157E+01 3.00344E-03 9.00970E-05 2.85302E-02 1.03682E-13-7.15906E-13
 -1      1397 2.01510E+01 3.36066E-03 2.56759E-04 3.01720E-02 5.16639E-14-5.86462E-13
 -1      1398 2.01061E+01 4.44357E-03-8.28115E-04 5.05945E-02 1.14369E-13-4.09881E-13
 -1      1399 2.01877E+01 3.90925E-03 6.02114E-05 3.83414E-02 1.50124E-14-5.77582E-13
 -1      1400 2.02352E+01 4.21849E-03 2.67138E-04 4.04597E-02 6.57352E-15-4.93304E-13
 -1      1401 2.01695E+01 5.86633E-03-1.07793E-03 6.79621E-02 7.89421E-14-3.75898E-13
 -1      1402 2.02829E+01 4.85209E-03-2.89252E-06 5.06170E-02 1.62287E-14-5.13518E-13
 -1      1403 2.03456E+01 5.04476E-03 2.47055E-04 5.32265E-02 5.43467E-14-5.06253E-13
 -1      1404 2.02523E+01 7.36723E-03-1.33985E-03 9.00288E-02 3.62676E-15-3.76896E-13
 -1      1405 2.04065E+01 5.73597E-03-1.09284E-04 6.52491E-02 3.55615E-14-4.48894E-13
 -1      1406 2.04873E+01 5.70629E-03 1.81013E-04 6.83097E-02-4.20287E-14-5.17107E-13
 -1      1407 2.03588E+01 8.80836E-03-1.59204E-03 1.16743E-01 6.16333E-14-4.86048E-13
 -1      1408 2.05630E+01 6.38988E-03-2.66987E-04 8.17287E-02-6.93781E-15-5.22659E-13
 -1      1409 2.06641E+01 5.98384E-03 5.27722E-05 8.51030E-02 9.32522E-15-5.24704E-13
 -1      1410 2.04927E+01 9.93547E-03-1.79542E-03 1.47408E-01-4.76702E-15-5.25454E-13
 -1      1411 2.07553E+01 6.53685E-03-4.76493E-04 9.88897E-02-6.43208E-14-4.39797E-13
 -1      1412 2.08773E+01 5.54357E-03-1.49322E-04 1.02283E-01-5.51942E-14-5.04293E-13
 -1      1413 2.06566E+01 1.03271E-02-1.88614E-03 1.80254E-01-4.09964E-14-3.97504E-13
 -1      1414 2.09831E+01 5.76153E-03-7.21004E-04 1.14573E-01-7.73444E-14-6.17104E-13
 -1      1415 2.11235E+01 3.91433E-03-4.21991E-04 1.17456E-01-1.07286E-13-7.02875E-13
 -1      1416 2.08504E+01 9.33901E-03-1.76703E-03 2.11848E-01-1.54141E-13-4.69772E-13
 -1      1417 2.12402E+01 3.48954E-03-9.51451E-04 1.25228E-01-5.34381E-14-7.39948E-13
 -1      1418 2.13920E+01 4.91239E-04-7.30587E-04 1.26745E-01-9.49428E-14-7.72472E-13
 -1      1419 2.10697E+01 6.06315E-03-1.29971E-03 2.36389E-01-1.51409E-13-4.54483E-13
 -1      1420 2.15117E+01-9.91815E-04-1.06813E-03 1.25547E-01-4.28158E-14-7.33399E-13
 -1      1421 2.16611E+01-5.39461E-03-9.89059E-04 1.24439E-01-1.90858E-14-7.32750E-13
 -1      1422 2.13037E+01-6.52234E-04-3.03031E-04 2.44983E-01-3.72038E-14-4.41870E-13
 -1      1423 2.17705E+01-8.41581E-03-9.07834E-04 1.08327E-01-3.21115E-14-7.30599E-13
 -1      1424 2.18942E+01-1.42742E-02-1.04682E-03 1.02924E-01-1.07666E-14-7.85458E-13
 -1      1425 2.15321E+01-1.20338E-02 1.43037E-03 2.25220E-01-3.35908E-14-4.98924E-13
 -1      1426 2.19735E+01-1.92361E-02-2.57382E-04 6.49801E-02 4.08814E-14-6.61063E-13
 -1      1427 2.20377E+01-2.61240E-02-7.06749E-04 5.33780E-02 9.26130E-14-5.97504E-13
 -1      1428 2.17232E+01-2.89276E-02 4.07823E-03 1.61658E-01 3.21301E-14-4.10756E-13
 -1      1429 2.20602E+01-3.30542E-02 1.07035E-03-1.26938E-02 1.22042E-14-6.11386E-13
 -1      1430 2.20215E+01-3.96915E-02 1.88665E-04-3.20995E-02 4.55174E-14-5.50580E-13
 -1      1431 2.18317E+01-5.09048E-02 7.66401E-03 3.82477E-02 1.24243E-13-3.16937E-13
 -1      1432 2.19565E+01-4.77830E-02 3.06427E-03-1.28762E-01-4.09915E-15-5.45110E-13
 -1      1433 2.17684E+01-5.17091E-02 1.58339E-03-1.56228E-01 4.43048E-15-5.15791E-13
 -1      1434 2.18016E+01-7.49251E-02 1.18388E-02-1.56042E-01 1.45300E-14-4.24916E-13
 -1      1435 2.15869E+01-5.88688E-02 5.28336E-03-2.77308E-01 4.13645E-14-5.37318E-13
 -1      1436 2.12132E+01-5.65490E-02 3.01298E-03-3.10231E-01 5.17910E-14-4.03927E-13
 -1      1437 2.15731E+01-9.40368E-02 1.56055E-02-4.17661E-01 4.75297E-14-3.16170E-13
 -1      1438 2.08992E+01-5.94139E-02 6.74756E-03-4.36061E-01-4.23966E-15-2.54751E-13
 -1      1439 2.03349E+01-4.73382E-02 3.54469E-03-4.67629E-01 7.49860E-14-1.53433E-13
 -1      1440 2.10996E+01-9.74199E-02 1.71841E-02-7.16623E-01 6.82961E-14-3.00309E-13
 -1      1441 1.98995E+01-4.24767E-02 6.16446E-03-5.64010E-01-1.62366E-14-1.88689E-13
 -1      1442 1.91923E+01-1.95051E-02 2.11599E-03-5.83479E-01-1.40822E-13-2.85612E-13
 -1      1443 2.03725E+01-7.36317E-02 1.43693E-02-9.88600E-01 1.91774E-14-1.56706E-13
 -1      1444 1.86859E+01-5.99747E-03 2.75536E-03-6.09660E-01-9.44422E-14-2.71484E-13
 -1      1445 1.79442E+01 2.40279E-02-1.58676E-03-6.05897E-01-1.11955E-13-4.83565E-13
 -1      1446 1.94491E+01-1.80447E-02 5.65920E-03-1.14214E+00-1.27066E-13-3.20894E-13
 -1      1447 1.74561E+01 4.21533E-02-2.66117E-03-5.33151E-01-1.81645E-13-5.38687E-13
 -1      1448 1.68296E+01 7.00322E-02-6.30728E-03-5.01127E-01-1.07789E-13-6.82229E-13
 -1      1449 1.84663E+01 5.91514E-02-7.87293E-03-1.09042E+00-2.11958E-13-4.78969E-13
 -1      1450 1.64648E+01 8.44841E-02-7.61835E-03-3.33569E-01 8.75714E-14-6.64156E-13
 -1      1451 1.60954E+01 9.95697E-02-9.50049E-03-2.79722E-01 7.29954E-14-6.32822E-13
 -1      1452 1.76189E+01 1.32339E-01-2.14955E-02-8.00668E-01-5.91697E-14-5.26383E-13
 -1      1453 1.59345E+01 1.02911E-01-9.57260E-03-6.06023E-02-1.79804E-14-4.78821E-13
 -1      1454 1.58996E+01 9.96514E-02-9.17946E-03-1.46924E-03-1.12358E-14-5.51222E-13
 -1      1455 1.70957E+01 1.72053E-01-2.89227E-02-3.30136E-01 1.38065E-13-3.52221E-13
 -1      1456 1.59632E+01 9.12682E-02-8.05472E-03 2.05709E-01 4.29535E-14-5.68382E-13
 -1      1457 1.62465E+01 7.27754E-02-5.69511E-03 2.52564E-01 7.20205E-14-4.93557E-13
 -1      1458 1.69994E+01 1.63521E-01-2.67201E-02 1.88254E-01-1.07189E-14-1.47350E-13
 -1      1459 1.64906E+01 5.91003E-02-5.01062E-03 3.96669E-01 1.20124E-13-5.40894E-13
 -1      1460 1.69993E+01 3.38553E-02-1.35566E-03 4.22088E-01 9.84811E-14-3.20334E-13
 -1      1461 1.73040E+01 1.15819E-01-1.71871E-02 6.11864E-01 1.41337E-13-9.66050E-14
 -1      1462 1.73426E+01 2.21816E-02-2.38470E-03 4.83878E-01-1.53767E-14-3.33761E-13
 -1      1463 1.79517E+01-3.26427E-03 2.51703E-03 4.88567E-01 3.32883E-14-3.56271E-13
 -1      1464 1.78805E+01 5.22135E-02-5.84060E-03 8.55898E-01 1.50509E-13-9.02368E-14
 -1      1465 1.83114E+01-1.27293E-02 8.33908E-04 4.71452E-01 1.71442E-13-3.74561E-13
 -1      1466 1.88926E+01-3.95629E-02 6.86324E-03 4.57738E-01 2.58213E-13-6.20407E-14
 -1      1467 1.85641E+01-1.22643E-02 3.72409E-03 9.05432E-01 1.27791E-13-1.31367E-13
 -1      1468 1.92048E+01-5.44639E-02 8.52730E-03 3.54932E-01 2.97386E-13-7.96203E-14
 -1      1469 1.96295E+01-8.12762E-02 1.46439E-02 3.24900E-01 1.72929E-13 2.19729E-13
 -1      1470 1.92159E+01-9.06804E-02 1.29477E-02 7.67215E-01 3.42248E-13-2.49414E-13
 -1      1471 1.99240E+01-8.82591E-02 3.53164E-02 6.30050E-02-1.70954E-13 1.45952E-13
 -1      1472 1.98083E+01-2.32298E-01 2.04976E-02 3.55028E-01 1.51268E-15-8.82181E-14
 -1      1473 2.02610E+01 7.54727E-02-1.52085E-01 4.83732E-01 1.39933E-13 1.44035E-12
 -1      1474 2.15311E+01 2.16135E-01-2.29285E-01 7.20715E-01 1.29910E-13 1.66396E-12
 -1      1475 2.17297E+01 8.81729E-01-8.54782E-02 2.06460E+00 2.57003E-13 1.11997E-12
 -1      1476 1.93330E+01 3.23833E-02-2.13295E-02 1.85895E-01 1.16455E-13 1.15548E-12
 -1      1477 1.97535E+01 1.13623E-01-6.26957E-02 2.37907E-01 1.06169E-13 1.32024E-12
 -1      1478 2.03047E+01 1.87668E-01-5.51947E-02 7.85951E-01 2.21670E-13 8.95821E-13
 -1      1479 1.89516E+01 1.51095E-02 5.66704E-03 5.33797E-02 9.00773E-14 9.05290E-13
 -1      1480 1.90900E+01 5.16348E-02 9.80146E-04 7.97003E-02 9.28207E-14 1.05345E-12
 -1      1481 1.95599E+01 7.18416E-02-1.21599E-02 2.98751E-01 1.99379E-13 7.03174E-13
 -1      1482 1.88415E+01 7.12565E-03 6.97516E-03-9.13469E-03 7.64337E-14 7.26086E-13
 -1      1483 1.88559E+01 2.58707E-02 1.10901E-02 5.27398E-03 6.81556E-14 8.37837E-13
 -1      1484 1.92248E+01 3.10431E-02-2.46806E-03 8.32289E-02 1.49132E-13 5.34496E-13
 -1      1485 1.88679E+01 3.21365E-03 4.78117E-03-3.94057E-02 2.69188E-14 6.22974E-13
 -1      1486 1.88239E+01 1.38201E-02 8.52042E-03-3.12761E-02 3.03685E-14 6.78109E-13
 -1      1487 1.91085E+01 1.32715E-02-1.62423E-03-2.17826E-02 8.84457E-14 4.50273E-13
 -1      1488 1.89624E+01 1.05449E-03 3.29283E-03-5.28479E-02 2.59884E-14 5.84466E-13
 -1      1489 1.88917E+01 7.28976E-03 5.36704E-03-4.83654E-02 1.60858E-14 6.14215E-13
 -1      1490 1.91100E+01 4.54509E-03-1.63954E-03-7.32966E-02 2.02794E-14 3.89939E-13
 -1      1491 1.90871E+01-1.96166E-04 2.51083E-03-5.67966E-02 2.32304E-14 5.50076E-13
 -1      1492 1.90067E+01 3.45254E-03 3.43017E-03-5.45741E-02 1.91633E-14 5.74361E-13
 -1      1493 1.91730E+01-1.13526E-04-1.38435E-03-9.59407E-02 3.93751E-14 3.62615E-13
 -1      1494 1.92201E+01-9.05485E-04 2.04658E-03-5.52822E-02 3.93697E-14 4.81512E-13
 -1      1495 1.91397E+01 1.11732E-03 2.32756E-03-5.44814E-02 2.55589E-14 5.32439E-13
 -1      1496 1.92652E+01-2.63719E-03-1.00873E-03-1.02109E-01 4.60136E-14 3.79882E-13
 -1      1497 1.93489E+01-1.27030E-03 1.70289E-03-5.07366E-02 7.24610E-14 3.99967E-13
 -1      1498 1.92739E+01-2.93707E-04 1.64913E-03-5.08160E-02 6.26618E-14 4.74082E-13
 -1      1499 1.93675E+01-3.91183E-03-6.65652E-04-9.87983E-02 8.86790E-14 3.04240E-13
 -1      1500 1.94667E+01-1.41139E-03 1.41353E-03-4.46948E-02 2.67937E-14 3.30657E-13
 -1      1501 1.93998E+01-1.10558E-03 1.18868E-03-4.52940E-02 4.00134E-14 3.69439E-13
 -1      1502 1.94686E+01-4.41844E-03-4.00998E-04-9.02689E-02 8.28234E-14 2.45030E-13
 -1      1503 1.95700E+01-1.40857E-03 1.16069E-03-3.81394E-02 4.72998E-14 2.54944E-13
 -1      1504 1.95123E+01-1.52077E-03 8.56983E-04-3.90160E-02 3.26865E-15 2.51713E-13
 -1      1505 1.95623E+01-4.44766E-03-2.11239E-04-7.92207E-02 3.92497E-14 1.76018E-13
 -1      1506 1.96579E+01-1.31600E-03 9.39873E-04-3.16933E-02 4.31560E-14 1.78864E-13
 -1      1507 1.96096E+01-1.67323E-03 6.12366E-04-3.26845E-02 4.50336E-14 2.38106E-13
 -1      1508 1.96453E+01-4.18649E-03-8.12053E-05-6.73825E-02 6.37256E-14 1.14046E-13
 -1      1509 1.97308E+01-1.17012E-03 7.49109E-04-2.57393E-02 2.96946E-14 1.06919E-13
 -1      1510 1.96912E+01-1.65385E-03 4.31548E-04-2.67371E-02 4.82445E-14 1.74081E-13
 -1      1511 1.97165E+01-3.75839E-03 3.55742E-06-5.58489E-02 8.10740E-14 1.27231E-13
 -1      1512 1.97899E+01-9.94368E-04 5.86241E-04-2.05017E-02 1.43292E-14-1.60115E-14
 -1      1513 1.97582E+01-1.52395E-03 2.99321E-04-2.14356E-02 4.69850E-14 6.99159E-14
 -1      1514 1.97760E+01-3.24397E-03 5.42689E-05-4.52935E-02 8.32818E-14 2.24357E-14
 -1      1515 1.98371E+01-8.02368E-04 4.48404E-04-1.61047E-02-7.09328E-14-9.49056E-16
 -1      1516 1.98121E+01-1.32322E-03 2.04840E-04-1.69288E-02-2.48745E-14-2.98355E-14
 -1      1517 1.98248E+01-2.69304E-03 7.89425E-05-3.61156E-02 1.16525E-16 4.10070E-14
 -1      1518 1.98745E+01-6.00092E-04 3.32080E-04-1.26174E-02 5.20620E-16-2.74299E-15
 -1      1519 1.98550E+01-1.07489E-03 1.40089E-04-1.33002E-02-3.55074E-15-1.93991E-14
 -1      1520 1.98643E+01-2.13246E-03 8.27962E-05-2.85459E-02-2.68020E-14-3.50637E-14
 -1      1521 1.99045E+01-3.87438E-04 2.33229E-04-1.00870E-02 5.24323E-14-8.33338E-14
 -1      1522 1.98892E+01-7.89214E-04 9.91136E-05-1.06034E-02 1.21851E-14-7.70503E-14
 -1      1523 1.98966E+01-1.57166E-03 6.85772E-05-2.27273E-02 2.38639E-14-1.46436E-13
 -1      1524 1.99297E+01-1.59279E-04 1.47441E-04-8.56689E-03 3.96959E-15-1.57113E-13
 -1      1525 1.99171E+01-4.65820E-04 7.75806E-05-8.89104E-03 4.39263E-14-1.31076E-13
 -1      1526 1.99236E+01-1.00644E-03 3.67600E-05-1.87770E-02 7.67973E-14-1.19472E-13
 -1      1527 1.99527E+01 9.39366E-05 7.00020E-05-8.13837E-03-3.66373E-14-1.41939E-13
 -1      1528 1.99413E+01-9.51367E-05 7.25014E-05-8.23818E-03-4.39583E-14-1.66793E-13
 -1      1529 1.99476E+01-4.21562E-04-1.43918E-05-1.68363E-02-7.28058E-15-2.62196E-13
 -1      1530 1.99766E+01 3.85966E-04-4.10848E-06-8.93140E-03-5.57459E-14-3.18002E-15
 -1      1531 1.99649E+01 3.40937E-04 8.20379E-05-8.76233E-03-1.41794E-14-3.22206E-14
 -1      1532 1.99714E+01 2.07709E-04-8.89059E-05-1.71135E-02-7.64408E-14-1.67441E-13
 -1      1533 2.00050E+01 7.34899E-04-8.03252E-05-1.11437E-02 1.43958E-14 3.66373E-14
 -1      1534 1.99910E+01 8.69062E-04 1.05353E-04-1.06429E-02-1.52933E-14 2.19750E-14
 -1      1535 1.99978E+01 9.15042E-04-1.93337E-04-1.99223E-02-7.05881E-14-3.52811E-14
 -1      1536 2.00419E+01 1.16366E-03-1.64743E-04-1.50609E-02 8.71140E-14-1.40705E-13
 -1      1537 2.00235E+01 1.52519E-03 1.42463E-04-1.41404E-02 9.80438E-14-5.12904E-15
 -1      1538 2.00303E+01 1.74327E-03-3.37200E-04-2.57198E-02 1.26459E-13-2.55309E-14
 -1      1539 2.00925E+01 1.70081E-03-2.64579E-04-2.10796E-02-8.37123E-15-1.96788E-13
 -1      1540 2.00668E+01 2.35605E-03 1.94033E-04-1.96181E-02-9.06610E-16-2.17376E-13
 -1      1541 2.00730E+01 2.74548E-03-5.33661E-04-3.51465E-02 7.58341E-14-1.09804E-13
 -1      1542 2.01630E+01 2.38164E-03-3.88953E-04-2.97334E-02-4.06851E-14-8.06442E-14
 -1      1543 2.01267E+01 3.42130E-03 2.61004E-04-2.75666E-02-4.60217E-14-1.63850E-13
 -1      1544 2.01311E+01 3.98690E-03-8.00543E-04-4.90716E-02-7.63398E-14-1.83624E-13
 -1      1545 2.02613E+01 3.24906E-03-5.50148E-04-4.17245E-02-5.82809E-14 1.98464E-13
 -1      1546 2.02101E+01 4.79613E-03 3.43884E-04-3.86321E-02-3.36366E-14 8.96137E-14
 -1      1547 2.02107E+01 5.54729E-03-1.16171E-03-6.86449E-02-1.47310E-13-2.96388E-14
 -1      1548 2.03974E+01 4.35350E-03-7.65529E-04-5.79568E-02-3.42020E-14 2.61397E-13
 -1      1549 2.03258E+01 6.57336E-03 4.41373E-04-5.36471E-02-4.58977E-14 1.97667E-13
 -1      1550 2.03195E+01 7.52281E-03-1.64877E-03-9.53529E-02-7.63460E-14 1.09686E-13
 -1      1551 2.05839E+01 5.74966E-03-1.06025E-03-7.95650E-02 2.99682E-14 8.59926E-14
 -1      1552 2.04848E+01 8.86267E-03 5.47771E-04-7.36576E-02 6.64547E-14 1.76144E-13
 -1      1553 2.04671E+01 1.00252E-02-2.30286E-03-1.31072E-01 1.06570E-13 3.34316E-15
 -1      1554 2.08363E+01 7.48552E-03-1.47032E-03-1.07918E-01-4.22349E-14 6.09894E-14
 -1      1555 2.07010E+01 1.17814E-02 6.48384E-04-9.99297E-02-7.78934E-14 4.07474E-14
 -1      1556 2.06654E+01 1.31726E-02-3.17560E-03-1.78093E-01-3.88255E-14 7.59269E-14
 -1      1557 2.11738E+01 9.57403E-03-2.04387E-03-1.44548E-01 3.34264E-14-6.20519E-14
 -1      1558 2.09913E+01 1.54250E-02 7.12116E-04-1.33894E-01 9.54748E-15-2.72889E-14
 -1      1559 2.09284E+01 1.70592E-02-4.32646E-03-2.39051E-01 1.25733E-14-1.94740E-14
 -1      1560 2.16190E+01 1.19291E-02-2.83279E-03-1.90907E-01-5.31808E-14-3.75273E-14
 -1      1561 2.13761E+01 1.97914E-02 6.81615E-04-1.76948E-01 4.46605E-15-7.50823E-14
 -1      1562 2.12729E+01 2.16782E-02-5.81035E-03-3.16637E-01 3.77996E-14-4.78860E-14
 -1      1563 2.21966E+01 1.42328E-02-3.85384E-03-2.47739E-01-4.87904E-14 1.47105E-13
 -1      1564 2.18786E+01 2.46138E-02 4.66371E-04-2.29933E-01-2.56449E-14 5.93249E-14
 -1      1565 2.17171E+01 2.67470E-02-7.63985E-03-4.12813E-01-6.14604E-14 5.84142E-14
 -1      1566 2.29291E+01 1.56829E-02-4.97100E-03-3.13685E-01 6.45985E-14 8.76955E-14
 -1      1567 2.25221E+01 2.90190E-02-4.19110E-05-2.91983E-01-3.00688E-14 8.86548E-14
 -1      1568 2.22787E+01 3.13437E-02-9.69024E-03-5.27029E-01-4.18597E-14 1.08271E-13
 -1      1569 2.38279E+01 1.45696E-02-5.61651E-03-3.82517E-01 8.14359E-14-4.91968E-15
 -1      1570 2.33242E+01 3.09081E-02-8.83538E-04-3.58220E-01 6.33981E-14 2.69090E-14
 -1      1571 2.29698E+01 3.32207E-02-1.14910E-02-6.52591E-01 1.02940E-13-1.35441E-13
 -1      1572 2.48743E+01 7.72067E-03-4.28337E-03-4.38256E-01-2.87342E-14-6.70922E-14
 -1      1573 2.42837E+01 2.60148E-02-1.79494E-03-4.15642E-01 2.00740E-14 5.68365E-14
 -1      1574 2.37874E+01 2.76948E-02-1.18414E-02-7.70020E-01 2.38303E-14-1.60887E-13
 -1      1575 2.59869E+01-9.80199E-03 2.04846E-03-4.48094E-01-3.41485E-14 2.52298E-14
 -1      1576 2.53575E+01 6.96529E-03-1.77532E-03-4.37005E-01-4.19246E-14-1.57270E-14
 -1      1577 2.46960E+01 6.33602E-03-8.30509E-03-8.36672E-01-1.59972E-14-7.67754E-14
 -1      1578 2.69754E+01-4.34068E-02 1.75895E-02-3.56051E-01 7.92786E-14 7.06657E-14
 -1      1579 2.64233E+01-3.61635E-02 1.36148E-03-3.74684E-01 8.59642E-15 1.21465E-13
 -1      1580 2.56025E+01-4.31770E-02 2.93056E-03-7.74828E-01-6.13155E-14-6.92502E-15
 -1      1581 2.74982E+01-9.30058E-02 4.39695E-02-8.87267E-02 7.36772E-14 9.13978E-14
 -1      1582 2.72353E+01-1.09881E-01 1.03958E-02-1.62810E-01 6.38205E-15 1.73923E-13
 -1      1583 2.63260E+01-1.31526E-01 2.54812E-02-4.69569E-01-9.88792E-16 2.87992E-13
 -1      1584 2.70804E+01-1.40328E-01 7.07309E-02 4.02224E-01-7.98112E-14 7.52037E-14
 -1      1585 2.74019E+01-2.01048E-01 2.47178E-02 2.52759E-01 5.41928E-14 9.72295E-14
 -1      1586 2.65823E+01-2.49414E-01 5.67971E-02 1.93479E-01 7.30214E-14 1.42219E-13
 -1      1587 2.52984E+01-1.39121E-01 6.70771E-02 1.04161E+00-6.43929E-15 2.99524E-13
 -1      1588 2.64610E+01-2.55728E-01 3.33559E-02 8.35793E-01-3.88509E-14 2.11650E-13
 -1      1589 2.60299E+01-3.37385E-01 7.89286E-02 1.20867E+00-9.59753E-14 3.25340E-13
 -1      1590 2.21922E+01-3.84721E-02-3.01660E-03 1.52874E+00-2.04387E-13 5.51559E-13
 -1      1591 2.41483E+01-1.87041E-01 1.39633E-02 1.36031E+00-1.01238E-13 2.79055E-13
 -1      1592 2.44535E+01-2.75294E-01 6.08623E-02 2.26672E+00-1.16841E-13 4.84356E-13
 -1      1593 1.86780E+01 1.38376E-01-1.26756E-01 1.42945E+00 9.03930E-14 6.20420E-13
 -1      1594 2.08303E+01 3.89205E-02-4.76021E-02 1.43650E+00 2.24612E-14 5.12701E-13
 -1      1595 2.20863E+01 3.00408E-02-1.03536E-02 2.70919E+00-9.36057E-15 3.25864E-13
 -1      1596 1.63855E+01 2.33571E-01-1.87878E-01 6.16443E-01-4.07313E-15 5.12569E-13
 -1      1597 1.77337E+01 2.78977E-01-1.09566E-01 8.27682E-01 8.04842E-14 7.41254E-13
 -1      1598 1.98191E+01 4.57005E-01-8.35742E-02 1.95249E+00 9.99895E-15 4.38281E-13
 -1      1599 1.62901E+01 1.68066E-01-1.37658E-01-3.92144E-01 1.68650E-14 7.72687E-13
 -1      1600 1.62593E+01 3.32647E-01-1.10163E-01-1.18626E-01-6.75432E-14 5.88371E-13
 -1      1601 1.87001E+01 6.02835E-01-1.01687E-01 3.25538E-01-8.19345E-14 7.51730E-13
 -1      1602 1.78794E+01 3.25344E-03-1.23439E-02-8.91267E-01-2.14455E-14 6.68313E-13
 -1      1603 1.68208E+01 1.57609E-01-5.28895E-02-7.55242E-01 6.07674E-14 5.95884E-13
 -1      1604 1.90070E+01 3.37046E-01-6.43927E-02-1.08168E+00 7.12277E-14 4.76119E-13
 -1      1605 1.95867E+01-9.82992E-02 7.70963E-02-7.26229E-01 1.81498E-13 6.24362E-13
 -1      1606 1.84535E+01-5.05448E-02 1.96435E-02-7.57128E-01 9.76589E-14 7.55257E-13
 -1      1607 1.99995E+01-8.37517E-02-1.34475E-02-1.42185E+00 5.38684E-14 3.77504E-13
 -1      1608 2.05204E+01-9.89942E-02 8.55587E-02-2.44857E-01-2.29218E-14 5.18974E-13
 -1      1609 1.98664E+01-1.38026E-01 5.42608E-02-3.55164E-01 5.84480E-14 6.28747E-13
 -1      1610 2.07596E+01-3.02457E-01 1.11889E-02-8.61841E-01 1.12634E-13 6.64538E-13
 -1      1611 2.04952E+01-3.03339E-02 4.16248E-02 1.04093E-01 3.03585E-14 3.79209E-13
 -1      1612 2.04202E+01-8.77690E-02 4.22677E-02 2.65740E-02-1.34528E-14 4.34389E-13
 -1      1613 2.08772E+01-2.37045E-01 9.67583E-03-1.07154E-01-2.05426E-14 5.92802E-13
 -1      1614 2.01386E+01 4.75348E-02 1.94163E-02 1.08988E-01-2.64824E-13 3.34453E-13
 -1      1615 2.02471E+01 2.67540E-02 1.87177E-02 1.21641E-01-3.96818E-15 2.74283E-13
 -1      1616 2.05126E+01-1.15316E-02 3.72883E-03 2.27528E-01-8.56867E-14 2.63004E-13
 -1      1617 1.99954E+01 3.56166E-02 2.14068E-03 1.20099E-03 1.74975E-13 1.87501E-13
 -1      1618 2.01757E+01 6.92020E-01-2.93108E-02 3.52712E-01-7.53789E-14-4.02779E-13
 -1      1619 2.01497E+01 2.96160E-01-7.17102E-03 2.63666E-01 4.31072E-13-6.14427E-13
 -1      1620 2.02463E+01 2.28362E+00-4.01196E-02 9.43779E-01-5.28216E-13-2.45769E-13
 -1      1621 2.02399E+01 1.17911E+00-4.24390E-02 7.97407E-01-2.37463E-13-1.42435E-13
 -1      1622 2.03862E+01 7.93400E-01-5.81140E-02 1.10008E+00 2.22924E-13-6.25621E-13
 -1      1623 2.01765E+01 5.08044E+00-3.61412E-02 1.60423E+00-2.01603E-13 2.69640E-13
 -1      1624 2.02538E+01 3.20873E+00-5.24510E-02 1.46188E+00-5.82784E-13 1.03079E-13
 -1      1625 2.04417E+01 2.11831E+00-6.82854E-02 2.28098E+00 2.50702E-14-1.45692E-13
 -1      1626 1.99254E+01 8.63737E+00 4.87207E-03 1.89228E+00 9.07052E-14-1.69646E-13
 -1      1627 2.00905E+01 6.40632E+00-2.54650E-02 1.86952E+00-7.40519E-14 3.26373E-13
 -1      1628 2.02126E+01 4.31141E+00-3.99914E-02 3.28015E+00 1.55403E-13 5.49380E-13
 -1      1629 1.95928E+01 1.16606E+01 6.49655E-02 1.36675E+00-3.15914E-13-2.87485E-13
 -1      1630 1.97685E+01 9.97228E+00 3.93885E-02 1.55653E+00-3.88578E-14-3.39364E-13
 -1      1631 1.97176E+01 6.98520E+00 5.15966E-02 3.24765E+00 2.48898E-14-4.91295E-13
 -1      1632 1.94415E+01 1.26276E+01 9.85175E-02 1.64301E-01-1.55626E-13 1.15581E-13
 -1      1633 1.94814E+01 1.23187E+01 8.96356E-02 4.63126E-01-2.79332E-13-5.89667E-14
 -1      1634 1.92241E+01 9.03285E+00 1.56089E-01 1.73698E+00-5.62050E-16-2.10824E-13
 -1      1635 1.95873E+01 1.10144E+01 7.22492E-02-1.25619E+00-2.98095E-13-1.09648E-13
 -1      1636 1.94764E+01 1.23150E+01 9.44892E-02-9.68208E-01-2.22544E-13 6.33035E-14
 -1      1637 1.90832E+01 9.42953E+00 1.83918E-01-7.65948E-01-2.56672E-13 5.63855E-14
 -1      1638 1.99261E+01 7.36960E+00 7.22474E-03-2.05456E+00-4.89248E-13-9.67768E-14
 -1      1639 1.97402E+01 9.73895E+00 4.04145E-02-1.96622E+00-2.34729E-13-2.97769E-13
 -1      1640 1.94171E+01 7.79288E+00 1.11733E-01-3.04598E+00-1.81459E-13-1.86323E-13
 -1      1641 2.01985E+01 3.32026E+00-4.08461E-02-1.98599E+00-2.51188E-13 9.16541E-14
 -1      1642 2.00622E+01 5.76644E+00-1.48285E-02-2.07989E+00-2.80859E-13-2.11896E-15
 -1      1643 1.99672E+01 4.88466E+00 2.64823E-03-3.90631E+00-1.48444E-13 3.06474E-14
 -1      1644 2.02899E+01 1.78474E-01-4.91667E-02-1.36641E+00-1.94261E-13 3.87121E-14
 -1      1645 2.02441E+01 1.96949E+00-3.75617E-02-1.53162E+00-1.92041E-13 1.73264E-14
 -1      1646 2.03714E+01 1.95898E+00-6.37647E-02-3.33173E+00-2.72372E-13 8.97407E-14
 -1      1647 2.02481E+01-1.57268E+00-3.33163E-02-6.34988E-01-5.24490E-13-1.10030E-13
 -1      1648 2.02659E+01-6.62558E-01-3.17382E-02-7.82737E-01-2.73129E-13-9.15309E-14
 -1      1649 2.04871E+01-1.60322E-01-7.53974E-02-2.05119E+00-2.62703E-13-1.12414E-13
 -1      1650 2.01583E+01-2.08260E+00-1.41330E-02-5.78357E-02-2.27037E-13 3.24522E-13
 -1      1651 2.02012E+01-1.91519E+00-1.67600E-02-1.55090E-01-4.43884E-13 1.44770E-13
 -1      1652 2.04010E+01-1.26976E+00-5.76922E-02-7.73012E-01-4.51085E-13 8.76833E-14
 -1      1653 2.00698E+01-1.76576E+00-1.06061E-03 2.88618E-01 9.54653E-14-5.88123E-14
 -1      1654 2.01162E+01-2.06314E+00-4.69014E-03 2.39787E-01-1.14190E-13 1.97505E-13
 -1      1655 2.02462E+01-1.54274E+00-3.34155E-02 1.47440E-01-1.89357E-13 3.34307E-13
 -1      1656 1.99975E+01-1.07297E+00 6.70843E-03 3.99918E-01 2.30392E-13-1.55280E-13
 -1      1657 2.00286E+01-1.54614E+00 1.13210E-03 3.99959E-01 3.20292E-13-3.40413E-14
 -1      1658 2.00895E+01-1.27349E+00-1.11787E-02 6.35466E-01-1.75034E-15 1.33804E-13
 -1      1659 1.99009E+01-4.41800E-01 4.08177E-03 4.13632E-01-4.74065E-14-2.47370E-13
 -1      1660 1.99352E+01-8.25927E-01 1.15803E-03 4.80158E-01 2.40075E-13-3.61544E-13
 -1      1661 1.99529E+01-7.47543E-01 2.16553E-02 7.93896E-01 1.45798E-13-3.08096E-13
 -1      1662 1.96605E+01-3.20824E-01 9.48965E-03 7.49676E-01 2.90390E-13-3.23200E-13
 -1      1663-8.37468E-01-1.94345E+01-2.29193E+00-1.44869E+00 4.92939E-14 3.32429E-13
 -1      1664-7.74855E-01-2.16091E+01-2.48053E+00 2.71716E-01-8.79297E-14-1.45661E-13
 -1      1665 1.31505E+00-1.14422E+01-1.60443E+00 2.59736E-01 4.68070E-13 2.63817E-13
 -1      1666 5.81838E-01-1.76620E+01-2.26614E+00-2.62738E-01 1.72196E-13 3.14457E-13
 -1      1667 7.58488E+00-2.09226E+00-6.94483E-01 4.87624E+00 3.98348E-13 3.52163E-13
 -1      1668 4.30206E+00-8.96622E+00-1.64118E+00 1.66480E+00 6.44373E-13 1.83298E-13
 -1      1669 1.83392E+01 5.00251E+00 2.37676E-01 1.06213E+01 4.44311E-13 6.45262E-13
 -1      1670 1.15383E+01 5.55115E-01-7.98174E-01 6.30740E+00 2.56906E-13 5.67990E-13
 -1      1671 3.40826E+01 6.97108E+00 1.09040E+00 1.40788E+01 4.29656E-13 2.91100E-13
 -1      1672 2.42856E+01 6.00362E+00 1.49903E-01 1.13355E+01 4.57190E-13 3.85914E-13
 -1      1673 4.96167E+01 6.17688E+00 1.79917E+00 1.25243E+01 5.90084E-14 5.28466E-14
 -1      1674 3.95092E+01 7.68365E+00 1.02378E+00 1.34682E+01 2.96096E-13 2.38920E-13
 -1      1675 6.01961E+01 4.51322E+00 2.26820E+00 6.61715E+00 2.51021E-13-4.80338E-13
 -1      1676 5.41731E+01 6.37418E+00 1.86408E+00 1.15672E+01 1.84686E-13-3.93019E-14
 -1      1677 6.04225E+01 4.01961E+00 2.13486E+00-2.28476E+00 3.65263E-14-7.00495E-13
 -1      1678 6.14056E+01 4.19153E+00 2.24835E+00 3.97445E+00 1.09690E-13-7.16247E-13
 -1      1679 5.14921E+01 5.06162E+00 1.57784E+00-9.31461E+00 1.15880E-13-8.79297E-13
 -1      1680 5.88077E+01 3.74015E+00 2.19081E+00-5.00989E+00 6.39488E-14-8.87845E-13
 -1      1681 3.63009E+01 5.74776E+00 6.99703E-01-1.12006E+01 6.04850E-13-8.04246E-13
 -1      1682 4.66750E+01 4.83455E+00 1.59865E+00-1.07115E+01 3.90576E-13-6.06182E-13
 -1      1683 2.14912E+01 4.16414E+00-1.61118E-01-9.11423E+00 7.38076E-13-9.30145E-13
 -1      1684 3.05160E+01 5.33260E+00 7.71079E-01-1.16995E+01 7.37188E-13-8.29781E-13
 -1      1685 1.00122E+01-1.01396E+00-9.56142E-01-4.39276E+00 8.34000E-13-7.19869E-13
 -1      1686 1.62718E+01 2.87867E+00-6.17266E-02-8.16500E+00 8.28004E-13-8.08020E-13
 -1      1687 3.07935E+00-8.76114E+00-1.56190E+00-2.01808E-01 6.29496E-13-5.27189E-13
 -1      1688 5.98817E+00-3.00515E+00-8.24590E-01-3.00969E+00 7.68718E-13-7.61724E-13
 -1      1689 7.69144E-02-1.62352E+01-1.92579E+00 1.45827E+00 8.60534E-13-2.78225E-13
 -1      1690 6.09797E-01-1.09827E+01-1.45516E+00 9.91023E-01 7.43738E-13-2.38587E-13
 -1      1691-8.03093E-01-1.99652E+01-2.01767E+00 6.60045E-01 5.44176E-13-1.37140E-13
 -1      1692-9.84683E-01-1.76848E+01-1.85458E+00 2.07793E+00 7.65388E-13-3.66956E-13
 -1      1693-8.76061E-01-1.84197E+01-1.84991E+00-8.13006E-01 6.37157E-13 6.71407E-14
 -1      1694-9.12590E-01-2.01124E+01-2.01771E+00 9.59000E-01 6.26846E-13 1.69309E-15
 -1      1695 4.97185E-01-1.18386E+01-1.37777E+00-2.28993E-01 4.61076E-13 1.54349E-13
 -1      1696 8.39249E-02-1.67754E+01-1.84205E+00-1.29440E-01 5.30909E-13 1.66284E-13
 -1      1697 4.78107E+00-3.73269E+00-7.77412E-01 3.03681E+00-1.85185E-13-6.64691E-13
 -1      1698 2.66425E+00-9.66249E+00-1.46007E+00 8.64278E-01 3.31291E-13-3.93241E-13
 -1      1699 1.36864E+01 3.11071E+00-7.13680E-02 8.13776E+00-3.58602E-13-5.36238E-14
 -1      1700 8.33748E+00-1.54829E+00-9.19095E-01 4.36697E+00-4.49640E-13-2.30149E-13
 -1      1701 2.70168E+01 6.28390E+00 6.29414E-01 1.22872E+01 2.03171E-14 4.41425E-13
 -1      1702 1.85640E+01 4.67810E+00-2.17317E-01 9.23414E+00-2.75557E-13 1.48326E-13
 -1      1703 4.21124E+01 5.84215E+00 1.26153E+00 1.20175E+01 2.52687E-13 2.17604E-13
 -1      1704 3.26028E+01 6.58642E+00 5.02695E-01 1.17951E+01 1.90292E-13 2.69562E-13
 -1      1705 5.54571E+01 4.47672E+00 1.88406E+00 7.59124E+00 1.27676E-14 2.97984E-13
 -1      1706 4.72238E+01 6.21383E+00 1.25868E+00 1.13510E+01 1.57249E-13 3.09530E-13
 -1      1707 6.07823E+01 3.77475E+00 2.06914E+00-1.37965E+00 9.42579E-14 1.85130E-13
 -1      1708 5.85637E+01 4.15911E+00 1.86699E+00 4.89320E+00 1.35225E-13 3.00593E-13
 -1      1709 5.55199E+01 5.58069E+00 1.80329E+00-1.00462E+01 2.55213E-13-3.66929E-13
 -1      1710 6.00870E+01 4.03596E+00 2.07900E+00-4.58187E+00 2.39059E-13-1.45106E-13
 -1      1711 4.17860E+01 7.86776E+00 1.15421E+00-1.37394E+01 3.71925E-13-5.43343E-13
 -1      1712 5.12314E+01 5.93340E+00 1.78481E+00-1.17360E+01 2.16903E-13-4.93827E-13
 -1      1713 2.64292E+01 7.86298E+00 4.22735E-01-1.29006E+01 6.15841E-13-7.55840E-13
 -1      1714 3.63274E+01 7.95547E+00 1.29143E+00-1.49555E+01 5.06484E-13-7.20757E-13
 -1      1715 1.32810E+01 2.69970E+00-5.11966E-01-7.63201E+00 9.36806E-13-6.80123E-13
 -1      1716 2.08707E+01 6.56544E+00 5.29879E-01-1.19630E+01 7.80265E-13-5.75318E-13
 -1      1717 4.97984E+00-6.51094E+00-1.42603E+00-2.41911E+00 8.39773E-13-6.22835E-13
 -1      1718 8.76025E+00 2.22804E-01-4.32963E-01-6.00758E+00 9.25038E-13-6.95333E-13
 -1      1719 1.11870E+00-1.59882E+01-2.08079E+00-2.66037E-01 1.14297E-12-2.60191E-13
 -1      1720 2.16739E+00-9.22845E+00-1.33397E+00-1.21764E+00 1.04827E-12-3.11584E-13
 -1      1721-5.94927E-01-2.07534E+01-2.36191E+00-6.71247E-01 6.58362E-14-5.34572E-13
 -1      1722-5.26693E-01-1.75859E+01-2.03345E+00 7.51911E-01 1.02440E-12-5.53668E-13
 -1      1723 2.69249E+01 9.07004E-02 3.45460E-01 8.63937E+00 6.81677E-14 2.07612E-14
 -1      1724 1.56269E+01-4.86752E+00-4.67744E-01 7.49699E+00 2.52798E-13 4.65905E-13
 -1      1725 2.01197E+01 1.10860E-01-8.95308E-03 9.33711E-02 1.87180E-13-8.72280E-14
 -1      1726 2.02720E+01 2.30860E-01-2.75479E-02 3.94202E-01 2.79637E-15-3.23790E-13
 -1      1727 3.49206E-01-1.34432E+01-1.62228E+00 2.72247E+00 1.19904E-13 4.85501E-13
 -1      1728 6.63609E+00-9.79676E+00-1.10281E+00 5.49782E+00 3.14970E-13 2.99434E-13
 -1      1729-1.56405E+00-1.41506E+01-1.70939E+00-5.37699E-01 5.32116E-13-5.72209E-13
 -1      1730 3.79596E+01 3.80764E+00 9.44281E-01 7.52711E+00 1.54793E-13-1.85518E-13
 -1      1731 4.66459E+01 6.99998E+00 1.45961E+00 5.71021E+00 2.77944E-13-2.21601E-13
 -1      1732 5.18086E+01 8.35396E+00 1.83984E+00 3.17350E+00 3.34455E-13-3.69038E-13
 -1      1733 5.14937E+01 7.46364E+00 1.79024E+00-6.01874E-01 9.98646E-14-6.59417E-13
 -1      1734 4.52326E+01 5.38577E+00 1.35109E+00-3.69224E+00 2.91447E-13-8.41660E-13
 -1      1735 3.54354E+01 2.28103E+00 7.46585E-01-5.83777E+00 6.69020E-13-5.17586E-13
 -1      1736 2.40682E+01-1.29369E+00 5.67227E-02-6.38126E+00 5.22582E-13-5.58664E-13
 -1      1737 1.35897E+01-5.52503E+00-5.62093E-01-5.23454E+00 5.53446E-13-6.55198E-13
 -1      1738 5.27811E+00-9.79129E+00-1.04529E+00-3.33041E+00 5.04263E-13-2.99316E-13
 -1      1739 9.95895E-02-1.30869E+01-1.35776E+00-1.38596E+00 4.79783E-13-2.41474E-13
 -1      1740-1.84239E+00-1.43801E+01-1.46888E+00 3.03630E-01 4.67848E-13-8.78186E-14
 -1      1741-5.20775E-01-1.29391E+01-1.30734E+00 2.21313E+00 3.61100E-13 1.63536E-13
 -1      1742 4.14223E+00-9.64673E+00-9.67744E-01 4.27206E+00 3.73923E-13-4.14488E-13
 -1      1743 1.16923E+01-5.44918E+00-5.28792E-01 6.19060E+00 1.05693E-13-3.45168E-13
 -1      1744 2.16011E+01-9.86626E-01 3.90109E-02 7.49772E+00-3.03979E-13 2.82330E-13
 -1      1745 3.25347E+01 2.62328E+00 6.15639E-01 7.11876E+00 4.27436E-14 2.08944E-13
 -1      1746 4.21198E+01 5.52097E+00 1.05143E+00 5.20469E+00 1.73118E-13-1.02918E-13
 -1      1747 4.98710E+01 7.56538E+00 1.59059E+00 2.49271E+00 6.66689E-14 5.38458E-15
 -1      1748 5.22255E+01 8.08709E+00 1.76687E+00-1.90043E+00 4.25160E-13-4.92523E-14
 -1      1749 4.76311E+01 7.54114E+00 1.47517E+00-5.64995E+00 2.95264E-13-2.94764E-13
 -1      1750 3.92037E+01 5.63042E+00 1.10245E+00-8.33397E+00 5.14866E-13-6.35825E-13
 -1      1751 2.82349E+01 2.17765E+00 5.12231E-01-9.30543E+00 6.64357E-13-6.06959E-13
 -1      1752 1.70251E+01-2.97223E+00-2.64706E-01-8.05388E+00 6.73683E-13-4.75286E-13
 -1      1753 7.70280E+00-8.49663E+00-9.81365E-01-6.05250E+00 7.00551E-13-3.29681E-13
 -1      1754 1.24919E+00-1.22675E+01-1.43164E+00-3.62754E+00 5.30243E-13-4.81615E-13
 -1      1755 2.28612E+01 1.98481E+00-2.35592E-02-2.72210E+00-2.26406E-13 8.36609E-13
 -1      1756 1.98225E+01 3.71858E+00-3.49224E-02-2.15444E+00-2.77124E-13-3.46355E-13
 -1      1757 2.00520E+01 3.56061E+00-4.29508E-02-2.44101E+00-3.20509E-13-2.47458E-13
 -1      1758 2.03660E+01 3.18234E+00-4.52311E-02-2.58447E+00-3.22334E-13-1.29410E-13
 -1      1759 2.05852E+01 2.80920E+00-1.42614E-01-2.85273E+00-3.53245E-13 3.68663E-14
 -1      1760 2.04310E+01 2.69126E+00-2.98984E-03-2.22081E+00-3.44110E-13-1.66030E-13
 -1      1761 1.93542E+01 4.18916E+00-2.01896E-02-1.26996E+00-1.45706E-13-4.99996E-13
 -1      1762 1.94277E+01 4.14943E+00-1.71785E-02-1.49433E+00-1.83705E-13-4.74638E-13
 -1      1763 1.92572E+01 4.29488E+00-1.68109E-02-8.59222E-01-7.43717E-14-5.02204E-13
 -1      1764 1.93001E+01 4.27094E+00-1.43587E-02-1.06994E+00-1.04339E-13-5.06564E-13
 -1      1765 1.95258E+01 3.78320E+00-9.30920E-03-1.11903E+00-1.42219E-13-4.77800E-13
 -1      1766 1.92054E+01 4.35533E+00-1.48080E-02-4.66530E-01-7.31349E-15-5.07209E-13
 -1      1767 1.92275E+01 4.34249E+00-1.33234E-02-6.66739E-01-4.05317E-14-5.07419E-13
 -1      1768 1.94284E+01 3.90360E+00-9.21714E-03-7.32787E-01-5.86571E-14-4.87292E-13
 -1      1769 1.91860E+01 4.38094E+00-1.36677E-02-8.35796E-02 5.38914E-14-4.88677E-13
 -1      1770 1.91924E+01 4.37702E+00-1.32183E-02-2.78932E-01 2.88292E-14-5.04440E-13
 -1      1771 1.93779E+01 3.96810E+00-9.16721E-03-3.58096E-01 1.03847E-14-4.88188E-13
 -1      1772 1.91941E+01 4.37564E+00-1.31667E-02 2.97975E-01 1.10114E-13-4.65124E-13
 -1      1773 1.91865E+01 4.38010E+00-1.37504E-02 1.02460E-01 7.58450E-14-4.79776E-13
 -1      1774 1.93631E+01 3.98750E+00-9.14657E-03 1.05508E-02 6.71337E-14-4.72077E-13
 -1      1775 1.92316E+01 4.33845E+00-1.33245E-02 6.86524E-01 1.64735E-13-4.45010E-13
 -1      1776 1.92083E+01 4.35214E+00-1.49148E-02 4.85805E-01 1.40200E-13-4.60697E-13
 -1      1777 1.93807E+01 3.96478E+00-9.18628E-03 3.79397E-01 1.32863E-13-4.46837E-13
 -1      1778 1.93055E+01 4.26504E+00-1.44057E-02 1.08403E+00 2.29475E-13-3.94944E-13
 -1      1779 1.92619E+01 4.28950E+00-1.69715E-02 8.76126E-01 1.95822E-13-4.27471E-13
 -1      1780 1.94337E+01 3.89726E+00-9.19131E-03 7.51378E-01 1.91608E-13-4.16599E-13
 -1      1781 1.94376E+01 4.13782E+00-1.73989E-02 1.51390E+00 3.05244E-13-2.94133E-13
 -1      1782 1.93609E+01 4.18039E+00-2.05025E-02 1.28442E+00 2.61098E-13-3.47894E-13
 -1      1783 1.95338E+01 3.77333E+00-9.23719E-03 1.13498E+00 2.63241E-13-3.50595E-13
 -1      1784 1.96675E+01 3.92124E+00-2.51891E-02 1.97889E+00 3.59346E-13-1.81518E-13
 -1      1785 1.95343E+01 3.99800E+00-2.69059E-02 1.72158E+00 3.26576E-13-2.50140E-13
 -1      1786 1.97078E+01 3.56620E+00-8.69415E-03 1.53456E+00 3.35908E-13-2.47653E-13
 -1      1787 2.00768E+01 3.52285E+00-4.51799E-02 2.47132E+00 4.03347E-13 3.64465E-14
 -1      1788 1.98364E+01 3.68331E+00-3.97265E-02 2.18221E+00 3.76608E-13-9.39804E-14
 -1      1789 2.00049E+01 3.22300E+00-5.27030E-03 1.93381E+00 3.90114E-13-1.07955E-13
 -1      1790 2.09227E+01 2.68181E+00-5.76431E-02 2.85712E+00 3.89438E-13 4.20941E-13
 -1      1791 2.04150E+01 3.09695E+00-5.04298E-02 2.61528E+00 3.90177E-13 1.93436E-13
 -1      1792 2.05187E+01 2.60997E+00 3.18805E-03 2.24381E+00 4.19691E-13 1.29875E-13
 -1      1793 2.17333E+01 1.21295E+00-1.22090E-01 2.32933E+00 3.16025E-13 8.72441E-13
 -1      1794 2.12767E+01 2.26303E+00 1.16433E-04 2.73985E+00 3.51660E-13 5.75720E-13
 -1      1795 2.09394E+01 1.68502E+00-2.29530E-02 2.13953E+00 3.98685E-13 4.18523E-13
 -1      1796 2.09548E+01 7.78665E-01-6.24402E-02 1.52364E+00 3.13839E-13 7.76018E-13
 -1      1797 2.17992E+01 2.45799E+00 9.08901E-02-3.04769E+00-3.02085E-13 3.40256E-13
 -1      1798 2.01043E+01 2.97958E-01-8.90967E-03 6.56479E-01 2.63296E-13 6.03146E-13
 -1      1799 2.06562E+01 4.40415E-01-1.24643E-02 1.03353E+00 2.63033E-13 7.02736E-13
 -1      1800 2.07472E+01 8.45120E-01 2.24423E-03 1.41450E+00 3.27030E-13 4.97784E-13
 -1      1801 2.15097E+01 1.74231E+00 7.95259E-02-2.33681E+00-3.26853E-13 2.16827E-13
 -1      1802 2.05233E+01 5.00743E-01 3.24925E-02-9.20940E-01-2.68209E-13 1.66654E-13
 -1      1803 2.00921E+01 3.52031E-01 7.72909E-03-6.29093E-01-2.41182E-13 9.58582E-14
 -1      1804 1.98974E+01 2.57340E-01 2.74023E-02-3.90725E-01-2.28202E-13 1.16913E-13
 -1      1805 1.97068E+01 1.78133E-01 1.04399E-02-2.52828E-01-1.93587E-13 5.18665E-14
 -1      1806 2.02013E+01 4.83439E-01-5.87079E-03-7.22082E-01-2.68803E-13-1.76976E-14
 -1      1807 1.95848E+01 1.32701E-01 1.66319E-02-1.19327E-01-1.65276E-13 2.59844E-14
 -1      1808 1.95069E+01 9.30806E-02 6.95631E-03-4.85380E-02-1.44938E-13-2.75431E-14
 -1      1809 1.98755E+01 2.43898E-01-5.80122E-03-2.94972E-01-2.19503E-13-3.48927E-14
 -1      1810 1.94421E+01 6.83802E-02 8.67261E-03 2.49639E-02-1.09680E-13-5.71765E-14
 -1      1811 1.94278E+01 4.66584E-02 4.09637E-03 6.11070E-02-7.41299E-14-6.64130E-14
 -1      1812 1.96932E+01 1.25206E-01-4.65333E-03-5.81286E-02-1.53838E-13-9.08015E-14
 -1      1813 1.94018E+01 3.22879E-02 4.22406E-03 9.97386E-02-6.93070E-14-5.45304E-14
 -1      1814 1.94217E+01 1.98139E-02 2.42069E-03 1.16440E-01-6.52432E-14-9.99149E-14
 -1      1815 1.96068E+01 6.08144E-02-3.46316E-03 7.13175E-02-8.72961E-14-1.38384E-13
 -1      1816 1.94199E+01 1.11448E-02 1.84380E-03 1.34233E-01-5.64422E-14-9.71752E-14
 -1      1817 1.94570E+01 3.92946E-03 1.43618E-03 1.39547E-01-3.93483E-14-9.88831E-14
 -1      1818 1.95826E+01 2.38337E-02-2.33173E-03 1.37485E-01-7.61387E-14-1.51600E-13
 -1      1819 1.94694E+01-1.29751E-03 5.41919E-04 1.44755E-01-2.83530E-14-8.98669E-14
 -1      1820 1.95135E+01-5.32000E-03 8.19248E-04 1.43385E-01-2.73138E-14-8.82821E-14
 -1      1821 1.95960E+01 2.20287E-03-1.42763E-03 1.65455E-01-4.03551E-14-1.32319E-13
 -1      1822 1.95332E+01-8.34845E-03-1.81391E-04 1.41126E-01-9.51929E-14-6.23950E-14
 -1      1823 1.95783E+01-1.03584E-02 4.18448E-04 1.36001E-01-8.51430E-14-8.74290E-14
 -1      1824 1.96303E+01-1.01697E-02-7.79028E-04 1.70366E-01-4.86136E-14-1.24691E-13
 -1      1825 1.96011E+01-1.19438E-02-5.70112E-04 1.29563E-01-7.22542E-14-8.48593E-14
 -1      1826 1.96437E+01-1.26696E-02 1.59854E-04 1.22567E-01-6.97666E-14-1.36791E-13
 -1      1827 1.96745E+01-1.66994E-02-3.43405E-04 1.61778E-01-1.12345E-13-1.02650E-13
 -1      1828 1.96667E+01-1.33027E-02-7.53612E-04 1.14099E-01-6.28210E-14-1.70990E-13
 -1      1829 1.97050E+01-1.32163E-02 7.47747E-07 1.06452E-01-3.33654E-14-1.77117E-13
 -1      1830 1.97215E+01-1.94710E-02-6.66233E-05 1.45902E-01-8.03013E-14-1.17036E-13
 -1      1831 1.97267E+01-1.32275E-02-8.08327E-04 9.73574E-02-5.90567E-14-1.99141E-13
 -1      1832 1.97599E+01-1.26411E-02-8.70265E-05 8.98404E-02-5.50707E-14-2.39685E-13
 -1      1833 1.97671E+01-1.98308E-02 9.68193E-05 1.26806E-01-7.81097E-14-1.61754E-13
 -1      1834 1.97794E+01-1.22545E-02-7.82952E-04 8.10229E-02-2.96839E-14-2.49850E-13
 -1      1835 1.98075E+01-1.13726E-02-1.22759E-04 7.41259E-02-3.01988E-14-2.06731E-13
 -1      1836 1.98089E+01-1.86713E-02 1.80868E-04 1.07143E-01-5.14313E-14-1.70609E-13
 -1      1837 1.98244E+01-1.07367E-02-7.09473E-04 6.61564E-02-5.13417E-14-2.13568E-13
 -1      1838 1.98477E+01-9.68683E-03-1.19364E-04 6.01782E-02-6.03520E-14-1.87084E-13
 -1      1839 1.98458E+01-1.65817E-02 2.09749E-04 8.86174E-02-2.67501E-14-1.23405E-13
 -1      1840 1.98623E+01-8.89473E-03-6.08832E-04 5.34129E-02-8.92315E-14-2.30382E-13
 -1      1841 1.98816E+01-7.74800E-03-8.48910E-05 4.85349E-02-4.94035E-14-2.65878E-13
 -1      1842 1.98778E+01-1.39354E-02 2.00265E-04 7.23060E-02-1.02462E-13-1.90557E-13
 -1      1843 1.98941E+01-6.85092E-03-4.94311E-04 4.32022E-02-2.40440E-14-3.07239E-13
 -1      1844 1.99101E+01-5.63642E-03-2.36022E-05 3.95432E-02-3.08981E-14-2.72505E-13
 -1      1845 1.99052E+01-1.09477E-02 1.63689E-04 5.88932E-02-6.51594E-14-2.50652E-13
 -1      1846 1.99211E+01-4.65419E-03-3.73823E-04 3.58080E-02-3.68213E-14-3.60108E-13
 -1      1847 1.99348E+01-3.36943E-03 6.31798E-05 3.34651E-02-5.15644E-14-3.33715E-13
 -1      1848 1.99290E+01-7.71567E-03 1.07193E-04 4.88412E-02-6.98341E-14-3.03424E-13
 -1      1849 1.99450E+01-2.29847E-03-2.51547E-04 3.14762E-02-6.53692E-14-2.81692E-13
 -1      1850 1.99576E+01-9.17876E-04 1.76316E-04 3.05551E-02-1.13663E-13-2.96733E-13
 -1      1851 1.99503E+01-4.24798E-03 3.49237E-05 4.25173E-02-3.89910E-14-2.37335E-13
 -1      1852 1.99676E+01 2.61870E-04-1.29173E-04 3.04805E-02-1.37008E-13-2.81588E-13
 -1      1853 1.99803E+01 1.77937E-03 3.18059E-04 3.11168E-02-3.69207E-14-3.18619E-13
 -1      1854 1.99706E+01-4.89122E-04-5.11347E-05 4.02875E-02-1.18511E-13-2.07371E-13
 -1      1855 1.99911E+01 3.09758E-03-6.90441E-06 3.31656E-02-1.03432E-14-4.24670E-13
 -1      1856 2.00053E+01 4.80058E-03 4.91108E-04 3.55373E-02-6.96027E-14-4.40291E-13
 -1      1857 1.99916E+01 3.65880E-03-1.50393E-04 4.25812E-02-1.16291E-13-3.16712E-13
 -1      1858 2.00179E+01 6.28878E-03 1.15646E-04 3.99702E-02-2.91592E-14-4.02909E-13
 -1      1859 2.00351E+01 8.22364E-03 6.97350E-04 4.43002E-02-8.09859E-14-3.61043E-13
 -1      1860 2.00151E+01 8.31289E-03-2.62924E-04 4.99281E-02-3.24974E-14-3.72228E-13
 -1      1861 2.00506E+01 9.90527E-03 2.38599E-04 5.14247E-02-1.15863E-13-2.59562E-13
 -1      1862 2.00725E+01 1.21028E-02 9.36083E-04 5.79700E-02-1.45299E-15-1.68165E-13
 -1      1863 2.00433E+01 1.35811E-02-3.88726E-04 6.29647E-02-4.19621E-14-1.94802E-13
 -1      1864 2.00921E+01 1.39794E-02 3.60933E-04 6.81161E-02 4.74934E-14-1.74513E-13
 -1      1865 2.01207E+01 1.64354E-02 1.20146E-03 7.71397E-02 1.11086E-13-2.28049E-13
 -1      1866 2.00786E+01 1.95241E-02-5.26918E-04 8.24015E-02-3.61438E-15-1.68538E-15
 -1      1867 2.01458E+01 1.84670E-02 4.79533E-04 9.06084E-02 4.51707E-14-3.13614E-13
 -1      1868 2.01831E+01 2.11149E-02 1.47891E-03 1.02325E-01 1.16960E-14-3.27190E-13
 -1      1869 2.01236E+01 2.61001E-02-6.74826E-04 1.08939E-01 1.44862E-14-1.64519E-13
 -1      1870 2.02152E+01 2.31916E-02 5.88180E-04 1.19299E-01 6.62947E-14-3.60779E-13
 -1      1871 2.02633E+01 2.58617E-02 1.74030E-03 1.33783E-01 1.77587E-14-3.44710E-13
 -1      1872 2.01811E+01 3.30866E-02-8.26938E-04 1.43111E-01 5.64024E-14-3.96759E-13
 -1      1873 2.03038E+01 2.77653E-02 6.76532E-04 1.54183E-01-2.08503E-14-3.30052E-13
 -1      1874 2.03646E+01 3.01302E-02 1.93776E-03 1.71231E-01 1.38856E-14-4.13759E-13
 -1      1875 2.02542E+01 3.99685E-02-9.73749E-04 1.85026E-01 5.63831E-14-3.67761E-13
 -1      1876 2.04147E+01 3.14819E-02 7.29305E-04 1.94502E-01 3.49844E-14-4.66837E-13
 -1      1877 2.04897E+01 3.29854E-02 1.99659E-03 2.13419E-01 5.26716E-15-4.09592E-13
 -1      1878 2.03455E+01 4.57871E-02-1.10056E-03 2.33974E-01-1.61750E-14-3.05811E-13
 -1      1879 2.05506E+01 3.31835E-02 7.26020E-04 2.38232E-01-2.42958E-14-3.88949E-13
 -1      1880 2.06401E+01 3.29583E-02 1.80886E-03 2.57546E-01-3.55918E-14-3.43012E-13
 -1      1881 2.04574E+01 4.89481E-02-1.18630E-03 2.87864E-01 1.97209E-14-3.86507E-13
 -1      1882 2.07122E+01 3.11127E-02 6.41857E-04 2.81398E-01-1.62731E-13-3.25986E-13
 -1      1883 2.08149E+01 2.79052E-02 1.23091E-03 2.98491E-01-2.52722E-13-3.87490E-13
 -1      1884 2.05914E+01 4.70058E-02-1.20236E-03 3.42449E-01-1.20724E-13-4.12700E-13
 -1      1885 2.08975E+01 2.27953E-02 4.50197E-04 3.17225E-01-2.05617E-13-2.80193E-13
 -1      1886 2.10092E+01 1.49434E-02 9.16939E-05 3.27921E-01-8.29674E-14-2.62264E-13
 -1      1887 2.07470E+01 3.64805E-02-1.11113E-03 3.90376E-01-1.31550E-13-2.95124E-13
 -1      1888 2.11003E+01 5.05436E-03 1.26882E-04 3.35247E-01-8.37182E-14-2.38679E-13
 -1      1889 2.12128E+01-9.38853E-03-1.77691E-03 3.33456E-01-3.13605E-14-2.48076E-13
 -1      1890 2.09213E+01 1.28444E-02-8.63540E-04 4.20130E-01-9.32060E-14-8.35992E-14
 -1      1891 2.13082E+01-2.56442E-02-3.45203E-04 3.20648E-01-1.99831E-14-3.33625E-13
 -1      1892 2.14081E+01-4.84766E-02-4.47274E-03 2.98326E-01 1.15138E-14-3.11751E-13
 -1      1893 2.11077E+01-2.90551E-02-3.94302E-04 4.15178E-01-8.19628E-14-4.08317E-14
 -1      1894 2.15004E+01-7.21862E-02-9.75476E-04 2.54494E-01 4.73413E-14-2.91439E-13
 -1      1895 2.15684E+01-1.04091E-01-7.90341E-03 2.02349E-01 1.55004E-13-2.11981E-13
 -1      1896 2.12943E+01-9.36847E-02 3.85435E-04 3.53909E-01 4.14591E-14 3.69082E-14
 -1      1897 2.16464E+01-1.34718E-01-1.77135E-03 1.15934E-01 1.10678E-13-1.87680E-13
 -1      1898 2.16575E+01-1.73573E-01-1.16150E-02 2.55501E-02 1.25590E-13-2.44476E-13
 -1      1899 2.14619E+01-1.82035E-01 1.59423E-03 2.11492E-01 1.12487E-13-4.64199E-14
 -1      1900 2.17050E+01-2.07211E-01-2.75056E-03-1.12062E-01 7.97643E-14-2.76694E-13
 -1      1901 2.16316E+01-2.45841E-01-1.46308E-02-2.44015E-01 3.83565E-14-1.81180E-13
 -1      1902 2.15830E+01-2.86934E-01 3.36449E-03-3.46975E-02 7.93410E-14-5.62785E-14
 -1      1903 2.16268E+01-2.73303E-01-3.94318E-03-4.32011E-01 1.20546E-14-1.61322E-13
 -1      1904 2.14450E+01-2.97798E-01-1.54641E-02-5.97445E-01 8.10697E-14-1.57406E-13
 -1      1905 2.16202E+01-3.87156E-01 5.73135E-03-3.94248E-01 7.78860E-14 2.87707E-14
 -1      1906 2.13633E+01-3.04089E-01-5.28792E-03-8.16796E-01 1.37485E-13-2.00062E-13
 -1      1907 2.10629E+01-2.95221E-01-1.25086E-02-9.89629E-01 1.12012E-13-1.40231E-13
 -1      1908 2.15288E+01-4.43731E-01 8.34982E-03-8.46981E-01 1.59505E-13-4.25195E-14
 -1      1909 2.08842E+01-2.63093E-01-6.27896E-03-1.19580E+00-9.81853E-16-1.48481E-13
 -1      1910 2.04807E+01-2.04092E-01-5.04067E-03-1.33005E+00-3.12528E-14-1.60451E-13
 -1      1911 2.12657E+01-4.05431E-01 1.01916E-02-1.32457E+00 1.50214E-14-1.28322E-13
 -1      1912 2.02050E+01-1.24103E-01-5.84085E-03-1.45541E+00-2.28207E-14-1.82972E-13
 -1      1913 1.97472E+01-1.49420E-02 5.32490E-03-1.49507E+00-1.07046E-13-1.24523E-13
 -1      1914 2.08119E+01-2.30880E-01 9.49275E-03-1.70316E+00-7.62569E-14-1.78235E-13
 -1      1915 1.94122E+01 1.00796E-01-2.66041E-03-1.47075E+00-2.13413E-13-1.83940E-13
 -1      1916 1.89778E+01 2.31352E-01 1.44353E-02-1.37496E+00-1.40093E-13-2.24867E-13
 -1      1917 2.02035E+01 7.35806E-02 4.26880E-03-1.82750E+00-2.23090E-13-1.39485E-13
 -1      1918 1.86623E+01 3.44287E-01 3.91269E-03-1.17054E+00-1.27193E-13-2.39553E-13
 -1      1919 1.83377E+01 4.44654E-01 1.81015E-02-9.43350E-01 2.55421E-14-2.05139E-13
 -1      1920 1.95550E+01 4.27295E-01-4.81973E-03-1.57982E+00-6.44263E-14 1.28209E-14
 -1      1921 1.81318E+01 5.05905E-01 1.21247E-02-5.99961E-01 2.44030E-13-2.47343E-13
 -1      1922 1.79814E+01 5.31241E-01 1.53270E-02-3.01227E-01 2.00985E-13-2.77866E-14
 -1      1923 1.90343E+01 6.95362E-01-1.31054E-02-9.66924E-01 6.91530E-14 6.32547E-14
 -1      1924 1.79340E+01 5.14923E-01 1.77807E-02 7.64886E-02 5.94750E-14 8.27144E-14
 -1      1925 1.79761E+01 4.59953E-01 9.31461E-03 3.57408E-01 1.07192E-13 1.52330E-13
 -1      1926 1.87819E+01 7.65634E-01-1.45308E-02-1.55446E-01 2.18038E-13 1.15242E-13
 -1      1927 1.80627E+01 3.82665E-01 1.70630E-02 6.57139E-01 1.04922E-13 1.68466E-13
 -1      1928 1.82650E+01 2.83254E-01 3.89747E-03 8.49023E-01 1.66996E-13 2.35187E-13
 -1      1929 1.88228E+01 6.23966E-01-8.33983E-03 6.01948E-01 1.76601E-13 2.12025E-13
 -1      1930 1.84123E+01 1.86951E-01 1.00359E-02 1.00991E+00 8.13546E-14 1.36174E-13
 -1      1931 1.87107E+01 8.72262E-02 8.12390E-04 1.08780E+00 8.15212E-14 2.90185E-14
 -1      1932 1.90575E+01 3.57333E-01-4.96109E-05 1.10664E+00 4.95107E-14 2.72741E-13
 -1      1933 1.88509E+01 1.73399E-04 1.22698E-03 1.11484E+00 4.65608E-14-1.00468E-13
 -1      1934 1.91714E+01-8.41604E-02-6.13369E-04 1.08600E+00 1.51663E-13-7.71952E-17
 -1      1935 1.93404E+01 7.55704E-02 4.03285E-03 1.29951E+00-1.73182E-14 1.57737E-13
 -1      1936 1.92590E+01-1.58094E-01-2.67441E-03 1.01579E+00 2.37372E-13-1.75597E-13
 -1      1937 1.95445E+01-2.53917E-01-4.22349E-03 8.84183E-01 2.13932E-13-2.08970E-13
 -1      1938 1.97273E+01-4.01695E-01 4.24958E-03 1.01082E+00 1.43975E-13-4.05121E-13
 -1      1939 1.95638E+01-1.70124E-01 7.17056E-03 1.23810E+00 9.66579E-14-6.82609E-14
 -1      1940 1.96220E+01 1.42066E-01 7.88721E-03 2.58812E-01 2.18653E-13 4.76685E-13
 -1      1941 1.98939E+01 2.04123E-01 1.64357E-02 4.31838E-01 2.38875E-13 5.60801E-13
 -1      1942 2.01052E+01 3.50580E-01-1.53464E-03 6.54284E-01 2.79051E-13 3.90000E-13
 -1      1943 1.93801E+01 7.19481E-02 6.95242E-03 5.57843E-02 1.64273E-13 3.82411E-13
 -1      1944 1.94949E+01 1.01832E-01 1.41972E-02 1.44334E-01 1.71274E-13 4.30620E-13
 -1      1945 1.97128E+01 1.65231E-01-1.94473E-03 2.55469E-01 2.15986E-13 3.24168E-13
 -1      1946 1.92901E+01 3.61864E-02 4.43433E-03-4.97355E-02 5.56976E-14 3.11146E-13
 -1      1947 1.93200E+01 5.20007E-02 8.33740E-03-2.48963E-03 1.11094E-13 3.51899E-13
 -1      1948 1.95129E+01 8.07293E-02-2.82467E-03 4.34200E-02 1.50011E-13 2.58132E-13
 -1      1949 1.92889E+01 1.62389E-02 2.86495E-03-1.02284E-01 1.47517E-14 2.39253E-13
 -1      1950 1.92734E+01 2.51067E-02 4.35199E-03-7.76243E-02 2.58190E-14 2.69426E-13
 -1      1951 1.94342E+01 3.75268E-02-2.84135E-03-6.85491E-02 5.04859E-14 1.78627E-13
 -1      1952 1.93366E+01 4.59151E-03 1.98932E-03-1.24409E-01 4.27282E-14 2.65940E-13
 -1      1953 1.92979E+01 9.63266E-03 2.14560E-03-1.12952E-01 2.33890E-14 2.47673E-13
 -1      1954 1.94281E+01 1.36811E-02-2.31166E-03-1.24148E-01 3.73293E-14 1.30020E-13
 -1      1955 1.94085E+01-2.21480E-03 1.44605E-03-1.28623E-01 6.92796E-14 2.46511E-13
 -1      1956 1.93597E+01 5.39706E-04 9.45737E-04-1.25106E-01 5.92758E-14 2.71477E-13
 -1      1957 1.94630E+01 7.51536E-05-1.69162E-03-1.46706E-01 6.66052E-14 1.04491E-13
 -1      1958 1.94893E+01-6.00811E-03 1.06351E-03-1.22454E-01 1.24304E-13 1.68325E-13
 -1      1959 1.94381E+01-4.67519E-03 2.71675E-04-1.23674E-01 1.15313E-13 2.20057E-13
 -1      1960 1.95188E+01-7.55627E-03-1.16890E-03-1.49683E-01 1.27046E-13 1.12174E-13
 -1      1961 1.95699E+01-7.86493E-03 7.77370E-04-1.10657E-01 4.46263E-14 1.81513E-13
 -1      1962 1.95208E+01-7.42675E-03-1.12748E-04-1.14562E-01 8.66292E-14 1.73761E-13
 -1      1963 1.95829E+01-1.14936E-02-7.76162E-04-1.41347E-01 1.08322E-13 9.78341E-14
 -1      1964 1.96449E+01-8.46941E-03 5.60649E-04-9.62992E-02 4.37279E-14 1.04271E-13
 -1      1965 1.96003E+01-8.58665E-03-3.22741E-04-1.01544E-01 6.35386E-14 1.31807E-13
 -1      1966 1.96476E+01-1.30868E-02-4.94569E-04-1.26979E-01 8.68172E-14 1.06476E-13
 -1      1967 1.97116E+01-8.27487E-03 3.98045E-04-8.13577E-02 6.33680E-14 8.48064E-14
 -1      1968 1.96726E+01-8.72306E-03-4.21669E-04-8.70607E-02 4.06962E-14 8.41181E-14
 -1      1969 1.97082E+01-1.31932E-02-2.98299E-04-1.09998E-01 5.54523E-14 3.16350E-14
 -1      1970 1.97690E+01-7.58497E-03 2.78909E-04-6.70867E-02 1.29658E-13 7.01933E-14
 -1      1971 1.97359E+01-8.21558E-03-4.48594E-04-7.26768E-02 1.04019E-13 1.00775E-13
 -1      1972 1.97625E+01-1.23765E-02-1.65680E-04-9.26150E-02 1.12091E-13 4.76973E-14
 -1      1973 1.98172E+01-6.59864E-03 1.95426E-04-5.42592E-02 6.83287E-14 4.96442E-14
 -1      1974 1.97898E+01-7.31631E-03-4.29033E-04-5.93729E-02 6.53173E-14 5.10824E-14
 -1      1975 1.98095E+01-1.10084E-02-8.04194E-05-7.62327E-02 8.33129E-14 2.69269E-14
 -1      1976 1.98571E+01-5.43784E-03 1.42020E-04-4.33391E-02-2.46572E-14 2.65364E-14
 -1      1977 1.98347E+01-6.18553E-03-3.79722E-04-4.77476E-02 3.25900E-14 5.72796E-14
 -1      1978 1.98493E+01-9.32537E-03-3.07682E-05-6.17223E-02 5.15019E-14 3.05855E-14
 -1      1979 1.98900E+01-4.16613E-03 1.15091E-04-3.46092E-02 4.42427E-14-7.49403E-14
 -1      1980 1.98718E+01-4.91497E-03-3.11211E-04-3.81633E-02 1.00342E-14-1.85466E-14
 -1      1981 1.98827E+01-7.46379E-03-8.46694E-06-4.96215E-02 4.93389E-14-2.36211E-14
 -1      1982 1.99175E+01-2.80148E-03 1.12865E-04-2.82688E-02 3.25621E-14-1.74965E-13
 -1      1983 1.99025E+01-3.54355E-03-2.29506E-04-3.08565E-02 1.21143E-14-1.21547E-13
 -1      1984 1.99109E+01-5.48403E-03-8.02985E-06-4.02812E-02 8.93870E-14-9.17126E-14
 -1      1985 1.99417E+01-1.32504E-03 1.35371E-04-2.45103E-02 1.14857E-13-1.78706E-13
 -1      1986 1.99287E+01-2.06829E-03-1.37183E-04-2.60221E-02 1.14329E-13-1.51693E-13
 -1      1987 1.99353E+01-3.38665E-03-2.62007E-05-3.39791E-02 1.20717E-13-1.36265E-13
 -1      1988 1.99646E+01 3.13401E-04 1.84508E-04-2.35818E-02-6.95303E-14-3.31168E-13
 -1      1989 1.99525E+01-4.51468E-04-3.41591E-05-2.38822E-02 3.36235E-14-2.51095E-13
 -1      1990 1.99578E+01-1.12325E-03-6.15598E-05-3.10096E-02 7.93378E-14-2.10067E-13
 -1      1991 1.99888E+01 2.19268E-03 2.64195E-04-2.58412E-02-1.63391E-13-2.45929E-13
 -1      1992 1.99761E+01 1.37529E-03 8.17801E-05-2.47435E-02-1.33892E-13-3.53554E-13
 -1      1993 1.99803E+01 1.39722E-03-1.14264E-04-3.17588E-02-1.15935E-13-3.18202E-13
 -1      1994 2.00171E+01 4.41976E-03 3.80623E-04-3.18070E-02 5.60376E-14-2.20534E-13
 -1      1995 2.00022E+01 3.50943E-03 2.14618E-04-2.90478E-02-6.92972E-14-2.05963E-13
 -1      1996 2.00054E+01 4.30566E-03-1.85840E-04-3.67697E-02-7.49631E-14-3.52489E-13
 -1      1997 2.00530E+01 7.13155E-03 5.42602E-04-4.22079E-02 1.78064E-13-1.44983E-13
 -1      1998 2.00339E+01 6.07826E-03 3.69856E-04-3.74226E-02 1.26192E-13-1.58117E-13
 -1      1999 2.00356E+01 7.77352E-03-2.79013E-04-4.68047E-02 1.23845E-13-3.20277E-13
 -1      2000 2.01006E+01 1.04985E-02 7.61946E-04-5.80369E-02-1.45909E-14-2.20345E-13
 -1      2001 2.00751E+01 9.24182E-03 5.54301E-04-5.07308E-02 1.03818E-13-1.38378E-13
 -1      2002 2.00744E+01 1.20164E-02-3.97575E-04-6.29079E-02 1.12143E-13-2.68141E-13
 -1      2003 2.01650E+01 1.47296E-02 1.05375E-03-8.06101E-02-2.04952E-13-2.15270E-13
 -1      2004 2.01301E+01 1.31974E-02 7.75785E-04-7.01265E-02-1.52296E-13-2.59836E-13
 -1      2005 2.01257E+01 1.72998E-02-5.46266E-04-8.64708E-02-8.79585E-14-3.09290E-13
 -1      2006 2.02522E+01 2.00759E-02 1.43624E-03-1.11631E-01-1.68320E-13-8.14329E-14
 -1      2007 2.02045E+01 1.81841E-02 1.04262E-03-9.71141E-02-1.88301E-13-1.49865E-13
 -1      2008 2.01943E+01 2.39458E-02-7.30666E-04-1.19303E-01-2.24867E-13-1.99852E-13
 -1      2009 2.03699E+01 2.68283E-02 1.92935E-03-1.53253E-01-2.66014E-14-2.64292E-14
 -1      2010 2.03049E+01 2.44839E-02 1.36243E-03-1.33610E-01-7.24830E-14-3.77171E-14
 -1      2011 2.02860E+01 3.23348E-02-9.57114E-04-1.63700E-01-1.09874E-13-2.54187E-13
 -1      2012 2.05273E+01 3.52967E-02 2.55060E-03-2.08119E-01 1.24708E-13 2.88241E-14
 -1      2013 2.04395E+01 3.24105E-02 1.73954E-03-1.81987E-01 1.32717E-13 3.00019E-14
 -1      2014 2.04075E+01 4.28911E-02-1.23278E-03-2.22500E-01 1.12231E-13-9.24998E-14
 -1      2015 2.07352E+01 4.57462E-02 3.30499E-03-2.79326E-01-6.98786E-14-9.25921E-15
 -1      2016 2.06181E+01 4.22664E-02 2.16990E-03-2.45073E-01 3.09345E-15-8.81941E-15
 -1      2017 2.05673E+01 5.60284E-02-1.56621E-03-2.99068E-01 3.19146E-14-4.29998E-14
 -1      2018 2.10067E+01 5.82383E-02 4.16394E-03-3.70203E-01 2.95332E-14-4.82603E-14
 -1      2019 2.08524E+01 5.42312E-02 2.63116E-03-3.26012E-01-5.85859E-14-1.24046E-13
 -1      2020 2.07746E+01 7.20028E-02-1.96883E-03-3.97142E-01 1.38214E-15-1.90722E-13
 -1      2021 2.13558E+01 7.22807E-02 5.02541E-03-4.83668E-01-4.90669E-14 2.56645E-14
 -1      2022 2.11557E+01 6.81031E-02 3.06564E-03-4.27825E-01 3.23981E-14 1.49874E-14
 -1      2023 2.10400E+01 9.05727E-02-2.45848E-03-5.20321E-01 2.01501E-14 3.25967E-14
 -1      2024 2.17970E+01 8.61151E-02 5.64785E-03-6.20737E-01-4.12816E-14-7.04857E-14
 -1      2025 2.15421E+01 8.27581E-02 3.35419E-03-5.52340E-01-6.99510E-14-1.25125E-13
 -1      2026 2.13747E+01 1.10285E-01-3.06502E-03-6.70854E-01-9.85280E-15-5.04851E-14
 -1      2027 2.23417E+01 9.53873E-02 5.56093E-03-7.77414E-01 5.47518E-14-2.49456E-13
 -1      2028 2.20253E+01 9.51033E-02 3.28592E-03-6.97911E-01 1.78945E-14-1.05856E-13
 -1      2029 2.17888E+01 1.27092E-01-3.83494E-03-8.47083E-01 4.93199E-14-1.84345E-13
 -1      2030 2.29936E+01 9.09410E-02 3.99625E-03-9.38805E-01 4.99611E-14-1.37205E-13
 -1      2031 2.26147E+01 9.82377E-02 2.54580E-03-8.55000E-01 5.45813E-14-2.02659E-13
 -1      2032 2.22900E+01 1.31912E-01-4.81999E-03-1.03852E+00 4.06715E-14-2.59042E-13
 -1      2033 2.37388E+01 5.59118E-02-3.04370E-05-1.06918E+00-5.44822E-14 9.04138E-15
 -1      2034 2.33098E+01 7.87176E-02 7.78016E-04-9.98445E-01 2.39145E-14 1.34181E-14
 -1      2035 2.28793E+01 1.07002E-01-6.00878E-03-1.21726E+00-2.72516E-14 3.37191E-14
 -1      2036 2.45332E+01-3.60137E-02-7.25326E-03-1.09811E+00-3.79755E-14 1.11886E-13
 -1      2037 2.40899E+01 1.38320E-02-2.21114E-03-1.07585E+00-4.08987E-14 5.79458E-14
 -1      2038 2.35467E+01 2.23262E-02-7.13665E-03-1.32506E+00-4.26756E-14 1.67788E-13
 -1      2039 2.52850E+01-2.14918E-01-1.69110E-02-9.08346E-01-4.55365E-15 6.42073E-14
 -1      2040 2.48991E+01-1.27242E-01-6.13306E-03-9.94880E-01-6.51892E-14 5.71244E-14
 -1      2041 2.42638E+01-1.63033E-01-7.36490E-03-1.25860E+00-1.54451E-14 2.62365E-13
 -1      2042 2.58408E+01-4.87195E-01-2.46586E-02-3.45706E-01-1.10849E-14 1.62251E-13
 -1      2043 2.56259E+01-3.67636E-01-9.80437E-03-6.21576E-01-3.73226E-14 4.79651E-14
 -1      2044 2.49715E+01-4.81021E-01-4.79705E-03-8.65136E-01 1.17649E-14-1.72926E-14
 -1      2045 2.59818E+01-7.72478E-01-2.33064E-02 7.02020E-01-8.31175E-14 1.61537E-13
 -1      2046 2.60789E+01-6.74437E-01-1.21896E-02 1.77986E-01-5.81479E-15 1.83970E-13
 -1      2047 2.55569E+01-8.91821E-01 3.42032E-03 1.90729E-02-7.17655E-14 1.81612E-13
 -1      2048 2.54577E+01-8.41023E-01-1.19382E-02 2.10883E+00-1.86380E-13 3.30118E-13
 -1      2049 2.59816E+01-8.82722E-01-1.62441E-02 1.40301E+00-1.86195E-13 1.08398E-13
 -1      2050 2.58174E+01-1.18586E+00 1.53724E-02 1.43011E+00-1.39160E-13 9.75179E-14
 -1      2051 2.41254E+01-3.91011E-01-3.58998E-03 3.27822E+00-6.04169E-14 3.35953E-13
 -1      2052 2.50707E+01-6.85193E-01-2.57896E-02 2.69978E+00-1.19470E-13 3.53134E-13
 -1      2053 2.54748E+01-9.79030E-01 1.42356E-02 3.01903E+00-2.14857E-13 1.40908E-13
 -1      2054 2.22061E+01 5.76590E-01-3.86623E-02 3.25433E+00 8.01026E-14 2.35926E-13
 -1      2055 2.33589E+01 1.11487E-01-4.28215E-02 3.27602E+00 1.71911E-14 3.52274E-13
 -1      2056 2.43577E+01-9.03499E-03-2.81282E-02 3.92275E+00 2.96291E-14 2.67317E-13
 -1      2057 2.06490E+01 1.25452E+00-8.67423E-02 1.59407E+00-1.75797E-13 6.18668E-13
 -1      2058 2.15077E+01 1.08037E+00-4.89469E-02 2.35528E+00-1.29778E-13 3.96435E-13
 -1      2059 2.29041E+01 1.28559E+00-4.36658E-02 3.15164E+00-1.44128E-13 4.26564E-13
 -1      2060 2.02562E+01 1.09402E+00-9.15276E-02-5.88579E-01-2.60417E-14 4.57738E-13
 -1      2061 2.05168E+01 1.34003E+00-1.50033E-02 4.00993E-01-5.18613E-14 6.01727E-13
 -1      2062 2.21086E+01 1.87709E+00-5.09970E-02 7.90679E-01-5.55667E-14 5.06990E-13
 -1      2063 2.09277E+01 1.94844E-01-4.57587E-02-1.75886E+00 1.34583E-13 3.45828E-13
 -1      2064 2.05883E+01 6.41223E-01-1.29345E-02-1.26792E+00 1.11675E-13 3.72480E-13
 -1      2065 2.21303E+01 1.12534E+00-3.74445E-02-1.33500E+00 1.00739E-13 1.69557E-13
 -1      2066 2.16274E+01-4.92777E-01 1.25617E-02-1.45978E+00 8.02787E-14 4.23977E-13
 -1      2067 2.11522E+01-2.45751E-01-1.59309E-02-1.58921E+00-3.48645E-14 3.22378E-13
 -1      2068 2.25339E+01-1.32808E-01-7.93760E-03-1.85605E+00-1.23200E-14 2.84245E-13
 -1      2069 2.17428E+01-6.02316E-01 4.21547E-02-4.27709E-01-8.31835E-14 4.10771E-13
 -1      2070 2.14684E+01-6.38680E-01-1.81120E-02-8.55774E-01 1.05707E-13 4.96742E-13
 -1      2071 2.25265E+01-8.43110E-01-4.73271E-03-1.02317E+00-1.90854E-14 3.59057E-13
 -1      2072 2.12222E+01-2.27205E-01 4.42132E-02 3.42288E-01 1.27946E-13 1.49410E-13
 -1      2073 2.12667E+01-4.44775E-01-1.30560E-02 6.09764E-02 8.21114E-14 2.84054E-13
 -1      2074 2.19326E+01-7.28462E-01-1.49413E-02 1.04328E-01 1.44350E-13 1.35844E-13
 -1      2075 2.06141E+01 1.37443E-01 2.41683E-02 4.91295E-01 6.28126E-14-1.72683E-13
 -1      2076 2.08385E+01-1.10794E-01-1.75821E-02 4.83107E-01 9.05482E-14 6.67175E-15
 -1      2077 2.12357E+01-2.90283E-01-2.44407E-02 6.65729E-01 1.84807E-13-2.99791E-13
 -1      2078 2.06816E+01 3.11898E-01 2.08788E-02 6.96320E-01 1.69567E-13-5.75122E-13
 -1      2079 2.04225E+01 3.30693E+00-2.26215E-02 4.30628E+00 3.40991E-13 3.29493E-13
 -1      2080 2.09644E+01 2.16462E+00 3.53441E-02 3.92937E+00 2.86408E-13 5.07180E-13
 -1      2081 2.12071E+01 1.65828E+00 2.17012E-02 3.14471E+00 4.01703E-13 2.06200E-13
 -1      2082 2.12717E+01 7.98761E-01 4.61243E-03 2.47020E+00 3.16984E-13-2.20782E-13
 -1      2083 2.15264E+01 5.12340E-01-2.65081E-02 4.21195E+00 4.23175E-13 2.79779E-13
 -1      2084 2.11065E+01 8.14813E-01 4.18209E-02 1.73681E+00 3.22264E-13-4.28348E-13
 -1      2085 2.09275E+01 3.31928E-01 8.32655E-03 1.17407E+00 2.91658E-13-5.11553E-13
 -1      2086 2.12449E+01 5.98615E-02 4.10086E-03 1.25185E+00 2.72170E-13-3.45477E-13
 -1      2087 2.18200E+01 5.04520E-02 1.12224E-02 2.53008E+00 4.92841E-13-2.37111E-13
 -1      2088 1.88089E+01 5.37086E+00-5.83966E-02 3.95833E+00 1.93536E-13-6.95333E-13
 -1      2089 1.96901E+01 4.30275E+00 6.38840E-02 4.39819E+00 1.41640E-13-3.14426E-13
 -1      2090 1.99950E+01 1.94600E+00 2.63769E-03 5.31208E+00 2.07423E-13 7.80626E-15
 -1      2091 1.74293E+01 6.84485E+00-3.83380E-02 1.74137E+00-3.77597E-14-2.05502E-13
 -1      2092 1.80190E+01 6.32120E+00 4.85597E-02 2.94121E+00 1.62634E-13-6.31675E-13
 -1      2093 1.76865E+01 3.86325E+00 8.60638E-02 4.34015E+00 1.50406E-13-7.18980E-13
 -1      2094 1.73234E+01 6.86016E+00 1.80500E-02-1.76998E+00-1.28099E-13 6.99579E-14
 -1      2095 1.71472E+01 7.12521E+00-7.67205E-03-2.20473E-01-1.27686E-13 1.95538E-13
 -1      2096 1.60854E+01 5.13688E+00 1.60143E-01 9.62133E-01 4.53027E-14-1.20570E-13
 -1      2097 1.87428E+01 5.06413E+00 6.21479E-02-4.42068E+00-1.78538E-14-2.48079E-13
 -1      2098 1.79016E+01 6.08520E+00-6.02805E-02-3.48575E+00-4.65027E-14-3.65055E-14
 -1      2099 1.65326E+01 4.64810E+00 1.33599E-01-3.27978E+00-1.20641E-14 3.75255E-14
 -1      2100 2.04031E+01 2.53207E+00 5.43968E-02-4.97238E+00 8.85264E-14 1.89551E-13
 -1      2101 1.96040E+01 3.87765E+00-4.75563E-02-4.97093E+00-5.67602E-15-3.20299E-14
 -1      2102 1.87185E+01 2.69069E+00 3.98751E-02-5.78017E+00 2.09109E-13-2.00374E-13
 -1      2103 2.12922E+01 4.40623E-01 2.86843E-02-3.83897E+00-8.91041E-14 1.39324E-13
 -1      2104 2.09480E+01 1.64623E+00 5.06361E-03-4.45424E+00-6.44068E-14 1.85655E-13
 -1      2105 2.09057E+01 6.63887E-01-2.11510E-02-5.68552E+00 1.18217E-13 4.72469E-14
 -1      2106 2.13589E+01-7.72439E-01 1.17821E-02-2.12592E+00-3.47750E-13-3.43798E-13
 -1      2107 2.14030E+01 3.68299E-02 4.57609E-02-2.89080E+00-2.04167E-13-1.80550E-14
 -1      2108 2.19532E+01-5.72754E-01-2.51448E-02-3.98363E+00-1.49592E-13-1.01537E-13
 -1      2109 2.10076E+01-1.22560E+00 5.40192E-03-6.22514E-01-3.27478E-13 3.62099E-13
 -1      2110 2.12201E+01-8.50150E-01 5.58175E-02-1.24707E+00-3.34873E-13-1.23915E-13
 -1      2111 2.19163E+01-1.04970E+00-1.29820E-02-1.96912E+00-2.54239E-13-2.19536E-13
 -1      2112 2.05703E+01-1.18765E+00 1.80943E-03 3.74384E-01-3.24549E-13 3.46343E-13
 -1      2113 2.08008E+01-1.14817E+00 4.55898E-02-1.55382E-02-3.18079E-13 4.88302E-13
 -1      2114 2.13693E+01-1.07502E+00-2.30461E-03-3.64325E-01-3.96282E-13 4.34569E-13
 -1      2115 2.01498E+01-8.88003E-01-3.09588E-03 8.69577E-01-2.71311E-15 2.13878E-13
 -1      2116 2.03808E+01-1.04589E+00 3.13353E-02 6.94796E-01-1.03778E-13 3.58296E-13
 -1      2117 2.07244E+01-8.90415E-01 2.10983E-04 6.30402E-01-1.74222E-13 5.56072E-13
 -1      2118 1.18064E+01-6.83404E+00-1.94849E-01 7.90863E+00 3.90354E-13 2.32314E-13
 -1      2119 7.67506E+00-8.55412E+00-4.85137E-01 6.43419E+00 2.67120E-13 3.70870E-13
 -1      2120 9.05314E-01-8.40338E+00-5.00743E-01 7.77898E-01 4.74898E-13-2.15994E-13
 -1      2121 1.04377E+00-7.65743E+00-3.98529E-01-1.47272E+00 4.32709E-13-5.80203E-13
 -1      2122 3.86370E+00-7.80360E+00-3.83424E-01 4.86141E+00 3.07587E-13 4.48475E-13
 -1      2123 1.80801E+00-8.88812E+00-5.43936E-01 2.81814E+00 4.84668E-13 3.13194E-13
 -1      2124 3.25722E+00-4.97634E+00-2.17171E-01 2.27672E+00 5.36474E-13 7.57172E-14
 -1      2125 2.12811E+01-4.49506E+00 2.72983E-02 8.42258E+00 1.96509E-13 2.21045E-13
 -1      2126 1.62611E+01-6.89645E+00-3.68947E-01 7.57915E+00 3.76699E-13 3.61211E-13
 -1      2127 3.02220E+01-1.65391E+00 1.41833E-01 7.25389E+00 2.48135E-14-2.77556E-13
 -1      2128 2.48186E+01-3.70708E+00-1.80139E-01 7.22351E+00-5.59552E-14 1.26565E-14
 -1      2129 2.54065E+01-5.92271E+00 2.29924E-02 7.36628E+00 1.72196E-13-1.26232E-13
 -1      2130 1.95227E+01 4.01606E+00-2.56603E-02-1.70019E+00-2.12620E-13-4.54931E-13
 -1      2131 1.96513E+01 3.94252E+00-2.43562E-02-1.95535E+00-2.54152E-13-4.09613E-13
 -1      2132 1.99735E+01 3.25314E+00-8.00343E-03-1.90852E+00-2.86874E-13-3.49325E-13
 -1      2133 1.96933E+01 3.58322E+00-9.25059E-03-1.51695E+00-2.13100E-13-4.41343E-13
 -1      2134 4.34266E+01 6.43244E+00 5.21758E-01 3.12573E+00 1.55653E-13-1.80522E-13
 -1      2135 3.99013E+01 5.01498E+00 2.32693E-01 3.45291E+00 8.73746E-14-2.05502E-13
 -1      2136 4.43621E+01 7.87312E+00 4.78786E-01 1.69689E+00 4.13114E-13-3.22419E-13
 -1      2137 4.35721E+01 7.52607E+00 3.93795E-01 2.54818E+00 3.80862E-13-1.52489E-13
 -1      2138 4.35329E+01 6.51185E+00 3.93699E-01 1.57326E-01 1.25344E-13-5.69322E-13
 -1      2139 4.47516E+01 7.40766E+00 4.69591E-01 1.42078E+00 1.73361E-13-3.94740E-13
 -1      2140 3.79569E+01 3.10344E+00 9.08233E-02-5.39905E-01 1.53211E-13-5.50449E-13
 -1      2141 4.17407E+01 4.74880E+00 4.08731E-01 9.59933E-02 2.17604E-14-6.00298E-13
 -1      2142 3.14651E+01-1.05815E+00-8.02952E-02-3.12962E+00 3.79391E-13-2.44693E-13
 -1      2143 3.62682E+01 7.39781E-01 2.00610E-01-2.42224E+00 3.60642E-13-4.00568E-13
 -1      2144 2.28436E+01-4.42804E+00-2.80291E-01-4.79686E+00 4.70179E-13-2.13052E-13
 -1      2145 2.82519E+01-2.40987E+00 1.04607E-01-5.00390E+00 3.86857E-13-1.66311E-13
 -1      2146 1.44323E+01-7.40686E+00-3.86322E-01-5.22622E+00 4.01790E-13-4.88054E-13
 -1      2147 1.92956E+01-5.46789E+00-4.59004E-02-5.93146E+00 4.37983E-13-3.83471E-13
 -1      2148 6.28847E+00-9.10257E+00-4.98322E-01-4.28015E+00 3.75755E-13-3.12833E-13
 -1      2149 9.98702E+00-7.41028E+00-2.37435E-01-5.45764E+00 4.25882E-13-5.84678E-13
 -1      2150 1.08694E+00-9.88725E+00-5.20279E-01-2.12244E+00 2.91045E-13-3.50386E-13
 -1      2151 3.08799E+00-8.93471E+00-3.81962E-01-3.38368E+00 3.81861E-13-1.67977E-13
 -1      2152-2.85309E-01-9.27670E+00-4.11687E-01 7.51000E-01 2.36311E-13-3.88578E-15
 -1      2153-5.00636E-02-9.32978E+00-4.17660E-01-6.04166E-01 2.70062E-13-1.82854E-13
 -1      2154 2.20462E+00-8.00250E+00-2.68575E-01 3.97424E+00 2.51132E-13 1.90625E-13
 -1      2155 5.53051E-01-9.15420E+00-4.37328E-01 2.49014E+00 2.82163E-13 1.88460E-13
 -1      2156 8.04036E+00-6.88014E+00-2.03264E-01 6.30545E+00 2.79554E-13-7.29625E-13
 -1      2157 4.78007E+00-8.52554E+00-4.27430E-01 5.06263E+00 3.27072E-13-2.93265E-13
 -1      2158 1.68949E+01-4.92474E+00-2.83622E-02 7.35263E+00 8.13793E-14 2.40363E-14
 -1      2159 1.24028E+01-6.86394E+00-3.23163E-01 6.52281E+00 3.35287E-13-4.33570E-13
 -1      2160 2.59126E+01-2.01976E+00 1.01469E-01 6.70139E+00-1.67644E-13 3.83471E-13
 -1      2161 2.07361E+01-4.13536E+00-2.34187E-01 6.35578E+00-1.51823E-13 3.59046E-13
 -1      2162 3.38674E+01 1.00196E+00 1.47393E-01 4.44255E+00 6.79179E-14-1.79634E-13
 -1      2163 2.92663E+01-7.20825E-01-6.79934E-02 5.13835E+00-6.28941E-14 6.98330E-14
 -1      2164 4.04719E+01 5.07439E+00 3.37806E-01 2.11612E+00-1.60982E-15-5.11258E-14
 -1      2165 3.62982E+01 3.39023E+00 2.43658E-02 2.61098E+00 8.26422E-14-2.05058E-13
 -1      2166 4.35702E+01 7.58758E+00 3.76751E-01-8.44493E-02 3.38618E-14 3.79141E-14
 -1      2167 4.11562E+01 6.72503E+00 1.45076E-01 1.09666E+00 7.10543E-15-3.09752E-14
 -1      2168 4.37440E+01 7.97716E+00 3.32198E-01-2.07044E+00 4.16278E-13 2.07390E-13
 -1      2169 4.40326E+01 8.03545E+00 3.19711E-01-6.04933E-01 2.15439E-13 2.11262E-13
 -1      2170 4.02593E+01 6.28614E+00 1.94269E-01-3.64744E+00 1.74638E-13-6.13953E-14
 -1      2171 4.37016E+01 7.20575E+00 4.66788E-01-2.83741E+00 3.62099E-13 1.38667E-13
 -1      2172 3.44107E+01 2.16115E+00 9.95011E-02-5.65683E+00 4.83932E-13-3.16858E-13
 -1      2173 3.83954E+01 3.84266E+00 2.73221E-01-4.72681E+00 3.50164E-13-1.20237E-13
 -1      2174 2.63006E+01-1.78496E+00-1.27440E-01-7.34014E+00 4.68681E-13-3.69482E-13
 -1      2175 3.16553E+01 5.32260E-01 2.51844E-01-7.55712E+00 4.77784E-13-3.47056E-13
 -1      2176 1.72052E+01-5.62771E+00-3.13479E-01-7.91848E+00 4.89497E-13-3.90910E-13
 -1      2177 2.23795E+01-3.00794E+00 9.46871E-02-8.76052E+00 4.46865E-13-3.00759E-13
 -1      2178 9.18021E+00-7.84985E+00-4.08992E-01-7.26806E+00 4.80616E-13-2.45109E-13
 -1      2179 1.32576E+01-5.96134E+00-1.34066E-01-8.46668E+00 4.78173E-13-1.70482E-13
 -1      2180 2.52575E+00-8.46483E+00-4.85706E-01-4.16100E+00 2.47580E-13-4.92495E-13
 -1      2181 5.08389E+00-7.65630E+00-3.67322E-01-6.09713E+00 3.57714E-13-3.70703E-13
 -1      2182 3.80759E+01 2.44458E+00 3.02975E-01 4.73011E+00 6.76091E-14-2.75779E-13
 -1      2183 3.38578E+01 4.24813E-01 9.80304E-02 5.29111E+00 3.07254E-14-3.05311E-13
 -1      2184 3.26645E+01-2.37615E+00 1.82135E-01 4.53420E+00-6.12566E-14-3.26739E-13
 -1      2185 2.07379E+01 1.10876E+00-2.05564E-02-1.61551E+00-3.12320E-13 1.31811E-13
 -1      2186 3.83968E+01 6.03971E+00 3.28733E-01 2.50199E+00 7.63833E-14-3.24130E-13
 -1      2187 3.75508E+01 2.95237E+00 2.77452E-01 1.82539E+00 4.12448E-14-3.55049E-13
 -1      2188 2.06277E+01 1.32947E+00-1.88210E-02-1.67685E+00-3.37490E-13-3.07029E-14
 -1      2189 7.99043E+00-6.31984E+00-1.90394E-01 6.82246E+00 3.71370E-13 4.22551E-13
 -1      2190 1.68942E+01-7.14487E+00-1.11381E-01 8.53153E+00 3.35509E-13 2.23151E-13
 -1      2191 2.00669E+01-6.75715E-01-1.89358E-03 9.34440E-01-2.16754E-14-1.19611E-14
 -1      2192 3.59437E+00-5.22802E+00-2.15311E-01-3.36018E+00 2.04503E-13-3.36342E-13
 -1      2193 9.53635E+00-6.30616E+00-1.87873E-01-8.10050E+00 1.55320E-13-2.72476E-13
 -1      2194 1.82054E+01-6.39685E+00-7.06944E-02-8.91645E+00 2.67175E-13-1.11126E-13
 -1      2195 2.67982E+01-4.27650E+00 1.03666E-01-7.27177E+00 2.06002E-13-1.87350E-13
 -1      2196 3.34795E+01-3.90564E-01 2.45222E-01-4.31977E+00 3.73590E-13-3.05866E-14
 -1      2197 3.74696E+01 4.57343E+00 2.69056E-01-1.82370E+00 3.10058E-13 2.28872E-13
 -1      2198 3.92584E+01 8.52794E+00 3.71856E-01-9.91542E-01 3.04312E-13 4.62991E-13
 -1      2199 3.87432E+01 9.07037E+00 3.52876E-01-1.02950E+00 2.75890E-14 1.14270E-13
 -1      2200 3.75705E+01 6.27415E+00 2.79822E-01-7.51636E-01-8.74301E-14-2.10332E-13
 -1      2201 3.46422E+01 1.28756E+00 1.87776E-01 1.26807E+00-3.41394E-15-3.46057E-13
 -1      2202 2.89190E+01-3.12946E+00 1.25894E-01 4.27947E+00-1.40860E-13 5.72875E-14
 -1      2203 2.13287E+01-5.91513E+00 3.91680E-03 6.57593E+00 8.59313E-14 2.06057E-13
 -1      2204 1.26279E+01-6.82536E+00-7.89169E-02 7.38807E+00 2.68618E-13-4.27866E-13
 -1      2205 5.09807E+00-6.64517E+00-1.57218E-01 5.53458E+00 2.04115E-13-1.83575E-13
 -1      2206 1.37128E+00-6.25109E+00-1.82281E-01 2.03275E+00 1.74666E-13 1.29563E-13
 -1      2207 1.71990E+00-6.99407E+00-2.47934E-01-1.99811E+00 1.37945E-13-2.39975E-13
 -1      2208 6.65068E+00-7.68005E+00-2.15877E-01-5.07878E+00 2.68618E-13-3.60101E-13
 -1      2209 1.50342E+01-7.72119E+00-9.40846E-02-6.07228E+00 2.46358E-13-4.11619E-13
 -1      2210 2.36054E+01-6.54108E+00-2.25336E-02-4.59711E+00 2.84994E-13-1.01974E-13
 -1      2211 3.10204E+01-3.34700E+00 1.41544E-01-1.97493E+00 1.60649E-13 4.89053E-14
 -1      2212 3.57723E+01 1.14847E+00 2.14005E-01 1.24610E+00 2.83384E-14-8.91509E-14
 -1      2213 3.92605E+01 7.38242E+00 3.82569E-01 1.06263E+00 2.83829E-13-2.41418E-13
 -1      2214 3.98901E+01 8.51144E+00 4.40181E-01 1.70231E+00 3.58658E-13-3.12014E-13
 -1      2215 2.01496E+01 5.06515E-01 3.73314E-03 6.77256E-01 2.80210E-13 2.35327E-13
 -1      2216 2.04174E+01 7.00036E-01 2.07819E-02 9.68893E-01 2.97935E-13 2.72711E-13
 -1      2217 1.95586E+01 3.51655E+00-1.11384E-02-5.91190E-01-3.80200E-14-4.58037E-13
 -1      2218 1.95944E+01 3.47067E+00-1.05048E-02-7.75440E-01-8.19365E-14-4.62989E-13
 -1      2219 1.96413E+01 3.38244E+00-1.28153E-02-9.39966E-01-1.13155E-13-4.53767E-13
 -1      2220 1.97022E+01 3.30175E+00-1.29273E-02-1.12920E+00-1.62328E-13-4.30159E-13
 -1      2221 1.97858E+01 3.03371E+00 1.78933E-04-7.91762E-01-9.49565E-14-4.33565E-13
 -1      2222 1.95112E+01 3.59900E+00-9.61732E-03 9.94029E-02 8.55446E-14-4.43875E-13
 -1      2223 1.95105E+01 3.59983E+00-9.62506E-03-8.00309E-02 5.17064E-14-4.57296E-13
 -1      2224 1.95375E+01 3.55958E+00-9.71796E-03 4.45352E-01 1.47546E-13-4.25718E-13
 -1      2225 1.95199E+01 3.58216E+00-1.01369E-02 2.64564E-01 1.14602E-13-4.39951E-13
 -1      2226 1.96773E+01 3.22178E+00-9.00265E-04 1.69505E-01 9.92190E-14-4.15336E-13
 -1      2227 1.95996E+01 3.46302E+00-1.06045E-02 7.89241E-01 2.13681E-13-3.83820E-13
 -1      2228 1.95632E+01 3.51004E+00-1.12081E-02 6.07837E-01 1.70083E-13-4.07641E-13
 -1      2229 1.97143E+01 3.15823E+00-5.01339E-04 4.87844E-01 1.51581E-13-3.88691E-13
 -1      2230 1.97107E+01 3.28923E+00-1.29457E-02 1.14253E+00 2.89384E-13-3.01897E-13
 -1      2231 1.96479E+01 3.37258E+00-1.28725E-02 9.53283E-01 2.45273E-13-3.49601E-13
 -1      2232 1.97917E+01 3.02453E+00 2.72272E-04 8.03439E-01 2.23643E-13-3.35115E-13
 -1      2233 1.98905E+01 3.00360E+00-1.81634E-02 1.48948E+00 3.51996E-13-2.07213E-13
 -1      2234 1.97907E+01 3.14491E+00-1.51801E-02 1.29911E+00 3.09445E-13-2.61517E-13
 -1      2235 1.99214E+01 2.79934E+00 1.96085E-03 1.10961E+00 2.85263E-13-2.57233E-13
 -1      2236 2.01696E+01 2.54395E+00-2.83943E-02 1.79381E+00 3.99061E-13-6.81174E-14
 -1      2237 2.00181E+01 2.78335E+00-1.70960E-02 1.61933E+00 3.63194E-13-1.50867E-13
 -1      2238 2.01166E+01 2.44858E+00 5.81691E-03 1.37527E+00 3.42226E-13-1.53692E-13
 -1      2239 1.98727E+01 2.68291E-01 4.73337E-03 2.84651E-01 2.10617E-13 1.78946E-13
 -1      2240 2.00333E+01 3.68058E-01 2.01699E-02 4.41831E-01 2.45513E-13 2.12719E-13
 -1      2241 2.02119E+01 6.34686E-01-2.24674E-03 7.04026E-01 2.75391E-13 1.05259E-13
 -1      2242 2.04017E+01 8.53180E-01 1.24368E-02-1.00021E+00-2.63164E-13-9.71872E-14
 -1      2243 2.01923E+01 6.28171E-01-3.82451E-03-6.91063E-01-2.37320E-13-1.02006E-13
 -1      2244 3.39541E+01 4.53310E+00-1.10586E-01 3.44351E+00-1.90792E-13-1.66533E-15
 -1      2245 3.52279E+01 6.09002E+00-1.54190E-01 2.81455E+00 1.93179E-14-8.28226E-14
 -1      2246 2.01242E+01 4.69300E-01 1.55498E-02-4.74086E-01-2.33594E-13-8.10040E-14
 -1      2247 1.99850E+01 3.44751E-01 9.31123E-05-3.02579E-01-2.11691E-13-1.06339E-13
 -1      2248 2.02449E+01 7.47725E-01-1.29662E-03-6.91835E-01-2.47197E-13-1.60024E-13
 -1      2249 1.99212E+01 2.59486E-01 1.07303E-02-1.65343E-01-1.81757E-13-8.76883E-14
 -1      2250 1.98428E+01 1.88063E-01 6.70146E-04-6.81115E-02-1.34425E-13-1.32839E-13
 -1      2251 2.00815E+01 4.15652E-01-3.91493E-03-3.09692E-01-2.04775E-13-1.43995E-13
 -1      2252 1.97984E+01 1.38515E-01 6.37033E-03 1.39213E-02-1.11104E-13-1.33863E-13
 -1      2253 1.97634E+01 9.61267E-02 6.99296E-04 6.71754E-02-9.27279E-14-1.52004E-13
 -1      2254 1.99605E+01 2.27186E-01-3.69134E-03-7.06422E-02-1.44891E-13-1.39001E-13
 -1      2255 1.97375E+01 6.61679E-02 3.56955E-03 1.12791E-01-7.66246E-14-1.77963E-13
 -1      2256 1.97301E+01 4.05777E-02 6.07544E-04 1.39257E-01-6.24046E-14-1.62412E-13
 -1      2257 1.98848E+01 1.14671E-01-2.93706E-03 6.98792E-02-1.09524E-13-1.78549E-13
 -1      2258 1.97184E+01 2.22651E-02 1.85244E-03 1.61363E-01-6.12778E-14-1.52992E-13
 -1      2259 1.97275E+01 6.94878E-03 4.85997E-04 1.71349E-01-4.02275E-14-1.66121E-13
 -1      2260 1.98450E+01 4.63864E-02-2.11824E-03 1.45831E-01-6.68958E-14-1.70200E-13
 -1      2261 1.97254E+01-4.03424E-03 7.91845E-04 1.78544E-01-3.28641E-14-2.01447E-13
 -1      2262 1.97433E+01-1.28020E-02 3.66762E-04 1.78535E-01-4.44770E-14-1.97222E-13
 -1      2263 1.98307E+01 5.12772E-03-1.42751E-03 1.80074E-01-5.64511E-14-2.10320E-13
 -1      2264 1.97473E+01-1.90109E-02 1.42018E-04 1.76602E-01-7.97733E-14-1.82281E-13
 -1      2265 1.97692E+01-2.35169E-02 2.65533E-04 1.70815E-01-1.11292E-13-1.57757E-13
 -1      2266 1.98329E+01-1.89114E-02-9.05769E-04 1.88036E-01-7.51086E-14-2.48849E-13
 -1      2267 1.97765E+01-2.65734E-02-2.41474E-04 1.63662E-01-1.03762E-13-1.42629E-13
 -1      2268 1.97993E+01-2.82977E-02 1.88293E-04 1.54878E-01-8.07580E-14-1.44253E-13
 -1      2269 1.98449E+01-3.17201E-02-5.34724E-04 1.80168E-01-1.08427E-13-2.40773E-13
 -1      2270 1.98082E+01-2.92786E-02-4.49193E-04 1.45139E-01-7.65458E-14-1.27356E-13
 -1      2271 1.98300E+01-2.92085E-02 1.35273E-04 1.35195E-01-6.32561E-14-1.30478E-13
 -1      2272 1.98620E+01-3.71603E-02-2.82571E-04 1.63553E-01-7.52454E-14-2.17825E-13
 -1      2273 1.98393E+01-2.88426E-02-5.41445E-04 1.24629E-01-4.37586E-14-1.20278E-13
 -1      2274 1.98591E+01-2.76404E-02 1.04622E-04 1.14725E-01-1.18489E-14-7.76595E-14
 -1      2275 1.98811E+01-3.78049E-02-1.19814E-04 1.42965E-01-3.32980E-14-1.19301E-13
 -1      2276 1.98681E+01-2.64177E-02-5.59593E-04 1.04487E-01-3.64445E-14-9.84377E-14
 -1      2277 1.98856E+01-2.45179E-02 9.45092E-05 9.53964E-02-6.46874E-14-1.04793E-13
 -1      2278 1.99002E+01-3.53825E-02-2.27992E-05 1.21588E-01-3.65963E-14-1.10792E-13
 -1      2279 1.98939E+01-2.27566E-02-5.32220E-04 8.62358E-02-1.13888E-13-1.23758E-13
 -1      2280 1.99092E+01-2.04281E-02 1.03935E-04 7.84528E-02-1.35523E-13-1.47170E-13
 -1      2281 1.99183E+01-3.10334E-02 2.62948E-05 1.01512E-01-1.05025E-13-1.76329E-13
 -1      2282 1.99168E+01-1.83188E-02-4.78918E-04 7.08599E-02-1.35157E-13-1.31332E-13
 -1      2283 1.99300E+01-1.57077E-02 1.32959E-04 6.47082E-02-8.20215E-14-1.81044E-13
 -1      2284 1.99351E+01-2.54717E-02 4.04564E-05 8.41072E-02-1.45196E-13-4.59984E-14
 -1      2285 1.99370E+01-1.33464E-02-4.12877E-04 5.90198E-02-1.15456E-13-2.37052E-13
 -1      2286 1.99488E+01-1.05072E-02 1.82673E-04 5.47344E-02-1.18969E-13-2.68271E-13
 -1      2287 1.99504E+01-1.90958E-02 2.89035E-05 7.02928E-02-1.70927E-13-1.36585E-13
 -1      2288 1.99554E+01-7.91838E-03-3.42725E-04 5.12147E-02-2.63714E-14-2.71724E-13
 -1      2289 1.99664E+01-4.83801E-03 2.55019E-04 4.90011E-02-6.65669E-15-2.04317E-13
 -1      2290 1.99647E+01-1.20693E-02-2.01026E-06 6.07368E-02-8.28320E-14-1.70735E-13
 -1      2291 1.99730E+01-1.99465E-03-2.73827E-04 4.79004E-02-1.04518E-13-2.13079E-13
 -1      2292 1.99839E+01 1.38776E-03 3.52432E-04 4.79778E-02-1.37803E-13-2.38976E-13
 -1      2293 1.99787E+01-4.38240E-03-4.81135E-05 5.60072E-02-5.83121E-14-2.20774E-13
 -1      2294 1.99909E+01 4.54653E-03-2.09196E-04 4.95744E-02-1.02776E-13-2.64344E-13
 -1      2295 2.00026E+01 8.31990E-03 4.77292E-04 5.22036E-02-8.73180E-14-2.46385E-13
 -1      2296 1.99930E+01 4.09494E-03-1.06783E-04 5.66791E-02-1.37769E-13-1.63048E-13
 -1      2297 2.00106E+01 1.18704E-02-1.50126E-04 5.68274E-02-6.33758E-14-2.73964E-13
 -1      2298 2.00242E+01 1.61301E-02 6.31130E-04 6.23228E-02 1.06930E-14-2.73459E-13
 -1      2299 2.00086E+01 1.35628E-02-1.76355E-04 6.34047E-02-6.29156E-14-1.27900E-13
 -1      2300 2.00336E+01 2.01420E-02-9.66072E-05 7.03612E-02 1.80716E-14-2.08033E-13
 -1      2301 2.00503E+01 2.49626E-02 8.13453E-04 7.90850E-02 1.46898E-14-1.01858E-13
 -1      2302 2.00268E+01 2.42345E-02-2.55652E-04 7.69458E-02 5.43785E-14-1.17536E-13
 -1      2303 2.00619E+01 2.94701E-02-4.74616E-05 9.09667E-02-3.75115E-15-9.96406E-14
 -1      2304 2.00829E+01 3.48675E-02 1.02002E-03 1.03300E-01-6.79467E-15-9.06398E-14
 -1      2305 2.00488E+01 3.62655E-02-3.43614E-04 9.81628E-02 3.96170E-14-5.46659E-14
 -1      2306 2.00975E+01 3.98287E-02-2.12266E-07 1.19449E-01-8.53632E-14-1.36765E-13
 -1      2307 2.01241E+01 4.57076E-02 1.24040E-03 1.35729E-01-4.58713E-14-2.41500E-13
 -1      2308 2.00762E+01 4.96572E-02-4.39047E-04 1.27950E-01-9.20276E-14-9.79821E-14
 -1      2309 2.01426E+01 5.09476E-02 4.93842E-05 1.56482E-01-1.08273E-14-3.00916E-13
 -1      2310 2.01763E+01 5.70259E-02 1.45471E-03 1.76896E-01 6.54754E-14-2.59068E-13
 -1      2311 2.01105E+01 6.41209E-02-5.40556E-04 1.67102E-01-7.54431E-14-1.67640E-13
 -1      2312 2.01996E+01 6.21568E-02 1.08196E-04 2.02362E-01 1.23108E-13-3.37568E-13
 -1      2313 2.02417E+01 6.78627E-02 1.62936E-03 2.26783E-01 9.61904E-15-3.39572E-13
 -1      2314 2.01538E+01 7.88885E-02-6.46814E-04 2.16079E-01 2.60406E-14-1.65741E-13
 -1      2315 2.02710E+01 7.21777E-02 1.87017E-04 2.56632E-01-1.33549E-15-3.25454E-13
 -1      2316 2.03227E+01 7.65145E-02 1.71216E-03 2.84371E-01 2.33653E-14-3.06119E-13
 -1      2317 2.02079E+01 9.24546E-02-7.57316E-04 2.74646E-01 6.43746E-15-3.98178E-13
 -1      2318 2.03593E+01 7.88531E-02 3.02237E-04 3.17537E-01-1.33627E-14-3.73260E-13
 -1      2319 2.04212E+01 8.02368E-02 1.62720E-03 3.47006E-01-3.17209E-14-4.14814E-13
 -1      2320 2.02752E+01 1.02244E-01-8.73751E-04 3.41353E-01-1.77229E-14-4.05992E-13
 -1      2321 2.04665E+01 7.88343E-02 4.77445E-04 3.81274E-01-1.36764E-14-4.18027E-13
 -1      2322 2.05387E+01 7.49259E-02 1.27129E-03 4.09538E-01-7.18134E-14-3.38082E-13
 -1      2323 2.03580E+01 1.04216E-01-1.00184E-03 4.12801E-01-1.78015E-14-3.69723E-13
 -1      2324 2.05946E+01 6.72822E-02 7.43714E-04 4.41029E-01-4.27674E-14-3.06287E-13
 -1      2325 2.06758E+01 5.48782E-02 5.14863E-04 4.63288E-01 1.64886E-14-1.96825E-13
 -1      2326 2.04591E+01 9.24755E-02-1.15278E-03 4.82708E-01-1.56242E-14-1.88627E-13
 -1      2327 2.07441E+01 3.77318E-02 1.13561E-03 4.85855E-01-3.67966E-14-9.71716E-14
 -1      2328 2.08314E+01 1.28482E-02-7.86691E-04 4.94927E-01-4.39436E-14-1.30074E-14
 -1      2329 2.05815E+01 5.90506E-02-1.34174E-03 5.40764E-01 1.40429E-14-4.20197E-14
 -1      2330 2.09143E+01-1.75712E-02 1.67710E-03 4.99576E-01-7.23993E-14-3.54805E-15
 -1      2331 2.10024E+01-5.91678E-02-2.76183E-03 4.85594E-01-1.19175E-14 8.51135E-14
 -1      2332 2.07281E+01-5.81716E-03-1.57818E-03 5.71443E-01-6.00481E-15 4.17144E-14
 -1      2333 2.11019E+01-1.06310E-01 2.34827E-03 4.60176E-01 1.43676E-14 9.85898E-14
 -1      2334 2.11827E+01-1.67719E-01-5.45717E-03 4.10903E-01 8.79267E-14 1.33611E-13
 -1      2335 2.09020E+01-1.12225E-01-1.83880E-03 5.53071E-01-1.71480E-15 1.40305E-13
 -1      2336 2.12990E+01-2.32885E-01 3.02173E-03 3.40566E-01 8.99604E-14 8.32388E-14
 -1      2337 2.13608E+01-3.13335E-01-8.71331E-03 2.43003E-01 2.80587E-14 5.13690E-14
 -1      2338 2.11046E+01-2.67020E-01-2.01233E-03 4.57882E-01 4.14937E-14 2.18760E-13
 -1      2339 2.14902E+01-3.92428E-01 3.38184E-03 1.12324E-01-4.22722E-14-2.46332E-14
 -1      2340 2.15175E+01-4.82913E-01-1.19621E-02-4.34568E-02 3.79766E-14-5.65397E-14
 -1      2341 2.13327E+01-4.66886E-01-1.80972E-03 2.54383E-01-7.04389E-14 1.46493E-14
 -1      2342 2.16478E+01-5.61909E-01 2.85193E-03-2.45251E-01 6.97424E-14-1.80198E-14
 -1      2343 2.16225E+01-6.40070E-01-1.40243E-02-4.59176E-01 1.47907E-13 8.50475E-14
 -1      2344 2.15728E+01-6.87576E-01-6.82922E-04-8.56800E-02 1.35118E-13 3.41271E-14
 -1      2345 2.17277E+01-6.91011E-01 6.03710E-04-7.28349E-01 1.36256E-13-3.83000E-14
 -1      2346 2.16320E+01-7.18853E-01-1.31501E-02-9.80590E-01 1.26740E-13-6.14645E-14
 -1      2347 2.17925E+01-8.71748E-01 1.99854E-03-5.72561E-01 9.08204E-14 1.38090E-14
 -1      2348 2.16712E+01-7.01318E-01-3.96632E-03-1.28474E+00 6.57003E-14-1.04403E-13
 -1      2349 2.14953E+01-6.32830E-01-7.48610E-03-1.52673E+00-1.89304E-13-1.93119E-13
 -1      2350 2.19329E+01-9.24919E-01 6.22945E-03-1.17377E+00 2.70172E-15-1.38881E-13
 -1      2351 2.14231E+01-5.07939E-01-9.75424E-03-1.79283E+00-1.71574E-13-2.46518E-13
 -1      2352 2.11755E+01-3.14097E-01 3.35308E-03-1.94753E+00-1.57095E-13-2.39408E-13
 -1      2353 2.19149E+01-7.36887E-01 1.06916E-02-1.78465E+00-1.82740E-13-2.49076E-13
 -1      2354 2.09726E+01-7.54692E-02-1.37299E-02-2.06801E+00-1.66287E-13-1.21017E-13
 -1      2355 2.06889E+01 2.17530E-01 1.51915E-02-2.05193E+00-1.83186E-13-5.48641E-14
 -1      2356 2.16745E+01-2.43442E-01 1.23447E-02-2.21624E+00-1.31632E-13-7.65072E-14
 -1      2357 2.04021E+01 5.10127E-01-1.21976E-02-1.92963E+00-1.26503E-13 5.34431E-14
 -1      2358 2.01420E+01 8.02493E-01 2.05637E-02-1.70124E+00 1.84878E-15 9.55119E-14
 -1      2359 2.12280E+01 4.80919E-01 6.82185E-03-2.24088E+00-7.77028E-14 1.52010E-13
 -1      2360 1.98850E+01 1.03110E+00-3.05241E-03-1.32413E+00 1.62110E-15 7.52770E-14
 -1      2361 1.97094E+01 1.18999E+00 1.48571E-02-9.28321E-01 8.98838E-14 2.64101E-14
 -1      2362 2.07205E+01 1.18850E+00-5.54139E-03-1.72493E+00-2.16294E-14-2.17518E-14
 -1      2363 1.95946E+01 1.24476E+00 9.92797E-03-4.12750E-01 1.25599E-13 7.53913E-14
 -1      2364 1.95360E+01 1.19829E+00 2.71003E-03 2.26393E-02 1.46879E-13 4.82818E-14
 -1      2365 2.03686E+01 1.57354E+00-1.26624E-02-7.72033E-01 4.56215E-14 1.63952E-14
 -1      2366 1.95752E+01 1.06625E+00 1.79622E-02 4.87289E-01 9.87153E-14 2.03271E-13
 -1      2367 1.96206E+01 8.61448E-01-6.77218E-03 8.24199E-01 2.43418E-13 2.52660E-13
 -1      2368 2.02922E+01 1.46763E+00-7.91156E-03 2.73751E-01 1.70248E-13 2.62721E-13
 -1      2369 1.97164E+01 6.33452E-01 1.58972E-02 1.09921E+00 2.88303E-13 2.22375E-13
 -1      2370 1.98198E+01 3.87379E-01-8.63643E-03 1.26840E+00 3.88076E-14 3.02338E-13
 -1      2371 2.04076E+01 9.78090E-01 4.37450E-03 1.04207E+00 1.83319E-13 3.77809E-13
 -1      2372 1.98594E+01 1.69900E-01 6.52050E-03 1.33598E+00-1.92435E-13 3.26231E-13
 -1      2373 1.99619E+01-2.61573E-02-5.22233E-03 1.34776E+00-1.07336E-13 2.95470E-13
 -1      2374 2.05084E+01 3.71623E-01 1.09715E-02 1.36858E+00 2.96545E-14 2.25307E-13
 -1      2375 1.96257E+01 7.26220E-02 2.07048E-03-6.69042E-02 6.54719E-14 5.33579E-14
 -1      2376 1.96529E+01 1.04363E-01 6.91098E-03-2.07328E-02 1.05986E-13 1.20649E-13
 -1      2377 1.96023E+01 3.07281E-02 1.33497E-03-1.32599E-01 3.38022E-14 2.20015E-14
 -1      2378 1.95991E+01 4.96681E-02 3.68139E-03-1.10087E-01 2.57644E-14 5.18574E-14
 -1      2379 1.97697E+01 8.99004E-02-3.17043E-03-7.23725E-02 7.10569E-14-4.84617E-15
 -1      2380 1.96145E+01 5.64036E-03 8.66671E-04-1.61008E-01 8.72192E-14 1.70566E-14
 -1      2381 1.95943E+01 1.69170E-02 1.81352E-03-1.52785E-01 5.95990E-14 3.65800E-14
 -1      2382 1.97357E+01 3.58627E-02-2.27942E-03-1.44694E-01 4.44507E-14-2.20521E-14
 -1      2383 1.96467E+01-9.03336E-03 5.43952E-04-1.66602E-01 1.46819E-13 3.83244E-14
 -1      2384 1.96182E+01-2.56534E-03 7.14222E-04-1.66953E-01 1.27695E-13 4.84928E-14
 -1      2385 1.97323E+01 3.66802E-03-1.50796E-03-1.76404E-01 9.79658E-14 8.38628E-15
 -1      2386 1.96885E+01-1.70113E-02 3.17867E-04-1.58703E-01 9.01624E-14 4.55222E-14
 -1      2387 1.96572E+01-1.36468E-02 6.06404E-05-1.63978E-01 1.37285E-13 6.22920E-14
 -1      2388 1.97475E+01-1.49420E-02-9.29793E-04-1.82956E-01 1.35477E-13 2.63052E-14
 -1      2389 1.97332E+01-2.06237E-02 1.64115E-04-1.43435E-01 9.12882E-14 5.48750E-14
 -1      2390 1.97023E+01-1.92766E-02-3.15475E-04-1.51251E-01 9.40498E-14 6.19394E-14
 -1      2391 1.97728E+01-2.48212E-02-5.24245E-04-1.74532E-01 1.03465E-13-1.20686E-14
 -1      2392 1.97766E+01-2.14019E-02 6.59927E-05-1.24846E-01 7.92367E-14-8.40465E-15
 -1      2393 1.97481E+01-2.13536E-02-5.12385E-04-1.33640E-01 9.08581E-14 2.33747E-14
 -1      2394 1.98023E+01-2.90261E-02-2.52906E-04-1.57908E-01 9.96180E-14-3.01532E-14
 -1      2395 1.98165E+01-2.03734E-02 1.08172E-05-1.05586E-01 1.04322E-13-2.63634E-14
 -1      2396 1.97912E+01-2.11424E-02-5.92639E-04-1.14345E-01 1.09289E-13-4.89822E-14
 -1      2397 1.98324E+01-2.95645E-02-8.09253E-05-1.37597E-01 9.83733E-14-5.01648E-14
 -1      2398 1.98518E+01-1.82225E-02-1.05965E-05-8.73655E-02 3.23210E-14-1.98241E-14
 -1      2399 1.98300E+01-1.94917E-02-5.98133E-04-9.54418E-02 6.63380E-14-2.17393E-14
 -1      2400 1.98611E+01-2.77774E-02 1.90542E-05-1.16578E-01 7.63734E-14-6.79876E-14
 -1      2401 1.98824E+01-1.53856E-02-4.25469E-06-7.12700E-02 7.77409E-14-1.96859E-14
 -1      2402 1.98639E+01-1.69573E-02-5.57329E-04-7.82559E-02 6.95013E-14 1.02408E-14
 -1      2403 1.98872E+01-2.45498E-02 6.70188E-05-9.67876E-02 6.40941E-14-7.08658E-14
 -1      2404 1.99088E+01-1.21141E-02 2.67383E-05-5.79943E-02 4.40249E-14-3.43113E-14
 -1      2405 1.98932E+01-1.38804E-02-4.89314E-04-6.36272E-02 4.47060E-14-4.68283E-14
 -1      2406 1.99104E+01-2.04367E-02 7.72462E-05-7.94749E-02 7.86685E-14-4.14408E-14
 -1      2407 1.99318E+01-8.51768E-03 8.18150E-05-4.80168E-02 1.71628E-13-6.50123E-14
 -1      2408 1.99184E+01-1.04400E-02-4.06546E-04-5.21078E-02 1.31319E-13 3.62313E-15
 -1      2409 1.99310E+01-1.57466E-02 5.95141E-05-6.54636E-02 9.40316E-14 5.66456E-14
 -1      2410 1.99527E+01-4.59408E-03 1.62746E-04-4.17348E-02 1.18148E-13-4.87111E-14
 -1      2411 1.99406E+01-6.68889E-03-3.16702E-04-4.41125E-02 1.62182E-13-2.74963E-14
 -1      2412 1.99496E+01-1.05985E-02 2.01044E-05-5.53481E-02 1.59594E-13 1.30549E-14
 -1      2413 1.99728E+01-2.48729E-04 2.73545E-04-3.95719E-02 2.23319E-14-3.23399E-14
 -1      2414 1.99611E+01-2.57864E-03-2.24059E-04-4.00377E-02 9.61717E-14-1.44693E-14
 -1      2415 1.99671E+01-4.96053E-03-3.72589E-05-4.96463E-02 5.88217E-14 1.10439E-13
 -1      2416 1.99939E+01 4.69321E-03 4.20453E-04-4.20668E-02-1.30231E-13-9.28334E-14
 -1      2417 1.99816E+01 2.02457E-03-1.30537E-04-4.03560E-02-6.68364E-14-3.16150E-14
 -1      2418 1.99845E+01 1.32428E-03-1.10773E-04-4.89215E-02-3.14164E-14 1.59317E-13
 -1      2419 2.00181E+01 1.04813E-02 6.12007E-04-4.99519E-02 1.62366E-14-2.33089E-13
 -1      2420 2.00038E+01 7.33123E-03-3.64930E-05-4.56988E-02-4.69082E-14-1.53369E-13
 -1      2421 2.00034E+01 8.52307E-03-1.99986E-04-5.38835E-02-2.44658E-14-2.11865E-15
 -1      2422 2.00478E+01 1.74394E-02 8.59181E-04-6.42243E-02 1.38978E-13-2.64786E-13
 -1      2423 2.00299E+01 1.36254E-02 5.86107E-05-5.69290E-02 8.70991E-14-2.63533E-13
 -1      2424 2.00253E+01 1.70068E-02-3.05159E-04-6.54761E-02 8.15054E-14-1.76382E-13
 -1      2425 2.00858E+01 2.59704E-02 1.17551E-03-8.62169E-02 6.23421E-14-2.08305E-13
 -1      2426 2.00626E+01 2.12669E-02 1.55578E-04-7.52109E-02 1.03373E-13-2.41861E-13
 -1      2427 2.00521E+01 2.72509E-02-4.26592E-04-8.49567E-02 8.71880E-14-1.70806E-13
 -1      2428 2.01356E+01 3.65625E-02 1.57704E-03-1.17669E-01-1.07585E-13-2.07552E-13
 -1      2429 2.01047E+01 3.06967E-02 2.54840E-04-1.02080E-01 4.56897E-14-2.23546E-13
 -1      2430 2.00861E+01 3.98415E-02-5.63848E-04-1.13972E-01 2.84798E-14-1.05461E-13
 -1      2431 2.02011E+01 4.97933E-02 2.08174E-03-1.60798E-01-1.64268E-13-2.89561E-13
 -1      2432 2.01599E+01 4.24436E-02 3.55753E-04-1.39512E-01-1.90565E-13-2.77551E-13
 -1      2433 2.01298E+01 5.54826E-02-7.14760E-04-1.54630E-01-9.53923E-14-2.00645E-13
 -1      2434 2.02869E+01 6.63209E-02 2.70776E-03-2.18356E-01-4.08513E-14-3.45957E-13
 -1      2435 2.02323E+01 5.71237E-02 4.55767E-04-1.89988E-01-1.36081E-13-3.59773E-13
 -1      2436 2.01860E+01 7.49966E-02-8.74210E-04-2.09561E-01-3.91788E-14-3.44946E-13
 -1      2437 2.03986E+01 8.68364E-02 3.46917E-03-2.93658E-01 9.39304E-14-2.32468E-13
 -1      2438 2.03267E+01 7.54172E-02 5.49486E-04-2.56542E-01-1.26594E-14-3.49198E-13
 -1      2439 2.02580E+01 9.92961E-02-1.03281E-03-2.81964E-01-2.10563E-14-4.15453E-13
 -1      2440 2.05422E+01 1.11932E-01 4.36697E-03-3.90513E-01 9.78698E-15-3.13852E-13
 -1      2441 2.04486E+01 9.79890E-02 6.27766E-04-3.42744E-01 9.21437E-14-2.48577E-13
 -1      2442 2.03493E+01 1.29289E-01-1.17601E-03-3.75578E-01 4.49612E-14-4.02711E-13
 -1      2443 2.07244E+01 1.41784E-01 5.37154E-03-5.12950E-01-3.93381E-14-2.12027E-13
 -1      2444 2.06041E+01 1.25285E-01 6.77420E-04-4.52548E-01-7.38049E-15-1.97394E-13
 -1      2445 2.04632E+01 1.65629E-01-1.28505E-03-4.94543E-01 3.90855E-16-3.78740E-13
 -1      2446 2.09520E+01 1.75477E-01 6.39094E-03-6.64507E-01-6.39267E-15-1.67240E-14
 -1      2447 2.07999E+01 1.57076E-01 6.83020E-04-5.89852E-01-3.39572E-16-8.50490E-14
 -1      2448 2.06033E+01 2.08165E-01-1.34295E-03-6.42973E-01-4.84360E-14-1.18637E-13
 -1      2449 2.12317E+01 2.09661E-01 7.21908E-03-8.46697E-01 3.51366E-14-1.04925E-13
 -1      2450 2.10427E+01 1.91508E-01 6.34500E-04-7.57455E-01 5.28473E-14-3.71736E-14
 -1      2451 2.07729E+01 2.54783E-01-1.35212E-03-8.24038E-01 6.20583E-14-7.54864E-14
 -1      2452 2.15692E+01 2.36056E-01 7.46148E-03-1.05596E+00 6.20827E-14-1.11065E-13
 -1      2453 2.13394E+01 2.23281E-01 5.48790E-04-9.54933E-01-7.73947E-15-7.12133E-14
 -1      2454 2.09751E+01 2.99203E-01-1.37459E-03-1.03810E+00 4.17634E-14-5.63515E-14
 -1      2455 2.19688E+01 2.37285E-01 6.45102E-03-1.27814E+00-1.03791E-13 6.43443E-14
 -1      2456 2.16971E+01 2.40417E-01 5.21739E-04-1.17459E+00-4.45065E-15 1.52608E-14
 -1      2457 2.12137E+01 3.27049E-01-1.60961E-03-1.27929E+00-8.36950E-14-3.03296E-14
 -1      2458 2.24341E+01 1.80947E-01 3.20669E-03-1.47928E+00-4.39103E-14 1.93838E-13
 -1      2459 2.21240E+01 2.19173E-01 8.31835E-04-1.39430E+00-7.21972E-14 1.18631E-13
 -1      2460 2.14966E+01 3.09593E-01-2.51215E-03-1.52956E+00-1.46788E-13 3.27040E-13
 -1      2461 2.29694E+01 1.42697E-02-3.45658E-03-1.59221E+00-4.51784E-14 2.83110E-13
 -1      2462 2.26322E+01 1.17798E-01 2.09778E-03-1.56600E+00 2.12363E-14 2.40525E-13
 -1      2463 2.18414E+01 1.95731E-01-4.89458E-03-1.74915E+00-1.24348E-14 2.80735E-13
 -1      2464 2.35827E+01-3.31793E-01-1.45641E-02-1.50190E+00 4.31773E-15 2.05681E-13
 -1      2465 2.32415E+01-1.26092E-01 5.25147E-03-1.59982E+00-5.16488E-14 3.41654E-13
 -1      2466 2.22870E+01-9.26919E-02-9.81666E-03-1.86242E+00-4.85094E-15 2.25562E-13
 -1      2467 2.42819E+01-9.06532E-01-2.95922E-02-1.04096E+00-2.44596E-14 2.57463E-13
 -1      2468 2.39780E+01-5.80380E-01 1.08350E-02-1.34906E+00 4.50100E-14 2.43191E-13
 -1      2469 2.29050E+01-6.46911E-01-1.80282E-02-1.74104E+00 3.14436E-14 3.73713E-13
 -1      2470 2.50454E+01-1.62925E+00-4.27793E-02-2.51030E-02-7.40207E-14 2.45358E-13
 -1      2471 2.48504E+01-1.25295E+00 1.76717E-02-6.14336E-01-3.70580E-14 2.70511E-13
 -1      2472 2.37960E+01-1.50392E+00-2.75318E-02-1.19277E+00 5.96450E-14 4.01022E-13
 -1      2473 2.57404E+01-2.11040E+00-4.60110E-02 1.59327E+00-1.95908E-13 3.17849E-13
 -1      2474 2.57609E+01-1.93576E+00 1.58129E-02 7.67505E-01-6.39610E-14 2.85113E-13
 -1      2475 2.50183E+01-2.45459E+00-2.80510E-02 5.30679E-03-8.65384E-14 3.94193E-13
 -1      2476 2.60486E+01-1.59627E+00-3.36040E-02 3.41711E+00-9.71254E-14 1.72477E-13
 -1      2477 2.63824E+01-2.03130E+00-1.75426E-02 2.65882E+00-1.68390E-13 2.32351E-13
 -1      2478 2.64076E+01-2.82502E+00-1.70146E-02 1.91164E+00-1.37881E-13 5.17745E-13
 -1      2479 2.55261E+01 2.73718E-01-1.49211E-02 4.26384E+00-2.36623E-13 4.68403E-13
 -1      2480 2.62556E+01-7.80528E-01-7.62277E-02 4.17547E+00-1.75776E-13 1.44498E-13
 -1      2481 2.73155E+01-1.63055E+00-5.27373E-02 3.92556E+00-2.00659E-13 1.07615E-13
 -1      2482 2.38730E+01 2.99809E+00-1.47836E-01 1.96598E-01 1.21653E-13 1.82086E-13
 -1      2483 2.39803E+01 3.28891E+00-1.15367E-01 1.51209E+00-3.62765E-14 3.21805E-13
 -1      2484 2.41974E+01 1.09401E+00-1.28407E-01-1.83012E+00 1.13576E-13 3.15520E-14
 -1      2485 2.40745E+01 2.25271E+00-3.62805E-02-1.15822E+00 1.88807E-13 9.39145E-14
 -1      2486 2.61325E+01 3.51543E+00-1.26102E-01-5.80713E-01 1.29563E-13 7.62237E-14
 -1      2487 2.43714E+01-8.75309E-01-6.21347E-02-1.74128E+00-1.62644E-13 2.86604E-13
 -1      2488 2.42613E+01 1.35022E-02-1.96317E-02-1.94304E+00-1.40839E-13 2.36105E-13
 -1      2489 2.62485E+01 7.27919E-01-7.50917E-02-1.96846E+00-5.70655E-14-3.09613E-14
 -1      2490 2.37408E+01-1.55097E+00 1.53652E-03-3.81078E-01 1.09826E-13 1.72585E-13
 -1      2491 2.38767E+01-1.41802E+00-3.39901E-02-9.90807E-01 9.12291E-15 2.10495E-13
 -1      2492 2.56928E+01-1.52752E+00-3.70333E-02-1.19354E+00-8.11885E-14 1.31950E-13
 -1      2493 2.25121E+01-9.11252E-01 4.14146E-02 8.35128E-01 2.73609E-13-1.08328E-13
 -1      2494 2.28522E+01-1.34426E+00-4.09319E-02 4.02720E-01 2.44850E-13 7.21014E-14
 -1      2495 2.42520E+01-1.93498E+00-1.97388E-02 4.58573E-01 3.20165E-13-2.37616E-13
 -1      2496 2.15552E+01-3.11929E-01-2.12680E-02 1.18528E+00 2.98010E-13-1.66086E-13
 -1      2497 1.55969E+01 2.50647E+00-3.97726E-04 4.60842E+00 1.17815E-13-3.81431E-13
 -1      2498 1.75557E+01 1.80378E+00 1.87763E-01 5.68183E+00-8.07045E-14-4.89282E-13
 -1      2499 1.34017E+01 3.68512E+00 8.86052E-02 6.07293E-03 2.00711E-13 1.02821E-13
 -1      2500 1.40039E+01 3.41938E+00 1.16262E-01 2.27187E+00 3.42715E-13-3.04590E-13
 -1      2501 1.33457E+01 1.40109E+00 1.73091E-01 3.98195E+00 2.37768E-13-1.18849E-13
 -1      2502 2.24051E+01-6.65267E-01 3.44490E-02 4.85022E+00 2.66163E-13 2.34481E-13
 -1      2503 2.29363E+01-1.17039E+00 1.91748E-02 3.93412E+00 3.80869E-13 7.54477E-14
 -1      2504 1.95007E+01 4.59229E-01-2.83550E-02 6.12343E+00-1.17451E-13-3.22881E-13
 -1      2505 2.12638E+01-2.96604E-01 1.13466E-01 5.92748E+00 6.62942E-14 2.69854E-14
 -1      2506 2.23807E+01-2.24246E+00-8.70215E-04 5.81854E+00 4.17097E-14-1.21847E-14
 -1      2507 1.53951E+01 2.77638E+00 1.87233E-01-4.94524E+00 2.96291E-15-4.42840E-14
 -1      2508 1.38428E+01 3.28625E+00 2.34058E-03-2.99101E+00-2.00326E-14 1.40638E-13
 -1      2509 1.17439E+01 2.03191E+00 1.83314E-01-1.81184E+00 3.37372E-13-1.44051E-14
 -1      2510 1.94692E+01 6.22890E-01 1.64976E-01-6.91594E+00 2.73170E-13 1.88391E-14
 -1      2511 1.73274E+01 1.46289E+00-4.89133E-02-6.36964E+00 1.59400E-13-2.60653E-13
 -1      2512 1.54831E+01 5.12152E-01 1.46501E-01-6.55095E+00 5.98271E-14-8.32945E-14
 -1      2513 2.23705E+01-1.02137E+00 7.39306E-02-5.82459E+00-7.79325E-14-3.35929E-14
 -1      2514 2.11248E+01-3.17448E-01-1.36866E-02-6.47860E+00 1.37858E-13-6.84279E-14
 -1      2515 2.03899E+01-1.43418E+00 2.28876E-02-7.39924E+00 1.78801E-13-1.70676E-13
 -1      2516 2.31197E+01-1.53119E+00 3.07969E-03-3.51246E+00-1.60701E-13-1.83086E-13
 -1      2517 2.29398E+01-1.12021E+00 3.42402E-02-4.56165E+00-8.63623E-14-5.95392E-14
 -1      2518 2.33670E+01-2.16902E+00-4.86331E-03-5.41147E+00-1.32994E-13-6.56177E-14
 -1      2519 2.25919E+01-1.37058E+00-2.03280E-02-1.36765E+00-1.22540E-13-6.46098E-14
 -1      2520 2.29645E+01-1.20833E+00 5.01880E-02-2.31019E+00-1.21409E-13-2.01703E-13
 -1      2521 2.38715E+01-1.85203E+00 9.24999E-03-2.83939E+00-2.28821E-15-1.34818E-13
 -1      2522 2.16531E+01-1.00974E+00-2.19024E-02 1.07395E-01-2.92519E-13 5.78946E-13
 -1      2523 2.21501E+01-1.00238E+00 4.10429E-02-5.28373E-01-2.26997E-13 3.28754E-13
 -1      2524 2.30299E+01-1.23594E+00 1.89836E-02-7.91202E-01-4.64264E-14 1.30090E-13
 -1      2525 2.07626E+01-6.67318E-01-1.54290E-02 9.32844E-01-1.51654E-13 5.34847E-13
 -1      2526 2.12239E+01-7.54052E-01 2.92595E-02 5.95056E-01-3.00446E-13 5.15040E-13
 -1      2527 2.18613E+01-7.33685E-01 1.69644E-02 4.94161E-01-1.43885E-13 6.17765E-13
 -1      2528 2.11331E+01-6.29419E+00 5.29284E-02 8.50070E+00 9.07607E-14 8.94493E-14
 -1      2529 1.68012E+01-5.86499E+00 1.09712E-01 8.49551E+00 1.62093E-13 5.34156E-14
 -1      2530 2.00274E+01-5.08186E-01 1.88767E-03 1.09442E+00 2.21993E-14 4.02360E-14
 -1      2531 5.47079E+00-1.97526E+00 1.51715E-01-2.17407E+00 2.36804E-13-2.78666E-13
 -1      2532 6.91512E+00-2.85919E+00 7.44051E-02-5.46421E+00 1.40443E-13-8.37663E-14
 -1      2533 1.97065E+01 1.43408E-01 3.27307E-03 5.92366E-02 1.37622E-13 1.40987E-13
 -1      2534 1.97849E+01 1.98219E-01 1.23810E-02 1.45482E-01 1.71173E-13 1.75289E-13
 -1      2535 1.98505E+01 1.81023E-01-3.85926E-03 6.45636E-02 1.53250E-13 4.70735E-14
 -1      2536 5.87086E+00-2.86854E+00 8.52186E-02 3.85343E+00 4.74731E-13 3.06477E-13
 -1      2537 4.86122E+00-2.38665E+00 7.15487E-02 1.14144E+00 3.78919E-13-5.10703E-14
 -1      2538 2.70475E+01-6.00775E+00-5.70263E-02 6.54659E+00 1.91569E-13-4.83585E-13
 -1      2539 2.37754E+01-6.68537E+00 6.07854E-03 7.36911E+00 2.80609E-13-1.46605E-13
 -1      2540 2.33633E+01-6.12876E+00 7.94414E-02 7.51364E+00 6.12566E-14-1.80706E-13
 -1      2541 2.05473E+01 1.95553E+00-1.38947E-02-1.90086E+00-3.30050E-13-1.47111E-13
 -1      2542 2.04134E+01 1.21719E+00-5.68525E-03-1.28631E+00-3.03380E-13-1.23138E-13
 -1      2543 2.03731E+01 1.37249E+00 3.05314E-03-1.22862E+00-2.75483E-13-1.82338E-13
 -1      2544 2.02875E+01 2.36640E+00-7.48679E-03-1.82647E+00-3.07396E-13-2.40551E-13
 -1      2545 9.32054E+00-3.84738E+00 1.44299E-01-7.25546E+00-1.22097E-13-2.56573E-13
 -1      2546 1.28914E+01-4.59816E+00 1.79619E-02-9.00023E+00 2.34812E-14-2.53575E-13
 -1      2547 1.03532E+01-1.68389E+00 1.46640E-01-6.30937E+00 4.27436E-14-1.19016E-13
 -1      2548 1.95179E+01 3.58521E+00-1.00989E-02-2.45207E-01 3.16295E-14-4.62215E-13
 -1      2549 1.95339E+01 3.56452E+00-9.68392E-03-4.25878E-01-1.00119E-14-4.62391E-13
 -1      2550 1.97102E+01 3.16405E+00-6.12251E-04-4.73167E-01-2.29314E-14-4.22484E-13
 -1      2551 1.96759E+01 3.22389E+00-9.24448E-04-1.51968E-01 3.67284E-14-4.38612E-13
 -1      2552 3.51652E+01 7.35540E+00-8.31922E-02 2.21714E+00 2.75002E-13-6.38378E-16
 -1      2553 3.46514E+01 7.60452E+00-1.54923E-01 1.34437E+00 3.52607E-13-9.76233E-14
 -1      2554 3.17421E+01 6.47887E+00-4.99106E-02 3.02433E+00 9.68670E-14 1.33379E-13
 -1      2555 3.56587E+01 3.22565E+00-1.15852E-01 1.99389E-01 6.05904E-14-3.96516E-13
 -1      2556 3.45304E+01 7.28864E-01 1.37948E-03 7.35337E-01-2.11914E-14-3.09530E-13
 -1      2557 3.48434E+01 6.85924E+00-1.78119E-01 3.24436E-01 2.90268E-13-2.43389E-13
 -1      2558 3.50984E+01 5.53003E+00-9.07440E-02-1.54923E-01 1.90070E-13-3.60295E-13
 -1      2559 3.29410E+01-1.18601E+00-5.94336E-02 2.02239E+00-1.04500E-14 1.26843E-13
 -1      2560 3.38456E+01 1.22788E+00-1.92492E-01 3.05703E+00-1.01641E-13 2.03615E-13
 -1      2561 2.88615E+01-5.25724E+00-6.10466E-02-1.46675E+00 1.55154E-13 1.30784E-13
 -1      2562 3.14907E+01-3.63941E+00-1.28897E-01 9.19804E-03 8.26700E-14 1.62981E-13
 -1      2563 2.28340E+01-7.18491E+00 1.86457E-02-4.33864E+00 1.14520E-13 4.01207E-14
 -1      2564 2.64225E+01-6.38761E+00-5.18304E-02-3.36694E+00 2.03809E-13 1.94067E-13
 -1      2565 2.80909E+01-6.22000E+00 3.56950E-02-1.33779E+00 1.56902E-13 2.99372E-13
 -1      2566 1.41272E+01-7.06052E+00 4.50443E-02-6.03635E+00 1.63647E-13-3.56715E-13
 -1      2567 1.82903E+01-7.22514E+00-4.21460E-02-5.98155E+00 8.58202E-14-2.01627E-13
 -1      2568 6.52271E+00-6.00406E+00 2.71093E-02-4.74610E+00 1.61288E-13-2.56184E-13
 -1      2569 9.86702E+00-6.39139E+00 4.98950E-03-6.00569E+00 1.38334E-13-3.75339E-13
 -1      2570 2.78614E+00-4.50193E+00 6.72578E-02-1.38812E+00 7.78128E-14-1.91736E-13
 -1      2571 4.20076E+00-5.12986E+00 5.28361E-02-3.43070E+00 1.19238E-13-3.35010E-13
 -1      2572 3.47785E+00-3.91517E+00 1.08733E-01 3.09485E+00 7.44266E-14 1.91680E-13
 -1      2573 2.74099E+00-4.00024E+00 1.19388E-01 8.19907E-01 2.68119E-14 1.38944E-13
 -1      2574 8.17000E+00-5.49092E+00 3.92121E-02 6.74129E+00 1.04361E-13-3.87357E-13
 -1      2575 5.36966E+00-4.85775E+00 8.14040E-02 5.16889E+00-3.09197E-14-1.22125E-15
 -1      2576 1.56692E+01-6.30012E+00-2.64563E-02 7.62319E+00 2.24487E-13-2.32925E-13
 -1      2577 1.16590E+01-6.15576E+00 5.85287E-02 7.20395E+00 1.91680E-13-5.60940E-13
 -1      2578 2.42368E+01-5.86968E+00-4.00807E-02 5.75249E+00-5.25135E-14 2.14634E-13
 -1      2579 2.05088E+01-6.46093E+00 5.97824E-02 6.50563E+00 1.53266E-13 1.13284E-13
 -1      2580 2.99832E+01-3.38665E+00-1.23687E-01 2.62559E+00-3.94407E-14-2.62235E-13
 -1      2581 2.71627E+01-4.82194E+00-2.19298E-02 3.91963E+00-1.39305E-13 3.28348E-14
 -1      2582 3.32784E+01 1.37405E+00-1.80587E-01-9.25799E-01 2.69784E-14-1.11522E-13
 -1      2583 3.16811E+01-1.09209E+00-6.68103E-02 2.91955E-01 2.82378E-14-2.25486E-13
 -1      2584 3.40742E+01 6.27790E+00-2.06660E-01-1.92457E+00-8.30447E-14-2.31870E-13
 -1      2585 3.36575E+01 4.40122E+00-1.35048E-01-1.80631E+00-1.09357E-14-3.06644E-13
 -1      2586 3.42603E+01 8.44814E+00-1.61800E-01-9.65302E-01 1.43718E-13-2.33043E-14
 -1      2587 3.37475E+01 7.93622E+00-1.92327E-01-1.51569E+00-8.04912E-14-1.18849E-13
 -1      2588 3.54104E+01 7.24787E+00-1.01803E-01-1.86714E-01 3.35565E-13 1.77219E-13
 -1      2589 3.52317E+01 8.23960E+00-1.79865E-01-3.71982E-01 3.15470E-13 1.67935E-13
 -1      2590 3.40864E+01 2.61236E+00-5.69054E-02-8.01987E-01 4.11199E-13 1.81632E-13
 -1      2591 3.53707E+01 5.06456E+00-1.28520E-01-3.71453E-01 2.87187E-13 1.67089E-13
 -1      2592 3.10154E+01-2.84209E+00-4.50027E-02-3.77963E+00 1.44107E-13-5.16254E-15
 -1      2593 3.28140E+01-9.21224E-01-1.63701E-01-2.38167E+00 4.03434E-13 1.78579E-13
 -1      2594 2.56610E+01-5.52286E+00-6.82704E-03-7.01567E+00-3.20299E-14-3.08642E-14
 -1      2595 2.91976E+01-4.21895E+00-3.47368E-02-5.81659E+00 6.79179E-14 3.71925E-14
 -1      2596 3.01563E+01-3.87402E+00 1.03356E-01-3.89094E+00 6.31578E-14 9.21208E-14
 -1      2597 1.78113E+01-5.88989E+00 6.96633E-02-9.03151E+00 1.11022E-14 1.21535E-13
 -1      2598 2.18626E+01-5.91349E+00-5.64957E-03-8.89328E+00 8.21565E-15 9.00668E-15
 -1      2599 1.19958E+01-4.81248E+00 2.21847E-02 8.22073E+00 2.84994E-13 2.60708E-13
 -1      2600 8.39052E+00-3.83663E+00 7.46409E-02 6.00851E+00 3.41144E-13 3.39839E-13
 -1      2601 2.04918E+01 8.74970E-01-7.30988E-03 1.22617E+00 3.39709E-13 3.00534E-13
 -1      2602 2.08422E+01 1.25694E+00-6.05123E-03 1.72689E+00 3.72719E-13 3.57603E-13
 -1      2603 2.06480E+01 1.71564E+00-1.57935E-02 1.92099E+00 4.06683E-13 2.38223E-13
 -1      2604 2.04502E+01 1.05809E+00-9.39839E-03 1.24083E+00 3.46741E-13 1.57181E-13
 -1      2605 3.30740E+01-2.47295E+00-1.35439E-01 2.67850E+00-7.06796E-14-3.82472E-13
 -1      2606 3.04897E+01-4.46038E+00 2.76148E-02 4.15208E+00 2.61735E-14-3.78531E-13
 -1      2607 3.19941E+01 6.54137E+00-6.70495E-02 4.54439E-01 2.64400E-13-6.09929E-14
 -1      2608 1.99113E+01 2.81445E+00 1.47260E-03-1.09917E+00-1.69579E-13-3.97230E-13
 -1      2609 1.97812E+01 3.16219E+00-1.46292E-02-1.28587E+00-1.88317E-13-4.26396E-13
 -1      2610 1.98778E+01 3.02527E+00-1.73748E-02-1.47519E+00-2.32896E-13-4.07598E-13
 -1      2611 1.99961E+01 3.40340E-01-3.53042E-03 3.03801E-01 2.03068E-13 8.66260E-14
 -1      2612 2.04234E+01 2.11582E+00-1.27793E-02 1.87396E+00 3.93760E-13 7.69818E-14
 -1      2613 3.28867E+01-1.46632E+00-5.88467E-03 6.78673E-01-3.72202E-14-3.51608E-13
 -1      2614 1.61658E+01-4.36587E+00 5.54671E-02 8.29825E+00 1.40110E-13 8.60423E-15
 -1      2615 2.54013E+01-5.55564E+00 1.31115E-01-7.40883E+00-1.31839E-14 9.02056E-16
 -1      2616 2.71301E+01 2.49635E+00-1.30513E-01 4.10449E+00-1.15963E-13 2.79738E-13
 -1      2617 2.91411E+01 2.03304E+00-1.78531E-01 4.59324E+00-2.24654E-13 1.79176E-13
 -1      2618 2.65812E+01 3.69968E+00-1.17603E-01 3.13981E+00-6.23945E-14 3.17871E-13
 -1      2619 2.24508E+01-8.64601E-01-1.84281E-02 1.61036E+00 3.99767E-13-2.50304E-13
 -1      2620 1.79918E+01-8.05119E-01 5.15577E-02 6.81010E+00-1.55917E-13-3.62294E-13
 -1      2621 2.28275E+01-8.83596E-01 1.25627E-02 2.31240E+00 4.49737E-13-2.15883E-13
 -1      2622 3.24263E+01 3.19096E-01-3.13407E-02-6.08352E-01 3.53190E-13 9.07885E-14
 -1      2623 1.99693E+01-2.82671E-01-6.51100E-03 1.22878E+00-1.02852E-13 1.26529E-14
 -1      2624 2.04614E+01-4.93064E-01 1.34589E-02 1.14020E+00-2.04479E-13 2.99291E-13
 -1      2625 2.07909E+01-3.90591E-01-3.30014E-03 1.13278E+00-2.58633E-13 4.18215E-13
 -1      2626 1.98981E+01-1.49079E-01-4.54344E-03 1.30729E+00-1.67906E-13 1.96422E-13
 -1      2627 3.30668E+01 5.70258E+00-5.59508E-02 5.13291E-01 2.92544E-13 7.36078E-14
 -1      2628 7.41992E+00-6.14380E-01 1.59609E-01-7.94457E-01 2.99864E-13-8.62088E-14
 -1      2629 2.04372E+01 1.80812E+00 1.25370E-02 1.56167E+00 3.61725E-13 3.56989E-14
 -1      2630 9.59784E+00-1.83769E+00 1.65531E-01 5.10794E+00 2.39087E-13 2.66231E-13
 -1      2631 3.18851E+01 8.00735E+00-8.96532E-02-5.91458E-01 1.68199E-13-1.54246E-13
 -1      2632 1.99862E+01 2.83974E+00-1.49724E-02-1.58582E+00-2.55423E-13-3.76036E-13
 -1      2633 2.01320E+01 2.61213E+00-2.25340E-02-1.75187E+00-2.92587E-13-3.18688E-13
 -1      2634 2.02858E+01 2.05235E+00 4.18528E-03-1.48622E+00-2.89292E-13-2.71293E-13
 -1      2635 2.00853E+01 2.49454E+00 4.09943E-03-1.34238E+00-2.35898E-13-3.66149E-13
 -1      2636 3.13596E+01-3.00165E+00-3.06270E-02 2.00393E+00 2.31638E-14 3.35953E-13
 -1      2637 3.13654E+01 6.65445E+00-9.79869E-02-2.19402E+00-4.35485E-14-4.61436E-14
 -1      2638 3.16567E+01 2.20156E+00-6.90685E-02-2.32692E+00 1.57180E-13 8.12683E-14
 -1      2639 3.04717E+01-2.65021E+00 1.33194E-02 3.89656E-01 5.92616E-14-6.02574E-14
 -1      2640 2.63433E+01-5.71201E+00 5.39924E-02 4.04977E+00 1.48215E-14-3.35842E-14
 -1      2641 1.92752E+01-6.30889E+00 9.87665E-02 6.78460E+00 1.23568E-13-3.27793E-14
 -1      2642 1.15475E+01-5.02571E+00 1.41128E-01 7.02388E+00 2.14828E-14-4.59105E-13
 -1      2643 6.13271E+00-3.32144E+00 1.48639E-01 4.19129E+00-8.39745E-14-3.36120E-14
 -1      2644 4.56911E+00-2.84171E+00 1.60937E-01-3.78929E-01-2.61111E-14-8.36553E-14
 -1      2645 7.18268E+00-4.27879E+00 1.35871E-01-4.23137E+00 7.81597E-14-2.89935E-13
 -1      2646 2.18294E+01-7.08170E+00 9.49514E-02-4.69547E+00 4.59632E-14 1.06477E-13
 -1      2647 2.89168E+01-5.67633E+00 3.00591E-02 4.62934E+00 1.09052E-13-4.64739E-13
 -1      2648 2.38012E+01-2.08252E+00-2.89390E-03 2.83939E+00 3.60657E-13-2.33833E-13
 -1      2649 3.23176E+01 2.25552E+00-5.49619E-02 3.96860E+00-2.14800E-13 1.09551E-13
 -1      2650 1.68731E+01-4.52697E+00 9.77890E-02-8.94033E+00-1.75082E-13 2.14828E-14
 -1      2651 3.30118E+01 3.64296E+00-6.47981E-02-8.16514E-01 2.75058E-14-3.39090E-13
 -1      2652 1.35394E+01-5.99221E+00 1.20243E-01-6.01865E+00 6.52811E-14-3.63903E-13
 -1      2653 2.04605E+01-8.33579E-02 1.10104E-02 1.35568E+00-2.68326E-13 2.58788E-13
 -1      2654 1.98439E+01 2.76536E+00-6.29883E-03 5.15963E-01 1.62799E-13-3.51290E-13
 -1      2655 1.98190E+01 2.81513E+00-5.70112E-03 3.65158E-01 1.32401E-13-3.71124E-13
 -1      2656 1.98020E+01 2.85267E+00-5.61417E-03 2.29728E-01 1.12000E-13-3.89955E-13
 -1      2657 1.97934E+01 2.86957E+00-5.43236E-03 7.51766E-02 8.73415E-14-3.95347E-13
 -1      2658 1.99484E+01 2.50138E+00 3.64644E-03 2.65045E-01 1.13552E-13-3.63268E-13
 -1      2659 2.00432E+01 2.32424E+00-1.07241E-02 1.04542E+00 2.87161E-13-2.25704E-13
 -1      2660 1.99788E+01 2.47321E+00-6.31045E-03 9.09897E-01 2.57598E-13-2.61068E-13
 -1      2661 2.02171E+01 1.90833E+00-1.20213E-02 1.22664E+00 3.28263E-13-1.27995E-13
 -1      2662 2.01243E+01 2.14648E+00-4.80262E-03 1.13322E+00 3.04816E-13-1.74578E-13
 -1      2663 2.01891E+01 1.88678E+00 6.43375E-03 9.25866E-01 2.70177E-13-1.74141E-13
 -1      2664 2.02135E+01 7.27033E-01-3.49193E-03 6.42005E-01 2.52235E-13 1.80158E-14
 -1      2665 2.03554E+01 9.51910E-01 9.14689E-03 9.05862E-01 2.84888E-13 3.23061E-14
 -1      2666 2.03387E+01 1.50038E+00-1.89867E-03 1.26640E+00 3.30716E-13 9.99114E-15
 -1      2667 3.03427E+01-1.05126E+00-4.57496E-02-5.82993E-01 4.23557E-13 4.31599E-15
 -1      2668 3.08653E+01 1.47540E+00-2.13875E-01 5.88100E-01 4.93577E-13 5.42760E-14
 -1      2669 2.02139E+01 6.27790E-01 7.03158E-03-4.36777E-01-1.90958E-13-1.91195E-13
 -1      2670 2.01331E+01 4.77002E-01-2.94322E-03-2.77324E-01-1.72619E-13-1.78213E-13
 -1      2671 2.01067E+01 3.62447E-01 6.48020E-03-1.57930E-01-1.58588E-13-1.49456E-13
 -1      2672 2.00477E+01 2.67910E-01-1.77083E-03-6.01543E-02-1.37759E-13-1.70954E-13
 -1      2673 2.01957E+01 5.28124E-01-1.87300E-03-2.60907E-01-1.63570E-13-1.93869E-13
 -1      2674 2.00215E+01 1.97607E-01 4.51927E-03 1.51823E-02-1.17303E-13-1.64611E-13
 -1      2675 1.99857E+01 1.38032E-01-8.39315E-04 7.17507E-02-8.57214E-14-1.68455E-13
 -1      2676 2.01265E+01 2.98758E-01-2.09954E-03-5.47134E-02-1.30394E-13-1.71335E-13
 -1      2677 1.99647E+01 9.38633E-02 2.89685E-03 1.15106E-01-8.86468E-14-1.58772E-13
 -1      2678 1.99465E+01 5.65546E-02-2.99289E-04 1.44522E-01-7.36928E-14-1.90800E-13
 -1      2679 2.00699E+01 1.52516E-01-1.89585E-03 7.25689E-02-9.09562E-14-1.93849E-13
 -1      2680 1.99315E+01 2.90669E-02 1.73465E-03 1.65965E-01-8.11372E-14-1.94457E-13
 -1      2681 1.99255E+01 6.27192E-03-1.47019E-06 1.77819E-01-7.96042E-14-2.03850E-13
 -1      2682 2.00287E+01 6.00832E-02-1.51826E-03 1.43522E-01-9.80278E-14-1.75731E-13
 -1      2683 1.99156E+01-1.02442E-02 9.30853E-04 1.84842E-01-5.85537E-14-2.17242E-13
 -1      2684 1.99174E+01-2.34012E-02 1.54477E-04 1.85702E-01-6.83976E-14-2.19074E-13
 -1      2685 2.00012E+01 2.99444E-03-1.13609E-03 1.76183E-01-6.63844E-14-2.13661E-13
 -1      2686 1.99115E+01-3.25892E-02 3.92600E-04 1.83705E-01-9.59006E-14-2.12057E-13
 -1      2687 1.99178E+01-3.93101E-02 2.30289E-04 1.78073E-01-9.94098E-14-2.11926E-13
 -1      2688 1.99844E+01-3.05088E-02-8.14591E-04 1.83936E-01-8.41681E-14-1.78840E-13
 -1      2689 1.99148E+01-4.35983E-02 4.66769E-05 1.70871E-01-7.69374E-14-1.92915E-13
 -1      2690 1.99234E+01-4.60487E-02 2.61988E-04 1.61817E-01-5.54961E-14-1.63418E-13
 -1      2691 1.99754E+01-4.81854E-02-5.65108E-04 1.76415E-01-6.83349E-14-1.30263E-13
 -1      2692 1.99223E+01-4.70930E-02-1.63375E-04 1.52055E-01-1.63833E-14-1.35290E-13
 -1      2693 1.99318E+01-4.67534E-02 2.70874E-04 1.41653E-01-3.89262E-15-1.42588E-13
 -1      2694 1.99718E+01-5.52988E-02-3.80941E-04 1.60407E-01-3.08046E-14-1.60967E-13
 -1      2695 1.99320E+01-4.56854E-02-2.80176E-04 1.31131E-01-3.06452E-14-1.33292E-13
 -1      2696 1.99415E+01-4.35571E-02 2.70408E-04 1.20764E-01-6.19024E-14-1.49212E-13
 -1      2697 1.99717E+01-5.54558E-02-2.50424E-04 1.40603E-01-2.03076E-14-1.75823E-13
 -1      2698 1.99425E+01-4.11339E-02-3.35418E-04 1.10687E-01-5.40327E-14-1.12139E-13
 -1      2699 1.99516E+01-3.78706E-02 2.69654E-04 1.01268E-01-5.24337E-14-9.54054E-14
 -1      2700 1.99739E+01-5.11055E-02-1.62218E-04 1.20191E-01-3.83591E-14-7.59220E-14
 -1      2701 1.99531E+01-3.45744E-02-3.52305E-04 9.24394E-02-9.36743E-14-3.13375E-14
 -1      2702 1.99616E+01-3.05722E-02 2.75140E-04 8.45756E-02-1.26177E-13 3.21941E-14
 -1      2703 1.99775E+01-4.38563E-02-1.06656E-04 1.01314E-01-4.78330E-14-3.26030E-14
 -1      2704 1.99635E+01-2.66801E-02-3.47640E-04 7.75418E-02-2.12533E-13 3.10228E-14
 -1      2705 1.99714E+01-2.21437E-02 2.91845E-04 7.16556E-02-1.87954E-13-1.77391E-15
 -1      2706 1.99820E+01-3.46955E-02-7.60081E-05 8.54202E-02-1.79127E-13 6.33685E-14
 -1      2707 1.99736E+01-1.77798E-02-3.33499E-04 6.68158E-02-1.39933E-13-7.70767E-14
 -1      2708 1.99812E+01-1.27708E-02 3.23882E-04 6.32359E-02-9.67485E-14-8.51026E-14
 -1      2709 1.99871E+01-2.41471E-02-6.41604E-05 7.35268E-02-1.97785E-13 4.26276E-14
 -1      2710 1.99836E+01-7.94576E-03-3.18467E-04 6.09249E-02-5.36249E-14-1.07389E-13
 -1      2711 1.99913E+01-2.42160E-03 3.74680E-04 5.99529E-02-8.14602E-14-1.72015E-13
 -1      2712 1.99927E+01-1.23907E-02-6.64434E-05 6.64230E-02-9.94902E-14-8.96890E-15
 -1      2713 1.99940E+01 2.93332E-03-3.08436E-04 6.05016E-02-7.81807E-14-1.42531E-13
 -1      2714 2.00022E+01 9.08350E-03 4.46900E-04 6.24586E-02-6.98657E-14-8.45895E-14
 -1      2715 1.99989E+01 6.43488E-04-7.94416E-05 6.48167E-02-5.00485E-14-8.58012E-14
 -1      2716 2.00052E+01 1.50836E-02-3.07092E-04 6.62346E-02-9.02290E-14-2.73175E-14
 -1      2717 2.00145E+01 2.20031E-02 5.42178E-04 7.14883E-02-2.08981E-14-3.86749E-14
 -1      2718 2.00058E+01 1.51886E-02-1.00655E-04 6.94410E-02-5.40495E-14-4.93421E-14
 -1      2719 2.00181E+01 2.87742E-02-3.16121E-04 7.89167E-02 4.09191E-14-4.98258E-14
 -1      2720 2.00290E+01 3.65969E-02 6.60648E-04 8.78876E-02 8.58227E-14-2.55800E-14
 -1      2721 2.00139E+01 3.15533E-02-1.28293E-04 8.11177E-02-1.15381E-14 1.61348E-14
 -1      2722 2.00334E+01 4.42316E-02-3.35035E-04 9.94506E-02 5.51766E-14-3.18280E-14
 -1      2723 2.00467E+01 5.30281E-02 8.00132E-04 1.12595E-01 2.74798E-14-6.76990E-14
 -1      2724 2.00233E+01 5.00201E-02-1.61330E-04 1.00779E-01 7.60939E-14-4.73697E-14
 -1      2725 2.00521E+01 6.15262E-02-3.60523E-04 1.28806E-01-1.84830E-14-3.35777E-14
 -1      2726 2.00686E+01 7.12299E-02 9.54926E-04 1.46568E-01-8.45151E-14 1.40350E-14
 -1      2727 2.00347E+01 7.07164E-02-1.99777E-04 1.29444E-01 3.12603E-14-9.08273E-14
 -1      2728 2.00753E+01 8.04174E-02-3.85288E-04 1.67911E-01-1.52785E-13-2.32623E-14
 -1      2729 2.00959E+01 9.07218E-02 1.11419E-03 1.90632E-01-8.48219E-14-8.35209E-14
 -1      2730 2.00487E+01 9.34378E-02-2.45302E-04 1.68129E-01-1.22505E-13 1.31011E-13
 -1      2731 2.01044E+01 1.00137E-01-3.96238E-04 2.17461E-01-3.36840E-14-1.17477E-13
 -1      2732 2.01300E+01 1.10354E-01 1.25993E-03 2.45238E-01-2.27912E-14-1.75931E-13
 -1      2733 2.00660E+01 1.17406E-01-3.02382E-04 2.17692E-01-8.22486E-14 9.24400E-14
 -1      2734 2.01412E+01 1.19095E-01-3.71941E-04 2.77615E-01-9.55433E-15-2.44954E-13
 -1      2735 2.01727E+01 1.27969E-01 1.36458E-03 3.10080E-01-1.41435E-14-3.14936E-13
 -1      2736 2.00880E+01 1.40936E-01-3.80234E-04 2.78570E-01-2.67144E-14-2.48972E-14
 -1      2737 2.01878E+01 1.34495E-01-2.79347E-04 3.47538E-01 4.00848E-14-3.36984E-13
 -1      2738 2.02262E+01 1.39968E-01 1.38843E-03 3.83561E-01 1.82254E-16-2.80040E-13
 -1      2739 2.01164E+01 1.61007E-01-4.95676E-04 3.50386E-01 3.62677E-14-1.35518E-13
 -1      2740 2.02470E+01 1.41865E-01-7.01191E-05 4.24774E-01-1.67432E-14-3.01342E-13
 -1      2741 2.02934E+01 1.40813E-01 1.27686E-03 4.62052E-01-1.59342E-14-2.28698E-13
 -1      2742 2.01538E+01 1.72720E-01-6.76929E-04 4.31404E-01 1.50567E-14-9.06591E-14
 -1      2743 2.03226E+01 1.34554E-01 3.22420E-04 5.04395E-01-3.08545E-14-2.07036E-13
 -1      2744 2.03780E+01 1.22546E-01 9.57834E-04 5.38947E-01 1.22286E-14-1.57126E-13
 -1      2745 2.02041E+01 1.68705E-01-9.67683E-04 5.17776E-01-6.96462E-14-1.33545E-13
 -1      2746 2.04199E+01 1.03322E-01 9.83093E-04 5.77927E-01 9.77014E-14-1.05326E-13
 -1      2747 2.04853E+01 7.45412E-02 3.39654E-04 6.03517E-01 1.21783E-13 5.13202E-14
 -1      2748 2.02733E+01 1.38596E-01-1.42928E-03 6.02573E-01 9.98242E-14-1.22395E-13
 -1      2749 2.05457E+01 3.63593E-02 2.00583E-03 6.32084E-01 7.04412E-14 5.91908E-14
 -1      2750 2.06222E+01-1.60716E-02-6.90108E-04 6.39662E-01 6.15155E-14 8.67090E-14
 -1      2751 2.03704E+01 6.88783E-02-2.13591E-03 6.74577E-01 1.18223E-13 7.62375E-14
 -1      2752 2.07092E+01-7.97021E-02 3.46466E-03 6.47442E-01-3.89833E-14 1.68086E-13
 -1      2753 2.07973E+01-1.62501E-01-2.25957E-03 6.24828E-01-2.73284E-15 1.24617E-13
 -1      2754 2.05076E+01-5.62805E-02-3.15232E-03 7.16847E-01 1.08333E-13 3.83765E-14
 -1      2755 2.09204E+01-2.56717E-01 5.34781E-03 5.97440E-01-2.63168E-14 1.64485E-13
 -1      2756 2.10191E+01-3.73618E-01-4.48672E-03 5.29666E-01-1.26620E-14 8.15160E-14
 -1      2757 2.07012E+01-2.52150E-01-4.47505E-03 7.05217E-01-5.29804E-14 1.20003E-13
 -1      2758 2.11877E+01-4.98431E-01 7.42598E-03 4.48581E-01-1.95195E-14 8.10009E-14
 -1      2759 2.12926E+01-6.44839E-01-7.36774E-03 3.19681E-01-2.03988E-14 1.32202E-13
 -1      2760 2.09691E+01-5.26804E-01-5.91184E-03 6.07190E-01-7.15345E-14 8.80493E-14
 -1      2761 2.15105E+01-7.88724E-01 9.09425E-03 1.63782E-01-1.37088E-14 1.51819E-13
 -1      2762 2.16112E+01-9.43419E-01-1.04751E-02-3.86308E-02 1.36731E-13 1.09475E-13
 -1      2763 2.13258E+01-8.68666E-01-6.85853E-03 3.82594E-01 1.49787E-14 2.02617E-13
 -1      2764 2.18672E+01-1.07469E+00 9.14047E-03-2.87211E-01 6.46554E-14-3.71887E-14
 -1      2765 2.19434E+01-1.19044E+00-1.25941E-02-5.62742E-01 1.86622E-14-9.12244E-14
 -1      2766 2.17693E+01-1.22696E+00-6.03689E-03-1.05545E-02-3.40918E-14-6.12667E-14
 -1      2767 2.21986E+01-1.25051E+00 5.44182E-03-9.04134E-01 4.43799E-14-1.87504E-13
 -1      2768 2.22213E+01-1.25158E+00-1.17035E-02-1.22485E+00-1.01610E-13-2.96751E-13
 -1      2769 2.22607E+01-1.48944E+00-1.94171E-03-5.97778E-01-6.70309E-14-2.08973E-13
 -1      2770 2.24019E+01-1.16139E+00-4.00971E-03-1.61620E+00-1.62538E-13-3.78252E-13
 -1      2771 2.23432E+01-9.63598E-01-5.01552E-03-1.91140E+00-2.20337E-13-3.14441E-13
 -1      2772 2.27021E+01-1.47859E+00 5.05889E-03-1.34827E+00-9.45286E-14-2.56303E-13
 -1      2773 2.23618E+01-6.58953E-01-1.64814E-02-2.24102E+00-1.56065E-13-1.65231E-13
 -1      2774 2.22140E+01-2.28263E-01 8.64444E-03-2.39695E+00-2.55423E-14-1.08179E-13
 -1      2775 2.29417E+01-1.00473E+00 1.09813E-02-2.11579E+00-1.48416E-13-1.80518E-13
 -1      2776 2.20292E+01 2.71031E-01-2.53848E-02-2.49072E+00-1.26774E-14-7.09307E-14
 -1      2777 2.18320E+01 8.32076E-01 2.10621E-02-2.38754E+00-4.53867E-14 2.65508E-14
 -1      2778 2.28452E+01 1.46806E-02 1.48972E-02-2.60605E+00-4.45647E-14-1.55766E-13
 -1      2779 2.15329E+01 1.35544E+00-2.49307E-02-2.11783E+00-8.95299E-14 3.54337E-14
 -1      2780 2.13523E+01 1.80845E+00 1.64465E-02-1.72522E+00-2.45047E-14-9.41490E-14
 -1      2781 2.24453E+01 1.32855E+00 6.66517E-03-2.47892E+00-4.57382E-14-3.41350E-15
 -1      2782 2.11470E+01 2.09201E+00-9.22743E-03-1.13446E+00 5.45961E-14-2.82134E-14
 -1      2783 2.10464E+01 2.19234E+00-2.53128E-03-5.85617E-01 1.98869E-13 3.93566E-14
 -1      2784 2.19920E+01 2.36154E+00-1.32506E-02-1.58633E+00 2.56210E-14 1.49160E-14
 -1      2785 2.10505E+01 2.09257E+00 9.53574E-03 6.27251E-02 3.44690E-13 1.32449E-13
 -1      2786 2.10378E+01 1.81209E+00-2.12336E-02 5.46715E-01 3.32677E-13 3.22849E-13
 -1      2787 2.18017E+01 2.58671E+00-1.81647E-02-2.80523E-01 3.72231E-13 9.19618E-14
 -1      2788 2.11618E+01 1.42720E+00 1.65917E-02 9.62932E-01 2.08276E-13 4.08241E-13
 -1      2789 2.11823E+01 9.75540E-01-2.37476E-02 1.22267E+00 2.08865E-13 3.57149E-13
 -1      2790 2.19103E+01 1.95603E+00 6.19025E-04 8.21718E-01 3.03248E-13 1.04893E-13
 -1      2791 2.12155E+01 5.48118E-01 9.60864E-03 1.32178E+00 7.78593E-15 2.54385E-13
 -1      2792 2.11914E+01 1.56897E-01-1.49857E-02 1.35065E+00-9.82335E-14 8.08441E-14
 -1      2793 2.20085E+01 9.07163E-01 1.49492E-02 1.29424E+00 8.13347E-14 3.86925E-13
 -1      2794 1.98558E+01 4.92193E-02 4.27877E-05-1.44580E-01 5.18432E-14-2.79342E-14
 -1      2795 1.98697E+01 8.11433E-02 3.16128E-03-1.16299E-01 4.86552E-14-2.17742E-14
 -1      2796 3.07469E+01 4.20772E+00-1.15489E-01 1.06851E+00 3.38618E-13-1.00420E-13
 -1      2797 3.04355E+01 5.95130E+00-2.27925E-01 7.36340E-01 2.60986E-13-1.75165E-13
 -1      2798 2.95858E+01-6.11001E-01-1.20348E-01 4.50529E+00-2.04642E-13 1.01114E-13
 -1      2799 1.98927E+01 1.18767E-01-2.60273E-04-7.18201E-02 6.14722E-14-2.52801E-14
 -1      2800 1.99284E+01 1.70419E-01 5.20109E-03-1.63234E-02 1.03550E-13 1.16997E-14
 -1      2801 1.99920E+01 1.35414E-01-2.33509E-03-7.34119E-02 7.41006E-14-4.82108E-14
 -1      2802 1.98439E+01-1.84758E-02 2.35154E-04-1.84872E-01 1.01285E-13 3.23899E-14
 -1      2803 1.98355E+01-7.32818E-03 8.80236E-04-1.84494E-01 1.20198E-13 2.65582E-14
 -1      2804 1.98549E+01-3.20062E-02 2.41925E-04-1.76971E-01 1.10261E-13-3.96175E-15
 -1      2805 1.98421E+01-2.62841E-02 2.96622E-04-1.82830E-01 1.16450E-13 1.17805E-14
 -1      2806 1.99204E+01-2.51936E-02-8.45936E-04-1.87729E-01 1.15497E-13 1.13370E-14
 -1      2807 1.98707E+01-3.78800E-02 2.30743E-04-1.60554E-01 1.02207E-13-4.61751E-14
 -1      2808 1.98562E+01-3.57343E-02-6.55025E-05-1.69677E-01 9.84798E-14-2.06490E-14
 -1      2809 1.99202E+01-4.07013E-02-5.44694E-04-1.79847E-01 1.13809E-13 1.79028E-14
 -1      2810 1.98885E+01-3.87369E-02 2.15183E-04-1.40266E-01 9.24437E-14-3.98125E-14
 -1      2811 1.98738E+01-3.89146E-02-2.75363E-04-1.50666E-01 1.21375E-13 6.86993E-15
 -1      2812 1.99253E+01-4.71150E-02-3.32339E-04-1.63306E-01 1.00568E-13-2.16278E-14
 -1      2813 1.99064E+01-3.63689E-02 2.02863E-04-1.19216E-01 5.23247E-14-1.38996E-14
 -1      2814 1.98925E+01-3.80240E-02-3.82323E-04-1.29579E-01 6.54633E-14-1.95675E-14
 -1      2815 1.99333E+01-4.75717E-02-1.89564E-04-1.42867E-01 7.98840E-14 5.59065E-15
 -1      2816 1.99235E+01-3.19619E-02 1.98693E-04-9.94512E-02 2.90220E-14 4.73682E-14
 -1      2817 1.99108E+01-3.45419E-02-4.22126E-04-1.08920E-01 5.35011E-14 8.60990E-15
 -1      2818 1.99427E+01-4.41947E-02-9.96752E-05-1.21734E-01 2.93273E-14 9.57153E-14
 -1      2819 1.99394E+01-2.62570E-02 2.06580E-04-8.23199E-02 8.10911E-14 6.66645E-14
 -1      2820 1.99280E+01-2.94262E-02-4.20170E-04-9.03337E-02 5.06602E-14 7.48770E-14
 -1      2821 1.99526E+01-3.83796E-02-4.96976E-05-1.02042E-01 3.66017E-14 1.20817E-13
 -1      2822 1.99541E+01-1.96583E-02 2.30138E-04-6.87350E-02 1.56185E-13 3.49178E-14
 -1      2823 1.99438E+01-2.32459E-02-3.94575E-04-7.49079E-02 1.13938E-13 9.55294E-14
 -1      2824 1.99624E+01-3.09826E-02-2.94372E-05-8.52194E-02 1.11533E-13 1.32072E-13
 -1      2825 1.99680E+01-1.23087E-02 2.73159E-04-5.93816E-02 5.57540E-14 9.92179E-14
 -1      2826 1.99585E+01-1.62726E-02-3.58193E-04-6.34118E-02 1.26027E-13 3.27033E-14
 -1      2827 1.99722E+01-2.24523E-02-3.17835E-05-7.22588E-02 1.25711E-13 1.02548E-13
 -1      2828 1.99818E+01-4.14372E-03 3.39940E-04-5.48757E-02 1.30032E-14 2.23281E-13
 -1      2829 1.99725E+01-8.54461E-03-3.20106E-04-5.64733E-02 3.29393E-14 1.64783E-13
 -1      2830 1.99819E+01-1.29185E-02-5.14859E-05-6.39338E-02 1.61374E-14 1.24970E-13
 -1      2831 1.99963E+01 5.07420E-03 4.35533E-04-5.58909E-02-2.73305E-14 1.31927E-13
 -1      2832 1.99866E+01 8.84669E-05-2.86998E-04-5.47205E-02 2.07145E-14 1.73118E-13
 -1      2833 1.99921E+01-2.25690E-03-8.46059E-05-6.09607E-02 7.80022E-15 1.37266E-13
 -1      2834 2.00125E+01 1.57343E-02 5.65796E-04-6.32636E-02 5.25424E-14-4.64272E-14
 -1      2835 2.00016E+01 9.93844E-03-2.64129E-04-5.88951E-02 3.17451E-15 4.46196E-14
 -1      2836 2.00030E+01 9.87050E-03-1.28162E-04-6.41301E-02 7.12246E-14 1.22681E-13
 -1      2837 2.00317E+01 2.83660E-02 7.37470E-04-7.80824E-02 8.89399E-14-3.20767E-14
 -1      2838 2.00186E+01 2.14619E-02-2.56151E-04-6.99486E-02 1.00208E-13-9.01038E-16
 -1      2839 2.00154E+01 2.39898E-02-1.79373E-04-7.44138E-02 5.71067E-14 6.55308E-14
 -1      2840 2.00552E+01 4.36370E-02 9.58165E-04-1.01765E-01 9.89850E-14-6.94819E-14
 -1      2841 2.00389E+01 3.52535E-02-2.67910E-04-8.91239E-02 1.30082E-13-5.78751E-14
 -1      2842 2.00300E+01 4.08020E-02-2.34802E-04-9.30525E-02 1.10959E-13 8.63659E-14
 -1      2843 2.00846E+01 6.23551E-02 1.23610E-03-1.36129E-01 3.98242E-14-1.07108E-13
 -1      2844 2.00638E+01 5.20464E-02-3.05226E-04-1.18028E-01 6.61180E-14-1.41946E-13
 -1      2845 2.00474E+01 6.11798E-02-2.89503E-04-1.21629E-01 1.13388E-13-2.82933E-14
 -1      2846 2.01216E+01 8.54695E-02 1.57955E-03-1.83450E-01-1.99945E-14-2.59096E-13
 -1      2847 2.00949E+01 7.27150E-02-3.75589E-04-1.58694E-01-6.01185E-15-1.13417E-13
 -1      2848 2.00686E+01 8.61671E-02-3.35892E-04-1.62128E-01 4.02661E-14-9.16955E-14
 -1      2849 2.01680E+01 1.14055E-01 1.99563E-03-2.46505E-01-5.42527E-14-2.76800E-13
 -1      2850 2.01339E+01 9.82706E-02-4.88715E-04-2.13638E-01-2.48052E-14-2.20955E-13
 -1      2851 2.00940E+01 1.16973E-01-3.62391E-04-2.16979E-01 7.99680E-15-1.84566E-13
 -1      2852 2.02254E+01 1.49253E-01 2.48824E-03-3.28579E-01 5.73757E-15-2.68845E-13
 -1      2853 2.01822E+01 1.29829E-01-6.56680E-04-2.85879E-01-5.87470E-15-2.43606E-13
 -1      2854 2.01241E+01 1.54934E-01-3.52068E-04-2.89069E-01-5.47123E-14-9.91289E-14
 -1      2855 2.02956E+01 1.92105E-01 3.05446E-03-4.33396E-01 6.53162E-14-2.00135E-13
 -1      2856 2.02414E+01 1.68510E-01-8.92966E-04-3.78929E-01 6.66878E-14-1.77903E-13
 -1      2857 2.01590E+01 2.01408E-01-2.81824E-04-3.81717E-01-5.35639E-15-3.27302E-14
 -1      2858 2.03794E+01 2.43182E-01 3.67900E-03-5.64916E-01-7.03616E-14-6.51823E-14
 -1      2859 2.03126E+01 2.15191E-01-1.20910E-03-4.96666E-01-3.06064E-14-1.62631E-13
 -1      2860 2.01980E+01 2.57509E-01-1.23585E-04-4.98554E-01-2.59986E-14 7.38746E-15
 -1      2861 2.04775E+01 3.01784E-01 4.32630E-03-7.26852E-01-3.99887E-14 4.22796E-14
 -1      2862 2.03964E+01 2.69956E-01-1.60641E-03-6.43048E-01-5.79053E-14 1.79028E-14
 -1      2863 2.02395E+01 3.23528E-01 1.49385E-04-6.43280E-01-9.38790E-14 1.62534E-13
 -1      2864 2.05896E+01 3.64377E-01 4.93130E-03-9.21730E-01 4.13668E-14 7.34881E-14
 -1      2865 2.04928E+01 3.30987E-01-2.05849E-03-8.21482E-01 8.59989E-15-3.33129E-14
 -1      2866 2.02808E+01 3.97761E-01 5.44724E-04-8.19184E-01 1.12787E-14 9.57151E-14
 -1      2867 2.07157E+01 4.21704E-01 5.39150E-03-1.14917E+00 5.67894E-14 5.98366E-14
 -1      2868 2.06019E+01 3.92427E-01-2.47679E-03-1.03365E+00 1.03515E-13 1.79206E-13
 -1      2869 2.03188E+01 4.74288E-01 1.01034E-03-1.02833E+00 2.45433E-14 1.79346E-13
 -1      2870 2.08582E+01 4.53802E-01 5.56632E-03-1.40293E+00-1.22169E-13 1.53552E-13
 -1      2871 2.07253E+01 4.40578E-01-2.64688E-03-1.27741E+00 1.85756E-14 1.23029E-13
 -1      2872 2.03509E+01 5.39001E-01 1.35247E-03-1.27029E+00-1.62231E-14 2.72633E-13
 -1      2873 2.10278E+01 4.22281E-01 5.28784E-03-1.66613E+00-1.02087E-13 1.32482E-13
 -1      2874 2.08704E+01 4.47631E-01-2.11144E-03-1.54327E+00-1.08635E-13 1.31700E-13
 -1      2875 2.03798E+01 5.63016E-01 1.09128E-03-1.54014E+00-8.38757E-14 1.05054E-13
 -1      2876 2.12543E+01 2.60406E-01 4.35784E-03-1.90376E+00-1.15662E-14 9.06607E-14
 -1      2877 2.10598E+01 3.62672E-01 3.56241E-05-1.80855E+00-6.86455E-14 8.39089E-14
 -1      2878 2.04215E+01 4.92911E-01-7.39253E-04-1.82550E+00-5.25296E-14-9.06249E-14
 -1      2879 2.16049E+01-1.33324E-01 2.45578E-03-2.05078E+00-4.11312E-14 1.50437E-13
 -1      2880 2.13472E+01 1.02287E-01 5.49384E-03-2.02721E+00-3.69605E-14 1.96203E-13
 -1      2881 2.05226E+01 2.38964E-01-5.70102E-03-2.10115E+00-1.12777E-13 7.30296E-14
 -1      2882 2.22023E+01-8.79444E-01-1.63231E-03-1.99466E+00 3.57015E-14 3.08249E-13
 -1      2883 2.18393E+01-4.47975E-01 1.66182E-02-2.11235E+00 3.88902E-14 2.98866E-13
 -1      2884 2.07877E+01-3.27996E-01-1.52498E-02-2.31578E+00-1.18801E-13 1.56363E-13
 -1      2885 2.32170E+01-2.03830E+00-1.14741E-02-1.55295E+00 6.09989E-14 4.40595E-13
 -1      2886 2.27095E+01-1.39403E+00 3.50345E-02-1.90886E+00 1.15943E-13 4.99039E-13
 -1      2887 2.14082E+01-1.35059E+00-3.13638E-02-2.36346E+00-2.85761E-14 4.79024E-13
 -1      2888 2.48079E+01-3.35538E+00-1.95593E-02-4.52762E-01-1.12570E-13 5.92550E-13
 -1      2889 2.41703E+01-2.69474E+00 6.00841E-02-1.15029E+00-8.21778E-14 5.54496E-13
 -1      2890 2.26745E+01-2.88911E+00-5.90623E-02-2.03151E+00-6.21838E-14 7.10113E-13
 -1      2891 2.68895E+01-3.86694E+00-2.84187E-02 1.49091E+00-6.62456E-14 4.44207E-13
 -1      2892 2.62196E+01-3.81686E+00 5.26456E-02 4.61222E-01-6.27623E-15 5.42750E-13
 -1      2893 2.48797E+01-4.41492E+00-6.98146E-02-8.82513E-01-4.25519E-14 5.30969E-13
 -1      2894 2.88712E+01 5.16494E+00-1.44609E-01 2.46513E+00 5.35683E-14 1.15900E-13
 -1      2895 2.88502E+01 3.66995E+00-2.16913E-01-1.24364E+00 1.19765E-13 3.53051E-14
 -1      2896 2.88289E+01 5.30174E+00-1.54110E-01-1.52261E-02 1.70725E-13 7.78128E-14
 -1      2897 1.74435E+01-2.67146E+00 7.19101E-02 7.49625E+00-7.60086E-14-2.54463E-13
 -1      2898 2.08974E+01-3.58689E+00 1.64195E-01 7.68863E+00-1.35364E-13-3.04853E-13
 -1      2899 1.08436E+01 7.61826E-01 3.02108E-01-4.42853E+00 3.00850E-13 4.77118E-14
 -1      2900 9.36678E+00 9.33182E-01 9.79622E-02-1.28523E+00 3.69304E-13-3.08920E-13
 -1      2901 2.27076E+01-3.08166E+00 1.68291E-01-7.52827E+00-7.04992E-14-2.02935E-13
 -1      2902 1.96965E+01-2.54455E+00-1.22125E-02-8.12137E+00 2.53408E-14-1.50630E-13
 -1      2903 2.51341E+01-3.08920E+00-1.59050E-03-4.52365E+00-5.73465E-14-2.98544E-14
 -1      2904 2.43709E+01-3.11396E+00 1.19651E-02-5.81456E+00-3.18773E-14-3.44525E-14
 -1      2905 2.46847E+01-2.07798E+00-5.00882E-02-1.82734E+00-6.65639E-14-1.63567E-14
 -1      2906 2.51430E+01-2.29612E+00 3.99720E-02-2.97547E+00-1.53159E-14-1.67082E-13
 -1      2907 2.61557E+01-3.09008E+00 1.11624E-02-3.35873E+00-3.27204E-14 3.10741E-14
 -1      2908 2.32359E+01-1.08809E+00-4.28450E-02-4.44078E-02 9.41235E-14 1.98973E-13
 -1      2909 2.40476E+01-1.32739E+00 3.63165E-02-8.38591E-01 1.47138E-13 1.21495E-13
 -1      2910 2.51905E+01-1.62041E+00 3.60646E-02-9.03531E-01 1.90445E-13 8.03064E-14
 -1      2911 2.45514E+01-4.76579E+00 5.95691E-02-6.89334E+00 7.53078E-14-8.18824E-14
 -1      2912 2.72188E+01-4.75487E+00-7.00545E-02-5.33327E+00 1.31090E-13-3.77927E-14
 -1      2913 2.03209E+01 1.58019E+00-8.87470E-03-1.24142E+00-2.74547E-13-2.36720E-13
 -1      2914 2.03024E+01 1.21418E+00 6.97156E-06-9.67594E-01-2.51625E-13-2.13488E-13
 -1      2915 2.02399E+01 1.84438E+00-3.77270E-04-1.21981E+00-2.53493E-13-2.94645E-13
 -1      2916 1.21342E+01-6.14942E-01 2.89428E-02-6.53091E+00 4.57828E-14-7.61335E-14
 -1      2917 2.97288E+01-5.07825E+00-1.38866E-01 2.99752E+00 5.47062E-14-4.72414E-13
 -1      2918 2.71952E+01-5.75971E+00 3.30426E-02 4.92449E+00 8.41965E-14-6.13690E-13
 -1      2919 1.99620E+01 2.31301E-01-7.80172E-04 6.18219E-02 1.40708E-13-4.80289E-15
 -1      2920 2.00275E+01 3.15170E-01 7.81373E-03 1.59620E-01 1.69875E-13 1.98537E-14
 -1      2921 2.00566E+01 2.65942E-01-2.73508E-03 5.96776E-02 1.37211E-13-3.91875E-14
 -1      2922 2.69561E+01-2.86412E+00-2.74974E-02 1.33362E-02 1.17684E-13-2.34958E-13
 -1      2923 2.75671E+01-2.07938E+00-8.41302E-02-7.96680E-01-1.83770E-13-3.00385E-14
 -1      2924 1.98422E+01 6.61855E-03 1.84398E-04-1.77411E-01 8.95891E-14-1.04742E-14
 -1      2925 1.98421E+01 2.59773E-02 1.78550E-03-1.66378E-01 6.29387E-14-2.84656E-14
 -1      2926 1.99514E+01 5.39529E-02-1.76537E-03-1.46657E-01 5.75145E-14-5.30380E-14
 -1      2927 1.99293E+01 4.03576E-03-1.25233E-03-1.80005E-01 7.40051E-14 1.80716E-14
 -1      2928 2.03104E+01 9.85693E-01 3.33262E-03-7.97902E-01-2.15948E-13-2.16054E-13
 -1      2929 2.02197E+01 7.61162E-01-3.67993E-03-5.64463E-01-2.03732E-13-2.05017E-13
 -1      2930 2.02536E+01 8.38344E-01 1.06715E-03-5.25074E-01-1.78018E-13-2.34756E-13
 -1      2931 2.02831E+01 1.20060E+00-1.69369E-03-8.25527E-01-2.19404E-13-2.54488E-13
 -1      2932 1.99228E+01 2.59623E+00-7.88328E-03 7.94063E-01 2.40034E-13-2.87061E-13
 -1      2933 1.98788E+01 2.68841E+00-6.12408E-03 6.45125E-01 1.95335E-13-3.20213E-13
 -1      2934 1.99973E+01 2.38879E+00 4.33495E-03 5.16440E-01 1.67420E-13-3.03267E-13
 -1      2935 2.00791E+01 2.19097E+00 5.60125E-03 7.45284E-01 2.22146E-13-2.45275E-13
 -1      2936 1.98736E+01 2.69725E+00-6.15565E-03-6.34673E-01-7.68609E-14-4.05916E-13
 -1      2937 1.99171E+01 2.60687E+00-7.91957E-03-7.84155E-01-1.17591E-13-3.98486E-13
 -1      2938 2.00709E+01 4.15609E-01-1.54164E-03 2.87119E-01 1.88685E-13 1.92112E-14
 -1      2939 2.01720E+01 5.53862E-01 1.04317E-02 4.49844E-01 2.08555E-13 2.69804E-14
 -1      2940 2.02540E+01 8.21660E-01 6.15173E-04 6.16526E-01 2.43206E-13-5.11022E-14
 -1      2941 2.01463E+01 4.77066E-01-2.18638E-03 2.79670E-01 1.89955E-13-3.22982E-14
 -1      2942 1.24927E+01-4.65289E+00 1.72810E-01-5.53705E+00 9.16767E-14-3.22770E-13
 -1      2943 1.58980E+01-5.73591E+00-2.57498E-02-5.83141E+00-9.82547E-15-2.67605E-13
 -1      2944 2.90443E+01 6.66937E+00-2.16905E-01-1.98935E+00-2.74780E-14-3.86045E-14
 -1      2945 2.95816E+01 5.34310E+00-1.16504E-01-2.83857E+00 6.21725E-14-2.97262E-14
 -1      2946 2.63273E+01-5.94218E+00 7.94014E-02-1.32509E+00 9.14407E-14 4.22169E-13
 -1      2947 2.79268E+01-5.32716E+00-7.47159E-02 6.29743E-02 9.55763E-14 5.02702E-13
 -1      2948 2.10586E+01-4.87406E-02-4.29151E-04 1.26913E+00-1.06271E-13 2.40173E-13
 -1      2949 2.09940E+01-2.40967E-01-4.05565E-03 1.22834E+00-1.72153E-13 3.18971E-13
 -1      2950 2.18311E+01 2.03321E-02 6.17834E-03 1.21077E+00 5.04766E-14 3.80952E-13
 -1      2951 2.03256E+01-6.17179E+00 1.72523E-01-4.80652E+00-7.40796E-14 1.48007E-14
 -1      2952 2.37778E+01-6.65530E+00-5.58856E-02-3.45136E+00-1.06720E-14 3.40386E-13
 -1      2953 2.47495E+01-5.50120E+00 4.69066E-02-1.94309E+00 1.16712E-14 3.53955E-13
 -1      2954 1.90055E+01-5.21373E+00 1.30777E-01-4.81308E+00-1.03056E-13 2.52923E-14
 -1      2955 7.53138E+00-2.82224E+00 1.53750E-01-3.51572E+00-1.17836E-13-3.28626E-13
 -1      2956 9.75993E+00-3.81848E+00 1.09872E-01-5.01468E+00-3.82472E-14-2.24404E-13
 -1      2957 1.26581E+01-3.41767E+00 1.85084E-01-4.93601E+00-7.76185E-14-4.30947E-13
 -1      2958 5.78867E+00-1.64261E+00 1.45000E-01 5.06064E-01-1.01345E-13 7.54397E-14
 -1      2959 6.10189E+00-2.08574E+00 1.80848E-01-1.77406E+00-1.66124E-13-1.56763E-13
 -1      2960 8.59567E+00-2.82053E+00 1.45736E-01 5.33345E+00-5.09176E-14-1.97981E-13
 -1      2961 6.85947E+00-1.86883E+00 1.72461E-01 3.18795E+00-5.68295E-15-8.08242E-14
 -1      2962 1.38381E+01-4.82213E+00 2.36467E-02 7.10796E+00 6.85840E-14-4.01387E-13
 -1      2963 1.09625E+01-3.84280E+00 1.61400E-01 6.35913E+00-4.93355E-14-2.99760E-13
 -1      2964 2.17055E+01-6.27175E+00-4.12202E-02 5.91424E+00 1.31659E-13 1.18860E-13
 -1      2965 1.79316E+01-5.58678E+00 1.56108E-01 6.68436E+00 1.53308E-13-4.32293E-14
 -1      2966 2.72543E+01-5.48926E+00-1.13320E-01 2.77610E+00 4.22995E-14 3.27932E-14
 -1      2967 2.50603E+01-6.03781E+00 8.11770E-02 4.17443E+00 8.71803E-14 5.16254E-15
 -1      2968 2.97979E+01-2.23121E+00-1.38953E-01-9.71272E-01 1.04278E-13 9.70335E-14
 -1      2969 2.90091E+01-4.13276E+00 1.20789E-02 9.43324E-01-9.88792E-15-4.87110E-15
 -1      2970 2.98070E+01 3.03920E+00-1.97628E-01-2.96827E+00 2.28706E-13 3.55826E-14
 -1      2971 2.98317E+01 6.09994E-01-8.97977E-02-2.49108E+00 2.15439E-13 1.36890E-13
 -1      2972 1.59475E+01-1.48099E+00 2.68365E-01-8.02113E+00-5.80092E-15-7.12763E-14
 -1      2973 9.38690E+00 7.39420E-01 2.11321E-01 2.11580E+00 4.09214E-13-2.27041E-14
 -1      2974 2.14375E+01-3.94301E-01-8.84743E-03 1.06116E+00-2.45752E-14 6.57264E-13
 -1      2975 2.86126E+01-4.03106E+00-3.49398E-02-3.69990E+00 1.37456E-13-1.95968E-13
 -1      2976 2.97374E+01-3.06777E+00-1.83901E-01-2.11161E+00 2.12358E-13-9.08162E-14
 -1      2977 2.93001E+01-1.41984E+00 6.96974E-03-5.34431E-01 3.83575E-13-1.68199E-14
 -1      2978 2.77205E+01-3.58686E+00 4.22793E-02-3.38094E+00 9.71272E-15-4.24036E-14
 -1      2979 2.98635E+01 6.99153E+00-1.71298E-01 1.89771E-01 2.40391E-13-1.53516E-13
 -1      2980 2.88676E+01 7.28873E+00-1.93261E-01-7.87124E-01 1.85518E-13-2.78292E-13
 -1      2981 2.81366E+01 5.58614E+00-1.21667E-01 5.88213E-01 2.42029E-13-3.03257E-13
 -1      2982 3.15901E+01-6.94376E-01-1.94139E-01-6.21854E-01-1.00669E-13-3.81056E-13
 -1      2983 3.11183E+01-2.96242E+00 1.73043E-02 6.88585E-01-7.53425E-14-4.21135E-13
 -1      2984 3.00506E+01-2.55660E+00-1.47258E-01 3.08911E+00-1.07497E-13 2.83620E-13
 -1      2985 2.83295E+01-2.16388E+00-4.27072E-02 3.61185E+00-1.42976E-13 3.11036E-13
 -1      2986 2.80078E+01-3.35509E+00-1.67848E-02 2.74332E+00-8.10012E-14 2.26333E-13
 -1      2987 2.92780E+01-4.55631E+00-4.95815E-02 1.46409E+00 1.32836E-13 4.14085E-13
 -1      2988 1.40777E+01-9.71548E-01 2.91719E-01 6.89144E+00 4.41869E-14-1.08025E-13
 -1      2989 2.30183E+01-5.01573E+00 3.35229E-02 7.01270E+00-1.40762E-13-2.90247E-13
 -1      2990 2.29820E+01-3.29331E+00 7.18586E-02 6.26583E+00-1.60753E-13-3.44166E-13
 -1      2991 2.44491E+01-3.49061E+00 3.78807E-02 5.12878E+00 6.52776E-14-1.28047E-13
 -1      2992 2.54440E+01-5.63896E+00 5.42585E-03 6.20381E+00 2.74641E-14-5.47722E-13
 -1      2993 1.99721E+01 2.48755E+00-6.06030E-03-9.01271E-01-1.48005E-13-3.82745E-13
 -1      2994 2.00355E+01 2.33835E+00-1.09342E-02-1.03440E+00-1.92973E-13-3.62032E-13
 -1      2995 2.00737E+01 2.20692E+00 6.70980E-03-7.39373E-01-1.34397E-13-3.59706E-13
 -1      2996 1.99317E+01 2.53893E+00 3.43992E-03 4.59041E-03 6.83427E-14-3.67628E-13
 -1      2997 1.97927E+01 2.87039E+00-5.48783E-03-6.18704E-02 4.94318E-14-4.04676E-13
 -1      2998 1.98003E+01 2.85577E+00-5.53804E-03-2.16522E-01 1.44192E-14-4.11653E-13
 -1      2999 8.56453E+00-1.72787E+00 1.84133E-01-2.58070E+00-2.67959E-13-2.03615E-13
 -1      3000 2.02909E+01 1.58805E+00-1.13360E-03 1.16529E+00 3.22064E-13-7.50849E-14
 -1      3001 1.13677E+01-1.56302E-02 1.44197E-01 4.79936E+00 1.17878E-13 1.69725E-13
 -1      3002 2.66888E+01-4.94812E+00 1.92393E-02 4.40202E+00-3.55271E-15-6.42972E-13
 -1      3003 1.98159E+01 2.82025E+00-5.71845E-03-3.51704E-01-5.63300E-15-3.87440E-13
 -1      3004 1.98399E+01 2.77209E+00-6.23890E-03-5.05274E-01-4.84984E-14-3.95161E-13
 -1      3005 1.99934E+01 2.39675E+00 4.46246E-03-5.07434E-01-6.92056E-14-3.67058E-13
 -1      3006 1.99466E+01 2.50489E+00 3.67910E-03-2.55708E-01-1.89645E-15-3.77824E-13
 -1      3007 2.95495E+01-3.85416E+00-3.79956E-02 1.28687E+00 1.11473E-14-4.61936E-13
 -1      3008 2.84926E+01 5.48276E+00-3.18012E-01 1.32443E+00 2.45165E-13 1.50970E-13
 -1      3009 2.81437E+01 1.90772E+00-9.90309E-02-1.77434E+00 4.78506E-14-6.27276E-15
 -1      3010 3.10875E+01 3.33216E+00-1.65744E-01-1.38931E+00 4.97380E-14-3.58602E-14
 -1      3011 2.80131E+01-7.07767E-02-1.79826E-01-1.78613E+00-1.01016E-13-2.46331E-14
 -1      3012 2.46528E+01-2.46345E+00 1.09645E-02 1.74586E+00 4.50113E-13-2.98770E-13
 -1      3013 2.54724E+01-2.86317E+00-3.33983E-02 1.05343E+00 4.16160E-13-1.32849E-13
 -1      3014 2.21157E+01-5.63261E-01 1.56875E-02 6.38080E-01 6.29382E-14 5.05143E-13
 -1      3015 2.29644E+01-5.31181E-01 2.62343E-02 6.44834E-01 1.79341E-13 2.95731E-13
 -1      3016 2.82501E+01 3.50799E+00-9.83817E-02-3.05472E+00 2.00104E-13-4.33265E-14
 -1      3017 2.93790E+01-1.18393E+00-9.93921E-02-2.04741E+00 1.62554E-13 1.53211E-13
 -1      3018 2.83915E+01-2.36788E+00 1.80919E-02-1.40474E+00 1.07494E-13 1.74749E-13
 -1      3019 2.79921E+01-1.86955E-04-1.20795E-01-2.87869E+00 2.07889E-13 2.12538E-14
 -1      3020 2.77317E+01-4.79285E+00 5.98740E-04 1.31585E+00 8.47204E-14 1.07782E-13
 -1      3021 2.34884E+01-5.88624E+00 4.93938E-02 4.51773E+00 1.84547E-13-6.81052E-15
 -1      3022 1.70841E+01-4.69433E+00 1.29048E-01 6.35664E+00 1.49505E-13-1.18350E-13
 -1      3023 2.75794E+01 6.18241E+00-1.34310E-01-1.39676E+00 1.46272E-13-1.09048E-13
 -1      3024 2.71337E+01-3.51217E+00-1.09441E-02 1.41203E+00 2.83652E-13-2.04187E-13
 -1      3025 2.91749E+01 2.32494E+00-9.60362E-02 1.06648E+00 3.84581E-13-4.78922E-14
 -1      3026 2.02806E+01 1.36672E+00 2.30737E-03 9.19248E-01 2.87511E-13-1.01335E-13
 -1      3027 3.18467E+01 1.22449E+00-1.10585E-01-1.32931E+00 1.24067E-14-2.19991E-13
 -1      3028 3.03156E+01-5.87974E-01-9.46527E-02-1.20729E+00-1.15685E-13-4.77396E-14
 -1      3029 2.48425E+01-2.85539E+00 4.08982E-02 3.45372E+00 3.88392E-13-7.05859E-14
 -1      3030 1.12452E+01-2.64577E+00 1.59242E-01 5.44272E+00-9.43690E-15-1.93928E-13
 -1      3031 7.35031E+00-1.17095E+00 1.96301E-01 1.90519E+00-4.79061E-14 9.20375E-14
 -1      3032 8.33451E+00-5.75340E-01 1.36173E-01 6.52233E-01-7.72403E-14 9.64506E-14
 -1      3033 9.25764E+00-9.14691E-01 1.08686E-01 2.94444E+00 1.80099E-14-5.85226E-14
 -1      3034 1.73977E+01-3.63156E+00 8.85224E-02-8.67028E+00-1.40138E-13-6.24500E-15
 -1      3035 2.54509E+01-3.95219E+00 4.88794E-03 3.97154E+00 1.67586E-13-2.99741E-13
 -1      3036 2.02396E+01 1.47552E+00-7.99191E-03 8.00411E-01 2.35247E-13-1.31968E-13
 -1      3037 2.01998E+01 1.67002E+00-4.73703E-04 7.45600E-01 2.18800E-13-1.83493E-13
 -1      3038 2.70594E+01 4.46579E+00-7.25254E-02 1.11611E+00 1.66728E-13-8.54941E-14
 -1      3039 2.62793E+01 5.34503E+00-1.25907E-01 3.59139E-01 1.71793E-13-1.04626E-13
 -1      3040 2.02208E+01 4.22903E-01 4.09349E-03-1.19601E-01-1.41078E-13-2.07615E-13
 -1      3041 2.01814E+01 3.15071E-01-2.28928E-03-3.47796E-02-1.06661E-13-2.12206E-13
 -1      3042 2.01672E+01 2.31375E-01 3.18199E-03 2.65947E-02-1.05672E-13-2.09537E-13
 -1      3043 2.01368E+01 1.60716E-01-1.30980E-03 7.74427E-02-1.14509E-13-2.15087E-13
 -1      3044 2.02370E+01 3.31553E-01-8.51281E-04-2.58341E-02-1.18636E-13-2.27896E-13
 -1      3045 2.01200E+01 1.06600E-01 2.23976E-03 1.13197E-01-8.55299E-14-1.91752E-13
 -1      3046 2.00987E+01 6.13091E-02-6.34974E-04 1.40243E-01-6.99184E-14-2.02892E-13
 -1      3047 2.01962E+01 1.66988E-01-1.01120E-03 7.66153E-02-8.56679E-14-1.82044E-13
 -1      3048 2.00824E+01 2.71971E-02 1.47164E-03 1.57760E-01-7.97216E-14-1.98088E-13
 -1      3049 2.00686E+01-7.32270E-04-2.02938E-04 1.68804E-01-8.67351E-14-2.07140E-13
 -1      3050 2.01570E+01 6.03204E-02-9.65499E-04 1.34233E-01-7.40275E-14-1.88267E-13
 -1      3051 2.00541E+01-2.11792E-02 8.88743E-04 1.74043E-01-6.67823E-14-1.75211E-13
 -1      3052 2.00460E+01-3.72096E-02 6.17044E-05 1.74843E-01-7.51282E-14-1.61500E-13
 -1      3053 2.01228E+01-6.25480E-03-8.38838E-04 1.60342E-01-6.65446E-14-1.65373E-13
 -1      3054 2.00337E+01-4.83288E-02 4.70593E-04 1.72337E-01-8.39231E-14-1.54063E-13
 -1      3055 2.00296E+01-5.62623E-02 2.15751E-04 1.67023E-01-3.73785E-14-1.14624E-13
 -1      3056 2.00944E+01-4.51276E-02-6.93378E-04 1.65589E-01-4.59932E-14-1.43898E-13
 -1      3057 2.00195E+01-6.10713E-02 1.83673E-04 1.60077E-01-4.26190E-14-8.20510E-14
 -1      3058 2.00182E+01-6.35706E-02 2.98348E-04 1.51551E-01-2.00113E-14-1.20368E-13
 -1      3059 2.00715E+01-6.50252E-02-5.57048E-04 1.57985E-01-4.55277E-14-6.56874E-14
 -1      3060 2.00101E+01-6.41757E-02-5.10523E-06 1.42505E-01-8.45376E-15-1.15948E-13
 -1      3061 2.00105E+01-6.30922E-02 3.36957E-04 1.32768E-01-2.08052E-14-1.08380E-13
 -1      3062 2.00535E+01-7.21006E-02-4.39079E-04 1.43330E-01-1.29851E-14-3.90996E-14
 -1      3063 2.00042E+01-6.09415E-02-1.24352E-04 1.23237E-01-1.13634E-14-9.59877E-14
 -1      3064 2.00058E+01-5.75287E-02 3.50915E-04 1.13648E-01 1.23870E-14-2.12266E-14
 -1      3065 2.00398E+01-7.06557E-02-3.41469E-04 1.25709E-01 6.32544E-15-4.02627E-14
 -1      3066 2.00010E+01-5.35834E-02-1.97010E-04 1.04731E-01-5.05665E-14-1.14209E-14
 -1      3067 2.00033E+01-4.86492E-02 3.53962E-04 9.62106E-02-9.88539E-14-4.39215E-14
 -1      3068 2.00295E+01-6.36204E-02-2.62946E-04 1.07942E-01-1.67423E-14-9.71018E-14
 -1      3069 1.99997E+01-4.35066E-02-2.40969E-04 8.86608E-02-1.50294E-13-3.08508E-14
 -1      3070 2.00025E+01-3.75258E-02 3.55684E-04 8.18425E-02-2.10469E-13-4.08908E-14
 -1      3071 2.00221E+01-5.28972E-02-2.00935E-04 9.19663E-02-1.34806E-13-8.55592E-14
 -1      3072 1.99998E+01-3.15112E-02-2.69898E-04 7.61924E-02-2.28978E-13 1.68578E-14
 -1      3073 2.00029E+01-2.47084E-02 3.63194E-04 7.15419E-02-1.82537E-13 2.33299E-14
 -1      3074 2.00168E+01-3.96190E-02-1.52388E-04 7.91304E-02-1.72770E-13-3.35809E-14
 -1      3075 2.00009E+01-1.79431E-02-2.94212E-04 6.82041E-02-1.41348E-13 1.78569E-14
 -1      3076 2.00044E+01-1.03566E-02 3.81911E-04 6.61057E-02-7.15300E-14 2.39774E-14
 -1      3077 2.00132E+01-2.43412E-02-1.13886E-04 7.04293E-02-1.39629E-13 6.31788E-14
 -1      3078 2.00027E+01-2.81263E-03-3.21729E-04 6.54491E-02-8.44087E-14 1.74998E-14
 -1      3079 2.00067E+01 5.65072E-03 4.15739E-04 6.62706E-02-1.06421E-13-1.61295E-14
 -1      3080 2.00107E+01-7.18982E-03-8.24017E-05 6.66799E-02-1.08056E-13 5.49943E-14
 -1      3081 2.00052E+01 1.41001E-02-3.58032E-04 6.86762E-02-4.84818E-14 3.32660E-16
 -1      3082 2.00097E+01 2.36120E-02 4.67128E-04 7.28126E-02-1.59439E-14 2.17492E-14
 -1      3083 2.00090E+01 1.20117E-02-5.53976E-05 6.86578E-02-5.56470E-14 3.21157E-14
 -1      3084 2.00081E+01 3.31406E-02-4.06689E-04 7.87092E-02-3.62236E-14 3.69268E-14
 -1      3085 2.00134E+01 4.38956E-02 5.37307E-04 8.66046E-02 3.28312E-14 1.16185E-14
 -1      3086 2.00075E+01 3.36204E-02-3.07161E-05 7.71905E-02 6.70763E-15 2.22937E-14
 -1      3087 2.00115E+01 5.46678E-02-4.69060E-04 9.64851E-02 9.90827E-14-1.19598E-14
 -1      3088 2.00177E+01 6.68173E-02 6.26208E-04 1.08634E-01 1.34447E-13 5.59896E-14
 -1      3089 2.00058E+01 5.80447E-02-7.00926E-06 9.32097E-02 3.59754E-14 2.15866E-15
 -1      3090 2.00154E+01 7.89154E-02-5.43624E-04 1.23053E-01 4.81634E-14 3.19442E-15
 -1      3091 2.00228E+01 9.24805E-02 7.32135E-04 1.39974E-01-1.75869E-14-1.25363E-14
 -1      3092 2.00036E+01 8.55932E-02 1.55902E-05 1.17769E-01 5.16629E-14 5.28994E-14
 -1      3093 2.00199E+01 1.05808E-01-6.24809E-04 1.59521E-01-7.22041E-14 5.08619E-14
 -1      3094 2.00289E+01 1.20561E-01 8.51329E-04 1.81703E-01-1.44690E-13 1.18014E-13
 -1      3095 2.00006E+01 1.16277E-01 3.44886E-05 1.52016E-01-6.48335E-15-7.49355E-14
 -1      3096 2.00254E+01 1.34708E-01-7.01194E-04 2.06947E-01-1.21711E-13 1.22217E-13
 -1      3097 2.00365E+01 1.50013E-01 9.77513E-04 2.34745E-01-3.05083E-14 8.93771E-14
 -1      3098 1.99967E+01 1.49544E-01 4.30213E-05 1.97117E-01-8.85596E-14-1.50533E-14
 -1      3099 2.00326E+01 1.64078E-01-7.52923E-04 2.66139E-01-8.22301E-14 3.19716E-14
 -1      3100 2.00465E+01 1.78671E-01 1.10142E-03 2.99629E-01-5.97270E-14-2.46932E-14
 -1      3101 1.99920E+01 1.83917E-01 2.79893E-05 2.54118E-01-1.08407E-13 9.96267E-15
 -1      3102 2.00431E+01 1.91022E-01-7.48197E-04 3.37363E-01 1.83389E-14-7.10303E-14
 -1      3103 2.00607E+01 2.02736E-01 1.21034E-03 3.76118E-01 4.59249E-14-6.97124E-14
 -1      3104 1.99874E+01 2.16515E-01-3.39090E-05 3.23717E-01-5.33452E-14-9.56291E-14
 -1      3105 2.00592E+01 2.10718E-01-6.38771E-04 4.19915E-01 6.36238E-14-2.95998E-14
 -1      3106 2.00821E+01 2.16152E-01 1.28733E-03 4.62707E-01-6.01076E-14-7.23188E-14
 -1      3107 1.99847E+01 2.42447E-01-1.80951E-04 4.05942E-01 4.09507E-14-1.86436E-13
 -1      3108 2.00850E+01 2.15751E-01-3.54583E-04 5.11529E-01-1.55885E-13 4.31430E-14
 -1      3109 2.01155E+01 2.09908E-01 1.30924E-03 5.55933E-01-8.18855E-14-3.12521E-14
 -1      3110 1.99876E+01 2.54076E-01-4.72488E-04 4.99703E-01-1.40220E-14-5.17539E-14
 -1      3111 2.01275E+01 1.95434E-01 2.01840E-04 6.07577E-01-1.88888E-14 7.97342E-14
 -1      3112 2.01688E+01 1.71437E-01 1.24107E-03 6.49470E-01 1.20668E-13 1.46426E-13
 -1      3113 2.00024E+01 2.40244E-01-9.95465E-04 6.02153E-01 1.18107E-14 1.52807E-13
 -1      3114 2.01969E+01 1.35358E-01 1.15906E-03 6.99996E-01 5.79105E-14 1.51758E-13
 -1      3115 2.02541E+01 8.44131E-02 1.02227E-03 7.32939E-01 4.51986E-14 1.37705E-13
 -1      3116 2.00394E+01 1.85633E-01-1.86883E-03 7.07813E-01 8.45680E-14 1.10895E-13
 -1      3117 2.03089E+01 1.76244E-02 2.67280E-03 7.75845E-01 6.90233E-14-2.61930E-16
 -1      3118 2.03884E+01-7.03598E-02 5.37683E-04 7.90370E-01 4.99448E-14 1.90130E-14
 -1      3119 2.01147E+01 7.06672E-02-3.23949E-03 8.07288E-01 1.02849E-15 2.99818E-14
 -1      3120 2.04849E+01-1.77325E-01 4.89959E-03 8.15379E-01 6.09187E-14-3.04345E-14
 -1      3121 2.05947E+01-3.11783E-01-4.27167E-04 7.98232E-01-1.08030E-13-8.94209E-14
 -1      3122 2.02517E+01-1.27218E-01-5.25557E-03 8.85319E-01-1.28116E-14-2.60059E-13
 -1      3123 2.07518E+01-4.65717E-01 7.92324E-03 7.89557E-01-1.84559E-13 4.32686E-14
 -1      3124 2.08993E+01-6.50980E-01-2.23518E-03 7.23216E-01-7.89847E-15 2.58228E-14
 -1      3125 2.04821E+01-4.29433E-01-7.98321E-03 9.17792E-01 5.55117E-15-2.59754E-13
 -1      3126 2.11379E+01-8.49878E-01 1.15488E-02 6.57467E-01-1.12337E-14 9.64120E-14
 -1      3127 2.13255E+01-1.07656E+00-5.27691E-03 5.20732E-01-4.31080E-14 4.00036E-14
 -1      3128 2.08444E+01-8.46551E-01-1.12131E-02 8.67497E-01 4.33866E-14-8.28905E-15
 -1      3129 2.16610E+01-1.29891E+00 1.50936E-02 3.65806E-01-7.03247E-14 9.49565E-14
 -1      3130 2.18787E+01-1.52966E+00-9.41988E-03 1.37753E-01-6.60730E-14 1.16951E-13
 -1      3131 2.13760E+01-1.35923E+00-1.39922E-02 6.79525E-01-1.01911E-13 2.82367E-14
 -1      3132 2.23040E+01-1.71908E+00 1.66252E-02-1.42408E-01-1.79703E-13 4.65959E-14
 -1      3133 2.25203E+01-1.87080E+00-1.33229E-02-4.70343E-01-2.14984E-13-7.67635E-14
 -1      3134 2.20932E+01-1.88462E+00-1.38200E-02 2.81729E-01-1.82806E-13 2.37579E-13
 -1      3135 2.29780E+01-1.92180E+00 1.12407E-02-8.92880E-01-1.26698E-13-1.29501E-13
 -1      3136 2.31367E+01-1.86373E+00-1.60496E-02-1.28910E+00-1.32610E-13-1.35196E-13
 -1      3137 2.29502E+01-2.23014E+00-7.23186E-03-3.94704E-01-2.20655E-13 1.70696E-13
 -1      3138 2.35052E+01-1.62694E+00-4.05999E-03-1.81046E+00-8.49386E-14-1.78063E-13
 -1      3139 2.35298E+01-1.22424E+00-1.47961E-02-2.16512E+00-7.33233E-14-1.45900E-13
 -1      3140 2.37908E+01-2.10582E+00-2.63796E-03-1.35072E+00-1.22838E-13-4.81264E-14
 -1      3141 2.36710E+01-5.97174E-01-2.19678E-02-2.62023E+00 3.73616E-14-6.16417E-14
 -1      3142 2.35494E+01 2.02987E-01 1.06497E-02-2.75641E+00 6.56931E-14 2.29495E-14
 -1      3143 2.43388E+01-1.18303E+00-1.18256E-02-2.37569E+00 9.84282E-14-2.25774E-14
 -1      3144 2.33490E+01 1.05201E+00-5.50744E-02-2.78734E+00-8.01069E-14 1.33011E-13
 -1      3145 2.31850E+01 1.97848E+00 1.52938E-02-2.56892E+00-1.95503E-14 7.95171E-14
 -1      3146 2.43454E+01 7.58167E-01 3.09300E-03-2.99036E+00 1.09449E-13 1.52985E-13
 -1      3147 2.28639E+01 2.73693E+00-4.76417E-02-2.03785E+00 1.94116E-14 1.03549E-13
 -1      3148 2.27375E+01 3.22841E+00-9.35742E-03-1.44466E+00 1.86665E-13 1.72575E-13
 -1      3149 2.40012E+01 2.80462E+00 4.54621E-03-2.55853E+00 1.09690E-13 1.43288E-13
 -1      3150 2.27825E+01 2.65901E+00 5.37840E-03 7.17670E-01 3.60739E-13 6.11327E-14
 -1      3151 2.28031E+01 1.94432E+00-5.39056E-02 1.10120E+00 2.93365E-13 1.57994E-13
 -1      3152 2.29193E+01 1.21174E+00 1.07913E-02 1.24364E+00 1.22610E-13 2.22791E-13
 -1      3153 2.28599E+01 5.16604E-01-1.65337E-02 1.27425E+00 1.32963E-13 2.84596E-13
 -1      3154 2.38790E+01 1.76761E+00 1.35039E-03 1.23251E+00 3.06057E-13 1.50196E-13
 -1      3155 2.00727E+01 1.50304E-01-1.14395E-03-7.72333E-02 6.27738E-14-7.21709E-14
 -1      3156 2.01053E+01 2.15753E-01 3.70847E-03-2.38718E-02 7.47286E-14-5.31867E-14
 -1      3157 1.99824E+01-4.86715E-02 2.24332E-04-1.73474E-01 6.05670E-14-5.81969E-16
 -1      3158 1.99821E+01-4.12573E-02 4.47525E-04-1.79050E-01 1.20347E-13-1.89907E-14
 -1      3159 1.99916E+01-3.09952E-02 9.99250E-05-1.81444E-01 1.26546E-13-2.53453E-14
 -1      3160 1.99956E+01-1.62486E-02 9.15810E-04-1.80709E-01 9.25994E-14-9.56241E-15
 -1      3161 2.00480E+01-3.86461E-02-7.37619E-04-1.75301E-01 1.10823E-13-8.34516E-14
 -1      3162 1.99773E+01-5.59177E-02 3.15323E-04-1.37738E-01 1.62288E-14-2.22035E-14
 -1      3163 1.99731E+01-5.66215E-02-6.40536E-05-1.47908E-01 8.28963E-14-4.00589E-14
 -1      3164 1.99788E+01-5.15210E-02 3.23914E-04-1.17581E-01 7.40804E-15 3.13081E-14
 -1      3165 1.99738E+01-5.43019E-02-1.82988E-04-1.27650E-01-1.44765E-14-1.44385E-14
 -1      3166 2.00113E+01-6.41342E-02-3.01675E-04-1.33186E-01-8.48744E-17-1.10780E-13
 -1      3167 1.99818E+01-4.41957E-02 3.26007E-04-9.90041E-02 4.15782E-14 1.63945E-14
 -1      3168 1.99766E+01-4.83172E-02-2.48828E-04-1.08046E-01 6.52483E-14 4.87044E-14
 -1      3169 2.00064E+01-5.84076E-02-2.22240E-04-1.14046E-01 2.26081E-14-1.11426E-13
 -1      3170 1.99858E+01-3.49172E-02 3.30589E-04-8.34157E-02 1.36278E-13-7.90285E-15
 -1      3171 1.99805E+01-3.99470E-02-2.81561E-04-9.08018E-02 6.95055E-14 1.04911E-14
 -1      3172 2.00039E+01-4.93549E-02-1.65799E-04-9.66209E-02 4.71632E-14-1.61412E-13
 -1      3173 1.99906E+01-2.41731E-02 3.44526E-04-7.18240E-02 7.26166E-14 1.12982E-13
 -1      3174 1.99852E+01-2.99149E-02-2.96903E-04-7.70933E-02 1.14151E-13 1.01154E-13
 -1      3175 2.00030E+01-3.80270E-02-1.27657E-04-8.23171E-02 6.76873E-14-1.33925E-14
 -1      3176 1.99961E+01-1.20746E-02 3.73198E-04-6.50394E-02 1.48145E-14 7.31080E-14
 -1      3177 1.99906E+01-1.85149E-02-3.06468E-04-6.78053E-02 8.90275E-14 1.04907E-13
 -1      3178 2.00035E+01-2.49192E-02-1.03564E-04-7.21667E-02 6.53788E-14 1.27529E-13
 -1      3179 2.00025E+01 1.57055E-03 4.21349E-04-6.38313E-02-2.95368E-14 8.13105E-14
 -1      3180 1.99965E+01-5.70450E-03-3.19534E-04-6.37075E-02-2.82552E-14 3.68609E-14
 -1      3181 2.00050E+01-1.00957E-02-8.89757E-05-6.70234E-02 3.69716E-14 6.22582E-14
 -1      3182 2.00097E+01 1.72096E-02 4.93091E-04-6.90538E-02 5.09529E-14 1.49218E-13
 -1      3183 2.00031E+01 8.83694E-03-3.44051E-04-6.55939E-02 2.61665E-14 1.61908E-13
 -1      3184 2.00073E+01 6.72828E-03-7.96254E-05-6.77118E-02-5.54012E-14 1.94797E-14
 -1      3185 2.00181E+01 3.55113E-02 5.91966E-04-8.17472E-02 9.36495E-15 2.16498E-13
 -1      3186 2.00105E+01 2.56672E-02-3.87206E-04-7.43966E-02 3.76509E-14 2.30682E-13
 -1      3187 2.00102E+01 2.61310E-02-7.10450E-05-7.51496E-02 2.27271E-14 1.93129E-13
 -1      3188 2.00279E+01 5.73456E-02 7.20977E-04-1.03216E-01 1.16823E-13 1.95522E-13
 -1      3189 2.00188E+01 4.55539E-02-4.56182E-04-9.12733E-02 1.11311E-13 2.01708E-13
 -1      3190 2.00134E+01 4.89455E-02-5.73653E-05-9.04393E-02 6.86187E-14 3.71460E-13
 -1      3191 2.00392E+01 8.37725E-02 8.82187E-04-1.35088E-01 1.75113E-13 1.11489E-13
 -1      3192 2.00283E+01 6.94600E-02-5.58961E-04-1.17675E-01 1.33155E-13 1.73090E-13
 -1      3193 2.00165E+01 7.62340E-02-3.08334E-05-1.14934E-01 1.75123E-13 2.68550E-13
 -1      3194 2.00519E+01 1.16033E-01 1.07615E-03-1.79357E-01 7.95795E-15 1.10333E-13
 -1      3195 2.00388E+01 9.85344E-02-7.04924E-04-1.55395E-01 1.10931E-13 1.22561E-13
 -1      3196 2.00190E+01 1.09271E-01 1.92314E-05-1.50280E-01 1.40009E-13 2.49748E-13
 -1      3197 2.00658E+01 1.55522E-01 1.30107E-03-2.38393E-01-7.85927E-15 2.87057E-14
 -1      3198 2.00500E+01 1.34097E-01-9.05356E-04-2.06600E-01 2.81720E-14 5.98714E-14
 -1      3199 2.00199E+01 1.49523E-01 1.07731E-04-1.98433E-01 5.38341E-14 2.23434E-13
 -1      3200 2.00798E+01 2.03726E-01 1.55181E-03-3.14929E-01-6.65083E-14 4.52089E-14
 -1      3201 2.00614E+01 1.77599E-01-1.17369E-03-2.73824E-01-1.22917E-14 6.18428E-14
 -1      3202 2.00178E+01 1.98600E-01 2.55126E-04-2.61644E-01-3.24688E-15 2.73961E-13
 -1      3203 2.00925E+01 2.62064E-01 1.81913E-03-4.11983E-01-6.83185E-14 3.20983E-14
 -1      3204 2.00715E+01 2.30520E-01-1.52513E-03-3.59934E-01-7.41669E-14-4.53618E-14
 -1      3205 2.00103E+01 2.58155E-01 4.88463E-04-3.42403E-01-3.08833E-14 9.79531E-14
 -1      3206 2.01010E+01 3.31537E-01 2.09019E-03-5.32706E-01-5.62630E-14 7.32875E-14
 -1      3207 2.00781E+01 2.94131E-01-1.97495E-03-4.68030E-01-4.11820E-14 6.37102E-14
 -1      3208 1.99941E+01 3.29647E-01 8.41148E-04-4.43327E-01-9.04623E-14 1.11325E-13
 -1      3209 2.01014E+01 4.12025E-01 2.35242E-03-6.80120E-01-1.05022E-13 1.19623E-13
 -1      3210 2.00776E+01 3.68997E-01-2.53438E-03-6.01259E-01-5.75949E-14 1.47891E-13
 -1      3211 1.99644E+01 4.13864E-01 1.34950E-03-5.66999E-01-8.44078E-14 9.44572E-14
 -1      3212 2.00882E+01 5.00917E-01 2.60519E-03-8.56719E-01 6.59542E-14 1.11474E-13
 -1      3213 2.00652E+01 4.53983E-01-3.20232E-03-7.62543E-01-2.53888E-15 1.59573E-13
 -1      3214 1.99145E+01 5.09991E-01 2.04224E-03-7.15771E-01-7.07473E-14 1.52282E-13
 -1      3215 2.00554E+01 5.90625E-01 2.88664E-03-1.06393E+00-8.11186E-14 1.43102E-13
 -1      3216 2.00347E+01 5.44402E-01-3.95002E-03-9.54195E-01 9.89947E-15 1.31874E-13
 -1      3217 1.98362E+01 6.13888E-01 2.91588E-03-8.91595E-01-3.97294E-14 1.35507E-13
 -1      3218 1.99984E+01 6.64271E-01 3.32698E-03-1.30154E+00-6.68181E-14 1.69362E-13
 -1      3219 1.99803E+01 6.28704E-01-4.69371E-03-1.17750E+00-3.20863E-14 1.55120E-13
 -1      3220 1.97202E+01 7.15061E-01 3.88460E-03-1.09609E+00-6.85084E-14-1.35724E-14
 -1      3221 1.99192E+01 6.88729E-01 4.23784E-03-1.56717E+00 2.37308E-14 2.55457E-14
 -1      3222 1.98993E+01 6.82956E-01-5.24048E-03-1.43241E+00-5.11074E-15 1.77185E-13
 -1      3223 1.95586E+01 7.91624E-01 4.68754E-03-1.33119E+00 5.80948E-15 4.58263E-14
 -1      3224 1.98378E+01 6.04391E-01 6.27463E-03-1.85601E+00-1.09167E-13 4.63549E-14
 -1      3225 1.98005E+01 6.62293E-01-5.14611E-03-1.71751E+00-5.22160E-14 5.00864E-14
 -1      3226 1.93504E+01 8.02359E-01 4.74355E-03-1.60104E+00-1.52547E-14 1.84560E-13
 -1      3227 1.98118E+01 3.12752E-01 1.08557E-02-2.15937E+00-9.01528E-14 1.00600E-13
 -1      3228 1.97184E+01 4.89136E-01-3.36193E-03-2.03008E+00-5.28309E-14 1.04964E-14
 -1      3229 1.91125E+01 6.75351E-01 3.02697E-03-1.91536E+00-7.84080E-14 1.09544E-13
 -1      3230 1.99725E+01-3.32742E-01 2.08682E-02-2.45440E+00-1.89672E-13 1.57068E-13
 -1      3231 1.97426E+01 3.76958E-02 2.14118E-03-2.36356E+00-1.88532E-13 8.27409E-14
 -1      3232 1.89026E+01 2.95295E-01-7.65449E-04-2.29652E+00-1.76265E-13 4.24595E-14
 -1      3233 2.05544E+01-1.51622E+00 3.29846E-02-2.68130E+00-9.31304E-14 3.22151E-13
 -1      3234 2.00585E+01-8.60534E-01 1.55933E-02-2.68926E+00-1.25616E-13 1.72776E-13
 -1      3235 1.88626E+01-5.05647E-01-2.40368E-03-2.76836E+00-1.90640E-13-3.47309E-14
 -1      3236 2.19030E+01-3.34285E+00 3.72062E-02-2.68802E+00-1.06842E-13 3.33351E-13
 -1      3237 2.10050E+01-2.32013E+00 5.74124E-02-2.88347E+00-1.32105E-13 3.97782E-13
 -1      3238 1.92850E+01-1.94876E+00-2.11193E-03-3.30938E+00-2.20806E-13 1.91097E-14
 -1      3239 2.33186E+01-4.62045E+00 1.02959E-01-2.57520E+00 3.38271E-15 3.35723E-13
 -1      3240 2.78433E+01 1.00877E+00-3.76066E-02 1.03825E+00 3.90993E-13 9.74221E-14
 -1      3241 2.74242E+01 2.91238E+00-1.49925E-01 1.28558E+00 2.42376E-13-1.23290E-13
 -1      3242 2.59804E+01 2.91924E+00-4.83259E-02 1.16009E+00 2.10804E-13-1.17972E-13
 -1      3243 2.75724E+01-4.60354E+00-1.54934E-02 1.20107E+00 8.32390E-14 4.63889E-13
 -1      3244 1.31131E+01-2.81993E+00 5.30863E-02 5.76900E+00 7.33025E-14-4.98490E-14
 -1      3245 1.11798E+01-1.73019E+00 1.12396E-01 4.64317E+00 5.10564E-14-1.40069E-13
 -1      3246 2.65533E+01 3.92327E+00-1.64848E-01-2.83758E+00 9.70057E-14 4.83814E-14
 -1      3247 2.72451E+01 2.29620E+00-1.39249E-02-3.29338E+00 1.89848E-13-3.38618E-15
 -1      3248 2.45983E+01-4.14097E+00 6.03058E-02-6.66001E+00 3.52635E-14-1.53464E-13
 -1      3249 2.72409E+01-2.89843E+00-9.69437E-02-1.96964E+00 4.99063E-14-7.94451E-14
 -1      3250 2.01241E+01 2.93666E-01-2.01416E-03 4.34740E-02 1.14121E-13-6.41612E-14
 -1      3251 2.01700E+01 3.94718E-01 4.50690E-03 1.34069E-01 1.57655E-13-6.05996E-14
 -1      3252 2.01891E+01 3.16052E-01-1.49024E-03 3.54797E-02 1.01569E-13-6.15799E-14
 -1      3253 2.00981E+01 2.20130E+00-5.18232E-03-1.10390E+00-2.07164E-13-3.49560E-13
 -1      3254 2.01729E+01 2.01018E+00-1.03235E-02-1.18410E+00-2.42360E-13-3.31098E-13
 -1      3255 2.02609E+01 1.62588E+00 9.29436E-03-9.78353E-01-2.31025E-13-2.89415E-13
 -1      3256 2.01806E+01 1.93247E+00 9.18906E-03-9.02241E-01-1.97270E-13-3.19071E-13
 -1      3257 8.92122E+00-8.42109E-01 1.14261E-01-1.64325E+00-2.98310E-13-5.74540E-14
 -1      3258 1.02991E+01-1.58367E+00 1.04934E-01-3.35343E+00-3.01439E-13-3.29375E-13
 -1      3259 2.52360E+01-1.02590E+00-9.54333E-02 1.63144E-01 3.95022E-13 1.66336E-13
 -1      3260 2.64217E+01-1.57073E+00 9.92658E-03-6.59346E-01 1.79371E-13 3.24862E-13
 -1      3261 2.82463E+01-1.22294E+00-2.58434E-02-1.41113E+00-1.96135E-13-4.54359E-14
 -1      3262 1.22956E+01-2.34646E+00 1.22172E-01-4.25109E+00-2.97130E-13-5.46674E-13
 -1      3263 1.45120E+01-3.29801E+00 4.16548E-02-4.89355E+00-1.56243E-13-4.42535E-13
 -1      3264 1.99781E+01-5.57832E-02 2.87919E-04-1.57395E-01 1.06573E-13-4.13109E-14
 -1      3265 1.99753E+01-5.32710E-02 1.34569E-04-1.66291E-01 7.26201E-14-5.08762E-14
 -1      3266 2.00310E+01-5.76052E-02-5.54461E-04-1.67494E-01 7.48176E-14-7.94419E-14
 -1      3267 2.00192E+01-6.47724E-02-4.11084E-04-1.51999E-01 5.74657E-14-6.93523E-14
 -1      3268 2.02679E+01 7.13746E-01 3.62123E-03-3.44868E-01-1.43379E-13-2.53783E-13
 -1      3269 2.02266E+01 5.52127E-01-3.18865E-03-2.14746E-01-1.34799E-13-2.33265E-13
 -1      3270 2.02716E+01 5.79040E-01-4.95959E-04-1.88275E-01-1.21780E-13-2.43999E-13
 -1      3271 2.02899E+01 9.89883E-01-7.75466E-04 6.89281E-01 2.32633E-13-8.47029E-14
 -1      3272 2.02686E+01 1.31153E+00 4.56571E-03 7.72588E-01 2.35431E-13-9.79501E-14
 -1      3273 2.02830E+01 1.13102E+00 5.32897E-03 5.96562E-01 1.99951E-13-1.01300E-13
 -1      3274 2.02323E+01 7.75873E-01-3.85223E-03 4.82122E-01 1.97575E-13-6.36046E-14
 -1      3275 2.19602E+01-4.99590E+00 9.89133E-02-8.70663E+00-1.32505E-13 5.65797E-14
 -1      3276 2.00437E+01 2.16090E+00-4.29066E-03 2.92441E-01 1.29583E-13-3.31924E-13
 -1      3277 2.00304E+01 2.19971E+00-3.31960E-03 1.70765E-01 9.84617E-14-3.55936E-13
 -1      3278 2.60169E+01 5.78778E+00-1.13430E-01-7.44649E-01 2.37851E-13-6.04204E-15
 -1      3279 2.62073E+01 5.39666E+00-7.14584E-02-2.07003E+00 1.72626E-13 3.30291E-14
 -1      3280 1.87789E+01-4.77722E+00-1.39260E-03 5.77855E+00 1.54127E-13-9.72139E-14
 -1      3281 1.56761E+01-3.68539E+00 1.42058E-01 6.07520E+00 7.76879E-14-7.52315E-14
 -1      3282 2.48168E+01-5.72823E+00-5.63394E-02 3.32111E+00 1.89203E-13 7.29096E-14
 -1      3283 2.22538E+01-5.42876E+00 7.46031E-02 4.68107E+00 1.33407E-13-9.99895E-15
 -1      3284 2.74874E+01-4.34046E+00-1.37064E-01 2.77958E-01 5.18374E-14 2.40884E-13
 -1      3285 2.66187E+01-5.03073E+00 7.96618E-02 1.70739E+00 1.48652E-13 1.08032E-13
 -1      3286 2.93525E+01-2.93740E+00-1.46324E-01-6.21030E-02-8.79297E-14-3.72286E-13
 -1      3287 2.00233E+01 2.21849E+00-3.67225E-03 6.59452E-02 7.95103E-14-3.40837E-13
 -1      3288 2.00229E+01 2.21936E+00-3.62165E-03-5.80629E-02 4.02172E-14-3.48813E-13
 -1      3289 2.01373E+01 1.92264E+00 4.96705E-03 1.01408E-01 8.70686E-14-3.32278E-13
 -1      3290 2.50832E+01 4.77408E+00-7.36224E-02-2.44647E-01 2.20907E-13-1.45153E-14
 -1      3291 2.02503E+01 1.46249E+00 6.24436E-03 5.85732E-01 1.86420E-13-1.85479E-13
 -1      3292 2.01580E+01 1.80144E+00-6.96559E-03 6.85059E-01 2.07859E-13-2.38019E-13
 -1      3293 2.01227E+01 1.93105E+00-2.51243E-03 5.89584E-01 1.76945E-13-2.48497E-13
 -1      3294 2.02933E+01 1.02404E+00 5.66583E-03-5.79600E-01-1.65270E-13-2.69451E-13
 -1      3295 2.02590E+01 8.56040E-01-3.17671E-03-4.44431E-01-1.58684E-13-2.74555E-13
 -1      3296 2.02843E+01 8.92087E-01 1.16158E-03-3.91173E-01-1.44957E-13-2.87359E-13
 -1      3297 2.02495E+01 1.36306E+00-4.15893E-03-8.10410E-01-2.01373E-13-2.74202E-13
 -1      3298 2.26397E+01 3.39405E+00-1.73732E-02-6.02386E-01 2.61992E-13 2.39288E-13
 -1      3299 2.26143E+01 3.18521E+00-3.82984E-02 6.99368E-02 3.01386E-13 1.06461E-13
 -1      3300 2.00543E+01 1.00737E-01 2.50931E-03-1.16217E-01 5.78630E-14-6.07489E-14
 -1      3301 2.01424E+01 1.60250E-01-1.37505E-03-7.72313E-02 5.81220E-14-1.01749E-13
 -1      3302 2.00343E+01 5.90994E-02-5.10764E-04-1.44283E-01 2.33071E-14-6.78766E-14
 -1      3303 2.36762E+01 3.39038E+00-2.74157E-02 4.82191E-01 2.50421E-13 8.13707E-14
 -1      3304 2.00715E+01-2.15486E-03-9.54448E-04-1.69170E-01 5.71945E-14-8.40025E-14
 -1      3305 2.00081E+01 2.41605E-03-1.24272E-04-1.74780E-01 3.46580E-14-3.67036E-14
 -1      3306 2.00187E+01 2.80138E-02 1.58764E-03-1.63434E-01 4.63084E-15-6.64214E-14
 -1      3307 2.08066E+01-4.40574E+00-4.72439E-02-3.69018E+00-1.02272E-13 1.85456E-13
 -1      3308 2.76944E+01-4.20319E-01-1.49226E-01 4.61071E-01 3.99202E-13 2.24050E-13
 -1      3309 2.65528E+01 5.24124E-01 2.23367E-03 9.65285E-01 3.79873E-13 1.01211E-13
 -1      3310 2.52563E+01 3.96596E+00-6.98397E-02-2.34922E+00 1.14145E-13-6.05592E-15
 -1      3311 1.54090E+01-2.84857E+00 1.09802E-01 5.39434E+00 1.00316E-13 1.22263E-14
 -1      3312 2.00595E+01 2.11107E+00-3.60476E-03-3.83973E-01-4.09309E-14-3.41123E-13
 -1      3313 2.00842E+01 2.03262E+00-5.96489E-03-4.96124E-01-7.32823E-14-3.40328E-13
 -1      3314 2.26734E+01 1.67307E-01-3.47052E-02 1.17401E+00 6.65084E-14 3.60064E-13
 -1      3315 2.41999E+01-2.00759E-01 5.13983E-03 6.94704E-01 2.13394E-13 5.48311E-14
 -1      3316 2.70531E+01-4.41387E+00-1.97805E-02 2.83915E+00 3.21805E-13-4.44415E-13
 -1      3317 2.01210E+01 1.93872E+00-2.45886E-03-5.84157E-01-1.03347E-13-3.11180E-13
 -1      3318 2.01581E+01 1.80847E+00-6.67979E-03-6.84605E-01-1.52626E-13-3.03235E-13
 -1      3319 2.02005E+01 1.70046E+00 5.12926E-03-4.57010E-01-7.99684E-14-2.85337E-13
 -1      3320 2.00896E+01 2.02504E+00-5.40383E-03 5.04431E-01 1.75272E-13-2.58388E-13
 -1      3321 2.00642E+01 2.10532E+00-3.06488E-03 3.91166E-01 1.40730E-13-2.93360E-13
 -1      3322 2.01598E+01 1.84766E+00 5.22846E-03 2.91001E-01 1.29956E-13-2.84493E-13
 -1      3323 2.02009E+01 1.69600E+00 5.74434E-03 4.59290E-01 1.59938E-13-2.45326E-13
 -1      3324 2.52311E+01 2.50442E-01 2.64923E-02 9.15422E-01 2.93626E-13 1.19953E-13
 -1      3325 1.25610E+01-1.41775E+00 1.32696E-01-3.40497E+00-2.93918E-13-4.32418E-13
 -1      3326 2.77231E+01-1.66640E+00-2.17644E-03-6.42619E-01 2.69507E-13 2.49134E-13
 -1      3327 9.36487E+00-2.64446E-01 1.55710E-01-4.60622E-01-1.62292E-13 1.24054E-13
 -1      3328 1.08347E+01-1.13922E-01 9.20894E-02-1.21214E+00-2.03471E-13 8.71941E-14
 -1      3329 1.01888E+01-9.59323E-03 5.85735E-02 7.45164E-01-1.17850E-13 1.47229E-13
 -1      3330 2.01761E+01 4.88875E-01-2.16666E-03 2.20085E-01 1.76046E-13-6.92100E-14
 -1      3331 2.02327E+01 6.35275E-01 4.23060E-03 3.61792E-01 1.85222E-13-6.93915E-14
 -1      3332 2.02562E+01 7.76898E-01-4.82554E-03 4.19025E-01 1.93053E-13-7.65119E-14
 -1      3333 2.02284E+01 5.22650E-01-1.99918E-03 1.98669E-01 1.58373E-13-6.33062E-14
 -1      3334 2.73850E+01-3.19172E+00-3.77347E-02-8.91681E-01 9.22526E-14 2.19810E-13
 -1      3335 2.53012E+01-5.08517E+00 1.29273E-02 2.18590E+00 1.88963E-13 5.56846E-14
 -1      3336 1.78829E+01-3.55505E+00 1.35977E-01-4.42532E+00-1.29889E-13 3.79557E-14
 -1      3337 1.08318E+01-9.76264E-01 1.37142E-01 3.72115E+00 1.25022E-13-1.44509E-13
 -1      3338 1.07590E+01-3.71712E-01 6.89584E-02 2.57918E+00 1.13399E-13 7.39964E-14
 -1      3339 1.26118E+01-1.13439E+00 8.01314E-02 4.02714E+00 1.54590E-13-1.25761E-13
 -1      3340 2.08353E+01-4.94921E+00 6.30170E-02 5.04818E+00 1.49408E-13-1.53952E-13
 -1      3341 1.92863E+01-4.07439E+00 3.41521E-02 5.03610E+00 5.94490E-14-1.01051E-13
 -1      3342 2.23014E+01-4.82246E+00 2.60693E-02 3.88175E+00 3.74700E-14 3.54231E-15
 -1      3343 2.35885E+01 3.86398E+00-5.27703E-02-1.10507E+00 2.25195E-13 1.31763E-13
 -1      3344 1.72313E+01-2.57442E+00 5.52329E-02-4.04341E+00-2.56725E-13-1.06325E-13
 -1      3345 1.47577E+01-1.25362E+00 5.64004E-02-3.66234E+00-3.63029E-13-3.84401E-13
 -1      3346 1.74303E+01-1.64489E+00 4.61588E-02-3.42433E+00-3.03459E-13-1.12941E-13
 -1      3347 1.70516E+01-8.12333E-01-5.36430E-03-3.07762E+00-2.88328E-13-1.17980E-13
 -1      3348 2.00292E+01 2.20200E+00-3.34354E-03-1.62818E-01 1.74262E-14-3.64736E-13
 -1      3349 2.00420E+01 2.16528E+00-4.11201E-03-2.84235E-01-1.74559E-14-3.55542E-13
 -1      3350 2.01594E+01 1.85380E+00 6.18390E-03-2.85862E-01-2.87011E-14-3.24909E-13
 -1      3351 2.86781E+01-4.27294E+00 1.39494E-02 1.84722E+00-2.94625E-14-5.60940E-13
 -1      3352 2.02659E+01 2.36510E-01 2.16461E-03 3.99909E-02-8.82830E-14-1.71698E-13
 -1      3353 2.02413E+01 1.60978E-01-1.28689E-03 8.06487E-02-7.24030E-14-1.54709E-13
 -1      3354 2.02264E+01 1.01932E-01 1.62429E-03 1.06606E-01-6.00860E-14-1.46956E-13
 -1      3355 2.02048E+01 5.29831E-02-6.61349E-04 1.28254E-01-5.45597E-14-1.30138E-13
 -1      3356 2.02825E+01 1.58232E-01-4.24394E-04 7.68535E-02-5.86036E-14-1.21508E-13
 -1      3357 2.01872E+01 1.56425E-02 1.13563E-03 1.40374E-01-6.03206E-14-1.31283E-13
 -1      3358 2.01693E+01-1.44663E-02-2.30218E-04 1.48947E-01-4.25027E-14-1.05846E-13
 -1      3359 2.02446E+01 4.70831E-02-5.85981E-04 1.17972E-01-5.98633E-14-8.98934E-14
 -1      3360 2.01515E+01-3.65854E-02 7.40497E-04 1.51705E-01-3.05301E-14-1.33433E-13
 -1      3361 2.01373E+01-5.35198E-02 4.99841E-05 1.51814E-01-2.69489E-14-8.81093E-14
 -1      3362 2.02060E+01-2.21299E-02-6.25386E-04 1.35544E-01-2.26294E-14-7.81151E-14
 -1      3363 2.01206E+01-6.50890E-02 4.40625E-04 1.48702E-01-1.55088E-14-7.31833E-14
 -1      3364 2.01096E+01-7.29517E-02 2.19943E-04 1.43772E-01-9.52760E-15-5.69401E-14
 -1      3365 2.01698E+01-6.17641E-02-6.00266E-04 1.37482E-01-9.15194E-15-4.69670E-14
 -1      3366 2.00947E+01-7.73306E-02 2.23222E-04 1.37387E-01-4.43285E-14-2.49792E-14
 -1      3367 2.00864E+01-7.90662E-02 3.13716E-04 1.29874E-01-2.27650E-14-3.17441E-14
 -1      3368 2.01376E+01-8.08861E-02-5.44254E-04 1.29889E-01-3.65610E-14-3.05679E-14
 -1      3369 2.00735E+01-7.86319E-02 6.96486E-05 1.22067E-01-4.27818E-14-9.13546E-14
 -1      3370 2.00674E+01-7.62981E-02 3.58456E-04 1.13691E-01-1.42295E-14-1.19720E-13
 -1      3371 2.01099E+01-8.60493E-02-4.72202E-04 1.17249E-01-7.58131E-14-7.35981E-14
 -1      3372 2.00565E+01-7.26814E-02-3.74894E-05 1.05757E-01 1.57612E-14-1.81481E-13
 -1      3373 2.00523E+01-6.76623E-02 3.74306E-04 9.77094E-02-5.04645E-14-1.94841E-13
 -1      3374 2.00867E+01-8.18795E-02-3.96889E-04 1.02752E-01-5.39871E-14-1.98976E-13
 -1      3375 2.00432E+01-6.19310E-02-1.13731E-04 9.05443E-02-8.82446E-14-1.67708E-13
 -1      3376 2.00403E+01-5.51001E-02 3.74964E-04 8.36493E-02-1.17741E-13-8.64023E-14
 -1      3377 2.00676E+01-7.14974E-02-3.21802E-04 8.86347E-02-2.74770E-14-2.17891E-13
 -1      3378 2.00327E+01-4.78962E-02-1.72256E-04 7.78830E-02-1.49783E-13-2.61397E-14
 -1      3379 2.00309E+01-3.97429E-02 3.70270E-04 7.27315E-02-1.41658E-13-5.04507E-15
 -1      3380 2.00520E+01-5.68958E-02-2.50540E-04 7.64660E-02-1.00168E-13-6.78056E-14
 -1      3381 2.00244E+01-3.13890E-02-2.23388E-04 6.88288E-02-1.67296E-13 4.35679E-14
 -1      3382 2.00234E+01-2.21112E-02 3.68065E-04 6.58754E-02-1.00903E-13 6.51771E-14
 -1      3383 2.00392E+01-3.92059E-02-1.82439E-04 6.73759E-02-1.01050E-13-3.73763E-15
 -1      3384 2.00176E+01-1.26867E-02-2.75471E-04 6.42190E-02-8.80690E-14 5.48251E-14
 -1      3385 2.00172E+01-2.26542E-03 3.74235E-04 6.38628E-02-1.03181E-13 2.93928E-14
 -1      3386 2.00282E+01-1.89096E-02-1.15716E-04 6.22353E-02-1.07375E-13-1.90382E-15
 -1      3387 2.00116E+01 8.32233E-03-3.35006E-04 6.48215E-02-4.94074E-14 7.52509E-14
 -1      3388 2.00115E+01 2.00503E-02 3.92192E-04 6.74625E-02 3.53484E-15 7.15431E-14
 -1      3389 2.00184E+01 3.99483E-03-4.89398E-05 6.18117E-02-5.11921E-14 8.88944E-15
 -1      3390 2.00056E+01 3.19969E-02-4.06966E-04 7.14370E-02-1.42527E-14 6.79074E-14
 -1      3391 2.00056E+01 4.52689E-02 4.24131E-04 7.75118E-02 2.77098E-14 1.78328E-14
 -1      3392 2.00085E+01 2.98338E-02 2.00545E-05 6.68822E-02 8.20329E-15 7.24281E-14
 -1      3393 1.99988E+01 5.88051E-02-4.94714E-04 8.49636E-02 4.17558E-14-1.41887E-14
 -1      3394 1.99987E+01 7.38588E-02 4.71680E-04 9.49642E-02 2.71549E-14-3.41580E-14
 -1      3395 1.99977E+01 5.91003E-02 9.31360E-05 7.83067E-02-5.94171E-15 1.63662E-14
 -1      3396 1.99906E+01 8.91705E-02-5.99401E-04 1.06433E-01 3.57222E-14-6.95609E-15
 -1      3397 1.99902E+01 1.06152E-01 5.36044E-04 1.20907E-01 6.97720E-14-1.36831E-14
 -1      3398 1.99849E+01 9.22899E-02 1.70891E-04 9.70766E-02 4.55483E-14-4.96162E-14
 -1      3399 1.99801E+01 1.23277E-01-7.19106E-04 1.37016E-01 1.28561E-14-3.75794E-14
 -1      3400 1.99794E+01 1.42117E-01 6.18289E-04 1.56544E-01-1.53494E-14-1.16040E-14
 -1      3401 1.99689E+01 1.29700E-01 2.51690E-04 1.24340E-01 1.15913E-14 2.92955E-15
 -1      3402 1.99667E+01 1.60807E-01-8.47565E-04 1.77985E-01-5.30240E-14-4.90755E-14
 -1      3403 1.99658E+01 1.81059E-01 7.19882E-04 2.03133E-01-8.30057E-14-5.95509E-14
 -1      3404 1.99486E+01 1.71167E-01 3.29993E-04 1.61399E-01-4.66964E-14-5.37653E-14
 -1      3405 1.99502E+01 2.00592E-01-9.72235E-04 2.30638E-01-9.69832E-14-5.84273E-14
 -1      3406 1.99493E+01 2.21212E-01 8.43519E-04 2.61879E-01-8.02531E-14-7.71155E-14
 -1      3407 1.99233E+01 2.15708E-01 3.93914E-04 2.09679E-01-4.56645E-14-5.59635E-14
 -1      3408 1.99309E+01 2.40145E-01-1.07154E-03 2.96160E-01-9.46782E-14-4.48387E-14
 -1      3409 1.99305E+01 2.59204E-01 9.94265E-04 3.33752E-01-3.95094E-14-3.94161E-14
 -1      3410 1.98926E+01 2.61058E-01 4.21771E-04 2.70657E-01-7.90062E-14 7.00675E-14
 -1      3411 1.99100E+01 2.75057E-01-1.11106E-03 3.75425E-01 4.79059E-14-9.38287E-14
 -1      3412 1.99114E+01 2.89383E-01 1.18088E-03 4.19245E-01 9.01683E-14-3.48755E-14
 -1      3413 1.98569E+01 3.03059E-01 3.77293E-04 3.45757E-01 2.56453E-14 1.13660E-13
 -1      3414 1.98905E+01 2.98258E-01-1.03818E-03 4.68698E-01 3.51994E-14-9.37579E-14
 -1      3415 1.98962E+01 3.03018E-01 1.41652E-03 5.18010E-01-1.47620E-14 1.72374E-14
 -1      3416 1.98184E+01 3.34900E-01 2.03145E-04 4.36192E-01 7.25882E-14-2.61984E-16
 -1      3417 1.98783E+01 2.99175E-01-7.74337E-04 5.75226E-01 1.06076E-14 1.50640E-14
 -1      3418 1.98923E+01 2.87433E-01 1.71669E-03 6.28364E-01 1.03255E-13 1.00627E-13
 -1      3419 1.97815E+01 3.46227E-01-1.87605E-04 5.42726E-01 2.70007E-14-1.11840E-13
 -1      3420 1.98833E+01 2.62903E-01-2.03802E-04 6.92617E-01 5.84436E-16-3.22692E-15
 -1      3421 1.99121E+01 2.25273E-01 2.08902E-03 7.46531E-01 1.52141E-15-1.50398E-13
 -1      3422 1.97548E+01 3.22192E-01-9.22320E-04 6.65300E-01 1.35590E-14-9.86178E-14
 -1      3423 1.99218E+01 1.69671E-01 8.42202E-04 8.15863E-01-1.59380E-14-1.83484E-13
 -1      3424 1.99748E+01 9.42653E-02 2.50467E-03 8.65430E-01-7.94081E-14-2.22232E-13
 -1      3425 1.97526E+01 2.42637E-01-2.18160E-03 8.02369E-01-8.40496E-14-2.52902E-13
 -1      3426 2.00182E+01-4.86857E-03 2.60519E-03 9.35664E-01-1.44064E-13-3.02430E-13
 -1      3427 2.01089E+01-1.31727E-01 2.83311E-03 9.72581E-01-5.28060E-14-4.12172E-13
 -1      3428 1.97977E+01 8.18023E-02-4.21012E-03 9.49596E-01-1.71073E-13-3.73497E-13
 -1      3429 2.02080E+01-2.87401E-01 5.40956E-03 1.03542E+00 1.17922E-13-3.99550E-13
 -1      3430 2.03531E+01-4.78826E-01 2.73302E-03 1.04643E+00 1.53076E-13-2.21968E-13
 -1      3431 1.99244E+01-1.90572E-01-7.31047E-03 1.09722E+00 1.52243E-14-4.62280E-13
 -1      3432 2.05385E+01-7.00651E-01 9.64634E-03 1.08592E+00 6.34911E-14-1.81943E-13
 -1      3433 2.07559E+01-9.63499E-01 1.46779E-03 1.05027E+00-3.25944E-15-1.88843E-13
 -1      3434 2.01815E+01-6.04960E-01-1.17637E-02 1.22480E+00 1.50309E-13-4.30650E-13
 -1      3435 2.10659E+01-1.24928E+00 1.54848E-02 1.03702E+00 2.13028E-14-8.36531E-14
 -1      3436 2.13670E+01-1.57203E+00-2.04299E-03 9.23881E-01-7.29083E-15 3.17916E-14
 -1      3437 2.06338E+01-1.18047E+00-1.75745E-02 1.29172E+00 7.78936E-14-3.49962E-13
 -1      3438 2.18401E+01-1.89072E+00 2.29187E-02 8.06707E-01-1.57162E-13 1.39250E-13
 -1      3439 2.22155E+01-2.21859E+00-7.84628E-03 5.75943E-01-1.66200E-13 1.72180E-13
 -1      3440 2.13566E+01-1.90057E+00-2.38521E-02 1.22143E+00 1.06109E-14-1.12817E-13
 -1      3441 2.28629E+01-2.48711E+00 2.76265E-02 2.83267E-01-2.12620E-13 2.43103E-13
 -1      3442 2.32753E+01-2.67768E+00-1.12419E-02-1.03841E-01-2.09721E-13 1.80010E-13
 -1      3443 2.24062E+01-2.65294E+00-2.75839E-02 8.87446E-01-1.56276E-13 1.84560E-13
 -1      3444 2.40125E+01-2.71923E+00 1.88844E-02-6.08230E-01-2.11825E-13 2.26634E-13
 -1      3445 2.43853E+01-2.56311E+00-2.12684E-02-1.14222E+00-9.82599E-14 1.97119E-13
 -1      3446 2.37714E+01-3.06055E+00 7.75819E-04 1.02220E-01-1.73130E-13 3.88342E-13
 -1      3447 2.60432E+01-8.17903E-01-2.30750E-02-2.74168E+00 1.40259E-13 1.14436E-13
 -1      3448 2.59866E+01 5.18487E-01-2.93393E-02-2.92354E+00 1.84679E-13 7.35106E-14
 -1      3449 2.03110E+01 7.35986E-01 1.59901E-03-2.41230E-01-1.12969E-13-2.59809E-13
 -1      3450 2.02953E+01 5.73419E-01-2.53155E-03-1.40991E-01-1.14207E-13-2.41677E-13
 -1      3451 2.00333E+01-6.35771E-02 3.71953E-04-1.05388E-01 4.80117E-15-1.26867E-13
 -1      3452 2.00350E+01-6.78357E-02-7.06571E-05-1.14200E-01 1.93860E-14-1.31534E-13
 -1      3453 2.00439E+01-7.07562E-02 3.56268E-04-1.22919E-01 3.26093E-14-1.24558E-13
 -1      3454 2.00471E+01-7.24909E-02 4.30473E-05-1.32001E-01 3.19329E-14-9.96924E-14
 -1      3455 2.00675E+01-7.73216E-02-3.73479E-04-1.13622E-01 3.68823E-14-9.61470E-14
 -1      3456 2.00201E+01-3.93624E-02 3.74191E-04-7.72379E-02-2.76610E-14-8.80805E-15
 -1      3457 2.00197E+01-4.65169E-02-1.98751E-04-8.31519E-02 1.15948E-14-9.81751E-14
 -1      3458 2.00164E+01-2.38697E-02 3.78796E-04-6.89038E-02 2.55114E-14 8.75949E-14
 -1      3459 2.00154E+01-3.20666E-02-2.41847E-04-7.25798E-02-1.31945E-14 5.10923E-14
 -1      3460 2.00311E+01-4.00029E-02-1.77814E-04-7.31727E-02-5.83745E-14-8.07364E-14
 -1      3461 2.00140E+01-6.28178E-03 3.93379E-04-6.55601E-02 6.60205E-14 1.04375E-14
 -1      3462 2.00124E+01-1.55727E-02-2.84733E-04-6.65757E-02 1.04755E-13 6.26446E-14
 -1      3463 2.00237E+01-2.18414E-02-1.23911E-04-6.65859E-02 4.55639E-14 5.85058E-16
 -1      3464 2.00123E+01 1.37838E-02 4.21555E-04-6.80276E-02-7.00699E-14 1.71996E-14
 -1      3465 2.00103E+01 3.15807E-03-3.36458E-04-6.59493E-02-7.25874E-15 1.04036E-14
 -1      3466 2.00175E+01-1.14035E-03-6.97820E-05-6.49540E-02 7.02142E-14-1.08253E-14
 -1      3467 2.00108E+01 3.70294E-02 4.65101E-04-7.72243E-02-3.66795E-14 1.66168E-13
 -1      3468 2.00085E+01 2.46723E-02-4.05107E-04-7.15547E-02-7.67492E-14 3.79173E-14
 -1      3469 2.00116E+01 2.25985E-02-1.14593E-05-6.90940E-02-9.59876E-14-1.52041E-14
 -1      3470 2.00088E+01 6.44259E-02 5.24442E-04-9.42400E-02 7.99618E-14 1.95856E-13
 -1      3471 2.00063E+01 4.98087E-02-4.98120E-04-8.43812E-02 4.97458E-14 1.61620E-13
 -1      3472 2.00050E+01 5.02220E-02 5.80736E-05-7.99148E-02-3.91613E-14-5.56551E-14
 -1      3473 2.00054E+01 9.71794E-02 5.97936E-04-1.20383E-01 2.05056E-13 1.53939E-13
 -1      3474 2.00029E+01 7.96571E-02-6.23421E-04-1.05613E-01 1.82641E-13 1.47394E-13
 -1      3475 1.99967E+01 8.28625E-02 1.47657E-04-9.84697E-02 1.54891E-13-6.59259E-15
 -1      3476 1.99992E+01 1.36701E-01 6.81385E-04-1.57198E-01 1.32812E-13 2.25109E-13
 -1      3477 1.99971E+01 1.15529E-01-7.89726E-04-1.36660E-01 1.46188E-13 2.02386E-13
 -1      3478 1.99851E+01 1.21897E-01 2.68945E-04-1.25983E-01 1.73236E-13 1.19380E-13
 -1      3479 1.99886E+01 1.84568E-01 7.67236E-04-2.06458E-01-2.29669E-14 2.42690E-13
 -1      3480 1.99874E+01 1.58924E-01-1.00692E-03-1.79166E-01 8.23022E-14 2.49477E-13
 -1      3481 1.99682E+01 1.68905E-01 4.37598E-04-1.63846E-01 6.17472E-14 2.25261E-13
 -1      3482 1.99710E+01 2.42444E-01 8.43839E-04-2.70107E-01-1.35909E-14 1.51567E-13
 -1      3483 1.99717E+01 2.11474E-01-1.28648E-03-2.34974E-01-2.20973E-14 1.67238E-13
 -1      3484 1.99435E+01 2.25601E-01 6.74517E-04-2.13565E-01 9.60695E-15 1.95795E-13
 -1      3485 1.99428E+01 3.11941E-01 8.95271E-04-3.50164E-01-4.71026E-14 1.35076E-13
 -1      3486 1.99468E+01 2.74844E-01-1.64176E-03-3.06052E-01 2.24675E-14 1.42437E-13
 -1      3487 1.99072E+01 2.93730E-01 1.00712E-03-2.76676E-01 1.78827E-14-1.61625E-14
 -1      3488 1.98991E+01 3.94328E-01 9.02890E-04-4.48570E-01-1.25801E-13 8.85727E-14
 -1      3489 1.99085E+01 3.50523E-01-2.08838E-03-3.94378E-01-1.05750E-13 1.44734E-13
 -1      3490 1.98547E+01 3.74870E-01 1.47030E-03-3.54603E-01-5.58942E-14 7.92164E-14
 -1      3491 1.98330E+01 4.89987E-01 8.50903E-04-5.67012E-01-1.02062E-13 1.61830E-13
 -1      3492 1.98508E+01 4.39427E-01-2.64478E-03-5.01777E-01-1.09307E-13 1.68314E-13
 -1      3493 1.97794E+01 4.70066E-01 2.10633E-03-4.48491E-01-1.38132E-13 7.56081E-14
 -1      3494 1.97358E+01 5.97419E-01 7.40019E-04-7.06763E-01-2.36476E-14 9.02142E-14
 -1      3495 1.97658E+01 5.41154E-01-3.33363E-03-6.29775E-01-4.30231E-14 1.00437E-13
 -1      3496 1.96727E+01 5.79182E-01 2.96234E-03-5.59048E-01-4.35199E-14 1.16229E-13
 -1      3497 1.95967E+01 7.11487E-01 6.15598E-04-8.68715E-01-3.19475E-14 5.99613E-14
 -1      3498 1.96434E+01 6.52646E-01-4.18585E-03-7.79551E-01-2.56744E-14 1.11203E-13
 -1      3499 1.95236E+01 6.99768E-01 4.08307E-03-6.86546E-01-3.58038E-14 1.51231E-13
 -1      3500 1.94036E+01 8.20460E-01 6.20198E-04-1.05392E+00-1.57540E-13 6.51589E-14
 -1      3501 1.94713E+01 7.65877E-01-5.25003E-03-9.52250E-01-7.91757E-14 3.46465E-14
 -1      3502 1.93181E+01 8.25180E-01 5.49517E-03-8.31231E-01-4.92950E-14 1.36815E-13
 -1      3503 1.91454E+01 9.01284E-01 1.08626E-03-1.26521E+00-3.85689E-15 1.47132E-13
 -1      3504 1.92363E+01 8.64065E-01-6.60947E-03-1.15011E+00-1.41907E-13 1.46779E-13
 -1      3505 1.90402E+01 9.41557E-01 7.17908E-03-9.94673E-01-1.76140E-13 9.47237E-14
 -1      3506 1.88178E+01 9.12399E-01 2.74878E-03-1.51096E+00-3.84555E-14 1.29582E-13
 -1      3507 1.89273E+01 9.15758E-01-8.38951E-03-1.37923E+00 6.86480E-14 1.41919E-13
 -1      3508 1.86721E+01 1.02325E+00 9.03145E-03-1.18298E+00-1.53009E-14 1.55176E-13
 -1      3509 1.84311E+01 7.81909E-01 6.10753E-03-1.81233E+00-1.01570E-13 3.19249E-14
 -1      3510 1.85414E+01 8.65779E-01-1.06536E-02-1.65537E+00-5.32464E-14 7.65555E-14
 -1      3511 1.81973E+01 1.02603E+00 1.08143E-02-1.41335E+00-4.16668E-14 9.43490E-14
 -1      3512 1.80239E+01 3.92256E-01 1.12466E-02-2.21279E+00-2.34313E-13-8.08717E-15
 -1      3513 1.80976E+01 6.23247E-01-1.27935E-02-2.00818E+00-1.07702E-13 4.43439E-14
 -1      3514 1.76133E+01 8.74182E-01 1.37640E-02-1.72724E+00-1.28727E-13 1.44021E-14
 -1      3515 1.76058E+01-3.39626E-01 2.08621E-02-2.71826E+00-2.13187E-13-5.72476E-14
 -1      3516 1.75581E+01 1.21531E-01-1.63730E-02-2.44168E+00-2.19411E-13-9.33776E-14
 -1      3517 1.68645E+01 5.45311E-01 2.60322E-02-2.10651E+00-1.16235E-13-1.18679E-13
 -1      3518 1.58810E+01-5.28362E-02 3.80559E-02-2.63861E+00-2.42254E-13-1.83239E-13
 -1      3519 2.50147E+01 1.03856E+00-9.55398E-02 1.24415E+00 2.72239E-13-6.15506E-14
 -1      3520 2.41990E+01 4.26382E+00-8.56077E-02-1.69143E+00 1.37869E-13 2.16061E-13
 -1      3521 2.46729E+01 3.39945E+00-2.61372E-02-2.54461E+00 9.47853E-14 8.09095E-14
 -1      3522 2.51317E+01-1.75480E+00-2.39948E-02-2.04607E+00 2.59966E-14 1.70038E-13
 -1      3523 2.65463E+01-2.34113E+00-6.42391E-02-1.75609E+00 4.24799E-14 1.85318E-13
 -1      3524 2.62926E+01-3.68768E+00 5.66282E-02-3.36468E-01-4.07174E-14 1.81955E-13
 -1      3525 2.49580E+01-2.33908E+00 2.13885E-02-1.57149E+00-5.94264E-14 1.55187E-13
 -1      3526 2.41604E+01 4.58661E+00-4.23119E-02-7.98839E-01 2.52257E-13 1.16362E-13
 -1      3527 1.30562E+01-5.36482E-01 4.97786E-02-2.76079E+00-3.07815E-13-3.59199E-13
 -1      3528 2.69529E+01 9.05285E-01-1.67298E-03-3.01673E+00 1.73722E-13-6.80775E-14
 -1      3529 2.02343E+01 3.20207E-01-2.17437E-03 1.50697E-02 9.51276E-14-1.00059E-13
 -1      3530 2.02650E+01 4.29646E-01 3.06750E-03 8.89795E-02 1.18505E-13-8.30779E-14
 -1      3531 2.00255E+01-5.27553E-02 3.74239E-04-8.97274E-02 5.11502E-14-1.32988E-13
 -1      3532 2.00261E+01-5.86924E-02-1.45680E-04-9.74002E-02 2.37691E-14-1.46671E-13
 -1      3533 2.00523E+01-6.85026E-02-3.00510E-04-9.77866E-02 4.11959E-14-1.31260E-13
 -1      3534 2.00404E+01-5.57019E-02-2.35811E-04-8.38916E-02-1.82956E-14-1.12744E-13
 -1      3535 2.44616E+01 4.25899E+00-2.89539E-02 3.18731E-01 2.02095E-13 8.83859E-14
 -1      3536 2.44930E+01 3.33180E+00-1.02305E-01 9.43895E-01 2.59206E-13 3.02917E-14
 -1      3537 2.00989E+01-4.64146E-02 5.42867E-05-1.63499E-01 5.73226E-14-7.43854E-14
 -1      3538 2.01105E+01-2.98692E-02 8.08762E-04-1.63211E-01 7.94743E-14-9.61300E-14
 -1      3539 2.02447E+01 1.38127E+00-5.02931E-03-7.13789E-01-1.85667E-13-2.90178E-13
 -1      3540 2.50769E+01 2.30283E+00-1.47869E-02 1.22490E+00 3.19453E-13-2.93533E-14
 -1      3541 2.02992E+01 4.38757E-01 2.52743E-03-7.18443E-02-9.76003E-14-2.06352E-13
 -1      3542 2.02742E+01 3.26252E-01-2.11333E-03-5.06502E-03-9.69396E-14-2.07779E-13
 -1      3543 2.03141E+01 3.27866E-01-6.25926E-05 2.63648E-03-7.24989E-14-1.58610E-13
 -1      3544 1.68820E+01-2.91549E+00 1.54874E-02 5.02287E+00 9.59892E-14-1.06241E-13
 -1      3545 1.48987E+01-1.93866E+00 6.56566E-02 4.71751E+00 1.76394E-13-1.27599E-13
 -1      3546 2.53577E+01-4.63340E+00-7.45051E-02 1.18330E+00 1.01516E-14-6.07327E-15
 -1      3547 2.41687E+01-4.76672E+00 4.49269E-02 2.48520E+00 5.69132E-14-7.32231E-14
 -1      3548 2.02774E+01 1.14165E+00-4.89622E-03 4.92638E-01 1.91254E-13-1.49441E-13
 -1      3549 2.02653E+01 1.28617E+00-1.61993E-04 4.53078E-01 1.62053E-13-1.84112E-13
 -1      3550 2.01367E+01 1.92428E+00 5.04466E-03-9.48324E-02 3.66926E-14-3.29080E-13
 -1      3551 1.57338E+01-1.37899E+00 2.94985E-02 3.95077E+00 1.36992E-13 1.82840E-14
 -1      3552 1.41985E+01-1.27840E+00 6.57517E-02 4.22833E+00 9.08683E-14-1.73535E-13
 -1      3553 1.35891E+01-6.12636E-01 2.57126E-02 3.39802E+00 1.01254E-13-1.15675E-13
 -1      3554 2.01027E+01 6.01225E-02-1.18607E-03-1.40406E-01 1.82365E-14-1.12150E-13
 -1      3555 2.02947E+01 8.78521E-01-2.40032E-03-3.12555E-01-1.09819E-13-2.54114E-13
 -1      3556 2.03212E+01 8.81062E-01 1.70746E-03-2.60282E-01-1.06526E-13-2.43990E-13
 -1      3557 2.02978E+01 1.03541E+00-8.98877E-04-4.16174E-01-1.32421E-13-2.49978E-13
 -1      3558 2.49833E+01-3.16230E+00-5.37944E-02-7.44616E-01-1.69298E-13 3.82520E-13
 -1      3559 2.52233E+01-3.77933E+00 6.91956E-03 1.69931E-01-1.05403E-13 4.62946E-14
 -1      3560 2.03300E+01 5.76586E-01 2.27085E-04-1.14435E-01-9.55397E-14-2.17452E-13
 -1      3561 2.47908E+01 2.14674E+00-1.34976E-01-3.07507E+00 1.32880E-13 4.22579E-14
 -1      3562 2.01967E+01 1.60334E-01-1.31163E-03-8.17827E-02 5.62686E-14-1.44564E-13
 -1      3563 2.02236E+01 2.33481E-01 2.57052E-03-3.69079E-02 7.38715E-14-1.29400E-13
 -1      3564 2.02809E+01 3.28202E-01-4.13729E-04 6.62664E-03 1.01577E-13-1.33301E-13
 -1      3565 2.01268E+01-8.49956E-03-2.18929E-04-1.59500E-01 4.86858E-14-1.30808E-13
 -1      3566 2.01429E+01 2.06011E-02 1.28189E-03-1.49966E-01 1.22829E-14-1.50862E-13
 -1      3567 2.01710E+01-1.53202E-02-7.03294E-04-1.48198E-01 1.66720E-14-1.94407E-13
 -1      3568 2.00866E+01-8.02043E-02-4.52777E-04-1.29672E-01 6.53603E-14-1.11157E-13
 -1      3569 2.00579E+01-7.24215E-02 3.13523E-04-1.40456E-01 5.02758E-14-6.16318E-14
 -1      3570 2.00632E+01-7.03156E-02 2.11968E-04-1.48531E-01 7.32729E-14-2.83981E-14
 -1      3571 2.02086E+01 1.60937E+00-2.34738E-03-1.95866E-01 1.45810E-14-3.14753E-13
 -1      3572 2.02214E+01 1.55364E+00-4.08346E-03-2.81718E-01-2.39976E-14-2.94525E-13
 -1      3573 2.02210E+01 1.54810E+00-3.96272E-03 2.85219E-01 1.34302E-13-2.62321E-13
 -1      3574 2.02103E+01 1.60653E+00-2.02028E-03 2.01408E-01 1.07592E-13-2.98799E-13
 -1      3575 2.03012E+01 1.20835E+00 3.93530E-03-2.75010E-01-5.76273E-14-2.37380E-13
 -1      3576 2.02481E+01 1.40207E+00-2.00748E-04-3.71766E-01-8.75514E-14-2.47173E-13
 -1      3577 2.02152E+01 1.52308E+00-1.80827E-03-6.73169E-01-1.73441E-13-2.97347E-13
 -1      3578 2.03047E+01 5.74908E-01-4.31385E-05 1.43268E-01 1.19467E-13-1.23451E-13
 -1      3579 2.02671E+01 5.62881E-01-2.10962E-03 1.70741E-01 1.27263E-13-9.77528E-14
 -1      3580 1.10540E+01 1.33734E-01 1.12783E-01 1.61137E+00 5.07129E-14 1.74860E-13
 -1      3581 1.16702E+01 3.62925E-01 5.26747E-02 6.85607E-01-4.70197E-14 3.22464E-13
 -1      3582 1.21655E+01-1.05948E-02 3.79950E-02 2.24857E+00 1.77035E-13 1.86108E-13
 -1      3583 2.02860E+01 6.86377E-01 1.14018E-03 2.67218E-01 1.52622E-13-1.08493E-13
 -1      3584 2.02014E+01 1.63968E+00-3.33162E-03 1.30379E-01 9.94234E-14-3.24489E-13
 -1      3585 2.01974E+01 1.65953E+00-2.63609E-03 3.98027E-02 6.87305E-14-3.11005E-13
 -1      3586 2.02843E+01 1.38551E+00 4.80838E-03 1.33443E-01 8.80253E-14-2.85152E-13
 -1      3587 2.00761E+01-6.57240E-02 2.21357E-04-1.55288E-01 6.28894E-14-6.39221E-14
 -1      3588 2.00841E+01-5.78054E-02 4.59173E-04-1.60516E-01 7.06866E-14-5.01978E-14
 -1      3589 2.01383E+01-5.46404E-02-6.34079E-04-1.51295E-01 6.22297E-14-6.77501E-14
 -1      3590 2.01101E+01-7.41291E-02-5.37049E-04-1.43419E-01 5.81576E-14-3.24188E-14
 -1      3591 1.85015E+01-3.24554E+00 6.33933E-02 4.69565E+00 4.46396E-14-7.85309E-14
 -1      3592 1.78424E+01-2.42753E+00 1.85275E-02 4.23351E+00 1.81905E-13-1.94374E-13
 -1      3593 1.99215E+01-3.63222E+00-3.55181E-02 4.15746E+00 7.70460E-14-7.68656E-14
 -1      3594 2.30911E+01-4.67675E+00-6.84594E-03 3.06709E+00 3.37525E-14-4.49744E-14
 -1      3595 2.18207E+01-4.06144E+00 4.73125E-02 3.42635E+00 5.91970E-14-1.63519E-13
 -1      3596 2.33883E+01-4.24695E+00-3.13495E-02 2.11692E+00-4.84369E-14-3.71013E-13
 -1      3597 1.24591E+01-8.95371E-02 8.75396E-02-2.10020E+00-1.95467E-13-1.33824E-13
 -1      3598 1.45920E+01 7.97601E-03 5.06960E-02-2.33426E+00-2.40889E-13-2.48737E-13
 -1      3599 1.50319E+01 3.14693E-01-1.84167E-02-2.05601E+00-1.31312E-13-1.30824E-13
 -1      3600 1.23443E+01 3.10461E-01 6.73748E-03-1.04677E+00-1.25394E-13 2.16965E-13
 -1      3601 2.01971E+01 1.66012E+00-2.67214E-03-3.45435E-02 5.49931E-14-2.99853E-13
 -1      3602 2.02008E+01 1.64192E+00-3.22718E-03-1.25145E-01 2.80695E-14-3.34817E-13
 -1      3603 2.02844E+01 1.38847E+00 5.23414E-03-1.29869E-01 1.96713E-14-3.02412E-13
 -1      3604 2.02792E+01 1.42067E+00 5.02602E-03 2.00617E-03 5.65738E-14-2.84012E-13
 -1      3605 2.03329E+01 2.15927E-01 1.36625E-03 4.79620E-02-5.39062E-14-1.47411E-13
 -1      3606 2.03121E+01 1.40916E-01-1.03626E-03 7.71037E-02-6.90115E-14-1.41592E-13
 -1      3607 2.02969E+01 8.16852E-02 1.07824E-03 9.31617E-02-2.98455E-14-1.26841E-13
 -1      3608 2.02753E+01 3.32027E-02-5.20978E-04 1.08378E-01-1.22390E-14-8.76461E-14
 -1      3609 2.03385E+01 1.30329E-01-1.31950E-04 6.90412E-02-3.61142E-14-1.40069E-13
 -1      3610 2.02561E+01-3.96816E-03 8.03518E-04 1.15095E-01-1.23462E-15-8.56895E-14
 -1      3611 2.02357E+01-3.33640E-02-1.50588E-04 1.20647E-01 9.55734E-15-7.49002E-14
 -1      3612 2.02997E+01 2.33657E-02-3.70625E-04 9.40983E-02 3.97284E-15-1.22759E-13
 -1      3613 2.02154E+01-5.48382E-02 5.64023E-04 1.21078E-01 1.17883E-14-5.94997E-14
 -1      3614 2.01972E+01-7.07283E-02 9.50427E-05 1.20385E-01 7.48628E-16-5.33216E-14
 -1      3615 2.02574E+01-4.23263E-02-5.03824E-04 1.03540E-01-3.05692E-15-1.40874E-13
 -1      3616 2.01775E+01-8.12314E-02 3.72092E-04 1.16983E-01-3.47183E-14-5.21788E-14
 -1      3617 2.01619E+01-8.77887E-02 2.41607E-04 1.12640E-01-3.53408E-14-6.77092E-14
 -1      3618 2.02160E+01-7.85210E-02-5.48426E-04 1.02720E-01-9.20668E-15-8.99233E-14
 -1      3619 2.01438E+01-9.08141E-02 2.22500E-04 1.07209E-01-7.72414E-14-8.31364E-14
 -1      3620 2.01308E+01-9.10486E-02 3.19970E-04 1.01079E-01-8.57960E-14-9.92426E-14
 -1      3621 2.01777E+01-9.41733E-02-5.29738E-04 9.58305E-02-5.55691E-14-8.28945E-14
 -1      3622 2.01148E+01-8.90315E-02 1.06520E-04 9.49155E-02-9.27237E-14-1.16857E-13
 -1      3623 2.01042E+01-8.50347E-02 3.54654E-04 8.83384E-02-9.07012E-14-1.42600E-13
 -1      3624 2.01438E+01-9.58509E-02-4.83527E-04 8.59030E-02-1.06615E-13-6.56649E-14
 -1      3625 2.00903E+01-7.96579E-02 1.78013E-05 8.23632E-02-2.04645E-14-1.33901E-13
 -1      3626 2.00817E+01-7.28202E-02 3.61611E-04 7.62722E-02-2.25240E-15-1.34776E-13
 -1      3627 2.01145E+01-8.81027E-02-4.18423E-04 7.51695E-02-4.48525E-14-1.19919E-13
 -1      3628 2.00698E+01-6.51460E-02-5.56481E-05 7.11304E-02-3.15759E-14-1.38501E-13
 -1      3629 2.00629E+01-5.63164E-02 3.52225E-04 6.61950E-02-8.66365E-14-3.80621E-14
 -1      3630 2.00895E+01-7.39822E-02-3.42270E-04 6.51914E-02 5.40622E-15-1.38944E-13
 -1      3631 2.00526E+01-4.69643E-02-1.22141E-04 6.23525E-02-1.01689E-13-2.16777E-14
 -1      3632 2.00470E+01-3.65847E-02 3.35910E-04 5.90649E-02-6.84459E-14 7.87800E-15
 -1      3633 2.00682E+01-5.53678E-02-2.58038E-04 5.70969E-02-5.03206E-14-8.41127E-14
 -1      3634 2.00377E+01-2.58180E-02-1.88664E-04 5.68780E-02-1.17807E-13-3.86119E-14
 -1      3635 2.00329E+01-1.40085E-02 3.21548E-04 5.56403E-02-1.22079E-13-4.75475E-14
 -1      3636 2.00497E+01-3.32682E-02-1.69111E-04 5.17153E-02-1.20558E-13-1.22151E-14
 -1      3637 2.00240E+01-1.82320E-03-2.61220E-04 5.54337E-02-1.53218E-14-4.82987E-14
 -1      3638 2.00196E+01 1.15230E-02 3.13057E-04 5.66266E-02 1.98809E-15-6.08798E-15
 -1      3639 2.00329E+01-7.98209E-03-7.53670E-05 4.97292E-02-3.88930E-14-8.29030E-14
 -1      3640 2.00105E+01 2.53028E-02-3.45148E-04 5.87429E-02 1.21641E-14 7.34053E-14
 -1      3641 2.00059E+01 4.04308E-02 3.12697E-04 6.27657E-02-8.66262E-16 5.12766E-14
 -1      3642 2.00163E+01 2.06903E-02 2.48266E-05 5.18071E-02 4.15649E-14-1.96786E-14
 -1      3643 1.99957E+01 5.60758E-02-4.45426E-04 6.75954E-02-4.69860E-14 1.34458E-13
 -1      3644 1.99905E+01 7.32910E-02 3.23114E-04 7.48965E-02 2.03987E-14 7.10832E-14
 -1      3645 1.99987E+01 5.32506E-02 1.34151E-04 5.86700E-02 1.96056E-14 1.06124E-13
 -1      3646 1.99784E+01 9.10863E-02-5.65733E-04 8.29089E-02 3.27545E-14 6.11077E-14
 -1      3647 1.99719E+01 1.10664E-01 3.47159E-04 9.40068E-02 1.12366E-15 2.78711E-14
 -1      3648 1.99782E+01 9.03351E-02 2.53899E-04 7.11523E-02-3.71453E-15 1.29428E-13
 -1      3649 1.99570E+01 1.30805E-01-7.07826E-04 1.05777E-01 1.52893E-15 4.69969E-14
 -1      3650 1.99488E+01 1.52873E-01 3.88447E-04 1.21268E-01 2.26651E-14 3.05473E-14
 -1      3651 1.99533E+01 1.32526E-01 3.84426E-04 9.02656E-02 2.02733E-14 2.74002E-14
 -1      3652 1.99300E+01 1.75335E-01-8.71169E-04 1.37496E-01-1.27246E-14 1.07266E-14
 -1      3653 1.99197E+01 1.99719E-01 4.52510E-04 1.58051E-01-2.78028E-14 3.95712E-14
 -1      3654 1.99221E+01 1.80105E-01 5.23298E-04 1.17248E-01-8.36319E-15-4.56188E-14
 -1      3655 1.98962E+01 2.24079E-01-1.05181E-03 1.79580E-01-2.10732E-14 1.99910E-14
 -1      3656 1.98834E+01 2.50100E-01 5.48303E-04 2.05926E-01-1.18920E-14 1.06138E-13
 -1      3657 1.98828E+01 2.32732E-01 6.63244E-04 1.53610E-01-1.45952E-14 7.47169E-14
 -1      3658 1.98545E+01 2.75305E-01-1.24080E-03 2.33754E-01-1.30839E-14 1.17315E-13
 -1      3659 1.98393E+01 3.01516E-01 6.90236E-04 2.66644E-01 3.24160E-14 2.52434E-13
 -1      3660 1.98338E+01 2.89026E-01 7.89422E-04 2.01181E-01 8.49204E-15 2.41600E-13
 -1      3661 1.98046E+01 3.25580E-01-1.42188E-03 3.01947E-01-2.67959E-14 2.72362E-13
 -1      3662 1.97876E+01 3.49419E-01 9.00843E-04 3.42114E-01 2.15942E-14 1.89705E-13
 -1      3663 1.97740E+01 3.46019E-01 8.75658E-04 2.62166E-01 5.14211E-14 2.46472E-13
 -1      3664 1.97476E+01 3.69044E-01-1.56803E-03 3.86256E-01 3.84578E-14 4.24477E-14
 -1      3665 1.97305E+01 3.86421E-01 1.21392E-03 4.34347E-01 2.18071E-14-1.36754E-14
 -1      3666 1.97032E+01 3.98457E-01 8.79246E-04 3.39217E-01-6.97516E-14 8.11355E-14
 -1      3667 1.96866E+01 3.96550E-01-1.63578E-03 4.88897E-01 1.65312E-14-6.60023E-14
 -1      3668 1.96727E+01 4.01358E-01 1.67729E-03 5.45375E-01 4.95568E-14-6.69951E-14
 -1      3669 1.96233E+01 4.37944E-01 7.33620E-04 4.35525E-01-1.35904E-14-5.33186E-14
 -1      3670 1.96284E+01 3.94675E-01-1.55494E-03 6.12091E-01 3.42835E-14-1.53392E-13
 -1      3671 1.96234E+01 3.78281E-01 2.35233E-03 6.77058E-01 1.32868E-14-1.43750E-13
 -1      3672 1.95387E+01 4.51935E-01 3.37337E-04 5.54909E-01 2.87278E-14-9.93483E-14
 -1      3673 1.95852E+01 3.44735E-01-1.20981E-03 7.57790E-01-7.89143E-14-2.18271E-13
 -1      3674 1.95984E+01 2.95508E-01 3.30310E-03 8.30640E-01-1.03981E-13-1.49884E-13
 -1      3675 1.94587E+01 4.22626E-01-4.63970E-04 7.01847E-01-5.13912E-14-1.64788E-13
 -1      3676 1.95771E+01 2.21998E-01-4.04076E-04 9.26972E-01-1.80595E-13-1.86746E-13
 -1      3677 1.96227E+01 1.25069E-01 4.56130E-03 1.00564E+00-2.10369E-13-2.29339E-13
 -1      3678 1.93993E+01 3.25819E-01-1.90848E-03 8.81244E-01-1.63894E-13-2.02795E-13
 -1      3679 1.96362E+01-4.42103E-03 1.20733E-03 1.11791E+00-1.30078E-13-2.31844E-13
 -1      3680 1.97347E+01-1.66812E-01 6.04080E-03 1.19727E+00 2.84859E-14-3.29186E-13
 -1      3681 1.93870E+01 1.30001E-01-4.36376E-03 1.09745E+00-1.92795E-13 1.44583E-14
 -1      3682 1.98111E+01-3.69995E-01 4.22991E-03 1.32211E+00 1.62557E-13-2.83887E-13
 -1      3683 1.99902E+01-6.16644E-01 7.37629E-03 1.39072E+00 1.66323E-13-3.05330E-13
 -1      3684 1.94637E+01-2.03795E-01-8.36448E-03 1.35141E+00 3.12396E-14-3.28762E-14
 -1      3685 2.01730E+01-9.08963E-01 9.77949E-03 1.51536E+00 1.29687E-13-4.17476E-13
 -1      3686 2.04666E+01-1.25367E+00 7.85535E-03 1.54946E+00 1.65190E-13-3.03057E-13
 -1      3687 1.96946E+01-7.20044E-01-1.45512E-02 1.63346E+00 1.48117E-13-2.64368E-13
 -1      3688 2.08181E+01-1.63845E+00 1.91460E-02 1.64243E+00 9.03236E-14-3.18545E-13
 -1      3689 2.12552E+01-2.07853E+00 4.40666E-03 1.59775E+00 2.34689E-14-1.59816E-13
 -1      3690 2.01749E+01-1.45574E+00-2.31635E-02 1.90725E+00 1.56313E-13-2.26538E-13
 -1      3691 2.18722E+01-2.51578E+00 3.94228E-02 1.57846E+00-1.10787E-13-9.93517E-14
 -1      3692 2.24316E+01-2.99991E+00-2.38730E-03 1.39059E+00-2.07067E-13-4.52892E-14
 -1      3693 2.10489E+01-2.43344E+00-3.48396E-02 2.08877E+00 4.68943E-14-2.66679E-13
 -1      3694 2.02716E+01 9.56194E-01 1.88088E-03 4.62647E-01 1.95514E-13-1.06368E-13
 -1      3695 2.02850E+01 8.23068E-01 1.89307E-03 3.37177E-01 1.85512E-13-1.05977E-13
 -1      3696 2.00308E+01-1.79681E-02 3.52149E-04-6.10698E-02 8.64121E-14-1.32345E-13
 -1      3697 2.00337E+01-2.87703E-02-2.05147E-04-6.29546E-02 2.10889E-14-1.27165E-13
 -1      3698 2.00417E+01-3.85266E-02 3.60352E-04-6.58215E-02 4.07686E-15-1.16358E-13
 -1      3699 2.00455E+01-4.79465E-02-1.44436E-04-6.98837E-02-2.01626E-14-1.14740E-13
 -1      3700 2.00468E+01-3.63437E-02-1.80551E-04-5.94994E-02 3.17793E-14-1.77900E-13
 -1      3701 2.00110E+01 3.25044E-02 3.49900E-04-6.64686E-02-5.46520E-14-4.83319E-14
 -1      3702 2.00134E+01 1.82788E-02-3.50808E-04-6.27782E-02-4.79350E-14 2.98625E-14
 -1      3703 1.99996E+01 6.39922E-02 3.56185E-04-7.82157E-02-8.75405E-15-1.59751E-13
 -1      3704 2.00025E+01 4.73506E-02-4.50180E-04-7.10583E-02-4.25978E-14-9.98845E-14
 -1      3705 2.00051E+01 4.46963E-02 1.05551E-04-6.39798E-02 4.15918E-15-1.29071E-13
 -1      3706 1.99852E+01 1.01203E-01 3.63848E-04-9.72218E-02 1.16273E-13-5.87533E-14
 -1      3707 1.99893E+01 8.14869E-02-5.76010E-04-8.60608E-02 7.44120E-14-1.08119E-13
 -1      3708 1.99884E+01 8.08273E-02 2.35359E-04-7.61980E-02 8.57478E-15-1.40714E-13
 -1      3709 1.99657E+01 1.45594E-01 3.66248E-04-1.24548E-01 9.06517E-14 8.58869E-14
 -1      3710 1.99719E+01 1.22042E-01-7.35194E-04-1.08779E-01 1.46206E-13-7.09286E-15
 -1      3711 1.99672E+01 1.23541E-01 3.98769E-04-9.50703E-02 3.74330E-14 2.35859E-15
 -1      3712 1.99386E+01 1.98783E-01 3.52773E-04-1.61334E-01 1.25901E-14 1.74903E-13
 -1      3713 1.99479E+01 1.70564E-01-9.34866E-04-1.40301E-01 5.14703E-14 1.38610E-13
 -1      3714 1.99389E+01 1.74400E-01 6.10032E-04-1.21439E-01 1.01138E-14 3.04535E-14
 -1      3715 1.99004E+01 2.62448E-01 3.08001E-04-2.08714E-01 8.24528E-14 7.37648E-14
 -1      3716 1.99144E+01 2.28717E-01-1.18271E-03-1.81756E-01 1.09394E-13 1.69295E-13
 -1      3717 1.99004E+01 2.35074E-01 8.87758E-04-1.56115E-01 5.98372E-14 3.24741E-14
 -1      3718 1.98466E+01 3.38187E-01 2.11133E-04-2.67683E-01 2.70531E-14-3.89803E-14
 -1      3719 1.98675E+01 2.98163E-01-1.48743E-03-2.34201E-01 5.97052E-14-9.76712E-15
 -1      3720 1.98474E+01 3.07223E-01 1.25613E-03-1.99755E-01 1.29777E-13 4.55298E-14
 -1      3721 1.97712E+01 4.27271E-01 3.64658E-05-3.38917E-01-6.66298E-14 1.66320E-14
 -1      3722 1.98019E+01 3.80383E-01-1.85978E-03-2.98466E-01-3.52453E-14 3.89958E-14
 -1      3723 1.97748E+01 3.92303E-01 1.74639E-03-2.52688E-01-2.53722E-14-1.08139E-13
 -1      3724 1.96664E+01 5.30243E-01-2.43726E-04-4.22559E-01-1.83521E-13 5.37573E-14
 -1      3725 1.97108E+01 4.76349E-01-2.31508E-03-3.74955E-01-1.12485E-13 3.90918E-14
 -1      3726 1.96756E+01 4.91275E-01 2.39864E-03-3.14689E-01-8.78731E-14-1.12775E-14
 -1      3727 1.95222E+01 6.46232E-01-6.51563E-04-5.18056E-01-1.02144E-13 2.11960E-13
 -1      3728 1.95853E+01 5.86003E-01-2.87890E-03-4.63454E-01-1.54792E-13 1.76807E-13
 -1      3729 1.95410E+01 6.04145E-01 3.26421E-03-3.84748E-01-2.12272E-13 1.16793E-13
 -1      3730 1.93254E+01 7.71862E-01-1.18765E-03-6.24202E-01-2.37317E-14 3.14735E-13
 -1      3731 1.94136E+01 7.07373E-01-3.59918E-03-5.63049E-01-2.37752E-14 2.74775E-13
 -1      3732 1.93595E+01 7.29252E-01 4.40933E-03-4.60928E-01-8.95438E-14 3.20055E-13
 -1      3733 1.90598E+01 8.99528E-01-1.80296E-03-7.39710E-01-1.47251E-13 3.27527E-13
 -1      3734 1.91808E+01 8.35183E-01-4.57065E-03-6.72395E-01-5.79024E-14 3.41451E-13
 -1      3735 1.91163E+01 8.62227E-01 5.92218E-03-5.40515E-01-1.00926E-13 4.16863E-13
 -1      3736 1.87058E+01 1.01479E+00-2.35638E-03-8.64906E-01-9.09917E-14 1.57549E-13
 -1      3737 1.88680E+01 9.58692E-01-5.97970E-03-7.90762E-01-1.16070E-13 2.89788E-13
 -1      3738 1.87925E+01 9.94471E-01 7.92839E-03-6.20845E-01-5.89161E-14 3.50384E-13
 -1      3739 1.82401E+01 1.09273E+00-2.49497E-03-1.00545E+00-2.90425E-14 2.47438E-13
 -1      3740 1.84515E+01 1.05851E+00-8.17815E-03-9.20575E-01-8.49521E-14 2.18678E-13
 -1      3741 1.83631E+01 1.11107E+00 1.06329E-02-7.01430E-01-5.35554E-14 3.51936E-13
 -1      3742 1.76338E+01 1.09152E+00-2.22151E-03-1.18038E+00-4.42953E-14 2.13003E-13
 -1      3743 1.79016E+01 1.10205E+00-1.18100E-02-1.07286E+00 4.65871E-14 2.36465E-13
 -1      3744 1.77947E+01 1.18846E+00 1.44712E-02-7.88356E-01-5.03785E-15 3.74979E-13
 -1      3745 1.68443E+01 9.40977E-01-3.23577E-03-1.43825E+00-7.81594E-14 1.20022E-13
 -1      3746 1.71786E+01 1.04116E+00-1.69498E-02-1.27534E+00-8.04706E-14 1.86249E-13
 -1      3747 1.70445E+01 1.18939E+00 2.13953E-02-9.03480E-01 1.31795E-14 2.97378E-13
 -1      3748 2.02640E+01 1.30854E+00 8.59219E-05-4.35288E-01-1.25060E-13-2.34431E-13
 -1      3749 2.03527E+01 7.05992E-01 7.87327E-04-1.45183E-01-7.18283E-14-1.86301E-13
 -1      3750 2.03492E+01 5.48208E-01-2.05651E-03-7.49604E-02-4.86548E-14-1.48363E-13
 -1      3751 2.02600E+01 1.32262E+00 2.64679E-03-5.19150E-01-1.51866E-13-2.69843E-13
 -1      3752 2.03257E+01 5.56323E-01-2.43306E-03 1.00176E-01 9.81977E-14-1.62433E-13
 -1      3753 2.03346E+01 7.15590E-01 1.09476E-03 1.83027E-01 1.10963E-13-1.81459E-13
 -1      3754 2.03047E+01 8.72229E-01 1.13171E-03 2.98512E-01 1.55708E-13-1.31145E-13
 -1      3755 2.00895E+01-8.16224E-02 3.66402E-04-1.00218E-01 2.87685E-14-1.07653E-13
 -1      3756 2.00981E+01-8.48705E-02 9.42774E-05-1.07653E-01 7.47640E-14-1.04117E-13
 -1      3757 2.02500E+01 1.38317E+00-4.66757E-03 4.13292E-01 1.45550E-13-2.47235E-13
 -1      3758 2.02360E+01 1.48243E+00-1.27591E-03 3.44746E-01 1.34365E-13-2.61566E-13
 -1      3759 2.02946E+01 1.28361E+00 3.95614E-03 2.49466E-01 1.15939E-13-2.47140E-13
 -1      3760 2.03034E+01 1.11482E+00 3.00981E-03 3.35467E-01 1.44826E-13-2.20819E-13
 -1      3761 2.45937E+01-3.76377E+00 1.31364E-02 5.32249E-01-1.00430E-13 8.51446E-14
 -1      3762 2.00209E+01 5.50294E-03 3.48441E-04-6.10329E-02-3.77186E-14 2.37760E-14
 -1      3763 2.00234E+01-6.83034E-03-2.71105E-04-6.03402E-02 6.11835E-14-1.62867E-14
 -1      3764 2.00194E+01 1.37889E-02-1.41861E-06-5.76118E-02-3.35600E-14-1.05186E-14
 -1      3765 2.01598E+01 5.64349E-02-6.53810E-04-1.35647E-01 2.15763E-14-1.82957E-13
 -1      3766 2.01812E+01 1.03632E-01 1.87809E-03-1.11784E-01 3.62909E-14-1.81364E-13
 -1      3767 2.02457E+01 1.61472E-01-6.58538E-04-7.93398E-02 7.71967E-14-1.95372E-13
 -1      3768 2.03564E+01 4.16186E-01 1.56718E-03-2.89573E-02-5.48959E-14-1.45556E-13
 -1      3769 2.03399E+01 3.05373E-01-1.72153E-03 1.88204E-02-5.17572E-14-1.36587E-13
 -1      3770 2.03673E+01 2.93902E-01 2.33078E-04 2.19088E-02-6.45569E-14-1.24507E-13
 -1      3771 2.37710E+01-3.63323E+00 1.98949E-02 1.04768E+00-1.21857E-13 7.93566E-15
 -1      3772 2.03220E+01 8.31025E-01-7.56306E-04 2.22936E-01 1.35632E-13-1.92912E-13
 -1      3773 2.03158E+01 9.67662E-01-1.44542E-03 2.88843E-01 1.43896E-13-2.07800E-13
 -1      3774 2.03164E+01 1.06806E+00 5.50304E-04 2.59608E-01 1.19467E-13-2.33661E-13
 -1      3775 2.03455E+01 8.15285E-01 1.02316E-03 1.75824E-01 1.05992E-13-1.88467E-13
 -1      3776 1.69899E+01-1.76391E+00 6.04356E-02 4.08633E+00 1.65016E-13-1.99400E-13
 -1      3777 1.61523E+01-1.22295E+00 2.13415E-03 3.66444E+00 7.15279E-14-5.95756E-14
 -1      3778 1.82006E+01-2.19260E+00 7.88824E-03 3.82444E+00 1.64178E-13-1.59013E-13
 -1      3779 2.03758E+01 5.32941E-01 6.26856E-04-5.37485E-02-4.81156E-14-8.93656E-14
 -1      3780 1.34214E+01-7.52196E-02 6.77384E-02 2.73182E+00 5.93640E-14-6.96526E-14
 -1      3781 1.33541E+01 3.69563E-01 3.42189E-02 1.87104E+00 2.79707E-14 1.07345E-13
 -1      3782 1.46979E+01-2.58059E-01 1.65002E-02 2.86047E+00-3.60285E-14-1.21105E-13
 -1      3783 2.03264E+01 1.08861E+00 6.73932E-04-1.82137E-01-7.36959E-15-1.94583E-13
 -1      3784 2.03277E+01 9.31396E-01-2.74619E-03-2.40177E-01-9.29394E-14-1.93136E-13
 -1      3785 2.03397E+01 7.87490E-01-7.11500E-04-1.69133E-01-8.73645E-14-1.95140E-13
 -1      3786 2.02081E+01-2.53666E-02-1.77945E-04-1.34793E-01-1.72038E-15-1.67577E-13
 -1      3787 2.02273E+01 4.32195E-03 9.56149E-04-1.28081E-01-1.03469E-15-1.91292E-13
 -1      3788 2.08201E+01-3.45986E+00-9.10442E-03 3.38939E+00 6.79526E-14-1.36529E-13
 -1      3789 2.01128E+01-8.61660E-02 3.27641E-04-1.14621E-01 8.97299E-14-1.10013E-13
 -1      3790 2.01237E+01-8.52279E-02 2.34381E-04-1.21461E-01 8.98720E-14-5.45761E-14
 -1      3791 2.01303E+01-9.20180E-02-4.75494E-04-1.00497E-01 8.83251E-14-5.84569E-14
 -1      3792 2.28902E+01-3.64953E+00-2.68193E-03 1.88836E+00-7.50780E-14-3.55738E-13
 -1      3793 2.00627E+01-5.65928E-02-2.63077E-04-6.63791E-02 6.60336E-15-1.95096E-14
 -1      3794 2.00546E+01-5.63401E-02 3.70251E-04-7.45408E-02-2.88768E-14-8.71068E-14
 -1      3795 2.00596E+01-6.42646E-02-7.99311E-05-8.03373E-02 9.31457E-15-1.01484E-13
 -1      3796 1.62567E+01 8.16943E-01-2.35303E-02-1.52201E+00-6.81313E-15 1.49941E-14
 -1      3797 1.60505E+01 1.11427E+00 3.83245E-02-1.00713E+00 1.01924E-14 1.26311E-13
 -1      3798 1.58384E+01 6.72787E-01 9.59345E-03-1.66324E+00-1.28855E-14-5.18960E-14
 -1      3799 2.01724E+01-6.34905E-02 7.63521E-05-1.35611E-01 3.98295E-14-1.19378E-13
 -1      3800 2.01888E+01-4.71215E-02 6.42099E-04-1.36091E-01 2.28699E-14-1.65235E-13
 -1      3801 2.02363E+01-3.38737E-02-5.40745E-04-1.19264E-01-1.15927E-15-2.06637E-13
 -1      3802 2.02076E+01 5.26317E-02-7.22779E-04-1.27216E-01 2.03624E-14-2.18663E-13
 -1      3803 2.03314E+01 4.24346E-01 1.86640E-03 4.40549E-02 1.00661E-13-1.61512E-13
 -1      3804 2.03566E+01 5.50838E-01 8.79608E-04 7.67003E-02 1.06777E-13-1.94175E-13
 -1      3805 2.03119E+01 3.13260E-01-1.85308E-03-1.17013E-02 9.74034E-14-1.63993E-13
 -1      3806 2.00702E+01-7.10445E-02 3.75904E-04-8.63683E-02 3.29523E-14-1.19007E-13
 -1      3807 2.00769E+01-7.70491E-02-2.66107E-06-9.33513E-02 2.70254E-14-9.12939E-14
 -1      3808 2.00813E+01-7.34149E-02-3.35763E-04-7.62120E-02 1.50023E-14 1.99026E-14
 -1      3809 1.26158E+01 5.16123E-01-1.54463E-02 9.55384E-01 1.78598E-13 4.54515E-13
 -1      3810 1.21749E+01 5.62133E-01 7.53450E-02 1.28611E-01-1.94827E-14 4.22933E-13
 -1      3811 1.33893E+01 6.20976E-01 3.79374E-02-6.83373E-01 2.84538E-14 1.99389E-13
 -1      3812 1.36550E+01 5.22080E-01 1.00733E-02 1.41458E+00 6.39332E-14 1.97597E-13
 -1      3813 2.01037E+01-8.58464E-02-4.04641E-04-8.80212E-02 4.72145E-14-1.92864E-14
 -1      3814 2.03202E+01 1.14797E+00-2.60422E-03 1.33664E-01 8.05541E-14-2.65240E-13
 -1      3815 2.03185E+01 1.18185E+00-1.78723E-03 7.80209E-02 5.84507E-14-2.78908E-13
 -1      3816 2.03184E+01 1.18288E+00-1.85871E-03-7.41447E-02 1.90623E-14-3.09568E-13
 -1      3817 2.03177E+01 1.14821E+00-4.27444E-03-1.32224E-01 9.55616E-15-3.06374E-13
 -1      3818 2.03199E+01 1.08371E+00-2.15775E-03 2.21273E-01 9.50921E-14-2.64005E-13
 -1      3819 2.03176E+01 1.14866E+00-1.06729E-03 1.74472E-01 7.93968E-14-2.56805E-13
 -1      3820 2.03649E+01 9.77080E-01 4.05261E-03 1.14457E-01 5.87125E-14-2.57798E-13
 -1      3821 2.03445E+01 9.55262E-01 1.74331E-03 1.82999E-01 1.00108E-13-2.35100E-13
 -1      3822 2.00328E+01-1.29757E-02-9.38340E-05-5.63504E-02 2.73127E-15-1.62972E-13
 -1      3823 2.03678E+01 9.17381E-01 3.44024E-03-1.22209E-01-2.10248E-14-2.20841E-13
 -1      3824 2.03747E+01 1.75382E-01 7.24958E-04 4.53028E-02-5.26252E-14-1.77625E-13
 -1      3825 2.03555E+01 1.05718E-01-6.88483E-04 6.36672E-02-1.85606E-14-1.80698E-13
 -1      3826 2.03383E+01 5.02918E-02 6.46116E-04 7.13551E-02 2.25941E-15-1.83506E-13
 -1      3827 2.03164E+01 5.71279E-03-2.92380E-04 8.04873E-02-1.53624E-14-1.79352E-13
 -1      3828 2.03684E+01 8.97526E-02-4.50225E-05 5.07916E-02-1.22917E-14-2.20422E-13
 -1      3829 2.02951E+01-2.83456E-02 5.16076E-04 8.28493E-02-1.65540E-14-1.81316E-13
 -1      3830 2.02730E+01-5.45972E-02-1.30650E-05 8.57136E-02-6.29403E-15-1.76192E-13
 -1      3831 2.03269E+01-6.55264E-03-3.84648E-04 6.26604E-02-8.44415E-15-1.71323E-13
 -1      3832 2.02506E+01-7.33989E-02 4.11075E-04 8.46129E-02 2.27191E-14-1.50090E-13
 -1      3833 2.02300E+01-8.66216E-02 1.71999E-04 8.35019E-02 3.39248E-14-1.05944E-13
 -1      3834 2.02815E+01-6.36857E-02-5.13436E-04 6.60827E-02 1.65119E-14-1.34414E-13
 -1      3835 2.02084E+01-9.48720E-02 3.12207E-04 8.04681E-02-2.34338E-14-9.11228E-14
 -1      3836 2.01900E+01-9.91918E-02 2.71035E-04 7.70330E-02-8.35072E-14-9.22574E-14
 -1      3837 2.02367E+01-9.31140E-02-5.49331E-04 6.40089E-02 8.00309E-15-1.43201E-13
 -1      3838 2.01701E+01-1.00142E-01 2.15498E-04 7.29836E-02-1.09208E-13-7.16565E-14
 -1      3839 2.01541E+01-9.83429E-02 3.23009E-04 6.85363E-02-7.65424E-14-6.27182E-14
 -1      3840 2.01952E+01-1.03501E-01-5.51707E-04 5.88826E-02-7.14858E-14-1.08354E-13
 -1      3841 2.01364E+01-9.43815E-02 1.35257E-04 6.43310E-02-6.86097E-14-8.96952E-14
 -1      3842 2.01228E+01-8.85062E-02 3.31649E-04 5.97887E-02-3.74663E-14-9.94938E-14
 -1      3843 2.01579E+01-1.00614E-01-5.00842E-04 5.23121E-02-7.04128E-14-2.69470E-14
 -1      3844 2.01073E+01-8.12219E-02 6.45711E-05 5.59212E-02 8.06999E-15-1.18421E-13
 -1      3845 2.00959E+01-7.25178E-02 3.18293E-04 5.19352E-02-2.84953E-15-1.18772E-13
 -1      3846 2.01254E+01-8.88400E-02-4.22766E-04 4.57266E-02-3.32311E-14-1.40232E-13
 -1      3847 2.00824E+01-6.29121E-02-5.45402E-06 4.88278E-02-6.29317E-16-1.31916E-13
 -1      3848 2.00726E+01-5.21481E-02 2.92647E-04 4.58519E-02-3.22308E-14-7.90406E-14
 -1      3849 2.00972E+01-7.09257E-02-3.31515E-04 3.99325E-02 5.80919E-15-1.34438E-13
 -1      3850 2.00605E+01-4.07268E-02-7.80145E-05 4.37623E-02-1.12235E-13-7.82873E-14
 -1      3851 2.00520E+01-2.82304E-02 2.63710E-04 4.21676E-02-1.46896E-13-9.07382E-14
 -1      3852 2.00726E+01-4.85694E-02-2.38823E-04 3.56152E-02-7.27565E-14-9.40847E-14
 -1      3853 2.00407E+01-1.51362E-02-1.55173E-04 4.13282E-02-7.48436E-14-4.77092E-14
 -1      3854 2.00327E+01-8.99318E-04 2.34660E-04 4.14468E-02 2.78591E-14-4.76197E-14
 -1      3855 2.00503E+01-2.24210E-02-1.31212E-04 3.32871E-02-7.55716E-14-7.88613E-14
 -1      3856 2.00213E+01 1.39757E-02-2.42932E-04 4.21259E-02 1.08587E-13-5.65854E-14
 -1      3857 2.00132E+01 3.01571E-02 2.06689E-04 4.42908E-02 1.14525E-13-5.27317E-15
 -1      3858 2.00289E+01 7.49803E-03-1.49641E-05 3.34064E-02 5.75434E-14 1.28685E-14
 -1      3859 2.00009E+01 4.70790E-02-3.46437E-04 4.67712E-02 4.92116E-14 5.60143E-14
 -1      3860 1.99919E+01 6.55390E-02 1.83443E-04 5.13483E-02 1.78237E-14 4.58454E-14
 -1      3861 2.00067E+01 4.15914E-02 1.15878E-04 3.65282E-02 9.93850E-14-4.51230E-14
 -1      3862 1.99776E+01 8.48624E-02-4.71514E-04 5.59787E-02-7.69783E-15 3.06139E-14
 -1      3863 1.99669E+01 1.05982E-01 1.68211E-04 6.34032E-02-6.29905E-16 6.93349E-14
 -1      3864 1.99818E+01 8.05437E-02 2.61465E-04 4.32388E-02 2.97344E-14 1.25328E-14
 -1      3865 1.99495E+01 1.28048E-01-6.22271E-04 7.06397E-02-3.85597E-15 1.01564E-13
 -1      3866 1.99361E+01 1.52143E-01 1.65148E-04 8.14432E-02 3.47502E-14 4.65861E-14
 -1      3867 1.99520E+01 1.25161E-01 4.24657E-04 5.42976E-02 2.19555E-14 3.14227E-14
 -1      3868 1.99143E+01 1.77159E-01-8.02827E-04 9.18843E-02 2.88879E-14-3.45917E-14
 -1      3869 1.98975E+01 2.04347E-01 1.80816E-04 1.06719E-01-3.74748E-14-5.12231E-15
 -1      3870 1.99151E+01 1.76134E-01 6.07161E-04 7.07014E-02-4.18108E-14 4.69502E-14
 -1      3871 1.98699E+01 2.32234E-01-1.01659E-03 1.21152E-01-2.51090E-14-4.07293E-14
 -1      3872 1.98488E+01 2.62260E-01 2.25893E-04 1.40820E-01-4.09202E-15 2.16119E-14
 -1      3873 1.98684E+01 2.33764E-01 8.07899E-04 9.37688E-02-2.40920E-14-9.69928E-14
 -1      3874 1.98141E+01 2.92447E-01-1.26565E-03 1.60276E-01-1.42506E-14 1.00656E-13
 -1      3875 1.97880E+01 3.24454E-01 3.17402E-04 1.85761E-01 7.21594E-14 1.21306E-13
 -1      3876 1.98094E+01 2.97621E-01 1.02128E-03 1.25255E-01 4.53320E-14-1.50647E-13
 -1      3877 1.97449E+01 3.55618E-01-1.55012E-03 2.11602E-01 5.54266E-14 1.04695E-13
 -1      3878 1.97137E+01 3.87853E-01 4.81677E-04 2.44113E-01-1.91192E-14 1.18045E-13
 -1      3879 1.97353E+01 3.66080E-01 1.23483E-03 1.67504E-01 7.07294E-15-1.21306E-14
 -1      3880 1.96612E+01 4.17581E-01-1.86698E-03 2.78130E-01-1.28815E-13 1.26479E-13
 -1      3881 1.96253E+01 4.47026E-01 7.58299E-04 3.19163E-01-9.44352E-14 6.90690E-14
 -1      3882 1.96442E+01 4.35748E-01 1.42612E-03 2.23662E-01-9.81093E-14-1.12117E-14
 -1      3883 1.95630E+01 4.71400E-01-2.20813E-03 3.63724E-01-3.84293E-14 6.88200E-14
 -1      3884 1.95242E+01 4.93327E-01 1.20515E-03 4.15138E-01 3.09122E-14 7.00705E-14
 -1      3885 1.95347E+01 5.00727E-01 1.55839E-03 2.97958E-01-1.24621E-13 1.08737E-13
 -1      3886 1.94526E+01 5.06438E-01-2.55623E-03 4.73365E-01 6.90307E-14-2.89796E-14
 -1      3887 1.94144E+01 5.13889E-01 1.90434E-03 5.37466E-01 6.47065E-14-2.84053E-14
 -1      3888 1.94068E+01 5.51736E-01 1.57391E-03 3.96087E-01-2.19847E-14 9.96001E-14
 -1      3889 1.93358E+01 5.07280E-01-2.87564E-03 6.13454E-01-4.61747E-14-1.10035E-13
 -1      3890 1.93048E+01 4.90492E-01 2.96679E-03 6.93042E-01-1.41853E-13-1.77468E-13
 -1      3891 1.92635E+01 5.75063E-01 1.38143E-03 5.25697E-01-3.52987E-14-1.61262E-13
 -1      3892 1.92241E+01 4.52570E-01-3.09254E-03 7.92071E-01-1.80546E-13-1.14210E-13
 -1      3893 1.92112E+01 3.98344E-01 4.52930E-03 8.90327E-01-1.70234E-13 5.81313E-15
 -1      3894 1.91114E+01 5.51337E-01 8.28594E-04 6.96965E-01-1.15168E-13-2.20933E-14
 -1      3895 1.91373E+01 3.13785E-01-3.04717E-03 1.01893E+00-1.31497E-13 1.06119E-13
 -1      3896 1.91599E+01 2.04828E-01 6.73463E-03 1.13881E+00-1.27316E-13 1.65333E-13
 -1      3897 1.89637E+01 4.54036E-01-3.59596E-04 9.23144E-01-1.06284E-13 4.21532E-14
 -1      3898 1.91093E+01 5.40954E-02-2.35134E-03 1.30429E+00-1.13461E-13 7.64767E-14
 -1      3899 1.91944E+01-1.31550E-01 9.71235E-03 1.44675E+00 7.33839E-14 5.03334E-14
 -1      3900 1.88436E+01 2.47508E-01-2.68236E-03 1.22069E+00-1.71170E-13 1.58516E-13
 -1      3901 1.91958E+01-3.72048E-01-1.31851E-05 1.65529E+00 1.02146E-13-1.07762E-13
 -1      3902 1.93835E+01-6.60933E-01 1.36575E-02 1.81471E+00 5.59871E-14-2.01589E-13
 -1      3903 1.87915E+01-1.15279E-01-6.82817E-03 1.60762E+00-3.56856E-14-1.46961E-15
 -1      3904 1.94903E+01-1.02020E+00 6.02744E-03 2.06456E+00 1.15394E-13-2.25958E-13
 -1      3905 1.98286E+01-1.44118E+00 1.48325E-02 2.21818E+00 1.82743E-13-2.79206E-13
 -1      3906 1.88785E+01-6.97645E-01-1.36098E-02 2.09890E+00 9.57487E-14-2.75180E-13
 -1      3907 2.00345E+01-6.66563E-03 2.77178E-04-4.89399E-02-3.86322E-14 6.13353E-17
 -1      3908 2.00410E+01-2.00273E-02-1.67325E-04-4.92817E-02 5.39919E-14-8.24726E-14
 -1      3909 2.02457E+01 4.14514E-02-5.68412E-04-1.19174E-01 1.88810E-14-1.54029E-13
 -1      3910 2.02672E+01 8.99865E-02 1.30575E-03-1.01395E-01 4.97979E-14-1.68564E-13
 -1      3911 2.02768E+01 3.31118E-02-4.82644E-04-1.06670E-01 3.31398E-14-1.69960E-13
 -1      3912 2.02822E+01 1.48940E-01-1.13199E-03-8.12405E-02 7.03253E-14-1.73186E-13
 -1      3913 2.03042E+01 2.23794E-01 1.61944E-03-4.74185E-02 8.80984E-14-1.53986E-13
 -1      3914 2.03448E+01 3.07082E-01 1.31334E-05-1.66771E-02 8.89504E-14-1.66808E-13
 -1      3915 2.03150E+01 1.41387E-01-3.49003E-04-7.50616E-02 6.42898E-14-1.35088E-13
 -1      3916 1.99779E+01 9.62084E-02 1.70068E-04-6.98823E-02 3.65282E-14-4.65044E-14
 -1      3917 1.99868E+01 7.53713E-02-4.64102E-04-6.25027E-02 4.07783E-14-5.72047E-14
 -1      3918 1.99996E+01 5.65620E-02 2.12028E-04-5.79853E-02 6.53225E-15-7.88151E-14
 -1      3919 2.00068E+01 3.87823E-02-3.47572E-04-5.35277E-02 1.62098E-15-4.95314E-14
 -1      3920 1.99901E+01 7.12085E-02 2.37536E-04-5.12630E-02 2.14298E-16 2.96299E-14
 -1      3921 1.99137E+01 1.98472E-01 2.97617E-05-1.11431E-01 2.86848E-14-9.19807E-14
 -1      3922 1.99297E+01 1.69282E-01-7.74543E-04-9.71250E-02 1.30269E-14-4.51708E-14
 -1      3923 1.98644E+01 2.64199E-01-9.67753E-05-1.42089E-01 5.34949E-14-2.62234E-14
 -1      3924 1.98866E+01 2.29666E-01-9.76259E-04-1.23864E-01-5.89025E-15-9.89319E-14
 -1      3925 1.98842E+01 2.28647E-01 9.21224E-04-9.77573E-02 1.49406E-14-7.60510E-14
 -1      3926 1.97978E+01 3.41603E-01-2.89091E-04-1.79613E-01 4.81321E-14 1.03912E-13
 -1      3927 1.98285E+01 3.01054E-01-1.21328E-03-1.57341E-01 7.28490E-14 1.05979E-13
 -1      3928 1.98243E+01 3.00836E-01 1.27795E-03-1.22837E-01-2.93466E-14 1.08256E-13
 -1      3929 1.97077E+01 4.31734E-01-5.76721E-04-2.23616E-01-9.57705E-14 1.49934E-13
 -1      3930 1.97502E+01 3.84726E-01-1.48880E-03-1.97436E-01-8.27395E-15 1.20857E-13
 -1      3931 1.97445E+01 3.85040E-01 1.73427E-03-1.52227E-01-5.91234E-14 3.41592E-13
 -1      3932 1.95867E+01 5.34925E-01-9.96242E-04-2.72922E-01-8.76047E-14 1.48295E-13
 -1      3933 1.96450E+01 4.81435E-01-1.80806E-03-2.43373E-01-8.82817E-14 1.20128E-13
 -1      3934 1.96382E+01 4.81878E-01 2.32039E-03-1.84687E-01-1.17543E-13 2.16627E-13
 -1      3935 1.94250E+01 6.50292E-01-1.59022E-03-3.25281E-01-2.46209E-13 1.83645E-13
 -1      3936 1.95044E+01 5.90985E-01-2.18330E-03-2.93432E-01-1.87256E-13 1.43527E-13
 -1      3937 1.94977E+01 5.91019E-01 3.07639E-03-2.17918E-01-1.13090E-13 1.88672E-13
 -1      3938 1.92101E+01 7.75025E-01-2.40443E-03-3.77178E-01-6.85102E-14 2.38845E-13
 -1      3939 1.93174E+01 7.11636E-01-2.64455E-03-3.44689E-01-1.42195E-13 1.74242E-13
 -1      3940 1.93128E+01 7.10670E-01 4.05823E-03-2.48223E-01-1.97378E-13 1.42309E-13
 -1      3941 1.89260E+01 9.03428E-01-3.48240E-03-4.23929E-01-1.11374E-13 2.91452E-13
 -1      3942 1.90699E+01 8.39258E-01-3.26124E-03-3.92908E-01-1.07405E-13 2.44835E-13
 -1      3943 1.90708E+01 8.36912E-01 5.35010E-03-2.70246E-01-1.17038E-13 1.29005E-13
 -1      3944 1.85517E+01 1.02565E+00-4.85289E-03-4.60418E-01-8.25831E-14 2.36690E-13
 -1      3945 1.87433E+01 9.66211E-01-4.18049E-03-4.32859E-01-6.94384E-14 2.15079E-13
 -1      3946 1.87549E+01 9.62931E-01 7.09161E-03-2.76966E-01-4.76155E-14 1.51811E-14
 -1      3947 1.80582E+01 1.12602E+00-6.53664E-03-4.83076E-01-1.40469E-14 2.39023E-13
 -1      3948 1.83122E+01 1.07988E+00-5.67983E-03-4.59530E-01-4.59858E-14 2.64048E-13
 -1      3949 1.83426E+01 1.07820E+00 9.53518E-03-2.60251E-01-2.35153E-14 3.08396E-14
 -1      3950 1.74037E+01 1.18047E+00-8.96856E-03-4.93951E-01 2.51647E-14 2.47264E-13
 -1      3951 1.77413E+01 1.16076E+00-8.20834E-03-4.70543E-01 1.11652E-14 3.06174E-13
 -1      3952 1.78014E+01 1.16729E+00 1.31458E-02-2.12403E-01-4.95634E-14 1.75912E-13
 -1      3953 1.65133E+01 1.15490E+00-1.38893E-02-5.08056E-01 2.94305E-14 1.26295E-13
 -1      3954 1.69750E+01 1.18457E+00-1.17502E-02-4.69492E-01 4.31189E-14 1.62708E-13
 -1      3955 1.70850E+01 1.20855E+00 1.93149E-02-1.26510E-01 5.69634E-14 8.93155E-14
 -1      3956 2.03174E+01 1.19536E+00-2.50057E-03 3.17605E-02 4.81190E-14-2.63073E-13
 -1      3957 2.03170E+01 1.19579E+00-2.59806E-03-2.86683E-02 2.52100E-14-2.65546E-13
 -1      3958 2.03720E+01 9.96276E-01 4.60941E-03 4.10617E-02 3.66320E-14-2.48779E-13
 -1      3959 2.03975E+01 3.63612E-01 1.21595E-03-1.26178E-03-6.71501E-14-1.65227E-13
 -1      3960 2.03839E+01 2.60524E-01-9.63402E-04 3.04024E-02-7.55147E-14-1.69579E-13
 -1      3961 2.03990E+01 2.38611E-01 2.13899E-04 2.69239E-02-5.32898E-14-2.19156E-13
 -1      3962 2.01160E+01-8.74715E-02 3.56900E-04-7.30447E-02 2.21422E-14 4.96328E-14
 -1      3963 2.01283E+01-9.25387E-02 1.28873E-04-7.85131E-02 5.00524E-14 3.42566E-14
 -1      3964 2.01404E+01-8.16227E-02 2.42837E-04-1.27399E-01 6.81849E-14-1.00693E-13
 -1      3965 2.01541E+01-7.45033E-02 4.11144E-04-1.32155E-01 6.80466E-14-9.51250E-14
 -1      3966 2.01972E+01-7.16820E-02-5.73640E-04-1.19298E-01 3.33846E-14-1.82478E-13
 -1      3967 2.01616E+01-8.88487E-02-5.45747E-04-1.11846E-01 6.50246E-14-9.27791E-14
 -1      3968 1.99502E+01 1.42997E-01 1.13175E-04-8.75064E-02-6.87300E-15-6.16909E-14
 -1      3969 1.99620E+01 1.18375E-01-6.05034E-04-7.68388E-02 4.64256E-14-3.97197E-14
 -1      3970 1.99633E+01 1.15325E-01 4.17677E-04-6.20733E-02 2.07253E-14-4.05204E-14
 -1      3971 2.00514E+01-3.22337E-02 3.00352E-04-5.06023E-02 1.01573E-13-5.72803E-14
 -1      3972 2.00586E+01-4.38982E-02-9.82055E-05-5.28400E-02 6.84240E-14-1.46582E-14
 -1      3973 2.00515E+01-2.73374E-02-1.43099E-04-4.25172E-02 7.27881E-14 8.42105E-14
 -1      3974 2.00178E+01 2.26572E-02 2.46519E-04-5.12036E-02-3.53126E-14-9.93583E-14
 -1      3975 2.00243E+01 7.31597E-03-2.50864E-04-4.93138E-02-7.53820E-14-1.11305E-13
 -1      3976 2.00321E+01 9.46967E-04-3.77415E-05-4.19204E-02-3.29184E-14-1.87131E-14
 -1      3977 2.03712E+01 9.97234E-01 4.42862E-03-3.81449E-02 1.71664E-14-2.70157E-13
 -1      3978 1.46763E+01 7.45741E-01 3.89284E-02-1.40205E+00-3.01530E-14 1.24081E-13
 -1      3979 1.42015E+01 8.76487E-01-1.22102E-02-3.80762E-01 5.96957E-14 3.54895E-13
 -1      3980 1.56866E+01-4.95601E-01 5.35139E-02 3.13982E+00-2.78536E-14 1.11713E-13
 -1      3981 1.52455E+01-1.15194E-01-1.53880E-02 2.58054E+00-1.46664E-13 2.56149E-14
 -1      3982 2.03520E+01 8.29436E-01-1.64495E-03 1.44230E-01 9.18895E-14-2.23474E-13
 -1      3983 2.01531E+01-9.91155E-02-4.94559E-04-6.78581E-02 1.99151E-14-1.49836E-14
 -1      3984 2.01453E+01-9.56330E-02 3.34222E-04-8.36383E-02 6.19711E-14-4.02804E-14
 -1      3985 2.01600E+01-9.65563E-02 2.55332E-04-8.88930E-02 5.84800E-14-5.35500E-14
 -1      3986 2.03894E+01 8.25835E-01-1.86068E-03-1.10614E-02 2.42353E-14-2.45294E-13
 -1      3987 2.03871E+01 8.09933E-01-3.03078E-03-4.33438E-02 2.20082E-15-2.84609E-13
 -1      3988 2.01337E+01-1.91189E+00 2.47964E-02 2.47871E+00 1.40426E-15-2.69326E-13
 -1      3989 2.06074E+01-2.58215E+00-2.24703E-02 2.61706E+00-1.05255E-13-3.15726E-13
 -1      3990 1.99292E+01 1.67296E-01 6.40649E-04-7.74918E-02 2.29972E-14-1.03044E-13
 -1      3991 2.03623E+01 7.60599E-01-2.42933E-04-1.27533E-01-5.68058E-14-1.09560E-13
 -1      3992 2.09096E+01-3.00048E+00 7.59908E-04 2.88387E+00 1.34802E-14-2.41945E-13
 -1      3993 1.94391E+01-2.35945E+00 5.06426E-02 3.47748E+00 1.06069E-13-1.33511E-13
 -1      3994 2.00698E+01-5.44592E-02 3.21830E-04-5.56364E-02 3.58981E-14-2.62521E-14
 -1      3995 2.00782E+01-6.43959E-02-3.26089E-05-5.94109E-02-9.65887E-15 4.91759E-14
 -1      3996 2.00720E+01-5.19442E-02-2.53003E-04-4.59925E-02 6.77511E-14 6.49174E-15
 -1      3997 2.00123E+01 3.34968E-02 8.85310E-05-4.46873E-02-3.79210E-14-2.85309E-14
 -1      3998 1.60093E+01 1.10139E+00-1.63464E-02-4.18939E-01 5.60762E-14 1.36133E-13
 -1      3999 1.61815E+01 1.19018E+00 3.33701E-02 5.46321E-02 4.30175E-14 9.13028E-15
 -1      4000 1.54492E+01 1.05346E+00-1.22804E-02-3.84232E-01-2.09598E-14 2.16953E-13
 -1      4001 2.03891E+01 8.11206E-01-2.05246E-03 4.58762E-02 4.17704E-14-2.39249E-13
 -1      4002 2.03897E+01 8.25345E-01-1.83961E-03 1.26382E-02 2.93446E-14-2.40575E-13
 -1      4003 2.04209E+01 6.75575E-01 4.07766E-03 1.22238E-04 1.59836E-14-2.60019E-13
 -1      4004 1.67134E+01-9.51829E-01 1.50547E-02 3.25614E+00-4.18220E-14 9.49241E-15
 -1      4005 2.03775E+01 6.51247E-01 9.28972E-04 9.60035E-02 8.68553E-14-2.07780E-13
 -1      4006 2.03744E+01 7.81147E-01-5.84432E-05 1.01725E-01 7.20642E-14-2.19119E-13
 -1      4007 2.03759E+01 5.02337E-01-1.35985E-03 3.91413E-02 9.49002E-14-2.03300E-13
 -1      4008 2.02582E+01-4.57666E-02-3.01749E-05-1.02604E-01-2.78360E-14-1.67572E-13
 -1      4009 2.02795E+01-1.82334E-02 6.94146E-04-9.87751E-02 1.50235E-15-1.91518E-13
 -1      4010 2.03901E+01 6.32853E-01-4.06489E-04-7.16938E-02-4.68832E-14-1.73670E-13
 -1      4011 2.03909E+01 4.86523E-01-1.94285E-03-2.36356E-02-4.79157E-14-1.69869E-13
 -1      4012 1.84821E+01-1.88798E+00-1.24282E-02 3.39466E+00 5.79285E-14-2.38087E-13
 -1      4013 2.01012E+01-8.10273E-02 4.63963E-05-6.82747E-02 2.82134E-14 2.33576E-14
 -1      4014 2.01219E+01-8.90471E-02-4.28141E-04-5.93985E-02 2.30469E-14-3.96704E-14
 -1      4015 2.00911E+01-7.31582E-02 3.46807E-04-6.33760E-02-3.10435E-15 2.43503E-14
 -1      4016 2.02996E+01 1.73082E-02-3.59688E-04-9.45689E-02 4.71264E-14-1.93378E-13
 -1      4017 2.03224E+01 6.33210E-02 1.14022E-03-8.25722E-02 6.22975E-14-1.73901E-13
 -1      4018 2.03158E+01 5.80439E-03-5.04243E-04-7.85916E-02 3.96937E-14-1.55695E-13
 -1      4019 2.03816E+01 7.79468E-01-1.57900E-03 7.27471E-02 5.26287E-14-2.14763E-13
 -1      4020 2.04096E+01 6.44505E-01 2.77145E-03 3.82377E-02 3.38745E-14-2.08550E-13
 -1      4021 1.92558E+01-1.55375E+00-9.99460E-03 2.68061E+00 5.56698E-14-3.17546E-13
 -1      4022 2.04086E+01 4.51705E-01-1.34872E-03-1.34737E-02-6.48056E-14-2.32969E-13
 -1      4023 2.03782E+01 3.77167E-01 4.85695E-04 7.62461E-03 7.01067E-14-1.62458E-13
 -1      4024 2.03968E+01 4.70479E-01 3.99964E-04 2.32400E-02 5.06426E-14-1.71227E-13
 -1      4025 2.03651E+01 2.72632E-01-1.29751E-03-3.14349E-02 5.11523E-14-1.56105E-13
 -1      4026 2.02364E+01-6.58248E-02 4.28666E-04-1.02288E-01-3.02412E-15-1.76594E-13
 -1      4027 2.02720E+01-5.48290E-02-5.77698E-04-8.39937E-02-1.46052E-14-1.25218E-13
 -1      4028 2.02172E+01-8.04305E-02 1.26407E-04-1.01276E-01 2.77657E-14-1.53234E-13
 -1      4029 2.03535E+01 1.35099E-02 2.82413E-04 4.05847E-02 5.18619E-14-1.64712E-13
 -1      4030 2.03313E+01-2.42055E-02 1.81739E-04 4.57987E-02 2.29988E-14-1.43990E-13
 -1      4031 2.03079E+01-5.34339E-02 2.92469E-04 4.47031E-02-2.35731E-14-1.16239E-13
 -1      4032 2.02846E+01-7.44710E-02 1.58802E-04 4.61743E-02 6.48371E-15-1.30515E-13
 -1      4033 2.03292E+01-3.73570E-02-7.54912E-04 2.49712E-02 1.28465E-14-1.47692E-13
 -1      4034 2.02612E+01-8.92685E-02 3.41002E-04 4.50445E-02 8.87945E-15-1.28997E-13
 -1      4035 2.02397E+01-9.88961E-02 4.21840E-04 4.44419E-02-2.21717E-14-1.43418E-13
 -1      4036 2.02805E+01-8.21105E-02-7.53513E-04 2.54561E-02-7.36200E-15-1.27678E-13
 -1      4037 2.02170E+01-1.04297E-01 2.64734E-04 4.17203E-02-5.18302E-14-1.55050E-13
 -1      4038 2.01972E+01-1.05617E-01 3.90125E-04 3.99545E-02-9.83496E-14-1.63412E-13
 -1      4039 2.02359E+01-1.04438E-01-9.61838E-04 2.33736E-02-6.92746E-14-1.58537E-13
 -1      4040 2.01769E+01-1.04162E-01 2.63837E-04 3.74873E-02-9.34053E-14-1.32610E-13
 -1      4041 2.01593E+01-1.00042E-01 3.73954E-04 3.52184E-02-5.80236E-14-1.36682E-13
 -1      4042 2.01929E+01-1.08102E-01-1.01958E-03 2.13493E-02-6.47184E-14-1.68804E-13
 -1      4043 2.01413E+01-9.42082E-02 1.83691E-04 3.28697E-02-3.46966E-14-1.23376E-13
 -1      4044 2.01259E+01-8.64153E-02 2.40124E-04 3.04834E-02 8.04376E-16-1.16802E-13
 -1      4045 2.01556E+01-9.99895E-02-6.86035E-04 1.91170E-02-1.68084E-14-1.20756E-13
 -1      4046 2.01103E+01-7.72644E-02 1.36692E-04 2.88360E-02 1.99889E-14-1.51128E-13
 -1      4047 2.00971E+01-6.69364E-02 2.46054E-04 2.68435E-02-8.30472E-15-1.55004E-13
 -1      4048 2.01221E+01-8.38784E-02-4.46251E-04 1.68696E-02-2.26998E-15-1.24357E-13
 -1      4049 2.00831E+01-5.55849E-02 3.17864E-05 2.54873E-02-4.15139E-14-1.15764E-13
 -1      4050 2.00717E+01-4.31075E-02 2.57747E-04 2.42691E-02-6.19915E-14-7.23680E-14
 -1      4051 2.00932E+01-6.29181E-02-3.61396E-04 1.46763E-02-5.98870E-15-1.96059E-13
 -1      4052 2.00588E+01-2.99238E-02-3.55634E-05 2.33031E-02-4.50049E-14-1.30119E-14
 -1      4053 2.00481E+01-1.55222E-02 1.92822E-04 2.30202E-02-5.89300E-15-1.06342E-14
 -1      4054 2.00676E+01-3.76062E-02-2.69633E-04 1.32036E-02-2.79901E-14-5.38764E-14
 -1      4055 2.00355E+01-3.74480E-04-1.17632E-04 2.28588E-02 3.51357E-14 3.96206E-14
 -1      4056 2.00249E+01 1.60561E-02 1.45410E-04 2.37516E-02 1.38169E-13 4.71444E-14
 -1      4057 2.00431E+01-7.82631E-03-1.10303E-04 1.29161E-02 3.88457E-14-6.21288E-14
 -1      4058 2.00118E+01 3.32947E-02-2.31776E-04 2.44456E-02 1.26032E-13 2.96045E-14
 -1      4059 2.00004E+01 5.20859E-02 9.81585E-05 2.67584E-02 4.77683E-14 1.02025E-14
 -1      4060 2.00189E+01 2.62269E-02 1.36161E-04 1.37942E-02 1.15290E-13-9.98811E-14
 -1      4061 1.99856E+01 7.18072E-02-3.67984E-04 2.85098E-02 3.42322E-14 2.28307E-14
 -1      4062 1.99724E+01 9.34061E-02 5.48893E-05 3.25486E-02 5.74475E-14 7.59134E-15
 -1      4063 1.99925E+01 6.52233E-02 4.20575E-04 1.61485E-02 8.03025E-14-3.60110E-14
 -1      4064 1.99545E+01 1.16048E-01-5.33391E-04 3.56509E-02 2.15881E-14-2.06709E-14
 -1      4065 1.99386E+01 1.40924E-01 1.88972E-05 4.18114E-02-2.20441E-15 3.30620E-14
 -1      4066 1.99618E+01 1.10089E-01 7.48332E-04 2.04396E-02 2.17983E-14-6.26666E-15
 -1      4067 1.99162E+01 1.66882E-01-7.36298E-04 4.66855E-02-6.42693E-14 1.59675E-14
 -1      4068 1.98962E+01 1.95415E-01-3.81434E-06 5.54897E-02-1.41455E-13-4.43300E-14
 -1      4069 1.99240E+01 1.61814E-01 1.12905E-03 2.73124E-02-9.24062E-14-6.29244E-14
 -1      4070 1.98677E+01 2.24917E-01-9.86356E-04 6.27412E-02-1.22110E-13-8.22629E-14
 -1      4071 1.98423E+01 2.57261E-01-2.74760E-06 7.48884E-02-8.53008E-15-9.83933E-14
 -1      4072 1.98763E+01 2.21235E-01 1.57179E-03 3.77015E-02-1.26254E-13-5.39381E-14
 -1      4073 1.98059E+01 2.90201E-01-1.29495E-03 8.53853E-02 4.86704E-14-2.14819E-13
 -1      4074 1.97741E+01 3.26097E-01 3.94097E-05 1.01821E-01 3.28695E-14-2.10414E-13
 -1      4075 1.98153E+01 2.88755E-01 2.08312E-03 5.29706E-02-1.05836E-13-1.90927E-13
 -1      4076 1.97277E+01 3.61820E-01-1.67576E-03 1.16800E-01 2.42704E-14-2.64029E-13
 -1      4077 1.96884E+01 4.00367E-01 1.49858E-04 1.38813E-01-2.69979E-14-2.27377E-13
 -1      4078 1.97374E+01 3.63996E-01 2.66551E-03 7.51046E-02-3.27848E-14-3.69898E-13
 -1      4079 1.96299E+01 4.37393E-01-2.14557E-03 1.60022E-01-5.73270E-14-2.41117E-13
 -1      4080 1.95823E+01 4.76750E-01 3.69800E-04 1.89375E-01-1.32356E-13-2.02046E-13
 -1      4081 1.96389E+01 4.45340E-01 3.31594E-03 1.06975E-01-3.43780E-14-5.00897E-13
 -1      4082 1.95097E+01 5.12425E-01-2.72564E-03 2.19270E-01-1.44565E-13-1.13672E-13
 -1      4083 1.94540E+01 5.49450E-01 7.60081E-04 2.58377E-01-9.28535E-14-1.00030E-13
 -1      4084 1.95159E+01 5.29360E-01 4.02518E-03 1.52702E-01-3.93443E-14-3.39785E-13
 -1      4085 1.93652E+01 5.79528E-01-3.44365E-03 3.00376E-01-1.12824E-13 1.31641E-15
 -1      4086 1.93023E+01 6.09347E-01 1.40906E-03 3.52545E-01-9.51975E-14-8.73984E-14
 -1      4087 1.93648E+01 6.10127E-01 4.77782E-03 2.18141E-01-4.66937E-14-2.42520E-13
 -1      4088 1.91957E+01 6.27489E-01-4.33681E-03 4.11362E-01-5.48661E-14-1.28909E-13
 -1      4089 1.91287E+01 6.43009E-01 2.44313E-03 4.81095E-01-3.61031E-14-1.13317E-13
 -1      4090 1.91828E+01 6.78386E-01 5.55109E-03 3.11527E-01-1.09364E-13-7.16021E-14
 -1      4091 1.90031E+01 6.40207E-01-5.45640E-03 5.63186E-01-8.26523E-14-6.05278E-14
 -1      4092 1.89378E+01 6.31533E-01 4.03868E-03 6.56541E-01-1.03530E-13 2.61110E-15
 -1      4093 1.89680E+01 7.20587E-01 6.30215E-03 4.44329E-01-6.56416E-14 2.57159E-14
 -1      4094 1.87930E+01 5.95420E-01-6.87165E-03 7.70678E-01-1.59276E-13 6.58521E-14
 -1      4095 1.87396E+01 5.49103E-01 6.42393E-03 8.95638E-01-1.35813E-13-2.81378E-16
 -1      4096 1.87204E+01 7.17653E-01 6.90188E-03 6.32384E-01-1.22914E-13-3.38948E-14
 -1      4097 1.85773E+01 4.63151E-01-8.62875E-03 1.05361E+00-1.65005E-13 1.23585E-13
 -1      4098 1.85535E+01 3.61115E-01 1.00150E-02 1.22028E+00-1.71492E-13 1.36565E-13
 -1      4099 1.84424E+01 6.42972E-01 6.85706E-03 8.97300E-01-8.90321E-14 8.03904E-14
 -1      4100 1.83791E+01 2.02752E-01-1.07189E-02 1.43767E+00-1.89325E-13 1.24068E-13
 -1      4101 1.84139E+01 2.07748E-02 1.52084E-02 1.65718E+00-9.97935E-14-4.83272E-14
 -1      4102 1.81410E+01 4.58235E-01 4.39959E-03 1.26793E+00-1.72128E-13 2.06702E-13
 -1      4103 1.82439E+01-2.37523E-01-1.07044E-02 1.95344E+00-4.22058E-14-1.17083E-13
 -1      4104 1.83611E+01-5.42690E-01 1.65575E-02 2.23917E+00-1.70040E-14-2.00065E-13
 -1      4105 1.78382E+01 1.14250E-01 1.74077E-04 1.77837E+00-1.60763E-13 1.85948E-13
 -1      4106 1.99094E+01 1.85648E-01-2.58531E-04-6.28704E-02-1.07489E-15-5.71712E-15
 -1      4107 1.99290E+01 1.56939E-01-5.58518E-04-5.48515E-02-1.04212E-14-4.79609E-14
 -1      4108 2.04180E+01 6.33892E-01 3.71775E-03-3.15249E-02-3.75184E-14-2.45867E-13
 -1      4109 2.03894E+01 7.77850E-01 6.12502E-04-6.32221E-02-3.30950E-14-2.85948E-13
 -1      4110 1.99811E+01 8.37531E-02 3.65728E-06-4.16211E-02-5.87536E-15 3.46969E-14
 -1      4111 1.99930E+01 6.28244E-02-3.06095E-04-3.75737E-02 1.47950E-14-1.05038E-14
 -1      4112 1.45222E+01 9.83500E-01 4.13195E-02 2.63177E-01-2.99851E-14 3.12811E-13
 -1      4113 1.97871E+01 3.25476E-01-7.37502E-04-9.64251E-02-1.31300E-13 2.63578E-13
 -1      4114 1.98223E+01 2.86434E-01-8.80898E-04-8.46191E-02-9.11097E-14 1.58042E-13
 -1      4115 1.98567E+01 2.50208E-01-4.59822E-04-7.83056E-02-5.85404E-14 1.40023E-14
 -1      4116 1.98829E+01 2.16594E-01-7.11725E-04-6.82768E-02 1.36320E-14 2.16750E-14
 -1      4117 1.98894E+01 2.10431E-01 1.37400E-03-4.40326E-02-7.38193E-14-7.69343E-14
 -1      4118 1.98303E+01 2.79806E-01 1.88271E-03-5.29600E-02-1.73306E-13 5.72653E-14
 -1      4119 1.95742E+01 5.10186E-01-1.66038E-03-1.35374E-01-3.47486E-14 1.85079E-13
 -1      4120 1.96372E+01 4.60035E-01-1.24296E-03-1.22195E-01-3.51694E-14 2.73371E-13
 -1      4121 1.94162E+01 6.18202E-01-2.40394E-03-1.50852E-01-9.80459E-14 1.53829E-13
 -1      4122 1.94997E+01 5.63559E-01-1.41758E-03-1.39241E-01-6.39324E-14 1.98063E-13
 -1      4123 1.95203E+01 5.51459E-01 4.01804E-03-7.20464E-02-4.84324E-14 1.67268E-13
 -1      4124 1.92110E+01 7.33057E-01-3.42938E-03-1.57531E-01-1.26676E-13 1.52664E-14
 -1      4125 1.93211E+01 6.75895E-01-1.57749E-03-1.50070E-01-1.19204E-13 9.26103E-14
 -1      4126 1.93512E+01 6.59702E-01 4.97487E-03-6.54399E-02-5.22053E-14 8.00953E-14
 -1      4127 1.89457E+01 8.49085E-01-4.84237E-03-1.48304E-01-1.62830E-13-3.06287E-16
 -1      4128 1.90904E+01 7.92775E-01-1.72786E-03-1.48560E-01-1.10342E-13-1.80727E-14
 -1      4129 1.91349E+01 7.70799E-01 6.08384E-03-4.28423E-02-7.11987E-14-1.38224E-13
 -1      4130 1.86035E+01 9.57346E-01-6.80184E-03-1.13753E-01 1.09771E-14 1.25778E-14
 -1      4131 1.87933E+01 9.07064E-01-1.90333E-03-1.26258E-01-1.26102E-13-6.47462E-14
 -1      4132 1.88599E+01 8.77338E-01 7.38353E-03 5.19755E-03-8.86477E-14-9.92810E-14
 -1      4133 1.81610E+01 1.04489E+00-9.54525E-03-4.22452E-02-9.54972E-14 1.17532E-13
 -1      4134 1.84109E+01 1.00803E+00-2.18878E-03-7.21526E-02 1.79319E-14 5.81974E-14
 -1      4135 1.85112E+01 9.68463E-01 8.94858E-03 9.15776E-02-2.20890E-14 5.89704E-14
 -1      4136 1.75846E+01 1.09415E+00-1.31042E-02 7.93703E-02 9.97911E-15 1.79817E-14
 -1      4137 1.79155E+01 1.08089E+00-2.67993E-03 2.70782E-02-5.94858E-14 9.63257E-14
 -1      4138 1.80674E+01 1.02938E+00 1.08924E-02 2.33595E-01-8.15614E-14 3.44243E-14
 -1      4139 1.68178E+01 1.07998E+00-1.79706E-02 2.64293E-01-1.43037E-14-2.41560E-14
 -1      4140 1.72657E+01 1.10575E+00-3.19636E-03 1.84271E-01 3.75310E-14-2.80756E-14
 -1      4141 1.74934E+01 1.04073E+00 1.26000E-02 4.53743E-01 8.55110E-15-2.02493E-13
 -1      4142 1.58798E+01 1.19097E-01 9.47870E-03 2.23614E+00-1.14379E-13 1.87503E-13
 -1      4143 1.50730E+01 4.17749E-01 2.75218E-02 1.93914E+00-2.32329E-13 1.35893E-13
 -1      4144 2.03736E+01 8.28528E-01 5.19023E-04-9.69289E-02-2.60748E-14-2.03900E-13
 -1      4145 1.86813E+01-1.41485E+00 1.19765E-02 2.88339E+00 3.50280E-14-2.82453E-13
 -1      4146 1.76092E+01-1.17245E+00 2.12539E-02 3.21640E+00 6.11859E-14-1.64110E-13
 -1      4147 1.69505E+01-5.94051E-01-1.48701E-02 2.78537E+00 4.00426E-14 9.94526E-14
 -1      4148 1.83892E+01-9.22832E-01-6.21882E-03 2.55273E+00 6.84419E-14-3.03648E-13
 -1      4149 2.04227E+01 5.34366E-01-2.33767E-03 6.66198E-03 1.76515E-14-2.46286E-13
 -1      4150 2.04247E+01 5.35760E-01-1.71362E-03-7.30592E-03-6.26502E-15-2.23426E-13
 -1      4151 2.00068E+01 4.36405E-02 9.42188E-05-3.57935E-02-1.72615E-14 2.43947E-14
 -1      4152 2.00170E+01 2.55991E-02-2.03988E-04-3.35240E-02-2.15732E-14 4.57251E-14
 -1      4153 1.99991E+01 5.61985E-02 2.72128E-04-2.60572E-02 2.42548E-14-2.24081E-14
 -1      4154 1.48887E+01 7.47906E-01-5.54389E-03 1.12747E+00-6.67196E-14 7.97218E-14
 -1      4155 2.00294E+01 9.02106E-03 1.69796E-04-3.28930E-02-2.00713E-14 8.08669E-14
 -1      4156 2.00389E+01-6.66789E-03-1.13326E-04-3.22143E-02 5.08302E-15 9.90955E-14
 -1      4157 2.00239E+01 1.84948E-02 5.01097E-06-2.37792E-02 2.62788E-14 1.12740E-13
 -1      4158 1.96951E+01 4.12165E-01-1.12356E-03-1.16124E-01-1.15178E-13 2.98206E-13
 -1      4159 1.97423E+01 3.67453E-01-1.06075E-03-1.03105E-01-1.41589E-13 2.68084E-13
 -1      4160 1.96516E+01 4.50682E-01 3.19253E-03-6.93778E-02-5.85434E-14 1.80704E-13
 -1      4161 2.00509E+01-2.11341E-02 2.25556E-04-3.26482E-02 2.47900E-14 8.70122E-14
 -1      4162 2.00608E+01-3.47585E-02-5.22813E-06-3.33810E-02 6.32691E-14 6.55168E-14
 -1      4163 2.00470E+01-1.42499E-02-2.10116E-04-2.32581E-02 3.91804E-14 5.66395E-14
 -1      4164 2.04104E+01 4.93107E-01-1.36335E-03 2.34839E-02 4.52313E-14-2.05766E-13
 -1      4165 2.04203E+01 5.23375E-01-9.29726E-04 1.15832E-02 3.03112E-14-2.34444E-13
 -1      4166 2.04353E+01 4.11016E-01 3.39098E-03 1.97097E-04 3.72096E-14-2.21822E-13
 -1      4167 2.04149E+01 3.71171E-01 2.20613E-03-4.17672E-03 5.46737E-14-1.86995E-13
 -1      4168 2.03930E+01 1.23480E-01 3.46657E-04 3.03828E-02-2.26532E-14-1.67495E-13
 -1      4169 2.03743E+01 6.18568E-02-1.35306E-04 4.00314E-02 1.85369E-14-1.75834E-13
 -1      4170 2.03738E+01 4.27913E-02-6.10798E-04 2.12496E-02 3.81809E-14-1.55022E-13
 -1      4171 2.04190E+01 2.88665E-01-6.67351E-04 1.00020E-02-4.85804E-14-1.90997E-13
 -1      4172 2.04063E+01 1.98169E-01-6.92381E-04 2.53867E-02-4.62779E-14-1.97944E-13
 -1      4173 2.04091E+01 1.72383E-01 3.71059E-04 1.48522E-02-1.38722E-14-1.49717E-13
 -1      4174 2.04165E+01 4.89962E-01-7.86680E-04-9.43664E-03-3.89824E-14-2.13080E-13
 -1      4175 1.99496E+01 1.30623E-01-1.09826E-04-5.06076E-02 5.55706E-14-6.96922E-14
 -1      4176 1.99646E+01 1.06154E-01-4.23454E-04-4.46228E-02 1.82241E-14-1.66087E-14
 -1      4177 1.99348E+01 1.50864E-01 9.45167E-04-3.62800E-02-8.51513E-15-1.45777E-13
 -1      4178 1.99703E+01 9.98978E-02 5.82293E-04-3.02233E-02 2.76159E-14-1.06094E-13
 -1      4179 2.01584E+01-9.98885E-02 3.73561E-04-5.06234E-02 2.40997E-14-1.09109E-13
 -1      4180 2.01754E+01-1.02967E-01 3.05240E-04-5.38279E-02 1.63872E-14-1.00855E-13
 -1      4181 2.04270E+01 3.82384E-01 1.91876E-03 2.75675E-03-3.01883E-14-1.96476E-13
 -1      4182 1.77230E+01-4.43622E-01-2.73455E-03 2.40663E+00-1.96286E-14 6.95662E-15
 -1      4183 2.21331E+01-3.29111E+00 7.22888E-02 2.35886E+00-4.43803E-14-3.23818E-13
 -1      4184 1.72509E+01-2.70731E-01 1.56379E-02 2.37414E+00 2.73978E-15 1.85587E-13
 -1      4185 1.64642E+01-5.25937E-02 1.50442E-02 2.38698E+00-8.13589E-14 2.97035E-13
 -1      4186 1.61249E+01 3.40079E-01-2.20136E-02 1.85746E+00-1.84929E-13 2.71866E-13
 -1      4187 1.71874E+01 3.58515E-02-1.86233E-03 2.05124E+00-1.85938E-13 3.52640E-13
 -1      4188 2.00731E+01-4.74326E-02 2.05831E-04-3.47064E-02 3.88478E-14 2.74637E-14
 -1      4189 2.00839E+01-5.91553E-02-3.76796E-06-3.66675E-02 1.91006E-14-6.96868E-14
 -1      4190 2.00707E+01-4.23992E-02-1.16390E-04-2.43456E-02 5.88308E-14 3.16091E-15
 -1      4191 2.03371E+01 1.18289E-01-8.31946E-04-7.30783E-02 6.75673E-14-1.49284E-13
 -1      4192 2.03579E+01 1.89431E-01 1.14960E-03-4.92853E-02 6.96397E-14-1.37952E-13
 -1      4193 2.03850E+01 2.47858E-01-1.19413E-03-2.99568E-02 5.93926E-14-1.55751E-13
 -1      4194 2.03565E+01 1.03194E-01-7.84281E-04-6.25458E-02 8.26295E-14-1.81474E-13
 -1      4195 2.00951E+01-7.27445E-02-3.41530E-04-5.18209E-02-1.53633E-15-7.36691E-14
 -1      4196 1.97528E+01 3.59833E-01 2.48473E-03-6.20201E-02-1.74414E-13 1.92442E-13
 -1      4197 1.64961E+01 1.03840E+00-1.12729E-03 4.49872E-01 1.80992E-14-1.31761E-13
 -1      4198 1.68179E+01 9.64769E-01 1.31954E-02 7.99980E-01 3.33563E-14-9.37308E-14
 -1      4199 1.59616E+01 9.85814E-01-1.56222E-02 6.21107E-01 3.94014E-14-8.53605E-14
 -1      4200 2.01405E+01-9.46880E-02 2.42335E-04-4.72394E-02 1.70181E-14-8.32119E-14
 -1      4201 2.01577E+01-1.01550E-01-9.42889E-04-3.49597E-02 2.56146E-14-1.05538E-13
 -1      4202 2.01258E+01-8.76800E-02 3.34800E-04-4.40835E-02 7.71633E-15-8.82293E-14
 -1      4203 2.04286E+01 3.32910E-01-6.11781E-04 3.13923E-03 4.37330E-15-1.60824E-13
 -1      4204 2.01789E+01-9.45857E-02 2.66008E-04-9.35056E-02 2.85024E-14-6.79712E-14
 -1      4205 2.01967E+01-8.92933E-02 5.18046E-04-9.71629E-02 2.00637E-14-8.81872E-14
 -1      4206 2.02299E+01-8.82022E-02-7.54393E-04-8.26980E-02-2.30903E-14-1.12434E-13
 -1      4207 2.02822E+01-6.59889E-02 3.43621E-04-6.43010E-02-2.16709E-14-1.03760E-13
 -1      4208 2.03047E+01-4.33064E-02 6.57468E-04-6.26629E-02 1.25753E-14-1.20904E-13
 -1      4209 2.03263E+01-1.26252E-02-2.16039E-04-6.31185E-02 3.60331E-15-1.33910E-13
 -1      4210 2.03505E+01 2.71212E-02 5.48494E-04-5.60868E-02 4.99988E-14-1.75665E-13
 -1      4211 2.03305E+01-2.57624E-02-8.56938E-04-4.38781E-02 1.44219E-14-1.29969E-13
 -1      4212 2.01883E+01-1.00031E-01-7.22311E-04-7.62486E-02 1.17734E-14-8.03286E-14
 -1      4213 2.01957E+01-1.03621E-01 3.59703E-04-5.71845E-02 1.32224E-14-1.01689E-13
 -1      4214 2.02162E+01-1.01231E-01 5.93290E-04-6.00641E-02 3.84154E-15-1.04359E-13
 -1      4215 2.01953E+01-1.07271E-01-1.07220E-03-3.91575E-02 2.40154E-14-1.30837E-13
 -1      4216 2.04225E+01 2.08733E-01 1.12493E-03-3.87092E-04 1.31378E-14-1.65212E-13
 -1      4217 2.04079E+01 1.28447E-01-3.97661E-05 5.70575E-03 1.32710E-14-1.45832E-13
 -1      4218 2.02993E+01-7.46936E-02 4.39884E-04 5.21439E-03-7.53250E-15-1.57018E-13
 -1      4219 2.02764E+01-9.10608E-02 7.60716E-04 4.90231E-03-3.92072E-15-1.35513E-13
 -1      4220 2.02422E+01-1.02043E-01 2.70429E-04-8.88293E-03-3.39825E-14-1.37478E-13
 -1      4221 2.02209E+01-1.06028E-01 7.23406E-04-8.33237E-03-5.09429E-14-1.17293E-13
 -1      4222 2.02006E+01-1.06578E-01 6.50907E-04-7.55220E-03-1.66632E-14-8.59861E-14
 -1      4223 2.01801E+01-1.04755E-01 6.12881E-04-7.70434E-03 6.03544E-15-6.51469E-14
 -1      4224 2.01619E+01-1.00083E-01 4.87545E-04-6.73358E-03-3.57783E-15-4.85376E-14
 -1      4225 2.01436E+01-9.37316E-02 3.65890E-04-6.92781E-03 2.00816E-14-3.40186E-14
 -1      4226 2.01023E+01-6.86636E-02 1.80060E-04 2.88368E-03 2.51032E-14-7.84361E-14
 -1      4227 2.00888E+01-5.70555E-02 2.21273E-04 2.31376E-03 3.08434E-15-1.05282E-13
 -1      4228 2.00709E+01-4.00156E-02 1.30956E-04-5.18024E-03 1.37780E-14-6.29449E-14
 -1      4229 2.00584E+01-2.60336E-02 1.42609E-04-5.11163E-03 1.60505E-14 1.09634E-14
 -1      4230 2.00465E+01-1.10397E-02 9.88075E-05-5.15479E-03 6.71119E-16 1.99236E-14
 -1      4231 2.00340E+01 4.89727E-03 4.14527E-05-4.90597E-03 6.09039E-14 3.06547E-14
 -1      4232 2.00216E+01 2.19926E-02-7.37641E-05-5.51189E-03 7.67246E-14 1.07930E-14
 -1      4233 2.00085E+01 4.03206E-02-9.76763E-05-4.89367E-03 7.43954E-14-4.25650E-14
 -1      4234 1.99947E+01 5.99046E-02-2.89894E-04-6.11867E-03 6.96871E-14-6.88837E-14
 -1      4235 1.99799E+01 8.11101E-02-2.56444E-04-4.96194E-03 6.16175E-14-8.51125E-14
 -1      4236 1.99633E+01 1.03712E-01-5.44980E-04-6.79765E-03 5.71991E-14-6.59264E-14
 -1      4237 1.99455E+01 1.28358E-01-4.34643E-04-4.88557E-03-2.32654E-15-9.66239E-14
 -1      4238 1.99246E+01 1.54561E-01-8.47736E-04-7.23129E-03-8.39423E-14-7.10820E-14
 -1      4239 1.99026E+01 1.83212E-01-6.34091E-04-4.24378E-03-1.25945E-13-8.62311E-14
 -1      4240 1.98756E+01 2.13564E-01-1.21027E-03-6.85570E-03-1.43496E-13-7.04730E-14
 -1      4241 1.98476E+01 2.46676E-01-8.54205E-04-2.30996E-03-1.52420E-13-9.19466E-14
 -1      4242 1.98123E+01 2.81570E-01-1.64648E-03-4.71910E-03-2.07964E-13-1.28307E-14
 -1      4243 1.97766E+01 3.19356E-01-1.08988E-03 2.11194E-03-1.90057E-13-1.35212E-13
 -1      4244 1.97306E+01 3.58885E-01-2.17179E-03 7.17709E-04-1.23287E-13-8.12889E-14
 -1      4245 1.96853E+01 4.01128E-01-1.32958E-03 1.09192E-02-7.62079E-14-8.79029E-14
 -1      4246 1.96256E+01 4.44889E-01-2.80379E-03 1.18555E-02-5.08451E-14-1.09791E-13
 -1      4247 1.95688E+01 4.90718E-01-1.55348E-03 2.70274E-02-1.94142E-14-9.81765E-14
 -1      4248 1.94918E+01 5.37563E-01-3.56382E-03 3.23208E-02 2.06595E-14-1.54556E-13
 -1      4249 1.94216E+01 5.85165E-01-1.73191E-03 5.47887E-02 1.36921E-14-1.19620E-13
 -1      4250 1.93230E+01 6.32897E-01-4.48057E-03 6.74344E-02-5.70450E-15-1.89529E-13
 -1      4251 1.92377E+01 6.79180E-01-1.82400E-03 1.00529E-01-1.39012E-14-9.53290E-14
 -1      4252 1.91124E+01 7.24181E-01-5.59649E-03 1.24799E-01-4.85633E-14-1.25200E-13
 -1      4253 1.90107E+01 7.64394E-01-1.77512E-03 1.73219E-01-5.19881E-14-7.69400E-14
 -1      4254 1.88522E+01 8.01221E-01-6.97638E-03 2.15041E-01-8.29550E-14-8.11557E-14
 -1      4255 1.87334E+01 8.28536E-01-1.50516E-03 2.85324E-01-8.25281E-14-4.62816E-14
 -1      4256 1.85332E+01 8.49490E-01-8.70270E-03 3.52793E-01-8.74916E-14-1.82737E-14
 -1      4257 1.83978E+01 8.54549E-01-8.41751E-04 4.53938E-01-7.41074E-14 7.27780E-14
 -1      4258 1.81440E+01 8.49405E-01-1.07480E-02 5.58285E-01-9.86132E-14 5.83536E-14
 -1      4259 1.79955E+01 8.19739E-01 9.18698E-04 7.02634E-01-9.16140E-14 4.09889E-14
 -1      4260 1.76701E+01 7.76099E-01-1.22930E-02 8.60543E-01-7.41410E-14 4.81092E-14
 -1      4261 1.75149E+01 6.94799E-01 6.10428E-03 1.06467E+00-8.10066E-14 9.05641E-14
 -1      4262 1.71758E+01 5.79136E-01-1.48732E-02 1.30384E+00-7.79901E-14 2.03715E-13
 -1      4263 1.70060E+01 4.16913E-01 5.91506E-03 1.58034E+00-5.42732E-14 2.15543E-13
 -1      4264 1.55370E+01 8.35746E-01-8.21589E-03 9.37095E-01-1.07478E-13 4.84339E-14
 -1      4265 2.03801E+01 5.12132E-02 1.98584E-04-1.00563E-02 1.11911E-14-1.41525E-13
 -1      4266 2.03599E+01 4.33890E-03 7.61162E-04-6.78621E-03 3.25659E-14-1.61855E-13
 -1      4267 2.02729E+01-7.87612E-02 4.26719E-04-4.97093E-02-3.42939E-14-1.07834E-13
 -1      4268 2.02978E+01-7.15017E-02-6.99542E-04-3.11183E-02-1.38376E-14-1.09595E-13
 -1      4269 2.00977E+01-6.97659E-02 2.75805E-04-3.86294E-02-2.32945E-15-4.89048E-14
 -1      4270 2.01102E+01-7.95088E-02 7.89836E-05-4.14631E-02-2.10502E-14-7.81256E-14
 -1      4271 2.00960E+01-6.65273E-02-2.45001E-04-2.65748E-02-1.14326E-14-6.09733E-14
 -1      4272 1.61106E+01 7.14379E-01 1.96576E-02 1.34317E+00-1.50614E-13 2.31321E-14
 -1      4273 2.02507E+01-9.19990E-02-6.15000E-05-4.91732E-02-3.31856E-14-1.02512E-13
 -1      4274 2.04241E+01 2.84748E-01-7.97087E-04-3.31443E-03 2.45604E-14-1.89057E-13
 -1      4275 2.03369E+01-3.17247E-02 2.35690E-04-1.01084E-02 1.82218E-14-1.40584E-13
 -1      4276 2.03126E+01-5.97299E-02 3.91143E-04-8.76347E-03-1.35537E-14-1.27552E-13
 -1      4277 2.02499E+01-9.76868E-02-8.74590E-04-2.86857E-02-2.76498E-14-1.35279E-13
 -1      4278 2.01333E+01-8.84120E-02 3.00445E-04 3.73439E-03-2.26963E-14-3.36326E-14
 -1      4279 2.01172E+01-7.93233E-02 2.19025E-04 2.91999E-03-4.09848E-15-2.74730E-14
 -1      4280 2.03850E+01 8.35020E-02-4.58174E-04-2.35272E-02 3.75974E-14-1.84339E-13
 -1      4281 2.01245E+01-8.64001E-02-3.83189E-04-3.00276E-02-1.85244E-14-4.89148E-14
 -1      4282 2.04207E+01 2.69877E-01-1.44567E-03-8.63710E-03 4.82605E-14-2.01784E-13
 -1      4283 2.04033E+01 2.70542E-01-8.05383E-04-2.16364E-02 6.73451E-14-1.96597E-13
 -1      4284 2.01091E+01-7.44880E-02-2.48693E-04-9.91469E-03-4.48553E-14-4.14063E-14
 -1      4285 2.03821E+01 1.03467E-01-3.47069E-04-3.94041E-02 7.29017E-14-1.94764E-13
 -1      4286 2.00763E+01-4.66657E-02-1.93242E-04-1.64402E-02 3.97238E-14-3.36892E-14
 -1      4287 2.04015E+01 1.71345E-01 1.93741E-03-2.72235E-02 6.51491E-14-1.84202E-13
 -1      4288 2.01330E+01-9.04012E-02-3.35989E-04-2.14264E-02-2.36787E-14-4.97594E-14
 -1      4289 2.01175E+01-8.05439E-02 1.58497E-04-1.97750E-02-6.09259E-14-6.01594E-14
 -1      4290 1.65168E+01 5.43987E-01-8.83485E-03 1.51043E+00-9.25900E-14 2.41564E-13
 -1      4291 2.01027E+01-7.03945E-02 2.41344E-06-1.83899E-02-3.93549E-14-3.80896E-14
 -1      4292 2.00889E+01-5.88726E-02 7.84735E-05-1.73421E-02 2.99561E-14-5.84208E-14
 -3
    1PSTEP                         3           1           1          
  100CL  101 1.000000000        4292                     0    1           1
 -4  TOSTRAIN    6    1
 -5  EXX         1    4    1    1
 -5  EYY         1    4    2    2
 -5  EZZ         1    4    3    3
 -5  EXY         1    4    1    2
 -5  EYZ         1    4    2    3
 -5  EZX         1    4    3    1
 -1         1 1.16918E-04 1.28687E-05-5.10175E-05 1.09818E-04 1.61063E-18 3.09548E-18
 -1         2 4.69444E-05-1.42883E-04 2.54033E-05 1.10594E-06-4.14112E-18-1.96112E-18
 -1         3 9.49340E-05-2.88563E-05-2.79889E-05-3.06378E-07 4.74554E-18 4.31944E-18
 -1         4 9.54154E-05-2.83664E-05-2.87169E-05-3.66417E-07-1.75500E-18 3.33872E-18
 -1         5 1.43348E-04-2.14782E-05-4.25292E-05 3.85308E-05-2.51833E-19 1.63909E-17
 -1         6 1.45410E-04 2.57585E-10-4.41884E-05-5.35256E-05-9.72394E-19 1.41700E-17
 -1         7 9.06126E-05-5.11427E-07-3.90694E-05-2.92497E-05-1.50242E-19 2.18582E-18
 -1         8 8.51275E-05 8.64155E-08-3.63405E-05-2.02673E-05-1.63689E-19-1.42122E-18
 -1         9 8.28151E-05 7.68397E-08-3.53517E-05-1.56375E-05-1.43440E-19-3.33319E-18
 -1        10 8.17759E-05 3.86785E-08-3.48821E-05-1.20748E-05-7.32617E-20-4.21013E-18
 -1        11 8.12521E-05 1.95041E-08-3.46524E-05-9.00956E-06-7.37613E-20-4.58250E-18
 -1        12 8.09810E-05 9.25221E-09-3.45376E-05-6.28117E-06-2.58643E-20-4.71394E-18
 -1        13 8.08385E-05 4.65077E-09-3.44794E-05-3.68358E-06-2.11775E-20-4.63372E-18
 -1        14 8.07788E-05 2.79774E-09-3.44556E-05-1.18301E-06 3.47883E-20-4.56822E-18
 -1        15 8.07809E-05 2.78498E-09-3.44564E-05 1.28818E-06 4.19953E-20-4.38607E-18
 -1        16 8.08451E-05 4.56810E-09-3.44817E-05 3.79392E-06 7.58847E-20-4.22923E-18
 -1        17 8.09930E-05 8.44083E-09-3.45414E-05 6.40377E-06 8.57621E-20-3.96450E-18
 -1        18 8.12693E-05 1.81907E-08-3.46577E-05 9.15202E-06 1.13066E-19-3.43981E-18
 -1        19 8.17977E-05 3.81881E-08-3.48902E-05 1.22538E-05 1.78009E-19-2.64260E-18
 -1        20 8.28382E-05 8.14766E-08-3.53643E-05 1.58665E-05 1.91469E-19-1.25869E-18
 -1        21 8.50937E-05 1.69341E-07-3.63787E-05 2.04790E-05 2.33252E-19 1.23384E-18
 -1        22 9.16492E-05-9.99043E-08-3.87410E-05 2.79973E-05 3.75871E-20 6.04427E-18
 -1        23 1.12983E-04-3.81294E-05-3.53995E-05-4.40200E-06-6.27810E-19 1.08406E-17
 -1        24 9.28179E-05-2.77010E-05-2.90032E-05 3.91324E-07-1.53849E-19 8.13845E-18
 -1        25 8.91370E-05-2.68575E-05-2.69345E-05 3.76121E-07-9.47916E-20 5.29947E-18
 -1        26 8.80382E-05-2.64952E-05-2.63983E-05 2.04258E-07-4.69317E-20 3.24455E-18
 -1        27 8.80690E-05-2.64748E-05-2.63919E-05 1.40003E-07-5.28688E-20 1.96130E-18
 -1        28 8.86073E-05-2.66125E-05-2.65629E-05 1.01064E-07-9.59323E-22 1.07421E-18
 -1        29 8.93672E-05-2.68267E-05-2.67969E-05 7.54367E-08 1.81379E-19 4.84609E-19
 -1        30 9.01970E-05-2.70679E-05-2.70485E-05 5.71685E-08-3.68374E-20 8.84091E-20
 -1        31 9.10116E-05-2.73079E-05-2.72942E-05 4.34393E-08-4.11414E-20-5.73901E-19
 -1        32 9.17639E-05-2.75309E-05-2.75209E-05 3.28129E-08-1.63265E-19-1.45777E-18
 -1        33 9.24299E-05-2.77291E-05-2.77217E-05 2.44775E-08 3.39068E-19-1.96632E-18
 -1        34 9.30009E-05-2.78995E-05-2.78940E-05 1.79154E-08-1.27589E-19-2.21850E-18
 -1        35 9.34775E-05-2.80420E-05-2.80379E-05 1.27589E-08 1.74670E-19-2.34008E-18
 -1        36 9.38661E-05-2.81584E-05-2.81554E-05 8.72563E-09-1.92247E-19-2.30117E-18
 -1        37 9.41765E-05-2.82516E-05-2.82494E-05 5.58938E-09-1.43662E-19-2.45996E-18
 -1        38 9.44207E-05-2.83251E-05-2.83234E-05 3.16765E-09-1.54438E-19-3.16346E-18
 -1        39 9.46112E-05-2.83825E-05-2.83812E-05 1.31604E-09-7.25765E-20-3.24483E-18
 -1        40 9.47616E-05-2.84280E-05-2.84270E-05-7.35170E-11-1.08242E-19-3.38246E-18
 -1        41 9.48855E-05-2.84656E-05-2.84648E-05-1.07242E-09 1.10775E-20-4.72080E-18
 -1        42 9.49976E-05-2.84997E-05-2.84991E-05-1.71343E-09-1.12462E-19-5.50679E-18
 -1        43 9.51137E-05-2.85351E-05-2.85347E-05-1.98719E-09-1.37679E-19-4.93172E-18
 -1        44 9.52514E-05-2.85770E-05-2.85769E-05-1.83777E-09-8.82564E-20-4.72883E-18
 -1        45 9.54304E-05-2.86314E-05-2.86316E-05-1.15734E-09-2.64917E-19-5.87212E-18
 -1        46 9.56735E-05-2.87050E-05-2.87058E-05 2.18553E-10 4.35728E-19-6.80062E-18
 -1        47 9.60064E-05-2.88056E-05-2.88071E-05 2.51298E-09-1.15406E-19-4.78550E-18
 -1        48 9.64577E-05-2.89416E-05-2.89442E-05 6.00210E-09-7.46820E-20-3.51725E-18
 -1        49 9.70575E-05-2.91219E-05-2.91260E-05 1.09940E-08 2.01713E-19-2.88461E-18
 -1        50 9.78347E-05-2.93551E-05-2.93609E-05 1.77776E-08-3.38313E-19-3.57992E-18
 -1        51 9.88118E-05-2.96476E-05-2.96554E-05 2.65205E-08-1.07307E-19-3.32436E-18
 -1        52 9.99970E-05-3.00016E-05-3.00112E-05 3.70814E-08-8.27917E-20-4.53602E-18
 -1        53 1.01371E-04-3.04112E-05-3.04215E-05 4.86974E-08-2.12956E-19-6.18283E-18
 -1        54 1.02870E-04-3.08567E-05-3.08655E-05 5.95097E-08-4.75442E-19-6.83358E-18
 -1        55 1.04361E-04-3.12986E-05-3.13016E-05 6.59375E-08-5.93748E-20-6.41223E-18
 -1        56 1.05620E-04-3.16700E-05-3.16606E-05 6.20591E-08-3.17369E-20-6.83565E-18
 -1        57 1.06314E-04-3.18719E-05-3.18419E-05 3.94691E-08 1.05495E-19-5.77911E-18
 -1        58 1.06007E-04-3.17754E-05-3.17173E-05-1.14189E-08 1.03958E-19-4.41799E-18
 -1        59 1.04220E-04-3.12389E-05-3.11513E-05-9.72867E-08-9.14051E-20-4.47762E-18
 -1        60 1.00564E-04-3.01472E-05-3.00424E-05-2.14335E-07-1.09002E-19-2.30552E-18
 -1        61 9.49574E-05-2.84755E-05-2.83837E-05-3.39364E-07 5.61221E-19-7.68378E-19
 -1        62 8.78530E-05-2.63576E-05-2.63220E-05-4.27149E-07-3.40785E-19-1.27685E-18
 -1        63 8.03469E-05-2.41191E-05-2.41747E-05-4.24613E-07-3.42691E-19-3.00526E-18
 -1        64 7.39870E-05-2.22213E-05-2.23694E-05-3.02926E-07 4.84868E-19-5.10949E-18
 -1        65 7.02567E-05-2.11082E-05-2.13058E-05-8.71850E-08-1.18973E-19-4.55938E-18
 -1        66 6.99622E-05-2.10205E-05-2.12028E-05 1.48149E-07 1.31408E-19-5.72868E-18
 -1        67 7.29181E-05-2.19013E-05-2.20212E-05 3.25684E-07 8.36511E-20-5.36721E-18
 -1        68 7.81426E-05-2.34557E-05-2.35035E-05 4.13904E-07-1.67570E-19-3.23927E-18
 -1        69 8.43544E-05-2.53035E-05-2.52836E-05 4.31357E-07 1.96497E-19-3.75633E-18
 -1        70 9.02784E-05-2.70830E-05-2.69626E-05 3.70931E-07 1.24058E-18 4.20420E-19
 -1        71 9.45329E-05-2.84555E-05-2.81405E-05 1.89116E-07 5.55869E-19 3.33595E-18
 -1        72 1.02187E-04-3.05897E-05-3.41526E-05-1.92933E-06 2.59933E-19 1.51557E-17
 -1        73 9.25747E-05-2.75173E-05-2.89116E-05-3.33312E-07 6.52182E-20 1.19865E-17
 -1        74 8.91249E-05-2.67070E-05-2.69779E-05-1.25979E-07 7.81719E-20 9.69482E-18
 -1        75 8.80682E-05-2.64460E-05-2.64425E-05-9.56529E-08 2.27326E-20 7.72678E-18
 -1        76 8.81038E-05-2.64548E-05-2.64186E-05-7.66740E-08 7.41940E-20 6.13120E-18
 -1        77 8.86414E-05-2.66070E-05-2.65800E-05-6.26426E-08 9.63459E-21 5.40947E-18
 -1        78 8.93986E-05-2.68280E-05-2.68093E-05-5.19096E-08-2.00462E-20 5.14819E-18
 -1        79 9.02250E-05-2.70725E-05-2.70580E-05-4.30773E-08-1.12598E-20 4.74370E-18
 -1        80 9.10359E-05-2.73139E-05-2.73016E-05-3.54921E-08 7.69134E-20 4.20511E-18
 -1        81 9.17844E-05-2.75373E-05-2.75266E-05-2.88967E-08 1.53170E-19 3.06308E-18
 -1        82 9.24470E-05-2.77353E-05-2.77260E-05-2.31742E-08-8.88670E-20 2.46336E-18
 -1        83 9.30147E-05-2.79052E-05-2.78972E-05-1.82488E-08 1.69556E-19 2.64000E-18
 -1        84 9.34881E-05-2.80469E-05-2.80402E-05-1.40482E-08 1.05055E-19 1.64657E-18
 -1        85 9.38737E-05-2.81624E-05-2.81568E-05-1.04929E-08-2.94509E-20 9.37301E-19
 -1        86 9.41812E-05-2.82546E-05-2.82499E-05-7.49510E-09 5.56384E-20-4.26929E-19
 -1        87 9.44222E-05-2.83269E-05-2.83231E-05-4.96175E-09-2.41308E-19-1.30577E-19
 -1        88 9.46093E-05-2.83830E-05-2.83801E-05-2.79921E-09-8.74956E-20 1.14165E-19
 -1        89 9.47555E-05-2.84270E-05-2.84247E-05-9.16972E-10 2.96504E-19-5.29578E-19
 -1        90 9.48744E-05-2.84629E-05-2.84611E-05 7.68972E-10-9.99835E-20-7.22362E-19
 -1        91 9.49804E-05-2.84949E-05-2.84937E-05 2.33327E-09 1.28654E-19-1.71558E-19
 -1        92 9.50892E-05-2.85279E-05-2.85272E-05 3.83830E-09-8.09881E-20 3.30913E-19
 -1        93 9.52190E-05-2.85672E-05-2.85672E-05 5.33059E-09 6.41095E-20 7.45259E-19
 -1        94 9.53912E-05-2.86193E-05-2.86201E-05 6.83549E-09 7.85468E-20-1.69629E-18
 -1        95 9.56319E-05-2.86921E-05-2.86940E-05 8.34840E-09 9.75627E-20-1.34617E-18
 -1        96 9.59740E-05-2.87954E-05-2.87987E-05 9.81892E-09 2.99444E-19 8.26238E-20
 -1        97 9.64592E-05-2.89417E-05-2.89470E-05 1.11224E-08-1.37427E-19 1.59291E-18
 -1        98 9.71406E-05-2.91470E-05-2.91552E-05 1.20083E-08-1.87721E-19 2.46854E-18
 -1        99 9.80862E-05-2.94315E-05-2.94439E-05 1.20081E-08-2.40898E-19 5.70446E-19
 -1       100 9.93825E-05-2.98211E-05-2.98396E-05 1.02742E-08-2.35417E-19 5.58908E-19
 -1       101 1.01138E-04-3.03476E-05-3.03750E-05 5.30989E-09 2.02536E-19-6.55992E-19
 -1       102 1.03482E-04-3.10497E-05-3.10899E-05-5.45553E-09-1.50078E-19-4.51538E-19
 -1       103 1.06566E-04-3.19710E-05-3.20284E-05-2.62493E-08-2.64828E-19 7.01304E-19
 -1       104 1.10533E-04-3.31538E-05-3.32320E-05-6.35121E-08 1.79876E-19 1.42695E-18
 -1       105 1.15478E-04-3.46243E-05-3.47213E-05-1.25666E-07 2.45762E-19 1.51819E-18
 -1       106 1.21325E-04-3.63612E-05-3.64576E-05-2.19975E-07-2.04858E-19 1.99212E-19
 -1       107 1.27629E-04-3.82370E-05-3.82771E-05-3.41899E-07 5.18121E-20 9.56353E-19
 -1       108 1.33258E-04-3.99290E-05-3.98019E-05-4.50319E-07 4.94009E-19 9.53574E-20
 -1       109 1.36075E-04-4.08221E-05-4.03803E-05-4.31704E-07 6.07653E-19-1.73862E-19
 -1       110 1.33007E-04-4.00068E-05-3.91890E-05-9.90807E-08-4.15787E-19-6.93667E-19
 -1       111 1.21268E-04-3.65933E-05-3.56616E-05 6.68978E-07 3.62762E-19 6.92926E-19
 -1       112 1.01175E-04-3.05372E-05-3.01929E-05 1.60338E-06-6.67107E-19 4.61379E-18
 -1       113 7.89194E-05-2.35822E-05-2.44902E-05 1.89800E-06 6.41479E-19 6.21590E-18
 -1       114 6.49348E-05-1.91375E-05-2.08351E-05 9.91230E-07-2.54044E-19 2.09064E-18
 -1       115 6.54385E-05-1.92687E-05-2.06807E-05-5.09176E-07 2.66839E-19 5.35963E-18
 -1       116 7.67550E-05-2.29016E-05-2.31870E-05-1.36044E-06-2.82586E-19 7.27151E-18
 -1       117 8.87820E-05-2.67338E-05-2.61400E-05-1.18272E-06 6.06765E-19 4.65376E-18
 -1       118 9.56439E-05-2.88688E-05-2.81198E-05-4.60633E-07-1.99037E-19 1.82911E-18
 -1       119 9.62723E-05-2.89919E-05-2.86205E-05 1.31005E-07 6.95398E-19 1.87836E-18
 -1       120 9.49147E-05-2.84031E-05-2.83864E-05 3.79329E-08-2.91457E-18 4.26382E-18
 -1       121 9.52283E-05-2.85112E-05-2.87727E-05-2.53928E-07 4.95485E-18-2.57382E-18
 -1       122 9.41656E-05-2.50555E-05-3.01863E-05 8.98585E-08-3.97580E-18 5.24356E-19
 -1       123 9.09928E-05-1.42760E-05-3.35549E-05 8.47854E-07-8.06391E-18 2.11613E-19
 -1       124 8.53090E-05 4.80266E-06-3.89955E-05 1.70014E-06-2.45126E-18 1.08837E-18
 -1       125 7.82934E-05 2.81520E-05-4.52205E-05 1.99726E-06 1.25668E-18-1.64764E-18
 -1       126 7.27750E-05 4.61645E-05-4.97853E-05 1.05026E-06-3.73753E-18-9.86529E-19
 -1       127 7.18480E-05 4.94653E-05-5.05491E-05-3.76902E-07-9.41107E-19 7.01568E-19
 -1       128 7.59521E-05 3.58121E-05-4.70185E-05-1.80665E-06-2.01049E-18-1.85306E-18
 -1       129 8.34496E-05 1.09571E-05-4.04539E-05-2.12074E-06-4.04077E-18 7.02475E-20
 -1       130 9.09930E-05-1.42671E-05-3.34714E-05-1.50640E-06-1.16875E-18 3.59929E-19
 -1       131 9.63310E-05-3.22618E-05-2.81796E-05-6.39437E-07-1.10482E-18 5.21739E-19
 -1       132 9.89079E-05-4.09987E-05-2.53812E-05 2.15046E-08-3.72221E-18-2.73896E-20
 -1       133 9.92555E-05-4.21811E-05-2.47846E-05 3.80893E-07-1.27944E-18 1.56510E-18
 -1       134 9.82489E-05-3.87420E-05-2.56006E-05 5.35651E-07 2.69629E-18-9.47941E-19
 -1       135 9.67740E-05-3.36936E-05-2.69555E-05 6.24550E-07 1.87425E-18-1.24118E-18
 -1       136 9.55658E-05-2.96756E-05-2.81060E-05 2.99065E-07-2.76371E-18-7.04776E-19
 -1       137 3.55155E-05-1.18131E-04 2.09405E-05-3.00055E-05 2.24464E-19 2.19752E-18
 -1       138 1.19681E-05-5.16115E-05 6.60880E-06-2.61291E-05 5.23255E-18 1.16996E-18
 -1       139 1.15199E-05 1.18197E-05-1.45242E-05 2.07839E-05 2.40303E-18 3.43557E-18
 -1       140 5.98407E-05 3.29904E-05-3.79070E-05 8.56090E-05 5.36299E-18 6.61575E-18
 -1       141 1.58302E-04 2.90114E-06-6.10245E-05 1.30327E-04 3.82562E-18 4.53078E-18
 -1       142 2.72929E-04-5.73813E-05-7.93159E-05 1.19666E-04-2.03500E-19 1.64536E-18
 -1       143 3.43920E-04-1.03223E-04-8.77746E-05 4.81019E-05 1.21576E-19-4.80554E-18
 -1       144 3.33557E-04-1.00585E-04-8.54173E-05-4.35586E-05-1.76997E-19-4.88060E-18
 -1       145 2.52360E-04-5.56737E-05-7.35606E-05-1.05137E-04 1.28633E-18-4.51426E-18
 -1       146 1.40123E-04-1.69931E-06-5.40753E-05-1.09457E-04 4.59092E-18-7.86639E-18
 -1       147 5.32660E-05 2.25932E-05-3.28108E-05-6.85218E-05 6.07534E-18-7.44203E-18
 -1       148 9.06667E-06 4.92538E-06-1.13122E-05-1.15227E-05 6.77542E-18-5.35706E-18
 -1       149 8.03872E-06-4.66597E-05 7.27707E-06 2.90837E-05 5.20078E-18-2.58345E-18
 -1       150 2.85143E-05-1.02429E-04 1.98906E-05 3.34004E-05 7.20529E-18-2.62374E-18
 -1       151 4.19536E-05-1.28694E-04 2.45441E-05 8.61493E-06 4.35228E-18-2.14564E-19
 -1       152 3.43568E-05-1.10905E-04 2.10435E-05-2.15107E-05 4.99961E-18 5.28152E-19
 -1       153 1.40032E-05-5.78581E-05 9.60863E-06-2.61616E-05 2.93243E-18 6.67250E-19
 -1       154 6.26221E-06-7.08170E-07-7.73952E-06 5.07982E-06-5.10803E-18-3.79217E-18
 -1       155 3.79319E-05 2.92648E-05-2.93082E-05 6.19616E-05-2.60166E-18-1.59708E-18
 -1       156 2.21060E-04-3.64588E-05-6.99518E-05 1.17326E-04 1.70211E-18 2.92269E-18
 -1       157 3.13347E-04-9.01068E-05-8.31601E-05 6.44247E-05 4.92543E-19 3.29750E-18
 -1       158 3.37539E-04-1.03865E-04-8.66247E-05-2.58384E-05 5.48454E-20 1.17865E-18
 -1       159 2.83969E-04-6.79889E-05-8.03309E-05-1.04322E-04 5.59042E-19-3.08574E-18
 -1       160 1.75849E-04-6.57983E-06-6.39817E-05-1.31509E-04 2.09238E-18-3.59608E-18
 -1       161 7.43152E-05 3.32716E-05-4.27105E-05-9.89760E-05 4.49563E-18-4.79039E-18
 -1       162 1.50637E-05 2.23471E-05-1.87663E-05-3.37814E-05 7.53351E-18-5.72975E-18
 -1       163 9.04581E-06-3.61026E-05 2.86558E-06 1.84502E-05 7.65379E-18-4.12124E-18
 -1       164 3.15606E-05-1.07378E-04 1.89099E-05 2.89013E-05 1.02228E-17-2.45523E-18
 -1       165 9.48757E-05-1.23501E-05-3.55711E-05-2.23449E-05-2.11091E-18 3.85188E-19
 -1       166 8.92478E-05-8.45232E-06-3.47892E-05-1.73818E-05-1.88128E-18-1.85574E-18
 -1       167 8.65569E-05-6.51018E-06-3.44166E-05-1.35901E-05-1.50306E-18-3.10330E-18
 -1       168 8.51902E-05-5.51375E-06-3.42302E-05-1.03636E-05-1.08435E-18-3.65692E-18
 -1       169 8.44440E-05-4.94326E-06-3.41409E-05-7.54387E-06-6.60347E-19-3.87240E-18
 -1       170 8.40154E-05-4.59765E-06-3.40978E-05-4.90123E-06-3.27753E-19-3.88966E-18
 -1       171 8.37961E-05-4.41304E-06-3.40794E-05-2.39393E-06 7.15441E-20-3.86722E-18
 -1       172 8.37315E-05-4.35724E-06-3.40746E-05 5.11597E-08 3.33604E-19-3.74671E-18
 -1       173 8.38062E-05-4.42155E-06-3.40802E-05 2.49837E-06 7.03213E-19-3.59939E-18
 -1       174 8.40375E-05-4.61697E-06-3.40993E-05 5.01228E-06 1.01635E-18-3.39465E-18
 -1       175 8.44720E-05-4.97045E-06-3.41417E-05 7.62070E-06 1.34020E-18-3.01763E-18
 -1       176 8.52501E-05-5.57349E-06-3.42320E-05 1.05092E-05 1.77496E-18-2.37807E-18
 -1       177 8.66488E-05-6.60853E-06-3.44192E-05 1.37797E-05 2.10561E-18-1.48162E-18
 -1       178 8.93965E-05-8.60112E-06-3.47936E-05 1.76195E-05 2.33017E-18 2.44713E-19
 -1       179 9.57866E-05-1.36158E-05-3.54275E-05 2.18910E-05 2.17584E-18 3.23087E-18
 -1       180 1.05613E-04-2.61048E-05-3.52652E-05 1.86610E-05 1.61407E-18 7.04202E-18
 -1       181 1.03408E-04-2.73050E-05-3.26132E-05-1.21258E-05-1.82191E-18 3.15649E-18
 -1       182 9.71189E-05-2.82924E-05-2.95321E-05-4.72815E-06-1.60492E-18 2.17814E-18
 -1       183 9.35209E-05-2.76410E-05-2.81861E-05-1.76581E-06-1.26846E-18 1.47670E-18
 -1       184 9.19878E-05-2.74104E-05-2.76406E-05-4.17985E-07-8.69981E-19 5.97135E-19
 -1       185 9.14143E-05-2.73360E-05-2.74439E-05 2.46381E-07-6.26047E-19 3.40831E-20
 -1       186 9.13751E-05-2.73757E-05-2.74197E-05 5.72483E-07-3.74168E-19-4.32665E-20
 -1       187 9.16212E-05-2.74792E-05-2.74854E-05 7.11207E-07-2.90147E-19-3.17218E-19
 -1       188 9.20071E-05-2.76122E-05-2.75961E-05 7.41653E-07-3.35833E-19-4.08553E-19
 -1       189 9.24456E-05-2.77532E-05-2.77248E-05 7.09699E-07-4.61706E-19-3.33507E-19
 -1       190 9.28846E-05-2.78893E-05-2.78553E-05 6.43764E-07-3.55841E-19-6.77174E-19
 -1       191 9.32944E-05-2.80134E-05-2.79781E-05 5.62012E-07-2.98040E-19-1.36661E-18
 -1       192 9.36595E-05-2.81220E-05-2.80881E-05 4.76118E-07-2.20273E-19-1.32450E-18
 -1       193 9.39740E-05-2.82142E-05-2.81835E-05 3.93471E-07-5.98122E-20-1.69366E-18
 -1       194 9.42382E-05-2.82906E-05-2.82639E-05 3.18612E-07-3.13736E-19-1.74850E-18
 -1       195 9.44561E-05-2.83527E-05-2.83306E-05 2.54231E-07-4.86267E-19-1.62776E-18
 -1       196 9.46345E-05-2.84028E-05-2.83855E-05 2.01904E-07-9.45772E-20-1.97700E-18
 -1       197 9.47815E-05-2.84433E-05-2.84310E-05 1.62631E-07-1.72139E-19-2.09009E-18
 -1       198 9.49068E-05-2.84771E-05-2.84700E-05 1.37253E-07-4.96901E-19-2.38579E-18
 -1       199 9.50209E-05-2.85073E-05-2.85058E-05 1.26749E-07-6.86840E-19-2.64142E-18
 -1       200 9.51353E-05-2.85372E-05-2.85418E-05 1.32462E-07 2.25026E-19-2.97888E-18
 -1       201 9.52631E-05-2.85706E-05-2.85820E-05 1.56221E-07-3.65137E-19-3.00167E-18
 -1       202 9.54188E-05-2.86116E-05-2.86309E-05 2.00369E-07-9.09367E-19-2.99800E-18
 -1       203 9.56186E-05-2.86651E-05-2.86933E-05 2.67664E-07 1.41829E-19-2.62834E-18
 -1       204 9.58808E-05-2.87365E-05-2.87748E-05 3.60983E-07 8.46232E-19-2.30593E-18
 -1       205 9.62251E-05-2.88318E-05-2.88812E-05 4.82762E-07 2.26694E-19-2.33312E-18
 -1       206 9.66721E-05-2.89579E-05-2.90186E-05 6.34045E-07 6.22588E-20-2.56508E-18
 -1       207 9.72413E-05-2.91214E-05-2.91923E-05 8.12978E-07 2.37687E-19-3.14193E-18
 -1       208 9.79485E-05-2.93288E-05-2.94066E-05 1.01257E-06-4.77397E-20-2.91204E-18
 -1       209 9.88006E-05-2.95849E-05-2.96625E-05 1.21755E-06-5.40198E-19-2.09676E-18
 -1       210 9.97890E-05-2.98912E-05-2.99558E-05 1.40032E-06-1.36653E-18-2.82568E-18
 -1       211 1.00880E-04-3.02428E-05-3.02742E-05 1.51624E-06-4.67595E-19-2.87381E-18
 -1       212 1.02002E-04-3.06250E-05-3.05935E-05 1.49957E-06-4.26279E-20-2.78550E-18
 -1       213 1.03035E-04-3.10078E-05-3.08747E-05 1.26263E-06-1.41061E-19-3.18812E-18
 -1       214 1.03795E-04-3.13392E-05-3.10616E-05 7.03253E-07 8.71764E-19-1.70946E-18
 -1       215 1.04040E-04-3.15398E-05-3.10830E-05-2.71844E-07 4.38556E-19-2.52234E-18
 -1       216 1.03482E-04-3.14997E-05-3.08622E-05-1.70006E-06-9.77860E-20-2.16743E-18
 -1       217 1.01848E-04-3.10895E-05-3.03363E-05-3.49213E-06 5.95204E-19-2.24121E-18
 -1       218 9.89761E-05-3.01949E-05-2.94847E-05-5.35972E-06 3.16893E-19-1.09428E-18
 -1       219 9.49548E-05-2.87845E-05-2.83593E-05-6.79774E-06-5.47122E-19-1.72805E-18
 -1       220 9.02442E-05-2.69965E-05-2.71001E-05-7.19948E-06-1.07553E-18-1.99255E-18
 -1       221 8.56783E-05-2.51798E-05-2.59166E-05-6.13231E-06-1.34773E-18-3.44883E-18
 -1       222 8.22538E-05-2.38097E-05-2.50328E-05-3.65199E-06 9.97467E-19-3.15643E-18
 -1       223 8.07394E-05-2.32691E-05-2.46140E-05-4.03186E-07-4.59879E-20-1.02432E-18
 -1       224 8.13264E-05-2.36322E-05-2.47106E-05 2.66303E-06 4.75272E-19-7.80131E-19
 -1       225 8.35840E-05-2.46469E-05-2.52476E-05 4.78409E-06 1.34976E-18-3.06487E-19
 -1       226 8.67414E-05-2.59378E-05-2.60542E-05 5.68106E-06 3.00833E-19-6.50806E-19
 -1       227 9.00372E-05-2.72548E-05-2.69070E-05 5.42160E-06 1.86146E-18-1.01466E-18
 -1       228 9.30146E-05-2.85935E-05-2.76023E-05 4.01061E-06 2.13978E-18-1.19217E-18
 -1       229 9.95116E-05-2.85578E-05-3.05903E-05 7.20899E-06 1.53931E-18 6.07720E-18
 -1       230 9.44296E-05-2.77946E-05-2.85284E-05 2.74135E-06 1.33508E-18 4.78898E-18
 -1       231 9.21122E-05-2.74057E-05-2.76863E-05 9.27108E-07 1.05161E-18 3.65534E-18
 -1       232 9.11665E-05-2.72439E-05-2.73684E-05 6.47099E-08 8.41847E-19 2.92767E-18
 -1       233 9.09580E-05-2.72378E-05-2.72951E-05-3.63511E-07 2.42239E-19 2.47920E-18
 -1       234 9.11448E-05-2.73247E-05-2.73447E-05-5.64509E-07 1.35313E-19 2.20968E-18
 -1       235 9.15315E-05-2.74587E-05-2.74562E-05-6.37483E-07 2.87118E-19 2.31209E-18
 -1       236 9.20030E-05-2.76106E-05-2.75948E-05-6.36347E-07 3.96694E-19 2.10098E-18
 -1       237 9.24908E-05-2.77624E-05-2.77398E-05-5.93276E-07 6.89328E-19 1.64832E-18
 -1       238 9.29552E-05-2.79041E-05-2.78786E-05-5.28475E-07 3.14488E-19 1.46236E-18
 -1       239 9.33745E-05-2.80302E-05-2.80046E-05-4.54897E-07 2.46978E-19 7.47281E-19
 -1       240 9.37393E-05-2.81387E-05-2.81147E-05-3.80810E-07 3.88580E-19 6.55956E-19
 -1       241 9.40475E-05-2.82295E-05-2.82080E-05-3.11370E-07 5.36565E-19 4.64297E-19
 -1       242 9.43022E-05-2.83038E-05-2.82853E-05-2.49672E-07 3.97985E-19 2.42686E-19
 -1       243 9.45094E-05-2.83636E-05-2.83485E-05-1.97501E-07-3.71706E-19 8.56362E-20
 -1       244 9.46774E-05-2.84115E-05-2.83998E-05-1.55893E-07 1.19469E-19-4.60274E-19
 -1       245 9.48154E-05-2.84504E-05-2.84423E-05-1.25561E-07 3.28888E-19-8.78778E-19
 -1       246 9.49340E-05-2.84833E-05-2.84789E-05-1.07238E-07 3.61474E-19-1.18426E-18
 -1       247 9.50448E-05-2.85136E-05-2.85133E-05-1.01955E-07-4.86605E-19-1.78654E-18
 -1       248 9.51610E-05-2.85451E-05-2.85494E-05-1.11290E-07-7.45426E-19-2.82696E-19
 -1       249 9.52977E-05-2.85821E-05-2.85919E-05-1.37596E-07 2.37223E-19-2.35404E-19
 -1       250 9.54728E-05-2.86298E-05-2.86463E-05-1.84246E-07 1.09355E-18-2.51168E-19
 -1       251 9.57081E-05-2.86944E-05-2.87192E-05-2.55889E-07-2.19945E-19-1.12984E-18
 -1       252 9.60302E-05-2.87834E-05-2.88188E-05-3.58758E-07-8.38979E-19-8.65762E-19
 -1       253 9.64721E-05-2.89063E-05-2.89552E-05-5.01012E-07-6.72221E-19 5.68559E-19
 -1       254 9.70750E-05-2.90747E-05-2.91410E-05-6.93094E-07-3.99876E-20 5.99347E-19
 -1       255 9.78896E-05-2.93033E-05-2.93918E-05-9.48022E-07 6.32611E-19 2.55555E-20
 -1       256 9.89780E-05-2.96098E-05-2.97266E-05-1.28136E-06-5.88914E-19 9.76074E-20
 -1       257 1.00414E-04-3.00161E-05-3.01679E-05-1.71033E-06 4.52369E-19-2.82155E-19
 -1       258 1.02283E-04-3.05478E-05-3.07412E-05-2.25091E-06-4.37288E-19-5.91525E-20
 -1       259 1.04673E-04-3.12343E-05-3.14726E-05-2.91060E-06-2.81069E-19 8.89385E-19
 -1       260 1.07662E-04-3.21062E-05-3.23824E-05-3.67276E-06 3.29321E-19-2.94475E-19
 -1       261 1.11282E-04-3.31907E-05-3.34733E-05-4.46591E-06 6.56101E-19-1.07070E-18
 -1       262 1.15457E-04-3.45001E-05-3.47068E-05-5.11039E-06-1.56670E-19-7.83754E-19
 -1       263 1.19904E-04-3.60086E-05-3.59689E-05-5.24217E-06-5.07484E-19-4.38723E-19
 -1       264 1.23989E-04-3.76028E-05-3.70297E-05-4.24555E-06 1.81318E-21 9.15954E-19
 -1       265 1.26596E-04-3.89822E-05-3.75322E-05-1.31322E-06 2.67226E-19 1.32012E-18
 -1       266 1.26136E-04-3.95100E-05-3.70762E-05 4.10555E-06-4.41628E-19 1.14270E-18
 -1       267 1.21020E-04-3.81794E-05-3.54514E-05 1.12483E-05-4.37301E-19 3.18232E-18
 -1       268 1.10930E-04-3.41680E-05-3.29251E-05 1.69001E-05-1.05028E-18 2.73083E-18
 -1       269 9.84456E-05-2.81380E-05-3.03164E-05 1.62228E-05 6.19538E-19 1.36473E-18
 -1       270 8.95979E-05-2.38997E-05-2.84037E-05 7.55002E-06-2.60502E-19 4.16363E-18
 -1       271 8.82772E-05-2.39221E-05-2.77580E-05-3.59729E-06-1.78565E-19 4.18248E-18
 -1       272 9.30742E-05-2.74454E-05-2.81588E-05-9.42640E-06 1.58025E-19 2.02526E-18
 -1       273 9.81832E-05-3.05782E-05-2.89141E-05-7.92999E-06 1.48787E-18 3.18217E-18
 -1       274 1.00388E-04-3.15234E-05-2.94526E-05-2.73067E-06-3.70127E-19 4.07913E-18
 -1       275 9.90439E-05-3.02750E-05-2.94532E-05 1.12007E-06 8.53253E-20 2.74117E-18
 -1       276 9.63943E-05-2.84792E-05-2.90998E-05 1.35628E-06-1.03570E-18 9.42172E-19
 -1       277 9.62001E-05-2.67351E-05-2.97583E-05 3.72891E-06 1.34220E-18-4.90303E-18
 -1       278 9.58269E-05-2.26196E-05-3.13657E-05 1.02422E-05 8.11784E-19-3.07032E-18
 -1       279 9.31335E-05-1.42966E-05-3.38029E-05 1.79306E-05 8.53425E-19 2.45709E-18
 -1       280 8.74141E-05-1.85967E-06-3.66698E-05 2.19662E-05 5.85631E-19 6.57112E-19
 -1       281 8.03240E-05 1.09297E-05-3.90680E-05 1.70336E-05 4.18342E-19-3.34804E-18
 -1       282 7.61866E-05 1.75386E-05-4.00980E-05 3.76826E-06-8.50580E-19 7.61509E-19
 -1       283 7.77403E-05 1.44688E-05-3.94630E-05-1.30600E-05-1.44516E-18 2.53051E-20
 -1       284 8.44565E-05 2.21090E-06-3.71277E-05-2.35256E-05-1.13418E-18-1.40847E-18
 -1       285 9.19117E-05-1.29624E-05-3.38412E-05-2.37836E-05-1.03187E-18 1.00714E-18
 -1       286 9.69113E-05-2.54549E-05-3.06164E-05-1.70157E-05-1.17291E-18 7.13460E-19
 -1       287 9.90104E-05-3.30214E-05-2.82518E-05-8.42680E-06-2.71931E-18-1.83654E-18
 -1       288 9.91176E-05-3.59665E-05-2.70273E-05-1.39987E-06-1.71566E-18 2.80837E-18
 -1       289 9.82001E-05-3.56474E-05-2.67782E-05 2.95044E-06-8.84296E-19 1.08784E-18
 -1       290 9.67044E-05-3.34423E-05-2.70985E-05 4.57086E-06 9.22273E-19-1.70695E-19
 -1       291 9.51952E-05-3.09168E-05-2.75387E-05 5.25146E-06 1.02915E-18-3.14140E-18
 -1       292 1.63380E-05-6.18590E-05 1.49362E-05 7.19110E-06 2.29387E-18 5.50466E-19
 -1       293 3.18428E-05-5.55344E-05 6.57860E-06 2.70440E-05 7.98964E-19 2.68806E-18
 -1       294 6.34034E-05-4.88309E-05-8.37736E-06 4.21857E-05 2.79182E-18 1.80619E-18
 -1       295 1.01376E-04-3.91634E-05-2.70752E-05 5.20190E-05 6.77626E-20 2.18111E-18
 -1       296 1.51049E-04-3.94619E-05-4.65516E-05 5.13793E-05 9.41477E-19-1.18563E-18
 -1       297 1.90212E-04-3.65985E-05-6.34332E-05 3.93696E-05 8.39542E-19-9.85946E-19
 -1       298 2.22549E-04-3.68478E-05-7.56058E-05 2.96203E-05 2.23500E-18-1.56087E-18
 -1       299 2.31258E-04-3.88842E-05-7.81997E-05 8.68068E-06 1.21825E-18-3.23418E-18
 -1       300 2.20694E-04-4.23039E-05-7.26123E-05-1.51187E-05 5.26113E-19-5.72721E-18
 -1       301 1.84481E-04-4.19683E-05-5.88544E-05-2.91911E-05 3.20942E-18-3.72059E-18
 -1       302 1.38941E-04-4.04130E-05-4.15451E-05-4.03663E-05 3.59693E-18-3.06012E-18
 -1       303 9.31810E-05-4.17457E-05-2.29939E-05-3.75351E-05 3.79428E-18-3.37098E-18
 -1       304 5.46085E-05-4.70167E-05-5.54463E-06-2.78105E-05 3.23588E-18-4.03558E-18
 -1       305 2.81743E-05-5.48309E-05 8.14623E-06-1.50205E-05 3.24244E-18-3.86353E-19
 -1       306 1.52074E-05-6.04200E-05 1.56409E-05-3.63277E-06 2.76080E-18-1.83213E-18
 -1       307 1.34244E-05-6.01177E-05 1.62907E-05 7.23996E-06 2.50484E-18 5.26749E-19
 -1       308 2.37410E-05-5.22714E-05 9.33645E-06 2.07989E-05 2.23426E-18 8.58362E-19
 -1       309 4.71391E-05-4.44395E-05-3.14859E-06 3.35212E-05 2.19254E-18-4.84225E-18
 -1       310 8.22069E-05-3.77327E-05-1.99059E-05 4.37637E-05-1.17123E-18 1.14784E-18
 -1       311 1.25731E-04-3.43209E-05-3.86503E-05 4.82233E-05-1.06705E-18 2.24443E-18
 -1       312 1.69628E-04-3.64838E-05-5.56027E-05 3.66326E-05 1.19257E-18-5.49513E-19
 -1       313 2.07569E-04-3.64957E-05-7.03366E-05 2.65277E-05 2.66604E-19 3.64648E-19
 -1       314 2.31568E-04-3.99700E-05-7.80918E-05 2.65185E-06 1.12010E-18 4.55333E-19
 -1       315 2.26620E-04-3.80927E-05-7.68582E-05-2.56930E-05 3.01448E-18-1.26547E-18
 -1       316 1.93669E-04-3.25691E-05-6.63493E-05-4.20426E-05 1.87639E-18-2.89346E-18
 -1       317 1.52927E-04-3.01514E-05-5.07441E-05-5.80666E-05 3.73954E-18-4.64068E-18
 -1       318 1.06115E-04-3.30264E-05-3.11946E-05-5.53216E-05 4.16613E-18-2.75646E-18
 -1       319 6.55059E-05-4.26734E-05-1.15630E-05-4.44953E-05 4.04204E-18-3.04932E-18
 -1       320 3.58388E-05-5.28168E-05 4.11316E-06-3.19220E-05 4.31669E-18-1.55986E-18
 -1       321 1.61229E-05-5.57378E-05 1.31330E-05-1.39035E-05 2.98516E-18-4.75058E-18
 -1       322 9.16357E-05-1.44461E-05-3.31590E-05-1.29784E-05-2.00150E-18-1.73887E-18
 -1       323 9.57169E-05-1.91131E-05-3.28927E-05-1.46321E-05-2.27103E-18-4.36454E-19
 -1       324 8.80006E-05-1.03734E-05-3.33240E-05-8.15042E-06-1.12104E-18-2.85319E-18
 -1       325 8.71852E-05-9.45176E-06-3.33628E-05-5.71498E-06-6.21587E-19-3.00081E-18
 -1       326 8.67238E-05-8.92117E-06-3.33890E-05-3.36509E-06-1.46023E-19-3.03405E-18
 -1       327 8.65183E-05-8.68124E-06-3.34022E-05-1.07200E-06 2.86186E-19-2.97857E-18
 -1       328 8.65270E-05-8.69085E-06-3.34019E-05 1.20278E-06 6.20994E-19-2.82147E-18
 -1       329 8.67516E-05-8.95206E-06-3.33878E-05 3.49819E-06 1.00427E-18-2.70867E-18
 -1       330 8.72250E-05-9.49658E-06-3.33608E-05 5.81214E-06 1.42825E-18-2.45268E-18
 -1       331 8.80658E-05-1.04486E-05-3.33199E-05 8.25060E-06 1.91554E-18-1.85597E-18
 -1       332 8.94831E-05-1.20326E-05-3.32597E-05 1.07589E-05 2.29687E-18-1.23348E-18
 -1       333 9.19059E-05-1.47229E-05-3.31595E-05 1.31642E-05 2.61862E-18-1.67282E-19
 -1       334 9.58118E-05-1.94595E-05-3.28302E-05 1.43716E-05 2.62637E-18 1.76744E-18
 -1       335 9.88005E-05-2.44472E-05-3.19538E-05 1.18945E-05 2.25591E-18 3.40937E-18
 -1       336 9.64009E-05-2.68155E-05-2.97928E-05 5.73741E-06 1.84529E-18 2.60577E-18
 -1       337 9.64465E-05-2.60320E-05-3.01331E-05-6.34028E-06-1.80602E-18-1.52344E-19
 -1       338 9.49280E-05-2.70306E-05-2.90735E-05-2.82984E-06-1.49539E-18-7.97369E-20
 -1       339 9.39529E-05-2.74281E-05-2.84961E-05-9.16772E-07-1.18661E-18-3.54987E-19
 -1       340 9.34358E-05-2.76419E-05-2.81908E-05 1.43466E-07-6.35693E-19-8.10438E-19
 -1       341 9.32449E-05-2.77956E-05-2.80469E-05 7.07912E-07-4.84238E-19-8.95633E-19
 -1       342 9.32627E-05-2.79257E-05-2.80006E-05 9.75025E-07-3.28394E-19-8.25818E-19
 -1       343 9.34021E-05-2.80409E-05-2.80119E-05 1.06172E-06-1.05408E-19-8.81073E-19
 -1       344 9.36036E-05-2.81424E-05-2.80552E-05 1.04063E-06-5.50014E-19-6.35043E-19
 -1       345 9.38281E-05-2.82299E-05-2.81142E-05 9.58566E-07-6.70208E-19-4.86149E-19
 -1       346 9.40510E-05-2.83035E-05-2.81783E-05 8.46169E-07-4.21159E-19-8.07213E-19
 -1       347 9.42584E-05-2.83637E-05-2.82414E-05 7.23521E-07-5.22439E-19-1.03076E-18
 -1       348 9.44434E-05-2.84119E-05-2.82999E-05 6.03618E-07-5.83366E-20-8.52743E-19
 -1       349 9.46038E-05-2.84493E-05-2.83525E-05 4.94721E-07-4.19487E-19-7.48766E-19
 -1       350 9.47408E-05-2.84778E-05-2.83989E-05 4.02030E-07-7.17182E-19-1.36119E-18
 -1       351 9.48579E-05-2.84991E-05-2.84399E-05 3.28904E-07-2.24851E-19-1.60895E-18
 -1       352 9.49600E-05-2.85148E-05-2.84768E-05 2.77773E-07-3.49157E-19-2.10213E-18
 -1       353 9.50535E-05-2.85268E-05-2.85116E-05 2.50805E-07-4.56476E-19-1.13053E-18
 -1       354 9.51456E-05-2.85368E-05-2.85466E-05 2.50397E-07-7.67629E-19-1.51240E-18
 -1       355 9.52446E-05-2.85468E-05-2.85845E-05 2.79489E-07-5.61216E-19-2.28864E-18
 -1       356 9.53599E-05-2.85593E-05-2.86284E-05 3.41704E-07 7.36149E-21-1.99954E-18
 -1       357 9.55022E-05-2.85769E-05-2.86816E-05 4.41282E-07-1.80323E-19-3.50831E-19
 -1       358 9.56835E-05-2.86031E-05-2.87478E-05 5.82738E-07 9.18905E-20-3.05152E-19
 -1       359 9.59168E-05-2.86423E-05-2.88307E-05 7.70146E-07-2.58897E-21-2.00287E-18
 -1       360 9.62165E-05-2.87004E-05-2.89340E-05 1.00590E-06 7.91144E-19-2.48916E-18
 -1       361 9.65972E-05-2.87849E-05-2.90607E-05 1.28874E-06-1.75459E-19-1.97640E-18
 -1       362 9.70728E-05-2.89053E-05-2.92128E-05 1.61085E-06 2.33697E-19-2.06314E-18
 -1       363 9.76551E-05-2.90740E-05-2.93902E-05 1.95370E-06-1.70778E-19-2.58378E-18
 -1       364 9.83512E-05-2.93059E-05-2.95896E-05 2.28271E-06-1.19263E-18-2.23620E-18
 -1       365 9.91596E-05-2.96185E-05-2.98029E-05 2.54080E-06-5.36990E-19-9.91191E-19
 -1       366 1.00065E-04-3.00294E-05-3.00164E-05 2.64192E-06-6.44839E-19-2.24867E-19
 -1       367 1.01032E-04-3.05512E-05-3.02095E-05 2.46720E-06-7.85600E-20-1.38241E-19
 -1       368 1.01993E-04-3.11802E-05-3.03549E-05 1.86876E-06 7.96819E-19-1.98137E-19
 -1       369 1.02837E-04-3.18759E-05-3.04221E-05 6.89787E-07 3.21704E-19-1.31271E-19
 -1       370 1.03394E-04-3.25321E-05-3.03824E-05-1.18707E-06 3.84220E-19-2.60542E-19
 -1       371 1.03424E-04-3.29471E-05-3.02189E-05-3.75307E-06 8.34567E-19 1.18272E-19
 -1       372 1.02642E-04-3.28230E-05-2.99355E-05-6.75455E-06 1.13464E-18-4.18237E-19
 -1       373 1.00803E-04-3.18432E-05-2.95617E-05-9.59125E-06-9.00716E-19-1.10516E-18
 -1       374 9.78823E-05-2.98667E-05-2.91477E-05-1.13407E-05-7.53756E-19-8.97653E-19
 -1       375 9.42863E-05-2.71835E-05-2.87471E-05-1.10467E-05-1.33590E-18-5.45411E-19
 -1       376 9.08948E-05-2.45966E-05-2.83954E-05-8.27088E-06-2.82434E-19 5.31708E-19
 -1       377 8.87246E-05-2.30929E-05-2.81067E-05-3.56902E-06 1.49338E-18 4.63086E-19
 -1       378 8.83239E-05-2.31985E-05-2.78896E-05 1.60229E-06 7.72744E-19 9.31132E-19
 -1       379 8.94106E-05-2.45978E-05-2.77589E-05 5.67694E-06 1.53654E-18 1.57745E-18
 -1       380 9.11524E-05-2.64566E-05-2.77166E-05 7.82004E-06-6.27082E-19 1.73519E-18
 -1       381 9.27726E-05-2.81309E-05-2.77055E-05 8.11112E-06 1.61614E-19 5.36640E-19
 -1       382 9.38445E-05-2.93781E-05-2.76368E-05 7.17393E-06 8.79207E-19-1.66410E-18
 -1       383 9.43826E-05-2.73446E-05-2.86924E-05 2.46459E-06 1.58264E-18 2.16524E-18
 -1       384 9.31780E-05-2.74649E-05-2.81409E-05 7.39182E-07 1.13956E-18 1.74035E-18
 -1       385 9.26256E-05-2.75430E-05-2.78826E-05-1.82294E-07 5.54465E-19 1.37831E-18
 -1       386 9.24854E-05-2.76362E-05-2.77884E-05-6.58157E-07 1.54957E-19 8.06182E-19
 -1       387 9.25892E-05-2.77460E-05-2.77883E-05-8.75821E-07 2.62232E-19 7.38795E-19
 -1       388 9.28253E-05-2.78628E-05-2.78407E-05-9.40055E-07 5.92773E-19 6.51368E-19
 -1       389 9.31217E-05-2.79772E-05-2.79194E-05-9.13997E-07 9.17058E-19 5.85256E-19
 -1       390 9.34332E-05-2.80831E-05-2.80078E-05-8.37510E-07 4.40481E-19 7.14222E-19
 -1       391 9.37326E-05-2.81769E-05-2.80961E-05-7.36380E-07 4.76855E-19 4.52696E-19
 -1       392 9.40049E-05-2.82573E-05-2.81784E-05-6.27340E-07 4.47775E-19 1.15593E-19
 -1       393 9.42434E-05-2.83242E-05-2.82519E-05-5.21112E-07 7.71052E-19 1.96448E-19
 -1       394 9.44467E-05-2.83786E-05-2.83156E-05-4.24412E-07 3.06350E-19 3.24718E-19
 -1       395 9.46173E-05-2.84221E-05-2.83700E-05-3.41361E-07 1.90417E-19 9.54782E-20
 -1       396 9.47599E-05-2.84564E-05-2.84162E-05-2.74530E-07 4.96732E-19-3.04431E-19
 -1       397 9.48809E-05-2.84838E-05-2.84562E-05-2.25727E-07 5.78850E-19-9.21390E-19
 -1       398 9.49881E-05-2.85063E-05-2.84923E-05-1.96613E-07 8.78642E-19-9.58188E-19
 -1       399 9.50905E-05-2.85264E-05-2.85274E-05-1.89204E-07-1.54187E-19-1.63583E-18
 -1       400 9.51984E-05-2.85467E-05-2.85647E-05-2.06299E-07-1.08684E-18-2.10946E-18
 -1       401 9.53238E-05-2.85702E-05-2.86082E-05-2.51870E-07 2.28571E-19-2.17247E-18
 -1       402 9.54809E-05-2.86001E-05-2.86624E-05-3.31440E-07 1.07061E-18-1.84338E-18
 -1       403 9.56865E-05-2.86406E-05-2.87328E-05-4.52480E-07 3.31487E-19-1.66435E-18
 -1       404 9.59610E-05-2.86963E-05-2.88261E-05-6.24838E-07-1.48398E-18-1.75135E-18
 -1       405 9.63289E-05-2.87730E-05-2.89502E-05-8.61177E-07-1.30029E-18-1.50654E-18
 -1       406 9.68198E-05-2.88779E-05-2.91149E-05-1.17740E-06-7.85418E-20-1.21613E-18
 -1       407 9.74689E-05-2.90195E-05-2.93316E-05-1.59285E-06 1.10919E-18 2.81567E-21
 -1       408 9.83178E-05-2.92085E-05-2.96134E-05-2.12996E-06-5.34214E-20-6.44421E-19
 -1       409 9.94143E-05-2.94586E-05-2.99750E-05-2.81252E-06 7.30024E-20-8.63690E-19
 -1       410 1.00811E-04-2.97883E-05-3.04313E-05-3.66091E-06-3.90586E-20 5.13884E-19
 -1       411 1.02563E-04-3.02242E-05-3.09949E-05-4.68143E-06-1.74763E-19-9.86021E-19
 -1       412 1.04722E-04-3.08071E-05-3.16712E-05-5.84451E-06 6.62904E-19-1.62271E-18
 -1       413 1.07328E-04-3.16034E-05-3.24498E-05-7.04431E-06-1.01191E-19-9.47011E-19
 -1       414 1.10394E-04-3.27193E-05-3.32923E-05-8.03142E-06-2.54548E-20 8.97264E-19
 -1       415 1.13886E-04-3.43081E-05-3.41187E-05-8.31920E-06-2.87652E-19 1.70487E-18
 -1       416 1.17671E-04-3.65305E-05-3.48019E-05-7.09928E-06 2.00158E-19 5.08614E-19
 -1       417 1.21397E-04-3.93688E-05-3.51926E-05-3.28913E-06-3.45566E-19 2.88272E-19
 -1       418 1.24220E-04-4.21555E-05-3.52093E-05 3.98637E-06-4.72558E-19 1.08578E-18
 -1       419 1.24495E-04-4.29966E-05-3.49781E-05 1.40938E-05-1.49503E-18 6.01000E-19
 -1       420 1.20290E-04-3.92416E-05-3.48257E-05 2.31380E-05-4.64467E-19 7.21050E-19
 -1       421 1.11472E-04-3.06537E-05-3.47570E-05 2.43323E-05-1.52115E-19 2.54750E-18
 -1       422 1.02851E-04-2.21685E-05-3.48234E-05 1.32785E-05-1.20747E-18 3.38584E-18
 -1       423 1.01750E-04-2.25695E-05-3.41080E-05-3.20512E-06 6.08514E-19 1.88471E-18
 -1       424 1.05900E-04-2.98904E-05-3.26798E-05-1.21563E-05 6.14072E-19 1.26947E-18
 -1       425 1.09082E-04-3.58708E-05-3.14256E-05-1.01224E-05-3.90021E-19 2.00645E-18
 -1       426 1.07974E-04-3.66339E-05-3.06061E-05-2.55264E-06 1.22304E-19 2.07560E-18
 -1       427 1.03318E-04-3.30268E-05-3.01348E-05 3.24457E-06 1.40295E-18-5.36470E-19
 -1       428 9.96806E-05-2.97520E-05-2.99756E-05 4.79246E-06 1.15534E-18-2.58472E-18
 -1       429 9.92829E-05-2.51688E-05-3.16799E-05 3.13559E-05 2.14071E-18 2.61666E-18
 -1       430 1.04624E-04-3.10496E-05-3.14923E-05 2.05596E-05 3.32163E-18 2.34132E-19
 -1       431 1.02558E-04-3.05491E-05-3.08313E-05 1.12340E-05 2.73199E-18-1.99874E-18
 -1       432 8.56757E-05-1.31925E-05-3.09349E-05 3.28628E-05 3.30300E-19-3.65791E-18
 -1       433 7.13164E-05-1.29277E-06-2.98223E-05 1.91831E-05 1.11394E-18-3.62234E-18
 -1       434 6.65831E-05 2.32402E-06-2.93382E-05-7.85318E-06-4.75688E-19 1.32262E-18
 -1       435 7.72563E-05-6.96698E-06-2.99623E-05-3.12974E-05 7.09323E-19-1.50389E-18
 -1       436 9.33852E-05-2.12517E-05-3.08213E-05-3.84166E-05 1.49090E-18 4.33360E-19
 -1       437 1.03993E-04-3.16155E-05-3.09559E-05-3.10583E-05-1.82432E-19 4.27982E-19
 -1       438 1.06800E-04-3.59062E-05-3.03233E-05-1.82297E-05-1.72027E-18-1.72901E-18
 -1       439 1.04956E-04-3.62142E-05-2.94044E-05-6.48051E-06-1.89518E-18 6.48142E-19
 -1       440 1.01636E-04-3.47763E-05-2.86115E-05 1.60106E-06-2.45442E-18 3.35320E-18
 -1       441 9.82445E-05-3.27538E-05-2.80542E-05 6.01736E-06-5.89174E-19 2.78856E-18
 -1       442 6.77346E-05-4.93761E-05-8.05523E-06 5.35070E-05 2.22494E-18 1.75929E-18
 -1       443 1.75412E-05-2.26226E-05 2.09597E-06-1.22874E-06 2.31252E-18-2.18217E-18
 -1       444 2.83720E-05-3.04859E-05 6.95185E-07 2.96416E-05 3.24445E-18 2.59912E-18
 -1       445 1.12944E-04-6.37710E-05-2.11420E-05 5.19814E-05 1.93971E-18 1.02809E-18
 -1       446 1.44551E-04-6.43443E-05-3.43888E-05 3.82874E-05 1.95770E-19-2.05278E-18
 -1       447 8.93635E-05-1.18968E-05-3.32662E-05-1.06431E-05-1.58253E-18-2.56568E-18
 -1       448 1.75631E-04-2.89103E-05-6.24501E-05 6.02492E-06 7.43483E-19-2.03203E-18
 -1       449 1.71821E-04-1.53638E-05-6.67497E-05 7.35547E-06 2.89283E-18-1.57731E-18
 -1       450 1.76883E-04-2.03129E-05-6.66284E-05 1.31268E-05 1.30814E-18-1.97152E-18
 -1       451 1.67826E-04-3.44765E-05-5.71802E-05 1.70339E-05-4.93926E-19-9.84252E-19
 -1       452 1.62801E-04-5.63222E-05-4.56584E-05-9.29741E-07 7.19157E-19-1.73430E-19
 -1       453 1.38337E-04-6.44231E-05-3.17953E-05-2.20558E-05 1.71302E-18 3.58507E-19
 -1       454 1.04331E-04-6.38174E-05-1.75013E-05-3.57022E-05 1.24048E-18-1.70063E-18
 -1       455 6.04918E-05-5.09811E-05-4.35845E-06-3.82157E-05 1.70211E-18-3.10030E-18
 -1       456 2.63077E-05-3.86881E-05 4.87879E-06-2.42638E-05 1.31724E-18-1.81943E-18
 -1       457 1.19681E-05-2.94714E-05 7.33249E-06-7.26635E-07 6.51752E-19-1.92276E-19
 -1       458 2.00596E-05-3.09283E-05 4.60813E-06 2.55078E-05 1.07383E-18 1.39305E-18
 -1       459 4.86804E-05-4.38335E-05-2.28942E-06 4.31458E-05 1.62207E-18-3.89053E-18
 -1       460 9.11482E-05-5.60705E-05-1.50589E-05 4.66310E-05 1.82504E-18-4.96242E-19
 -1       461 1.27617E-04-5.95428E-05-2.92124E-05 3.51237E-05-1.10834E-18 2.53273E-18
 -1       462 1.53865E-04-5.31406E-05-4.32169E-05 1.69031E-05-2.83094E-19-1.96861E-18
 -1       463 1.66982E-04-3.34413E-05-5.71904E-05-1.66401E-06-3.10702E-19-1.54509E-18
 -1       464 1.67036E-04-1.55812E-05-6.49479E-05-7.52988E-06-6.59627E-19-7.48407E-19
 -1       465 1.70127E-04-1.15159E-05-6.78771E-05-5.20161E-06 1.60227E-18 2.14649E-18
 -1       466 1.73155E-04-2.16955E-05-6.46268E-05-6.86522E-06 1.52455E-18 1.91218E-18
 -1       467 1.65542E-04-4.30517E-05-5.24153E-05-1.58113E-05 2.82046E-18 1.14498E-18
 -1       468 1.49348E-04-5.68672E-05-3.94898E-05-3.63821E-05 1.70984E-18-6.87261E-19
 -1       469 1.15492E-04-5.98935E-05-2.38717E-05-5.29948E-05 1.18934E-18-1.27092E-18
 -1       470 7.52879E-05-5.00423E-05-1.09325E-05-5.80257E-05 1.65997E-18-4.21717E-19
 -1       471 3.43769E-05-3.40800E-05-3.61982E-07-4.02351E-05 3.88788E-19-1.87777E-18
 -1       472 1.68593E-04-5.11504E-05-5.01091E-05 1.68826E-05-3.29540E-19-2.17942E-18
 -1       473 9.58266E-05-2.51498E-05-3.02758E-05 6.01253E-06 1.89354E-18 7.69148E-19
 -1       474 8.95323E-05-1.33965E-05-3.26488E-05-3.92147E-06-3.63441E-19-2.68328E-18
 -1       475 9.02440E-05-1.43632E-05-3.25417E-05-5.88246E-06-8.19839E-19-2.57140E-18
 -1       476 8.90342E-05-1.27169E-05-3.27252E-05 5.44645E-08 4.29792E-19-2.64106E-18
 -1       477 8.91699E-05-1.29005E-05-3.27049E-05 2.04429E-06 7.91506E-19-2.51254E-18
 -1       478 8.95658E-05-1.34384E-05-3.26452E-05 3.99577E-06 1.15409E-18-2.28935E-18
 -1       479 9.02918E-05-1.44261E-05-3.25349E-05 5.94871E-06 1.64882E-18-1.83963E-18
 -1       480 9.14420E-05-1.60058E-05-3.23529E-05 7.77535E-06 1.96477E-18-1.33534E-18
 -1       481 9.32342E-05-1.84787E-05-3.20583E-05 9.29026E-06 2.23947E-18-6.41652E-19
 -1       482 9.51201E-05-2.65796E-05-2.93566E-05 2.86809E-06 1.44760E-18 5.36839E-19
 -1       483 9.54711E-05-2.44293E-05-3.04368E-05-5.80284E-06-1.54592E-18-1.04886E-18
 -1       484 1.43142E-04-2.02939E-05-5.32084E-05 2.50906E-05-8.49786E-19 7.02429E-19
 -1       485 9.52691E-05-2.62131E-05-2.95872E-05-2.89220E-06-1.42907E-18-9.29557E-19
 -1       486 9.49231E-05-2.71623E-05-2.90369E-05-1.02472E-06-1.06295E-18-8.07174E-19
 -1       487 9.46478E-05-2.76944E-05-2.86928E-05 9.86647E-08-7.83050E-19-9.46642E-19
 -1       488 9.44916E-05-2.80213E-05-2.84867E-05 7.33503E-07-4.83533E-19-1.07524E-18
 -1       489 9.44365E-05-2.82333E-05-2.83727E-05 1.05080E-06-3.51709E-19-1.19603E-18
 -1       490 9.44521E-05-2.83748E-05-2.83190E-05 1.16534E-06-3.32244E-19-1.50695E-18
 -1       491 9.45109E-05-2.84696E-05-2.83037E-05 1.15471E-06-5.95788E-19-1.50009E-18
 -1       492 9.45924E-05-2.85318E-05-2.83120E-05 1.07154E-06-6.10795E-19-1.44818E-18
 -1       493 9.46822E-05-2.85707E-05-2.83339E-05 9.51434E-07-3.09473E-19-9.25055E-19
 -1       494 9.47714E-05-2.85926E-05-2.83627E-05 8.18272E-07-1.02289E-19-5.80426E-19
 -1       495 9.48549E-05-2.86024E-05-2.83943E-05 6.87827E-07-4.40463E-19-8.86669E-19
 -1       496 9.49306E-05-2.86031E-05-2.84263E-05 5.70412E-07-7.76245E-19-6.72708E-19
 -1       497 9.49982E-05-2.85972E-05-2.84578E-05 4.72813E-07-9.88054E-19-3.16650E-19
 -1       498 9.50591E-05-2.85861E-05-2.84885E-05 3.99719E-07-9.71368E-19-1.05516E-18
 -1       499 9.51156E-05-2.85711E-05-2.85192E-05 3.54793E-07-1.10490E-19-1.12730E-18
 -1       500 9.51710E-05-2.85525E-05-2.85508E-05 3.41461E-07-8.12897E-19-1.34935E-18
 -1       501 9.52294E-05-2.85310E-05-2.85849E-05 3.63454E-07-6.47226E-19-7.49622E-19
 -1       502 9.52953E-05-2.85069E-05-2.86234E-05 4.25134E-07 2.63948E-20-1.02885E-18
 -1       503 9.53744E-05-2.84810E-05-2.86683E-05 5.31566E-07 4.59907E-19-2.71510E-19
 -1       504 9.54732E-05-2.84549E-05-2.87218E-05 6.88305E-07 2.59567E-22-5.10935E-19
 -1       505 9.55994E-05-2.84313E-05-2.87858E-05 9.00804E-07-8.83440E-19-8.16852E-19
 -1       506 9.57619E-05-2.84150E-05-2.88624E-05 1.17331E-06-1.13584E-19-1.05771E-18
 -1       507 9.59716E-05-2.84138E-05-2.89526E-05 1.50709E-06 1.97873E-19-1.96822E-18
 -1       508 9.62412E-05-2.84401E-05-2.90568E-05 1.89772E-06 1.52082E-19-2.57329E-18
 -1       509 9.65863E-05-2.85124E-05-2.91737E-05 2.33124E-06-3.01181E-19-2.52199E-18
 -1       510 9.70261E-05-2.86576E-05-2.93000E-05 2.77905E-06-1.04079E-19-1.71919E-18
 -1       511 9.75836E-05-2.89127E-05-2.94299E-05 3.19131E-06 1.16209E-19-1.01052E-18
 -1       512 9.82866E-05-2.93250E-05-2.95550E-05 3.48954E-06 9.92761E-20 1.77024E-19
 -1       513 9.91651E-05-2.99489E-05-2.96650E-05 3.55939E-06-2.01240E-19 8.08271E-19
 -1       514 1.00245E-04-3.08346E-05-2.97497E-05 3.24670E-06 2.75764E-19 1.17845E-18
 -1       515 1.01533E-04-3.20011E-05-2.98031E-05 2.36276E-06 1.57433E-20 6.46251E-19
 -1       516 1.02978E-04-3.33891E-05-2.98295E-05 7.09595E-07-2.70023E-19 6.99173E-20
 -1       517 1.04425E-04-3.47899E-05-2.98505E-05-1.85707E-06 1.15894E-18 5.03033E-19
 -1       518 1.05549E-04-3.57766E-05-2.99092E-05-5.30558E-06 5.52506E-19-3.63745E-19
 -1       519 1.05844E-04-3.57123E-05-3.00626E-05-9.24518E-06-7.40107E-19-1.47329E-18
 -1       520 1.04774E-04-3.39563E-05-3.03522E-05-1.27563E-05-1.29744E-18-1.44361E-18
 -1       521 1.02137E-04-3.03453E-05-3.07632E-05-1.44359E-05-3.84144E-19 4.41144E-20
 -1       522 9.85572E-05-2.57691E-05-3.11886E-05-1.29587E-05-4.17246E-19 8.24225E-19
 -1       523 9.54503E-05-2.20823E-05-3.14406E-05-8.09992E-06 1.02876E-19-2.86350E-19
 -1       524 9.41998E-05-2.10577E-05-3.13448E-05-1.40026E-06 9.81926E-19 4.84434E-19
 -1       525 9.49550E-05-2.28982E-05-3.08773E-05 4.58836E-06 9.55803E-19 2.66862E-18
 -1       526 9.65308E-05-2.61213E-05-3.01675E-05 8.01712E-06 1.24804E-18 1.92382E-18
 -1       527 9.75035E-05-2.89726E-05-2.93667E-05 8.67617E-06-1.10494E-18 1.30457E-18
 -1       528 9.41517E-05-2.76884E-05-2.84807E-05-1.26937E-07 7.25433E-19 1.10202E-19
 -1       529 9.39763E-05-2.79356E-05-2.83019E-05-7.36729E-07 1.84262E-19-1.69237E-19
 -1       530 9.39470E-05-2.81074E-05-2.82167E-05-1.03440E-06 3.65814E-19-9.37767E-20
 -1       531 9.40109E-05-2.82339E-05-2.81904E-05-1.13693E-06 8.30136E-19 6.37922E-20
 -1       532 9.41274E-05-2.83290E-05-2.81997E-05-1.12059E-06 6.89678E-19 1.18505E-19
 -1       533 9.42676E-05-2.84007E-05-2.82292E-05-1.03603E-06 5.72032E-19-6.55288E-20
 -1       534 9.44128E-05-2.84538E-05-2.82687E-05-9.17055E-07 6.40500E-19-1.35285E-19
 -1       535 9.45516E-05-2.84922E-05-2.83118E-05-7.86092E-07 5.65059E-19-5.38935E-19
 -1       536 9.46781E-05-2.85188E-05-2.83545E-05-6.57820E-07 3.49083E-19-4.93167E-19
 -1       537 9.47900E-05-2.85360E-05-2.83950E-05-5.41716E-07 4.26767E-19-1.42586E-19
 -1       538 9.48878E-05-2.85460E-05-2.84326E-05-4.43906E-07 3.63232E-19 2.15795E-20
 -1       539 9.49737E-05-2.85502E-05-2.84675E-05-3.68557E-07 1.05143E-18 1.09555E-21
 -1       540 9.50515E-05-2.85499E-05-2.85008E-05-3.18940E-07 6.58400E-19 4.20695E-19
 -1       541 9.51258E-05-2.85461E-05-2.85342E-05-2.98258E-07 2.64657E-19 1.07579E-18
 -1       542 9.52023E-05-2.85397E-05-2.85696E-05-3.10334E-07-5.93260E-19 7.30064E-19
 -1       543 9.52879E-05-2.85313E-05-2.86098E-05-3.60178E-07 3.15531E-19-5.64104E-19
 -1       544 9.53902E-05-2.85212E-05-2.86577E-05-4.54504E-07 6.84548E-19-1.17132E-18
 -1       545 9.55183E-05-2.85101E-05-2.87172E-05-6.02207E-07 3.03420E-19-8.58192E-19
 -1       546 9.56827E-05-2.84981E-05-2.87925E-05-8.14816E-07-3.34598E-20-5.26613E-19
 -1       547 9.58950E-05-2.84855E-05-2.88886E-05-1.10693E-06-5.66450E-19-1.94969E-18
 -1       548 9.61685E-05-2.84724E-05-2.90110E-05-1.49656E-06-2.74938E-19-2.56515E-18
 -1       549 9.65177E-05-2.84592E-05-2.91658E-05-2.00527E-06 1.01630E-19-2.65229E-18
 -1       550 9.69578E-05-2.84468E-05-2.93592E-05-2.65775E-06 2.28055E-19-2.73135E-18
 -1       551 9.75048E-05-2.84381E-05-2.95966E-05-3.48035E-06-2.45890E-19-1.39963E-18
 -1       552 9.81753E-05-2.84416E-05-2.98818E-05-4.49724E-06-5.72665E-20-6.59195E-19
 -1       553 9.89887E-05-2.84782E-05-3.02140E-05-5.72254E-06 6.25175E-19-6.44774E-20
 -1       554 9.99729E-05-2.85958E-05-3.05852E-05-7.14487E-06 7.51125E-20-6.15345E-19
 -1       555 1.01180E-04-2.88950E-05-3.09753E-05-8.69981E-06-1.10789E-18 1.18845E-18
 -1       556 1.02721E-04-2.95707E-05-3.13484E-05-1.02234E-05-6.51267E-19 1.85606E-18
 -1       557 1.04816E-04-3.09647E-05-3.16540E-05-1.13790E-05 1.61707E-19 1.66179E-18
 -1       558 1.07864E-04-3.35878E-05-3.18439E-05-1.15562E-05 1.20483E-19 1.80731E-18
 -1       559 1.12435E-04-3.79959E-05-3.19245E-05-9.76487E-06 3.49264E-19 2.58469E-18
 -1       560 1.18990E-04-4.42362E-05-3.20631E-05-4.60403E-06-9.52953E-20 2.17110E-18
 -1       561 1.26881E-04-5.04925E-05-3.27641E-05 5.17920E-06-5.57808E-19 3.40849E-18
 -1       562 1.32855E-04-5.14853E-05-3.49698E-05 1.87455E-05-8.04767E-19 1.43415E-18
 -1       563 1.31257E-04-4.12423E-05-3.89012E-05 2.95155E-05-1.81159E-18 1.40223E-18
 -1       564 1.16925E-04-1.51328E-05-4.44177E-05 4.90338E-06 7.67941E-19 6.87513E-19
 -1       565 1.21574E-04-2.64052E-05-4.12059E-05-1.10691E-05 8.94705E-19-1.66720E-19
 -1       566 1.25804E-04-4.08706E-05-3.66612E-05-1.21809E-05-1.58242E-18 9.43495E-19
 -1       567 1.22927E-04-4.63809E-05-3.28939E-05-2.17937E-06 1.08181E-18-4.10030E-19
 -1       568 1.14181E-04-4.14093E-05-3.12173E-05 7.54464E-06 2.50211E-18-1.98701E-18
 -1       569 7.23303E-05-1.96075E-05-2.20341E-05 3.92371E-05-5.84506E-19-1.72541E-18
 -1       570 5.02215E-05-5.79382E-06-1.84626E-05 8.55730E-06 3.04945E-18-1.09066E-18
 -1       571 1.16861E-04-4.55918E-05-3.04746E-05 2.85254E-05 1.64687E-18 6.19318E-19
 -1       572 1.01973E-04-3.89373E-05-2.67900E-05 4.30095E-05-9.85867E-19-1.98991E-18
 -1       573 5.79085E-05-1.06032E-05-1.96738E-05-3.01570E-05 6.89617E-19 5.12614E-19
 -1       574 8.72874E-05-2.89259E-05-2.46587E-05-4.81899E-05 1.23472E-18-1.04643E-18
 -1       575 1.10846E-04-4.24136E-05-2.91629E-05-4.16687E-05-4.11638E-19-9.70796E-19
 -1       576 1.17899E-04-4.48114E-05-3.12741E-05-2.53151E-05-3.77912E-19-1.20632E-18
 -1       577 1.14679E-04-4.12827E-05-3.14278E-05-1.03118E-05-1.02203E-19-3.58609E-19
 -1       578 1.08095E-04-3.66071E-05-3.06237E-05-1.91058E-09-6.01249E-19 2.62810E-18
 -1       579 1.01883E-04-3.29099E-05-2.95421E-05 5.82340E-06-1.23911E-18 4.00833E-18
 -1       580 1.06062E-04-5.58995E-05-2.11087E-05 5.27302E-05-4.00805E-19-4.73041E-19
 -1       581 3.96109E-05-1.36533E-05-1.03477E-05-2.58281E-05 1.46606E-18-5.78947E-19
 -1       582 9.45283E-05-2.72953E-05-2.88055E-05 9.77703E-07 1.06448E-18 4.32149E-19
 -1       583 3.49719E-05-1.42682E-05-8.22204E-06 1.72323E-05 2.12878E-18 1.69565E-18
 -1       584 1.32452E-04-6.86323E-05-2.72577E-05 4.11989E-05 1.36510E-18-3.29784E-18
 -1       585 9.45997E-05-2.07642E-05-3.16623E-05-9.41783E-06-1.88483E-18-1.32221E-18
 -1       586 6.32538E-05-3.13568E-05-1.31973E-05-5.19781E-05-9.77423E-19-1.20453E-18
 -1       587 8.91497E-05-1.28753E-05-3.27071E-05-1.93614E-06 6.71333E-20-2.67524E-18
 -1       588 1.39750E-04-1.12725E-05-5.57820E-05 1.16939E-05 1.86199E-18 7.22546E-19
 -1       589 1.57817E-04-4.16551E-05-5.02124E-05-4.82469E-06-1.48337E-19-2.37582E-18
 -1       590 1.44266E-04-1.85514E-05-5.45247E-05-5.09188E-06 1.04047E-18-9.95105E-19
 -1       591 1.53701E-04-4.94455E-05-4.52296E-05 2.35900E-05-8.98120E-19 1.44350E-18
 -1       592 1.50478E-04-6.78389E-05-3.56643E-05 1.86300E-06 8.51745E-19 2.25348E-18
 -1       593 1.32911E-04-7.08722E-05-2.64654E-05-1.89298E-05 6.84614E-19 2.17222E-18
 -1       594 9.27483E-05-5.73509E-05-1.48750E-05-3.74900E-05 2.00535E-19-1.33987E-18
 -1       595 5.27347E-05-3.82654E-05-5.72795E-06-3.53118E-05 5.65183E-19-1.70566E-18
 -1       596 2.78508E-05-2.26908E-05-1.59491E-06-1.69319E-05-3.86459E-20-2.21923E-18
 -1       597 2.46498E-05-1.75760E-05-2.30397E-06 1.20550E-05-2.81572E-19 7.14366E-19
 -1       598 4.48680E-05-3.17356E-05-5.06679E-06 3.92857E-05-6.31198E-19-1.45552E-18
 -1       599 7.84455E-05-4.88961E-05-1.23260E-05 4.69255E-05 8.32580E-19-2.60944E-18
 -1       600 1.21398E-04-6.48900E-05-2.40273E-05 3.53059E-05 3.69200E-19 6.97002E-19
 -1       601 1.44257E-04-6.41971E-05-3.44517E-05 1.50347E-05-2.27270E-19-6.82232E-19
 -1       602 1.49943E-04-4.75903E-05-4.42881E-05-1.04688E-05 9.18793E-19 7.47083E-19
 -1       603 1.42944E-04-2.12207E-05-5.28281E-05-1.77582E-05 4.46545E-19-5.30613E-19
 -1       604 1.34600E-04-5.30096E-06-5.61874E-05-9.01279E-06 8.07858E-20-1.03971E-18
 -1       605 1.44662E-04-1.02753E-05-5.82711E-05 1.98915E-06 1.76585E-18-3.35107E-20
 -1       606 1.51977E-04-3.03864E-05-5.26054E-05 3.96425E-06 2.25152E-18 5.47236E-19
 -1       607 1.52831E-04-5.76843E-05-4.11224E-05-1.26235E-05 1.36610E-18 6.10023E-19
 -1       608 1.42917E-04-6.56183E-05-3.29992E-05-3.51279E-05 1.26446E-19 6.14099E-20
 -1       609 1.11633E-04-5.85796E-05-2.22871E-05-5.57912E-05-9.37242E-19 9.23944E-19
 -1       610 6.19202E-05-3.12178E-05-1.24819E-05 4.63692E-05 1.24567E-18 1.11861E-18
 -1       611 9.61666E-05-2.31920E-05-3.12784E-05 9.57818E-06 2.34850E-18 1.11994E-18
 -1       612 1.56760E-04-6.57113E-05-3.92194E-05 1.47136E-05-1.25917E-19-2.37164E-18
 -1       613 9.13583E-05-1.58990E-05-3.23625E-05-7.70153E-06-1.27434E-18-2.40453E-18
 -1       614 9.74326E-05-3.03306E-05-2.87550E-05 8.12066E-06-2.07106E-18 1.46156E-18
 -1       615 9.27858E-05-1.79516E-05-3.20924E-05-8.88922E-06-1.64400E-18-2.09489E-18
 -1       616 9.15456E-05-1.68455E-05-3.20199E-05 2.43832E-06 8.55921E-19-2.09986E-18
 -1       617 9.12859E-05-1.64430E-05-3.20809E-05 8.39736E-07 5.95017E-19-2.29223E-18
 -1       618 9.28873E-05-1.89962E-05-3.16732E-05 5.26054E-06 1.54410E-18-1.39997E-18
 -1       619 9.39878E-05-2.09316E-05-3.13176E-05 6.13550E-06 1.78293E-18-8.05795E-19
 -1       620 9.52747E-05-2.40943E-05-3.04958E-05 5.14293E-06 1.73007E-18-3.77699E-19
 -1       621 1.39533E-04-4.11944E-05-4.24862E-05 4.20985E-06 3.24905E-18 3.69783E-19
 -1       622 9.54085E-05-2.56898E-05-2.98775E-05-2.43390E-06-1.03815E-18-1.40034E-18
 -1       623 9.54756E-05-2.69452E-05-2.93696E-05-8.61517E-07-9.41557E-19-1.07807E-18
 -1       624 9.54203E-05-2.77063E-05-2.90201E-05 1.40898E-07-5.48477E-19-1.12064E-18
 -1       625 9.53437E-05-2.81788E-05-2.87850E-05 7.28217E-07-6.27087E-19-1.17675E-18
 -1       626 9.52788E-05-2.84705E-05-2.86322E-05 1.02900E-06-5.16521E-19-1.22058E-18
 -1       627 9.52331E-05-2.86451E-05-2.85378E-05 1.13958E-06-3.96836E-19-1.29241E-18
 -1       628 9.52051E-05-2.87424E-05-2.84841E-05 1.12997E-06-6.24404E-19-1.04192E-18
 -1       629 9.51906E-05-2.87883E-05-2.84583E-05 1.04995E-06-2.94830E-19-7.88351E-19
 -1       630 9.51855E-05-2.88001E-05-2.84510E-05 9.34176E-07-8.61669E-21-1.08215E-18
 -1       631 9.51866E-05-2.87898E-05-2.84559E-05 8.06383E-07-2.86765E-19-9.41335E-19
 -1       632 9.51915E-05-2.87651E-05-2.84685E-05 6.82552E-07-8.10369E-20-1.29217E-19
 -1       633 9.51986E-05-2.87311E-05-2.84861E-05 5.73405E-07-6.14425E-19 1.09370E-19
 -1       634 9.52071E-05-2.86907E-05-2.85071E-05 4.86282E-07-1.53366E-18 4.67680E-19
 -1       635 9.52166E-05-2.86452E-05-2.85307E-05 4.26555E-07-9.75133E-19-3.34886E-20
 -1       636 9.52271E-05-2.85947E-05-2.85567E-05 3.98692E-07-2.84696E-19-2.54849E-19
 -1       637 9.52388E-05-2.85387E-05-2.85858E-05 4.07046E-07-3.44169E-19-4.98339E-19
 -1       638 9.52525E-05-2.84760E-05-2.86185E-05 4.56374E-07-3.67865E-19 9.98604E-20
 -1       639 9.52693E-05-2.84056E-05-2.86558E-05 5.52105E-07 4.17608E-19-2.17098E-19
 -1       640 9.52908E-05-2.83270E-05-2.86987E-05 7.00343E-07 4.86390E-19-3.18640E-19
 -1       641 9.53196E-05-2.82409E-05-2.87479E-05 9.07541E-07-2.25594E-19 2.50977E-19
 -1       642 9.53598E-05-2.81503E-05-2.88039E-05 1.17977E-06-1.03611E-18 8.19351E-19
 -1       643 9.54178E-05-2.80621E-05-2.88665E-05 1.52144E-06-1.87458E-19 1.68979E-19
 -1       644 9.55036E-05-2.79889E-05-2.89346E-05 1.93333E-06 8.56574E-21-5.48296E-19
 -1       645 9.56326E-05-2.79518E-05-2.90058E-05 2.40973E-06 4.90735E-19-6.01455E-19
 -1       646 9.58287E-05-2.79838E-05-2.90761E-05 2.93444E-06-4.80904E-19-5.49589E-19
 -1       647 9.61280E-05-2.81333E-05-2.91403E-05 3.47552E-06-1.71731E-19-8.95598E-19
 -1       648 9.65824E-05-2.84676E-05-2.91919E-05 3.97848E-06 1.15768E-18 1.87338E-19
 -1       649 9.72644E-05-2.90732E-05-2.92249E-05 4.35813E-06 8.27072E-19 2.60980E-19
 -1       650 9.82668E-05-3.00495E-05-2.92364E-05 4.48907E-06 2.41494E-19 9.05455E-19
 -1       651 9.96941E-05-3.14880E-05-2.92322E-05 4.19668E-06-9.67303E-19 7.60245E-19
 -1       652 1.01634E-04-3.34252E-05-2.92341E-05 3.25297E-06 8.60236E-20 8.99667E-19
 -1       653 1.04091E-04-3.57555E-05-2.92891E-05 1.39032E-06-6.95305E-20 5.77746E-19
 -1       654 1.06874E-04-3.80981E-05-2.94778E-05-1.63559E-06-3.27984E-19-7.23121E-19
 -1       655 1.09453E-04-3.96625E-05-2.99129E-05-5.87421E-06-4.94788E-19-1.79350E-18
 -1       656 1.10907E-04-3.92751E-05-3.07079E-05-1.08574E-05-8.44495E-19-1.79643E-18
 -1       657 1.10210E-04-3.58426E-05-3.18832E-05-1.52172E-05-6.05827E-19-8.72960E-19
 -1       658 1.07050E-04-2.93988E-05-3.32832E-05-1.66691E-05-3.04632E-19-5.27889E-19
 -1       659 1.02685E-04-2.21389E-05-3.45397E-05-1.34419E-05-4.97524E-19-9.46716E-20
 -1       660 9.99598E-05-1.81421E-05-3.50995E-05-5.93800E-06 1.35494E-18 6.32669E-19
 -1       661 1.00281E-04-1.94302E-05-3.46823E-05 2.31747E-06 2.64843E-18 5.00700E-19
 -1       662 1.02572E-04-2.45549E-05-3.34513E-05 7.38951E-06 1.07228E-18 1.73522E-18
 -1       663 1.04137E-04-2.98529E-05-3.18286E-05 8.23456E-06 1.57278E-19 1.80184E-18
 -1       664 9.49859E-05-2.81157E-05-2.86585E-05-7.43453E-07 3.98992E-19-3.01312E-19
 -1       665 1.30318E-04-1.89449E-05-4.82581E-05 8.01188E-06 1.57913E-18-1.58490E-18
 -1       666 9.50968E-05-2.77092E-05-2.88798E-05-1.34531E-07 5.64018E-19-2.23730E-19
 -1       667 9.49030E-05-2.85295E-05-2.84459E-05-1.16373E-06 5.74792E-19 2.40624E-19
 -1       668 9.49110E-05-2.86247E-05-2.84086E-05-1.15261E-06 8.62670E-19 5.85649E-20
 -1       669 9.49366E-05-2.86772E-05-2.83971E-05-1.06969E-06 4.79574E-19-1.02315E-19
 -1       670 9.49716E-05-2.87007E-05-2.84020E-05-9.50265E-07 7.58696E-19 1.27701E-20
 -1       671 9.50102E-05-2.87046E-05-2.84169E-05-8.18272E-07 2.05173E-19 3.37553E-19
 -1       672 9.50490E-05-2.86955E-05-2.84374E-05-6.89708E-07 2.29770E-19 7.96671E-19
 -1       673 9.50862E-05-2.86775E-05-2.84610E-05-5.75199E-07 3.02420E-19 8.28223E-19
 -1       674 9.51213E-05-2.86532E-05-2.84864E-05-4.81928E-07 1.01271E-18 6.13350E-19
 -1       675 9.51548E-05-2.86240E-05-2.85132E-05-4.15127E-07 4.61334E-19 7.30619E-19
 -1       676 9.51877E-05-2.85902E-05-2.85418E-05-3.79221E-07-6.78064E-20 8.55228E-19
 -1       677 9.52217E-05-2.85513E-05-2.85730E-05-3.78722E-07 2.06826E-19 9.43541E-19
 -1       678 9.52587E-05-2.85059E-05-2.86083E-05-4.18961E-07 4.43059E-19 4.09201E-19
 -1       679 9.53011E-05-2.84521E-05-2.86495E-05-5.06683E-07 5.15458E-19 5.66903E-19
 -1       680 9.53511E-05-2.83872E-05-2.86987E-05-6.50544E-07 7.05089E-19 2.94942E-19
 -1       681 9.54111E-05-2.83077E-05-2.87583E-05-8.61518E-07 7.65892E-19-5.25433E-19
 -1       682 9.54826E-05-2.82093E-05-2.88311E-05-1.15322E-06 6.15516E-20-8.89609E-19
 -1       683 9.55666E-05-2.80868E-05-2.89195E-05-1.54212E-06-2.87353E-19-9.37461E-19
 -1       684 9.56621E-05-2.79338E-05-2.90258E-05-2.04751E-06-2.98261E-19-6.54522E-19
 -1       685 9.57656E-05-2.77438E-05-2.91513E-05-2.69110E-06 1.29569E-19 8.06586E-20
 -1       686 9.58702E-05-2.75110E-05-2.92957E-05-3.49602E-06-4.50161E-19 7.61762E-19
 -1       687 9.59660E-05-2.72340E-05-2.94553E-05-4.48470E-06-4.30636E-19 9.69268E-19
 -1       688 9.60426E-05-2.69231E-05-2.96210E-05-5.67503E-06 2.58561E-19 4.23438E-19
 -1       689 9.60969E-05-2.66153E-05-2.97759E-05-7.07403E-06 1.08001E-19 1.46410E-18
 -1       690 9.61530E-05-2.64015E-05-2.98915E-05-8.66817E-06-4.61096E-19 1.75813E-18
 -1       691 9.63033E-05-2.64733E-05-2.99254E-05-1.04088E-05-3.07764E-19-3.26256E-19
 -1       692 9.67845E-05-2.71943E-05-2.98234E-05-1.21893E-05-4.82842E-19-3.64703E-19
 -1       693 9.81036E-05-2.91875E-05-2.95345E-05-1.37987E-05-8.61420E-19 6.70544E-19
 -1       694 1.01181E-04-3.33606E-05-2.90612E-05-1.48057E-05-5.12955E-19 1.79770E-18
 -1       695 1.07383E-04-4.06873E-05-2.85751E-05-1.43036E-05 9.81642E-20 3.94037E-18
 -1       696 1.18356E-04-5.14606E-05-2.86492E-05-1.02882E-05-6.26376E-19 3.94623E-18
 -1       697 1.33407E-04-6.18924E-05-3.06418E-05-1.62416E-07 2.39863E-19 3.28529E-18
 -1       698 1.10986E-04-5.18780E-05-2.50841E-05-5.22464E-05-6.38028E-19-6.15740E-19
 -1       699 1.31640E-04-5.67670E-05-3.20211E-05-3.03826E-05 3.26549E-19 3.38277E-19
 -1       700 1.27307E-04-4.86877E-05-3.37358E-05-1.16485E-05-1.10368E-19-6.26672E-21
 -1       701 1.17147E-04-3.98641E-05-3.31445E-05-4.40598E-08 1.94667E-18 4.34010E-19
 -1       702 9.45632E-05-2.21715E-05-3.10207E-05-6.15144E-06-1.53034E-18-1.61556E-18
 -1       703 1.42860E-04-6.57402E-05-3.31017E-05 2.02488E-05 4.33429E-19-4.10843E-18
 -1       704 9.52358E-05-2.70418E-05-2.92238E-05 9.17848E-07 1.07804E-18-2.56948E-19
 -1       705 1.41501E-04-5.74093E-05-3.62965E-05 2.87681E-06-4.30941E-19-2.43392E-18
 -1       706 9.49240E-05-2.83708E-05-2.85228E-05-1.05184E-06 2.66805E-19-2.25486E-19
 -1       707 9.51835E-05-2.43055E-05-3.03802E-05-4.10078E-06-1.14867E-18-1.53884E-18
 -1       708 9.20718E-05-1.76730E-05-3.18910E-05 3.94605E-06 1.24548E-18-1.66207E-18
 -1       709 9.20317E-05-1.76159E-05-3.18983E-05-3.89121E-06-6.02979E-19-2.26509E-18
 -1       710 9.53419E-05-2.59440E-05-2.97385E-05 2.59750E-06 1.24667E-18-2.30632E-19
 -1       711 7.81305E-05-4.28040E-05-1.47216E-05-3.40428E-05-2.35846E-20-1.82623E-18
 -1       712 1.24040E-04-1.30146E-05-4.80902E-05-1.64999E-05 3.12926E-19 1.19008E-19
 -1       713 1.03368E-04-3.18876E-05-3.06315E-05 7.25156E-06 3.54967E-19 3.21287E-18
 -1       714 1.15448E-04-6.00301E-05-2.34737E-05-2.34126E-05-4.33443E-19 1.49509E-18
 -1       715 5.14134E-05-2.64638E-05-1.01343E-05-2.65781E-05-1.51886E-18-2.53115E-18
 -1       716 3.55986E-05-1.52349E-05-8.12161E-06-4.91147E-06-1.34228E-18 1.75389E-19
 -1       717 4.56922E-05-2.07802E-05-1.01320E-05 2.65003E-05 1.11782E-19-1.24980E-18
 -1       718 6.90067E-05-3.69528E-05-1.33069E-05 4.05229E-05 2.90876E-19-1.45976E-18
 -1       719 1.05845E-04-5.64379E-05-2.09236E-05 3.66484E-05 1.27391E-18-1.58514E-19
 -1       720 1.33566E-04-6.53621E-05-2.92029E-05 1.81481E-05 9.45328E-19 2.55010E-19
 -1       721 1.42194E-04-5.82445E-05-3.61831E-05-1.89380E-06 2.41074E-19 9.92220E-19
 -1       722 1.33294E-04-3.29015E-05-4.33866E-05-2.02509E-05 1.56447E-18-4.39398E-21
 -1       723 1.41624E-04-5.57859E-05-3.69987E-05-1.17305E-05 1.04916E-18-1.10247E-18
 -1       724 1.20996E-04-7.74727E-06-4.90747E-05-5.86402E-07 1.49189E-18-1.42241E-18
 -1       725 1.47223E-04-5.33653E-05-4.05662E-05-4.28796E-06-8.98199E-19-1.72239E-18
 -1       726 1.42307E-04-5.99528E-05-3.54815E-05 1.52944E-05 1.37153E-19 2.33553E-18
 -1       727 1.25989E-04-5.78448E-05-2.90875E-05 3.47582E-05-7.85140E-19-2.80191E-18
 -1       728 9.28671E-05-1.89493E-05-3.16812E-05-5.22728E-06-1.08965E-18-2.08434E-18
 -1       729 9.12793E-05-1.64340E-05-3.20819E-05-7.83042E-07 1.51522E-19-2.38684E-18
 -1       730 9.15235E-05-1.68150E-05-3.20235E-05-2.38069E-06-2.01960E-19-2.25654E-18
 -1       731 1.42430E-04-3.76406E-05-4.54130E-05-1.10014E-05 1.03762E-20 5.11396E-20
 -1       732 1.27579E-04-5.30333E-05-3.19117E-05 1.46824E-05 3.19545E-18-7.29348E-19
 -1       733 1.34333E-04-4.60982E-05-3.79438E-05-1.57131E-05 1.05470E-18 5.36092E-19
 -1       734 4.54864E-05-1.48710E-05-1.27024E-05 1.13195E-05-1.88730E-19 6.07799E-19
 -1       735 9.46696E-05-2.27629E-05-3.08142E-05 3.90066E-06 1.22292E-18-8.75722E-19
 -1       736 1.14832E-04-1.58535E-05-4.26825E-05 5.38219E-06 9.72407E-19-2.44501E-19
 -1       737 9.58647E-05-2.68840E-05-2.95631E-05-5.76775E-07-7.28003E-19-1.41780E-18
 -1       738 9.59574E-05-2.77737E-05-2.92216E-05 2.24052E-07-7.14494E-19-1.34053E-18
 -1       739 9.59458E-05-2.83359E-05-2.89757E-05 7.00921E-07-4.13273E-19-1.15242E-18
 -1       740 9.58852E-05-2.86785E-05-2.88029E-05 9.44645E-07-4.83276E-19-1.15747E-18
 -1       741 9.58048E-05-2.88728E-05-2.86851E-05 1.02982E-06-2.70762E-19-9.34687E-19
 -1       742 9.57200E-05-2.89679E-05-2.86081E-05 1.01379E-06-2.82293E-19-6.45082E-19
 -1       743 9.56389E-05-2.89973E-05-2.85607E-05 9.38671E-07-2.03733E-19-2.59077E-19
 -1       744 9.55655E-05-2.89843E-05-2.85348E-05 8.34444E-07-6.52646E-21-2.83848E-19
 -1       745 9.55010E-05-2.89445E-05-2.85242E-05 7.21945E-07 2.48673E-19-4.65483E-19
 -1       746 9.54454E-05-2.88881E-05-2.85246E-05 6.15463E-07-5.83115E-19-6.53383E-19
 -1       747 9.53976E-05-2.88212E-05-2.85328E-05 5.24829E-07-1.03827E-18-3.67186E-19
 -1       748 9.53560E-05-2.87467E-05-2.85469E-05 4.57045E-07-1.18332E-18 2.76363E-19
 -1       749 9.53186E-05-2.86654E-05-2.85656E-05 4.17514E-07-5.40403E-19 4.15394E-19
 -1       750 9.52828E-05-2.85764E-05-2.85885E-05 4.11019E-07-6.84602E-19 4.02436E-19
 -1       751 9.52463E-05-2.84776E-05-2.86152E-05 4.42429E-07-7.13054E-20 3.11580E-19
 -1       752 9.52063E-05-2.83663E-05-2.86457E-05 5.17144E-07 1.55947E-19 2.37843E-19
 -1       753 9.51603E-05-2.82403E-05-2.86800E-05 6.41311E-07 4.39528E-19 1.76259E-19
 -1       754 9.51064E-05-2.80978E-05-2.87179E-05 8.21807E-07 1.47508E-19-9.67543E-20
 -1       755 9.50436E-05-2.79395E-05-2.87589E-05 1.06594E-06-3.59220E-19-2.16506E-20
 -1       756 9.49733E-05-2.77698E-05-2.88015E-05 1.38077E-06-6.12805E-19 3.48617E-20
 -1       757 9.49006E-05-2.75988E-05-2.88436E-05 1.77204E-06-7.41874E-19-2.84015E-19
 -1       758 9.48368E-05-2.74461E-05-2.88817E-05 2.24249E-06 2.28949E-20-8.79061E-19
 -1       759 9.48032E-05-2.73441E-05-2.89110E-05 2.78953E-06 3.21630E-19-8.74570E-19
 -1       760 9.48361E-05-2.73433E-05-2.89254E-05 3.40190E-06-4.50682E-19 5.81581E-19
 -1       761 9.49933E-05-2.75173E-05-2.89182E-05 4.05519E-06 5.31206E-19 1.42006E-18
 -1       762 9.53623E-05-2.79678E-05-2.88833E-05 4.70535E-06 2.09916E-19 5.64808E-19
 -1       763 9.60678E-05-2.88249E-05-2.88184E-05 5.27913E-06-2.60999E-19-7.11780E-19
 -1       764 9.72761E-05-3.02395E-05-2.87301E-05 5.65931E-06 2.02216E-19-2.18201E-18
 -1       765 9.91864E-05-3.23542E-05-2.86429E-05 5.66215E-06 1.33166E-19-3.79119E-19
 -1       766 1.01993E-04-3.52359E-05-2.86113E-05 5.00715E-06-2.39485E-19-1.75807E-20
 -1       767 1.05784E-04-3.87386E-05-2.87349E-05 3.29185E-06-8.32373E-19 1.39457E-18
 -1       768 1.10343E-04-4.22688E-05-2.91732E-05 3.03552E-08-1.61058E-18 1.35948E-18
 -1       769 1.14854E-04-4.44989E-05-3.01530E-05-5.08789E-06-1.22006E-18 1.70313E-19
 -1       770 1.17758E-04-4.33158E-05-3.19180E-05-1.17290E-05 5.46601E-20-3.43574E-19
 -1       771 1.17275E-04-3.70156E-05-3.44164E-05-1.77494E-05 1.11020E-18 4.28883E-19
 -1       772 1.12459E-04-2.58767E-05-3.72559E-05-1.87700E-05 4.74338E-19 8.44108E-19
 -1       773 1.07547E-04-1.62783E-05-3.92619E-05-1.21248E-05 8.20246E-19 1.32092E-18
 -1       774 1.09295E-04-2.10501E-05-3.79390E-05 6.72574E-06 2.29111E-18 5.83841E-19
 -1       775 1.12594E-04-3.04234E-05-3.52650E-05 7.93384E-06 9.49496E-19 8.50987E-19
 -1       776 9.57285E-05-2.77487E-05-2.91342E-05-2.03247E-07 4.29550E-19-5.16455E-19
 -1       777 9.55025E-05-2.88712E-05-2.85563E-05-1.07434E-06 4.86305E-19-3.41160E-19
 -1       778 9.55630E-05-2.87753E-05-2.86233E-05-1.08896E-06 6.73798E-19-4.00828E-19
 -1       779 9.54058E-05-2.89059E-05-2.85000E-05-8.84742E-07 1.84713E-19-4.84616E-19
 -1       780 9.53697E-05-2.88795E-05-2.84958E-05-7.64126E-07-6.59633E-20-8.41634E-19
 -1       781 9.53407E-05-2.88376E-05-2.85014E-05-6.48812E-07 2.11727E-19-7.67771E-19
 -1       782 9.53177E-05-2.87860E-05-2.85136E-05-5.49099E-07 5.41607E-19-8.45001E-19
 -1       783 9.52993E-05-2.87274E-05-2.85308E-05-4.72240E-07 2.61597E-19 6.31612E-19
 -1       784 9.52843E-05-2.86626E-05-2.85522E-05-4.23860E-07 5.12384E-19 7.99725E-19
 -1       785 9.52711E-05-2.85906E-05-2.85774E-05-4.08979E-07-1.67445E-19 5.93587E-20
 -1       786 9.52582E-05-2.85090E-05-2.86068E-05-4.32853E-07-1.61818E-19 5.65483E-19
 -1       787 9.52432E-05-2.84140E-05-2.86410E-05-5.01635E-07 1.50483E-19 2.11689E-18
 -1       788 9.52233E-05-2.83008E-05-2.86810E-05-6.22855E-07 8.13287E-19 2.01989E-18
 -1       789 9.51947E-05-2.81631E-05-2.87278E-05-8.05756E-07 1.14297E-18 1.61460E-18
 -1       790 9.51517E-05-2.79933E-05-2.87821E-05-1.06149E-06 6.62616E-19 1.69595E-18
 -1       791 9.50866E-05-2.77824E-05-2.88445E-05-1.40311E-06-3.17296E-20 1.42067E-18
 -1       792 9.49879E-05-2.75200E-05-2.89147E-05-1.84540E-06-1.04589E-20 1.50824E-18
 -1       793 9.48399E-05-2.71942E-05-2.89908E-05-2.40434E-06-5.77535E-19 5.58503E-19
 -1       794 9.46212E-05-2.67935E-05-2.90688E-05-3.09627E-06-5.05498E-19 6.72362E-19
 -1       795 9.43039E-05-2.63083E-05-2.91407E-05-3.93671E-06-6.40888E-19 8.12362E-19
 -1       796 9.38547E-05-2.57372E-05-2.91928E-05-4.93912E-06 5.23574E-20 8.82988E-19
 -1       797 9.32393E-05-2.50976E-05-2.92031E-05-6.11419E-06-4.80394E-19 3.05531E-19
 -1       798 9.24350E-05-2.44458E-05-2.91376E-05-7.47151E-06-5.57221E-19 2.70737E-19
 -1       799 9.14573E-05-2.39116E-05-2.89474E-05-9.02655E-06 6.03881E-19 7.80377E-19
 -1       800 9.04124E-05-2.37553E-05-2.85666E-05-1.08171E-05-6.12098E-19 1.12881E-18
 -1       801 8.95859E-05-2.44480E-05-2.79148E-05-1.29298E-05-3.86503E-19 4.95228E-19
 -1       802 8.96223E-05-2.68223E-05-2.69082E-05-1.55535E-05-1.63314E-18 1.01623E-19
 -1       803 9.17569E-05-3.21338E-05-2.55295E-05-1.88541E-05-1.18298E-18-1.70905E-19
 -1       804 9.87978E-05-4.20874E-05-2.41481E-05-2.22165E-05-1.23338E-18 8.99929E-19
 -1       805 1.23416E-04-2.99524E-05-4.02319E-05 8.36540E-06 1.97936E-18-7.31016E-19
 -1       806 6.52198E-05-2.78434E-05-1.57186E-05 3.08462E-05 8.50765E-19-6.18731E-19
 -1       807 1.18539E-04-2.33764E-05-4.10364E-05-1.95239E-05 5.76472E-19-2.20727E-19
 -1       808 9.56952E-05-2.69162E-05-2.94772E-05 6.84566E-07 8.13385E-19-3.87275E-19
 -1       809 9.37103E-05-2.04277E-05-3.14042E-05-5.89988E-06-1.32142E-18-1.91208E-18
 -1       810 5.18449E-05-1.85457E-05-1.39040E-05-1.50825E-05-1.82559E-18-1.40973E-18
 -1       811 1.27130E-04-4.07541E-05-3.71414E-05 2.94408E-06 2.26246E-18 2.32733E-18
 -1       812 7.10328E-05-3.09391E-05-1.69419E-05-2.67436E-05-2.01593E-18-3.19702E-18
 -1       813 9.54499E-05-2.89079E-05-2.85180E-05-9.95530E-07 4.98994E-19-4.70215E-19
 -1       814 9.55587E-05-2.54934E-05-3.00281E-05-1.80097E-06-7.36454E-19-1.69642E-18
 -1       815 9.52052E-05-2.44720E-05-3.03142E-05 3.41843E-06 1.19786E-18-4.73367E-19
 -1       816 9.31944E-05-1.97720E-05-3.14679E-05 1.23182E-06 7.07866E-19-2.05057E-18
 -1       817 1.10892E-04-1.12265E-05-4.29718E-05-8.82925E-06 1.35889E-18 7.07721E-19
 -1       818 8.89291E-05-4.32087E-05-1.93593E-05 3.47903E-05 2.36091E-19-2.14154E-19
 -1       819 1.20626E-04-5.94835E-05-2.61670E-05 2.19704E-05 8.02703E-19 7.51537E-19
 -1       820 1.33554E-04-6.02672E-05-3.14906E-05 4.30030E-06 4.55548E-19 1.20260E-18
 -1       821 9.30841E-05-1.95732E-05-3.15057E-05 2.02460E-08 3.70654E-19-1.94607E-18
 -1       822 9.40165E-05-2.13469E-05-3.11451E-05 3.30377E-06 1.02756E-18-1.42660E-18
 -1       823 9.51511E-05-2.40667E-05-3.04660E-05-3.06141E-06-9.92059E-19-1.79014E-18
 -1       824 1.06258E-04-1.42296E-05-3.95593E-05-1.33236E-06 1.49769E-18 9.91907E-19
 -1       825 9.56906E-05-2.82706E-05-2.88943E-05-7.26643E-07 2.35542E-19-6.60618E-19
 -1       826 9.56285E-05-2.85901E-05-2.87308E-05-9.93925E-07 4.88043E-20-7.10928E-19
 -1       827 9.35011E-05-2.03316E-05-3.13599E-05-2.33915E-06-3.06103E-19-1.92432E-18
 -1       828 9.39927E-05-2.12952E-05-3.11560E-05-3.29181E-06-7.72569E-19-1.64872E-18
 -1       829 9.35116E-05-2.03585E-05-3.13526E-05 2.36062E-06 9.36716E-19-1.60948E-18
 -1       830 5.21112E-05-1.43519E-05-1.59271E-05-1.15639E-06-1.09807E-18 1.99419E-18
 -1       831 9.55466E-05-2.59299E-05-2.98372E-05 1.83667E-06 1.11761E-18-5.17668E-19
 -1       832 5.84303E-05-1.95448E-05-1.64221E-05 1.98847E-05 1.28760E-18 1.57363E-20
 -1       833 1.05854E-04-5.04689E-05-2.36615E-05 2.66630E-05 5.56085E-19-6.75188E-19
 -1       834 7.31532E-05-2.38274E-05-2.10129E-05-1.86329E-05-2.25513E-18-2.14355E-18
 -1       835 9.31839E-05-1.97548E-05-3.14704E-05-1.18997E-06 5.68301E-20-2.14736E-18
 -1       836 9.63578E-05-2.79236E-05-2.93289E-05 2.94885E-07-3.74072E-19-8.61346E-19
 -1       837 9.63785E-05-2.85174E-05-2.90833E-05 6.39024E-07-3.79739E-19-6.87335E-19
 -1       838 9.63149E-05-2.88738E-05-2.89033E-05 8.09343E-07-2.70400E-19-4.75768E-19
 -1       839 9.62074E-05-2.90665E-05-2.87747E-05 8.60776E-07-4.42198E-20-4.01862E-19
 -1       840 9.60814E-05-2.91482E-05-2.86857E-05 8.36543E-07-6.47908E-20-2.64678E-19
 -1       841 9.59525E-05-2.91568E-05-2.86268E-05 7.69089E-07-3.48657E-19-1.47679E-19
 -1       842 9.58297E-05-2.91185E-05-2.85905E-05 6.81679E-07-4.72411E-19-9.07211E-19
 -1       843 9.57172E-05-2.90510E-05-2.85712E-05 5.90736E-07-1.92991E-19-1.34621E-18
 -1       844 9.56159E-05-2.89652E-05-2.85646E-05 5.07693E-07-2.89992E-19-1.05238E-18
 -1       845 9.55248E-05-2.88675E-05-2.85674E-05 4.40651E-07-8.04072E-19-9.19880E-20
 -1       846 9.54413E-05-2.87602E-05-2.85776E-05 3.95586E-07-6.25356E-19 8.46455E-20
 -1       847 9.53613E-05-2.86432E-05-2.85935E-05 3.77392E-07-5.87228E-19-1.38132E-19
 -1       848 9.52801E-05-2.85140E-05-2.86141E-05 3.90737E-07-1.48297E-20 4.88899E-19
 -1       849 9.51924E-05-2.83692E-05-2.86385E-05 4.40611E-07-2.04171E-19 4.01582E-19
 -1       850 9.50921E-05-2.82046E-05-2.86661E-05 5.32693E-07 2.90150E-19-2.38197E-19
 -1       851 9.49734E-05-2.80166E-05-2.86958E-05 6.73591E-07 1.50215E-19-9.38164E-20
 -1       852 9.48307E-05-2.78028E-05-2.87263E-05 8.70911E-07-4.14381E-20-2.49672E-20
 -1       853 9.46602E-05-2.75641E-05-2.87555E-05 1.13316E-06-4.19055E-19-4.75914E-19
 -1       854 9.44607E-05-2.73066E-05-2.87803E-05 1.46942E-06-3.91876E-19-2.39966E-19
 -1       855 9.42365E-05-2.70446E-05-2.87965E-05 1.88886E-06-3.99741E-19 8.94659E-19
 -1       856 9.40008E-05-2.68048E-05-2.87983E-05 2.39986E-06 5.85185E-19 4.42111E-19
 -1       857 9.37806E-05-2.66311E-05-2.87783E-05 3.00893E-06 1.71570E-19-4.55982E-19
 -1       858 9.36240E-05-2.65912E-05-2.87284E-05 3.71887E-06 4.64396E-19-4.81817E-19
 -1       859 9.36093E-05-2.67828E-05-2.86399E-05 4.52586E-06-4.07575E-19-1.27920E-18
 -1       860 9.38566E-05-2.73408E-05-2.85068E-05 5.41402E-06-7.24836E-19-1.69003E-18
 -1       861 9.45422E-05-2.84401E-05-2.83295E-05 6.34438E-06-1.11645E-18-2.56851E-18
 -1       862 9.59103E-05-3.02910E-05-2.81228E-05 7.23253E-06 1.15741E-18-2.97259E-18
 -1       863 9.82772E-05-3.31113E-05-2.79288E-05 7.90487E-06 4.64109E-19-2.64673E-18
 -1       864 1.02003E-04-3.70503E-05-2.78381E-05 8.02279E-06 7.89011E-19-1.41842E-18
 -1       865 1.07372E-04-4.19933E-05-2.80170E-05 6.95661E-06-7.06612E-19 3.89294E-19
 -1       866 1.14267E-04-4.71841E-05-2.87417E-05 3.72375E-06-1.26715E-18 1.50707E-18
 -1       867 1.21232E-04-5.01398E-05-3.05251E-05-2.38066E-06-1.15439E-18 2.60769E-18
 -1       868 9.57740E-05-2.55724E-05-3.00855E-05-1.16315E-06-6.76078E-19-1.58952E-18
 -1       869 9.56296E-05-2.90082E-05-2.85520E-05-6.52796E-07 9.45205E-20-7.11517E-19
 -1       870 9.57211E-05-2.90632E-05-2.85677E-05-7.54145E-07 3.63702E-19-7.77149E-19
 -1       871 9.54776E-05-2.88523E-05-2.85537E-05-4.81390E-07-3.98962E-19-6.32509E-19
 -1       872 9.54138E-05-2.87599E-05-2.85659E-05-4.26717E-07-1.70069E-19-1.50004E-19
 -1       873 9.53540E-05-2.86584E-05-2.85838E-05-4.00255E-07 8.10248E-19-7.03044E-20
 -1       874 9.52941E-05-2.85451E-05-2.86067E-05-4.06927E-07-2.75201E-19 5.79247E-20
 -1       875 9.52288E-05-2.84155E-05-2.86342E-05-4.51983E-07-5.91817E-19-1.15895E-19
 -1       876 9.51516E-05-2.82635E-05-2.86663E-05-5.41444E-07 3.53767E-19-3.67698E-19
 -1       877 9.50543E-05-2.80811E-05-2.87028E-05-6.82347E-07 1.33278E-18 1.27973E-19
 -1       878 9.49268E-05-2.78588E-05-2.87434E-05-8.82816E-07 7.12896E-19 1.13220E-18
 -1       879 9.47556E-05-2.75855E-05-2.87872E-05-1.15191E-06 1.72761E-19 1.70717E-18
 -1       880 9.45236E-05-2.72485E-05-2.88322E-05-1.49919E-06 2.17291E-20 2.25622E-19
 -1       881 9.42083E-05-2.68338E-05-2.88747E-05-1.93403E-06-3.27520E-20 4.88120E-19
 -1       882 9.37806E-05-2.63267E-05-2.89088E-05-2.46459E-06-6.17519E-19 3.58904E-19
 -1       883 9.32037E-05-2.57134E-05-2.89243E-05-3.09676E-06-7.97814E-19 9.08055E-19
 -1       884 9.24316E-05-2.49846E-05-2.89058E-05-3.83339E-06-9.29768E-20 6.81283E-19
 -1       885 9.14102E-05-2.41414E-05-2.88294E-05-4.67512E-06 4.38629E-20 1.01347E-18
 -1       886 9.00801E-05-2.32068E-05-2.86599E-05-5.62495E-06-1.11460E-18 9.28495E-19
 -1       887 8.83849E-05-2.22434E-05-2.83463E-05-6.70084E-06-6.81473E-19 5.71950E-19
 -1       888 8.62875E-05-2.13826E-05-2.78166E-05-7.96361E-06 2.32957E-19 7.29262E-19
 -1       889 8.37970E-05-2.08686E-05-2.69708E-05-9.57770E-06-7.44110E-19 3.08506E-19
 -1       890 8.10675E-05-2.11660E-05-2.56662E-05-1.18892E-05-7.33071E-19 9.20238E-21
 -1       891 7.74074E-05-2.18776E-05-2.37700E-05-1.44051E-05-8.69966E-19-1.01695E-18
 -1       892 1.26536E-04-5.09799E-05-3.24007E-05-7.31081E-06-7.71697E-19 1.62053E-18
 -1       893 9.60518E-05-2.69542E-05-2.96134E-05 3.91979E-07 6.90963E-19-7.40673E-19
 -1       894 9.55488E-05-2.89359E-05-2.85484E-05-5.58940E-07 2.08770E-19-8.86212E-19
 -1       895 9.60383E-05-2.89845E-05-2.87374E-05-9.44997E-07 1.95317E-19-7.65311E-19
 -1       896 9.61910E-05-2.69929E-05-2.96564E-05-2.86534E-07-4.66525E-19-1.13533E-18
 -1       897 8.12100E-05-3.30932E-05-2.04986E-05 2.74801E-05 1.22183E-18-9.25688E-19
 -1       898 1.22579E-04-5.58739E-05-2.86130E-05 9.57578E-06-3.02699E-19-1.68707E-18
 -1       899 9.52381E-05-2.42176E-05-3.04392E-05 2.26435E-06 1.05976E-18-9.60614E-19
 -1       900 7.26940E-05-2.50662E-05-2.03134E-05 2.17572E-05 3.68132E-19-1.87853E-19
 -1       901 9.52486E-05-2.41105E-05-3.04882E-05-2.10171E-06-7.22582E-19-1.37237E-18
 -1       902 9.61873E-05-2.78630E-05-2.92819E-05-2.81918E-07 5.50529E-19-9.62858E-19
 -1       903 9.61336E-05-2.87911E-05-2.88611E-05-8.80586E-07 2.43379E-20-1.29455E-18
 -1       904 9.58223E-05-2.90900E-05-2.85996E-05-8.50160E-07 4.91155E-19-2.12023E-19
 -1       905 9.46659E-05-2.25743E-05-3.08973E-05-1.21077E-06 9.68627E-20-1.71396E-18
 -1       906 9.46732E-05-2.26017E-05-3.08885E-05 1.21436E-06 6.58862E-19-1.62214E-18
 -1       907 9.56858E-05-2.55504E-05-3.00567E-05 1.42478E-06 8.25270E-19-8.80867E-19
 -1       908 5.78579E-05-1.55463E-05-1.80340E-05 8.78653E-06 7.65499E-19 2.16081E-18
 -1       909 9.45335E-05-2.22668E-05-3.09714E-05 4.29499E-07 4.52010E-19-1.82411E-18
 -1       910 9.59305E-05-2.90722E-05-2.86535E-05-9.22596E-07 4.07152E-19-2.33945E-19
 -1       911 9.52979E-05-4.08225E-05-2.33134E-05 2.44732E-05 8.29440E-19-5.94125E-19
 -1       912 1.12854E-04-5.09448E-05-2.64728E-05 1.63363E-05 3.56945E-20-1.63964E-18
 -1       913 6.52849E-05-1.78819E-05-2.02089E-05-1.10312E-05-7.13930E-19-2.51056E-19
 -1       914 9.45299E-05-2.22605E-05-3.09725E-05-4.04502E-07 2.25981E-19-1.85373E-18
 -1       915 9.66620E-05-2.81476E-05-2.93633E-05 3.14824E-07-4.30163E-19-8.85923E-19
 -1       916 9.66803E-05-2.87199E-05-2.91259E-05 5.28851E-07 4.23802E-20-7.91827E-19
 -1       917 9.66004E-05-2.90552E-05-2.89480E-05 6.28044E-07-1.46782E-20-8.35767E-19
 -1       918 9.64664E-05-2.92246E-05-2.88179E-05 6.48568E-07 4.85526E-20-7.68502E-19
 -1       919 9.63082E-05-2.92814E-05-2.87258E-05 6.20175E-07-9.32717E-20-4.05192E-19
 -1       920 9.61451E-05-2.92646E-05-2.86631E-05 5.64773E-07-6.56475E-19-4.71149E-19
 -1       921 9.59878E-05-2.92006E-05-2.86231E-05 4.98436E-07-5.96052E-19-6.29390E-19
 -1       922 9.58416E-05-2.91072E-05-2.86004E-05 4.32643E-07 1.02039E-19-6.55998E-19
 -1       923 9.57075E-05-2.89950E-05-2.85910E-05 3.75494E-07-1.12010E-19-7.80694E-19
 -1       924 9.55837E-05-2.88694E-05-2.85918E-05 3.32848E-07-4.69552E-19-1.24499E-19
 -1       925 9.54661E-05-2.87319E-05-2.86003E-05 3.09194E-07-9.25863E-19-3.73653E-19
 -1       926 9.53486E-05-2.85807E-05-2.86148E-05 3.08600E-07 3.22832E-19-4.33443E-19
 -1       927 9.52243E-05-2.84118E-05-2.86339E-05 3.35290E-07 3.16747E-19 4.22968E-19
 -1       928 9.50848E-05-2.82204E-05-2.86562E-05 3.93992E-07-5.98352E-20 7.57084E-19
 -1       929 9.49211E-05-2.80006E-05-2.86802E-05 4.90349E-07-1.43020E-20 6.91509E-19
 -1       930 9.47240E-05-2.77477E-05-2.87042E-05 6.31266E-07 3.10787E-19 8.27142E-21
 -1       931 9.44847E-05-2.74588E-05-2.87254E-05 8.25191E-07-2.63165E-19 1.35404E-19
 -1       932 9.41957E-05-2.71347E-05-2.87405E-05 1.08240E-06-1.43325E-19 1.13001E-18
 -1       933 9.38533E-05-2.67830E-05-2.87445E-05 1.41528E-06 5.50159E-19 1.54550E-18
 -1       934 9.34598E-05-2.64213E-05-2.87309E-05 1.83879E-06-4.13193E-19 1.49790E-18
 -1       935 9.30280E-05-2.60818E-05-2.86913E-05 2.37088E-06-2.20489E-19-1.40100E-20
 -1       936 9.25868E-05-2.58169E-05-2.86158E-05 3.03316E-06 2.39539E-19-2.85304E-19
 -1       937 9.21892E-05-2.57067E-05-2.84926E-05 3.85136E-06 1.56848E-19-6.54069E-19
 -1       938 9.19238E-05-2.58667E-05-2.83103E-05 4.85517E-06-8.94521E-19-1.46528E-18
 -1       939 9.19297E-05-2.64573E-05-2.80599E-05 6.07535E-06-1.33914E-18-3.09549E-19
 -1       940 9.24188E-05-2.76933E-05-2.77399E-05 7.53391E-06-7.82087E-19-1.25096E-19
 -1       941 9.37047E-05-2.98507E-05-2.73668E-05 9.21752E-06 1.20551E-18-6.46234E-19
 -1       942 9.62400E-05-3.32588E-05-2.69918E-05 1.10112E-05 8.69260E-19-1.62778E-18
 -1       943 1.00596E-04-3.82139E-05-2.67363E-05 1.25905E-05 8.83639E-19-1.65012E-18
 -1       944 1.07449E-04-4.48461E-05-2.67671E-05 1.31462E-05-6.86637E-19-1.97911E-18
 -1       945 9.54645E-05-2.87488E-05-2.85924E-05-3.53331E-07 4.04190E-19-1.45419E-18
 -1       946 9.55665E-05-2.88735E-05-2.85827E-05-3.85284E-07 1.51778E-19-6.38772E-19
 -1       947 9.52581E-05-2.84558E-05-2.86296E-05-3.69316E-07-3.23959E-20-2.72342E-19
 -1       948 9.51379E-05-2.82763E-05-2.86550E-05-4.25849E-07-2.58558E-21-1.00492E-18
 -1       949 9.49929E-05-2.80642E-05-2.86837E-05-5.21010E-07 2.67586E-19-4.18683E-19
 -1       950 9.48100E-05-2.78092E-05-2.87147E-05-6.59952E-07 9.34028E-20 1.12279E-19
 -1       951 9.45733E-05-2.74995E-05-2.87460E-05-8.47912E-07-2.17551E-20 1.17419E-19
 -1       952 9.42630E-05-2.71218E-05-2.87748E-05-1.08963E-06 9.05465E-19 3.49971E-19
 -1       953 9.38544E-05-2.66619E-05-2.87968E-05-1.38841E-06 4.89169E-19-4.34925E-19
 -1       954 9.33165E-05-2.61050E-05-2.88050E-05-1.74487E-06-4.32628E-19-7.89053E-20
 -1       955 9.26112E-05-2.54373E-05-2.87888E-05-2.15548E-06-9.80401E-19 1.70987E-19
 -1       956 9.16906E-05-2.46474E-05-2.87329E-05-2.61116E-06-1.22574E-18 1.42547E-18
 -1       957 9.04963E-05-2.37297E-05-2.86143E-05-3.09702E-06-2.86876E-19 2.28036E-18
 -1       958 8.89559E-05-2.26894E-05-2.84001E-05-3.59468E-06-6.64411E-19 2.72412E-18
 -1       959 8.69810E-05-2.15488E-05-2.80426E-05-4.09055E-06-3.58547E-19 2.34935E-18
 -1       960 8.44600E-05-2.03564E-05-2.74733E-05-4.59406E-06-1.53203E-19 2.20295E-18
 -1       961 8.12411E-05-1.91937E-05-2.65925E-05-5.18013E-06 2.25474E-19 1.92936E-18
 -1       962 7.70839E-05-1.81738E-05-2.52400E-05-6.04663E-06 2.11491E-20 1.41157E-18
 -1       963 9.60472E-05-2.58851E-05-3.00716E-05-6.33853E-07-2.73126E-19-6.10364E-19
 -1       964 9.59384E-05-2.57715E-05-3.00723E-05 8.41260E-07 5.88143E-19-1.19586E-18
 -1       965 9.59257E-05-2.91688E-05-2.86101E-05-5.83647E-07 4.60443E-19-2.64743E-19
 -1       966 9.49285E-05-2.32574E-05-3.07170E-05 1.86307E-06 7.49108E-19-1.59433E-18
 -1       967 9.53641E-05-2.86111E-05-2.86084E-05-3.46622E-07-3.71192E-19-1.89691E-19
 -1       968 9.61952E-05-2.84414E-05-2.90373E-05-6.80464E-07 2.88553E-19-1.42241E-18
 -1       969 9.64827E-05-2.72465E-05-2.96729E-05-5.84809E-08-3.17620E-19-6.50568E-19
 -1       970 9.55087E-05-2.46171E-05-3.03794E-05 1.33638E-06 7.49693E-19-1.32612E-18
 -1       971 8.48984E-05-3.24491E-05-2.24115E-05 2.31270E-05 5.46700E-19-1.27539E-18
 -1       972 6.80761E-05-1.92866E-05-2.08451E-05 1.40346E-05-7.43854E-19-4.52451E-19
 -1       973 9.57428E-05-2.50845E-05-3.02810E-05-9.56129E-07-3.63227E-19-7.81590E-19
 -1       974 9.64826E-05-2.89800E-05-2.89296E-05-7.19237E-07 5.56912E-20-1.28590E-18
 -1       975 9.60684E-05-2.92218E-05-2.86485E-05-6.60352E-07 5.29946E-19-3.51251E-19
 -1       976 9.56752E-05-2.89867E-05-2.85808E-05-4.38106E-07-8.77159E-20 2.08674E-19
 -1       977 7.18199E-05-1.71844E-05-2.34029E-05-6.48161E-06 2.22273E-19 1.07600E-18
 -1       978 9.63603E-05-2.91594E-05-2.88004E-05-7.51109E-07-2.76126E-20-1.24738E-18
 -1       979 9.63593E-05-2.71428E-05-2.96643E-05 1.34816E-07 6.59160E-19-1.16015E-18
 -1       980 9.57944E-05-2.90869E-05-2.85889E-05-5.06509E-07 2.00620E-19-3.79919E-20
 -1       981 6.13747E-05-1.51910E-05-1.97150E-05 2.60684E-06 8.59585E-19 2.71550E-18
 -1       982 9.56021E-05-2.44821E-05-3.04788E-05 4.93635E-07 3.29794E-19-1.60183E-18
 -1       983 9.55957E-05-2.44632E-05-3.04849E-05-4.94520E-07 2.79159E-20-1.95840E-18
 -1       984 9.55332E-05-2.44622E-05-3.04573E-05 9.23673E-07 4.45292E-19-1.62485E-18
 -1       985 9.68745E-05-2.84143E-05-2.93401E-05 2.56783E-07-2.55336E-19-1.33470E-18
 -1       986 9.68658E-05-2.89260E-05-2.91172E-05 3.64435E-07 7.10152E-20-1.25979E-18
 -1       987 9.67580E-05-2.92112E-05-2.89487E-05 4.07568E-07-1.04536E-19-9.75898E-19
 -1       988 9.65981E-05-2.93403E-05-2.88247E-05 4.07806E-07 3.09146E-19-8.53492E-19
 -1       989 9.64158E-05-2.93644E-05-2.87363E-05 3.83421E-07-2.03081E-19-8.19835E-19
 -1       990 9.62303E-05-2.93199E-05-2.86759E-05 3.44935E-07-6.27940E-19-3.95477E-19
 -1       991 9.60512E-05-2.92310E-05-2.86372E-05 3.03022E-07-4.11885E-19-5.93562E-19
 -1       992 9.58842E-05-2.91148E-05-2.86154E-05 2.63508E-07 9.18039E-20-7.72860E-19
 -1       993 9.57293E-05-2.89805E-05-2.86066E-05 2.31608E-07-7.54103E-20-7.11976E-19
 -1       994 9.55831E-05-2.88316E-05-2.86078E-05 2.10472E-07-7.61514E-19-6.06325E-19
 -1       995 9.54397E-05-2.86680E-05-2.86165E-05 2.02923E-07-1.74818E-19 1.12249E-20
 -1       996 9.52910E-05-2.84859E-05-2.86308E-05 2.12288E-07 1.00652E-18-1.47641E-21
 -1       997 9.51279E-05-2.82802E-05-2.86490E-05 2.41880E-07 2.39274E-19 3.65219E-20
 -1       998 9.49394E-05-2.80442E-05-2.86694E-05 2.95782E-07 1.68926E-19 5.08107E-21
 -1       999 9.47135E-05-2.77708E-05-2.86898E-05 3.79338E-07 2.61774E-20 6.79753E-19
 -1      1000 9.44376E-05-2.74537E-05-2.87075E-05 4.99587E-07-4.69960E-19-2.08735E-19
 -1      1001 9.40993E-05-2.70891E-05-2.87188E-05 6.65878E-07 3.02823E-19-8.80475E-19
 -1      1002 9.36872E-05-2.66774E-05-2.87186E-05 8.90673E-07 2.67236E-19-4.96437E-19
 -1      1003 9.31930E-05-2.62264E-05-2.87002E-05 1.19065E-06-1.43951E-19-3.26120E-20
 -1      1004 9.26146E-05-2.57544E-05-2.86546E-05 1.58823E-06-1.10412E-18 2.68044E-19
 -1      1005 9.19590E-05-2.52952E-05-2.85705E-05 2.11358E-06-4.45535E-19 1.07010E-18
 -1      1006 9.12487E-05-2.49041E-05-2.84337E-05 2.80733E-06 6.36910E-20-3.38772E-19
 -1      1007 9.05285E-05-2.46641E-05-2.82280E-05 3.72391E-06-5.58819E-19-9.93592E-19
 -1      1008 8.98768E-05-2.46957E-05-2.79353E-05 4.93534E-06-9.14275E-19 4.25295E-19
 -1      1009 8.94218E-05-2.51685E-05-2.75381E-05 6.53405E-06-7.58730E-19 7.41186E-19
 -1      1010 8.93708E-05-2.63190E-05-2.70240E-05 8.63099E-06-7.73307E-19 6.95654E-19
 -1      1011 9.00545E-05-2.84732E-05-2.63943E-05 1.13376E-05 2.12455E-19-1.15396E-18
 -1      1012 9.20115E-05-3.20986E-05-2.56755E-05 1.47271E-05 8.00287E-19-2.16612E-18
 -1      1013 9.54583E-05-2.86983E-05-2.86114E-05-2.57342E-07 8.49807E-20 4.51775E-19
 -1      1014 9.65554E-05-2.86365E-05-2.91081E-05-5.91657E-07 3.09697E-19-8.61843E-19
 -1      1015 9.65349E-05-2.80562E-05-2.93481E-05-3.24205E-07 4.46252E-19-8.86117E-19
 -1      1016 9.50004E-05-2.81049E-05-2.86695E-05-3.45084E-07 3.90336E-20 1.96356E-19
 -1      1017 9.51738E-05-2.83320E-05-2.86465E-05-2.91807E-07-1.25977E-19-6.10686E-20
 -1      1018 9.45211E-05-2.75128E-05-2.87179E-05-5.36103E-07 3.63263E-19-3.17027E-19
 -1      1019 9.41784E-05-2.71236E-05-2.87379E-05-6.76727E-07-1.55983E-19-2.48744E-19
 -1      1020 9.37363E-05-2.66551E-05-2.87492E-05-8.46348E-07-2.84282E-19 1.54309E-18
 -1      1021 9.31661E-05-2.60945E-05-2.87452E-05-1.03994E-06-5.49746E-19 2.12726E-18
 -1      1022 9.24334E-05-2.54305E-05-2.87157E-05-1.24699E-06-5.18214E-19 1.20083E-18
 -1      1023 9.14966E-05-2.46550E-05-2.86467E-05-1.44932E-06-1.23809E-18 1.07923E-18
 -1      1024 9.03054E-05-2.37647E-05-2.85178E-05-1.61915E-06-7.14524E-19 6.75539E-19
 -1      1025 8.87971E-05-2.27636E-05-2.83005E-05-1.71786E-06-9.60821E-19 5.76035E-19
 -1      1026 8.68904E-05-2.16648E-05-2.79545E-05-1.69726E-06 1.24873E-20 9.86644E-20
 -1      1027 8.44733E-05-2.04906E-05-2.74221E-05-1.50573E-06-3.50674E-19 7.92523E-19
 -1      1028 8.13850E-05-1.92754E-05-2.66192E-05-1.10132E-06 1.37999E-19 8.81396E-19
 -1      1029 7.73357E-05-1.80276E-05-2.54121E-05-4.33479E-07 1.52629E-19 6.75902E-20
 -1      1030 9.55596E-05-2.43426E-05-3.05214E-05 6.61957E-09 1.69562E-19-1.45642E-18
 -1      1031 9.67375E-05-2.76032E-05-2.96297E-05 5.36774E-08-4.25663E-19-1.34932E-18
 -1      1032 9.60306E-05-2.92222E-05-2.86321E-05-3.93259E-07 1.20252E-19 1.28999E-20
 -1      1033 9.62165E-05-2.92275E-05-2.87096E-05-7.22093E-07 3.94081E-19-8.65955E-19
 -1      1034 9.47885E-05-2.78357E-05-2.86941E-05-4.25838E-07 1.81988E-19-5.68307E-19
 -1      1035 9.55904E-05-2.88517E-05-2.86023E-05-2.70459E-07 5.95599E-19 4.74809E-19
 -1      1036 9.53225E-05-2.85270E-05-2.86266E-05-2.63457E-07-3.81080E-19-4.62354E-19
 -1      1037 7.74508E-05-2.47062E-05-2.25635E-05 1.73409E-05-4.62724E-19 1.19598E-18
 -1      1038 9.62002E-05-2.93002E-05-2.86713E-05-4.46851E-07 1.53379E-19-3.06520E-19
 -1      1039 9.62809E-05-2.60108E-05-3.01149E-05-1.15071E-07-1.20105E-20-1.52937E-18
 -1      1040 9.61613E-05-3.78282E-05-2.49842E-05 1.86996E-05-2.23809E-19-1.82582E-18
 -1      1041 9.57265E-05-2.89907E-05-2.86011E-05-3.00117E-07 1.39105E-19-2.47658E-19
 -1      1042 7.25363E-05-1.68290E-05-2.38857E-05 1.07078E-06 1.21332E-19 5.71281E-19
 -1      1043 9.62682E-05-2.60016E-05-3.01150E-05 1.14106E-07 1.46818E-19-1.55304E-18
 -1      1044 9.62699E-05-2.62759E-05-2.99981E-05 3.48945E-07 3.48737E-19-1.19406E-18
 -1      1045 9.66970E-05-2.91484E-05-2.89494E-05-5.14315E-07-3.61005E-20-8.62021E-19
 -1      1046 9.63389E-05-2.63489E-05-2.99938E-05-2.53753E-07-3.32495E-19-1.58098E-18
 -1      1047 9.58725E-05-2.91158E-05-2.86100E-05-3.42597E-07 5.66927E-20-4.99550E-19
 -1      1048 9.68002E-05-2.88480E-05-2.91227E-05-4.49659E-07 5.10183E-19-1.13319E-18
 -1      1049 9.66369E-05-2.75052E-05-2.96268E-05-5.56986E-08 2.56687E-19-9.38531E-19
 -1      1050 9.65487E-05-2.92935E-05-2.88239E-05-5.22979E-07-1.32513E-19-8.09537E-19
 -1      1051 9.69399E-05-2.91063E-05-2.90713E-05 1.51147E-07 3.51276E-19-1.02003E-18
 -1      1052 9.67951E-05-2.93213E-05-2.89174E-05 1.59951E-07-1.16654E-19-8.84541E-19
 -1      1053 9.66184E-05-2.94078E-05-2.88045E-05 1.53555E-07-1.27668E-19-8.41914E-19
 -1      1054 9.64227E-05-2.93957E-05-2.87258E-05 1.40242E-07-5.47484E-19-1.03089E-18
 -1      1055 9.62254E-05-2.93236E-05-2.86721E-05 1.26304E-07-3.16953E-19-8.89557E-19
 -1      1056 9.60337E-05-2.92118E-05-2.86381E-05 1.11393E-07-3.12396E-20-5.41905E-19
 -1      1057 9.58586E-05-2.90789E-05-2.86199E-05 9.71183E-08 1.43531E-19-9.39843E-19
 -1      1058 9.56958E-05-2.89295E-05-2.86142E-05 8.51457E-08-2.19659E-19-9.46528E-19
 -1      1059 9.55374E-05-2.87628E-05-2.86177E-05 7.98877E-08-8.46239E-20-8.58672E-20
 -1      1060 9.53760E-05-2.85776E-05-2.86279E-05 8.14542E-08 6.31935E-19-2.16311E-19
 -1      1061 9.52032E-05-2.83696E-05-2.86429E-05 9.09307E-08 6.20398E-19-4.11194E-19
 -1      1062 9.50073E-05-2.81316E-05-2.86610E-05 1.10799E-07 4.42779E-19-5.61866E-20
 -1      1063 9.47750E-05-2.78553E-05-2.86798E-05 1.44350E-07-2.06494E-19-1.61774E-19
 -1      1064 9.44914E-05-2.75320E-05-2.86968E-05 1.96314E-07-9.12543E-19-4.27074E-19
 -1      1065 9.41405E-05-2.71540E-05-2.87084E-05 2.73593E-07-7.35237E-19-4.56556E-19
 -1      1066 9.37055E-05-2.67158E-05-2.87097E-05 3.86270E-07-3.70660E-19-2.10009E-18
 -1      1067 9.31699E-05-2.62162E-05-2.86942E-05 5.48997E-07-1.50365E-19-2.83958E-18
 -1      1068 9.25187E-05-2.56609E-05-2.86530E-05 7.82913E-07-1.23519E-19-2.66702E-18
 -1      1069 9.17405E-05-2.50660E-05-2.85743E-05 1.11824E-06-2.63815E-19-1.99341E-18
 -1      1070 9.08300E-05-2.44615E-05-2.84428E-05 1.59774E-06-5.52921E-19-6.63444E-19
 -1      1071 8.97913E-05-2.38970E-05-2.82393E-05 2.28134E-06-3.37855E-19-4.39482E-19
 -1      1072 8.86425E-05-2.34467E-05-2.79395E-05 3.25221E-06-5.86693E-19-2.85105E-19
 -1      1073 8.74220E-05-2.32176E-05-2.75142E-05 4.62498E-06-7.80148E-19 3.24452E-19
 -1      1074 8.62029E-05-2.33633E-05-2.69295E-05 6.55563E-06-7.98422E-19 1.15946E-18
 -1      1075 8.51150E-05-2.41064E-05-2.61445E-05 9.24693E-06-1.26166E-18 1.30056E-18
 -1      1076 8.43383E-05-2.57281E-05-2.51087E-05 1.29090E-05-8.81152E-19 8.99885E-19
 -1      1077 9.45657E-05-2.76015E-05-2.86990E-05-2.46358E-07-4.45226E-19-5.77110E-19
 -1      1078 9.50577E-05-2.81876E-05-2.86586E-05-1.71422E-07 1.51836E-19-4.38129E-19
 -1      1079 9.37915E-05-2.67726E-05-2.87225E-05-3.56375E-07-1.27391E-18 1.10378E-18
 -1      1080 9.42243E-05-2.72230E-05-2.87149E-05-2.98937E-07-6.80182E-19-2.61079E-19
 -1      1081 9.25499E-05-2.56193E-05-2.86848E-05-4.45857E-07-1.20605E-19 1.28169E-18
 -1      1082 9.16817E-05-2.49064E-05-2.86183E-05-4.40616E-07-1.88630E-19 8.12566E-19
 -1      1083 9.06023E-05-2.41058E-05-2.84991E-05-3.60114E-07-3.28437E-19-2.39325E-19
 -1      1084 8.92705E-05-2.32304E-05-2.83038E-05-1.55026E-07-4.97604E-19-6.98655E-19
 -1      1085 8.76363E-05-2.23042E-05-2.80008E-05 2.42998E-07-4.16584E-19-4.43024E-19
 -1      1086 8.56334E-05-2.13625E-05-2.75467E-05 9.26321E-07-3.82609E-19 4.98621E-19
 -1      1087 8.31610E-05-2.04463E-05-2.68802E-05 2.01899E-06-2.75391E-19-4.01907E-19
 -1      1088 8.00328E-05-1.95892E-05-2.59068E-05 3.67841E-06 8.86481E-20-8.58892E-19
 -1      1089 7.38315E-05-1.98379E-05-2.31001E-05 1.03959E-05-1.52585E-18 9.71984E-19
 -1      1090 8.58099E-05-2.91276E-05-2.42782E-05 1.69625E-05 6.23651E-19-7.92027E-19
 -1      1091 9.67079E-05-2.71989E-05-2.97899E-05 2.11807E-09 8.57859E-20-1.24234E-18
 -1      1092 9.52432E-05-2.84171E-05-2.86398E-05-1.51531E-07 1.08540E-19 3.21775E-19
 -1      1093 9.54077E-05-2.86170E-05-2.86246E-05-1.43045E-07 1.75520E-19 7.82484E-19
 -1      1094 9.32427E-05-2.62405E-05-2.87154E-05-4.10159E-07-8.77121E-19 1.22268E-18
 -1      1095 9.55622E-05-2.87952E-05-2.86145E-05-1.45148E-07 3.22836E-19 1.88739E-19
 -1      1096 9.67241E-05-2.73347E-05-2.97365E-05-3.79215E-09 3.15409E-19-1.36451E-18
 -1      1097 9.69950E-05-2.86925E-05-2.92725E-05 1.22119E-07-6.58618E-21-7.66206E-19
 -1      1098 9.69062E-05-2.79935E-05-2.95348E-05 5.29017E-08-1.37822E-19-1.01029E-18
 -1      1099 9.48372E-05-2.79193E-05-2.86791E-05-2.03184E-07 3.17908E-19-8.09080E-19
 -1      1100 9.62380E-05-2.93290E-05-2.86753E-05-2.28445E-07 2.61835E-19-7.36900E-19
 -1      1101 7.91744E-05-2.29085E-05-2.41355E-05 1.24122E-05-1.08073E-18 2.48341E-18
 -1      1102 9.57127E-05-2.89524E-05-2.86116E-05-1.56594E-07 1.96105E-19-3.39065E-19
 -1      1103 9.67981E-05-2.83331E-05-2.93435E-05-2.97815E-07 4.80257E-19-9.88844E-19
 -1      1104 7.69448E-05-1.92531E-05-2.47280E-05 6.35256E-06 1.65244E-19-1.91402E-19
 -1      1105 9.60523E-05-2.92281E-05-2.86392E-05-2.00343E-07 4.89166E-20-3.46693E-19
 -1      1106 9.63806E-05-2.93366E-05-2.87333E-05-4.95149E-07-8.61272E-20-5.40502E-19
 -1      1107 9.68028E-05-2.92884E-05-2.89345E-05-2.76629E-07 4.82744E-21-6.60050E-19
 -1      1108 9.69252E-05-2.90406E-05-2.90932E-05-2.49775E-07 8.19134E-20-9.44040E-19
 -1      1109 9.64315E-05-2.93900E-05-2.87320E-05-2.52706E-07-3.10216E-20-7.73914E-19
 -1      1110 9.69951E-05-2.83920E-05-2.94012E-05-5.54986E-08 2.41099E-19-1.10855E-18
 -1      1111 9.67329E-05-2.93893E-05-2.88614E-05-1.00028E-07-1.49772E-19-8.25569E-19
 -1      1112 9.57817E-05-2.90095E-05-2.86165E-05-5.70945E-08 2.65756E-20-3.53070E-19
 -1      1113 9.58736E-05-2.90970E-05-2.86186E-05-1.73961E-07-2.79090E-19-2.33923E-19
 -1      1114 9.59547E-05-2.91534E-05-2.86287E-05-6.64144E-08-3.84718E-19-1.07518E-19
 -1      1115 1.16860E-04 2.57585E-10-4.18571E-05-4.14640E-05-2.84603E-19 8.02140E-18
 -1      1116 8.86541E-05 7.19316E-11-3.72528E-05-2.41642E-05-1.41455E-19 7.58412E-19
 -1      1117 8.40790E-05 4.14404E-11-3.57680E-05-1.78746E-05-9.52912E-20-2.28608E-18
 -1      1118 8.23355E-05 3.20353E-11-3.50731E-05-1.38339E-05-6.25746E-20-3.67402E-18
 -1      1119 8.15328E-05 2.73340E-11-3.47381E-05-1.05291E-05-3.86723E-20-4.32584E-18
 -1      1120 8.11272E-05 2.45991E-11-3.45723E-05-7.63693E-06-2.50470E-20-4.56827E-18
 -1      1121 8.09171E-05 2.29424E-11-3.44886E-05-4.97719E-06-1.09419E-20-4.61166E-18
 -1      1122 8.08146E-05 2.20470E-11-3.44491E-05-2.43084E-06-3.60485E-21-4.49555E-18
 -1      1123 8.07854E-05 2.17763E-11-3.44380E-05 5.24632E-08 1.32655E-20-4.40466E-18
 -1      1124 8.08190E-05 2.20914E-11-3.44506E-05 2.53831E-06 2.26532E-20-4.22762E-18
 -1      1125 8.09262E-05 2.30428E-11-3.44916E-05 5.09303E-06 3.62570E-20-4.02515E-18
 -1      1126 8.11430E-05 2.47612E-11-3.45767E-05 7.76915E-06 5.02595E-20-3.61377E-18
 -1      1127 8.15531E-05 2.76372E-11-3.47446E-05 1.06893E-05 6.75641E-20-2.95413E-18
 -1      1128 8.23593E-05 3.25002E-11-3.50832E-05 1.40385E-05 9.00502E-20-1.86450E-18
 -1      1129 8.40765E-05 4.19297E-11-3.57878E-05 1.81255E-05 1.16149E-19 8.07725E-20
 -1      1130 8.83525E-05 6.67543E-11-3.73229E-05 2.40076E-05 1.27690E-19 3.66400E-18
 -1      1131 1.06624E-04 1.63938E-10-4.06358E-05 3.61910E-05 2.41404E-19 1.08323E-17
 -1      1132 1.30227E-04-2.57584E-05-4.02757E-05-2.61051E-05-1.09648E-18 1.25780E-17
 -1      1133 9.74658E-05-2.88653E-05-3.15803E-05-6.80232E-07-3.30422E-19 1.01549E-17
 -1      1134 9.01702E-05-2.70298E-05-2.78962E-05 3.87172E-07-1.56913E-19 6.71804E-18
 -1      1135 8.82615E-05-2.65761E-05-2.66473E-05 2.50964E-07-1.04791E-19 4.18172E-18
 -1      1136 8.79053E-05-2.64501E-05-2.63916E-05 1.65969E-07-6.43431E-20 2.61323E-18
 -1      1137 8.82665E-05-2.65273E-05-2.64773E-05 1.18145E-07-3.03873E-20 1.61392E-18
 -1      1138 8.89551E-05-2.67124E-05-2.66807E-05 8.76032E-08 3.97419E-20 8.17426E-19
 -1      1139 8.97720E-05-2.69449E-05-2.69239E-05 6.64192E-08-8.90026E-21 2.86231E-19
 -1      1140 9.06068E-05-2.71881E-05-2.71727E-05 5.07499E-08-1.43004E-20-1.90225E-19
 -1      1141 9.13973E-05-2.74210E-05-2.74090E-05 3.86915E-08-5.74598E-20-1.07399E-18
 -1      1142 9.21099E-05-2.76323E-05-2.76227E-05 2.92258E-08 3.95244E-20-2.12333E-18
 -1      1143 9.27297E-05-2.78169E-05-2.78092E-05 2.17412E-08 4.73303E-20-1.68544E-18
 -1      1144 9.32533E-05-2.79733E-05-2.79672E-05 1.58230E-08 3.52127E-20-2.54325E-18
 -1      1145 9.36848E-05-2.81026E-05-2.80977E-05 1.11615E-08-3.23731E-20-2.35682E-18
 -1      1146 9.40327E-05-2.82071E-05-2.82032E-05 7.51142E-09-9.86760E-20-2.42027E-18
 -1      1147 9.43081E-05-2.82901E-05-2.82871E-05 4.67394E-09-1.29484E-19-2.95939E-18
 -1      1148 9.45234E-05-2.83552E-05-2.83528E-05 2.48895E-09-1.05435E-19-3.18281E-18
 -1      1149 9.46917E-05-2.84062E-05-2.84045E-05 8.32478E-10-8.14400E-20-3.26655E-18
 -1      1150 9.48265E-05-2.84473E-05-2.84461E-05-3.83495E-10-6.62537E-20-4.30733E-18
 -1      1151 9.49420E-05-2.84827E-05-2.84820E-05-1.20960E-09-7.56550E-20-5.09768E-18
 -1      1152 9.50534E-05-2.85170E-05-2.85168E-05-1.65620E-09-8.02962E-20-5.41703E-18
 -1      1153 9.51772E-05-2.85551E-05-2.85555E-05-1.68946E-09-8.32759E-20-4.84307E-18
 -1      1154 9.53321E-05-2.86026E-05-2.86037E-05-1.22670E-09-6.83604E-20-4.77956E-18
 -1      1155 9.55392E-05-2.86658E-05-2.86679E-05-1.31953E-10 2.87017E-20-6.73617E-18
 -1      1156 9.58228E-05-2.87521E-05-2.87553E-05 1.78646E-09 1.18610E-19-5.88092E-18
 -1      1157 9.62102E-05-2.88696E-05-2.88742E-05 4.77269E-09-1.41407E-19-3.90663E-18
 -1      1158 9.67311E-05-2.90270E-05-2.90333E-05 9.10793E-09 1.34402E-19-3.14406E-18
 -1      1159 9.74155E-05-2.92331E-05-2.92413E-05 1.50716E-08-2.36905E-19-3.37428E-18
 -1      1160 9.82904E-05-2.94957E-05-2.95057E-05 2.28617E-08-3.45348E-22-3.39307E-18
 -1      1161 9.93728E-05-2.98195E-05-2.98308E-05 3.24471E-08-2.48393E-19-3.75794E-18
 -1      1162 1.00659E-04-3.02030E-05-3.02142E-05 4.33183E-08-1.91374E-19-5.74618E-18
 -1      1163 1.02112E-04-3.06340E-05-3.06423E-05 5.40996E-08-2.56887E-19-6.46665E-18
 -1      1164 1.03635E-04-3.10835E-05-3.10843E-05 6.20180E-08 1.77774E-20-6.88470E-18
 -1      1165 1.05055E-04-3.14987E-05-3.14852E-05 6.23156E-08 2.16928E-20-6.44245E-18
 -1      1166 1.06092E-04-3.17962E-05-3.17602E-05 4.79177E-08 2.23253E-19-6.83836E-18
 -1      1167 1.06358E-04-3.18606E-05-3.17945E-05 1.00536E-08 1.76171E-19-4.77997E-18
 -1      1168 1.05378E-04-3.15532E-05-3.14552E-05-5.90656E-08-1.68513E-20-4.66889E-18
 -1      1169 1.02694E-04-3.07411E-05-3.06215E-05-1.60553E-07 6.56318E-20-3.55915E-18
 -1      1170 9.80334E-05-2.93496E-05-2.92361E-05-2.80821E-07-3.67070E-20-1.55521E-18
 -1      1171 9.15563E-05-2.74318E-05-2.73661E-05-3.85960E-07 5.98118E-20-7.04678E-19
 -1      1172 8.40437E-05-2.52218E-05-2.52440E-05-4.27361E-07-1.27530E-19-2.56164E-18
 -1      1173 7.68724E-05-2.31217E-05-2.32472E-05-3.64423E-07-1.00764E-19-3.60164E-18
 -1      1174 7.16471E-05-2.15936E-05-2.17971E-05-1.95201E-07 2.43807E-19-5.21460E-18
 -1      1175 6.95862E-05-2.09854E-05-2.12097E-05 3.07734E-08-5.00874E-20-4.51713E-18
 -1      1176 7.10096E-05-2.13903E-05-2.15756E-05 2.37680E-07-5.18675E-20-5.46543E-18
 -1      1177 7.52783E-05-2.26307E-05-2.27413E-05 3.70917E-07-6.40403E-20-4.04194E-18
 -1      1178 8.11935E-05-2.43663E-05-2.43889E-05 4.23753E-07-2.04214E-20-4.04935E-18
 -1      1179 8.74614E-05-2.62198E-05-2.61367E-05 4.07812E-07 5.24184E-19-1.50613E-18
 -1      1180 9.27460E-05-2.77810E-05-2.75761E-05 2.96610E-07 2.45236E-19 2.37037E-18
 -1      1181 9.51918E-05-2.85755E-05-2.84504E-05-2.50572E-08 1.82458E-19 3.16841E-18
 -1      1182 1.31060E-04-3.77398E-05-3.86612E-05 1.21744E-05-1.83991E-19 1.66023E-17
 -1      1183 9.65672E-05-2.81919E-05-3.13329E-05 8.01335E-07 8.11563E-20 1.37004E-17
 -1      1184 9.03847E-05-2.69326E-05-2.78773E-05 1.20128E-07 3.10160E-20 1.09657E-17
 -1      1185 8.83483E-05-2.65034E-05-2.66838E-05 8.99591E-09 9.37626E-20 8.79808E-18
 -1      1186 8.79457E-05-2.64126E-05-2.64188E-05-2.52937E-08 1.89755E-20 7.08088E-18
 -1      1187 8.82884E-05-2.65100E-05-2.64931E-05-3.43342E-08 5.62566E-20 5.72208E-18
 -1      1188 8.89682E-05-2.67056E-05-2.66909E-05-3.55467E-08 9.39305E-21 5.38078E-18
 -1      1189 8.97802E-05-2.69436E-05-2.69313E-05-3.38689E-08-2.21033E-20 5.10024E-18
 -1      1190 9.06121E-05-2.71897E-05-2.71783E-05-3.08584E-08-2.33410E-20 4.59700E-18
 -1      1191 9.14006E-05-2.74241E-05-2.74133E-05-2.72258E-08 1.43992E-19 3.76581E-18
 -1      1192 9.21120E-05-2.76360E-05-2.76260E-05-2.33899E-08 5.77073E-20 2.54015E-18
 -1      1193 9.27308E-05-2.78207E-05-2.78116E-05-1.96138E-08-7.57227E-21 2.61891E-18
 -1      1194 9.32536E-05-2.79769E-05-2.79688E-05-1.60561E-08 1.24954E-19 2.22976E-18
 -1      1195 9.36844E-05-2.81057E-05-2.80987E-05-1.28006E-08-1.25479E-19 1.34634E-18
 -1      1196 9.40315E-05-2.82096E-05-2.82037E-05-9.87566E-09 1.03351E-19 2.58539E-19
 -1      1197 9.43058E-05-2.82918E-05-2.82869E-05-7.27023E-09 4.84469E-22-4.24845E-19
 -1      1198 9.45194E-05-2.83560E-05-2.83519E-05-4.94515E-09-7.62617E-20 3.17811E-20
 -1      1199 9.46854E-05-2.84059E-05-2.84027E-05-2.84261E-09 1.87146E-19-1.97087E-19
 -1      1200 9.48170E-05-2.84457E-05-2.84432E-05-8.93054E-10 5.63267E-20-8.21992E-19
 -1      1201 9.49282E-05-2.84794E-05-2.84776E-05 9.79706E-10-8.64553E-21-4.11498E-19
 -1      1202 9.50340E-05-2.85117E-05-2.85106E-05 2.85476E-09 1.42781E-19-1.25001E-19
 -1      1203 9.51512E-05-2.85476E-05-2.85472E-05 4.81099E-09-8.76167E-20 1.05918E-18
 -1      1204 9.52993E-05-2.85930E-05-2.85935E-05 6.92404E-09 1.88023E-19-4.73361E-19
 -1      1205 9.55020E-05-2.86550E-05-2.86566E-05 9.26197E-09 7.47074E-20-1.85221E-18
 -1      1206 9.57884E-05-2.87425E-05-2.87456E-05 1.18776E-08 1.57130E-19-9.59960E-19
 -1      1207 9.61952E-05-2.88666E-05-2.88716E-05 1.47930E-08 1.67945E-20 9.66503E-19
 -1      1208 9.67695E-05-2.90414E-05-2.90492E-05 1.79690E-08-2.61802E-19 1.87404E-18
 -1      1209 9.75709E-05-2.92850E-05-2.92967E-05 2.12445E-08 1.46035E-20 1.61245E-18
 -1      1210 9.86759E-05-2.96203E-05-2.96375E-05 2.42199E-08-1.75718E-19 8.32604E-19
 -1      1211 1.00181E-04-3.00760E-05-3.01011E-05 2.60421E-08-1.08907E-19-4.27355E-20
 -1      1212 1.02204E-04-3.06872E-05-3.07236E-05 2.50238E-08 2.11686E-19-1.06432E-18
 -1      1213 1.04887E-04-3.14948E-05-3.15469E-05 1.80201E-08-1.76509E-19 3.30660E-19
 -1      1214 1.08379E-04-3.25416E-05-3.26137E-05-4.59619E-10-2.66882E-20 8.28081E-19
 -1      1215 1.12809E-04-3.38621E-05-3.39559E-05-3.91353E-08-7.78708E-20 1.59361E-18
 -1      1216 1.18208E-04-3.54594E-05-3.55663E-05-1.09679E-07-2.96147E-20 8.61724E-19
 -1      1217 1.24355E-04-3.72621E-05-3.73484E-05-2.22111E-07 1.12780E-19 5.89058E-19
 -1      1218 1.30521E-04-3.90517E-05-3.90393E-05-3.69410E-07 4.48944E-19 1.82377E-19
 -1      1219 1.35125E-04-4.03721E-05-4.01324E-05-4.95297E-07 9.28494E-20 6.49410E-19
 -1      1220 1.35531E-04-4.04813E-05-3.98884E-05-4.60754E-07 1.27333E-19-8.98887E-19
 -1      1221 1.28574E-04-3.84903E-05-3.75823E-05-7.75050E-08 1.99317E-20-4.66715E-19
 -1      1222 1.12563E-04-3.38798E-05-3.30718E-05 6.93780E-07-1.21397E-19 2.43543E-18
 -1      1223 9.04537E-05-2.73796E-05-2.73790E-05 1.44283E-06-1.75202E-19 6.27482E-18
 -1      1224 7.09615E-05-2.13601E-05-2.25588E-05 1.49586E-06 5.43425E-19 4.15046E-18
 -1      1225 6.35180E-05-1.88541E-05-2.05825E-05 6.25920E-07-1.84256E-19 2.83129E-18
 -1      1226 6.99358E-05-2.06619E-05-2.18203E-05-5.07910E-07-4.12995E-20 6.66551E-18
 -1      1227 8.25691E-05-2.46443E-05-2.46385E-05-1.04316E-06-6.52480E-21 7.38232E-18
 -1      1228 9.26223E-05-2.78779E-05-2.71742E-05-8.42700E-07 4.99200E-19 2.34512E-18
 -1      1229 9.63398E-05-2.91069E-05-2.84123E-05-2.84482E-07-2.79240E-19 1.54531E-18
 -1      1230 9.54947E-05-2.88317E-05-2.85008E-05 4.31628E-08 5.91873E-20 2.41198E-18
 -1      1231 9.47993E-05-2.84492E-05-2.81904E-05-1.16922E-07-1.24391E-19 5.49728E-18
 -1      1232 9.53885E-05-2.89434E-05-2.84044E-05-1.58784E-07 5.97087E-18 3.51460E-19
 -1      1233 9.48858E-05-2.77528E-05-2.93936E-05-1.10217E-07 1.05845E-18-1.82200E-18
 -1      1234 9.27479E-05-2.08777E-05-3.17550E-05 4.69131E-07-6.91984E-18 5.52940E-19
 -1      1235 8.82125E-05-5.72327E-06-3.61759E-05 1.27560E-06-6.76483E-18 9.98639E-20
 -1      1236 8.16974E-05 1.65546E-05-4.21041E-05 1.85141E-06 1.66230E-18-3.66383E-20
 -1      1237 7.52844E-05 3.88271E-05-4.76534E-05 1.56885E-06-1.66336E-18-1.57587E-18
 -1      1238 7.21089E-05 5.02872E-05-5.03642E-05 2.71482E-07-2.47069E-18 3.36643E-19
 -1      1239 7.36050E-05 4.49622E-05-4.89907E-05-1.11421E-06-1.10855E-18-1.07917E-18
 -1      1240 7.95221E-05 2.42948E-05-4.38107E-05-1.97719E-06-4.17757E-18-8.57938E-19
 -1      1241 8.72108E-05-2.20028E-06-3.69044E-05-1.81591E-06-1.85945E-18 6.60381E-19
 -1      1242 9.38085E-05-2.45654E-05-3.07032E-05-1.07346E-06-1.22036E-18-2.75087E-19
 -1      1243 9.78253E-05-3.79541E-05-2.66623E-05-3.15115E-07-2.30705E-18 4.36500E-19
 -1      1244 9.92580E-05-4.25512E-05-2.50020E-05 1.90458E-07-3.26579E-18 1.95049E-19
 -1      1245 9.88499E-05-4.09637E-05-2.51534E-05 4.43598E-07 4.72644E-19 1.10935E-19
 -1      1246 9.75278E-05-3.61963E-05-2.62807E-05 5.51252E-07 2.74539E-18-7.29211E-19
 -1      1247 9.60887E-05-3.12792E-05-2.75391E-05 3.95454E-07-1.17843E-19-8.22800E-19
 -1      1248 9.51866E-05-2.86645E-05-2.84419E-05 8.51001E-08-3.11795E-18 6.19906E-19
 -1      1249 4.54376E-05-1.41061E-04 2.34469E-05-1.66999E-05-4.62226E-18 6.26010E-19
 -1      1250 2.47123E-05-9.07136E-05 1.40761E-05-3.30816E-05 4.27921E-18 1.50010E-18
 -1      1251 9.26862E-06-2.00156E-05-3.81881E-06-6.93751E-06 3.30343E-18 1.64833E-18
 -1      1252 3.22549E-05 2.62431E-05-2.61783E-05 5.29259E-05 4.69256E-18 6.23755E-18
 -1      1253 1.08421E-04 2.23047E-05-4.95235E-05 1.12277E-04 5.08220E-18 5.89874E-18
 -1      1254 2.20558E-04-2.59194E-05-7.04590E-05 1.31707E-04 1.57379E-18 2.61394E-18
 -1      1255 3.20294E-04-8.41373E-05-8.38974E-05 8.90039E-05 2.03076E-19-1.07488E-18
 -1      1256 3.51147E-04-1.06509E-04-8.69500E-05 1.88755E-06-2.50722E-19-5.19316E-18
 -1      1257 3.02458E-04-8.10367E-05-7.97404E-05-7.92184E-05 6.97532E-19-4.03950E-18
 -1      1258 1.99184E-04-2.72618E-05-6.39912E-05-1.12540E-04 3.26362E-18-6.73391E-18
 -1      1259 9.52291E-05 1.38247E-05-4.34515E-05-9.16461E-05 5.65225E-18-8.84133E-18
 -1      1260 2.79293E-05 1.65175E-05-2.20133E-05-3.92037E-05 6.79320E-18-5.92415E-18
 -1      1261 6.35089E-06-2.10388E-05-1.87350E-06 1.25785E-05 5.28379E-18-3.90821E-18
 -1      1262 1.88667E-05-7.89965E-05 1.38163E-05 3.55739E-05 6.93466E-18-2.63724E-18
 -1      1263 3.77709E-05-1.22684E-04 2.24325E-05 2.31587E-05 4.95980E-18-1.02324E-18
 -1      1264 4.15317E-05-1.27921E-04 2.30589E-05-7.54445E-06 5.72679E-18 1.55325E-19
 -1      1265 2.53053E-05-8.95916E-05 1.55508E-05-2.76113E-05 4.56212E-18 8.73503E-19
 -1      1266 8.71604E-06-3.05727E-05 1.08295E-06-1.46710E-05-1.65002E-18-2.07438E-18
 -1      1267 1.88519E-05 1.68627E-05-1.84530E-05 3.18618E-05-5.26346E-18-3.91414E-18
 -1      1268 7.56868E-05 2.50406E-05-4.01880E-05 8.86705E-05 1.76183E-19 1.72625E-18
 -1      1269 1.70691E-04-9.17001E-06-6.06145E-05 1.18290E-04 1.89905E-18 3.00527E-18
 -1      1270 2.75211E-04-6.53058E-05-7.68598E-05 9.65647E-05 7.01555E-19 2.09725E-18
 -1      1271 3.36642E-04-1.01584E-04-8.52001E-05 2.05516E-05 5.51313E-19 3.31571E-18
 -1      1272 3.21456E-04-8.99180E-05-8.37676E-05-6.85080E-05 3.98370E-19-1.23413E-18
 -1      1273 2.35441E-04-3.71350E-05-7.24613E-05-1.23857E-04 7.74612E-19-2.75794E-18
 -1      1274 1.25453E-04 1.67087E-05-5.34386E-05-1.20212E-04 3.13148E-18-4.48927E-18
 -1      1275 4.16534E-05 3.18289E-05-3.07562E-05-6.71122E-05 6.52724E-18-5.78524E-18
 -1      1276 9.36088E-06-6.02194E-06-7.84844E-06-4.08116E-06 6.80676E-18-5.11608E-18
 -1      1277 2.07574E-05-7.67134E-05 1.11129E-05 2.90378E-05 1.01576E-17-2.73041E-18
 -1      1278 4.28353E-05-1.34967E-04 2.25773E-05 1.75413E-05 3.17171E-18-3.00887E-18
 -1      1279 1.04450E-04-2.20212E-05-3.78942E-05-1.72739E-05-4.17164E-19 6.38472E-18
 -1      1280 9.03235E-05-6.68247E-06-3.60186E-05-2.04679E-05-1.06747E-18-6.50680E-19
 -1      1281 9.26615E-05-6.74154E-06-3.72238E-05-2.57567E-05-1.40671E-18 9.69641E-19
 -1      1282 8.59022E-05-4.09336E-06-3.51307E-05-1.64294E-05-1.03767E-18-2.90151E-18
 -1      1283 8.71571E-05-4.08864E-06-3.56006E-05-1.88491E-05-1.17812E-18-1.95278E-18
 -1      1284 9.21375E-05-1.04642E-05-3.50948E-05-1.90293E-05-1.84275E-18-5.66189E-19
 -1      1285 8.41000E-05-3.19221E-06-3.46868E-05-1.28159E-05-7.97879E-19-3.97360E-18
 -1      1286 8.47077E-05-3.16106E-06-3.49113E-05-1.46318E-05-9.50292E-19-3.50100E-18
 -1      1287 8.78686E-05-7.39173E-06-3.45745E-05-1.54140E-05-1.63131E-18-2.42786E-18
 -1      1288 8.31839E-05-2.72731E-06-3.44691E-05-9.68227E-06-5.90686E-19-4.45249E-18
 -1      1289 8.35008E-05-2.71085E-06-3.45790E-05-1.12296E-05-6.46868E-19-4.26175E-18
 -1      1290 8.58681E-05-5.98516E-06-3.43045E-05-1.19531E-05-1.20417E-18-3.34742E-18
 -1      1291 8.26892E-05-2.45630E-06-3.43623E-05-6.91251E-06-3.23775E-19-4.60013E-18
 -1      1292 8.28595E-05-2.44782E-06-3.44170E-05-8.28299E-06-4.33694E-19-4.51023E-18
 -1      1293 8.48172E-05-5.21541E-06-3.41718E-05-8.94080E-06-8.75104E-19-3.71747E-18
 -1      1294 8.24127E-05-2.29078E-06-3.43090E-05-4.29331E-06-1.63062E-19-4.60026E-18
 -1      1295 8.25043E-05-2.28683E-06-3.43365E-05-5.59414E-06-2.02176E-19-4.63032E-18
 -1      1296 8.42296E-05-4.75982E-06-3.41080E-05-6.21470E-06-4.40710E-19-3.86626E-18
 -1      1297 8.22795E-05-2.20129E-06-3.42864E-05-1.78928E-06 9.02274E-20-4.53954E-18
 -1      1298 8.23187E-05-2.19972E-06-3.42976E-05-3.03987E-06-4.60574E-21-4.55769E-18
 -1      1299 8.39060E-05-4.49597E-06-3.40786E-05-3.64339E-06-1.49192E-19-3.82896E-18
 -1      1300 8.22533E-05-2.17376E-06-3.42837E-05 6.69574E-07 2.17290E-19-4.39634E-18
 -1      1301 8.22519E-05-2.17380E-06-3.42833E-05-5.65849E-07 1.79745E-19-4.49317E-18
 -1      1302 8.37640E-05-4.37619E-06-3.40675E-05-1.17013E-06 2.11903E-19-3.77778E-18
 -1      1303 8.23275E-05-2.20407E-06-3.42992E-05 3.14726E-06 4.53095E-19-4.22485E-18
 -1      1304 8.22853E-05-2.20570E-06-3.42872E-05 1.89405E-06 3.78637E-19-4.32324E-18
 -1      1305 8.37690E-05-4.38044E-06-3.40679E-05 1.27328E-06 4.64512E-19-3.66216E-18
 -1      1306 8.25218E-05-2.29723E-06-3.43392E-05 5.71076E-06 6.30044E-19-3.96896E-18
 -1      1307 8.24266E-05-2.30059E-06-3.43110E-05 4.40395E-06 5.68061E-19-4.11612E-18
 -1      1308 8.39217E-05-4.50955E-06-3.40797E-05 3.75086E-06 8.09682E-19-3.45906E-18
 -1      1309 8.28829E-05-2.46313E-06-3.44200E-05 8.39182E-06 8.00195E-19-3.52383E-18
 -1      1310 8.27093E-05-2.47181E-06-3.43647E-05 7.01235E-06 7.44539E-19-3.80602E-18
 -1      1311 8.42555E-05-4.78294E-06-3.41092E-05 6.30862E-06 1.14622E-18-3.17884E-18
 -1      1312 8.35430E-05-2.74074E-06-3.45841E-05 1.13916E-05 1.09140E-18-2.79465E-18
 -1      1313 8.32207E-05-2.75781E-06-3.44730E-05 9.82683E-06 9.74240E-19-3.20205E-18
 -1      1314 8.48602E-05-5.25656E-06-3.41729E-05 9.05106E-06 1.46378E-18-2.64772E-18
 -1      1315 8.47663E-05-3.20334E-06-3.49195E-05 1.48403E-05 1.30409E-18-1.61381E-18
 -1      1316 8.41529E-05-3.24004E-06-3.46924E-05 1.29999E-05 1.18910E-18-2.33502E-18
 -1      1317 8.59457E-05-6.06231E-06-3.43064E-05 1.21192E-05 1.84089E-18-1.90058E-18
 -1      1318 8.72590E-05-4.09095E-06-3.56220E-05 1.90880E-05 1.46891E-18 5.08590E-19
 -1      1319 8.59747E-05-4.15475E-06-3.51383E-05 1.66897E-05 1.31131E-18-7.58544E-19
 -1      1320 8.79932E-05-7.51755E-06-3.45764E-05 1.56469E-05 2.11543E-18-5.70794E-19
 -1      1321 9.34740E-05-6.79370E-06-3.71192E-05 2.50940E-05 1.21390E-18 4.35121E-18
 -1      1322 9.01394E-05-6.43908E-06-3.60412E-05 2.11461E-05 1.22947E-18 2.01800E-18
 -1      1323 9.23679E-05-1.06996E-05-3.50800E-05 1.96733E-05 2.17492E-18 1.80122E-18
 -1      1324 1.23635E-04-2.49256E-05-3.90177E-05 2.83657E-05 5.76618E-19 1.13189E-17
 -1      1325 1.00090E-04-1.44260E-05-3.73569E-05 2.40486E-05 6.35910E-19 6.50257E-18
 -1      1326 1.01689E-04-1.93451E-05-3.54052E-05 2.13960E-05 1.96784E-18 5.26240E-18
 -1      1327 1.02615E-04-2.78084E-05-3.47609E-05 7.32763E-06 1.08314E-18 1.09464E-17
 -1      1328 1.05159E-04-3.02343E-05-3.35286E-05-7.95864E-06-1.12634E-18 6.86224E-18
 -1      1329 9.82734E-05-2.78469E-05-3.07657E-05-4.98772E-06-1.03417E-18 5.57909E-18
 -1      1330 9.55158E-05-2.78529E-05-2.92584E-05-2.48836E-06-8.40733E-19 4.95734E-18
 -1      1331 9.32850E-05-2.75626E-05-2.82194E-05-2.04156E-06-8.18287E-19 3.75781E-18
 -1      1332 9.94965E-05-2.80551E-05-3.09862E-05-7.88508E-06-1.83976E-18 2.69351E-18
 -1      1333 9.15964E-05-2.72051E-05-2.75854E-05-8.36610E-07-6.93091E-19 3.28204E-18
 -1      1334 9.08814E-05-2.71102E-05-2.72836E-05-7.26430E-07-6.34878E-19 2.35261E-18
 -1      1335 9.47316E-05-2.77739E-05-2.88203E-05-3.11769E-06-1.46028E-18 1.89213E-18
 -1      1336 9.01324E-05-2.69277E-05-2.70408E-05-1.72273E-07-4.67857E-19 1.88115E-18
 -1      1337 9.00614E-05-2.69550E-05-2.70065E-05-1.14229E-07-4.50383E-19 1.20959E-18
 -1      1338 9.25344E-05-2.75044E-05-2.79001E-05-1.05021E-06-1.09128E-18 1.11749E-18
 -1      1339 8.98033E-05-2.68879E-05-2.69327E-05 1.56017E-07-3.03648E-19 9.97620E-19
 -1      1340 9.00194E-05-2.69784E-05-2.69948E-05 1.84726E-07-2.75709E-19 5.73574E-19
 -1      1341 9.15783E-05-2.73612E-05-2.75340E-05-6.68631E-08-7.19435E-19 3.03913E-19
 -1      1342 9.00246E-05-2.69820E-05-2.70018E-05 3.15857E-07-1.61658E-19 3.70233E-19
 -1      1343 9.03686E-05-2.71021E-05-2.71013E-05 3.27588E-07-8.70144E-20 1.79948E-19
 -1      1344 9.13277E-05-2.73499E-05-2.74269E-05 4.20473E-07-5.09710E-19-4.83272E-20
 -1      1345 9.05118E-05-2.71442E-05-2.71489E-05 3.82070E-07 4.44144E-20 1.77943E-20
 -1      1346 9.09010E-05-2.72730E-05-2.72613E-05 3.83728E-07-1.36543E-19-7.43271E-20
 -1      1347 9.14631E-05-2.74244E-05-2.74498E-05 6.48636E-07-3.20742E-19-1.53141E-19
 -1      1348 9.11102E-05-2.73336E-05-2.73281E-05 3.94085E-07-1.55557E-19-1.89907E-19
 -1      1349 9.14988E-05-2.74587E-05-2.74407E-05 3.89838E-07-1.95554E-19-3.95908E-19
 -1      1350 9.17979E-05-2.75440E-05-2.75394E-05 7.30720E-07-3.76600E-19-3.98476E-19
 -1      1351 9.17309E-05-2.75257E-05-2.75139E-05 3.74900E-07-2.54413E-19-5.32641E-19
 -1      1352 9.20934E-05-2.76403E-05-2.76193E-05 3.67421E-07-3.00131E-19-8.16748E-19
 -1      1353 9.22215E-05-2.76817E-05-2.76599E-05 7.28363E-07-3.82501E-19-3.50016E-19
 -1      1354 9.23231E-05-2.77064E-05-2.76914E-05 3.38830E-07-3.54342E-19-1.05316E-18
 -1      1355 9.26462E-05-2.78074E-05-2.77857E-05 3.29868E-07-2.43824E-20-1.41422E-18
 -1      1356 9.26669E-05-2.78206E-05-2.77900E-05 6.78342E-07-4.78371E-19-5.09395E-19
 -1      1357 9.28590E-05-2.78684E-05-2.78524E-05 2.95047E-07 9.99999E-20-1.55852E-18
 -1      1358 9.31374E-05-2.79546E-05-2.79339E-05 2.85742E-07-2.12830E-19-1.71731E-18
 -1      1359 9.30950E-05-2.79510E-05-2.79169E-05 6.03763E-07-2.17423E-19-1.18358E-18
 -1      1360 9.33260E-05-2.80086E-05-2.79929E-05 2.49448E-07-2.26774E-19-1.82798E-18
 -1      1361 9.35595E-05-2.80803E-05-2.80615E-05 2.40522E-07-3.38625E-20-1.86619E-18
 -1      1362 9.34843E-05-2.80675E-05-2.80335E-05 5.19438E-07-3.42552E-19-1.31534E-18
 -1      1363 9.37212E-05-2.81266E-05-2.81120E-05 2.05757E-07 1.41526E-19-1.91080E-18
 -1      1364 9.39123E-05-2.81848E-05-2.81683E-05 1.97649E-07-1.24634E-19-1.84394E-18
 -1      1365 9.38246E-05-2.81680E-05-2.81363E-05 4.34829E-07-5.11752E-20-1.59087E-18
 -1      1366 9.40477E-05-2.82234E-05-2.82105E-05 1.66246E-07-2.24167E-19-2.01483E-18
 -1      1367 9.42010E-05-2.82697E-05-2.82558E-05 1.59206E-07-2.08469E-19-2.14652E-18
 -1      1368 9.41137E-05-2.82524E-05-2.82242E-05 3.55851E-07-3.02635E-19-1.66158E-18
 -1      1369 9.43123E-05-2.83014E-05-2.82906E-05 1.32246E-07-3.29655E-19-2.10066E-18
 -1      1370 9.44334E-05-2.83377E-05-2.83265E-05 1.26405E-07-3.73954E-19-2.53883E-18
 -1      1371 9.43539E-05-2.83217E-05-2.82977E-05 2.86081E-07-3.43846E-19-1.72913E-18
 -1      1372 9.45242E-05-2.83634E-05-2.83547E-05 1.04512E-07-1.19039E-19-2.38621E-18
 -1      1373 9.46192E-05-2.83916E-05-2.83831E-05 9.99415E-08-1.13481E-19-2.58738E-18
 -1      1374 9.45509E-05-2.83778E-05-2.83584E-05 2.27626E-07-3.35026E-19-1.75376E-18
 -1      1375 9.46937E-05-2.84127E-05-2.84063E-05 8.35084E-08-1.01122E-19-2.59966E-18
 -1      1376 9.47692E-05-2.84347E-05-2.84289E-05 8.02564E-08-1.59203E-19-2.71556E-18
 -1      1377 9.47122E-05-2.84230E-05-2.84085E-05 1.81751E-07-1.83145E-19-2.05622E-18
 -1      1378 9.48324E-05-2.84526E-05-2.84485E-05 6.96164E-08-3.52564E-19-2.92074E-18
 -1      1379 9.48951E-05-2.84706E-05-2.84674E-05 6.77411E-08-2.94103E-19-3.44998E-18
 -1      1380 9.48468E-05-2.84602E-05-2.84507E-05 1.49360E-07-4.48404E-19-2.34524E-18
 -1      1381 9.49524E-05-2.84867E-05-2.84853E-05 6.32909E-08-1.18140E-19-3.61840E-18
 -1      1382 9.50096E-05-2.85029E-05-2.85025E-05 6.28846E-08-3.90818E-19-4.05762E-18
 -1      1383 9.49647E-05-2.84922E-05-2.84879E-05 1.31351E-07-4.18323E-19-2.66394E-18
 -1      1384 9.50669E-05-2.85190E-05-2.85204E-05 6.51746E-08 4.57945E-20-4.22184E-18
 -1      1385 9.51262E-05-2.85357E-05-2.85384E-05 6.63801E-08-2.98269E-20-4.08062E-18
 -1      1386 9.50770E-05-2.85222E-05-2.85237E-05 1.28877E-07-4.28677E-19-2.70953E-18
 -1      1387 9.51902E-05-2.85536E-05-2.85583E-05 7.61678E-08-1.77205E-19-3.82049E-18
 -1      1388 9.52604E-05-2.85735E-05-2.85796E-05 7.91870E-08-2.06733E-19-4.01775E-18
 -1      1389 9.51959E-05-2.85538E-05-2.85617E-05 1.43520E-07-7.18218E-20-3.06904E-18
 -1      1390 9.53385E-05-2.85954E-05-2.86039E-05 9.74481E-08-3.89250E-19-3.82550E-18
 -1      1391 9.54294E-05-2.86214E-05-2.86313E-05 1.02542E-07-5.09060E-19-4.48077E-18
 -1      1392 9.53352E-05-2.85910E-05-2.86061E-05 1.77370E-07-6.16736E-19-2.95666E-18
 -1      1393 9.55299E-05-2.86497E-05-2.86626E-05 1.30427E-07-2.12021E-19-4.59837E-18
 -1      1394 9.56526E-05-2.86852E-05-2.86995E-05 1.37899E-07 3.24896E-19-4.87732E-18
 -1      1395 9.55102E-05-2.86382E-05-2.86615E-05 2.32986E-07-5.61244E-19-2.88843E-18
 -1      1396 9.57849E-05-2.87226E-05-2.87406E-05 1.76615E-07 6.41843E-19-4.43180E-18
 -1      1397 9.59519E-05-2.87715E-05-2.87907E-05 1.86779E-07 3.19824E-19-3.63048E-18
 -1      1398 9.57382E-05-2.87007E-05-2.87333E-05 3.13204E-07 7.07999E-19-2.53736E-18
 -1      1399 9.61261E-05-2.88210E-05-2.88448E-05 2.37352E-07 9.29346E-20-3.57551E-18
 -1      1400 9.63515E-05-2.88877E-05-2.89121E-05 2.50465E-07 4.06940E-20-3.05379E-18
 -1      1401 9.60383E-05-2.87841E-05-2.88270E-05 4.20718E-07 4.88688E-19-2.32699E-18
 -1      1402 9.65782E-05-2.89524E-05-2.89825E-05 3.13343E-07 1.00463E-19-3.17892E-18
 -1      1403 9.68763E-05-2.90415E-05-2.90712E-05 3.29497E-07 3.36432E-19-3.13394E-18
 -1      1404 9.64308E-05-2.88948E-05-2.89487E-05 5.57321E-07 2.24517E-20-2.33317E-18
 -1      1405 9.71656E-05-2.91246E-05-2.91608E-05 4.03923E-07 2.20142E-19-2.77887E-18
 -1      1406 9.75503E-05-2.92407E-05-2.92749E-05 4.22870E-07-2.60179E-19-3.20114E-18
 -1      1407 9.69362E-05-2.90397E-05-2.91041E-05 7.22692E-07 3.81540E-19-3.00887E-18
 -1      1408 9.79102E-05-2.93449E-05-2.93861E-05 5.05940E-07-4.29480E-20-3.23551E-18
 -1      1409 9.83919E-05-2.94917E-05-2.95284E-05 5.26828E-07 5.77277E-20-3.24817E-18
 -1      1410 9.75728E-05-2.92254E-05-2.92981E-05 9.12527E-07-2.95097E-20-3.25281E-18
 -1      1411 9.88263E-05-2.96187E-05-2.96621E-05 6.12174E-07-3.98177E-19-2.72255E-18
 -1      1412 9.94078E-05-2.97980E-05-2.98333E-05 6.33183E-07-3.41678E-19-3.12181E-18
 -1      1413 9.83528E-05-2.94576E-05-2.95332E-05 1.11586E-06-2.53787E-19-2.46074E-18
 -1      1414 9.99122E-05-2.99474E-05-2.99875E-05 7.09259E-07-4.78798E-19-3.82016E-18
 -1      1415 1.00583E-04-3.01572E-05-3.01840E-05 7.27109E-07-6.64150E-19-4.35114E-18
 -1      1416 9.92768E-05-2.97393E-05-2.98080E-05 1.31144E-06-9.54208E-19-2.90811E-18
 -1      1417 1.01140E-04-3.03251E-05-3.03526E-05 7.75221E-07-3.30807E-19-4.58063E-18
 -1      1418 1.01867E-04-3.05566E-05-3.05642E-05 7.84615E-07-5.87741E-19-4.78197E-18
 -1      1419 1.00325E-04-3.00689E-05-3.01144E-05 1.46336E-06-9.37294E-19-2.81346E-18
 -1      1420 1.02440E-04-3.07342E-05-3.07347E-05 7.77195E-07-2.65050E-19-4.54009E-18
 -1      1421 1.03157E-04-3.09687E-05-3.09414E-05 7.70336E-07-1.18150E-19-4.53607E-18
 -1      1422 1.01447E-04-3.04365E-05-3.04343E-05 1.51656E-06-2.30309E-19-2.73539E-18
 -1      1423 1.03683E-04-3.11395E-05-3.10931E-05 6.70598E-07-1.98786E-19-4.52275E-18
 -1      1424 1.04280E-04-3.13440E-05-3.12621E-05 6.37148E-07-6.66517E-20-4.86235E-18
 -1      1425 1.02549E-04-3.08195E-05-3.07362E-05 1.39422E-06-2.07942E-19-3.08857E-18
 -1      1426 1.04664E-04-3.14819E-05-3.13644E-05 4.02258E-07 2.53078E-19-4.09229E-18
 -1      1427 1.04980E-04-3.16058E-05-3.14484E-05 3.30435E-07 5.73322E-19-3.69884E-18
 -1      1428 1.03479E-04-3.11767E-05-3.09723E-05 1.00074E-06 1.98899E-19-2.54278E-18
 -1      1429 1.05094E-04-3.16735E-05-3.14623E-05-7.85808E-08 7.55481E-20-3.78477E-18
 -1      1430 1.04921E-04-3.16486E-05-3.14017E-05-1.98711E-07 2.81777E-19-3.40835E-18
 -1      1431 1.04022E-04-3.14415E-05-3.10790E-05 2.36771E-07 7.69119E-19-1.96200E-18
 -1      1432 1.04619E-04-3.15984E-05-3.12836E-05-7.97099E-07-2.53779E-20-3.37449E-18
 -1      1433 1.03731E-04-3.13462E-05-3.10163E-05-9.67125E-07 2.74260E-20-3.19299E-18
 -1      1434 1.03907E-04-3.15189E-05-3.09818E-05-9.65971E-07 8.99443E-20-2.63043E-18
 -1      1435 1.02871E-04-3.11263E-05-3.07292E-05-1.71667E-06 2.56075E-19-3.32627E-18
 -1      1436 1.01092E-04-3.05782E-05-3.02095E-05-1.92048E-06 3.20615E-19-2.50049E-18
 -1      1437 1.02841E-04-3.12888E-05-3.06101E-05-2.58552E-06 2.94231E-19-1.95724E-18
 -1      1438 9.95950E-05-3.01485E-05-2.97389E-05-2.69943E-06-2.62448E-20-1.57699E-18
 -1      1439 9.68956E-05-2.92804E-05-2.89654E-05-2.89485E-06 4.64191E-19-9.49842E-19
 -1      1440 1.00589E-04-3.06307E-05-2.99212E-05-4.43623E-06 4.22795E-19-1.85906E-18
 -1      1441 9.48112E-05-2.86389E-05-2.83378E-05-3.49149E-06-1.00512E-19-1.16808E-18
 -1      1442 9.14166E-05-2.75134E-05-2.73796E-05-3.61201E-06-8.71756E-19-1.76808E-18
 -1      1443 9.70964E-05-2.94747E-05-2.89299E-05-6.11990E-06 1.18717E-19-9.70078E-19
 -1      1444 8.89851E-05-2.67266E-05-2.66725E-05-3.77408E-06-5.84643E-19-1.68059E-18
 -1      1445 8.54166E-05-2.55179E-05-2.56765E-05-3.75079E-06-6.93052E-19-2.99352E-18
 -1      1446 9.26324E-05-2.78784E-05-2.77317E-05-7.07039E-06-7.86600E-19-1.98647E-18
 -1      1447 8.30679E-05-2.47328E-05-2.50102E-05-3.30046E-06-1.12446E-18-3.33477E-18
 -1      1448 8.00501E-05-2.36998E-05-2.41724E-05-3.10221E-06-6.67270E-19-4.22333E-18
 -1      1449 8.78615E-05-2.60875E-05-2.65024E-05-6.75019E-06-1.31212E-18-2.96507E-18
 -1      1450 7.82940E-05-2.31080E-05-2.36781E-05-2.06495E-06 5.42114E-19-4.11150E-18
 -1      1451 7.65163E-05-2.25058E-05-2.31810E-05-1.73161E-06 4.51866E-19-3.91747E-18
 -1      1452 8.37414E-05-2.45090E-05-2.54613E-05-4.95652E-06-3.66289E-19-3.25856E-18
 -1      1453 7.57452E-05-2.22598E-05-2.29562E-05-3.75157E-07-1.11305E-19-2.96414E-18
 -1      1454 7.55831E-05-2.22261E-05-2.28998E-05-9.09532E-09-6.95493E-20-3.41236E-18
 -1      1455 8.12037E-05-2.35618E-05-2.48060E-05-2.04370E-06 8.54683E-19-2.18042E-18
 -1      1456 7.58964E-05-2.23585E-05-2.29733E-05 1.27344E-06 2.65915E-19-3.51859E-18
 -1      1457 7.72684E-05-2.28546E-05-2.33404E-05 1.56349E-06 4.45844E-19-3.05535E-18
 -1      1458 8.07540E-05-2.34680E-05-2.46457E-05 1.16538E-06-6.63465E-20-9.12175E-19
 -1      1459 7.84493E-05-2.32694E-05-2.36663E-05 2.45557E-06 7.43629E-19-3.34832E-18
 -1      1460 8.09024E-05-2.41215E-05-2.43395E-05 2.61293E-06 6.09645E-19-1.98301E-18
 -1      1461 8.22593E-05-2.41440E-05-2.49674E-05 3.78773E-06 8.74945E-19-5.98032E-19
 -1      1462 8.25555E-05-2.46661E-05-2.48182E-05 2.99543E-06-9.51886E-20-2.06613E-18
 -1      1463 8.54855E-05-2.56645E-05-2.56287E-05 3.02446E-06 2.06071E-19-2.20549E-18
 -1      1464 8.50791E-05-2.52866E-05-2.56460E-05 5.29842E-06 9.31723E-19-5.58625E-19
 -1      1465 8.72142E-05-2.62210E-05-2.61370E-05 2.91851E-06 1.06131E-18-2.31873E-18
 -1      1466 9.00115E-05-2.71876E-05-2.69002E-05 2.83361E-06 1.59846E-18-3.84077E-19
 -1      1467 8.84124E-05-2.65838E-05-2.64848E-05 5.60506E-06 7.91087E-19-8.13231E-19
 -1      1468 9.15172E-05-2.77070E-05-2.73171E-05 2.19720E-06 1.84096E-18-4.92920E-19
 -1      1469 9.35690E-05-2.84501E-05-2.78563E-05 2.01129E-06 1.07052E-18 1.36023E-18
 -1      1470 9.16153E-05-2.79016E-05-2.72601E-05 4.74943E-06 2.11867E-18-1.54400E-18
 -1      1471 9.49519E-05-2.89336E-05-2.81686E-05 3.90031E-07-1.05829E-18 9.03493E-19
 -1      1472 9.46277E-05-2.94330E-05-2.78681E-05 2.19779E-06 9.38354E-21-5.46110E-19
 -1      1473 9.65904E-05-2.83676E-05-2.97763E-05 2.99453E-06 8.66276E-19 8.91645E-18
 -1      1474 1.02548E-04-2.94019E-05-3.21593E-05 4.46157E-06 8.04152E-19 1.03010E-17
 -1      1475 1.02337E-04-2.67215E-05-3.27090E-05 1.27808E-05 1.59094E-18 6.93318E-18
 -1      1476 9.20462E-05-2.74339E-05-2.77664E-05 1.15078E-06 7.20944E-19 7.15293E-18
 -1      1477 9.39915E-05-2.75887E-05-2.86801E-05 1.47276E-06 6.57231E-19 8.17285E-18
 -1      1478 9.64998E-05-2.80342E-05-2.95376E-05 4.86541E-06 1.37225E-18 5.54555E-18
 -1      1479 9.02159E-05-2.70098E-05-2.70683E-05 3.30446E-07 5.57612E-19 5.60418E-18
 -1      1480 9.08295E-05-2.70269E-05-2.73405E-05 4.93383E-07 5.74606E-19 6.52131E-18
 -1      1481 9.30570E-05-2.75832E-05-2.81032E-05 1.84941E-06 1.23426E-18 4.35299E-18
 -1      1482 8.97011E-05-2.68924E-05-2.68933E-05-5.65481E-08 4.73161E-19 4.49486E-18
 -1      1483 8.97370E-05-2.68296E-05-2.69211E-05 3.26484E-08 4.21918E-19 5.18665E-18
 -1      1484 9.15059E-05-2.73127E-05-2.75201E-05 5.15226E-07 9.23187E-19 3.30879E-18
 -1      1485 8.98356E-05-2.69456E-05-2.69359E-05-2.43940E-07 1.66639E-19 3.85649E-18
 -1      1486 8.96056E-05-2.68376E-05-2.68704E-05-1.93614E-07 1.87995E-19 4.19783E-18
 -1      1487 9.09763E-05-2.72324E-05-2.73246E-05-1.34845E-07 5.47521E-19 2.78741E-18
 -1      1488 9.02909E-05-2.70888E-05-2.70750E-05-3.27154E-07 1.60879E-19 3.61812E-18
 -1      1489 8.99424E-05-2.69611E-05-2.69730E-05-2.99405E-07 9.95789E-20 3.80228E-18
 -1      1490 9.09959E-05-2.72760E-05-2.73143E-05-4.53741E-07 1.25537E-19 2.41392E-18
 -1      1491 9.08875E-05-2.72718E-05-2.72550E-05-3.51598E-07 1.43807E-19 3.40523E-18
 -1      1492 9.04984E-05-2.71409E-05-2.71411E-05-3.37840E-07 1.18630E-19 3.55557E-18
 -1      1493 9.13022E-05-2.73886E-05-2.73965E-05-5.93919E-07 2.43751E-19 2.24476E-18
 -1      1494 9.15227E-05-2.74645E-05-2.74462E-05-3.42223E-07 2.43717E-19 2.98079E-18
 -1      1495 9.11366E-05-2.73405E-05-2.73330E-05-3.37266E-07 1.58222E-19 3.29604E-18
 -1      1496 9.17443E-05-2.75328E-05-2.75228E-05-6.32106E-07 2.84846E-19 2.35165E-18
 -1      1497 9.21372E-05-2.76498E-05-2.76314E-05-3.14084E-07 4.48568E-19 2.47599E-18
 -1      1498 9.17786E-05-2.75379E-05-2.75259E-05-3.14575E-07 3.87906E-19 2.93479E-18
 -1      1499 9.22327E-05-2.76855E-05-2.76654E-05-6.11609E-07 5.48966E-19 1.88339E-18
 -1      1500 9.26986E-05-2.78183E-05-2.78008E-05-2.76682E-07 1.65866E-19 2.04692E-18
 -1      1501 9.23797E-05-2.77209E-05-2.77067E-05-2.80392E-07 2.47702E-19 2.28700E-18
 -1      1502 9.27147E-05-2.78328E-05-2.78080E-05-5.58808E-07 5.12716E-19 1.51685E-18
 -1      1503 9.31910E-05-2.79656E-05-2.79497E-05-2.36101E-07 2.92808E-19 1.57822E-18
 -1      1504 9.29169E-05-2.78832E-05-2.78685E-05-2.41528E-07 2.02345E-20 1.55822E-18
 -1      1505 9.31606E-05-2.79671E-05-2.79408E-05-4.90414E-07 2.42974E-19 1.08963E-18
 -1      1506 9.36097E-05-2.80904E-05-2.80764E-05-1.96197E-07 2.67156E-19 1.10726E-18
 -1      1507 9.33804E-05-2.80225E-05-2.80084E-05-2.02333E-07 2.78780E-19 1.47399E-18
 -1      1508 9.35553E-05-2.80846E-05-2.80592E-05-4.17130E-07 3.94492E-19 7.05999E-19
 -1      1509 9.39566E-05-2.81934E-05-2.81816E-05-1.59339E-07 1.83824E-19 6.61883E-19
 -1      1510 9.37694E-05-2.81388E-05-2.81259E-05-1.65516E-07 2.98656E-19 1.07764E-18
 -1      1511 9.38935E-05-2.81843E-05-2.81611E-05-3.45731E-07 5.01887E-19 7.87622E-19
 -1      1512 9.42380E-05-2.82768E-05-2.82670E-05-1.26915E-07 8.87048E-20-9.91194E-20
 -1      1513 9.40883E-05-2.82337E-05-2.82224E-05-1.32697E-07 2.90859E-19 4.32812E-19
 -1      1514 9.41759E-05-2.82669E-05-2.82465E-05-2.80389E-07 5.15554E-19 1.38888E-19
 -1      1515 9.44627E-05-2.83431E-05-2.83354E-05-9.96959E-08-4.39107E-19-5.87526E-21
 -1      1516 9.43449E-05-2.83096E-05-2.83001E-05-1.04798E-07-1.53985E-19-1.84695E-19
 -1      1517 9.44073E-05-2.83340E-05-2.83169E-05-2.23573E-07 7.21301E-22 2.53853E-19
 -1      1518 9.46408E-05-2.83955E-05-2.83897E-05-7.81076E-08 3.22290E-21-1.69806E-20
 -1      1519 9.45489E-05-2.83696E-05-2.83621E-05-8.23344E-08-2.19808E-20-1.20090E-19
 -1      1520 9.45950E-05-2.83879E-05-2.83742E-05-1.76713E-07-1.65917E-19-2.17061E-19
 -1      1521 9.47836E-05-2.84372E-05-2.84334E-05-6.24436E-08 3.24581E-19-5.15876E-19
 -1      1522 9.47113E-05-2.84170E-05-2.84115E-05-6.56398E-08 7.54312E-20-4.76978E-19
 -1      1523 9.47477E-05-2.84313E-05-2.84211E-05-1.40693E-07 1.47729E-19-9.06506E-19
 -1      1524 9.49032E-05-2.84719E-05-2.84700E-05-5.30331E-08 2.45736E-20-9.72602E-19
 -1      1525 9.48437E-05-2.84553E-05-2.84519E-05-5.50398E-08 2.71925E-19-8.11422E-19
 -1      1526 9.48755E-05-2.84671E-05-2.84606E-05-1.16238E-07 4.75412E-19-7.39587E-19
 -1      1527 9.50126E-05-2.85035E-05-2.85036E-05-5.03804E-08-2.26802E-19-8.78668E-19
 -1      1528 9.49588E-05-2.84882E-05-2.84872E-05-5.09982E-08-2.72123E-19-1.03253E-18
 -1      1529 9.49894E-05-2.84986E-05-2.84961E-05-1.04224E-07-4.50703E-20-1.62312E-18
 -1      1530 9.51262E-05-2.85362E-05-2.85386E-05-5.52896E-08-3.45094E-19-1.96857E-20
 -1      1531 9.50704E-05-2.85198E-05-2.85214E-05-5.42430E-08-8.77770E-20-1.99461E-19
 -1      1532 9.51017E-05-2.85295E-05-2.85313E-05-1.05941E-07-4.73205E-19-1.03654E-18
 -1      1533 9.52609E-05-2.85749E-05-2.85800E-05-6.89847E-08 8.91169E-20 2.26802E-19
 -1      1534 9.51939E-05-2.85546E-05-2.85593E-05-6.58843E-08-9.46730E-20 1.36036E-19
 -1      1535 9.52266E-05-2.85636E-05-2.85705E-05-1.23329E-07-4.36974E-19-2.18407E-19
 -1      1536 9.54362E-05-2.86255E-05-2.86337E-05-9.32343E-08 5.39278E-19-8.71033E-19
 -1      1537 9.53474E-05-2.85979E-05-2.86064E-05-8.75356E-08 6.06938E-19-3.17509E-20
 -1      1538 9.53804E-05-2.86059E-05-2.86188E-05-1.59218E-07 7.82840E-19-1.58049E-19
 -1      1539 9.56765E-05-2.86951E-05-2.87072E-05-1.30493E-07-5.18216E-20-1.21821E-18
 -1      1540 9.55527E-05-2.86560E-05-2.86693E-05-1.21446E-07-5.61221E-21-1.34566E-18
 -1      1541 9.55828E-05-2.86619E-05-2.86822E-05-2.17574E-07 4.69450E-19-6.79736E-19
 -1      1542 9.60114E-05-2.87924E-05-2.88095E-05-1.84064E-07-2.51860E-19-4.99226E-19
 -1      1543 9.58363E-05-2.87365E-05-2.87561E-05-1.70651E-07-2.84896E-19-1.01431E-18
 -1      1544 9.58578E-05-2.87386E-05-2.87682E-05-3.03777E-07-4.72578E-19-1.13672E-18
 -1      1545 9.64786E-05-2.89285E-05-2.89520E-05-2.58294E-07-3.60786E-19 1.22859E-18
 -1      1546 9.62314E-05-2.88493E-05-2.88768E-05-2.39151E-07-2.08225E-19 5.54751E-19
 -1      1547 9.62350E-05-2.88443E-05-2.88858E-05-4.24944E-07-9.11918E-19-1.83478E-19
 -1      1548 9.71255E-05-2.91174E-05-2.91490E-05-3.58780E-07-2.11727E-19 1.61817E-18
 -1      1549 9.67796E-05-2.90062E-05-2.90442E-05-3.32101E-07-2.84129E-19 1.22365E-18
 -1      1550 9.67510E-05-2.89896E-05-2.90464E-05-5.90280E-07-4.72619E-19 6.79007E-19
 -1      1551 9.80117E-05-2.93766E-05-2.94188E-05-4.92545E-07 1.85518E-19 5.32338E-19
 -1      1552 9.75334E-05-2.92226E-05-2.92741E-05-4.55976E-07 4.11387E-19 1.09042E-18
 -1      1553 9.74515E-05-2.91877E-05-2.92640E-05-8.11400E-07 6.59721E-19 2.06954E-20
 -1      1554 9.92117E-05-2.97284E-05-2.97838E-05-6.68061E-07-2.61457E-19 3.77552E-19
 -1      1555 9.85584E-05-2.95177E-05-2.95866E-05-6.18612E-07-4.82200E-19 2.52250E-19
 -1      1556 9.83923E-05-2.94547E-05-2.95559E-05-1.10248E-06-2.40349E-19 4.70024E-19
 -1      1557 1.00817E-04-3.01998E-05-3.02717E-05-8.94820E-07 2.06926E-19-3.84136E-19
 -1      1558 9.99355E-05-2.99151E-05-3.00062E-05-8.28870E-07 5.91037E-20-1.68930E-19
 -1      1559 9.96411E-05-2.98104E-05-2.99427E-05-1.47984E-06 7.78394E-20-1.20553E-19
 -1      1560 1.02935E-04-3.08235E-05-3.09148E-05-1.18181E-06-3.29215E-19-2.32312E-19
 -1      1561 1.01762E-04-3.04441E-05-3.05624E-05-1.09539E-06 2.76394E-20-4.64796E-19
 -1      1562 1.01277E-04-3.02784E-05-3.04485E-05-1.96013E-06 2.33993E-19-2.96436E-19
 -1      1563 1.05683E-04-3.16361E-05-3.17481E-05-1.53362E-06-3.02038E-19 9.10640E-19
 -1      1564 1.04148E-04-3.11386E-05-3.12881E-05-1.42339E-06-1.58756E-19 3.67235E-19
 -1      1565 1.03388E-04-3.08862E-05-3.10990E-05-2.55551E-06-3.80467E-19 3.61610E-19
 -1      1566 1.09171E-04-3.26740E-05-3.28019E-05-1.94186E-06 3.99899E-19 5.42882E-19
 -1      1567 1.07207E-04-3.20362E-05-3.22161E-05-1.80751E-06-1.86135E-19 5.48851E-19
 -1      1568 1.06058E-04-3.16636E-05-3.19176E-05-3.26256E-06-2.59136E-19 6.70248E-19
 -1      1569 1.13453E-04-3.39625E-05-3.40874E-05-2.36796E-06 5.04129E-19-3.04667E-20
 -1      1570 1.11025E-04-3.31718E-05-3.33686E-05-2.21755E-06 3.92466E-19 1.66601E-19
 -1      1571 1.09349E-04-3.26394E-05-3.29162E-05-4.03985E-06 6.37247E-19-8.38444E-19
 -1      1572 1.18444E-04-3.54918E-05-3.55661E-05-2.71301E-06-1.77878E-19-4.15284E-19
 -1      1573 1.15602E-04-3.45646E-05-3.47367E-05-2.57302E-06 1.24267E-19 3.51810E-19
 -1      1574 1.13251E-04-3.38332E-05-3.40779E-05-4.76679E-06 1.47519E-19-9.95965E-19
 -1      1575 1.23758E-04-3.71737E-05-3.71003E-05-2.77392E-06-2.11396E-19 1.56145E-19
 -1      1576 1.20743E-04-3.61893E-05-3.62434E-05-2.70527E-06-2.59531E-19-9.73029E-20
 -1      1577 1.17603E-04-3.52379E-05-3.53286E-05-5.17940E-06-9.90284E-20-4.75265E-19
 -1      1578 1.28491E-04-3.87682E-05-3.83906E-05-2.20413E-06 4.90770E-19 4.37440E-19
 -1      1579 1.25875E-04-3.79217E-05-3.76894E-05-2.31947E-06 5.32109E-20 7.51927E-19
 -1      1580 1.21974E-04-3.67847E-05-3.64993E-05-4.79656E-06-3.79577E-19-4.28810E-20
 -1      1581 1.31014E-04-3.97889E-05-3.89410E-05-5.49261E-07 4.56088E-19 5.65792E-19
 -1      1582 1.29834E-04-3.94456E-05-3.87011E-05-1.00787E-06 3.95194E-20 1.07663E-18
 -1      1583 1.25514E-04-3.82713E-05-3.72994E-05-2.90685E-06-6.11452E-21 1.78282E-18
 -1      1584 1.29054E-04-3.94555E-05-3.81490E-05 2.48996E-06-4.94058E-19 4.65550E-19
 -1      1585 1.30737E-04-4.01382E-05-3.87406E-05 1.56470E-06 3.35465E-19 6.01896E-19
 -1      1586 1.26857E-04-3.92435E-05-3.73479E-05 1.19773E-06 4.52051E-19 8.80391E-19
 -1      1587 1.20571E-04-3.68989E-05-3.56224E-05 6.44807E-06-3.98635E-20 1.85437E-18
 -1      1588 1.26322E-04-3.90668E-05-3.72773E-05 5.17396E-06-2.40531E-19 1.31020E-18
 -1      1589 1.24321E-04-3.89049E-05-3.63278E-05 7.48225E-06-5.94141E-19 2.01403E-18
 -1      1590 1.05737E-04-3.18821E-05-3.16626E-05 9.46365E-06-1.26525E-18 3.41439E-18
 -1      1591 1.15239E-04-3.54081E-05-3.41638E-05 8.42097E-06-6.26712E-19 1.72731E-18
 -1      1592 1.16752E-04-3.63314E-05-3.42505E-05 1.40321E-05-7.23260E-19 2.99828E-18
 -1      1593 8.89264E-05-2.58429E-05-2.74842E-05 8.84897E-06 5.59545E-19 3.84077E-18
 -1      1594 9.92042E-05-2.95042E-05-3.00398E-05 8.89260E-06 1.39006E-19 3.17362E-18
 -1      1595 1.05145E-04-3.13940E-05-3.16441E-05 1.67712E-05-5.79953E-20 2.01731E-18
 -1      1596 7.79608E-05-2.20272E-05-2.46361E-05 3.81607E-06-2.51992E-20 3.17309E-18
 -1      1597 8.42042E-05-2.38489E-05-2.62541E-05 5.12375E-06 4.98241E-19 4.58859E-18
 -1      1598 9.38433E-05-2.60174E-05-2.93639E-05 1.20868E-05 6.18863E-20 2.71318E-18
 -1      1599 7.75283E-05-2.22745E-05-2.41671E-05-2.42756E-06 1.04423E-19 4.78351E-18
 -1      1600 7.71072E-05-2.14861E-05-2.42273E-05-7.34352E-07-4.18143E-19 3.64231E-18
 -1      1601 8.83322E-05-2.36985E-05-2.80598E-05 2.01523E-06-5.07267E-19 4.65360E-18
 -1      1602 8.51529E-05-2.55088E-05-2.56054E-05-5.51737E-06-1.32759E-19 4.13733E-18
 -1      1603 7.99495E-05-2.32036E-05-2.45067E-05-4.67531E-06 3.76189E-19 3.68904E-18
 -1      1604 9.01199E-05-2.54558E-05-2.79409E-05-6.69614E-06 4.40987E-19 2.94746E-18
 -1      1605 9.33005E-05-2.85593E-05-2.74735E-05-4.49571E-06 1.12357E-18 3.86501E-18
 -1      1606 8.79178E-05-2.66308E-05-2.61963E-05-4.68698E-06 6.04557E-19 4.67520E-18
 -1      1607 9.53746E-05-2.89503E-05-2.85151E-05-8.80195E-06 3.33466E-19 2.33696E-18
 -1      1608 9.77352E-05-2.99084E-05-2.87660E-05-1.51578E-06-1.41891E-19 3.21269E-18
 -1      1609 9.47217E-05-2.91154E-05-2.79250E-05-2.19864E-06 3.61842E-19 3.89212E-18
 -1      1610 9.92712E-05-3.11128E-05-2.91712E-05-5.33520E-06 6.97254E-19 4.11380E-18
 -1      1611 9.75798E-05-2.94827E-05-2.90372E-05 6.44386E-07 1.87942E-19 2.34749E-18
 -1      1612 9.73039E-05-2.96500E-05-2.88450E-05 1.64506E-07-8.32739E-20 2.68912E-18
 -1      1613 9.97403E-05-3.09672E-05-2.94399E-05-6.63335E-07-1.27174E-19 3.66974E-18
 -1      1614 9.58027E-05-2.85709E-05-2.87449E-05 6.74685E-07-1.63939E-18 2.07043E-18
 -1      1615 9.63498E-05-2.88238E-05-2.88735E-05 7.53016E-07-2.45573E-20 1.69794E-18
 -1      1616 9.76900E-05-2.93639E-05-2.92694E-05 1.40850E-06-5.30428E-19 1.62812E-18
 -1      1617 9.51624E-05-2.83983E-05-2.86056E-05 7.43472E-09 1.08320E-18 1.16071E-18
 -1      1618 9.51279E-05-2.54852E-05-2.99506E-05 2.18345E-06-4.66649E-19-2.49337E-18
 -1      1619 9.55381E-05-2.73647E-05-2.92425E-05 1.63222E-06 2.66851E-18-3.80360E-18
 -1      1620 9.32059E-05-1.79916E-05-3.23766E-05 5.84244E-06-3.26986E-18-1.52144E-18
 -1      1621 9.47569E-05-2.32388E-05-3.08007E-05 4.93633E-06-1.47000E-18-8.81735E-19
 -1      1622 9.60267E-05-2.52620E-05-3.05333E-05 6.81002E-06 1.37999E-18-3.87290E-18
 -1      1623 8.88725E-05-4.57941E-06-3.62535E-05 9.93097E-06-1.24789E-18 1.66921E-18
 -1      1624 9.19379E-05-1.35795E-05-3.37677E-05 9.04971E-06-3.60773E-18 6.38120E-19
 -1      1625 9.44131E-05-1.90178E-05-3.25538E-05 1.41204E-05 1.55139E-19-9.01878E-19
 -1      1626 8.25367E-05 1.26585E-05-4.07807E-05 1.17141E-05 5.61795E-19-1.05018E-18
 -1      1627 8.65534E-05 1.84202E-06-3.79738E-05 1.15732E-05-4.58139E-19 2.02041E-18
 -1      1628 9.01483E-05-8.28744E-06-3.52247E-05 2.03057E-05 9.62018E-19 3.40093E-18
 -1      1629 7.65482E-05 2.74442E-05-4.43384E-05 8.46084E-06-1.95569E-18-1.77970E-18
 -1      1630 7.98336E-05 1.91900E-05-4.22993E-05 9.63565E-06-2.40240E-19-2.10083E-18
 -1      1631 8.38406E-05 5.02121E-06-3.79011E-05 2.01045E-05 1.54107E-19-3.04132E-18
 -1      1632 7.43982E-05 3.22171E-05-4.53438E-05 1.01710E-06-9.63394E-19 7.15425E-19
 -1      1633 7.50425E-05 3.07020E-05-4.50020E-05 2.86697E-06-1.72906E-18-3.65124E-19
 -1      1634 7.84163E-05 1.53276E-05-3.96238E-05 1.07527E-05-3.41460E-21-1.30517E-18
 -1      1635 7.74347E-05 2.43645E-05-4.33727E-05-7.77641E-06-1.84547E-18-6.78791E-19
 -1      1636 7.50172E-05 3.06843E-05-4.49664E-05-5.99367E-06-1.37770E-18 3.91912E-19
 -1      1637 7.71391E-05 1.73780E-05-3.98567E-05-4.74158E-06-1.58892E-18 3.49031E-19
 -1      1638 8.43479E-05 6.61715E-06-3.89595E-05-1.27187E-05-3.02814E-18-5.99117E-19
 -1      1639 8.00303E-05 1.81180E-05-4.19206E-05-1.21719E-05-1.45309E-18-1.84333E-18
 -1      1640 8.11700E-05 9.21065E-06-3.83393E-05-1.88561E-05-1.12332E-18-1.15339E-18
 -1      1641 9.14985E-05-1.29859E-05-3.37927E-05-1.22942E-05-1.55494E-18 5.67380E-19
 -1      1642 8.73176E-05-1.17984E-06-3.69686E-05-1.28755E-05-1.73832E-18-1.31158E-20
 -1      1643 8.81000E-05-5.26806E-06-3.54901E-05-2.41819E-05-9.19031E-19 1.89722E-19
 -1      1644 9.64338E-05-2.80655E-05-2.94747E-05-8.45872E-06-1.20273E-18 2.39644E-19
 -1      1645 9.36405E-05-1.94879E-05-3.19125E-05-9.48146E-06-1.18881E-18 1.07282E-19
 -1      1646 9.42993E-05-1.96824E-05-3.22042E-05-2.06250E-05-1.68610E-18 5.55534E-19
 -1      1647 9.87138E-05-3.63672E-05-2.68378E-05-3.93088E-06-3.24685E-18-6.81134E-19
 -1      1648 9.74963E-05-3.20610E-05-2.81560E-05-4.84552E-06-1.69089E-18-5.66639E-19
 -1      1649 9.78944E-05-2.99230E-05-2.93973E-05-1.26978E-05-1.62625E-18-6.95943E-19
 -1      1650 9.89872E-05-3.86945E-05-2.58897E-05-3.58030E-07-1.40549E-18 2.00895E-18
 -1      1651 9.89559E-05-3.79548E-05-2.62026E-05-9.60081E-07-2.74785E-18 8.96201E-19
 -1      1652 9.90438E-05-3.51083E-05-2.76050E-05-4.78531E-06-2.79243E-18 5.42842E-19
 -1      1653 9.80947E-05-3.70781E-05-2.61537E-05 1.78669E-06 5.90964E-19-3.64085E-19
 -1      1654 9.87454E-05-3.85552E-05-2.58124E-05 1.48439E-06-7.06902E-19 1.22264E-18
 -1      1655 9.86622E-05-3.62218E-05-2.68783E-05 9.12721E-07-1.17223E-18 2.06950E-18
 -1      1656 9.67495E-05-3.36869E-05-2.70031E-05 2.47569E-06 1.42619E-18-9.61260E-19
 -1      1657 9.75812E-05-3.59764E-05-2.63981E-05 2.47594E-06 1.98275E-18-2.10734E-19
 -1      1658 9.74996E-05-3.47476E-05-2.69333E-05 3.93384E-06-1.08526E-20 8.28306E-19
 -1      1659 9.53914E-05-3.05395E-05-2.77792E-05 2.56058E-06-2.93444E-19-1.53133E-18
 -1      1660 9.61077E-05-3.24135E-05-2.72934E-05 2.97241E-06 1.48615E-18-2.23813E-18
 -1      1661 9.60507E-05-3.20948E-05-2.73331E-05 4.91459E-06 9.02573E-19-1.90726E-18
 -1      1662 9.40662E-05-2.96277E-05-2.75829E-05 4.64085E-06 1.79766E-18-2.00076E-18
 -1      1663 2.70498E-05-8.80747E-05 1.80460E-05-8.96810E-06 3.05355E-19 2.05787E-18
 -1      1664 3.07240E-05-9.82501E-05 2.01651E-05 1.68205E-06-5.44325E-19-9.01878E-19
 -1      1665 2.49001E-05-5.40731E-05 6.82716E-06 1.60789E-06 2.89685E-18 1.63308E-18
 -1      1666 3.12394E-05-8.16985E-05 1.36091E-05-1.62647E-06 1.06641E-18 1.94680E-18
 -1      1667 4.00995E-05-1.98066E-05-1.11537E-05 3.01863E-05 2.46487E-18 2.18026E-18
 -1      1668 3.56394E-05-4.64976E-05-1.15204E-06 1.03059E-05 3.99122E-18 1.13418E-18
 -1      1669 7.98435E-05-2.71690E-06-3.22135E-05 6.57509E-05 2.75286E-18 3.99461E-18
 -1      1670 5.52915E-05-1.26996E-05-2.10771E-05 3.90458E-05 1.59242E-18 3.51603E-18
 -1      1671 1.50782E-04-1.70516E-05-5.34558E-05 8.71547E-05 2.65968E-18 1.80249E-18
 -1      1672 1.06855E-04-6.31917E-06-4.25565E-05 7.01722E-05 2.83078E-18 2.38863E-18
 -1      1673 2.24876E-04-4.40376E-05-7.11377E-05 7.75314E-05 3.65071E-19 3.26108E-19
 -1      1674 1.75700E-04-2.13154E-05-6.25432E-05 8.33745E-05 1.83340E-18 1.47977E-18
 -1      1675 2.76960E-04-6.77432E-05-8.16409E-05 4.09633E-05 1.55388E-18-2.97309E-18
 -1      1676 2.46198E-04-4.96999E-05-7.76196E-05 7.16067E-05 1.14312E-18-2.42251E-19
 -1      1677 2.78934E-04-7.02266E-05-8.18941E-05-1.41437E-05 2.26158E-19-4.33723E-18
 -1      1678 2.83208E-04-7.09745E-05-8.30037E-05 2.46038E-05 6.79744E-19-4.43364E-18
 -1      1679 2.35716E-04-5.17113E-05-7.32775E-05-5.76619E-05 7.17437E-19-5.44303E-18
 -1      1680 2.71564E-04-6.93304E-05-7.89216E-05-3.10136E-05 3.95882E-19-5.49555E-18
 -1      1681 1.63651E-04-2.54877E-05-5.67376E-05-6.93372E-05 3.74389E-18-4.98055E-18
 -1      1682 2.13072E-04-4.59407E-05-6.59725E-05-6.63093E-05 2.41786E-18-3.75320E-18
 -1      1683 9.66206E-05-1.06424E-05-3.74178E-05-5.64214E-05 4.56720E-18-5.75728E-18
 -1      1684 1.36595E-04-1.93025E-05-4.75405E-05-7.24253E-05 4.56297E-18-5.13641E-18
 -1      1685 5.04914E-05-1.77655E-05-1.74076E-05-2.71933E-05 5.16521E-18-4.45709E-18
 -1      1686 7.34605E-05-9.44928E-06-2.76517E-05-5.05452E-05 5.12709E-18-5.00258E-18
 -1      1687 2.94108E-05-4.38875E-05 6.79207E-07-1.24929E-06 3.89805E-18-3.26446E-18
 -1      1688 3.39862E-05-2.16868E-05-8.18807E-06-1.86314E-05 4.75863E-18-4.71459E-18
 -1      1689 2.63105E-05-7.46691E-05 1.39128E-05 9.02739E-06 5.32614E-18-1.72263E-18
 -1      1690 2.06722E-05-5.10910E-05 7.88910E-06 6.13491E-06 4.60362E-18-1.47723E-18
 -1      1691 2.75798E-05-9.10426E-05 2.00610E-05 4.08599E-06 3.36886E-18-8.48727E-19
 -1      1692 2.32245E-05-8.01573E-05 1.78394E-05 1.28633E-05 4.73746E-18-2.27164E-18
 -1      1693 2.47848E-05-8.38185E-05 1.87563E-05-5.03289E-06 3.94379E-18 4.15681E-19
 -1      1694 2.72688E-05-9.15873E-05 2.04276E-05 5.93667E-06 3.88047E-18 1.01644E-20
 -1      1695 2.12481E-05-5.51164E-05 9.64127E-06-1.41757E-06 2.85535E-18 9.55453E-19
 -1      1696 2.69959E-05-7.73711E-05 1.50733E-05-8.01293E-07 3.28649E-18 1.02904E-18
 -1      1697 2.92100E-05-2.34942E-05-5.19965E-06 1.87993E-05-1.14519E-18-4.11531E-18
 -1      1698 2.85763E-05-4.77321E-05 3.04479E-06 5.35029E-06 2.04982E-18-2.43395E-18
 -1      1699 6.08312E-05-4.63709E-06-2.43356E-05 5.03766E-05-2.22007E-18-3.33731E-19
 -1      1700 4.32271E-05-1.79705E-05-1.40755E-05 2.70336E-05-2.78420E-18-1.42556E-18
 -1      1701 1.18775E-04-9.57124E-06-4.45752E-05 7.60638E-05 1.25361E-19 2.73083E-18
 -1      1702 8.20276E-05-3.93292E-06-3.42379E-05 5.71637E-05-1.70592E-18 9.18184E-19
 -1      1703 1.90387E-04-3.41431E-05-6.24993E-05 7.43939E-05 1.56511E-18 1.34678E-18
 -1      1704 1.45124E-04-1.59297E-05-5.35908E-05 7.30171E-05 1.17822E-18 1.66865E-18
 -1      1705 2.54994E-04-6.05982E-05-7.66479E-05 4.69934E-05 7.89858E-20 1.84314E-18
 -1      1706 2.14200E-04-3.96710E-05-7.03457E-05 7.02679E-05 9.73558E-19 1.91684E-18
 -1      1707 2.81091E-04-7.18128E-05-8.23714E-05-8.54071E-06 5.83606E-19 1.14614E-18
 -1      1708 2.70266E-04-6.65243E-05-8.07136E-05 3.02912E-05 8.37504E-19 1.86051E-18
 -1      1709 2.53832E-04-5.53156E-05-7.86995E-05-6.21906E-05 1.57993E-18-2.27090E-18
 -1      1710 2.77393E-04-6.95898E-05-8.17043E-05-2.83639E-05 1.48061E-18-8.98067E-19
 -1      1711 1.86093E-04-2.38777E-05-6.54377E-05-8.50534E-05 2.30266E-18-3.36526E-18
 -1      1712 2.32933E-04-4.74832E-05-7.31649E-05-7.26517E-05 1.34276E-18-3.05609E-18
 -1      1713 1.14016E-04-9.17064E-07-4.69757E-05-7.98607E-05 3.81419E-18-4.68070E-18
 -1      1714 1.59778E-04-1.58579E-05-5.71115E-05-9.25815E-05 3.13487E-18-4.46217E-18
 -1      1715 6.01173E-05-5.38568E-06-2.52674E-05-4.72458E-05 5.79879E-18-4.20891E-18
 -1      1716 8.92481E-05 6.91767E-07-3.66712E-05-7.40564E-05 4.83148E-18-3.56093E-18
 -1      1717 3.50520E-05-3.60813E-05-4.60335E-06-1.49755E-05 5.19739E-18-3.85485E-18
 -1      1718 4.20157E-05-1.08352E-05-1.48947E-05-3.71898E-05 5.72594E-18-4.30462E-18
 -1      1719 3.11400E-05-7.47600E-05 1.13337E-05-1.64690E-06 7.07611E-18-1.61063E-18
 -1      1720 2.54101E-05-4.51356E-05 3.73500E-06-7.53780E-06 6.48912E-18-1.92827E-18
 -1      1721 3.01889E-05-9.46016E-05 1.92504E-05-4.15534E-06 4.07846E-19-3.30936E-18
 -1      1722 2.55196E-05-8.00851E-05 1.61921E-05 4.65469E-06 6.34089E-18-3.42773E-18
 -1      1723 1.27591E-04-3.85257E-05-3.69487E-05 5.34818E-05 4.20128E-19 1.28749E-19
 -1      1724 8.20354E-05-4.48345E-05-1.75979E-05 4.64099E-05 1.56362E-18 2.88457E-18
 -1      1725 9.56624E-05-2.82017E-05-2.89434E-05 5.78012E-07 1.15874E-18-5.39964E-19
 -1      1726 9.62428E-05-2.78213E-05-2.94210E-05 2.44030E-06 1.73112E-20-2.00440E-18
 -1      1727 2.31850E-05-6.21967E-05 1.09806E-05 1.68534E-05 7.41154E-19 3.00485E-18
 -1      1728 4.71712E-05-5.45559E-05-7.36212E-07 3.40341E-05 1.94987E-18 1.85368E-18
 -1      1729 1.52093E-05-6.27077E-05 1.43096E-05-3.32861E-06 3.29401E-18-3.54272E-18
 -1      1730 1.73972E-04-3.74454E-05-5.51710E-05 4.65964E-05 9.58418E-19-1.14858E-18
 -1      1731 2.10038E-04-3.53890E-05-6.96865E-05 3.53489E-05 1.72054E-18-1.37219E-18
 -1      1732 2.32145E-04-3.68599E-05-7.71854E-05 1.96455E-05 2.07057E-18-2.28445E-18
 -1      1733 2.31988E-04-4.05788E-05-7.56999E-05-3.72588E-06 6.18334E-19-4.08185E-18
 -1      1734 2.05769E-04-4.09015E-05-6.58781E-05-2.28567E-05 1.80418E-18-5.20841E-18
 -1      1735 1.64415E-04-4.08265E-05-5.03255E-05-3.61386E-05 4.14051E-18-3.20433E-18
 -1      1736 1.16377E-04-4.06245E-05-3.22648E-05-3.95030E-05 3.23567E-18-3.45928E-18
 -1      1737 7.34088E-05-4.49205E-05-1.41976E-05-3.24043E-05 3.42625E-18-4.05602E-18
 -1      1738 4.06147E-05-5.26721E-05 1.46984E-06-2.06168E-05 3.12301E-18-1.85283E-18
 -1      1739 2.11095E-05-6.05213E-05 1.20878E-05-8.57976E-06 2.96970E-18-1.49480E-18
 -1      1740 1.38681E-05-6.37462E-05 1.61803E-05 1.87962E-06 2.89622E-18-5.44219E-19
 -1      1741 1.78722E-05-5.90033E-05 1.30030E-05 1.37004E-05 2.23532E-18 1.01305E-18
 -1      1742 3.48884E-05-5.04718E-05 3.25526E-06 2.64461E-05 2.31409E-18-2.56593E-18
 -1      1743 6.42175E-05-4.18963E-05-1.14368E-05 3.83228E-05 6.54756E-19-2.13706E-18
 -1      1744 1.04216E-04-3.56126E-05-2.92634E-05 4.64145E-05-1.88295E-18 1.74658E-18
 -1      1745 1.50300E-04-3.48658E-05-4.72940E-05 4.40685E-05 2.64698E-19 1.29342E-18
 -1      1746 1.91181E-04-3.53828E-05-6.30514E-05 3.22195E-05 1.07181E-18-6.36969E-19
 -1      1747 2.24401E-04-3.74909E-05-7.44777E-05 1.54310E-05 4.12505E-19 3.30343E-20
 -1      1748 2.34616E-04-3.86220E-05-7.77472E-05-1.17646E-05 2.63258E-18-3.05249E-19
 -1      1749 2.13935E-04-3.42417E-05-7.17929E-05-3.49759E-05 1.82769E-18-1.82451E-18
 -1      1750 1.77066E-04-3.07687E-05-5.87990E-05-5.15912E-05 3.18728E-18-3.93532E-18
 -1      1751 1.30609E-04-3.06976E-05-4.10073E-05-5.76051E-05 4.11404E-18-3.75744E-18
 -1      1752 8.56959E-05-3.80968E-05-2.13360E-05-4.98573E-05 4.16910E-18-2.94217E-18
 -1      1753 5.02200E-05-5.00622E-05-3.53913E-06-3.74679E-05 4.33596E-18-2.04103E-18
 -1      1754 2.55187E-05-5.81559E-05 8.92311E-06-2.24562E-05 3.28310E-18-2.98156E-18
 -1      1755 1.06061E-04-2.31737E-05-3.56065E-05-1.68511E-05-1.40151E-18 5.17918E-18
 -1      1756 8.91306E-05-1.05605E-05-3.37965E-05-1.33370E-05-1.71552E-18-2.14405E-18
 -1      1757 9.04606E-05-1.16291E-05-3.39369E-05-1.51110E-05-1.98411E-18-1.53189E-18
 -1      1758 9.24993E-05-1.38756E-05-3.38558E-05-1.59991E-05-1.99541E-18-8.01055E-19
 -1      1759 9.42156E-05-1.58266E-05-3.40997E-05-1.76598E-05-2.18677E-18 2.28170E-19
 -1      1760 9.34500E-05-1.63673E-05-3.30460E-05-1.37479E-05-2.13021E-18-1.02777E-18
 -1      1761 8.62071E-05-7.67160E-06-3.37295E-05-7.86163E-06-9.01984E-19-3.09520E-18
 -1      1762 8.66097E-05-7.97013E-06-3.37634E-05-9.25060E-06-1.13722E-18-2.93822E-18
 -1      1763 8.55895E-05-7.03450E-06-3.37259E-05-5.31899E-06-4.60399E-19-3.10888E-18
 -1      1764 8.58243E-05-7.21322E-06-3.37413E-05-6.62346E-06-6.45904E-19-3.13587E-18
 -1      1765 8.75888E-05-9.86546E-06-3.33429E-05-6.92730E-06-8.80403E-19-2.95779E-18
 -1      1766 8.52537E-05-6.67550E-06-3.37288E-05-2.88805E-06-4.52728E-20-3.13986E-18
 -1      1767 8.53749E-05-6.77026E-06-3.37348E-05-4.12743E-06-2.50911E-19-3.14114E-18
 -1      1768 8.69530E-05-9.15318E-06-3.33754E-05-4.53630E-06-3.63116E-19-3.01658E-18
 -1      1769 8.51227E-05-6.52735E-06-3.37321E-05-5.17397E-07 3.33614E-19-3.02510E-18
 -1      1770 8.51584E-05-6.55587E-06-3.37335E-05-1.72672E-06 1.78467E-19-3.12271E-18
 -1      1771 8.66201E-05-8.77391E-06-3.33951E-05-2.21678E-06 6.42862E-20-3.02211E-18
 -1      1772 8.51683E-05-6.56493E-06-3.37338E-05 1.84461E-06 6.81661E-19-2.87936E-18
 -1      1773 8.51264E-05-6.53194E-06-3.37320E-05 6.34277E-07 4.69516E-19-2.97004E-18
 -1      1774 8.65219E-05-8.66041E-06-3.34016E-05 6.53145E-08 4.15589E-19-2.92238E-18
 -1      1775 8.54003E-05-6.79539E-06-3.37350E-05 4.24991E-06 1.01979E-18-2.75479E-18
 -1      1776 8.52718E-05-6.69459E-06-3.37287E-05 3.00736E-06 8.67905E-19-2.85195E-18
 -1      1777 8.66380E-05-8.79364E-06-3.33944E-05 2.34865E-06 8.22485E-19-2.76615E-18
 -1      1778 8.58586E-05-7.24899E-06-3.37408E-05 6.71064E-06 1.42056E-18-2.44492E-18
 -1      1779 8.56198E-05-7.06661E-06-3.37257E-05 5.42363E-06 1.21223E-18-2.64625E-18
 -1      1780 8.69872E-05-9.19097E-06-3.33738E-05 4.65139E-06 1.18615E-18-2.57895E-18
 -1      1781 8.66738E-05-8.03927E-06-3.37621E-05 9.37176E-06 1.88960E-18-1.82083E-18
 -1      1782 8.62519E-05-7.72246E-06-3.37280E-05 7.95117E-06 1.61633E-18-2.15365E-18
 -1      1783 8.76409E-05-9.92403E-06-3.33399E-05 7.02605E-06 1.62959E-18-2.17034E-18
 -1      1784 8.80888E-05-9.38784E-06-3.38181E-05 1.22503E-05 2.22453E-18-1.12367E-18
 -1      1785 8.73474E-05-8.82959E-06-3.37457E-05 1.06574E-05 2.02166E-18-1.54848E-18
 -1      1786 8.87644E-05-1.11596E-05-3.32899E-05 9.49965E-06 2.07943E-18-1.53309E-18
 -1      1787 9.06357E-05-1.18411E-05-3.39289E-05 1.52987E-05 2.49691E-18 2.25575E-19
 -1      1788 8.92539E-05-1.07414E-05-3.37888E-05 1.35089E-05 2.33140E-18-5.81779E-19
 -1      1789 9.06646E-05-1.32233E-05-3.32078E-05 1.19712E-05 2.41499E-18-6.68296E-19
 -1      1790 9.58831E-05-1.70367E-05-3.39952E-05 1.76869E-05 2.41081E-18 2.60569E-18
 -1      1791 9.28623E-05-1.43449E-05-3.38287E-05 1.61898E-05 2.41539E-18 1.19736E-18
 -1      1792 9.39751E-05-1.68886E-05-3.30258E-05 1.38903E-05 2.59809E-18 8.03993E-19
 -1      1793 1.01933E-04-2.50972E-05-3.33617E-05 1.44197E-05 1.95633E-18 5.40089E-18
 -1      1794 9.80844E-05-1.96191E-05-3.36276E-05 1.69610E-05 2.17696E-18 3.56394E-18
 -1      1795 9.73370E-05-2.18567E-05-3.24299E-05 1.32447E-05 2.46804E-18 2.59094E-18
 -1      1796 9.87616E-05-2.61383E-05-3.13451E-05 9.43204E-06 1.94283E-18 4.80391E-18
 -1      1797 1.00165E-04-1.95669E-05-3.42204E-05-1.88666E-05-1.87005E-18 2.10636E-18
 -1      1798 9.53220E-05-2.72889E-05-2.91886E-05 4.06392E-06 1.62996E-18 3.73376E-18
 -1      1799 9.77515E-05-2.73938E-05-3.01974E-05 6.39803E-06 1.62834E-18 4.35026E-18
 -1      1800 9.75856E-05-2.56176E-05-3.08355E-05 8.75643E-06 2.02449E-18 3.08153E-18
 -1      1801 9.98243E-05-2.25450E-05-3.28384E-05-1.44660E-05-2.02343E-18 1.34223E-18
 -1      1802 9.69681E-05-2.69809E-05-2.98796E-05-5.70106E-06-1.66034E-18 1.03167E-18
 -1      1803 9.51627E-05-2.70377E-05-2.91691E-05-3.89438E-06-1.49303E-18 5.93400E-19
 -1      1804 9.43427E-05-2.72386E-05-2.86620E-05-2.41877E-06-1.41268E-18 7.23750E-19
 -1      1805 9.35723E-05-2.73192E-05-2.83573E-05-1.56512E-06-1.19841E-18 3.21078E-19
 -1      1806 9.55145E-05-2.65485E-05-2.95776E-05-4.47003E-06-1.66400E-18-1.09560E-19
 -1      1807 9.30477E-05-2.73701E-05-2.80887E-05-7.38694E-07-1.02314E-18 1.60863E-19
 -1      1808 9.27471E-05-2.74337E-05-2.79668E-05-3.00473E-07-8.97240E-19-1.70503E-19
 -1      1809 9.43053E-05-2.72239E-05-2.87697E-05-1.82602E-06-1.35883E-18-2.16000E-19
 -1      1810 9.24716E-05-2.74613E-05-2.78309E-05 1.54539E-07-6.78974E-19-3.53952E-19
 -1      1811 9.24408E-05-2.75376E-05-2.78011E-05 3.78281E-07-4.58900E-19-4.11126E-19
 -1      1812 9.36047E-05-2.75302E-05-2.83341E-05-3.59844E-07-9.52330E-19-5.62106E-19
 -1      1813 9.23373E-05-2.75691E-05-2.77428E-05 6.17429E-07-4.29043E-19-3.37569E-19
 -1      1814 9.24523E-05-2.76543E-05-2.77620E-05 7.20821E-07-4.03885E-19-6.18521E-19
 -1      1815 9.32838E-05-2.77152E-05-2.81131E-05 4.41489E-07-5.40405E-19-8.56663E-19
 -1      1816 9.24572E-05-2.76923E-05-2.77499E-05 8.30969E-07-3.49405E-19-6.01562E-19
 -1      1817 9.26445E-05-2.77790E-05-2.77944E-05 8.63861E-07-2.43585E-19-6.12134E-19
 -1      1818 9.32197E-05-2.78583E-05-2.80203E-05 8.51096E-07-4.71335E-19-9.38479E-19
 -1      1819 9.27123E-05-2.78203E-05-2.78089E-05 8.96104E-07-1.75519E-19-5.56318E-19
 -1      1820 9.29276E-05-2.79029E-05-2.78649E-05 8.87621E-07-1.69085E-19-5.46508E-19
 -1      1821 9.33131E-05-2.79817E-05-2.80042E-05 1.02425E-06-2.49817E-19-8.19116E-19
 -1      1822 9.30275E-05-2.79441E-05-2.78935E-05 8.73635E-07-5.89289E-19-3.86255E-19
 -1      1823 9.32444E-05-2.80190E-05-2.79523E-05 8.41910E-07-5.27076E-19-5.41227E-19
 -1      1824 9.34933E-05-2.80906E-05-2.80325E-05 1.05464E-06-3.00941E-19-7.71897E-19
 -1      1825 9.33564E-05-2.80576E-05-2.79872E-05 8.02057E-07-4.47288E-19-5.25319E-19
 -1      1826 9.35595E-05-2.81230E-05-2.80436E-05 7.58748E-07-4.31889E-19-8.46800E-19
 -1      1827 9.37124E-05-2.81855E-05-2.80842E-05 1.00148E-06-6.95470E-19-6.35452E-19
 -1      1828 9.36711E-05-2.81576E-05-2.80799E-05 7.06329E-07-3.88892E-19-1.05851E-18
 -1      1829 9.38524E-05-2.82130E-05-2.81312E-05 6.58988E-07-2.06548E-19-1.09644E-18
 -1      1830 9.39399E-05-2.82662E-05-2.81461E-05 9.03203E-07-4.97103E-19-7.24507E-19
 -1      1831 9.39565E-05-2.82428E-05-2.81659E-05 6.02689E-07-3.65589E-19-1.23278E-18
 -1      1832 9.41130E-05-2.82885E-05-2.82108E-05 5.56155E-07-3.40914E-19-1.48376E-18
 -1      1833 9.41572E-05-2.83333E-05-2.82099E-05 7.84990E-07-4.83537E-19-1.00133E-18
 -1      1834 9.42060E-05-2.83135E-05-2.82424E-05 5.01570E-07-1.83758E-19-1.54669E-18
 -1      1835 9.43376E-05-2.83503E-05-2.82807E-05 4.58875E-07-1.86945E-19-1.27976E-18
 -1      1836 9.43544E-05-2.83876E-05-2.82709E-05 6.63268E-07-3.18384E-19-1.05615E-18
 -1      1837 9.44184E-05-2.83707E-05-2.83086E-05 4.09539E-07-3.17830E-19-1.32209E-18
 -1      1838 9.45271E-05-2.83999E-05-2.83407E-05 3.72531E-07-3.73607E-19-1.15814E-18
 -1      1839 9.45273E-05-2.84304E-05-2.83265E-05 5.48584E-07-1.65596E-19-7.63938E-19
 -1      1840 9.45962E-05-2.84163E-05-2.83650E-05 3.30651E-07-5.52386E-19-1.42618E-18
 -1      1841 9.46853E-05-2.84390E-05-2.83916E-05 3.00454E-07-3.05831E-19-1.64591E-18
 -1      1842 9.46757E-05-2.84635E-05-2.83760E-05 4.47609E-07-6.34290E-19-1.17964E-18
 -1      1843 9.47444E-05-2.84521E-05-2.84127E-05 2.67442E-07-1.48844E-19-1.90195E-18
 -1      1844 9.48180E-05-2.84698E-05-2.84350E-05 2.44791E-07-1.91274E-19-1.68694E-18
 -1      1845 9.48021E-05-2.84884E-05-2.84196E-05 3.64577E-07-4.03367E-19-1.55165E-18
 -1      1846 9.48697E-05-2.84804E-05-2.84539E-05 2.21669E-07-2.27941E-19-2.22924E-18
 -1      1847 9.49325E-05-2.84945E-05-2.84732E-05 2.07165E-07-3.19208E-19-2.06586E-18
 -1      1848 9.49108E-05-2.85069E-05-2.84584E-05 3.02350E-07-4.32306E-19-1.87834E-18
 -1      1849 9.49799E-05-2.85034E-05-2.84908E-05 1.94853E-07-4.04667E-19-1.74381E-18
 -1      1850 9.50371E-05-2.85154E-05-2.85087E-05 1.89151E-07-7.03631E-19-1.83692E-18
 -1      1851 9.50075E-05-2.85207E-05-2.84942E-05 2.63202E-07-2.41373E-19-1.46922E-18
 -1      1852 9.50838E-05-2.85238E-05-2.85262E-05 1.88689E-07-8.48147E-19-1.74317E-18
 -1      1853 9.51413E-05-2.85353E-05-2.85443E-05 1.92628E-07-2.28557E-19-1.97240E-18
 -1      1854 9.50989E-05-2.85317E-05-2.85290E-05 2.49399E-07-7.33642E-19-1.28373E-18
 -1      1855 9.51915E-05-2.85440E-05-2.85632E-05 2.05311E-07-6.40291E-20-2.62891E-18
 -1      1856 9.52557E-05-2.85568E-05-2.85835E-05 2.19993E-07-4.30874E-19-2.72561E-18
 -1      1857 9.51930E-05-2.85418E-05-2.85653E-05 2.63598E-07-7.19896E-19-1.96060E-18
 -1      1858 9.53142E-05-2.85672E-05-2.86054E-05 2.47435E-07-1.80509E-19-2.49420E-18
 -1      1859 9.53924E-05-2.85834E-05-2.86300E-05 2.74239E-07-5.01342E-19-2.23503E-18
 -1      1860 9.52984E-05-2.85530E-05-2.86061E-05 3.09079E-07-2.01174E-19-2.30427E-18
 -1      1861 9.54644E-05-2.85969E-05-2.86567E-05 3.18343E-07-7.17248E-19-1.60681E-18
 -1      1862 9.55647E-05-2.86187E-05-2.86878E-05 3.58862E-07-8.99476E-21-1.04102E-18
 -1      1863 9.54253E-05-2.85680E-05-2.86545E-05 3.89781E-07-2.59766E-19-1.20592E-18
 -1      1864 9.56563E-05-2.86370E-05-2.87213E-05 4.21671E-07 2.94007E-19-1.08032E-18
 -1      1865 9.57877E-05-2.86673E-05-2.87616E-05 4.77531E-07 6.87675E-19-1.41173E-18
 -1      1866 9.55850E-05-2.85899E-05-2.87141E-05 5.10104E-07-2.23746E-20-1.04332E-20
 -1      1867 9.59055E-05-2.86925E-05-2.88039E-05 5.60909E-07 2.79628E-19-1.94142E-18
 -1      1868 9.60779E-05-2.87346E-05-2.88562E-05 6.33440E-07 7.24039E-20-2.02546E-18
 -1      1869 9.57902E-05-2.86227E-05-2.87884E-05 6.74384E-07 8.96767E-20-1.01845E-18
 -1      1870 9.62289E-05-2.87693E-05-2.89092E-05 7.38515E-07 4.10396E-19-2.23339E-18
 -1      1871 9.64524E-05-2.88269E-05-2.89762E-05 8.28183E-07 1.09935E-19-2.13392E-18
 -1      1872 9.60546E-05-2.86715E-05-2.88814E-05 8.85924E-07 3.49158E-19-2.45613E-18
 -1      1873 9.66439E-05-2.88741E-05-2.90418E-05 9.54466E-07-1.29072E-19-2.04318E-18
 -1      1874 9.69283E-05-2.89515E-05-2.91260E-05 1.06000E-06 8.59577E-20-2.56137E-18
 -1      1875 9.63928E-05-2.87428E-05-2.89963E-05 1.14540E-06 3.49039E-19-2.27661E-18
 -1      1876 9.71671E-05-2.90151E-05-2.92054E-05 1.20406E-06 2.16569E-19-2.88994E-18
 -1      1877 9.75200E-05-2.91168E-05-2.93086E-05 1.32116E-06 3.26058E-20-2.53557E-18
 -1      1878 9.68196E-05-2.88454E-05-2.91357E-05 1.44841E-06-1.00131E-19-1.89311E-18
 -1      1879 9.78116E-05-2.92010E-05-2.94020E-05 1.47477E-06-1.50403E-19-2.40778E-18
 -1      1880 9.82366E-05-2.93315E-05-2.95244E-05 1.59433E-06-2.20330E-19-2.12341E-18
 -1      1881 9.73482E-05-2.89901E-05-2.93005E-05 1.78201E-06 1.22082E-19-2.39266E-18
 -1      1882 9.85841E-05-2.94416E-05-2.96302E-05 1.74199E-06-1.00738E-18-2.01801E-18
 -1      1883 9.90768E-05-2.96044E-05-2.97695E-05 1.84780E-06-1.56447E-18-2.39875E-18
 -1      1884 9.79887E-05-2.91907E-05-2.94891E-05 2.11992E-06-7.47336E-19-2.55481E-18
 -1      1885 9.94787E-05-2.97457E-05-2.98840E-05 1.96378E-06-1.27286E-18-1.73453E-18
 -1      1886 1.00022E-04-2.99421E-05-3.00340E-05 2.02999E-06-5.13607E-19-1.62354E-18
 -1      1887 9.87445E-05-2.94632E-05-2.96959E-05 2.41661E-06-8.14359E-19-1.82696E-18
 -1      1888 1.00470E-04-3.01194E-05-3.01499E-05 2.07534E-06-5.18255E-19-1.47754E-18
 -1      1889 1.01029E-04-3.03461E-05-3.02990E-05 2.06425E-06-1.94137E-19-1.53571E-18
 -1      1890 9.96082E-05-2.98252E-05-2.99101E-05 2.60081E-06-5.76989E-19-5.17519E-19
 -1      1891 1.01505E-04-3.05618E-05-3.04052E-05 1.98496E-06-1.23706E-19-2.06530E-18
 -1      1892 1.02019E-04-3.08074E-05-3.05350E-05 1.84678E-06 7.12765E-20-1.92989E-18
 -1      1893 1.00555E-04-3.02917E-05-3.01143E-05 2.57015E-06-5.07388E-19-2.52768E-19
 -1      1894 1.02487E-04-3.10572E-05-3.06164E-05 1.57544E-06 2.93065E-19-1.80414E-18
 -1      1895 1.02866E-04-3.12963E-05-3.07009E-05 1.25264E-06 9.59554E-19-1.31226E-18
 -1      1896 1.01535E-04-3.08670E-05-3.02847E-05 2.19086E-06 2.56651E-19 2.28478E-19
 -1      1897 1.03273E-04-3.15625E-05-3.07395E-05 7.17688E-07 6.85150E-19-1.16182E-18
 -1      1898 1.03396E-04-3.17493E-05-3.07467E-05 1.58168E-07 7.77454E-19-1.51342E-18
 -1      1899 1.02457E-04-3.15290E-05-3.03922E-05 1.30924E-06 6.96347E-19-2.87362E-19
 -1      1900 1.03657E-04-3.19899E-05-3.07242E-05-6.93715E-07 4.93774E-19-1.71287E-18
 -1      1901 1.03380E-04-3.20521E-05-3.06208E-05-1.51057E-06 2.37437E-19-1.12159E-18
 -1      1902 1.03181E-04-3.22040E-05-3.04069E-05-2.14794E-07 4.91163E-19-3.48390E-19
 -1      1903 1.03381E-04-3.21913E-05-3.05238E-05-2.67436E-06 7.46315E-20-9.98661E-19
 -1      1904 1.02567E-04-3.20317E-05-3.02840E-05-3.69847E-06 5.01864E-19-9.74417E-19
 -1      1905 1.03498E-04-3.27378E-05-3.03057E-05-2.44058E-06 4.82150E-19 1.78104E-19
 -1      1906 1.02172E-04-3.19594E-05-3.01097E-05-5.05636E-06 8.51089E-19-1.23848E-18
 -1      1907 1.00739E-04-3.14778E-05-2.97277E-05-6.12627E-06 6.93419E-19-8.68096E-19
 -1      1908 1.03140E-04-3.28803E-05-3.00817E-05-5.24322E-06 9.87412E-19-2.63216E-19
 -1      1909 9.98334E-05-3.10784E-05-2.94886E-05-7.40255E-06-6.07812E-21-9.19166E-19
 -1      1910 9.78261E-05-3.02229E-05-2.89906E-05-8.23361E-06-1.93468E-19-9.93265E-19
 -1      1911 1.01830E-04-3.23248E-05-2.97519E-05-8.19970E-06 9.29950E-20-7.94373E-19
 -1      1912 9.64000E-05-2.94469E-05-2.87148E-05-9.00968E-06-1.41271E-19-1.13267E-18
 -1      1913 9.40480E-05-2.82890E-05-2.81636E-05-9.25522E-06-6.62662E-19-7.70853E-19
 -1      1914 9.94204E-05-3.08442E-05-2.93562E-05-1.05434E-05-4.72067E-19-1.10336E-18
 -1      1915 9.22991E-05-2.72480E-05-2.78884E-05-9.10466E-06-1.32113E-18-1.13868E-18
 -1      1916 9.00195E-05-2.60301E-05-2.73730E-05-8.51168E-06-8.67243E-19-1.39203E-18
 -1      1917 9.60960E-05-2.85179E-05-2.89469E-05-1.13131E-05-1.38103E-18-8.63474E-19
 -1      1918 8.83707E-05-2.50266E-05-2.71337E-05-7.24619E-06-7.87383E-19-1.48295E-18
 -1      1919 8.66613E-05-2.41052E-05-2.67457E-05-5.83979E-06 1.58117E-19-1.26991E-18
 -1      1920 9.25154E-05-2.58941E-05-2.85691E-05-9.77982E-06-3.98827E-19 7.93663E-20
 -1      1921 8.56018E-05-2.35108E-05-2.65675E-05-3.71404E-06 1.51068E-18-1.53117E-18
 -1      1922 8.48451E-05-2.31800E-05-2.63737E-05-1.86474E-06 1.24418E-18-1.72011E-19
 -1      1923 8.96649E-05-2.38619E-05-2.82476E-05-5.98572E-06 4.28089E-19 3.91577E-19
 -1      1924 8.46388E-05-2.31933E-05-2.62709E-05 4.73501E-07 3.68175E-19 5.12042E-19
 -1      1925 8.49300E-05-2.35032E-05-2.62928E-05 2.21253E-06 6.63558E-19 9.42989E-19
 -1      1926 8.83646E-05-2.31647E-05-2.79942E-05-9.62284E-07 1.34977E-18 7.13399E-19
 -1      1927 8.54420E-05-2.40061E-05-2.62693E-05 4.06800E-06 6.49515E-19 1.04288E-18
 -1      1928 8.65661E-05-2.47496E-05-2.64790E-05 5.25585E-06 1.03378E-18 1.45592E-18
 -1      1929 8.87529E-05-2.39065E-05-2.78208E-05 3.72634E-06 1.09325E-18 1.31254E-18
 -1      1930 8.73963E-05-2.54274E-05-2.65226E-05 6.25182E-06 5.03627E-19 8.42980E-19
 -1      1931 8.89726E-05-2.63153E-05-2.68503E-05 6.73399E-06 5.04656E-19 1.79644E-19
 -1      1932 9.02397E-05-2.55234E-05-2.77357E-05 6.85063E-06 3.06490E-19 1.68840E-18
 -1      1933 8.97643E-05-2.69308E-05-2.69243E-05 6.90139E-06 2.88234E-19-6.21947E-19
 -1      1934 9.14134E-05-2.77876E-05-2.72704E-05 6.72286E-06 9.38863E-19-4.69839E-22
 -1      1935 9.19834E-05-2.72750E-05-2.77179E-05 8.04456E-06-1.07207E-19 9.76464E-19
 -1      1936 9.19390E-05-2.82618E-05-2.72997E-05 6.28821E-06 1.46944E-18-1.08702E-18
 -1      1937 9.34381E-05-2.91239E-05-2.75782E-05 5.47351E-06 1.32433E-18-1.29362E-18
 -1      1938 9.45073E-05-3.01008E-05-2.75878E-05 6.25748E-06 8.91271E-19-2.50789E-18
 -1      1939 9.33937E-05-2.87686E-05-2.76711E-05 7.66440E-06 5.98359E-19-4.22567E-19
 -1      1940 9.32240E-05-2.73662E-05-2.81969E-05 1.60217E-06 1.35357E-18 2.95090E-18
 -1      1941 9.44177E-05-2.74713E-05-2.86332E-05 2.67329E-06 1.47875E-18 3.47163E-18
 -1      1942 9.52403E-05-2.70501E-05-2.92298E-05 4.05033E-06 1.72747E-18 2.41428E-18
 -1      1943 9.21736E-05-2.73532E-05-2.77556E-05 3.45332E-07 1.01692E-18 2.36731E-18
 -1      1944 9.26670E-05-2.73852E-05-2.79277E-05 8.93494E-07 1.06027E-18 2.66575E-18
 -1      1945 9.36372E-05-2.73715E-05-2.84064E-05 1.58148E-06 1.33705E-18 2.00674E-18
 -1      1946 9.17997E-05-2.73914E-05-2.75879E-05-3.07886E-07 3.44794E-19 1.92613E-18
 -1      1947 9.19138E-05-2.73643E-05-2.76346E-05-1.54120E-08 6.87721E-19 2.17842E-18
 -1      1948 9.28073E-05-2.74871E-05-2.80044E-05 2.68790E-07 9.28639E-19 1.59796E-18
 -1      1949 9.18246E-05-2.74823E-05-2.75651E-05-6.33188E-07 9.13191E-20 1.48109E-18
 -1      1950 9.17359E-05-2.74201E-05-2.75485E-05-4.80532E-07 1.59832E-19 1.66787E-18
 -1      1951 9.24944E-05-2.75804E-05-2.78303E-05-4.24351E-07 3.12531E-19 1.10578E-18
 -1      1952 9.20695E-05-2.76046E-05-2.76208E-05-7.70154E-07 2.64508E-19 1.64629E-18
 -1      1953 9.18781E-05-2.75257E-05-2.75720E-05-6.99226E-07 1.44789E-19 1.53321E-18
 -1      1954 9.24984E-05-2.76860E-05-2.77850E-05-7.68534E-07 2.31087E-19 8.04888E-19
 -1      1955 9.24223E-05-2.77390E-05-2.77163E-05-7.96235E-07 4.28874E-19 1.52602E-18
 -1      1956 9.21869E-05-2.76555E-05-2.76530E-05-7.74468E-07 3.66945E-19 1.68057E-18
 -1      1957 9.26831E-05-2.78015E-05-2.78124E-05-9.08179E-07 4.12318E-19 6.46850E-19
 -1      1958 9.28133E-05-2.78720E-05-2.78282E-05-7.58049E-07 7.69503E-19 1.04201E-18
 -1      1959 9.25688E-05-2.77914E-05-2.77608E-05-7.65602E-07 7.13844E-19 1.36226E-18
 -1      1960 9.29591E-05-2.79183E-05-2.78788E-05-9.26606E-07 7.86477E-19 6.94411E-19
 -1      1961 9.32000E-05-2.79955E-05-2.79420E-05-6.85022E-07 2.76258E-19 1.12365E-18
 -1      1962 9.29668E-05-2.79220E-05-2.78767E-05-7.09191E-07 5.36276E-19 1.07567E-18
 -1      1963 9.32696E-05-2.80292E-05-2.79629E-05-8.75007E-07 6.70566E-19 6.05640E-19
 -1      1964 9.35583E-05-2.81052E-05-2.80493E-05-5.96138E-07 2.70696E-19 6.45488E-19
 -1      1965 9.33473E-05-2.80408E-05-2.79897E-05-6.28604E-07 3.93334E-19 8.15949E-19
 -1      1966 9.35793E-05-2.81296E-05-2.80516E-05-7.86059E-07 5.37440E-19 6.59139E-19
 -1      1967 9.38759E-05-2.81994E-05-2.81457E-05-5.03643E-07 3.92278E-19 5.24992E-19
 -1      1968 9.36922E-05-2.81447E-05-2.80933E-05-5.38947E-07 2.51929E-19 5.20731E-19
 -1      1969 9.38678E-05-2.82170E-05-2.81371E-05-6.80940E-07 3.43276E-19 1.95836E-19
 -1      1970 9.41484E-05-2.82779E-05-2.82292E-05-4.15299E-07 8.02645E-19 4.34530E-19
 -1      1971 9.39930E-05-2.82327E-05-2.81846E-05-4.49904E-07 6.43926E-19 6.23846E-19
 -1      1972 9.41248E-05-2.82908E-05-2.82152E-05-5.73331E-07 6.93898E-19 2.95269E-19
 -1      1973 9.43767E-05-2.83420E-05-2.82999E-05-3.35891E-07 4.22987E-19 3.07321E-19
 -1      1974 9.42482E-05-2.83054E-05-2.82627E-05-3.67546E-07 4.04345E-19 3.16224E-19
 -1      1975 9.43466E-05-2.83515E-05-2.82839E-05-4.71917E-07 5.15746E-19 1.66690E-19
 -1      1976 9.45651E-05-2.83934E-05-2.83588E-05-2.68290E-07-1.52640E-19 1.64273E-19
 -1      1977 9.44604E-05-2.83642E-05-2.83283E-05-2.95580E-07 2.01748E-19 3.54588E-19
 -1      1978 9.45338E-05-2.84005E-05-2.83430E-05-3.82091E-07 3.18821E-19 1.89338E-19
 -1      1979 9.47200E-05-2.84343E-05-2.84078E-05-2.14247E-07 2.73883E-19-4.63916E-19
 -1      1980 9.46350E-05-2.84112E-05-2.83827E-05-2.36249E-07 6.21163E-20-1.14812E-19
 -1      1981 9.46902E-05-2.84394E-05-2.83932E-05-3.07181E-07 3.05431E-19-1.46226E-19
 -1      1982 9.48492E-05-2.84671E-05-2.84491E-05-1.74997E-07 2.01575E-19-1.08312E-18
 -1      1983 9.47793E-05-2.84487E-05-2.84282E-05-1.91016E-07 7.49930E-20-7.52431E-19
 -1      1984 9.48216E-05-2.84702E-05-2.84363E-05-2.49360E-07 5.53348E-19-5.67745E-19
 -1      1985 9.49620E-05-2.84946E-05-2.84856E-05-1.51730E-07 7.11018E-19-1.10627E-18
 -1      1986 9.49019E-05-2.84793E-05-2.84673E-05-1.61089E-07 7.07753E-19-9.39055E-19
 -1      1987 9.49349E-05-2.84951E-05-2.84743E-05-2.10347E-07 7.47294E-19-8.43544E-19
 -1      1988 9.50687E-05-2.85196E-05-2.85204E-05-1.45982E-07-4.30426E-19-2.05009E-18
 -1      1989 9.50124E-05-2.85056E-05-2.85030E-05-1.47842E-07 2.08145E-19-1.55440E-18
 -1      1990 9.50388E-05-2.85164E-05-2.85098E-05-1.91964E-07 4.91139E-19-1.30041E-18
 -1      1991 9.51810E-05-2.85453E-05-2.85572E-05-1.59970E-07-1.01147E-18-1.52242E-18
 -1      1992 9.51220E-05-2.85308E-05-2.85388E-05-1.53174E-07-8.28853E-19-2.18867E-18
 -1      1993 9.51426E-05-2.85365E-05-2.85459E-05-1.96602E-07-7.17695E-19-1.96982E-18
 -1      1994 9.53126E-05-2.85753E-05-2.86003E-05-1.96901E-07 3.46900E-19-1.36521E-18
 -1      1995 9.52431E-05-2.85581E-05-2.85785E-05-1.79820E-07-4.28983E-19-1.27501E-18
 -1      1996 9.52577E-05-2.85583E-05-2.85861E-05-2.27622E-07-4.64057E-19-2.18207E-18
 -1      1997 9.54795E-05-2.86140E-05-2.86547E-05-2.61287E-07 1.10230E-18-8.97515E-19
 -1      1998 9.53905E-05-2.85915E-05-2.86268E-05-2.31664E-07 7.81190E-19-9.78817E-19
 -1      1999 9.53970E-05-2.85849E-05-2.86348E-05-2.89744E-07 7.66659E-19-1.98267E-18
 -1      2000 9.57012E-05-2.86663E-05-2.87265E-05-3.59276E-07-9.03248E-20-1.36404E-18
 -1      2001 9.55817E-05-2.86355E-05-2.86893E-05-3.14048E-07 6.42686E-19-8.56624E-19
 -1      2002 9.55759E-05-2.86200E-05-2.86968E-05-3.89430E-07 6.94217E-19-1.65992E-18
 -1      2003 9.60012E-05-2.87385E-05-2.88231E-05-4.99015E-07-1.26875E-18-1.33262E-18
 -1      2004 9.58377E-05-2.86956E-05-2.87725E-05-4.34116E-07-9.42787E-19-1.60851E-18
 -1      2005 9.58129E-05-2.86679E-05-2.87784E-05-5.35296E-07-5.44505E-19-1.91465E-18
 -1      2006 9.64084E-05-2.88382E-05-2.89536E-05-6.91048E-07-1.04198E-18-5.04109E-19
 -1      2007 9.61843E-05-2.87784E-05-2.88846E-05-6.01183E-07-1.16567E-18-9.27735E-19
 -1      2008 9.61303E-05-2.87340E-05-2.88867E-05-7.38541E-07-1.39203E-18-1.23718E-18
 -1      2009 9.69586E-05-2.89749E-05-2.91290E-05-9.48708E-07-1.64674E-19-1.63609E-19
 -1      2010 9.66530E-05-2.88923E-05-2.90355E-05-8.27108E-07-4.48705E-19-2.33487E-19
 -1      2011 9.65550E-05-2.88246E-05-2.90307E-05-1.01338E-06-6.80172E-19-1.57354E-18
 -1      2012 9.76948E-05-2.91602E-05-2.93629E-05-1.28836E-06 7.72003E-19 1.78435E-19
 -1      2013 9.72821E-05-2.90474E-05-2.92373E-05-1.12659E-06 8.21584E-19 1.85726E-19
 -1      2014 9.71193E-05-2.89476E-05-2.92208E-05-1.37738E-06 6.94763E-19-5.72617E-19
 -1      2015 9.86691E-05-2.94086E-05-2.96714E-05-1.72916E-06-4.32579E-19-5.73183E-20
 -1      2016 9.81180E-05-2.92563E-05-2.95045E-05-1.51712E-06 1.91492E-20-5.45964E-20
 -1      2017 9.78615E-05-2.91128E-05-2.94693E-05-1.85138E-06 1.97566E-19-2.66189E-19
 -1      2018 9.99426E-05-2.97382E-05-3.00729E-05-2.29173E-06 1.82822E-19-2.98755E-19
 -1      2019 9.92160E-05-2.95347E-05-2.98541E-05-2.01817E-06-3.62676E-19-7.67901E-19
 -1      2020 9.88265E-05-2.93323E-05-2.97902E-05-2.45850E-06 8.55636E-21-1.18066E-18
 -1      2021 1.01584E-04-3.01713E-05-3.05876E-05-2.99413E-06-3.03747E-19 1.58875E-19
 -1      2022 1.00640E-04-2.99025E-05-3.03051E-05-2.64844E-06 2.00562E-19 9.27791E-20
 -1      2023 1.00065E-04-2.96224E-05-3.01983E-05-3.22103E-06 1.24742E-19 2.01789E-19
 -1      2024 1.03664E-04-3.07365E-05-3.12346E-05-3.84266E-06-2.55549E-19-4.36341E-19
 -1      2025 1.02458E-04-3.03851E-05-3.08767E-05-3.41925E-06-4.33026E-19-7.74581E-19
 -1      2026 1.01631E-04-3.00057E-05-3.07074E-05-4.15291E-06-6.09913E-20-3.12527E-19
 -1      2027 1.06245E-04-3.14704E-05-3.20265E-05-4.81256E-06 3.38944E-19-1.54425E-18
 -1      2028 1.04742E-04-3.10165E-05-3.15849E-05-4.32040E-06 1.10773E-19-6.55299E-19
 -1      2029 1.03580E-04-3.05162E-05-3.13267E-05-5.24385E-06 3.05309E-19-1.14118E-18
 -1      2030 1.09358E-04-3.24206E-05-3.29588E-05-5.81165E-06 3.09284E-19-8.49362E-19
 -1      2031 1.07545E-04-3.18425E-05-3.24349E-05-5.29286E-06 3.37893E-19-1.25456E-18
 -1      2032 1.05961E-04-3.12078E-05-3.20542E-05-6.42891E-06 2.51781E-19-1.60360E-18
 -1      2033 1.12962E-04-3.36463E-05-3.39926E-05-6.61875E-06-3.37270E-19 5.59703E-20
 -1      2034 1.10885E-04-3.29259E-05-3.34084E-05-6.18085E-06 1.48042E-19 8.30754E-20
 -1      2035 1.08805E-04-3.21666E-05-3.28662E-05-7.53541E-06-1.68702E-19 2.08741E-19
 -1      2036 1.16886E-04-3.52085E-05-3.50305E-05-6.79782E-06-2.35088E-19 6.92635E-19
 -1      2037 1.14697E-04-3.43451E-05-3.44444E-05-6.66004E-06-2.53183E-19 3.58705E-19
 -1      2038 1.12106E-04-3.35217E-05-3.37041E-05-8.20274E-06-2.64182E-19 1.03869E-18
 -1      2039 1.20736E-04-3.71207E-05-3.58949E-05-5.62309E-06-2.81771E-20 3.97477E-19
 -1      2040 1.18758E-04-3.61673E-05-3.54175E-05-6.15878E-06-4.03558E-19 3.53636E-19
 -1      2041 1.15785E-04-3.54284E-05-3.44647E-05-7.79134E-06-9.56221E-20 1.62417E-18
 -1      2042 1.23783E-04-3.92002E-05-3.63369E-05-2.14009E-06-6.86097E-20 1.00441E-18
 -1      2043 1.22567E-04-3.83451E-05-3.61300E-05-3.84785E-06-2.31055E-19 2.96931E-19
 -1      2044 1.19606E-04-3.79572E-05-3.50092E-05-5.35560E-06 7.28382E-20-1.07044E-19
 -1      2045 1.24860E-04-4.07621E-05-3.61244E-05 4.34584E-06-5.14520E-19 1.00002E-18
 -1      2046 1.25166E-04-4.04497E-05-3.63501E-05 1.10182E-06-3.59989E-20 1.13886E-18
 -1      2047 1.22969E-04-4.07616E-05-3.52196E-05 1.18070E-07-4.44282E-19 1.12426E-18
 -1      2048 1.22446E-04-4.03560E-05-3.52236E-05 1.30547E-05-1.15378E-18 2.04360E-18
 -1      2049 1.25006E-04-4.12968E-05-3.59329E-05 8.68532E-06-1.15265E-18 6.71049E-19
 -1      2050 1.24612E-04-4.25509E-05-3.51146E-05 8.85304E-06-8.61433E-19 6.03686E-19
 -1      2051 1.15447E-04-3.63218E-05-3.39234E-05 2.02937E-05-3.74011E-19 2.07973E-18
 -1      2052 1.20400E-04-3.90413E-05-3.49592E-05 1.67129E-05-7.39552E-19 2.18609E-18
 -1      2053 1.22687E-04-4.10750E-05-3.49262E-05 1.86892E-05-1.33006E-18 8.72285E-19
 -1      2054 1.04975E-04-2.89221E-05-3.27308E-05 2.01458E-05 4.95832E-19 1.46050E-18
 -1      2055 1.11135E-04-3.27779E-05-3.37331E-05 2.02801E-05 1.06435E-19 2.18074E-18
 -1      2056 1.16042E-04-3.47996E-05-3.49177E-05 2.42837E-05 1.83409E-19 1.65482E-18
 -1      2057 9.66602E-05-2.34007E-05-3.17038E-05 9.86806E-06-1.08833E-18 3.82986E-18
 -1      2058 1.00944E-04-2.55107E-05-3.25017E-05 1.45803E-05-8.03305E-19 2.45417E-18
 -1      2059 1.07293E-04-2.65360E-05-3.47647E-05 1.95102E-05-8.92190E-19 2.64067E-18
 -1      2060 9.50260E-05-2.35971E-05-3.09362E-05-3.64358E-06-1.61254E-19 2.83362E-18
 -1      2061 9.58059E-05-2.29071E-05-3.12954E-05 2.48234E-06-3.21131E-19 3.72499E-18
 -1      2062 1.02670E-04-2.25723E-05-3.45081E-05 4.89468E-06-3.43895E-19 3.13852E-18
 -1      2063 9.94426E-05-2.89035E-05-3.03929E-05-1.08882E-05 8.33083E-19 2.14088E-18
 -1      2064 9.71421E-05-2.63400E-05-3.03895E-05-7.84902E-06 6.91338E-19 2.30584E-18
 -1      2065 1.03828E-04-2.62025E-05-3.34006E-05-8.26426E-06 6.23681E-19 1.04963E-18
 -1      2066 1.03674E-04-3.32608E-05-3.01325E-05-9.03674E-06 4.96965E-19 2.62461E-18
 -1      2067 1.01099E-04-3.13649E-05-2.99422E-05-9.83797E-06-2.15821E-19 1.99569E-18
 -1      2068 1.07505E-04-3.28124E-05-3.20394E-05-1.14899E-05-7.62859E-20 1.75961E-18
 -1      2069 1.04337E-04-3.39895E-05-2.99999E-05-2.64772E-06-5.14946E-19 2.54287E-18
 -1      2070 1.03169E-04-3.36846E-05-2.98430E-05-5.29765E-06 6.54386E-19 3.07506E-18
 -1      2071 1.08480E-04-3.61887E-05-3.09988E-05-6.33391E-06-1.18145E-19 2.22273E-18
 -1      2072 1.01319E-04-3.14625E-05-2.97823E-05 2.11893E-06 7.92049E-19 9.24934E-19
 -1      2073 1.01924E-04-3.24803E-05-2.98078E-05 3.77473E-07 5.08299E-19 1.75844E-18
 -1      2074 1.05503E-04-3.47798E-05-3.03628E-05 6.45843E-07 8.93593E-19 8.40942E-19
 -1      2075 9.79317E-05-2.88288E-05-2.95300E-05 3.04135E-06 3.88848E-19-1.06898E-18
 -1      2076 9.94142E-05-3.02717E-05-2.96947E-05 2.99066E-06 5.60544E-19 4.12995E-20
 -1      2077 1.01572E-04-3.16841E-05-3.00384E-05 4.12118E-06 1.14402E-18-1.85584E-18
 -1      2078 9.80086E-05-2.80898E-05-2.98914E-05 4.31055E-06 1.04969E-18-3.56026E-18
 -1      2079 9.25583E-05-1.33954E-05-3.40070E-05 2.66579E-05 2.11086E-18 2.03973E-18
 -1      2080 9.66877E-05-1.96919E-05-3.28732E-05 2.43247E-05 1.77304E-18 3.13969E-18
 -1      2081 9.85864E-05-2.24304E-05-3.25615E-05 1.94672E-05 2.48673E-18 1.27647E-18
 -1      2082 1.00146E-04-2.65911E-05-3.15072E-05 1.52917E-05 1.96228E-18-1.36674E-18
 -1      2083 1.01813E-04-2.82744E-05-3.16101E-05 2.60740E-05 2.61966E-18 1.73197E-18
 -1      2084 9.92832E-05-2.63318E-05-3.11170E-05 1.07517E-05 1.99497E-18-2.65169E-18
 -1      2085 9.91689E-05-2.83278E-05-3.03310E-05 7.26803E-06 1.80550E-18-3.16677E-18
 -1      2086 1.01075E-04-3.00706E-05-3.04158E-05 7.74952E-06 1.68486E-18-2.13868E-18
 -1      2087 1.03817E-04-3.09472E-05-3.11900E-05 1.56624E-05 3.05093E-18-1.46783E-18
 -1      2088 8.19770E-05-1.21091E-06-3.48206E-05 2.45040E-05 1.19811E-18-4.30438E-18
 -1      2089 8.75245E-05-7.73075E-06-3.39714E-05 2.72269E-05 8.76838E-19-1.94644E-18
 -1      2090 9.24303E-05-1.93013E-05-3.13317E-05 3.28843E-05 1.28404E-18 4.83338E-20
 -1      2091 7.32731E-05 7.75029E-06-3.48599E-05 1.07799E-05-2.33755E-19-1.27219E-18
 -1      2092 7.67053E-05 4.29009E-06-3.45405E-05 1.82075E-05 1.00680E-18-3.91033E-18
 -1      2093 7.85796E-05-6.99294E-06-3.03755E-05 2.68676E-05 9.31088E-19-4.45084E-18
 -1      2094 7.26665E-05 7.89387E-06-3.44620E-05-1.09570E-05-7.92982E-19 4.33046E-19
 -1      2095 7.14855E-05 9.44451E-06-3.47114E-05-1.36483E-06-7.90447E-19 1.21046E-18
 -1      2096 6.90299E-05 1.25344E-06-2.95549E-05 5.95606E-06 2.80437E-19-7.46395E-19
 -1      2097 8.19283E-05-2.74932E-06-3.37140E-05-2.73661E-05-1.10564E-19-1.53570E-18
 -1      2098 7.66385E-05 3.48959E-06-3.45539E-05-2.15785E-05-2.87885E-19-2.25946E-19
 -1      2099 7.18955E-05-1.67499E-06-2.96219E-05-2.03034E-05-7.46845E-20 2.32352E-19
 -1      2100 9.34628E-05-1.71676E-05-3.25055E-05-3.07814E-05 5.47977E-19 1.17340E-18
 -1      2101 8.78809E-05-9.47279E-06-3.37717E-05-3.07725E-05-3.51254E-20-1.98285E-19
 -1      2102 8.52349E-05-1.39849E-05-3.03947E-05-3.57820E-05 1.29448E-18-1.24045E-18
 -1      2103 1.00721E-04-2.83602E-05-3.09103E-05-2.37650E-05-5.51571E-19 8.62491E-19
 -1      2104 9.73934E-05-2.20938E-05-3.22534E-05-2.75738E-05-3.98741E-19 1.14928E-18
 -1      2105 9.86330E-05-2.66738E-05-3.09145E-05-3.51961E-05 7.31820E-19 2.92465E-19
 -1      2106 1.02796E-04-3.42079E-05-2.93532E-05-1.31605E-05-2.15274E-18-2.12825E-18
 -1      2107 1.01801E-04-3.04658E-05-3.04105E-05-1.78955E-05-1.26387E-18-1.11795E-19
 -1      2108 1.05393E-04-3.40532E-05-3.06633E-05-2.46606E-05-9.26039E-19-6.28558E-19
 -1      2109 1.01779E-04-3.58547E-05-2.82342E-05-3.85366E-06-2.02725E-18 2.24154E-18
 -1      2110 1.02183E-04-3.44426E-05-2.88342E-05-7.71993E-06-2.07302E-18-7.67107E-19
 -1      2111 1.05882E-04-3.62891E-05-2.98713E-05-1.21898E-05-1.57386E-18-1.35905E-18
 -1      2112 9.96481E-05-3.50443E-05-2.76809E-05 2.31762E-06-2.00914E-18 2.14401E-18
 -1      2113 1.00626E-04-3.52480E-05-2.78581E-05-9.61887E-08-1.96907E-18 3.02281E-18
 -1      2114 1.03297E-04-3.56434E-05-2.90028E-05-2.25534E-06-2.45317E-18 2.69019E-18
 -1      2115 9.72245E-05-3.30096E-05-2.75316E-05 5.38309E-06-1.67885E-20 1.32401E-18
 -1      2116 9.85008E-05-3.41406E-05-2.74721E-05 4.30112E-06-6.42435E-19 2.21802E-18
 -1      2117 9.99593E-05-3.38466E-05-2.83332E-05 3.90249E-06-1.07851E-18 3.44236E-18
 -1      2118 6.62621E-05-4.91309E-05-8.03119E-06 4.89582E-05 2.41658E-18 1.43816E-18
 -1      2119 4.94611E-05-5.10052E-05-1.05438E-06 3.98307E-05 1.65426E-18 2.29567E-18
 -1      2120 1.70312E-05-4.05940E-05 8.32703E-06 4.81556E-06 2.93973E-18-1.33747E-18
 -1      2121 1.64788E-05-3.73857E-05 7.55033E-06-9.11684E-06 2.67864E-18-3.59184E-18
 -1      2122 3.00943E-05-4.21318E-05 3.80260E-06 3.00945E-05 1.90413E-18 2.77615E-18
 -1      2123 2.20840E-05-4.41302E-05 7.52427E-06 1.74456E-05 3.00040E-18 1.93801E-18
 -1      2124 2.29299E-05-2.80398E-05 1.42174E-06 1.40940E-05 3.32111E-18 4.68409E-19
 -1      2125 1.07721E-04-5.18457E-05-2.38501E-05 5.21398E-05 1.21634E-18 1.36796E-18
 -1      2126 8.78127E-05-5.55433E-05-1.51349E-05 4.69185E-05 2.33188E-18 2.23617E-18
 -1      2127 1.46074E-04-5.12527E-05-4.01362E-05 4.49050E-05 1.53313E-19-1.71778E-18
 -1      2128 1.23737E-04-5.28505E-05-3.10171E-05 4.47170E-05-3.47707E-19 7.87741E-20
 -1      2129 1.29411E-04-6.45312E-05-2.77244E-05 4.56008E-05 1.06641E-18-7.81811E-19
 -1      2130 8.72648E-05-8.72883E-06-3.37490E-05-1.05250E-05-1.31622E-18-2.81625E-18
 -1      2131 8.79802E-05-9.26457E-06-3.38214E-05-1.21046E-05-1.57332E-18-2.53567E-18
 -1      2132 9.04760E-05-1.30310E-05-3.32190E-05-1.18147E-05-1.77589E-18-2.16249E-18
 -1      2133 8.86722E-05-1.10572E-05-3.32963E-05-9.39062E-06-1.31919E-18-2.73213E-18
 -1      2134 1.96859E-04-3.21528E-05-6.87427E-05 1.93498E-05 9.63076E-19-1.11724E-18
 -1      2135 1.82510E-04-3.34535E-05-6.30581E-05 2.13751E-05 5.40831E-19-1.27182E-18
 -1      2136 1.99317E-04-2.65674E-05-7.23418E-05 1.05046E-05 2.55804E-18-1.99585E-18
 -1      2137 1.96172E-04-2.69700E-05-7.11221E-05 1.57745E-05 2.35814E-18-9.43806E-19
 -1      2138 1.97434E-04-3.17434E-05-6.96177E-05 9.73923E-07 7.75882E-19-3.52408E-18
 -1      2139 2.01850E-04-2.93271E-05-7.22771E-05 8.79531E-06 1.07319E-18-2.44327E-18
 -1      2140 1.76184E-04-3.95757E-05-5.82252E-05-3.34227E-06 9.48465E-19-3.40677E-18
 -1      2141 1.91397E-04-3.76002E-05-6.44673E-05 5.94245E-07 1.35102E-19-3.71593E-18
 -1      2142 1.51460E-04-4.98742E-05-4.38208E-05-1.93738E-05 2.34798E-18-1.51449E-18
 -1      2143 1.71362E-04-4.85755E-05-5.19132E-05-1.49948E-05 2.23246E-18-2.47927E-18
 -1      2144 1.15505E-04-5.33192E-05-2.76426E-05-2.96948E-05 2.91041E-18-1.31925E-18
 -1      2145 1.37826E-04-5.19848E-05-3.64190E-05-3.09765E-05 2.39456E-18-1.02915E-18
 -1      2146 7.98581E-05-5.53364E-05-1.18759E-05-3.23528E-05 2.48689E-18-3.02179E-18
 -1      2147 9.97605E-05-5.35371E-05-1.99724E-05-3.67185E-05 2.71178E-18-2.37423E-18
 -1      2148 4.36607E-05-5.16172E-05 1.64717E-06-2.64962E-05 2.32553E-18-1.93695E-18
 -1      2149 5.84825E-05-4.92150E-05-4.81170E-06-3.37854E-05 2.63724E-18-3.61958E-18
 -1      2150 2.00438E-05-4.78917E-05 1.00943E-05-1.31389E-05 1.80164E-18-2.16840E-18
 -1      2151 2.80143E-05-4.64120E-05 6.53359E-06-2.09466E-05 2.36322E-18-1.03994E-18
 -1      2152 1.24819E-05-4.31790E-05 1.16996E-05 4.64905E-06 1.46283E-18-2.41404E-20
 -1      2153 1.36865E-05-4.37593E-05 1.14109E-05-3.74008E-06 1.67162E-18-1.13164E-18
 -1      2154 2.23140E-05-4.08729E-05 7.00376E-06 2.46025E-05 1.55431E-18 1.17992E-18
 -1      2155 1.63358E-05-4.37568E-05 1.02048E-05 1.54152E-05 1.74679E-18 1.16721E-18
 -1      2156 4.84066E-05-4.39584E-05-2.62539E-06 3.90337E-05 1.73006E-18-4.51659E-18
 -1      2157 3.55522E-05-4.68158E-05 3.31528E-06 3.13401E-05 2.02483E-18-1.81604E-18
 -1      2158 8.75278E-05-4.75462E-05-1.72353E-05 4.55163E-05 5.05255E-19 1.48654E-19
 -1      2159 6.93281E-05-4.99420E-05-9.45148E-06 4.03793E-05 2.07481E-18-2.68414E-18
 -1      2160 1.26134E-04-4.67809E-05-3.36494E-05 4.14848E-05-1.03762E-18 2.37423E-18
 -1      2161 1.04986E-04-4.89806E-05-2.48305E-05 3.93453E-05-9.39783E-19 2.22261E-18
 -1      2162 1.59632E-04-4.38214E-05-4.91115E-05 2.75015E-05 4.20552E-19-1.11215E-18
 -1      2163 1.40490E-04-4.51444E-05-4.11031E-05 3.18088E-05-3.89212E-19 4.31987E-19
 -1      2164 1.84992E-04-3.41359E-05-6.34575E-05 1.30998E-05-9.52912E-21-3.16790E-19
 -1      2165 1.67971E-04-3.57454E-05-5.65817E-05 1.61632E-05 5.11502E-19-1.26928E-18
 -1      2166 1.96100E-04-2.66500E-05-7.12885E-05-5.22781E-07 2.09217E-19 2.34628E-19
 -1      2167 1.86167E-04-2.69778E-05-6.77109E-05 6.78883E-06 4.40457E-20-1.92276E-19
 -1      2168 1.96434E-04-2.49796E-05-7.23055E-05-1.28170E-05 2.57752E-18 1.28368E-18
 -1      2169 1.97743E-04-2.50964E-05-7.28605E-05-3.74482E-06 1.33365E-18 1.30771E-18
 -1      2170 1.82453E-04-2.78568E-05-6.55684E-05-2.25794E-05 1.08103E-18-3.79471E-19
 -1      2171 1.97142E-04-2.87847E-05-7.05021E-05-1.75650E-05 2.24125E-18 8.58468E-19
 -1      2172 1.60631E-04-3.90091E-05-5.17716E-05-3.50184E-05 2.99553E-18-1.96003E-18
 -1      2173 1.76956E-04-3.69425E-05-5.90391E-05-2.92612E-05 2.16756E-18-7.44118E-19
 -1      2174 1.27973E-04-4.58900E-05-3.56292E-05-4.54390E-05 2.90109E-18-2.28741E-18
 -1      2175 1.49619E-04-4.30470E-05-4.47829E-05-4.67822E-05 2.95784E-18-2.14765E-18
 -1      2176 9.04171E-05-5.09297E-05-1.80321E-05-4.90191E-05 3.03068E-18-2.41955E-18
 -1      2177 1.10731E-04-4.64295E-05-2.72228E-05-5.42318E-05 2.76556E-18-1.86178E-18
 -1      2178 5.55136E-05-4.99105E-05-3.84809E-06-4.49927E-05 2.97563E-18-1.51746E-18
 -1      2179 7.18391E-05-4.71352E-05-1.10616E-05-5.24128E-05 2.95953E-18-1.05540E-18
 -1      2180 2.48138E-05-4.32231E-05 6.17152E-06-2.57585E-05 1.53228E-18-3.04932E-18
 -1      2181 3.56713E-05-4.31965E-05 1.92572E-06-3.77441E-05 2.21499E-18-2.29461E-18
 -1      2182 1.77389E-04-4.31861E-05-5.64437E-05 2.92816E-05 4.18434E-19-1.70677E-18
 -1      2183 1.60481E-04-4.64854E-05-4.85083E-05 3.27545E-05 1.90371E-19-1.89142E-18
 -1      2184 1.58679E-04-5.82387E-05-4.24017E-05 2.80689E-05-3.79259E-19-2.02271E-18
 -1      2185 9.71974E-05-2.43164E-05-3.13074E-05-1.00008E-05-1.93343E-18 8.15944E-19
 -1      2186 1.73744E-04-2.65617E-05-6.19154E-05 1.54885E-05 4.73068E-19-2.00662E-18
 -1      2187 1.74199E-04-3.99814E-05-5.65404E-05 1.13000E-05 2.55169E-19-2.19890E-18
 -1      2188 9.63548E-05-2.31105E-05-3.14570E-05-1.03805E-05-2.08922E-18-1.90066E-19
 -1      2189 4.73500E-05-4.12374E-05-3.29320E-06 4.22343E-05 2.29969E-18 2.61543E-18
 -1      2190 9.08145E-05-5.79986E-05-1.44580E-05 5.28143E-05 2.07735E-18 1.38156E-18
 -1      2191 9.65245E-05-3.18819E-05-2.77107E-05 5.78463E-06-1.34179E-19-7.40409E-20
 -1      2192 2.48922E-05-2.97225E-05 1.30849E-06-2.08011E-05 1.26600E-18-2.08243E-18
 -1      2193 5.46884E-05-4.33843E-05-5.50918E-06-5.01459E-05 9.61806E-19-1.68665E-18
 -1      2194 9.59316E-05-5.63679E-05-1.72060E-05-5.51971E-05 1.65383E-18-6.88003E-19
 -1      2195 1.33572E-04-5.87955E-05-3.16802E-05-4.50157E-05 1.27478E-18-1.15959E-18
 -1      2196 1.59634E-04-5.00380E-05-4.61022E-05-2.67414E-05 2.31304E-18-1.89312E-19
 -1      2197 1.71509E-04-3.21342E-05-5.87803E-05-1.12896E-05 1.91938E-18 1.41582E-18
 -1      2198 1.74231E-04-1.60054E-05-6.64955E-05-6.13812E-06 1.88465E-18 2.86636E-18
 -1      2199 1.71030E-04-1.26593E-05-6.66247E-05-6.37307E-06 1.71101E-19 7.07325E-19
 -1      2200 1.69544E-04-2.41949E-05-6.13027E-05-4.65298E-06-5.41466E-19-1.30168E-18
 -1      2201 1.62855E-04-4.36258E-05-5.04340E-05 7.84994E-06-2.12288E-20-2.14257E-18
 -1      2202 1.42000E-04-5.63949E-05-3.62426E-05 2.64920E-05-8.72020E-19 3.54907E-19
 -1      2203 1.10010E-04-5.86424E-05-2.20007E-05 4.07081E-05 5.32360E-19 1.27584E-18
 -1      2204 6.99960E-05-5.04288E-05-8.66509E-06 4.57356E-05 1.66273E-18-2.64862E-18
 -1      2205 3.39942E-05-3.87020E-05 1.46148E-06 3.42617E-05 1.26335E-18-1.13651E-18
 -1      2206 1.57204E-05-3.14657E-05 6.10315E-06 1.25837E-05 1.08113E-18 8.01717E-19
 -1      2207 1.85357E-05-3.54079E-05 6.35389E-06-1.23693E-05 8.54127E-19-1.48570E-18
 -1      2208 4.29498E-05-4.57642E-05 4.42542E-07-3.14400E-05 1.66273E-18-2.22939E-18
 -1      2209 8.27560E-05-5.81105E-05-1.08951E-05-3.75903E-05 1.52424E-18-2.54825E-18
 -1      2210 1.21783E-04-6.48379E-05-2.44849E-05-2.84583E-05 1.76395E-18-6.31463E-19
 -1      2211 1.52296E-04-6.04552E-05-3.88595E-05-1.22257E-05 9.94417E-19 3.03238E-19
 -1      2212 1.68398E-04-4.59401E-05-5.17248E-05 7.71394E-06 1.75336E-19-5.51842E-19
 -1      2213 1.75862E-04-2.14785E-05-6.48110E-05 6.57821E-06 1.75675E-18-1.49395E-18
 -1      2214 1.77165E-04-1.70841E-05-6.70490E-05 1.05381E-05 2.22007E-18-1.93134E-18
 -1      2215 9.52215E-05-2.63785E-05-2.94910E-05 4.19254E-06 1.73464E-18 1.45679E-18
 -1      2216 9.61957E-05-2.58638E-05-3.00687E-05 5.99791E-06 1.84436E-18 1.68821E-18
 -1      2217 8.81286E-05-1.11795E-05-3.30176E-05-3.65975E-06-2.35362E-19-2.83548E-18
 -1      2218 8.83634E-05-1.14499E-05-3.30001E-05-4.80034E-06-5.07226E-19-2.86612E-18
 -1      2219 8.87161E-05-1.19338E-05-3.29520E-05-5.81884E-06-7.00483E-19-2.80903E-18
 -1      2220 8.91219E-05-1.24050E-05-3.29244E-05-6.99026E-06-1.00489E-18-2.66289E-18
 -1      2221 8.98842E-05-1.38195E-05-3.25985E-05-4.90138E-06-5.87826E-19-2.68397E-18
 -1      2222 8.77828E-05-1.07213E-05-3.30604E-05 6.15351E-07 5.29562E-19-2.74780E-18
 -1      2223 8.77784E-05-1.07164E-05-3.30606E-05-4.95429E-07 3.20088E-19-2.83088E-18
 -1      2224 8.79643E-05-1.09464E-05-3.30421E-05 2.75694E-06 9.13380E-19-2.63540E-18
 -1      2225 8.78492E-05-1.08132E-05-3.30513E-05 1.63778E-06 7.09443E-19-2.72351E-18
 -1      2226 8.91003E-05-1.27674E-05-3.27173E-05 1.04932E-06 6.14213E-19-2.57113E-18
 -1      2227 8.83996E-05-1.14938E-05-3.29971E-05 4.88578E-06 1.32279E-18-2.37603E-18
 -1      2228 8.81596E-05-1.12169E-05-3.30151E-05 3.76280E-06 1.05290E-18-2.52350E-18
 -1      2229 8.93667E-05-1.31234E-05-3.26775E-05 3.01999E-06 9.38356E-19-2.40619E-18
 -1      2230 8.91803E-05-1.24767E-05-3.29188E-05 7.07278E-06 1.79142E-18-1.86889E-18
 -1      2231 8.87616E-05-1.19901E-05-3.29476E-05 5.90128E-06 1.51836E-18-2.16419E-18
 -1      2232 8.99251E-05-1.38717E-05-3.25933E-05 4.97367E-06 1.38446E-18-2.07452E-18
 -1      2233 9.04518E-05-1.40862E-05-3.27924E-05 9.22060E-06 2.17902E-18-1.28275E-18
 -1      2234 8.97703E-05-1.32750E-05-3.28374E-05 8.04210E-06 1.91561E-18-1.61893E-18
 -1      2235 9.08618E-05-1.51317E-05-3.24488E-05 6.86903E-06 1.76591E-18-1.59240E-18
 -1      2236 9.24522E-05-1.66591E-05-3.25832E-05 1.11045E-05 2.47038E-18-4.21683E-19
 -1      2237 9.13723E-05-1.53188E-05-3.26549E-05 1.00244E-05 2.24834E-18-9.33933E-19
 -1      2238 9.22873E-05-1.70865E-05-3.22083E-05 8.51355E-06 2.11854E-18-9.51423E-19
 -1      2239 9.42420E-05-2.71188E-05-2.87503E-05 1.76213E-06 1.30382E-18 1.10776E-18
 -1      2240 9.48420E-05-2.68951E-05-2.90487E-05 2.73514E-06 1.51985E-18 1.31684E-18
 -1      2241 9.53437E-05-2.58486E-05-2.97916E-05 4.35825E-06 1.70480E-18 6.51603E-19
 -1      2242 9.59141E-05-2.51002E-05-3.03048E-05-6.19178E-06-1.62911E-18-6.01637E-19
 -1      2243 9.52619E-05-2.58494E-05-2.97617E-05-4.27801E-06-1.46912E-18-6.31466E-19
 -1      2244 1.55368E-04-2.67617E-05-5.55083E-05 2.13170E-05-1.18076E-18-1.05879E-20
 -1      2245 1.59272E-04-2.11052E-05-5.97598E-05 1.74234E-05 1.19432E-19-5.13302E-19
 -1      2246 9.51367E-05-2.65362E-05-2.93452E-05-2.93482E-06-1.44606E-18-5.01454E-19
 -1      2247 9.46740E-05-2.69085E-05-2.90420E-05-1.87311E-06-1.31047E-18-6.58289E-19
 -1      2248 9.53379E-05-2.53588E-05-2.99956E-05-4.28279E-06-1.53026E-18-9.90622E-19
 -1      2249 9.44769E-05-2.72386E-05-2.87785E-05-1.02355E-06-1.12517E-18-5.42832E-19
 -1      2250 9.42199E-05-2.74523E-05-2.86123E-05-4.21643E-07-8.32154E-19-8.22340E-19
 -1      2251 9.50382E-05-2.67030E-05-2.93004E-05-1.91714E-06-1.26766E-18-8.91397E-19
 -1      2252 9.40712E-05-2.76330E-05-2.84510E-05 8.61798E-08-6.87788E-19-8.28676E-19
 -1      2253 9.39731E-05-2.77767E-05-2.83674E-05 4.15848E-07-5.74029E-19-9.40976E-19
 -1      2254 9.47308E-05-2.74279E-05-2.88572E-05-4.37309E-07-8.96942E-19-8.60484E-19
 -1      2255 9.38884E-05-2.78864E-05-2.82739E-05 6.98233E-07-4.74343E-19-1.10168E-18
 -1      2256 9.38942E-05-2.79936E-05-2.82410E-05 8.62070E-07-3.86314E-19-1.00541E-18
 -1      2257 9.45298E-05-2.78566E-05-2.85846E-05 4.32586E-07-6.78004E-19-1.10530E-18
 -1      2258 9.38626E-05-2.80657E-05-2.81921E-05 9.98916E-07-3.79338E-19-9.47091E-19
 -1      2259 9.39297E-05-2.81497E-05-2.81897E-05 1.06073E-06-2.49027E-19-1.02837E-18
 -1      2260 9.44368E-05-2.81261E-05-2.84264E-05 9.02762E-07-4.14116E-19-1.05362E-18
 -1      2261 9.39349E-05-2.81994E-05-2.81696E-05 1.10527E-06-2.03444E-19-1.24705E-18
 -1      2262 9.40337E-05-2.82663E-05-2.81847E-05 1.10522E-06-2.75334E-19-1.22090E-18
 -1      2263 9.44266E-05-2.83031E-05-2.83437E-05 1.11474E-06-3.49459E-19-1.30198E-18
 -1      2264 9.40616E-05-2.83011E-05-2.81826E-05 1.09325E-06-4.93835E-19-1.12841E-18
 -1      2265 9.41723E-05-2.83541E-05-2.82069E-05 1.05742E-06-6.88949E-19-9.76589E-19
 -1      2266 9.44707E-05-2.84215E-05-2.83100E-05 1.16404E-06-4.64958E-19-1.54049E-18
 -1      2267 9.42122E-05-2.83784E-05-2.82154E-05 1.01314E-06-6.42339E-19-8.82940E-19
 -1      2268 9.43226E-05-2.84198E-05-2.82434E-05 9.58766E-07-4.99931E-19-8.92993E-19
 -1      2269 9.45456E-05-2.85001E-05-2.83071E-05 1.11533E-06-6.71214E-19-1.49050E-18
 -1      2270 9.43672E-05-2.84362E-05-2.82577E-05 8.98480E-07-4.73855E-19-7.88397E-19
 -1      2271 9.44701E-05-2.84679E-05-2.82862E-05 8.36921E-07-3.91586E-19-8.07718E-19
 -1      2272 9.46344E-05-2.85508E-05-2.83225E-05 1.01247E-06-4.65805E-19-1.34844E-18
 -1      2273 9.45146E-05-2.84784E-05-2.83032E-05 7.71511E-07-2.70886E-19-7.44579E-19
 -1      2274 9.46066E-05-2.85019E-05-2.83302E-05 7.10203E-07-7.33499E-20-4.80749E-19
 -1      2275 9.47259E-05-2.85814E-05-2.83481E-05 8.85024E-07-2.06131E-19-7.38528E-19
 -1      2276 9.46484E-05-2.85080E-05-2.83479E-05 6.46822E-07-2.25609E-19-6.09376E-19
 -1      2277 9.47283E-05-2.85249E-05-2.83725E-05 5.90549E-07-4.00446E-19-6.48721E-19
 -1      2278 9.48134E-05-2.85973E-05-2.83784E-05 7.52685E-07-2.26549E-19-6.85855E-19
 -1      2279 9.47663E-05-2.85275E-05-2.83899E-05 5.33841E-07-7.05020E-19-7.66122E-19
 -1      2280 9.48346E-05-2.85391E-05-2.84120E-05 4.85660E-07-8.38949E-19-9.11051E-19
 -1      2281 9.48935E-05-2.86026E-05-2.84103E-05 6.28405E-07-6.50152E-19-1.09156E-18
 -1      2282 9.48687E-05-2.85391E-05-2.84287E-05 4.38656E-07-8.36685E-19-8.13005E-19
 -1      2283 9.49272E-05-2.85465E-05-2.84484E-05 4.00575E-07-5.07752E-19-1.12075E-18
 -1      2284 9.49652E-05-2.86000E-05-2.84421E-05 5.20663E-07-8.98830E-19-2.84752E-19
 -1      2285 9.49580E-05-2.85445E-05-2.84644E-05 3.65361E-07-7.14726E-19-1.46746E-18
 -1      2286 9.50090E-05-2.85486E-05-2.84824E-05 3.38832E-07-7.36476E-19-1.66073E-18
 -1      2287 9.50292E-05-2.85916E-05-2.84732E-05 4.35146E-07-1.05812E-18-8.45525E-19
 -1      2288 9.50377E-05-2.85450E-05-2.84981E-05 3.17043E-07-1.63252E-19-1.68210E-18
 -1      2289 9.50845E-05-2.85468E-05-2.85153E-05 3.03340E-07-4.12081E-20-1.26482E-18
 -1      2290 9.50875E-05-2.85785E-05-2.85038E-05 3.75990E-07-5.12769E-19-1.05693E-18
 -1      2291 9.51127E-05-2.85419E-05-2.85313E-05 2.96526E-07-6.47017E-19-1.31906E-18
 -1      2292 9.51588E-05-2.85423E-05-2.85487E-05 2.97006E-07-8.53069E-19-1.47937E-18
 -1      2293 9.51428E-05-2.85617E-05-2.85349E-05 3.46711E-07-3.60980E-19-1.36670E-18
 -1      2294 9.51885E-05-2.85364E-05-2.85659E-05 3.06889E-07-6.36235E-19-1.63642E-18
 -1      2295 9.52381E-05-2.85363E-05-2.85848E-05 3.23165E-07-5.40540E-19-1.52524E-18
 -1      2296 9.51988E-05-2.85417E-05-2.85677E-05 3.50870E-07-8.52858E-19-1.00934E-18
 -1      2297 9.52716E-05-2.85298E-05-2.86042E-05 3.51789E-07-3.92326E-19-1.69596E-18
 -1      2298 9.53294E-05-2.85301E-05-2.86260E-05 3.85808E-07 6.61950E-20-1.69284E-18
 -1      2299 9.52600E-05-2.85189E-05-2.86040E-05 3.92505E-07-3.89478E-19-7.91759E-19
 -1      2300 9.53696E-05-2.85234E-05-2.86487E-05 4.35569E-07 1.11872E-19-1.28782E-18
 -1      2301 9.54408E-05-2.85256E-05-2.86751E-05 4.89574E-07 9.09371E-20-6.30548E-19
 -1      2302 9.53314E-05-2.84939E-05-2.86455E-05 4.76331E-07 3.36629E-19-7.27607E-19
 -1      2303 9.54909E-05-2.85195E-05-2.87022E-05 5.63127E-07-2.32213E-20-6.16823E-19
 -1      2304 9.55816E-05-2.85253E-05-2.87348E-05 6.39474E-07-4.20623E-20-5.61103E-19
 -1      2305 9.54192E-05-2.84680E-05-2.86946E-05 6.07674E-07 2.45248E-19-3.38408E-19
 -1      2306 9.56455E-05-2.85210E-05-2.87676E-05 7.39448E-07-5.28439E-19-8.46638E-19
 -1      2307 9.57622E-05-2.85329E-05-2.88082E-05 8.40226E-07-2.83965E-19-1.49500E-18
 -1      2308 9.55305E-05-2.84431E-05-2.87533E-05 7.92074E-07-5.69694E-19-6.06556E-19
 -1      2309 9.58442E-05-2.85326E-05-2.88477E-05 9.68699E-07-6.70256E-20-1.86282E-18
 -1      2310 9.59941E-05-2.85538E-05-2.88978E-05 1.09507E-06 4.05324E-19-1.60376E-18
 -1      2311 9.56736E-05-2.84232E-05-2.88235E-05 1.03444E-06-4.67029E-19-1.03777E-18
 -1      2312 9.60996E-05-2.85607E-05-2.89448E-05 1.25272E-06 7.62100E-19-2.08971E-18
 -1      2313 9.62899E-05-2.85959E-05-2.90059E-05 1.40389E-06 5.95471E-20-2.10211E-18
 -1      2314 9.58585E-05-2.84145E-05-2.89069E-05 1.33763E-06 1.61204E-19-1.02602E-18
 -1      2315 9.64252E-05-2.86152E-05-2.90608E-05 1.58867E-06-8.26726E-21-2.01472E-18
 -1      2316 9.66630E-05-2.86705E-05-2.91336E-05 1.76039E-06 1.44642E-19-1.89502E-18
 -1      2317 9.60971E-05-2.84271E-05-2.90041E-05 1.70019E-06 3.98509E-20-2.46491E-18
 -1      2318 9.68358E-05-2.87096E-05-2.91959E-05 1.96570E-06-8.27207E-20-2.31066E-18
 -1      2319 9.71269E-05-2.87934E-05-2.92800E-05 2.14813E-06-1.96368E-19-2.56789E-18
 -1      2320 9.64036E-05-2.84764E-05-2.91147E-05 2.11313E-06-1.09713E-19-2.51328E-18
 -1      2321 9.73465E-05-2.88632E-05-2.93483E-05 2.36027E-06-8.46632E-20-2.58778E-18
 -1      2322 9.76946E-05-2.89861E-05-2.94420E-05 2.53524E-06-4.44559E-19-2.09289E-18
 -1      2323 9.67955E-05-2.85852E-05-2.92365E-05 2.55544E-06-1.10200E-19-2.28876E-18
 -1      2324 9.79721E-05-2.91015E-05-2.95134E-05 2.73018E-06-2.64751E-19-1.89606E-18
 -1      2325 9.83769E-05-2.92762E-05-2.96127E-05 2.86798E-06 1.02073E-19-1.21844E-18
 -1      2326 9.72940E-05-2.87853E-05-2.93649E-05 2.98819E-06-9.67210E-20-1.16769E-18
 -1      2327 9.87257E-05-2.94563E-05-2.96829E-05 3.00767E-06-2.27789E-19-6.01539E-19
 -1      2328 9.91797E-05-2.96968E-05-2.97812E-05 3.06383E-06-2.72032E-19-8.05218E-20
 -1      2329 9.79245E-05-2.91190E-05-2.94928E-05 3.34759E-06 8.69319E-20-2.60122E-19
 -1      2330 9.96145E-05-2.99636E-05-2.98445E-05 3.09261E-06-4.48187E-19-2.19643E-20
 -1      2331 1.00100E-04-3.02813E-05-2.99321E-05 3.00606E-06-7.37752E-20 5.26893E-19
 -1      2332 9.87158E-05-2.96370E-05-2.96108E-05 3.53750E-06-3.71727E-20 2.58232E-19
 -1      2333 1.00634E-04-3.06551E-05-2.99825E-05 2.84871E-06 8.89418E-20 6.10317E-19
 -1      2334 1.01117E-04-3.10519E-05-3.00474E-05 2.54369E-06 5.44308E-19 8.27113E-19
 -1      2335 9.96962E-05-3.03918E-05-2.97084E-05 3.42377E-06-1.06156E-20 8.68553E-19
 -1      2336 1.01752E-04-3.15404E-05-3.00800E-05 2.10827E-06 5.56899E-19 5.15287E-19
 -1      2337 1.02178E-04-3.19951E-05-3.01093E-05 1.50430E-06 1.73695E-19 3.17998E-19
 -1      2338 1.00882E-04-3.14180E-05-2.97775E-05 2.83451E-06 2.56866E-19 1.35423E-18
 -1      2339 1.02890E-04-3.25738E-05-3.01235E-05 6.95340E-07-2.61687E-19-1.52492E-19
 -1      2340 1.03171E-04-3.30219E-05-3.01064E-05-2.69018E-07 2.35095E-19-3.50008E-19
 -1      2341 1.02254E-04-3.26959E-05-2.98169E-05 1.57475E-06-4.36052E-19 9.06858E-20
 -1      2342 1.03883E-04-3.36052E-05-3.01091E-05-1.51822E-06 4.31742E-19-1.11550E-19
 -1      2343 1.03899E-04-3.39172E-05-3.00417E-05-2.84252E-06 9.15613E-19 5.26485E-19
 -1      2344 1.03711E-04-3.40915E-05-2.98393E-05-5.30400E-07 8.36442E-19 2.11263E-19
 -1      2345 1.04451E-04-3.43309E-05-3.00495E-05-4.50883E-06 8.43489E-19-2.37095E-19
 -1      2346 1.04055E-04-3.43072E-05-2.99386E-05-6.07032E-06 7.84578E-19-3.80495E-19
 -1      2347 1.05016E-04-3.52862E-05-2.98773E-05-3.54443E-06 5.62221E-19 8.54848E-20
 -1      2348 1.04204E-04-3.42927E-05-2.99758E-05-7.95315E-06 4.06715E-19-6.46302E-19
 -1      2349 1.03273E-04-3.37103E-05-2.98392E-05-9.45120E-06-1.17188E-18-1.19550E-18
 -1      2350 1.05755E-04-3.57459E-05-2.99817E-05-7.26617E-06 1.67272E-20-8.59741E-19
 -1      2351 1.02754E-04-3.30092E-05-2.99252E-05-1.10985E-05-1.06212E-18-1.52607E-18
 -1      2352 1.01280E-04-3.17512E-05-2.97861E-05-1.20561E-05-9.72491E-19-1.48205E-18
 -1      2353 1.05394E-04-3.48313E-05-3.02034E-05-1.10478E-05-1.13125E-18-1.54190E-18
 -1      2354 9.99970E-05-3.03006E-05-2.99184E-05-1.28020E-05-1.02940E-18-7.49153E-19
 -1      2355 9.81860E-05-2.85414E-05-2.97939E-05-1.27024E-05-1.13401E-18-3.39635E-19
 -1      2356 1.03542E-04-3.21404E-05-3.05570E-05-1.37196E-05-8.14870E-19-4.73614E-19
 -1      2357 9.64414E-05-2.66992E-05-2.99326E-05-1.19453E-05-7.83112E-19 3.30839E-19
 -1      2358 9.47386E-05-2.49823E-05-2.98228E-05-1.05315E-05 1.14482E-20 5.91264E-19
 -1      2359 1.00389E-04-2.80454E-05-3.09803E-05-1.38721E-05-4.81015E-19 9.41017E-19
 -1      2360 9.32220E-05-2.34928E-05-2.98947E-05-8.19701E-06 1.00387E-20 4.66000E-19
 -1      2361 9.21332E-05-2.25109E-05-2.97856E-05-5.74675E-06 5.56425E-19 1.63491E-19
 -1      2362 9.69793E-05-2.39333E-05-3.13250E-05-1.06781E-05-1.33897E-19-1.34653E-19
 -1      2363 9.15153E-05-2.20791E-05-2.97233E-05-2.55512E-06 7.77530E-19 4.66708E-19
 -1      2364 9.13127E-05-2.22063E-05-2.96075E-05 1.40148E-07 9.09260E-19 2.98888E-19
 -1      2365 9.47634E-05-2.15868E-05-3.14062E-05-4.77925E-06 2.82413E-19 1.01493E-19
 -1      2366 9.16664E-05-2.29129E-05-2.94023E-05 3.01655E-06 6.11095E-19 1.25835E-18
 -1      2367 9.22106E-05-2.39176E-05-2.92923E-05 5.10218E-06 1.50687E-18 1.56408E-18
 -1      2368 9.45440E-05-2.19888E-05-3.11231E-05 1.69465E-06 1.05392E-18 1.62636E-18
 -1      2369 9.29598E-05-2.51725E-05-2.89955E-05 6.80463E-06 1.78472E-18 1.37660E-18
 -1      2370 9.38392E-05-2.64571E-05-2.89086E-05 7.85197E-06 2.40236E-19 1.87162E-18
 -1      2371 9.57758E-05-2.45025E-05-3.05302E-05 6.45093E-06 1.13483E-18 2.33882E-18
 -1      2372 9.43164E-05-2.75708E-05-2.85822E-05 8.27033E-06-1.19127E-18 2.01953E-18
 -1      2373 9.51017E-05-2.86342E-05-2.85046E-05 8.34327E-06-6.64459E-19 1.82910E-18
 -1      2374 9.71124E-05-2.75437E-05-2.97763E-05 8.47217E-06 1.83576E-19 1.39476E-18
 -1      2375 9.33488E-05-2.76938E-05-2.81305E-05-4.14169E-07 4.05303E-19 3.30311E-19
 -1      2376 9.34262E-05-2.75885E-05-2.81917E-05-1.28346E-07 6.56104E-19 7.46874E-19
 -1      2377 9.32984E-05-2.78589E-05-2.80408E-05-8.20852E-07 2.09252E-19 1.36200E-19
 -1      2378 9.32527E-05-2.77674E-05-2.80521E-05-6.81488E-07 1.59494E-19 3.21023E-19
 -1      2379 9.40177E-05-2.78098E-05-2.83860E-05-4.48020E-07 4.39876E-19-3.00006E-20
 -1      2380 9.33929E-05-2.79950E-05-2.80246E-05-9.96717E-07 5.39928E-19 1.05589E-19
 -1      2381 9.32795E-05-2.79139E-05-2.80074E-05-9.45814E-07 3.68946E-19 2.26448E-19
 -1      2382 9.39313E-05-2.80198E-05-2.82559E-05-8.95727E-07 2.75171E-19-1.36513E-19
 -1      2383 9.35677E-05-2.81105E-05-2.80512E-05-1.03135E-06 9.08878E-19 2.37247E-19
 -1      2384 9.34228E-05-2.80393E-05-2.80190E-05-1.03352E-06 7.90494E-19 3.00194E-19
 -1      2385 9.39602E-05-2.81694E-05-2.82014E-05-1.09202E-06 6.06455E-19 5.19151E-20
 -1      2386 9.37785E-05-2.82079E-05-2.81006E-05-9.82446E-07 5.58148E-19 2.81804E-19
 -1      2387 9.36251E-05-2.81468E-05-2.80619E-05-1.01510E-06 8.49861E-19 3.85617E-19
 -1      2388 9.40585E-05-2.82806E-05-2.81938E-05-1.13259E-06 8.38667E-19 1.62841E-19
 -1      2389 9.39966E-05-2.82887E-05-2.81600E-05-8.87932E-07 5.65117E-19 3.39702E-19
 -1      2390 9.38486E-05-2.82375E-05-2.81201E-05-9.36317E-07 5.82213E-19 3.83435E-19
 -1      2391 9.41922E-05-2.83642E-05-2.82138E-05-1.08044E-06 6.40496E-19-7.47103E-20
 -1      2392 9.42047E-05-2.83543E-05-2.82214E-05-7.72855E-07 4.90513E-19-5.20288E-20
 -1      2393 9.40696E-05-2.83125E-05-2.81834E-05-8.27298E-07 5.62455E-19 1.44700E-19
 -1      2394 9.43383E-05-2.84268E-05-2.82487E-05-9.77524E-07 6.16683E-19-1.86663E-19
 -1      2395 9.43932E-05-2.84063E-05-2.82801E-05-6.53628E-07 6.45804E-19-1.63202E-19
 -1      2396 9.42747E-05-2.83729E-05-2.82457E-05-7.07850E-07 6.76552E-19-3.03223E-19
 -1      2397 9.44824E-05-2.84727E-05-2.82902E-05-8.51793E-07 6.08977E-19-3.10544E-19
 -1      2398 9.45585E-05-2.84465E-05-2.83337E-05-5.40834E-07 2.00083E-19-1.22721E-19
 -1      2399 9.44572E-05-2.84205E-05-2.83035E-05-5.90830E-07 4.10664E-19-1.34576E-19
 -1      2400 9.46162E-05-2.85053E-05-2.83332E-05-7.21675E-07 4.72787E-19-4.20875E-19
 -1      2401 9.47003E-05-2.84768E-05-2.83815E-05-4.41195E-07 4.81253E-19-1.21865E-19
 -1      2402 9.46152E-05-2.84570E-05-2.83555E-05-4.84442E-07 4.30246E-19 6.33954E-20
 -1      2403 9.47358E-05-2.85273E-05-2.83749E-05-5.99161E-07 3.96773E-19-4.38693E-19
 -1      2404 9.48212E-05-2.84989E-05-2.84237E-05-3.59013E-07 2.72535E-19-2.12403E-19
 -1      2405 9.47499E-05-2.84842E-05-2.84013E-05-3.93883E-07 2.76751E-19-2.89889E-19
 -1      2406 9.48406E-05-2.85409E-05-2.84139E-05-4.91988E-07 4.86995E-19-2.56538E-19
 -1      2407 9.49255E-05-2.85147E-05-2.84615E-05-2.97247E-07 1.06246E-18-4.02457E-19
 -1      2408 9.48649E-05-2.85040E-05-2.84419E-05-3.22572E-07 8.12927E-19 2.24290E-20
 -1      2409 9.49321E-05-2.85480E-05-2.84501E-05-4.05251E-07 5.82100E-19 3.50663E-19
 -1      2410 9.50190E-05-2.85259E-05-2.84965E-05-2.58358E-07 7.31391E-19-3.01545E-19
 -1      2411 9.49652E-05-2.85180E-05-2.84785E-05-2.73078E-07 1.00398E-18-1.70215E-19
 -1      2412 9.50133E-05-2.85499E-05-2.84842E-05-3.42631E-07 9.87961E-19 8.08158E-20
 -1      2413 9.51083E-05-2.85341E-05-2.85309E-05-2.44969E-07 1.38245E-19-2.00199E-19
 -1      2414 9.50569E-05-2.85278E-05-2.85133E-05-2.47852E-07 5.95349E-19-8.95716E-20
 -1      2415 9.50884E-05-2.85479E-05-2.85175E-05-3.07334E-07 3.64134E-19 6.83669E-19
 -1      2416 9.52017E-05-2.85410E-05-2.85674E-05-2.60414E-07-8.06189E-19-5.74683E-19
 -1      2417 9.51476E-05-2.85352E-05-2.85486E-05-2.49823E-07-4.13749E-19-1.95712E-19
 -1      2418 9.51627E-05-2.85429E-05-2.85517E-05-3.02848E-07-1.94483E-19 9.86246E-19
 -1      2419 9.53085E-05-2.85483E-05-2.86094E-05-3.09226E-07 1.00512E-19-1.44293E-18
 -1      2420 9.52456E-05-2.85418E-05-2.85874E-05-2.82898E-07-2.90384E-19-9.49428E-19
 -1      2421 9.52424E-05-2.85354E-05-2.85894E-05-3.33565E-07-1.51455E-19-1.31154E-20
 -1      2422 9.54396E-05-2.85579E-05-2.86605E-05-3.97579E-07 8.60339E-19-1.63915E-18
 -1      2423 9.53610E-05-2.85494E-05-2.86333E-05-3.52418E-07 5.39185E-19-1.63140E-18
 -1      2424 9.53347E-05-2.85261E-05-2.86333E-05-4.05328E-07 5.04557E-19-1.09189E-18
 -1      2425 9.56081E-05-2.85721E-05-2.87256E-05-5.33723E-07 3.85928E-19-1.28950E-18
 -1      2426 9.55054E-05-2.85597E-05-2.86904E-05-4.65592E-07 6.39929E-19-1.49724E-18
 -1      2427 9.54480E-05-2.85155E-05-2.86869E-05-5.25922E-07 5.39735E-19-1.05737E-18
 -1      2428 9.58293E-05-2.85933E-05-2.88099E-05-7.28428E-07-6.66001E-19-1.28484E-18
 -1      2429 9.56925E-05-2.85752E-05-2.87636E-05-6.31923E-07 2.82841E-19-1.38385E-18
 -1      2430 9.55921E-05-2.85039E-05-2.87541E-05-7.05541E-07 1.76304E-19-6.52856E-19
 -1      2431 9.61214E-05-2.86245E-05-2.89199E-05-9.95414E-07-1.01690E-18-1.79252E-18
 -1      2432 9.59383E-05-2.85982E-05-2.88588E-05-8.63644E-07-1.17969E-18-1.71818E-18
 -1      2433 9.57779E-05-2.84916E-05-2.88395E-05-9.57231E-07-5.90524E-19-1.24209E-18
 -1      2434 9.65058E-05-2.86694E-05-2.90632E-05-1.35172E-06-2.52890E-19-2.14164E-18
 -1      2435 9.62619E-05-2.86319E-05-2.89827E-05-1.17612E-06-8.42404E-19-2.22717E-18
 -1      2436 9.60181E-05-2.84788E-05-2.89485E-05-1.29729E-06-2.42536E-19-2.13538E-18
 -1      2437 9.70072E-05-2.87323E-05-2.92484E-05-1.81788E-06 5.81474E-19-1.43909E-18
 -1      2438 9.66852E-05-2.86798E-05-2.91432E-05-1.58812E-06-7.83679E-20-2.16170E-18
 -1      2439 9.63265E-05-2.84658E-05-2.90868E-05-1.74549E-06-1.30349E-19-2.57185E-18
 -1      2440 9.76538E-05-2.88192E-05-2.94851E-05-2.41746E-06 6.05852E-20-1.94290E-18
 -1      2441 9.72334E-05-2.87466E-05-2.93493E-05-2.12175E-06 5.70414E-19-1.53881E-18
 -1      2442 9.67182E-05-2.84530E-05-2.92607E-05-2.32501E-06 2.78331E-19-2.49297E-18
 -1      2443 9.84772E-05-2.89387E-05-2.97832E-05-3.17540E-06-2.43522E-19-1.31255E-18
 -1      2444 9.79350E-05-2.88388E-05-2.96102E-05-2.80149E-06-4.56877E-20-1.22196E-18
 -1      2445 9.72090E-05-2.84426E-05-2.94759E-05-3.06145E-06 2.41909E-21-2.34458E-18
 -1      2446 9.95115E-05-2.91049E-05-3.01517E-05-4.11361E-06-3.95740E-20-1.03530E-19
 -1      2447 9.88218E-05-2.89671E-05-2.99353E-05-3.65146E-06-2.10104E-21-5.26494E-19
 -1      2448 9.78157E-05-2.84402E-05-2.97371E-05-3.98031E-06-2.99842E-19-7.34420E-19
 -1      2449 1.00793E-04-2.93429E-05-3.05961E-05-5.24146E-06 2.17512E-19-6.49534E-19
 -1      2450 9.99289E-05-2.91500E-05-3.03316E-05-4.68901E-06 3.27153E-19-2.30122E-19
 -1      2451 9.85567E-05-2.84604E-05-3.00460E-05-5.10119E-06 3.84169E-19-4.67297E-19
 -1      2452 1.02362E-04-2.96997E-05-3.11148E-05-6.53691E-06 3.84318E-19-6.87547E-19
 -1      2453 1.01297E-04-2.94225E-05-3.08013E-05-5.91149E-06-4.79136E-20-4.40844E-19
 -1      2454 9.94558E-05-2.85376E-05-3.03984E-05-6.42633E-06 2.58535E-19-3.48843E-19
 -1      2455 1.04265E-04-3.02633E-05-3.16923E-05-7.91232E-06-6.42519E-19 3.98322E-19
 -1      2456 1.02975E-04-2.98518E-05-3.13369E-05-7.27125E-06-2.75517E-20 9.44719E-20
 -1      2457 1.00553E-04-2.87456E-05-3.07802E-05-7.91938E-06-5.18111E-19-1.87754E-19
 -1      2458 1.06566E-04-3.11916E-05-3.22919E-05-9.15742E-06-2.71826E-19 1.19995E-18
 -1      2459 1.05038E-04-3.05632E-05-3.19149E-05-8.63135E-06-4.46935E-19 7.34383E-19
 -1      2460 1.01926E-04-2.92315E-05-3.11636E-05-9.46872E-06-9.08690E-19 2.02453E-18
 -1      2461 1.09363E-04-3.27405E-05-3.28503E-05-9.85651E-06-2.79675E-19 1.75259E-18
 -1      2462 1.07601E-04-3.17738E-05-3.24901E-05-9.69427E-06 1.31462E-19 1.48896E-18
 -1      2463 1.03734E-04-3.02629E-05-3.15049E-05-1.08281E-05-7.69776E-20 1.73788E-18
 -1      2464 1.12794E-04-3.52488E-05-3.32850E-05-9.29750E-06 2.67345E-20 1.27327E-18
 -1      2465 1.10846E-04-3.38101E-05-3.29970E-05-9.90363E-06-3.19732E-19 2.11500E-18
 -1      2466 1.06275E-04-3.22660E-05-3.17529E-05-1.15293E-05-3.00316E-20 1.39633E-18
 -1      2467 1.16965E-04-3.89630E-05-3.35343E-05-6.44404E-06-1.51401E-19 1.59382E-18
 -1      2468 1.14994E-04-3.70334E-05-3.33735E-05-8.35131E-06 2.78634E-19 1.50548E-18
 -1      2469 1.10021E-04-3.57762E-05-3.18831E-05-1.07779E-05 1.94649E-19 2.31346E-18
 -1      2470 1.21652E-04-4.34764E-05-3.36553E-05-1.55400E-07-4.58245E-19 1.51887E-18
 -1      2471 1.20100E-04-4.14922E-05-3.36264E-05-3.80304E-06-2.29400E-19 1.67459E-18
 -1      2472 1.15502E-04-4.11165E-05-3.19770E-05-7.38381E-06 3.69240E-19 2.48252E-18
 -1      2473 1.25654E-04-4.67558E-05-3.39762E-05 9.86312E-06-1.21278E-18 1.96764E-18
 -1      2474 1.25414E-04-4.60418E-05-3.39606E-05 4.75122E-06-3.95948E-19 1.76498E-18
 -1      2475 1.22681E-04-4.73888E-05-3.23674E-05 3.28516E-08-5.35709E-19 2.44024E-18
 -1      2476 1.26369E-04-4.47656E-05-3.50919E-05 2.11535E-05-6.01248E-19 1.06770E-18
 -1      2477 1.28557E-04-4.73368E-05-3.48708E-05 1.64593E-05-1.04243E-18 1.43835E-18
 -1      2478 1.29810E-04-5.11533E-05-3.37704E-05 1.18340E-05-8.53558E-19 3.20509E-18
 -1      2479 1.21183E-04-3.51411E-05-3.69279E-05 2.63952E-05-1.46494E-18 2.89972E-18
 -1      2480 1.26251E-04-4.11159E-05-3.67560E-05 2.58481E-05-1.08820E-18 8.94516E-19
 -1      2481 1.32479E-04-4.67114E-05-3.69440E-05 2.43011E-05-1.24215E-18 6.66218E-19
 -1      2482 1.09609E-04-1.96165E-05-3.90913E-05 1.21704E-06 7.53118E-19 1.12719E-18
 -1      2483 1.09658E-04-1.84313E-05-3.95054E-05 9.36053E-06-2.24781E-19 1.99209E-18
 -1      2484 1.13846E-04-2.91746E-05-3.67420E-05-1.13293E-05 7.03143E-19 1.95334E-19
 -1      2485 1.11474E-04-2.36131E-05-3.77831E-05-7.16995E-06 1.16891E-18 5.81422E-19
 -1      2486 1.19598E-04-2.04118E-05-4.29546E-05-3.59489E-06 8.02034E-19 4.71850E-19
 -1      2487 1.17394E-04-3.88957E-05-3.38618E-05-1.07794E-05-1.00686E-18 1.77422E-18
 -1      2488 1.15539E-04-3.45667E-05-3.47718E-05-1.20284E-05-8.71915E-19 1.46163E-18
 -1      2489 1.24060E-04-3.39243E-05-3.88953E-05-1.21857E-05-3.53160E-19-1.91694E-19
 -1      2490 1.15265E-04-4.13032E-05-3.16925E-05-2.35905E-06 6.79869E-19 1.06838E-18
 -1      2491 1.15773E-04-4.08135E-05-3.22457E-05-6.13357E-06 5.64832E-20 1.30304E-18
 -1      2492 1.24582E-04-4.39250E-05-3.46982E-05-7.38858E-06-5.02582E-19 8.16831E-19
 -1      2493 1.08443E-04-3.65587E-05-3.06612E-05 5.16984E-06 1.69377E-18-6.70585E-19
 -1      2494 1.10799E-04-3.89887E-05-3.09205E-05 2.49303E-06 1.51574E-18 4.46350E-19
 -1      2495 1.18278E-04-4.38318E-05-3.19755E-05 2.83879E-06 1.98197E-18-1.47096E-18
 -1      2496 1.03120E-04-3.22481E-05-3.04488E-05 7.33746E-06 1.84482E-18-1.02813E-18
 -1      2497 7.06910E-05-1.03452E-05-2.58639E-05 2.85283E-05 7.29362E-19-2.36132E-18
 -1      2498 8.07534E-05-1.67583E-05-2.67623E-05 3.51732E-05-4.99597E-19-3.02878E-18
 -1      2499 5.84266E-05-1.72371E-06-2.39878E-05 3.75944E-08 1.24252E-18 6.36439E-19
 -1      2500 6.16343E-05-3.88890E-06-2.43367E-05 1.40639E-05 2.12157E-18-1.88560E-18
 -1      2501 6.13022E-05-1.26407E-05-2.02426E-05 2.46501E-05 1.47188E-18-7.35648E-19
 -1      2502 1.07592E-04-3.52244E-05-3.08928E-05 3.00252E-05 1.64768E-18 1.45154E-18
 -1      2503 1.10865E-04-3.83668E-05-3.10028E-05 2.43541E-05 2.35774E-18 4.67060E-19
 -1      2504 9.22450E-05-2.56308E-05-2.86492E-05 3.79069E-05-7.27072E-19-1.99873E-18
 -1      2505 1.01518E-04-3.19513E-05-2.94128E-05 3.66939E-05 4.10387E-19 1.67024E-19
 -1      2506 1.09780E-04-4.26496E-05-2.87731E-05 3.60195E-05 2.58186E-19-7.53859E-20
 -1      2507 6.90765E-05-9.03967E-06-2.50677E-05-3.06134E-05 1.83700E-20-2.74121E-19
 -1      2508 6.12201E-05-4.12995E-06-2.44589E-05-1.85158E-05-1.24011E-19 8.70432E-19
 -1      2509 5.27588E-05-7.36315E-06-1.88068E-05-1.12162E-05 2.08847E-18-8.89385E-20
 -1      2510 9.15849E-05-2.50827E-05-2.79174E-05-4.28130E-05 1.69107E-18 1.16626E-19
 -1      2511 8.04914E-05-1.77174E-05-2.70762E-05-3.94311E-05 9.86740E-19-1.61349E-18
 -1      2512 7.27882E-05-1.98892E-05-2.21528E-05-4.05535E-05 3.70418E-19-5.15737E-19
 -1      2513 1.07879E-04-3.69271E-05-3.01467E-05-3.60570E-05-4.82438E-19-2.07976E-19
 -1      2514 1.01067E-04-3.16704E-05-2.97899E-05-4.01056E-05 8.53406E-19-4.23622E-19
 -1      2515 9.91109E-05-3.59906E-05-2.69706E-05-4.58048E-05 1.10691E-18-1.05657E-18
 -1      2516 1.12277E-04-4.03240E-05-3.08261E-05-2.17438E-05-9.94827E-19-1.13338E-18
 -1      2517 1.10788E-04-3.81544E-05-3.10078E-05-2.82388E-05-5.34623E-19-3.68572E-19
 -1      2518 1.14377E-04-4.37032E-05-3.03060E-05-3.34996E-05-8.23303E-19-4.06212E-19
 -1      2519 1.09567E-04-3.87717E-05-3.04129E-05-8.46641E-06-7.58571E-19-3.99972E-19
 -1      2520 1.11009E-04-3.86321E-05-3.08412E-05-1.43012E-05-7.51580E-19-1.24863E-18
 -1      2521 1.16307E-04-4.29346E-05-3.14124E-05-1.75772E-05-1.41622E-20-8.34586E-19
 -1      2522 1.04584E-04-3.57100E-05-2.95948E-05 6.64824E-07-1.81082E-18 3.58394E-18
 -1      2523 1.06850E-04-3.64749E-05-3.00156E-05-3.27088E-06-1.40521E-18 2.03515E-18
 -1      2524 1.11405E-04-3.88124E-05-3.10438E-05-4.89792E-06-2.87402E-19 8.05330E-19
 -1      2525 9.98447E-05-3.28165E-05-2.87810E-05 5.77475E-06-9.38810E-19 3.31096E-18
 -1      2526 1.02102E-04-3.39524E-05-2.91033E-05 3.68368E-06-1.85990E-18 3.18835E-18
 -1      2527 1.05126E-04-3.47485E-05-3.01016E-05 3.05909E-06-8.90714E-19 3.82425E-18
 -1      2528 1.09550E-04-6.02381E-05-2.09464E-05 5.26234E-05 5.61583E-19 5.53801E-19
 -1      2529 8.82277E-05-5.20870E-05-1.51008E-05 5.25912E-05 1.00352E-18 3.30766E-19
 -1      2530 9.60920E-05-3.10333E-05-2.78757E-05 6.77498E-06 1.37415E-19 2.49081E-19
 -1      2531 2.86564E-05-1.74381E-05-4.27116E-06-1.34585E-05 1.46600E-18-1.72583E-18
 -1      2532 3.69074E-05-2.36002E-05-5.43988E-06-3.38261E-05 8.69268E-19-5.18384E-19
 -1      2533 9.36309E-05-2.74739E-05-2.83414E-05 3.66703E-07 8.51943E-19 8.72778E-19
 -1      2534 9.39129E-05-2.73379E-05-2.84883E-05 9.00603E-07 1.05964E-18 1.08512E-18
 -1      2535 9.42733E-05-2.74904E-05-2.86349E-05 3.99680E-07 9.48693E-19 2.91409E-19
 -1      2536 3.19327E-05-2.21684E-05-3.88322E-06 2.38546E-05 2.93878E-18 1.89608E-18
 -1      2537 2.64559E-05-1.84118E-05-3.19439E-06 7.06605E-06 2.34573E-18-3.16367E-19
 -1      2538 1.37462E-04-6.71662E-05-3.03284E-05 4.05265E-05 1.18585E-18-2.99299E-18
 -1      2539 1.22758E-04-6.58087E-05-2.43854E-05 4.56183E-05 1.73663E-18-9.07384E-19
 -1      2540 1.19896E-04-6.26742E-05-2.42425E-05 4.65130E-05 3.79259E-19-1.11868E-18
 -1      2541 9.50706E-05-2.00214E-05-3.22131E-05-1.17672E-05-2.04318E-18-9.10680E-19
 -1      2542 9.54758E-05-2.33577E-05-3.09279E-05-7.96289E-06-1.87807E-18-7.62278E-19
 -1      2543 9.50495E-05-2.25731E-05-3.10505E-05-7.60573E-06-1.70537E-18-1.12876E-18
 -1      2544 9.32372E-05-1.77028E-05-3.23984E-05-1.13067E-05-1.90293E-18-1.48914E-18
 -1      2545 4.96736E-05-3.18420E-05-7.13167E-06-4.49148E-05-7.56189E-19-1.58882E-18
 -1      2546 6.79305E-05-4.03379E-05-1.17619E-05-5.57157E-05 1.45478E-19-1.56976E-18
 -1      2547 5.14972E-05-2.30184E-05-1.16865E-05-3.90580E-05 2.64380E-19-7.36495E-19
 -1      2548 8.78349E-05-1.07958E-05-3.30525E-05-1.51795E-06 1.95802E-19-2.86133E-18
 -1      2549 8.79403E-05-1.09178E-05-3.30439E-05-2.63639E-06-6.19784E-20-2.86243E-18
 -1      2550 8.93389E-05-1.30896E-05-3.26804E-05-2.92913E-06-1.41956E-19-2.61537E-18
 -1      2551 8.90904E-05-1.27552E-05-3.27184E-05-9.40753E-07 2.27366E-19-2.71521E-18
 -1      2552 1.57065E-04-1.50915E-05-6.11399E-05 1.37252E-05 1.70254E-18-3.91753E-21
 -1      2553 1.54365E-04-1.30687E-05-6.11034E-05 8.32227E-06 2.18238E-18-6.04358E-19
 -1      2554 1.41969E-04-1.44229E-05-5.48391E-05 1.87221E-05 6.00335E-19 8.25751E-19
 -1      2555 1.65361E-04-3.54153E-05-5.61008E-05 1.23431E-06 3.75024E-19-2.45555E-18
 -1      2556 1.63387E-04-4.58604E-05-5.03639E-05 4.55209E-06-1.31184E-19-1.91641E-18
 -1      2557 1.56377E-04-1.68588E-05-6.04234E-05 2.00841E-06 1.79698E-18-1.50677E-18
 -1      2558 1.59365E-04-2.36775E-05-5.84728E-05-9.59048E-07 1.17695E-18-2.23024E-18
 -1      2559 1.58641E-04-5.26214E-05-4.56473E-05 1.25195E-05-6.46921E-20 7.84776E-19
 -1      2560 1.59690E-04-4.22289E-05-5.10216E-05 1.89245E-05-6.29345E-19 1.26017E-18
 -1      2561 1.45033E-04-6.61781E-05-3.40111E-05-9.07990E-06 9.60535E-19 8.09552E-19
 -1      2562 1.55339E-04-6.21331E-05-4.04014E-05 5.69402E-08 5.11820E-19 1.00903E-18
 -1      2563 1.18971E-04-6.68605E-05-2.22671E-05-2.68583E-05 7.08967E-19 2.48392E-19
 -1      2564 1.35021E-04-6.80897E-05-2.88681E-05-2.08430E-05 1.26123E-18 1.20130E-18
 -1      2565 1.42601E-04-6.97999E-05-3.10742E-05-8.28157E-06 9.71229E-19 1.85341E-18
 -1      2566 7.72947E-05-5.38676E-05-9.88082E-06-3.73679E-05 1.01305E-18-2.20800E-18
 -1      2567 9.74783E-05-6.04742E-05-1.60080E-05-3.70286E-05 5.31090E-19-1.24824E-18
 -1      2568 3.95990E-05-3.79476E-05-6.11845E-07-2.93806E-05 9.98017E-19-1.58607E-18
 -1      2569 5.61093E-05-4.45381E-05-4.94144E-06-3.71781E-05 8.56562E-19-2.32320E-18
 -1      2570 1.96026E-05-2.55141E-05 2.77142E-06-8.59310E-06 4.81750E-19-1.18627E-18
 -1      2571 2.72565E-05-3.05045E-05 1.57889E-06-2.12377E-05 7.38189E-19-2.07311E-18
 -1      2572 2.19990E-05-2.37674E-05 1.14253E-06 1.91586E-05 4.60786E-19 1.18669E-18
 -1      2573 1.85964E-05-2.31350E-05 2.36744E-06 5.07562E-06 1.66025E-19 8.60162E-19
 -1      2574 4.66929E-05-3.78747E-05-3.64054E-06 4.17318E-05 6.46286E-19-2.39753E-18
 -1      2575 3.23931E-05-3.09194E-05-3.43665E-07 3.19979E-05-1.91429E-19-7.62330E-21
 -1      2576 8.36531E-05-5.23473E-05-1.35103E-05 4.71912E-05 1.38977E-18-1.44207E-18
 -1      2577 6.42293E-05-4.60524E-05-7.58304E-06 4.45959E-05 1.18669E-18-3.47241E-18
 -1      2578 1.23856E-04-6.25176E-05-2.64297E-05 3.56107E-05-3.25261E-19 1.32836E-18
 -1      2579 1.06806E-04-6.01501E-05-1.97838E-05 4.02729E-05 9.48253E-19 7.01237E-19
 -1      2580 1.47792E-04-5.87833E-05-3.85841E-05 1.62536E-05-2.44157E-19-1.62334E-18
 -1      2581 1.36266E-04-6.17341E-05-3.20197E-05 2.42644E-05-8.62385E-19 2.03288E-19
 -1      2582 1.56764E-04-4.07395E-05-5.03634E-05-5.73113E-06 1.67077E-19-6.90332E-19
 -1      2583 1.52518E-04-5.03637E-05-4.40167E-05 1.80734E-06 1.74833E-19-1.39549E-18
 -1      2584 1.53585E-04-1.84874E-05-5.86300E-05-1.19140E-05-5.14149E-19-1.43551E-18
 -1      2585 1.54179E-04-2.69311E-05-5.50127E-05-1.11819E-05-6.75509E-20-1.89820E-18
 -1      2586 1.51307E-04-8.48290E-06-6.17825E-05-5.97568E-06 8.89808E-19-1.44221E-19
 -1      2587 1.49640E-04-1.01445E-05-6.04640E-05-9.38282E-06-4.98902E-19-7.35754E-19
 -1      2588 1.58412E-04-1.59272E-05-6.14251E-05-1.15585E-06 2.07777E-18 1.09733E-18
 -1      2589 1.56256E-04-1.08379E-05-6.29584E-05-2.30274E-06 1.95283E-18 1.03952E-18
 -1      2590 1.58666E-04-3.61737E-05-5.26978E-05-4.96468E-06 2.54555E-18 1.12359E-18
 -1      2591 1.61381E-04-2.62291E-05-5.83767E-05-2.29947E-06 1.77771E-18 1.03444E-18
 -1      2592 1.51817E-04-5.77771E-05-4.04618E-05-2.33977E-05 8.92243E-19-3.26108E-20
 -1      2593 1.57807E-04-5.10301E-05-4.63407E-05-1.47437E-05 2.49740E-18 1.10495E-18
 -1      2594 1.30095E-04-6.29481E-05-2.88013E-05-4.34303E-05-1.98206E-19-1.91218E-19
 -1      2595 1.45113E-04-6.17515E-05-3.58492E-05-3.60074E-05 4.20764E-19 2.30181E-19
 -1      2596 1.48988E-04-6.16758E-05-3.70539E-05-2.40868E-05 3.90853E-19 5.70265E-19
 -1      2597 9.31303E-05-5.35913E-05-1.66988E-05-5.59094E-05 6.81862E-20 7.52377E-19
 -1      2598 1.12564E-04-5.93838E-05-2.28114E-05-5.50537E-05 5.08220E-20 5.56395E-20
 -1      2599 6.39663E-05-4.00852E-05-1.01563E-05 5.08903E-05 1.76352E-18 1.61381E-18
 -1      2600 4.53292E-05-3.03628E-05-6.15013E-06 3.71955E-05 2.11123E-18 2.10445E-18
 -1      2601 9.63406E-05-2.50971E-05-3.05588E-05 7.59055E-06 2.10297E-18 1.86045E-18
 -1      2602 9.74617E-05-2.37805E-05-3.15991E-05 1.06903E-05 2.30732E-18 2.21376E-18
 -1      2603 9.58953E-05-2.13048E-05-3.20232E-05 1.18919E-05 2.51755E-18 1.47471E-18
 -1      2604 9.58838E-05-2.41626E-05-3.07709E-05 7.68136E-06 2.14649E-18 9.73020E-19
 -1      2605 1.61221E-04-5.88310E-05-4.43607E-05 1.65812E-05-4.37598E-19-2.36788E-18
 -1      2606 1.51522E-04-6.48361E-05-3.70533E-05 2.57034E-05 1.61783E-19-2.34289E-18
 -1      2607 1.43104E-04-1.44607E-05-5.53700E-05 2.81320E-06 1.63689E-18-3.77565E-19
 -1      2608 9.07929E-05-1.50446E-05-3.24583E-05-6.80440E-06-1.04977E-18-2.45905E-18
 -1      2609 8.96998E-05-1.31799E-05-3.28460E-05-7.96018E-06-1.16577E-18-2.63959E-18
 -1      2610 9.03592E-05-1.39660E-05-3.28014E-05-9.13213E-06-1.44174E-18-2.52323E-18
 -1      2611 9.47384E-05-2.69402E-05-2.90689E-05 1.88067E-06 1.25709E-18 5.36255E-19
 -1      2612 9.42497E-05-1.90826E-05-3.22597E-05 1.16007E-05 2.43756E-18 4.76549E-19
 -1      2613 1.58706E-04-5.39550E-05-4.49142E-05 4.20131E-06-2.30393E-19-2.17624E-18
 -1      2614 8.31377E-05-4.39631E-05-1.65929E-05 5.13701E-05 8.67150E-19 5.31513E-20
 -1      2615 1.28708E-04-6.29302E-05-2.77265E-05-4.58642E-05-8.15269E-20 5.71747E-21
 -1      2616 1.25811E-04-2.66835E-05-4.29450E-05 2.54088E-05-7.17755E-19 1.73176E-18
 -1      2617 1.36118E-04-3.16940E-05-4.53847E-05 2.84344E-05-1.39062E-18 1.10908E-18
 -1      2618 1.21460E-04-2.01876E-05-4.38184E-05 1.94369E-05-3.86035E-19 1.96782E-18
 -1      2619 1.08170E-04-3.61634E-05-3.09252E-05 9.96887E-06 2.47477E-18-1.54951E-18
 -1      2620 8.67520E-05-2.96102E-05-2.43070E-05 4.21578E-05-9.65141E-19-2.24273E-18
 -1      2621 1.09947E-04-3.68363E-05-3.12886E-05 1.43149E-05 2.78408E-18-1.33643E-18
 -1      2622 1.54000E-04-4.47590E-05-4.69284E-05-3.76599E-06 2.18624E-18 5.62006E-19
 -1      2623 9.55050E-05-2.98643E-05-2.81548E-05 7.60675E-06-6.36702E-19 7.83274E-20
 -1      2624 9.81204E-05-3.15977E-05-2.84621E-05 7.05838E-06-1.26583E-18 1.85275E-18
 -1      2625 9.95671E-05-3.15566E-05-2.91590E-05 7.01246E-06-1.60106E-18 2.58895E-18
 -1      2626 9.49724E-05-2.91293E-05-2.82345E-05 8.09276E-06-1.03942E-18 1.21595E-18
 -1      2627 1.49395E-04-2.00033E-05-5.56513E-05 3.17752E-06 1.81096E-18 4.55492E-19
 -1      2628 3.59826E-05-1.37535E-05-8.96215E-06-4.91807E-06 1.85627E-18-5.34478E-19
 -1      2629 9.47192E-05-2.06039E-05-3.17194E-05 9.66746E-06 2.23924E-18 2.20983E-19
 -1      2630 4.80928E-05-2.26986E-05-1.02977E-05 3.16206E-05 1.47977E-18 1.64769E-18
 -1      2631 1.40523E-04-7.29184E-06-5.74161E-05-3.66141E-06 1.04079E-18-9.54897E-19
 -1      2632 9.11371E-05-1.50078E-05-3.26798E-05-9.81697E-06-1.58119E-18-2.32785E-18
 -1      2633 9.21672E-05-1.62891E-05-3.25989E-05-1.08449E-05-1.81125E-18-1.97285E-18
 -1      2634 9.36612E-05-1.92126E-05-3.18917E-05-9.20040E-06-1.79086E-18-1.67944E-18
 -1      2635 9.20748E-05-1.68204E-05-3.22374E-05-8.30999E-06-1.46032E-18-2.26663E-18
 -1      2636 1.53663E-04-5.90493E-05-4.06572E-05 1.24053E-05 1.43440E-19 2.07989E-18
 -1      2637 1.39993E-04-1.29799E-05-5.47808E-05-1.35820E-05-2.69145E-19-2.85662E-19
 -1      2638 1.47700E-04-3.46416E-05-4.86978E-05-1.44048E-05 9.73241E-19 5.02926E-19
 -1      2639 1.48870E-04-5.61700E-05-3.96815E-05 2.41216E-06 3.66884E-19-3.72694E-19
 -1      2640 1.33527E-04-6.49104E-05-2.92161E-05 2.50700E-05 9.17972E-20-2.08052E-19
 -1      2641 1.00659E-04-5.77195E-05-1.80531E-05 4.19999E-05 7.65294E-19-2.02997E-19
 -1      2642 6.19661E-05-4.06300E-05-8.64481E-06 4.34811E-05 1.32984E-19-2.84222E-18
 -1      2643 3.37360E-05-2.47897E-05-3.30830E-06 2.59461E-05-5.19761E-19-2.07947E-19
 -1      2644 2.55874E-05-2.02892E-05-1.70135E-06-2.34575E-06-1.61677E-19-5.18172E-19
 -1      2645 4.01217E-05-3.08303E-05-3.50142E-06-2.61942E-05 4.84079E-19-1.79529E-18
 -1      2646 1.13931E-04-6.50429E-05-2.06160E-05-2.90672E-05 2.84391E-19 6.59045E-19
 -1      2647 1.45765E-04-6.83828E-05-3.30576E-05 2.86578E-05 6.74874E-19-2.87674E-18
 -1      2648 1.16318E-04-4.39143E-05-3.10404E-05 1.75772E-05 2.23264E-18-1.44755E-18
 -1      2649 1.50750E-04-3.53489E-05-4.96519E-05 2.45675E-05-1.32963E-18 6.78262E-19
 -1      2650 8.66753E-05-4.58011E-05-1.71716E-05-5.53449E-05-1.08378E-18 1.32667E-19
 -1      2651 1.52088E-04-2.97198E-05-5.26726E-05-5.05461E-06 1.70254E-19-2.09895E-18
 -1      2652 7.28621E-05-4.80482E-05-1.02092E-05-3.72583E-05 4.03823E-19-2.25247E-18
 -1      2653 9.75342E-05-2.96419E-05-2.90577E-05 8.39232E-06-1.66106E-18 1.60202E-18
 -1      2654 9.05533E-05-1.51711E-05-3.23289E-05 3.19406E-06 1.00781E-18-2.17465E-18
 -1      2655 9.03625E-05-1.48993E-05-3.23616E-05 2.26050E-06 8.19626E-19-2.29743E-18
 -1      2656 9.02278E-05-1.46964E-05-3.23905E-05 1.42213E-06 6.93332E-19-2.41401E-18
 -1      2657 9.01625E-05-1.46039E-05-3.24015E-05 4.65379E-07 5.40685E-19-2.44738E-18
 -1      2658 9.14138E-05-1.65916E-05-3.20538E-05 1.64075E-06 7.02938E-19-2.24880E-18
 -1      2659 9.21389E-05-1.75501E-05-3.20046E-05 6.47167E-06 1.77767E-18-1.39721E-18
 -1      2660 9.16132E-05-1.67550E-05-3.21044E-05 5.63270E-06 1.59466E-18-1.61614E-18
 -1      2661 9.35630E-05-1.97771E-05-3.16650E-05 7.59348E-06 2.03210E-18-7.92355E-19
 -1      2662 9.27706E-05-1.85209E-05-3.18383E-05 7.01517E-06 1.88695E-18-1.08072E-18
 -1      2663 9.34339E-05-1.98661E-05-3.15063E-05 5.73155E-06 1.67252E-18-1.07802E-18
 -1      2664 9.52213E-05-2.54094E-05-2.99317E-05 3.97431E-06 1.56146E-18 1.11525E-19
 -1      2665 9.55577E-05-2.45594E-05-3.03955E-05 5.60772E-06 1.76360E-18 1.99988E-19
 -1      2666 9.47104E-05-2.19080E-05-3.12078E-05 7.83960E-06 2.04730E-18 6.18499E-20
 -1      2667 1.46056E-04-4.82874E-05-4.20628E-05-3.60900E-06 2.62199E-18 2.66815E-20
 -1      2668 1.45176E-04-3.67621E-05-4.72195E-05 3.64062E-06 3.05567E-18 3.36060E-19
 -1      2669 9.53498E-05-2.58976E-05-2.97404E-05-2.70386E-06-1.18212E-18-1.18359E-18
 -1      2670 9.51949E-05-2.64860E-05-2.94571E-05-1.71677E-06-1.06859E-18-1.10322E-18
 -1      2671 9.52192E-05-2.70072E-05-2.92108E-05-9.77663E-07-9.81737E-19-9.25206E-19
 -1      2672 9.50851E-05-2.73613E-05-2.90307E-05-3.72384E-07-8.52796E-19-1.05829E-18
 -1      2673 9.54181E-05-2.63334E-05-2.96144E-05-1.61514E-06-1.01257E-18-1.20014E-18
 -1      2674 9.50518E-05-2.76676E-05-2.88630E-05 9.39856E-08-7.26159E-19-1.01902E-18
 -1      2675 9.49739E-05-2.78925E-05-2.87521E-05 4.44171E-07-5.30656E-19-1.04282E-18
 -1      2676 9.54168E-05-2.73265E-05-2.91890E-05-3.38702E-07-8.07199E-19-1.06065E-18
 -1      2677 9.49316E-05-2.80781E-05-2.86412E-05 7.12559E-07-5.48766E-19-9.82871E-19
 -1      2678 9.49030E-05-2.82253E-05-2.85772E-05 8.94658E-07-4.56194E-19-1.18114E-18
 -1      2679 9.53560E-05-2.79424E-05-2.88982E-05 4.49236E-07-5.63063E-19-1.20002E-18
 -1      2680 9.48677E-05-2.83376E-05-2.85068E-05 1.02741E-06-5.02278E-19-1.20378E-18
 -1      2681 9.48743E-05-2.84351E-05-2.84739E-05 1.10078E-06-4.92788E-19-1.26193E-18
 -1      2682 9.52912E-05-2.83242E-05-2.87055E-05 8.88470E-07-6.06839E-19-1.08786E-18
 -1      2683 9.48496E-05-2.85010E-05-2.84318E-05 1.14426E-06-3.62475E-19-1.34483E-18
 -1      2684 9.48779E-05-2.85650E-05-2.84192E-05 1.14958E-06-4.23414E-19-1.35617E-18
 -1      2685 9.52413E-05-2.85573E-05-2.85829E-05 1.09066E-06-4.10951E-19-1.32266E-18
 -1      2686 9.48626E-05-2.86007E-05-2.83966E-05 1.13722E-06-5.93671E-19-1.31273E-18
 -1      2687 9.49024E-05-2.86415E-05-2.83967E-05 1.10236E-06-6.15394E-19-1.31192E-18
 -1      2688 9.52088E-05-2.86933E-05-2.85095E-05 1.13865E-06-5.21041E-19-1.10710E-18
 -1      2689 9.48944E-05-2.86573E-05-2.83872E-05 1.05777E-06-4.76279E-19-1.19424E-18
 -1      2690 9.49386E-05-2.86816E-05-2.83949E-05 1.00172E-06-3.43548E-19-1.01164E-18
 -1      2691 9.51908E-05-2.87650E-05-2.84702E-05 1.09209E-06-4.23025E-19-8.06388E-19
 -1      2692 9.49356E-05-2.86844E-05-2.83939E-05 9.41291E-07-1.01420E-19-8.37510E-19
 -1      2693 9.49796E-05-2.86970E-05-2.84059E-05 8.76898E-07-2.40971E-20-8.82690E-19
 -1      2694 9.51834E-05-2.87939E-05-2.84540E-05 9.92994E-07-1.90695E-19-9.96461E-19
 -1      2695 9.49800E-05-2.86914E-05-2.84104E-05 8.11761E-07-1.89709E-19-8.25143E-19
 -1      2696 9.50213E-05-2.86956E-05-2.84243E-05 7.47584E-07-3.83205E-19-9.23693E-19
 -1      2697 9.51831E-05-2.87948E-05-2.84530E-05 8.70399E-07-1.25714E-19-1.08843E-18
 -1      2698 9.50237E-05-2.86847E-05-2.84322E-05 6.85204E-07-3.34488E-19-6.94195E-19
 -1      2699 9.50612E-05-2.86830E-05-2.84469E-05 6.26896E-07-3.24589E-19-5.90605E-19
 -1      2700 9.51871E-05-2.87773E-05-2.84619E-05 7.44041E-07-2.37461E-19-4.69993E-19
 -1      2701 9.50648E-05-2.86686E-05-2.84568E-05 5.72244E-07-5.79888E-19-1.93994E-19
 -1      2702 9.50984E-05-2.86625E-05-2.84716E-05 5.23563E-07-7.81099E-19 1.99297E-19
 -1      2703 9.51938E-05-2.87480E-05-2.84772E-05 6.27185E-07-2.96109E-19-2.01828E-19
 -1      2704 9.51028E-05-2.86458E-05-2.84828E-05 4.80021E-07-1.31568E-18 1.92046E-19
 -1      2705 9.51331E-05-2.86364E-05-2.84976E-05 4.43582E-07-1.16352E-18-1.09813E-20
 -1      2706 9.52020E-05-2.87108E-05-2.84965E-05 5.28792E-07-1.10888E-18 3.92281E-19
 -1      2707 9.51381E-05-2.86179E-05-2.85099E-05 4.13622E-07-8.66253E-19-4.77142E-19
 -1      2708 9.51663E-05-2.86058E-05-2.85248E-05 3.91460E-07-5.98919E-19-5.26826E-19
 -1      2709 9.52111E-05-2.86679E-05-2.85188E-05 4.55166E-07-1.22439E-18 2.63885E-19
 -1      2710 9.51718E-05-2.85854E-05-2.85382E-05 3.77154E-07-3.31964E-19-6.64790E-19
 -1      2711 9.51994E-05-2.85710E-05-2.85537E-05 3.71137E-07-5.04277E-19-1.06486E-18
 -1      2712 9.52210E-05-2.86199E-05-2.85436E-05 4.11190E-07-6.15891E-19-5.55217E-20
 -1      2713 9.52056E-05-2.85484E-05-2.85685E-05 3.74534E-07-4.83976E-19-8.82337E-19
 -1      2714 9.52347E-05-2.85319E-05-2.85853E-05 3.86649E-07-4.32502E-19-5.23649E-19
 -1      2715 9.52319E-05-2.85666E-05-2.85711E-05 4.01247E-07-3.09824E-19-5.31150E-19
 -1      2716 9.52420E-05-2.85067E-05-2.86019E-05 4.10024E-07-5.58561E-19-1.69108E-19
 -1      2717 9.52749E-05-2.84881E-05-2.86210E-05 4.42546E-07-1.29369E-19-2.39416E-19
 -1      2718 9.52444E-05-2.85073E-05-2.86020E-05 4.29873E-07-3.34592E-19-3.05451E-19
 -1      2719 9.52836E-05-2.84598E-05-2.86399E-05 4.88532E-07 2.53309E-19-3.08445E-19
 -1      2720 9.53231E-05-2.84396E-05-2.86620E-05 5.44066E-07 5.31283E-19-1.58353E-19
 -1      2721 9.52592E-05-2.84408E-05-2.86369E-05 5.02157E-07-7.14266E-20 9.98820E-20
 -1      2722 9.53343E-05-2.84080E-05-2.86839E-05 6.15646E-07 3.41569E-19-1.97031E-19
 -1      2723 9.53837E-05-2.83868E-05-2.87101E-05 6.97017E-07 1.70113E-19-4.19089E-19
 -1      2724 9.52779E-05-2.83663E-05-2.86770E-05 6.23873E-07 4.71058E-19-2.93241E-19
 -1      2725 9.53986E-05-2.83523E-05-2.87354E-05 7.97368E-07-1.14418E-19-2.07862E-19
 -1      2726 9.54616E-05-2.83316E-05-2.87666E-05 9.07323E-07-5.23189E-19 8.68831E-20
 -1      2727 9.53026E-05-2.82840E-05-2.87230E-05 8.01318E-07 1.93516E-19-5.62264E-19
 -1      2728 9.54822E-05-2.82955E-05-2.87957E-05 1.03945E-06-9.45809E-19-1.44004E-19
 -1      2729 9.55634E-05-2.82779E-05-2.88327E-05 1.18010E-06-5.25088E-19-5.17034E-19
 -1      2730 9.53367E-05-2.81956E-05-2.87756E-05 1.04080E-06-7.58364E-19 8.11020E-19
 -1      2731 9.55929E-05-2.82432E-05-2.88655E-05 1.34619E-06-2.08520E-19-7.27240E-19
 -1      2732 9.56976E-05-2.82334E-05-2.89088E-05 1.51814E-06-1.41089E-19-1.08909E-18
 -1      2733 9.53853E-05-2.81063E-05-2.88349E-05 1.34762E-06-5.09158E-19 5.72247E-19
 -1      2734 9.57409E-05-2.82055E-05-2.89451E-05 1.71857E-06-5.91459E-20-1.51638E-18
 -1      2735 9.58757E-05-2.82107E-05-2.89945E-05 1.91954E-06-8.75550E-20-1.94961E-18
 -1      2736 9.54565E-05-2.80255E-05-2.89003E-05 1.72448E-06-1.65375E-19-1.54125E-19
 -1      2737 9.59406E-05-2.81989E-05-2.90332E-05 2.15143E-06 2.48144E-19-2.08609E-18
 -1      2738 9.61134E-05-2.82301E-05-2.90879E-05 2.37442E-06 1.12827E-21-1.73358E-18
 -1      2739 9.55631E-05-2.79703E-05-2.89701E-05 2.16906E-06 2.24514E-19-8.38921E-19
 -1      2740 9.62117E-05-2.82486E-05-2.91273E-05 2.62955E-06-1.03648E-19-1.86545E-18
 -1      2741 9.64321E-05-2.83218E-05-2.91856E-05 2.86032E-06-9.86403E-20-1.41575E-18
 -1      2742 9.57245E-05-2.79676E-05-2.90410E-05 2.67060E-06 9.32081E-20-5.61223E-19
 -1      2743 9.65816E-05-2.83920E-05-2.92230E-05 3.12245E-06-1.91004E-19-1.28165E-18
 -1      2744 9.68616E-05-2.85292E-05-2.92819E-05 3.33634E-06 7.57011E-20-9.72686E-19
 -1      2745 9.59702E-05-2.80582E-05-2.91086E-05 3.20528E-06-4.31143E-19-8.26708E-19
 -1      2746 9.70884E-05-2.86806E-05-2.93141E-05 3.57765E-06 6.04818E-19-6.52020E-19
 -1      2747 9.74422E-05-2.89103E-05-2.93696E-05 3.73605E-06 7.53896E-19 3.17696E-19
 -1      2748 9.63437E-05-2.82999E-05-2.91667E-05 3.73022E-06 6.17959E-19-7.57682E-19
 -1      2749 9.77820E-05-2.91808E-05-2.93934E-05 3.91290E-06 4.36065E-19 3.66419E-19
 -1      2750 9.82251E-05-2.95359E-05-2.94407E-05 3.95981E-06 3.80810E-19 5.36770E-19
 -1      2751 9.69064E-05-2.87695E-05-2.92091E-05 4.17595E-06 7.31854E-19 4.71946E-19
 -1      2752 9.87243E-05-2.99691E-05-2.94542E-05 4.00797E-06-2.41325E-19 1.04054E-18
 -1      2753 9.92699E-05-3.04809E-05-2.94890E-05 3.86799E-06-1.69177E-20 7.71437E-19
 -1      2754 9.77402E-05-2.95601E-05-2.92312E-05 4.43762E-06 6.70636E-19 2.37569E-19
 -1      2755 9.99802E-05-3.11164E-05-2.94941E-05 3.69844E-06-1.62914E-19 1.01824E-18
 -1      2756 1.00631E-04-3.18000E-05-2.95149E-05 3.27889E-06-7.83845E-20 5.04624E-19
 -1      2757 9.89437E-05-3.07674E-05-2.92342E-05 4.36563E-06-3.27974E-19 7.42873E-19
 -1      2758 1.01595E-04-3.26522E-05-2.95207E-05 2.77693E-06-1.20835E-19 5.01434E-19
 -1      2759 1.02325E-04-3.34782E-05-2.95320E-05 1.97898E-06-1.26279E-19 8.18393E-19
 -1      2760 1.00614E-04-3.24561E-05-2.92315E-05 3.75879E-06-4.42832E-19 5.45067E-19
 -1      2761 1.03545E-04-3.44981E-05-2.95592E-05 1.01389E-06-8.48636E-20 9.39832E-19
 -1      2762 1.04273E-04-3.53506E-05-2.95753E-05-2.39143E-07 8.46430E-19 6.77704E-19
 -1      2763 1.02802E-04-3.45922E-05-2.92572E-05 2.36844E-06 9.27261E-20 1.25429E-18
 -1      2764 1.05652E-04-3.63694E-05-2.96600E-05-1.77798E-06 4.00248E-19-2.30215E-19
 -1      2765 1.06211E-04-3.69985E-05-2.97071E-05-3.48364E-06 1.15526E-19-5.64721E-19
 -1      2766 1.05425E-04-3.69331E-05-2.93750E-05-6.53371E-08-2.11045E-19-3.79271E-19
 -1      2767 1.07486E-04-3.76748E-05-2.98999E-05-5.59702E-06 2.74733E-19-1.16074E-18
 -1      2768 1.07621E-04-3.76880E-05-3.00125E-05-7.58243E-06-6.29015E-19-1.83703E-18
 -1      2769 1.08134E-04-3.88908E-05-2.96825E-05-3.70053E-06-4.14952E-19-1.29365E-18
 -1      2770 1.08341E-04-3.75274E-05-3.03627E-05-1.00050E-05-1.00619E-18-2.34156E-18
 -1      2771 1.07780E-04-3.65003E-05-3.05662E-05-1.18325E-05-1.36399E-18-1.94654E-18
 -1      2772 1.10210E-04-3.94797E-05-3.02952E-05-8.34644E-06-5.85177E-19-1.58664E-18
 -1      2773 1.07449E-04-3.50597E-05-3.10825E-05-1.38730E-05-9.66117E-19-1.02286E-18
 -1      2774 1.06095E-04-3.28337E-05-3.13671E-05-1.48383E-05-1.58120E-19-6.69679E-19
 -1      2775 1.10666E-04-3.75739E-05-3.12862E-05-1.30978E-05-9.18768E-19-1.11749E-18
 -1      2776 1.04550E-04-3.01434E-05-3.19784E-05-1.54188E-05-7.84796E-20-4.39091E-19
 -1      2777 1.02743E-04-2.72564E-05-3.22770E-05-1.47800E-05-2.80963E-19 1.64361E-19
 -1      2778 1.08745E-04-3.25874E-05-3.25861E-05-1.61327E-05-2.75881E-19-9.64268E-19
 -1      2779 1.00637E-04-2.42711E-05-3.28163E-05-1.31104E-05-5.54234E-19 2.19348E-19
 -1      2780 9.90704E-05-2.19150E-05-3.30084E-05-1.06799E-05-1.51698E-19-5.82828E-19
 -1      2781 1.04975E-04-2.57478E-05-3.39309E-05-1.53457E-05-2.83154E-19-2.11361E-20
 -1      2782 9.77244E-05-2.02348E-05-3.32425E-05-7.02285E-06 3.37983E-19-1.74654E-19
 -1      2783 9.70929E-05-1.96230E-05-3.32103E-05-3.62525E-06 1.23110E-18 2.43635E-19
 -1      2784 1.01369E-04-2.01528E-05-3.48539E-05-9.82012E-06 1.58607E-19 9.23365E-20
 -1      2785 9.72374E-05-2.01211E-05-3.30161E-05 3.88298E-07 2.13380E-18 8.19920E-19
 -1      2786 9.76214E-05-2.13946E-05-3.27438E-05 3.38442E-06 2.05943E-18 1.99858E-18
 -1      2787 1.00148E-04-1.88017E-05-3.49271E-05-1.73657E-06 2.30430E-18 5.69287E-19
 -1      2788 9.87080E-05-2.34587E-05-3.21910E-05 5.96101E-06 1.28933E-18 2.52720E-18
 -1      2789 9.95084E-05-2.55811E-05-3.17671E-05 7.56889E-06 1.29297E-18 2.21092E-18
 -1      2790 1.01540E-04-2.19869E-05-3.40918E-05 5.08683E-06 1.87727E-18 6.49337E-19
 -1      2791 1.00230E-04-2.77115E-05-3.10452E-05 8.18244E-06 4.81998E-20 1.57477E-18
 -1      2792 1.00709E-04-2.95049E-05-3.05689E-05 8.36114E-06-6.08110E-19 5.00462E-19
 -1      2793 1.03485E-04-2.71422E-05-3.26654E-05 8.01198E-06 5.03495E-19 2.39525E-18
 -1      2794 9.44810E-05-2.81311E-05-2.84355E-05-8.95021E-07 3.20934E-19-1.72926E-19
 -1      2795 9.44974E-05-2.80035E-05-2.84862E-05-7.19944E-07 3.01199E-19-1.34792E-19
 -1      2796 1.40568E-04-2.37224E-05-5.04852E-05 6.61461E-06 2.09619E-18-6.21616E-19
 -1      2797 1.36755E-04-1.48142E-05-5.30665E-05 4.55830E-06 1.61572E-18-1.08436E-18
 -1      2798 1.41930E-04-4.50030E-05-4.19657E-05 2.78899E-05-1.26674E-18 6.25746E-19
 -1      2799 9.45579E-05-2.78522E-05-2.85891E-05-4.44600E-07 3.80542E-19-1.56496E-19
 -1      2800 9.46461E-05-2.76650E-05-2.86878E-05-1.01050E-07 6.41022E-19 7.24266E-20
 -1      2801 9.50098E-05-2.79118E-05-2.87645E-05-4.54455E-07 4.58718E-19-2.98448E-19
 -1      2802 9.45209E-05-2.84368E-05-2.83209E-05-1.14445E-06 6.27005E-19 2.00509E-19
 -1      2803 9.44642E-05-2.83726E-05-2.83218E-05-1.14211E-06 7.44085E-19 1.64408E-19
 -1      2804 9.45924E-05-2.85169E-05-2.83172E-05-1.09553E-06 6.82569E-19-2.45251E-20
 -1      2805 9.45235E-05-2.84715E-05-2.83070E-05-1.13180E-06 7.20880E-19 7.29270E-20
 -1      2806 9.48965E-05-2.85765E-05-2.84258E-05-1.16213E-06 7.14982E-19 7.01815E-20
 -1      2807 9.46762E-05-2.85674E-05-2.83315E-05-9.93903E-07 6.32711E-19-2.85846E-19
 -1      2808 9.46045E-05-2.85361E-05-2.83153E-05-1.05038E-06 6.09636E-19-1.27827E-19
 -1      2809 9.49171E-05-2.86505E-05-2.84019E-05-1.11334E-06 7.04533E-19 1.10827E-19
 -1      2810 9.47621E-05-2.85969E-05-2.83557E-05-8.68314E-07 5.72270E-19-2.46458E-19
 -1      2811 9.46934E-05-2.85761E-05-2.83369E-05-9.32692E-07 7.51370E-19 4.25282E-20
 -1      2812 9.49502E-05-2.86886E-05-2.83990E-05-1.01094E-06 6.22563E-19-1.33886E-19
 -1      2813 9.48440E-05-2.86112E-05-2.83848E-05-7.38002E-07 3.23915E-19-8.60450E-20
 -1      2814 9.47813E-05-2.85984E-05-2.83654E-05-8.02154E-07 4.05249E-19-1.21132E-19
 -1      2815 9.49888E-05-2.87024E-05-2.84091E-05-8.84413E-07 4.94520E-19 3.46088E-20
 -1      2816 9.49191E-05-2.86146E-05-2.84155E-05-6.15651E-07 1.79660E-19 2.93232E-19
 -1      2817 9.48635E-05-2.86079E-05-2.83967E-05-6.74269E-07 3.31197E-19 5.32994E-20
 -1      2818 9.50286E-05-2.86999E-05-2.84269E-05-7.53590E-07 1.81550E-19 5.92524E-19
 -1      2819 9.49865E-05-2.86101E-05-2.84463E-05-5.09599E-07 5.01992E-19 4.12685E-19
 -1      2820 9.49379E-05-2.86081E-05-2.84285E-05-5.59209E-07 3.13611E-19 4.63524E-19
 -1      2821 9.50672E-05-2.86864E-05-2.84491E-05-6.31690E-07 2.26582E-19 7.47913E-19
 -1      2822 9.50472E-05-2.85998E-05-2.84767E-05-4.25503E-07 9.66861E-19 2.16158E-19
 -1      2823 9.50044E-05-2.86013E-05-2.84598E-05-4.63716E-07 7.05331E-19 5.91373E-19
 -1      2824 9.51036E-05-2.86653E-05-2.84737E-05-5.27549E-07 6.90439E-19 8.17586E-19
 -1      2825 9.51031E-05-2.85848E-05-2.85069E-05-3.67601E-07 3.45144E-19 6.14206E-19
 -1      2826 9.50642E-05-2.85891E-05-2.84906E-05-3.92549E-07 7.80165E-19 2.02449E-19
 -1      2827 9.51378E-05-2.86386E-05-2.84998E-05-4.47316E-07 7.78210E-19 6.34820E-19
 -1      2828 9.51570E-05-2.85657E-05-2.85379E-05-3.39707E-07 8.04957E-20 1.38222E-18
 -1      2829 9.51199E-05-2.85724E-05-2.85215E-05-3.49597E-07 2.03910E-19 1.02008E-18
 -1      2830 9.51706E-05-2.86071E-05-2.85274E-05-3.95780E-07 9.98984E-20 7.73621E-19
 -1      2831 9.52127E-05-2.85426E-05-2.85714E-05-3.45991E-07-1.69189E-19 8.16688E-19
 -1      2832 9.51744E-05-2.85514E-05-2.85537E-05-3.38746E-07 1.28233E-19 1.07168E-18
 -1      2833 9.52036E-05-2.85707E-05-2.85573E-05-3.77376E-07 4.82870E-20 8.49743E-19
 -1      2834 9.52746E-05-2.85152E-05-2.86091E-05-3.91632E-07 3.25263E-19-2.87406E-19
 -1      2835 9.52318E-05-2.85260E-05-2.85891E-05-3.64589E-07 1.96517E-20 2.76217E-19
 -1      2836 9.52385E-05-2.85285E-05-2.85904E-05-3.96996E-07 4.40914E-19 7.59456E-19
 -1      2837 9.53475E-05-2.84827E-05-2.86537E-05-4.83367E-07 5.50581E-19-1.98570E-19
 -1      2838 9.52963E-05-2.84954E-05-2.86299E-05-4.33015E-07 6.20337E-19-5.57783E-21
 -1      2839 9.52775E-05-2.84790E-05-2.86286E-05-4.60657E-07 3.53518E-19 4.05667E-19
 -1      2840 9.54372E-05-2.84439E-05-2.87081E-05-6.29975E-07 6.12764E-19-4.30126E-19
 -1      2841 9.53732E-05-2.84587E-05-2.86786E-05-5.51719E-07 8.05271E-19-3.58275E-19
 -1      2842 9.53229E-05-2.84196E-05-2.86737E-05-5.76039E-07 6.86892E-19 5.34646E-19
 -1      2843 9.55501E-05-2.83971E-05-2.87755E-05-8.42705E-07 2.46531E-19-6.63047E-19
 -1      2844 9.54681E-05-2.84143E-05-2.87384E-05-7.30647E-07 4.09302E-19-8.78713E-19
 -1      2845 9.53770E-05-2.83475E-05-2.87280E-05-7.52942E-07 7.01928E-19-1.75149E-19
 -1      2846 9.56927E-05-2.83404E-05-2.88597E-05-1.13564E-06-1.23775E-19-1.60393E-18
 -1      2847 9.55869E-05-2.83603E-05-2.88127E-05-9.82392E-07-3.72162E-20-7.02107E-19
 -1      2848 9.54419E-05-2.82586E-05-2.87941E-05-1.00365E-06 2.49267E-19-5.67639E-19
 -1      2849 9.58721E-05-2.82711E-05-2.89648E-05-1.52598E-06-3.35850E-19-1.71352E-18
 -1      2850 9.57359E-05-2.82940E-05-2.89054E-05-1.32252E-06-1.53556E-19-1.36782E-18
 -1      2851 9.55190E-05-2.81482E-05-2.88745E-05-1.34320E-06 4.95041E-20-1.14255E-18
 -1      2852 9.60949E-05-2.81863E-05-2.90949E-05-2.03406E-06 3.55183E-20-1.66428E-18
 -1      2853 9.59213E-05-2.82126E-05-2.90203E-05-1.76973E-06-3.63672E-20-1.50804E-18
 -1      2854 9.56084E-05-2.80105E-05-2.89718E-05-1.78948E-06-3.38695E-19-6.13655E-19
 -1      2855 9.63668E-05-2.80833E-05-2.92536E-05-2.68293E-06 4.04338E-19-1.23893E-18
 -1      2856 9.61482E-05-2.81126E-05-2.91613E-05-2.34575E-06 4.12829E-19-1.10131E-18
 -1      2857 9.57081E-05-2.78391E-05-2.90877E-05-2.36301E-06-3.31587E-20-2.02615E-19
 -1      2858 9.66923E-05-2.79607E-05-2.94434E-05-3.49710E-06-4.35572E-19-4.03510E-19
 -1      2859 9.64210E-05-2.79916E-05-2.93312E-05-3.07460E-06-1.89469E-19-1.00676E-18
 -1      2860 9.58133E-05-2.76279E-05-2.92228E-05-3.08629E-06-1.60944E-19 4.57319E-20
 -1      2861 9.70746E-05-2.78227E-05-2.96641E-05-4.49956E-06-2.47550E-19 2.61731E-19
 -1      2862 9.67422E-05-2.78499E-05-2.95310E-05-3.98077E-06-3.58462E-19 1.10826E-19
 -1      2863 9.59160E-05-2.73731E-05-2.93750E-05-3.98221E-06-5.81156E-19 1.00616E-18
 -1      2864 9.75180E-05-2.76856E-05-2.99107E-05-5.70595E-06 2.56079E-19 4.54926E-19
 -1      2865 9.71149E-05-2.76964E-05-2.97581E-05-5.08536E-06 5.32373E-20-2.06223E-19
 -1      2866 9.60063E-05-2.70793E-05-2.95382E-05-5.07114E-06 6.98207E-20 5.92522E-19
 -1      2867 9.80359E-05-2.75934E-05-3.01706E-05-7.11390E-06 3.51553E-19 3.70417E-19
 -1      2868 9.75472E-05-2.75590E-05-3.00037E-05-6.39878E-06 6.40809E-19 1.10937E-18
 -1      2869 9.60770E-05-2.67697E-05-2.96995E-05-6.36588E-06 1.51935E-19 1.11024E-18
 -1      2870 9.86685E-05-2.76444E-05-3.04192E-05-8.68478E-06-7.56285E-19 9.50557E-19
 -1      2871 9.80661E-05-2.75057E-05-3.02495E-05-7.90777E-06 1.14992E-19 7.61606E-19
 -1      2872 9.61373E-05-2.65080E-05-2.98363E-05-7.86370E-06-1.00428E-19 1.68773E-18
 -1      2873 9.95215E-05-2.80364E-05-3.06178E-05-1.03141E-05-6.31966E-19 8.20127E-19
 -1      2874 9.87464E-05-2.76803E-05-3.04644E-05-9.55360E-06-6.72505E-19 8.15285E-19
 -1      2875 9.62409E-05-2.64345E-05-2.99131E-05-9.53417E-06-5.19230E-19 6.50333E-19
 -1      2876 1.00833E-04-2.91295E-05-3.07145E-05-1.17852E-05-7.16001E-20 5.61233E-19
 -1      2877 9.97667E-05-2.83585E-05-3.06034E-05-1.11958E-05-4.24948E-19 5.19436E-19
 -1      2878 9.65422E-05-2.68253E-05-2.98813E-05-1.13007E-05-3.25183E-19-5.61011E-19
 -1      2879 1.03067E-04-3.15025E-05-3.06620E-05-1.26953E-05-2.54626E-19 9.31272E-19
 -1      2880 1.01500E-04-3.00168E-05-3.06160E-05-1.25494E-05-2.28803E-19 1.21459E-18
 -1      2881 9.73936E-05-2.81720E-05-2.96866E-05-1.30071E-05-6.98141E-19 4.52089E-19
 -1      2882 1.06984E-04-3.59030E-05-3.04689E-05-1.23479E-05 2.21006E-19 1.90821E-18
 -1      2883 1.04613E-04-3.33559E-05-3.04799E-05-1.30765E-05 2.40748E-19 1.85012E-18
 -1      2884 9.94794E-05-3.12368E-05-2.93008E-05-1.43358E-05-7.35431E-19 9.67960E-19
 -1      2885 1.13485E-04-4.28569E-05-3.03099E-05-9.61352E-06 3.77624E-19 2.72749E-18
 -1      2886 1.10082E-04-3.91305E-05-3.02839E-05-1.18168E-05 7.17741E-19 3.08929E-18
 -1      2887 1.03918E-04-3.69697E-05-2.88031E-05-1.46310E-05-1.76903E-19 2.96540E-18
 -1      2888 1.22954E-04-5.13899E-05-3.07396E-05-2.80282E-06-6.96870E-19 3.66818E-18
 -1      2889 1.18860E-04-4.74469E-05-3.03932E-05-7.12087E-06-5.08719E-19 3.43259E-18
 -1      2890 1.12186E-04-4.60655E-05-2.85461E-05-1.25760E-05-3.84950E-19 4.39592E-18
 -1      2891 1.33610E-04-5.67870E-05-3.30247E-05 9.22947E-06-4.10110E-19 2.74983E-18
 -1      2892 1.30233E-04-5.57073E-05-3.17532E-05 2.85518E-06-3.88709E-20 3.35990E-18
 -1      2893 1.24882E-04-5.64661E-05-2.95679E-05-5.46318E-06-2.63434E-19 3.28695E-18
 -1      2894 1.30310E-04-1.64430E-05-4.93117E-05 1.52603E-05 3.31825E-19 7.17503E-19
 -1      2895 1.32449E-04-2.34287E-05-4.74902E-05-7.69872E-06 7.40942E-19 2.18640E-19
 -1      2896 1.29927E-04-1.57177E-05-4.94920E-05-9.42571E-08 1.05710E-18 4.81591E-19
 -1      2897 8.67781E-05-3.77433E-05-2.07606E-05 4.64054E-05-4.70527E-19-1.57538E-18
 -1      2898 1.04401E-04-4.71684E-05-2.39474E-05 4.75963E-05-8.38139E-19-1.88714E-18
 -1      2899 5.01163E-05-1.22947E-05-1.51406E-05-2.74147E-05 1.86236E-18 2.95403E-19
 -1      2900 4.31307E-05-9.07734E-06-1.42477E-05-7.95618E-06 2.28619E-18-1.91218E-18
 -1      2901 1.12294E-04-4.73545E-05-2.72357E-05-4.66036E-05-4.36328E-19-1.25620E-18
 -1      2902 9.74452E-05-4.02373E-05-2.45609E-05-5.02752E-05 1.56754E-19-9.32477E-19
 -1      2903 1.24102E-04-5.06141E-05-3.15003E-05-2.80035E-05-3.54986E-19-1.84805E-19
 -1      2904 1.20484E-04-4.96611E-05-3.03101E-05-3.59949E-05-1.97319E-19-2.13267E-19
 -1      2905 1.20586E-04-4.50875E-05-3.25339E-05-1.13121E-05-4.12065E-19-1.01252E-19
 -1      2906 1.22952E-04-4.69096E-05-3.24481E-05-1.84195E-05-9.48015E-20-1.03428E-18
 -1      2907 1.28949E-04-5.20959E-05-3.28977E-05-2.07921E-05-2.02550E-19 1.92402E-19
 -1      2908 1.12263E-04-3.83143E-05-3.18437E-05-2.74906E-07 5.82661E-19 1.23174E-18
 -1      2909 1.16357E-04-4.07265E-05-3.22846E-05-5.19128E-06 9.10853E-19 7.52112E-19
 -1      2910 1.22218E-04-4.37542E-05-3.34999E-05-5.59329E-06 1.17893E-18 4.97169E-19
 -1      2911 1.23635E-04-5.78527E-05-2.79815E-05-4.26730E-05 4.66186E-19-5.06896E-19
 -1      2912 1.36506E-04-6.14261E-05-3.24249E-05-3.30155E-05 8.11405E-19-2.33940E-19
 -1      2913 9.45215E-05-2.14925E-05-3.13296E-05-7.68498E-06-1.69957E-18-1.46541E-18
 -1      2914 9.49434E-05-2.32216E-05-3.07379E-05-5.98987E-06-1.55768E-18-1.32159E-18
 -1      2915 9.37463E-05-2.01309E-05-3.15508E-05-7.55118E-06-1.56924E-18-1.82399E-18
 -1      2916 5.86190E-05-2.03042E-05-1.63183E-05-4.04294E-05 2.83438E-19-4.71374E-19
 -1      2917 1.49019E-04-6.64535E-05-3.58764E-05 1.85561E-05 3.38760E-19-2.92438E-18
 -1      2918 1.37682E-04-6.63247E-05-3.04648E-05 3.04849E-05 5.21137E-19-3.79894E-18
 -1      2919 9.47278E-05-2.74146E-05-2.88513E-05 3.82707E-07 8.71049E-19-2.97315E-20
 -1      2920 9.49075E-05-2.71210E-05-2.90237E-05 9.88126E-07 1.05161E-18 1.22904E-19
 -1      2921 9.51317E-05-2.73820E-05-2.90452E-05 3.69433E-07 8.49400E-19-2.42590E-19
 -1      2922 1.32493E-04-5.21081E-05-3.45481E-05 8.25576E-08 7.28528E-19-1.45449E-18
 -1      2923 1.34363E-04-4.91632E-05-3.68116E-05-4.93183E-06-1.13767E-18-1.85977E-19
 -1      2924 9.44768E-05-2.83147E-05-2.83545E-05-1.09826E-06 5.54599E-19-6.48400E-20
 -1      2925 9.44466E-05-2.82247E-05-2.83745E-05-1.02996E-06 3.89620E-19-1.76215E-19
 -1      2926 9.49320E-05-2.82425E-05-2.85875E-05-9.07878E-07 3.56042E-19-3.28331E-19
 -1      2927 9.48976E-05-2.84495E-05-2.84822E-05-1.11432E-06 4.58127E-19 1.11872E-19
 -1      2928 9.53034E-05-2.43259E-05-3.04072E-05-4.93940E-06-1.33682E-18-1.33747E-18
 -1      2929 9.52022E-05-2.52555E-05-2.99902E-05-3.49430E-06-1.26120E-18-1.26915E-18
 -1      2930 9.52465E-05-2.49431E-05-3.01263E-05-3.25046E-06-1.10201E-18-1.45325E-18
 -1      2931 9.48736E-05-2.32563E-05-3.06991E-05-5.11041E-06-1.35821E-18-1.57540E-18
 -1      2932 9.11726E-05-1.60868E-05-3.22075E-05 4.91563E-06 1.48592E-18-1.77705E-18
 -1      2933 9.08290E-05-1.55875E-05-3.22680E-05 3.99363E-06 1.20922E-18-1.98227E-18
 -1      2934 9.18066E-05-1.71986E-05-3.19595E-05 3.19701E-06 1.03641E-18-1.87736E-18
 -1      2935 9.24766E-05-1.82592E-05-3.17877E-05 4.61366E-06 1.37519E-18-1.51837E-18
 -1      2936 9.07916E-05-1.55380E-05-3.22733E-05-3.92893E-06-4.75805E-19-2.51281E-18
 -1      2937 9.11304E-05-1.60280E-05-3.22148E-05-4.85429E-06-7.27944E-19-2.46682E-18
 -1      2938 9.49842E-05-2.66914E-05-2.92738E-05 1.77740E-06 1.16805E-18 1.18927E-19
 -1      2939 9.52510E-05-2.61946E-05-2.95587E-05 2.78475E-06 1.29105E-18 1.67021E-19
 -1      2940 9.52731E-05-2.50225E-05-3.01052E-05 3.81659E-06 1.50556E-18-3.16347E-19
 -1      2941 9.52565E-05-2.65056E-05-2.94724E-05 1.73129E-06 1.17591E-18-1.99942E-19
 -1      2942 6.58893E-05-4.02503E-05-1.03769E-05-3.42770E-05 5.67512E-19-1.99794E-18
 -1      2943 8.39359E-05-4.99885E-05-1.46399E-05-3.60992E-05-6.08805E-20-1.65658E-18
 -1      2944 1.29088E-04-9.42303E-06-5.20523E-05-1.23150E-05-1.69618E-19-2.38969E-19
 -1      2945 1.33398E-04-1.66496E-05-5.04472E-05-1.75721E-05 3.84976E-19-1.84018E-19
 -1      2946 1.33743E-04-6.60199E-05-2.87435E-05-8.20293E-06 5.66030E-19 2.61352E-18
 -1      2947 1.40702E-04-6.51561E-05-3.26410E-05 3.89841E-07 5.91705E-19 3.11197E-18
 -1      2948 1.00349E-04-3.03153E-05-3.00162E-05 7.85652E-06-6.57868E-19 1.48678E-18
 -1      2949 1.00321E-04-3.11330E-05-2.96664E-05 7.60402E-06-1.06571E-18 1.97459E-18
 -1      2950 1.03920E-04-3.10993E-05-3.11869E-05 7.49527E-06 3.12472E-19 2.35827E-18
 -1      2951 1.05359E-04-5.86725E-05-1.93982E-05-2.97547E-05-4.58668E-19 9.16119E-20
 -1      2952 1.22815E-04-6.55804E-05-2.47269E-05-2.13655E-05-6.61744E-20 2.10715E-18
 -1      2953 1.25647E-04-6.16196E-05-2.72742E-05-1.20286E-05 7.21566E-20 2.19117E-18
 -1      2954 9.77637E-05-5.21648E-05-1.90798E-05-2.97953E-05-6.38133E-19 1.56595E-19
 -1      2955 3.96759E-05-2.44180E-05-5.99520E-06-2.17640E-05-7.29401E-19-2.03394E-18
 -1      2956 5.17739E-05-3.22829E-05-7.96459E-06-3.10433E-05-2.36957E-19-1.38935E-18
 -1      2957 6.48948E-05-3.46221E-05-1.23193E-05-3.05562E-05-4.80585E-19-2.66741E-18
 -1      2958 2.97045E-05-1.62986E-05-5.23247E-06 3.13277E-06-6.27373E-19 4.67350E-19
 -1      2959 3.17779E-05-1.89074E-05-4.87617E-06-1.09823E-05-1.02846E-18-9.70700E-19
 -1      2960 4.47529E-05-2.59188E-05-7.55620E-06 3.30166E-05-3.15202E-19-1.22566E-18
 -1      2961 3.50875E-05-1.89448E-05-6.30824E-06 1.97349E-05-3.50989E-20-5.00385E-19
 -1      2962 7.27507E-05-4.27651E-05-1.27674E-05 4.40017E-05 4.24575E-19-2.48477E-18
 -1      2963 5.74617E-05-3.41904E-05-9.40249E-06 3.93661E-05-3.05355E-19-1.85585E-18
 -1      2964 1.12378E-04-6.08145E-05-2.22445E-05 3.66119E-05 8.15163E-19 7.35820E-19
 -1      2965 9.31468E-05-5.24434E-05-1.68921E-05 4.13794E-05 9.49100E-19-2.67609E-19
 -1      2966 1.37786E-04-6.49121E-05-3.16325E-05 1.71854E-05 2.61945E-19 2.02864E-19
 -1      2967 1.27844E-04-6.46680E-05-2.67885E-05 2.58417E-05 5.39772E-19 3.19226E-20
 -1      2968 1.45281E-04-5.29948E-05-4.00427E-05-6.01264E-06 6.45545E-19 6.00758E-19
 -1      2969 1.44025E-04-6.11386E-05-3.54800E-05 5.83962E-06-6.12511E-20-3.00697E-20
 -1      2970 1.37879E-04-2.78267E-05-4.78642E-05-1.83750E-05 1.41582E-18 2.20229E-19
 -1      2971 1.41312E-04-3.95837E-05-4.39157E-05-1.54210E-05 1.33376E-18 8.47245E-19
 -1      2972 7.76728E-05-3.02179E-05-1.93885E-05-4.96546E-05-3.56813E-20-4.41410E-19
 -1      2973 4.33413E-05-1.01907E-05-1.34599E-05 1.30978E-05 2.53326E-18-1.40607E-19
 -1      2974 1.02659E-04-3.24899E-05-3.01038E-05 6.56909E-06-1.52130E-19 4.06878E-18
 -1      2975 1.42059E-04-6.00207E-05-3.52828E-05-2.29041E-05 8.50950E-19-1.21295E-18
 -1      2976 1.46252E-04-5.68278E-05-3.89753E-05-1.30719E-05 1.31460E-18-5.62218E-19
 -1      2977 1.41543E-04-4.86284E-05-3.97958E-05-3.30838E-06 2.37442E-18-1.04185E-19
 -1      2978 1.37066E-04-5.67414E-05-3.42753E-05-2.09296E-05 6.01195E-20-2.62474E-19
 -1      2979 1.32464E-04-9.12447E-06-5.34658E-05 1.17477E-06 1.48824E-18-9.50318E-19
 -1      2980 1.27329E-04-6.25512E-06-5.25722E-05-4.87267E-06 1.14879E-18-1.72278E-18
 -1      2981 1.26177E-04-1.34207E-05-4.87547E-05 3.64132E-06 1.49808E-18-1.87729E-18
 -1      2982 1.51698E-04-4.81579E-05-4.50612E-05-3.84958E-06-6.23416E-19-2.35877E-18
 -1      2983 1.52390E-04-5.85862E-05-4.01402E-05 4.26267E-06-4.66450E-19-2.60696E-18
 -1      2984 1.46961E-04-5.48933E-05-3.99784E-05 1.91231E-05-6.65450E-19 1.75548E-18
 -1      2985 1.38055E-04-5.07139E-05-3.75828E-05 2.23591E-05-8.85017E-19 1.92536E-18
 -1      2986 1.38188E-04-5.59638E-05-3.52981E-05 1.69825E-05-5.01457E-19 1.40110E-18
 -1      2987 1.45999E-04-6.34516E-05-3.55527E-05 9.06342E-06 8.22330E-19 2.56344E-18
 -1      2988 6.80078E-05-2.51541E-05-1.73339E-05 4.26613E-05 2.73698E-19-6.68627E-19
 -1      2989 1.16728E-04-5.68156E-05-2.55583E-05 4.34119E-05-8.71279E-19-1.79677E-18
 -1      2990 1.14040E-04-4.86164E-05-2.77844E-05 3.87885E-05-9.95211E-19-2.13053E-18
 -1      2991 1.21357E-04-5.16033E-05-2.97603E-05 3.17496E-05 4.04061E-19-7.92671E-19
 -1      2992 1.29210E-04-6.32086E-05-2.82671E-05 3.84045E-05 1.70042E-19-3.39062E-18
 -1      2993 9.15602E-05-1.66774E-05-3.21140E-05-5.57930E-06-9.16223E-19-2.36938E-18
 -1      2994 9.20821E-05-1.74715E-05-3.20147E-05-6.40341E-06-1.19459E-18-2.24115E-18
 -1      2995 9.24266E-05-1.81771E-05-3.17975E-05-4.57707E-06-8.31978E-19-2.22675E-18
 -1      2996 9.12810E-05-1.63887E-05-3.20845E-05 2.84168E-08 4.23073E-19-2.27579E-18
 -1      2997 9.01584E-05-1.45990E-05-3.24020E-05-3.83007E-07 3.06006E-19-2.50514E-18
 -1      2998 9.02152E-05-1.46793E-05-3.23921E-05-1.34037E-06 8.92619E-20-2.54833E-18
 -1      2999 4.29888E-05-2.07260E-05-8.88984E-06-1.59758E-05-1.65881E-18-1.26060E-18
 -1      3000 9.43564E-05-2.14233E-05-3.12611E-05 7.21367E-06 1.99373E-18-4.64816E-19
 -1      3001 5.39480E-05-1.65199E-05-1.55305E-05 2.97103E-05 7.29825E-19 1.05053E-18
 -1      3002 1.34131E-04-6.17169E-05-3.09665E-05 2.72506E-05-2.19964E-20-3.98039E-18
 -1      3003 9.03405E-05-1.48705E-05-3.23645E-05-2.17722E-06-3.48709E-20-2.39844E-18
 -1      3004 9.05245E-05-1.51334E-05-3.23325E-05-3.12789E-06-3.00228E-19-2.44623E-18
 -1      3005 9.17764E-05-1.71553E-05-3.19647E-05-3.14126E-06-4.28415E-19-2.27227E-18
 -1      3006 9.14000E-05-1.65723E-05-3.20560E-05-1.58295E-06-1.17398E-20-2.33891E-18
 -1      3007 1.46272E-04-6.05124E-05-3.68885E-05 7.96632E-06 6.89935E-20-2.85937E-18
 -1      3008 1.28301E-04-1.41411E-05-5.00506E-05 8.19888E-06 1.51788E-18 9.34608E-19
 -1      3009 1.31434E-04-3.09794E-05-4.34021E-05-1.09840E-05 2.96250E-19-3.88576E-20
 -1      3010 1.43512E-04-2.83065E-05-4.99603E-05-8.60048E-06 3.07685E-19-2.22134E-19
 -1      3011 1.33754E-04-4.00989E-05-4.07739E-05-1.10570E-05-6.25216E-19-1.52519E-19
 -1      3012 1.20898E-04-4.69647E-05-3.16469E-05 1.08077E-05 2.78640E-18-1.84952E-18
 -1      3013 1.25435E-04-4.99756E-05-3.24580E-05 6.52125E-06 2.57622E-18-8.22376E-19
 -1      3014 1.06095E-04-3.42985E-05-3.07145E-05 3.95002E-06 3.89612E-19 3.12707E-18
 -1      3015 1.10075E-04-3.53731E-05-3.19225E-05 3.99183E-06 1.11020E-18 1.83072E-18
 -1      3016 1.29653E-04-2.35121E-05-4.58372E-05-1.89102E-05 1.23857E-18-2.68139E-19
 -1      3017 1.41733E-04-4.74658E-05-4.07520E-05-1.26745E-05 1.00630E-18 9.48518E-19
 -1      3018 1.38554E-04-5.18608E-05-3.70904E-05-8.69601E-06 6.65450E-19 1.08182E-18
 -1      3019 1.33469E-04-3.98171E-05-4.05637E-05-1.78205E-05 1.28701E-18 1.31661E-19
 -1      3020 1.38902E-04-6.24407E-05-3.27670E-05 8.14574E-06 5.24419E-19 6.67197E-19
 -1      3021 1.20188E-04-6.16551E-05-2.49107E-05 2.79669E-05 1.14244E-18-4.21928E-20
 -1      3022 8.78747E-05-4.69442E-05-1.70852E-05 3.93506E-05 9.25489E-19-7.32525E-19
 -1      3023 1.22690E-04-9.76715E-06-4.88707E-05-8.64664E-06 9.05478E-19-6.75046E-19
 -1      3024 1.34241E-04-5.54715E-05-3.37972E-05 8.74116E-06 1.75594E-18-1.26404E-18
 -1      3025 1.35744E-04-3.04700E-05-4.54570E-05 6.60203E-06 2.38090E-18-2.96356E-19
 -1      3026 9.46185E-05-2.24674E-05-3.09137E-05 5.69058E-06 1.77983E-18-6.27314E-19
 -1      3027 1.50060E-04-3.95065E-05-4.77712E-05-8.22909E-06 7.67624E-20-1.36203E-18
 -1      3028 1.45335E-04-4.59727E-05-4.29188E-05-7.47373E-06-7.16060E-19-2.95509E-19
 -1      3029 1.22318E-04-4.91448E-05-3.12154E-05 2.13802E-05 2.40430E-18-4.36937E-19
 -1      3030 5.71007E-05-2.88909E-05-1.15266E-05 3.36930E-05-5.84453E-20-1.20067E-18
 -1      3031 3.63938E-05-1.63568E-05-7.89288E-06 1.17940E-05-2.96528E-19 5.69630E-19
 -1      3032 4.03155E-05-1.48407E-05-1.04361E-05 4.03763E-06-4.78163E-19 5.97052E-19
 -1      3033 4.52354E-05-1.77361E-05-1.14009E-05 1.82275E-05 1.11530E-19-3.62318E-19
 -1      3034 8.79075E-05-4.22734E-05-1.92443E-05-5.36731E-05-8.67573E-19-3.89635E-20
 -1      3035 1.26834E-04-5.51854E-05-3.06892E-05 2.45857E-05 1.03742E-18-1.85554E-18
 -1      3036 9.42826E-05-2.18760E-05-3.10597E-05 4.95493E-06 1.45629E-18-8.16946E-19
 -1      3037 9.38044E-05-2.09037E-05-3.12448E-05 4.61562E-06 1.35448E-18-1.13591E-18
 -1      3038 1.22578E-04-1.72871E-05-4.53814E-05 6.90924E-06 1.03222E-18-5.29263E-19
 -1      3039 1.17684E-04-1.19095E-05-4.57772E-05 2.22324E-06 1.06334E-18-6.47689E-19
 -1      3040 9.56797E-05-2.68789E-05-2.94716E-05-7.40387E-07-8.73340E-19-1.28524E-18
 -1      3041 9.56553E-05-2.73270E-05-2.92916E-05-2.15302E-07-6.60283E-19-1.31366E-18
 -1      3042 9.56991E-05-2.77130E-05-2.91256E-05 1.64634E-07-6.54159E-19-1.29713E-18
 -1      3043 9.56618E-05-2.79997E-05-2.90027E-05 4.79407E-07-7.08867E-19-1.33149E-18
 -1      3044 9.58943E-05-2.73300E-05-2.93877E-05-1.59926E-07-7.34416E-19-1.41079E-18
 -1      3045 9.56539E-05-2.82384E-05-2.88844E-05 7.00742E-07-5.29471E-19-1.18704E-18
 -1      3046 9.56215E-05-2.84196E-05-2.88031E-05 8.68169E-07-4.32828E-19-1.25600E-18
 -1      3047 9.59351E-05-2.80550E-05-2.90950E-05 4.74285E-07-5.30325E-19-1.12694E-18
 -1      3048 9.55895E-05-2.85617E-05-2.87210E-05 9.76607E-07-4.93515E-19-1.22626E-18
 -1      3049 9.55663E-05-2.86727E-05-2.86694E-05 1.04498E-06-5.36932E-19-1.28230E-18
 -1      3050 9.59011E-05-2.85072E-05-2.88865E-05 8.30967E-07-4.58265E-19-1.16546E-18
 -1      3051 9.55248E-05-2.87509E-05-2.86143E-05 1.07741E-06-4.13414E-19-1.08464E-18
 -1      3052 9.55102E-05-2.88144E-05-2.85837E-05 1.08236E-06-4.65079E-19-9.99764E-19
 -1      3053 9.58332E-05-2.87755E-05-2.87420E-05 9.92591E-07-4.11943E-19-1.02374E-18
 -1      3054 9.54670E-05-2.88504E-05-2.85483E-05 1.06685E-06-5.19524E-19-9.53721E-19
 -1      3055 9.54591E-05-2.88819E-05-2.85323E-05 1.03395E-06-2.31391E-19-7.09575E-19
 -1      3056 9.57530E-05-2.89202E-05-2.86451E-05 1.02508E-06-2.84720E-19-8.90800E-19
 -1      3057 9.54180E-05-2.88904E-05-2.85112E-05 9.90955E-07-2.63832E-19-5.07934E-19
 -1      3058 9.54150E-05-2.89005E-05-2.85051E-05 9.38175E-07-1.23879E-19-7.45135E-19
 -1      3059 9.56722E-05-2.89824E-05-2.85833E-05 9.78000E-07-2.81838E-19-4.06636E-19
 -1      3060 9.53779E-05-2.88915E-05-2.84942E-05 8.82176E-07-5.23329E-20-7.17772E-19
 -1      3061 9.53780E-05-2.88874E-05-2.84948E-05 8.21898E-07-1.28794E-19-6.70921E-19
 -1      3062 9.55966E-05-2.89906E-05-2.85470E-05 8.87279E-07-8.03839E-20-2.42045E-19
 -1      3063 9.53455E-05-2.88675E-05-2.84910E-05 7.62895E-07-7.03447E-20-5.94210E-19
 -1      3064 9.53476E-05-2.88542E-05-2.84959E-05 7.03535E-07 7.66815E-20-1.31402E-19
 -1      3065 9.55290E-05-2.89643E-05-2.85290E-05 7.78197E-07 3.91575E-20-2.49245E-19
 -1      3066 9.53197E-05-2.88277E-05-2.84973E-05 6.48338E-07-3.13031E-19-7.07007E-20
 -1      3067 9.53230E-05-2.88084E-05-2.85050E-05 5.95589E-07-6.11953E-19-2.71895E-19
 -1      3068 9.54700E-05-2.89162E-05-2.85240E-05 6.68215E-07-1.03643E-19-6.01106E-19
 -1      3069 9.52991E-05-2.87778E-05-2.85100E-05 5.48852E-07-9.30390E-19-1.90981E-19
 -1      3070 9.53031E-05-2.87542E-05-2.85197E-05 5.06644E-07-1.30291E-18-2.53134E-19
 -1      3071 9.54191E-05-2.88546E-05-2.85284E-05 5.69315E-07-8.34511E-19-5.29652E-19
 -1      3072 9.52823E-05-2.87207E-05-2.85273E-05 4.71667E-07-1.41748E-18 1.04358E-19
 -1      3073 9.52869E-05-2.86938E-05-2.85386E-05 4.42879E-07-1.12999E-18 1.44423E-19
 -1      3074 9.53750E-05-2.87839E-05-2.85396E-05 4.89855E-07-1.06953E-18-2.07882E-19
 -1      3075 9.52682E-05-2.86577E-05-2.85484E-05 4.22216E-07-8.75010E-19 1.10543E-19
 -1      3076 9.52733E-05-2.86276E-05-2.85611E-05 4.09226E-07-4.42805E-19 1.48432E-19
 -1      3077 9.53359E-05-2.87060E-05-2.85561E-05 4.35991E-07-8.64369E-19 3.91107E-19
 -1      3078 9.52556E-05-2.85883E-05-2.85728E-05 4.05161E-07-5.22530E-19 1.08332E-19
 -1      3079 9.52613E-05-2.85547E-05-2.85871E-05 4.10246E-07-6.58799E-19-9.98494E-20
 -1      3080 9.52996E-05-2.86209E-05-2.85769E-05 4.12780E-07-6.68917E-19 3.40441E-19
 -1      3081 9.52432E-05-2.85112E-05-2.86007E-05 4.25139E-07-3.00125E-19 2.05929E-21
 -1      3082 9.52499E-05-2.84735E-05-2.86168E-05 4.50744E-07-9.87004E-20 1.34638E-19
 -1      3083 9.52637E-05-2.85270E-05-2.86017E-05 4.25025E-07-3.44481E-19 1.98811E-19
 -1      3084 9.52301E-05-2.84247E-05-2.86323E-05 4.87247E-07-2.24242E-19 2.28594E-19
 -1      3085 9.52383E-05-2.83823E-05-2.86507E-05 5.36123E-07 2.03241E-19 7.19238E-20
 -1      3086 9.52257E-05-2.84220E-05-2.86303E-05 4.77846E-07 4.15234E-20 1.38008E-19
 -1      3087 9.52155E-05-2.83269E-05-2.86682E-05 5.97289E-07 6.13369E-19-7.40366E-20
 -1      3088 9.52260E-05-2.82794E-05-2.86892E-05 6.72494E-07 8.32291E-19 3.46602E-19
 -1      3089 9.51829E-05-2.83033E-05-2.86627E-05 5.77012E-07 2.22705E-19 1.33631E-20
 -1      3090 9.51993E-05-2.82168E-05-2.87087E-05 7.61755E-07 2.98155E-19 1.97750E-20
 -1      3091 9.52135E-05-2.81647E-05-2.87326E-05 8.66505E-07-1.08872E-19-7.76057E-20
 -1      3092 9.51331E-05-2.81691E-05-2.86988E-05 7.29043E-07 3.19818E-19 3.27473E-19
 -1      3093 9.51824E-05-2.80951E-05-2.87539E-05 9.87513E-07-4.46978E-19 3.14859E-19
 -1      3094 9.52023E-05-2.80398E-05-2.87809E-05 1.12483E-06-8.95701E-19 7.30561E-19
 -1      3095 9.50750E-05-2.80187E-05-2.87383E-05 9.41048E-07-4.01349E-20-4.63887E-19
 -1      3096 9.51675E-05-2.79652E-05-2.88034E-05 1.28110E-06-7.53450E-19 7.56583E-19
 -1      3097 9.51962E-05-2.79106E-05-2.88332E-05 1.45318E-06-1.88861E-19 5.53287E-19
 -1      3098 9.50087E-05-2.78547E-05-2.87801E-05 1.22025E-06-5.48226E-19-9.31872E-20
 -1      3099 9.51602E-05-2.78357E-05-2.88560E-05 1.64752E-06-5.09043E-19 1.97919E-19
 -1      3100 9.52029E-05-2.77887E-05-2.88879E-05 1.85484E-06-3.69738E-19-1.52863E-19
 -1      3101 9.49373E-05-2.76843E-05-2.88226E-05 1.57311E-06-6.71091E-19 6.16736E-20
 -1      3102 9.51714E-05-2.77223E-05-2.89094E-05 2.08844E-06 1.13527E-19-4.39711E-19
 -1      3103 9.52360E-05-2.76945E-05-2.89421E-05 2.32835E-06 2.84297E-19-4.31553E-19
 -1      3104 9.48688E-05-2.75223E-05-2.88629E-05 2.00396E-06-3.30232E-19-5.91990E-19
 -1      3105 9.52197E-05-2.76516E-05-2.89600E-05 2.59947E-06 3.93861E-19-1.83237E-19
 -1      3106 9.53183E-05-2.76612E-05-2.89913E-05 2.86438E-06-3.72095E-19-4.47688E-19
 -1      3107 9.48192E-05-2.73948E-05-2.88968E-05 2.51298E-06 2.53505E-19-1.15413E-18
 -1      3108 9.53354E-05-2.76650E-05-2.90028E-05 3.16661E-06-9.65001E-19 2.67076E-19
 -1      3109 9.54862E-05-2.77387E-05-2.90300E-05 3.44149E-06-5.06910E-19-1.93465E-19
 -1      3110 9.48168E-05-2.73432E-05-2.89189E-05 3.09340E-06-8.68027E-20-3.20382E-19
 -1      3111 9.55657E-05-2.78232E-05-2.90318E-05 3.76119E-06-1.16931E-19 4.93592E-19
 -1      3112 9.57952E-05-2.79980E-05-2.90516E-05 4.02053E-06 7.46995E-19 9.06445E-19
 -1      3113 9.49077E-05-2.74294E-05-2.89228E-05 3.72761E-06 7.31138E-20 9.45950E-19
 -1      3114 9.59809E-05-2.82099E-05-2.90406E-05 4.33331E-06 3.58494E-19 9.39452E-19
 -1      3115 9.63258E-05-2.85339E-05-2.90501E-05 4.53724E-06 2.79800E-19 8.52457E-19
 -1      3116 9.51633E-05-2.77411E-05-2.89018E-05 4.38170E-06 5.23516E-19 6.86491E-19
 -1      3117 9.66801E-05-2.89326E-05-2.90252E-05 4.80285E-06 4.27287E-19-1.62133E-21
 -1      3118 9.71876E-05-2.94622E-05-2.90233E-05 4.89276E-06 3.09182E-19 1.17700E-19
 -1      3119 9.56882E-05-2.83942E-05-2.88517E-05 4.99750E-06 6.36640E-21 1.85601E-19
 -1      3120 9.77933E-05-3.01155E-05-2.89874E-05 5.04759E-06 3.77115E-19-1.88404E-19
 -1      3121 9.85161E-05-3.09051E-05-2.89777E-05 4.94144E-06-6.68756E-19-5.53558E-19
 -1      3122 9.66262E-05-2.95294E-05-2.87744E-05 5.48055E-06-7.93099E-20-1.60989E-18
 -1      3123 9.94719E-05-3.18744E-05-2.89423E-05 4.88773E-06-1.14251E-18 2.67853E-19
 -1      3124 1.00454E-04-3.29528E-05-2.89368E-05 4.47705E-06-4.88959E-20 1.59856E-19
 -1      3125 9.81589E-05-3.12937E-05-2.86847E-05 5.68157E-06 3.43644E-20-1.60800E-18
 -1      3126 1.01854E-04-3.42605E-05-2.89278E-05 4.07003E-06-6.95411E-20 5.96837E-19
 -1      3127 1.03096E-04-3.55840E-05-2.89522E-05 3.22358E-06-2.66860E-19 2.47641E-19
 -1      3128 1.00484E-04-3.37929E-05-2.86218E-05 5.37022E-06 2.68583E-19-5.13121E-20
 -1      3129 1.04981E-04-3.71511E-05-2.90168E-05 2.26451E-06-4.35344E-19 5.87826E-19
 -1      3130 1.06383E-04-3.85259E-05-2.91149E-05 8.52756E-07-4.09024E-19 7.23979E-19
 -1      3131 1.03752E-04-3.69897E-05-2.86620E-05 4.20659E-06-6.30879E-19 1.74799E-19
 -1      3132 1.08642E-04-4.00728E-05-2.93279E-05-8.81571E-07-1.11245E-18 2.88450E-19
 -1      3133 1.09931E-04-4.10614E-05-2.95627E-05-2.91165E-06-1.33085E-18-4.75202E-19
 -1      3134 1.07918E-04-4.05163E-05-2.89352E-05 1.74404E-06-1.13166E-18 1.47072E-18
 -1      3135 1.12148E-04-4.19932E-05-3.00267E-05-5.52735E-06-7.84320E-19-8.01680E-19
 -1      3136 1.12860E-04-4.19045E-05-3.04664E-05-7.98012E-06-8.20923E-19-8.36931E-19
 -1      3137 1.12483E-04-4.33954E-05-2.96345E-05-2.44340E-06-1.36596E-18 1.05669E-18
 -1      3138 1.14260E-04-4.13204E-05-3.12740E-05-1.12076E-05-5.25809E-19-1.10229E-18
 -1      3139 1.13817E-04-3.94226E-05-3.19356E-05-1.34031E-05-4.53917E-19-9.03191E-19
 -1      3140 1.16302E-04-4.40108E-05-3.09911E-05-8.36158E-06-7.60424E-19-2.97924E-19
 -1      3141 1.13604E-04-3.66281E-05-3.30673E-05-1.62205E-05 2.31281E-19-3.81592E-19
 -1      3142 1.11835E-04-3.26906E-05-3.38813E-05-1.70635E-05 4.06682E-19 1.42072E-19
 -1      3143 1.17606E-04-4.03863E-05-3.31359E-05-1.47066E-05 6.09311E-19-1.39774E-19
 -1      3144 1.09762E-04-2.82675E-05-3.51209E-05-1.72549E-05-4.95908E-19 8.23402E-19
 -1      3145 1.07556E-04-2.37219E-05-3.58749E-05-1.59028E-05-1.21033E-19 4.92242E-19
 -1      3146 1.14843E-04-3.11732E-05-3.58474E-05-1.85117E-05 6.77547E-19 9.47049E-19
 -1      3147 1.05034E-04-1.95616E-05-3.67994E-05-1.26153E-05 1.20173E-19 6.41012E-19
 -1      3148 1.03675E-04-1.70954E-05-3.71387E-05-8.94315E-06 1.15554E-18 1.06832E-18
 -1      3149 1.10278E-04-2.09386E-05-3.82724E-05-1.58386E-05 6.79016E-19 8.87029E-19
 -1      3150 1.04682E-04-1.98922E-05-3.63195E-05 4.44272E-06 2.23315E-18 3.78441E-19
 -1      3151 1.05886E-04-2.32402E-05-3.56102E-05 6.81696E-06 1.81607E-18 9.78055E-19
 -1      3152 1.07393E-04-2.69870E-05-3.44215E-05 7.69874E-06 7.59014E-19 1.37918E-18
 -1      3153 1.08142E-04-3.01733E-05-3.34737E-05 7.88822E-06 8.23103E-19 1.76178E-18
 -1      3154 1.11182E-04-2.56976E-05-3.66316E-05 7.62984E-06 1.89465E-18 9.29777E-19
 -1      3155 9.53711E-05-2.79579E-05-2.88954E-05-4.78111E-07 3.88600E-19-4.46772E-19
 -1      3156 9.54261E-05-2.76998E-05-2.90124E-05-1.47778E-07 4.62606E-19-3.29251E-19
 -1      3157 9.52233E-05-2.87783E-05-2.84756E-05-1.07389E-06 3.74939E-19-3.60266E-21
 -1      3158 9.52112E-05-2.87430E-05-2.84848E-05-1.10840E-06 7.45008E-19-1.17561E-19
 -1      3159 9.52425E-05-2.87072E-05-2.85147E-05-1.12322E-06 7.83379E-19-1.56900E-19
 -1      3160 9.52393E-05-2.86439E-05-2.85376E-05-1.11868E-06 5.73234E-19-5.91958E-20
 -1      3161 9.55230E-05-2.88230E-05-2.85883E-05-1.08520E-06 6.86050E-19-5.16605E-19
 -1      3162 9.52096E-05-2.88058E-05-2.84577E-05-8.52662E-07 1.00464E-19-1.37450E-19
 -1      3163 9.51908E-05-2.88025E-05-2.84524E-05-9.15621E-07 5.13168E-19-2.47983E-19
 -1      3164 9.52104E-05-2.87870E-05-2.84660E-05-7.27885E-07 4.58593E-20 1.93812E-19
 -1      3165 9.51914E-05-2.87924E-05-2.84574E-05-7.90213E-07-8.96165E-20-8.93810E-20
 -1      3166 9.53840E-05-2.88926E-05-2.84974E-05-8.24484E-07-5.25402E-22-6.85780E-19
 -1      3167 9.52141E-05-2.87564E-05-2.84807E-05-6.12883E-07 2.57389E-19 1.01490E-19
 -1      3168 9.51958E-05-2.87677E-05-2.84701E-05-6.68857E-07 4.03918E-19 3.01503E-19
 -1      3169 9.53525E-05-2.88584E-05-2.84982E-05-7.05997E-07 1.39955E-19-6.89778E-19
 -1      3170 9.52200E-05-2.87179E-05-2.84997E-05-5.16383E-07 8.43626E-19-4.89224E-20
 -1      3171 9.52027E-05-2.87334E-05-2.84878E-05-5.62106E-07 4.30272E-19 6.49446E-20
 -1      3172 9.53272E-05-2.88117E-05-2.85072E-05-5.98129E-07 2.91963E-19-9.99220E-19
 -1      3173 9.52274E-05-2.86736E-05-2.85218E-05-4.44625E-07 4.49531E-19 6.99414E-19
 -1      3174 9.52109E-05-2.86923E-05-2.85090E-05-4.77244E-07 7.06650E-19 6.26194E-19
 -1      3175 9.53070E-05-2.87566E-05-2.85220E-05-5.09582E-07 4.19017E-19-8.29059E-20
 -1      3176 9.52364E-05-2.86239E-05-2.85469E-05-4.02625E-07 9.17091E-20 4.52573E-19
 -1      3177 9.52201E-05-2.86457E-05-2.85330E-05-4.19747E-07 5.51123E-19 6.49426E-19
 -1      3178 9.52905E-05-2.86949E-05-2.85413E-05-4.46746E-07 4.04726E-19 7.89467E-19
 -1      3179 9.52469E-05-2.85681E-05-2.85752E-05-3.95146E-07-1.82847E-19 5.03351E-19
 -1      3180 9.52301E-05-2.85931E-05-2.85598E-05-3.94380E-07-1.74913E-19 2.28186E-19
 -1      3181 9.52766E-05-2.86265E-05-2.85646E-05-4.14907E-07 2.28872E-19 3.85408E-19
 -1      3182 9.52591E-05-2.85041E-05-2.86076E-05-4.27476E-07 3.15423E-19 9.23729E-19
 -1      3183 9.52407E-05-2.85333E-05-2.85901E-05-4.06058E-07 1.61983E-19 1.00228E-18
 -1      3184 9.52635E-05-2.85498E-05-2.85919E-05-4.19168E-07-3.42960E-19 1.20589E-19
 -1      3185 9.52729E-05-2.84291E-05-2.86453E-05-5.06054E-07 5.79735E-20 1.34022E-18
 -1      3186 9.52519E-05-2.84636E-05-2.86249E-05-4.60551E-07 2.33077E-19 1.42803E-18
 -1      3187 9.52495E-05-2.84615E-05-2.86237E-05-4.65212E-07 1.40691E-19 1.19556E-18
 -1      3188 9.52882E-05-2.83393E-05-2.86898E-05-6.38956E-07 7.23192E-19 1.21037E-18
 -1      3189 9.52634E-05-2.83808E-05-2.86656E-05-5.65025E-07 6.89071E-19 1.24867E-18
 -1      3190 9.52321E-05-2.83574E-05-2.86608E-05-5.59863E-07 4.24782E-19 2.29952E-18
 -1      3191 9.53039E-05-2.82298E-05-2.87429E-05-8.36261E-07 1.08403E-18 6.90171E-19
 -1      3192 9.52743E-05-2.82802E-05-2.87137E-05-7.28464E-07 8.24291E-19 1.07151E-18
 -1      3193 9.52080E-05-2.82320E-05-2.87041E-05-7.11496E-07 1.08409E-18 1.66245E-18
 -1      3194 9.53181E-05-2.80946E-05-2.88063E-05-1.11030E-06 4.92634E-20 6.83012E-19
 -1      3195 9.52829E-05-2.81566E-05-2.87709E-05-9.61972E-07 6.86715E-19 7.58712E-19
 -1      3196 9.51725E-05-2.80783E-05-2.87546E-05-9.30303E-07 8.66725E-19 1.54606E-18
 -1      3197 9.53272E-05-2.79267E-05-2.88814E-05-1.47577E-06-4.86526E-20 1.77702E-19
 -1      3198 9.52861E-05-2.80030E-05-2.88388E-05-1.27895E-06 1.74398E-19 3.70633E-19
 -1      3199 9.51192E-05-2.78880E-05-2.88130E-05-1.22839E-06 3.33259E-19 1.38316E-18
 -1      3200 9.53250E-05-2.77176E-05-2.89691E-05-1.94956E-06-4.11718E-19 2.79865E-19
 -1      3201 9.52784E-05-2.78118E-05-2.89184E-05-1.69510E-06-7.60915E-20 3.82837E-19
 -1      3202 9.50387E-05-2.76515E-05-2.88793E-05-1.61970E-06-2.00998E-20 1.69595E-18
 -1      3203 9.53016E-05-2.74582E-05-2.90693E-05-2.55037E-06-4.22924E-19 1.98704E-19
 -1      3204 9.52515E-05-2.75737E-05-2.90102E-05-2.22817E-06-4.59128E-19-2.80811E-19
 -1      3205 9.49177E-05-2.73575E-05-2.89526E-05-2.11964E-06-1.91182E-19 6.06377E-19
 -1      3206 9.52426E-05-2.71400E-05-2.91794E-05-3.29771E-06-3.48295E-19 4.53685E-19
 -1      3207 9.51926E-05-2.72795E-05-2.91126E-05-2.89733E-06-2.54936E-19 3.94396E-19
 -1      3208 9.47379E-05-2.69945E-05-2.90299E-05-2.74440E-06-5.60005E-19 6.89154E-19
 -1      3209 9.51291E-05-2.67576E-05-2.92937E-05-4.21027E-06-6.50137E-19 7.40521E-19
 -1      3210 9.50842E-05-2.69216E-05-2.92215E-05-3.72208E-06-3.56540E-19 9.15513E-19
 -1      3211 9.44753E-05-2.65517E-05-2.91053E-05-3.51000E-06-5.22525E-19 5.84735E-19
 -1      3212 9.49390E-05-2.63159E-05-2.94007E-05-5.30350E-06 4.08288E-19 6.90078E-19
 -1      3213 9.49045E-05-2.64982E-05-2.93284E-05-4.72051E-06-1.57169E-20 9.87832E-19
 -1      3214 9.40995E-05-2.60237E-05-2.91681E-05-4.43096E-06-4.37959E-19 9.42699E-19
 -1      3215 9.46541E-05-2.58422E-05-2.94806E-05-6.58626E-06-5.02163E-19 8.85868E-19
 -1      3216 9.46314E-05-2.60230E-05-2.94176E-05-5.90692E-06 6.12824E-20 8.16362E-19
 -1      3217 9.35771E-05-2.54184E-05-2.92006E-05-5.51940E-06-2.45944E-19 8.38851E-19
 -1      3218 9.42765E-05-2.54106E-05-2.95022E-05-8.05715E-06-4.13636E-19 1.04843E-18
 -1      3219 9.42526E-05-2.55427E-05-2.94637E-05-7.28929E-06-1.98630E-19 9.60267E-19
 -1      3220 9.28788E-05-2.47723E-05-2.91748E-05-6.78531E-06-4.24100E-19-8.40200E-20
 -1      3221 9.38635E-05-2.51824E-05-2.94198E-05-9.70155E-06 1.46905E-19 1.58140E-19
 -1      3222 9.37905E-05-2.51679E-05-2.94282E-05-8.86729E-06-3.16378E-20 1.09686E-18
 -1      3223 9.19988E-05-2.41780E-05-2.90495E-05-8.24073E-06 3.59638E-20 2.83686E-19
 -1      3224 9.35935E-05-2.54707E-05-2.91733E-05-1.14896E-05-6.75793E-19 2.86959E-19
 -1      3225 9.33493E-05-2.51253E-05-2.92571E-05-1.06322E-05-3.23242E-19 3.10059E-19
 -1      3226 9.09916E-05-2.38294E-05-2.87670E-05-9.91122E-06-9.44336E-20 1.14251E-18
 -1      3227 9.38794E-05-2.68287E-05-2.86976E-05-1.33675E-05-5.58089E-19 6.22762E-19
 -1      3228 9.32034E-05-2.58352E-05-2.88840E-05-1.25672E-05-3.27048E-19 6.49775E-20
 -1      3229 9.00427E-05-2.40919E-05-2.82539E-05-1.18570E-05-4.85384E-19 6.78130E-19
 -1      3230 9.55529E-05-3.01465E-05-2.79575E-05-1.51939E-05-1.17415E-18 9.72330E-19
 -1      3231 9.39555E-05-2.80273E-05-2.82474E-05-1.46316E-05-1.16710E-18 5.12207E-19
 -1      3232 8.95918E-05-2.55965E-05-2.74293E-05-1.42166E-05-1.09117E-18 2.62847E-19
 -1      3233 9.99969E-05-3.66306E-05-2.70403E-05-1.65985E-05-5.76525E-19 1.99426E-18
 -1      3234 9.67236E-05-3.27750E-05-2.73514E-05-1.66478E-05-7.77618E-19 1.06957E-18
 -1      3235 9.05476E-05-2.93510E-05-2.62356E-05-1.71375E-05-1.18015E-18-2.14994E-19
 -1      3236 1.09022E-04-4.72614E-05-2.63373E-05-1.66401E-05-6.61374E-19 2.06358E-18
 -1      3237 1.03256E-04-4.11374E-05-2.64193E-05-1.78500E-05-8.17781E-19 2.46245E-18
 -1      3238 9.46205E-05-3.68268E-05-2.47762E-05-2.04867E-05-1.36690E-18 1.18267E-19
 -1      3239 1.17494E-04-5.54615E-05-2.62213E-05-1.59417E-05 2.09111E-20 2.07828E-18
 -1      3240 1.31200E-04-3.49188E-05-4.13964E-05 6.42723E-06 2.42050E-18 6.03061E-19
 -1      3241 1.26645E-04-2.50947E-05-4.40518E-05 7.95834E-06 1.50041E-18-7.63230E-19
 -1      3242 1.19615E-04-2.31448E-05-4.15154E-05 7.18152E-06 1.30496E-18-7.30301E-19
 -1      3243 1.37896E-04-6.12886E-05-3.28864E-05 7.43519E-06 5.15307E-19 2.87171E-18
 -1      3244 6.63961E-05-3.22371E-05-1.44518E-05 3.57129E-05 4.53745E-19-3.08744E-19
 -1      3245 5.55481E-05-2.43707E-05-1.29641E-05 2.87435E-05 3.15996E-19-8.67150E-19
 -1      3246 1.21075E-04-1.90155E-05-4.43230E-05-1.75660E-05 6.00652E-19 2.99519E-19
 -1      3247 1.26478E-04-2.79675E-05-4.22682E-05-2.03876E-05 1.17515E-18-2.08582E-20
 -1      3248 1.22964E-04-5.49455E-05-2.89376E-05-4.12286E-05 2.18323E-19-9.50027E-19
 -1      3249 1.33997E-04-5.25791E-05-3.52365E-05-1.21930E-05 3.08952E-19-4.91782E-19
 -1      3250 9.54125E-05-2.73474E-05-2.91778E-05 2.69125E-07 7.06462E-19-3.97188E-19
 -1      3251 9.54773E-05-2.69411E-05-2.93567E-05 8.29949E-07 9.75958E-19-3.75140E-19
 -1      3252 9.56891E-05-2.73344E-05-2.93001E-05 2.19636E-07 6.28760E-19-3.81209E-19
 -1      3253 9.25678E-05-1.82218E-05-3.18809E-05-6.83364E-06-1.28244E-18-2.16394E-18
 -1      3254 9.32044E-05-1.92313E-05-3.17393E-05-7.33013E-06-1.50032E-18-2.04965E-18
 -1      3255 9.41445E-05-2.12151E-05-3.12225E-05-6.05647E-06-1.43015E-18-1.79162E-18
 -1      3256 9.33245E-05-1.96404E-05-3.15464E-05-5.58530E-06-1.22119E-18-1.97520E-18
 -1      3257 4.35218E-05-1.69179E-05-1.09975E-05-1.01725E-05-1.84672E-18-3.55436E-19
 -1      3258 5.11556E-05-2.24042E-05-1.19509E-05-2.07594E-05-1.86596E-18-2.03923E-18
 -1      3259 1.21773E-04-4.08004E-05-3.50403E-05 1.00994E-06 2.44535E-18 1.02970E-18
 -1      3260 1.28047E-04-4.52392E-05-3.54542E-05-4.08167E-06 1.11040E-18 2.01109E-18
 -1      3261 1.36290E-04-4.61384E-05-3.87278E-05-8.73555E-06-1.21417E-18-2.81109E-19
 -1      3262 6.17282E-05-2.89134E-05-1.36313E-05-2.63163E-05-1.83944E-18-3.38400E-18
 -1      3263 7.37567E-05-3.64958E-05-1.58216E-05-3.02934E-05-9.67259E-19-2.73952E-18
 -1      3264 9.52132E-05-2.88062E-05-2.84591E-05-9.74349E-07 6.59737E-19-2.55734E-19
 -1      3265 9.51963E-05-2.87900E-05-2.84594E-05-1.02942E-06 4.49553E-19-3.14948E-19
 -1      3266 9.54690E-05-2.88893E-05-2.85361E-05-1.03687E-06 4.63157E-19-4.91783E-19
 -1      3267 9.54226E-05-2.89067E-05-2.85083E-05-9.40947E-07 3.55740E-19-4.29324E-19
 -1      3268 9.54891E-05-2.55606E-05-2.99566E-05-2.13490E-06-8.87583E-19-1.57103E-18
 -1      3269 9.55330E-05-2.62614E-05-2.96991E-05-1.32938E-06-8.34470E-19-1.44402E-18
 -1      3270 9.57047E-05-2.62013E-05-2.97889E-05-1.16551E-06-7.53874E-19-1.51047E-18
 -1      3271 9.52056E-05-2.42707E-05-3.04034E-05 4.26698E-06 1.44011E-18-5.24351E-19
 -1      3272 9.46369E-05-2.27163E-05-3.08070E-05 4.78269E-06 1.45743E-18-6.06358E-19
 -1      3273 9.49622E-05-2.35975E-05-3.05661E-05 3.69300E-06 1.23779E-18-6.27098E-19
 -1      3274 9.52413E-05-2.52031E-05-3.00300E-05 2.98457E-06 1.22308E-18-3.93743E-19
 -1      3275 1.11568E-04-5.53031E-05-2.37638E-05-5.38982E-05-8.20140E-19 3.50275E-19
 -1      3276 9.23652E-05-1.83377E-05-3.17413E-05 1.81035E-06 8.02178E-19-2.05476E-18
 -1      3277 9.22452E-05-1.81353E-05-3.17731E-05 1.05711E-06 6.09525E-19-2.20341E-18
 -1      3278 1.15784E-04-9.44406E-06-4.59753E-05-4.60973E-06 1.47236E-18-3.74150E-20
 -1      3279 1.17189E-04-1.16386E-05-4.54888E-05-1.28145E-05 1.06864E-18 2.04492E-19
 -1      3280 9.62498E-05-4.95736E-05-2.00090E-05 3.57720E-05 9.54183E-19-6.01817E-19
 -1      3281 7.97099E-05-4.01468E-05-1.64531E-05 3.76084E-05 4.80956E-19-4.65709E-19
 -1      3282 1.26439E-04-6.26494E-05-2.75377E-05 2.05593E-05 1.17113E-18 4.51323E-19
 -1      3283 1.13619E-04-5.77489E-05-2.36805E-05 2.89780E-05 8.25804E-19-6.19260E-20
 -1      3284 1.37289E-04-5.97408E-05-3.37198E-05 1.72069E-06 3.20923E-19 1.49118E-18
 -1      3285 1.33829E-04-6.20964E-05-3.04607E-05 1.05696E-05 9.20169E-19 6.68785E-19
 -1      3286 1.44179E-04-5.57107E-05-3.84326E-05-3.84447E-07-5.44298E-19-2.30456E-18
 -1      3287 9.21849E-05-1.80352E-05-3.17914E-05 4.08232E-07 4.92206E-19-2.10995E-18
 -1      3288 9.21820E-05-1.80306E-05-3.17920E-05-3.59437E-07 2.48963E-19-2.15932E-18
 -1      3289 9.31380E-05-1.96192E-05-3.14905E-05 6.27762E-07 5.38996E-19-2.05696E-18
 -1      3290 1.12729E-04-1.29943E-05-4.30039E-05-1.51448E-06 1.36748E-18-8.98517E-20
 -1      3291 9.43318E-05-2.19737E-05-3.09885E-05 3.62596E-06 1.15403E-18-1.14820E-18
 -1      3292 9.34272E-05-2.02090E-05-3.14039E-05 4.24084E-06 1.28675E-18-1.47345E-18
 -1      3293 9.30673E-05-1.95476E-05-3.15173E-05 3.64980E-06 1.09538E-18-1.53831E-18
 -1      3294 9.51638E-05-2.41222E-05-3.04264E-05-3.58800E-06-1.02310E-18-1.66803E-18
 -1      3295 9.52531E-05-2.48605E-05-3.01795E-05-2.75124E-06-9.82332E-19-1.69963E-18
 -1      3296 9.53160E-05-2.47312E-05-3.02465E-05-2.42155E-06-8.97356E-19-1.77889E-18
 -1      3297 9.44848E-05-2.24311E-05-3.08949E-05-5.01683E-06-1.24659E-18-1.69744E-18
 -1      3298 1.02984E-04-1.61555E-05-3.72738E-05-3.72906E-06 1.62183E-18 1.48130E-18
 -1      3299 1.03192E-04-1.70838E-05-3.70388E-05 4.32942E-07 1.86572E-18 6.59050E-19
 -1      3300 9.53493E-05-2.81729E-05-2.87810E-05-7.19436E-07 3.58200E-19-3.76064E-19
 -1      3301 9.56893E-05-2.80098E-05-2.90104E-05-4.78099E-07 3.59803E-19-6.29872E-19
 -1      3302 9.53179E-05-2.83383E-05-2.87074E-05-8.93182E-07 1.44282E-19-4.20188E-19
 -1      3303 1.07940E-04-1.76393E-05-3.87971E-05 2.98499E-06 1.55024E-18 5.03720E-19
 -1      3304 9.55828E-05-2.86824E-05-2.86750E-05-1.04724E-06 3.54061E-19-5.20015E-19
 -1      3305 9.52736E-05-2.85714E-05-2.85871E-05-1.08197E-06 2.14549E-19-2.27213E-19
 -1      3306 9.52848E-05-2.84670E-05-2.86306E-05-1.01173E-06 2.86673E-20-4.11180E-19
 -1      3307 1.05440E-04-5.06359E-05-2.36547E-05-2.28440E-05-6.33104E-19 1.14799E-18
 -1      3308 1.32692E-04-4.13518E-05-3.96736E-05 2.85425E-06 2.47130E-18 1.38696E-18
 -1      3309 1.25690E-04-3.54400E-05-3.86707E-05 5.97557E-06 2.35160E-18 6.26487E-19
 -1      3310 1.14702E-04-1.70952E-05-4.20787E-05-1.45428E-05 7.06584E-19-3.74680E-20
 -1      3311 7.72885E-05-3.57343E-05-1.74205E-05 3.33935E-05 6.20981E-19 7.56506E-20
 -1      3312 9.25107E-05-1.85986E-05-3.16894E-05-2.37698E-06-2.53382E-19-2.11171E-18
 -1      3313 9.27437E-05-1.90040E-05-3.16238E-05-3.07124E-06-4.53653E-19-2.10679E-18
 -1      3314 1.07779E-04-3.15443E-05-3.27949E-05 7.26767E-06 4.11717E-19 2.22898E-18
 -1      3315 1.15517E-04-3.55346E-05-3.42600E-05 4.30055E-06 1.32100E-18 3.39435E-19
 -1      3316 1.35158E-04-5.96375E-05-3.24360E-05 1.75757E-05 1.99217E-18-2.75119E-18
 -1      3317 9.30482E-05-1.95088E-05-3.15256E-05-3.61621E-06-6.39765E-19-1.92635E-18
 -1      3318 9.34172E-05-2.01760E-05-3.14127E-05-4.23803E-06-9.44824E-19-1.87717E-18
 -1      3319 9.37565E-05-2.07678E-05-3.12627E-05-2.82911E-06-4.95042E-19-1.76637E-18
 -1      3320 9.27794E-05-1.90486E-05-3.16180E-05 3.12267E-06 1.08502E-18-1.59955E-18
 -1      3321 9.25405E-05-1.86334E-05-3.16853E-05 2.42150E-06 8.71186E-19-1.81604E-18
 -1      3322 9.33521E-05-2.00088E-05-3.14144E-05 1.80143E-06 8.04491E-19-1.76115E-18
 -1      3323 9.37637E-05-2.07904E-05-3.12539E-05 2.84322E-06 9.90094E-19-1.51869E-18
 -1      3324 1.19752E-04-3.48897E-05-3.62760E-05 5.66690E-06 1.81765E-18 7.42583E-19
 -1      3325 6.16503E-05-2.48851E-05-1.52871E-05-2.10784E-05-1.81943E-18-2.67689E-18
 -1      3326 1.34399E-04-4.75366E-05-3.72343E-05-3.97812E-06 1.66842E-18 1.54224E-18
 -1      3327 4.47500E-05-1.48601E-05-1.22591E-05-2.85147E-06-1.00467E-18 7.67835E-19
 -1      3328 5.16251E-05-1.61522E-05-1.48769E-05-7.50373E-06-1.25959E-18 5.39878E-19
 -1      3329 4.84482E-05-1.46848E-05-1.42628E-05 4.61292E-06-7.29550E-19 9.11355E-19
 -1      3330 9.53813E-05-2.64919E-05-2.95317E-05 1.36243E-06 1.08981E-18-4.28443E-19
 -1      3331 9.54327E-05-2.58848E-05-2.97913E-05 2.23967E-06 1.14661E-18-4.29567E-19
 -1      3332 9.53552E-05-2.52310E-05-3.00703E-05 2.59396E-06 1.19509E-18-4.73645E-19
 -1      3333 9.55819E-05-2.64061E-05-2.96539E-05 1.22986E-06 9.80407E-19-3.91895E-19
 -1      3334 1.35018E-04-5.42662E-05-3.47415E-05-5.51993E-06 5.71092E-19 1.36081E-18
 -1      3335 1.27728E-04-6.03781E-05-2.88185E-05 1.35317E-05 1.16970E-18 3.44729E-19
 -1      3336 9.00408E-05-4.26700E-05-1.98208E-05-2.73948E-05-8.04046E-19 2.34946E-19
 -1      3337 5.27789E-05-2.03188E-05-1.34263E-05 2.30357E-05 7.73976E-19-8.94679E-19
 -1      3338 5.16656E-05-1.72385E-05-1.45105E-05 1.59663E-05 7.01992E-19 4.57927E-19
 -1      3339 6.15622E-05-2.35332E-05-1.60147E-05 2.49299E-05 9.56975E-19-7.78582E-19
 -1      3340 1.06196E-04-5.34224E-05-2.23943E-05 3.12506E-05 9.24907E-19-9.53044E-19
 -1      3341 9.76112E-05-4.70025E-05-2.15686E-05 3.11759E-05 3.68009E-19-6.25560E-19
 -1      3342 1.13049E-04-5.48605E-05-2.48457E-05 2.40299E-05 2.31968E-19 2.19567E-20
 -1      3343 1.06882E-04-1.52226E-05-3.94691E-05-6.84094E-06 1.39406E-18 8.15675E-19
 -1      3344 8.56525E-05-3.69542E-05-2.06754E-05-2.50307E-05-1.58925E-18-6.58250E-19
 -1      3345 7.19853E-05-2.71327E-05-1.90230E-05-2.26716E-05-2.24731E-18-2.37969E-18
 -1      3346 8.52853E-05-3.27992E-05-2.23308E-05-2.11982E-05-1.87854E-18-6.99173E-19
 -1      3347 8.23662E-05-2.82200E-05-2.32245E-05-1.90519E-05-1.78490E-18-7.30354E-19
 -1      3348 9.22363E-05-1.81227E-05-3.17748E-05-1.00792E-06 1.07876E-19-2.25789E-18
 -1      3349 9.23508E-05-1.83147E-05-3.17443E-05-1.75955E-06-1.08060E-19-2.20098E-18
 -1      3350 9.33399E-05-1.99803E-05-3.14180E-05-1.76962E-06-1.77673E-19-2.01134E-18
 -1      3351 1.42647E-04-6.13360E-05-3.47981E-05 1.14352E-05-1.82390E-19-3.47252E-18
 -1      3352 9.61635E-05-2.78282E-05-2.92789E-05 2.47563E-07-5.46514E-19-1.06290E-18
 -1      3353 9.61588E-05-2.81477E-05-2.91522E-05 4.99254E-07-4.48209E-19-9.57723E-19
 -1      3354 9.61682E-05-2.84118E-05-2.90327E-05 6.59944E-07-3.71961E-19-9.09727E-19
 -1      3355 9.61383E-05-2.86107E-05-2.89428E-05 7.93956E-07-3.37750E-19-8.05619E-19
 -1      3356 9.63577E-05-2.82209E-05-2.92030E-05 4.75760E-07-3.62784E-19-7.52192E-19
 -1      3357 9.61057E-05-2.87660E-05-2.88558E-05 8.68979E-07-3.73413E-19-8.12704E-19
 -1      3358 9.60654E-05-2.88819E-05-2.87938E-05 9.22050E-07-2.63112E-19-6.55238E-19
 -1      3359 9.63362E-05-2.86957E-05-2.89908E-05 7.30303E-07-3.70582E-19-5.56483E-19
 -1      3360 9.60109E-05-2.89632E-05-2.87321E-05 9.39125E-07-1.88996E-19-8.26014E-19
 -1      3361 9.59684E-05-2.90225E-05-2.86909E-05 9.39802E-07-1.66827E-19-5.45439E-19
 -1      3362 9.62515E-05-2.89702E-05-2.88370E-05 8.39082E-07-1.40087E-19-4.83570E-19
 -1      3363 9.59048E-05-2.90543E-05-2.86486E-05 9.20538E-07-9.60066E-20-4.53040E-19
 -1      3364 9.58640E-05-2.90757E-05-2.86227E-05 8.90019E-07-5.89803E-20-3.52486E-19
 -1      3365 9.61359E-05-2.91073E-05-2.87287E-05 8.51080E-07-5.66549E-20-2.90748E-19
 -1      3366 9.57991E-05-2.90752E-05-2.85952E-05 8.50489E-07-2.74414E-19-1.54633E-19
 -1      3367 9.57620E-05-2.90718E-05-2.85804E-05 8.03980E-07-1.40926E-19-1.96511E-19
 -1      3368 9.60097E-05-2.91524E-05-2.86551E-05 8.04077E-07-2.26330E-19-1.89230E-19
 -1      3369 9.57003E-05-2.90510E-05-2.85638E-05 7.55653E-07-2.64840E-19-5.65528E-19
 -1      3370 9.56677E-05-2.90316E-05-2.85571E-05 7.03804E-07-8.80875E-20-7.41125E-19
 -1      3371 9.58852E-05-2.91376E-05-2.86078E-05 7.25828E-07-4.69319E-19-4.55607E-19
 -1      3372 9.56112E-05-2.89983E-05-2.85486E-05 6.54688E-07 9.75696E-20-1.12345E-18
 -1      3373 9.55831E-05-2.89688E-05-2.85477E-05 6.04868E-07-3.12399E-19-1.20616E-18
 -1      3374 9.57686E-05-2.90847E-05-2.85802E-05 6.36082E-07-3.34206E-19-1.23176E-18
 -1      3375 9.55323E-05-2.89279E-05-2.85452E-05 5.60512E-07-5.46276E-19-1.03819E-18
 -1      3376 9.55081E-05-2.88919E-05-2.85485E-05 5.17829E-07-7.28871E-19-5.34871E-19
 -1      3377 9.56627E-05-2.90080E-05-2.85674E-05 5.48691E-07-1.70096E-19-1.34885E-18
 -1      3378 9.54625E-05-2.88460E-05-2.85506E-05 4.82133E-07-9.27227E-19-1.61817E-19
 -1      3379 9.54414E-05-2.88053E-05-2.85570E-05 4.50242E-07-8.76929E-19-3.12314E-20
 -1      3380 9.55674E-05-2.89163E-05-2.85656E-05 4.73361E-07-6.20090E-19-4.19749E-19
 -1      3381 9.53996E-05-2.87555E-05-2.85626E-05 4.26083E-07-1.03564E-18 2.69706E-19
 -1      3382 9.53806E-05-2.87107E-05-2.85715E-05 4.07800E-07-6.24636E-19 4.03477E-19
 -1      3383 9.54808E-05-2.88138E-05-2.85722E-05 4.17089E-07-6.25548E-19-2.31377E-20
 -1      3384 9.53406E-05-2.86567E-05-2.85798E-05 3.97546E-07-5.45189E-19 3.39393E-19
 -1      3385 9.53225E-05-2.86073E-05-2.85909E-05 3.95341E-07-6.38740E-19 1.81955E-19
 -1      3386 9.53998E-05-2.87017E-05-2.85853E-05 3.85266E-07-6.64699E-19-1.17856E-20
 -1      3387 9.52820E-05-2.85479E-05-2.86015E-05 4.01276E-07-3.05855E-19 4.65839E-19
 -1      3388 9.52634E-05-2.84929E-05-2.86146E-05 4.17625E-07 2.18823E-20 4.42886E-19
 -1      3389 9.53199E-05-2.85786E-05-2.86036E-05 3.82644E-07-3.16903E-19 5.50299E-20
 -1      3390 9.52196E-05-2.84265E-05-2.86271E-05 4.42229E-07-8.82307E-20 4.20379E-19
 -1      3391 9.51993E-05-2.83644E-05-2.86420E-05 4.79835E-07 1.71537E-19 1.10393E-19
 -1      3392 9.52361E-05-2.84416E-05-2.86261E-05 4.14033E-07 5.07822E-20 4.48365E-19
 -1      3393 9.51492E-05-2.82890E-05-2.86561E-05 5.25965E-07 2.58489E-19-8.78350E-20
 -1      3394 9.51259E-05-2.82186E-05-2.86729E-05 5.87874E-07 1.68102E-19-2.11454E-19
 -1      3395 9.51428E-05-2.82869E-05-2.86522E-05 4.84756E-07-3.67821E-20 1.01314E-19
 -1      3396 9.50666E-05-2.81325E-05-2.86882E-05 6.58874E-07 2.21137E-19-4.30615E-20
 -1      3397 9.50392E-05-2.80528E-05-2.87066E-05 7.48472E-07 4.31922E-19-8.47048E-20
 -1      3398 9.50341E-05-2.81106E-05-2.86809E-05 6.00950E-07 2.81966E-19-3.07148E-19
 -1      3399 9.49680E-05-2.79549E-05-2.87225E-05 8.48196E-07 7.95853E-20-2.32634E-19
 -1      3400 9.49362E-05-2.78662E-05-2.87421E-05 9.69080E-07-9.50200E-20-7.18343E-20
 -1      3401 9.49042E-05-2.79097E-05-2.87111E-05 7.69723E-07 7.17556E-20 1.81353E-20
 -1      3402 9.48511E-05-2.77569E-05-2.87576E-05 1.10181E-06-3.28244E-19-3.03801E-19
 -1      3403 9.48155E-05-2.76614E-05-2.87778E-05 1.25749E-06-5.13845E-19-3.68648E-19
 -1      3404 9.47485E-05-2.76835E-05-2.87410E-05 9.99139E-07-2.89073E-19-3.32833E-19
 -1      3405 9.47160E-05-2.75438E-05-2.87915E-05 1.42776E-06-6.00372E-19-3.61693E-19
 -1      3406 9.46792E-05-2.74468E-05-2.88109E-05 1.62115E-06-4.96805E-19-4.77381E-19
 -1      3407 9.45644E-05-2.74353E-05-2.87682E-05 1.29801E-06-2.82685E-19-3.46441E-19
 -1      3408 9.45674E-05-2.73276E-05-2.88209E-05 1.83337E-06-5.86103E-19-2.77573E-19
 -1      3409 9.45353E-05-2.72392E-05-2.88377E-05 2.06608E-06-2.44582E-19-2.44004E-19
 -1      3410 9.43532E-05-2.71755E-05-2.87889E-05 1.67550E-06-4.89086E-19 4.33751E-19
 -1      3411 9.44179E-05-2.71314E-05-2.88410E-05 2.32406E-06 2.96560E-19-5.80844E-19
 -1      3412 9.44012E-05-2.70686E-05-2.88527E-05 2.59532E-06 5.58185E-19-2.15896E-19
 -1      3413 9.41233E-05-2.69244E-05-2.87982E-05 2.14040E-06 1.58756E-19 7.03611E-19
 -1      3414 9.42920E-05-2.69932E-05-2.88460E-05 2.90146E-06 2.17901E-19-5.80406E-19
 -1      3415 9.43091E-05-2.69823E-05-2.88493E-05 3.20673E-06-9.13841E-20 1.06708E-19
 -1      3416 9.38945E-05-2.67175E-05-2.87894E-05 2.70024E-06 4.49356E-19-1.62169E-21
 -1      3417 9.42322E-05-2.69718E-05-2.88286E-05 3.56092E-06 6.56661E-20 9.32531E-20
 -1      3418 9.43124E-05-2.70514E-05-2.88201E-05 3.88987E-06 6.39197E-19 6.22932E-19
 -1      3419 9.37033E-05-2.66103E-05-2.87548E-05 3.35973E-06 1.67147E-19-6.92342E-19
 -1      3420 9.43072E-05-2.71525E-05-2.87813E-05 4.28763E-06 3.61798E-21-1.99762E-20
 -1      3421 9.44948E-05-2.73761E-05-2.87577E-05 4.62138E-06 9.41833E-21-9.31036E-19
 -1      3422 9.36115E-05-2.66856E-05-2.86858E-05 4.11852E-06 8.39367E-20-6.10491E-19
 -1      3423 9.46219E-05-2.76529E-05-2.86980E-05 5.05058E-06-9.86638E-20-1.13585E-18
 -1      3424 9.49800E-05-2.80902E-05-2.86582E-05 5.35742E-06-4.91574E-19-1.37572E-18
 -1      3425 9.37167E-05-2.70595E-05-2.85751E-05 4.96704E-06-5.20307E-19-1.56558E-18
 -1      3426 9.53278E-05-2.86243E-05-2.85780E-05 5.79221E-06-8.91827E-19-1.87218E-18
 -1      3427 9.59406E-05-2.93583E-05-2.85253E-05 6.02074E-06-3.26894E-19-2.55154E-18
 -1      3428 9.41641E-05-2.78869E-05-2.84194E-05 5.87845E-06-1.05903E-18-2.31212E-18
 -1      3429 9.66312E-05-3.02448E-05-2.84322E-05 6.40973E-06 7.29997E-19-2.47340E-18
 -1      3430 9.75996E-05-3.13599E-05-2.83788E-05 6.47788E-06 9.47613E-19-1.37409E-18
 -1      3431 9.51608E-05-2.93605E-05-2.82260E-05 6.79231E-06 9.42459E-20-2.86173E-18
 -1      3432 9.87897E-05-3.26910E-05-2.82939E-05 6.72235E-06 3.93039E-19-1.12631E-18
 -1      3433 1.00212E-04-3.42414E-05-2.82678E-05 6.50169E-06-2.01782E-20-1.16903E-18
 -1      3434 9.69834E-05-3.16947E-05-2.80225E-05 7.58209E-06 9.30484E-19-2.66593E-18
 -1      3435 1.02076E-04-3.60652E-05-2.82357E-05 6.41966E-06 1.31874E-19-5.17854E-19
 -1      3436 1.03996E-04-3.80072E-05-2.82882E-05 5.71926E-06-4.51318E-20 1.96808E-19
 -1      3437 9.99676E-05-3.50730E-05-2.78741E-05 7.99635E-06 4.82200E-19-2.16643E-18
 -1      3438 1.06669E-04-4.02363E-05-2.83899E-05 4.99390E-06-9.72912E-19 8.62024E-19
 -1      3439 1.08969E-04-4.22899E-05-2.86043E-05 3.56536E-06-1.02885E-18 1.06588E-18
 -1      3440 1.04447E-04-3.95257E-05-2.79080E-05 7.56125E-06 6.56889E-20-6.98389E-19
 -1      3441 1.12385E-04-4.45442E-05-2.89768E-05 1.75356E-06-1.31621E-18 1.50492E-18
 -1      3442 1.14676E-04-4.59852E-05-2.94787E-05-6.42827E-07-1.29827E-18 1.11435E-18
 -1      3443 1.10525E-04-4.46025E-05-2.83503E-05 5.49371E-06-9.67427E-19 1.14252E-18
 -1      3444 1.18203E-04-4.72792E-05-3.03290E-05-3.76523E-06-1.31130E-18 1.40298E-18
 -1      3445 1.19812E-04-4.70110E-05-3.12758E-05-7.07087E-06-6.08279E-19 1.22025E-18
 -1      3446 1.17568E-04-4.85342E-05-2.95832E-05 6.32790E-07-1.07175E-18 2.40403E-18
 -1      3447 1.25217E-04-4.10664E-05-3.61461E-05-1.69723E-05 8.68262E-19 7.08411E-19
 -1      3448 1.23047E-04-3.46129E-05-3.80042E-05-1.80981E-05 1.14323E-18 4.55055E-19
 -1      3449 9.56655E-05-2.55133E-05-3.00595E-05-1.49333E-06-6.99330E-19-1.60834E-18
 -1      3450 9.58286E-05-2.62591E-05-2.98245E-05-8.72801E-07-7.06995E-19-1.49609E-18
 -1      3451 9.54868E-05-2.89222E-05-2.85264E-05-6.52402E-07 2.97215E-20-7.85368E-19
 -1      3452 9.55016E-05-2.89443E-05-2.85248E-05-7.06955E-07 1.20009E-19-8.14258E-19
 -1      3453 9.55476E-05-2.89715E-05-2.85313E-05-7.60928E-07 2.01867E-19-7.71071E-19
 -1      3454 9.55660E-05-2.89840E-05-2.85350E-05-8.17151E-07 1.97680E-19-6.17143E-19
 -1      3455 9.56707E-05-2.90356E-05-2.85592E-05-7.03375E-07 2.28319E-19-5.95196E-19
 -1      3456 9.53894E-05-2.87881E-05-2.85421E-05-4.78139E-07-1.71234E-19-5.45260E-20
 -1      3457 9.53989E-05-2.88209E-05-2.85341E-05-5.14750E-07 7.17774E-20-6.07750E-19
 -1      3458 9.53497E-05-2.87091E-05-2.85590E-05-4.26547E-07 1.57928E-19 5.42254E-19
 -1      3459 9.53575E-05-2.87458E-05-2.85487E-05-4.49304E-07-8.16803E-20 3.16285E-19
 -1      3460 9.54436E-05-2.88061E-05-2.85595E-05-4.52974E-07-3.61366E-19-4.99796E-19
 -1      3461 9.53131E-05-2.86219E-05-2.85806E-05-4.05848E-07 4.08698E-19 6.46132E-20
 -1      3462 9.53199E-05-2.86629E-05-2.85683E-05-4.12136E-07 6.48483E-19 3.87800E-19
 -1      3463 9.53823E-05-2.87091E-05-2.85747E-05-4.12199E-07 2.82062E-19 3.62179E-21
 -1      3464 9.52765E-05-2.85240E-05-2.86067E-05-4.21123E-07-4.33766E-19 1.06474E-19
 -1      3465 9.52832E-05-2.85707E-05-2.85923E-05-4.08258E-07-4.49350E-20 6.44035E-20
 -1      3466 9.53230E-05-2.86017E-05-2.85951E-05-4.02096E-07 4.34659E-19-6.70137E-20
 -1      3467 9.52361E-05-2.84112E-05-2.86376E-05-4.78055E-07-2.27063E-19 1.02866E-18
 -1      3468 9.52439E-05-2.84655E-05-2.86208E-05-4.42957E-07-4.75114E-19 2.34726E-19
 -1      3469 9.52609E-05-2.84803E-05-2.86203E-05-4.27725E-07-5.94209E-19-9.41207E-20
 -1      3470 9.51874E-05-2.82780E-05-2.86736E-05-5.83391E-07 4.95002E-19 1.21244E-18
 -1      3471 9.51977E-05-2.83425E-05-2.86540E-05-5.22360E-07 3.07950E-19 1.00051E-18
 -1      3472 9.51903E-05-2.83396E-05-2.86501E-05-4.94711E-07-2.42427E-19-3.44531E-19
 -1      3473 9.51241E-05-2.81172E-05-2.87151E-05-7.45225E-07 1.26939E-18 9.52958E-19
 -1      3474 9.51389E-05-2.81953E-05-2.86923E-05-6.53792E-07 1.13063E-18 9.12442E-19
 -1      3475 9.51039E-05-2.81724E-05-2.86844E-05-6.09574E-07 9.58846E-19-4.08113E-20
 -1      3476 9.50382E-05-2.79204E-05-2.87624E-05-9.73130E-07 8.22167E-19 1.39353E-18
 -1      3477 9.50604E-05-2.80160E-05-2.87361E-05-8.45990E-07 9.04972E-19 1.25286E-18
 -1      3478 9.49926E-05-2.79701E-05-2.87230E-05-7.79897E-07 1.07241E-18 7.39016E-19
 -1      3479 9.49192E-05-2.76774E-05-2.88152E-05-1.27807E-06-1.42176E-19 1.50237E-18
 -1      3480 9.49527E-05-2.77953E-05-2.87853E-05-1.10912E-06 5.09490E-19 1.54438E-18
 -1      3481 9.48449E-05-2.77224E-05-2.87653E-05-1.01428E-06 3.82245E-19 1.39447E-18
 -1      3482 9.47525E-05-2.73767E-05-2.88723E-05-1.67209E-06-8.41343E-20 9.38274E-19
 -1      3483 9.48031E-05-2.75222E-05-2.88392E-05-1.45460E-06-1.36793E-19 1.03529E-18
 -1      3484 9.46456E-05-2.74173E-05-2.88097E-05-1.32207E-06 5.94715E-20 1.21206E-18
 -1      3485 9.45189E-05-2.70056E-05-2.89311E-05-2.16768E-06-2.91587E-19 8.36182E-19
 -1      3486 9.45946E-05-2.71843E-05-2.88959E-05-1.89461E-06 1.39085E-19 8.81751E-19
 -1      3487 9.43754E-05-2.70416E-05-2.88537E-05-1.71275E-06 1.10702E-19-1.00054E-19
 -1      3488 9.41929E-05-2.65508E-05-2.89863E-05-2.77686E-06-7.78767E-19 5.48307E-19
 -1      3489 9.43046E-05-2.67686E-05-2.89514E-05-2.44139E-06-6.54643E-19 8.95972E-19
 -1      3490 9.40087E-05-2.65809E-05-2.88924E-05-2.19516E-06-3.46012E-19 4.90387E-19
 -1      3491 9.37417E-05-2.60008E-05-2.90288E-05-3.51007E-06-6.31814E-19 1.00180E-18
 -1      3492 9.39036E-05-2.62620E-05-2.89986E-05-3.10624E-06-6.76665E-19 1.04194E-18
 -1      3493 9.35132E-05-2.60209E-05-2.89178E-05-2.77637E-06-8.55101E-19 4.68050E-19
 -1      3494 9.31257E-05-2.53503E-05-2.90440E-05-4.37520E-06-1.46390E-19 5.58469E-19
 -1      3495 9.33545E-05-2.56552E-05-2.90258E-05-3.89861E-06-2.66334E-19 6.21754E-19
 -1      3496 9.28480E-05-2.53501E-05-2.89172E-05-3.46077E-06-2.69409E-19 7.19512E-19
 -1      3497 9.23004E-05-2.46081E-05-2.90088E-05-5.37776E-06-1.97770E-19 3.71189E-19
 -1      3498 9.26134E-05-2.49481E-05-2.90142E-05-4.82579E-06-1.58937E-19 6.88402E-19
 -1      3499 9.19639E-05-2.45644E-05-2.88710E-05-4.25004E-06-2.21642E-19 9.36191E-19
 -1      3500 9.12249E-05-2.38133E-05-2.88885E-05-6.52424E-06-9.75249E-19 4.03364E-19
 -1      3501 9.16337E-05-2.41615E-05-2.89352E-05-5.89488E-06-4.90135E-19 2.14478E-19
 -1      3502 9.08044E-05-2.36758E-05-2.87500E-05-5.14571E-06-3.05159E-19 8.46953E-19
 -1      3503 8.98795E-05-2.30603E-05-2.86330E-05-7.83226E-06-2.38757E-20 9.10818E-19
 -1      3504 9.03766E-05-2.33564E-05-2.87463E-05-7.11970E-06-8.78472E-19 9.08634E-19
 -1      3505 8.93122E-05-2.27269E-05-2.85111E-05-6.15750E-06-1.09039E-18 5.86385E-19
 -1      3506 8.83014E-05-2.25418E-05-2.81730E-05-9.35358E-06-2.38058E-19 8.02178E-19
 -1      3507 8.88337E-05-2.26662E-05-2.83872E-05-8.53811E-06 4.24963E-19 8.78545E-19
 -1      3508 8.74399E-05-2.18147E-05-2.80932E-05-7.32319E-06-9.47186E-20 9.60614E-19
 -1      3509 8.66413E-05-2.26154E-05-2.74180E-05-1.12192E-05-6.28767E-19 1.97630E-19
 -1      3510 8.70709E-05-2.23498E-05-2.77753E-05-1.02475E-05-3.29619E-19 4.73915E-19
 -1      3511 8.51725E-05-2.11257E-05-2.74104E-05-8.74931E-06-2.57937E-19 5.84066E-19
 -1      3512 8.52516E-05-2.38966E-05-2.62552E-05-1.36982E-05-1.45051E-18-5.00585E-20
 -1      3513 8.53069E-05-2.28676E-05-2.68050E-05-1.24316E-05-6.66727E-19 2.74510E-19
 -1      3514 8.26046E-05-2.10188E-05-2.63452E-05-1.06924E-05-7.96876E-19 8.91568E-20
 -1      3515 8.42923E-05-2.67982E-05-2.45666E-05-1.68273E-05-1.31973E-18-3.54391E-19
 -1      3516 8.34600E-05-2.44809E-05-2.53346E-05-1.51152E-05-1.35826E-18-5.78040E-19
 -1      3517 7.94910E-05-2.15326E-05-2.47472E-05-1.30403E-05-7.19554E-19-7.34684E-19
 -1      3518 7.56448E-05-2.29931E-05-2.24304E-05-1.63342E-05-1.49967E-18-1.13433E-18
 -1      3519 1.17771E-04-3.06533E-05-3.76739E-05 7.70190E-06 1.68526E-18-3.81036E-19
 -1      3520 1.09264E-04-1.41438E-05-4.10688E-05-1.04708E-05 8.53465E-19 1.33753E-18
 -1      3521 1.12671E-04-1.90218E-05-4.02278E-05-1.57524E-05 5.86703E-19 5.00869E-19
 -1      3522 1.22216E-04-4.42243E-05-3.35098E-05-1.26662E-05 1.60923E-19 1.05261E-18
 -1      3523 1.29847E-04-4.89798E-05-3.48848E-05-1.08710E-05 2.62971E-19 1.14722E-18
 -1      3524 1.30390E-04-5.52022E-05-3.20231E-05-2.08289E-06-2.52072E-19 1.12638E-18
 -1      3525 1.22159E-04-4.68234E-05-3.22110E-05-9.72824E-06-3.67877E-19 9.60678E-19
 -1      3526 1.08557E-04-1.26133E-05-4.12686E-05-4.94519E-06 1.56166E-18 7.20335E-19
 -1      3527 6.28678E-05-2.12775E-05-1.76483E-05-1.70906E-05-1.90553E-18-2.22351E-18
 -1      3528 1.27056E-04-3.41909E-05-3.98054E-05-1.86750E-05 1.07539E-18-4.21425E-19
 -1      3529 9.58996E-05-2.73783E-05-2.93740E-05 9.32885E-08 5.88885E-19-6.19414E-19
 -1      3530 9.58821E-05-2.69085E-05-2.95492E-05 5.50825E-07 7.33603E-19-5.14291E-19
 -1      3531 9.54345E-05-2.88596E-05-2.85307E-05-5.55455E-07 3.16644E-19-8.23258E-19
 -1      3532 9.54463E-05-2.88880E-05-2.85255E-05-6.02953E-07 1.47142E-19-9.07965E-19
 -1      3533 9.55856E-05-2.89720E-05-2.85498E-05-6.05345E-07 2.55022E-19-8.12560E-19
 -1      3534 9.55104E-05-2.88941E-05-2.85507E-05-5.19329E-07-1.13258E-19-6.97941E-19
 -1      3535 1.10441E-04-1.46229E-05-4.11673E-05 1.97310E-06 1.25107E-18 5.47144E-19
 -1      3536 1.12020E-04-1.89781E-05-4.02368E-05 5.84316E-06 1.60460E-18 1.87525E-19
 -1      3537 9.57753E-05-2.89338E-05-2.86462E-05-1.01214E-06 3.54854E-19-4.60481E-19
 -1      3538 9.58059E-05-2.88727E-05-2.86828E-05-1.01035E-06 4.91984E-19-5.95090E-19
 -1      3539 9.44371E-05-2.23363E-05-3.09181E-05-4.41869E-06-1.14936E-18-1.79634E-18
 -1      3540 1.16145E-04-2.48371E-05-3.91842E-05 7.58273E-06 1.97758E-18-1.81705E-19
 -1      3541 9.60323E-05-2.69131E-05-2.96136E-05-4.44751E-07-6.04192E-19-1.27742E-18
 -1      3542 9.60810E-05-2.74066E-05-2.94394E-05-3.13549E-08-6.00102E-19-1.28625E-18
 -1      3543 9.62656E-05-2.74588E-05-2.94889E-05 1.63211E-08-4.48803E-19-9.81874E-19
 -1      3544 8.45331E-05-3.80225E-05-1.98783E-05 3.10940E-05 5.94233E-19-6.57668E-19
 -1      3545 7.36219E-05-3.06094E-05-1.82017E-05 2.92036E-05 1.09197E-18-7.89858E-19
 -1      3546 1.27477E-04-5.81827E-05-2.99609E-05 7.32519E-06 6.28128E-20-3.76003E-20
 -1      3547 1.21834E-04-5.72895E-05-2.75031E-05 1.53845E-05 3.52293E-19-4.53302E-19
 -1      3548 9.49351E-05-2.35243E-05-3.06219E-05 3.04966E-06 1.18396E-18-9.25114E-19
 -1      3549 9.46641E-05-2.28255E-05-3.07885E-05 2.80477E-06 1.00318E-18-1.13974E-18
 -1      3550 9.31330E-05-1.96107E-05-3.14917E-05-5.87058E-07 2.27144E-19-2.03716E-18
 -1      3551 7.68507E-05-2.90856E-05-2.03664E-05 2.44571E-05 8.48045E-19 1.13185E-19
 -1      3552 6.93444E-05-2.64652E-05-1.81442E-05 2.61754E-05 5.62536E-19-1.07428E-18
 -1      3553 6.55484E-05-2.23670E-05-1.84154E-05 2.10354E-05 6.26778E-19-7.16087E-19
 -1      3554 9.56429E-05-2.84301E-05-2.88097E-05-8.69182E-07 1.12893E-19-6.94264E-19
 -1      3555 9.53901E-05-2.48056E-05-3.02590E-05-1.93486E-06-6.79833E-19-1.57309E-18
 -1      3556 9.55067E-05-2.48372E-05-3.02809E-05-1.61127E-06-6.59448E-19-1.51042E-18
 -1      3557 9.51785E-05-2.40651E-05-3.04803E-05-2.57632E-06-8.19750E-19-1.54749E-18
 -1      3558 1.23563E-04-5.06722E-05-3.14290E-05-4.60953E-06-1.04803E-18 2.36799E-18
 -1      3559 1.25500E-04-5.40399E-05-3.06012E-05 1.05195E-06-6.52496E-19 2.86588E-19
 -1      3560 9.59855E-05-2.62975E-05-2.98655E-05-7.08405E-07-5.91436E-19-1.34613E-18
 -1      3561 1.15178E-04-2.50001E-05-3.91250E-05-1.90362E-05 8.22615E-19 2.61604E-19
 -1      3562 9.59477E-05-2.80871E-05-2.90877E-05-5.06274E-07 3.48329E-19-8.94923E-19
 -1      3563 9.59655E-05-2.77827E-05-2.92121E-05-2.28478E-07 4.57299E-19-8.01049E-19
 -1      3564 9.61074E-05-2.74093E-05-2.94435E-05 4.10221E-08 6.28809E-19-8.25196E-19
 -1      3565 9.58545E-05-2.87928E-05-2.87415E-05-9.87383E-07 3.01388E-19-8.09766E-19
 -1      3566 9.58874E-05-2.86793E-05-2.87989E-05-9.28358E-07 7.60367E-20-9.33908E-19
 -1      3567 9.60755E-05-2.88877E-05-2.87972E-05-9.17414E-07 1.03208E-19-1.20347E-18
 -1      3568 9.57659E-05-2.90765E-05-2.85828E-05-8.02731E-07 4.04611E-19-6.88112E-19
 -1      3569 9.56170E-05-2.89995E-05-2.85492E-05-8.69487E-07 3.11231E-19-3.81530E-19
 -1      3570 9.56394E-05-2.89969E-05-2.85603E-05-9.19476E-07 4.53594E-19-1.75798E-19
 -1      3571 9.39355E-05-2.12024E-05-3.11797E-05-1.21251E-06 9.02631E-20-1.94847E-18
 -1      3572 9.40788E-05-2.14836E-05-3.11267E-05-1.74397E-06-1.48556E-19-1.82325E-18
 -1      3573 9.40848E-05-2.15097E-05-3.11176E-05 1.76564E-06 8.31393E-19-1.62389E-18
 -1      3574 9.39476E-05-2.12189E-05-3.11766E-05 1.24681E-06 6.66045E-19-1.84971E-18
 -1      3575 9.49404E-05-2.32533E-05-3.07092E-05-1.70245E-06-3.56740E-19-1.46949E-18
 -1      3576 9.44168E-05-2.22490E-05-3.09297E-05-2.30141E-06-5.41985E-19-1.53012E-18
 -1      3577 9.40898E-05-2.16236E-05-3.10634E-05-4.16724E-06-1.07368E-18-1.84072E-18
 -1      3578 9.58679E-05-2.62690E-05-2.98282E-05 8.86898E-07 7.39560E-19-7.64222E-19
 -1      3579 9.57087E-05-2.62695E-05-2.97671E-05 1.05697E-06 7.87819E-19-6.05136E-19
 -1      3580 5.22858E-05-1.53157E-05-1.54454E-05 9.97514E-06 3.13915E-19 1.08240E-18
 -1      3581 5.49785E-05-1.50187E-05-1.69393E-05 4.24424E-06-2.91082E-19 1.99630E-18
 -1      3582 5.78919E-05-1.74840E-05-1.71833E-05 1.39197E-05 1.09593E-18 1.15199E-18
 -1      3583 9.56178E-05-2.57132E-05-2.99551E-05 1.65421E-06 9.44802E-19-6.71626E-19
 -1      3584 9.38597E-05-2.10464E-05-3.12175E-05 8.07106E-07 6.15479E-19-2.00874E-18
 -1      3585 9.38113E-05-2.09472E-05-3.12368E-05 2.46398E-07 4.25474E-19-1.92527E-18
 -1      3586 9.46056E-05-2.23867E-05-3.09340E-05 8.26076E-07 5.44919E-19-1.76523E-18
 -1      3587 9.56940E-05-2.89934E-05-2.85852E-05-9.61308E-07 3.89315E-19-3.95708E-19
 -1      3588 9.57207E-05-2.89675E-05-2.86069E-05-9.93672E-07 4.37584E-19-3.10748E-19
 -1      3589 9.59756E-05-2.90283E-05-2.86940E-05-9.36586E-07 3.85231E-19-4.19405E-19
 -1      3590 9.58692E-05-2.90810E-05-2.86254E-05-8.87832E-07 3.60023E-19-2.00688E-19
 -1      3591 9.26483E-05-4.19762E-05-2.14923E-05 2.90683E-05 2.76351E-19-4.86144E-19
 -1      3592 8.84052E-05-3.70753E-05-2.19330E-05 2.62075E-05 1.12608E-18-1.20325E-18
 -1      3593 1.00104E-04-4.57048E-05-2.34395E-05 2.57367E-05 4.76959E-19-4.75794E-19
 -1      3594 1.16649E-04-5.52478E-05-2.63388E-05 1.89868E-05 2.08952E-19-2.78403E-19
 -1      3595 1.09643E-04-5.05802E-05-2.51451E-05 2.12107E-05 3.66458E-19-1.01224E-18
 -1      3596 1.17485E-04-5.35906E-05-2.74940E-05 1.31047E-05-2.99843E-19-2.29674E-18
 -1      3597 5.93320E-05-1.83502E-05-1.72540E-05-1.30013E-05-1.21003E-18-8.28345E-19
 -1      3598 6.94020E-05-2.08802E-05-2.06157E-05-1.44502E-05-1.49122E-18-1.53979E-18
 -1      3599 7.11570E-05-1.99492E-05-2.20113E-05-1.27277E-05-8.12880E-19-8.09869E-19
 -1      3600 5.83293E-05-1.61660E-05-1.80462E-05-6.47998E-06-7.76253E-19 1.34310E-18
 -1      3601 9.38090E-05-2.09439E-05-3.12374E-05-2.13841E-07 3.40434E-19-1.85623E-18
 -1      3602 9.38533E-05-2.10350E-05-3.12193E-05-7.74706E-07 1.73763E-19-2.07268E-18
 -1      3603 9.46014E-05-2.23735E-05-3.09363E-05-8.03949E-07 1.21775E-19-1.87208E-18
 -1      3604 9.45308E-05-2.22123E-05-3.09759E-05 1.24192E-08 3.50219E-19-1.75817E-18
 -1      3605 9.65128E-05-2.80207E-05-2.93489E-05 2.96907E-07-3.33705E-19-9.12546E-19
 -1      3606 9.65245E-05-2.83448E-05-2.92236E-05 4.77308E-07-4.27214E-19-8.76520E-19
 -1      3607 9.65336E-05-2.86081E-05-2.91071E-05 5.76715E-07-1.84758E-19-7.85209E-19
 -1      3608 9.65024E-05-2.88059E-05-2.90146E-05 6.70910E-07-7.57649E-20-5.42571E-19
 -1      3609 9.66640E-05-2.84342E-05-2.92418E-05 4.27398E-07-2.23564E-19-8.67092E-19
 -1      3610 9.64621E-05-2.89573E-05-2.89278E-05 7.12493E-07-7.64274E-21-5.30459E-19
 -1      3611 9.64085E-05-2.90669E-05-2.88612E-05 7.46861E-07 5.91644E-20-4.63668E-19
 -1      3612 9.66322E-05-2.88877E-05-2.90347E-05 5.82513E-07 2.45939E-20-7.59935E-19
 -1      3613 9.63411E-05-2.91410E-05-2.87981E-05 7.49530E-07 7.29755E-20-3.68332E-19
 -1      3614 9.62781E-05-2.91901E-05-2.87517E-05 7.45242E-07 4.63443E-21-3.30086E-19
 -1      3615 9.65251E-05-2.91400E-05-2.88811E-05 6.40964E-07-1.89239E-20-8.72079E-19
 -1      3616 9.61987E-05-2.92123E-05-2.87071E-05 7.24182E-07-2.14923E-19-3.23011E-19
 -1      3617 9.61340E-05-2.92211E-05-2.86761E-05 6.97298E-07-2.18777E-19-4.19152E-19
 -1      3618 9.63794E-05-2.92531E-05-2.87704E-05 6.35886E-07-5.69939E-20-5.56668E-19
 -1      3619 9.60522E-05-2.92096E-05-2.86460E-05 6.63677E-07-4.78161E-19-5.14654E-19
 -1      3620 9.59905E-05-2.91923E-05-2.86267E-05 6.25727E-07-5.31118E-19-6.14359E-19
 -1      3621 9.62196E-05-2.92730E-05-2.86933E-05 5.93236E-07-3.43999E-19-5.13157E-19
 -1      3622 9.59116E-05-2.91595E-05-2.86077E-05 5.87572E-07-5.74004E-19-7.23397E-19
 -1      3623 9.58550E-05-2.91257E-05-2.85971E-05 5.46857E-07-5.61484E-19-8.82762E-19
 -1      3624 9.60604E-05-2.92326E-05-2.86422E-05 5.31780E-07-6.59998E-19-4.06497E-19
 -1      3625 9.57817E-05-2.90797E-05-2.85865E-05 5.09868E-07-1.26685E-19-8.28914E-19
 -1      3626 9.57308E-05-2.90355E-05-2.85824E-05 4.72161E-07-1.39434E-20-8.34329E-19
 -1      3627 9.59096E-05-2.91539E-05-2.86111E-05 4.65335E-07-2.77658E-19-7.42353E-19
 -1      3628 9.56635E-05-2.89813E-05-2.85783E-05 4.40331E-07-1.95470E-19-8.57388E-19
 -1      3629 9.56177E-05-2.89300E-05-2.85792E-05 4.09779E-07-5.36321E-19-2.35623E-19
 -1      3630 9.57704E-05-2.90511E-05-2.85952E-05 4.03566E-07 3.34671E-20-8.60128E-19
 -1      3631 9.55557E-05-2.88700E-05-2.85800E-05 3.85992E-07-6.29505E-19-1.34195E-19
 -1      3632 9.55136E-05-2.88132E-05-2.85847E-05 3.65640E-07-4.23713E-19 4.87686E-20
 -1      3633 9.56425E-05-2.89322E-05-2.85910E-05 3.53457E-07-3.11508E-19-5.20698E-19
 -1      3634 9.54546E-05-2.87479E-05-2.85893E-05 3.52102E-07-7.29280E-19-2.39026E-19
 -1      3635 9.54143E-05-2.86856E-05-2.85969E-05 3.44440E-07-7.55725E-19-2.94342E-19
 -1      3636 9.55228E-05-2.88007E-05-2.85958E-05 3.20142E-07-7.46309E-19-7.56172E-20
 -1      3637 9.53555E-05-2.86141E-05-2.86044E-05 3.43161E-07-9.48492E-20-2.98992E-19
 -1      3638 9.53146E-05-2.85450E-05-2.86144E-05 3.50546E-07 1.23072E-20-3.76875E-20
 -1      3639 9.54062E-05-2.86563E-05-2.86074E-05 3.07847E-07-2.40766E-19-5.13209E-19
 -1      3640 9.52523E-05-2.84654E-05-2.86242E-05 3.63647E-07 7.53017E-20 4.54413E-19
 -1      3641 9.52081E-05-2.83878E-05-2.86361E-05 3.88550E-07-5.36258E-21 3.17427E-19
 -1      3642 9.52863E-05-2.84963E-05-2.86242E-05 3.20711E-07 2.57307E-19-1.21820E-19
 -1      3643 9.51382E-05-2.82976E-05-2.86475E-05 4.18448E-07-2.90865E-19 8.32360E-19
 -1      3644 9.50877E-05-2.82093E-05-2.86610E-05 4.63645E-07 1.26277E-19 4.40039E-19
 -1      3645 9.51555E-05-2.83161E-05-2.86450E-05 3.63195E-07 1.21368E-19 6.56958E-19
 -1      3646 9.50057E-05-2.81060E-05-2.86733E-05 5.13246E-07 2.02766E-19 3.78286E-19
 -1      3647 9.49459E-05-2.80049E-05-2.86878E-05 5.81947E-07 6.95593E-21 1.72535E-19
 -1      3648 9.50051E-05-2.81105E-05-2.86682E-05 4.40467E-07-2.29947E-20 8.01221E-19
 -1      3649 9.48473E-05-2.78860E-05-2.87002E-05 6.54809E-07 9.46483E-21 2.90933E-19
 -1      3650 9.47755E-05-2.77709E-05-2.87149E-05 7.50708E-07 1.40308E-19 1.89102E-19
 -1      3651 9.48261E-05-2.78743E-05-2.86923E-05 5.58787E-07 1.25501E-19 1.69620E-19
 -1      3652 9.46557E-05-2.76353E-05-2.87261E-05 8.51166E-07-7.87715E-20 6.64030E-20
 -1      3653 9.45698E-05-2.75063E-05-2.87399E-05 9.78413E-07-1.72113E-19 2.44964E-19
 -1      3654 9.46093E-05-2.76033E-05-2.87150E-05 7.25823E-07-5.17721E-20-2.82402E-19
 -1      3655 9.44253E-05-2.73546E-05-2.87483E-05 1.11168E-06-1.30454E-19 1.23754E-19
 -1      3656 9.43250E-05-2.72147E-05-2.87596E-05 1.27478E-06-7.36170E-20 6.57043E-19
 -1      3657 9.43467E-05-2.72968E-05-2.87334E-05 9.50922E-07-9.03510E-20 4.62533E-19
 -1      3658 9.41538E-05-2.70508E-05-2.87628E-05 1.44705E-06-8.09955E-20 7.26238E-19
 -1      3659 9.40412E-05-2.69071E-05-2.87693E-05 1.65065E-06 2.00670E-19 1.56269E-18
 -1      3660 9.40327E-05-2.69588E-05-2.87431E-05 1.24541E-06 5.25698E-20 1.49562E-18
 -1      3661 9.38447E-05-2.67399E-05-2.87642E-05 1.86920E-06-1.65879E-19 1.68605E-18
 -1      3662 9.37264E-05-2.66054E-05-2.87629E-05 2.11785E-06 1.33678E-19 1.17436E-18
 -1      3663 9.36661E-05-2.66020E-05-2.87386E-05 1.62293E-06 3.18321E-19 1.52578E-18
 -1      3664 9.35111E-05-2.64512E-05-2.87455E-05 2.39111E-06 2.38072E-19 2.62771E-19
 -1      3665 9.34009E-05-2.63480E-05-2.87327E-05 2.68882E-06 1.34996E-19-8.46573E-20
 -1      3666 9.32543E-05-2.62513E-05-2.87125E-05 2.09992E-06-4.31795E-19 5.02268E-19
 -1      3667 9.31815E-05-2.62330E-05-2.86980E-05 3.02651E-06 1.02336E-19-4.08586E-19
 -1      3668 9.31036E-05-2.61950E-05-2.86692E-05 3.37613E-06 3.06780E-19-4.14732E-19
 -1      3669 9.28174E-05-2.59488E-05-2.86554E-05 2.69611E-06-8.41307E-20-3.30068E-19
 -1      3670 9.29070E-05-2.61590E-05-2.86118E-05 3.78914E-06 2.12231E-19-9.49573E-19
 -1      3671 9.29010E-05-2.62355E-05-2.85626E-05 4.19131E-06 8.22518E-20-8.89882E-19
 -1      3672 9.23954E-05-2.57609E-05-2.85565E-05 3.43515E-06 1.77838E-19-6.15013E-19
 -1      3673 9.27720E-05-2.63355E-05-2.84771E-05 4.69108E-06-4.88517E-19-1.35120E-18
 -1      3674 9.28987E-05-2.65952E-05-2.84041E-05 5.14206E-06-6.43690E-19-9.27853E-19
 -1      3675 9.20575E-05-2.57850E-05-2.84041E-05 4.34477E-06-3.18136E-19-1.02012E-18
 -1      3676 9.29078E-05-2.69096E-05-2.82864E-05 5.73840E-06-1.11797E-18-1.15605E-18
 -1      3677 9.32562E-05-2.74434E-05-2.81894E-05 6.22541E-06-1.30229E-18-1.41972E-18
 -1      3678 9.19150E-05-2.61591E-05-2.81879E-05 5.45532E-06-1.01458E-18-1.25540E-18
 -1      3679 9.35103E-05-2.80745E-05-2.80396E-05 6.92037E-06-8.05246E-19-1.43523E-18
 -1      3680 9.42044E-05-2.89954E-05-2.79253E-05 7.41170E-06 1.76342E-19-2.03782E-18
 -1      3681 9.21396E-05-2.70704E-05-2.79022E-05 6.79374E-06-1.19350E-18 8.95034E-20
 -1      3682 9.48610E-05-3.00695E-05-2.77528E-05 8.18447E-06 1.00631E-18-1.75740E-18
 -1      3683 9.60620E-05-3.15044E-05-2.76414E-05 8.60920E-06 1.02962E-18-1.89014E-18
 -1      3684 9.29874E-05-2.87638E-05-2.75540E-05 8.36585E-06 1.93388E-19-2.03519E-19
 -1      3685 9.73466E-05-3.31610E-05-2.74735E-05 9.38079E-06 8.02823E-19-2.58438E-18
 -1      3686 9.92398E-05-3.52191E-05-2.74097E-05 9.59192E-06 1.02260E-18-1.87606E-18
 -1      3687 9.48331E-05-3.15431E-05-2.71758E-05 1.01119E-05 9.16914E-19-1.63656E-18
 -1      3688 1.01447E-04-3.75696E-05-2.73083E-05 1.01674E-05 5.59151E-19-1.97194E-18
 -1      3689 1.04178E-04-4.02687E-05-2.73743E-05 9.89085E-06 1.45282E-19-9.89339E-19
 -1      3690 9.81835E-05-3.57202E-05-2.68519E-05 1.18068E-05 9.67647E-19-1.40238E-18
 -1      3691 1.07691E-04-4.32822E-05-2.74642E-05 9.77140E-06-6.85824E-19-6.15034E-19
 -1      3692 1.11106E-04-4.63271E-05-2.77710E-05 8.60839E-06-1.28184E-18-2.80360E-19
 -1      3693 1.03759E-04-4.16079E-05-2.67594E-05 1.29305E-05 2.90307E-19-1.65087E-18
 -1      3694 9.51626E-05-2.44088E-05-3.03164E-05 2.86401E-06 1.21033E-18-6.58469E-19
 -1      3695 9.54165E-05-2.50618E-05-3.01453E-05 2.08729E-06 1.14841E-18-6.56049E-19
 -1      3696 9.54100E-05-2.87015E-05-2.85881E-05-3.78051E-07 5.34932E-19-8.19279E-19
 -1      3697 9.54402E-05-2.87563E-05-2.85795E-05-3.89719E-07 1.30550E-19-7.87215E-19
 -1      3698 9.54912E-05-2.88150E-05-2.85743E-05-4.07467E-07 2.52377E-20-7.20312E-19
 -1      3699 9.55235E-05-2.88645E-05-2.85686E-05-4.32613E-07-1.24816E-19-7.10297E-19
 -1      3700 9.55133E-05-2.88111E-05-2.85873E-05-3.68330E-07 1.96729E-19-1.10129E-18
 -1      3701 9.52434E-05-2.84328E-05-2.86319E-05-4.11472E-07-3.38322E-19-2.99198E-19
 -1      3702 9.52764E-05-2.85031E-05-2.86184E-05-3.88627E-07-2.96740E-19 1.84863E-19
 -1      3703 9.51441E-05-2.82666E-05-2.86605E-05-4.84193E-07-5.41917E-20-9.88933E-19
 -1      3704 9.51832E-05-2.83489E-05-2.86448E-05-4.39885E-07-2.63700E-19-6.18333E-19
 -1      3705 9.51986E-05-2.83661E-05-2.86421E-05-3.96065E-07 2.57473E-20-7.99013E-19
 -1      3706 9.50224E-05-2.80688E-05-2.86931E-05-6.01849E-07 7.19782E-19-3.63711E-19
 -1      3707 9.50715E-05-2.81673E-05-2.86753E-05-5.32757E-07 4.60646E-19-6.69307E-19
 -1      3708 9.50672E-05-2.81704E-05-2.86693E-05-4.71702E-07 5.30819E-20-8.71085E-19
 -1      3709 9.48663E-05-2.78297E-05-2.87287E-05-7.71012E-07 5.61177E-19 5.31681E-19
 -1      3710 9.49308E-05-2.79490E-05-2.87091E-05-6.73391E-07 9.05088E-19-4.39082E-20
 -1      3711 9.49049E-05-2.79369E-05-2.86992E-05-5.88531E-07 2.31728E-19 1.46008E-20
 -1      3712 9.46612E-05-2.75376E-05-2.87660E-05-9.98734E-07 7.79388E-20 1.08273E-18
 -1      3713 9.47477E-05-2.76835E-05-2.87451E-05-8.68532E-07 3.18626E-19 8.58063E-19
 -1      3714 9.46972E-05-2.76546E-05-2.87304E-05-7.51765E-07 6.26092E-20 1.88521E-19
 -1      3715 9.43883E-05-2.71798E-05-2.88026E-05-1.29204E-06 5.10422E-19 4.56639E-19
 -1      3716 9.45056E-05-2.73584E-05-2.87816E-05-1.12516E-06 6.77201E-19 1.04802E-18
 -1      3717 9.44265E-05-2.73109E-05-2.87607E-05-9.66425E-07 3.70421E-19 2.01030E-19
 -1      3718 9.40240E-05-2.67421E-05-2.88344E-05-1.65709E-06 1.67472E-19-2.41307E-19
 -1      3719 9.41834E-05-2.69602E-05-2.88152E-05-1.44982E-06 3.69604E-19-6.04631E-20
 -1      3720 9.40708E-05-2.68923E-05-2.87863E-05-1.23658E-06 8.03384E-19 2.81851E-19
 -1      3721 9.35381E-05-2.62100E-05-2.88548E-05-2.09806E-06-4.12470E-19 1.02960E-19
 -1      3722 9.37541E-05-2.64745E-05-2.88407E-05-1.84765E-06-2.18185E-19 2.41403E-19
 -1      3723 9.36027E-05-2.63841E-05-2.88018E-05-1.56426E-06-1.57066E-19-6.69432E-19
 -1      3724 9.28926E-05-2.55696E-05-2.88536E-05-2.61584E-06-1.13609E-18 3.32784E-19
 -1      3725 9.31840E-05-2.58867E-05-2.88499E-05-2.32115E-06-6.96338E-19 2.41997E-19
 -1      3726 9.29881E-05-2.57720E-05-2.87984E-05-1.94808E-06-5.43976E-19-6.98130E-20
 -1      3727 9.20404E-05-2.48106E-05-2.88151E-05-3.20701E-06-6.32322E-19 1.31213E-18
 -1      3728 9.24303E-05-2.51844E-05-2.88299E-05-2.86900E-06-9.58237E-19 1.09452E-18
 -1      3729 9.21846E-05-2.50435E-05-2.87632E-05-2.38177E-06-1.31407E-18 7.23007E-19
 -1      3730 9.09246E-05-2.39304E-05-2.87160E-05-3.86411E-06-1.46911E-19 1.94836E-18
 -1      3731 9.14404E-05-2.43602E-05-2.87614E-05-3.48554E-06-1.47180E-19 1.70099E-18
 -1      3732 9.11400E-05-2.41901E-05-2.86772E-05-2.85337E-06-5.54319E-19 1.98129E-18
 -1      3733 8.94786E-05-2.29423E-05-2.85220E-05-4.57916E-06-9.11552E-19 2.02755E-18
 -1      3734 9.01507E-05-2.34176E-05-2.86161E-05-4.16245E-06-3.58443E-19 2.11374E-18
 -1      3735 8.97900E-05-2.32117E-05-2.85126E-05-3.34604E-06-6.24778E-19 2.58058E-18
 -1      3736 8.76291E-05-2.18869E-05-2.81836E-05-5.35418E-06-5.63283E-19 9.75300E-19
 -1      3737 8.84867E-05-2.23806E-05-2.83524E-05-4.89519E-06-7.18531E-19 1.79393E-18
 -1      3738 8.80559E-05-2.21221E-05-2.82293E-05-3.84333E-06-3.64718E-19 2.16905E-18
 -1      3739 8.53000E-05-2.08502E-05-2.76302E-05-6.22423E-06-1.79789E-19 1.53176E-18
 -1      3740 8.63639E-05-2.13071E-05-2.79104E-05-5.69879E-06-5.25893E-19 1.35372E-18
 -1      3741 8.58407E-05-2.09573E-05-2.77695E-05-4.34219E-06-3.31534E-19 2.17865E-18
 -1      3742 8.24145E-05-1.99903E-05-2.67611E-05-7.30712E-06-2.74209E-19 1.31859E-18
 -1      3743 8.36884E-05-2.03090E-05-2.72044E-05-6.64152E-06 2.88397E-19 1.46383E-18
 -1      3744 8.30182E-05-1.97823E-05-2.70499E-05-4.88030E-06-3.11864E-20 2.32130E-18
 -1      3745 7.88713E-05-1.95778E-05-2.54229E-05-8.90348E-06-4.83844E-19 7.42993E-19
 -1      3746 8.03399E-05-1.95588E-05-2.61090E-05-7.89495E-06-4.98149E-19 1.15297E-18
 -1      3747 7.94344E-05-1.87161E-05-2.59465E-05-5.59297E-06 8.15852E-20 1.84091E-18
 -1      3748 9.46258E-05-2.27176E-05-3.08175E-05-2.69464E-06-7.74183E-19-1.45124E-18
 -1      3749 9.59078E-05-2.57145E-05-3.00801E-05-8.98750E-07-4.44652E-19-1.15329E-18
 -1      3750 9.61206E-05-2.64568E-05-2.98632E-05-4.64040E-07-3.01197E-19-9.18436E-19
 -1      3751 9.45829E-05-2.26484E-05-3.08197E-05-3.21378E-06-9.40121E-19-1.67045E-18
 -1      3752 9.59978E-05-2.63841E-05-2.98431E-05 6.20134E-07 6.07891E-19-1.00554E-18
 -1      3753 9.58077E-05-2.56435E-05-3.00665E-05 1.13302E-06 6.86914E-19-1.12332E-18
 -1      3754 9.54416E-05-2.48549E-05-3.02474E-05 1.84793E-06 9.63907E-19-8.11850E-19
 -1      3755 9.57802E-05-2.90884E-05-2.85809E-05-6.20400E-07 1.78091E-19-6.66426E-19
 -1      3756 9.58262E-05-2.91158E-05-2.85898E-05-6.66425E-07 4.62825E-19-6.44534E-19
 -1      3757 9.44593E-05-2.23354E-05-3.09267E-05 2.55848E-06 9.01026E-19-1.53050E-18
 -1      3758 9.42462E-05-2.18476E-05-3.10325E-05 2.13414E-06 8.31781E-19-1.61922E-18
 -1      3759 9.48017E-05-2.28855E-05-3.08072E-05 1.54431E-06 7.17718E-19-1.52992E-18
 -1      3760 9.50858E-05-2.37004E-05-3.05831E-05 2.07670E-06 8.96544E-19-1.36698E-18
 -1      3761 1.22471E-04-5.30754E-05-2.96945E-05 3.29487E-06-6.21709E-19 5.27086E-19
 -1      3762 9.53294E-05-2.85756E-05-2.86075E-05-3.77823E-07-2.33496E-19 1.47185E-19
 -1      3763 9.53597E-05-2.86370E-05-2.85964E-05-3.73535E-07 3.78755E-19-1.00823E-19
 -1      3764 9.53107E-05-2.85334E-05-2.86188E-05-3.56644E-07-2.07752E-19-6.51149E-20
 -1      3765 9.59195E-05-2.85301E-05-2.88835E-05-8.39719E-07 1.33568E-19-1.13259E-18
 -1      3766 9.59502E-05-2.83395E-05-2.89694E-05-6.91997E-07 2.24658E-19-1.12273E-18
 -1      3767 9.61786E-05-2.81526E-05-2.91563E-05-4.91151E-07 4.77885E-19-1.20944E-18
 -1      3768 9.63384E-05-2.71010E-05-2.96676E-05-1.79260E-07-3.39831E-19-9.01064E-19
 -1      3769 9.64230E-05-2.76004E-05-2.95015E-05 1.16508E-07-3.20402E-19-8.45540E-19
 -1      3770 9.65669E-05-2.76969E-05-2.95149E-05 1.35626E-07-3.99638E-19-7.70757E-19
 -1      3771 1.18357E-04-5.12881E-05-2.86735E-05 6.48565E-06-7.54357E-19 4.91305E-20
 -1      3772 9.55854E-05-2.50731E-05-3.02222E-05 1.38008E-06 8.39629E-19-1.19422E-18
 -1      3773 9.53615E-05-2.44126E-05-3.04118E-05 1.78808E-06 8.90783E-19-1.28638E-18
 -1      3774 9.52181E-05-2.39382E-05-3.05466E-05 1.60710E-06 7.39558E-19-1.44647E-18
 -1      3775 9.57172E-05-2.51841E-05-3.02248E-05 1.08843E-06 6.56144E-19-1.16670E-18
 -1      3776 8.33380E-05-3.27573E-05-2.14637E-05 2.52963E-05 1.02152E-18-1.23437E-18
 -1      3777 7.86597E-05-2.89013E-05-2.13175E-05 2.26846E-05 4.42786E-19-3.68830E-19
 -1      3778 8.97904E-05-3.64530E-05-2.28310E-05 2.36751E-05 1.01635E-18-9.84365E-19
 -1      3779 9.62652E-05-2.65713E-05-2.98666E-05-3.32729E-07-2.97858E-19-5.53216E-19
 -1      3780 6.39220E-05-1.96284E-05-1.87434E-05 1.69112E-05 3.67480E-19-4.31153E-19
 -1      3781 6.30143E-05-1.73664E-05-1.94424E-05 1.15827E-05 1.73152E-19 6.64497E-19
 -1      3782 7.03352E-05-2.22495E-05-2.05498E-05 1.77077E-05-2.23021E-19-7.49677E-19
 -1      3783 9.52362E-05-2.38548E-05-3.05896E-05-1.12752E-06-4.56211E-20-1.20456E-18
 -1      3784 9.54718E-05-2.46004E-05-3.03832E-05-1.48681E-06-5.75339E-19-1.19560E-18
 -1      3785 9.57316E-05-2.53057E-05-3.01850E-05-1.04702E-06-5.40828E-19-1.20801E-18
 -1      3786 9.62654E-05-2.89892E-05-2.88333E-05-8.34433E-07-1.06500E-20-1.03738E-18
 -1      3787 9.63129E-05-2.88769E-05-2.88977E-05-7.92883E-07-6.40512E-21-1.18419E-18
 -1      3788 1.04099E-04-4.62056E-05-2.48437E-05 2.09819E-05 4.20631E-19-8.45172E-19
 -1      3789 9.58977E-05-2.91433E-05-2.86079E-05-7.09557E-07 5.55471E-19-6.81032E-19
 -1      3790 9.59486E-05-2.91543E-05-2.86253E-05-7.51902E-07 5.56350E-19-3.37852E-19
 -1      3791 9.59909E-05-2.91951E-05-2.86284E-05-6.22126E-07 5.46774E-19-3.61876E-19
 -1      3792 1.14218E-04-5.00752E-05-2.74994E-05 1.16898E-05-4.64763E-19-2.20218E-18
 -1      3793 9.56177E-05-2.89301E-05-2.85814E-05-4.10918E-07 4.08779E-20-1.20774E-19
 -1      3794 9.55779E-05-2.89182E-05-2.85671E-05-4.61443E-07-1.78761E-19-5.39232E-19
 -1      3795 9.56138E-05-2.89625E-05-2.85651E-05-4.97326E-07 5.76616E-20-6.28236E-19
 -1      3796 7.62793E-05-1.93000E-05-2.45029E-05-9.42195E-06-4.21763E-20 9.28163E-20
 -1      3797 7.47845E-05-1.76780E-05-2.43386E-05-6.23460E-06 6.30973E-20 7.81918E-19
 -1      3798 7.44462E-05-1.94363E-05-2.35417E-05-1.02963E-05-7.97733E-20-3.21257E-19
 -1      3799 9.61498E-05-2.91202E-05-2.87267E-05-8.39495E-07 2.46564E-19-7.39005E-19
 -1      3800 9.62038E-05-2.90665E-05-2.87708E-05-8.42468E-07 1.41576E-19-1.02288E-18
 -1      3801 9.64123E-05-2.90695E-05-2.88631E-05-7.38299E-07-7.17645E-21-1.27918E-18
 -1      3802 9.61525E-05-2.86163E-05-2.89466E-05-7.87526E-07 1.26053E-19-1.35363E-18
 -1      3803 9.62071E-05-2.70268E-05-2.96421E-05 2.72721E-07 6.23138E-19-9.99835E-19
 -1      3804 9.61479E-05-2.64590E-05-2.98636E-05 4.74811E-07 6.60999E-19-1.20203E-18
 -1      3805 9.62787E-05-2.75227E-05-2.94734E-05-7.24365E-08 6.02974E-19-1.01520E-18
 -1      3806 9.56736E-05-2.90106E-05-2.85685E-05-5.34661E-07 2.03991E-19-7.36708E-19
 -1      3807 9.57143E-05-2.90482E-05-2.85712E-05-5.77889E-07 1.67300E-19-5.65153E-19
 -1      3808 9.57308E-05-2.90367E-05-2.85843E-05-4.71789E-07 9.28715E-20 1.23207E-19
 -1      3809 5.93602E-05-1.55428E-05-1.88335E-05 5.91428E-06 1.10561E-18 2.81363E-18
 -1      3810 5.70651E-05-1.48236E-05-1.78370E-05 7.96161E-07-1.20604E-19 2.61818E-18
 -1      3811 6.28175E-05-1.62248E-05-1.98341E-05-4.23041E-06 1.76138E-19 1.23433E-18
 -1      3812 6.42637E-05-1.70355E-05-2.02050E-05 8.75692E-06 3.95776E-19 1.22322E-18
 -1      3813 9.58551E-05-2.91278E-05-2.85988E-05-5.44893E-07 2.92280E-19-1.19392E-19
 -1      3814 9.51265E-05-2.35586E-05-3.06812E-05 8.27446E-07 4.98668E-19-1.64196E-18
 -1      3815 9.50692E-05-2.33961E-05-3.07234E-05 4.82986E-07 3.61838E-19-1.72657E-18
 -1      3816 9.50672E-05-2.33909E-05-3.07250E-05-4.58991E-07 1.18005E-19-1.91637E-18
 -1      3817 9.51168E-05-2.35515E-05-3.06859E-05-8.18532E-07 5.91568E-20-1.89660E-18
 -1      3818 9.52161E-05-2.38648E-05-3.05868E-05 1.36979E-06 5.88665E-19-1.63432E-18
 -1      3819 9.51112E-05-2.35539E-05-3.06712E-05 1.08006E-06 4.91504E-19-1.58974E-18
 -1      3820 9.55740E-05-2.44457E-05-3.04692E-05 7.08543E-07 3.63458E-19-1.59589E-18
 -1      3821 9.55116E-05-2.45173E-05-3.04200E-05 1.13285E-06 6.19718E-19-1.45538E-18
 -1      3822 9.54130E-05-2.86799E-05-2.86002E-05-3.48836E-07 1.69078E-20-1.00887E-18
 -1      3823 9.56742E-05-2.47333E-05-3.03911E-05-7.56534E-07-1.30153E-19-1.36711E-18
 -1      3824 9.67710E-05-2.82727E-05-2.93539E-05 2.80446E-07-3.25775E-19-1.09958E-18
 -1      3825 9.67807E-05-2.85748E-05-2.92335E-05 3.94130E-07-1.14899E-19-1.11861E-18
 -1      3826 9.67762E-05-2.88161E-05-2.91235E-05 4.41722E-07 1.39868E-20-1.13599E-18
 -1      3827 9.67369E-05-2.89958E-05-2.90329E-05 4.98255E-07-9.51007E-20-1.11027E-18
 -1      3828 9.68642E-05-2.86702E-05-2.92261E-05 3.14424E-07-7.60915E-20-1.36452E-18
 -1      3829 9.66829E-05-2.91287E-05-2.89500E-05 5.12877E-07-1.02477E-19-1.12243E-18
 -1      3830 9.66163E-05-2.92215E-05-2.88836E-05 5.30608E-07-3.89631E-20-1.09072E-18
 -1      3831 9.68045E-05-2.90690E-05-2.90309E-05 3.87898E-07-5.22733E-20-1.06057E-18
 -1      3832 9.65359E-05-2.92796E-05-2.88227E-05 5.23794E-07 1.40642E-19-9.29129E-19
 -1      3833 9.64568E-05-2.93127E-05-2.87754E-05 5.16916E-07 2.10011E-19-6.55844E-19
 -1      3834 9.66701E-05-2.92761E-05-2.88850E-05 4.09084E-07 1.02216E-19-8.32088E-19
 -1      3835 9.63657E-05-2.93214E-05-2.87322E-05 4.98136E-07-1.45067E-19-5.64094E-19
 -1      3836 9.62841E-05-2.93156E-05-2.86998E-05 4.76871E-07-5.16949E-19-5.71117E-19
 -1      3837 9.64991E-05-2.93522E-05-2.87792E-05 3.96245E-07 4.95429E-20-8.86481E-19
 -1      3838 9.61909E-05-2.92916E-05-2.86704E-05 4.51803E-07-6.76050E-19-4.43588E-19
 -1      3839 9.61120E-05-2.92604E-05-2.86496E-05 4.24273E-07-4.73834E-19-3.88255E-19
 -1      3840 9.63162E-05-2.93423E-05-2.87050E-05 3.64511E-07-4.42531E-19-6.70760E-19
 -1      3841 9.60223E-05-2.92159E-05-2.86308E-05 3.98240E-07-4.24727E-19-5.55256E-19
 -1      3842 9.59490E-05-2.91688E-05-2.86189E-05 3.70121E-07-2.31934E-19-6.15914E-19
 -1      3843 9.61346E-05-2.92754E-05-2.86557E-05 3.23837E-07-4.35889E-19-1.66815E-19
 -1      3844 9.58652E-05-2.91116E-05-2.86084E-05 3.46179E-07 4.99571E-20-7.33082E-19
 -1      3845 9.57978E-05-2.90542E-05-2.86033E-05 3.21504E-07-1.76399E-20-7.35256E-19
 -1      3846 9.59627E-05-2.91730E-05-2.86256E-05 2.83069E-07-2.05716E-19-8.68100E-19
 -1      3847 9.57202E-05-2.89887E-05-2.85992E-05 3.02268E-07-3.89579E-21-8.16621E-19
 -1      3848 9.56580E-05-2.89239E-05-2.85993E-05 2.83845E-07-1.99524E-19-4.89299E-19
 -1      3849 9.58027E-05-2.90475E-05-2.86105E-05 2.47201E-07 3.59617E-20-8.32238E-19
 -1      3850 9.55847E-05-2.88517E-05-2.86001E-05 2.70910E-07-6.94785E-19-4.84636E-19
 -1      3851 9.55256E-05-2.87805E-05-2.86041E-05 2.61037E-07-9.09356E-19-5.61712E-19
 -1      3852 9.56534E-05-2.89060E-05-2.86068E-05 2.20475E-07-4.50397E-19-5.82429E-19
 -1      3853 9.54536E-05-2.87014E-05-2.86086E-05 2.55841E-07-4.63318E-19-2.95343E-19
 -1      3854 9.53945E-05-2.86227E-05-2.86157E-05 2.56576E-07 1.72461E-19-2.94789E-19
 -1      3855 9.55097E-05-2.87498E-05-2.86118E-05 2.06063E-07-4.67825E-19-4.88189E-19
 -1      3856 9.53200E-05-2.85350E-05-2.86230E-05 2.60779E-07 6.72203E-19-3.50291E-19
 -1      3857 9.52574E-05-2.84469E-05-2.86323E-05 2.74181E-07 7.08966E-19-3.26434E-20
 -1      3858 9.53648E-05-2.85769E-05-2.86234E-05 2.06801E-07 3.56221E-19 7.96622E-20
 -1      3859 9.51756E-05-2.83480E-05-2.86416E-05 2.89536E-07 3.04643E-19 3.46755E-19
 -1      3860 9.51054E-05-2.82480E-05-2.86526E-05 3.17871E-07 1.10337E-19 2.83805E-19
 -1      3861 9.52102E-05-2.83831E-05-2.86398E-05 2.26127E-07 6.15240E-19-2.79333E-19
 -1      3862 9.50109E-05-2.81347E-05-2.86629E-05 3.46535E-07-4.76532E-20 1.89514E-19
 -1      3863 9.49286E-05-2.80196E-05-2.86747E-05 3.92496E-07-3.89939E-21 4.29216E-19
 -1      3864 9.50359E-05-2.81622E-05-2.86592E-05 2.67669E-07 1.84070E-19 7.75842E-20
 -1      3865 9.48154E-05-2.78886E-05-2.86851E-05 4.37293E-07-2.38703E-20 6.28729E-19
 -1      3866 9.47163E-05-2.77559E-05-2.86967E-05 5.04172E-07 2.15120E-19 2.88390E-19
 -1      3867 9.48303E-05-2.79075E-05-2.86797E-05 3.36128E-07 1.35915E-19 1.94522E-19
 -1      3868 9.45780E-05-2.76042E-05-2.87059E-05 5.68808E-07 1.78830E-19-2.14139E-19
 -1      3869 9.44578E-05-2.74522E-05-2.87161E-05 6.60644E-07-2.31987E-19-3.17097E-20
 -1      3870 9.45814E-05-2.76123E-05-2.86989E-05 4.37675E-07-2.58828E-19 2.90644E-19
 -1      3871 9.42882E-05-2.72782E-05-2.87222E-05 7.49986E-07-1.55437E-19-2.52134E-19
 -1      3872 9.41431E-05-2.71069E-05-2.87290E-05 8.71741E-07-2.53315E-20 1.33788E-19
 -1      3873 9.42765E-05-2.72715E-05-2.87136E-05 5.80474E-07-1.49141E-19-6.00431E-19
 -1      3874 9.39367E-05-2.69114E-05-2.87296E-05 9.92186E-07-8.82180E-20 6.23108E-19
 -1      3875 9.37648E-05-2.67241E-05-2.87306E-05 1.14995E-06 4.46701E-19 7.50940E-19
 -1      3876 9.39037E-05-2.68833E-05-2.87194E-05 7.75387E-07 2.80627E-19-9.32576E-19
 -1      3877 9.35174E-05-2.65113E-05-2.87224E-05 1.30991E-06 3.43117E-19 6.48114E-19
 -1      3878 9.33201E-05-2.63162E-05-2.87142E-05 1.51117E-06-1.18357E-19 7.30752E-19
 -1      3879 9.34531E-05-2.64519E-05-2.87104E-05 1.03693E-06 4.37850E-20-7.50944E-20
 -1      3880 9.30307E-05-2.60962E-05-2.86928E-05 1.72176E-06-7.97426E-19 7.82962E-19
 -1      3881 9.28143E-05-2.59086E-05-2.86712E-05 1.97577E-06-5.84599E-19 4.27570E-19
 -1      3882 9.29194E-05-2.59902E-05-2.86789E-05 1.38457E-06-6.07343E-19-6.94056E-20
 -1      3883 9.24867E-05-2.56992E-05-2.86310E-05 2.25162E-06-2.37895E-19 4.26029E-19
 -1      3884 9.22658E-05-2.55442E-05-2.85907E-05 2.56990E-06 1.91361E-19 4.33770E-19
 -1      3885 9.23046E-05-2.55245E-05-2.86146E-05 1.84450E-06-7.71461E-19 6.73136E-19
 -1      3886 9.19115E-05-2.53742E-05-2.85251E-05 2.93036E-06 4.27333E-19-1.79398E-19
 -1      3887 9.17128E-05-2.52905E-05-2.84600E-05 3.32717E-06 4.00564E-19-1.75842E-19
 -1      3888 9.16231E-05-2.50990E-05-2.85048E-05 2.45196E-06-1.36096E-19 6.16572E-19
 -1      3889 9.13548E-05-2.52029E-05-2.83610E-05 3.79757E-06-2.85843E-19-6.81172E-19
 -1      3890 9.12229E-05-2.52469E-05-2.82649E-05 4.29026E-06-8.78140E-19-1.09861E-18
 -1      3891 9.09075E-05-2.47829E-05-2.83342E-05 3.25431E-06-2.18517E-19-9.98287E-19
 -1      3892 9.09011E-05-2.53035E-05-2.81242E-05 4.90330E-06-1.11766E-18-7.07012E-19
 -1      3893 9.09063E-05-2.55541E-05-2.79920E-05 5.51155E-06-1.05383E-18 3.59858E-20
 -1      3894 9.02179E-05-2.46778E-05-2.80857E-05 4.31455E-06-7.12944E-19-1.36768E-19
 -1      3895 9.06862E-05-2.58405E-05-2.78018E-05 6.30764E-06-8.14026E-19 6.56930E-19
 -1      3896 9.09356E-05-2.64056E-05-2.76319E-05 7.04978E-06-7.88144E-19 1.02349E-18
 -1      3897 8.96550E-05-2.49284E-05-2.77413E-05 5.71470E-06-6.57949E-19 2.60948E-19
 -1      3898 9.09229E-05-2.70381E-05-2.73875E-05 8.07419E-06-7.02375E-19 4.73428E-19
 -1      3899 9.15758E-05-2.80608E-05-2.71864E-05 8.95604E-06 4.54281E-19 3.11588E-19
 -1      3900 8.93815E-05-2.57369E-05-2.72857E-05 7.55663E-06-1.05962E-18 9.81287E-19
 -1      3901 9.19399E-05-2.91941E-05-2.68911E-05 1.02470E-05 6.32332E-19-6.67100E-19
 -1      3902 9.32271E-05-3.08575E-05-2.66815E-05 1.12339E-05 3.46587E-19-1.24793E-18
 -1      3903 8.96576E-05-2.73841E-05-2.67128E-05 9.95195E-06-2.20912E-19-9.09775E-21
 -1      3904 9.42596E-05-3.27099E-05-2.63571E-05 1.27806E-05 7.14341E-19-1.39879E-18
 -1      3905 9.64593E-05-3.52105E-05-2.61970E-05 1.37316E-05 1.13127E-18-1.72842E-18
 -1      3906 9.09137E-05-3.02720E-05-2.60375E-05 1.29932E-05 5.92730E-19-1.70350E-18
 -1      3907 9.54117E-05-2.86529E-05-2.86099E-05-3.02961E-07-2.39152E-19 3.79715E-22
 -1      3908 9.54622E-05-2.87251E-05-2.86022E-05-3.05077E-07 3.34235E-19-5.10545E-19
 -1      3909 9.63498E-05-2.87243E-05-2.89844E-05-7.37742E-07 1.16882E-19-9.53515E-19
 -1      3910 9.63799E-05-2.85265E-05-2.90754E-05-6.27681E-07 3.08273E-19-1.04349E-18
 -1      3911 9.65097E-05-2.88085E-05-2.90165E-05-6.60338E-07 2.05151E-19-1.05213E-18
 -1      3912 9.63707E-05-2.82637E-05-2.91927E-05-5.02917E-07 4.35347E-19-1.07210E-18
 -1      3913 9.63648E-05-2.79427E-05-2.93180E-05-2.93543E-07 5.45371E-19-9.53249E-19
 -1      3914 9.64412E-05-2.76017E-05-2.95026E-05-1.03239E-07 5.50646E-19-1.03262E-18
 -1      3915 9.65368E-05-2.83477E-05-2.92251E-05-4.64667E-07 3.97985E-19-8.36258E-19
 -1      3916 9.49951E-05-2.80819E-05-2.86765E-05-4.32604E-07 2.26127E-19-2.87885E-19
 -1      3917 9.50682E-05-2.81930E-05-2.86624E-05-3.86922E-07 2.52437E-19-3.54125E-19
 -1      3918 9.51551E-05-2.83018E-05-2.86507E-05-3.58957E-07 4.04377E-20-4.87903E-19
 -1      3919 9.52157E-05-2.83960E-05-2.86382E-05-3.31362E-07 1.00346E-20-3.06623E-19
 -1      3920 9.50891E-05-2.82186E-05-2.86579E-05-3.17343E-07 1.32657E-21 1.83423E-19
 -1      3921 9.45434E-05-2.75030E-05-2.87315E-05-6.89811E-07 1.77573E-19-5.69404E-19
 -1      3922 9.46626E-05-2.76638E-05-2.87165E-05-6.01250E-07 8.06426E-20-2.79629E-19
 -1      3923 9.42151E-05-2.71195E-05-2.87556E-05-8.79598E-07 3.31159E-19-1.62336E-19
 -1      3924 9.43715E-05-2.73144E-05-2.87422E-05-7.66776E-07-3.64635E-20-6.12436E-19
 -1      3925 9.43587E-05-2.73185E-05-2.87282E-05-6.05164E-07 9.24895E-20-4.70792E-19
 -1      3926 9.37875E-05-2.66554E-05-2.87719E-05-1.11189E-06 2.97960E-19 6.43265E-19
 -1      3927 9.39933E-05-2.68912E-05-2.87623E-05-9.74015E-07 4.50970E-19 6.56063E-19
 -1      3928 9.39700E-05-2.68897E-05-2.87442E-05-7.60418E-07-1.81670E-19 6.70159E-19
 -1      3929 9.32304E-05-2.60972E-05-2.87734E-05-1.38429E-06-5.92865E-19 9.28163E-19
 -1      3930 9.35013E-05-2.63805E-05-2.87713E-05-1.22222E-06-5.12197E-20 7.48162E-19
 -1      3931 9.34687E-05-2.63753E-05-2.87482E-05-9.42357E-07-3.66002E-19 2.11462E-18
 -1      3932 9.25073E-05-2.54323E-05-2.87499E-05-1.68952E-06-5.42315E-19 9.18015E-19
 -1      3933 9.28625E-05-2.57692E-05-2.87607E-05-1.50659E-06-5.46506E-19 7.43652E-19
 -1      3934 9.28237E-05-2.57633E-05-2.87320E-05-1.14330E-06-7.27645E-19 1.34102E-18
 -1      3935 9.15732E-05-2.46511E-05-2.86865E-05-2.01364E-06-1.52415E-18 1.13685E-18
 -1      3936 9.20368E-05-2.50461E-05-2.87180E-05-1.81648E-06-1.15920E-18 8.88503E-19
 -1      3937 9.19974E-05-2.50438E-05-2.86835E-05-1.34902E-06-7.00083E-19 1.16797E-18
 -1      3938 9.03730E-05-2.37490E-05-2.85617E-05-2.33491E-06-4.24111E-19 1.47857E-18
 -1      3939 9.09747E-05-2.42037E-05-2.86255E-05-2.13379E-06-8.80257E-19 1.07864E-18
 -1      3940 9.09446E-05-2.42114E-05-2.85856E-05-1.53662E-06-1.22186E-18 8.80960E-19
 -1      3941 8.88384E-05-2.27302E-05-2.83444E-05-2.62432E-06-6.89456E-19 1.80423E-18
 -1      3942 8.96147E-05-2.32416E-05-2.84572E-05-2.43229E-06-6.64890E-19 1.51565E-18
 -1      3943 8.96100E-05-2.32663E-05-2.84141E-05-1.67295E-06-7.24523E-19 7.98602E-19
 -1      3944 8.68829E-05-2.16114E-05-2.79907E-05-2.85020E-06-5.11228E-19 1.46522E-18
 -1      3945 8.78794E-05-2.21691E-05-2.81763E-05-2.67960E-06-4.29857E-19 1.33144E-18
 -1      3946 8.79235E-05-2.22175E-05-2.81346E-05-1.71455E-06-2.94763E-19 9.39781E-20
 -1      3947 8.43922E-05-2.04261E-05-2.74372E-05-2.99047E-06-8.69569E-20 1.47967E-18
 -1      3948 8.56666E-05-2.10099E-05-2.77301E-05-2.84471E-06-2.84674E-19 1.63458E-18
 -1      3949 8.57917E-05-2.10830E-05-2.76986E-05-1.61108E-06-1.45571E-19 1.90912E-19
 -1      3950 8.12012E-05-1.92283E-05-2.65915E-05-3.05779E-06 1.55782E-19 1.53068E-18
 -1      3951 8.28357E-05-1.98055E-05-2.70420E-05-2.91288E-06 6.91192E-20 1.89536E-18
 -1      3952 8.30821E-05-1.98908E-05-2.70355E-05-1.31488E-06-3.06820E-19 1.08898E-18
 -1      3953 7.70050E-05-1.80711E-05-2.53065E-05-3.14511E-06 1.82189E-19 7.81825E-19
 -1      3954 7.91579E-05-1.85924E-05-2.59982E-05-2.90638E-06 2.66924E-19 1.00724E-18
 -1      3955 7.96030E-05-1.86797E-05-2.60416E-05-7.83155E-07 3.52633E-19 5.52906E-19
 -1      3956 9.50456E-05-2.33292E-05-3.07445E-05 1.96613E-07 2.97879E-19-1.62855E-18
 -1      3957 9.50431E-05-2.33264E-05-3.07450E-05-1.77470E-07 1.56062E-19-1.64385E-18
 -1      3958 9.55796E-05-2.43652E-05-3.05041E-05 2.54191E-07 2.26769E-19-1.54006E-18
 -1      3959 9.66099E-05-2.74096E-05-2.96530E-05-7.81103E-09-4.15691E-19-1.02283E-18
 -1      3960 9.66955E-05-2.78779E-05-2.94967E-05 1.88205E-07-4.67472E-19-1.04977E-18
 -1      3961 9.67968E-05-2.80055E-05-2.94813E-05 1.66672E-07-3.29890E-19-1.35668E-18
 -1      3962 9.59150E-05-2.91542E-05-2.86105E-05-4.52182E-07 1.37071E-19 3.07250E-19
 -1      3963 9.59809E-05-2.91955E-05-2.86219E-05-4.86033E-07 3.09848E-19 2.12064E-19
 -1      3964 9.60232E-05-2.91611E-05-2.86543E-05-7.88662E-07 4.22097E-19-6.23337E-19
 -1      3965 9.60776E-05-2.91469E-05-2.86831E-05-8.18102E-07 4.21241E-19-5.88869E-19
 -1      3966 9.62805E-05-2.91937E-05-2.87535E-05-7.38510E-07 2.06666E-19-1.12963E-18
 -1      3967 9.61352E-05-2.92246E-05-2.86779E-05-6.92380E-07 4.02533E-19-5.74347E-19
 -1      3968 9.47967E-05-2.78196E-05-2.87041E-05-5.41706E-07-4.25472E-20-3.81896E-19
 -1      3969 9.48888E-05-2.79526E-05-2.86891E-05-4.75668E-07 2.87397E-19-2.45884E-19
 -1      3970 9.48982E-05-2.79705E-05-2.86818E-05-3.84263E-07 1.28299E-19-2.50840E-19
 -1      3971 9.55285E-05-2.87988E-05-2.85974E-05-3.13252E-07 6.28786E-19-3.54592E-19
 -1      3972 9.55798E-05-2.88640E-05-2.85928E-05-3.27105E-07 4.23577E-19-9.07410E-20
 -1      3973 9.55224E-05-2.87749E-05-2.86066E-05-2.63202E-07 4.50593E-19 5.21303E-19
 -1      3974 9.52902E-05-2.84893E-05-2.86281E-05-3.16975E-07-2.18602E-19-6.15075E-19
 -1      3975 9.53436E-05-2.85709E-05-2.86178E-05-3.05276E-07-4.66651E-19-6.89030E-19
 -1      3976 9.53896E-05-2.86127E-05-2.86188E-05-2.59507E-07-2.03781E-19-1.15843E-19
 -1      3977 9.55746E-05-2.43593E-05-3.05052E-05-2.36135E-07 1.06268E-19-1.67240E-18
 -1      3978 6.87661E-05-1.74706E-05-2.18461E-05-8.67937E-06-1.86658E-19 7.68120E-19
 -1      3979 6.63915E-05-1.60967E-05-2.15981E-05-2.35710E-06 3.69551E-19 2.19698E-18
 -1      3980 7.53299E-05-2.48459E-05-2.14467E-05 1.94370E-05-1.72421E-19 6.91556E-19
 -1      3981 7.27842E-05-2.23059E-05-2.16880E-05 1.59748E-05-9.07913E-19 1.58554E-19
 -1      3982 9.57319E-05-2.51223E-05-3.02671E-05 8.92854E-07 5.68840E-19-1.38341E-18
 -1      3983 9.61094E-05-2.92614E-05-2.86509E-05-4.20074E-07 1.23284E-19-9.27554E-20
 -1      3984 9.60659E-05-2.92348E-05-2.86407E-05-5.17761E-07 3.83631E-19-2.49355E-19
 -1      3985 9.61377E-05-2.92602E-05-2.86609E-05-5.50290E-07 3.62019E-19-3.31500E-19
 -1      3986 9.59154E-05-2.51925E-05-3.03164E-05-6.84752E-08 1.50028E-19-1.51849E-18
 -1      3987 9.59288E-05-2.52633E-05-3.02959E-05-2.68319E-07 1.36240E-20-1.76186E-18
 -1      3988 9.85706E-05-3.79021E-05-2.59131E-05 1.53444E-05 8.70194E-21-1.66726E-18
 -1      3989 1.01851E-04-4.17030E-05-2.58574E-05 1.62008E-05-6.51583E-19-1.95450E-18
 -1      3990 9.46608E-05-2.76745E-05-2.87062E-05-4.79711E-07 1.42364E-19-6.37894E-19
 -1      3991 9.58773E-05-2.54668E-05-3.01768E-05-7.89490E-07-3.51655E-19-6.78229E-19
 -1      3992 1.03855E-04-4.41599E-05-2.55808E-05 1.78525E-05 8.34625E-20-1.49775E-18
 -1      3993 9.58654E-05-3.90779E-05-2.41583E-05 2.15273E-05 6.56621E-19-8.26497E-19
 -1      3994 9.56481E-05-2.89310E-05-2.85919E-05-3.44416E-07 2.22226E-19-1.62513E-19
 -1      3995 9.57027E-05-2.89898E-05-2.85914E-05-3.67782E-07-5.97930E-20 3.04422E-19
 -1      3996 9.56555E-05-2.89213E-05-2.86013E-05-2.84716E-07 4.19411E-19 4.01870E-20
 -1      3997 9.52486E-05-2.84296E-05-2.86364E-05-2.76635E-07-2.34749E-19-1.76620E-19
 -1      3998 7.46847E-05-1.76024E-05-2.45217E-05-2.59343E-06 3.47140E-19 8.42723E-19
 -1      3999 7.53070E-05-1.74966E-05-2.46578E-05 3.38199E-07 2.66299E-19 5.65204E-20
 -1      4000 7.20803E-05-1.70363E-05-2.36337E-05-2.37858E-06-1.29752E-19 1.34304E-18
 -1      4001 9.59351E-05-2.52615E-05-3.02959E-05 2.83996E-07 2.58579E-19-1.48106E-18
 -1      4002 9.59174E-05-2.51953E-05-3.03160E-05 7.82364E-08 1.81657E-19-1.48927E-18
 -1      4003 9.62715E-05-2.59615E-05-3.01184E-05 7.56709E-10 9.89468E-20-1.60964E-18
 -1      4004 8.09260E-05-2.84303E-05-2.24449E-05 2.01571E-05-2.58904E-19 5.87364E-20
 -1      4005 9.61039E-05-2.60108E-05-3.00366E-05 5.94307E-07 5.37676E-19-1.28626E-18
 -1      4006 9.59053E-05-2.53865E-05-3.02226E-05 6.29726E-07 4.46112E-19-1.35645E-18
 -1      4007 9.63123E-05-2.67144E-05-2.98325E-05 2.42303E-07 5.87477E-19-1.25852E-18
 -1      4008 9.65329E-05-2.91581E-05-2.88750E-05-6.35168E-07-1.72318E-19-1.03735E-18
 -1      4009 9.65941E-05-2.90585E-05-2.89414E-05-6.11465E-07 9.30030E-21-1.18559E-18
 -1      4010 9.61920E-05-2.61145E-05-3.00347E-05-4.43819E-07-2.90229E-19-1.07510E-18
 -1      4011 9.64073E-05-2.68103E-05-2.98342E-05-1.46316E-07-2.96621E-19-1.05157E-18
 -1      4012 9.07248E-05-3.53756E-05-2.37650E-05 2.10146E-05 3.58603E-19-1.47387E-18
 -1      4013 9.58357E-05-2.91019E-05-2.86000E-05-4.22653E-07 1.74654E-19 1.44594E-19
 -1      4014 9.59463E-05-2.91690E-05-2.86204E-05-3.67705E-07 1.42671E-19-2.45579E-19
 -1      4015 9.57758E-05-2.90504E-05-2.85954E-05-3.92327E-07-1.92174E-20 1.50740E-19
 -1      4016 9.66404E-05-2.89164E-05-2.90258E-05-5.85426E-07 2.91735E-19-1.19710E-18
 -1      4017 9.66814E-05-2.87321E-05-2.91171E-05-5.11161E-07 3.85651E-19-1.07653E-18
 -1      4018 9.67344E-05-2.89942E-05-2.90333E-05-4.86519E-07 2.45723E-19-9.63828E-19
 -1      4019 9.59439E-05-2.54026E-05-3.02376E-05 4.50339E-07 3.25797E-19-1.32949E-18
 -1      4020 9.62639E-05-2.60915E-05-3.00641E-05 2.36710E-07 2.09699E-19-1.29103E-18
 -1      4021 9.39281E-05-3.48928E-05-2.53362E-05 1.65943E-05 3.44625E-19-1.96576E-18
 -1      4022 9.65402E-05-2.70022E-05-2.98068E-05-8.34088E-08-4.01177E-19-1.44219E-18
 -1      4023 9.64996E-05-2.73164E-05-2.96482E-05 4.72000E-08 4.33994E-19-1.00569E-18
 -1      4024 9.64550E-05-2.68985E-05-2.98085E-05 1.43867E-07 3.13502E-19-1.05998E-18
 -1      4025 9.65892E-05-2.77930E-05-2.94887E-05-1.94597E-07 3.16657E-19-9.66367E-19
 -1      4026 9.64574E-05-2.92233E-05-2.88131E-05-6.33214E-07-1.87209E-20-1.09320E-18
 -1      4027 9.66123E-05-2.92202E-05-2.88844E-05-5.19961E-07-9.04132E-20-7.75161E-19
 -1      4028 9.63871E-05-2.92649E-05-2.87662E-05-6.26947E-07 1.71883E-19-9.48594E-19
 -1      4029 9.69015E-05-2.90124E-05-2.90943E-05 2.51239E-07 3.21050E-19-1.01965E-18
 -1      4030 9.68502E-05-2.91603E-05-2.90093E-05 2.83516E-07 1.42374E-19-8.91365E-19
 -1      4031 9.67800E-05-2.92661E-05-2.89335E-05 2.76733E-07-1.45929E-19-7.19574E-19
 -1      4032 9.66993E-05-2.93328E-05-2.88708E-05 2.85841E-07 4.01373E-20-8.07951E-19
 -1      4033 9.68600E-05-2.92185E-05-2.89919E-05 1.54584E-07 7.95259E-20-9.14285E-19
 -1      4034 9.66087E-05-2.93701E-05-2.88153E-05 2.78847E-07 5.49681E-20-7.98553E-19
 -1      4035 9.65201E-05-2.93854E-05-2.87705E-05 2.75116E-07-1.37254E-19-8.87827E-19
 -1      4036 9.66921E-05-2.93621E-05-2.88584E-05 1.57585E-07-4.55742E-20-7.90387E-19
 -1      4037 9.64200E-05-2.93784E-05-2.87312E-05 2.58269E-07-3.20853E-19-9.59831E-19
 -1      4038 9.63276E-05-2.93567E-05-2.87004E-05 2.47337E-07-6.08831E-19-1.01160E-18
 -1      4039 9.65119E-05-2.94044E-05-2.87638E-05 1.44694E-07-4.28843E-19-9.81417E-19
 -1      4040 9.62287E-05-2.93205E-05-2.86740E-05 2.32064E-07-5.78223E-19-8.20922E-19
 -1      4041 9.61391E-05-2.92759E-05-2.86543E-05 2.18019E-07-3.59194E-19-8.46124E-19
 -1      4042 9.63125E-05-2.93603E-05-2.86974E-05 1.32162E-07-4.00637E-19-1.04498E-18
 -1      4043 9.60453E-05-2.92222E-05-2.86378E-05 2.03479E-07-2.14789E-19-7.63757E-19
 -1      4044 9.59605E-05-2.91631E-05-2.86266E-05 1.88707E-07 4.97949E-21-7.23057E-19
 -1      4045 9.61226E-05-2.92688E-05-2.86541E-05 1.18343E-07-1.04052E-19-7.47538E-19
 -1      4046 9.58736E-05-2.90971E-05-2.86180E-05 1.78509E-07 1.23741E-19-9.35552E-19
 -1      4047 9.57958E-05-2.90293E-05-2.86134E-05 1.66174E-07-5.14102E-20-9.59547E-19
 -1      4048 9.59398E-05-2.91446E-05-2.86281E-05 1.04431E-07-1.40523E-20-7.69827E-19
 -1      4049 9.57133E-05-2.89549E-05-2.86106E-05 1.57779E-07-2.56991E-19-7.16635E-19
 -1      4050 9.56406E-05-2.88795E-05-2.86110E-05 1.50237E-07-3.83757E-19-4.47992E-19
 -1      4051 9.57725E-05-2.90037E-05-2.86165E-05 9.08535E-08-3.70729E-20-1.21370E-18
 -1      4052 9.55607E-05-2.87978E-05-2.86128E-05 1.44257E-07-2.78602E-19-8.05497E-20
 -1      4053 9.54888E-05-2.87143E-05-2.86170E-05 1.42506E-07-3.64805E-20-6.58305E-20
 -1      4054 9.56141E-05-2.88467E-05-2.86156E-05 8.17365E-08-1.73272E-19-3.33520E-19
 -1      4055 9.54080E-05-2.86238E-05-2.86222E-05 1.41507E-07 2.17506E-19 2.45270E-19
 -1      4056 9.53336E-05-2.85308E-05-2.86293E-05 1.47034E-07 8.55330E-19 2.91846E-19
 -1      4057 9.54549E-05-2.86702E-05-2.86224E-05 7.99570E-08 2.40474E-19-3.84607E-19
 -1      4058 9.52470E-05-2.84294E-05-2.86369E-05 1.51330E-07 7.80200E-19 1.83266E-19
 -1      4059 9.51656E-05-2.83241E-05-2.86460E-05 1.65647E-07 2.95708E-19 6.31585E-20
 -1      4060 9.52902E-05-2.84737E-05-2.86352E-05 8.53928E-08 7.13697E-19-6.18312E-19
 -1      4061 9.50673E-05-2.82083E-05-2.86551E-05 1.76490E-07 2.11913E-19 1.41333E-19
 -1      4062 9.49733E-05-2.80873E-05-2.86652E-05 2.01491E-07 3.55627E-19 4.69940E-20
 -1      4063 9.51087E-05-2.82507E-05-2.86519E-05 9.99671E-08 4.97111E-19-2.22925E-19
 -1      4064 9.48566E-05-2.79531E-05-2.86748E-05 2.20696E-07 1.33641E-19-1.27963E-19
 -1      4065 9.47441E-05-2.78126E-05-2.86849E-05 2.58833E-07-1.36463E-20 2.04669E-19
 -1      4066 9.48978E-05-2.79937E-05-2.86705E-05 1.26531E-07 1.34942E-19-3.87937E-20
 -1      4067 9.46016E-05-2.76560E-05-2.86936E-05 2.89005E-07-3.97857E-19 9.88465E-20
 -1      4068 9.44644E-05-2.74925E-05-2.87023E-05 3.43508E-07-8.75673E-19-2.74424E-19
 -1      4069 9.46436E-05-2.76940E-05-2.86887E-05 1.69077E-07-5.72038E-19-3.89532E-19
 -1      4070 9.42880E-05-2.73099E-05-2.87084E-05 3.88398E-07-7.55921E-19-5.09247E-19
 -1      4071 9.41198E-05-2.71212E-05-2.87137E-05 4.63595E-07-5.28053E-20-6.09101E-19
 -1      4072 9.43308E-05-2.73435E-05-2.87033E-05 2.33390E-07-7.81573E-19-3.33902E-19
 -1      4073 9.39010E-05-2.69104E-05-2.87149E-05 5.28576E-07 3.01293E-19-1.32983E-18
 -1      4074 9.36964E-05-2.66959E-05-2.87144E-05 6.30323E-07 2.03478E-19-1.30256E-18
 -1      4075 9.39431E-05-2.69355E-05-2.87102E-05 3.27913E-07-6.55176E-19-1.18193E-18
 -1      4076 9.34268E-05-2.64570E-05-2.87073E-05 7.23048E-07 1.50245E-19-1.63447E-18
 -1      4077 9.31819E-05-2.62199E-05-2.86975E-05 8.59319E-07-1.67130E-19-1.40757E-18
 -1      4078 9.34639E-05-2.64668E-05-2.87036E-05 4.64933E-07-2.02954E-19-2.28984E-18
 -1      4079 9.28539E-05-2.59568E-05-2.86778E-05 9.90615E-07-3.54881E-19-1.49263E-18
 -1      4080 9.25677E-05-2.57051E-05-2.86541E-05 1.17232E-06-8.19346E-19-1.25076E-18
 -1      4081 9.28775E-05-2.59396E-05-2.86759E-05 6.62227E-07-2.12817E-19-3.10079E-18
 -1      4082 9.21753E-05-2.54270E-05-2.86161E-05 1.35739E-06-8.94924E-19-7.03684E-19
 -1      4083 9.18519E-05-2.51760E-05-2.85727E-05 1.59948E-06-5.74807E-19-6.19235E-19
 -1      4084 9.21708E-05-2.53648E-05-2.86169E-05 9.45301E-07-2.43561E-19-2.10343E-18
 -1      4085 9.13923E-05-2.49000E-05-2.85089E-05 1.85947E-06-6.98436E-19 8.14949E-21
 -1      4086 9.10434E-05-2.46751E-05-2.84385E-05 2.18242E-06-5.89318E-19-5.41038E-19
 -1      4087 9.13351E-05-2.47655E-05-2.85129E-05 1.35040E-06-2.89056E-19-1.50132E-18
 -1      4088 9.05180E-05-2.44282E-05-2.83395E-05 2.54653E-06-3.39647E-19-7.98010E-19
 -1      4089 9.01671E-05-2.42683E-05-2.82337E-05 2.97821E-06-2.23496E-19-7.01486E-19
 -1      4090 9.03698E-05-2.41816E-05-2.83468E-05 1.92850E-06-6.77017E-19-4.43251E-19
 -1      4091 8.95843E-05-2.40909E-05-2.80879E-05 3.48639E-06-5.11657E-19-3.74696E-19
 -1      4092 8.92719E-05-2.40524E-05-2.79369E-05 4.06430E-06-6.40897E-19 1.61649E-20
 -1      4093 8.92856E-05-2.36748E-05-2.80966E-05 2.75061E-06-4.06352E-19 1.59194E-19
 -1      4094 8.86498E-05-2.40020E-05-2.77305E-05 4.77087E-06-9.85992E-19 4.07657E-19
 -1      4095 8.84425E-05-2.41652E-05-2.75247E-05 5.54443E-06-8.40745E-19-1.74246E-21
 -1      4096 8.81095E-05-2.33358E-05-2.77357E-05 3.91476E-06-7.60895E-19-2.09825E-19
 -1      4097 8.78140E-05-2.43212E-05-2.72417E-05 6.52236E-06-1.02146E-18 7.65050E-19
 -1      4098 8.78196E-05-2.47997E-05-2.69731E-05 7.55410E-06-1.06162E-18 8.45399E-19
 -1      4099 8.68927E-05-2.32943E-05-2.72322E-05 5.55471E-06-5.51151E-19 4.97654E-19
 -1      4100 8.72451E-05-2.52750E-05-2.65965E-05 8.89988E-06-1.17201E-18 7.68041E-19
 -1      4101 8.76341E-05-2.62284E-05-2.62629E-05 1.02587E-05-6.17768E-19-2.99169E-19
 -1      4102 8.57247E-05-2.37399E-05-2.65494E-05 7.84909E-06-1.06555E-18 1.27959E-18
 -1      4103 8.72305E-05-2.71785E-05-2.57744E-05 1.20927E-05-2.61273E-19-7.24800E-19
 -1      4104 8.81852E-05-2.88380E-05-2.53760E-05 1.38615E-05-1.05264E-19-1.23850E-18
 -1      4105 8.47801E-05-2.49393E-05-2.56455E-05 1.10090E-05-9.95198E-19 1.15111E-18
 -1      4106 9.45416E-05-2.75575E-05-2.87084E-05-3.89198E-07-6.65410E-21-3.53917E-20
 -1      4107 9.46767E-05-2.77219E-05-2.86969E-05-3.39557E-07-6.45122E-20-2.96901E-19
 -1      4108 9.63178E-05-2.61554E-05-3.00565E-05-1.95154E-07-2.32257E-19-1.52204E-18
 -1      4109 9.59802E-05-2.54245E-05-3.02360E-05-3.91375E-07-2.04874E-19-1.77015E-18
 -1      4110 9.50282E-05-2.81455E-05-2.86640E-05-2.57654E-07-3.63713E-20 2.14790E-19
 -1      4111 9.51157E-05-2.82619E-05-2.86527E-05-2.32599E-07 9.15884E-20-6.50233E-20
 -1      4112 6.76894E-05-1.61217E-05-2.19543E-05 1.62919E-06-1.85609E-19 1.93645E-18
 -1      4113 9.37602E-05-2.67163E-05-2.87357E-05-5.96917E-07-8.12812E-19 1.63168E-18
 -1      4114 9.39837E-05-2.69523E-05-2.87309E-05-5.23832E-07-5.64012E-19 9.78355E-19
 -1      4115 9.41988E-05-2.71745E-05-2.87263E-05-4.84749E-07-3.62393E-19 8.66806E-20
 -1      4116 9.43720E-05-2.73717E-05-2.87169E-05-4.22666E-07 8.43884E-20 1.34178E-19
 -1      4117 9.44090E-05-2.74134E-05-2.87075E-05-2.72583E-07-4.56977E-19-4.76260E-19
 -1      4118 9.40274E-05-2.69992E-05-2.87197E-05-3.27847E-07-1.07284E-18 3.54500E-19
 -1      4119 9.24842E-05-2.55314E-05-2.86999E-05-8.38028E-07-2.15110E-19 1.14573E-18
 -1      4120 9.28549E-05-2.58607E-05-2.87162E-05-7.56448E-07-2.17715E-19 1.69230E-18
 -1      4121 9.15785E-05-2.47902E-05-2.86321E-05-9.33845E-07-6.06950E-19 9.52275E-19
 -1      4122 9.20526E-05-2.51711E-05-2.86685E-05-8.61967E-07-3.95772E-19 1.22610E-18
 -1      4123 9.21605E-05-2.52659E-05-2.86549E-05-4.46002E-07-2.99819E-19 1.03547E-18
 -1      4124 9.04385E-05-2.39486E-05-2.85078E-05-9.75191E-07-7.84182E-19 9.45058E-20
 -1      4125 9.10420E-05-2.43808E-05-2.85747E-05-9.29004E-07-7.37931E-19 5.73302E-19
 -1      4126 9.11991E-05-2.45103E-05-2.85633E-05-4.05104E-07-3.23175E-19 4.95828E-19
 -1      4127 8.90114E-05-2.30150E-05-2.83013E-05-9.18071E-07-1.00799E-18-1.89652E-21
 -1      4128 8.97765E-05-2.34944E-05-2.84127E-05-9.19659E-07-6.83068E-19-1.11879E-19
 -1      4129 9.00089E-05-2.36738E-05-2.84078E-05-2.65214E-07-4.40754E-19-8.55670E-19
 -1      4130 8.72299E-05-2.20079E-05-2.79764E-05-7.04186E-07 6.79533E-20 7.78631E-20
 -1      4131 8.81990E-05-2.25256E-05-2.81525E-05-7.81597E-07-7.80632E-19-4.00809E-19
 -1      4132 8.85454E-05-2.27755E-05-2.81610E-05 3.21753E-08-5.48771E-19-6.14597E-19
 -1      4133 8.50019E-05-2.09550E-05-2.74825E-05-2.61518E-07-5.91174E-19 7.27577E-19
 -1      4134 8.62341E-05-2.14980E-05-2.77518E-05-4.46659E-07 1.11007E-19 3.60270E-19
 -1      4135 8.67522E-05-2.18456E-05-2.77854E-05 5.66909E-07-1.36742E-19 3.65055E-19
 -1      4136 8.21918E-05-1.98919E-05-2.67463E-05 4.91340E-07 6.17755E-20 1.11317E-19
 -1      4137 8.37717E-05-2.04427E-05-2.71505E-05 1.67627E-07-3.68245E-19 5.96302E-19
 -1      4138 8.45494E-05-2.09244E-05-2.72293E-05 1.44607E-06-5.04904E-19 2.13102E-19
 -1      4139 7.85676E-05-1.88570E-05-2.56538E-05 1.63610E-06-8.85455E-20-1.49536E-19
 -1      4140 8.06425E-05-1.93952E-05-2.62602E-05 1.14073E-06 2.32337E-19-1.73801E-19
 -1      4141 8.17970E-05-2.00526E-05-2.64173E-05 2.80889E-06 5.29342E-20-1.25353E-18
 -1      4142 7.54342E-05-2.21318E-05-2.28104E-05 1.38428E-05-7.08067E-19 1.16073E-18
 -1      4143 7.11401E-05-1.95829E-05-2.19986E-05 1.20042E-05-1.43823E-18 8.41243E-19
 -1      4144 9.58327E-05-2.51605E-05-3.02862E-05-6.00036E-07-1.61415E-19-1.26224E-18
 -1      4145 9.09629E-05-3.34421E-05-2.46094E-05 1.78496E-05 2.16840E-19-1.74852E-18
 -1      4146 8.54978E-05-3.07694E-05-2.33798E-05 1.99110E-05 3.78769E-19-1.01592E-18
 -1      4147 8.15865E-05-2.70225E-05-2.34371E-05 1.72428E-05 2.47880E-19 6.15654E-19
 -1      4148 8.88949E-05-3.06559E-05-2.49816E-05 1.58026E-05 4.23688E-19-1.87972E-18
 -1      4149 9.64907E-05-2.66273E-05-2.99497E-05 4.12408E-08 1.09271E-19-1.52462E-18
 -1      4150 9.64975E-05-2.66244E-05-2.99517E-05-4.52271E-08-3.87833E-20-1.38312E-18
 -1      4151 9.52080E-05-2.83735E-05-2.86430E-05-2.21579E-07-1.06857E-19 1.51015E-19
 -1      4152 9.52829E-05-2.84736E-05-2.86333E-05-2.07529E-07-1.33548E-19 2.83060E-19
 -1      4153 9.51530E-05-2.83029E-05-2.86491E-05-1.61307E-07 1.50149E-19-1.38717E-19
 -1      4154 6.98379E-05-1.77002E-05-2.23644E-05 6.97958E-06-4.13015E-19 4.93522E-19
 -1      4155 9.53649E-05-2.85707E-05-2.86255E-05-2.03624E-07-1.24251E-19 5.00605E-19
 -1      4156 9.54331E-05-2.86586E-05-2.86180E-05-1.99422E-07 3.14664E-20 6.13448E-19
 -1      4157 9.53253E-05-2.85175E-05-2.86319E-05-1.47205E-07 1.62678E-19 6.97914E-19
 -1      4158 9.31992E-05-2.61716E-05-2.87301E-05-7.18861E-07-7.13005E-19 1.84604E-18
 -1      4159 9.34875E-05-2.64520E-05-2.87333E-05-6.38267E-07-8.76503E-19 1.65957E-18
 -1      4160 9.29308E-05-2.59322E-05-2.87024E-05-4.29482E-07-3.62412E-19 1.11864E-18
 -1      4161 9.55105E-05-2.87452E-05-2.86129E-05-2.02108E-07 1.53462E-19 5.38647E-19
 -1      4162 9.55771E-05-2.88237E-05-2.86086E-05-2.06644E-07 3.91666E-19 4.05580E-19
 -1      4163 9.54828E-05-2.87062E-05-2.86193E-05-1.43979E-07 2.42545E-19 3.50625E-19
 -1      4164 9.64901E-05-2.68077E-05-2.98687E-05 1.45377E-07 2.80003E-19-1.27379E-18
 -1      4165 9.64934E-05-2.66783E-05-2.99240E-05 7.17058E-08 1.87640E-19-1.45132E-18
 -1      4166 9.67188E-05-2.72409E-05-2.97643E-05 1.22013E-09 2.30345E-19-1.37318E-18
 -1      4167 9.66805E-05-2.73999E-05-2.96839E-05-2.58559E-08 3.38456E-19-1.15759E-18
 -1      4168 9.69324E-05-2.85453E-05-2.93075E-05 1.88084E-07-1.40234E-19-1.03687E-18
 -1      4169 9.69322E-05-2.88114E-05-2.91951E-05 2.47813E-07 1.14752E-19-1.08850E-18
 -1      4170 9.69579E-05-2.89008E-05-2.91695E-05 1.31545E-07 2.36358E-19-9.59659E-19
 -1      4171 9.68220E-05-2.77945E-05-2.95856E-05 6.19170E-08-3.00736E-19-1.18236E-18
 -1      4172 9.68905E-05-2.82071E-05-2.94382E-05 1.57156E-07-2.86482E-19-1.22537E-18
 -1      4173 9.69394E-05-2.83355E-05-2.94004E-05 9.19421E-08-8.58759E-20-9.26820E-19
 -1      4174 9.65224E-05-2.68321E-05-2.98701E-05-5.84173E-08-2.41319E-19-1.31907E-18
 -1      4175 9.48116E-05-2.78772E-05-2.86865E-05-3.13285E-07 3.44008E-19-4.31428E-19
 -1      4176 9.49186E-05-2.80148E-05-2.86746E-05-2.76236E-07 1.12816E-19-1.02816E-19
 -1      4177 9.47109E-05-2.77613E-05-2.86894E-05-2.24590E-07-5.27128E-20-9.02427E-19
 -1      4178 9.49532E-05-2.80541E-05-2.86689E-05-1.87096E-07 1.70955E-19-6.56775E-19
 -1      4179 9.61345E-05-2.92739E-05-2.86532E-05-3.13383E-07 1.49189E-19-6.75439E-19
 -1      4180 9.62199E-05-2.93127E-05-2.86734E-05-3.33221E-07 1.01445E-19-6.24339E-19
 -1      4181 9.67225E-05-2.73633E-05-2.97186E-05 1.70656E-08-1.86880E-19-1.21628E-18
 -1      4182 8.50327E-05-2.74271E-05-2.46978E-05 1.48982E-05-1.21512E-19 4.30630E-20
 -1      4183 1.09994E-04-4.73939E-05-2.65729E-05 1.46025E-05-2.74735E-19-2.00459E-18
 -1      4184 8.25115E-05-2.59557E-05-2.41829E-05 1.46971E-05 1.69580E-20 1.14886E-18
 -1      4185 7.84545E-05-2.37922E-05-2.33735E-05 1.47766E-05-5.03653E-19 1.83879E-18
 -1      4186 7.63307E-05-2.13847E-05-2.36262E-05 1.14986E-05-1.14480E-18 1.68298E-18
 -1      4187 8.17961E-05-2.43800E-05-2.46135E-05 1.26982E-05-1.15104E-18 2.18301E-18
 -1      4188 9.56537E-05-2.89020E-05-2.86071E-05-2.14849E-07 2.40486E-19 1.70014E-19
 -1      4189 9.57221E-05-2.89730E-05-2.86068E-05-2.26989E-07 1.18242E-19-4.31395E-19
 -1      4190 9.56355E-05-2.88742E-05-2.86124E-05-1.50711E-07 3.64191E-19 1.95675E-20
 -1      4191 9.66757E-05-2.84886E-05-2.92260E-05-4.52390E-07 4.18274E-19-9.24140E-19
 -1      4192 9.66703E-05-2.81824E-05-2.93479E-05-3.05099E-07 4.31103E-19-8.53991E-19
 -1      4193 9.67190E-05-2.79394E-05-2.94812E-05-1.85447E-07 3.67669E-19-9.64175E-19
 -1      4194 9.67895E-05-2.85882E-05-2.92319E-05-3.87188E-07 5.11515E-19-1.12341E-18
 -1      4195 9.57954E-05-2.90532E-05-2.86050E-05-3.20796E-07-9.51064E-21-4.56047E-19
 -1      4196 9.35434E-05-2.65083E-05-2.87205E-05-3.83934E-07-1.07970E-18 1.19131E-18
 -1      4197 7.70709E-05-1.86194E-05-2.50546E-05 2.78492E-06 1.12042E-19-8.15669E-19
 -1      4198 7.86880E-05-1.94502E-05-2.53409E-05 4.95226E-06 2.06491E-19-5.80237E-19
 -1      4199 7.46214E-05-1.80856E-05-2.42849E-05 3.84495E-06 2.43914E-19-5.28420E-19
 -1      4200 9.60422E-05-2.92234E-05-2.86358E-05-2.92435E-07 1.05350E-19-5.15121E-19
 -1      4201 9.61353E-05-2.92789E-05-2.86561E-05-2.16417E-07 1.58566E-19-6.53329E-19
 -1      4202 9.59618E-05-2.91691E-05-2.86243E-05-2.72898E-07 4.77678E-20-5.46181E-19
 -1      4203 9.68045E-05-2.75976E-05-2.96623E-05 1.94334E-08 2.70728E-20-9.95580E-19
 -1      4204 9.62249E-05-2.92778E-05-2.86907E-05-5.78844E-07 1.76444E-19-4.20774E-19
 -1      4205 9.63017E-05-2.92784E-05-2.87224E-05-6.01484E-07 1.24204E-19-5.45921E-19
 -1      4206 9.64598E-05-2.93187E-05-2.87774E-05-5.11940E-07-1.42940E-19-6.96021E-19
 -1      4207 9.66757E-05-2.92893E-05-2.88787E-05-3.98054E-07-1.34153E-19-6.42327E-19
 -1      4208 9.67499E-05-2.92138E-05-2.89417E-05-3.87913E-07 7.78473E-20-7.48453E-19
 -1      4209 9.68105E-05-2.90974E-05-2.90206E-05-3.90733E-07 2.23063E-20-8.28965E-19
 -1      4210 9.68678E-05-2.89438E-05-2.91083E-05-3.47204E-07 3.09517E-19-1.08745E-18
 -1      4211 9.68499E-05-2.91650E-05-2.90108E-05-2.71626E-07 8.92782E-20-8.04571E-19
 -1      4212 9.62787E-05-2.93157E-05-2.87010E-05-4.72015E-07 7.28831E-20-4.97272E-19
 -1      4213 9.63176E-05-2.93450E-05-2.87013E-05-3.53999E-07 8.18527E-20-6.29505E-19
 -1      4214 9.64116E-05-2.93633E-05-2.87329E-05-3.71826E-07 2.37810E-20-6.46029E-19
 -1      4215 9.63229E-05-2.93597E-05-2.87023E-05-2.42404E-07 1.48667E-19-8.09945E-19
 -1      4216 9.69501E-05-2.81826E-05-2.94678E-05-2.39629E-09 8.13291E-20-1.02274E-18
 -1      4217 9.69969E-05-2.85424E-05-2.93378E-05 3.53213E-08 8.21536E-20-9.02772E-19
 -1      4218 9.67694E-05-2.93553E-05-2.88902E-05 3.22795E-08-4.66298E-20-9.72016E-19
 -1      4219 9.66833E-05-2.94010E-05-2.88326E-05 3.03477E-08-2.42712E-20-8.38890E-19
 -1      4220 9.65366E-05-2.94037E-05-2.87703E-05-5.49896E-08-2.10368E-19-8.51056E-19
 -1      4221 9.64406E-05-2.93930E-05-2.87321E-05-5.15813E-08-3.15361E-19-7.26102E-19
 -1      4222 9.63448E-05-2.93665E-05-2.87027E-05-4.67517E-08-1.03153E-19-5.32295E-19
 -1      4223 9.62447E-05-2.93285E-05-2.86762E-05-4.76935E-08 3.73622E-20-4.03291E-19
 -1      4224 9.61511E-05-2.92799E-05-2.86574E-05-4.16840E-08-2.21484E-20-3.00471E-19
 -1      4225 9.60551E-05-2.92234E-05-2.86409E-05-4.28865E-08 1.24315E-19-2.10591E-19
 -1      4226 9.58230E-05-2.90448E-05-2.86186E-05 1.78513E-08 1.55401E-19-4.85556E-19
 -1      4227 9.57420E-05-2.89702E-05-2.86157E-05 1.43233E-08 1.90935E-20-6.51749E-19
 -1      4228 9.56328E-05-2.88635E-05-2.86150E-05-3.20682E-08 8.52921E-20-3.89659E-19
 -1      4229 9.55534E-05-2.87791E-05-2.86170E-05-3.16434E-08 9.93599E-20 6.78690E-20
 -1      4230 9.54751E-05-2.86906E-05-2.86216E-05-3.19106E-08 4.15454E-21 1.23337E-19
 -1      4231 9.53929E-05-2.85967E-05-2.86268E-05-3.03703E-08 3.77024E-19 1.89767E-19
 -1      4232 9.53097E-05-2.84975E-05-2.86341E-05-3.41212E-08 4.74962E-19 6.68139E-20
 -1      4233 9.52212E-05-2.83914E-05-2.86417E-05-3.02942E-08 4.60543E-19-2.63497E-19
 -1      4234 9.51275E-05-2.82781E-05-2.86508E-05-3.78775E-08 4.31397E-19-4.26423E-19
 -1      4235 9.50268E-05-2.81561E-05-2.86598E-05-3.07168E-08 3.81441E-19-5.26887E-19
 -1      4236 9.49158E-05-2.80243E-05-2.86697E-05-4.20807E-08 3.54090E-19-4.08116E-19
 -1      4237 9.47961E-05-2.78818E-05-2.86791E-05-3.02440E-08-1.44024E-20-5.98148E-19
 -1      4238 9.46597E-05-2.77266E-05-2.86886E-05-4.47651E-08-5.19643E-19-4.40031E-19
 -1      4239 9.45133E-05-2.75589E-05-2.86970E-05-2.62710E-08-7.79657E-19-5.33812E-19
 -1      4240 9.43423E-05-2.73750E-05-2.87045E-05-4.24400E-08-8.88308E-19-4.36262E-19
 -1      4241 9.41610E-05-2.71778E-05-2.87101E-05-1.42998E-08-9.43553E-19-5.69194E-19
 -1      4242 9.39446E-05-2.69602E-05-2.87134E-05-2.92135E-08-1.28739E-18-7.94283E-20
 -1      4243 9.37196E-05-2.67300E-05-2.87137E-05 1.30739E-08-1.17655E-18-8.37024E-19
 -1      4244 9.34459E-05-2.64746E-05-2.87097E-05 4.44296E-09-7.63206E-19-5.03217E-19
 -1      4245 9.31685E-05-2.62099E-05-2.87013E-05 6.75953E-08-4.71763E-19-5.44161E-19
 -1      4246 9.28237E-05-2.59141E-05-2.86855E-05 7.33912E-08-3.14755E-19-6.79660E-19
 -1      4247 9.24859E-05-2.56164E-05-2.86638E-05 1.67313E-07-1.20183E-19-6.07760E-19
 -1      4248 9.20551E-05-2.52805E-05-2.86303E-05 2.00081E-07 1.27892E-19-9.56775E-19
 -1      4249 9.16502E-05-2.49561E-05-2.85893E-05 3.39168E-07 8.47606E-20-7.40507E-19
 -1      4250 9.11165E-05-2.45841E-05-2.85297E-05 4.17451E-07-3.53137E-20-1.17328E-18
 -1      4251 9.06404E-05-2.42456E-05-2.84614E-05 6.22320E-07-8.60548E-20-5.90131E-19
 -1      4252 8.99848E-05-2.38469E-05-2.83646E-05 7.72567E-07-3.00629E-19-7.75047E-19
 -1      4253 8.94376E-05-2.35156E-05-2.82586E-05 1.07231E-06-3.21831E-19-4.76295E-19
 -1      4254 8.86376E-05-2.31064E-05-2.81095E-05 1.33120E-06-5.13531E-19-5.02393E-19
 -1      4255 8.80252E-05-2.28144E-05-2.79528E-05 1.76629E-06-5.10888E-19-2.86506E-19
 -1      4256 8.70521E-05-2.24183E-05-2.77310E-05 2.18396E-06-5.41615E-19-1.13124E-19
 -1      4257 8.63890E-05-2.22121E-05-2.75074E-05 2.81009E-06-4.58759E-19 4.50531E-19
 -1      4258 8.52020E-05-2.18599E-05-2.71846E-05 3.45605E-06-6.10463E-19 3.61236E-19
 -1      4259 8.45203E-05-2.18056E-05-2.68745E-05 4.34964E-06-5.67134E-19 2.53743E-19
 -1      4260 8.30521E-05-2.15297E-05-2.64102E-05 5.32717E-06-4.58968E-19 2.97821E-19
 -1      4261 8.24029E-05-2.17214E-05-2.59848E-05 6.59084E-06-5.01471E-19 5.60636E-19
 -1      4262 8.09836E-05-2.17579E-05-2.54351E-05 8.07139E-06-4.82794E-19 1.26110E-18
 -1      4263 8.03770E-05-2.23175E-05-2.48617E-05 9.78307E-06-3.35979E-19 1.33431E-18
 -1      4264 7.28035E-05-1.82042E-05-2.34288E-05 5.80106E-06-6.65338E-19 2.99833E-19
 -1      4265 9.69749E-05-2.88709E-05-2.91867E-05-6.22531E-08 6.92780E-20-8.76106E-19
 -1      4266 9.69448E-05-2.90661E-05-2.90882E-05-4.20099E-08 2.01598E-19-1.00196E-18
 -1      4267 9.66497E-05-2.93370E-05-2.88468E-05-3.07724E-07-2.12295E-19-6.67543E-19
 -1      4268 9.67593E-05-2.93363E-05-2.88980E-05-1.92637E-07-8.56612E-20-6.78443E-19
 -1      4269 9.58027E-05-2.90436E-05-2.86100E-05-2.39134E-07-1.44204E-20-3.02744E-19
 -1      4270 9.58761E-05-2.91075E-05-2.86148E-05-2.56676E-07-1.30311E-19-4.83634E-19
 -1      4271 9.57906E-05-2.90250E-05-2.86147E-05-1.64511E-07-7.07731E-20-3.77454E-19
 -1      4272 7.56686E-05-1.96414E-05-2.39421E-05 8.31487E-06-9.32370E-19 1.43200E-19
 -1      4273 9.65635E-05-2.93676E-05-2.87985E-05-3.04406E-07-2.05435E-19-6.34598E-19
 -1      4274 9.68520E-05-2.78202E-05-2.95879E-05-2.05179E-08 1.52041E-19-1.17035E-18
 -1      4275 9.68876E-05-2.92042E-05-2.90063E-05-6.25758E-08 1.12801E-19-8.70283E-19
 -1      4276 9.68113E-05-2.93029E-05-2.89308E-05-5.42501E-08-8.39040E-20-7.89605E-19
 -1      4277 9.65690E-05-2.93924E-05-2.87931E-05-1.77578E-07-1.71165E-19-8.37441E-19
 -1      4278 9.59989E-05-2.91833E-05-2.86342E-05 2.31177E-08-1.40501E-19-2.08202E-19
 -1      4279 9.59094E-05-2.91170E-05-2.86245E-05 1.80761E-08-2.53715E-20-1.70071E-19
 -1      4280 9.69527E-05-2.87231E-05-2.92429E-05-1.45644E-07 2.32746E-19-1.14115E-18
 -1      4281 9.59551E-05-2.91602E-05-2.86277E-05-1.85885E-07-1.14675E-19-3.02806E-19
 -1      4282 9.68579E-05-2.78852E-05-2.95648E-05-5.34678E-08 2.98755E-19-1.24914E-18
 -1      4283 9.67732E-05-2.78581E-05-2.95379E-05-1.33940E-07 4.16898E-19-1.21703E-18
 -1      4284 9.58643E-05-2.90816E-05-2.86220E-05-6.13767E-08-2.77676E-19-2.56325E-19
 -1      4285 9.69103E-05-2.86241E-05-2.92667E-05-2.43930E-07 4.51296E-19-1.20568E-18
 -1      4286 9.56685E-05-2.89024E-05-2.86147E-05-1.01772E-07 2.45909E-19-2.08552E-19
 -1      4287 9.69024E-05-2.83318E-05-2.93805E-05-1.68527E-07 4.03304E-19-1.14030E-18
 -1      4288 9.60013E-05-2.91915E-05-2.86340E-05-1.32640E-07-1.46582E-19-3.08034E-19
 -1      4289 9.59126E-05-2.91231E-05-2.86235E-05-1.22417E-07-3.77161E-19-3.72415E-19
 -1      4290 7.78871E-05-2.09925E-05-2.44147E-05 9.35027E-06-5.73177E-19 1.49540E-18
 -1      4291 9.58276E-05-2.90533E-05-2.86176E-05-1.13842E-07-2.43626E-19-2.35793E-19
 -1      4292 9.57455E-05-2.89789E-05-2.86140E-05-1.07356E-07 1.85442E-19-3.61652E-19
 -3
    1PSTEP                         4           1           1          
  100CL  101 1.000000000        4292                     0    1           1
 -4  ERROR       1    1
 -5  STR(%)      1    1    0    0
 -1         1 1.28317E+01
 -1         2 2.53311E+01
 -1         3 1.98733E-01
 -1         4 2.14301E-01
 -1         5 1.40387E+01
 -1         6 1.31428E+01
 -1         7 1.31428E+01
 -1         8 3.66381E+00
 -1         9 1.82703E+00
 -1        10 1.29040E+00
 -1        11 1.04385E+00
 -1        12 8.99995E-01
 -1        13 8.08828E-01
 -1        14 7.53725E-01
 -1        15 7.55707E-01
 -1        16 8.13130E-01
 -1        17 9.00876E-01
 -1        18 1.05272E+00
 -1        19 1.30793E+00
 -1        20 1.83594E+00
 -1        21 3.50544E+00
 -1        22 8.64088E+00
 -1        23 1.31428E+01
 -1        24 4.31768E+00
 -1        25 3.34054E+00
 -1        26 2.11073E+00
 -1        27 1.36185E+00
 -1        28 1.01371E+00
 -1        29 7.74741E-01
 -1        30 5.94817E-01
 -1        31 4.54390E-01
 -1        32 3.46618E-01
 -1        33 2.67484E-01
 -1        34 2.03764E-01
 -1        35 1.53386E-01
 -1        36 1.14357E-01
 -1        37 8.48645E-02
 -1        38 6.33256E-02
 -1        39 4.95727E-02
 -1        40 3.91533E-02
 -1        41 3.38800E-02
 -1        42 3.74776E-02
 -1        43 4.54456E-02
 -1        44 5.55033E-02
 -1        45 6.68087E-02
 -1        46 8.94446E-02
 -1        47 1.19184E-01
 -1        48 1.55136E-01
 -1        49 1.96265E-01
 -1        50 2.40106E-01
 -1        51 2.82104E-01
 -1        52 3.41424E-01
 -1        53 4.33357E-01
 -1        54 5.54652E-01
 -1        55 6.66454E-01
 -1        56 7.38571E-01
 -1        57 7.72320E-01
 -1        58 9.09302E-01
 -1        59 9.16925E-01
 -1        60 1.35033E+00
 -1        61 1.72523E+00
 -1        62 2.73193E+00
 -1        63 3.78984E+00
 -1        64 4.34844E+00
 -1        65 4.34844E+00
 -1        66 4.16105E+00
 -1        67 4.12539E+00
 -1        68 3.49076E+00
 -1        69 2.43749E+00
 -1        70 1.51716E+00
 -1        71 1.10897E+00
 -1        72 1.40387E+01
 -1        73 3.39454E+00
 -1        74 2.41281E+00
 -1        75 1.66554E+00
 -1        76 1.14437E+00
 -1        77 9.05980E-01
 -1        78 7.31265E-01
 -1        79 5.87711E-01
 -1        80 4.67984E-01
 -1        81 3.68234E-01
 -1        82 2.93701E-01
 -1        83 2.31526E-01
 -1        84 1.80014E-01
 -1        85 1.38349E-01
 -1        86 1.05520E-01
 -1        87 8.04875E-02
 -1        88 6.22870E-02
 -1        89 5.00865E-02
 -1        90 4.32199E-02
 -1        91 4.72067E-02
 -1        92 5.85127E-02
 -1        93 7.50797E-02
 -1        94 9.72871E-02
 -1        95 1.25608E-01
 -1        96 1.60508E-01
 -1        97 2.02271E-01
 -1        98 2.50690E-01
 -1        99 3.31965E-01
 -1       100 4.36514E-01
 -1       101 5.62942E-01
 -1       102 7.08765E-01
 -1       103 8.64454E-01
 -1       104 1.00824E+00
 -1       105 1.09953E+00
 -1       106 1.35007E+00
 -1       107 1.83479E+00
 -1       108 2.24440E+00
 -1       109 2.66539E+00
 -1       110 3.20570E+00
 -1       111 3.75225E+00
 -1       112 5.16792E+00
 -1       113 8.34490E+00
 -1       114 8.73800E+00
 -1       115 8.73800E+00
 -1       116 8.59872E+00
 -1       117 5.29052E+00
 -1       118 2.40314E+00
 -1       119 7.61882E-01
 -1       120 5.80138E-01
 -1       121 7.29818E-01
 -1       122 1.33083E+00
 -1       123 1.60912E+00
 -1       124 1.60912E+00
 -1       125 1.11885E+00
 -1       126 2.55032E+00
 -1       127 2.55032E+00
 -1       128 1.87042E+00
 -1       129 1.63978E+00
 -1       130 1.70466E+00
 -1       131 1.70466E+00
 -1       132 1.30719E+00
 -1       133 8.58972E-01
 -1       134 4.62741E-01
 -1       135 3.24897E-01
 -1       136 7.00108E-01
 -1       137 2.44882E+01
 -1       138 4.85180E+01
 -1       139 4.85180E+01
 -1       140 2.25577E+01
 -1       141 1.33115E+01
 -1       142 1.33115E+01
 -1       143 1.29829E+01
 -1       144 1.25693E+01
 -1       145 1.25452E+01
 -1       146 1.23083E+01
 -1       147 2.55088E+01
 -1       148 3.02814E+01
 -1       149 3.02814E+01
 -1       150 2.34420E+01
 -1       151 2.26043E+01
 -1       152 2.37558E+01
 -1       153 2.75233E+01
 -1       154 3.03100E+01
 -1       155 2.95201E+01
 -1       156 1.24021E+01
 -1       157 1.24021E+01
 -1       158 1.18194E+01
 -1       159 1.26163E+01
 -1       160 1.26163E+01
 -1       161 1.84678E+01
 -1       162 4.62079E+01
 -1       163 4.62079E+01
 -1       164 2.53311E+01
 -1       165 6.07791E+00
 -1       166 2.30099E+00
 -1       167 1.50613E+00
 -1       168 1.15844E+00
 -1       169 9.72110E-01
 -1       170 8.64370E-01
 -1       171 7.95939E-01
 -1       172 7.55707E-01
 -1       173 7.99385E-01
 -1       174 8.67225E-01
 -1       175 9.81079E-01
 -1       176 1.17264E+00
 -1       177 1.52776E+00
 -1       178 2.26098E+00
 -1       179 3.93105E+00
 -1       180 1.40387E+01
 -1       181 4.31768E+00
 -1       182 3.34054E+00
 -1       183 2.11073E+00
 -1       184 1.44668E+00
 -1       185 1.02477E+00
 -1       186 7.74741E-01
 -1       187 5.94817E-01
 -1       188 4.67163E-01
 -1       189 3.66878E-01
 -1       190 2.88682E-01
 -1       191 2.31704E-01
 -1       192 1.83299E-01
 -1       193 1.43292E-01
 -1       194 1.11054E-01
 -1       195 8.57371E-02
 -1       196 6.64213E-02
 -1       197 5.21881E-02
 -1       198 4.21586E-02
 -1       199 3.55004E-02
 -1       200 3.74776E-02
 -1       201 4.54456E-02
 -1       202 5.55033E-02
 -1       203 7.29338E-02
 -1       204 9.51838E-02
 -1       205 1.22112E-01
 -1       206 1.55136E-01
 -1       207 1.96265E-01
 -1       208 2.50756E-01
 -1       209 3.16145E-01
 -1       210 3.79937E-01
 -1       211 4.53630E-01
 -1       212 5.54652E-01
 -1       213 6.66454E-01
 -1       214 7.38571E-01
 -1       215 7.72320E-01
 -1       216 9.09302E-01
 -1       217 9.16925E-01
 -1       218 1.35033E+00
 -1       219 1.90391E+00
 -1       220 2.73193E+00
 -1       221 3.78984E+00
 -1       222 4.34844E+00
 -1       223 4.16105E+00
 -1       224 4.12539E+00
 -1       225 3.49076E+00
 -1       226 2.43749E+00
 -1       227 1.58974E+00
 -1       228 1.10897E+00
 -1       229 3.39454E+00
 -1       230 2.41281E+00
 -1       231 1.66554E+00
 -1       232 1.14437E+00
 -1       233 9.05980E-01
 -1       234 7.31265E-01
 -1       235 5.87711E-01
 -1       236 4.67984E-01
 -1       237 3.68234E-01
 -1       238 2.93701E-01
 -1       239 2.31526E-01
 -1       240 1.82922E-01
 -1       241 1.43313E-01
 -1       242 1.11330E-01
 -1       243 8.62928E-02
 -1       244 6.74629E-02
 -1       245 5.41325E-02
 -1       246 4.56745E-02
 -1       247 4.53896E-02
 -1       248 5.31662E-02
 -1       249 6.51679E-02
 -1       250 8.14304E-02
 -1       251 1.01984E-01
 -1       252 1.26737E-01
 -1       253 1.67572E-01
 -1       254 2.23537E-01
 -1       255 2.93882E-01
 -1       256 3.80020E-01
 -1       257 4.83340E-01
 -1       258 6.01795E-01
 -1       259 7.25392E-01
 -1       260 8.64454E-01
 -1       261 1.00824E+00
 -1       262 1.23175E+00
 -1       263 1.55471E+00
 -1       264 1.83479E+00
 -1       265 2.24440E+00
 -1       266 2.66539E+00
 -1       267 3.20570E+00
 -1       268 3.75225E+00
 -1       269 5.45228E+00
 -1       270 8.34490E+00
 -1       271 8.73800E+00
 -1       272 8.59872E+00
 -1       273 5.29052E+00
 -1       274 2.64242E+00
 -1       275 1.25972E+00
 -1       276 9.07840E-01
 -1       277 1.87930E+00
 -1       278 2.45220E+00
 -1       279 2.68669E+00
 -1       280 2.68669E+00
 -1       281 4.33462E+00
 -1       282 5.73658E+00
 -1       283 5.73658E+00
 -1       284 2.99086E+00
 -1       285 2.84773E+00
 -1       286 2.84773E+00
 -1       287 2.63542E+00
 -1       288 1.95558E+00
 -1       289 1.23530E+00
 -1       290 6.66684E-01
 -1       291 8.08280E-01
 -1       292 3.30937E+01
 -1       293 3.00597E+01
 -1       294 4.85180E+01
 -1       295 2.43479E+01
 -1       296 1.16978E+01
 -1       297 1.33115E+01
 -1       298 1.29829E+01
 -1       299 1.25693E+01
 -1       300 1.25452E+01
 -1       301 1.20923E+01
 -1       302 1.23083E+01
 -1       303 2.74899E+01
 -1       304 3.02814E+01
 -1       305 2.34420E+01
 -1       306 2.76459E+01
 -1       307 2.76459E+01
 -1       308 2.37558E+01
 -1       309 3.03100E+01
 -1       310 3.03100E+01
 -1       311 1.28317E+01
 -1       312 1.20055E+01
 -1       313 1.24021E+01
 -1       314 1.16337E+01
 -1       315 1.18194E+01
 -1       316 1.26163E+01
 -1       317 1.09021E+01
 -1       318 1.97691E+01
 -1       319 4.62079E+01
 -1       320 2.73783E+01
 -1       321 3.30937E+01
 -1       322 1.07060E+00
 -1       323 2.47956E+00
 -1       324 7.88977E-01
 -1       325 6.95105E-01
 -1       326 6.31944E-01
 -1       327 5.87576E-01
 -1       328 5.90815E-01
 -1       329 6.34542E-01
 -1       330 7.01315E-01
 -1       331 7.96551E-01
 -1       332 9.32029E-01
 -1       333 1.16039E+00
 -1       334 1.32930E+00
 -1       335 2.20040E+00
 -1       336 1.91382E+00
 -1       337 1.72914E+00
 -1       338 1.26682E+00
 -1       339 9.06260E-01
 -1       340 6.55065E-01
 -1       341 5.37886E-01
 -1       342 4.40587E-01
 -1       343 3.54785E-01
 -1       344 2.89126E-01
 -1       345 2.33629E-01
 -1       346 1.85910E-01
 -1       347 1.50425E-01
 -1       348 1.20961E-01
 -1       349 9.62667E-02
 -1       350 7.61198E-02
 -1       351 6.00589E-02
 -1       352 4.74867E-02
 -1       353 3.77274E-02
 -1       354 3.28604E-02
 -1       355 3.39922E-02
 -1       356 4.25862E-02
 -1       357 5.54782E-02
 -1       358 7.29338E-02
 -1       359 9.65960E-02
 -1       360 1.33928E-01
 -1       361 1.78907E-01
 -1       362 2.30501E-01
 -1       363 2.85842E-01
 -1       364 3.39416E-01
 -1       365 3.90548E-01
 -1       366 4.43512E-01
 -1       367 5.03949E-01
 -1       368 5.26262E-01
 -1       369 4.79170E-01
 -1       370 4.56058E-01
 -1       371 4.89727E-01
 -1       372 8.70731E-01
 -1       373 1.46018E+00
 -1       374 1.98451E+00
 -1       375 2.50073E+00
 -1       376 2.87985E+00
 -1       377 2.89308E+00
 -1       378 2.73585E+00
 -1       379 2.65584E+00
 -1       380 2.21204E+00
 -1       381 1.60364E+00
 -1       382 1.13398E+00
 -1       383 1.13011E+00
 -1       384 8.90589E-01
 -1       385 7.02970E-01
 -1       386 5.44020E-01
 -1       387 4.36902E-01
 -1       388 3.70163E-01
 -1       389 3.06127E-01
 -1       390 2.50399E-01
 -1       391 2.04809E-01
 -1       392 1.64846E-01
 -1       393 1.31012E-01
 -1       394 1.03196E-01
 -1       395 8.12005E-02
 -1       396 6.43184E-02
 -1       397 5.20142E-02
 -1       398 4.38546E-02
 -1       399 3.94532E-02
 -1       400 4.13792E-02
 -1       401 4.75804E-02
 -1       402 5.88203E-02
 -1       403 7.87357E-02
 -1       404 1.05285E-01
 -1       405 1.39756E-01
 -1       406 2.02737E-01
 -1       407 2.90964E-01
 -1       408 4.08268E-01
 -1       409 5.60601E-01
 -1       410 7.52385E-01
 -1       411 9.83415E-01
 -1       412 1.24344E+00
 -1       413 1.50413E+00
 -1       414 1.71991E+00
 -1       415 1.91385E+00
 -1       416 1.93118E+00
 -1       417 1.94374E+00
 -1       418 1.69876E+00
 -1       419 2.06385E+00
 -1       420 3.38124E+00
 -1       421 7.02126E+00
 -1       422 9.55699E+00
 -1       423 5.47445E+00
 -1       424 4.52920E+00
 -1       425 3.89174E+00
 -1       426 3.17415E+00
 -1       427 2.32434E+00
 -1       428 1.18215E+00
 -1       429 4.23931E+00
 -1       430 3.53309E+00
 -1       431 2.32434E+00
 -1       432 5.80079E+00
 -1       433 9.59497E+00
 -1       434 9.59497E+00
 -1       435 6.99048E+00
 -1       436 5.52881E+00
 -1       437 3.99788E+00
 -1       438 2.91458E+00
 -1       439 2.45808E+00
 -1       440 1.68314E+00
 -1       441 1.13398E+00
 -1       442 3.00597E+01
 -1       443 3.30937E+01
 -1       444 2.73000E+01
 -1       445 1.72924E+01
 -1       446 9.42618E+00
 -1       447 9.13212E-01
 -1       448 9.92033E+00
 -1       449 1.11661E+01
 -1       450 1.04720E+01
 -1       451 9.89795E+00
 -1       452 6.92370E+00
 -1       453 1.12522E+01
 -1       454 1.92526E+01
 -1       455 2.32848E+01
 -1       456 2.56397E+01
 -1       457 3.02321E+01
 -1       458 3.02321E+01
 -1       459 2.42583E+01
 -1       460 2.00841E+01
 -1       461 1.18817E+01
 -1       462 6.31381E+00
 -1       463 8.91249E+00
 -1       464 1.14160E+01
 -1       465 1.12322E+01
 -1       466 1.03599E+01
 -1       467 7.76725E+00
 -1       468 8.53717E+00
 -1       469 1.56845E+01
 -1       470 2.73783E+01
 -1       471 2.87495E+01
 -1       472 6.53276E+00
 -1       473 1.04723E+00
 -1       474 4.86823E-01
 -1       475 5.11054E-01
 -1       476 4.31594E-01
 -1       477 4.57556E-01
 -1       478 4.87179E-01
 -1       479 5.11284E-01
 -1       480 5.11284E-01
 -1       481 6.09576E-01
 -1       482 8.90589E-01
 -1       483 8.02870E-01
 -1       484 9.55699E+00
 -1       485 7.01404E-01
 -1       486 5.88091E-01
 -1       487 4.75556E-01
 -1       488 3.76748E-01
 -1       489 3.21958E-01
 -1       490 2.71699E-01
 -1       491 2.24126E-01
 -1       492 1.85483E-01
 -1       493 1.51656E-01
 -1       494 1.22184E-01
 -1       495 9.73260E-02
 -1       496 7.82088E-02
 -1       497 6.25075E-02
 -1       498 4.93307E-02
 -1       499 3.82502E-02
 -1       500 3.06884E-02
 -1       501 2.78397E-02
 -1       502 3.33993E-02
 -1       503 4.17550E-02
 -1       504 6.02205E-02
 -1       505 8.66322E-02
 -1       506 1.19369E-01
 -1       507 1.58855E-01
 -1       508 2.04741E-01
 -1       509 2.55428E-01
 -1       510 3.07462E-01
 -1       511 3.57589E-01
 -1       512 4.05968E-01
 -1       513 4.36703E-01
 -1       514 4.62350E-01
 -1       515 4.63052E-01
 -1       516 4.95256E-01
 -1       517 6.23465E-01
 -1       518 7.91494E-01
 -1       519 1.16462E+00
 -1       520 1.61219E+00
 -1       521 1.92162E+00
 -1       522 2.12357E+00
 -1       523 2.24959E+00
 -1       524 2.02523E+00
 -1       525 2.12197E+00
 -1       526 1.89635E+00
 -1       527 1.70332E+00
 -1       528 5.44020E-01
 -1       529 4.36902E-01
 -1       530 3.70163E-01
 -1       531 3.06127E-01
 -1       532 2.50399E-01
 -1       533 2.05563E-01
 -1       534 1.66179E-01
 -1       535 1.32542E-01
 -1       536 1.07317E-01
 -1       537 8.63702E-02
 -1       538 6.89531E-02
 -1       539 5.47573E-02
 -1       540 4.32960E-02
 -1       541 3.42141E-02
 -1       542 3.20475E-02
 -1       543 3.45745E-02
 -1       544 4.44137E-02
 -1       545 5.88203E-02
 -1       546 8.91507E-02
 -1       547 1.31378E-01
 -1       548 1.88281E-01
 -1       549 2.64056E-01
 -1       550 3.63570E-01
 -1       551 4.92103E-01
 -1       552 6.54675E-01
 -1       553 8.54587E-01
 -1       554 1.09067E+00
 -1       555 1.35277E+00
 -1       556 1.61525E+00
 -1       557 1.83328E+00
 -1       558 2.04528E+00
 -1       559 2.44371E+00
 -1       560 2.89312E+00
 -1       561 3.32984E+00
 -1       562 3.10718E+00
 -1       563 5.71069E+00
 -1       564 9.55699E+00
 -1       565 5.47445E+00
 -1       566 3.89174E+00
 -1       567 3.89174E+00
 -1       568 3.17415E+00
 -1       569 1.79907E+01
 -1       570 1.49719E+01
 -1       571 4.88053E+00
 -1       572 9.12619E+00
 -1       573 1.14774E+01
 -1       574 1.14774E+01
 -1       575 6.59832E+00
 -1       576 3.88595E+00
 -1       577 2.89960E+00
 -1       578 2.22451E+00
 -1       579 1.49282E+00
 -1       580 1.29796E+01
 -1       581 2.87495E+01
 -1       582 7.02970E-01
 -1       583 2.73000E+01
 -1       584 7.33631E+00
 -1       585 8.76636E-01
 -1       586 1.81824E+01
 -1       587 4.57480E-01
 -1       588 9.70413E+00
 -1       589 5.45148E+00
 -1       590 8.26395E+00
 -1       591 4.87824E+00
 -1       592 5.64683E+00
 -1       593 1.03368E+01
 -1       594 1.44557E+01
 -1       595 2.32848E+01
 -1       596 2.59452E+01
 -1       597 3.02321E+01
 -1       598 2.42583E+01
 -1       599 1.51059E+01
 -1       600 1.11878E+01
 -1       601 6.21210E+00
 -1       602 4.65905E+00
 -1       603 7.03576E+00
 -1       604 9.22402E+00
 -1       605 7.87162E+00
 -1       606 6.00968E+00
 -1       607 3.76264E+00
 -1       608 7.31053E+00
 -1       609 1.24752E+01
 -1       610 2.20150E+01
 -1       611 1.32780E+00
 -1       612 6.20797E+00
 -1       613 5.11054E-01
 -1       614 1.49282E+00
 -1       615 4.64134E-01
 -1       616 3.58500E-01
 -1       617 3.42772E-01
 -1       618 3.62040E-01
 -1       619 3.38180E-01
 -1       620 5.43753E-01
 -1       621 3.22245E+00
 -1       622 3.94954E-01
 -1       623 3.83368E-01
 -1       624 3.42391E-01
 -1       625 2.92717E-01
 -1       626 2.42978E-01
 -1       627 2.11771E-01
 -1       628 1.79253E-01
 -1       629 1.48257E-01
 -1       630 1.20333E-01
 -1       631 9.70440E-02
 -1       632 7.82088E-02
 -1       633 6.25075E-02
 -1       634 4.93307E-02
 -1       635 3.82502E-02
 -1       636 2.93593E-02
 -1       637 2.20621E-02
 -1       638 2.27897E-02
 -1       639 2.99412E-02
 -1       640 4.79192E-02
 -1       641 7.02592E-02
 -1       642 9.79451E-02
 -1       643 1.31807E-01
 -1       644 1.72340E-01
 -1       645 2.19430E-01
 -1       646 2.71972E-01
 -1       647 3.30282E-01
 -1       648 3.88974E-01
 -1       649 4.36703E-01
 -1       650 5.03460E-01
 -1       651 5.73365E-01
 -1       652 6.27595E-01
 -1       653 7.67056E-01
 -1       654 1.01977E+00
 -1       655 1.18456E+00
 -1       656 1.56077E+00
 -1       657 1.87695E+00
 -1       658 2.08701E+00
 -1       659 2.70494E+00
 -1       660 2.67947E+00
 -1       661 2.69203E+00
 -1       662 2.21290E+00
 -1       663 2.19015E+00
 -1       664 3.26796E-01
 -1       665 5.37161E+00
 -1       666 3.95542E-01
 -1       667 2.32325E-01
 -1       668 1.94971E-01
 -1       669 1.60894E-01
 -1       670 1.32918E-01
 -1       671 1.08106E-01
 -1       672 8.68565E-02
 -1       673 6.91277E-02
 -1       674 5.47573E-02
 -1       675 4.32960E-02
 -1       676 3.39828E-02
 -1       677 2.78953E-02
 -1       678 2.66980E-02
 -1       679 3.28706E-02
 -1       680 4.92181E-02
 -1       681 7.53042E-02
 -1       682 1.09752E-01
 -1       683 1.55148E-01
 -1       684 2.14596E-01
 -1       685 2.91792E-01
 -1       686 3.91096E-01
 -1       687 5.17604E-01
 -1       688 6.77238E-01
 -1       689 8.76897E-01
 -1       690 1.12642E+00
 -1       691 1.43986E+00
 -1       692 1.80443E+00
 -1       693 2.24929E+00
 -1       694 2.72421E+00
 -1       695 3.38902E+00
 -1       696 5.03086E+00
 -1       697 5.96930E+00
 -1       698 1.24752E+01
 -1       699 5.63060E+00
 -1       700 3.47445E+00
 -1       701 3.02595E+00
 -1       702 3.50417E-01
 -1       703 4.72646E+00
 -1       704 4.63307E-01
 -1       705 3.78936E+00
 -1       706 2.72267E-01
 -1       707 3.92009E-01
 -1       708 3.62040E-01
 -1       709 3.61375E-01
 -1       710 5.14673E-01
 -1       711 1.18954E+01
 -1       712 5.36817E+00
 -1       713 3.02595E+00
 -1       714 1.03270E+01
 -1       715 1.65858E+01
 -1       716 1.39007E+01
 -1       717 1.74905E+01
 -1       718 1.20493E+01
 -1       719 9.86861E+00
 -1       720 6.63019E+00
 -1       721 3.93104E+00
 -1       722 3.50828E+00
 -1       723 3.47445E+00
 -1       724 6.87328E+00
 -1       725 3.62467E+00
 -1       726 3.34732E+00
 -1       727 5.89370E+00
 -1       728 3.61375E-01
 -1       729 3.42180E-01
 -1       730 3.57167E-01
 -1       731 5.39990E+00
 -1       732 3.78936E+00
 -1       733 3.72833E+00
 -1       734 1.39007E+01
 -1       735 2.40850E-01
 -1       736 4.51696E+00
 -1       737 2.54714E-01
 -1       738 2.47851E-01
 -1       739 2.26034E-01
 -1       740 1.97664E-01
 -1       741 1.71092E-01
 -1       742 1.49890E-01
 -1       743 1.27617E-01
 -1       744 1.06172E-01
 -1       745 8.65958E-02
 -1       746 6.93153E-02
 -1       747 5.43472E-02
 -1       748 4.14296E-02
 -1       749 3.01152E-02
 -1       750 1.98139E-02
 -1       751 1.42436E-02
 -1       752 1.88117E-02
 -1       753 3.32705E-02
 -1       754 5.13862E-02
 -1       755 7.46252E-02
 -1       756 1.03523E-01
 -1       757 1.37909E-01
 -1       758 1.77642E-01
 -1       759 2.30778E-01
 -1       760 2.93181E-01
 -1       761 3.63493E-01
 -1       762 4.37859E-01
 -1       763 5.10225E-01
 -1       764 6.19424E-01
 -1       765 7.63782E-01
 -1       766 9.16799E-01
 -1       767 1.07867E+00
 -1       768 1.50992E+00
 -1       769 1.85422E+00
 -1       770 1.87695E+00
 -1       771 2.91508E+00
 -1       772 3.72833E+00
 -1       773 2.96003E+00
 -1       774 3.19715E+00
 -1       775 3.02595E+00
 -1       776 2.85798E-01
 -1       777 1.62294E-01
 -1       778 1.87998E-01
 -1       779 1.12443E-01
 -1       780 9.09575E-02
 -1       781 7.23490E-02
 -1       782 5.65126E-02
 -1       783 4.30879E-02
 -1       784 3.31571E-02
 -1       785 2.47839E-02
 -1       786 1.68218E-02
 -1       787 1.98883E-02
 -1       788 3.52345E-02
 -1       789 5.53225E-02
 -1       790 8.09546E-02
 -1       791 1.13820E-01
 -1       792 1.59275E-01
 -1       793 2.25902E-01
 -1       794 3.15170E-01
 -1       795 4.33055E-01
 -1       796 5.87032E-01
 -1       797 7.85442E-01
 -1       798 1.03650E+00
 -1       799 1.34540E+00
 -1       800 1.73106E+00
 -1       801 2.23026E+00
 -1       802 3.50601E+00
 -1       803 5.82853E+00
 -1       804 8.15932E+00
 -1       805 3.22245E+00
 -1       806 9.35145E+00
 -1       807 3.72833E+00
 -1       808 3.05180E-01
 -1       809 3.00515E-01
 -1       810 1.00975E+01
 -1       811 2.92479E+00
 -1       812 8.66045E+00
 -1       813 1.36518E-01
 -1       814 2.32183E-01
 -1       815 2.81833E-01
 -1       816 2.88576E-01
 -1       817 4.35546E+00
 -1       818 7.27265E+00
 -1       819 5.28492E+00
 -1       820 3.79223E+00
 -1       821 2.81582E-01
 -1       822 2.80110E-01
 -1       823 2.72937E-01
 -1       824 2.72555E+00
 -1       825 2.53215E-01
 -1       826 2.16424E-01
 -1       827 2.87758E-01
 -1       828 2.87758E-01
 -1       829 2.88576E-01
 -1       830 9.21873E+00
 -1       831 2.72079E-01
 -1       832 7.32031E+00
 -1       833 4.96794E+00
 -1       834 7.37199E+00
 -1       835 2.87581E-01
 -1       836 1.82016E-01
 -1       837 1.74732E-01
 -1       838 1.59010E-01
 -1       839 1.39361E-01
 -1       840 1.22826E-01
 -1       841 1.06406E-01
 -1       842 8.98110E-02
 -1       843 7.41153E-02
 -1       844 5.98592E-02
 -1       845 4.71959E-02
 -1       846 3.60127E-02
 -1       847 2.59983E-02
 -1       848 2.17627E-02
 -1       849 2.36358E-02
 -1       850 3.23054E-02
 -1       851 5.00101E-02
 -1       852 7.27239E-02
 -1       853 1.00963E-01
 -1       854 1.35450E-01
 -1       855 1.76509E-01
 -1       856 2.23733E-01
 -1       857 2.75481E-01
 -1       858 3.32986E-01
 -1       859 4.07244E-01
 -1       860 5.16114E-01
 -1       861 6.53748E-01
 -1       862 8.18907E-01
 -1       863 1.03284E+00
 -1       864 1.34484E+00
 -1       865 1.71422E+00
 -1       866 2.96002E+00
 -1       867 1.85422E+00
 -1       868 1.43142E-01
 -1       869 7.96649E-02
 -1       870 9.70108E-02
 -1       871 5.03890E-02
 -1       872 3.83949E-02
 -1       873 2.77194E-02
 -1       874 1.83328E-02
 -1       875 1.99297E-02
 -1       876 2.91292E-02
 -1       877 4.75971E-02
 -1       878 7.17306E-02
 -1       879 1.05377E-01
 -1       880 1.49988E-01
 -1       881 2.08934E-01
 -1       882 2.86504E-01
 -1       883 3.88253E-01
 -1       884 5.21565E-01
 -1       885 6.96619E-01
 -1       886 9.28093E-01
 -1       887 1.23841E+00
 -1       888 1.66376E+00
 -1       889 2.23026E+00
 -1       890 3.25741E+00
 -1       891 4.51587E+00
 -1       892 2.91508E+00
 -1       893 2.07533E-01
 -1       894 6.40821E-02
 -1       895 1.51553E-01
 -1       896 1.74437E-01
 -1       897 5.84238E+00
 -1       898 2.96002E+00
 -1       899 1.65085E-01
 -1       900 5.30873E+00
 -1       901 2.18475E-01
 -1       902 2.08953E-01
 -1       903 1.75213E-01
 -1       904 1.15623E-01
 -1       905 2.18765E-01
 -1       906 2.17375E-01
 -1       907 1.80917E-01
 -1       908 6.18631E+00
 -1       909 2.17375E-01
 -1       910 1.34429E-01
 -1       911 4.05792E+00
 -1       912 4.05792E+00
 -1       913 7.15546E+00
 -1       914 2.18765E-01
 -1       915 1.35665E-01
 -1       916 1.35011E-01
 -1       917 1.26195E-01
 -1       918 1.12945E-01
 -1       919 9.78093E-02
 -1       920 8.53061E-02
 -1       921 7.24959E-02
 -1       922 6.01545E-02
 -1       923 4.88247E-02
 -1       924 3.87037E-02
 -1       925 2.97487E-02
 -1       926 2.69752E-02
 -1       927 2.84902E-02
 -1       928 3.23351E-02
 -1       929 4.37976E-02
 -1       930 6.37105E-02
 -1       931 8.90510E-02
 -1       932 1.20955E-01
 -1       933 1.60542E-01
 -1       934 2.08789E-01
 -1       935 2.66314E-01
 -1       936 3.32986E-01
 -1       937 4.07244E-01
 -1       938 4.99856E-01
 -1       939 6.31954E-01
 -1       940 8.50719E-01
 -1       941 1.16911E+00
 -1       942 1.53548E+00
 -1       943 1.93816E+00
 -1       944 3.60342E+00
 -1       945 3.22086E-02
 -1       946 4.22662E-02
 -1       947 2.58012E-02
 -1       948 2.92746E-02
 -1       949 4.15789E-02
 -1       950 6.27896E-02
 -1       951 9.06514E-02
 -1       952 1.26975E-01
 -1       953 1.74119E-01
 -1       954 2.35033E-01
 -1       955 3.13539E-01
 -1       956 4.14881E-01
 -1       957 5.46825E-01
 -1       958 7.21920E-01
 -1       959 9.62006E-01
 -1       960 1.30947E+00
 -1       961 1.82465E+00
 -1       962 2.58163E+00
 -1       963 9.25492E-02
 -1       964 1.12196E-01
 -1       965 8.00695E-02
 -1       966 2.04009E-01
 -1       967 2.47057E-02
 -1       968 1.95975E-01
 -1       969 1.23296E-01
 -1       970 1.01276E-01
 -1       971 3.82653E+00
 -1       972 4.57800E+00
 -1       973 1.57152E-01
 -1       974 1.40199E-01
 -1       975 9.46361E-02
 -1       976 5.35715E-02
 -1       977 4.47320E+00
 -1       978 1.24307E-01
 -1       979 1.44551E-01
 -1       980 6.62379E-02
 -1       981 5.54517E+00
 -1       982 1.52588E-01
 -1       983 1.57152E-01
 -1       984 1.39446E-01
 -1       985 1.01619E-01
 -1       986 1.02991E-01
 -1       987 9.76150E-02
 -1       988 8.82826E-02
 -1       989 7.71009E-02
 -1       990 6.54973E-02
 -1       991 5.50246E-02
 -1       992 4.57241E-02
 -1       993 3.73167E-02
 -1       994 3.18659E-02
 -1       995 3.00801E-02
 -1       996 3.09321E-02
 -1       997 3.43385E-02
 -1       998 4.10420E-02
 -1       999 5.25105E-02
 -1      1000 7.08357E-02
 -1      1001 9.74802E-02
 -1      1002 1.31878E-01
 -1      1003 1.75927E-01
 -1      1004 2.31902E-01
 -1      1005 3.02497E-01
 -1      1006 3.90773E-01
 -1      1007 4.99856E-01
 -1      1008 6.31954E-01
 -1      1009 8.22288E-01
 -1      1010 1.12437E+00
 -1      1011 1.62234E+00
 -1      1012 2.29358E+00
 -1      1013 2.90502E-02
 -1      1014 1.51857E-01
 -1      1015 1.55143E-01
 -1      1016 3.66540E-02
 -1      1017 3.14715E-02
 -1      1018 7.05039E-02
 -1      1019 9.72873E-02
 -1      1020 1.31327E-01
 -1      1021 1.74137E-01
 -1      1022 2.27471E-01
 -1      1023 2.93501E-01
 -1      1024 3.80787E-01
 -1      1025 4.99208E-01
 -1      1026 6.70288E-01
 -1      1027 9.18493E-01
 -1      1028 1.28472E+00
 -1      1029 1.67244E+00
 -1      1030 1.53238E-01
 -1      1031 9.05888E-02
 -1      1032 6.27939E-02
 -1      1033 1.08653E-01
 -1      1034 4.96394E-02
 -1      1035 3.34593E-02
 -1      1036 2.90382E-02
 -1      1037 3.05160E+00
 -1      1038 7.28697E-02
 -1      1039 1.00788E-01
 -1      1040 3.60342E+00
 -1      1041 4.21490E-02
 -1      1042 4.27542E+00
 -1      1043 1.00788E-01
 -1      1044 9.31250E-02
 -1      1045 1.09946E-01
 -1      1046 9.74099E-02
 -1      1047 5.19957E-02
 -1      1048 1.19097E-01
 -1      1049 1.03615E-01
 -1      1050 1.08473E-01
 -1      1051 8.15806E-02
 -1      1052 7.17955E-02
 -1      1053 9.60661E-02
 -1      1054 6.61217E-02
 -1      1055 5.66914E-02
 -1      1056 4.62351E-02
 -1      1057 3.90295E-02
 -1      1058 4.48150E-02
 -1      1059 3.18659E-02
 -1      1060 3.09321E-02
 -1      1061 3.43385E-02
 -1      1062 4.10420E-02
 -1      1063 5.25105E-02
 -1      1064 6.88350E-02
 -1      1065 9.40742E-02
 -1      1066 1.28344E-01
 -1      1067 1.74803E-01
 -1      1068 2.38025E-01
 -1      1069 3.24764E-01
 -1      1070 4.45172E-01
 -1      1071 6.14709E-01
 -1      1072 8.57089E-01
 -1      1073 1.20824E+00
 -1      1074 1.71799E+00
 -1      1075 2.22358E+00
 -1      1076 2.31459E+00
 -1      1077 6.14092E-02
 -1      1078 3.66540E-02
 -1      1079 1.09010E-01
 -1      1080 8.18252E-02
 -1      1081 1.90465E-01
 -1      1082 2.49380E-01
 -1      1083 3.24847E-01
 -1      1084 4.45172E-01
 -1      1085 6.28144E-01
 -1      1086 9.55771E-01
 -1      1087 1.48506E+00
 -1      1088 2.14880E+00
 -1      1089 2.62081E+00
 -1      1090 2.30672E+00
 -1      1091 6.35325E-02
 -1      1092 3.14715E-02
 -1      1093 2.92535E-02
 -1      1094 1.44550E-01
 -1      1095 4.48150E-02
 -1      1096 9.56879E-02
 -1      1097 9.02883E-02
 -1      1098 6.58689E-02
 -1      1099 4.68471E-02
 -1      1100 6.61217E-02
 -1      1101 2.31459E+00
 -1      1102 4.28252E-02
 -1      1103 1.19097E-01
 -1      1104 2.31459E+00
 -1      1105 5.66914E-02
 -1      1106 1.08473E-01
 -1      1107 8.48045E-02
 -1      1108 9.02883E-02
 -1      1109 9.60661E-02
 -1      1110 1.19097E-01
 -1      1111 1.08473E-01
 -1      1112 4.48150E-02
 -1      1113 3.96388E-02
 -1      1114 3.88044E-02
 -1      1115 1.31428E+01
 -1      1116 8.40331E+00
 -1      1117 2.74542E+00
 -1      1118 1.55872E+00
 -1      1119 1.16712E+00
 -1      1120 9.71921E-01
 -1      1121 8.54411E-01
 -1      1122 7.81276E-01
 -1      1123 7.54716E-01
 -1      1124 7.84419E-01
 -1      1125 8.57003E-01
 -1      1126 9.76796E-01
 -1      1127 1.18032E+00
 -1      1128 1.57194E+00
 -1      1129 2.67069E+00
 -1      1130 6.07316E+00
 -1      1131 1.13398E+01
 -1      1132 1.31428E+01
 -1      1133 8.73025E+00
 -1      1134 3.82911E+00
 -1      1135 2.72563E+00
 -1      1136 1.73629E+00
 -1      1137 1.18778E+00
 -1      1138 8.94225E-01
 -1      1139 6.84779E-01
 -1      1140 5.24604E-01
 -1      1141 4.00504E-01
 -1      1142 3.07051E-01
 -1      1143 2.35624E-01
 -1      1144 1.78575E-01
 -1      1145 1.33871E-01
 -1      1146 9.96108E-02
 -1      1147 7.40950E-02
 -1      1148 5.64491E-02
 -1      1149 4.43630E-02
 -1      1150 3.65167E-02
 -1      1151 3.56788E-02
 -1      1152 4.14616E-02
 -1      1153 5.04744E-02
 -1      1154 6.11560E-02
 -1      1155 7.81266E-02
 -1      1156 1.04315E-01
 -1      1157 1.37160E-01
 -1      1158 1.75700E-01
 -1      1159 2.18185E-01
 -1      1160 2.61105E-01
 -1      1161 3.11764E-01
 -1      1162 3.87390E-01
 -1      1163 4.94004E-01
 -1      1164 6.10553E-01
 -1      1165 7.02513E-01
 -1      1166 7.55446E-01
 -1      1167 8.40811E-01
 -1      1168 9.13113E-01
 -1      1169 1.13363E+00
 -1      1170 1.53778E+00
 -1      1171 2.22858E+00
 -1      1172 3.26088E+00
 -1      1173 4.06914E+00
 -1      1174 4.34844E+00
 -1      1175 4.25475E+00
 -1      1176 4.14322E+00
 -1      1177 3.80807E+00
 -1      1178 2.96412E+00
 -1      1179 1.97733E+00
 -1      1180 1.31307E+00
 -1      1181 6.61636E-01
 -1      1182 1.40387E+01
 -1      1183 8.71663E+00
 -1      1184 2.90368E+00
 -1      1185 2.03917E+00
 -1      1186 1.40495E+00
 -1      1187 1.02517E+00
 -1      1188 8.18623E-01
 -1      1189 6.59488E-01
 -1      1190 5.27847E-01
 -1      1191 4.18109E-01
 -1      1192 3.30968E-01
 -1      1193 2.62614E-01
 -1      1194 2.05770E-01
 -1      1195 1.59182E-01
 -1      1196 1.21934E-01
 -1      1197 9.30036E-02
 -1      1198 7.13873E-02
 -1      1199 5.61868E-02
 -1      1200 4.66532E-02
 -1      1201 4.52133E-02
 -1      1202 5.28597E-02
 -1      1203 6.67962E-02
 -1      1204 8.61834E-02
 -1      1205 1.11448E-01
 -1      1206 1.43058E-01
 -1      1207 1.81390E-01
 -1      1208 2.26480E-01
 -1      1209 2.91327E-01
 -1      1210 3.84239E-01
 -1      1211 4.99728E-01
 -1      1212 6.35853E-01
 -1      1213 7.86610E-01
 -1      1214 9.36345E-01
 -1      1215 1.05388E+00
 -1      1216 1.22480E+00
 -1      1217 1.59243E+00
 -1      1218 2.03959E+00
 -1      1219 2.45489E+00
 -1      1220 2.93555E+00
 -1      1221 3.47898E+00
 -1      1222 4.46008E+00
 -1      1223 6.75641E+00
 -1      1224 8.54145E+00
 -1      1225 8.73800E+00
 -1      1226 8.66836E+00
 -1      1227 6.94462E+00
 -1      1228 3.84683E+00
 -1      1229 1.58251E+00
 -1      1230 6.71010E-01
 -1      1231 3.89435E-01
 -1      1232 4.64276E-01
 -1      1233 1.03032E+00
 -1      1234 1.46998E+00
 -1      1235 1.60912E+00
 -1      1236 1.36399E+00
 -1      1237 1.83458E+00
 -1      1238 2.55032E+00
 -1      1239 2.21037E+00
 -1      1240 1.75510E+00
 -1      1241 1.67222E+00
 -1      1242 1.70466E+00
 -1      1243 1.50592E+00
 -1      1244 1.08308E+00
 -1      1245 6.60857E-01
 -1      1246 3.93819E-01
 -1      1247 5.12502E-01
 -1      1248 4.57204E-01
 -1      1249 2.49097E+01
 -1      1250 3.65031E+01
 -1      1251 4.85180E+01
 -1      1252 3.55379E+01
 -1      1253 1.79346E+01
 -1      1254 1.33115E+01
 -1      1255 1.31472E+01
 -1      1256 1.27761E+01
 -1      1257 1.25572E+01
 -1      1258 1.24268E+01
 -1      1259 1.89085E+01
 -1      1260 2.78951E+01
 -1      1261 3.02814E+01
 -1      1262 2.68617E+01
 -1      1263 2.30232E+01
 -1      1264 2.31801E+01
 -1      1265 2.56395E+01
 -1      1266 2.89167E+01
 -1      1267 2.99151E+01
 -1      1268 2.11759E+01
 -1      1269 1.26169E+01
 -1      1270 1.24021E+01
 -1      1271 1.21107E+01
 -1      1272 1.22178E+01
 -1      1273 1.26163E+01
 -1      1274 1.55421E+01
 -1      1275 3.23379E+01
 -1      1276 4.62079E+01
 -1      1277 3.57695E+01
 -1      1278 2.53311E+01
 -1      1279 1.31428E+01
 -1      1280 4.87086E+00
 -1      1281 9.61037E+00
 -1      1282 2.06401E+00
 -1      1283 2.98240E+00
 -1      1284 4.18945E+00
 -1      1285 1.39827E+00
 -1      1286 1.66658E+00
 -1      1287 1.90356E+00
 -1      1288 1.10114E+00
 -1      1289 1.22442E+00
 -1      1290 1.33228E+00
 -1      1291 9.36052E-01
 -1      1292 1.00798E+00
 -1      1293 1.06528E+00
 -1      1294 8.36599E-01
 -1      1295 8.82182E-01
 -1      1296 9.18240E-01
 -1      1297 7.74832E-01
 -1      1298 8.02383E-01
 -1      1299 8.30154E-01
 -1      1300 7.55707E-01
 -1      1301 7.54716E-01
 -1      1302 7.75823E-01
 -1      1303 8.06257E-01
 -1      1304 7.77546E-01
 -1      1305 7.77546E-01
 -1      1306 8.84051E-01
 -1      1307 8.40178E-01
 -1      1308 8.33305E-01
 -1      1309 1.01690E+00
 -1      1310 9.40978E-01
 -1      1311 9.24152E-01
 -1      1312 1.24029E+00
 -1      1313 1.11268E+00
 -1      1314 1.07686E+00
 -1      1315 1.68185E+00
 -1      1316 1.41785E+00
 -1      1317 1.35020E+00
 -1      1318 2.88321E+00
 -1      1319 2.04846E+00
 -1      1320 1.89437E+00
 -1      1321 6.28596E+00
 -1      1322 3.71824E+00
 -1      1323 3.09601E+00
 -1      1324 1.40387E+01
 -1      1325 1.13398E+01
 -1      1326 8.98488E+00
 -1      1327 1.40387E+01
 -1      1328 8.73025E+00
 -1      1329 4.31768E+00
 -1      1330 3.82911E+00
 -1      1331 3.34054E+00
 -1      1332 3.82911E+00
 -1      1333 2.72563E+00
 -1      1334 2.11073E+00
 -1      1335 2.72563E+00
 -1      1336 1.77870E+00
 -1      1337 1.40426E+00
 -1      1338 1.77870E+00
 -1      1339 1.19331E+00
 -1      1340 1.01924E+00
 -1      1341 1.23572E+00
 -1      1342 8.94225E-01
 -1      1343 7.74741E-01
 -1      1344 8.99755E-01
 -1      1345 6.84779E-01
 -1      1346 5.94817E-01
 -1      1347 6.84779E-01
 -1      1348 5.30990E-01
 -1      1349 4.60777E-01
 -1      1350 5.30990E-01
 -1      1351 4.10634E-01
 -1      1352 3.56748E-01
 -1      1353 4.17021E-01
 -1      1354 3.17650E-01
 -1      1355 2.78083E-01
 -1      1356 3.27780E-01
 -1      1357 2.49594E-01
 -1      1358 2.17734E-01
 -1      1359 2.60193E-01
 -1      1360 1.93531E-01
 -1      1361 1.68342E-01
 -1      1362 2.07501E-01
 -1      1363 1.48339E-01
 -1      1364 1.28825E-01
 -1      1365 1.63295E-01
 -1      1366 1.12706E-01
 -1      1367 9.79592E-02
 -1      1368 1.27173E-01
 -1      1369 8.53008E-02
 -1      1370 7.45314E-02
 -1      1371 9.83955E-02
 -1      1372 6.48734E-02
 -1      1373 5.79970E-02
 -1      1374 7.60792E-02
 -1      1375 5.08804E-02
 -1      1376 4.56707E-02
 -1      1377 5.93047E-02
 -1      1378 4.06560E-02
 -1      1379 3.80193E-02
 -1      1380 4.71734E-02
 -1      1381 3.46902E-02
 -1      1382 3.64890E-02
 -1      1383 3.88295E-02
 -1      1384 3.74776E-02
 -1      1385 4.14616E-02
 -1      1386 3.64890E-02
 -1      1387 4.54456E-02
 -1      1388 5.04744E-02
 -1      1389 4.14616E-02
 -1      1390 5.55033E-02
 -1      1391 6.11560E-02
 -1      1392 5.04744E-02
 -1      1393 6.98712E-02
 -1      1394 8.11892E-02
 -1      1395 6.42185E-02
 -1      1396 9.23142E-02
 -1      1397 1.07184E-01
 -1      1398 8.40588E-02
 -1      1399 1.20648E-01
 -1      1400 1.38624E-01
 -1      1401 1.08648E-01
 -1      1402 1.55136E-01
 -1      1403 1.75700E-01
 -1      1404 1.38624E-01
 -1      1405 1.96265E-01
 -1      1406 2.18185E-01
 -1      1407 1.75700E-01
 -1      1408 2.45431E-01
 -1      1409 2.66430E-01
 -1      1410 2.23510E-01
 -1      1411 2.99124E-01
 -1      1412 3.28784E-01
 -1      1413 2.83450E-01
 -1      1414 3.60681E-01
 -1      1415 4.06647E-01
 -1      1416 3.48041E-01
 -1      1417 4.43494E-01
 -1      1418 5.04141E-01
 -1      1419 4.16784E-01
 -1      1420 5.54652E-01
 -1      1421 6.10553E-01
 -1      1422 5.04141E-01
 -1      1423 6.66454E-01
 -1      1424 7.02513E-01
 -1      1425 6.10553E-01
 -1      1426 7.38571E-01
 -1      1427 7.55446E-01
 -1      1428 7.02513E-01
 -1      1429 7.72320E-01
 -1      1430 8.40811E-01
 -1      1431 7.55446E-01
 -1      1432 9.09302E-01
 -1      1433 9.13113E-01
 -1      1434 8.40811E-01
 -1      1435 9.16925E-01
 -1      1436 1.13363E+00
 -1      1437 9.13113E-01
 -1      1438 1.35033E+00
 -1      1439 1.53778E+00
 -1      1440 1.13363E+00
 -1      1441 1.81457E+00
 -1      1442 2.31792E+00
 -1      1443 1.62712E+00
 -1      1444 2.73193E+00
 -1      1445 3.26088E+00
 -1      1446 2.31792E+00
 -1      1447 3.78984E+00
 -1      1448 4.06914E+00
 -1      1449 3.26088E+00
 -1      1450 4.34844E+00
 -1      1451 4.34844E+00
 -1      1452 4.06914E+00
 -1      1453 4.25475E+00
 -1      1454 4.16105E+00
 -1      1455 4.25475E+00
 -1      1456 4.14322E+00
 -1      1457 4.12539E+00
 -1      1458 4.14322E+00
 -1      1459 3.80807E+00
 -1      1460 3.49076E+00
 -1      1461 3.80807E+00
 -1      1462 2.96412E+00
 -1      1463 2.43749E+00
 -1      1464 2.96412E+00
 -1      1465 2.01361E+00
 -1      1466 1.55345E+00
 -1      1467 2.01361E+00
 -1      1468 1.31307E+00
 -1      1469 1.10897E+00
 -1      1470 1.34935E+00
 -1      1471 9.04539E-01
 -1      1472 9.04539E-01
 -1      1473 3.39454E+00
 -1      1474 8.71663E+00
 -1      1475 8.71663E+00
 -1      1476 2.41281E+00
 -1      1477 2.90368E+00
 -1      1478 2.90368E+00
 -1      1479 1.66554E+00
 -1      1480 2.03917E+00
 -1      1481 2.03917E+00
 -1      1482 1.14437E+00
 -1      1483 1.40495E+00
 -1      1484 1.40495E+00
 -1      1485 9.05980E-01
 -1      1486 1.02517E+00
 -1      1487 1.02517E+00
 -1      1488 7.31265E-01
 -1      1489 8.18623E-01
 -1      1490 8.18623E-01
 -1      1491 5.87711E-01
 -1      1492 6.59488E-01
 -1      1493 6.59488E-01
 -1      1494 4.67984E-01
 -1      1495 5.27847E-01
 -1      1496 5.27847E-01
 -1      1497 3.68234E-01
 -1      1498 4.18109E-01
 -1      1499 4.18109E-01
 -1      1500 2.93701E-01
 -1      1501 3.30968E-01
 -1      1502 3.30968E-01
 -1      1503 2.31526E-01
 -1      1504 2.62614E-01
 -1      1505 2.62614E-01
 -1      1506 1.81468E-01
 -1      1507 2.07224E-01
 -1      1508 2.07224E-01
 -1      1509 1.40831E-01
 -1      1510 1.61663E-01
 -1      1511 1.63117E-01
 -1      1512 1.08425E-01
 -1      1513 1.24840E-01
 -1      1514 1.27321E-01
 -1      1515 8.33901E-02
 -1      1516 9.59063E-02
 -1      1517 9.88114E-02
 -1      1518 6.48750E-02
 -1      1519 7.39752E-02
 -1      1520 7.68778E-02
 -1      1521 5.21095E-02
 -1      1522 5.82098E-02
 -1      1523 6.07977E-02
 -1      1524 4.44472E-02
 -1      1525 4.78805E-02
 -1      1526 4.99035E-02
 -1      1527 4.62981E-02
 -1      1528 4.43047E-02
 -1      1529 4.55320E-02
 -1      1530 5.58394E-02
 -1      1531 5.01864E-02
 -1      1532 4.92779E-02
 -1      1533 7.01238E-02
 -1      1534 6.18403E-02
 -1      1535 5.91670E-02
 -1      1536 8.93587E-02
 -1      1537 7.82550E-02
 -1      1538 7.32991E-02
 -1      1539 1.13796E-01
 -1      1540 9.96354E-02
 -1      1541 9.17071E-02
 -1      1542 1.43623E-01
 -1      1543 1.26173E-01
 -1      1544 1.14360E-01
 -1      1545 1.84921E-01
 -1      1546 1.64040E-01
 -1      1547 1.47155E-01
 -1      1548 2.37113E-01
 -1      1549 2.12904E-01
 -1      1550 1.95555E-01
 -1      1551 3.12924E-01
 -1      1552 2.72286E-01
 -1      1553 2.58710E-01
 -1      1554 4.08267E-01
 -1      1555 3.55993E-01
 -1      1556 3.36951E-01
 -1      1557 5.23141E-01
 -1      1558 4.59927E-01
 -1      1559 4.31680E-01
 -1      1560 6.55280E-01
 -1      1561 5.82369E-01
 -1      1562 5.42568E-01
 -1      1563 7.94923E-01
 -1      1564 7.17078E-01
 -1      1565 6.63594E-01
 -1      1566 9.36345E-01
 -1      1567 8.64454E-01
 -1      1568 7.94923E-01
 -1      1569 1.05388E+00
 -1      1570 1.00824E+00
 -1      1571 9.36345E-01
 -1      1572 1.29091E+00
 -1      1573 1.16564E+00
 -1      1574 1.11999E+00
 -1      1575 1.69475E+00
 -1      1576 1.45239E+00
 -1      1577 1.39323E+00
 -1      1578 2.03959E+00
 -1      1579 1.83479E+00
 -1      1580 1.69475E+00
 -1      1581 2.45489E+00
 -1      1582 2.24440E+00
 -1      1583 2.03959E+00
 -1      1584 2.93555E+00
 -1      1585 2.66539E+00
 -1      1586 2.45489E+00
 -1      1587 3.47898E+00
 -1      1588 3.20570E+00
 -1      1589 2.93555E+00
 -1      1590 4.46008E+00
 -1      1591 3.75225E+00
 -1      1592 3.47898E+00
 -1      1593 6.89859E+00
 -1      1594 5.31010E+00
 -1      1595 4.60227E+00
 -1      1596 8.54145E+00
 -1      1597 8.34490E+00
 -1      1598 6.89859E+00
 -1      1599 8.73800E+00
 -1      1600 8.73800E+00
 -1      1601 8.54145E+00
 -1      1602 8.59872E+00
 -1      1603 8.66836E+00
 -1      1604 8.66836E+00
 -1      1605 5.29052E+00
 -1      1606 6.94462E+00
 -1      1607 6.94462E+00
 -1      1608 2.52278E+00
 -1      1609 3.96647E+00
 -1      1610 3.96647E+00
 -1      1611 1.01080E+00
 -1      1612 1.83143E+00
 -1      1613 1.95107E+00
 -1      1614 7.43989E-01
 -1      1615 8.34861E-01
 -1      1616 1.08378E+00
 -1      1617 6.54978E-01
 -1      1618 1.60507E+00
 -1      1619 1.30456E+00
 -1      1620 2.03066E+00
 -1      1621 1.89151E+00
 -1      1622 2.16575E+00
 -1      1623 2.14790E+00
 -1      1624 2.14790E+00
 -1      1625 2.56944E+00
 -1      1626 1.90277E+00
 -1      1627 2.14790E+00
 -1      1628 2.68669E+00
 -1      1629 3.44247E+00
 -1      1630 2.72674E+00
 -1      1631 3.51065E+00
 -1      1632 4.14345E+00
 -1      1633 4.14345E+00
 -1      1634 5.03560E+00
 -1      1635 3.80350E+00
 -1      1636 4.14345E+00
 -1      1637 5.73658E+00
 -1      1638 2.31532E+00
 -1      1639 2.43064E+00
 -1      1640 4.36372E+00
 -1      1641 2.27620E+00
 -1      1642 2.24375E+00
 -1      1643 2.91930E+00
 -1      1644 2.27620E+00
 -1      1645 2.27620E+00
 -1      1646 2.84773E+00
 -1      1647 1.97130E+00
 -1      1648 2.17004E+00
 -1      1649 2.74158E+00
 -1      1650 1.40727E+00
 -1      1651 1.63138E+00
 -1      1652 2.29550E+00
 -1      1653 8.49022E-01
 -1      1654 1.04714E+00
 -1      1655 1.59544E+00
 -1      1656 4.95790E-01
 -1      1657 5.64713E-01
 -1      1658 9.50993E-01
 -1      1659 7.54194E-01
 -1      1660 5.66588E-01
 -1      1661 7.37482E-01
 -1      1662 9.58625E-01
 -1      1663 2.87910E+01
 -1      1664 2.92124E+01
 -1      1665 3.92889E+01
 -1      1666 2.72740E+01
 -1      1667 4.85180E+01
 -1      1668 4.85180E+01
 -1      1669 2.34528E+01
 -1      1670 3.64330E+01
 -1      1671 1.25047E+01
 -1      1672 1.71278E+01
 -1      1673 1.33115E+01
 -1      1674 1.33115E+01
 -1      1675 1.29829E+01
 -1      1676 1.31472E+01
 -1      1677 1.25693E+01
 -1      1678 1.27761E+01
 -1      1679 1.25452E+01
 -1      1680 1.25572E+01
 -1      1681 1.22003E+01
 -1      1682 1.23187E+01
 -1      1683 1.89085E+01
 -1      1684 1.23083E+01
 -1      1685 2.88857E+01
 -1      1686 2.64993E+01
 -1      1687 3.02814E+01
 -1      1688 3.02814E+01
 -1      1689 2.34420E+01
 -1      1690 2.68617E+01
 -1      1691 2.51251E+01
 -1      1692 2.55440E+01
 -1      1693 2.57008E+01
 -1      1694 2.51251E+01
 -1      1695 2.56395E+01
 -1      1696 2.37558E+01
 -1      1697 3.03100E+01
 -1      1698 2.89167E+01
 -1      1699 2.99151E+01
 -1      1700 3.03100E+01
 -1      1701 1.28317E+01
 -1      1702 2.11759E+01
 -1      1703 1.22038E+01
 -1      1704 1.24186E+01
 -1      1705 1.24021E+01
 -1      1706 1.24021E+01
 -1      1707 1.17266E+01
 -1      1708 1.20179E+01
 -1      1709 1.22178E+01
 -1      1710 1.18194E+01
 -1      1711 1.26163E+01
 -1      1712 1.26163E+01
 -1      1713 1.46850E+01
 -1      1714 1.17592E+01
 -1      1715 3.29885E+01
 -1      1716 1.91185E+01
 -1      1717 4.62079E+01
 -1      1718 4.62079E+01
 -1      1719 2.63547E+01
 -1      1720 3.67931E+01
 -1      1721 2.92124E+01
 -1      1722 2.92124E+01
 -1      1723 1.80229E+01
 -1      1724 3.64330E+01
 -1      1725 8.18829E-01
 -1      1726 1.39357E+00
 -1      1727 3.15767E+01
 -1      1728 3.92889E+01
 -1      1729 3.30937E+01
 -1      1730 1.25047E+01
 -1      1731 1.31472E+01
 -1      1732 1.27761E+01
 -1      1733 1.25572E+01
 -1      1734 1.23187E+01
 -1      1735 1.22003E+01
 -1      1736 1.98991E+01
 -1      1737 2.88857E+01
 -1      1738 2.68617E+01
 -1      1739 2.55440E+01
 -1      1740 2.76459E+01
 -1      1741 2.57008E+01
 -1      1742 2.70329E+01
 -1      1743 3.03100E+01
 -1      1744 2.15709E+01
 -1      1745 1.24186E+01
 -1      1746 1.22038E+01
 -1      1747 1.20179E+01
 -1      1748 1.17266E+01
 -1      1749 1.22178E+01
 -1      1750 1.17592E+01
 -1      1751 1.53356E+01
 -1      1752 3.29885E+01
 -1      1753 3.67931E+01
 -1      1754 3.02360E+01
 -1      1755 9.61037E+00
 -1      1756 1.28836E+00
 -1      1757 1.68580E+00
 -1      1758 2.39028E+00
 -1      1759 4.27874E+00
 -1      1760 1.77508E+00
 -1      1761 8.80544E-01
 -1      1762 9.73709E-01
 -1      1763 7.79738E-01
 -1      1764 8.33608E-01
 -1      1765 7.42041E-01
 -1      1766 7.13942E-01
 -1      1767 7.48157E-01
 -1      1768 6.63525E-01
 -1      1769 6.71642E-01
 -1      1770 6.91758E-01
 -1      1771 6.09760E-01
 -1      1772 6.95100E-01
 -1      1773 6.73261E-01
 -1      1774 5.89196E-01
 -1      1775 7.50884E-01
 -1      1776 7.16964E-01
 -1      1777 6.12679E-01
 -1      1778 8.41197E-01
 -1      1779 7.84270E-01
 -1      1780 6.67929E-01
 -1      1781 9.84597E-01
 -1      1782 8.88815E-01
 -1      1783 7.48933E-01
 -1      1784 1.22990E+00
 -1      1785 1.05234E+00
 -1      1786 8.64290E-01
 -1      1787 1.71069E+00
 -1      1788 1.34408E+00
 -1      1789 1.04621E+00
 -1      1790 2.63017E+00
 -1      1791 1.79514E+00
 -1      1792 1.24484E+00
 -1      1793 8.11956E+00
 -1      1794 3.06572E+00
 -1      1795 1.76485E+00
 -1      1796 2.79747E+00
 -1      1797 5.19779E+00
 -1      1798 2.16332E+00
 -1      1799 2.65418E+00
 -1      1800 2.05711E+00
 -1      1801 3.39862E+00
 -1      1802 2.53484E+00
 -1      1803 1.91994E+00
 -1      1804 1.68877E+00
 -1      1805 1.35675E+00
 -1      1806 1.49798E+00
 -1      1807 1.17647E+00
 -1      1808 9.65514E-01
 -1      1809 1.08654E+00
 -1      1810 8.39917E-01
 -1      1811 7.14903E-01
 -1      1812 7.80663E-01
 -1      1813 6.56314E-01
 -1      1814 5.66352E-01
 -1      1815 5.96476E-01
 -1      1816 5.17702E-01
 -1      1817 4.53875E-01
 -1      1818 4.89236E-01
 -1      1819 4.10974E-01
 -1      1820 3.60832E-01
 -1      1821 3.97686E-01
 -1      1822 3.28002E-01
 -1      1823 2.88904E-01
 -1      1824 3.21955E-01
 -1      1825 2.61155E-01
 -1      1826 2.32666E-01
 -1      1827 2.61377E-01
 -1      1828 2.08807E-01
 -1      1829 1.84605E-01
 -1      1830 2.09770E-01
 -1      1831 1.66862E-01
 -1      1832 1.46859E-01
 -1      1833 1.68168E-01
 -1      1834 1.32127E-01
 -1      1835 1.16007E-01
 -1      1836 1.35693E-01
 -1      1837 1.03660E-01
 -1      1838 9.10019E-02
 -1      1839 1.08614E-01
 -1      1840 8.09285E-02
 -1      1841 7.12705E-02
 -1      1842 8.61932E-02
 -1      1843 6.32401E-02
 -1      1844 5.61235E-02
 -1      1845 6.80894E-02
 -1      1846 4.98374E-02
 -1      1847 4.48227E-02
 -1      1848 5.37728E-02
 -1      1849 3.99430E-02
 -1      1850 3.66139E-02
 -1      1851 4.26071E-02
 -1      1852 3.41804E-02
 -1      1853 3.51690E-02
 -1      1854 3.52939E-02
 -1      1855 3.57349E-02
 -1      1856 3.97189E-02
 -1      1857 3.34263E-02
 -1      1858 4.40159E-02
 -1      1859 4.90447E-02
 -1      1860 3.82892E-02
 -1      1861 5.54907E-02
 -1      1862 6.42060E-02
 -1      1863 4.90322E-02
 -1      1864 7.29338E-02
 -1      1865 8.40588E-02
 -1      1866 6.42060E-02
 -1      1867 9.58899E-02
 -1      1868 1.09354E-01
 -1      1869 8.47649E-02
 -1      1870 1.28020E-01
 -1      1871 1.44532E-01
 -1      1872 1.15262E-01
 -1      1873 1.67021E-01
 -1      1874 1.87586E-01
 -1      1875 1.56417E-01
 -1      1876 2.13383E-01
 -1      1877 2.40629E-01
 -1      1878 2.04704E-01
 -1      1879 2.68299E-01
 -1      1880 3.00993E-01
 -1      1881 2.58171E-01
 -1      1882 3.27780E-01
 -1      1883 3.59677E-01
 -1      1884 3.12629E-01
 -1      1885 3.85243E-01
 -1      1886 4.22089E-01
 -1      1887 3.64982E-01
 -1      1888 4.48571E-01
 -1      1889 4.99082E-01
 -1      1890 4.17030E-01
 -1      1891 5.29301E-01
 -1      1892 5.85202E-01
 -1      1893 4.73731E-01
 -1      1894 5.96358E-01
 -1      1895 6.32416E-01
 -1      1896 5.15106E-01
 -1      1897 6.08871E-01
 -1      1898 6.25745E-01
 -1      1899 5.02716E-01
 -1      1900 6.14189E-01
 -1      1901 6.82680E-01
 -1      1902 4.67614E-01
 -1      1903 6.99515E-01
 -1      1904 7.03326E-01
 -1      1905 4.72893E-01
 -1      1906 8.93828E-01
 -1      1907 1.11053E+00
 -1      1908 6.80229E-01
 -1      1909 1.40526E+00
 -1      1910 1.68204E+00
 -1      1911 1.16546E+00
 -1      1912 1.94421E+00
 -1      1913 2.35822E+00
 -1      1914 1.72235E+00
 -1      1915 2.61633E+00
 -1      1916 3.14528E+00
 -1      1917 2.24262E+00
 -1      1918 3.33484E+00
 -1      1919 3.61415E+00
 -1      1920 2.69029E+00
 -1      1921 3.62076E+00
 -1      1922 3.52706E+00
 -1      1923 2.88646E+00
 -1      1924 3.44845E+00
 -1      1925 3.43062E+00
 -1      1926 2.81446E+00
 -1      1927 3.39062E+00
 -1      1928 3.07330E+00
 -1      1929 2.69585E+00
 -1      1930 2.85140E+00
 -1      1931 2.32476E+00
 -1      1932 2.43394E+00
 -1      1933 2.02056E+00
 -1      1934 1.59669E+00
 -1      1935 1.90784E+00
 -1      1936 1.36186E+00
 -1      1937 1.12147E+00
 -1      1938 9.71130E-01
 -1      1939 1.36881E+00
 -1      1940 1.39782E+00
 -1      1941 1.77146E+00
 -1      1942 1.52196E+00
 -1      1943 1.01748E+00
 -1      1944 1.27806E+00
 -1      1945 1.01035E+00
 -1      1946 8.04475E-01
 -1      1947 9.23669E-01
 -1      1948 7.96780E-01
 -1      1949 6.37643E-01
 -1      1950 7.25000E-01
 -1      1951 6.23495E-01
 -1      1952 5.12306E-01
 -1      1953 5.84084E-01
 -1      1954 4.90461E-01
 -1      1955 4.19074E-01
 -1      1956 4.78937E-01
 -1      1957 4.03532E-01
 -1      1958 3.37180E-01
 -1      1959 3.87056E-01
 -1      1960 3.38145E-01
 -1      1961 2.72050E-01
 -1      1962 3.09316E-01
 -1      1963 2.78263E-01
 -1      1964 2.18167E-01
 -1      1965 2.49255E-01
 -1      1966 2.27604E-01
 -1      1967 1.73884E-01
 -1      1968 1.98186E-01
 -1      1969 1.84827E-01
 -1      1970 1.37162E-01
 -1      1971 1.56967E-01
 -1      1972 1.47929E-01
 -1      1973 1.07263E-01
 -1      1974 1.23254E-01
 -1      1975 1.17104E-01
 -1      1976 8.37467E-02
 -1      1977 9.62653E-02
 -1      1978 9.21983E-02
 -1      1979 6.58906E-02
 -1      1980 7.53056E-02
 -1      1981 7.27595E-02
 -1      1982 5.30733E-02
 -1      1983 5.97385E-02
 -1      1984 5.81663E-02
 -1      1985 4.47645E-02
 -1      1986 4.89936E-02
 -1      1987 4.79344E-02
 -1      1988 4.24214E-02
 -1      1989 4.25638E-02
 -1      1990 4.16539E-02
 -1      1991 4.72727E-02
 -1      1992 4.33844E-02
 -1      1993 4.04162E-02
 -1      1994 5.63741E-02
 -1      1995 5.03733E-02
 -1      1996 4.44798E-02
 -1      1997 7.01254E-02
 -1      1998 6.19941E-02
 -1      1999 5.32004E-02
 -1      2000 9.03597E-02
 -1      2001 8.00830E-02
 -1      2002 6.87780E-02
 -1      2003 1.16011E-01
 -1      2004 1.03634E-01
 -1      2005 9.20105E-02
 -1      2006 1.53664E-01
 -1      2007 1.33247E-01
 -1      2008 1.22521E-01
 -1      2009 2.13137E-01
 -1      2010 1.85155E-01
 -1      2011 1.71247E-01
 -1      2012 2.92423E-01
 -1      2013 2.57250E-01
 -1      2014 2.46850E-01
 -1      2015 3.94144E-01
 -1      2016 3.51075E-01
 -1      2017 3.49616E-01
 -1      2018 5.21970E-01
 -1      2019 4.70310E-01
 -1      2020 4.84434E-01
 -1      2021 6.77090E-01
 -1      2022 6.17863E-01
 -1      2023 6.56493E-01
 -1      2024 8.54403E-01
 -1      2025 7.92605E-01
 -1      2026 8.67900E-01
 -1      2027 1.05395E+00
 -1      2028 9.84417E-01
 -1      2029 1.11343E+00
 -1      2030 1.25618E+00
 -1      2031 1.18429E+00
 -1      2032 1.37379E+00
 -1      2033 1.47583E+00
 -1      2034 1.36407E+00
 -1      2035 1.61202E+00
 -1      2036 1.73428E+00
 -1      2037 1.57280E+00
 -1      2038 1.81688E+00
 -1      2039 1.88298E+00
 -1      2040 1.74294E+00
 -1      2041 1.92251E+00
 -1      2042 2.09407E+00
 -1      2043 1.88927E+00
 -1      2044 1.93746E+00
 -1      2045 2.18208E+00
 -1      2046 1.97158E+00
 -1      2047 1.82125E+00
 -1      2048 2.63477E+00
 -1      2049 2.36462E+00
 -1      2050 1.88130E+00
 -1      2051 3.56675E+00
 -1      2052 3.29347E+00
 -1      2053 2.72255E+00
 -1      2054 6.23677E+00
 -1      2055 5.38675E+00
 -1      2056 5.20125E+00
 -1      2057 8.95094E+00
 -1      2058 7.50463E+00
 -1      2059 8.28912E+00
 -1      2060 7.10622E+00
 -1      2061 6.90968E+00
 -1      2062 7.51572E+00
 -1      2063 6.56396E+00
 -1      2064 6.63360E+00
 -1      2065 5.00183E+00
 -1      2066 4.59113E+00
 -1      2067 6.24523E+00
 -1      2068 4.21047E+00
 -1      2069 2.90828E+00
 -1      2070 4.23233E+00
 -1      2071 3.53294E+00
 -1      2072 1.79203E+00
 -1      2073 2.48338E+00
 -1      2074 2.74924E+00
 -1      2075 1.04500E+00
 -1      2076 1.22093E+00
 -1      2077 1.75324E+00
 -1      2078 1.53073E+00
 -1      2079 3.46300E+00
 -1      2080 3.46300E+00
 -1      2081 3.10989E+00
 -1      2082 2.99265E+00
 -1      2083 3.88620E+00
 -1      2084 2.38827E+00
 -1      2085 2.10182E+00
 -1      2086 1.75324E+00
 -1      2087 2.92871E+00
 -1      2088 5.06771E+00
 -1      2089 4.24374E+00
 -1      2090 5.02005E+00
 -1      2091 7.66578E+00
 -1      2092 6.96479E+00
 -1      2093 7.69788E+00
 -1      2094 7.66578E+00
 -1      2095 7.66578E+00
 -1      2096 9.59497E+00
 -1      2097 4.99067E+00
 -1      2098 6.36353E+00
 -1      2099 8.29273E+00
 -1      2100 4.18827E+00
 -1      2101 4.25984E+00
 -1      2102 6.25965E+00
 -1      2103 3.42281E+00
 -1      2104 3.42281E+00
 -1      2105 4.76335E+00
 -1      2106 2.77500E+00
 -1      2107 2.88116E+00
 -1      2108 3.45623E+00
 -1      2109 2.20683E+00
 -1      2110 2.54675E+00
 -1      2111 2.68633E+00
 -1      2112 1.45922E+00
 -1      2113 1.81936E+00
 -1      2114 2.07061E+00
 -1      2115 9.00331E-01
 -1      2116 1.18464E+00
 -1      2117 1.40856E+00
 -1      2118 3.92889E+01
 -1      2119 3.00597E+01
 -1      2120 3.30937E+01
 -1      2121 3.30937E+01
 -1      2122 2.86798E+01
 -1      2123 3.01969E+01
 -1      2124 3.01969E+01
 -1      2125 2.08202E+01
 -1      2126 3.29052E+01
 -1      2127 1.05620E+01
 -1      2128 1.68870E+01
 -1      2129 1.33593E+01
 -1      2130 1.03583E+00
 -1      2131 1.20967E+00
 -1      2132 9.91904E-01
 -1      2133 8.51095E-01
 -1      2134 1.14516E+01
 -1      2135 1.16159E+01
 -1      2136 1.18677E+01
 -1      2137 1.20745E+01
 -1      2138 1.15086E+01
 -1      2139 1.15206E+01
 -1      2140 1.09951E+01
 -1      2141 1.12216E+01
 -1      2142 9.61602E+00
 -1      2143 9.50800E+00
 -1      2144 1.93711E+01
 -1      2145 1.17803E+01
 -1      2146 2.47670E+01
 -1      2147 2.33712E+01
 -1      2148 2.33634E+01
 -1      2149 2.67831E+01
 -1      2150 2.66428E+01
 -1      2151 2.45409E+01
 -1      2152 2.89390E+01
 -1      2153 2.89390E+01
 -1      2154 2.69939E+01
 -1      2155 2.89390E+01
 -1      2156 2.72842E+01
 -1      2157 2.40070E+01
 -1      2158 2.51971E+01
 -1      2159 2.51971E+01
 -1      2160 1.23567E+01
 -1      2161 2.10959E+01
 -1      2162 9.15964E+00
 -1      2163 9.57275E+00
 -1      2164 1.06573E+01
 -1      2165 1.04590E+01
 -1      2166 1.15249E+01
 -1      2167 1.19090E+01
 -1      2168 1.15258E+01
 -1      2169 1.14330E+01
 -1      2170 1.14881E+01
 -1      2171 1.10896E+01
 -1      2172 9.33468E+00
 -1      2173 1.01918E+01
 -1      2174 1.41531E+01
 -1      2175 9.71964E+00
 -1      2176 3.09462E+01
 -1      2177 1.77268E+01
 -1      2178 2.73783E+01
 -1      2179 3.67931E+01
 -1      2180 3.09216E+01
 -1      2181 2.80639E+01
 -1      2182 9.92214E+00
 -1      2183 9.11531E+00
 -1      2184 7.97947E+00
 -1      2185 2.91005E+00
 -1      2186 1.01850E+01
 -1      2187 8.22655E+00
 -1      2188 2.10435E+00
 -1      2189 2.86798E+01
 -1      2190 2.36761E+01
 -1      2191 9.71130E-01
 -1      2192 3.09216E+01
 -1      2193 2.80639E+01
 -1      2194 2.15314E+01
 -1      2195 1.21108E+01
 -1      2196 8.15221E+00
 -1      2197 9.06359E+00
 -1      2198 1.07961E+01
 -1      2199 1.13241E+01
 -1      2200 1.01642E+01
 -1      2201 7.61315E+00
 -1      2202 9.09774E+00
 -1      2203 1.59829E+01
 -1      2204 2.21712E+01
 -1      2205 2.72452E+01
 -1      2206 3.02321E+01
 -1      2207 2.79359E+01
 -1      2208 2.44623E+01
 -1      2209 2.12687E+01
 -1      2210 1.52524E+01
 -1      2211 9.08795E+00
 -1      2212 8.41083E+00
 -1      2213 1.05432E+01
 -1      2214 1.08190E+01
 -1      2215 1.08867E+00
 -1      2216 1.48052E+00
 -1      2217 5.59384E-01
 -1      2218 5.90964E-01
 -1      2219 6.03080E-01
 -1      2220 6.50016E-01
 -1      2221 4.98938E-01
 -1      2222 5.11205E-01
 -1      2223 5.09585E-01
 -1      2224 5.46049E-01
 -1      2225 5.24186E-01
 -1      2226 4.44575E-01
 -1      2227 5.94247E-01
 -1      2228 5.60861E-01
 -1      2229 4.72368E-01
 -1      2230 6.53918E-01
 -1      2231 6.06299E-01
 -1      2232 4.99232E-01
 -1      2233 7.21657E-01
 -1      2234 6.53918E-01
 -1      2235 5.11284E-01
 -1      2236 8.84983E-01
 -1      2237 7.70803E-01
 -1      2238 5.60430E-01
 -1      2239 8.90589E-01
 -1      2240 1.01035E+00
 -1      2241 9.68909E-01
 -1      2242 1.26601E+00
 -1      2243 1.03484E+00
 -1      2244 9.72747E+00
 -1      2245 1.00145E+01
 -1      2246 9.84111E-01
 -1      2247 8.03832E-01
 -1      2248 7.52137E-01
 -1      2249 7.47175E-01
 -1      2250 6.21578E-01
 -1      2251 6.44747E-01
 -1      2252 5.65310E-01
 -1      2253 5.06721E-01
 -1      2254 5.31823E-01
 -1      2255 4.57317E-01
 -1      2256 4.08667E-01
 -1      2257 4.26152E-01
 -1      2258 3.81272E-01
 -1      2259 3.38372E-01
 -1      2260 3.49353E-01
 -1      2261 3.13242E-01
 -1      2262 2.80413E-01
 -1      2263 2.96829E-01
 -1      2264 2.56626E-01
 -1      2265 2.28878E-01
 -1      2266 2.47913E-01
 -1      2267 2.09556E-01
 -1      2268 1.85697E-01
 -1      2269 2.04805E-01
 -1      2270 1.68783E-01
 -1      2271 1.51041E-01
 -1      2272 1.68570E-01
 -1      2273 1.36304E-01
 -1      2274 1.21572E-01
 -1      2275 1.36920E-01
 -1      2276 1.09144E-01
 -1      2277 9.67963E-02
 -1      2278 1.09755E-01
 -1      2279 8.72377E-02
 -1      2280 7.71643E-02
 -1      2281 8.77674E-02
 -1      2282 6.93136E-02
 -1      2283 6.12832E-02
 -1      2284 7.03581E-02
 -1      2285 5.46948E-02
 -1      2286 4.84087E-02
 -1      2287 5.59191E-02
 -1      2288 4.28685E-02
 -1      2289 3.79888E-02
 -1      2290 4.37905E-02
 -1      2291 3.42079E-02
 -1      2292 3.17744E-02
 -1      2293 3.44693E-02
 -1      2294 3.03500E-02
 -1      2295 3.09160E-02
 -1      2296 2.92641E-02
 -1      2297 3.36957E-02
 -1      2298 3.79927E-02
 -1      2299 3.06195E-02
 -1      2300 4.21706E-02
 -1      2301 4.86166E-02
 -1      2302 3.75771E-02
 -1      2303 5.78493E-02
 -1      2304 6.65771E-02
 -1      2305 5.09877E-02
 -1      2306 7.97830E-02
 -1      2307 9.16141E-02
 -1      2308 7.34264E-02
 -1      2309 1.07982E-01
 -1      2310 1.26648E-01
 -1      2311 1.03000E-01
 -1      2312 1.46391E-01
 -1      2313 1.68881E-01
 -1      2314 1.39112E-01
 -1      2315 1.91824E-01
 -1      2316 2.17621E-01
 -1      2317 1.81798E-01
 -1      2318 2.42965E-01
 -1      2319 2.70635E-01
 -1      2320 2.30084E-01
 -1      2321 2.96652E-01
 -1      2322 3.23439E-01
 -1      2323 2.81445E-01
 -1      2324 3.48502E-01
 -1      2325 3.74068E-01
 -1      2326 3.32525E-01
 -1      2327 3.98258E-01
 -1      2328 4.24740E-01
 -1      2329 3.81778E-01
 -1      2330 4.40107E-01
 -1      2331 4.70326E-01
 -1      2332 4.21335E-01
 -1      2333 4.83150E-01
 -1      2334 4.94306E-01
 -1      2335 4.49527E-01
 -1      2336 4.94657E-01
 -1      2337 4.71111E-01
 -1      2338 4.62701E-01
 -1      2339 4.87213E-01
 -1      2340 4.75657E-01
 -1      2341 4.79154E-01
 -1      2342 5.39761E-01
 -1      2343 5.56596E-01
 -1      2344 5.59360E-01
 -1      2345 6.40611E-01
 -1      2346 8.31113E-01
 -1      2347 7.07479E-01
 -1      2348 1.01768E+00
 -1      2349 1.31240E+00
 -1      2350 9.78057E-01
 -1      2351 1.53619E+00
 -1      2352 1.79835E+00
 -1      2353 1.38841E+00
 -1      2354 1.95307E+00
 -1      2355 2.21118E+00
 -1      2356 1.76691E+00
 -1      2357 2.31215E+00
 -1      2358 2.50171E+00
 -1      2359 2.02260E+00
 -1      2360 2.56472E+00
 -1      2361 2.57133E+00
 -1      2362 2.18658E+00
 -1      2363 2.45915E+00
 -1      2364 2.38054E+00
 -1      2365 2.13741E+00
 -1      2366 2.42891E+00
 -1      2367 2.38890E+00
 -1      2368 2.07360E+00
 -1      2369 2.27610E+00
 -1      2370 2.05419E+00
 -1      2371 2.00916E+00
 -1      2372 1.95768E+00
 -1      2373 1.65348E+00
 -1      2374 1.79983E+00
 -1      2375 5.44020E-01
 -1      2376 6.23495E-01
 -1      2377 4.36902E-01
 -1      2378 4.90461E-01
 -1      2379 4.90461E-01
 -1      2380 3.70163E-01
 -1      2381 4.03532E-01
 -1      2382 4.03532E-01
 -1      2383 3.06127E-01
 -1      2384 3.38145E-01
 -1      2385 3.38145E-01
 -1      2386 2.50399E-01
 -1      2387 2.78263E-01
 -1      2388 2.78263E-01
 -1      2389 2.05186E-01
 -1      2390 2.27981E-01
 -1      2391 2.27981E-01
 -1      2392 1.65513E-01
 -1      2393 1.85494E-01
 -1      2394 1.85871E-01
 -1      2395 1.31777E-01
 -1      2396 1.48694E-01
 -1      2397 1.49361E-01
 -1      2398 1.05257E-01
 -1      2399 1.19165E-01
 -1      2400 1.19930E-01
 -1      2401 8.37854E-02
 -1      2402 9.47831E-02
 -1      2403 9.68437E-02
 -1      2404 6.66358E-02
 -1      2405 7.50768E-02
 -1      2406 7.76617E-02
 -1      2407 5.33857E-02
 -1      2408 5.95379E-02
 -1      2409 6.18552E-02
 -1      2410 4.35753E-02
 -1      2411 4.76551E-02
 -1      2412 4.90267E-02
 -1      2413 3.68336E-02
 -1      2414 3.90344E-02
 -1      2415 3.87551E-02
 -1      2416 3.67134E-02
 -1      2417 3.57503E-02
 -1      2418 3.31308E-02
 -1      2419 4.10775E-02
 -1      2420 3.79769E-02
 -1      2421 3.33110E-02
 -1      2422 5.16170E-02
 -1      2423 4.59970E-02
 -1      2424 3.94941E-02
 -1      2425 6.87780E-02
 -1      2426 5.88203E-02
 -1      2427 5.16170E-02
 -1      2428 9.72180E-02
 -1      2429 8.39432E-02
 -1      2430 7.39855E-02
 -1      2431 1.35567E-01
 -1      2432 1.18332E-01
 -1      2433 1.10264E-01
 -1      2434 1.95509E-01
 -1      2435 1.64018E-01
 -1      2436 1.59829E-01
 -1      2437 2.77510E-01
 -1      2438 2.33397E-01
 -1      2439 2.26168E-01
 -1      2440 3.85919E-01
 -1      2441 3.27267E-01
 -1      2442 3.13813E-01
 -1      2443 5.26352E-01
 -1      2444 4.50185E-01
 -1      2445 4.27836E-01
 -1      2446 7.03530E-01
 -1      2447 6.07638E-01
 -1      2448 5.73389E-01
 -1      2449 9.19001E-01
 -1      2450 8.03486E-01
 -1      2451 7.54631E-01
 -1      2452 1.16706E+00
 -1      2453 1.03704E+00
 -1      2454 9.72631E-01
 -1      2455 1.42845E+00
 -1      2456 1.29810E+00
 -1      2457 1.22172E+00
 -1      2458 1.66758E+00
 -1      2459 1.55969E+00
 -1      2460 1.48401E+00
 -1      2461 1.87357E+00
 -1      2462 1.77660E+00
 -1      2463 1.72427E+00
 -1      2464 1.98823E+00
 -1      2465 1.97956E+00
 -1      2466 1.93928E+00
 -1      2467 2.19373E+00
 -1      2468 2.18744E+00
 -1      2469 2.24449E+00
 -1      2470 2.29594E+00
 -1      2471 2.41843E+00
 -1      2472 2.66842E+00
 -1      2473 2.69685E+00
 -1      2474 2.51430E+00
 -1      2475 3.11148E+00
 -1      2476 3.24421E+00
 -1      2477 2.58552E+00
 -1      2478 3.21851E+00
 -1      2479 6.36597E+00
 -1      2480 4.54597E+00
 -1      2481 4.40894E+00
 -1      2482 7.51572E+00
 -1      2483 9.55699E+00
 -1      2484 5.00183E+00
 -1      2485 5.47445E+00
 -1      2486 7.51572E+00
 -1      2487 3.89174E+00
 -1      2488 4.21047E+00
 -1      2489 4.68310E+00
 -1      2490 3.53294E+00
 -1      2491 3.89174E+00
 -1      2492 3.89174E+00
 -1      2493 2.74924E+00
 -1      2494 3.17415E+00
 -1      2495 3.53294E+00
 -1      2496 2.32434E+00
 -1      2497 1.37928E+01
 -1      2498 1.18957E+01
 -1      2499 1.22834E+01
 -1      2500 1.22834E+01
 -1      2501 1.64813E+01
 -1      2502 4.55992E+00
 -1      2503 4.20681E+00
 -1      2504 7.46349E+00
 -1      2505 6.68275E+00
 -1      2506 7.00336E+00
 -1      2507 9.23396E+00
 -1      2508 1.05362E+01
 -1      2509 1.32247E+01
 -1      2510 8.50312E+00
 -1      2511 9.23396E+00
 -1      2512 1.14774E+01
 -1      2513 5.29810E+00
 -1      2514 6.06357E+00
 -1      2515 9.03788E+00
 -1      2516 3.40026E+00
 -1      2517 3.94191E+00
 -1      2518 5.24214E+00
 -1      2519 2.67884E+00
 -1      2520 2.90709E+00
 -1      2521 3.39278E+00
 -1      2522 1.95383E+00
 -1      2523 2.34130E+00
 -1      2524 2.56206E+00
 -1      2525 1.31340E+00
 -1      2526 1.58798E+00
 -1      2527 1.85867E+00
 -1      2528 1.51360E+01
 -1      2529 2.15196E+01
 -1      2530 1.13398E+00
 -1      2531 3.09216E+01
 -1      2532 2.87495E+01
 -1      2533 7.02970E-01
 -1      2534 7.96780E-01
 -1      2535 6.23495E-01
 -1      2536 2.73000E+01
 -1      2537 3.01969E+01
 -1      2538 8.38124E+00
 -1      2539 1.23144E+01
 -1      2540 1.01579E+01
 -1      2541 1.67810E+00
 -1      2542 1.30289E+00
 -1      2543 8.39753E-01
 -1      2544 9.73616E-01
 -1      2545 2.34659E+01
 -1      2546 2.27803E+01
 -1      2547 2.34659E+01
 -1      2548 5.22528E-01
 -1      2549 5.44712E-01
 -1      2550 4.72151E-01
 -1      2551 4.44537E-01
 -1      2552 1.00881E+01
 -1      2553 1.04351E+01
 -1      2554 9.63056E+00
 -1      2555 7.68591E+00
 -1      2556 5.99212E+00
 -1      2557 9.71501E+00
 -1      2558 9.09214E+00
 -1      2559 5.90097E+00
 -1      2560 7.38809E+00
 -1      2561 8.44952E+00
 -1      2562 6.28527E+00
 -1      2563 1.47947E+01
 -1      2564 1.07945E+01
 -1      2565 7.99182E+00
 -1      2566 1.88703E+01
 -1      2567 1.68541E+01
 -1      2568 2.44623E+01
 -1      2569 2.32848E+01
 -1      2570 2.80886E+01
 -1      2571 2.57924E+01
 -1      2572 3.02321E+01
 -1      2573 3.02321E+01
 -1      2574 2.42583E+01
 -1      2575 2.72452E+01
 -1      2576 1.75950E+01
 -1      2577 1.96821E+01
 -1      2578 1.15347E+01
 -1      2579 1.56359E+01
 -1      2580 6.26295E+00
 -1      2581 9.04688E+00
 -1      2582 6.78577E+00
 -1      2583 5.48643E+00
 -1      2584 9.22586E+00
 -1      2585 7.97412E+00
 -1      2586 1.02281E+01
 -1      2587 1.03200E+01
 -1      2588 9.11577E+00
 -1      2589 9.55193E+00
 -1      2590 6.88847E+00
 -1      2591 8.18480E+00
 -1      2592 6.14991E+00
 -1      2593 5.76495E+00
 -1      2594 1.14975E+01
 -1      2595 7.92385E+00
 -1      2596 5.53658E+00
 -1      2597 1.99268E+01
 -1      2598 1.40799E+01
 -1      2599 2.60373E+01
 -1      2600 2.46575E+01
 -1      2601 1.62081E+00
 -1      2602 1.76410E+00
 -1      2603 1.32855E+00
 -1      2604 1.18751E+00
 -1      2605 6.37037E+00
 -1      2606 7.81707E+00
 -1      2607 8.98404E+00
 -1      2608 5.11054E-01
 -1      2609 6.50016E-01
 -1      2610 7.12133E-01
 -1      2611 7.96780E-01
 -1      2612 1.24409E+00
 -1      2613 5.82972E+00
 -1      2614 1.74973E+01
 -1      2615 9.89288E+00
 -1      2616 8.28912E+00
 -1      2617 7.63384E+00
 -1      2618 9.55699E+00
 -1      2619 2.74924E+00
 -1      2620 1.35584E+01
 -1      2621 3.35362E+00
 -1      2622 4.88616E+00
 -1      2623 1.31340E+00
 -1      2624 1.31340E+00
 -1      2625 1.49282E+00
 -1      2626 1.54823E+00
 -1      2627 6.94065E+00
 -1      2628 2.80247E+01
 -1      2629 9.68686E-01
 -1      2630 2.46575E+01
 -1      2631 8.54782E+00
 -1      2632 6.88673E-01
 -1      2633 7.67366E-01
 -1      2634 6.70385E-01
 -1      2635 4.87594E-01
 -1      2636 5.26253E+00
 -1      2637 8.12989E+00
 -1      2638 5.84740E+00
 -1      2639 5.43557E+00
 -1      2640 8.69996E+00
 -1      2641 1.31469E+01
 -1      2642 1.96821E+01
 -1      2643 2.72452E+01
 -1      2644 2.80886E+01
 -1      2645 2.46150E+01
 -1      2646 1.23963E+01
 -1      2647 6.77214E+00
 -1      2648 4.02734E+00
 -1      2649 7.21761E+00
 -1      2650 1.53288E+01
 -1      2651 6.85771E+00
 -1      2652 1.88703E+01
 -1      2653 1.59807E+00
 -1      2654 4.22840E-01
 -1      2655 4.08028E-01
 -1      2656 4.00164E-01
 -1      2657 3.87183E-01
 -1      2658 3.50636E-01
 -1      2659 4.36662E-01
 -1      2660 4.36662E-01
 -1      2661 4.73878E-01
 -1      2662 4.24732E-01
 -1      2663 3.50110E-01
 -1      2664 7.17171E-01
 -1      2665 7.95491E-01
 -1      2666 8.28403E-01
 -1      2667 3.49255E+00
 -1      2668 4.61607E+00
 -1      2669 5.48179E-01
 -1      2670 4.91522E-01
 -1      2671 4.85729E-01
 -1      2672 4.29462E-01
 -1      2673 3.89161E-01
 -1      2674 4.08974E-01
 -1      2675 3.59570E-01
 -1      2676 3.62880E-01
 -1      2677 3.34733E-01
 -1      2678 3.07338E-01
 -1      2679 3.17554E-01
 -1      2680 2.82468E-01
 -1      2681 2.57339E-01
 -1      2682 2.67848E-01
 -1      2683 2.41735E-01
 -1      2684 2.17949E-01
 -1      2685 2.27374E-01
 -1      2686 2.01690E-01
 -1      2687 1.82368E-01
 -1      2688 1.95512E-01
 -1      2689 1.66870E-01
 -1      2690 1.49957E-01
 -1      2691 1.63755E-01
 -1      2692 1.35995E-01
 -1      2693 1.21259E-01
 -1      2694 1.34295E-01
 -1      2695 1.09614E-01
 -1      2696 9.71850E-02
 -1      2697 1.08689E-01
 -1      2698 8.77674E-02
 -1      2699 7.82088E-02
 -1      2700 8.76264E-02
 -1      2701 7.03581E-02
 -1      2702 6.25075E-02
 -1      2703 7.03581E-02
 -1      2704 5.59191E-02
 -1      2705 4.93307E-02
 -1      2706 5.59191E-02
 -1      2707 4.37905E-02
 -1      2708 3.82502E-02
 -1      2709 4.37905E-02
 -1      2710 3.38048E-02
 -1      2711 3.00239E-02
 -1      2712 3.38048E-02
 -1      2713 2.63753E-02
 -1      2714 2.49509E-02
 -1      2715 2.57107E-02
 -1      2716 2.53147E-02
 -1      2717 2.80945E-02
 -1      2718 2.24259E-02
 -1      2719 3.16702E-02
 -1      2720 3.58481E-02
 -1      2721 2.63655E-02
 -1      2722 4.48371E-02
 -1      2723 5.40699E-02
 -1      2724 3.89302E-02
 -1      2725 6.52399E-02
 -1      2726 7.84457E-02
 -1      2727 5.90892E-02
 -1      2728 9.22887E-02
 -1      2729 1.08657E-01
 -1      2730 8.41022E-02
 -1      2731 1.25588E-01
 -1      2732 1.45331E-01
 -1      2733 1.14876E-01
 -1      2734 1.65597E-01
 -1      2735 1.88540E-01
 -1      2736 1.52073E-01
 -1      2737 2.12085E-01
 -1      2738 2.37429E-01
 -1      2739 1.95885E-01
 -1      2740 2.63700E-01
 -1      2741 2.89717E-01
 -1      2742 2.45701E-01
 -1      2743 3.18872E-01
 -1      2744 3.43935E-01
 -1      2745 3.01127E-01
 -1      2746 3.73281E-01
 -1      2747 3.97471E-01
 -1      2748 3.59628E-01
 -1      2749 4.21335E-01
 -1      2750 4.36703E-01
 -1      2751 4.12838E-01
 -1      2752 4.70081E-01
 -1      2753 4.82905E-01
 -1      2754 4.70081E-01
 -1      2755 5.17858E-01
 -1      2756 5.18208E-01
 -1      2757 5.38412E-01
 -1      2758 5.45323E-01
 -1      2759 5.61426E-01
 -1      2760 6.00480E-01
 -1      2761 6.31156E-01
 -1      2762 6.95260E-01
 -1      2763 6.97326E-01
 -1      2764 8.21616E-01
 -1      2765 9.05631E-01
 -1      2766 8.93412E-01
 -1      2767 9.88026E-01
 -1      2768 1.17459E+00
 -1      2769 1.10216E+00
 -1      2770 1.36270E+00
 -1      2771 1.58648E+00
 -1      2772 1.37267E+00
 -1      2773 1.74457E+00
 -1      2774 1.89929E+00
 -1      2775 1.71886E+00
 -1      2776 2.00431E+00
 -1      2777 2.10529E+00
 -1      2778 1.98198E+00
 -1      2779 2.41426E+00
 -1      2780 2.47727E+00
 -1      2781 2.39597E+00
 -1      2782 2.46453E+00
 -1      2783 2.35235E+00
 -1      2784 2.69220E+00
 -1      2785 2.35863E+00
 -1      2786 2.40700E+00
 -1      2787 2.68575E+00
 -1      2788 2.16743E+00
 -1      2789 2.05462E+00
 -1      2790 2.45246E+00
 -1      2791 2.04325E+00
 -1      2792 1.94674E+00
 -1      2793 2.20152E+00
 -1      2794 3.48480E-01
 -1      2795 3.81849E-01
 -1      2796 5.69065E+00
 -1      2797 6.62162E+00
 -1      2798 5.29446E+00
 -1      2799 4.16222E-01
 -1      2800 4.69781E-01
 -1      2801 3.61169E-01
 -1      2802 2.41362E-01
 -1      2803 2.69226E-01
 -1      2804 2.00267E-01
 -1      2805 2.22685E-01
 -1      2806 2.13648E-01
 -1      2807 1.63536E-01
 -1      2808 1.83228E-01
 -1      2809 1.77932E-01
 -1      2810 1.32730E-01
 -1      2811 1.49549E-01
 -1      2812 1.46906E-01
 -1      2813 1.07712E-01
 -1      2814 1.20324E-01
 -1      2815 1.20512E-01
 -1      2816 8.66133E-02
 -1      2817 9.70868E-02
 -1      2818 9.74812E-02
 -1      2819 6.90404E-02
 -1      2820 7.77489E-02
 -1      2821 7.79921E-02
 -1      2822 5.47573E-02
 -1      2823 6.18552E-02
 -1      2824 6.19425E-02
 -1      2825 4.32960E-02
 -1      2826 4.90267E-02
 -1      2827 4.90267E-02
 -1      2828 3.40984E-02
 -1      2829 3.86394E-02
 -1      2830 3.86394E-02
 -1      2831 2.99714E-02
 -1      2832 3.10547E-02
 -1      2833 3.09390E-02
 -1      2834 3.06363E-02
 -1      2835 2.93727E-02
 -1      2836 2.72967E-02
 -1      2837 3.86422E-02
 -1      2838 3.37226E-02
 -1      2839 2.97843E-02
 -1      2840 5.40192E-02
 -1      2841 4.68159E-02
 -1      2842 4.10443E-02
 -1      2843 8.22275E-02
 -1      2844 6.70623E-02
 -1      2845 6.22611E-02
 -1      2846 1.20565E-01
 -1      2847 9.94512E-02
 -1      2848 9.25279E-02
 -1      2849 1.71714E-01
 -1      2850 1.43263E-01
 -1      2851 1.32450E-01
 -1      2852 2.39326E-01
 -1      2853 2.01438E-01
 -1      2854 1.84872E-01
 -1      2855 3.27681E-01
 -1      2856 2.77924E-01
 -1      2857 2.53194E-01
 -1      2858 4.41599E-01
 -1      2859 3.77333E-01
 -1      2860 3.41444E-01
 -1      2861 5.86140E-01
 -1      2862 5.04853E-01
 -1      2863 4.54350E-01
 -1      2864 7.65912E-01
 -1      2865 6.65957E-01
 -1      2866 5.97421E-01
 -1      2867 9.83786E-01
 -1      2868 8.65742E-01
 -1      2869 7.77068E-01
 -1      2870 1.23959E+00
 -1      2871 1.10855E+00
 -1      2872 1.00166E+00
 -1      2873 1.52755E+00
 -1      2874 1.39631E+00
 -1      2875 1.28314E+00
 -1      2876 1.81885E+00
 -1      2877 1.70984E+00
 -1      2878 1.62214E+00
 -1      2879 2.14728E+00
 -1      2880 2.04128E+00
 -1      2881 2.02686E+00
 -1      2882 2.58396E+00
 -1      2883 2.38474E+00
 -1      2884 2.48675E+00
 -1      2885 3.14107E+00
 -1      2886 2.91636E+00
 -1      2887 3.05661E+00
 -1      2888 4.18035E+00
 -1      2889 3.96199E+00
 -1      2890 4.20994E+00
 -1      2891 4.53824E+00
 -1      2892 4.64957E+00
 -1      2893 5.50008E+00
 -1      2894 9.55699E+00
 -1      2895 6.86920E+00
 -1      2896 8.91047E+00
 -1      2897 1.54851E+01
 -1      2898 1.10529E+01
 -1      2899 2.01134E+01
 -1      2900 2.18607E+01
 -1      2901 9.53677E+00
 -1      2902 1.19763E+01
 -1      2903 4.75828E+00
 -1      2904 6.11446E+00
 -1      2905 3.18703E+00
 -1      2906 3.68020E+00
 -1      2907 4.55252E+00
 -1      2908 2.62523E+00
 -1      2909 2.96277E+00
 -1      2910 3.25020E+00
 -1      2911 9.05291E+00
 -1      2912 6.47056E+00
 -1      2913 6.13526E-01
 -1      2914 5.76644E-01
 -1      2915 4.07276E-01
 -1      2916 1.48299E+01
 -1      2917 5.46721E+00
 -1      2918 6.03138E+00
 -1      2919 5.03664E-01
 -1      2920 5.83139E-01
 -1      2921 4.29425E-01
 -1      2922 3.84055E+00
 -1      2923 3.84055E+00
 -1      2924 2.89197E-01
 -1      2925 3.21215E-01
 -1      2926 2.99532E-01
 -1      2927 2.52296E-01
 -1      2928 5.97439E-01
 -1      2929 5.46706E-01
 -1      2930 3.93481E-01
 -1      2931 3.71213E-01
 -1      2932 4.36662E-01
 -1      2933 4.24610E-01
 -1      2934 3.60270E-01
 -1      2935 3.62040E-01
 -1      2936 4.24099E-01
 -1      2937 4.36214E-01
 -1      2938 6.08822E-01
 -1      2939 7.02631E-01
 -1      2940 5.29213E-01
 -1      2941 4.88990E-01
 -1      2942 1.75901E+01
 -1      2943 1.31756E+01
 -1      2944 7.29610E+00
 -1      2945 6.20196E+00
 -1      2946 8.15306E+00
 -1      2947 5.80807E+00
 -1      2948 2.36463E+00
 -1      2949 2.25938E+00
 -1      2950 2.60805E+00
 -1      2951 1.23914E+01
 -1      2952 1.03319E+01
 -1      2953 8.14817E+00
 -1      2954 1.11112E+01
 -1      2955 2.12655E+01
 -1      2956 1.99353E+01
 -1      2957 1.42406E+01
 -1      2958 2.20664E+01
 -1      2959 1.99229E+01
 -1      2960 2.08744E+01
 -1      2961 2.38613E+01
 -1      2962 1.35776E+01
 -1      2963 1.81538E+01
 -1      2964 1.05282E+01
 -1      2965 1.24872E+01
 -1      2966 6.42114E+00
 -1      2967 8.90901E+00
 -1      2968 4.29505E+00
 -1      2969 5.07157E+00
 -1      2970 5.27202E+00
 -1      2971 4.08366E+00
 -1      2972 1.48299E+01
 -1      2973 2.11359E+01
 -1      2974 2.25938E+00
 -1      2975 5.39249E+00
 -1      2976 3.61855E+00
 -1      2977 3.34845E+00
 -1      2978 4.55252E+00
 -1      2979 7.37245E+00
 -1      2980 8.04865E+00
 -1      2981 6.12244E+00
 -1      2982 4.53807E+00
 -1      2983 4.91632E+00
 -1      2984 4.11278E+00
 -1      2985 4.52901E+00
 -1      2986 3.22725E+00
 -1      2987 4.49708E+00
 -1      2988 2.00028E+01
 -1      2989 9.43663E+00
 -1      2990 7.50995E+00
 -1      2991 5.38712E+00
 -1      2992 6.61501E+00
 -1      2993 4.36214E-01
 -1      2994 4.36214E-01
 -1      2995 3.61375E-01
 -1      2996 3.42476E-01
 -1      2997 3.86887E-01
 -1      2998 3.99830E-01
 -1      2999 1.52432E+01
 -1      3000 5.76664E-01
 -1      3001 2.26453E+01
 -1      3002 5.31008E+00
 -1      3003 4.07324E-01
 -1      3004 4.21995E-01
 -1      3005 3.59271E-01
 -1      3006 3.49674E-01
 -1      3007 4.17556E+00
 -1      3008 9.63056E+00
 -1      3009 5.43718E+00
 -1      3010 6.83193E+00
 -1      3011 4.64582E+00
 -1      3012 3.48175E+00
 -1      3013 3.84055E+00
 -1      3014 2.62523E+00
 -1      3015 3.02595E+00
 -1      3016 4.43822E+00
 -1      3017 4.19369E+00
 -1      3018 3.82968E+00
 -1      3019 3.61830E+00
 -1      3020 5.28061E+00
 -1      3021 8.24940E+00
 -1      3022 1.09590E+01
 -1      3023 6.12072E+00
 -1      3024 3.78936E+00
 -1      3025 4.29703E+00
 -1      3026 4.40966E-01
 -1      3027 5.42569E+00
 -1      3028 4.51229E+00
 -1      3029 4.33494E+00
 -1      3030 1.47699E+01
 -1      3031 2.20664E+01
 -1      3032 1.39007E+01
 -1      3033 1.56956E+01
 -1      3034 1.53288E+01
 -1      3035 4.84153E+00
 -1      3036 2.89515E-01
 -1      3037 3.01445E-01
 -1      3038 4.94429E+00
 -1      3039 5.69512E+00
 -1      3040 3.19041E-01
 -1      3041 2.98553E-01
 -1      3042 2.95121E-01
 -1      3043 2.70284E-01
 -1      3044 2.51282E-01
 -1      3045 2.59376E-01
 -1      3046 2.34506E-01
 -1      3047 2.36943E-01
 -1      3048 2.20321E-01
 -1      3049 2.04717E-01
 -1      3050 2.11849E-01
 -1      3051 1.91431E-01
 -1      3052 1.75173E-01
 -1      3053 1.84378E-01
 -1      3054 1.64572E-01
 -1      3055 1.49074E-01
 -1      3056 1.60491E-01
 -1      3057 1.37937E-01
 -1      3058 1.23975E-01
 -1      3059 1.38754E-01
 -1      3060 1.13253E-01
 -1      3061 1.01608E-01
 -1      3062 1.16894E-01
 -1      3063 9.18199E-02
 -1      3064 8.24023E-02
 -1      3065 9.63838E-02
 -1      3066 7.37620E-02
 -1      3067 6.59114E-02
 -1      3068 7.79556E-02
 -1      3069 5.84273E-02
 -1      3070 5.18390E-02
 -1      3071 6.18312E-02
 -1      3072 4.53802E-02
 -1      3073 3.98399E-02
 -1      3074 4.78884E-02
 -1      3075 3.41827E-02
 -1      3076 2.97372E-02
 -1      3077 3.57724E-02
 -1      3078 2.45866E-02
 -1      3079 2.09380E-02
 -1      3080 2.49645E-02
 -1      3081 1.81528E-02
 -1      3082 1.85166E-02
 -1      3083 1.70287E-02
 -1      3084 2.08007E-02
 -1      3085 2.43765E-02
 -1      3086 1.65276E-02
 -1      3087 3.16059E-02
 -1      3088 4.05949E-02
 -1      3089 2.60411E-02
 -1      3090 4.96527E-02
 -1      3091 6.08227E-02
 -1      3092 4.23284E-02
 -1      3093 7.24422E-02
 -1      3094 8.62852E-02
 -1      3095 6.30057E-02
 -1      3096 1.00734E-01
 -1      3097 1.17665E-01
 -1      3098 8.90739E-02
 -1      3099 1.34858E-01
 -1      3100 1.55124E-01
 -1      3101 1.20716E-01
 -1      3102 1.74991E-01
 -1      3103 1.98536E-01
 -1      3104 1.57775E-01
 -1      3105 2.25104E-01
 -1      3106 2.51375E-01
 -1      3107 2.04210E-01
 -1      3108 2.82576E-01
 -1      3109 3.11731E-01
 -1      3110 2.61979E-01
 -1      3111 3.46887E-01
 -1      3112 3.76233E-01
 -1      3113 3.28337E-01
 -1      3114 4.13417E-01
 -1      3115 4.37281E-01
 -1      3116 4.00676E-01
 -1      3117 4.73464E-01
 -1      3118 5.06843E-01
 -1      3119 4.74042E-01
 -1      3120 5.61442E-01
 -1      3121 5.96394E-01
 -1      3122 5.64825E-01
 -1      3123 6.68573E-01
 -1      3124 6.95688E-01
 -1      3125 6.91603E-01
 -1      3126 7.72197E-01
 -1      3127 8.41928E-01
 -1      3128 8.40291E-01
 -1      3129 9.22864E-01
 -1      3130 1.04922E+00
 -1      3131 9.97736E-01
 -1      3132 1.26485E+00
 -1      3133 1.34724E+00
 -1      3134 1.29430E+00
 -1      3135 1.51939E+00
 -1      3136 1.70750E+00
 -1      3137 1.68207E+00
 -1      3138 1.71886E+00
 -1      3139 1.87695E+00
 -1      3140 1.86559E+00
 -1      3141 2.39601E+00
 -1      3142 2.50104E+00
 -1      3143 2.39601E+00
 -1      3144 2.90767E+00
 -1      3145 3.21663E+00
 -1      3146 3.32170E+00
 -1      3147 2.83249E+00
 -1      3148 2.81975E+00
 -1      3149 3.34418E+00
 -1      3150 2.94459E+00
 -1      3151 2.70502E+00
 -1      3152 2.61942E+00
 -1      3153 2.60805E+00
 -1      3154 3.11155E+00
 -1      3155 3.06297E-01
 -1      3156 3.40670E-01
 -1      3157 1.61594E-01
 -1      3158 1.78633E-01
 -1      3159 1.91485E-01
 -1      3160 2.10162E-01
 -1      3161 1.75146E-01
 -1      3162 1.10274E-01
 -1      3163 1.22681E-01
 -1      3164 8.89070E-02
 -1      3165 9.95317E-02
 -1      3166 1.01700E-01
 -1      3167 7.07383E-02
 -1      3168 7.96027E-02
 -1      3169 8.16532E-02
 -1      3170 5.56349E-02
 -1      3171 6.28201E-02
 -1      3172 6.44308E-02
 -1      3173 4.31919E-02
 -1      3174 4.89226E-02
 -1      3175 4.98002E-02
 -1      3176 3.35699E-02
 -1      3177 3.82266E-02
 -1      3178 3.81225E-02
 -1      3179 2.63396E-02
 -1      3180 2.93833E-02
 -1      3181 2.89705E-02
 -1      3182 2.17599E-02
 -1      3183 2.23586E-02
 -1      3184 2.08028E-02
 -1      3185 2.63795E-02
 -1      3186 2.32932E-02
 -1      3187 1.83551E-02
 -1      3188 4.22263E-02
 -1      3189 3.40525E-02
 -1      3190 2.75614E-02
 -1      3191 6.53133E-02
 -1      3192 5.22703E-02
 -1      3193 4.52785E-02
 -1      3194 9.53531E-02
 -1      3195 7.81294E-02
 -1      3196 6.81385E-02
 -1      3197 1.34484E-01
 -1      3198 1.11786E-01
 -1      3199 9.73873E-02
 -1      3200 1.86935E-01
 -1      3201 1.57211E-01
 -1      3202 1.36547E-01
 -1      3203 2.58847E-01
 -1      3204 2.20249E-01
 -1      3205 1.92589E-01
 -1      3206 3.53133E-01
 -1      3207 3.03481E-01
 -1      3208 2.70536E-01
 -1      3209 4.75329E-01
 -1      3210 4.12075E-01
 -1      3211 3.74113E-01
 -1      3212 6.32135E-01
 -1      3213 5.52318E-01
 -1      3214 5.10044E-01
 -1      3215 8.31169E-01
 -1      3216 7.31340E-01
 -1      3217 6.86237E-01
 -1      3218 1.08146E+00
 -1      3219 9.56697E-01
 -1      3220 9.10969E-01
 -1      3221 1.39263E+00
 -1      3222 1.23591E+00
 -1      3223 1.19095E+00
 -1      3224 1.76774E+00
 -1      3225 1.58546E+00
 -1      3226 1.53823E+00
 -1      3227 2.23977E+00
 -1      3228 2.01734E+00
 -1      3229 1.98066E+00
 -1      3230 3.11511E+00
 -1      3231 2.87765E+00
 -1      3232 2.86813E+00
 -1      3233 4.60878E+00
 -1      3234 4.27637E+00
 -1      3235 4.66727E+00
 -1      3236 6.59509E+00
 -1      3237 5.77417E+00
 -1      3238 6.99392E+00
 -1      3239 7.67895E+00
 -1      3240 3.22245E+00
 -1      3241 4.29703E+00
 -1      3242 3.86971E+00
 -1      3243 4.65831E+00
 -1      3244 1.07004E+01
 -1      3245 1.34210E+01
 -1      3246 4.54825E+00
 -1      3247 3.61830E+00
 -1      3248 9.05291E+00
 -1      3249 3.47445E+00
 -1      3250 3.50361E-01
 -1      3251 3.84244E-01
 -1      3252 2.95489E-01
 -1      3253 4.05784E-01
 -1      3254 3.82325E-01
 -1      3255 3.25466E-01
 -1      3256 3.30945E-01
 -1      3257 1.19991E+01
 -1      3258 1.33416E+01
 -1      3259 2.97537E+00
 -1      3260 3.19962E+00
 -1      3261 3.75821E+00
 -1      3262 1.26231E+01
 -1      3263 1.02779E+01
 -1      3264 1.34718E-01
 -1      3265 1.48706E-01
 -1      3266 1.49406E-01
 -1      3267 1.24481E-01
 -1      3268 3.13569E-01
 -1      3269 3.07775E-01
 -1      3270 2.43448E-01
 -1      3271 4.12793E-01
 -1      3272 3.10006E-01
 -1      3273 2.61341E-01
 -1      3274 3.98253E-01
 -1      3275 1.24752E+01
 -1      3276 3.23538E-01
 -1      3277 3.15674E-01
 -1      3278 5.61437E+00
 -1      3279 4.86181E+00
 -1      3280 8.57063E+00
 -1      3281 9.66100E+00
 -1      3282 5.95755E+00
 -1      3283 7.57676E+00
 -1      3284 3.86164E+00
 -1      3285 5.21121E+00
 -1      3286 3.70702E+00
 -1      3287 3.12177E-01
 -1      3288 3.11881E-01
 -1      3289 2.85079E-01
 -1      3290 4.43621E+00
 -1      3291 2.60480E-01
 -1      3292 3.21075E-01
 -1      3293 3.21075E-01
 -1      3294 3.32473E-01
 -1      3295 3.33945E-01
 -1      3296 2.52560E-01
 -1      3297 3.46262E-01
 -1      3298 2.70251E+00
 -1      3299 2.70879E+00
 -1      3300 2.90006E-01
 -1      3301 2.69506E-01
 -1      3302 2.62741E-01
 -1      3303 2.96135E+00
 -1      3304 2.02211E-01
 -1      3305 2.24375E-01
 -1      3306 2.44345E-01
 -1      3307 9.24317E+00
 -1      3308 3.07362E+00
 -1      3309 3.07362E+00
 -1      3310 4.04189E+00
 -1      3311 8.31205E+00
 -1      3312 3.22462E-01
 -1      3313 3.24566E-01
 -1      3314 3.02595E+00
 -1      3315 3.02595E+00
 -1      3316 4.25791E+00
 -1      3317 3.24566E-01
 -1      3318 3.24566E-01
 -1      3319 2.87758E-01
 -1      3320 3.25308E-01
 -1      3321 3.23538E-01
 -1      3322 2.88576E-01
 -1      3323 2.84343E-01
 -1      3324 2.97537E+00
 -1      3325 9.37896E+00
 -1      3326 3.19962E+00
 -1      3327 1.15597E+01
 -1      3328 9.65810E+00
 -1      3329 1.15597E+01
 -1      3330 3.67693E-01
 -1      3331 3.93376E-01
 -1      3332 2.76956E-01
 -1      3333 2.88630E-01
 -1      3334 3.76028E+00
 -1      3335 4.53857E+00
 -1      3336 1.00274E+01
 -1      3337 1.24054E+01
 -1      3338 1.06105E+01
 -1      3339 8.33588E+00
 -1      3340 7.41827E+00
 -1      3341 6.12029E+00
 -1      3342 5.12643E+00
 -1      3343 2.84279E+00
 -1      3344 8.40989E+00
 -1      3345 8.01622E+00
 -1      3346 7.76565E+00
 -1      3347 6.60026E+00
 -1      3348 3.14881E-01
 -1      3349 3.22374E-01
 -1      3350 2.87669E-01
 -1      3351 4.25791E+00
 -1      3352 2.14934E-01
 -1      3353 2.04025E-01
 -1      3354 2.00383E-01
 -1      3355 1.86198E-01
 -1      3356 1.78374E-01
 -1      3357 1.78337E-01
 -1      3358 1.65051E-01
 -1      3359 1.66871E-01
 -1      3360 1.55227E-01
 -1      3361 1.44626E-01
 -1      3362 1.49185E-01
 -1      3363 1.36358E-01
 -1      3364 1.25221E-01
 -1      3365 1.31093E-01
 -1      3366 1.17012E-01
 -1      3367 1.06289E-01
 -1      3368 1.14616E-01
 -1      3369 9.79914E-02
 -1      3370 8.82034E-02
 -1      3371 9.81087E-02
 -1      3372 8.03556E-02
 -1      3373 7.17153E-02
 -1      3374 8.19631E-02
 -1      3375 6.45872E-02
 -1      3376 5.71032E-02
 -1      3377 6.69872E-02
 -1      3378 5.07716E-02
 -1      3379 4.43128E-02
 -1      3380 5.35276E-02
 -1      3381 3.87212E-02
 -1      3382 3.30639E-02
 -1      3383 4.16043E-02
 -1      3384 2.80567E-02
 -1      3385 2.29061E-02
 -1      3386 3.10055E-02
 -1      3387 2.07883E-02
 -1      3388 1.80031E-02
 -1      3389 2.38805E-02
 -1      3390 1.89397E-02
 -1      3391 2.12238E-02
 -1      3392 2.26993E-02
 -1      3393 2.55585E-02
 -1      3394 3.27880E-02
 -1      3395 2.79706E-02
 -1      3396 4.16403E-02
 -1      3397 5.06982E-02
 -1      3398 4.11578E-02
 -1      3399 6.20551E-02
 -1      3400 7.36746E-02
 -1      3401 6.13670E-02
 -1      3402 8.77940E-02
 -1      3403 1.02243E-01
 -1      3404 8.68434E-02
 -1      3405 1.19486E-01
 -1      3406 1.36680E-01
 -1      3407 1.18207E-01
 -1      3408 1.57209E-01
 -1      3409 1.77076E-01
 -1      3410 1.55980E-01
 -1      3411 2.00687E-01
 -1      3412 2.27255E-01
 -1      3413 2.00121E-01
 -1      3414 2.53129E-01
 -1      3415 2.84331E-01
 -1      3416 2.49607E-01
 -1      3417 3.13083E-01
 -1      3418 3.48239E-01
 -1      3419 3.04233E-01
 -1      3420 3.85369E-01
 -1      3421 4.22552E-01
 -1      3422 3.70115E-01
 -1      3423 4.76986E-01
 -1      3424 5.13170E-01
 -1      3425 4.61679E-01
 -1      3426 5.81987E-01
 -1      3427 6.36586E-01
 -1      3428 5.84931E-01
 -1      3429 7.19166E-01
 -1      3430 7.91345E-01
 -1      3431 7.36327E-01
 -1      3432 8.98313E-01
 -1      3433 9.74822E-01
 -1      3434 9.25876E-01
 -1      3435 1.13082E+00
 -1      3436 1.21175E+00
 -1      3437 1.18884E+00
 -1      3438 1.39645E+00
 -1      3439 1.61207E+00
 -1      3440 1.52953E+00
 -1      3441 2.23497E+00
 -1      3442 2.40712E+00
 -1      3443 2.33712E+00
 -1      3444 1.85422E+00
 -1      3445 1.86559E+00
 -1      3446 2.40712E+00
 -1      3447 3.32170E+00
 -1      3448 3.72833E+00
 -1      3449 1.87663E-01
 -1      3450 1.98928E-01
 -1      3451 7.60069E-02
 -1      3452 8.53112E-02
 -1      3453 9.39842E-02
 -1      3454 1.04727E-01
 -1      3455 8.83379E-02
 -1      3456 4.67384E-02
 -1      3457 5.34508E-02
 -1      3458 3.57760E-02
 -1      3459 4.07414E-02
 -1      3460 4.43919E-02
 -1      3461 2.62516E-02
 -1      3462 3.04382E-02
 -1      3463 3.30571E-02
 -1      3464 1.75773E-02
 -1      3465 2.15583E-02
 -1      3466 2.30261E-02
 -1      3467 1.99090E-02
 -1      3468 1.83758E-02
 -1      3469 1.91312E-02
 -1      3470 3.21818E-02
 -1      3471 2.45087E-02
 -1      3472 2.45294E-02
 -1      3473 5.14598E-02
 -1      3474 4.14158E-02
 -1      3475 3.83631E-02
 -1      3476 7.63426E-02
 -1      3477 6.35265E-02
 -1      3478 5.96638E-02
 -1      3479 1.09599E-01
 -1      3480 9.31659E-02
 -1      3481 8.85539E-02
 -1      3482 1.54632E-01
 -1      3483 1.31904E-01
 -1      3484 1.27683E-01
 -1      3485 2.17418E-01
 -1      3486 1.84105E-01
 -1      3487 1.79461E-01
 -1      3488 3.00837E-01
 -1      3489 2.56203E-01
 -1      3490 2.47719E-01
 -1      3491 4.10654E-01
 -1      3492 3.51711E-01
 -1      3493 3.37378E-01
 -1      3494 5.54298E-01
 -1      3495 4.77310E-01
 -1      3496 4.54909E-01
 -1      3497 7.41030E-01
 -1      3498 6.41825E-01
 -1      3499 6.09092E-01
 -1      3500 9.82295E-01
 -1      3501 8.56767E-01
 -1      3502 8.12356E-01
 -1      3503 1.29190E+00
 -1      3504 1.13745E+00
 -1      3505 1.08325E+00
 -1      3506 1.69741E+00
 -1      3507 1.50458E+00
 -1      3508 1.45109E+00
 -1      3509 2.23026E+00
 -1      3510 1.98066E+00
 -1      3511 1.94701E+00
 -1      3512 3.38171E+00
 -1      3513 2.74384E+00
 -1      3514 2.74384E+00
 -1      3515 5.17220E+00
 -1      3516 4.01094E+00
 -1      3517 3.88664E+00
 -1      3518 5.94393E+00
 -1      3519 3.12420E+00
 -1      3520 3.65774E+00
 -1      3521 3.34418E+00
 -1      3522 2.91508E+00
 -1      3523 3.32170E+00
 -1      3524 3.35366E+00
 -1      3525 2.39601E+00
 -1      3526 3.54050E+00
 -1      3527 8.73473E+00
 -1      3528 3.72833E+00
 -1      3529 2.46665E-01
 -1      3530 2.56357E-01
 -1      3531 6.02973E-02
 -1      3532 6.82155E-02
 -1      3533 7.18735E-02
 -1      3534 5.72356E-02
 -1      3535 3.62125E+00
 -1      3536 3.85706E+00
 -1      3537 1.56924E-01
 -1      3538 1.69776E-01
 -1      3539 2.86726E-01
 -1      3540 3.20980E+00
 -1      3541 2.14576E-01
 -1      3542 2.11144E-01
 -1      3543 1.78227E-01
 -1      3544 6.55752E+00
 -1      3545 7.59692E+00
 -1      3546 3.37613E+00
 -1      3547 4.12247E+00
 -1      3548 2.02968E-01
 -1      3549 2.22597E-01
 -1      3550 2.84581E-01
 -1      3551 5.57556E+00
 -1      3552 7.33009E+00
 -1      3553 6.31452E+00
 -1      3554 2.34819E-01
 -1      3555 2.25329E-01
 -1      3556 1.80809E-01
 -1      3557 2.45706E-01
 -1      3558 2.38465E+00
 -1      3559 2.93755E+00
 -1      3560 1.58790E-01
 -1      3561 3.72833E+00
 -1      3562 2.31084E-01
 -1      3563 2.47375E-01
 -1      3564 2.08243E-01
 -1      3565 1.81606E-01
 -1      3566 1.95819E-01
 -1      3567 1.63383E-01
 -1      3568 1.06317E-01
 -1      3569 1.14033E-01
 -1      3570 1.26071E-01
 -1      3571 2.53173E-01
 -1      3572 2.53261E-01
 -1      3573 2.52975E-01
 -1      3574 2.52975E-01
 -1      3575 2.18620E-01
 -1      3576 2.53116E-01
 -1      3577 3.17156E-01
 -1      3578 1.94225E-01
 -1      3579 2.43048E-01
 -1      3580 1.00435E+01
 -1      3581 7.70252E+00
 -1      3582 6.75331E+00
 -1      3583 2.26498E-01
 -1      3584 2.52975E-01
 -1      3585 2.49478E-01
 -1      3586 2.17375E-01
 -1      3587 1.35473E-01
 -1      3588 1.48361E-01
 -1      3589 1.42991E-01
 -1      3590 1.25026E-01
 -1      3591 5.66528E+00
 -1      3592 4.95015E+00
 -1      3593 4.51293E+00
 -1      3594 4.67142E+00
 -1      3595 4.51293E+00
 -1      3596 3.50897E+00
 -1      3597 8.62646E+00
 -1      3598 7.26372E+00
 -1      3599 5.83566E+00
 -1      3600 8.18709E+00
 -1      3601 2.50173E-01
 -1      3602 2.53173E-01
 -1      3603 2.18765E-01
 -1      3604 2.18070E-01
 -1      3605 1.58840E-01
 -1      3606 1.55198E-01
 -1      3607 1.54871E-01
 -1      3608 1.47010E-01
 -1      3609 1.35338E-01
 -1      3610 1.42602E-01
 -1      3611 1.32778E-01
 -1      3612 1.30603E-01
 -1      3613 1.26153E-01
 -1      3614 1.17885E-01
 -1      3615 1.19570E-01
 -1      3616 1.10318E-01
 -1      3617 1.02108E-01
 -1      3618 1.05377E-01
 -1      3619 9.58562E-02
 -1      3620 8.75585E-02
 -1      3621 9.15577E-02
 -1      3622 8.11534E-02
 -1      3623 7.33056E-02
 -1      3624 7.89010E-02
 -1      3625 6.71349E-02
 -1      3626 6.00068E-02
 -1      3627 6.63252E-02
 -1      3628 5.43419E-02
 -1      3629 4.80103E-02
 -1      3630 5.44896E-02
 -1      3631 4.29498E-02
 -1      3632 3.73582E-02
 -1      3633 4.37642E-02
 -1      3634 3.28807E-02
 -1      3635 2.78735E-02
 -1      3636 3.42262E-02
 -1      3637 2.64868E-02
 -1      3638 2.43690E-02
 -1      3639 2.83620E-02
 -1      3640 2.51264E-02
 -1      3641 2.60630E-02
 -1      3642 2.77327E-02
 -1      3643 2.79855E-02
 -1      3644 3.23202E-02
 -1      3645 3.04126E-02
 -1      3646 3.80515E-02
 -1      3647 4.69038E-02
 -1      3648 3.80663E-02
 -1      3649 5.68603E-02
 -1      3650 6.82172E-02
 -1      3651 5.37541E-02
 -1      3652 8.08875E-02
 -1      3653 9.50069E-02
 -1      3654 7.63808E-02
 -1      3655 1.10959E-01
 -1      3656 1.28203E-01
 -1      3657 1.05003E-01
 -1      3658 1.47996E-01
 -1      3659 1.68526E-01
 -1      3660 1.40748E-01
 -1      3661 1.92649E-01
 -1      3662 2.16261E-01
 -1      3663 1.84666E-01
 -1      3664 2.45023E-01
 -1      3665 2.70897E-01
 -1      3666 2.37551E-01
 -1      3667 3.04233E-01
 -1      3668 3.32986E-01
 -1      3669 2.99650E-01
 -1      3670 3.70115E-01
 -1      3671 4.07244E-01
 -1      3672 3.70115E-01
 -1      3673 4.53550E-01
 -1      3674 5.07985E-01
 -1      3675 4.53550E-01
 -1      3676 5.74034E-01
 -1      3677 6.42851E-01
 -1      3678 5.65905E-01
 -1      3679 7.52234E-01
 -1      3680 8.34813E-01
 -1      3681 7.41337E-01
 -1      3682 9.94009E-01
 -1      3683 1.10098E+00
 -1      3684 1.00991E+00
 -1      3685 1.28416E+00
 -1      3686 1.44016E+00
 -1      3687 1.35229E+00
 -1      3688 1.64150E+00
 -1      3689 1.82619E+00
 -1      3690 1.73682E+00
 -1      3691 2.65882E+00
 -1      3692 3.28172E+00
 -1      3693 2.77079E+00
 -1      3694 2.56464E-01
 -1      3695 2.18582E-01
 -1      3696 2.99640E-02
 -1      3697 3.53017E-02
 -1      3698 4.03306E-02
 -1      3699 4.63276E-02
 -1      3700 3.72374E-02
 -1      3701 2.28655E-02
 -1      3702 2.20670E-02
 -1      3703 2.92019E-02
 -1      3704 2.46021E-02
 -1      3705 2.75379E-02
 -1      3706 4.45880E-02
 -1      3707 3.53540E-02
 -1      3708 3.54267E-02
 -1      3709 6.72601E-02
 -1      3710 5.51934E-02
 -1      3711 5.21843E-02
 -1      3712 9.80144E-02
 -1      3713 8.11910E-02
 -1      3714 7.67205E-02
 -1      3715 1.38482E-01
 -1      3716 1.16176E-01
 -1      3717 1.08813E-01
 -1      3718 1.91527E-01
 -1      3719 1.62054E-01
 -1      3720 1.50547E-01
 -1      3721 2.60769E-01
 -1      3722 2.21984E-01
 -1      3723 2.04576E-01
 -1      3724 3.50896E-01
 -1      3725 3.00022E-01
 -1      3726 2.74286E-01
 -1      3727 4.68223E-01
 -1      3728 4.01567E-01
 -1      3729 3.64210E-01
 -1      3730 6.21722E-01
 -1      3731 5.34195E-01
 -1      3732 4.80853E-01
 -1      3733 8.25006E-01
 -1      3734 7.09269E-01
 -1      3735 6.34372E-01
 -1      3736 1.10021E+00
 -1      3737 9.45050E-01
 -1      3738 8.41963E-01
 -1      3739 1.48662E+00
 -1      3740 1.27394E+00
 -1      3741 1.13574E+00
 -1      3742 2.02745E+00
 -1      3743 1.74421E+00
 -1      3744 1.56706E+00
 -1      3745 2.91952E+00
 -1      3746 2.40594E+00
 -1      3747 2.20314E+00
 -1      3748 2.53116E-01
 -1      3749 1.17846E-01
 -1      3750 1.33493E-01
 -1      3751 2.80347E-01
 -1      3752 1.59864E-01
 -1      3753 1.46556E-01
 -1      3754 1.73001E-01
 -1      3755 7.98672E-02
 -1      3756 8.85402E-02
 -1      3757 2.42059E-01
 -1      3758 2.46292E-01
 -1      3759 2.10692E-01
 -1      3760 1.84547E-01
 -1      3761 2.40712E+00
 -1      3762 2.15193E-02
 -1      3763 2.62125E-02
 -1      3764 2.52535E-02
 -1      3765 2.06200E-01
 -1      3766 2.24595E-01
 -1      3767 2.02464E-01
 -1      3768 1.48867E-01
 -1      3769 1.52656E-01
 -1      3770 1.29480E-01
 -1      3771 2.96002E+00
 -1      3772 1.41096E-01
 -1      3773 1.33181E-01
 -1      3774 1.52643E-01
 -1      3775 1.06736E-01
 -1      3776 4.83446E+00
 -1      3777 4.56763E+00
 -1      3778 3.94222E+00
 -1      3779 1.07922E-01
 -1      3780 5.94916E+00
 -1      3781 5.38215E+00
 -1      3782 4.94337E+00
 -1      3783 1.87959E-01
 -1      3784 1.87814E-01
 -1      3785 1.50147E-01
 -1      3786 1.45876E-01
 -1      3787 1.57706E-01
 -1      3788 4.05792E+00
 -1      3789 9.58235E-02
 -1      3790 1.05130E-01
 -1      3791 8.73528E-02
 -1      3792 3.28172E+00
 -1      3793 4.79189E-02
 -1      3794 5.19803E-02
 -1      3795 5.88268E-02
 -1      3796 3.86531E+00
 -1      3797 3.52741E+00
 -1      3798 4.49453E+00
 -1      3799 1.29368E-01
 -1      3800 1.37930E-01
 -1      3801 1.32253E-01
 -1      3802 1.85594E-01
 -1      3803 1.76042E-01
 -1      3804 1.28373E-01
 -1      3805 1.76752E-01
 -1      3806 6.51600E-02
 -1      3807 7.29514E-02
 -1      3808 5.99047E-02
 -1      3809 5.86574E+00
 -1      3810 7.38195E+00
 -1      3811 6.35031E+00
 -1      3812 5.06159E+00
 -1      3813 7.31537E-02
 -1      3814 1.84981E-01
 -1      3815 1.84981E-01
 -1      3816 1.87959E-01
 -1      3817 1.87959E-01
 -1      3818 1.71728E-01
 -1      3819 1.78411E-01
 -1      3820 1.46017E-01
 -1      3821 1.20361E-01
 -1      3822 2.84571E-02
 -1      3823 1.57152E-01
 -1      3824 1.18642E-01
 -1      3825 1.18315E-01
 -1      3826 1.19001E-01
 -1      3827 1.14593E-01
 -1      3828 1.02305E-01
 -1      3829 1.11905E-01
 -1      3830 1.05280E-01
 -1      3831 1.00303E-01
 -1      3832 1.00614E-01
 -1      3833 9.30459E-02
 -1      3834 9.29488E-02
 -1      3835 8.74551E-02
 -1      3836 8.12035E-02
 -1      3837 8.26917E-02
 -1      3838 7.54017E-02
 -1      3839 6.89966E-02
 -1      3840 7.12991E-02
 -1      3841 6.37602E-02
 -1      3842 5.75895E-02
 -1      3843 6.02610E-02
 -1      3844 5.29393E-02
 -1      3845 4.72744E-02
 -1      3846 5.03744E-02
 -1      3847 4.30707E-02
 -1      3848 3.80102E-02
 -1      3849 4.15204E-02
 -1      3850 3.52848E-02
 -1      3851 3.08073E-02
 -1      3852 3.45913E-02
 -1      3853 2.99144E-02
 -1      3854 2.85276E-02
 -1      3855 3.09730E-02
 -1      3856 2.89537E-02
 -1      3857 2.97111E-02
 -1      3858 3.05061E-02
 -1      3859 3.14143E-02
 -1      3860 3.33368E-02
 -1      3861 3.26353E-02
 -1      3862 3.66885E-02
 -1      3863 4.24198E-02
 -1      3864 3.76902E-02
 -1      3865 4.81540E-02
 -1      3866 5.81105E-02
 -1      3867 4.67763E-02
 -1      3868 6.72731E-02
 -1      3869 7.99434E-02
 -1      3870 6.16731E-02
 -1      3871 9.32656E-02
 -1      3872 1.09218E-01
 -1      3873 8.41580E-02
 -1      3874 1.26416E-01
 -1      3875 1.46210E-01
 -1      3876 1.14679E-01
 -1      3877 1.68234E-01
 -1      3878 1.92358E-01
 -1      3879 1.53902E-01
 -1      3880 2.20346E-01
 -1      3881 2.49108E-01
 -1      3882 2.03914E-01
 -1      3883 2.84405E-01
 -1      3884 3.17741E-01
 -1      3885 2.67199E-01
 -1      3886 3.61880E-01
 -1      3887 3.99009E-01
 -1      3888 3.46635E-01
 -1      3889 4.53550E-01
 -1      3890 4.99856E-01
 -1      3891 4.45315E-01
 -1      3892 5.65905E-01
 -1      3893 6.31954E-01
 -1      3894 5.65905E-01
 -1      3895 7.27121E-01
 -1      3896 8.36504E-01
 -1      3897 7.27121E-01
 -1      3898 9.87547E-01
 -1      3899 1.14674E+00
 -1      3900 9.73331E-01
 -1      3901 1.39572E+00
 -1      3902 1.57891E+00
 -1      3903 1.37336E+00
 -1      3904 1.91453E+00
 -1      3905 2.11587E+00
 -1      3906 1.95796E+00
 -1      3907 2.68780E-02
 -1      3908 3.06294E-02
 -1      3909 1.63535E-01
 -1      3910 1.73916E-01
 -1      3911 1.46028E-01
 -1      3912 1.75559E-01
 -1      3913 1.82048E-01
 -1      3914 1.49847E-01
 -1      3915 1.53500E-01
 -1      3916 3.91165E-02
 -1      3917 3.29643E-02
 -1      3918 3.03730E-02
 -1      3919 2.86363E-02
 -1      3920 3.40627E-02
 -1      3921 8.05776E-02
 -1      3922 6.66467E-02
 -1      3923 1.12131E-01
 -1      3924 9.39694E-02
 -1      3925 8.38956E-02
 -1      3926 1.52723E-01
 -1      3927 1.29151E-01
 -1      3928 1.14307E-01
 -1      3929 2.04585E-01
 -1      3930 1.74128E-01
 -1      3931 1.52732E-01
 -1      3932 2.70505E-01
 -1      3933 2.31252E-01
 -1      3934 2.00804E-01
 -1      3935 3.54191E-01
 -1      3936 3.03520E-01
 -1      3937 2.60486E-01
 -1      3938 4.63806E-01
 -1      3939 3.97834E-01
 -1      3940 3.37144E-01
 -1      3941 6.10564E-01
 -1      3942 5.23017E-01
 -1      3943 4.39998E-01
 -1      3944 8.16147E-01
 -1      3945 6.96104E-01
 -1      3946 5.84748E-01
 -1      3947 1.11398E+00
 -1      3948 9.40249E-01
 -1      3949 7.94390E-01
 -1      3950 1.55468E+00
 -1      3951 1.29710E+00
 -1      3952 1.10161E+00
 -1      3953 2.12703E+00
 -1      3954 1.74854E+00
 -1      3955 1.47858E+00
 -1      3956 1.85307E-01
 -1      3957 1.86002E-01
 -1      3958 1.52913E-01
 -1      3959 1.06942E-01
 -1      3960 1.13127E-01
 -1      3961 9.61038E-02
 -1      3962 6.45159E-02
 -1      3963 7.14317E-02
 -1      3964 1.12138E-01
 -1      3965 1.21541E-01
 -1      3966 1.16480E-01
 -1      3967 1.01645E-01
 -1      3968 5.62145E-02
 -1      3969 4.56092E-02
 -1      3970 4.31467E-02
 -1      3971 3.28339E-02
 -1      3972 3.78628E-02
 -1      3973 3.12548E-02
 -1      3974 2.74197E-02
 -1      3975 2.68720E-02
 -1      3976 2.90442E-02
 -1      3977 1.55195E-01
 -1      3978 5.81433E+00
 -1      3979 5.00919E+00
 -1      3980 4.18017E+00
 -1      3981 3.81480E+00
 -1      3982 1.25821E-01
 -1      3983 6.78318E-02
 -1      3984 7.64696E-02
 -1      3985 8.37529E-02
 -1      3986 1.27013E-01
 -1      3987 1.28970E-01
 -1      3988 2.77079E+00
 -1      3989 3.60342E+00
 -1      3990 6.00717E-02
 -1      3991 1.24851E-01
 -1      3992 3.83067E+00
 -1      3993 3.83067E+00
 -1      3994 4.22076E-02
 -1      3995 4.78603E-02
 -1      3996 3.78041E-02
 -1      3997 3.02548E-02
 -1      3998 3.42853E+00
 -1      3999 2.97393E+00
 -1      4000 4.37431E+00
 -1      4001 1.26688E-01
 -1      4002 1.27013E-01
 -1      4003 1.00788E-01
 -1      4004 3.43907E+00
 -1      4005 1.02660E-01
 -1      4006 1.16286E-01
 -1      4007 1.18838E-01
 -1      4008 1.17127E-01
 -1      4009 1.25073E-01
 -1      4010 9.49795E-02
 -1      4011 1.10353E-01
 -1      4012 3.71497E+00
 -1      4013 5.91168E-02
 -1      4014 5.73948E-02
 -1      4015 5.27836E-02
 -1      4016 1.29648E-01
 -1      4017 1.35477E-01
 -1      4018 1.14521E-01
 -1      4019 1.22856E-01
 -1      4020 9.69564E-02
 -1      4021 2.94850E+00
 -1      4022 9.39993E-02
 -1      4023 1.24083E-01
 -1      4024 9.83701E-02
 -1      4025 1.29379E-01
 -1      4026 1.16390E-01
 -1      4027 1.09210E-01
 -1      4028 1.08563E-01
 -1      4029 9.22858E-02
 -1      4030 8.95978E-02
 -1      4031 8.47052E-02
 -1      4032 8.00390E-02
 -1      4033 7.66880E-02
 -1      4034 9.21743E-02
 -1      4035 8.65835E-02
 -1      4036 8.39308E-02
 -1      4037 7.16113E-02
 -1      4038 6.58095E-02
 -1      4039 8.10939E-02
 -1      4040 6.10944E-02
 -1      4041 5.58580E-02
 -1      4042 6.14066E-02
 -1      4043 5.06298E-02
 -1      4044 4.59796E-02
 -1      4045 5.14632E-02
 -1      4046 4.23768E-02
 -1      4047 3.81731E-02
 -1      4048 4.26323E-02
 -1      4049 4.10659E-02
 -1      4050 3.83405E-02
 -1      4051 4.19222E-02
 -1      4052 3.18659E-02
 -1      4053 3.09730E-02
 -1      4054 3.83405E-02
 -1      4055 3.05061E-02
 -1      4056 3.09321E-02
 -1      4057 3.13990E-02
 -1      4058 3.26353E-02
 -1      4059 3.43385E-02
 -1      4060 3.26353E-02
 -1      4061 3.76902E-02
 -1      4062 4.10420E-02
 -1      4063 3.76902E-02
 -1      4064 4.67763E-02
 -1      4065 5.25105E-02
 -1      4066 4.67763E-02
 -1      4067 6.06727E-02
 -1      4068 6.98353E-02
 -1      4069 6.06727E-02
 -1      4070 8.24550E-02
 -1      4071 9.57772E-02
 -1      4072 8.14546E-02
 -1      4073 1.12912E-01
 -1      4074 1.30111E-01
 -1      4075 1.11209E-01
 -1      4076 1.53341E-01
 -1      4077 1.75365E-01
 -1      4078 1.51574E-01
 -1      4079 2.06976E-01
 -1      4080 2.34963E-01
 -1      4081 2.06414E-01
 -1      4082 2.78333E-01
 -1      4083 3.13631E-01
 -1      4084 2.81395E-01
 -1      4085 3.73834E-01
 -1      4086 4.17973E-01
 -1      4087 3.84968E-01
 -1      4088 5.02741E-01
 -1      4089 5.57282E-01
 -1      4090 5.29940E-01
 -1      4091 6.78473E-01
 -1      4092 7.44521E-01
 -1      4093 7.35899E-01
 -1      4094 9.20097E-01
 -1      4095 1.01526E+00
 -1      4096 1.03266E+00
 -1      4097 1.27014E+00
 -1      4098 1.42118E+00
 -1      4099 1.46311E+00
 -1      4100 1.67398E+00
 -1      4101 1.92296E+00
 -1      4102 1.97078E+00
 -1      4103 1.96846E+00
 -1      4104 2.30408E+00
 -1      4105 2.26908E+00
 -1      4106 6.59565E-02
 -1      4107 5.55243E-02
 -1      4108 9.90989E-02
 -1      4109 1.27281E-01
 -1      4110 3.66540E-02
 -1      4111 3.40627E-02
 -1      4112 4.91030E+00
 -1      4113 1.20169E-01
 -1      4114 1.03149E-01
 -1      4115 8.95563E-02
 -1      4116 7.61645E-02
 -1      4117 7.16172E-02
 -1      4118 9.54175E-02
 -1      4119 2.08968E-01
 -1      4120 1.82301E-01
 -1      4121 2.71441E-01
 -1      4122 2.38425E-01
 -1      4123 2.19922E-01
 -1      4124 3.52817E-01
 -1      4125 3.09174E-01
 -1      4126 2.87114E-01
 -1      4127 4.72190E-01
 -1      4128 4.12980E-01
 -1      4129 3.85010E-01
 -1      4130 6.49216E-01
 -1      4131 5.63676E-01
 -1      4132 5.36658E-01
 -1      4133 9.37132E-01
 -1      4134 8.13029E-01
 -1      4135 7.91957E-01
 -1      4136 1.38489E+00
 -1      4137 1.20178E+00
 -1      4138 1.22042E+00
 -1      4139 1.91062E+00
 -1      4140 1.71676E+00
 -1      4141 1.81693E+00
 -1      4142 2.83620E+00
 -1      4143 3.59940E+00
 -1      4144 1.24851E-01
 -1      4145 2.95507E+00
 -1      4146 3.06662E+00
 -1      4147 2.67916E+00
 -1      4148 2.30015E+00
 -1      4149 8.21602E-02
 -1      4150 8.21602E-02
 -1      4151 3.14715E-02
 -1      4152 3.02548E-02
 -1      4153 3.40627E-02
 -1      4154 4.42671E+00
 -1      4155 2.91459E-02
 -1      4156 2.91519E-02
 -1      4157 3.03625E-02
 -1      4158 1.59344E-01
 -1      4159 1.37939E-01
 -1      4160 1.67507E-01
 -1      4161 3.69326E-02
 -1      4162 3.91372E-02
 -1      4163 3.70343E-02
 -1      4164 9.44065E-02
 -1      4165 9.82379E-02
 -1      4166 7.96102E-02
 -1      4167 9.96515E-02
 -1      4168 9.59535E-02
 -1      4169 9.66396E-02
 -1      4170 8.59344E-02
 -1      4171 7.82289E-02
 -1      4172 8.37438E-02
 -1      4173 7.80786E-02
 -1      4174 9.56883E-02
 -1      4175 4.82433E-02
 -1      4176 4.17505E-02
 -1      4177 5.41281E-02
 -1      4178 4.17505E-02
 -1      4179 6.44578E-02
 -1      4180 6.94957E-02
 -1      4181 7.70606E-02
 -1      4182 2.31065E+00
 -1      4183 3.83067E+00
 -1      4184 2.31065E+00
 -1      4185 2.68309E+00
 -1      4186 2.46770E+00
 -1      4187 2.31459E+00
 -1      4188 3.81423E-02
 -1      4189 4.24871E-02
 -1      4190 4.38201E-02
 -1      4191 1.35477E-01
 -1      4192 1.37120E-01
 -1      4193 1.11356E-01
 -1      4194 1.19097E-01
 -1      4195 4.70723E-02
 -1      4196 1.26780E-01
 -1      4197 1.99351E+00
 -1      4198 2.23169E+00
 -1      4199 3.29500E+00
 -1      4200 5.97427E-02
 -1      4201 6.14066E-02
 -1      4202 5.43435E-02
 -1      4203 6.47007E-02
 -1      4204 1.01555E-01
 -1      4205 1.08563E-01
 -1      4206 1.08473E-01
 -1      4207 9.66389E-02
 -1      4208 9.73754E-02
 -1      4209 1.00117E-01
 -1      4210 1.04692E-01
 -1      4211 8.75464E-02
 -1      4212 9.06715E-02
 -1      4213 8.44679E-02
 -1      4214 1.02270E-01
 -1      4215 8.10939E-02
 -1      4216 9.24828E-02
 -1      4217 1.04692E-01
 -1      4218 9.01344E-02
 -1      4219 1.02270E-01
 -1      4220 9.60661E-02
 -1      4221 8.10939E-02
 -1      4222 6.61217E-02
 -1      4223 6.14066E-02
 -1      4224 5.66914E-02
 -1      4225 5.14632E-02
 -1      4226 4.19222E-02
 -1      4227 4.48150E-02
 -1      4228 4.48150E-02
 -1      4229 3.83405E-02
 -1      4230 3.05597E-02
 -1      4231 3.00928E-02
 -1      4232 3.12018E-02
 -1      4233 3.29050E-02
 -1      4234 3.54962E-02
 -1      4235 3.88480E-02
 -1      4236 4.39446E-02
 -1      4237 4.96788E-02
 -1      4238 5.69598E-02
 -1      4239 6.51221E-02
 -1      4240 7.53301E-02
 -1      4241 8.79497E-02
 -1      4242 1.01542E-01
 -1      4243 1.18677E-01
 -1      4244 1.36447E-01
 -1      4245 1.59677E-01
 -1      4246 1.82634E-01
 -1      4247 2.14245E-01
 -1      4248 2.43702E-01
 -1      4249 2.87072E-01
 -1      4250 3.24806E-01
 -1      4251 3.85010E-01
 -1      4252 4.45172E-01
 -1      4253 5.29940E-01
 -1      4254 6.21426E-01
 -1      4255 7.42616E-01
 -1      4256 9.06430E-01
 -1      4257 1.08201E+00
 -1      4258 1.34665E+00
 -1      4259 1.60152E+00
 -1      4260 1.93339E+00
 -1      4261 2.18619E+00
 -1      4262 2.26908E+00
 -1      4263 2.31459E+00
 -1      4264 3.44812E+00
 -1      4265 9.02883E-02
 -1      4266 8.59344E-02
 -1      4267 1.08473E-01
 -1      4268 9.66389E-02
 -1      4269 4.08939E-02
 -1      4270 4.58172E-02
 -1      4271 4.12320E-02
 -1      4272 2.46770E+00
 -1      4273 1.08473E-01
 -1      4274 9.13146E-02
 -1      4275 8.31926E-02
 -1      4276 7.83000E-02
 -1      4277 1.02270E-01
 -1      4278 4.25197E-02
 -1      4279 3.89169E-02
 -1      4280 1.04692E-01
 -1      4281 4.81651E-02
 -1      4282 1.07392E-01
 -1      4283 1.07392E-01
 -1      4284 4.18097E-02
 -1      4285 1.19097E-01
 -1      4286 4.48150E-02
 -1      4287 1.19097E-01
 -1      4288 4.77479E-02
 -1      4289 3.92216E-02
 -1      4290 2.31459E+00
 -1      4291 4.22269E-02
 -1      4292 4.38201E-02
 -3
 9999
